<?xml version="1.0"?>
<VTKFile type="UnstructuredGrid" version="0.1" byte_order="LittleEndian">
<UnstructuredGrid>
<Piece NumberOfPoints="3142" NumberOfCells="1054">
<Points>
<DataArray type="Float64" NumberOfComponents="3" format="ascii">
0.02576622439977887 0.024532886826226379 0 0 0 0 0.049999999999899652 0 0 0.02576622439977887 0.024532886826226379 0 0 0 0 0 0.050000000000207989 0 0.02576622439977887 0.024532886826226379 0 0.049999999999899652 0 0 0.053064897599215843 0.048131547304697528 0 0.02576622439977887 0.024532886826226379 0 0.053064897599215843 0.048131547304697528 0 0 0.050000000000207989 0 0 0.050000000000207989 0 0 0.10000000000041601 0 0.044310582753132287 0.101412518374475 0 0 0.10000000000041601 0 0.044310582753132287 0.101412518374475 0 0 0.15000000000062411 0 0.053064897599215843 0.048131547304697528 0 0.044310582753132287 0.101412518374475 0 0.083411279318303222 0.089699755330707398 0 0.053064897599215843 0.048131547304697528 0 0 0.050000000000207989 0 0.044310582753132287 0.101412518374475 0 0.044310582753132287 0.101412518374475 0 0.083411279318303222 0.089699755330707398 0 0.065374659239632718 0.1448908038746782 0 0.083411279318303222 0.089699755330707398 0 0.065374659239632718 0.1448908038746782 0 0.1053400320299198 0.12877248826361379 0 0.083411279318303222 0.089699755330707398 0 0.12372429750337779 0.095814237875728972 0 0.1053400320299198 0.12877248826361379 0 0.12372429750337779 0.095814237875728972 0 0.1053400320299198 0.12877248826361379 0 0.14332333627550789 0.14578431753966009 0 0.12372429750337779 0.095814237875728972 0 0.10266856499169109 0.044518360900210059 0 0.14618258501891079 0.062070108745602003 0 0.083411279318303222 0.089699755330707398 0 0.12372429750337779 0.095814237875728972 0 0.10266856499169109 0.044518360900210059 0 0.10266856499169109 0.044518360900210059 0 0.099999999999814668 0 0 0.14999999999970359 0 0 0.049999999999899652 0 0 0.053064897599215843 0.048131547304697528 0 0.099999999999814668 0 0 0.053064897599215843 0.048131547304697528 0 0.10266856499169109 0.044518360900210059 0 0.099999999999814668 0 0 0.053064897599215843 0.048131547304697528 0 0.083411279318303222 0.089699755330707398 0 0.10266856499169109 0.044518360900210059 0 0.044081577119474857 0.2271058242433576 0 0 0.20000000000083221 0 0 0.25000000000104028 0 0.044081577119474857 0.2271058242433576 0 0 0.20000000000083221 0 0.038512288486115001 0.1844147282893184 0 0.044081577119474857 0.2271058242433576 0 0.038512288486115001 0.1844147282893184 0 0.083105206071467416 0.20007701332709979 0 0.038512288486115001 0.1844147282893184 0 0 0.15000000000062411 0 0.065374659239632718 0.1448908038746782 0 0.044310582753132287 0.101412518374475 0 0 0.15000000000062411 0 0.065374659239632718 0.1448908038746782 0 0.038512288486115001 0.1844147282893184 0 0.065374659239632718 0.1448908038746782 0 0.083105206071467416 0.20007701332709979 0 0 0.20000000000083221 0 0.038512288486115001 0.1844147282893184 0 0 0.15000000000062411 0 0.065374659239632718 0.1448908038746782 0 0.1053400320299198 0.12877248826361379 0 0.106902708054812 0.16453234188234539 0 0.1053400320299198 0.12877248826361379 0 0.106902708054812 0.16453234188234539 0 0.14332333627550789 0.14578431753966009 0 0.065374659239632718 0.1448908038746782 0 0.106902708054812 0.16453234188234539 0 0.083105206071467416 0.20007701332709979 0 0.083105206071467416 0.20007701332709979 0 0.095326043202144745 0.24554465089224409 0 0.13737030665753211 0.20313708640667491 0 0.106902708054812 0.16453234188234539 0 0.083105206071467416 0.20007701332709979 0 0.13737030665753211 0.20313708640667491 0 0.044081577119474857 0.2271058242433576 0 0.083105206071467416 0.20007701332709979 0 0.095326043202144745 0.24554465089224409 0 0.044081577119474857 0.2271058242433576 0 0.095326043202144745 0.24554465089224409 0 0.049706944316556423 0.27522722923869108 0 0.095326043202144745 0.24554465089224409 0 0.14377654328998779 0.2442024734791064 0 0.13737030665753211 0.20313708640667491 0 0.17933913398461551 0.2350063570234002 0 0.14377654328998779 0.2442024734791064 0 0.13737030665753211 0.20313708640667491 0 0.17933913398461551 0.2350063570234002 0 0.13737030665753211 0.20313708640667491 0 0.18124454140915969 0.18790916706335251 0 0.18124454140915969 0.18790916706335251 0 0.14332333627550789 0.14578431753966009 0 0.18652628422869419 0.14162325200928061 0 0.106902708054812 0.16453234188234539 0 0.13737030665753211 0.20313708640667491 0 0.14332333627550789 0.14578431753966009 0 0.13737030665753211 0.20313708640667491 0 0.18124454140915969 0.18790916706335251 0 0.14332333627550789 0.14578431753966009 0 0.14332333627550789 0.14578431753966009 0 0.18652628422869419 0.14162325200928061 0 0.16141998738593399 0.10404039647458049 0 0.18652628422869419 0.14162325200928061 0 0.22985637510995899 0.1298347970200906 0 0.2185883431182947 0.18019736283949719 0 0.22985637510995899 0.1298347970200906 0 0.2185883431182947 0.18019736283949719 0 0.25557216766470708 0.15874861286892261 0 0.2185883431182947 0.18019736283949719 0 0.25557216766470708 0.15874861286892261 0 0.26429849586623999 0.19346700179430079 0 0.18124454140915969 0.18790916706335251 0 0.18652628422869419 0.14162325200928061 0 0.2185883431182947 0.18019736283949719 0 0.17933913398461551 0.2350063570234002 0 0.18124454140915969 0.18790916706335251 0 0.224700362040408 0.22206622194729711 0 0.18124454140915969 0.18790916706335251 0 0.2185883431182947 0.18019736283949719 0 0.224700362040408 0.22206622194729711 0 0.2185883431182947 0.18019736283949719 0 0.224700362040408 0.22206622194729711 0 0.26429849586623999 0.19346700179430079 0 0.224700362040408 0.22206622194729711 0 0.25195515620380449 0.25883339815888678 0 0.21049769590865089 0.26857363548218488 0 0.17933913398461551 0.2350063570234002 0 0.224700362040408 0.22206622194729711 0 0.21049769590865089 0.26857363548218488 0 0.184418230509967 0.038773194583122873 0 0.14999999999970359 0 0 0.14618258501891079 0.062070108745602003 0 0.184418230509967 0.038773194583122873 0 0.14618258501891079 0.062070108745602003 0 0.19922788606653311 0.085920220746880993 0 0.184418230509967 0.038773194583122873 0 0.14999999999970359 0 0 0.19999999999955789 0 0 0.10266856499169109 0.044518360900210059 0 0.14999999999970359 0 0 0.14618258501891079 0.062070108745602003 0 0.12372429750337779 0.095814237875728972 0 0.14618258501891079 0.062070108745602003 0 0.16141998738593399 0.10404039647458049 0 0.12372429750337779 0.095814237875728972 0 0.14332333627550789 0.14578431753966009 0 0.16141998738593399 0.10404039647458049 0 0.18652628422869419 0.14162325200928061 0 0.16141998738593399 0.10404039647458049 0 0.19922788606653311 0.085920220746880993 0 0.14618258501891079 0.062070108745602003 0 0.16141998738593399 0.10404039647458049 0 0.19922788606653311 0.085920220746880993 0 0.18652628422869419 0.14162325200928061 0 0.22985637510995899 0.1298347970200906 0 0.19922788606653311 0.085920220746880993 0 0.22985637510995899 0.1298347970200906 0 0.19922788606653311 0.085920220746880993 0 0.24218496799700481 0.089025544070598317 0 0.22985637510995899 0.1298347970200906 0 0.24218496799700481 0.089025544070598317 0 0.27474541102162192 0.11822029332053539 0 0.19922788606653311 0.085920220746880993 0 0.24218496799700481 0.089025544070598317 0 0.22668068146512929 0.045875643423131329 0 0.24218496799700481 0.089025544070598317 0 0.22668068146512929 0.045875643423131329 0 0.27499999999933927 0.060310814194988557 0 0.184418230509967 0.038773194583122873 0 0.19922788606653311 0.085920220746880993 0 0.22668068146512929 0.045875643423131329 0 0.184418230509967 0.038773194583122873 0 0.22668068146512929 0.045875643423131329 0 0.19999999999955789 0 0 0.22668068146512929 0.045875643423131329 0 0.19999999999955789 0 0 0.24999999999941211 0 0 0.24999999999941211 0 0 0.27499999999933927 0.060310814194988557 0 0.29999999999926641 0 0 0.22668068146512929 0.045875643423131329 0 0.24999999999941211 0 0 0.27499999999933927 0.060310814194988557 0 0.27499999999933927 0.060310814194988557 0 0.29999999999926641 0 0 0.32541448401678508 0.046215317981507749 0 0.29999999999926641 0 0 0.32541448401678508 0.046215317981507749 0 0.34999999999912063 0 0 0.32541448401678508 0.046215317981507749 0 0.3615861437013822 0.03582617922508851 0 0.35312867752657662 0.084946736076730367 0 0.3615861437013822 0.03582617922508851 0 0.35312867752657662 0.084946736076730367 0 0.39591832466117061 0.056982757562006353 0 0.32541448401678508 0.046215317981507749 0 0.3615861437013822 0.03582617922508851 0 0.34999999999912063 0 0 0.3615861437013822 0.03582617922508851 0 0.34999999999912063 0 0 0.3999999999989749 0 0 0.35312867752657662 0.084946736076730367 0 0.36246644853392812 0.1399454205365751 0 0.39823268594401579 0.1116623613130045 0 0.35312867752657662 0.084946736076730367 0 0.32215584939770009 0.1218492143506909 0 0.36246644853392812 0.1399454205365751 0 0.32541448401678508 0.046215317981507749 0 0.35312867752657662 0.084946736076730367 0 0.3096713403101819 0.085471541595262421 0 0.35312867752657662 0.084946736076730367 0 0.32215584939770009 0.1218492143506909 0 0.3096713403101819 0.085471541595262421 0 0.32215584939770009 0.1218492143506909 0 0.3096713403101819 0.085471541595262421 0 0.27474541102162192 0.11822029332053539 0 0.27499999999933927 0.060310814194988557 0 0.32541448401678508 0.046215317981507749 0 0.3096713403101819 0.085471541595262421 0 0.27499999999933927 0.060310814194988557 0 0.3096713403101819 0.085471541595262421 0 0.27474541102162192 0.11822029332053539 0 0.24218496799700481 0.089025544070598317 0 0.27499999999933927 0.060310814194988557 0 0.27474541102162192 0.11822029332053539 0 0.22985637510995899 0.1298347970200906 0 0.27474541102162192 0.11822029332053539 0 0.25557216766470708 0.15874861286892261 0 0.27474541102162192 0.11822029332053539 0 0.25557216766470708 0.15874861286892261 0 0.29336099386129338 0.15892013001050981 0 0.25557216766470708 0.15874861286892261 0 0.29336099386129338 0.15892013001050981 0 0.26429849586623999 0.19346700179430079 0 0.29336099386129338 0.15892013001050981 0 0.31255190597181792 0.19850845631528771 0 0.33084213324567391 0.16272720141332131 0 0.29336099386129338 0.15892013001050981 0 0.26429849586623999 0.19346700179430079 0 0.31255190597181792 0.19850845631528771 0 0.32215584939770009 0.1218492143506909 0 0.27474541102162192 0.11822029332053539 0 0.29336099386129338 0.15892013001050981 0 0.224700362040408 0.22206622194729711 0 0.28040350263641872 0.23054717217092141 0 0.25195515620380449 0.25883339815888678 0 0.224700362040408 0.22206622194729711 0 0.28040350263641872 0.23054717217092141 0 0.26429849586623999 0.19346700179430079 0 0.28040350263641872 0.23054717217092141 0 0.26429849586623999 0.19346700179430079 0 0.31255190597181792 0.19850845631528771 0 0.28040350263641872 0.23054717217092141 0 0.33758650185219202 0.23837101504325639 0 0.29132859388405002 0.27203693976649962 0 0.28040350263641872 0.23054717217092141 0 0.33758650185219202 0.23837101504325639 0 0.31255190597181792 0.19850845631528771 0 0.33758650185219202 0.23837101504325639 0 0.31255190597181792 0.19850845631528771 0 0.3572130504031617 0.1874703368446563 0 0.33758650185219202 0.23837101504325639 0 0.3572130504031617 0.1874703368446563 0 0.38831533174504851 0.2189834941785925 0 0.33758650185219202 0.23837101504325639 0 0.38831533174504851 0.2189834941785925 0 0.3786248352540974 0.27082301512024259 0 0.32215584939770009 0.1218492143506909 0 0.29336099386129338 0.15892013001050981 0 0.33084213324567391 0.16272720141332131 0 0.32215584939770009 0.1218492143506909 0 0.33084213324567391 0.16272720141332131 0 0.36246644853392812 0.1399454205365751 0 0.31255190597181792 0.19850845631528771 0 0.33084213324567391 0.16272720141332131 0 0.3572130504031617 0.1874703368446563 0 0.3572130504031617 0.1874703368446563 0 0.36246644853392812 0.1399454205365751 0 0.39801143831225599 0.16651381068160659 0 0.33084213324567391 0.16272720141332131 0 0.3572130504031617 0.1874703368446563 0 0.36246644853392812 0.1399454205365751 0 0.36246644853392812 0.1399454205365751 0 0.39801143831225599 0.16651381068160659 0 0.39823268594401579 0.1116623613130045 0 0.39801143831225599 0.16651381068160659 0 0.42905200079338551 0.19982395548231649 0 0.44288491854585582 0.14116182884956319 0 0.39801143831225599 0.16651381068160659 0 0.44288491854585582 0.14116182884956319 0 0.39823268594401579 0.1116623613130045 0 0.38831533174504851 0.2189834941785925 0 0.42377727103934271 0.25099357235810238 0 0.3786248352540974 0.27082301512024259 0 0.3572130504031617 0.1874703368446563 0 0.39801143831225599 0.16651381068160659 0 0.38831533174504851 0.2189834941785925 0 0.39801143831225599 0.16651381068160659 0 0.38831533174504851 0.2189834941785925 0 0.42905200079338551 0.19982395548231649 0 0.38831533174504851 0.2189834941785925 0 0.42905200079338551 0.19982395548231649 0 0.42377727103934271 0.25099357235810238 0 0.42905200079338551 0.19982395548231649 0 0.46429753744194407 0.22870891180733599 0 0.42377727103934271 0.25099357235810238 0 0.42905200079338551 0.19982395548231649 0 0.46429753744194407 0.22870891180733599 0 0.47357141910802508 0.1873585799078378 0 0.47357141910802508 0.1873585799078378 0 0.51729576145820033 0.1683240575987815 0 0.50760557329222289 0.20700468884612061 0 0.46429753744194407 0.22870891180733599 0 0.47357141910802508 0.1873585799078378 0 0.50760557329222289 0.20700468884612061 0 0.46429753744194407 0.22870891180733599 0 0.49695729691142171 0.25014895411178018 0 0.50760557329222289 0.20700468884612061 0 0.44288491854585582 0.14116182884956319 0 0.47357141910802508 0.1873585799078378 0 0.48466639505193998 0.1421439844745814 0 0.42905200079338551 0.19982395548231649 0 0.44288491854585582 0.14116182884956319 0 0.47357141910802508 0.1873585799078378 0 0.47357141910802508 0.1873585799078378 0 0.48466639505193998 0.1421439844745814 0 0.51729576145820033 0.1683240575987815 0 0.44288491854585582 0.14116182884956319 0 0.48466639505193998 0.1421439844745814 0 0.47881186583059909 0.093591717165689425 0 0.48466639505193998 0.1421439844745814 0 0.47881186583059909 0.093591717165689425 0 0.51076801031701946 0.1202837388510348 0 0.44288491854585582 0.14116182884956319 0 0.47881186583059909 0.093591717165689425 0 0.43698630808430822 0.080423614171545449 0 0.47881186583059909 0.093591717165689425 0 0.47040171442036788 0.044141676406503738 0 0.43698630808430822 0.080423614171545449 0 0.47881186583059909 0.093591717165689425 0 0.47040171442036788 0.044141676406503738 0 0.52375890611712683 0.059318771819432882 0 0.47040171442036788 0.044141676406503738 0 0.49999999999869432 0 0 0.52375890611712683 0.059318771819432882 0 0.47040171442036788 0.044141676406503738 0 0.49999999999869432 0 0 0.44999999999882923 0 0 0.47040171442036788 0.044141676406503738 0 0.44999999999882923 0 0 0.4320097814748517 0.037406712692169303 0 0.47040171442036788 0.044141676406503738 0 0.4320097814748517 0.037406712692169303 0 0.43698630808430822 0.080423614171545449 0 0.4320097814748517 0.037406712692169303 0 0.3999999999989749 0 0 0.39591832466117061 0.056982757562006353 0 0.4320097814748517 0.037406712692169303 0 0.39591832466117061 0.056982757562006353 0 0.43698630808430822 0.080423614171545449 0 0.44999999999882923 0 0 0.4320097814748517 0.037406712692169303 0 0.3999999999989749 0 0 0.3615861437013822 0.03582617922508851 0 0.3999999999989749 0 0 0.39591832466117061 0.056982757562006353 0 0.35312867752657662 0.084946736076730367 0 0.39591832466117061 0.056982757562006353 0 0.39823268594401579 0.1116623613130045 0 0.44288491854585582 0.14116182884956319 0 0.39823268594401579 0.1116623613130045 0 0.43698630808430822 0.080423614171545449 0 0.39591832466117061 0.056982757562006353 0 0.39823268594401579 0.1116623613130045 0 0.43698630808430822 0.080423614171545449 0 0.42161023666869668 0.39493916313643851 0 0.38707855792647411 0.42299362914874578 0 0.43249999999999988 0.43937499999999979 0 0.42161023666869668 0.39493916313643851 0 0.38083244760691543 0.38531983672244652 0 0.38707855792647411 0.42299362914874578 0 0.42161023666869668 0.39493916313643851 0 0.38083244760691543 0.38531983672244652 0 0.40076539126862748 0.34589349467022118 0 0.38707855792647411 0.42299362914874578 0 0.3908716102680424 0.47010282357248828 0 0.43249999999999988 0.43937499999999979 0 0.3908716102680424 0.47010282357248828 0 0.43507373378304309 0.49699695397193322 0 0.38244435121258652 0.51653317813019495 0 0.3908716102680424 0.47010282357248828 0 0.43507373378304309 0.49699695397193322 0 0.43249999999999988 0.43937499999999979 0 0.43507373378304309 0.49699695397193322 0 0.43249999999999988 0.43937499999999979 0 0.46111841286828259 0.46690301029591341 0 0.43249999999999988 0.43937499999999979 0 0.46111841286828259 0.46690301029591341 0 0.48858720058566618 0.43964267759203868 0 0.43507373378304309 0.49699695397193322 0 0.46111841286828259 0.46690301029591341 0 0.49102375406324739 0.49123754822244059 0 0.46111841286828259 0.46690301029591341 0 0.49102375406324739 0.49123754822244059 0 0.48858720058566618 0.43964267759203868 0 0.48858720058566618 0.43964267759203868 0 0.46655310992796922 0.39650496622958609 0 0.52289427570932567 0.3932284363388488 0 0.43249999999999988 0.43937499999999979 0 0.48858720058566618 0.43964267759203868 0 0.46655310992796922 0.39650496622958609 0 0.42161023666869668 0.39493916313643851 0 0.43249999999999988 0.43937499999999979 0 0.46655310992796922 0.39650496622958609 0 0.42161023666869668 0.39493916313643851 0 0.46655310992796922 0.39650496622958609 0 0.4409427642593301 0.35743108089689513 0 0.46655310992796922 0.39650496622958609 0 0.49077833859261139 0.35229981449445641 0 0.52289427570932567 0.3932284363388488 0 0.49077833859261139 0.35229981449445641 0 0.46226845272279993 0.31901800744800313 0 0.5 0.29999999999999999 0 0.49077833859261139 0.35229981449445641 0 0.46226845272279993 0.31901800744800313 0 0.4409427642593301 0.35743108089689513 0 0.46226845272279993 0.31901800744800313 0 0.4409427642593301 0.35743108089689513 0 0.41914690343363781 0.30688979866601612 0 0.46655310992796922 0.39650496622958609 0 0.49077833859261139 0.35229981449445641 0 0.4409427642593301 0.35743108089689513 0 0.49695729691142171 0.25014895411178018 0 0.4604742573284204 0.27846934318264788 0 0.5 0.29999999999999999 0 0.46429753744194407 0.22870891180733599 0 0.49695729691142171 0.25014895411178018 0 0.4604742573284204 0.27846934318264788 0 0.46226845272279993 0.31901800744800313 0 0.4604742573284204 0.27846934318264788 0 0.5 0.29999999999999999 0 0.46226845272279993 0.31901800744800313 0 0.4604742573284204 0.27846934318264788 0 0.41914690343363781 0.30688979866601612 0 0.46429753744194407 0.22870891180733599 0 0.4604742573284204 0.27846934318264788 0 0.42377727103934271 0.25099357235810238 0 0.4604742573284204 0.27846934318264788 0 0.42377727103934271 0.25099357235810238 0 0.41914690343363781 0.30688979866601612 0 0.42377727103934271 0.25099357235810238 0 0.41914690343363781 0.30688979866601612 0 0.3786248352540974 0.27082301512024259 0 0.41914690343363781 0.30688979866601612 0 0.3786248352540974 0.27082301512024259 0 0.36575549820117997 0.31677992835137742 0 0.42161023666869668 0.39493916313643851 0 0.4409427642593301 0.35743108089689513 0 0.40076539126862748 0.34589349467022118 0 0.4409427642593301 0.35743108089689513 0 0.41914690343363781 0.30688979866601612 0 0.40076539126862748 0.34589349467022118 0 0.41914690343363781 0.30688979866601612 0 0.40076539126862748 0.34589349467022118 0 0.36575549820117997 0.31677992835137742 0 0.40076539126862748 0.34589349467022118 0 0.36575549820117997 0.31677992835137742 0 0.33277555741076909 0.36432196682010132 0 0.38083244760691543 0.38531983672244652 0 0.40076539126862748 0.34589349467022118 0 0.33277555741076909 0.36432196682010132 0 0.36575549820117997 0.31677992835137742 0 0.32752639306529541 0.32610012995269699 0 0.33277555741076909 0.36432196682010132 0 0.32752639306529541 0.32610012995269699 0 0.33277555741076909 0.36432196682010132 0 0.29644548887253103 0.34914008784168082 0 0.33758650185219202 0.23837101504325639 0 0.3786248352540974 0.27082301512024259 0 0.33402499257867951 0.28911035184473982 0 0.3786248352540974 0.27082301512024259 0 0.36575549820117997 0.31677992835137742 0 0.33402499257867951 0.28911035184473982 0 0.36575549820117997 0.31677992835137742 0 0.32752639306529541 0.32610012995269699 0 0.33402499257867951 0.28911035184473982 0 0.32752639306529541 0.32610012995269699 0 0.33402499257867951 0.28911035184473982 0 0.29348325746214782 0.31350119524708198 0 0.33758650185219202 0.23837101504325639 0 0.33402499257867951 0.28911035184473982 0 0.29132859388405002 0.27203693976649962 0 0.33402499257867951 0.28911035184473982 0 0.29132859388405002 0.27203693976649962 0 0.29348325746214782 0.31350119524708198 0 0.29132859388405002 0.27203693976649962 0 0.29348325746214782 0.31350119524708198 0 0.24432083401701241 0.3006253385567515 0 0.29132859388405002 0.27203693976649962 0 0.25195515620380449 0.25883339815888678 0 0.24432083401701241 0.3006253385567515 0 0.28040350263641872 0.23054717217092141 0 0.29132859388405002 0.27203693976649962 0 0.25195515620380449 0.25883339815888678 0 0.33277555741076909 0.36432196682010132 0 0.29644548887253103 0.34914008784168082 0 0.27866744612395528 0.38416094670951489 0 0.32752639306529541 0.32610012995269699 0 0.29644548887253103 0.34914008784168082 0 0.29348325746214782 0.31350119524708198 0 0.29644548887253103 0.34914008784168082 0 0.29348325746214782 0.31350119524708198 0 0.25966125648670141 0.34351016742083729 0 0.29348325746214782 0.31350119524708198 0 0.25966125648670141 0.34351016742083729 0 0.24432083401701241 0.3006253385567515 0 0.29644548887253103 0.34914008784168082 0 0.25966125648670141 0.34351016742083729 0 0.27866744612395528 0.38416094670951489 0 0.25966125648670141 0.34351016742083729 0 0.27866744612395528 0.38416094670951489 0 0.22033343844674469 0.36963382230740238 0 0.27866744612395528 0.38416094670951489 0 0.29124338931648802 0.43334555462578611 0 0.24049127783545701 0.41270748208749802 0 0.29124338931648802 0.43334555462578611 0 0.25982634974572738 0.46097799597715272 0 0.24049127783545701 0.41270748208749802 0 0.27866744612395528 0.38416094670951489 0 0.29124338931648802 0.43334555462578611 0 0.31778888742534622 0.40581751814196781 0 0.33277555741076909 0.36432196682010132 0 0.27866744612395528 0.38416094670951489 0 0.31778888742534622 0.40581751814196781 0 0.33277555741076909 0.36432196682010132 0 0.31778888742534622 0.40581751814196781 0 0.35221190152536241 0.40457127605439203 0 0.31778888742534622 0.40581751814196781 0 0.35221190152536241 0.40457127605439203 0 0.34258405725730701 0.4444034294386992 0 0.29124338931648802 0.43334555462578611 0 0.31778888742534622 0.40581751814196781 0 0.34258405725730701 0.4444034294386992 0 0.38707855792647411 0.42299362914874578 0 0.35221190152536241 0.40457127605439203 0 0.34258405725730701 0.4444034294386992 0 0.38083244760691543 0.38531983672244652 0 0.38707855792647411 0.42299362914874578 0 0.35221190152536241 0.40457127605439203 0 0.38083244760691543 0.38531983672244652 0 0.33277555741076909 0.36432196682010132 0 0.35221190152536241 0.40457127605439203 0 0.3908716102680424 0.47010282357248828 0 0.35024835142131061 0.48654922671676981 0 0.38244435121258652 0.51653317813019495 0 0.3908716102680424 0.47010282357248828 0 0.35024835142131061 0.48654922671676981 0 0.34258405725730701 0.4444034294386992 0 0.38707855792647411 0.42299362914874578 0 0.3908716102680424 0.47010282357248828 0 0.34258405725730701 0.4444034294386992 0 0.29124338931648802 0.43334555462578611 0 0.34258405725730701 0.4444034294386992 0 0.31068898841644388 0.47541502461811092 0 0.35024835142131061 0.48654922671676981 0 0.31068898841644388 0.47541502461811092 0 0.33190227185843768 0.52715113583864037 0 0.35024835142131061 0.48654922671676981 0 0.34258405725730701 0.4444034294386992 0 0.31068898841644388 0.47541502461811092 0 0.31068898841644388 0.47541502461811092 0 0.25982634974572738 0.46097799597715272 0 0.28307294598219601 0.50789252727458634 0 0.29124338931648802 0.43334555462578611 0 0.31068898841644388 0.47541502461811092 0 0.25982634974572738 0.46097799597715272 0 0.25982634974572738 0.46097799597715272 0 0.23975172658309729 0.49475499200540818 0 0.28307294598219601 0.50789252727458634 0 0.23975172658309729 0.49475499200540818 0 0.19604738184454831 0.47787523520405789 0 0.22278230690790279 0.44824268025881547 0 0.19604738184454831 0.47787523520405789 0 0.22278230690790279 0.44824268025881547 0 0.191953871957803 0.42546416763755879 0 0.25982634974572738 0.46097799597715272 0 0.22278230690790279 0.44824268025881547 0 0.24049127783545701 0.41270748208749802 0 0.25982634974572738 0.46097799597715272 0 0.23975172658309729 0.49475499200540818 0 0.22278230690790279 0.44824268025881547 0 0.27866744612395528 0.38416094670951489 0 0.24049127783545701 0.41270748208749802 0 0.22033343844674469 0.36963382230740238 0 0.191953871957803 0.42546416763755879 0 0.1650278706801647 0.38791388161335733 0 0.22033343844674469 0.36963382230740238 0 0.24049127783545701 0.41270748208749802 0 0.191953871957803 0.42546416763755879 0 0.22033343844674469 0.36963382230740238 0 0.22278230690790279 0.44824268025881547 0 0.24049127783545701 0.41270748208749802 0 0.191953871957803 0.42546416763755879 0 0.191953871957803 0.42546416763755879 0 0.13773355295499351 0.42497777642586831 0 0.15801167086041079 0.46008690540259539 0 0.191953871957803 0.42546416763755879 0 0.1650278706801647 0.38791388161335733 0 0.13773355295499351 0.42497777642586831 0 0.1650278706801647 0.38791388161335733 0 0.13773355295499351 0.42497777642586831 0 0.1117088112799664 0.38831403004970022 0 0.13773355295499351 0.42497777642586831 0 0.15801167086041079 0.46008690540259539 0 0.113541300460994 0.46208784312094731 0 0.15801167086041079 0.46008690540259539 0 0.113541300460994 0.46208784312094731 0 0.1216098864341134 0.50637075089503902 0 0.15801167086041079 0.46008690540259539 0 0.1216098864341134 0.50637075089503902 0 0.16618607197337229 0.50652878253548905 0 0.19604738184454831 0.47787523520405789 0 0.15801167086041079 0.46008690540259539 0 0.16618607197337229 0.50652878253548905 0 0.19604738184454831 0.47787523520405789 0 0.191953871957803 0.42546416763755879 0 0.15801167086041079 0.46008690540259539 0 0.25195515620380449 0.25883339815888678 0 0.21049769590865089 0.26857363548218488 0 0.24432083401701241 0.3006253385567515 0 0.21049769590865089 0.26857363548218488 0 0.24432083401701241 0.3006253385567515 0 0.19670163708476801 0.31472518408333222 0 0.21049769590865089 0.26857363548218488 0 0.19670163708476801 0.31472518408333222 0 0.168349569971391 0.28054490850913671 0 0.19670163708476801 0.31472518408333222 0 0.22615676742807109 0.33458786033114157 0 0.18434624290945251 0.35208838264196463 0 0.24432083401701241 0.3006253385567515 0 0.19670163708476801 0.31472518408333222 0 0.22615676742807109 0.33458786033114157 0 0.25966125648670141 0.34351016742083729 0 0.24432083401701241 0.3006253385567515 0 0.22615676742807109 0.33458786033114157 0 0.25966125648670141 0.34351016742083729 0 0.22615676742807109 0.33458786033114157 0 0.22033343844674469 0.36963382230740238 0 0.22615676742807109 0.33458786033114157 0 0.22033343844674469 0.36963382230740238 0 0.18434624290945251 0.35208838264196463 0 0.1650278706801647 0.38791388161335733 0 0.22033343844674469 0.36963382230740238 0 0.18434624290945251 0.35208838264196463 0 0.1650278706801647 0.38791388161335733 0 0.18434624290945251 0.35208838264196463 0 0.14223753364722069 0.3341983344262433 0 0.1650278706801647 0.38791388161335733 0 0.14223753364722069 0.3341983344262433 0 0.1117088112799664 0.38831403004970022 0 0.19670163708476801 0.31472518408333222 0 0.18434624290945251 0.35208838264196463 0 0.14223753364722069 0.3341983344262433 0 0.19670163708476801 0.31472518408333222 0 0.14223753364722069 0.3341983344262433 0 0.168349569971391 0.28054490850913671 0 0.14223753364722069 0.3341983344262433 0 0.168349569971391 0.28054490850913671 0 0.1247745017231483 0.27198077544791172 0 0.14377654328998779 0.2442024734791064 0 0.168349569971391 0.28054490850913671 0 0.1247745017231483 0.27198077544791172 0 0.17933913398461551 0.2350063570234002 0 0.21049769590865089 0.26857363548218488 0 0.168349569971391 0.28054490850913671 0 0.17933913398461551 0.2350063570234002 0 0.14377654328998779 0.2442024734791064 0 0.168349569971391 0.28054490850913671 0 0.095326043202144745 0.24554465089224409 0 0.093851963071650835 0.30582068233324772 0 0.049706944316556423 0.27522722923869108 0 0.095326043202144745 0.24554465089224409 0 0.14377654328998779 0.2442024734791064 0 0.1247745017231483 0.27198077544791172 0 0.095326043202144745 0.24554465089224409 0 0.1247745017231483 0.27198077544791172 0 0.093851963071650835 0.30582068233324772 0 0.14223753364722069 0.3341983344262433 0 0.1247745017231483 0.27198077544791172 0 0.093851963071650835 0.30582068233324772 0 0.093851963071650835 0.30582068233324772 0 0.046389130980076937 0.32668781832131749 0 0.049706944316556423 0.27522722923869108 0 0.093851963071650835 0.30582068233324772 0 0.087545339447545459 0.35122518864182262 0 0.046389130980076937 0.32668781832131749 0 0.14223753364722069 0.3341983344262433 0 0.093851963071650835 0.30582068233324772 0 0.087545339447545459 0.35122518864182262 0 0.14223753364722069 0.3341983344262433 0 0.087545339447545459 0.35122518864182262 0 0.1117088112799664 0.38831403004970022 0 0.087545339447545459 0.35122518864182262 0 0.1117088112799664 0.38831403004970022 0 0.050583896093752537 0.38543522283434112 0 0.087545339447545459 0.35122518864182262 0 0.046389130980076937 0.32668781832131749 0 0.050583896093752537 0.38543522283434112 0 0 0.35000000000145642 0 0.046389130980076937 0.32668781832131749 0 0.050583896093752537 0.38543522283434112 0 0 0.35000000000145642 0 0.046389130980076937 0.32668781832131749 0 0 0.30000000000124832 0 0.046389130980076937 0.32668781832131749 0 0 0.30000000000124832 0 0.049706944316556423 0.27522722923869108 0 0 0.30000000000124832 0 0 0.25000000000104028 0 0.049706944316556423 0.27522722923869108 0 0.044081577119474857 0.2271058242433576 0 0 0.25000000000104028 0 0.049706944316556423 0.27522722923869108 0 0.068743045408989428 0.48853989837882689 0 0.113541300460994 0.46208784312094731 0 0.078358742472063481 0.43365249433908948 0 0.068743045408989428 0.48853989837882689 0 0.113541300460994 0.46208784312094731 0 0.1216098864341134 0.50637075089503902 0 0.13773355295499351 0.42497777642586831 0 0.113541300460994 0.46208784312094731 0 0.078358742472063481 0.43365249433908948 0 0.13773355295499351 0.42497777642586831 0 0.1117088112799664 0.38831403004970022 0 0.078358742472063481 0.43365249433908948 0 0.1117088112799664 0.38831403004970022 0 0.078358742472063481 0.43365249433908948 0 0.050583896093752537 0.38543522283434112 0 0.078358742472063481 0.43365249433908948 0 0.035463093262830522 0.42673416072819947 0 0.050583896093752537 0.38543522283434112 0 0 0.35000000000145642 0 0.050583896093752537 0.38543522283434112 0 0 0.40000000000166441 0 0.035463093262830522 0.42673416072819947 0 0.050583896093752537 0.38543522283434112 0 0 0.40000000000166441 0 0.035463093262830522 0.42673416072819947 0 0 0.40000000000166441 0 0 0.45000000000187229 0 0.035463093262830522 0.42673416072819947 0 0 0.45000000000187229 0 0.033550201249889847 0.46247875832467239 0 0.068743045408989428 0.48853989837882689 0 0.033550201249889847 0.46247875832467239 0 0 0.50000000000205869 0 0.068743045408989428 0.48853989837882689 0 0.078358742472063481 0.43365249433908948 0 0.033550201249889847 0.46247875832467239 0 0.078358742472063481 0.43365249433908948 0 0.035463093262830522 0.42673416072819947 0 0.033550201249889847 0.46247875832467239 0 0 0.45000000000187229 0 0.033550201249889847 0.46247875832467239 0 0 0.50000000000205869 0 0.068743045408989428 0.48853989837882689 0 0 0.50000000000205869 0 0.044576108720083309 0.53509043209532614 0 0 0.50000000000205869 0 0 0.55000000000173355 0 0.044576108720083309 0.53509043209532614 0 0 0.55000000000173355 0 0.044576108720083309 0.53509043209532614 0 0.034381862692950467 0.57372682250960894 0 0.044576108720083309 0.53509043209532614 0 0.077693244765132896 0.56932317963405099 0 0.034381862692950467 0.57372682250960894 0 0.068743045408989428 0.48853989837882689 0 0.044576108720083309 0.53509043209532614 0 0.085622222639554768 0.53333248912060549 0 0.068743045408989428 0.48853989837882689 0 0.085622222639554768 0.53333248912060549 0 0.1216098864341134 0.50637075089503902 0 0.044576108720083309 0.53509043209532614 0 0.085622222639554768 0.53333248912060549 0 0.077693244765132896 0.56932317963405099 0 0.085622222639554768 0.53333248912060549 0 0.1154888278694548 0.56733818459978413 0 0.077693244765132896 0.56932317963405099 0 0.085622222639554768 0.53333248912060549 0 0.1216098864341134 0.50637075089503902 0 0.1154888278694548 0.56733818459978413 0 0.1024350934457823 0.60772393977513839 0 0.1154888278694548 0.56733818459978413 0 0.077693244765132896 0.56932317963405099 0 0.1024350934457823 0.60772393977513839 0 0.050069554451969707 0.61308520079857043 0 0.086179601630648681 0.64647209519980475 0 0.1024350934457823 0.60772393977513839 0 0.077693244765132896 0.56932317963405099 0 0.050069554451969707 0.61308520079857043 0 0.077693244765132896 0.56932317963405099 0 0.050069554451969707 0.61308520079857043 0 0.034381862692950467 0.57372682250960894 0 0 0.55000000000173355 0 0.034381862692950467 0.57372682250960894 0 0 0.60000000000138687 0 0.050069554451969707 0.61308520079857043 0 0 0.60000000000138687 0 0 0.65000000000104008 0 0.050069554451969707 0.61308520079857043 0 0.034381862692950467 0.57372682250960894 0 0 0.60000000000138687 0 0 0.65000000000104008 0 0.046634677244967337 0.671418230738282 0 0 0.7000000000006934 0 0.050069554451969707 0.61308520079857043 0 0.046634677244967337 0.671418230738282 0 0.086179601630648681 0.64647209519980475 0 0.050069554451969707 0.61308520079857043 0 0 0.65000000000104008 0 0.046634677244967337 0.671418230738282 0 0 0.7000000000006934 0 0.049706944316475897 0.72477277076253799 0 0 0.75000000000034661 0 0.046634677244967337 0.671418230738282 0 0 0.7000000000006934 0 0.049706944316475897 0.72477277076253799 0 0.049706944316475897 0.72477277076253799 0 0 0.75000000000034661 0 0.04408157711937423 0.7728941757575627 0 0.049706944316475897 0.72477277076253799 0 0.1020579365089687 0.69352219419301997 0 0.090953281884486245 0.7564451946902494 0 0.1020579365089687 0.69352219419301997 0 0.1215415378367805 0.72939333680004137 0 0.090953281884486245 0.7564451946902494 0 0.046634677244967337 0.671418230738282 0 0.049706944316475897 0.72477277076253799 0 0.1020579365089687 0.69352219419301997 0 0.1215415378367805 0.72939333680004137 0 0.090953281884486245 0.7564451946902494 0 0.14335651144331049 0.75565258250209677 0 0.046634677244967337 0.671418230738282 0 0.1020579365089687 0.69352219419301997 0 0.086179601630648681 0.64647209519980475 0 0.1020579365089687 0.69352219419301997 0 0.086179601630648681 0.64647209519980475 0 0.1241190223511371 0.64391885572885044 0 0.1024350934457823 0.60772393977513839 0 0.086179601630648681 0.64647209519980475 0 0.1241190223511371 0.64391885572885044 0 0.1020579365089687 0.69352219419301997 0 0.1241190223511371 0.64391885572885044 0 0.16500388252850301 0.66612077714085194 0 0.1241190223511371 0.64391885572885044 0 0.16500388252850301 0.66612077714085194 0 0.15720202157091859 0.60665697304410315 0 0.16500388252850301 0.66612077714085194 0 0.19914261668318661 0.62286739485272158 0 0.15720202157091859 0.60665697304410315 0 0.1020579365089687 0.69352219419301997 0 0.16500388252850301 0.66612077714085194 0 0.15332765547575641 0.71200081858233666 0 0.1215415378367805 0.72939333680004137 0 0.15332765547575641 0.71200081858233666 0 0.14335651144331049 0.75565258250209677 0 0.1020579365089687 0.69352219419301997 0 0.1215415378367805 0.72939333680004137 0 0.15332765547575641 0.71200081858233666 0 0.16500388252850301 0.66612077714085194 0 0.15332765547575641 0.71200081858233666 0 0.19068556247388771 0.71028988922845504 0 0.15332765547575641 0.71200081858233666 0 0.14335651144331049 0.75565258250209677 0 0.18269480424590959 0.75905448272264375 0 0.15332765547575641 0.71200081858233666 0 0.19068556247388771 0.71028988922845504 0 0.18269480424590959 0.75905448272264375 0 0.19068556247388771 0.71028988922845504 0 0.2248999640082178 0.72584299459689172 0 0.18269480424590959 0.75905448272264375 0 0.19068556247388771 0.71028988922845504 0 0.2248999640082178 0.72584299459689172 0 0.2236846579037573 0.67380363126050236 0 0.2248999640082178 0.72584299459689172 0 0.2236846579037573 0.67380363126050236 0 0.26439878998046262 0.7048065392091396 0 0.2248999640082178 0.72584299459689172 0 0.22556077506376701 0.77837424984191617 0 0.25676291524611189 0.7436741304886243 0 0.2248999640082178 0.72584299459689172 0 0.25676291524611189 0.7436741304886243 0 0.26439878998046262 0.7048065392091396 0 0.16500388252850301 0.66612077714085194 0 0.2236846579037573 0.67380363126050236 0 0.19914261668318661 0.62286739485272158 0 0.16500388252850301 0.66612077714085194 0 0.19068556247388771 0.71028988922845504 0 0.2236846579037573 0.67380363126050236 0 0.2236846579037573 0.67380363126050236 0 0.2459498854893499 0.63248470766216769 0 0.19914261668318661 0.62286739485272158 0 0.2236846579037573 0.67380363126050236 0 0.2459498854893499 0.63248470766216769 0 0.27820712747429932 0.65530134213254643 0 0.2459498854893499 0.63248470766216769 0 0.19914261668318661 0.62286739485272158 0 0.22549374774072969 0.58452645269293457 0 0.2459498854893499 0.63248470766216769 0 0.22549374774072969 0.58452645269293457 0 0.26573297623774761 0.59828298563722948 0 0.19914261668318661 0.62286739485272158 0 0.22549374774072969 0.58452645269293457 0 0.18381867841758909 0.57774125163628387 0 0.22549374774072969 0.58452645269293457 0 0.20050006573841939 0.53248514016039872 0 0.18381867841758909 0.57774125163628387 0 0.22549374774072969 0.58452645269293457 0 0.25115337790845271 0.54719303014923271 0 0.26573297623774761 0.59828298563722948 0 0.22549374774072969 0.58452645269293457 0 0.20050006573841939 0.53248514016039872 0 0.25115337790845271 0.54719303014923271 0 0.23975172658309729 0.49475499200540818 0 0.20050006573841939 0.53248514016039872 0 0.25115337790845271 0.54719303014923271 0 0.19604738184454831 0.47787523520405789 0 0.20050006573841939 0.53248514016039872 0 0.16618607197337229 0.50652878253548905 0 0.23975172658309729 0.49475499200540818 0 0.19604738184454831 0.47787523520405789 0 0.20050006573841939 0.53248514016039872 0 0.20050006573841939 0.53248514016039872 0 0.14934928745814749 0.55042914607228977 0 0.18381867841758909 0.57774125163628387 0 0.20050006573841939 0.53248514016039872 0 0.16618607197337229 0.50652878253548905 0 0.14934928745814749 0.55042914607228977 0 0.1216098864341134 0.50637075089503902 0 0.16618607197337229 0.50652878253548905 0 0.14934928745814749 0.55042914607228977 0 0.1216098864341134 0.50637075089503902 0 0.1154888278694548 0.56733818459978413 0 0.14934928745814749 0.55042914607228977 0 0.1154888278694548 0.56733818459978413 0 0.14934928745814749 0.55042914607228977 0 0.15720202157091859 0.60665697304410315 0 0.1024350934457823 0.60772393977513839 0 0.1154888278694548 0.56733818459978413 0 0.15720202157091859 0.60665697304410315 0 0.1024350934457823 0.60772393977513839 0 0.1241190223511371 0.64391885572885044 0 0.15720202157091859 0.60665697304410315 0 0.19914261668318661 0.62286739485272158 0 0.15720202157091859 0.60665697304410315 0 0.18381867841758909 0.57774125163628387 0 0.14934928745814749 0.55042914607228977 0 0.15720202157091859 0.60665697304410315 0 0.18381867841758909 0.57774125163628387 0 0.10000000000041601 1 0 0.10266856499240549 0.95548163909968886 0 0.15000000000062411 1 0 0.10266856499240549 0.95548163909968886 0 0.053064897599294662 0.95186845269532028 0 0.083411279318375747 0.91030024466934134 0 0.10000000000041601 1 0 0.050000000000207989 1 0 0.053064897599294662 0.95186845269532028 0 0.10000000000041601 1 0 0.10266856499240549 0.95548163909968886 0 0.053064897599294662 0.95186845269532028 0 0.050000000000207989 1 0 0.025766224399875661 0.97546711317377799 0 0.053064897599294662 0.95186845269532028 0 0.050000000000207989 1 0 0 1 0 0.025766224399875661 0.97546711317377799 0 0 1 0 0.025766224399875661 0.97546711317377799 0 0 0.94999999999979179 0 0.025766224399875661 0.97546711317377799 0 0 0.94999999999979179 0 0.053064897599294662 0.95186845269532028 0 0 0.94999999999979179 0 0.053064897599294662 0.95186845269532028 0 0.0443105827531413 0.89858748162559932 0 0.053064897599294662 0.95186845269532028 0 0.0443105827531413 0.89858748162559932 0 0.083411279318375747 0.91030024466934134 0 0 0.94999999999979179 0 0 0.89999999999958358 0 0.0443105827531413 0.89858748162559932 0 0 0.89999999999958358 0 0.0443105827531413 0.89858748162559932 0 0 0.84999999999965292 0 0.0443105827531413 0.89858748162559932 0 0.083411279318375747 0.91030024466934134 0 0.065374659239661639 0.8551091961254178 0 0.083411279318375747 0.91030024466934134 0 0.10562472963403439 0.87143394428979881 0 0.065374659239661639 0.8551091961254178 0 0.10266856499240549 0.95548163909968886 0 0.083411279318375747 0.91030024466934134 0 0.1241151115713819 0.9045666525468371 0 0.10266856499240549 0.95548163909968886 0 0.1241151115713819 0.9045666525468371 0 0.14617343800780541 0.93808063414349496 0 0.1241151115713819 0.9045666525468371 0 0.10562472963403439 0.87143394428979881 0 0.14474682429600511 0.85524784522713515 0 0.083411279318375747 0.91030024466934134 0 0.1241151115713819 0.9045666525468371 0 0.10562472963403439 0.87143394428979881 0 0.10562472963403439 0.87143394428979881 0 0.1074251789111534 0.83564394292147814 0 0.14474682429600511 0.85524784522713515 0 0.1074251789111534 0.83564394292147814 0 0.065374659239661639 0.8551091961254178 0 0.083105206071452636 0.79992298667296435 0 0.10562472963403439 0.87143394428979881 0 0.1074251789111534 0.83564394292147814 0 0.065374659239661639 0.8551091961254178 0 0.065374659239661639 0.8551091961254178 0 0 0.84999999999965292 0 0.038512288486097702 0.8155852717111195 0 0.0443105827531413 0.89858748162559932 0 0.065374659239661639 0.8551091961254178 0 0 0.84999999999965292 0 0 0.84999999999965292 0 0.038512288486097702 0.8155852717111195 0 0 0.79999999999999982 0 0.065374659239661639 0.8551091961254178 0 0.038512288486097702 0.8155852717111195 0 0.083105206071452636 0.79992298667296435 0 0.038512288486097702 0.8155852717111195 0 0.04408157711937423 0.7728941757575627 0 0.083105206071452636 0.79992298667296435 0 0.038512288486097702 0.8155852717111195 0 0 0.79999999999999982 0 0.04408157711937423 0.7728941757575627 0 0 0.79999999999999982 0 0 0.75000000000034661 0 0.04408157711937423 0.7728941757575627 0 0.049706944316475897 0.72477277076253799 0 0.04408157711937423 0.7728941757575627 0 0.090953281884486245 0.7564451946902494 0 0.04408157711937423 0.7728941757575627 0 0.090953281884486245 0.7564451946902494 0 0.083105206071452636 0.79992298667296435 0 0.1074251789111534 0.83564394292147814 0 0.083105206071452636 0.79992298667296435 0 0.1382744753146134 0.79650574229207483 0 0.090953281884486245 0.7564451946902494 0 0.083105206071452636 0.79992298667296435 0 0.1382744753146134 0.79650574229207483 0 0.090953281884486245 0.7564451946902494 0 0.14335651144331049 0.75565258250209677 0 0.1382744753146134 0.79650574229207483 0 0.14335651144331049 0.75565258250209677 0 0.1382744753146134 0.79650574229207483 0 0.18269480424590959 0.75905448272264375 0 0.1382744753146134 0.79650574229207483 0 0.18269480424590959 0.75905448272264375 0 0.17777405986036951 0.81832336108265358 0 0.2248999640082178 0.72584299459689172 0 0.18269480424590959 0.75905448272264375 0 0.22556077506376701 0.77837424984191617 0 0.22556077506376701 0.77837424984191617 0 0.21858834311891909 0.81980263716112767 0 0.26104540868854792 0.81401944968719064 0 0.22556077506376701 0.77837424984191617 0 0.21858834311891909 0.81980263716112767 0 0.17777405986036951 0.81832336108265358 0 0.18269480424590959 0.75905448272264375 0 0.22556077506376701 0.77837424984191617 0 0.17777405986036951 0.81832336108265358 0 0.21858834311891909 0.81980263716112767 0 0.19741632902693801 0.86755867406447229 0 0.17777405986036951 0.81832336108265358 0 0.21858834311891909 0.81980263716112767 0 0.2401283238295133 0.85648409884788523 0 0.26104540868854792 0.81401944968719064 0 0.21858834311891909 0.81980263716112767 0 0.2401283238295133 0.85648409884788523 0 0.19741632902693801 0.86755867406447229 0 0.19741632902693801 0.86755867406447229 0 0.17777405986036951 0.81832336108265358 0 0.14474682429600511 0.85524784522713515 0 0.19741632902693801 0.86755867406447229 0 0.14474682429600511 0.85524784522713515 0 0.16206583317966519 0.89685560785156404 0 0.1382744753146134 0.79650574229207483 0 0.17777405986036951 0.81832336108265358 0 0.14474682429600511 0.85524784522713515 0 0.1074251789111534 0.83564394292147814 0 0.1382744753146134 0.79650574229207483 0 0.14474682429600511 0.85524784522713515 0 0.1241151115713819 0.9045666525468371 0 0.14474682429600511 0.85524784522713515 0 0.16206583317966519 0.89685560785156404 0 0.1241151115713819 0.9045666525468371 0 0.16206583317966519 0.89685560785156404 0 0.14617343800780541 0.93808063414349496 0 0.16206583317966519 0.89685560785156404 0 0.19901705110390991 0.9175543425573498 0 0.14617343800780541 0.93808063414349496 0 0.19741632902693801 0.86755867406447229 0 0.16206583317966519 0.89685560785156404 0 0.19901705110390991 0.9175543425573498 0 0.19741632902693801 0.86755867406447229 0 0.24536017905392571 0.90704567837671446 0 0.19901705110390991 0.9175543425573498 0 0.2401283238295133 0.85648409884788523 0 0.19741632902693801 0.86755867406447229 0 0.24536017905392571 0.90704567837671446 0 0.24536017905392571 0.90704567837671446 0 0.19901705110390991 0.9175543425573498 0 0.22850979588452081 0.95594428570238643 0 0.19901705110390991 0.9175543425573498 0 0.22850979588452081 0.95594428570238643 0 0.18474005699953849 0.96231585248064622 0 0.24536017905392571 0.90704567837671446 0 0.22850979588452081 0.95594428570238643 0 0.27609987656793722 0.94991445621608572 0 0.22850979588452081 0.95594428570238643 0 0.20000000000083221 1 0 0.25000000000104028 1 0 0.22850979588452081 0.95594428570238643 0 0.20000000000083221 1 0 0.18474005699953849 0.96231585248064622 0 0.20000000000083221 1 0 0.18474005699953849 0.96231585248064622 0 0.15000000000062411 1 0 0.19901705110390991 0.9175543425573498 0 0.18474005699953849 0.96231585248064622 0 0.14617343800780541 0.93808063414349496 0 0.18474005699953849 0.96231585248064622 0 0.14617343800780541 0.93808063414349496 0 0.15000000000062411 1 0 0.10266856499240549 0.95548163909968886 0 0.14617343800780541 0.93808063414349496 0 0.15000000000062411 1 0 0.35000000000145642 1 0 0.36184234618600131 0.96443954459096326 0 0.32544832635163229 0.95485394099568932 0 0.35000000000145642 1 0 0.36184234618600131 0.96443954459096326 0 0.40000000000166441 1 0 0.36184234618600131 0.96443954459096326 0 0.32544832635163229 0.95485394099568932 0 0.35752321586431363 0.9185439911803448 0 0.36184234618600131 0.96443954459096326 0 0.35752321586431363 0.9185439911803448 0 0.39641108128798319 0.94356127926187128 0 0.35000000000145642 1 0 0.32544832635163229 0.95485394099568932 0 0.30000000000124832 1 0 0.30000000000124832 1 0 0.25000000000104028 1 0 0.27609987656793722 0.94991445621608572 0 0.22850979588452081 0.95594428570238643 0 0.25000000000104028 1 0 0.27609987656793722 0.94991445621608572 0 0.32544832635163229 0.95485394099568932 0 0.30000000000124832 1 0 0.27609987656793722 0.94991445621608572 0 0.32544832635163229 0.95485394099568932 0 0.27609987656793722 0.94991445621608572 0 0.30864387279288652 0.89906554525974958 0 0.24536017905392571 0.90704567837671446 0 0.27270076654418179 0.87751467830216623 0 0.30864387279288652 0.89906554525974958 0 0.24536017905392571 0.90704567837671446 0 0.27609987656793722 0.94991445621608572 0 0.30864387279288652 0.89906554525974958 0 0.2401283238295133 0.85648409884788523 0 0.24536017905392571 0.90704567837671446 0 0.27270076654418179 0.87751467830216623 0 0.30864387279288652 0.89906554525974958 0 0.35752321586431363 0.9185439911803448 0 0.35864759629805099 0.87963482415279515 0 0.32544832635163229 0.95485394099568932 0 0.30864387279288652 0.89906554525974958 0 0.35752321586431363 0.9185439911803448 0 0.35752321586431363 0.9185439911803448 0 0.35864759629805099 0.87963482415279515 0 0.39767323751400468 0.89584229130535065 0 0.35864759629805099 0.87963482415279515 0 0.33403534827021109 0.84402799729020661 0 0.39536230704883951 0.84069429572832477 0 0.33403534827021109 0.84402799729020661 0 0.35642984951668422 0.80994399665655703 0 0.39536230704883951 0.84069429572832477 0 0.33403534827021109 0.84402799729020661 0 0.30857225866488791 0.81101973481716805 0 0.35642984951668422 0.80994399665655703 0 0.30864387279288652 0.89906554525974958 0 0.35864759629805099 0.87963482415279515 0 0.33403534827021109 0.84402799729020661 0 0.30864387279288652 0.89906554525974958 0 0.33403534827021109 0.84402799729020661 0 0.29209212897034281 0.84715728365233667 0 0.27270076654418179 0.87751467830216623 0 0.30864387279288652 0.89906554525974958 0 0.29209212897034281 0.84715728365233667 0 0.2401283238295133 0.85648409884788523 0 0.27270076654418179 0.87751467830216623 0 0.29209212897034281 0.84715728365233667 0 0.2401283238295133 0.85648409884788523 0 0.29209212897034281 0.84715728365233667 0 0.26104540868854792 0.81401944968719064 0 0.29209212897034281 0.84715728365233667 0 0.26104540868854792 0.81401944968719064 0 0.30857225866488791 0.81101973481716805 0 0.33403534827021109 0.84402799729020661 0 0.29209212897034281 0.84715728365233667 0 0.30857225866488791 0.81101973481716805 0 0.26104540868854792 0.81401944968719064 0 0.30857225866488791 0.81101973481716805 0 0.2792923945214143 0.77665808831789485 0 0.30857225866488791 0.81101973481716805 0 0.2792923945214143 0.77665808831789485 0 0.33123028043633618 0.77629643437932982 0 0.22556077506376701 0.77837424984191617 0 0.26104540868854792 0.81401944968719064 0 0.2792923945214143 0.77665808831789485 0 0.2792923945214143 0.77665808831789485 0 0.25676291524611189 0.7436741304886243 0 0.29904318922293632 0.74132814928635593 0 0.22556077506376701 0.77837424984191617 0 0.2792923945214143 0.77665808831789485 0 0.25676291524611189 0.7436741304886243 0 0.2792923945214143 0.77665808831789485 0 0.33123028043633618 0.77629643437932982 0 0.29904318922293632 0.74132814928635593 0 0.33123028043633618 0.77629643437932982 0 0.29904318922293632 0.74132814928635593 0 0.35415581127540569 0.73730480045900215 0 0.30857225866488791 0.81101973481716805 0 0.33123028043633618 0.77629643437932982 0 0.35642984951668422 0.80994399665655703 0 0.33123028043633618 0.77629643437932982 0 0.35642984951668422 0.80994399665655703 0 0.38586766253264881 0.78219501014812498 0 0.33123028043633618 0.77629643437932982 0 0.38586766253264881 0.78219501014812498 0 0.35415581127540569 0.73730480045900215 0 0.38586766253264881 0.78219501014812498 0 0.42676259796334498 0.76772545931379299 0 0.40326160981139969 0.73346192995102844 0 0.38586766253264881 0.78219501014812498 0 0.35415581127540569 0.73730480045900215 0 0.40326160981139969 0.73346192995102844 0 0.38586766253264881 0.78219501014812498 0 0.42609163930740518 0.80361684430568059 0 0.39536230704883951 0.84069429572832477 0 0.35642984951668422 0.80994399665655703 0 0.38586766253264881 0.78219501014812498 0 0.39536230704883951 0.84069429572832477 0 0.38586766253264881 0.78219501014812498 0 0.42609163930740518 0.80361684430568059 0 0.42676259796334498 0.76772545931379299 0 0.42676259796334498 0.76772545931379299 0 0.4656888918609538 0.78493261229743638 0 0.45582236402875981 0.73896743678908217 0 0.4656888918609538 0.78493261229743638 0 0.45582236402875981 0.73896743678908217 0 0.50945740445113552 0.75476055527778108 0 0.4656888918609538 0.78493261229743638 0 0.50731287292894423 0.78963574450233831 0 0.50945740445113552 0.75476055527778108 0 0.4656888918609538 0.78493261229743638 0 0.50627822638148745 0.8263979829520941 0 0.50731287292894423 0.78963574450233831 0 0.42609163930740518 0.80361684430568059 0 0.4656888918609538 0.78493261229743638 0 0.45677673713123867 0.84253684404072415 0 0.42609163930740518 0.80361684430568059 0 0.42676259796334498 0.76772545931379299 0 0.4656888918609538 0.78493261229743638 0 0.4656888918609538 0.78493261229743638 0 0.45677673713123867 0.84253684404072415 0 0.50627822638148745 0.8263979829520941 0 0.45677673713123867 0.84253684404072415 0 0.50202631463681879 0.87892870825713787 0 0.50627822638148745 0.8263979829520941 0 0.45677673713123867 0.84253684404072415 0 0.44003836461056539 0.88093474584252718 0 0.50202631463681879 0.87892870825713787 0 0.45677673713123867 0.84253684404072415 0 0.39536230704883951 0.84069429572832477 0 0.44003836461056539 0.88093474584252718 0 0.39536230704883951 0.84069429572832477 0 0.39767323751400468 0.89584229130535065 0 0.44003836461056539 0.88093474584252718 0 0.42609163930740518 0.80361684430568059 0 0.45677673713123867 0.84253684404072415 0 0.39536230704883951 0.84069429572832477 0 0.35864759629805099 0.87963482415279515 0 0.39536230704883951 0.84069429572832477 0 0.39767323751400468 0.89584229130535065 0 0.35752321586431363 0.9185439911803448 0 0.39767323751400468 0.89584229130535065 0 0.39641108128798319 0.94356127926187128 0 0.39767323751400468 0.89584229130535065 0 0.4367309254023824 0.92065556789053882 0 0.39641108128798319 0.94356127926187128 0 0.39767323751400468 0.89584229130535065 0 0.4367309254023824 0.92065556789053882 0 0.44003836461056539 0.88093474584252718 0 0.4367309254023824 0.92065556789053882 0 0.44003836461056539 0.88093474584252718 0 0.47401147028110507 0.91529957330468115 0 0.44003836461056539 0.88093474584252718 0 0.47401147028110507 0.91529957330468115 0 0.50202631463681879 0.87892870825713787 0 0.47401147028110507 0.91529957330468115 0 0.47135117303824892 0.95556877749289892 0 0.52122150208832174 0.94089974453840242 0 0.47401147028110507 0.91529957330468115 0 0.52122150208832174 0.94089974453840242 0 0.50202631463681879 0.87892870825713787 0 0.4367309254023824 0.92065556789053882 0 0.47401147028110507 0.91529957330468115 0 0.47135117303824892 0.95556877749289892 0 0.4367309254023824 0.92065556789053882 0 0.47135117303824892 0.95556877749289892 0 0.4308986359464303 0.96395712492906194 0 0.47135117303824892 0.95556877749289892 0 0.50000000000205869 1 0 0.52122150208832174 0.94089974453840242 0 0.47135117303824892 0.95556877749289892 0 0.45000000000187229 1 0 0.50000000000205869 1 0 0.47135117303824892 0.95556877749289892 0 0.45000000000187229 1 0 0.4308986359464303 0.96395712492906194 0 0.45000000000187229 1 0 0.4308986359464303 0.96395712492906194 0 0.40000000000166441 1 0 0.4308986359464303 0.96395712492906194 0 0.39641108128798319 0.94356127926187128 0 0.40000000000166441 1 0 0.4367309254023824 0.92065556789053882 0 0.4308986359464303 0.96395712492906194 0 0.39641108128798319 0.94356127926187128 0 0.36184234618600131 0.96443954459096326 0 0.39641108128798319 0.94356127926187128 0 0.40000000000166441 1 0 0.33122374654748771 0.57588941099433744 0 0.31502927232353312 0.6134992213375432 0 0.35765792684946668 0.6000687869219653 0 0.31502927232353312 0.6134992213375432 0 0.35765792684946668 0.6000687869219653 0 0.35864735590330371 0.63903383440414463 0 0.35765792684946668 0.6000687869219653 0 0.35864735590330371 0.63903383440414463 0 0.39743091024207589 0.6239520004230239 0 0.33122374654748771 0.57588941099433744 0 0.35765792684946668 0.6000687869219653 0 0.37272913873093971 0.56192925302619479 0 0.37272913873093971 0.56192925302619479 0 0.33190227185843768 0.52715113583864037 0 0.38244435121258652 0.51653317813019495 0 0.33122374654748771 0.57588941099433744 0 0.37272913873093971 0.56192925302619479 0 0.33190227185843768 0.52715113583864037 0 0.35024835142131061 0.48654922671676981 0 0.33190227185843768 0.52715113583864037 0 0.38244435121258652 0.51653317813019495 0 0.33122374654748771 0.57588941099433744 0 0.33190227185843768 0.52715113583864037 0 0.29110487519241501 0.56588143995431495 0 0.33190227185843768 0.52715113583864037 0 0.28307294598219601 0.50789252727458634 0 0.29110487519241501 0.56588143995431495 0 0.31068898841644388 0.47541502461811092 0 0.33190227185843768 0.52715113583864037 0 0.28307294598219601 0.50789252727458634 0 0.23975172658309729 0.49475499200540818 0 0.28307294598219601 0.50789252727458634 0 0.25115337790845271 0.54719303014923271 0 0.28307294598219601 0.50789252727458634 0 0.25115337790845271 0.54719303014923271 0 0.29110487519241501 0.56588143995431495 0 0.25115337790845271 0.54719303014923271 0 0.29110487519241501 0.56588143995431495 0 0.26573297623774761 0.59828298563722948 0 0.33122374654748771 0.57588941099433744 0 0.31502927232353312 0.6134992213375432 0 0.29110487519241501 0.56588143995431495 0 0.31502927232353312 0.6134992213375432 0 0.29110487519241501 0.56588143995431495 0 0.26573297623774761 0.59828298563722948 0 0.31502927232353312 0.6134992213375432 0 0.26573297623774761 0.59828298563722948 0 0.27820712747429932 0.65530134213254643 0 0.2459498854893499 0.63248470766216769 0 0.26573297623774761 0.59828298563722948 0 0.27820712747429932 0.65530134213254643 0 0.2236846579037573 0.67380363126050236 0 0.27820712747429932 0.65530134213254643 0 0.26439878998046262 0.7048065392091396 0 0.27820712747429932 0.65530134213254643 0 0.31378396441836959 0.70157213313026345 0 0.32263089806001177 0.66003674931826484 0 0.27820712747429932 0.65530134213254643 0 0.26439878998046262 0.7048065392091396 0 0.31378396441836959 0.70157213313026345 0 0.31502927232353312 0.6134992213375432 0 0.27820712747429932 0.65530134213254643 0 0.32263089806001177 0.66003674931826484 0 0.25676291524611189 0.7436741304886243 0 0.26439878998046262 0.7048065392091396 0 0.29904318922293632 0.74132814928635593 0 0.26439878998046262 0.7048065392091396 0 0.29904318922293632 0.74132814928635593 0 0.31378396441836959 0.70157213313026345 0 0.29904318922293632 0.74132814928635593 0 0.31378396441836959 0.70157213313026345 0 0.35415581127540569 0.73730480045900215 0 0.31378396441836959 0.70157213313026345 0 0.36622285152418499 0.69092437780804039 0 0.35415581127540569 0.73730480045900215 0 0.36622285152418499 0.69092437780804039 0 0.35415581127540569 0.73730480045900215 0 0.40326160981139969 0.73346192995102844 0 0.31502927232353312 0.6134992213375432 0 0.32263089806001177 0.66003674931826484 0 0.35864735590330371 0.63903383440414463 0 0.31378396441836959 0.70157213313026345 0 0.36622285152418499 0.69092437780804039 0 0.32263089806001177 0.66003674931826484 0 0.36622285152418499 0.69092437780804039 0 0.32263089806001177 0.66003674931826484 0 0.35864735590330371 0.63903383440414463 0 0.36622285152418499 0.69092437780804039 0 0.35864735590330371 0.63903383440414463 0 0.3977710372045391 0.65868194622830212 0 0.35864735590330371 0.63903383440414463 0 0.3977710372045391 0.65868194622830212 0 0.39743091024207589 0.6239520004230239 0 0.36622285152418499 0.69092437780804039 0 0.3977710372045391 0.65868194622830212 0 0.43323420005758778 0.6913544522562407 0 0.3977710372045391 0.65868194622830212 0 0.43323420005758778 0.6913544522562407 0 0.43846182030517877 0.64845797726506715 0 0.43846182030517877 0.64845797726506715 0 0.43545892161006339 0.61093128915313821 0 0.39743091024207589 0.6239520004230239 0 0.3977710372045391 0.65868194622830212 0 0.43846182030517877 0.64845797726506715 0 0.39743091024207589 0.6239520004230239 0 0.36622285152418499 0.69092437780804039 0 0.40326160981139969 0.73346192995102844 0 0.43323420005758778 0.6913544522562407 0 0.40326160981139969 0.73346192995102844 0 0.43323420005758778 0.6913544522562407 0 0.45582236402875981 0.73896743678908217 0 0.42676259796334498 0.76772545931379299 0 0.40326160981139969 0.73346192995102844 0 0.45582236402875981 0.73896743678908217 0 0.43323420005758778 0.6913544522562407 0 0.45582236402875981 0.73896743678908217 0 0.5 0.69999999999999996 0 0.45582236402875981 0.73896743678908217 0 0.5 0.69999999999999996 0 0.50945740445113552 0.75476055527778108 0 0.43323420005758778 0.6913544522562407 0 0.47913475093885149 0.66010775372412711 0 0.5 0.69999999999999996 0 0.43846182030517877 0.64845797726506715 0 0.47913475093885149 0.66010775372412711 0 0.47095389620662098 0.61892551373708504 0 0.43846182030517877 0.64845797726506715 0 0.47095389620662098 0.61892551373708504 0 0.43545892161006339 0.61093128915313821 0 0.43323420005758778 0.6913544522562407 0 0.43846182030517877 0.64845797726506715 0 0.47913475093885149 0.66010775372412711 0 0.47913475093885149 0.66010775372412711 0 0.47095389620662098 0.61892551373708504 0 0.50715858906372158 0.63295939104129484 0 0.47095389620662098 0.61892551373708504 0 0.5166924242153631 0.59825134841919447 0 0.50715858906372158 0.63295939104129484 0 0.47095389620662098 0.61892551373708504 0 0.46666084890304671 0.57634471035397938 0 0.5166924242153631 0.59825134841919447 0 0.47095389620662098 0.61892551373708504 0 0.46666084890304671 0.57634471035397938 0 0.43545892161006339 0.61093128915313821 0 0.43545892161006339 0.61093128915313821 0 0.4089290844030305 0.58728915500154233 0 0.39743091024207589 0.6239520004230239 0 0.46666084890304671 0.57634471035397938 0 0.43545892161006339 0.61093128915313821 0 0.4089290844030305 0.58728915500154233 0 0.46666084890304671 0.57634471035397938 0 0.4089290844030305 0.58728915500154233 0 0.42644501560315817 0.54603747078095544 0 0.37272913873093971 0.56192925302619479 0 0.4089290844030305 0.58728915500154233 0 0.42644501560315817 0.54603747078095544 0 0.35765792684946668 0.6000687869219653 0 0.37272913873093971 0.56192925302619479 0 0.4089290844030305 0.58728915500154233 0 0.35765792684946668 0.6000687869219653 0 0.4089290844030305 0.58728915500154233 0 0.39743091024207589 0.6239520004230239 0 0.37272913873093971 0.56192925302619479 0 0.38244435121258652 0.51653317813019495 0 0.42644501560315817 0.54603747078095544 0 0.43507373378304309 0.49699695397193322 0 0.38244435121258652 0.51653317813019495 0 0.42644501560315817 0.54603747078095544 0 0.46666084890304671 0.57634471035397938 0 0.47793794143994173 0.52940715638744962 0 0.53245488764484505 0.55078124999999989 0 0.43507373378304309 0.49699695397193322 0 0.49102375406324739 0.49123754822244059 0 0.47793794143994173 0.52940715638744962 0 0.43507373378304309 0.49699695397193322 0 0.42644501560315817 0.54603747078095544 0 0.47793794143994173 0.52940715638744962 0 0.46666084890304671 0.57634471035397938 0 0.42644501560315817 0.54603747078095544 0 0.47793794143994173 0.52940715638744962 0 0.49102375406324739 0.49123754822244059 0 0.47793794143994173 0.52940715638744962 0 0.53330375813596242 0.50827942741749099 0 0.47793794143994173 0.52940715638744962 0 0.53245488764484505 0.55078124999999989 0 0.53330375813596242 0.50827942741749099 0 0.53245488764484505 0.55078124999999989 0 0.53330375813596242 0.50827942741749099 0 0.57435499076887508 0.54267261987897775 0 0.53245488764484505 0.55078124999999989 0 0.57435499076887508 0.54267261987897775 0 0.57412547362576272 0.58273804879550706 0 0.53330375813596242 0.50827942741749099 0 0.57611405284611883 0.50165903596042916 0 0.57435499076887508 0.54267261987897775 0 0.57611405284611883 0.50165903596042916 0 0.57435499076887508 0.54267261987897775 0 0.62042975506801734 0.54295974692364424 0 0.57435499076887508 0.54267261987897775 0 0.62042975506801734 0.54295974692364424 0 0.57412547362576272 0.58273804879550706 0 0.57611405284611883 0.50165903596042916 0 0.62042975506801734 0.54295974692364424 0 0.61547661924074692 0.48539576058873962 0 0.5991018319127801 0.62925360607495295 0 0.6405463747586706 0.63290524857395714 0 0.63065402604362242 0.59661356661633302 0 0.57412547362576272 0.58273804879550706 0 0.5991018319127801 0.62925360607495295 0 0.63065402604362242 0.59661356661633302 0 0.62042975506801734 0.54295974692364424 0 0.57412547362576272 0.58273804879550706 0 0.63065402604362242 0.59661356661633302 0 0.57412547362576272 0.58273804879550706 0 0.5498280205245758 0.6290146943450976 0 0.5991018319127801 0.62925360607495295 0 0.46666084890304671 0.57634471035397938 0 0.53245488764484505 0.55078124999999989 0 0.5166924242153631 0.59825134841919447 0 0.57412547362576272 0.58273804879550706 0 0.5166924242153631 0.59825134841919447 0 0.5498280205245758 0.6290146943450976 0 0.53245488764484505 0.55078124999999989 0 0.57412547362576272 0.58273804879550706 0 0.5166924242153631 0.59825134841919447 0 0.5166924242153631 0.59825134841919447 0 0.50715858906372158 0.63295939104129484 0 0.5498280205245758 0.6290146943450976 0 0.47913475093885149 0.66010775372412711 0 0.50715858906372158 0.63295939104129484 0 0.52584555706968406 0.66664215091846768 0 0.50715858906372158 0.63295939104129484 0 0.52584555706968406 0.66664215091846768 0 0.5498280205245758 0.6290146943450976 0 0.47913475093885149 0.66010775372412711 0 0.52584555706968406 0.66664215091846768 0 0.5 0.69999999999999996 0 0.52584555706968406 0.66664215091846768 0 0.54999999999999993 0.69999999999999996 0 0.57484956128872922 0.66573805030881994 0 0.52584555706968406 0.66664215091846768 0 0.5498280205245758 0.6290146943450976 0 0.57484956128872922 0.66573805030881994 0 0.5 0.69999999999999996 0 0.55363780716230748 0.74348740161571747 0 0.50945740445113552 0.75476055527778108 0 0.52584555706968406 0.66664215091846768 0 0.5 0.69999999999999996 0 0.54999999999999993 0.69999999999999996 0 0.5 0.69999999999999996 0 0.54999999999999993 0.69999999999999996 0 0.5 0.69999999999999996 0 0.54999999999999993 0.69999999999999996 0 0.55363780716230748 0.74348740161571747 0 0.55363780716230748 0.74348740161571747 0 0.59999999999999976 0.69999999999999996 0 0.59636844454254345 0.75937156204589151 0 0.54999999999999993 0.69999999999999996 0 0.59999999999999976 0.69999999999999996 0 0.54999999999999993 0.69999999999999996 0 0.59999999999999976 0.69999999999999996 0 0.57484956128872922 0.66573805030881994 0 0.54999999999999993 0.69999999999999996 0 0.55363780716230748 0.74348740161571747 0 0.59999999999999976 0.69999999999999996 0 0.59999999999999976 0.69999999999999996 0 0.6499999999999998 0.69999999999999996 0 0.59999999999999976 0.69999999999999996 0 0.62460753523532009 0.66851202781000296 0 0.6499999999999998 0.69999999999999996 0 0.59999999999999976 0.69999999999999996 0 0.63221990677827677 0.73442891067859706 0 0.59636844454254345 0.75937156204589151 0 0.5498280205245758 0.6290146943450976 0 0.57484956128872922 0.66573805030881994 0 0.5991018319127801 0.62925360607495295 0 0.59999999999999976 0.69999999999999996 0 0.57484956128872922 0.66573805030881994 0 0.62460753523532009 0.66851202781000296 0 0.57484956128872922 0.66573805030881994 0 0.62460753523532009 0.66851202781000296 0 0.5991018319127801 0.62925360607495295 0 0.62460753523532009 0.66851202781000296 0 0.5991018319127801 0.62925360607495295 0 0.6405463747586706 0.63290524857395714 0 0.62460753523532009 0.66851202781000296 0 0.6405463747586706 0.63290524857395714 0 0.675261390228442 0.65996937624687813 0 0.62460753523532009 0.66851202781000296 0 0.675261390228442 0.65996937624687813 0 0.6499999999999998 0.69999999999999996 0 0.675261390228442 0.65996937624687813 0 0.6499999999999998 0.69999999999999996 0 0.69999999999999984 0.69999999999999996 0 0.6405463747586706 0.63290524857395714 0 0.675261390228442 0.65996937624687813 0 0.67529834988829951 0.61613270668143583 0 0.63221990677827677 0.73442891067859706 0 0.66427993341343905 0.73232764502436276 0 0.64753070846764316 0.77332939069435502 0 0.63221990677827677 0.73442891067859706 0 0.6499999999999998 0.69999999999999996 0 0.66427993341343905 0.73232764502436276 0 0.59999999999999976 0.69999999999999996 0 0.63221990677827677 0.73442891067859706 0 0.6499999999999998 0.69999999999999996 0 0.6499999999999998 0.69999999999999996 0 0.69999999999999984 0.69999999999999996 0 0.6499999999999998 0.69999999999999996 0 0.66427993341343905 0.73232764502436276 0 0.69999999999999984 0.69999999999999996 0 0.66427993341343905 0.73232764502436276 0 0.69999999999999984 0.69999999999999996 0 0.6916490518212759 0.75387992374886192 0 0.69999999999999984 0.69999999999999996 0 0.72501250972655151 0.74067302935308721 0 0.6916490518212759 0.75387992374886192 0 0.69999999999999984 0.69999999999999996 0 0.74999999999999989 0.69999999999999996 0 0.72501250972655151 0.74067302935308721 0 0.69999999999999984 0.69999999999999996 0 0.74999999999999989 0.69999999999999996 0 0.72500000000000064 0.67022701834392062 0 0.69999999999999984 0.69999999999999996 0 0.74999999999999989 0.69999999999999996 0 0.74999999999999989 0.69999999999999996 0 0.72501250972655151 0.74067302935308721 0 0.75841349681148107 0.75422312624214749 0 0.675261390228442 0.65996937624687813 0 0.71406021706547751 0.63292083137662503 0 0.72500000000000064 0.67022701834392062 0 0.675261390228442 0.65996937624687813 0 0.71406021706547751 0.63292083137662503 0 0.67529834988829951 0.61613270668143583 0 0.675261390228442 0.65996937624687813 0 0.69999999999999984 0.69999999999999996 0 0.72500000000000064 0.67022701834392062 0 0.71406021706547751 0.63292083137662503 0 0.72500000000000064 0.67022701834392062 0 0.74994237037456724 0.62775548192980357 0 0.72500000000000064 0.67022701834392062 0 0.74994237037456724 0.62775548192980357 0 0.7750489929959945 0.66593931409600093 0 0.71406021706547751 0.63292083137662503 0 0.74994237037456724 0.62775548192980357 0 0.71809016091162536 0.58185040402320831 0 0.74994237037456724 0.62775548192980357 0 0.71809016091162536 0.58185040402320831 0 0.77293540622714185 0.59448302402785813 0 0.71406021706547751 0.63292083137662503 0 0.71809016091162536 0.58185040402320831 0 0.67529834988829951 0.61613270668143583 0 0.71809016091162536 0.58185040402320831 0 0.67569444444444449 0.53500863336860327 0 0.67323294229744413 0.57556450033612505 0 0.71809016091162536 0.58185040402320831 0 0.67529834988829951 0.61613270668143583 0 0.67323294229744413 0.57556450033612505 0 0.71809016091162536 0.58185040402320831 0 0.7152569930854884 0.5237994455134295 0 0.77151014687832564 0.54436834383023036 0 0.7152569930854884 0.5237994455134295 0 0.77151014687832564 0.54436834383023036 0 0.73947346780852752 0.49062440112282169 0 0.7152569930854884 0.5237994455134295 0 0.67569444444444449 0.53500863336860327 0 0.69385896817107129 0.48377516041410151 0 0.71809016091162536 0.58185040402320831 0 0.7152569930854884 0.5237994455134295 0 0.67569444444444449 0.53500863336860327 0 0.62042975506801734 0.54295974692364424 0 0.67569444444444449 0.53500863336860327 0 0.67323294229744413 0.57556450033612505 0 0.67569444444444449 0.53500863336860327 0 0.6541250972820879 0.49999999999999989 0 0.69385896817107129 0.48377516041410151 0 0.62042975506801734 0.54295974692364424 0 0.67569444444444449 0.53500863336860327 0 0.6541250972820879 0.49999999999999989 0 0.62042975506801734 0.54295974692364424 0 0.61547661924074692 0.48539576058873962 0 0.6541250972820879 0.49999999999999989 0 0.62042975506801734 0.54295974692364424 0 0.63065402604362242 0.59661356661633302 0 0.67323294229744413 0.57556450033612505 0 0.6405463747586706 0.63290524857395714 0 0.63065402604362242 0.59661356661633302 0 0.67529834988829951 0.61613270668143583 0 0.63065402604362242 0.59661356661633302 0 0.67529834988829951 0.61613270668143583 0 0.67323294229744413 0.57556450033612505 0 0.60000000000138687 1 0 0.62065498684670595 0.95224934003983619 0 0.57382506491224949 0.9629411906298494 0 0.60000000000138687 1 0 0.62065498684670595 0.95224934003983619 0 0.65000000000104008 1 0 0.62065498684670595 0.95224934003983619 0 0.57382506491224949 0.9629411906298494 0 0.57724883562309992 0.92155686857100794 0 0.60000000000138687 1 0 0.57382506491224949 0.9629411906298494 0 0.55000000000173355 1 0 0.55000000000173355 1 0 0.50000000000205869 1 0 0.52122150208832174 0.94089974453840242 0 0.57382506491224949 0.9629411906298494 0 0.52122150208832174 0.94089974453840242 0 0.57724883562309992 0.92155686857100794 0 0.57382506491224949 0.9629411906298494 0 0.55000000000173355 1 0 0.52122150208832174 0.94089974453840242 0 0.52122150208832174 0.94089974453840242 0 0.54783390826260769 0.89287767010860219 0 0.57724883562309992 0.92155686857100794 0 0.52122150208832174 0.94089974453840242 0 0.50202631463681879 0.87892870825713787 0 0.54783390826260769 0.89287767010860219 0 0.54783390826260769 0.89287767010860219 0 0.5832743223239254 0.88483152652961872 0 0.55899371797446828 0.85003102233514438 0 0.54783390826260769 0.89287767010860219 0 0.5832743223239254 0.88483152652961872 0 0.57724883562309992 0.92155686857100794 0 0.5832743223239254 0.88483152652961872 0 0.57724883562309992 0.92155686857100794 0 0.61885627562261258 0.90282959257498208 0 0.62065498684670595 0.95224934003983619 0 0.57724883562309992 0.92155686857100794 0 0.61885627562261258 0.90282959257498208 0 0.5832743223239254 0.88483152652961872 0 0.61885627562261258 0.90282959257498208 0 0.61343887413683884 0.856862479058357 0 0.61343887413683884 0.856862479058357 0 0.60294066490120068 0.80851322453934582 0 0.65005442820240822 0.82644988530054031 0 0.61343887413683884 0.856862479058357 0 0.55899371797446828 0.85003102233514438 0 0.60294066490120068 0.80851322453934582 0 0.55899371797446828 0.85003102233514438 0 0.54782696902220018 0.79245182748204157 0 0.60294066490120068 0.80851322453934582 0 0.5832743223239254 0.88483152652961872 0 0.61343887413683884 0.856862479058357 0 0.55899371797446828 0.85003102233514438 0 0.50202631463681879 0.87892870825713787 0 0.54783390826260769 0.89287767010860219 0 0.55899371797446828 0.85003102233514438 0 0.50202631463681879 0.87892870825713787 0 0.55899371797446828 0.85003102233514438 0 0.50627822638148745 0.8263979829520941 0 0.55899371797446828 0.85003102233514438 0 0.50627822638148745 0.8263979829520941 0 0.54782696902220018 0.79245182748204157 0 0.50627822638148745 0.8263979829520941 0 0.54782696902220018 0.79245182748204157 0 0.50731287292894423 0.78963574450233831 0 0.54782696902220018 0.79245182748204157 0 0.50731287292894423 0.78963574450233831 0 0.50945740445113552 0.75476055527778108 0 0.55363780716230748 0.74348740161571747 0 0.54782696902220018 0.79245182748204157 0 0.50945740445113552 0.75476055527778108 0 0.55363780716230748 0.74348740161571747 0 0.54782696902220018 0.79245182748204157 0 0.59636844454254345 0.75937156204589151 0 0.54782696902220018 0.79245182748204157 0 0.60294066490120068 0.80851322453934582 0 0.59636844454254345 0.75937156204589151 0 0.60294066490120068 0.80851322453934582 0 0.59636844454254345 0.75937156204589151 0 0.64753070846764316 0.77332939069435502 0 0.63221990677827677 0.73442891067859706 0 0.59636844454254345 0.75937156204589151 0 0.64753070846764316 0.77332939069435502 0 0.60294066490120068 0.80851322453934582 0 0.64753070846764316 0.77332939069435502 0 0.65005442820240822 0.82644988530054031 0 0.64753070846764316 0.77332939069435502 0 0.68024162096458085 0.79868546898116533 0 0.65005442820240822 0.82644988530054031 0 0.64753070846764316 0.77332939069435502 0 0.68024162096458085 0.79868546898116533 0 0.6916490518212759 0.75387992374886192 0 0.66427993341343905 0.73232764502436276 0 0.64753070846764316 0.77332939069435502 0 0.6916490518212759 0.75387992374886192 0 0.72501250972655151 0.74067302935308721 0 0.6916490518212759 0.75387992374886192 0 0.72500000000000064 0.7952620967744265 0 0.72501250972655151 0.74067302935308721 0 0.72500000000000064 0.7952620967744265 0 0.75841349681148107 0.75422312624214749 0 0.68024162096458085 0.79868546898116533 0 0.6916490518212759 0.75387992374886192 0 0.72500000000000064 0.7952620967744265 0 0.68024162096458085 0.79868546898116533 0 0.72500000000000064 0.7952620967744265 0 0.68697391633157634 0.84450604838764298 0 0.72500000000000064 0.7952620967744265 0 0.72863726579783861 0.85390518901155588 0 0.68697391633157634 0.84450604838764298 0 0.72500000000000064 0.7952620967744265 0 0.72863726579783861 0.85390518901155588 0 0.76901770135486491 0.84293557325473656 0 0.72863726579783861 0.85390518901155588 0 0.68697391633157634 0.84450604838764298 0 0.7250000000005199 0.89375000000045834 0 0.68697391633157634 0.84450604838764298 0 0.66412543161245952 0.88015090885499059 0 0.7250000000005199 0.89375000000045834 0 0.68697391633157634 0.84450604838764298 0 0.65005442820240822 0.82644988530054031 0 0.66412543161245952 0.88015090885499059 0 0.68024162096458085 0.79868546898116533 0 0.68697391633157634 0.84450604838764298 0 0.65005442820240822 0.82644988530054031 0 0.61343887413683884 0.856862479058357 0 0.65005442820240822 0.82644988530054031 0 0.66412543161245952 0.88015090885499059 0 0.61885627562261258 0.90282959257498208 0 0.61343887413683884 0.856862479058357 0 0.66412543161245952 0.88015090885499059 0 0.61885627562261258 0.90282959257498208 0 0.65507451745379841 0.92229208810758578 0 0.66412543161245952 0.88015090885499059 0 0.62065498684670595 0.95224934003983619 0 0.61885627562261258 0.90282959257498208 0 0.65507451745379841 0.92229208810758578 0 0.65507451745379841 0.92229208810758578 0 0.68987011941058407 0.92105047536677087 0 0.68015064798562208 0.95924320340003011 0 0.65507451745379841 0.92229208810758578 0 0.66412543161245952 0.88015090885499059 0 0.68987011941058407 0.92105047536677087 0 0.66412543161245952 0.88015090885499059 0 0.7250000000005199 0.89375000000045834 0 0.68987011941058407 0.92105047536677087 0 0.72863726579783861 0.85390518901155588 0 0.7250000000005199 0.89375000000045834 0 0.76891166905518427 0.88835469571185499 0 0.7250000000005199 0.89375000000045834 0 0.7250000000005199 0.94981617647078953 0 0.75729602384198635 0.92353652857884294 0 0.7250000000005199 0.89375000000045834 0 0.68987011941058407 0.92105047536677087 0 0.7250000000005199 0.94981617647078953 0 0.68987011941058407 0.92105047536677087 0 0.7250000000005199 0.94981617647078953 0 0.68015064798562208 0.95924320340003011 0 0.7250000000005199 0.94981617647078953 0 0.7000000000006934 1 0 0.75000000000034661 1 0 0.7250000000005199 0.94981617647078953 0 0.75000000000034661 1 0 0.770759834363826 0.95919399014344442 0 0.7250000000005199 0.94981617647078953 0 0.7000000000006934 1 0 0.68015064798562208 0.95924320340003011 0 0.7000000000006934 1 0 0.68015064798562208 0.95924320340003011 0 0.65000000000104008 1 0 0.62065498684670595 0.95224934003983619 0 0.65507451745379841 0.92229208810758578 0 0.68015064798562208 0.95924320340003011 0 0.62065498684670595 0.95224934003983619 0 0.68015064798562208 0.95924320340003011 0 0.65000000000104008 1 0 0.84999999999965292 1 0 0.85170973911348691 0.93569607295217616 0 0.89898474358632463 0.95391965591118966 0 0.84999999999965292 1 0 0.81486180804382891 0.96321394949790495 0 0.85170973911348691 0.93569607295217616 0 0.81486180804382891 0.96321394949790495 0 0.79680861578988083 0.92656778056766709 0 0.85170973911348691 0.93569607295217616 0 0.84999999999965292 1 0 0.81486180804382891 0.96321394949790495 0 0.79999999999999982 1 0 0.81486180804382891 0.96321394949790495 0 0.79999999999999982 1 0 0.770759834363826 0.95919399014344442 0 0.79999999999999982 1 0 0.75000000000034661 1 0 0.770759834363826 0.95919399014344442 0 0.7250000000005199 0.94981617647078953 0 0.770759834363826 0.95919399014344442 0 0.75729602384198635 0.92353652857884294 0 0.81486180804382891 0.96321394949790495 0 0.770759834363826 0.95919399014344442 0 0.79680861578988083 0.92656778056766709 0 0.79680861578988083 0.92656778056766709 0 0.75729602384198635 0.92353652857884294 0 0.76891166905518427 0.88835469571185499 0 0.770759834363826 0.95919399014344442 0 0.79680861578988083 0.92656778056766709 0 0.75729602384198635 0.92353652857884294 0 0.7250000000005199 0.89375000000045834 0 0.75729602384198635 0.92353652857884294 0 0.76891166905518427 0.88835469571185499 0 0.79680861578988083 0.92656778056766709 0 0.76891166905518427 0.88835469571185499 0 0.81159157511211755 0.88795995483179491 0 0.81159157511211755 0.88795995483179491 0 0.85170973911348691 0.93569607295217616 0 0.85600844944837662 0.88483418979512773 0 0.79680861578988083 0.92656778056766709 0 0.81159157511211755 0.88795995483179491 0 0.85170973911348691 0.93569607295217616 0 0.85170973911348691 0.93569607295217616 0 0.85600844944837662 0.88483418979512773 0 0.90416666666660628 0.9041666666666166 0 0.85600844944837662 0.88483418979512773 0 0.82709327591091286 0.84937141670920724 0 0.88088768115933802 0.84674609810493673 0 0.82709327591091286 0.84937141670920724 0 0.84725310900444062 0.80779732082917555 0 0.88088768115933802 0.84674609810493673 0 0.82709327591091286 0.84937141670920724 0 0.80041942726660109 0.81543261647703358 0 0.84725310900444062 0.80779732082917555 0 0.81159157511211755 0.88795995483179491 0 0.85600844944837662 0.88483418979512773 0 0.82709327591091286 0.84937141670920724 0 0.76891166905518427 0.88835469571185499 0 0.81159157511211755 0.88795995483179491 0 0.76901770135486491 0.84293557325473656 0 0.81159157511211755 0.88795995483179491 0 0.82709327591091286 0.84937141670920724 0 0.76901770135486491 0.84293557325473656 0 0.72863726579783861 0.85390518901155588 0 0.76891166905518427 0.88835469571185499 0 0.76901770135486491 0.84293557325473656 0 0.76901770135486491 0.84293557325473656 0 0.80041942726660109 0.81543261647703358 0 0.77094201086366854 0.79647480515688507 0 0.82709327591091286 0.84937141670920724 0 0.76901770135486491 0.84293557325473656 0 0.80041942726660109 0.81543261647703358 0 0.80041942726660109 0.81543261647703358 0 0.77094201086366854 0.79647480515688507 0 0.80185942888539485 0.77452061303608133 0 0.72500000000000064 0.7952620967744265 0 0.77094201086366854 0.79647480515688507 0 0.75841349681148107 0.75422312624214749 0 0.72500000000000064 0.7952620967744265 0 0.76901770135486491 0.84293557325473656 0 0.77094201086366854 0.79647480515688507 0 0.77094201086366854 0.79647480515688507 0 0.75841349681148107 0.75422312624214749 0 0.80185942888539485 0.77452061303608133 0 0.75841349681148107 0.75422312624214749 0 0.80185942888539485 0.77452061303608133 0 0.78578450296893509 0.73292684821144505 0 0.80185942888539485 0.77452061303608133 0 0.84725310900444062 0.80779732082917555 0 0.85491058998424563 0.76004753345552634 0 0.80185942888539485 0.77452061303608133 0 0.85491058998424563 0.76004753345552634 0 0.81864958914779962 0.73589050177899629 0 0.80041942726660109 0.81543261647703358 0 0.80185942888539485 0.77452061303608133 0 0.84725310900444062 0.80779732082917555 0 0.84725310900444062 0.80779732082917555 0 0.85491058998424563 0.76004753345552634 0 0.90299850604011456 0.79563452813489832 0 0.85491058998424563 0.76004753345552634 0 0.90299850604011456 0.79563452813489832 0 0.89999166460796554 0.74528934923809909 0 0.90299850604011456 0.79563452813489832 0 0.94399509803918602 0.75600490196082126 0 0.95386563387742829 0.80414874155775029 0 0.90299850604011456 0.79563452813489832 0 0.94399509803918602 0.75600490196082126 0 0.89999166460796554 0.74528934923809909 0 0.94399509803918602 0.75600490196082126 0 0.97435614836745565 0.77499999999987745 0 0.95386563387742829 0.80414874155775029 0 0.94399509803918602 0.75600490196082126 0 0.97435614836745565 0.77499999999987745 0 0.97166519676947294 0.73337114490064459 0 0.97435614836745565 0.77499999999987745 0 0.97166519676947294 0.73337114490064459 0 1 0.74999999999993494 0 0.97435614836745565 0.77499999999987745 0 1 0.7999999999998193 0 1 0.74999999999993494 0 0.97435614836745565 0.77499999999987745 0 1 0.7999999999998193 0 0.95386563387742829 0.80414874155775029 0 1 0.84999999999982645 0 0.93677536231884972 0.85000000000000286 0 0.95391631417670719 0.89584263333814784 0 0.95386563387742829 0.80414874155775029 0 1 0.84999999999982645 0 0.93677536231884972 0.85000000000000286 0 1 0.7999999999998193 0 0.95386563387742829 0.80414874155775029 0 1 0.84999999999982645 0 0.93677536231884972 0.85000000000000286 0 0.88088768115933802 0.84674609810493673 0 0.90416666666660628 0.9041666666666166 0 0.90299850604011456 0.79563452813489832 0 0.95386563387742829 0.80414874155775029 0 0.93677536231884972 0.85000000000000286 0 0.90299850604011456 0.79563452813489832 0 0.93677536231884972 0.85000000000000286 0 0.88088768115933802 0.84674609810493673 0 0.84725310900444062 0.80779732082917555 0 0.90299850604011456 0.79563452813489832 0 0.88088768115933802 0.84674609810493673 0 0.85600844944837662 0.88483418979512773 0 0.88088768115933802 0.84674609810493673 0 0.90416666666660628 0.9041666666666166 0 0.85170973911348691 0.93569607295217616 0 0.90416666666660628 0.9041666666666166 0 0.89898474358632463 0.95391965591118966 0 0.90416666666660628 0.9041666666666166 0 0.95391631417670719 0.89584263333814784 0 0.94399509803919068 0.9439950980391687 0 0.90416666666660628 0.9041666666666166 0 0.94399509803919068 0.9439950980391687 0 0.89898474358632463 0.95391965591118966 0 0.93677536231884972 0.85000000000000286 0 0.90416666666660628 0.9041666666666166 0 0.95391631417670719 0.89584263333814784 0 1 0.84999999999982645 0 0.95391631417670719 0.89584263333814784 0 1 0.8999999999998336 0 1 0.8999999999998336 0 0.97435614836744289 0.92499999999990257 0 1 0.94999999999997109 0 0.95391631417670719 0.89584263333814784 0 1 0.8999999999998336 0 0.97435614836744289 0.92499999999990257 0 0.95391631417670719 0.89584263333814784 0 0.97435614836744289 0.92499999999990257 0 0.94399509803919068 0.9439950980391687 0 0.97435614836744289 0.92499999999990257 0 0.94399509803919068 0.9439950980391687 0 0.97166519676946206 0.96662885509935492 0 0.97435614836744289 0.92499999999990257 0 0.97166519676946206 0.96662885509935492 0 1 0.94999999999997109 0 0.97166519676946206 0.96662885509935492 0 1 0.94999999999997109 0 1 1 0 0.97166519676946206 0.96662885509935492 0 1 1 0 0.94999999999979179 1 0 0.94399509803919068 0.9439950980391687 0 0.97166519676946206 0.96662885509935492 0 0.94999999999979179 1 0 0.94999999999979179 1 0 0.89898474358632463 0.95391965591118966 0 0.89999999999958358 1 0 0.94399509803919068 0.9439950980391687 0 0.94999999999979179 1 0 0.89898474358632463 0.95391965591118966 0 0.84999999999965292 1 0 0.89898474358632463 0.95391965591118966 0 0.89999999999958358 1 0 0.81723410853263523 0.59419663659258926 0 0.86956835336234861 0.571283299838105 0 0.82862096804812391 0.55037090955459045 0 0.81723410853263523 0.59419663659258926 0 0.87159648282691515 0.61285406320581504 0 0.83758014339878906 0.63222013025741819 0 0.81723410853263523 0.59419663659258926 0 0.79884539758237771 0.62875045078114233 0 0.83758014339878906 0.63222013025741819 0 0.81723410853263523 0.59419663659258926 0 0.87159648282691515 0.61285406320581504 0 0.86956835336234861 0.571283299838105 0 0.86956835336234861 0.571283299838105 0 0.86907294890112186 0.52008116128001669 0 0.82862096804812391 0.55037090955459045 0 0.86907294890112186 0.52008116128001669 0 0.81441713509985358 0.51161854125224959 0 0.82862096804812391 0.55037090955459045 0 0.86907294890112186 0.52008116128001669 0 0.81441713509985358 0.51161854125224959 0 0.84723782639812573 0.48638347960178252 0 0.81441713509985358 0.51161854125224959 0 0.82862096804812391 0.55037090955459045 0 0.77151014687832564 0.54436834383023036 0 0.81441713509985358 0.51161854125224959 0 0.77151014687832564 0.54436834383023036 0 0.77846603114747959 0.49850927265137401 0 0.77151014687832564 0.54436834383023036 0 0.77846603114747959 0.49850927265137401 0 0.73947346780852752 0.49062440112282169 0 0.71809016091162536 0.58185040402320831 0 0.77151014687832564 0.54436834383023036 0 0.77293540622714185 0.59448302402785813 0 0.81723410853263523 0.59419663659258926 0 0.77151014687832564 0.54436834383023036 0 0.77293540622714185 0.59448302402785813 0 0.81723410853263523 0.59419663659258926 0 0.82862096804812391 0.55037090955459045 0 0.77151014687832564 0.54436834383023036 0 0.81723410853263523 0.59419663659258926 0 0.77293540622714185 0.59448302402785813 0 0.79884539758237771 0.62875045078114233 0 0.74994237037456724 0.62775548192980357 0 0.77293540622714185 0.59448302402785813 0 0.79884539758237771 0.62875045078114233 0 0.74994237037456724 0.62775548192980357 0 0.7750489929959945 0.66593931409600093 0 0.79884539758237771 0.62875045078114233 0 0.74999999999999989 0.69999999999999996 0 0.72500000000000064 0.67022701834392062 0 0.7750489929959945 0.66593931409600093 0 0.7750489929959945 0.66593931409600093 0 0.79999999999999982 0.69999999999999996 0 0.82457059160610424 0.66831947184359608 0 0.7750489929959945 0.66593931409600093 0 0.79884539758237771 0.62875045078114233 0 0.82457059160610424 0.66831947184359608 0 0.74999999999999989 0.69999999999999996 0 0.75841349681148107 0.75422312624214749 0 0.78578450296893509 0.73292684821144505 0 0.74999999999999989 0.69999999999999996 0 0.79999999999999982 0.69999999999999996 0 0.78578450296893509 0.73292684821144505 0 0.74999999999999989 0.69999999999999996 0 0.7750489929959945 0.66593931409600093 0 0.79999999999999982 0.69999999999999996 0 0.74999999999999989 0.69999999999999996 0 0.79999999999999982 0.69999999999999996 0 0.80185942888539485 0.77452061303608133 0 0.78578450296893509 0.73292684821144505 0 0.81864958914779962 0.73589050177899629 0 0.79999999999999982 0.69999999999999996 0 0.78578450296893509 0.73292684821144505 0 0.81864958914779962 0.73589050177899629 0 0.85491058998424563 0.76004753345552634 0 0.81864958914779962 0.73589050177899629 0 0.84999999999999987 0.69999999999999996 0 0.79999999999999982 0.69999999999999996 0 0.84999999999999987 0.69999999999999996 0 0.79999999999999982 0.69999999999999996 0 0.84999999999999987 0.69999999999999996 0 0.82457059160610424 0.66831947184359608 0 0.79999999999999982 0.69999999999999996 0 0.81864958914779962 0.73589050177899629 0 0.84999999999999987 0.69999999999999996 0 0.84999999999999987 0.69999999999999996 0 0.89999999999999991 0.69999999999999996 0 0.85491058998424563 0.76004753345552634 0 0.84999999999999987 0.69999999999999996 0 0.89999166460796554 0.74528934923809909 0 0.79884539758237771 0.62875045078114233 0 0.83758014339878906 0.63222013025741819 0 0.82457059160610424 0.66831947184359608 0 0.84999999999999987 0.69999999999999996 0 0.82457059160610424 0.66831947184359608 0 0.87712158428786946 0.65709029563313581 0 0.87159648282691515 0.61285406320581504 0 0.83758014339878906 0.63222013025741819 0 0.87712158428786946 0.65709029563313581 0 0.83758014339878906 0.63222013025741819 0 0.82457059160610424 0.66831947184359608 0 0.87712158428786946 0.65709029563313581 0 0.87712158428786946 0.65709029563313581 0 0.92057473616084773 0.66770436535372446 0 0.91750694127105259 0.63017627779935648 0 0.87159648282691515 0.61285406320581504 0 0.87712158428786946 0.65709029563313581 0 0.91750694127105259 0.63017627779935648 0 0.84999999999999987 0.69999999999999996 0 0.87712158428786946 0.65709029563313581 0 0.89999999999999991 0.69999999999999996 0 0.87712158428786946 0.65709029563313581 0 0.92057473616084773 0.66770436535372446 0 0.89999999999999991 0.69999999999999996 0 0.92057473616084773 0.66770436535372446 0 0.91750694127105259 0.63017627779935648 0 0.9578014258160763 0.65787212321113708 0 0.84999999999999987 0.69999999999999996 0 0.89999166460796554 0.74528934923809909 0 0.89999999999999991 0.69999999999999996 0 0.89999999999999991 0.69999999999999996 0 0.94999999999999996 0.69999999999999996 0 0.92057473616084773 0.66770436535372446 0 0.89999999999999991 0.69999999999999996 0 0.94999999999999996 0.69999999999999996 0 0.89999166460796554 0.74528934923809909 0 0.89999999999999991 0.69999999999999996 0 0.94999999999999996 0.69999999999999996 0 0.94399509803918602 0.75600490196082126 0 0.89999166460796554 0.74528934923809909 0 0.94999999999999996 0.69999999999999996 0 0.94399509803918602 0.75600490196082126 0 0.94999999999999996 0.69999999999999996 0 0.97166519676947294 0.73337114490064459 0 0.94999999999999996 0.69999999999999996 0 1 0.69999999999999996 0 0.94999999999999996 0.69999999999999996 0 1 0.69999999999999996 0 0.97166519676947294 0.73337114490064459 0 1 0.69999999999999996 0 0.97166519676947294 0.73337114490064459 0 1 0.74999999999993494 0 0.91750694127105259 0.63017627779935648 0 0.9578014258160763 0.65787212321113708 0 0.95867599106212187 0.60011091146651041 0 0.92057473616084773 0.66770436535372446 0 0.94999999999999996 0.69999999999999996 0 0.9578014258160763 0.65787212321113708 0 0.94999999999999996 0.69999999999999996 0 1 0.69999999999999996 0 0.9578014258160763 0.65787212321113708 0 1 0.69999999999999996 0 0.9578014258160763 0.65787212321113708 0 1 0.64999999999986979 0 0.9578014258160763 0.65787212321113708 0 1 0.64999999999986979 0 0.95867599106212187 0.60011091146651041 0 0.95867599106212187 0.60011091146651041 0 0.93732437411268477 0.55911392101136159 0 1 0.54999999999963112 0 1 0.64999999999986979 0 1 0.59999999999973963 0 0.95867599106212187 0.60011091146651041 0 1 0.59999999999973963 0 0.95867599106212187 0.60011091146651041 0 1 0.54999999999963112 0 0.91750694127105259 0.63017627779935648 0 0.95867599106212187 0.60011091146651041 0 0.91143117093204207 0.58709913730335972 0 0.95867599106212187 0.60011091146651041 0 0.91143117093204207 0.58709913730335972 0 0.93732437411268477 0.55911392101136159 0 0.86956835336234861 0.571283299838105 0 0.91143117093204207 0.58709913730335972 0 0.90900154012161016 0.53607784105648792 0 0.87159648282691515 0.61285406320581504 0 0.86956835336234861 0.571283299838105 0 0.91143117093204207 0.58709913730335972 0 0.87159648282691515 0.61285406320581504 0 0.91750694127105259 0.63017627779935648 0 0.91143117093204207 0.58709913730335972 0 0.86907294890112186 0.52008116128001669 0 0.90900154012161016 0.53607784105648792 0 0.91696753777131557 0.497780560203536 0 0.86956835336234861 0.571283299838105 0 0.86907294890112186 0.52008116128001669 0 0.90900154012161016 0.53607784105648792 0 0.90900154012161016 0.53607784105648792 0 0.93732437411268477 0.55911392101136159 0 0.95631871884947484 0.51827533208233789 0 0.91143117093204207 0.58709913730335972 0 0.90900154012161016 0.53607784105648792 0 0.93732437411268477 0.55911392101136159 0 0.90900154012161016 0.53607784105648792 0 0.95631871884947484 0.51827533208233789 0 0.91696753777131557 0.497780560203536 0 0.93732437411268477 0.55911392101136159 0 0.95631871884947484 0.51827533208233789 0 1 0.54999999999963112 0 0.95631871884947484 0.51827533208233789 0 1 0.54999999999963112 0 1 0.49999999999950101 0 0.95631871884947484 0.51827533208233789 0 1 0.49999999999950101 0 0.96228564064454991 0.48206450662049471 0 1 0.49999999999950101 0 1 0.44999999999963131 0 0.96228564064454991 0.48206450662049471 0 1 0.44999999999963131 0 0.93814194660195893 0.44426664081746747 0 0.96228564064454991 0.48206450662049471 0 0.93814194660195893 0.44426664081746747 0 0.96228564064454991 0.48206450662049471 0 0.91696753777131557 0.497780560203536 0 0.95631871884947484 0.51827533208233789 0 0.96228564064454991 0.48206450662049471 0 0.91696753777131557 0.497780560203536 0 1 0.39999999999978308 0 0.95871855522754235 0.40006508612975411 0 1 0.34999999999993492 0 1 0.44999999999963131 0 1 0.39999999999978308 0 0.95871855522754235 0.40006508612975411 0 1 0.44999999999963131 0 0.93814194660195893 0.44426664081746747 0 0.95871855522754235 0.40006508612975411 0 0.95871855522754235 0.40006508612975411 0 0.90594285160987287 0.4141265964174129 0 0.91750694127107502 0.36982372220068471 0 0.93814194660195893 0.44426664081746747 0 0.95871855522754235 0.40006508612975411 0 0.90594285160987287 0.4141265964174129 0 0.90594285160987287 0.4141265964174129 0 0.88594198078881503 0.46167788676578442 0 0.86411095495256451 0.42388805655111889 0 0.90594285160987287 0.4141265964174129 0 0.86411095495256451 0.42388805655111889 0 0.86844634540301924 0.38530937474099819 0 0.90594285160987287 0.4141265964174129 0 0.86844634540301924 0.38530937474099819 0 0.91750694127107502 0.36982372220068471 0 0.93814194660195893 0.44426664081746747 0 0.91696753777131557 0.497780560203536 0 0.88594198078881503 0.46167788676578442 0 0.93814194660195893 0.44426664081746747 0 0.90594285160987287 0.4141265964174129 0 0.88594198078881503 0.46167788676578442 0 0.86907294890112186 0.52008116128001669 0 0.91696753777131557 0.497780560203536 0 0.88594198078881503 0.46167788676578442 0 0.86907294890112186 0.52008116128001669 0 0.88594198078881503 0.46167788676578442 0 0.84723782639812573 0.48638347960178252 0 0.81441713509985358 0.51161854125224959 0 0.84723782639812573 0.48638347960178252 0 0.81400510706333218 0.47357325943904899 0 0.84723782639812573 0.48638347960178252 0 0.81400510706333218 0.47357325943904899 0 0.84925632466077294 0.45359738909549091 0 0.81400510706333218 0.47357325943904899 0 0.84925632466077294 0.45359738909549091 0 0.81973119833356312 0.43505687159469048 0 0.88594198078881503 0.46167788676578442 0 0.84723782639812573 0.48638347960178252 0 0.84925632466077294 0.45359738909549091 0 0.84925632466077294 0.45359738909549091 0 0.86411095495256451 0.42388805655111889 0 0.81973119833356312 0.43505687159469048 0 0.88594198078881503 0.46167788676578442 0 0.84925632466077294 0.45359738909549091 0 0.86411095495256451 0.42388805655111889 0 0.86411095495256451 0.42388805655111889 0 0.86844634540301924 0.38530937474099819 0 0.81308179852519835 0.39754945808726527 0 0.86844634540301924 0.38530937474099819 0 0.81308179852519835 0.39754945808726527 0 0.83573492347052902 0.36590755630746369 0 0.86411095495256451 0.42388805655111889 0 0.81308179852519835 0.39754945808726527 0 0.81973119833356312 0.43505687159469048 0 0.81973119833356312 0.43505687159469048 0 0.77354604466818633 0.40378688774472771 0 0.77972660463949339 0.45529290596363098 0 0.81308179852519835 0.39754945808726527 0 0.81973119833356312 0.43505687159469048 0 0.77354604466818633 0.40378688774472771 0 0.81308179852519835 0.39754945808726527 0 0.77354604466818633 0.40378688774472771 0 0.78145581580700685 0.34881365920033602 0 0.77354604466818633 0.40378688774472771 0 0.77972660463949339 0.45529290596363098 0 0.73483647259922602 0.44789725365921768 0 0.77972660463949339 0.45529290596363098 0 0.73483647259922602 0.44789725365921768 0 0.73947346780852752 0.49062440112282169 0 0.77972660463949339 0.45529290596363098 0 0.77846603114747959 0.49850927265137401 0 0.73947346780852752 0.49062440112282169 0 0.81400510706333218 0.47357325943904899 0 0.77972660463949339 0.45529290596363098 0 0.77846603114747959 0.49850927265137401 0 0.81441713509985358 0.51161854125224959 0 0.81400510706333218 0.47357325943904899 0 0.77846603114747959 0.49850927265137401 0 0.81400510706333218 0.47357325943904899 0 0.81973119833356312 0.43505687159469048 0 0.77972660463949339 0.45529290596363098 0 0.79999999999999982 0.29999999999999999 0 0.77075983436335049 0.25919399014334171 0 0.81486180804364938 0.26321394949780091 0 0.79999999999999982 0.29999999999999999 0 0.74999999999999989 0.29999999999999999 0 0.79999999999999982 0.29999999999999999 0 0.77075983436335049 0.25919399014334171 0 0.74999999999999989 0.29999999999999999 0 0.79999999999999982 0.29999999999999999 0 0.78145581580700685 0.34881365920033602 0 0.74999999999999989 0.29999999999999999 0 0.78145581580700685 0.34881365920033602 0 0.73090396928863699 0.33699297293167962 0 0.74999999999999989 0.29999999999999999 0 0.77354604466818633 0.40378688774472771 0 0.78145581580700685 0.34881365920033602 0 0.74764719760526988 0.3719647154012321 0 0.78145581580700685 0.34881365920033602 0 0.74764719760526988 0.3719647154012321 0 0.73090396928863699 0.33699297293167962 0 0.81308179852519835 0.39754945808726527 0 0.78145581580700685 0.34881365920033602 0 0.83573492347052902 0.36590755630746369 0 0.79999999999999982 0.29999999999999999 0 0.78145581580700685 0.34881365920033602 0 0.82500000000000062 0.33010209762754811 0 0.78145581580700685 0.34881365920033602 0 0.82500000000000062 0.33010209762754811 0 0.83573492347052902 0.36590755630746369 0 0.82500000000000062 0.33010209762754811 0 0.83573492347052902 0.36590755630746369 0 0.87430060258887643 0.34056085888204451 0 0.86844634540301924 0.38530937474099819 0 0.83573492347052902 0.36590755630746369 0 0.87430060258887643 0.34056085888204451 0 0.82500000000000062 0.33010209762754811 0 0.87430060258887643 0.34056085888204451 0 0.84999999999999987 0.29999999999999999 0 0.87430060258887643 0.34056085888204451 0 0.84999999999999987 0.29999999999999999 0 0.89999999999999991 0.29999999999999999 0 0.84999999999999987 0.29999999999999999 0 0.81486180804364938 0.26321394949780091 0 0.8517097391133297 0.2356960729520409 0 0.84999999999999987 0.29999999999999999 0 0.89898474358614167 0.25391965591104898 0 0.8517097391133297 0.2356960729520409 0 0.84999999999999987 0.29999999999999999 0 0.89999999999999991 0.29999999999999999 0 0.79999999999999982 0.29999999999999999 0 0.82500000000000062 0.33010209762754811 0 0.84999999999999987 0.29999999999999999 0 0.79999999999999982 0.29999999999999999 0 0.84999999999999987 0.29999999999999999 0 0.81486180804364938 0.26321394949780091 0 0.79999999999999982 0.29999999999999999 0 0.84999999999999987 0.29999999999999999 0 0.84999999999999987 0.29999999999999999 0 0.89898474358614167 0.25391965591104898 0 0.89999999999999991 0.29999999999999999 0 0.89999999999999991 0.29999999999999999 0 0.94999999999999996 0.29999999999999999 0 0.89999999999999991 0.29999999999999999 0 0.92012390126144183 0.33123581297173937 0 0.94999999999999996 0.29999999999999999 0 0.89898474358614167 0.25391965591104898 0 0.89999999999999991 0.29999999999999999 0 0.94999999999999996 0.29999999999999999 0 0.89898474358614167 0.25391965591104898 0 0.94999999999999996 0.29999999999999999 0 0.94399509803921056 0.24399509803922639 0 0.86844634540301924 0.38530937474099819 0 0.87430060258887643 0.34056085888204451 0 0.91750694127107502 0.36982372220068471 0 0.87430060258887643 0.34056085888204451 0 0.92012390126144183 0.33123581297173937 0 0.91750694127107502 0.36982372220068471 0 0.87430060258887643 0.34056085888204451 0 0.89999999999999991 0.29999999999999999 0 0.92012390126144183 0.33123581297173937 0 0.92012390126144183 0.33123581297173937 0 0.91750694127107502 0.36982372220068471 0 0.95780851984364423 0.34215720972155339 0 0.95871855522754235 0.40006508612975411 0 0.91750694127107502 0.36982372220068471 0 0.95780851984364423 0.34215720972155339 0 0.92012390126144183 0.33123581297173937 0 0.95780851984364423 0.34215720972155339 0 0.94999999999999996 0.29999999999999999 0 0.95780851984364423 0.34215720972155339 0 0.94999999999999996 0.29999999999999999 0 1 0.29999999999999999 0 0.95780851984364423 0.34215720972155339 0 1 0.34999999999993492 0 1 0.29999999999999999 0 0.95871855522754235 0.40006508612975411 0 0.95780851984364423 0.34215720972155339 0 1 0.34999999999993492 0 0.94999999999999996 0.29999999999999999 0 0.97166519676951801 0.26662885509932011 0 0.94399509803921056 0.24399509803922639 0 0.94999999999999996 0.29999999999999999 0 1 0.29999999999999999 0 0.94999999999999996 0.29999999999999999 0 1 0.29999999999999999 0 0.97166519676951801 0.26662885509932011 0 1 0.29999999999999999 0 0.97166519676951801 0.26662885509932011 0 1 0.24999999999987299 0 0.97166519676951801 0.26662885509932011 0 0.97435614836740092 0.22499999999981049 0 1 0.24999999999987299 0 0.97435614836740092 0.22499999999981049 0 1 0.24999999999987299 0 1 0.19999999999974799 0 0.97435614836740092 0.22499999999981049 0 0.94399509803921056 0.24399509803922639 0 0.95391631417672862 0.19584263333809451 0 0.97166519676951801 0.26662885509932011 0 0.97435614836740092 0.22499999999981049 0 0.94399509803921056 0.24399509803922639 0 0.97435614836740092 0.22499999999981049 0 0.95391631417672862 0.19584263333809451 0 1 0.19999999999974799 0 0.95391631417672862 0.19584263333809451 0 1 0.14999999999961891 0 0.93677536231883773 0.14999999999999089 0 1 0.14999999999961891 0 0.93677536231883773 0.14999999999999089 0 0.95386563387744361 0.1041487415577465 0 0.95391631417672862 0.19584263333809451 0 1 0.19999999999974799 0 1 0.14999999999961891 0 0.95391631417672862 0.19584263333809451 0 0.93677536231883773 0.14999999999999089 0 0.90416666666668166 0.20416666666667119 0 0.93677536231883773 0.14999999999999089 0 0.88088768115941807 0.14674609810479519 0 0.90416666666668166 0.20416666666667119 0 0.93677536231883773 0.14999999999999089 0 0.88088768115941807 0.14674609810479519 0 0.90299850604006393 0.09563452813493091 0 0.88088768115941807 0.14674609810479519 0 0.90416666666668166 0.20416666666667119 0 0.85600844944842547 0.1848341897950983 0 0.89898474358614167 0.25391965591104898 0 0.90416666666668166 0.20416666666667119 0 0.8517097391133297 0.2356960729520409 0 0.89898474358614167 0.25391965591104898 0 0.94399509803921056 0.24399509803922639 0 0.90416666666668166 0.20416666666667119 0 0.94399509803921056 0.24399509803922639 0 0.95391631417672862 0.19584263333809451 0 0.90416666666668166 0.20416666666667119 0 0.94999999999986839 0 0 0.97166519676946894 0.033371144900598393 0 0.94399509803922566 0.056004901960802607 0 0.94999999999986839 0 0 1 0 0 0.97166519676946894 0.033371144900598393 0 1 0 0 1 0.049999999999896842 0 0.97166519676946894 0.033371144900598393 0 1 0.049999999999896842 0 0.97166519676946894 0.033371144900598393 0 0.97435614836748241 0.074999999999825387 0 0.97166519676946894 0.033371144900598393 0 0.94399509803922566 0.056004901960802607 0 0.97435614836748241 0.074999999999825387 0 0.94399509803922566 0.056004901960802607 0 0.97435614836748241 0.074999999999825387 0 0.95386563387744361 0.1041487415577465 0 0.97435614836748241 0.074999999999825387 0 1 0.099999999999753911 0 0.95386563387744361 0.1041487415577465 0 1 0.049999999999896842 0 0.97435614836748241 0.074999999999825387 0 1 0.099999999999753911 0 1 0.14999999999961891 0 1 0.099999999999753911 0 0.95386563387744361 0.1041487415577465 0 0.93677536231883773 0.14999999999999089 0 0.95386563387744361 0.1041487415577465 0 0.90299850604006393 0.09563452813493091 0 0.88088768115941807 0.14674609810479519 0 0.90299850604006393 0.09563452813493091 0 0.84725310900442086 0.10779732082922661 0 0.90299850604006393 0.09563452813493091 0 0.899991664607802 0.045289349238254978 0 0.85491058998398861 0.060047533455626502 0 0.94399509803922566 0.056004901960802607 0 0.95386563387744361 0.1041487415577465 0 0.90299850604006393 0.09563452813493091 0 0.94399509803922566 0.056004901960802607 0 0.90299850604006393 0.09563452813493091 0 0.899991664607802 0.045289349238254978 0 0.94999999999986839 0 0 0.94399509803922566 0.056004901960802607 0 0.899991664607802 0.045289349238254978 0 0.899991664607802 0.045289349238254978 0 0.89999999999973679 0 0 0.84999999999960507 0 0 0.94999999999986839 0 0 0.899991664607802 0.045289349238254978 0 0.89999999999973679 0 0 0.84999999999960507 0 0 0.81864958914740749 0.035890501779055867 0 0.79999999999947335 0 0 0.899991664607802 0.045289349238254978 0 0.84999999999960507 0 0 0.85491058998398861 0.060047533455626502 0 0.85491058998398861 0.060047533455626502 0 0.81864958914740749 0.035890501779055867 0 0.80185942888501827 0.074520613036224564 0 0.84999999999960507 0 0 0.85491058998398861 0.060047533455626502 0 0.81864958914740749 0.035890501779055867 0 0.85491058998398861 0.060047533455626502 0 0.84725310900442086 0.10779732082922661 0 0.80185942888501827 0.074520613036224564 0 0.90299850604006393 0.09563452813493091 0 0.85491058998398861 0.060047533455626502 0 0.84725310900442086 0.10779732082922661 0 0.84725310900442086 0.10779732082922661 0 0.80076557130237269 0.1154587552654202 0 0.80185942888501827 0.074520613036224564 0 0.84725310900442086 0.10779732082922661 0 0.80076557130237269 0.1154587552654202 0 0.82709327591102189 0.14937141670914489 0 0.80076557130237269 0.1154587552654202 0 0.76878382444651716 0.097147941686331368 0 0.80185942888501827 0.074520613036224564 0 0.76878382444651716 0.097147941686331368 0 0.77144070960558853 0.14311854477243749 0 0.72525833953073282 0.1032114801687094 0 0.80076557130237269 0.1154587552654202 0 0.76878382444651716 0.097147941686331368 0 0.77144070960558853 0.14311854477243749 0 0.76878382444651716 0.097147941686331368 0 0.80185942888501827 0.074520613036224564 0 0.7527966693318906 0.053051678021508272 0 0.81864958914740749 0.035890501779055867 0 0.80185942888501827 0.074520613036224564 0 0.78393852574753176 0.032039079577822822 0 0.80185942888501827 0.074520613036224564 0 0.78393852574753176 0.032039079577822822 0 0.7527966693318906 0.053051678021508272 0 0.78393852574753176 0.032039079577822822 0 0.7527966693318906 0.053051678021508272 0 0.74999999999934175 0 0 0.78393852574753176 0.032039079577822822 0 0.79999999999947335 0 0 0.74999999999934175 0 0 0.81864958914740749 0.035890501779055867 0 0.78393852574753176 0.032039079577822822 0 0.79999999999947335 0 0 0.81283102246527783 0.1881007222486438 0 0.8517097391133297 0.2356960729520409 0 0.79680861578956375 0.22656778056752541 0 0.81283102246527783 0.1881007222486438 0 0.8517097391133297 0.2356960729520409 0 0.85600844944842547 0.1848341897950983 0 0.81486180804364938 0.26321394949780091 0 0.8517097391133297 0.2356960729520409 0 0.79680861578956375 0.22656778056752541 0 0.90416666666668166 0.20416666666667119 0 0.8517097391133297 0.2356960729520409 0 0.85600844944842547 0.1848341897950983 0 0.88088768115941807 0.14674609810479519 0 0.85600844944842547 0.1848341897950983 0 0.82709327591102189 0.14937141670914489 0 0.88088768115941807 0.14674609810479519 0 0.84725310900442086 0.10779732082922661 0 0.82709327591102189 0.14937141670914489 0 0.81283102246527783 0.1881007222486438 0 0.85600844944842547 0.1848341897950983 0 0.82709327591102189 0.14937141670914489 0 0.81283102246527783 0.1881007222486438 0 0.77144070960558853 0.14311854477243749 0 0.76587607630038135 0.18880039518954719 0 0.81283102246527783 0.1881007222486438 0 0.82709327591102189 0.14937141670914489 0 0.77144070960558853 0.14311854477243749 0 0.80076557130237269 0.1154587552654202 0 0.82709327591102189 0.14937141670914489 0 0.77144070960558853 0.14311854477243749 0 0.77144070960558853 0.14311854477243749 0 0.76587607630038135 0.18880039518954719 0 0.72634814642510737 0.16106886917518889 0 0.76587607630038135 0.18880039518954719 0 0.79680861578956375 0.22656778056752541 0 0.75668890529066124 0.2244279804069782 0 0.81283102246527783 0.1881007222486438 0 0.76587607630038135 0.18880039518954719 0 0.79680861578956375 0.22656778056752541 0 0.77075983436335049 0.25919399014334171 0 0.81486180804364938 0.26321394949780091 0 0.79680861578956375 0.22656778056752541 0 0.77075983436335049 0.25919399014334171 0 0.79680861578956375 0.22656778056752541 0 0.75668890529066124 0.2244279804069782 0 0.77075983436335049 0.25919399014334171 0 0.75668890529066124 0.2244279804069782 0 0.72500000000000064 0.2498161764706 0 0.75668890529066124 0.2244279804069782 0 0.72500000000000064 0.2498161764706 0 0.72500000000001008 0.19776155966387679 0 0.72500000000000064 0.2498161764706 0 0.69397719155551807 0.2245125647000914 0 0.72500000000001008 0.19776155966387679 0 0.72500000000000064 0.2498161764706 0 0.69397719155551807 0.2245125647000914 0 0.67933712972090698 0.25920070958121938 0 0.69397719155551807 0.2245125647000914 0 0.72500000000001008 0.19776155966387679 0 0.6865991819015953 0.189116534044597 0 0.76587607630038135 0.18880039518954719 0 0.75668890529066124 0.2244279804069782 0 0.72500000000001008 0.19776155966387679 0 0.76587607630038135 0.18880039518954719 0 0.72500000000001008 0.19776155966387679 0 0.72634814642510737 0.16106886917518889 0 0.77144070960558853 0.14311854477243749 0 0.72634814642510737 0.16106886917518889 0 0.72525833953073282 0.1032114801687094 0 0.72634814642510737 0.16106886917518889 0 0.68391457121233579 0.14440470121196541 0 0.72525833953073282 0.1032114801687094 0 0.72500000000001008 0.19776155966387679 0 0.72634814642510737 0.16106886917518889 0 0.6865991819015953 0.189116534044597 0 0.72634814642510737 0.16106886917518889 0 0.68391457121233579 0.14440470121196541 0 0.6865991819015953 0.189116534044597 0 0.68391457121233579 0.14440470121196541 0 0.64011864159029941 0.18789607982138171 0 0.6865991819015953 0.189116534044597 0 0.68391457121233579 0.14440470121196541 0 0.65290632656860115 0.11434202593454081 0 0.6236733212988993 0.14864538214901801 0 0.68391457121233579 0.14440470121196541 0 0.64011864159029941 0.18789607982138171 0 0.6236733212988993 0.14864538214901801 0 0.64011864159029941 0.18789607982138171 0 0.65394964615507722 0.22666784374016369 0 0.59814117807200873 0.23398510860739519 0 0.65394964615507722 0.22666784374016369 0 0.59814117807200873 0.23398510860739519 0 0.62657463266645097 0.26524202571255862 0 0.69397719155551807 0.2245125647000914 0 0.65394964615507722 0.22666784374016369 0 0.67933712972090698 0.25920070958121938 0 0.64011864159029941 0.18789607982138171 0 0.65394964615507722 0.22666784374016369 0 0.6865991819015953 0.189116534044597 0 0.69397719155551807 0.2245125647000914 0 0.65394964615507722 0.22666784374016369 0 0.6865991819015953 0.189116534044597 0 0.69999999999921003 0 0 0.72683645290270404 0.027797073151180601 0 0.7010294155333181 0.056779085686491267 0 0.69999999999921003 0 0 0.7010294155333181 0.056779085686491267 0 0.66369801598854572 0.036327466368102787 0 0.7527966693318906 0.053051678021508272 0 0.74999999999934175 0 0 0.72683645290270404 0.027797073151180601 0 0.69999999999921003 0 0 0.74999999999934175 0 0 0.72683645290270404 0.027797073151180601 0 0.7527966693318906 0.053051678021508272 0 0.72683645290270404 0.027797073151180601 0 0.7010294155333181 0.056779085686491267 0 0.7010294155333181 0.056779085686491267 0 0.72525833953073282 0.1032114801687094 0 0.68330259535470161 0.10038702501083881 0 0.7527966693318906 0.053051678021508272 0 0.7010294155333181 0.056779085686491267 0 0.72525833953073282 0.1032114801687094 0 0.76878382444651716 0.097147941686331368 0 0.7527966693318906 0.053051678021508272 0 0.72525833953073282 0.1032114801687094 0 0.68391457121233579 0.14440470121196541 0 0.72525833953073282 0.1032114801687094 0 0.68330259535470161 0.10038702501083881 0 0.68330259535470161 0.10038702501083881 0 0.65290632656860115 0.11434202593454081 0 0.65408113592120842 0.073941773121567966 0 0.68391457121233579 0.14440470121196541 0 0.68330259535470161 0.10038702501083881 0 0.65290632656860115 0.11434202593454081 0 0.65290632656860115 0.11434202593454081 0 0.61956000905586006 0.1043312481793135 0 0.6236733212988993 0.14864538214901801 0 0.65290632656860115 0.11434202593454081 0 0.65408113592120842 0.073941773121567966 0 0.61956000905586006 0.1043312481793135 0 0.65408113592120842 0.073941773121567966 0 0.61940220174112337 0.047251958781050582 0 0.61956000905586006 0.1043312481793135 0 0.7010294155333181 0.056779085686491267 0 0.68330259535470161 0.10038702501083881 0 0.65408113592120842 0.073941773121567966 0 0.7010294155333181 0.056779085686491267 0 0.65408113592120842 0.073941773121567966 0 0.66369801598854572 0.036327466368102787 0 0.65408113592120842 0.073941773121567966 0 0.66369801598854572 0.036327466368102787 0 0.61940220174112337 0.047251958781050582 0 0.66369801598854572 0.036327466368102787 0 0.64999999999907843 0 0 0.61940220174112337 0.047251958781050582 0 0.69999999999921003 0 0 0.66369801598854572 0.036327466368102787 0 0.64999999999907843 0 0 0.59999999999894682 0 0 0.57396793757665954 0.037011367187645222 0 0.5499999999988151 0 0 0.64999999999907843 0 0 0.59999999999894682 0 0 0.61940220174112337 0.047251958781050582 0 0.59999999999894682 0 0 0.61940220174112337 0.047251958781050582 0 0.57396793757665954 0.037011367187645222 0 0.61940220174112337 0.047251958781050582 0 0.57396793757665954 0.037011367187645222 0 0.57667858002728545 0.078486105337742612 0 0.61940220174112337 0.047251958781050582 0 0.57667858002728545 0.078486105337742612 0 0.61956000905586006 0.1043312481793135 0 0.61956000905586006 0.1043312481793135 0 0.58516465772821369 0.11653801664834119 0 0.6236733212988993 0.14864538214901801 0 0.57667858002728545 0.078486105337742612 0 0.61956000905586006 0.1043312481793135 0 0.58516465772821369 0.11653801664834119 0 0.58516465772821369 0.11653801664834119 0 0.54979595918804436 0.1060565713905809 0 0.56202748619534593 0.15054058349222879 0 0.57667858002728545 0.078486105337742612 0 0.58516465772821369 0.11653801664834119 0 0.54979595918804436 0.1060565713905809 0 0.54979595918804436 0.1060565713905809 0 0.51076801031701946 0.1202837388510348 0 0.52375890611712683 0.059318771819432882 0 0.47881186583059909 0.093591717165689425 0 0.51076801031701946 0.1202837388510348 0 0.52375890611712683 0.059318771819432882 0 0.57667858002728545 0.078486105337742612 0 0.54979595918804436 0.1060565713905809 0 0.52375890611712683 0.059318771819432882 0 0.57396793757665954 0.037011367187645222 0 0.52375890611712683 0.059318771819432882 0 0.5499999999988151 0 0 0.57396793757665954 0.037011367187645222 0 0.57667858002728545 0.078486105337742612 0 0.52375890611712683 0.059318771819432882 0 0.49999999999869432 0 0 0.52375890611712683 0.059318771819432882 0 0.5499999999988151 0 0 0.59814117807200873 0.23398510860739519 0 0.59443395090188023 0.18455690917515069 0 0.55306006949600994 0.20198184231352201 0 0.59814117807200873 0.23398510860739519 0 0.55306006949600994 0.20198184231352201 0 0.54248833945060504 0.2520322959927106 0 0.64011864159029941 0.18789607982138171 0 0.59814117807200873 0.23398510860739519 0 0.59443395090188023 0.18455690917515069 0 0.64011864159029941 0.18789607982138171 0 0.59443395090188023 0.18455690917515069 0 0.6236733212988993 0.14864538214901801 0 0.58516465772821369 0.11653801664834119 0 0.6236733212988993 0.14864538214901801 0 0.56202748619534593 0.15054058349222879 0 0.59443395090188023 0.18455690917515069 0 0.6236733212988993 0.14864538214901801 0 0.56202748619534593 0.15054058349222879 0 0.59443395090188023 0.18455690917515069 0 0.56202748619534593 0.15054058349222879 0 0.55306006949600994 0.20198184231352201 0 0.56202748619534593 0.15054058349222879 0 0.51729576145820033 0.1683240575987815 0 0.55306006949600994 0.20198184231352201 0 0.54979595918804436 0.1060565713905809 0 0.51076801031701946 0.1202837388510348 0 0.56202748619534593 0.15054058349222879 0 0.48466639505193998 0.1421439844745814 0 0.51076801031701946 0.1202837388510348 0 0.51729576145820033 0.1683240575987815 0 0.51076801031701946 0.1202837388510348 0 0.56202748619534593 0.15054058349222879 0 0.51729576145820033 0.1683240575987815 0 0.51729576145820033 0.1683240575987815 0 0.50760557329222289 0.20700468884612061 0 0.55306006949600994 0.20198184231352201 0 0.50760557329222289 0.20700468884612061 0 0.55306006949600994 0.20198184231352201 0 0.54248833945060504 0.2520322959927106 0 0.49695729691142171 0.25014895411178018 0 0.50760557329222289 0.20700468884612061 0 0.54248833945060504 0.2520322959927106 0 0.49695729691142171 0.25014895411178018 0 0.5 0.29999999999999999 0 0.54248833945060504 0.2520322959927106 0 0.5 0.29999999999999999 0 0.54999999999999993 0.29999999999999999 0 0.52752007115234678 0.33170632466418198 0 0.5 0.29999999999999999 0 0.54999999999999993 0.29999999999999999 0 0.54248833945060504 0.2520322959927106 0 0.5 0.29999999999999999 0 0.54999999999999993 0.29999999999999999 0 0.54999999999999993 0.29999999999999999 0 0.54248833945060504 0.2520322959927106 0 0.5794309697024993 0.27124795968204829 0 0.59814117807200873 0.23398510860739519 0 0.54248833945060504 0.2520322959927106 0 0.5794309697024993 0.27124795968204829 0 0.54999999999999993 0.29999999999999999 0 0.59999999999999976 0.29999999999999999 0 0.54999999999999993 0.29999999999999999 0 0.5794309697024993 0.27124795968204829 0 0.59999999999999976 0.29999999999999999 0 0.59999999999999976 0.29999999999999999 0 0.6499999999999998 0.29999999999999999 0 0.5794309697024993 0.27124795968204829 0 0.59999999999999976 0.29999999999999999 0 0.62657463266645097 0.26524202571255862 0 0.59814117807200873 0.23398510860739519 0 0.5794309697024993 0.27124795968204829 0 0.62657463266645097 0.26524202571255862 0 0.61959173890754571 0.33832250091341232 0 0.56836770495988642 0.3523062350852913 0 0.6084546825910605 0.37989672713932537 0 0.59999999999999976 0.29999999999999999 0 0.61959173890754571 0.33832250091341232 0 0.6499999999999998 0.29999999999999999 0 0.59999999999999976 0.29999999999999999 0 0.61959173890754571 0.33832250091341232 0 0.56836770495988642 0.3523062350852913 0 0.54999999999999993 0.29999999999999999 0 0.59999999999999976 0.29999999999999999 0 0.56836770495988642 0.3523062350852913 0 0.56836770495988642 0.3523062350852913 0 0.52752007115234678 0.33170632466418198 0 0.52289427570932567 0.3932284363388488 0 0.54999999999999993 0.29999999999999999 0 0.56836770495988642 0.3523062350852913 0 0.52752007115234678 0.33170632466418198 0 0.49077833859261139 0.35229981449445641 0 0.5 0.29999999999999999 0 0.52752007115234678 0.33170632466418198 0 0.49077833859261139 0.35229981449445641 0 0.52752007115234678 0.33170632466418198 0 0.52289427570932567 0.3932284363388488 0 0.56836770495988642 0.3523062350852913 0 0.52289427570932567 0.3932284363388488 0 0.57744073070774993 0.41535148636609359 0 0.52289427570932567 0.3932284363388488 0 0.53823865529665704 0.45873898050322898 0 0.57744073070774993 0.41535148636609359 0 0.48858720058566618 0.43964267759203868 0 0.52289427570932567 0.3932284363388488 0 0.53823865529665704 0.45873898050322898 0 0.49102375406324739 0.49123754822244059 0 0.53330375813596242 0.50827942741749099 0 0.53823865529665704 0.45873898050322898 0 0.49102375406324739 0.49123754822244059 0 0.48858720058566618 0.43964267759203868 0 0.53823865529665704 0.45873898050322898 0 0.53330375813596242 0.50827942741749099 0 0.57611405284611883 0.50165903596042916 0 0.53823865529665704 0.45873898050322898 0 0.57611405284611883 0.50165903596042916 0 0.57975577671020095 0.46172033326338591 0 0.61547661924074692 0.48539576058873962 0 0.57611405284611883 0.50165903596042916 0 0.53823865529665704 0.45873898050322898 0 0.57975577671020095 0.46172033326338591 0 0.57975577671020095 0.46172033326338591 0 0.61209567303293111 0.44669033081290321 0 0.57744073070774993 0.41535148636609359 0 0.53823865529665704 0.45873898050322898 0 0.57975577671020095 0.46172033326338591 0 0.57744073070774993 0.41535148636609359 0 0.57975577671020095 0.46172033326338591 0 0.61209567303293111 0.44669033081290321 0 0.61547661924074692 0.48539576058873962 0 0.56836770495988642 0.3523062350852913 0 0.57744073070774993 0.41535148636609359 0 0.6084546825910605 0.37989672713932537 0 0.61209567303293111 0.44669033081290321 0 0.57744073070774993 0.41535148636609359 0 0.63912439215427275 0.41063340167983359 0 0.57744073070774993 0.41535148636609359 0 0.6084546825910605 0.37989672713932537 0 0.63912439215427275 0.41063340167983359 0 0.6084546825910605 0.37989672713932537 0 0.63912439215427275 0.41063340167983359 0 0.65481233915350323 0.35652751921065562 0 0.63912439215427275 0.41063340167983359 0 0.65178832218679827 0.45929119821019959 0 0.6879972333610942 0.43038561374960838 0 0.63912439215427275 0.41063340167983359 0 0.68128176404677243 0.38629093627004979 0 0.6879972333610942 0.43038561374960838 0 0.63912439215427275 0.41063340167983359 0 0.68128176404677243 0.38629093627004979 0 0.65481233915350323 0.35652751921065562 0 0.61547661924074692 0.48539576058873962 0 0.6541250972820879 0.49999999999999989 0 0.65178832218679827 0.45929119821019959 0 0.61209567303293111 0.44669033081290321 0 0.61547661924074692 0.48539576058873962 0 0.65178832218679827 0.45929119821019959 0 0.61209567303293111 0.44669033081290321 0 0.63912439215427275 0.41063340167983359 0 0.65178832218679827 0.45929119821019959 0 0.65178832218679827 0.45929119821019959 0 0.69385896817107129 0.48377516041410151 0 0.6879972333610942 0.43038561374960838 0 0.6541250972820879 0.49999999999999989 0 0.65178832218679827 0.45929119821019959 0 0.69385896817107129 0.48377516041410151 0 0.7152569930854884 0.5237994455134295 0 0.69385896817107129 0.48377516041410151 0 0.73947346780852752 0.49062440112282169 0 0.69385896817107129 0.48377516041410151 0 0.73483647259922602 0.44789725365921768 0 0.6879972333610942 0.43038561374960838 0 0.69385896817107129 0.48377516041410151 0 0.73483647259922602 0.44789725365921768 0 0.73947346780852752 0.49062440112282169 0 0.68128176404677243 0.38629093627004979 0 0.72622533758026719 0.40265885511101601 0 0.71508799138962864 0.36622814920737751 0 0.73483647259922602 0.44789725365921768 0 0.6879972333610942 0.43038561374960838 0 0.72622533758026719 0.40265885511101601 0 0.68128176404677243 0.38629093627004979 0 0.6879972333610942 0.43038561374960838 0 0.72622533758026719 0.40265885511101601 0 0.77354604466818633 0.40378688774472771 0 0.73483647259922602 0.44789725365921768 0 0.72622533758026719 0.40265885511101601 0 0.72622533758026719 0.40265885511101601 0 0.74764719760526988 0.3719647154012321 0 0.71508799138962864 0.36622814920737751 0 0.77354604466818633 0.40378688774472771 0 0.72622533758026719 0.40265885511101601 0 0.74764719760526988 0.3719647154012321 0 0.74764719760526988 0.3719647154012321 0 0.71508799138962864 0.36622814920737751 0 0.73090396928863699 0.33699297293167962 0 0.71508799138962864 0.36622814920737751 0 0.68887083591306764 0.33632058575757479 0 0.73090396928863699 0.33699297293167962 0 0.68128176404677243 0.38629093627004979 0 0.71508799138962864 0.36622814920737751 0 0.68887083591306764 0.33632058575757479 0 0.68887083591306764 0.33632058575757479 0 0.73090396928863699 0.33699297293167962 0 0.69999999999999984 0.29999999999999999 0 0.72500000000000064 0.2498161764706 0 0.74999999999999989 0.29999999999999999 0 0.69999999999999984 0.29999999999999999 0 0.74999999999999989 0.29999999999999999 0 0.69999999999999984 0.29999999999999999 0 0.73090396928863699 0.33699297293167962 0 0.74999999999999989 0.29999999999999999 0 0.69999999999999984 0.29999999999999999 0 0.77075983436335049 0.25919399014334171 0 0.72500000000000064 0.2498161764706 0 0.74999999999999989 0.29999999999999999 0 0.72500000000000064 0.2498161764706 0 0.69999999999999984 0.29999999999999999 0 0.67933712972090698 0.25920070958121938 0 0.69999999999999984 0.29999999999999999 0 0.67933712972090698 0.25920070958121938 0 0.6499999999999998 0.29999999999999999 0 0.68887083591306764 0.33632058575757479 0 0.69999999999999984 0.29999999999999999 0 0.6499999999999998 0.29999999999999999 0 0.69999999999999984 0.29999999999999999 0 0.6499999999999998 0.29999999999999999 0 0.67933712972090698 0.25920070958121938 0 0.62657463266645097 0.26524202571255862 0 0.6499999999999998 0.29999999999999999 0 0.65394964615507722 0.22666784374016369 0 0.67933712972090698 0.25920070958121938 0 0.62657463266645097 0.26524202571255862 0 0.59999999999999976 0.29999999999999999 0 0.62657463266645097 0.26524202571255862 0 0.6499999999999998 0.29999999999999999 0 0.61959173890754571 0.33832250091341232 0 0.6499999999999998 0.29999999999999999 0 0.65481233915350323 0.35652751921065562 0 0.61959173890754571 0.33832250091341232 0 0.6084546825910605 0.37989672713932537 0 0.65481233915350323 0.35652751921065562 0 0.68128176404677243 0.38629093627004979 0 0.68887083591306764 0.33632058575757479 0 0.65481233915350323 0.35652751921065562 0 0.68887083591306764 0.33632058575757479 0 0.6499999999999998 0.29999999999999999 0 0.65481233915350323 0.35652751921065562 0 
</DataArray>
</Points>
<Cells>
<DataArray type="UInt32" Name="connectivity" format="ascii">
0 1 2 3 4 5 6 7 8 9 10 11 12 13 14 15 16 17 18 19 20 21 22 23 24 25 26 27 28 29 30 31 32 33 34 35 36 37 38 39 40 41 42 43 44 45 46 47 48 49 50 51 52 53 54 55 56 57 58 59 60 61 62 63 64 65 66 67 68 69 70 71 72 73 74 75 76 77 78 79 80 81 82 83 84 85 86 87 88 89 90 91 92 93 94 95 96 97 98 99 100 101 102 103 104 105 106 107 108 109 110 111 112 113 114 115 116 117 118 119 120 121 122 123 124 125 126 127 128 129 130 131 132 133 134 135 136 137 138 139 140 141 142 143 144 145 146 147 148 149 150 151 152 153 154 155 156 157 158 159 160 161 162 163 164 165 166 167 168 169 170 171 172 173 174 175 176 177 178 179 180 181 182 183 184 185 186 187 188 189 190 191 192 193 194 195 196 197 198 199 200 201 202 203 204 205 206 207 208 209 210 211 212 213 214 215 216 217 218 219 220 221 222 223 224 225 226 227 228 229 230 231 232 233 234 235 236 237 238 239 240 241 242 243 244 245 246 247 248 249 250 251 252 253 254 255 256 257 258 259 260 261 262 263 264 265 266 267 268 269 270 271 272 273 274 275 276 277 278 279 280 281 282 283 284 285 286 287 288 289 290 291 292 293 294 295 296 297 298 299 300 301 302 303 304 305 306 307 308 309 310 311 312 313 314 315 316 317 318 319 320 321 322 323 324 325 326 327 328 329 330 331 332 333 334 335 336 337 338 339 340 341 342 343 344 345 346 347 348 349 350 351 352 353 354 355 356 357 358 359 360 361 362 363 364 365 366 367 368 369 370 371 372 373 374 375 376 377 378 379 380 381 382 383 384 385 386 387 388 389 390 391 392 393 394 395 396 397 398 399 400 401 402 403 404 405 406 407 408 409 410 411 412 413 414 415 416 417 418 419 420 421 422 423 424 425 426 427 428 429 430 431 432 433 434 435 436 437 438 439 440 441 442 443 444 445 446 447 448 449 450 451 452 453 454 455 456 457 458 459 460 461 462 463 464 465 466 467 468 469 470 471 472 473 474 475 476 477 478 479 480 481 482 483 484 485 486 487 488 489 490 491 492 493 494 495 496 497 498 499 500 501 502 503 504 505 506 507 508 509 510 511 512 513 514 515 516 517 518 519 520 521 522 523 524 525 526 527 528 529 530 531 532 533 534 535 536 537 538 539 540 541 542 543 544 545 546 547 548 549 550 551 552 553 554 555 556 557 558 559 560 561 562 563 564 565 566 567 568 569 570 571 572 573 574 575 576 577 578 579 580 581 582 583 584 585 586 587 588 589 590 591 592 593 594 595 596 597 598 599 600 601 602 603 604 605 606 607 608 609 610 611 612 613 614 615 616 617 618 619 620 621 622 623 624 625 626 627 628 629 630 631 632 633 634 635 636 637 638 639 640 641 642 643 644 645 646 647 648 649 650 651 652 653 654 655 656 657 658 659 660 661 662 663 664 665 666 667 668 669 670 671 672 673 674 675 676 677 678 679 680 681 682 683 684 685 686 687 688 689 690 691 692 693 694 695 696 697 698 699 700 701 702 703 704 705 706 707 708 709 710 711 712 713 714 715 716 717 718 719 720 721 722 723 724 725 726 727 728 729 730 731 732 733 734 735 736 737 738 739 740 741 742 743 744 745 746 747 748 749 750 751 752 753 754 755 756 757 758 759 760 761 762 763 764 765 766 767 768 769 770 771 772 773 774 775 776 777 778 779 780 781 782 783 784 785 786 787 788 789 790 791 792 793 794 795 796 797 798 799 800 801 802 803 804 805 806 807 808 809 810 811 812 813 814 815 816 817 818 819 820 821 822 823 824 825 826 827 828 829 830 831 832 833 834 835 836 837 838 839 840 841 842 843 844 845 846 847 848 849 850 851 852 853 854 855 856 857 858 859 860 861 862 863 864 865 866 867 868 869 870 871 872 873 874 875 876 877 878 879 880 881 882 883 884 885 886 887 888 889 890 891 892 893 894 895 896 897 898 899 900 901 902 903 904 905 906 907 908 909 910 911 912 913 914 915 916 917 918 919 920 921 922 923 924 925 926 927 928 929 930 931 932 933 934 935 936 937 938 939 940 941 942 943 944 945 946 947 948 949 950 951 952 953 954 955 956 957 958 959 960 961 962 963 964 965 966 967 968 969 970 971 972 973 974 975 976 977 978 979 980 981 982 983 984 985 986 987 988 989 990 991 992 993 994 995 996 997 998 999 1000 1001 1002 1003 1004 1005 1006 1007 1008 1009 1010 1011 1012 1013 1014 1015 1016 1017 1018 1019 1020 1021 1022 1023 1024 1025 1026 1027 1028 1029 1030 1031 1032 1033 1034 1035 1036 1037 1038 1039 1040 1041 1042 1043 1044 1045 1046 1047 1048 1049 1050 1051 1052 1053 1054 1055 1056 1057 1058 1059 1060 1061 1062 1063 1064 1065 1066 1067 1068 1069 1070 1071 1072 1073 1074 1075 1076 1077 1078 1079 1080 1081 1082 1083 1084 1085 1086 1087 1088 1089 1090 1091 1092 1093 1094 1095 1096 1097 1098 1099 1100 1101 1102 1103 1104 1105 1106 1107 1108 1109 1110 1111 1112 1113 1114 1115 1116 1117 1118 1119 1120 1121 1122 1123 1124 1125 1126 1127 1128 1129 1130 1131 1132 1133 1134 1135 1136 1137 1138 1139 1140 1141 1142 1143 1144 1145 1146 1147 1148 1149 1150 1151 1152 1153 1154 1155 1156 1157 1158 1159 1160 1161 1162 1163 1164 1165 1166 1167 1168 1169 1170 1171 1172 1173 1174 1175 1176 1177 1178 1179 1180 1181 1182 1183 1184 1185 1186 1187 1188 1189 1190 1191 1192 1193 1194 1195 1196 1197 1198 1199 1200 1201 1202 1203 1204 1205 1206 1207 1208 1209 1210 1211 1212 1213 1214 1215 1216 1217 1218 1219 1220 1221 1222 1223 1224 1225 1226 1227 1228 1229 1230 1231 1232 1233 1234 1235 1236 1237 1238 1239 1240 1241 1242 1243 1244 1245 1246 1247 1248 1249 1250 1251 1252 1253 1254 1255 1256 1257 1258 1259 1260 1261 1262 1263 1264 1265 1266 1267 1268 1269 1270 1271 1272 1273 1274 1275 1276 1277 1278 1279 1280 1281 1282 1283 1284 1285 1286 1287 1288 1289 1290 1291 1292 1293 1294 1295 1296 1297 1298 1299 1300 1301 1302 1303 1304 1305 1306 1307 1308 1309 1310 1311 1312 1313 1314 1315 1316 1317 1318 1319 1320 1321 1322 1323 1324 1325 1326 1327 1328 1329 1330 1331 1332 1333 1334 1335 1336 1337 1338 1339 1340 1341 1342 1343 1344 1345 1346 1347 1348 1349 1350 1351 1352 1353 1354 1355 1356 1357 1358 1359 1360 1361 1362 1363 1364 1365 1366 1367 1368 1369 1370 1371 1372 1373 1374 1375 1376 1377 1378 1379 1380 1381 1382 1383 1384 1385 1386 1387 1388 1389 1390 1391 1392 1393 1394 1395 1396 1397 1398 1399 1400 1401 1402 1403 1404 1405 1406 1407 1408 1409 1410 1411 1412 1413 1414 1415 1416 1417 1418 1419 1420 1421 1422 1423 1424 1425 1426 1427 1428 1429 1430 1431 1432 1433 1434 1435 1436 1437 1438 1439 1440 1441 1442 1443 1444 1445 1446 1447 1448 1449 1450 1451 1452 1453 1454 1455 1456 1457 1458 1459 1460 1461 1462 1463 1464 1465 1466 1467 1468 1469 1470 1471 1472 1473 1474 1475 1476 1477 1478 1479 1480 1481 1482 1483 1484 1485 1486 1487 1488 1489 1490 1491 1492 1493 1494 1495 1496 1497 1498 1499 1500 1501 1502 1503 1504 1505 1506 1507 1508 1509 1510 1511 1512 1513 1514 1515 1516 1517 1518 1519 1520 1521 1522 1523 1524 1525 1526 1527 1528 1529 1530 1531 1532 1533 1534 1535 1536 1537 1538 1539 1540 1541 1542 1543 1544 1545 1546 1547 1548 1549 1550 1551 1552 1553 1554 1555 1556 1557 1558 1559 1560 1561 1562 1563 1564 1565 1566 1567 1568 1569 1570 1571 1572 1573 1574 1575 1576 1577 1578 1579 1580 1581 1582 1583 1584 1585 1586 1587 1588 1589 1590 1591 1592 1593 1594 1595 1596 1597 1598 1599 1600 1601 1602 1603 1604 1605 1606 1607 1608 1609 1610 1611 1612 1613 1614 1615 1616 1617 1618 1619 1620 1621 1622 1623 1624 1625 1626 1627 1628 1629 1630 1631 1632 1633 1634 1635 1636 1637 1638 1639 1640 1641 1642 1643 1644 1645 1646 1647 1648 1649 1650 1651 1652 1653 1654 1655 1656 1657 1658 1659 1660 1661 1662 1663 1664 1665 1666 1667 1668 1669 1670 1671 1672 1673 1674 1675 1676 1677 1678 1679 1680 1681 1682 1683 1684 1685 1686 1687 1688 1689 1690 1691 1692 1693 1694 1695 1696 1697 1698 1699 1700 1701 1702 1703 1704 1705 1706 1707 1708 1709 1710 1711 1712 1713 1714 1715 1716 1717 1718 1719 1720 1721 1722 1723 1724 1725 1726 1727 1728 1729 1730 1731 1732 1733 1734 1735 1736 1737 1738 1739 1740 1741 1742 1743 1744 1745 1746 1747 1748 1749 1750 1751 1752 1753 1754 1755 1756 1757 1758 1759 1760 1761 1762 1763 1764 1765 1766 1767 1768 1769 1770 1771 1772 1773 1774 1775 1776 1777 1778 1779 1780 1781 1782 1783 1784 1785 1786 1787 1788 1789 1790 1791 1792 1793 1794 1795 1796 1797 1798 1799 1800 1801 1802 1803 1804 1805 1806 1807 1808 1809 1810 1811 1812 1813 1814 1815 1816 1817 1818 1819 1820 1821 1822 1823 1824 1825 1826 1827 1828 1829 1830 1831 1832 1833 1834 1835 1836 1837 1838 1839 1840 1841 1842 1843 1844 1845 1846 1847 1848 1849 1850 1851 1852 1853 1854 1855 1856 1857 1858 1859 1860 1861 1862 1863 1864 1865 1866 1867 1868 1869 1870 1871 1872 1873 1874 1875 1876 1877 1878 1879 1880 1881 1882 1883 1884 1885 1886 1887 1888 1889 1890 1891 1892 1893 1894 1895 1896 1897 1898 1899 1900 1901 1902 1903 1904 1905 1906 1907 1908 1909 1910 1911 1912 1913 1914 1915 1916 1917 1918 1919 1920 1921 1922 1923 1924 1925 1926 1927 1928 1929 1930 1931 1932 1933 1934 1935 1936 1937 1938 1939 1940 1941 1942 1943 1944 1945 1946 1947 1948 1949 1950 1951 1952 1953 1954 1955 1956 1957 1958 1959 1960 1961 1962 1963 1964 1965 1966 1967 1968 1969 1970 1971 1972 1973 1974 1975 1976 1977 1978 1979 1980 1981 1982 1983 1984 1985 1986 1987 1988 1989 1990 1991 1992 1993 1994 1995 1996 1997 1998 1999 2000 2001 2002 2003 2004 2005 2006 2007 2008 2009 2010 2011 2012 2013 2014 2015 2016 2017 2018 2019 2020 2021 2022 2023 2024 2025 2026 2027 2028 2029 2030 2031 2032 2033 2034 2035 2036 2037 2038 2039 2040 2041 2042 2043 2044 2045 2046 2047 2048 2049 2050 2051 2052 2053 2054 2055 2056 2057 2058 2059 2060 2061 2062 2063 2064 2065 2066 2067 2068 2069 2070 2071 2072 2073 2074 2075 2076 2077 2078 2079 2080 2081 2082 2083 2084 2085 2086 2087 2088 2089 2090 2091 2092 2093 2094 2095 2096 2097 2098 2099 2100 2101 2102 2103 2104 2105 2106 2107 2108 2109 2110 2111 2112 2113 2114 2115 2116 2117 2118 2119 2120 2121 2122 2123 2124 2125 2126 2127 2128 2129 2130 2131 2132 2133 2134 2135 2136 2137 2138 2139 2140 2141 2142 2143 2144 2145 2146 2147 2148 2149 2150 2151 2152 2153 2154 2155 2156 2157 2158 2159 2160 2161 2162 2163 2164 2165 2166 2167 2168 2169 2170 2171 2172 2173 2174 2175 2176 2177 2178 2179 2180 2181 2182 2183 2184 2185 2186 2187 2188 2189 2190 2191 2192 2193 2194 2195 2196 2197 2198 2199 2200 2201 2202 2203 2204 2205 2206 2207 2208 2209 2210 2211 2212 2213 2214 2215 2216 2217 2218 2219 2220 2221 2222 2223 2224 2225 2226 2227 2228 2229 2230 2231 2232 2233 2234 2235 2236 2237 2238 2239 2240 2241 2242 2243 2244 2245 2246 2247 2248 2249 2250 2251 2252 2253 2254 2255 2256 2257 2258 2259 2260 2261 2262 2263 2264 2265 2266 2267 2268 2269 2270 2271 2272 2273 2274 2275 2276 2277 2278 2279 2280 2281 2282 2283 2284 2285 2286 2287 2288 2289 2290 2291 2292 2293 2294 2295 2296 2297 2298 2299 2300 2301 2302 2303 2304 2305 2306 2307 2308 2309 2310 2311 2312 2313 2314 2315 2316 2317 2318 2319 2320 2321 2322 2323 2324 2325 2326 2327 2328 2329 2330 2331 2332 2333 2334 2335 2336 2337 2338 2339 2340 2341 2342 2343 2344 2345 2346 2347 2348 2349 2350 2351 2352 2353 2354 2355 2356 2357 2358 2359 2360 2361 2362 2363 2364 2365 2366 2367 2368 2369 2370 2371 2372 2373 2374 2375 2376 2377 2378 2379 2380 2381 2382 2383 2384 2385 2386 2387 2388 2389 2390 2391 2392 2393 2394 2395 2396 2397 2398 2399 2400 2401 2402 2403 2404 2405 2406 2407 2408 2409 2410 2411 2412 2413 2414 2415 2416 2417 2418 2419 2420 2421 2422 2423 2424 2425 2426 2427 2428 2429 2430 2431 2432 2433 2434 2435 2436 2437 2438 2439 2440 2441 2442 2443 2444 2445 2446 2447 2448 2449 2450 2451 2452 2453 2454 2455 2456 2457 2458 2459 2460 2461 2462 2463 2464 2465 2466 2467 2468 2469 2470 2471 2472 2473 2474 2475 2476 2477 2478 2479 2480 2481 2482 2483 2484 2485 2486 2487 2488 2489 2490 2491 2492 2493 2494 2495 2496 2497 2498 2499 2500 2501 2502 2503 2504 2505 2506 2507 2508 2509 2510 2511 2512 2513 2514 2515 2516 2517 2518 2519 2520 2521 2522 2523 2524 2525 2526 2527 2528 2529 2530 2531 2532 2533 2534 2535 2536 2537 2538 2539 2540 2541 2542 2543 2544 2545 2546 2547 2548 2549 2550 2551 2552 2553 2554 2555 2556 2557 2558 2559 2560 2561 2562 2563 2564 2565 2566 2567 2568 2569 2570 2571 2572 2573 2574 2575 2576 2577 2578 2579 2580 2581 2582 2583 2584 2585 2586 2587 2588 2589 2590 2591 2592 2593 2594 2595 2596 2597 2598 2599 2600 2601 2602 2603 2604 2605 2606 2607 2608 2609 2610 2611 2612 2613 2614 2615 2616 2617 2618 2619 2620 2621 2622 2623 2624 2625 2626 2627 2628 2629 2630 2631 2632 2633 2634 2635 2636 2637 2638 2639 2640 2641 2642 2643 2644 2645 2646 2647 2648 2649 2650 2651 2652 2653 2654 2655 2656 2657 2658 2659 2660 2661 2662 2663 2664 2665 2666 2667 2668 2669 2670 2671 2672 2673 2674 2675 2676 2677 2678 2679 2680 2681 2682 2683 2684 2685 2686 2687 2688 2689 2690 2691 2692 2693 2694 2695 2696 2697 2698 2699 2700 2701 2702 2703 2704 2705 2706 2707 2708 2709 2710 2711 2712 2713 2714 2715 2716 2717 2718 2719 2720 2721 2722 2723 2724 2725 2726 2727 2728 2729 2730 2731 2732 2733 2734 2735 2736 2737 2738 2739 2740 2741 2742 2743 2744 2745 2746 2747 2748 2749 2750 2751 2752 2753 2754 2755 2756 2757 2758 2759 2760 2761 2762 2763 2764 2765 2766 2767 2768 2769 2770 2771 2772 2773 2774 2775 2776 2777 2778 2779 2780 2781 2782 2783 2784 2785 2786 2787 2788 2789 2790 2791 2792 2793 2794 2795 2796 2797 2798 2799 2800 2801 2802 2803 2804 2805 2806 2807 2808 2809 2810 2811 2812 2813 2814 2815 2816 2817 2818 2819 2820 2821 2822 2823 2824 2825 2826 2827 2828 2829 2830 2831 2832 2833 2834 2835 2836 2837 2838 2839 2840 2841 2842 2843 2844 2845 2846 2847 2848 2849 2850 2851 2852 2853 2854 2855 2856 2857 2858 2859 2860 2861 2862 2863 2864 2865 2866 2867 2868 2869 2870 2871 2872 2873 2874 2875 2876 2877 2878 2879 2880 2881 2882 2883 2884 2885 2886 2887 2888 2889 2890 2891 2892 2893 2894 2895 2896 2897 2898 2899 2900 2901 2902 2903 2904 2905 2906 2907 2908 2909 2910 2911 2912 2913 2914 2915 2916 2917 2918 2919 2920 2921 2922 2923 2924 2925 2926 2927 2928 2929 2930 2931 2932 2933 2934 2935 2936 2937 2938 2939 2940 2941 2942 2943 2944 2945 2946 2947 2948 2949 2950 2951 2952 2953 2954 2955 2956 2957 2958 2959 2960 2961 2962 2963 2964 2965 2966 2967 2968 2969 2970 2971 2972 2973 2974 2975 2976 2977 2978 2979 2980 2981 2982 2983 2984 2985 2986 2987 2988 2989 2990 2991 2992 2993 2994 2995 2996 2997 2998 2999 3000 3001 3002 3003 3004 3005 3006 3007 3008 3009 3010 3011 3012 3013 3014 3015 3016 3017 3018 3019 3020 3021 3022 3023 3024 3025 3026 3027 3028 3029 3030 3031 3032 3033 3034 3035 3036 3037 3038 3039 3040 3041 3042 3043 3044 3045 3046 3047 3048 3049 3050 3051 3052 3053 3054 3055 3056 3057 3058 3059 3060 3061 3062 3063 3064 3065 3066 3067 3068 3069 3070 3071 3072 3073 3074 3075 3076 3077 3078 3079 3080 3081 3082 3083 3084 3085 3086 3087 3088 3089 3090 3091 3092 3093 3094 3095 3096 3097 3098 3099 3100 3101 3102 3103 3104 3105 3106 3107 3108 3109 3110 3111 3112 3113 3114 3115 3116 3117 3118 3119 3120 3121 3122 3123 3124 3125 3126 3127 3128 3129 3130 3131 3132 3133 3134 3135 3136 3137 3138 3139 3140 3141 
</DataArray>
<DataArray type="UInt32" Name="offsets" format="ascii">
3 6 9 12 15 18 21 24 27 30 33 36 39 42 45 48 51 54 57 60 63 66 69 72 75 78 81 84 87 90 93 96 99 102 105 108 111 114 117 120 123 126 129 132 135 138 141 144 147 150 153 156 159 162 165 168 171 174 177 180 183 186 189 192 195 198 201 204 207 210 213 216 219 222 225 228 231 234 237 240 243 246 249 252 255 258 261 264 267 270 273 276 279 282 285 288 291 294 297 300 303 306 309 312 315 318 321 324 327 330 333 336 339 342 345 348 351 354 357 360 363 366 369 372 375 378 381 384 387 390 393 396 399 402 405 408 411 414 417 420 423 426 429 432 435 438 441 444 447 450 453 456 459 462 465 468 471 474 477 480 483 486 489 492 495 498 501 504 507 510 513 516 519 522 525 528 531 534 537 540 543 546 549 552 555 558 561 564 567 570 573 576 579 582 585 588 591 594 597 600 603 606 609 612 615 618 621 624 627 630 633 636 639 642 645 648 651 654 657 660 663 666 669 672 675 678 681 684 687 690 693 696 699 702 705 708 711 714 717 720 723 726 729 732 735 738 741 744 747 750 753 756 759 762 765 768 771 774 777 780 783 786 789 792 795 798 801 804 807 810 813 816 819 822 825 828 831 834 837 840 843 846 849 852 855 858 861 864 867 870 873 876 879 882 885 888 891 894 897 900 903 906 909 912 915 918 921 924 927 930 933 936 939 942 945 948 951 954 957 960 963 966 969 972 975 978 981 984 987 990 993 996 999 1002 1005 1008 1011 1014 1017 1020 1023 1026 1029 1032 1035 1038 1041 1044 1047 1050 1053 1056 1059 1062 1065 1068 1071 1074 1077 1080 1083 1086 1089 1092 1095 1098 1101 1104 1107 1110 1113 1116 1119 1122 1125 1128 1131 1134 1137 1140 1143 1146 1149 1152 1155 1158 1161 1164 1167 1170 1173 1176 1179 1182 1185 1188 1191 1194 1197 1200 1203 1206 1209 1212 1215 1218 1221 1224 1227 1230 1233 1236 1239 1242 1245 1248 1251 1254 1257 1260 1263 1266 1269 1272 1275 1278 1281 1284 1287 1290 1293 1296 1299 1302 1305 1308 1311 1314 1317 1320 1323 1326 1329 1332 1335 1338 1341 1344 1347 1350 1353 1356 1359 1362 1365 1368 1371 1374 1377 1380 1383 1386 1389 1392 1395 1398 1401 1404 1407 1410 1413 1416 1419 1422 1425 1428 1431 1434 1437 1440 1443 1446 1449 1452 1455 1458 1461 1464 1467 1470 1473 1476 1479 1482 1485 1488 1491 1494 1497 1500 1503 1506 1509 1512 1515 1518 1521 1524 1527 1530 1533 1536 1539 1542 1545 1548 1551 1554 1557 1560 1563 1566 1569 1572 1575 1578 1581 1584 1587 1590 1593 1596 1599 1602 1605 1608 1611 1614 1616 1619 1622 1624 1627 1630 1632 1635 1638 1641 1644 1647 1650 1653 1656 1659 1662 1665 1668 1671 1673 1676 1679 1682 1685 1688 1690 1693 1696 1699 1702 1705 1708 1711 1714 1717 1720 1723 1726 1729 1732 1735 1738 1741 1744 1747 1750 1753 1756 1759 1762 1765 1768 1771 1774 1777 1780 1783 1786 1789 1792 1795 1798 1801 1804 1807 1810 1813 1816 1819 1822 1825 1828 1831 1834 1837 1840 1843 1846 1849 1852 1855 1858 1861 1864 1867 1870 1873 1876 1879 1882 1885 1888 1891 1894 1897 1900 1903 1906 1909 1912 1915 1918 1921 1924 1927 1930 1933 1936 1939 1942 1945 1948 1951 1954 1957 1960 1963 1966 1969 1972 1975 1978 1981 1984 1987 1990 1993 1996 1999 2002 2005 2008 2011 2014 2017 2020 2023 2026 2029 2032 2035 2038 2041 2044 2047 2050 2053 2056 2059 2062 2065 2068 2071 2074 2077 2080 2083 2086 2089 2092 2095 2098 2101 2104 2107 2110 2113 2116 2119 2122 2125 2128 2131 2134 2137 2140 2143 2146 2149 2152 2155 2158 2161 2164 2167 2170 2173 2176 2179 2182 2185 2188 2191 2194 2196 2199 2202 2205 2207 2210 2213 2215 2218 2221 2224 2227 2230 2233 2236 2239 2242 2245 2248 2250 2253 2256 2259 2262 2264 2267 2270 2273 2276 2279 2282 2285 2288 2291 2294 2297 2300 2303 2306 2309 2312 2315 2318 2321 2324 2327 2330 2333 2336 2339 2342 2345 2348 2351 2354 2357 2360 2363 2366 2369 2372 2375 2378 2381 2384 2387 2390 2393 2396 2399 2402 2405 2408 2411 2414 2417 2420 2423 2426 2429 2432 2435 2438 2440 2443 2446 2449 2452 2455 2458 2461 2464 2467 2470 2473 2476 2479 2482 2484 2487 2490 2492 2495 2497 2500 2503 2506 2509 2512 2515 2518 2521 2524 2527 2530 2533 2536 2538 2541 2544 2547 2550 2553 2556 2559 2562 2565 2568 2571 2574 2577 2580 2583 2586 2589 2592 2595 2598 2601 2604 2607 2610 2613 2616 2619 2622 2625 2628 2631 2634 2637 2640 2643 2646 2649 2652 2655 2658 2661 2664 2667 2670 2673 2676 2679 2682 2685 2688 2691 2694 2697 2700 2703 2706 2709 2712 2715 2718 2721 2724 2727 2730 2733 2736 2739 2742 2745 2748 2751 2754 2757 2760 2763 2766 2769 2772 2775 2778 2781 2784 2787 2790 2793 2796 2799 2802 2805 2808 2811 2814 2817 2820 2823 2826 2829 2832 2835 2838 2841 2844 2847 2850 2853 2856 2859 2862 2865 2868 2871 2874 2877 2880 2883 2886 2889 2892 2895 2898 2901 2904 2907 2910 2913 2916 2919 2922 2925 2928 2931 2934 2937 2940 2943 2946 2948 2951 2954 2956 2959 2961 2964 2967 2970 2973 2976 2979 2982 2985 2988 2991 2994 2997 3000 3003 3006 3009 3012 3015 3018 3021 3024 3027 3030 3033 3036 3039 3042 3045 3048 3051 3054 3057 3060 3063 3066 3069 3072 3075 3078 3081 3084 3087 3090 3093 3096 3099 3102 3104 3107 3110 3113 3116 3119 3121 3124 3127 3130 3133 3136 3139 3142 
</DataArray>
<DataArray type="UInt32" Name="types" format="ascii">
5 5 5 5 5 5 5 5 5 5 5 5 5 5 5 5 5 5 5 5 5 5 5 5 5 5 5 5 5 5 5 5 5 5 5 5 5 5 5 5 5 5 5 5 5 5 5 5 5 5 5 5 5 5 5 5 5 5 5 5 5 5 5 5 5 5 5 5 5 5 5 5 5 5 5 5 5 5 5 5 5 5 5 5 5 5 5 5 5 5 5 5 5 5 5 5 5 5 5 5 5 5 5 5 5 5 5 5 5 5 5 5 5 5 5 5 5 5 5 5 5 5 5 5 5 5 5 5 5 5 5 5 5 5 5 5 5 5 5 5 5 5 5 5 5 5 5 5 5 5 5 5 5 5 5 5 5 5 5 5 5 5 5 5 5 5 5 5 5 5 5 5 5 5 5 5 5 5 5 5 5 5 5 5 5 5 5 5 5 5 5 5 5 5 5 5 5 5 5 5 5 5 5 5 5 5 5 5 5 5 5 5 5 5 5 5 5 5 5 5 5 5 5 5 5 5 5 5 5 5 5 5 5 5 5 5 5 5 5 5 5 5 5 5 5 5 5 5 5 5 5 5 5 5 5 5 5 5 5 5 5 5 5 5 5 5 5 5 5 5 5 5 5 5 5 5 5 5 5 5 5 5 5 5 5 5 5 5 5 5 5 5 5 5 5 5 5 5 5 5 5 5 5 5 5 5 5 5 5 5 5 5 5 5 5 5 5 5 5 5 5 5 5 5 5 5 5 5 5 5 5 5 5 5 5 5 5 5 5 5 5 5 5 5 5 5 5 5 5 5 5 5 5 5 5 5 5 5 5 5 5 5 5 5 5 5 5 5 5 5 5 5 5 5 5 5 5 5 5 5 5 5 5 5 5 5 5 5 5 5 5 5 5 5 5 5 5 5 5 5 5 5 5 5 5 5 5 5 5 5 5 5 5 5 5 5 5 5 5 5 5 5 5 5 5 5 5 5 5 5 5 5 5 5 5 5 5 5 5 5 5 5 5 5 5 5 5 5 5 5 5 5 5 5 5 5 5 5 5 5 5 5 5 5 5 5 5 5 5 5 5 5 5 5 5 5 5 5 5 5 5 5 5 5 5 5 5 5 5 5 5 5 5 5 5 5 5 5 5 5 5 5 5 5 5 5 5 5 5 5 5 5 5 5 5 5 5 5 5 5 5 5 5 5 5 5 5 5 5 5 5 5 5 5 5 5 5 5 3 5 5 3 5 5 3 5 5 5 5 5 5 5 5 5 5 5 5 5 3 5 5 5 5 5 3 5 5 5 5 5 5 5 5 5 5 5 5 5 5 5 5 5 5 5 5 5 5 5 5 5 5 5 5 5 5 5 5 5 5 5 5 5 5 5 5 5 5 5 5 5 5 5 5 5 5 5 5 5 5 5 5 5 5 5 5 5 5 5 5 5 5 5 5 5 5 5 5 5 5 5 5 5 5 5 5 5 5 5 5 5 5 5 5 5 5 5 5 5 5 5 5 5 5 5 5 5 5 5 5 5 5 5 5 5 5 5 5 5 5 5 5 5 5 5 5 5 5 5 5 5 5 5 5 5 5 5 5 5 5 5 5 5 5 5 5 5 5 5 5 5 5 5 5 5 5 5 5 5 5 5 5 5 5 5 5 5 5 5 5 5 5 5 5 3 5 5 5 3 5 5 3 5 5 5 5 5 5 5 5 5 5 5 3 5 5 5 5 3 5 5 5 5 5 5 5 5 5 5 5 5 5 5 5 5 5 5 5 5 5 5 5 5 5 5 5 5 5 5 5 5 5 5 5 5 5 5 5 5 5 5 5 5 5 5 5 5 5 5 5 5 5 5 5 5 5 5 3 5 5 5 5 5 5 5 5 5 5 5 5 5 5 3 5 5 3 5 3 5 5 5 5 5 5 5 5 5 5 5 5 5 3 5 5 5 5 5 5 5 5 5 5 5 5 5 5 5 5 5 5 5 5 5 5 5 5 5 5 5 5 5 5 5 5 5 5 5 5 5 5 5 5 5 5 5 5 5 5 5 5 5 5 5 5 5 5 5 5 5 5 5 5 5 5 5 5 5 5 5 5 5 5 5 5 5 5 5 5 5 5 5 5 5 5 5 5 5 5 5 5 5 5 5 5 5 5 5 5 5 5 5 5 5 5 5 5 5 5 5 5 5 5 5 5 5 5 5 5 5 5 5 5 5 5 5 5 5 5 5 5 5 5 5 5 5 5 5 5 3 5 5 3 5 3 5 5 5 5 5 5 5 5 5 5 5 5 5 5 5 5 5 5 5 5 5 5 5 5 5 5 5 5 5 5 5 5 5 5 5 5 5 5 5 5 5 5 5 5 5 5 5 3 5 5 5 5 5 3 5 5 5 5 5 5 5 
</DataArray>
</Cells>
<PointData Scalars="" Vectors="displacement," Tensors="">
<DataArray type="Float64" Name="displacement" NumberOfComponents="3" format="ascii">
-1.0809862404718238e-06 2.2796335653914442e-07 0 -2.1114130907115831e-09 -8.6884390491926593e-10 0 -2.4016645734545165e-06 -4.4898307256520856e-08 0 -1.0809862404718238e-06 2.2796335653914442e-07 0 -2.111413090711579e-09 -8.688439049192652e-10 0 -1.894508918195654e-09 6.0419666678223215e-10 0 -1.0809862404718238e-06 2.2796335653914442e-07 0 -2.4016645734545165e-06 -4.4898307256520856e-08 0 -2.4093203093127464e-06 9.2330590467984764e-07 0 -1.0809862404718238e-06 2.2796335653914442e-07 0 -2.4093203093127464e-06 9.2330590467984764e-07 0 -1.894508918195654e-09 6.0419666678223215e-10 0 -1.894508918195654e-09 6.0419666678223215e-10 0 -1.8661864849480379e-09 3.4885467838427747e-10 0 -1.5281971523733006e-06 1.3675209981781937e-06 0 -1.8661864849480379e-09 3.4885467838427747e-10 0 -1.5281971523733006e-06 1.3675209981781937e-06 0 -9.74763072921127e-10 1.0893481020105812e-09 0 -2.4093203093127464e-06 9.2330590467984764e-07 0 -1.5281971523733006e-06 1.3675209981781937e-06 0 -3.3409347022949669e-06 2.0241815100633255e-06 0 -2.4093203093127464e-06 9.2330590467984764e-07 0 -1.894508918195654e-09 6.0419666678223215e-10 0 -1.5281971523733006e-06 1.3675209981781937e-06 0 -1.5281971523733006e-06 1.3675209981781937e-06 0 -3.3409347022949669e-06 2.0241815100633255e-06 0 -1.7585202611286477e-06 2.2758653092494753e-06 0 -3.3409347022949669e-06 2.0241815100633255e-06 0 -1.7585202611286477e-06 2.2758653092494753e-06 0 -3.3937516802599371e-06 2.8481351906158195e-06 0 -3.3409347022949669e-06 2.0241815100633255e-06 0 -5.1493570117687199e-06 2.5620655443484058e-06 0 -3.3937516802599371e-06 2.8481351906158195e-06 0 -5.1493570117687199e-06 2.5620655443484058e-06 0 -3.3937516802599371e-06 2.8481351906158195e-06 0 -4.0987081755575602e-06 3.2999203055153491e-06 0 -5.1493570117687199e-06 2.5620655443484058e-06 0 -5.1745685230996897e-06 1.4799243012931943e-06 0 -7.3732104423408541e-06 1.9805552606416618e-06 0 -3.3409347022949669e-06 2.0241815100633255e-06 0 -5.1493570117687199e-06 2.5620655443484058e-06 0 -5.1745685230996897e-06 1.4799243012931943e-06 0 -5.1745685230996897e-06 1.4799243012931943e-06 0 -5.3542610154076882e-06 4.9716366267985859e-07 0 -8.9541712884575263e-06 6.3938871954816269e-07 0 -2.4016645734545165e-06 -4.4898307256520856e-08 0 -2.4093203093127464e-06 9.2330590467984764e-07 0 -5.3542610154076882e-06 4.9716366267985859e-07 0 -2.4093203093127464e-06 9.2330590467984764e-07 0 -5.1745685230996897e-06 1.4799243012931943e-06 0 -5.3542610154076882e-06 4.9716366267985859e-07 0 -2.4093203093127464e-06 9.2330590467984764e-07 0 -3.3409347022949669e-06 2.0241815100633255e-06 0 -5.1745685230996897e-06 1.4799243012931943e-06 0 -2.381727357286019e-07 1.9200332696197043e-06 0 -6.0483041476192228e-10 7.6303098951932459e-10 0 -1.8927389768705352e-11 9.4664078635681715e-10 0 -2.381727357286019e-07 1.9200332696197043e-06 0 -6.0483041476192228e-10 7.6303098951932459e-10 0 -6.1359328627533615e-07 1.6027695274749308e-06 0 -2.381727357286019e-07 1.9200332696197043e-06 0 -6.1359328627533625e-07 1.6027695274749308e-06 0 -1.0797343640386465e-06 2.9625734620688188e-06 0 -6.1359328627533615e-07 1.6027695274749308e-06 0 -9.74763072921127e-10 1.0893481020105812e-09 0 -1.7585202611286477e-06 2.2758653092494753e-06 0 -1.5281971523733006e-06 1.3675209981781937e-06 0 -9.74763072921127e-10 1.0893481020105812e-09 0 -1.7585202611286477e-06 2.2758653092494753e-06 0 -6.1359328627533615e-07 1.6027695274749308e-06 0 -1.7585202611286477e-06 2.2758653092494753e-06 0 -1.0797343640386465e-06 2.9625734620688188e-06 0 -6.0483041476192228e-10 7.6303098951932459e-10 0 -6.1359328627533615e-07 1.6027695274749308e-06 0 -9.74763072921127e-10 1.0893481020105812e-09 0 -1.7585202611286477e-06 2.2758653092494753e-06 0 -3.3937516802599375e-06 2.8481351906158195e-06 0 -2.4181917510575887e-06 3.2031735313368886e-06 0 -3.3937516802599371e-06 2.8481351906158195e-06 0 -2.4181917510575887e-06 3.2031735313368886e-06 0 -4.0987081755575602e-06 3.2999203055153491e-06 0 -1.7585202611286477e-06 2.2758653092494753e-06 0 -2.4181917510575887e-06 3.2031735313368886e-06 0 -1.0797343640386465e-06 2.9625734620688188e-06 0 -1.0797343640386465e-06 2.9625734620688188e-06 0 -5.7122342955139514e-08 3.3000329170433499e-06 0 -1.639452744430038e-06 3.7099018073594348e-06 0 -2.4181917510575887e-06 3.2031735313368886e-06 0 -1.0797343640386465e-06 2.9625734620688188e-06 0 -1.639452744430038e-06 3.7099018073594348e-06 0 -2.381727357286019e-07 1.9200332696197043e-06 0 -1.0797343640386465e-06 2.9625734620688188e-06 0 -5.7122342955139514e-08 3.3000329170433499e-06 0 -2.381727357286019e-07 1.9200332696197043e-06 0 -5.7122342955139514e-08 3.3000329170433499e-06 0 2.9979651518299346e-07 2.0961622419817358e-06 0 -5.7122342955139514e-08 3.3000329170433499e-06 0 -1.6435057354716243e-07 3.7513081001803229e-06 0 -1.639452744430038e-06 3.7099018073594348e-06 0 -5.7760678161320454e-07 3.6728538228806597e-06 0 -1.6435057354716219e-07 3.7513081001803229e-06 0 -1.639452744430038e-06 3.7099018073594348e-06 0 -5.7760678161320454e-07 3.6728538228806597e-06 0 -1.639452744430038e-06 3.7099018073594348e-06 0 -3.0292017418645632e-06 3.4635853975749359e-06 0 -3.0292017418645632e-06 3.4635853975749359e-06 0 -4.0987081755575602e-06 3.2999203055153491e-06 0 -5.6915605470546683e-06 2.9495432939135789e-06 0 -2.4181917510575887e-06 3.2031735313368886e-06 0 -1.6394527444300378e-06 3.7099018073594348e-06 0 -4.0987081755575602e-06 3.2999203055153491e-06 0 -1.639452744430038e-06 3.7099018073594348e-06 0 -3.0292017418645632e-06 3.4635853975749359e-06 0 -4.0987081755575602e-06 3.2999203055153491e-06 0 -4.0987081755575602e-06 3.2999203055153491e-06 0 -5.6915605470546675e-06 2.9495432939135794e-06 0 -6.5741055074341756e-06 2.661758326128416e-06 0 -5.6915605470546683e-06 2.9495432939135789e-06 0 -8.0468933751895221e-06 1.8482218295152322e-06 0 -4.1854695345409311e-06 2.7141510954044446e-06 0 -8.0468933751895221e-06 1.8482218295152322e-06 0 -4.1854695345409311e-06 2.7141510954044446e-06 0 -6.6679586941958948e-06 1.2356815262385554e-06 0 -4.1854695345409311e-06 2.7141510954044446e-06 0 -6.6679586941958948e-06 1.2356815262385552e-06 0 -3.9732790350517181e-06 1.2348266642564462e-06 0 -3.0292017418645632e-06 3.4635853975749359e-06 0 -5.6915605470546683e-06 2.9495432939135789e-06 0 -4.1854695345409311e-06 2.7141510954044446e-06 0 -5.7760678161320454e-07 3.6728538228806597e-06 0 -3.0292017418645632e-06 3.4635853975749359e-06 0 -1.4980432478283105e-06 2.8621996332192974e-06 0 -3.0292017418645632e-06 3.4635853975749359e-06 0 -4.1854695345409311e-06 2.7141510954044446e-06 0 -1.4980432478283105e-06 2.8621996332192974e-06 0 -4.1854695345409311e-06 2.7141510954044446e-06 0 -1.4980432478283105e-06 2.8621996332192974e-06 0 -3.9732790350517181e-06 1.2348266642564462e-06 0 -1.4980432478283105e-06 2.8621996332192974e-06 0 9.4277739031676728e-07 2.0591824740708779e-06 0 1.2659026935921988e-06 3.264612319989315e-06 0 -5.7760678161320454e-07 3.6728538228806597e-06 0 -1.4980432478283105e-06 2.8621996332192974e-06 0 1.2659026935921988e-06 3.264612319989315e-06 0 -1.0564079546759686e-05 1.1723992854959914e-06 0 -8.9541712884575263e-06 6.3938871954816269e-07 0 -7.3732104423408541e-06 1.9805552606416618e-06 0 -1.0564079546759686e-05 1.1723992854959914e-06 0 -7.3732104423408541e-06 1.9805552606416618e-06 0 -9.3656881553171769e-06 1.9297761636239632e-06 0 -1.0564079546759686e-05 1.1723992854959914e-06 0 -8.9541712884575263e-06 6.3938871954816269e-07 0 -1.3206259876309146e-05 -1.658614243050419e-07 0 -5.1745685230996897e-06 1.4799243012931943e-06 0 -8.9541712884575263e-06 6.3938871954816269e-07 0 -7.3732104423408541e-06 1.9805552606416618e-06 0 -5.1493570117687199e-06 2.5620655443484058e-06 0 -7.3732104423408541e-06 1.9805552606416618e-06 0 -6.5741055074341756e-06 2.661758326128416e-06 0 -5.1493570117687199e-06 2.5620655443484058e-06 0 -4.0987081755575602e-06 3.2999203055153491e-06 0 -6.5741055074341756e-06 2.661758326128416e-06 0 -5.6915605470546683e-06 2.9495432939135789e-06 0 -6.5741055074341756e-06 2.661758326128416e-06 0 -9.3656881553171769e-06 1.9297761636239632e-06 0 -7.3732104423408541e-06 1.9805552606416618e-06 0 -6.5741055074341756e-06 2.661758326128416e-06 0 -9.3656881553171769e-06 1.9297761636239632e-06 0 -5.6915605470546683e-06 2.9495432939135789e-06 0 -8.0468933751895221e-06 1.8482218295152322e-06 0 -9.3656881553171769e-06 1.9297761636239632e-06 0 -8.0468933751895221e-06 1.8482218295152322e-06 0 -9.3656881553171769e-06 1.9297761636239632e-06 0 -1.1586288879888693e-05 7.1149148484037422e-07 0 -8.0468933751895221e-06 1.8482218295152322e-06 0 -1.1586288879888693e-05 7.1149148484037422e-07 0 -1.0912167715692562e-05 -2.1848507206779219e-07 0 -9.3656881553171769e-06 1.9297761636239632e-06 0 -1.1586288879888693e-05 7.1149148484037422e-07 0 -1.3312525995773275e-05 3.1042860514549636e-07 0 -1.1586288879888693e-05 7.1149148484037422e-07 0 -1.3312525995773275e-05 3.1042860514549636e-07 0 -1.6038622456967451e-05 -1.4791738979976287e-06 0 -1.0564079546759686e-05 1.1723992854959914e-06 0 -9.3656881553171769e-06 1.9297761636239632e-06 0 -1.3312525995773275e-05 3.1042860514549636e-07 0 -1.0564079546759686e-05 1.1723992854959914e-06 0 -1.3312525995773275e-05 3.1042860514549636e-07 0 -1.3206259876309146e-05 -1.658614243050419e-07 0 -1.3312525995773275e-05 3.1042860514549636e-07 0 -1.3206259876309146e-05 -1.6586142430504164e-07 0 -1.8017294491613143e-05 -1.9913030983041292e-06 0 -1.8017294491613143e-05 -1.9913030983041292e-06 0 -1.6038622456967451e-05 -1.4791738979976287e-06 0 -2.3108546258456718e-05 -5.0266558642086408e-06 0 -1.3312525995773275e-05 3.1042860514549636e-07 0 -1.8017294491613143e-05 -1.9913030983041292e-06 0 -1.6038622456967451e-05 -1.4791738979976287e-06 0 -1.6038622456967451e-05 -1.4791738979976287e-06 0 -2.3108546258456718e-05 -5.0266558642086408e-06 0 -2.1505909556746697e-05 -5.4161952383994334e-06 0 -2.3108546258456718e-05 -5.0266558642086408e-06 0 -2.1505909556746697e-05 -5.4161952383994334e-06 0 -2.8974837877504375e-05 -9.5267829305694193e-06 0 -2.1505909556746697e-05 -5.4161952383994334e-06 0 -2.6081416026830034e-05 -9.4441779339494227e-06 0 -1.8989273798948948e-05 -6.9703222775692792e-06 0 -2.6081416026830034e-05 -9.4441779339494227e-06 0 -1.8989273798948948e-05 -6.9703222775692792e-06 0 -2.6278300896477956e-05 -1.3148010216862633e-05 0 -2.1505909556746697e-05 -5.4161952383994334e-06 0 -2.6081416026830034e-05 -9.4441779339494227e-06 0 -2.8974837877504375e-05 -9.5267829305694193e-06 0 -2.6081416026830034e-05 -9.4441779339494227e-06 0 -2.8974837877504375e-05 -9.5267829305694193e-06 0 -3.5404415673907555e-05 -1.5729911601539851e-05 0 -1.8989273798948948e-05 -6.9703222775692792e-06 0 -1.21609019559712e-05 -6.7609097170897494e-06 0 -1.7916018511219642e-05 -1.1844556526336708e-05 0 -1.8989273798948948e-05 -6.9703222775692792e-06 0 -1.2688488297398778e-05 -3.3084880239453599e-06 0 -1.21609019559712e-05 -6.7609097170897494e-06 0 -2.1505909556746697e-05 -5.4161952383994334e-06 0 -1.8989273798948948e-05 -6.9703222775692792e-06 0 -1.60333666551526e-05 -3.1463631320064012e-06 0 -1.8989273798948948e-05 -6.9703222775692792e-06 0 -1.2688488297398778e-05 -3.3084880239453599e-06 0 -1.60333666551526e-05 -3.1463631320064012e-06 0 -1.2688488297398778e-05 -3.3084880239453599e-06 0 -1.60333666551526e-05 -3.1463631320064012e-06 0 -1.0912167715692562e-05 -2.1848507206779219e-07 0 -1.6038622456967451e-05 -1.4791738979976287e-06 0 -2.1505909556746697e-05 -5.4161952383994334e-06 0 -1.60333666551526e-05 -3.1463631320064012e-06 0 -1.6038622456967451e-05 -1.4791738979976287e-06 0 -1.6033366655152597e-05 -3.1463631320064008e-06 0 -1.0912167715692562e-05 -2.1848507206779219e-07 0 -1.1586288879888693e-05 7.1149148484037422e-07 0 -1.6038622456967451e-05 -1.4791738979976287e-06 0 -1.0912167715692562e-05 -2.1848507206779219e-07 0 -8.0468933751895221e-06 1.8482218295152322e-06 0 -1.0912167715692562e-05 -2.1848507206779219e-07 0 -6.6679586941958948e-06 1.2356815262385554e-06 0 -1.0912167715692562e-05 -2.1848507206779219e-07 0 -6.6679586941958948e-06 1.2356815262385554e-06 0 -7.7114496223071691e-06 -7.0254154247747319e-07 0 -6.6679586941958948e-06 1.2356815262385554e-06 0 -7.7114496223071691e-06 -7.0254154247747319e-07 0 -3.9732790350517181e-06 1.2348266642564462e-06 0 -7.7114496223071691e-06 -7.0254154247747319e-07 0 -4.1517363096531631e-06 -1.4884799475552244e-06 0 -8.3248957692588295e-06 -3.3722561612715605e-06 0 -7.7114496223071691e-06 -7.0254154247747319e-07 0 -3.9732790350517173e-06 1.2348266642564462e-06 0 -4.1517363096531631e-06 -1.4884799475552244e-06 0 -1.2688488297398778e-05 -3.3084880239453599e-06 0 -1.0912167715692562e-05 -2.1848507206779219e-07 0 -7.7114496223071691e-06 -7.0254154247747319e-07 0 -1.4980432478283105e-06 2.8621996332192974e-06 0 -1.0609263383469491e-06 7.4499711841914577e-07 0 9.4277739031676728e-07 2.0591824740708779e-06 0 -1.4980432478283105e-06 2.8621996332192974e-06 0 -1.0609263383469486e-06 7.4499711841914598e-07 0 -3.9732790350517181e-06 1.2348266642564462e-06 0 -1.0609263383469486e-06 7.4499711841914598e-07 0 -3.9732790350517181e-06 1.2348266642564462e-06 0 -4.1517363096531631e-06 -1.4884799475552244e-06 0 -1.0609263383469486e-06 7.4499711841914598e-07 0 -1.7295159428139507e-07 -2.8966229177559574e-06 0 2.2669553925785799e-06 3.9697670390613245e-07 0 -1.0609263383469486e-06 7.4499711841914598e-07 0 -1.7295159428139592e-07 -2.8966229177559574e-06 0 -4.1517363096531631e-06 -1.4884799475552244e-06 0 -1.7295159428139531e-07 -2.8966229177559574e-06 0 -4.1517363096531631e-06 -1.4884799475552244e-06 0 -5.8607484707991691e-06 -5.3385198113225508e-06 0 -1.7295159428139531e-07 -2.8966229177559574e-06 0 -5.8607484707991691e-06 -5.3385198113225508e-06 0 -2.0818390073998896e-06 -8.0852719297468591e-06 0 -1.7295159428139531e-07 -2.8966229177559574e-06 0 -2.0818390073998896e-06 -8.0852719297468591e-06 0 3.4569551294609522e-06 -6.2102941531578877e-06 0 -1.2688488297398778e-05 -3.3084880239453599e-06 0 -7.7114496223071691e-06 -7.0254154247747382e-07 0 -8.3248957692588295e-06 -3.3722561612715605e-06 0 -1.2688488297398778e-05 -3.3084880239453599e-06 0 -8.3248957692588295e-06 -3.3722561612715605e-06 0 -1.21609019559712e-05 -6.7609097170897494e-06 0 -4.1517363096531631e-06 -1.4884799475552244e-06 0 -8.3248957692588295e-06 -3.3722561612715605e-06 0 -5.8607484707991691e-06 -5.3385198113225508e-06 0 -5.8607484707991691e-06 -5.3385198113225508e-06 0 -1.21609019559712e-05 -6.7609097170897494e-06 0 -9.4817863449525767e-06 -1.0427093932581818e-05 0 -8.3248957692588295e-06 -3.3722561612715605e-06 0 -5.8607484707991691e-06 -5.3385198113225508e-06 0 -1.21609019559712e-05 -6.7609097170897494e-06 0 -1.21609019559712e-05 -6.7609097170897494e-06 0 -9.4817863449525767e-06 -1.0427093932581818e-05 0 -1.7916018511219642e-05 -1.1844556526336708e-05 0 -9.4817863449525767e-06 -1.0427093932581818e-05 0 -4.8891651843610203e-06 -1.4003083590096631e-05 0 -1.505978453804455e-05 -1.8117248705623193e-05 0 -9.4817863449525767e-06 -1.0427093932581818e-05 0 -1.505978453804455e-05 -1.8117248705623193e-05 0 -1.7916018511219642e-05 -1.1844556526336708e-05 0 -2.0818390073998896e-06 -8.0852719297468591e-06 0 2.3266958572633783e-06 -1.1695767267180389e-05 0 3.4569551294609522e-06 -6.2102941531578877e-06 0 -5.8607484707991691e-06 -5.3385198113225508e-06 0 -9.4817863449525767e-06 -1.0427093932581818e-05 0 -2.0818390073998896e-06 -8.0852719297468591e-06 0 -9.4817863449525767e-06 -1.0427093932581818e-05 0 -2.0818390073998896e-06 -8.0852719297468591e-06 0 -4.8891651843610203e-06 -1.4003083590096631e-05 0 -2.0818390073998896e-06 -8.0852719297468591e-06 0 -4.8891651843610203e-06 -1.4003083590096631e-05 0 2.3266958572633775e-06 -1.1695767267180391e-05 0 -4.8891651843610203e-06 -1.4003083590096631e-05 0 -3.2407642300654229e-07 -1.8877973629619201e-05 0 2.3266958572633775e-06 -1.1695767267180391e-05 0 -4.8891651843610203e-06 -1.4003083590096631e-05 0 -3.2407642300654229e-07 -1.8877973629619201e-05 0 -7.6385492753130387e-06 -2.2579581933315658e-05 0 -7.6385492753130387e-06 -2.2579581933315658e-05 0 -1.2037140750858075e-05 -3.3860814284037989e-05 0 -4.2573235789979459e-06 -2.9749233769121166e-05 0 -3.2407642300654229e-07 -1.8877973629619201e-05 0 -7.638549275313037e-06 -2.2579581933315658e-05 0 -4.2573235789979459e-06 -2.9749233769121166e-05 0 -3.2407642300654229e-07 -1.8877973629619201e-05 0 3.725866847858375e-06 -2.4545935388784911e-05 0 -4.2573235789979459e-06 -2.9749233769121166e-05 0 -1.505978453804455e-05 -1.8117248705623193e-05 0 -7.6385492753130387e-06 -2.2579581933315658e-05 0 -1.6511974322415728e-05 -2.6720083896946148e-05 0 -4.8891651843610203e-06 -1.4003083590096631e-05 0 -1.5059784538044548e-05 -1.8117248705623193e-05 0 -7.6385492753130387e-06 -2.2579581933315658e-05 0 -7.6385492753130387e-06 -2.2579581933315658e-05 0 -1.6511974322415728e-05 -2.6720083896946148e-05 0 -1.2037140750858075e-05 -3.3860814284037989e-05 0 -1.505978453804455e-05 -1.8117248705623193e-05 0 -1.6511974322415728e-05 -2.6720083896946148e-05 0 -2.5871716091728388e-05 -2.6837607177023138e-05 0 -1.6511974322415728e-05 -2.6720083896946148e-05 0 -2.5871716091728388e-05 -2.6837607177023138e-05 0 -2.2014698888104208e-05 -3.3650267806613946e-05 0 -1.505978453804455e-05 -1.8117248705623193e-05 0 -2.5871716091728388e-05 -2.6837607177023138e-05 0 -2.5600318039351442e-05 -1.891874959586969e-05 0 -2.5871716091728388e-05 -2.6837607177023138e-05 0 -3.539866078423503e-05 -2.6636019302747172e-05 0 -2.5600318039351442e-05 -1.891874959586969e-05 0 -2.5871716091728388e-05 -2.6837607177023138e-05 0 -3.539866078423503e-05 -2.6636019302747172e-05 0 -3.6691431352695138e-05 -3.8900253225571781e-05 0 -3.539866078423503e-05 -2.6636019302747172e-05 0 -4.8716088602424801e-05 -3.5205360734673922e-05 0 -3.6691431352695138e-05 -3.8900253225571781e-05 0 -3.539866078423503e-05 -2.6636019302747172e-05 0 -4.8716088602424801e-05 -3.5205360734673922e-05 0 -4.2102296664289764e-05 -2.4313890788350962e-05 0 -3.539866078423503e-05 -2.6636019302747172e-05 0 -4.2102296664289764e-05 -2.4313890788350962e-05 0 -3.2931453060346469e-05 -1.9507746088372677e-05 0 -3.539866078423503e-05 -2.6636019302747172e-05 0 -3.2931453060346469e-05 -1.9507746088372677e-05 0 -2.5600318039351442e-05 -1.891874959586969e-05 0 -3.2931453060346469e-05 -1.9507746088372677e-05 0 -3.5404415673907555e-05 -1.5729911601539851e-05 0 -2.6278300896477956e-05 -1.3148010216862633e-05 0 -3.2931453060346469e-05 -1.9507746088372677e-05 0 -2.6278300896477956e-05 -1.3148010216862633e-05 0 -2.5600318039351442e-05 -1.891874959586969e-05 0 -4.2102296664289764e-05 -2.4313890788350962e-05 0 -3.2931453060346469e-05 -1.9507746088372677e-05 0 -3.5404415673907555e-05 -1.5729911601539851e-05 0 -2.6081416026830034e-05 -9.4441779339494227e-06 0 -3.5404415673907555e-05 -1.5729911601539851e-05 0 -2.6278300896477956e-05 -1.3148010216862633e-05 0 -1.8989273798948948e-05 -6.9703222775692792e-06 0 -2.6278300896477956e-05 -1.3148010216862633e-05 0 -1.7916018511219642e-05 -1.1844556526336708e-05 0 -1.505978453804455e-05 -1.8117248705623193e-05 0 -1.7916018511219642e-05 -1.1844556526336708e-05 0 -2.5600318039351442e-05 -1.891874959586969e-05 0 -2.6278300896477956e-05 -1.3148010216862633e-05 0 -1.7916018511219642e-05 -1.184455652633671e-05 0 -2.5600318039351442e-05 -1.891874959586969e-05 0 1.1161959255576808e-05 -5.7381812295971184e-06 0 1.2340068058058609e-05 -2.0255950851589589e-06 0 1.3304558200657653e-05 -3.7942343453395247e-06 0 1.1161959255576808e-05 -5.7381812295971184e-06 0 1.0407497505635163e-05 -3.3775145621478381e-06 0 1.2340068058058609e-05 -2.0255950851589589e-06 0 1.1161959255576808e-05 -5.7381812295971184e-06 0 1.0407497505635163e-05 -3.3775145621478381e-06 0 8.8758288462080445e-06 -6.3572828484197825e-06 0 1.2340068058058609e-05 -2.0255950851589589e-06 0 1.4836036243512377e-05 1.4138749278013892e-07 0 1.3304558200657653e-05 -3.7942343453395247e-06 0 1.4836036243512377e-05 1.4138749278013892e-07 0 1.6696342518409185e-05 -2.3493663997495977e-07 0 1.741870859646701e-05 2.9669258266789132e-06 0 1.4836036243512377e-05 1.4138749278013892e-07 0 1.6696342518409185e-05 -2.3493663997495993e-07 0 1.3304558200657653e-05 -3.7942343453395247e-06 0 1.6696342518409185e-05 -2.3493663997495993e-07 0 1.3304558200657653e-05 -3.7942343453395247e-06 0 1.4879692821702026e-05 -4.0611625563829439e-06 0 1.3304558200657653e-05 -3.7942343453395247e-06 0 1.4879692821702026e-05 -4.0611625563829439e-06 0 1.3194762423149633e-05 -7.6810107689157221e-06 0 1.6696342518409185e-05 -2.3493663997495993e-07 0 1.4879692821702026e-05 -4.0611625563829439e-06 0 1.6594007072848608e-05 -4.9510372761410096e-06 0 1.4879692821702026e-05 -4.0611625563829439e-06 0 1.6594007072848608e-05 -4.9510372761410096e-06 0 1.3194762423149633e-05 -7.6810107689157221e-06 0 1.3194762423149633e-05 -7.6810107689157221e-06 0 1.1006149218973755e-05 -8.878368126790885e-06 0 1.0373032865065131e-05 -1.2642686190406085e-05 0 1.3304558200657653e-05 -3.7942343453395247e-06 0 1.3194762423149633e-05 -7.6810107689157221e-06 0 1.1006149218973753e-05 -8.8783681267908867e-06 0 1.1161959255576808e-05 -5.7381812295971184e-06 0 1.3304558200657653e-05 -3.7942343453395247e-06 0 1.1006149218973753e-05 -8.8783681267908867e-06 0 1.1161959255576808e-05 -5.7381812295971184e-06 0 1.1006149218973753e-05 -8.8783681267908867e-06 0 9.6895975944201189e-06 -9.6012024360317557e-06 0 1.1006149218973753e-05 -8.8783681267908867e-06 0 8.7943012487981753e-06 -1.3793883926518555e-05 0 1.0373032865065131e-05 -1.2642686190406085e-05 0 8.7943012487981753e-06 -1.3793883926518555e-05 0 9.3260892088533376e-06 -1.4233015653278403e-05 0 1.0737525971861999e-05 -2.0516338170426799e-05 0 8.7943012487981753e-06 -1.3793883926518555e-05 0 9.3260892088533376e-06 -1.4233015653278404e-05 0 9.6895975944201189e-06 -9.6012024360317557e-06 0 9.3260892088533376e-06 -1.4233015653278404e-05 0 9.6895975944201189e-06 -9.6012024360317557e-06 0 7.5293266537170736e-06 -9.5969111203494647e-06 0 1.1006149218973753e-05 -8.8783681267908867e-06 0 8.7943012487981753e-06 -1.3793883926518555e-05 0 9.6895975944201189e-06 -9.6012024360317557e-06 0 3.7258668478583755e-06 -2.4545935388784908e-05 0 6.6063731354148882e-06 -1.58855418992231e-05 0 1.0737525971861999e-05 -2.0516338170426799e-05 0 -3.2407642300654229e-07 -1.8877973629619201e-05 0 3.7258668478583755e-06 -2.4545935388784908e-05 0 6.6063731354148882e-06 -1.58855418992231e-05 0 9.3260892088533376e-06 -1.4233015653278404e-05 0 6.6063731354148882e-06 -1.58855418992231e-05 0 1.0737525971861999e-05 -2.0516338170426799e-05 0 9.3260892088533376e-06 -1.4233015653278404e-05 0 6.6063731354148882e-06 -1.58855418992231e-05 0 7.5293266537170736e-06 -9.5969111203494647e-06 0 -3.2407642300654229e-07 -1.8877973629619201e-05 0 6.6063731354148882e-06 -1.58855418992231e-05 0 2.3266958572633775e-06 -1.1695767267180391e-05 0 6.6063731354148882e-06 -1.58855418992231e-05 0 2.3266958572633775e-06 -1.1695767267180391e-05 0 7.5293266537170736e-06 -9.5969111203494647e-06 0 2.3266958572633775e-06 -1.1695767267180391e-05 0 7.5293266537170736e-06 -9.5969111203494647e-06 0 3.4569551294609522e-06 -6.2102941531578877e-06 0 7.5293266537170736e-06 -9.5969111203494647e-06 0 3.4569551294609522e-06 -6.2102941531578877e-06 0 6.7540781607941525e-06 -4.2680120540603091e-06 0 1.1161959255576808e-05 -5.7381812295971184e-06 0 9.6895975944201189e-06 -9.6012024360317557e-06 0 8.8758288462080445e-06 -6.3572828484197825e-06 0 9.6895975944201189e-06 -9.6012024360317557e-06 0 7.5293266537170736e-06 -9.596911120349463e-06 0 8.8758288462080445e-06 -6.3572828484197825e-06 0 7.5293266537170736e-06 -9.5969111203494647e-06 0 8.8758288462080461e-06 -6.3572828484197825e-06 0 6.7540781607941525e-06 -4.2680120540603091e-06 0 8.8758288462080445e-06 -6.3572828484197825e-06 0 6.7540781607941525e-06 -4.2680120540603091e-06 0 8.7089359302810577e-06 -7.7920621481333997e-07 0 1.0407497505635163e-05 -3.3775145621478381e-06 0 8.8758288462080445e-06 -6.3572828484197825e-06 0 8.7089359302810577e-06 -7.7920621481333997e-07 0 6.7540781607941525e-06 -4.2680120540603091e-06 0 6.5137719985611649e-06 -1.2438200118139736e-06 0 8.7089359302810577e-06 -7.7920621481333997e-07 0 6.5137719985611649e-06 -1.2438200118139736e-06 0 8.7089359302810577e-06 -7.7920621481333997e-07 0 7.1440115005453252e-06 6.7492733517900659e-07 0 -1.7295159428139531e-07 -2.8966229177559574e-06 0 3.4569551294609522e-06 -6.2102941531578877e-06 0 4.1566848454514122e-06 -2.1534604865810068e-06 0 3.4569551294609522e-06 -6.2102941531578877e-06 0 6.7540781607941525e-06 -4.2680120540603091e-06 0 4.1566848454514122e-06 -2.1534604865810068e-06 0 6.7540781607941525e-06 -4.2680120540603091e-06 0 6.5137719985611641e-06 -1.2438200118139734e-06 0 4.1566848454514122e-06 -2.1534604865810068e-06 0 6.5137719985611649e-06 -1.2438200118139736e-06 0 4.1566848454514122e-06 -2.1534604865810068e-06 0 5.0774930473979293e-06 5.2510900431268307e-07 0 -1.7295159428139531e-07 -2.8966229177559574e-06 0 4.1566848454514122e-06 -2.1534604865810064e-06 0 2.2669553925785799e-06 3.9697670390613245e-07 0 4.1566848454514122e-06 -2.1534604865810068e-06 0 2.2669553925785803e-06 3.9697670390613287e-07 0 5.0774930473979293e-06 5.2510900431268307e-07 0 2.2669553925785799e-06 3.9697670390613245e-07 0 5.0774930473979293e-06 5.2510900431268307e-07 0 3.4412300524895219e-06 2.4790437992306332e-06 0 2.2669553925785799e-06 3.9697670390613245e-07 0 9.4277739031676728e-07 2.0591824740708779e-06 0 3.4412300524895219e-06 2.4790437992306332e-06 0 -1.0609263383469486e-06 7.4499711841914598e-07 0 2.2669553925785799e-06 3.9697670390613256e-07 0 9.4277739031676728e-07 2.0591824740708779e-06 0 8.7089359302810577e-06 -7.7920621481333997e-07 0 7.1440115005453261e-06 6.7492733517900669e-07 0 8.4799418975898523e-06 1.8193373049054961e-06 0 6.5137719985611649e-06 -1.2438200118139736e-06 0 7.1440115005453252e-06 6.7492733517900659e-07 0 5.0774930473979293e-06 5.2510900431268307e-07 0 7.1440115005453252e-06 6.7492733517900659e-07 0 5.0774930473979293e-06 5.2510900431268307e-07 0 6.0719578622338348e-06 2.0762141921574714e-06 0 5.0774930473979293e-06 5.2510900431268307e-07 0 6.0719578622338348e-06 2.0762141921574714e-06 0 3.4412300524895219e-06 2.4790437992306332e-06 0 7.1440115005453252e-06 6.7492733517900659e-07 0 6.0719578622338348e-06 2.0762141921574714e-06 0 8.4799418975898523e-06 1.8193373049054961e-06 0 6.0719578622338348e-06 2.0762141921574714e-06 0 8.4799418975898523e-06 1.8193373049054961e-06 0 6.2235772304033925e-06 3.0138646797293084e-06 0 8.4799418975898523e-06 1.8193373049054961e-06 0 1.1021530366054998e-05 2.0591436352602173e-06 0 8.5367907766842473e-06 2.7285882127323841e-06 0 1.1021530366054998e-05 2.0591436352602173e-06 0 1.111049560334664e-05 2.7253859131515958e-06 0 8.5367907766842473e-06 2.7285882127323841e-06 0 8.4799418975898523e-06 1.8193373049054961e-06 0 1.1021530366054998e-05 2.0591436352602173e-06 0 1.0422834357810553e-05 7.140545047209919e-07 0 8.7089359302810577e-06 -7.7920621481333997e-07 0 8.4799418975898523e-06 1.8193373049054961e-06 0 1.0422834357810553e-05 7.140545047209919e-07 0 8.7089359302810577e-06 -7.7920621481333997e-07 0 1.0422834357810553e-05 7.140545047209919e-07 0 1.1015665984147699e-05 -8.8792266539807473e-07 0 1.0422834357810553e-05 7.140545047209919e-07 0 1.1015665984147699e-05 -8.8792266539807473e-07 0 1.2838888179418731e-05 8.9406723071806304e-07 0 1.1021530366054998e-05 2.0591436352602173e-06 0 1.0422834357810553e-05 7.140545047209919e-07 0 1.2838888179418731e-05 8.9406723071806304e-07 0 1.2340068058058609e-05 -2.0255950851589589e-06 0 1.1015665984147699e-05 -8.8792266539807473e-07 0 1.2838888179418731e-05 8.9406723071806304e-07 0 1.0407497505635163e-05 -3.3775145621478381e-06 0 1.2340068058058609e-05 -2.0255950851589593e-06 0 1.1015665984147699e-05 -8.8792266539807473e-07 0 1.0407497505635163e-05 -3.3775145621478381e-06 0 8.7089359302810577e-06 -7.7920621481333997e-07 0 1.1015665984147699e-05 -8.8792266539807473e-07 0 1.4836036243512377e-05 1.4138749278013892e-07 0 1.5114404008378711e-05 2.2013640976897147e-06 0 1.741870859646701e-05 2.9669258266789132e-06 0 1.4836036243512377e-05 1.4138749278013892e-07 0 1.5114404008378711e-05 2.2013640976897147e-06 0 1.2838888179418731e-05 8.9406723071806304e-07 0 1.2340068058058609e-05 -2.0255950851589589e-06 0 1.4836036243512377e-05 1.4138749278013876e-07 0 1.2838888179418731e-05 8.9406723071806304e-07 0 1.1021530366054998e-05 2.0591436352602173e-06 0 1.2838888179418731e-05 8.9406723071806304e-07 0 1.3526596445123884e-05 2.5096337842936361e-06 0 1.5114404008378711e-05 2.2013640976897147e-06 0 1.3526596445123884e-05 2.5096337842936361e-06 0 1.6661667857611531e-05 3.7933808281445189e-06 0 1.5114404008378711e-05 2.2013640976897147e-06 0 1.2838888179418731e-05 8.9406723071806304e-07 0 1.3526596445123884e-05 2.5096337842936361e-06 0 1.3526596445123884e-05 2.5096337842936361e-06 0 1.111049560334664e-05 2.7253859131515958e-06 0 1.3853231729903332e-05 3.0577430382271603e-06 0 1.1021530366054998e-05 2.0591436352602173e-06 0 1.3526596445123884e-05 2.5096337842936361e-06 0 1.111049560334664e-05 2.7253859131515958e-06 0 1.111049560334664e-05 2.7253859131515958e-06 0 1.1410016646093277e-05 2.7516050311688342e-06 0 1.3853231729903332e-05 3.0577430382271603e-06 0 1.1410016646093277e-05 2.7516050311688342e-06 0 8.8598808904959594e-06 2.5416036565705297e-06 0 9.1858593851829328e-06 2.8214309083769391e-06 0 8.8598808904959594e-06 2.5416036565705297e-06 0 9.1858593851829328e-06 2.8214309083769391e-06 0 7.2400542013758418e-06 2.9896569963099148e-06 0 1.111049560334664e-05 2.7253859131515958e-06 0 9.1858593851829328e-06 2.8214309083769391e-06 0 8.5367907766842473e-06 2.7285882127323841e-06 0 1.111049560334664e-05 2.7253859131515958e-06 0 1.1410016646093277e-05 2.7516050311688342e-06 0 9.1858593851829328e-06 2.8214309083769391e-06 0 8.4799418975898523e-06 1.8193373049054961e-06 0 8.536790776684249e-06 2.7285882127323837e-06 0 6.2235772304033925e-06 3.0138646797293084e-06 0 7.2400542013758418e-06 2.9896569963099148e-06 0 5.0955115907924473e-06 3.2599115005096374e-06 0 6.2235772304033925e-06 3.0138646797293084e-06 0 8.5367907766842473e-06 2.7285882127323841e-06 0 7.2400542013758418e-06 2.9896569963099148e-06 0 6.2235772304033925e-06 3.0138646797293084e-06 0 9.1858593851829328e-06 2.8214309083769391e-06 0 8.5367907766842473e-06 2.7285882127323841e-06 0 7.2400542013758418e-06 2.9896569963099148e-06 0 7.2400542013758418e-06 2.9896569963099148e-06 0 5.0453257596659921e-06 2.7758303075664335e-06 0 6.6771009363077694e-06 2.5235984477573167e-06 0 7.2400542013758418e-06 2.9896569963099148e-06 0 5.0955115907924473e-06 3.2599115005096374e-06 0 5.0453257596659921e-06 2.7758303075664335e-06 0 5.0955115907924473e-06 3.2599115005096374e-06 0 5.0453257596659921e-06 2.7758303075664335e-06 0 3.3725336388231569e-06 2.8682182798049175e-06 0 5.0453257596659921e-06 2.7758303075664335e-06 0 6.6771009363077694e-06 2.5235984477573167e-06 0 4.6429104554824585e-06 2.0288752475544528e-06 0 6.6771009363077694e-06 2.5235984477573167e-06 0 4.6429104554824585e-06 2.0288752475544528e-06 0 5.6236472010333208e-06 1.4851923044850295e-06 0 6.6771009363077694e-06 2.5235984477573167e-06 0 5.6236472010333208e-06 1.4851923044850295e-06 0 7.9556851314250914e-06 1.9355980007926984e-06 0 8.8598808904959594e-06 2.5416036565705297e-06 0 6.6771009363077694e-06 2.5235984477573167e-06 0 7.9556851314250914e-06 1.9355980007926984e-06 0 8.8598808904959594e-06 2.5416036565705297e-06 0 7.2400542013758418e-06 2.9896569963099148e-06 0 6.6771009363077694e-06 2.5235984477573167e-06 0 9.4277739031676728e-07 2.0591824740708779e-06 0 1.265902693592199e-06 3.264612319989315e-06 0 3.4412300524895219e-06 2.4790437992306332e-06 0 1.2659026935921988e-06 3.264612319989315e-06 0 3.4412300524895219e-06 2.4790437992306332e-06 0 3.3130844768566786e-06 3.4395467675223552e-06 0 1.2659026935921988e-06 3.264612319989315e-06 0 3.3130844768566786e-06 3.4395467675223552e-06 0 1.4679086332162181e-06 3.7361737929506599e-06 0 3.3130844768566786e-06 3.4395467675223552e-06 0 4.8256404488078841e-06 2.9146905620561025e-06 0 4.5263790082464591e-06 3.3863977690530189e-06 0 3.4412300524895219e-06 2.4790437992306332e-06 0 3.3130844768566786e-06 3.4395467675223552e-06 0 4.8256404488078841e-06 2.9146905620561025e-06 0 6.0719578622338348e-06 2.0762141921574714e-06 0 3.4412300524895219e-06 2.4790437992306332e-06 0 4.8256404488078841e-06 2.9146905620561025e-06 0 6.0719578622338348e-06 2.0762141921574714e-06 0 4.8256404488078841e-06 2.9146905620561025e-06 0 6.2235772304033925e-06 3.0138646797293084e-06 0 4.8256404488078841e-06 2.9146905620561025e-06 0 6.2235772304033925e-06 3.0138646797293084e-06 0 4.5263790082464591e-06 3.3863977690530189e-06 0 5.0955115907924473e-06 3.2599115005096374e-06 0 6.2235772304033925e-06 3.0138646797293084e-06 0 4.5263790082464591e-06 3.3863977690530189e-06 0 5.0955115907924473e-06 3.2599115005096374e-06 0 4.5263790082464591e-06 3.3863977690530189e-06 0 2.9108400631365768e-06 3.5698921694968041e-06 0 5.0955115907924473e-06 3.2599115005096374e-06 0 2.9108400631365768e-06 3.5698921694968041e-06 0 3.3725336388231569e-06 2.8682182798049175e-06 0 3.3130844768566786e-06 3.4395467675223552e-06 0 4.5263790082464583e-06 3.3863977690530189e-06 0 2.9108400631365768e-06 3.5698921694968041e-06 0 3.3130844768566786e-06 3.4395467675223552e-06 0 2.9108400631365768e-06 3.5698921694968041e-06 0 1.4679086332162181e-06 3.7361737929506599e-06 0 2.9108400631365768e-06 3.5698921694968041e-06 0 1.4679086332162179e-06 3.7361737929506599e-06 0 7.3549909460575666e-07 3.6320222843363573e-06 0 -1.6435057354716243e-07 3.7513081001803229e-06 0 1.4679086332162181e-06 3.7361737929506599e-06 0 7.3549909460575666e-07 3.6320222843363573e-06 0 -5.7760678161320454e-07 3.6728538228806597e-06 0 1.2659026935921988e-06 3.264612319989315e-06 0 1.4679086332162181e-06 3.7361737929506599e-06 0 -5.7760678161320454e-07 3.6728538228806597e-06 0 -1.6435057354716243e-07 3.7513081001803229e-06 0 1.4679086332162181e-06 3.7361737929506599e-06 0 -5.7122342955139514e-08 3.3000329170433499e-06 0 1.2643577474134375e-06 3.1348032888786985e-06 0 2.9979651518299346e-07 2.0961622419817358e-06 0 -5.7122342955139514e-08 3.3000329170433499e-06 0 -1.6435057354716243e-07 3.7513081001803229e-06 0 7.3549909460575666e-07 3.6320222843363573e-06 0 -5.7122342955139514e-08 3.3000329170433499e-06 0 7.3549909460575666e-07 3.6320222843363573e-06 0 1.2643577474134375e-06 3.1348032888786985e-06 0 2.9108400631365768e-06 3.5698921694968041e-06 0 7.3549909460575666e-07 3.6320222843363573e-06 0 1.2643577474134375e-06 3.1348032888786985e-06 0 1.2643577474134375e-06 3.1348032888786985e-06 0 7.8904958610468117e-07 1.8189587922462603e-06 0 2.9979651518299346e-07 2.0961622419817358e-06 0 1.2643577474134375e-06 3.1348032888786985e-06 0 1.964715978161376e-06 2.7573383659596523e-06 0 7.8904958610468117e-07 1.8189587922462603e-06 0 2.9108400631365768e-06 3.5698921694968041e-06 0 1.2643577474134375e-06 3.1348032888786985e-06 0 1.964715978161376e-06 2.7573383659596523e-06 0 2.9108400631365768e-06 3.5698921694968041e-06 0 1.964715978161376e-06 2.7573383659596523e-06 0 3.3725336388231569e-06 2.8682182798049175e-06 0 1.964715978161376e-06 2.7573383659596523e-06 0 3.3725336388231569e-06 2.8682182798049175e-06 0 1.357862888120774e-06 1.7125992638102858e-06 0 1.964715978161376e-06 2.7573383659596523e-06 0 7.8904958610468117e-07 1.8189587922462603e-06 0 1.357862888120774e-06 1.7125992638102858e-06 0 9.2419288863875223e-10 8.3530390975716474e-10 0 7.8904958610468117e-07 1.8189587922462603e-06 0 1.357862888120774e-06 1.7125992638102858e-06 0 9.2419288863875223e-10 8.3530390975716474e-10 0 7.8904958610468117e-07 1.8189587922462603e-06 0 5.5105083588035144e-10 8.2972846542348832e-10 0 7.8904958610468117e-07 1.8189587922462603e-06 0 5.5105083588035144e-10 8.2972846542348832e-10 0 2.9979651518299346e-07 2.0961622419817358e-06 0 5.5105083588035144e-10 8.2972846542348832e-10 0 -1.8927389768705352e-11 9.4664078635681715e-10 0 2.9979651518299346e-07 2.0961622419817358e-06 0 -2.381727357286019e-07 1.9200332696197043e-06 0 -1.8927389768705352e-11 9.4664078635681715e-10 0 2.9979651518299346e-07 2.0961622419817358e-06 0 2.8847661358056727e-06 1.1106973210507933e-06 0 4.6429104554824585e-06 2.0288752475544528e-06 0 2.8084037871993674e-06 1.8842033556542553e-06 0 2.8847661358056727e-06 1.1106973210507933e-06 0 4.6429104554824585e-06 2.0288752475544524e-06 0 5.6236472010333208e-06 1.4851923044850295e-06 0 5.0453257596659921e-06 2.7758303075664335e-06 0 4.6429104554824585e-06 2.0288752475544528e-06 0 2.8084037871993674e-06 1.8842033556542553e-06 0 5.0453257596659921e-06 2.7758303075664335e-06 0 3.3725336388231569e-06 2.8682182798049175e-06 0 2.8084037871993674e-06 1.8842033556542553e-06 0 3.3725336388231569e-06 2.8682182798049175e-06 0 2.8084037871993669e-06 1.8842033556542553e-06 0 1.357862888120774e-06 1.7125992638102858e-06 0 2.8084037871993674e-06 1.8842033556542553e-06 0 1.1623689953753304e-06 1.0500773072178923e-06 0 1.357862888120774e-06 1.7125992638102858e-06 0 9.2419288863875223e-10 8.3530390975716474e-10 0 1.357862888120774e-06 1.7125992638102858e-06 0 1.4453777597179111e-09 5.5471029209743617e-10 0 1.1623689953753306e-06 1.0500773072178925e-06 0 1.357862888120774e-06 1.7125992638102858e-06 0 1.4453777597179111e-09 5.5471029209743617e-10 0 1.1623689953753306e-06 1.0500773072178925e-06 0 1.4453777597179111e-09 5.5471029209743617e-10 0 1.7029338383300452e-09 4.6820314253881905e-10 0 1.1623689953753306e-06 1.0500773072178925e-06 0 1.7029338383300452e-09 4.6820314253881905e-10 0 1.2287085627865867e-06 7.8609553922124998e-07 0 2.8847661358056727e-06 1.1106973210507933e-06 0 1.2287085627865867e-06 7.8609553922124998e-07 0 1.8342585611827815e-09 3.9216166922077949e-10 0 2.8847661358056727e-06 1.1106973210507933e-06 0 2.8084037871993674e-06 1.8842033556542553e-06 0 1.2287085627865867e-06 7.8609553922124998e-07 0 2.8084037871993674e-06 1.8842033556542553e-06 0 1.1623689953753304e-06 1.0500773072178925e-06 0 1.2287085627865867e-06 7.8609553922124998e-07 0 1.7029338383300452e-09 4.6820314253881905e-10 0 1.2287085627865867e-06 7.8609553922124998e-07 0 1.8342585611827815e-09 3.9216166922077949e-10 0 2.8847661358056727e-06 1.1106973210507933e-06 0 1.8342585611827815e-09 3.9216166922077949e-10 0 1.879893513281813e-06 3.275682739882164e-07 0 1.8342585611827815e-09 3.9216166922077949e-10 0 1.974737114891123e-09 -1.1915238673076826e-10 0 1.879893513281813e-06 3.275682739882164e-07 0 1.974737114891123e-09 -1.1915238673076826e-10 0 1.879893513281813e-06 3.275682739882164e-07 0 1.4338138160299732e-06 -1.278992322678824e-07 0 1.879893513281813e-06 3.275682739882164e-07 0 3.5524093449321158e-06 -1.8184793359044796e-08 0 1.4338138160299732e-06 -1.278992322678824e-07 0 2.8847661358056727e-06 1.1106973210507933e-06 0 1.8798935132818132e-06 3.275682739882164e-07 0 3.8884162243995754e-06 6.3475033907821937e-07 0 2.8847661358056727e-06 1.1106973210507933e-06 0 3.8884162243995754e-06 6.3475033907821937e-07 0 5.6236472010333208e-06 1.4851923044850295e-06 0 1.879893513281813e-06 3.275682739882164e-07 0 3.8884162243995754e-06 6.3475033907821937e-07 0 3.5524093449321158e-06 -1.8184793359044796e-08 0 3.8884162243995754e-06 6.3475033907821937e-07 0 5.6228336649436243e-06 2.5093633407997255e-07 0 3.5524093449321158e-06 -1.8184793359044796e-08 0 3.8884162243995754e-06 6.3475033907821937e-07 0 5.6236472010333208e-06 1.4851923044850295e-06 0 5.6228336649436243e-06 2.5093633407997255e-07 0 4.7766017796992155e-06 -7.4335385347091162e-07 0 5.6228336649436243e-06 2.5093633407997255e-07 0 3.5524093449321158e-06 -1.8184793359044796e-08 0 4.7766017796992155e-06 -7.4335385347091162e-07 0 2.0538651872375241e-06 -7.0420744937418929e-07 0 3.5189682550972269e-06 -1.5552943247974503e-06 0 4.7766017796992155e-06 -7.4335385347091162e-07 0 3.5524093449321162e-06 -1.81847933590448e-08 0 2.0538651872375241e-06 -7.0420744937418929e-07 0 3.5524093449321158e-06 -1.8184793359044796e-08 0 2.0538651872375241e-06 -7.0420744937418929e-07 0 1.4338138160299732e-06 -1.278992322678824e-07 0 1.974737114891123e-09 -1.1915238673076826e-10 0 1.4338138160299732e-06 -1.278992322678824e-07 0 2.0083544899369609e-09 2.3834349454749909e-11 0 2.0538651872375241e-06 -7.0420744937418929e-07 0 2.0083544899369609e-09 2.3834349454749909e-11 0 1.5673988224205471e-09 -6.1211212221731936e-10 0 2.0538651872375241e-06 -7.0420744937418929e-07 0 1.4338138160299734e-06 -1.2789923226788234e-07 0 2.0083544899369609e-09 2.3834349454749909e-11 0 1.5673988224205471e-09 -6.1211212221731936e-10 0 1.5910509782978561e-06 -1.3736835958447519e-06 0 1.1595640262527803e-09 -7.7819231284129916e-10 0 2.0538651872375241e-06 -7.0420744937418929e-07 0 1.5910509782978559e-06 -1.3736835958447519e-06 0 3.5189682550972269e-06 -1.5552943247974503e-06 0 2.0538651872375241e-06 -7.0420744937418929e-07 0 1.5673988224205471e-09 -6.1211212221731936e-10 0 1.5910509782978561e-06 -1.3736835958447519e-06 0 1.1595640262527803e-09 -7.7819231284129916e-10 0 1.0335274770207004e-06 -2.16855704865029e-06 0 5.1055682077680267e-10 -1.1561613429321249e-09 0 1.5910509782978561e-06 -1.3736835958447519e-06 0 1.1595640262527803e-09 -7.7819231284129916e-10 0 1.0335274770207004e-06 -2.16855704865029e-06 0 1.0335274770207004e-06 -2.16855704865029e-06 0 5.1055682077680267e-10 -1.1561613429321249e-09 0 2.4059312924996253e-07 -2.3549369695756926e-06 0 1.0335274770207004e-06 -2.16855704865029e-06 0 3.4102570651055727e-06 -2.7184224502971752e-06 0 1.3055399436662935e-06 -3.6501544222709013e-06 0 3.4102570651055727e-06 -2.7184224502971752e-06 0 3.0510230793244255e-06 -3.5294446634003645e-06 0 1.3055399436662935e-06 -3.6501544222709013e-06 0 1.5910509782978561e-06 -1.3736835958447519e-06 0 1.0335274770207004e-06 -2.16855704865029e-06 0 3.4102570651055727e-06 -2.7184224502971752e-06 0 3.0510230793244255e-06 -3.5294446634003641e-06 0 1.3055399436662935e-06 -3.6501544222709013e-06 0 2.4945589591824819e-06 -4.035056854556195e-06 0 1.5910509782978561e-06 -1.3736835958447519e-06 0 3.4102570651055727e-06 -2.7184224502971752e-06 0 3.5189682550972269e-06 -1.5552943247974503e-06 0 3.4102570651055727e-06 -2.7184224502971752e-06 0 3.5189682550972269e-06 -1.5552943247974503e-06 0 5.5168940853806067e-06 -1.4556770199622888e-06 0 4.7766017796992155e-06 -7.4335385347091162e-07 0 3.5189682550972269e-06 -1.5552943247974503e-06 0 5.5168940853806067e-06 -1.4556770199622888e-06 0 3.4102570651055727e-06 -2.7184224502971752e-06 0 5.5168940853806059e-06 -1.4556770199622888e-06 0 7.3626587074439665e-06 -1.8015647347112595e-06 0 5.5168940853806067e-06 -1.4556770199622888e-06 0 7.3626587074439665e-06 -1.8015647347112595e-06 0 7.9936700538859108e-06 -2.6461739952062519e-07 0 7.3626587074439665e-06 -1.8015647347112595e-06 0 1.0450661912474689e-05 1.1203580900922064e-07 0 7.9936700538859108e-06 -2.6461739952062519e-07 0 3.4102570651055727e-06 -2.7184224502971752e-06 0 7.3626587074439665e-06 -1.8015647347112597e-06 0 5.1033772344341056e-06 -3.0543027813473902e-06 0 3.0510230793244255e-06 -3.5294446634003641e-06 0 5.1033772344341056e-06 -3.0543027813473902e-06 0 2.4945589591824819e-06 -4.035056854556195e-06 0 3.4102570651055727e-06 -2.7184224502971752e-06 0 3.051023079324426e-06 -3.5294446634003641e-06 0 5.1033772344341056e-06 -3.0543027813473902e-06 0 7.3626587074439665e-06 -1.8015647347112595e-06 0 5.1033772344341056e-06 -3.0543027813473898e-06 0 6.9840902116244411e-06 -2.4810819888938046e-06 0 5.1033772344341056e-06 -3.0543027813473902e-06 0 2.4945589591824819e-06 -4.035056854556195e-06 0 3.4868326794806483e-06 -3.9485504366301764e-06 0 5.1033772344341056e-06 -3.0543027813473902e-06 0 6.9840902116244419e-06 -2.4810819888938046e-06 0 3.4868326794806483e-06 -3.9485504366301764e-06 0 6.9840902116244411e-06 -2.4810819888938046e-06 0 7.8867737291060048e-06 -2.0424669070484717e-06 0 3.4868326794806483e-06 -3.9485504366301764e-06 0 6.9840902116244411e-06 -2.4810819888938046e-06 0 7.8867737291060048e-06 -2.0424669070484717e-06 0 1.0781179136939737e-05 -6.103822306656953e-07 0 7.8867737291060048e-06 -2.0424669070484717e-06 0 1.0781179136939737e-05 -6.103822306656953e-07 0 1.192247114796008e-05 3.4868521251093343e-07 0 7.8867737291060048e-06 -2.0424669070484717e-06 0 2.9874105494544662e-06 -3.2304838125271568e-06 0 7.9285612199113327e-06 -9.9570712004488962e-07 0 7.8867737291060048e-06 -2.0424669070484717e-06 0 7.9285612199113327e-06 -9.9570712004488962e-07 0 1.192247114796008e-05 3.4868521251093343e-07 0 7.3626587074439665e-06 -1.8015647347112595e-06 0 1.0781179136939736e-05 -6.1038223066569551e-07 0 1.0450661912474689e-05 1.1203580900922064e-07 0 7.3626587074439665e-06 -1.8015647347112595e-06 0 6.9840902116244411e-06 -2.4810819888938046e-06 0 1.0781179136939737e-05 -6.103822306656953e-07 0 1.0781179136939737e-05 -6.103822306656953e-07 0 1.3524699011069841e-05 1.3865133462106754e-06 0 1.0450661912474689e-05 1.1203580900922064e-07 0 1.0781179136939737e-05 -6.103822306656953e-07 0 1.3524699011069841e-05 1.3865133462106754e-06 0 1.5527702757054635e-05 2.2951707178235066e-06 0 1.3524699011069841e-05 1.3865133462106754e-06 0 1.0450661912474689e-05 1.1203580900922064e-07 0 1.2379519722236221e-05 1.6600890743696921e-06 0 1.3524699011069841e-05 1.3865133462106754e-06 0 1.2379519722236221e-05 1.6600890743696921e-06 0 1.50961410701391e-05 2.63304306592152e-06 0 1.0450661912474689e-05 1.1203580900922064e-07 0 1.2379519722236221e-05 1.6600890743696919e-06 0 9.696127481033547e-06 8.5796162411039402e-07 0 1.2379519722236221e-05 1.6600890743696921e-06 0 1.0276596541581203e-05 1.9753263064633019e-06 0 9.696127481033547e-06 8.5796162411039402e-07 0 1.2379519722236221e-05 1.6600890743696921e-06 0 1.3442981664208381e-05 2.6852913059165795e-06 0 1.50961410701391e-05 2.63304306592152e-06 0 1.2379519722236221e-05 1.6600890743696921e-06 0 1.0276596541581204e-05 1.9753263064633023e-06 0 1.3442981664208381e-05 2.6852913059165795e-06 0 1.1410016646093277e-05 2.7516050311688342e-06 0 1.0276596541581204e-05 1.9753263064633023e-06 0 1.3442981664208381e-05 2.6852913059165795e-06 0 8.8598808904959594e-06 2.5416036565705297e-06 0 1.0276596541581204e-05 1.9753263064633023e-06 0 7.9556851314250914e-06 1.9355980007926984e-06 0 1.1410016646093277e-05 2.7516050311688342e-06 0 8.8598808904959594e-06 2.5416036565705297e-06 0 1.0276596541581204e-05 1.9753263064633023e-06 0 1.0276596541581204e-05 1.9753263064633023e-06 0 7.4958238711180147e-06 9.340614855416614e-07 0 9.696127481033547e-06 8.5796162411039402e-07 0 1.0276596541581204e-05 1.9753263064633023e-06 0 7.9556851314250914e-06 1.9355980007926984e-06 0 7.4958238711180147e-06 9.340614855416615e-07 0 5.6236472010333208e-06 1.4851923044850295e-06 0 7.9556851314250914e-06 1.9355980007926984e-06 0 7.4958238711180147e-06 9.340614855416615e-07 0 5.6236472010333208e-06 1.4851923044850295e-06 0 5.6228336649436243e-06 2.5093633407997255e-07 0 7.4958238711180147e-06 9.340614855416615e-07 0 5.6228336649436243e-06 2.5093633407997255e-07 0 7.4958238711180147e-06 9.340614855416615e-07 0 7.9936700538859108e-06 -2.6461739952062519e-07 0 4.7766017796992155e-06 -7.4335385347091162e-07 0 5.6228336649436243e-06 2.5093633407997255e-07 0 7.9936700538859108e-06 -2.6461739952062519e-07 0 4.7766017796992155e-06 -7.4335385347091162e-07 0 5.5168940853806067e-06 -1.4556770199622888e-06 0 7.9936700538859108e-06 -2.6461739952062519e-07 0 1.0450661912474689e-05 1.1203580900922064e-07 0 7.9936700538859108e-06 -2.6461739952062519e-07 0 9.696127481033547e-06 8.5796162411039402e-07 0 7.4958238711180147e-06 9.340614855416615e-07 0 7.9936700538859125e-06 -2.6461739952062492e-07 0 9.696127481033547e-06 8.5796162411039402e-07 0 -7.0506033767903261e-06 -1.4401899558938854e-06 0 -6.7948414540141424e-06 -2.8193266193881325e-06 0 -1.2200725313337243e-05 -1.8410578264160519e-06 0 -6.7948414540141424e-06 -2.8193266193881325e-06 0 -3.1086860211949705e-06 -1.7073784732181647e-06 0 -4.1113176364161684e-06 -3.3606060874929196e-06 0 -7.0506033767903261e-06 -1.4401899558938854e-06 0 -3.0285287086618087e-06 -3.7980116578014825e-07 0 -3.1086860211949705e-06 -1.7073784732181647e-06 0 -7.0506033767903261e-06 -1.4401899558938854e-06 0 -6.7948414540141424e-06 -2.8193266193881325e-06 0 -3.1086860211949705e-06 -1.7073784732181647e-06 0 -3.0285287086618087e-06 -3.7980116578014825e-07 0 -1.3709442524267213e-06 -5.233178464955206e-07 0 -3.1086860211949705e-06 -1.7073784732181647e-06 0 -3.0285287086618087e-06 -3.7980116578014825e-07 0 -2.3763618460707957e-09 9.7211420362706163e-10 0 -1.3709442524267213e-06 -5.233178464955206e-07 0 -2.3763618460707957e-09 9.7211420362706163e-10 0 -1.3709442524267213e-06 -5.233178464955206e-07 0 -2.5354557946890304e-09 -9.7777978052533182e-10 0 -1.3709442524267213e-06 -5.233178464955206e-07 0 -2.5354557946890122e-09 -9.7777978052531962e-10 0 -3.1086860211949705e-06 -1.7073784732181647e-06 0 -2.5354557946890304e-09 -9.7777978052533182e-10 0 -3.1086860211949705e-06 -1.7073784732181647e-06 0 -1.8496645097743839e-06 -2.1897312773238125e-06 0 -3.1086860211949705e-06 -1.7073784732181647e-06 0 -1.8496645097743842e-06 -2.1897312773238125e-06 0 -4.1113176364161684e-06 -3.3606060874929196e-06 0 -2.5354557946890304e-09 -9.7777978052533182e-10 0 -2.2488590673826357e-09 -5.8557867046852133e-10 0 -1.8496645097743839e-06 -2.1897312773238125e-06 0 -2.2488590673830555e-09 -5.8557867046901857e-10 0 -1.8496645097743839e-06 -2.1897312773238125e-06 0 -9.7784978960962657e-10 -1.625671485781855e-09 0 -1.8496645097743839e-06 -2.1897312773238125e-06 0 -4.1113176364161684e-06 -3.3606060874929196e-06 0 -1.8064547991063721e-06 -3.3655166627180589e-06 0 -4.1113176364161684e-06 -3.3606060874929196e-06 0 -3.7221697612515392e-06 -4.4136206231167562e-06 0 -1.8064547991063721e-06 -3.3655166627180589e-06 0 -6.7948414540141424e-06 -2.8193266193881325e-06 0 -4.1113176364161684e-06 -3.3606060874929196e-06 0 -6.341878693414188e-06 -4.3100838735723417e-06 0 -6.7948414540141424e-06 -2.8193266193881325e-06 0 -6.341878693414188e-06 -4.3100838735723417e-06 0 -9.6874258606400621e-06 -3.6990912397068265e-06 0 -6.341878693414188e-06 -4.3100838735723417e-06 0 -3.7221697612515392e-06 -4.4136206231167562e-06 0 -4.0702366924137833e-06 -5.039244480001226e-06 0 -4.1113176364161684e-06 -3.3606060874929196e-06 0 -6.341878693414188e-06 -4.3100838735723417e-06 0 -3.7221697612515392e-06 -4.4136206231167562e-06 0 -3.7221697612515392e-06 -4.4136206231167562e-06 0 -2.0627162058759142e-06 -4.6097858419332517e-06 0 -4.0702366924137833e-06 -5.039244480001226e-06 0 -2.0627162058759142e-06 -4.6097858419332517e-06 0 -1.8064547991063721e-06 -3.3655166627180589e-06 0 -3.6206941221336151e-07 -3.8751211830328774e-06 0 -3.7221697612515392e-06 -4.4136206231167562e-06 0 -2.0627162058759142e-06 -4.6097858419332517e-06 0 -1.8064547991063721e-06 -3.3655166627180589e-06 0 -1.8064547991063721e-06 -3.3655166627180589e-06 0 -9.7784978960962657e-10 -1.625671485781855e-09 0 -4.2218310828780876e-07 -2.1970944166923776e-06 0 -1.8496645097743839e-06 -2.1897312773238125e-06 0 -1.8064547991063719e-06 -3.3655166627180589e-06 0 -9.7784978960962657e-10 -1.625671485781855e-09 0 -9.7784978960962657e-10 -1.625671485781855e-09 0 -4.2218310828780876e-07 -2.1970944166923776e-06 0 -3.1315669154661327e-10 -1.053000174478917e-09 0 -1.8064547991063721e-06 -3.3655166627180589e-06 0 -4.2218310828780876e-07 -2.1970944166923776e-06 0 -3.6206941221336151e-07 -3.8751211830328774e-06 0 -4.2218310828780876e-07 -2.1970944166923776e-06 0 2.4059312924996253e-07 -2.3549369695756926e-06 0 -3.6206941221336151e-07 -3.8751211830328774e-06 0 -4.2218310828780876e-07 -2.1970944166923776e-06 0 -3.1315669154661327e-10 -1.053000174478917e-09 0 2.4059312924996253e-07 -2.3549369695756926e-06 0 -3.1315669154661327e-10 -1.053000174478917e-09 0 5.1055682077680267e-10 -1.1561613429321249e-09 0 2.4059312924996253e-07 -2.3549369695756926e-06 0 1.0335274770207004e-06 -2.16855704865029e-06 0 2.4059312924996253e-07 -2.3549369695756926e-06 0 1.3055399436662935e-06 -3.6501544222709013e-06 0 2.4059312924996253e-07 -2.3549369695756926e-06 0 1.3055399436662935e-06 -3.6501544222709013e-06 0 -3.6206941221336151e-07 -3.8751211830328774e-06 0 -2.0627162058759142e-06 -4.6097858419332517e-06 0 -3.6206941221336151e-07 -3.8751211830328774e-06 0 -7.3574178724248085e-11 -4.808985565366961e-06 0 1.3055399436662935e-06 -3.6501544222709013e-06 0 -3.620694122133614e-07 -3.8751211830328774e-06 0 -7.3574178724248085e-11 -4.808985565366961e-06 0 1.3055399436662935e-06 -3.6501544222709013e-06 0 2.4945589591824819e-06 -4.035056854556195e-06 0 -7.3574178724248085e-11 -4.808985565366961e-06 0 2.4945589591824819e-06 -4.035056854556195e-06 0 -7.3574178724248085e-11 -4.808985565366961e-06 0 3.4868326794806483e-06 -3.9485504366301764e-06 0 -7.3574178724248085e-11 -4.808985565366961e-06 0 3.4868326794806483e-06 -3.9485504366301764e-06 0 -1.5547971637373497e-06 -4.8824617537532494e-06 0 7.8867737291060048e-06 -2.0424669070484717e-06 0 3.4868326794806487e-06 -3.9485504366301764e-06 0 2.9874105494544662e-06 -3.2304838125271573e-06 0 2.9874105494544662e-06 -3.2304838125271573e-06 0 -1.7978634809083069e-06 -3.8011470763135911e-06 0 -8.93964017127905e-07 -1.8662536122225157e-06 0 2.9874105494544662e-06 -3.2304838125271573e-06 0 -1.7978634809083069e-06 -3.8011470763135911e-06 0 -1.5547971637373497e-06 -4.8824617537532494e-06 0 3.4868326794806483e-06 -3.9485504366301764e-06 0 2.9874105494544662e-06 -3.2304838125271573e-06 0 -1.5547971637373497e-06 -4.8824617537532494e-06 0 -1.7978634809083069e-06 -3.8011470763135911e-06 0 -6.8563811257753335e-06 -4.5778508053003646e-06 0 -1.5547971637373497e-06 -4.8824617537532494e-06 0 -1.7978634809083069e-06 -3.8011470763135911e-06 0 -6.938048751444582e-06 -2.9833909308782169e-06 0 -8.93964017127905e-07 -1.8662536122225157e-06 0 -1.7978634809083069e-06 -3.8011470763135911e-06 0 -6.938048751444582e-06 -2.9833909308782169e-06 0 -6.8563811257753335e-06 -4.5778508053003646e-06 0 -6.8563811257753335e-06 -4.5778508053003646e-06 0 -1.5547971637373497e-06 -4.8824617537532494e-06 0 -4.0702366924137833e-06 -5.039244480001226e-06 0 -6.8563811257753335e-06 -4.5778508053003646e-06 0 -4.0702366924137833e-06 -5.039244480001226e-06 0 -7.9112070057944886e-06 -4.5564107042055512e-06 0 -7.3574178724248085e-11 -4.808985565366961e-06 0 -1.5547971637373497e-06 -4.8824617537532494e-06 0 -4.0702366924137833e-06 -5.039244480001226e-06 0 -2.0627162058759142e-06 -4.6097858419332517e-06 0 -7.3574178724248085e-11 -4.808985565366961e-06 0 -4.0702366924137833e-06 -5.039244480001226e-06 0 -6.341878693414188e-06 -4.3100838735723417e-06 0 -4.0702366924137833e-06 -5.039244480001226e-06 0 -7.9112070057944886e-06 -4.5564107042055512e-06 0 -6.341878693414188e-06 -4.3100838735723417e-06 0 -7.9112070057944886e-06 -4.5564107042055512e-06 0 -9.6874258606400621e-06 -3.6990912397068265e-06 0 -7.9112070057944886e-06 -4.5564107042055512e-06 0 -1.2210343947394286e-05 -3.6372208077781864e-06 0 -9.6874258606400621e-06 -3.6990912397068265e-06 0 -6.8563811257753335e-06 -4.5778508053003646e-06 0 -7.9112070057944886e-06 -4.5564107042055512e-06 0 -1.2210343947394286e-05 -3.6372208077781864e-06 0 -6.8563811257753335e-06 -4.5778508053003646e-06 0 -1.4380322769774649e-05 -2.2005005160375724e-06 0 -1.2210343947394286e-05 -3.6372208077781864e-06 0 -6.938048751444582e-06 -2.9833909308782169e-06 0 -6.8563811257753335e-06 -4.5778508053003646e-06 0 -1.4380322769774649e-05 -2.2005005160375724e-06 0 -1.4380322769774649e-05 -2.2005005160375724e-06 0 -1.2210343947394286e-05 -3.6372208077781864e-06 0 -1.8872252982557227e-05 -1.4973121789222348e-06 0 -1.2210343947394286e-05 -3.6372208077781864e-06 0 -1.8872252982557227e-05 -1.4973121789222348e-06 0 -1.4537161686198465e-05 -2.6726535612400155e-06 0 -1.4380322769774649e-05 -2.2005005160375724e-06 0 -1.8872252982557227e-05 -1.4973121789222348e-06 0 -2.3871250771901721e-05 1.4913545138571032e-06 0 -1.8872252982557227e-05 -1.4973121789222348e-06 0 -1.8487722896949381e-05 -8.1389931436886231e-07 0 -2.6004750356840912e-05 1.7946434031479613e-06 0 -1.8872252982557227e-05 -1.4973121789222348e-06 0 -1.8487722896949381e-05 -8.1389931436886231e-07 0 -1.4537161686198465e-05 -2.6726535612400155e-06 0 -1.8487722896949381e-05 -8.1389931436886231e-07 0 -1.4537161686198464e-05 -2.6726535612400155e-06 0 -1.2200725313337243e-05 -1.8410578264160519e-06 0 -1.2210343947394286e-05 -3.6372208077781864e-06 0 -1.4537161686198465e-05 -2.6726535612400155e-06 0 -9.6874258606400621e-06 -3.6990912397068265e-06 0 -1.4537161686198465e-05 -2.6726535612400155e-06 0 -9.6874258606400621e-06 -3.6990912397068265e-06 0 -1.2200725313337243e-05 -1.8410578264160519e-06 0 -6.7948414540141424e-06 -2.8193266193881325e-06 0 -9.6874258606400621e-06 -3.6990912397068265e-06 0 -1.2200725313337243e-05 -1.8410578264160519e-06 0 -4.4834543409869238e-05 1.4759557646018996e-05 0 -3.9313975899526813e-05 1.4667877699522503e-05 0 -3.1359769252217158e-05 7.6303135941817635e-06 0 -4.4834543409869238e-05 1.4759557646018996e-05 0 -3.9313975899526813e-05 1.4667877699522503e-05 0 -5.6587652468609745e-05 2.6186584039826494e-05 0 -3.9313975899526813e-05 1.4667877699522503e-05 0 -3.1359769252217158e-05 7.6303135941817635e-06 0 -2.708226761465538e-05 1.1240417529416431e-05 0 -3.9313975899526813e-05 1.4667877699522503e-05 0 -2.708226761465538e-05 1.1240417529416431e-05 0 -3.9209430447352116e-05 2.1608939815339084e-05 0 -4.4834543409869238e-05 1.4759557646018996e-05 0 -3.1359769252217158e-05 7.6303135941817635e-06 0 -3.4661704173331982e-05 6.7344574610052679e-06 0 -3.4661704173331982e-05 6.7344574610052679e-06 0 -2.6004750356840912e-05 1.7946434031479613e-06 0 -2.3871250771901721e-05 1.4913545138571032e-06 0 -1.8872252982557227e-05 -1.4973121789222348e-06 0 -2.6004750356840912e-05 1.7946434031479613e-06 0 -2.3871250771901721e-05 1.4913545138571032e-06 0 -3.1359769252217158e-05 7.6303135941817635e-06 0 -3.4661704173331982e-05 6.7344574610052679e-06 0 -2.3871250771901721e-05 1.4913545138571032e-06 0 -3.1359769252217158e-05 7.6303135941817635e-06 0 -2.3871250771901721e-05 1.4913545138571032e-06 0 -1.7991835715062177e-05 2.9597421626207219e-06 0 -1.4380322769774649e-05 -2.2005005160375724e-06 0 -1.1536750000547501e-05 -7.5586303262343582e-07 0 -1.7991835715062177e-05 2.9597421626207219e-06 0 -1.4380322769774649e-05 -2.2005005160375724e-06 0 -2.3871250771901721e-05 1.4913545138571036e-06 0 -1.7991835715062177e-05 2.9597421626207219e-06 0 -6.938048751444582e-06 -2.9833909308782169e-06 0 -1.4380322769774649e-05 -2.2005005160375724e-06 0 -1.1536750000547499e-05 -7.5586303262343635e-07 0 -1.7991835715062177e-05 2.9597421626207219e-06 0 -2.708226761465538e-05 1.1240417529416431e-05 0 -1.6836570002783735e-05 9.9937858507191632e-06 0 -3.1359769252217158e-05 7.6303135941817635e-06 0 -1.7991835715062177e-05 2.9597421626207215e-06 0 -2.708226761465538e-05 1.1240417529416431e-05 0 -2.708226761465538e-05 1.1240417529416431e-05 0 -1.6836570002783735e-05 9.9937858507191615e-06 0 -2.4573925594897375e-05 1.937963601023734e-05 0 -1.6836570002783735e-05 9.9937858507191632e-06 0 -6.9598258568027175e-06 4.9909942458170644e-06 0 -7.3600391153892603e-06 1.5682224661933259e-05 0 -6.9598258568027175e-06 4.9909942458170644e-06 0 1.191604602830747e-06 7.6889595533161903e-06 0 -7.3600391153892603e-06 1.5682224661933259e-05 0 -6.9598258568027175e-06 4.9909942458170644e-06 0 1.4057161568151628e-07 1.7597680653789885e-06 0 1.191604602830747e-06 7.6889595533161903e-06 0 -1.7991835715062177e-05 2.9597421626207219e-06 0 -1.6836570002783735e-05 9.9937858507191632e-06 0 -6.9598258568027175e-06 4.9909942458170644e-06 0 -1.7991835715062177e-05 2.9597421626207219e-06 0 -6.9598258568027192e-06 4.9909942458170653e-06 0 -6.5457929086940878e-06 4.0349496009849507e-07 0 -1.1536750000547499e-05 -7.5586303262343635e-07 0 -1.7991835715062177e-05 2.9597421626207219e-06 0 -6.5457929086940878e-06 4.0349496009849507e-07 0 -6.938048751444582e-06 -2.9833909308782169e-06 0 -1.1536750000547499e-05 -7.5586303262343635e-07 0 -6.5457929086940878e-06 4.0349496009849507e-07 0 -6.938048751444582e-06 -2.9833909308782169e-06 0 -6.5457929086940869e-06 4.0349496009849486e-07 0 -8.93964017127905e-07 -1.8662536122225157e-06 0 -6.5457929086940878e-06 4.0349496009849507e-07 0 -8.93964017127905e-07 -1.8662536122225157e-06 0 1.4057161568151628e-07 1.7597680653789885e-06 0 -6.9598258568027175e-06 4.9909942458170644e-06 0 -6.5457929086940869e-06 4.0349496009849481e-07 0 1.4057161568151628e-07 1.7597680653789885e-06 0 -8.93964017127905e-07 -1.8662536122225157e-06 0 1.4057161568151628e-07 1.7597680653789885e-06 0 4.9767508904970532e-06 -3.317412061308296e-07 0 1.4057161568151628e-07 1.7597680653789885e-06 0 4.9767508904970524e-06 -3.3174120613082981e-07 0 7.400706699552822e-06 4.2511029448653521e-06 0 2.9874105494544662e-06 -3.2304838125271573e-06 0 -8.93964017127905e-07 -1.8662536122225157e-06 0 4.9767508904970532e-06 -3.317412061308296e-07 0 4.9767508904970532e-06 -3.317412061308296e-07 0 7.9285612199113344e-06 -9.9570712004488941e-07 0 1.0841458094242471e-05 1.72389888935576e-06 0 2.9874105494544662e-06 -3.2304838125271573e-06 0 4.9767508904970532e-06 -3.317412061308296e-07 0 7.9285612199113327e-06 -9.9570712004488962e-07 0 4.9767508904970532e-06 -3.317412061308296e-07 0 7.400706699552822e-06 4.2511029448653521e-06 0 1.0841458094242471e-05 1.72389888935576e-06 0 7.400706699552822e-06 4.2511029448653521e-06 0 1.0841458094242471e-05 1.72389888935576e-06 0 1.5730096936613098e-05 7.0092502369085397e-06 0 1.4057161568151628e-07 1.7597680653789885e-06 0 7.400706699552822e-06 4.2511029448653521e-06 0 1.191604602830747e-06 7.6889595533161903e-06 0 7.400706699552822e-06 4.2511029448653521e-06 0 1.191604602830747e-06 7.6889595533161903e-06 0 9.2264484785726885e-06 1.1777183057306478e-05 0 7.400706699552822e-06 4.2511029448653521e-06 0 9.2264484785726885e-06 1.1777183057306478e-05 0 1.5730096936613098e-05 7.0092502369085397e-06 0 9.2264484785726885e-06 1.1777183057306478e-05 0 1.5464635361148188e-05 1.9293726983707486e-05 0 2.1165334684718685e-05 1.3622516753655319e-05 0 9.2264484785726885e-06 1.1777183057306478e-05 0 1.5730096936613098e-05 7.0092502369085397e-06 0 2.1165334684718685e-05 1.3622516753655319e-05 0 9.2264484785726885e-06 1.1777183057306478e-05 0 4.0431583650542103e-06 2.1747533745541383e-05 0 -7.3600391153892603e-06 1.5682224661933259e-05 0 1.191604602830747e-06 7.6889595533161903e-06 0 9.2264484785726885e-06 1.1777183057306478e-05 0 -7.3600391153892603e-06 1.5682224661933259e-05 0 9.2264484785726885e-06 1.1777183057306478e-05 0 4.0431583650542103e-06 2.1747533745541383e-05 0 1.5464635361148188e-05 1.9293726983707486e-05 0 1.5464635361148188e-05 1.9293726983707486e-05 0 1.1119058010101352e-05 3.2794603294757871e-05 0 2.659913703959761e-05 2.3312311841843506e-05 0 1.1119058010101352e-05 3.2794603294757871e-05 0 2.659913703959761e-05 2.3312311841843506e-05 0 2.4040252452759076e-05 4.7644648237431886e-05 0 1.1119058010101352e-05 3.2794603294757871e-05 0 1.0133229119308118e-05 5.2426044182336164e-05 0 2.4040252452759076e-05 4.7644648237431886e-05 0 1.1119058010101352e-05 3.2794603294757871e-05 0 -5.2966802815696436e-06 5.5655675692574004e-05 0 1.0133229119308118e-05 5.2426044182336164e-05 0 4.0431583650542103e-06 2.1747533745541383e-05 0 1.1119058010101352e-05 3.2794603294757871e-05 0 -1.0142463803993179e-05 3.4602728644715607e-05 0 4.0431583650542103e-06 2.1747533745541383e-05 0 1.5464635361148188e-05 1.9293726983707482e-05 0 1.1119058010101352e-05 3.2794603294757871e-05 0 1.1119058010101352e-05 3.2794603294757871e-05 0 -1.0142463803993179e-05 3.4602728644715607e-05 0 -5.2966802815696436e-06 5.5655675692574004e-05 0 -1.0142463803993179e-05 3.4602728644715607e-05 0 -2.6900499709688867e-05 5.7295522410097501e-05 0 -5.2966802815696436e-06 5.5655675692574004e-05 0 -1.0142463803993179e-05 3.4602728644715607e-05 0 -2.3012193209387097e-05 3.1054081653365355e-05 0 -2.6900499709688867e-05 5.7295522410097501e-05 0 -1.0142463803993179e-05 3.4602728644715607e-05 0 -7.3600391153892603e-06 1.5682224661933259e-05 0 -2.3012193209387097e-05 3.1054081653365355e-05 0 -7.3600391153892603e-06 1.5682224661933259e-05 0 -2.4573925594897375e-05 1.937963601023734e-05 0 -2.3012193209387097e-05 3.1054081653365355e-05 0 4.0431583650542103e-06 2.1747533745541383e-05 0 -1.0142463803993179e-05 3.4602728644715607e-05 0 -7.3600391153892603e-06 1.5682224661933259e-05 0 -1.6836570002783735e-05 9.9937858507191632e-06 0 -7.3600391153892611e-06 1.5682224661933259e-05 0 -2.4573925594897375e-05 1.937963601023734e-05 0 -2.708226761465538e-05 1.1240417529416431e-05 0 -2.4573925594897375e-05 1.937963601023734e-05 0 -3.9209430447352116e-05 2.1608939815339084e-05 0 -2.4573925594897375e-05 1.937963601023734e-05 0 -3.701087485343465e-05 3.2446500445017689e-05 0 -3.9209430447352116e-05 2.1608939815339084e-05 0 -2.4573925594897375e-05 1.937963601023734e-05 0 -3.701087485343465e-05 3.2446500445017689e-05 0 -2.3012193209387097e-05 3.1054081653365355e-05 0 -3.701087485343465e-05 3.2446500445017689e-05 0 -2.3012193209387097e-05 3.1054081653365355e-05 0 -3.9418576295699957e-05 4.7007261909394121e-05 0 -2.3012193209387097e-05 3.1054081653365355e-05 0 -3.9418576295699957e-05 4.7007261909394121e-05 0 -2.6900499709688867e-05 5.7295522410097501e-05 0 -3.9418576295699957e-05 4.7007261909394121e-05 0 -5.5487789658836745e-05 4.8212124105963162e-05 0 -5.6563281533545968e-05 7.1406931482824752e-05 0 -3.9418576295699957e-05 4.7007261909394121e-05 0 -5.6563281533545968e-05 7.1406931482824752e-05 0 -2.6900499709688867e-05 5.7295522410097501e-05 0 -3.701087485343465e-05 3.2446500445017689e-05 0 -3.9418576295699957e-05 4.7007261909394121e-05 0 -5.5487789658836745e-05 4.8212124105963162e-05 0 -3.701087485343465e-05 3.2446500445017689e-05 0 -5.5487789658836745e-05 4.8212124105963162e-05 0 -5.1589821022387592e-05 3.3263244388068671e-05 0 -5.5487789658836745e-05 4.8212124105963162e-05 0 -8.1541053362751715e-05 6.4848990210683306e-05 0 -5.6563281533545968e-05 7.1406931482824752e-05 0 -5.5487789658836745e-05 4.8212124105963162e-05 0 -6.9232174308836073e-05 4.2913417887973032e-05 0 -8.1541053362751715e-05 6.4848990210683306e-05 0 -5.5487789658836745e-05 4.8212124105963162e-05 0 -6.9232174308836073e-05 4.2913417887973032e-05 0 -5.1589821022387592e-05 3.3263244388068671e-05 0 -6.9232174308836073e-05 4.2913417887973032e-05 0 -5.1589821022387592e-05 3.3263244388068671e-05 0 -5.6587652468609745e-05 2.6186584039826494e-05 0 -5.1589821022387592e-05 3.3263244388068671e-05 0 -3.9209430447352116e-05 2.1608939815339084e-05 0 -5.6587652468609745e-05 2.6186584039826494e-05 0 -3.701087485343465e-05 3.2446500445017689e-05 0 -5.1589821022387592e-05 3.3263244388068671e-05 0 -3.9209430447352116e-05 2.1608939815339084e-05 0 -3.9313975899526813e-05 1.4667877699522503e-05 0 -3.9209430447352116e-05 2.1608939815339084e-05 0 -5.6587652468609745e-05 2.6186584039826494e-05 0 1.8662262720729529e-05 4.9314593649932077e-06 0 1.8685253534379229e-05 4.7258170945984094e-06 0 2.1084304579565525e-05 6.5485897507729918e-06 0 1.8685253534379229e-05 4.7258170945984094e-06 0 2.1084304579565525e-05 6.5485897507729927e-06 0 2.2356812383168569e-05 7.4825522895912893e-06 0 2.1084304579565525e-05 6.5485897507729918e-06 0 2.2356812383168573e-05 7.4825522895912893e-06 0 2.4647599677439108e-05 9.3364224759038362e-06 0 1.8662262720729529e-05 4.9314593649932077e-06 0 2.1084304579565525e-05 6.5485897507729918e-06 0 1.9919729856753427e-05 5.3979738295309995e-06 0 1.9919729856753427e-05 5.3979738295309995e-06 0 1.6661667857611531e-05 3.7933808281445189e-06 0 1.741870859646701e-05 2.9669258266789132e-06 0 1.8662262720729529e-05 4.9314593649932077e-06 0 1.9919729856753427e-05 5.3979738295309995e-06 0 1.6661667857611531e-05 3.7933808281445189e-06 0 1.5114404008378711e-05 2.2013640976897147e-06 0 1.6661667857611531e-05 3.7933808281445189e-06 0 1.741870859646701e-05 2.9669258266789132e-06 0 1.8662262720729529e-05 4.9314593649932077e-06 0 1.6661667857611531e-05 3.7933808281445189e-06 0 1.6164810313876616e-05 3.6853049082703442e-06 0 1.6661667857611531e-05 3.7933808281445189e-06 0 1.3853231729903332e-05 3.0577430382271603e-06 0 1.6164810313876616e-05 3.6853049082703442e-06 0 1.3526596445123884e-05 2.5096337842936361e-06 0 1.6661667857611531e-05 3.7933808281445189e-06 0 1.3853231729903332e-05 3.0577430382271603e-06 0 1.1410016646093277e-05 2.7516050311688342e-06 0 1.3853231729903332e-05 3.0577430382271603e-06 0 1.3442981664208381e-05 2.6852913059165795e-06 0 1.3853231729903332e-05 3.0577430382271603e-06 0 1.3442981664208381e-05 2.6852913059165791e-06 0 1.6164810313876616e-05 3.6853049082703442e-06 0 1.3442981664208381e-05 2.6852913059165795e-06 0 1.6164810313876616e-05 3.6853049082703442e-06 0 1.50961410701391e-05 2.63304306592152e-06 0 1.8662262720729529e-05 4.9314593649932077e-06 0 1.8685253534379229e-05 4.7258170945984094e-06 0 1.6164810313876616e-05 3.6853049082703442e-06 0 1.8685253534379229e-05 4.7258170945984094e-06 0 1.6164810313876616e-05 3.6853049082703442e-06 0 1.50961410701391e-05 2.63304306592152e-06 0 1.8685253534379229e-05 4.7258170945984094e-06 0 1.50961410701391e-05 2.63304306592152e-06 0 1.5527702757054635e-05 2.2951707178235066e-06 0 1.3524699011069841e-05 1.3865133462106754e-06 0 1.50961410701391e-05 2.63304306592152e-06 0 1.5527702757054635e-05 2.2951707178235066e-06 0 1.0781179136939737e-05 -6.103822306656953e-07 0 1.5527702757054635e-05 2.2951707178235066e-06 0 1.192247114796008e-05 3.4868521251093343e-07 0 1.5527702757054635e-05 2.2951707178235066e-06 0 1.6065091848339443e-05 3.6411932855642587e-06 0 1.895752146264839e-05 4.9645324877912663e-06 0 1.5527702757054635e-05 2.2951707178235066e-06 0 1.192247114796008e-05 3.4868521251093327e-07 0 1.6065091848339443e-05 3.6411932855642587e-06 0 1.8685253534379229e-05 4.7258170945984094e-06 0 1.5527702757054635e-05 2.2951707178235058e-06 0 1.895752146264839e-05 4.9645324877912663e-06 0 7.9285612199113327e-06 -9.9570712004488962e-07 0 1.192247114796008e-05 3.4868521251093343e-07 0 1.0841458094242471e-05 1.72389888935576e-06 0 1.192247114796008e-05 3.4868521251093343e-07 0 1.0841458094242473e-05 1.7238988893557602e-06 0 1.6065091848339443e-05 3.6411932855642587e-06 0 1.0841458094242471e-05 1.72389888935576e-06 0 1.6065091848339443e-05 3.6411932855642587e-06 0 1.5730096936613098e-05 7.0092502369085397e-06 0 1.6065091848339443e-05 3.6411932855642587e-06 0 2.1999037985390201e-05 8.3988489745450445e-06 0 1.5730096936613098e-05 7.0092502369085397e-06 0 2.1999037985390201e-05 8.3988489745450445e-06 0 1.5730096936613098e-05 7.0092502369085397e-06 0 2.1165334684718685e-05 1.3622516753655319e-05 0 1.8685253534379229e-05 4.7258170945984094e-06 0 1.895752146264839e-05 4.9645324877912663e-06 0 2.2356812383168569e-05 7.4825522895912893e-06 0 1.6065091848339443e-05 3.6411932855642587e-06 0 2.1999037985390201e-05 8.3988489745450445e-06 0 1.895752146264839e-05 4.9645324877912663e-06 0 2.1999037985390201e-05 8.3988489745450445e-06 0 1.895752146264839e-05 4.9645324877912663e-06 0 2.2356812383168569e-05 7.4825522895912893e-06 0 2.1999037985390201e-05 8.3988489745450445e-06 0 2.2356812383168569e-05 7.4825522895912893e-06 0 2.6127606921560717e-05 1.1191616204249312e-05 0 2.2356812383168569e-05 7.4825522895912893e-06 0 2.6127606921560717e-05 1.1191616204249312e-05 0 2.4647599677439108e-05 9.3364224759038362e-06 0 2.1999037985390201e-05 8.3988489745450445e-06 0 2.6127606921560717e-05 1.1191616204249312e-05 0 3.0588484954178078e-05 1.6443995649218015e-05 0 2.6127606921560717e-05 1.1191616204249312e-05 0 3.0588484954178078e-05 1.6443995649218015e-05 0 2.9172158498868074e-05 1.310865056925718e-05 0 2.9172158498868074e-05 1.310865056925718e-05 0 2.5444364864541933e-05 9.1442439746948585e-06 0 2.4647599677439108e-05 9.3364224759038362e-06 0 2.6127606921560717e-05 1.1191616204249312e-05 0 2.9172158498868074e-05 1.310865056925718e-05 0 2.4647599677439108e-05 9.3364224759038362e-06 0 2.1999037985390201e-05 8.3988489745450445e-06 0 2.1165334684718685e-05 1.3622516753655319e-05 0 3.0588484954178078e-05 1.6443995649218015e-05 0 2.1165334684718685e-05 1.3622516753655319e-05 0 3.0588484954178078e-05 1.6443995649218015e-05 0 2.659913703959761e-05 2.3312311841843506e-05 0 1.5464635361148188e-05 1.9293726983707486e-05 0 2.1165334684718685e-05 1.3622516753655319e-05 0 2.659913703959761e-05 2.3312311841843506e-05 0 3.0588484954178078e-05 1.6443995649218015e-05 0 2.659913703959761e-05 2.3312311841843506e-05 0 4.4242027242093022e-05 2.7514451956784698e-05 0 2.659913703959761e-05 2.3312311841843506e-05 0 4.4242027242093022e-05 2.7514451956784698e-05 0 2.4040252452759076e-05 4.7644648237431886e-05 0 3.0588484954178078e-05 1.6443995649218015e-05 0 3.3198736080505355e-05 1.7541183990295015e-05 0 4.4242027242093022e-05 2.7514451956784698e-05 0 2.9172158498868074e-05 1.310865056925718e-05 0 3.3198736080505355e-05 1.7541183990295015e-05 0 2.7123109367007175e-05 9.5605990326334048e-06 0 2.9172158498868074e-05 1.310865056925718e-05 0 2.7123109367007175e-05 9.5605990326334048e-06 0 2.5444364864541933e-05 9.1442439746948585e-06 0 3.0588484954178078e-05 1.6443995649218015e-05 0 2.9172158498868074e-05 1.310865056925718e-05 0 3.3198736080505355e-05 1.7541183990295015e-05 0 3.3198736080505355e-05 1.7541183990295015e-05 0 2.7123109367007175e-05 9.5605990326334064e-06 0 2.8828935976572261e-05 5.1706846663839647e-06 0 2.7123109367007175e-05 9.5605990326334048e-06 0 2.5279786602853836e-05 -8.9137173859906694e-07 0 2.8828935976572261e-05 5.1706846663839647e-06 0 2.7123109367007175e-05 9.5605990326334048e-06 0 2.2795891148598441e-05 4.4277496565685053e-06 0 2.5279786602853836e-05 -8.9137173859906694e-07 0 2.7123109367007175e-05 9.5605990326334048e-06 0 2.2795891148598441e-05 4.4277496565685053e-06 0 2.5444364864541933e-05 9.1442439746948585e-06 0 2.5444364864541933e-05 9.1442439746948585e-06 0 2.2684805798384427e-05 7.3066729666445356e-06 0 2.4647599677439108e-05 9.3364224759038362e-06 0 2.2795891148598441e-05 4.4277496565685053e-06 0 2.5444364864541933e-05 9.1442439746948585e-06 0 2.2684805798384427e-05 7.3066729666445356e-06 0 2.2795891148598441e-05 4.4277496565685053e-06 0 2.2684805798384427e-05 7.3066729666445356e-06 0 2.0054693908261426e-05 3.7097610469956978e-06 0 1.9919729856753427e-05 5.3979738295309995e-06 0 2.2684805798384427e-05 7.3066729666445356e-06 0 2.0054693908261426e-05 3.7097610469956978e-06 0 2.1084304579565525e-05 6.5485897507729918e-06 0 1.9919729856753427e-05 5.3979738295309995e-06 0 2.2684805798384427e-05 7.3066729666445356e-06 0 2.1084304579565525e-05 6.5485897507729918e-06 0 2.2684805798384423e-05 7.3066729666445356e-06 0 2.4647599677439108e-05 9.3364224759038362e-06 0 1.9919729856753427e-05 5.3979738295309995e-06 0 1.741870859646701e-05 2.9669258266789132e-06 0 2.0054693908261426e-05 3.7097610469956978e-06 0 1.6696342518409185e-05 -2.3493663997495993e-07 0 1.741870859646701e-05 2.9669258266789136e-06 0 2.0054693908261426e-05 3.7097610469956978e-06 0 2.2795891148598441e-05 4.4277496565685053e-06 0 1.91477460299995e-05 -1.0052260985577957e-06 0 2.1884000395530301e-05 -7.0314556990375954e-06 0 1.6696342518409185e-05 -2.3493663997495993e-07 0 1.6594007072848608e-05 -4.9510372761410096e-06 0 1.91477460299995e-05 -1.0052260985577957e-06 0 1.6696342518409185e-05 -2.3493663997495993e-07 0 2.0054693908261426e-05 3.7097610469956978e-06 0 1.91477460299995e-05 -1.0052260985577957e-06 0 2.2795891148598441e-05 4.4277496565685053e-06 0 2.0054693908261426e-05 3.7097610469956978e-06 0 1.91477460299995e-05 -1.0052260985577957e-06 0 1.6594007072848608e-05 -4.9510372761410096e-06 0 1.91477460299995e-05 -1.0052260985577957e-06 0 1.8629726227951582e-05 -9.183188866175327e-06 0 1.91477460299995e-05 -1.0052260985577957e-06 0 2.1884000395530301e-05 -7.0314556990375954e-06 0 1.8629726227951582e-05 -9.183188866175327e-06 0 2.1884000395530301e-05 -7.0314556990375954e-06 0 1.8629726227951582e-05 -9.183188866175327e-06 0 2.3145768647120077e-05 -1.4774318322704726e-05 0 2.1884000395530301e-05 -7.0314556990375954e-06 0 2.3145768647120077e-05 -1.4774318322704726e-05 0 2.6723640396604206e-05 -1.4060356876775706e-05 0 1.8629726227951582e-05 -9.183188866175327e-06 0 1.9592545203750586e-05 -1.5633279113119337e-05 0 2.3145768647120077e-05 -1.4774318322704726e-05 0 1.9592545203750586e-05 -1.5633279113119337e-05 0 2.3145768647120077e-05 -1.4774318322704726e-05 0 2.5919448726747031e-05 -2.2850814256966614e-05 0 2.3145768647120077e-05 -1.4774318322704726e-05 0 2.5919448726747031e-05 -2.2850814256966614e-05 0 2.6723640396604206e-05 -1.4060356876775706e-05 0 1.9592545203750586e-05 -1.5633279113119337e-05 0 2.5919448726747031e-05 -2.2850814256966614e-05 0 2.0217216894682763e-05 -2.1722416321277626e-05 0 3.5180867384137394e-05 -1.9860643299221787e-05 0 3.9674866636756831e-05 -2.7568334025980802e-05 0 3.3438414209660041e-05 -2.5527369017049134e-05 0 2.6723640396604206e-05 -1.4060356876775706e-05 0 3.5180867384137394e-05 -1.9860643299221787e-05 0 3.3438414209660041e-05 -2.5527369017049134e-05 0 2.5919448726747031e-05 -2.2850814256966614e-05 0 2.6723640396604206e-05 -1.4060356876775706e-05 0 3.3438414209660041e-05 -2.5527369017049134e-05 0 2.6723640396604206e-05 -1.4060356876775706e-05 0 3.0122906599143262e-05 -6.6855692196473333e-06 0 3.5180867384137394e-05 -1.9860643299221787e-05 0 2.2795891148598441e-05 4.4277496565685053e-06 0 2.1884000395530304e-05 -7.0314556990375937e-06 0 2.5279786602853836e-05 -8.9137173859906694e-07 0 2.6723640396604206e-05 -1.4060356876775706e-05 0 2.5279786602853836e-05 -8.9137173859906694e-07 0 3.0122906599143262e-05 -6.6855692196473333e-06 0 2.1884000395530301e-05 -7.0314556990375954e-06 0 2.6723640396604206e-05 -1.4060356876775706e-05 0 2.5279786602853836e-05 -8.9137173859906694e-07 0 2.5279786602853836e-05 -8.9137173859906694e-07 0 2.8828935976572261e-05 5.1706846663839638e-06 0 3.0122906599143262e-05 -6.6855692196473333e-06 0 3.3198736080505355e-05 1.7541183990295015e-05 0 2.8828935976572261e-05 5.1706846663839647e-06 0 3.3985195721031281e-05 4.8000806955891478e-06 0 2.8828935976572261e-05 5.1706846663839647e-06 0 3.3985195721031281e-05 4.8000806955891478e-06 0 3.0122906599143262e-05 -6.6855692196473333e-06 0 3.3198736080505355e-05 1.7541183990295015e-05 0 3.3985195721031281e-05 4.8000806955891461e-06 0 4.4242027242093022e-05 2.7514451956784698e-05 0 3.3985195721031281e-05 4.8000806955891478e-06 0 4.845462273127042e-05 -6.566234516451905e-06 0 3.9755421785347007e-05 -1.453895121561613e-05 0 3.3985195721031281e-05 4.8000806955891478e-06 0 3.0122906599143262e-05 -6.6855692196473333e-06 0 3.9755421785347007e-05 -1.453895121561613e-05 0 4.4242027242093022e-05 2.7514451956784698e-05 0 3.5046274794952001e-05 8.250092533260523e-05 0 2.4040252452759076e-05 4.7644648237431886e-05 0 3.3985195721031281e-05 4.8000806955891478e-06 0 4.4242027242093022e-05 2.7514451956784698e-05 0 4.845462273127042e-05 -6.566234516451905e-06 0 2.2434087616236327e-05 2.3827637233337285e-05 0 6.3391318246683485e-05 4.011891250072089e-05 0 4.4242027242093022e-05 2.7514451956784698e-05 0 6.3529498052800968e-05 8.0817949113983026e-05 0 3.5046274794951994e-05 8.250092533260523e-05 0 3.5046274794951994e-05 8.250092533260523e-05 0 7.3506892742400022e-05 0.00011900314259194656 0 3.325804863111049e-05 0.00011494827435485617 0 6.3391318246683485e-05 4.011891250072089e-05 0 6.0281594425200178e-05 4.8625213180145109e-05 0 4.845462273127042e-05 -6.566234516451905e-06 0 4.9565848624097586e-05 -1.9253878912877577e-05 0 3.9755421785347007e-05 -1.453895121561613e-05 0 6.3529498052800968e-05 8.0817949113983026e-05 0 3.5046274794951994e-05 8.250092533260523e-05 0 7.3506892742400022e-05 0.00011900314259194656 0 6.0281594425200178e-05 4.8625213180145109e-05 0 6.7220359547429627e-05 6.4307512817156814e-05 0 4.9565848624097586e-05 -1.9253878912877577e-05 0 4.4524080227710816e-05 -2.4746104262765017e-05 0 5.1309465227600861e-05 -2.690701149577769e-05 0 7.3506892742400022e-05 0.00011900314259194656 0 5.5609225458874798e-05 0.0001423589987404713 0 3.325804863111049e-05 0.00011494827435485617 0 3.0122906599143262e-05 -6.6855692196473333e-06 0 3.9755421785347007e-05 -1.453895121561613e-05 0 3.5180867384137394e-05 -1.9860643299221787e-05 0 4.9565848624097586e-05 -1.9253878912877577e-05 0 3.9755421785347007e-05 -1.4538951215616128e-05 0 4.4524080227710816e-05 -2.4746104262765017e-05 0 3.9755421785347007e-05 -1.453895121561613e-05 0 4.4524080227710816e-05 -2.4746104262765017e-05 0 3.5180867384137394e-05 -1.9860643299221787e-05 0 4.4524080227710816e-05 -2.4746104262765017e-05 0 3.5180867384137394e-05 -1.9860643299221787e-05 0 3.9674866636756831e-05 -2.7568334025980802e-05 0 4.4524080227710816e-05 -2.4746104262765017e-05 0 3.9674866636756831e-05 -2.7568334025980802e-05 0 4.6780476096271987e-05 -3.2233063290668389e-05 0 4.4524080227710816e-05 -2.4746104262765017e-05 0 4.6780476096271987e-05 -3.2233063290668389e-05 0 5.1309465227600861e-05 -2.690701149577769e-05 0 4.6780476096271987e-05 -3.2233063290668389e-05 0 5.1309465227600861e-05 -2.690701149577769e-05 0 5.4213302847611352e-05 -3.26584033271873e-05 0 3.9674866636756831e-05 -2.7568334025980802e-05 0 4.6780476096271987e-05 -3.2233063290668389e-05 0 4.0108995741134948e-05 -3.2766334294844049e-05 0 5.5609225458874798e-05 0.0001423589987404713 0 6.159569577413245e-05 0.00016587938573896802 0 3.1974278712470355e-05 0.00015329876137798581 0 5.5609225458874798e-05 0.0001423589987404713 0 8.1813237733776279e-05 0.00015455663614095242 0 6.159569577413245e-05 0.00016587938573896802 0 7.3506892742400022e-05 0.00011900314259194656 0 5.5609225458874798e-05 0.0001423589987404713 0 8.1813237733776279e-05 0.00015455663614095242 0 6.7220359547429627e-05 6.4307512817156814e-05 0 7.1577923598744274e-05 7.8939692173561331e-05 0 8.1813237733776279e-05 0.00015455663614095242 0 6.159569577413245e-05 0.00016587938573896802 0 8.9114734137333513e-05 0.00019091462210327995 0 6.159569577413245e-05 0.00016587938573896802 0 8.9114734137333513e-05 0.00019091462210327995 0 5.0325632728878464e-05 0.00018660841276458098 0 8.9114734137333513e-05 0.00019091462210327995 0 6.3485279722318624e-05 0.00021168595135213054 0 5.0325632728878464e-05 0.00018660841276458098 0 8.9114734137333513e-05 0.00019091462210327995 0 9.5937819912720278e-05 0.00022822315235037767 0 6.3485279722318624e-05 0.00021168595135213054 0 5.4213302847611352e-05 -3.26584033271873e-05 0 5.7775853379648131e-05 -3.7784431944764471e-05 0 5.1914842252531931e-05 -3.758576740678028e-05 0 7.1577923598744274e-05 7.8939692173561331e-05 0 7.6655549317606136e-05 9.5240018629571399e-05 0 9.5937819912720278e-05 0.00022822315235037767 0 6.3485279722318624e-05 0.00021168595135213054 0 5.7585072453177455e-05 0.00023790659470292554 0 4.6780476096271987e-05 -3.2233063290668389e-05 0 4.5714255428608674e-05 -3.7738254417009904e-05 0 5.1914842252531931e-05 -3.758576740678028e-05 0 4.6780476096271987e-05 -3.2233063290668389e-05 0 4.5714255428608674e-05 -3.7738254417009904e-05 0 4.0108995741134948e-05 -3.2766334294844049e-05 0 4.6780476096271987e-05 -3.2233063290668389e-05 0 5.4213302847611352e-05 -3.26584033271873e-05 0 5.1914842252531931e-05 -3.758576740678028e-05 0 4.5714255428608674e-05 -3.7738254417009904e-05 0 5.1914842252531931e-05 -3.758576740678028e-05 0 4.7793156099192608e-05 -4.234209575846671e-05 0 5.1914842252531931e-05 -3.758576740678028e-05 0 4.7793156099192608e-05 -4.234209575846671e-05 0 5.5423404399930651e-05 -4.343200323809458e-05 0 4.5714255428608674e-05 -3.7738254417009904e-05 0 4.7793156099192608e-05 -4.234209575846671e-05 0 3.8571126516395031e-05 -3.8609743901016419e-05 0 4.7793156099192608e-05 -4.234209575846671e-05 0 3.8571126516395031e-05 -3.8609743901016419e-05 0 4.4498962963013806e-05 -4.5908268920411033e-05 0 4.5714255428608674e-05 -3.7738254417009904e-05 0 3.8571126516395031e-05 -3.8609743901016419e-05 0 4.0108995741134948e-05 -3.2766334294844049e-05 0 3.8571126516395031e-05 -3.8609743901016419e-05 0 2.9178556503812092e-05 -3.1735384372950298e-05 0 3.4189767558057654e-05 -3.2055119082374363e-05 0 3.8571126516395031e-05 -3.8609743901016419e-05 0 4.0108995741134948e-05 -3.2766334294844049e-05 0 3.4189767558057654e-05 -3.2055119082374363e-05 0 3.8571126516395031e-05 -3.8609743901016419e-05 0 3.0519487421270694e-05 -3.7518159191779187e-05 0 3.7023505602391627e-05 -4.5821817909467233e-05 0 3.0519487421270694e-05 -3.7518159191779187e-05 0 3.7023505602391627e-05 -4.5821817909467233e-05 0 2.7908631450677548e-05 -4.0628015018914611e-05 0 3.0519487421270694e-05 -3.7518159191779187e-05 0 2.9178556503812092e-05 -3.1735384372950298e-05 0 2.4486772755115965e-05 -3.3660499373243582e-05 0 3.8571126516395031e-05 -3.8609743901016419e-05 0 3.0519487421270694e-05 -3.7518159191779187e-05 0 2.9178556503812092e-05 -3.1735384372950298e-05 0 2.5919448726747031e-05 -2.2850814256966614e-05 0 2.9178556503812092e-05 -3.1735384372950298e-05 0 3.4189767558057654e-05 -3.2055119082374363e-05 0 2.9178556503812092e-05 -3.1735384372950298e-05 0 2.3836072995804334e-05 -2.7726342342553897e-05 0 2.4486772755115965e-05 -3.3660499373243582e-05 0 2.5919448726747031e-05 -2.2850814256966614e-05 0 2.9178556503812092e-05 -3.1735384372950298e-05 0 2.3836072995804334e-05 -2.7726342342553897e-05 0 2.5919448726747031e-05 -2.2850814256966614e-05 0 2.0217216894682763e-05 -2.1722416321277626e-05 0 2.3836072995804334e-05 -2.7726342342553897e-05 0 2.5919448726747031e-05 -2.2850814256966614e-05 0 3.3438414209660041e-05 -2.5527369017049134e-05 0 3.4189767558057654e-05 -3.2055119082374363e-05 0 3.9674866636756831e-05 -2.7568334025980802e-05 0 3.3438414209660041e-05 -2.5527369017049134e-05 0 4.0108995741134948e-05 -3.2766334294844049e-05 0 3.3438414209660041e-05 -2.5527369017049134e-05 0 4.0108995741134948e-05 -3.2766334294844049e-05 0 3.4189767558057654e-05 -3.2055119082374363e-05 0 -0.00010260245896813908 0.00012344231962425426 0 -7.4850431220577682e-05 0.00013506053714779263 0 -7.5620871161347268e-05 0.00010409085974180088 0 -0.00010260245896813908 0.00012344231962425426 0 -7.4850431220577682e-05 0.00013506053714779263 0 -0.00011030033299088688 0.0001582656664635729 0 -7.4850431220577682e-05 0.00013506053714779263 0 -7.5620871161347268e-05 0.00010409085974180088 0 -5.3094556983787139e-05 0.00010415664759698284 0 -0.00010260245896813908 0.00012344231962425426 0 -7.5620871161347268e-05 0.00010409085974180088 0 -9.2330856661481368e-05 9.1761698907219945e-05 0 -9.2330856661481368e-05 9.1761698907219945e-05 0 -8.1541053362751715e-05 6.4848990210683306e-05 0 -5.6563281533545968e-05 7.1406931482824752e-05 0 -7.5620871161347268e-05 0.00010409085974180088 0 -5.6563281533545968e-05 7.1406931482824752e-05 0 -5.3094556983787139e-05 0.00010415664759698284 0 -7.5620871161347268e-05 0.00010409085974180088 0 -9.2330856661481368e-05 9.1761698907219945e-05 0 -5.6563281533545968e-05 7.1406931482824752e-05 0 -5.6563281533545968e-05 7.1406931482824752e-05 0 -3.6306128704447667e-05 8.4699821880184715e-05 0 -5.3094556983787139e-05 0.00010415664759698284 0 -5.6563281533545968e-05 7.1406931482824752e-05 0 -2.6900499709688867e-05 5.7295522410097501e-05 0 -3.6306128704447667e-05 8.4699821880184715e-05 0 -3.6306128704447667e-05 8.4699821880184715e-05 0 -3.4116389983554093e-05 0.00010692638332091077 0 -1.635674360109958e-05 8.9204815838196379e-05 0 -3.6306128704447667e-05 8.4699821880184715e-05 0 -3.4116389983554093e-05 0.00010692638332091077 0 -5.3094556983787139e-05 0.00010415664759698284 0 -3.4116389983554093e-05 0.00010692638332091077 0 -5.3094556983787139e-05 0.00010415664759698284 0 -4.5284185838553742e-05 0.00013225379201255941 0 -7.4850431220577682e-05 0.00013506053714779263 0 -5.3094556983787139e-05 0.00010415664759698284 0 -4.5284185838553742e-05 0.00013225379201255941 0 -3.4116389983554093e-05 0.00010692638332091077 0 -4.5284185838553742e-05 0.00013225379201255941 0 -1.9191537971910349e-05 0.0001276063486472821 0 -1.9191537971910349e-05 0.0001276063486472821 0 6.4499060325517773e-06 0.00011952602817970619 0 -3.7734554573453174e-07 0.00015465065308114916 0 -1.9191537971910349e-05 0.0001276063486472821 0 -1.635674360109958e-05 8.9204815838196379e-05 0 6.4499060325517773e-06 0.00011952602817970619 0 -1.635674360109958e-05 8.9204815838196379e-05 0 1.0094400476880316e-05 7.9353592244609729e-05 0 6.4499060325517773e-06 0.00011952602817970619 0 -3.4116389983554093e-05 0.00010692638332091077 0 -1.9191537971910349e-05 0.0001276063486472821 0 -1.635674360109958e-05 8.9204815838196379e-05 0 -2.6900499709688867e-05 5.7295522410097501e-05 0 -3.6306128704447667e-05 8.4699821880184715e-05 0 -1.635674360109958e-05 8.9204815838196379e-05 0 -2.6900499709688867e-05 5.7295522410097501e-05 0 -1.6356743601099584e-05 8.9204815838196379e-05 0 -5.2966802815696436e-06 5.5655675692574004e-05 0 -1.635674360109958e-05 8.9204815838196379e-05 0 -5.2966802815696411e-06 5.5655675692574004e-05 0 1.0094400476880316e-05 7.9353592244609729e-05 0 -5.2966802815696436e-06 5.5655675692574004e-05 0 1.0094400476880314e-05 7.9353592244609729e-05 0 1.0133229119308118e-05 5.2426044182336164e-05 0 1.0094400476880316e-05 7.9353592244609729e-05 0 1.0133229119308115e-05 5.2426044182336164e-05 0 2.4040252452759076e-05 4.7644648237431886e-05 0 3.5046274794951994e-05 8.250092533260523e-05 0 1.0094400476880316e-05 7.9353592244609729e-05 0 2.4040252452759076e-05 4.7644648237431886e-05 0 3.5046274794951994e-05 8.250092533260523e-05 0 1.0094400476880316e-05 7.9353592244609729e-05 0 3.325804863111049e-05 0.00011494827435485617 0 1.0094400476880316e-05 7.9353592244609729e-05 0 6.4499060325517773e-06 0.00011952602817970619 0 3.325804863111049e-05 0.00011494827435485617 0 6.4499060325517773e-06 0.00011952602817970619 0 3.325804863111049e-05 0.00011494827435485617 0 3.1974278712470355e-05 0.00015329876137798581 0 5.5609225458874798e-05 0.0001423589987404713 0 3.325804863111049e-05 0.00011494827435485617 0 3.1974278712470355e-05 0.00015329876137798581 0 6.4499060325517773e-06 0.00011952602817970619 0 3.1974278712470355e-05 0.00015329876137798581 0 -3.7734554573453174e-07 0.00015465065308114916 0 3.1974278712470355e-05 0.00015329876137798581 0 1.9338367233857924e-05 0.00017786423469669878 0 -3.7734554573453174e-07 0.00015465065308114916 0 3.1974278712470355e-05 0.00015329876137798581 0 1.9338367233857924e-05 0.00017786423469669878 0 5.0325632728878464e-05 0.00018660841276458098 0 6.159569577413245e-05 0.00016587938573896802 0 3.1974278712470355e-05 0.00015329876137798581 0 5.0325632728878464e-05 0.00018660841276458098 0 6.3485279722318624e-05 0.00021168595135213054 0 5.0325632728878464e-05 0.00018660841276458098 0 2.5477392983127702e-05 0.00021248137262615252 0 6.3485279722318624e-05 0.00021168595135213054 0 2.5477392983127702e-05 0.00021248137262615252 0 5.7585072453177455e-05 0.00023790659470292554 0 1.9338367233857924e-05 0.00017786423469669878 0 5.0325632728878464e-05 0.00018660841276458098 0 2.5477392983127702e-05 0.00021248137262615252 0 1.9338367233857924e-05 0.00017786423469669878 0 2.5477392983127702e-05 0.00021248137262615252 0 -9.7629912217017073e-06 0.00018271163865888197 0 2.5477392983127702e-05 0.00021248137262615252 0 -1.4399414180714913e-05 0.00021567110966894744 0 -9.7629912217017073e-06 0.00018271163865888197 0 2.5477392983127702e-05 0.00021248137262615252 0 -1.4399414180714913e-05 0.00021567110966894744 0 -4.9543615335268863e-06 0.00024779854708213868 0 -1.4399414180714913e-05 0.00021567110966894744 0 -9.7629912217017073e-06 0.00018271163865888197 0 -4.1504147705730176e-05 0.0002128599226561626 0 -9.7629912217017073e-06 0.00018271163865888197 0 -3.2586985911599718e-05 0.00016532907565023895 0 -4.1504147705730176e-05 0.0002128599226561626 0 -9.7629912217017073e-06 0.00018271163865888197 0 -3.7734554573453174e-07 0.00015465065308114916 0 -3.2586985911599718e-05 0.00016532907565023895 0 1.9338367233857924e-05 0.00017786423469669878 0 -9.7629912217017073e-06 0.00018271163865888197 0 -3.7734554573453174e-07 0.00015465065308114916 0 -1.9191537971910349e-05 0.0001276063486472821 0 -3.7734554573453174e-07 0.00015465065308114916 0 -3.2586985911599718e-05 0.00016532907565023895 0 -4.5284185838553742e-05 0.00013225379201255941 0 -1.9191537971910349e-05 0.0001276063486472821 0 -3.2586985911599718e-05 0.00016532907565023895 0 -4.5284185838553742e-05 0.00013225379201255941 0 -5.8826180216127959e-05 0.0001592887880689832 0 -3.2586985911599718e-05 0.00016532907565023895 0 -7.4850431220577682e-05 0.00013506053714779263 0 -4.5284185838553742e-05 0.00013225379201255941 0 -5.8826180216127959e-05 0.0001592887880689832 0 -5.8826180216127959e-05 0.0001592887880689832 0 -5.9484719363520217e-05 0.00018567317814657344 0 -8.4858428226486707e-05 0.00017909941655151862 0 -5.8826180216127959e-05 0.0001592887880689832 0 -3.2586985911599718e-05 0.00016532907565023895 0 -5.9484719363520217e-05 0.00018567317814657344 0 -3.2586985911599718e-05 0.00016532907565023895 0 -4.1504147705730176e-05 0.0002128599226561626 0 -5.9484719363520217e-05 0.00018567317814657344 0 -1.4399414180714913e-05 0.00021567110966894744 0 -4.1504147705730176e-05 0.0002128599226561626 0 -3.7523169317521761e-05 0.00024803432776165365 0 -4.1504147705730176e-05 0.0002128599226561626 0 -8.092730038544981e-05 0.00021374645307381957 0 -6.3073326701598389e-05 0.00023903071701494009 0 -4.1504147705730176e-05 0.0002128599226561626 0 -5.9484719363520217e-05 0.00018567317814657344 0 -8.092730038544981e-05 0.00021374645307381957 0 -5.9484719363520217e-05 0.00018567317814657344 0 -8.092730038544981e-05 0.00021374645307381957 0 -8.4858428226486707e-05 0.00017909941655151862 0 -8.092730038544981e-05 0.00021374645307381957 0 -0.00011635296529726078 0.00019585741348887608 0 -0.0001204348747576834 0.00023495586159007681 0 -8.092730038544981e-05 0.00021374645307381957 0 -0.0001204348747576834 0.00023495586159007681 0 -9.006574460428494e-05 0.00025058878981034705 0 -8.092730038544981e-05 0.00021374645307381957 0 -0.00011635296529726078 0.00019585741348887608 0 -8.4858428226486707e-05 0.00017909941655151862 0 -0.00011635296529726078 0.00019585741348887608 0 -8.4858428226486707e-05 0.00017909941655151862 0 -0.00011030033299088688 0.0001582656664635729 0 -7.4850431220577682e-05 0.00013506053714779263 0 -5.8826180216127959e-05 0.0001592887880689832 0 -8.4858428226486707e-05 0.00017909941655151862 0 -7.4850431220577682e-05 0.00013506053714779263 0 -8.4858428226486707e-05 0.00017909941655151862 0 -0.00011030033299088688 0.0001582656664635729 0 -0.00012515504157269006 0.0003165161144815567 0 -7.3155969821519682e-05 0.00031699003221709484 0 -8.8008655814524744e-05 0.00035706225651015015 0 -0.00012515504157269006 0.0003165161144815567 0 -9.4590923096197748e-05 0.00028670863520275063 0 -7.3155969821519682e-05 0.00031699003221709484 0 -9.4590923096197761e-05 0.00028670863520275063 0 -6.5874511253884063e-05 0.00027126216358551176 0 -7.3155969821519682e-05 0.00031699003221709484 0 -0.00012515504157269006 0.0003165161144815567 0 -9.4590923096197761e-05 0.00028670863520275063 0 -0.00012338875620283241 0.00027525631982670422 0 -9.4590923096197761e-05 0.00028670863520275063 0 -0.00012338875620283241 0.00027525631982670422 0 -9.006574460428494e-05 0.00025058878981034705 0 -0.00012338875620283241 0.00027525631982670422 0 -0.0001204348747576834 0.00023495586159007681 0 -9.006574460428494e-05 0.00025058878981034705 0 -8.092730038544981e-05 0.00021374645307381957 0 -9.006574460428494e-05 0.00025058878981034705 0 -6.3073326701598389e-05 0.00023903071701494009 0 -9.4590923096197761e-05 0.00028670863520275063 0 -9.006574460428494e-05 0.00025058878981034705 0 -6.5874511253884063e-05 0.00027126216358551176 0 -6.5874511253884063e-05 0.00027126216358551176 0 -6.3073326701598375e-05 0.00023903071701494009 0 -3.7523169317521761e-05 0.00024803432776165365 0 -9.006574460428494e-05 0.00025058878981034705 0 -6.5874511253884063e-05 0.00027126216358551176 0 -6.3073326701598389e-05 0.00023903071701494009 0 -4.1504147705730176e-05 0.0002128599226561626 0 -6.3073326701598389e-05 0.00023903071701494009 0 -3.7523169317521761e-05 0.00024803432776165365 0 -6.5874511253884063e-05 0.00027126216358551176 0 -3.7523169317521761e-05 0.00024803432776165365 0 -3.6585484816825625e-05 0.00028298661852503321 0 -3.6585484816825625e-05 0.00028298661852503321 0 -7.3155969821519682e-05 0.00031699003221709484 0 -3.346329091018616e-05 0.00032000385591900214 0 -6.5874511253884063e-05 0.00027126216358551176 0 -3.6585484816825625e-05 0.00028298661852503321 0 -7.3155969821519682e-05 0.00031699003221709484 0 -7.3155969821519682e-05 0.00031699003221709484 0 -3.346329091018616e-05 0.00032000385591900214 0 -4.7752102102196645e-05 0.00036076121055887114 0 -3.346329091018616e-05 0.00032000385591900214 0 -7.2777001134634106e-06 0.00029540143831156021 0 -2.7723907565096638e-06 0.00034029408999466292 0 -7.2777001134634106e-06 0.00029540143831156021 0 2.557967909053076e-05 0.0003112996946064171 0 -2.7723907565096638e-06 0.00034029408999466292 0 -7.2777001134634106e-06 0.00029540143831156021 0 1.6617195228080975e-05 0.00027299945080938386 0 2.557967909053076e-05 0.0003112996946064171 0 -3.6585484816825625e-05 0.00028298661852503321 0 -3.346329091018616e-05 0.00032000385591900214 0 -7.2777001134634106e-06 0.00029540143831156021 0 -3.7523169317521761e-05 0.00024803432776165365 0 -3.6585484816825625e-05 0.00028298661852503321 0 -4.9543615335268863e-06 0.00024779854708213868 0 -3.6585484816825625e-05 0.00028298661852503321 0 -7.2777001134634106e-06 0.00029540143831156021 0 -4.9543615335268863e-06 0.00024779854708213868 0 -1.4399414180714913e-05 0.00021567110966894744 0 -3.7523169317521761e-05 0.00024803432776165365 0 -4.9543615335268863e-06 0.00024779854708213868 0 -4.9543615335268863e-06 0.00024779854708213868 0 1.6617195228080972e-05 0.00027299945080938386 0 2.8242177512463128e-05 0.00024899266904547106 0 -7.2777001134634106e-06 0.00029540143831156021 0 -4.9543615335268906e-06 0.00024779854708213868 0 1.6617195228080975e-05 0.00027299945080938386 0 1.6617195228080975e-05 0.00027299945080938386 0 2.8242177512463125e-05 0.00024899266904547106 0 4.6985639483886117e-05 0.00027308126600830609 0 2.5477392983127702e-05 0.00021248137262615252 0 2.8242177512463128e-05 0.00024899266904547106 0 5.7585072453177455e-05 0.00023790659470292554 0 2.5477392983127702e-05 0.00021248137262615252 0 -4.9543615335268863e-06 0.00024779854708213868 0 2.8242177512463128e-05 0.00024899266904547106 0 2.8242177512463128e-05 0.00024899266904547106 0 5.7585072453177455e-05 0.00023790659470292554 0 4.6985639483886117e-05 0.00027308126600830609 0 5.7585072453177455e-05 0.00023790659470292554 0 4.6985639483886117e-05 0.00027308126600830609 0 7.6265788924895968e-05 0.00025824812219410909 0 4.6985639483886117e-05 0.00027308126600830609 0 2.557967909053076e-05 0.0003112996946064171 0 6.305495074114492e-05 0.00031564325940254052 0 4.6985639483886117e-05 0.00027308126600830609 0 6.305495074114492e-05 0.00031564325940254052 0 7.7766952573821594e-05 0.00028449736082438289 0 1.6617195228080975e-05 0.00027299945080938386 0 4.6985639483886117e-05 0.00027308126600830609 0 2.557967909053076e-05 0.0003112996946064171 0 2.557967909053076e-05 0.0003112996946064171 0 6.305495074114492e-05 0.00031564325940254052 0 3.9458571492427485e-05 0.00035742300788220091 0 6.305495074114492e-05 0.00031564325940254052 0 3.9458571492427492e-05 0.00035742300788220091 0 7.9833441546367617e-05 0.00035190622470067449 0 3.9458571492427485e-05 0.00035742300788220091 0 7.64958304648811e-05 0.00039002596662173118 0 3.6547099111040651e-05 0.00040121816772295993 0 3.9458571492427485e-05 0.00035742300788220091 0 7.6495830464881113e-05 0.00039002596662173118 0 7.9833441546367617e-05 0.00035190622470067449 0 7.6495830464881113e-05 0.00039002596662173118 0 6.3589977621508761e-05 0.0004175704484952059 0 3.6547099111040651e-05 0.00040121816772295993 0 7.6495830464881113e-05 0.00039002596662173118 0 6.3589977621508761e-05 0.0004175704484952059 0 9.9758494679296958e-05 0.0004118194440891466 0 6.3589977621508761e-05 0.0004175704484952059 0 9.9758494679296958e-05 0.0004118194440891466 0 8.9177142261148327e-05 0.00043880570318349018 0 6.3589977621508761e-05 0.0004175704484952059 0 4.3762392714611121e-05 0.00044136464507405881 0 8.9177142261148327e-05 0.00043880570318349018 0 6.3589977621508761e-05 0.0004175704484952059 0 4.3762392714611121e-05 0.00044136464507405881 0 3.6547099111040651e-05 0.00040121816772295993 0 1.9200779186254629e-07 0.00044206346998114235 0 -2.7627353328035832e-06 0.00038778227490246937 0 -3.9856668535902309e-05 0.00040302044292783013 0 3.6547099111040651e-05 0.00040121816772295993 0 1.9200779186254201e-07 0.00044206346998114235 0 -2.7627353328035832e-06 0.00038778227490246937 0 4.3762392714611121e-05 0.00044136464507405881 0 3.6547099111040651e-05 0.00040121816772295993 0 1.9200779186254629e-07 0.00044206346998114235 0 -2.7627353328035832e-06 0.00038778227490246937 0 -2.7723907565096638e-06 0.00034029408999466292 0 -4.7752102102196645e-05 0.00036076121055887114 0 3.9458571492427485e-05 0.00035742300788220091 0 3.6547099111040651e-05 0.00040121816772295993 0 -2.7627353328035832e-06 0.00038778227490246937 0 3.9458571492427485e-05 0.00035742300788220091 0 -2.7627353328035832e-06 0.00038778227490246937 0 -2.7723907565096638e-06 0.00034029408999466292 0 2.557967909053076e-05 0.0003112996946064171 0 3.9458571492427485e-05 0.00035742300788220091 0 -2.7723907565096638e-06 0.00034029408999466292 0 -3.346329091018616e-05 0.00032000385591900214 0 -2.7723907565096638e-06 0.00034029408999466292 0 -4.7752102102196645e-05 0.00036076121055887114 0 -7.3155969821519682e-05 0.00031699003221709484 0 -4.7752102102196638e-05 0.00036076121055887109 0 -8.8008655814524744e-05 0.00035706225651015015 0 -4.7752102102196645e-05 0.00036076121055887114 0 -3.9856668535902309e-05 0.00040302044292783013 0 -7.9625155214420199e-05 0.00039500656674226026 0 -4.7752102102196645e-05 0.00036076121055887114 0 -7.9625155214420199e-05 0.00039500656674226026 0 -8.8008655814524744e-05 0.00035706225651015015 0 -2.7627353328035832e-06 0.00038778227490246937 0 -4.7752102102196638e-05 0.00036076121055887114 0 -3.9856668535902309e-05 0.00040302044292783013 0 1.9200779186254629e-07 0.00044206346998114235 0 -3.9856668535902309e-05 0.00040302044292783013 0 -4.1964360960878673e-05 0.00044226978622670865 0 -4.1964360960878673e-05 0.00044226978622670865 0 -6.3492753844917067e-05 0.00042056316588139721 0 -8.3973161852567905e-05 0.00044233846358242063 0 -3.9856668535902309e-05 0.00040302044292783013 0 -4.1964360960878673e-05 0.00044226978622670865 0 -6.3492753844917067e-05 0.00042056316588139721 0 -3.9856668535902309e-05 0.00040302044292783013 0 -6.3492753844917067e-05 0.00042056316588139721 0 -7.9625155214420199e-05 0.00039500656674226026 0 -6.3492753844917067e-05 0.00042056316588139721 0 -7.9625155214420185e-05 0.00039500656674226026 0 -9.8183575998381619e-05 0.00041860876190449951 0 -6.3492753844917067e-05 0.00042056316588139721 0 -9.8183575998381619e-05 0.00041860876190449951 0 -8.3973161852567905e-05 0.00044233846358242063 0 -9.8183575998381619e-05 0.00041860876190449951 0 -8.3973161852567905e-05 0.00044233846358242063 0 -0.00012579115768123782 0.00044269533940614333 0 -9.8183575998381619e-05 0.00041860876190449951 0 -0.00012579115768123782 0.00044269533940614333 0 -0.00012611366917555095 0.00040067281668400035 0 -7.9625155214420199e-05 0.00039500656674226026 0 -9.8183575998381619e-05 0.00041860876190449951 0 -0.00012611366917555095 0.00040067281668400035 0 -0.00012611366917555095 0.00040067281668400035 0 -8.8008655814524744e-05 0.00035706225651015015 0 -0.00012597370459246666 0.00035860106441254404 0 -7.9625155214420199e-05 0.00039500656674226026 0 -0.00012611366917555095 0.00040067281668400035 0 -8.8008655814524744e-05 0.00035706225651015015 0 -0.00012515504157269006 0.0003165161144815567 0 -8.8008655814524744e-05 0.00035706225651015015 0 -0.00012597370459246666 0.00035860106441254404 0 4.7745398912751225e-05 -5.1742831502588178e-05 0 4.765443344994491e-05 -5.9576066642082816e-05 0 4.1523577042581715e-05 -5.3833242760960142e-05 0 4.7745398912751225e-05 -5.1742831502588178e-05 0 5.5306918911785329e-05 -5.8816735974322177e-05 0 5.5746651533860152e-05 -5.3140456971962064e-05 0 4.7745398912751225e-05 -5.1742831502588178e-05 0 5.1857643600489867e-05 -4.8319361118427854e-05 0 5.5746651533860152e-05 -5.3140456971962064e-05 0 4.7745398912751225e-05 -5.1742831502588178e-05 0 5.5306918911785329e-05 -5.8816735974322177e-05 0 4.765443344994491e-05 -5.9576066642082816e-05 0 4.765443344994491e-05 -5.9576066642082816e-05 0 3.9046126130413661e-05 -5.9782716652911424e-05 0 4.1523577042581715e-05 -5.3833242760960142e-05 0 3.9046126130413661e-05 -5.9782716652911424e-05 0 3.4918986184846215e-05 -5.1800187958777874e-05 0 4.1523577042581715e-05 -5.3833242760960142e-05 0 3.9046126130413661e-05 -5.9782716652911424e-05 0 3.4918986184846215e-05 -5.1800187958777874e-05 0 3.3153208610517247e-05 -5.6491263880883153e-05 0 3.4918986184846215e-05 -5.1800187958777874e-05 0 4.1523577042581715e-05 -5.3833242760960142e-05 0 3.7023505602391627e-05 -4.5821817909467233e-05 0 3.4918986184846215e-05 -5.1800187958777874e-05 0 3.7023505602391627e-05 -4.5821817909467233e-05 0 3.1144320395585936e-05 -4.6556135089291945e-05 0 3.7023505602391627e-05 -4.5821817909467233e-05 0 3.1144320395585936e-05 -4.6556135089291945e-05 0 2.7908631450677548e-05 -4.0628015018914611e-05 0 3.8571126516395031e-05 -3.8609743901016419e-05 0 3.7023505602391627e-05 -4.5821817909467233e-05 0 4.4498962963013806e-05 -4.5908268920411033e-05 0 4.7745398912751225e-05 -5.1742831502588178e-05 0 3.7023505602391627e-05 -4.5821817909467233e-05 0 4.4498962963013806e-05 -4.5908268920411033e-05 0 4.7745398912751225e-05 -5.1742831502588178e-05 0 4.1523577042581715e-05 -5.3833242760960142e-05 0 3.7023505602391627e-05 -4.5821817909467233e-05 0 4.7745398912751225e-05 -5.1742831502588178e-05 0 4.4498962963013806e-05 -4.5908268920411033e-05 0 5.1857643600489867e-05 -4.8319361118427854e-05 0 4.7793156099192608e-05 -4.234209575846671e-05 0 4.4498962963013806e-05 -4.5908268920411033e-05 0 5.1857643600489867e-05 -4.8319361118427854e-05 0 4.7793156099192608e-05 -4.234209575846671e-05 0 5.5423404399930651e-05 -4.343200323809458e-05 0 5.1857643600489867e-05 -4.8319361118427854e-05 0 5.7775853379648131e-05 -3.7784431944764471e-05 0 5.1914842252531931e-05 -3.758576740678028e-05 0 5.5423404399930651e-05 -4.343200323809458e-05 0 5.5423404399930651e-05 -4.343200323809458e-05 0 6.2376664104557967e-05 -4.293356369769821e-05 0 6.0413447149086915e-05 -4.9000197723479142e-05 0 5.5423404399930651e-05 -4.343200323809458e-05 0 5.1857643600489867e-05 -4.8319361118427854e-05 0 6.0413447149086915e-05 -4.9000197723479142e-05 0 9.5937819912720278e-05 0.00022822315235037767 0 5.7585072453177455e-05 0.00023790659470292554 0 7.6265788924895968e-05 0.00025824812219410909 0 9.5937819912720278e-05 0.00022822315235037767 0 0.0001025801835264476 0.00026640492466309921 0 7.6265788924895968e-05 0.00025824812219410909 0 5.7775853379648131e-05 -3.7784431944764471e-05 0 5.5423404399930651e-05 -4.343200323809458e-05 0 6.2376664104557967e-05 -4.293356369769821e-05 0 7.6655549317606136e-05 9.5240018629571399e-05 0 8.2320320036744228e-05 0.00011191221019273898 0 4.6985639483886117e-05 0.00027308126600830609 0 7.6265788924895968e-05 0.00025824812219410909 0 7.7766952573821594e-05 0.00028449736082438289 0 0.0001025801835264476 0.00026640492466309921 0 7.6265788924895968e-05 0.00025824812219410909 0 7.7766952573821594e-05 0.00028449736082438289 0 6.305495074114492e-05 0.00031564325940254052 0 7.7766952573821594e-05 0.00028449736082438289 0 0.00010936348498268142 0.00030605198702987949 0 8.2320320036744228e-05 0.00011191221019273898 0 8.7344713259162097e-05 0.00012827645153759773 0 6.2376664104557967e-05 -4.293356369769821e-05 0 6.8106529966050023e-05 -4.8688127483331277e-05 0 6.0413447149086915e-05 -4.9000197723479142e-05 0 0.0001025801835264476 0.00026640492466309921 0 7.7766952573821594e-05 0.00028449736082438289 0 0.00010936348498268142 0.00030605198702987949 0 8.7344713259162097e-05 0.00012827645153759773 0 9.8117362755541151e-05 0.0001463035257769005 0 6.305495074114492e-05 0.00031564325940254052 0 0.00010936348498268142 0.00030605198702987949 0 7.9833441546367617e-05 0.00035190622470067449 0 5.1857643600489867e-05 -4.8319361118427854e-05 0 5.5746651533860152e-05 -5.3140456971962064e-05 0 6.0413447149086915e-05 -4.9000197723479142e-05 0 6.8106529966050023e-05 -4.8688127483331277e-05 0 6.0413447149086915e-05 -4.9000197723479142e-05 0 6.4253672709011349e-05 -5.7043674618527141e-05 0 5.5306918911785329e-05 -5.8816735974322177e-05 0 5.5746651533860152e-05 -5.3140456971962064e-05 0 6.4253672709011349e-05 -5.7043674618527141e-05 0 5.5746651533860152e-05 -5.3140456971962064e-05 0 6.0413447149086915e-05 -4.9000197723479142e-05 0 6.4253672709011349e-05 -5.7043674618527141e-05 0 6.4253672709011349e-05 -5.7043674618527141e-05 0 7.1879915429081369e-05 -6.316883168670223e-05 0 6.3269674727713582e-05 -6.54594007677835e-05 0 5.5306918911785329e-05 -5.8816735974322177e-05 0 6.4253672709011349e-05 -5.7043674618527141e-05 0 6.3269674727713582e-05 -6.54594007677835e-05 0 6.8106529966050023e-05 -4.8688127483331277e-05 0 6.4253672709011349e-05 -5.7043674618527141e-05 0 7.5220780087939803e-05 -5.5605060233098715e-05 0 6.4253672709011349e-05 -5.7043674618527141e-05 0 7.1879915429081369e-05 -6.316883168670223e-05 0 7.5220780087939803e-05 -5.5605060233098715e-05 0 7.1879915429081369e-05 -6.316883168670223e-05 0 6.3269674727713582e-05 -6.54594007677835e-05 0 7.4848409974787069e-05 -7.1792476202604428e-05 0 0.00010936348498268142 0.00030605198702987949 0 7.9833441546367617e-05 0.00035190622470067449 0 0.00011640060380622435 0.00034656109313825774 0 9.8117362755541151e-05 0.0001463035257769005 0 9.156501584382794e-05 0.00016070286304353852 0 7.1879915429081369e-05 -6.316883168670223e-05 0 7.5220780087939803e-05 -5.5605060233098715e-05 0 8.4120038391898236e-05 -6.4726967450951209e-05 0 7.9833441546367617e-05 0.00035190622470067449 0 0.00011640060380622435 0.00034656109313825774 0 0.00012446074406131285 0.00038862872974643561 0 7.6495830464881113e-05 0.00039002596662173118 0 7.9833441546367617e-05 0.00035190622470067449 0 0.00012446074406131285 0.00038862872974643561 0 7.6495830464881113e-05 0.00039002596662173118 0 0.00012446074406131282 0.00038862872974643561 0 9.9758494679296958e-05 0.0004118194440891466 0 9.156501584382794e-05 0.00016070286304353852 0 0.00015727206993729754 0.00017865151461247722 0 0.00012446074406131285 0.00038862872974643561 0 0.00013462326880538353 0.0004323274236972943 0 9.9758494679296958e-05 0.0004118194440891466 0 0.00013462326880538353 0.0004323274236972943 0 9.9758494679296958e-05 0.0004118194440891466 0 8.9177142261148327e-05 0.00043880570318349018 0 6.3269674727713582e-05 -6.54594007677835e-05 0 7.4848409974787069e-05 -7.1792476202604428e-05 0 6.0498027046668781e-05 -7.4724091572979246e-05 0 7.1879915429081369e-05 -6.316883168670223e-05 0 8.4120038391898236e-05 -6.4726967450951209e-05 0 7.4848409974787069e-05 -7.1792476202604428e-05 0 8.4120038391898236e-05 -6.4726967450951209e-05 0 9.4115525693572484e-05 -7.7309723676827598e-05 0 7.4848409974787069e-05 -7.1792476202604428e-05 0 9.4115525693572484e-05 -7.7309723676827598e-05 0 7.4848409974787069e-05 -7.1792476202604428e-05 0 7.8898180739954106e-05 -8.308091276367413e-05 0 7.4848409974787069e-05 -7.1792476202604428e-05 0 7.8898180739954106e-05 -8.308091276367413e-05 0 6.0498027046668781e-05 -7.4724091572979246e-05 0 6.0498027046668781e-05 -7.4724091572979246e-05 0 5.00108432288189e-05 -7.0692630062086577e-05 0 5.2393874202173092e-05 -8.279938561795344e-05 0 7.8898180739954106e-05 -8.308091276367413e-05 0 6.4828403352173083e-05 -8.4425660832643359e-05 0 6.0498027046668781e-05 -7.4724091572979246e-05 0 6.4828403352173083e-05 -8.4425660832643359e-05 0 6.0498027046668781e-05 -7.4724091572979246e-05 0 5.2393874202173092e-05 -8.279938561795344e-05 0 6.3269674727713582e-05 -6.54594007677835e-05 0 6.0498027046668781e-05 -7.4724091572979246e-05 0 5.3623682281358599e-05 -6.5929637506312414e-05 0 6.0498027046668781e-05 -7.4724091572979246e-05 0 5.3623682281358599e-05 -6.5929637506312414e-05 0 5.00108432288189e-05 -7.0692630062086577e-05 0 4.765443344994491e-05 -5.9576066642082816e-05 0 5.3623682281358599e-05 -6.5929637506312414e-05 0 4.3939865867511751e-05 -6.5908584584537563e-05 0 5.5306918911785329e-05 -5.8816735974322177e-05 0 4.765443344994491e-05 -5.9576066642082816e-05 0 5.3623682281358599e-05 -6.5929637506312414e-05 0 5.5306918911785329e-05 -5.8816735974322177e-05 0 6.3269674727713582e-05 -6.54594007677835e-05 0 5.3623682281358599e-05 -6.5929637506312414e-05 0 3.9046126130413661e-05 -5.9782716652911424e-05 0 4.3939865867511751e-05 -6.5908584584537563e-05 0 3.806797989192809e-05 -6.6849140583981329e-05 0 4.765443344994491e-05 -5.9576066642082816e-05 0 3.9046126130413661e-05 -5.9782716652911424e-05 0 4.3939865867511751e-05 -6.5908584584537563e-05 0 4.3939865867511751e-05 -6.5908584584537563e-05 0 5.00108432288189e-05 -7.0692630062086577e-05 0 4.3425983928246135e-05 -7.342361317616008e-05 0 5.3623682281358599e-05 -6.5929637506312414e-05 0 4.3939865867511751e-05 -6.5908584584537549e-05 0 5.00108432288189e-05 -7.0692630062086577e-05 0 4.3939865867511751e-05 -6.5908584584537563e-05 0 4.3425983928246135e-05 -7.342361317616008e-05 0 3.806797989192809e-05 -6.6849140583981329e-05 0 5.00108432288189e-05 -7.0692630062086577e-05 0 4.3425983928246135e-05 -7.342361317616008e-05 0 5.2393874202173092e-05 -8.279938561795344e-05 0 4.3425983928246135e-05 -7.342361317616008e-05 0 5.2393874202173092e-05 -8.279938561795344e-05 0 4.3053999353819549e-05 -7.9940489554939891e-05 0 4.3425983928246135e-05 -7.342361317616008e-05 0 4.3053999353819549e-05 -7.9940489554939891e-05 0 3.8117952805201817e-05 -7.3229368784301097e-05 0 4.3053999353819549e-05 -7.9940489554939891e-05 0 3.6160995290028921e-05 -7.6674106997024486e-05 0 3.8117952805201817e-05 -7.3229368784301097e-05 0 3.6160995290028921e-05 -7.6674106997024486e-05 0 3.2093526450391038e-05 -6.907704385342331e-05 0 3.8117952805201817e-05 -7.3229368784301097e-05 0 3.2093526450391038e-05 -6.907704385342331e-05 0 3.811795280520181e-05 -7.3229368784301111e-05 0 3.806797989192809e-05 -6.6849140583981329e-05 0 4.3425983928246135e-05 -7.342361317616008e-05 0 3.8117952805201817e-05 -7.3229368784301097e-05 0 3.806797989192809e-05 -6.6849140583981329e-05 0 3.2308103221375237e-05 -7.4204078849398456e-05 0 2.9000672108078661e-05 -7.0760711828202671e-05 0 2.9968100908242091e-05 -7.3616481104958682e-05 0 3.6160995290028921e-05 -7.6674106997024486e-05 0 3.2308103221375237e-05 -7.4204078849398456e-05 0 2.9000672108078661e-05 -7.0760711828202671e-05 0 3.6160995290028921e-05 -7.6674106997024486e-05 0 3.2093526450391038e-05 -6.907704385342331e-05 0 2.9000672108078661e-05 -7.0760711828202671e-05 0 2.9000672108078661e-05 -7.0760711828202671e-05 0 2.7121714776442726e-05 -6.4737419969063595e-05 0 2.3806249688006326e-05 -6.6617297053846584e-05 0 3.2093526450391038e-05 -6.907704385342331e-05 0 2.9000672108078661e-05 -7.0760711828202671e-05 0 2.7121714776442726e-05 -6.4737419969063595e-05 0 2.7121714776442726e-05 -6.4737419969063595e-05 0 3.1620635088574685e-05 -6.2068407208836762e-05 0 2.6090760092327691e-05 -5.8973897435199999e-05 0 2.7121714776442726e-05 -6.4737419969063595e-05 0 2.6090760092327691e-05 -5.8973897435199999e-05 0 2.2121430626389616e-05 -6.0057272045611879e-05 0 2.7121714776442726e-05 -6.4737419969063595e-05 0 2.2121430626389616e-05 -6.0057272045611879e-05 0 2.3806249688006326e-05 -6.6617297053846584e-05 0 3.2093526450391038e-05 -6.907704385342331e-05 0 3.806797989192809e-05 -6.6849140583981329e-05 0 3.1620635088574685e-05 -6.2068407208836762e-05 0 3.2093526450391038e-05 -6.907704385342331e-05 0 2.7121714776442726e-05 -6.4737419969063595e-05 0 3.1620635088574685e-05 -6.2068407208836762e-05 0 3.9046126130413661e-05 -5.9782716652911424e-05 0 3.806797989192809e-05 -6.6849140583981329e-05 0 3.1620635088574685e-05 -6.2068407208836762e-05 0 3.9046126130413661e-05 -5.9782716652911424e-05 0 3.1620635088574685e-05 -6.2068407208836762e-05 0 3.3153208610517247e-05 -5.6491263880883153e-05 0 3.4918986184846215e-05 -5.1800187958777874e-05 0 3.315320861051724e-05 -5.6491263880883153e-05 0 2.9789417573438242e-05 -5.1598774395773041e-05 0 3.3153208610517247e-05 -5.6491263880883153e-05 0 2.9789417573438245e-05 -5.1598774395773041e-05 0 2.8941589868887191e-05 -5.6746789252052706e-05 0 2.9789417573438242e-05 -5.1598774395773041e-05 0 2.8941589868887191e-05 -5.6746789252052706e-05 0 2.5284739004568437e-05 -5.2434361746173313e-05 0 3.1620635088574685e-05 -6.2068407208836762e-05 0 3.3153208610517247e-05 -5.6491263880883153e-05 0 2.8941589868887191e-05 -5.6746789252052706e-05 0 2.8941589868887191e-05 -5.6746789252052706e-05 0 2.6090760092327691e-05 -5.8973897435199999e-05 0 2.5284739004568437e-05 -5.2434361746173313e-05 0 3.1620635088574685e-05 -6.2068407208836762e-05 0 2.8941589868887191e-05 -5.6746789252052706e-05 0 2.6090760092327691e-05 -5.8973897435199999e-05 0 2.6090760092327691e-05 -5.8973897435199999e-05 0 2.2121430626389616e-05 -6.0057272045611879e-05 0 2.0638218725406898e-05 -5.1753223439679286e-05 0 2.2121430626389616e-05 -6.0057272045611879e-05 0 2.0638218725406898e-05 -5.1753223439679286e-05 0 1.8306634015617236e-05 -5.5801110787785789e-05 0 2.6090760092327691e-05 -5.8973897435199999e-05 0 2.0638218725406898e-05 -5.1753223439679286e-05 0 2.5284739004568437e-05 -5.2434361746173313e-05 0 2.5284739004568437e-05 -5.2434361746173313e-05 0 1.9578634357499816e-05 -4.5593703707082747e-05 0 2.5787629831791294e-05 -4.6441559948530548e-05 0 2.0638218725406898e-05 -5.1753223439679286e-05 0 2.5284739004568437e-05 -5.2434361746173313e-05 0 1.9578634357499816e-05 -4.5593703707082747e-05 0 2.0638218725406898e-05 -5.1753223439679286e-05 0 1.9578634357499816e-05 -4.5593703707082747e-05 0 1.3685380820244575e-05 -4.7947532892846224e-05 0 1.9578634357499816e-05 -4.5593703707082747e-05 0 2.5787629831791294e-05 -4.6441559948530548e-05 0 2.2748562489022736e-05 -3.9551928201225646e-05 0 2.5787629831791294e-05 -4.6441559948530548e-05 0 2.2748562489022736e-05 -3.9551928201225646e-05 0 2.7908631450677548e-05 -4.0628015018914611e-05 0 2.5787629831791294e-05 -4.6441559948530548e-05 0 3.1144320395585936e-05 -4.6556135089291945e-05 0 2.7908631450677548e-05 -4.0628015018914611e-05 0 2.9789417573438242e-05 -5.1598774395773041e-05 0 2.5787629831791294e-05 -4.6441559948530548e-05 0 3.1144320395585936e-05 -4.6556135089291945e-05 0 3.4918986184846215e-05 -5.1800187958777874e-05 0 2.9789417573438242e-05 -5.1598774395773041e-05 0 3.1144320395585936e-05 -4.6556135089291945e-05 0 2.9789417573438242e-05 -5.1598774395773041e-05 0 2.5284739004568437e-05 -5.2434361746173313e-05 0 2.5787629831791294e-05 -4.6441559948530548e-05 0 3.9349650894669338e-05 -0.00013537223736826421 0 2.2310705733591868e-05 -0.00012505462598671988 0 2.6286720846892995e-05 -0.00014349555492096478 0 2.3912029546737308e-05 -9.4322856359192267e-05 0 2.0995738811153635e-05 -8.004332058724564e-05 0 3.9349650894669338e-05 -0.00013537223736826421 0 2.2310705733591864e-05 -0.00012505462598671988 0 3.590284788389101e-05 -0.00011500483821621025 0 8.6528422629938938e-06 -5.3249776338140981e-05 0 1.3685380820244575e-05 -4.7947532892846224e-05 0 6.2779119450412167e-06 -4.5059057597434705e-05 0 1.3685380820244575e-05 -4.7947532892846224e-05 0 1.0309886856472146e-05 -4.0224688719794553e-05 0 6.2779119450412167e-06 -4.5059057597434705e-05 0 1.9578634357499816e-05 -4.5593703707082747e-05 0 1.3685380820244575e-05 -4.7947532892846224e-05 0 1.4904040239689497e-05 -4.1968946797353662e-05 0 1.3685380820244575e-05 -4.7947532892846224e-05 0 1.4904040239689497e-05 -4.1968946797353662e-05 0 1.0309886856472146e-05 -4.0224688719794553e-05 0 2.0638218725406898e-05 -5.1753223439679286e-05 0 1.3685380820244575e-05 -4.7947532892846224e-05 0 1.8306634015617236e-05 -5.5801110787785789e-05 0 8.6528422629938938e-06 -5.3249776338140981e-05 0 1.3685380820244575e-05 -4.7947532892846224e-05 0 1.3717545519957924e-05 -5.552220356542402e-05 0 1.3685380820244575e-05 -4.7947532892846224e-05 0 1.3717545519957924e-05 -5.552220356542402e-05 0 1.8306634015617236e-05 -5.5801110787785789e-05 0 1.3717545519957924e-05 -5.552220356542402e-05 0 1.8306634015617236e-05 -5.5801110787785789e-05 0 1.8103277645641154e-05 -6.216276831468186e-05 0 2.2121430626389616e-05 -6.0057272045611879e-05 0 1.8306634015617236e-05 -5.5801110787785789e-05 0 1.8103277645641154e-05 -6.216276831468186e-05 0 1.3717545519957924e-05 -5.552220356542402e-05 0 1.8103277645641154e-05 -6.216276831468186e-05 0 1.1974786834611378e-05 -6.1027311070561844e-05 0 1.8103277645641154e-05 -6.216276831468186e-05 0 1.1974786834611378e-05 -6.1027311070561844e-05 0 1.6469466118095965e-05 -6.7896327982969453e-05 0 4.2935401197005625e-05 -0.00015668613407600088 0 2.6286720846892995e-05 -0.00014349555492096478 0 1.7720034498462765e-05 -0.00016056109661997717 0 4.2935401197005625e-05 -0.00015668613407600088 0 2.7922505372607174e-05 -0.00018091714848857195 0 1.7720034498462765e-05 -0.00016056109661997717 0 2.7128788124170894e-05 -0.00010877326030533306 0 3.2026015618867752e-05 -0.00012341658207409256 0 8.6528422629938938e-06 -5.3249776338140981e-05 0 1.3717545519957924e-05 -5.552220356542402e-05 0 1.1974786834611378e-05 -6.1027311070561844e-05 0 3.9349650894669338e-05 -0.00013537223736826421 0 4.2935401197005625e-05 -0.00015668613407600088 0 2.6286720846892995e-05 -0.00014349555492096478 0 2.3912029546737308e-05 -9.4322856359192267e-05 0 2.7128788124170894e-05 -0.00010877326030533306 0 4.2935401197005625e-05 -0.00015668613407600088 0 2.7922505372607174e-05 -0.00018091714848857195 0 4.6930931984564487e-05 -0.00017846376957348286 0 3.2026015618867752e-05 -0.00012341658207409256 0 3.4594262898774928e-05 -0.00013664767418922425 0 1.6469466118095965e-05 -6.7896327982969453e-05 0 2.1059996998001334e-05 -6.823203679833366e-05 0 2.233735630888903e-05 -7.3212042998573848e-05 0 2.7922505372607174e-05 -0.00018091714848857195 0 4.6930931984564487e-05 -0.00017846376957348286 0 5.1639298622675976e-05 -0.00020103184543138658 0 2.7922505372607174e-05 -0.00018091714848857195 0 5.1639298622675976e-05 -0.00020103184543138658 0 2.7218141617374609e-05 -0.00020163886484452626 0 2.2121430626389616e-05 -6.0057272045611879e-05 0 1.8103277645641154e-05 -6.216276831468186e-05 0 2.3806249688006326e-05 -6.6617297053846584e-05 0 1.8103277645641154e-05 -6.216276831468186e-05 0 2.1059996998001334e-05 -6.823203679833366e-05 0 2.3806249688006326e-05 -6.6617297053846584e-05 0 1.8103277645641154e-05 -6.216276831468186e-05 0 1.6469466118095965e-05 -6.7896327982969453e-05 0 2.1059996998001334e-05 -6.823203679833366e-05 0 2.1059996998001334e-05 -6.823203679833366e-05 0 2.3806249688006326e-05 -6.6617297053846584e-05 0 2.5333870888644718e-05 -7.1244481739421043e-05 0 2.9000672108078661e-05 -7.0760711828202671e-05 0 2.3806249688006326e-05 -6.6617297053846584e-05 0 2.5333870888644718e-05 -7.1244481739421043e-05 0 2.1059996998001334e-05 -6.823203679833366e-05 0 2.5333870888644718e-05 -7.1244481739421043e-05 0 2.233735630888903e-05 -7.3212042998573848e-05 0 2.5333870888644718e-05 -7.1244481739421043e-05 0 2.233735630888903e-05 -7.3212042998573848e-05 0 2.9042061599331986e-05 -7.6087611980835533e-05 0 2.5333870888644718e-05 -7.1244481739421043e-05 0 2.9968100908242091e-05 -7.3616481104958682e-05 0 2.9042061599331986e-05 -7.6087611980835533e-05 0 2.9000672108078661e-05 -7.0760711828202671e-05 0 2.5333870888644718e-05 -7.1244481739421043e-05 0 2.9968100908242091e-05 -7.3616481104958682e-05 0 5.1639298622675976e-05 -0.00020103184543138658 0 3.9581580612001131e-05 -0.00021320131687689012 0 2.7218141617374609e-05 -0.00020163886484452626 0 3.4594262898774928e-05 -0.00013664767418922425 0 5.0990503874021288e-05 -0.00015048742948552281 0 5.1639298622675976e-05 -0.00020103184543138658 0 5.8110372766149522e-05 -0.00022388133897352047 0 3.9581580612001131e-05 -0.00021320131687689015 0 5.8110372766149522e-05 -0.00022388133897352047 0 3.9581580612001131e-05 -0.00021320131687689015 0 3.4786794296580706e-05 -0.00022719338696222961 0 3.9581580612001131e-05 -0.00021320131687689015 0 2.1097981585724891e-05 -0.00021601307813186413 0 3.4786794296580706e-05 -0.00022719338696222961 0 2.1097981585724897e-05 -0.00021601307813186413 0 3.4786794296580706e-05 -0.00022719338696222961 0 1.1188200052671125e-05 -0.00022829650540208635 0 2.1097981585724897e-05 -0.00021601307813186413 0 2.7218141617374609e-05 -0.00020163886484452626 0 6.9913836651840213e-06 -0.00020735734303380069 0 3.9581580612001131e-05 -0.00021320131687689015 0 2.1097981585724897e-05 -0.00021601307813186413 0 2.7218141617374609e-05 -0.00020163886484452626 0 2.1097981585724897e-05 -0.00021601307813186413 0 6.9913836651840222e-06 -0.00020735734303380069 0 1.1188200052671125e-05 -0.00022829650540208635 0 6.9913836651840213e-06 -0.00020735734303380069 0 -1.1283802334052848e-05 -0.00022841136138261283 0 -1.3157423765017413e-05 -0.00020011405987503951 0 -1.1283802334052848e-05 -0.00022841136138261283 0 -1.3157423765017413e-05 -0.00020011405987503951 0 -3.2050354767721276e-05 -0.00020795663929278177 0 6.9913836651840213e-06 -0.00020735734303380069 0 1.1188200052671125e-05 -0.00022829650540208635 0 -1.1283802334052848e-05 -0.00022841136138261283 0 6.9913836651840213e-06 -0.00020735734303380069 0 -1.3157423765017413e-05 -0.00020011405987503951 0 7.9731233496719477e-06 -0.00018469571765452467 0 -1.3157423765017413e-05 -0.00020011405987503951 0 -1.5944548156963537e-05 -0.00017506921581340656 0 7.9731233496719477e-06 -0.00018469571765452467 0 -1.3157423765017413e-05 -0.00020011405987503951 0 -1.5944548156963537e-05 -0.00017506921581340656 0 -3.6261535928070711e-05 -0.00018528822949250522 0 -1.5944548156963537e-05 -0.00017506921581340656 0 7.9731233496719477e-06 -0.00018469571765452467 0 -1.6659346315927458e-06 -0.00016355170179646852 0 2.7922505372607174e-05 -0.00018091714848857195 0 7.9731233496719477e-06 -0.00018469571765452467 0 1.7720034498462765e-05 -0.00016056109661997717 0 2.7922505372607174e-05 -0.00018091714848857195 0 2.7218141617374609e-05 -0.00020163886484452626 0 7.9731233496719477e-06 -0.00018469571765452467 0 2.7218141617374609e-05 -0.00020163886484452626 0 6.9913836651840213e-06 -0.00020735734303380069 0 7.9731233496719477e-06 -0.00018469571765452467 0 -7.6633285911693107e-05 -0.00020675886576892322 0 -6.2128535695806736e-05 -0.00021606981253135862 0 -5.251236685309841e-05 -0.00020374744409887744 0 -7.6633285911693107e-05 -0.00020675886576892322 0 -7.6439405432290555e-05 -0.00022860795907305101 0 -6.2128535695806736e-05 -0.0002160698125313586 0 -7.6439405432290555e-05 -0.00022860795907305101 0 -5.4733388072740053e-05 -0.00022839194034660008 0 -6.2128535695806736e-05 -0.0002160698125313586 0 -5.4733388072740046e-05 -0.00022839194034660008 0 -6.2128535695806736e-05 -0.0002160698125313586 0 -4.4165391226609744e-05 -0.00021707757700036964 0 -6.2128535695806736e-05 -0.0002160698125313586 0 -5.251236685309841e-05 -0.00020374744409887744 0 -4.4165391226609744e-05 -0.00021707757700036964 0 -5.251236685309841e-05 -0.00020374744409887744 0 -4.4165391226609744e-05 -0.00021707757700036964 0 -3.2050354767721276e-05 -0.00020795663929278177 0 -4.4165391226609744e-05 -0.00021707757700036964 0 -3.2983515820301754e-05 -0.00022838653740376715 0 -3.2050354767721276e-05 -0.00020795663929278177 0 -5.4733388072740046e-05 -0.00022839194034660008 0 -4.4165391226609744e-05 -0.00021707757700036967 0 -3.2983515820301754e-05 -0.00022838653740376715 0 -1.1283802334052848e-05 -0.00022841136138261283 0 -3.2983515820301754e-05 -0.00022838653740376715 0 -3.2050354767721276e-05 -0.00020795663929278177 0 -1.3157423765017413e-05 -0.00020011405987503951 0 -3.2050354767721276e-05 -0.00020795663929278177 0 -3.6261535928070711e-05 -0.00018528822949250522 0 -1.5944548156963537e-05 -0.00017506921581340656 0 -3.6261535928070711e-05 -0.00018528822949250522 0 -3.1761136376546296e-05 -0.00016045875079750743 0 -3.6261535928070711e-05 -0.00018528822949250522 0 -5.7117861706311228e-05 -0.00018435659805687122 0 -5.0719579408650792e-05 -0.00016426607418934034 0 -5.251236685309841e-05 -0.00020374744409887744 0 -3.2050354767721276e-05 -0.00020795663929278177 0 -3.6261535928070711e-05 -0.00018528822949250522 0 -5.251236685309841e-05 -0.00020374744409887744 0 -3.6261535928070711e-05 -0.00018528822949250522 0 -5.7117861706311228e-05 -0.00018435659805687122 0 -7.6633285911693107e-05 -0.00020675886576892322 0 -5.251236685309841e-05 -0.00020374744409887744 0 -5.7117861706311228e-05 -0.00018435659805687122 0 -5.7117861706311228e-05 -0.00018435659805687122 0 -7.6503320208638463e-05 -0.00018476932433179655 0 -7.5882036568806932e-05 -0.00016268870463328409 0 -7.6633285911693107e-05 -0.00020675886576892322 0 -5.7117861706311228e-05 -0.00018435659805687122 0 -7.6503320208638463e-05 -0.00018476932433179655 0 -7.5882036568806932e-05 -0.00016268870463328409 0 -6.0169145728611198e-05 -0.00014859679808012884 0 -7.45393288230369e-05 -0.00014112595099267762 0 -5.7117861706311228e-05 -0.00018435659805687122 0 -7.5882036568806932e-05 -0.00016268870463328409 0 -5.0719579408650792e-05 -0.00016426607418934034 0 -5.0719579408650792e-05 -0.00016426607418934034 0 -6.0169145728611198e-05 -0.00014859679808012884 0 -4.4508087960533803e-05 -0.00014087379245938586 0 -7.5882036568806932e-05 -0.00016268870463328409 0 -5.0719579408650792e-05 -0.00016426607418934034 0 -6.0169145728611198e-05 -0.00014859679808012884 0 -5.0719579408650792e-05 -0.00016426607418934034 0 -3.1761136376546296e-05 -0.00016045875079750743 0 -4.4508087960533803e-05 -0.00014087379245938586 0 -3.6261535928070711e-05 -0.00018528822949250522 0 -5.0719579408650792e-05 -0.00016426607418934034 0 -3.1761136376546296e-05 -0.00016045875079750743 0 -3.1761136376546296e-05 -0.00016045875079750743 0 -2.8989383672234167e-05 -0.00014005763351506277 0 -4.4508087960533803e-05 -0.00014087379245938586 0 -3.1761136376546296e-05 -0.00016045875079750743 0 -2.8989383672234164e-05 -0.00014005763351506275 0 -1.5970526690814637e-05 -0.00015120726972300185 0 -2.8989383672234164e-05 -0.00014005763351506275 0 -3.5615666178999311e-05 -0.00012659626448939106 0 -4.4508087960533803e-05 -0.00014087379245938586 0 -3.5615666178999311e-05 -0.00012659626448939106 0 -1.9090950227138438e-05 -0.00012719141406978524 0 -3.2924570000962783e-05 -0.00010827792846186225 0 -2.8989383672234164e-05 -0.00014005763351506275 0 -3.5615666178999311e-05 -0.00012659626448939106 0 -1.9090950227138438e-05 -0.00012719141406978524 0 -3.5615666178999311e-05 -0.00012659626448939106 0 -4.4508087960533803e-05 -0.00014087379245938586 0 -5.1579094340315916e-05 -0.0001202992306197158 0 -6.0169145728611198e-05 -0.00014859679808012884 0 -4.4508087960533803e-05 -0.00014087379245938586 0 -6.0831173917837313e-05 -0.00013378391774477311 0 -4.4508087960533803e-05 -0.00014087379245938586 0 -6.0831173917837313e-05 -0.00013378391774477311 0 -5.1579094340315916e-05 -0.0001202992306197158 0 -6.0831173917837313e-05 -0.00013378391774477311 0 -5.1579094340315916e-05 -0.0001202992306197158 0 -7.2316852500821743e-05 -0.00012005838116108981 0 -6.0831173917837313e-05 -0.00013378391774477311 0 -7.45393288230369e-05 -0.00014112595099267762 0 -7.2316852500821743e-05 -0.00012005838116108981 0 -6.0169145728611198e-05 -0.00014859679808012884 0 -6.0831173917837313e-05 -0.00013378391774477311 0 -7.45393288230369e-05 -0.00014112595099267762 0 -1.9152058884112604e-06 -0.00014454205600296488 0 1.7720034498462765e-05 -0.00016056109661997717 0 1.1697138448492888e-05 -0.00013689825907882894 0 -1.9152058884112604e-06 -0.00014454205600296488 0 1.7720034498462765e-05 -0.00016056109661997717 0 -1.6659346315927458e-06 -0.00016355170179646852 0 2.6286720846892995e-05 -0.00014349555492096478 0 1.7720034498462765e-05 -0.00016056109661997717 0 1.1697138448492888e-05 -0.00013689825907882894 0 7.9731233496719477e-06 -0.00018469571765452467 0 1.7720034498462765e-05 -0.00016056109661997717 0 -1.6659346315927458e-06 -0.00016355170179646852 0 -1.5944548156963537e-05 -0.00017506921581340656 0 -1.6659346315927458e-06 -0.00016355170179646852 0 -1.5970526690814637e-05 -0.00015120726972300185 0 -1.5944548156963537e-05 -0.00017506921581340656 0 -3.1761136376546296e-05 -0.00016045875079750743 0 -1.5970526690814637e-05 -0.00015120726972300185 0 -1.9152058884112604e-06 -0.00014454205600296488 0 -1.6659346315927458e-06 -0.00016355170179646852 0 -1.5970526690814637e-05 -0.00015120726972300185 0 -1.9152058884112604e-06 -0.00014454205600296488 0 -1.9090950227138438e-05 -0.00012719141406978524 0 -2.9690887634717949e-06 -0.0001243980541214586 0 -1.9152058884112604e-06 -0.00014454205600296488 0 -1.5970526690814637e-05 -0.00015120726972300185 0 -1.9090950227138438e-05 -0.00012719141406978524 0 -2.8989383672234164e-05 -0.00014005763351506275 0 -1.5970526690814637e-05 -0.00015120726972300185 0 -1.9090950227138438e-05 -0.00012719141406978524 0 -1.9090950227138438e-05 -0.00012719141406978524 0 -2.9690887634717945e-06 -0.00012439805412145857 0 -1.3289732996799543e-05 -0.00010824920425902693 0 -2.9690887634717949e-06 -0.0001243980541214586 0 1.1697138448492888e-05 -0.00013689825907882894 0 9.2411635107162499e-06 -0.00012005277654121255 0 -1.9152058884112604e-06 -0.00014454205600296488 0 -2.9690887634717949e-06 -0.0001243980541214586 0 1.1697138448492888e-05 -0.00013689825907882894 0 2.2310705733591868e-05 -0.00012505462598671988 0 2.6286720846892995e-05 -0.00014349555492096478 0 1.1697138448492888e-05 -0.00013689825907882894 0 2.2310705733591868e-05 -0.00012505462598671988 0 1.1697138448492888e-05 -0.00013689825907882894 0 9.2411635107162499e-06 -0.00012005277654121255 0 2.2310705733591868e-05 -0.00012505462598671988 0 9.2411635107162499e-06 -0.00012005277654121255 0 1.6530570970317161e-05 -0.00010668316515894585 0 9.2411635107162499e-06 -0.00012005277654121255 0 1.6530570970317161e-05 -0.00010668316515894585 0 -1.0804642995032346e-06 -0.0001074252354145123 0 1.6530570970317161e-05 -0.00010668316515894585 0 6.602710016833905e-06 -9.4740623494118372e-05 0 -1.0804642995032346e-06 -0.0001074252354145123 0 1.6530570970317161e-05 -0.00010668316515894585 0 6.602710016833905e-06 -9.4740623494118372e-05 0 1.7232393762884587e-05 -8.8567929541426396e-05 0 6.602710016833905e-06 -9.4740623494118372e-05 0 -1.0804642995032359e-06 -0.0001074252354145123 0 -4.9466016319833153e-06 -9.2102519267084416e-05 0 -2.9690887634717949e-06 -0.0001243980541214586 0 9.2411635107162499e-06 -0.00012005277654121255 0 -1.0804642995032346e-06 -0.0001074252354145123 0 -2.9690887634717949e-06 -0.0001243980541214586 0 -1.0804642995032346e-06 -0.0001074252354145123 0 -1.3289732996799543e-05 -0.00010824920425902693 0 -1.9090950227138438e-05 -0.00012719141406978524 0 -1.3289732996799543e-05 -0.00010824920425902693 0 -3.2924570000962783e-05 -0.00010827792846186225 0 -1.3289732996799543e-05 -0.00010824920425902693 0 -1.9008370381428799e-05 -9.1296376216590245e-05 0 -3.2924570000962783e-05 -0.00010827792846186225 0 -1.0804642995032346e-06 -0.0001074252354145123 0 -1.3289732996799543e-05 -0.00010824920425902693 0 -4.9466016319833153e-06 -9.2102519267084416e-05 0 -1.3289732996799543e-05 -0.00010824920425902693 0 -1.9008370381428799e-05 -9.1296376216590245e-05 0 -4.9466016319833153e-06 -9.2102519267084416e-05 0 -1.9008370381428799e-05 -9.1296376216590245e-05 0 -6.3842455857283275e-06 -7.4250690986987073e-05 0 -4.9466016319833153e-06 -9.2102519267084416e-05 0 -1.9008370381428799e-05 -9.1296376216590245e-05 0 -2.8077981049023349e-05 -7.9820847638454874e-05 0 -1.7770240959320653e-05 -6.8559923324191497e-05 0 -1.9008370381428799e-05 -9.1296376216590245e-05 0 -6.384245585728325e-06 -7.4250690986987073e-05 0 -1.7770240959320653e-05 -6.8559923324191497e-05 0 -6.3842455857283275e-06 -7.4250690986987073e-05 0 5.5197091180323059e-06 -7.9258579408613067e-05 0 4.8228045358952137e-06 -5.8626016015559244e-05 0 5.5197091180323068e-06 -7.9258579408613067e-05 0 4.8228045358952137e-06 -5.8626016015559244e-05 0 1.5858412635887539e-05 -6.885871539148971e-05 0 6.602710016833905e-06 -9.4740623494118372e-05 0 5.5197091180323076e-06 -7.9258579408613067e-05 0 1.7232393762884587e-05 -8.8567929541426396e-05 0 -6.3842455857283275e-06 -7.4250690986987073e-05 0 5.5197091180323068e-06 -7.9258579408613067e-05 0 -4.9466016319833153e-06 -9.2102519267084416e-05 0 6.602710016833905e-06 -9.4740623494118372e-05 0 5.5197091180323068e-06 -7.9258579408613067e-05 0 -4.9466016319833153e-06 -9.2102519267084416e-05 0 -6.9146408237277348e-05 -0.00010004510629010501 0 -6.0312544928543283e-05 -0.0001100599833527065 0 -4.8453106250913665e-05 -9.9219234898049416e-05 0 -6.9146408237277348e-05 -0.00010004510629010501 0 -4.8453106250913665e-05 -9.9219234898049416e-05 0 -5.3676307015978903e-05 -8.5292313331025631e-05 0 -5.1579094340315916e-05 -0.0001202992306197158 0 -7.2316852500821743e-05 -0.00012005838116108981 0 -6.0312544928543283e-05 -0.00011005998335270651 0 -6.9146408237277348e-05 -0.00010004510629010501 0 -7.2316852500821743e-05 -0.00012005838116108981 0 -6.0312544928543283e-05 -0.00011005998335270651 0 -5.1579094340315916e-05 -0.0001202992306197158 0 -6.0312544928543283e-05 -0.00011005998335270651 0 -4.8453106250913665e-05 -9.9219234898049416e-05 0 -4.8453106250913665e-05 -9.9219234898049416e-05 0 -3.2924570000962783e-05 -0.00010827792846186225 0 -3.3112598679407783e-05 -9.1643901165571788e-05 0 -5.1579094340315916e-05 -0.0001202992306197158 0 -4.8453106250913665e-05 -9.9219234898049416e-05 0 -3.2924570000962783e-05 -0.00010827792846186225 0 -3.5615666178999311e-05 -0.00012659626448939106 0 -5.1579094340315916e-05 -0.0001202992306197158 0 -3.2924570000962783e-05 -0.00010827792846186225 0 -1.9008370381428799e-05 -9.1296376216590245e-05 0 -3.2924570000962783e-05 -0.00010827792846186224 0 -3.3112598679407783e-05 -9.1643901165571788e-05 0 -3.3112598679407783e-05 -9.1643901165571788e-05 0 -2.8077981049023349e-05 -7.9820847638454874e-05 0 -4.0739581296246433e-05 -8.0854764827666486e-05 0 -1.9008370381428799e-05 -9.1296376216590245e-05 0 -3.3112598679407783e-05 -9.1643901165571788e-05 0 -2.8077981049023349e-05 -7.9820847638454874e-05 0 -2.8077981049023349e-05 -7.9820847638454874e-05 0 -3.0176004505721931e-05 -6.7848541347778811e-05 0 -1.7770240959320653e-05 -6.8559923324191497e-05 0 -2.8077981049023349e-05 -7.9820847638454874e-05 0 -4.0739581296246433e-05 -8.0854764827666486e-05 0 -3.0176004505721934e-05 -6.7848541347778811e-05 0 -4.0739581296246433e-05 -8.0854764827666486e-05 0 -4.7125916599976136e-05 -6.90001789780017e-05 0 -3.0176004505721934e-05 -6.7848541347778811e-05 0 -4.8453106250913665e-05 -9.9219234898049416e-05 0 -3.3112598679407783e-05 -9.1643901165571788e-05 0 -4.0739581296246433e-05 -8.0854764827666486e-05 0 -4.8453106250913665e-05 -9.9219234898049416e-05 0 -4.0739581296246433e-05 -8.0854764827666486e-05 0 -5.3676307015978903e-05 -8.5292313331025631e-05 0 -4.0739581296246433e-05 -8.0854764827666486e-05 0 -5.3676307015978903e-05 -8.5292313331025631e-05 0 -4.7125916599976136e-05 -6.90001789780017e-05 0 -5.3676307015978903e-05 -8.5292313331025631e-05 0 -6.5237103958419861e-05 -8.121247841695176e-05 0 -4.7125916599976136e-05 -6.90001789780017e-05 0 -6.9146408237277348e-05 -0.00010004510629010501 0 -5.3676307015978903e-05 -8.5292313331025631e-05 0 -6.5237103958419861e-05 -8.121247841695176e-05 0 -6.0531268963865428e-05 -6.3940235629439044e-05 0 -4.6775129952906351e-05 -5.4301688166879981e-05 0 -5.4662261729203509e-05 -4.8425218174608443e-05 0 -6.5237103958419861e-05 -8.121247841695176e-05 0 -6.0531268963865428e-05 -6.394023562943903e-05 0 -4.7125916599976136e-05 -6.90001789780017e-05 0 -6.0531268963865428e-05 -6.3940235629439044e-05 0 -4.7125916599976136e-05 -6.90001789780017e-05 0 -4.6775129952906351e-05 -5.4301688166879981e-05 0 -4.7125916599976136e-05 -6.90001789780017e-05 0 -4.6775129952906351e-05 -5.4301688166879981e-05 0 -3.5509040295838628e-05 -5.3906563451872794e-05 0 -4.7125916599976136e-05 -6.90001789780017e-05 0 -3.5509040295838628e-05 -5.3906563451872794e-05 0 -3.0176004505721934e-05 -6.7848541347778811e-05 0 -3.0176004505721934e-05 -6.7848541347778811e-05 0 -2.5797235520254711e-05 -5.5884812281649124e-05 0 -1.7770240959320653e-05 -6.8559923324191497e-05 0 -3.5509040295838628e-05 -5.3906563451872794e-05 0 -3.0176004505721934e-05 -6.7848541347778811e-05 0 -2.5797235520254711e-05 -5.5884812281649124e-05 0 -2.5797235520254711e-05 -5.5884812281649124e-05 0 -2.7090172408932112e-05 -4.5119195645116291e-05 0 -1.6749717047954431e-05 -4.7528985606311677e-05 0 -3.5509040295838628e-05 -5.3906563451872794e-05 0 -2.5797235520254711e-05 -5.5884812281649124e-05 0 -2.7090172408932112e-05 -4.5119195645116291e-05 0 -2.7090172408932112e-05 -4.5119195645116291e-05 0 -2.2014698888104208e-05 -3.3650267806613946e-05 0 -3.6691431352695138e-05 -3.8900253225571781e-05 0 -2.5871716091728388e-05 -2.6837607177023138e-05 0 -2.2014698888104208e-05 -3.3650267806613946e-05 0 -3.6691431352695138e-05 -3.8900253225571781e-05 0 -3.5509040295838628e-05 -5.3906563451872794e-05 0 -2.7090172408932112e-05 -4.5119195645116291e-05 0 -3.6691431352695138e-05 -3.8900253225571781e-05 0 -4.6775129952906351e-05 -5.4301688166879981e-05 0 -3.6691431352695138e-05 -3.8900253225571781e-05 0 -5.4662261729203509e-05 -4.8425218174608443e-05 0 -4.6775129952906351e-05 -5.4301688166879981e-05 0 -3.5509040295838628e-05 -5.3906563451872794e-05 0 -3.6691431352695138e-05 -3.8900253225571781e-05 0 -4.8716088602424801e-05 -3.5205360734673922e-05 0 -3.6691431352695138e-05 -3.8900253225571781e-05 0 -5.4662261729203509e-05 -4.8425218174608443e-05 0 4.8228045358952137e-06 -5.8626016015559244e-05 0 -8.3060239239075986e-06 -5.7907112595953855e-05 0 -4.7113670546371293e-06 -4.3440987418803858e-05 0 4.8228045358952137e-06 -5.8626016015559244e-05 0 -4.7113670546371293e-06 -4.3440987418803858e-05 0 5.7221000382498706e-06 -3.8717288163852483e-05 0 -6.3842455857283275e-06 -7.4250690986987073e-05 0 4.8228045358952137e-06 -5.8626016015559244e-05 0 -8.3060239239075986e-06 -5.7907112595953855e-05 0 -6.3842455857283275e-06 -7.4250690986987073e-05 0 -8.3060239239075986e-06 -5.7907112595953855e-05 0 -1.7770240959320653e-05 -6.8559923324191497e-05 0 -2.5797235520254711e-05 -5.5884812281649124e-05 0 -1.7770240959320653e-05 -6.8559923324191497e-05 0 -1.6749717047954431e-05 -4.7528985606311677e-05 0 -8.3060239239075986e-06 -5.7907112595953855e-05 0 -1.7770240959320653e-05 -6.8559923324191497e-05 0 -1.6749717047954431e-05 -4.7528985606311677e-05 0 -8.3060239239075986e-06 -5.7907112595953855e-05 0 -1.6749717047954431e-05 -4.7528985606311677e-05 0 -4.7113670546371293e-06 -4.3440987418803858e-05 0 -1.6749717047954431e-05 -4.7528985606311677e-05 0 -1.2037140750858077e-05 -3.3860814284037989e-05 0 -4.7113670546371293e-06 -4.3440987418803858e-05 0 -2.7090172408932112e-05 -4.5119195645116291e-05 0 -2.2014698888104208e-05 -3.3650267806613946e-05 0 -1.6749717047954431e-05 -4.7528985606311677e-05 0 -1.6511974322415728e-05 -2.6720083896946148e-05 0 -2.2014698888104208e-05 -3.3650267806613946e-05 0 -1.2037140750858075e-05 -3.3860814284037989e-05 0 -2.2014698888104208e-05 -3.3650267806613946e-05 0 -1.6749717047954431e-05 -4.7528985606311677e-05 0 -1.2037140750858075e-05 -3.3860814284037989e-05 0 -1.2037140750858075e-05 -3.3860814284037989e-05 0 -4.2573235789979451e-06 -2.9749233769121166e-05 0 -4.7113670546371293e-06 -4.3440987418803858e-05 0 -4.2573235789979459e-06 -2.9749233769121166e-05 0 -4.7113670546371293e-06 -4.3440987418803858e-05 0 5.7221000382498706e-06 -3.8717288163852483e-05 0 3.7258668478583755e-06 -2.4545935388784908e-05 0 -4.2573235789979459e-06 -2.9749233769121166e-05 0 5.7221000382498706e-06 -3.8717288163852483e-05 0 3.7258668478583755e-06 -2.4545935388784908e-05 0 1.0737525971861999e-05 -2.0516338170426799e-05 0 5.7221000382498706e-06 -3.8717288163852483e-05 0 1.0737525971861999e-05 -2.0516338170426799e-05 0 7.0723486461858336e-06 -1.6547246166995031e-05 0 7.808382740167168e-06 -1.5545165572374517e-05 0 1.0737525971861999e-05 -2.0516338170426799e-05 0 1.9198167958968709e-05 -4.2194659186627093e-05 0 5.7221000382498706e-06 -3.8717288163852483e-05 0 8.8664948005541649e-06 -2.0249600629393192e-05 0 1.3852379161437963e-05 -2.9612713398686822e-05 0 1.9198167958968709e-05 -4.2194659186627093e-05 0 5.7221000382498706e-06 -3.8717288163852483e-05 0 1.4109220460479845e-05 -5.2000792392347636e-05 0 4.8228045358952137e-06 -5.8626016015559244e-05 0 5.7221000382498706e-06 -3.8717288163852483e-05 0 1.4109220460479845e-05 -5.2000792392347636e-05 0 1.3852379161437963e-05 -2.9612713398686822e-05 0 1.4922989366768947e-05 -4.0308997028255557e-05 0 1.9198167958968709e-05 -4.2194659186627093e-05 0 1.4109220460479845e-05 -5.2000792392347636e-05 0 2.4728410441272808e-05 -5.9182200008471492e-05 0 1.4922989366768947e-05 -4.0308997028255557e-05 0 1.6737240342221798e-05 -5.2769001378389958e-05 0 1.4109220460479845e-05 -5.2000792392347636e-05 0 2.4728410441272808e-05 -5.9182200008471485e-05 0 1.5858412635887539e-05 -6.885871539148971e-05 0 4.8228045358952137e-06 -5.8626016015559244e-05 0 1.4109220460479843e-05 -5.2000792392347636e-05 0 1.5858412635887539e-05 -6.885871539148971e-05 0 8.2603676369966737e-06 -2.2845873428162514e-05 0 8.7774726379645757e-06 -1.6685244308092156e-05 0 1.1287326970893649e-05 -2.0798632163246432e-05 0 5.3975659426045013e-06 -2.1551489126038742e-05 0 8.2603676369966737e-06 -2.2845873428162514e-05 0 4.5447061257475497e-06 -2.8571488298710221e-05 0 5.3975659426045013e-06 -2.1551489126038742e-05 0 8.2603676369966737e-06 -2.2845873428162514e-05 0 8.7774726379645757e-06 -1.6685244308092156e-05 0 7.0723486461858336e-06 -1.6547246166995031e-05 0 5.3975659426045013e-06 -2.1551489126038742e-05 0 8.7774726379645757e-06 -1.6685244308092156e-05 0 8.7774726379645757e-06 -1.6685244308092156e-05 0 7.808382740167168e-06 -1.5545165572374517e-05 0 1.0373032865065131e-05 -1.2642686190406085e-05 0 7.0723486461858336e-06 -1.6547246166995031e-05 0 8.7774726379645757e-06 -1.6685244308092152e-05 0 7.808382740167168e-06 -1.5545165572374517e-05 0 8.7943012487981753e-06 -1.3793883926518555e-05 0 1.0737525971861999e-05 -2.0516338170426799e-05 0 7.808382740167168e-06 -1.5545165572374517e-05 0 8.7943012487981753e-06 -1.3793883926518555e-05 0 7.808382740167168e-06 -1.5545165572374517e-05 0 1.0373032865065131e-05 -1.2642686190406085e-05 0 8.7774726379645757e-06 -1.6685244308092156e-05 0 1.0373032865065131e-05 -1.2642686190406085e-05 0 1.2890313731798849e-05 -1.6714738463118532e-05 0 1.0373032865065131e-05 -1.2642686190406085e-05 0 1.4991163326303175e-05 -1.1616264474281415e-05 0 1.2890313731798849e-05 -1.6714738463118532e-05 0 1.3194762423149633e-05 -7.6810107689157221e-06 0 1.0373032865065131e-05 -1.2642686190406085e-05 0 1.4991163326303175e-05 -1.1616264474281415e-05 0 1.6594007072848608e-05 -4.9510372761410096e-06 0 1.8629726227951582e-05 -9.183188866175327e-06 0 1.4991163326303175e-05 -1.1616264474281415e-05 0 1.6594007072848608e-05 -4.9510372761410096e-06 0 1.3194762423149633e-05 -7.6810107689157221e-06 0 1.4991163326303175e-05 -1.1616264474281415e-05 0 1.8629726227951582e-05 -9.183188866175327e-06 0 1.9592545203750586e-05 -1.5633279113119337e-05 0 1.4991163326303175e-05 -1.1616264474281415e-05 0 1.9592545203750586e-05 -1.5633279113119337e-05 0 1.6672698705979412e-05 -1.6617615941757407e-05 0 2.0217216894682763e-05 -2.1722416321277626e-05 0 1.9592545203750586e-05 -1.5633279113119337e-05 0 1.4991163326303175e-05 -1.1616264474281415e-05 0 1.6672698705979412e-05 -1.6617615941757407e-05 0 1.6672698705979412e-05 -1.6617615941757407e-05 0 1.6726843440068177e-05 -2.1160541671032471e-05 0 1.2890313731798849e-05 -1.6714738463118532e-05 0 1.4991163326303175e-05 -1.1616264474281415e-05 0 1.6672698705979408e-05 -1.6617615941757407e-05 0 1.2890313731798849e-05 -1.6714738463118532e-05 0 1.6672698705979412e-05 -1.6617615941757407e-05 0 1.6726843440068177e-05 -2.1160541671032471e-05 0 2.0217216894682763e-05 -2.1722416321277626e-05 0 8.7774726379645757e-06 -1.6685244308092156e-05 0 1.2890313731798849e-05 -1.6714738463118532e-05 0 1.1287326970893649e-05 -2.0798632163246432e-05 0 1.6726843440068177e-05 -2.1160541671032471e-05 0 1.2890313731798849e-05 -1.6714738463118532e-05 0 1.4770843878533898e-05 -2.4837799352475239e-05 0 1.2890313731798849e-05 -1.6714738463118532e-05 0 1.1287326970893649e-05 -2.0798632163246432e-05 0 1.4770843878533898e-05 -2.4837799352475239e-05 0 1.1287326970893649e-05 -2.0798632163246432e-05 0 1.4770843878533898e-05 -2.4837799352475239e-05 0 1.0482671841473556e-05 -2.7585258985120206e-05 0 1.4770843878533898e-05 -2.4837799352475239e-05 0 1.9702672392084826e-05 -2.6931596236242263e-05 0 1.8638039916264271e-05 -3.2242939940189539e-05 0 1.4770843878533898e-05 -2.4837799352475239e-05 0 1.4053004385876196e-05 -3.1264472539050442e-05 0 1.8638039916264271e-05 -3.2242939940189539e-05 0 1.4770843878533898e-05 -2.4837799352475239e-05 0 1.4053004385876196e-05 -3.1264472539050448e-05 0 1.0482671841473556e-05 -2.7585258985120206e-05 0 2.0217216894682763e-05 -2.1722416321277626e-05 0 2.3836072995804334e-05 -2.7726342342553897e-05 0 1.9702672392084826e-05 -2.6931596236242263e-05 0 1.6726843440068177e-05 -2.1160541671032471e-05 0 2.0217216894682763e-05 -2.1722416321277629e-05 0 1.9702672392084826e-05 -2.6931596236242263e-05 0 1.6726843440068177e-05 -2.1160541671032471e-05 0 1.4770843878533898e-05 -2.4837799352475239e-05 0 1.9702672392084826e-05 -2.6931596236242263e-05 0 1.9702672392084826e-05 -2.6931596236242263e-05 0 2.4486772755115965e-05 -3.3660499373243582e-05 0 1.8638039916264271e-05 -3.2242939940189539e-05 0 2.3836072995804334e-05 -2.7726342342553897e-05 0 1.9702672392084826e-05 -2.6931596236242263e-05 0 2.4486772755115965e-05 -3.3660499373243582e-05 0 3.0519487421270694e-05 -3.7518159191779187e-05 0 2.4486772755115965e-05 -3.3660499373243582e-05 0 2.7908631450677548e-05 -4.0628015018914611e-05 0 2.4486772755115965e-05 -3.3660499373243582e-05 0 2.2748562489022736e-05 -3.9551928201225646e-05 0 1.8638039916264271e-05 -3.2242939940189539e-05 0 2.4486772755115965e-05 -3.3660499373243582e-05 0 2.2748562489022736e-05 -3.9551928201225646e-05 0 2.7908631450677548e-05 -4.0628015018914611e-05 0 1.4053004385876196e-05 -3.1264472539050448e-05 0 1.7407322370058024e-05 -3.8214066670587606e-05 0 1.3076236203511458e-05 -3.688489966255153e-05 0 2.2748562489022736e-05 -3.9551928201225646e-05 0 1.8638039916264271e-05 -3.2242939940189539e-05 0 1.7407322370058024e-05 -3.8214066670587606e-05 0 1.4053004385876196e-05 -3.1264472539050448e-05 0 1.8638039916264271e-05 -3.2242939940189539e-05 0 1.7407322370058024e-05 -3.8214066670587606e-05 0 1.9578634357499816e-05 -4.5593703707082747e-05 0 2.2748562489022736e-05 -3.9551928201225646e-05 0 1.7407322370058024e-05 -3.8214066670587606e-05 0 1.7407322370058024e-05 -3.8214066670587606e-05 0 1.4904040239689497e-05 -4.1968946797353662e-05 0 1.3076236203511458e-05 -3.688489966255153e-05 0 1.9578634357499816e-05 -4.5593703707082747e-05 0 1.7407322370058024e-05 -3.8214066670587606e-05 0 1.4904040239689497e-05 -4.1968946797353662e-05 0 1.4904040239689497e-05 -4.1968946797353662e-05 0 1.3076236203511458e-05 -3.688489966255153e-05 0 1.0309886856472146e-05 -4.0224688719794553e-05 0 1.3076236203511458e-05 -3.688489966255153e-05 0 9.1106843290783515e-06 -3.3385995384919352e-05 0 1.0309886856472146e-05 -4.0224688719794553e-05 0 1.4053004385876196e-05 -3.1264472539050448e-05 0 1.3076236203511458e-05 -3.688489966255153e-05 0 9.1106843290783515e-06 -3.3385995384919352e-05 0 9.1106843290783515e-06 -3.3385995384919352e-05 0 1.0309886856472146e-05 -4.0224688719794553e-05 0 4.8681859492145772e-06 -3.6762054355306136e-05 0 1.6530570970317161e-05 -0.00010668316515894585 0 3.590284788389101e-05 -0.00011500483821621025 0 3.2519896566386594e-05 -9.5484365311886789e-05 0 2.0995738811153635e-05 -8.004332058724564e-05 0 1.8633344832907684e-05 -6.6132817748478832e-05 0 1.0309886856472146e-05 -4.0224688719794553e-05 0 6.2779119450412159e-06 -4.5059057597434705e-05 0 4.8681859492145772e-06 -3.6762054355306136e-05 0 2.2310705733591868e-05 -0.00012505462598671988 0 1.6530570970317161e-05 -0.00010668316515894585 0 3.590284788389101e-05 -0.00011500483821621025 0 1.6530570970317161e-05 -0.00010668316515894585 0 3.2519896566386594e-05 -9.5484365311886789e-05 0 1.7232393762884587e-05 -8.8567929541426396e-05 0 3.2519896566386594e-05 -9.5484365311886789e-05 0 1.7232393762884587e-05 -8.8567929541426396e-05 0 2.8871119944176724e-05 -7.6896861298870241e-05 0 9.1106843290783515e-06 -3.3385995384919352e-05 0 4.868185949214578e-06 -3.6762054355306136e-05 0 4.5447061257475497e-06 -2.8571488298710221e-05 0 1.8633344832907684e-05 -6.6132817748478832e-05 0 1.6737240342221798e-05 -5.2769001378389958e-05 0 1.7232393762884587e-05 -8.8567929541426396e-05 0 1.5858412635887539e-05 -6.885871539148971e-05 0 2.8871119944176724e-05 -7.6896861298870241e-05 0 5.5197091180323068e-06 -7.9258579408613067e-05 0 1.7232393762884587e-05 -8.8567929541426396e-05 0 1.5858412635887539e-05 -6.885871539148971e-05 0 2.4728410441272808e-05 -5.9182200008471492e-05 0 1.5858412635887539e-05 -6.885871539148971e-05 0 2.8871119944176724e-05 -7.6896861298870241e-05 0 8.2603676369966737e-06 -2.2845873428162514e-05 0 4.5447061257475497e-06 -2.8571488298710221e-05 0 1.0482671841473556e-05 -2.7585258985120206e-05 0 8.2603676369966737e-06 -2.2845873428162514e-05 0 1.1287326970893649e-05 -2.0798632163246432e-05 0 1.0482671841473556e-05 -2.7585258985120206e-05 0 1.4053004385876196e-05 -3.1264472539050448e-05 0 9.1106843290783515e-06 -3.3385995384919352e-05 0 1.0482671841473556e-05 -2.7585258985120206e-05 0 9.1106843290783515e-06 -3.3385995384919352e-05 0 4.5447061257475497e-06 -2.8571488298710221e-05 0 1.0482671841473556e-05 -2.7585258985120206e-05 0 
</DataArray>
</PointData>
<CellData Scalars="region_id,cross_section_updated,displacement_divergence," Vectors="" Tensors="effective_stress,">
<DataArray type="Float64" Name="region_id" format="ascii">
1 1 1 1 1 1 1 1 1 1 1 1 1 1 1 1 1 1 1 1 1 1 1 1 1 1 1 1 1 1 1 1 1 1 1 1 1 1 1 1 1 1 1 1 1 1 1 1 1 1 1 1 1 1 1 1 1 1 1 1 1 1 1 1 1 1 1 1 1 1 1 1 1 1 1 1 1 1 1 1 1 1 1 1 1 1 1 1 1 1 1 1 1 1 1 1 1 1 1 1 1 1 1 1 1 1 1 1 1 1 1 1 1 1 1 1 1 1 1 1 1 1 1 1 1 1 1 1 1 1 1 1 1 1 1 1 1 1 1 1 1 1 1 1 1 1 1 1 1 1 1 1 1 1 1 1 1 1 1 1 1 1 1 1 1 1 1 1 1 1 1 1 1 1 1 1 1 1 1 1 1 1 1 1 1 1 1 1 1 1 1 1 1 1 1 1 1 1 1 1 1 1 1 1 1 1 1 1 1 1 1 1 1 1 1 1 1 1 1 1 1 1 1 1 1 1 1 1 1 1 1 1 1 1 1 1 1 1 1 1 1 1 1 1 1 1 1 1 1 1 1 1 1 1 1 1 1 1 1 1 1 1 1 1 1 1 1 1 1 1 1 1 1 1 1 1 1 1 1 1 1 1 1 1 1 1 1 1 1 1 1 1 1 1 1 1 1 1 1 1 1 1 1 1 1 1 1 1 1 1 1 1 1 1 1 1 1 1 1 1 1 1 1 1 1 1 1 1 1 1 1 1 1 1 1 1 1 1 1 1 1 1 1 1 1 1 1 1 1 1 1 1 1 1 1 1 1 1 1 1 1 1 1 1 1 1 1 1 1 1 1 1 1 1 1 1 1 1 1 1 1 1 1 1 1 1 1 1 1 1 1 1 1 1 1 1 1 1 1 1 1 1 1 1 1 1 1 1 1 1 1 1 1 1 1 1 1 1 1 1 1 1 1 1 1 1 1 1 1 1 1 1 1 1 1 1 1 1 1 1 1 1 1 1 1 1 1 1 1 1 1 1 1 1 1 1 1 1 1 1 1 1 1 1 1 1 1 1 1 1 1 1 1 1 1 1 1 1 1 1 1 1 1 1 1 1 1 1 1 1 1 1 1 1 1 1 1 1 1 1 1 1 1 1 1 1 1 1 1 1 1 1 1 1 1 1 1 1 1 1 1 1 1 1 1 1 1 1 1 1 1 1 1 1 1 1 1 1 3 1 1 3 1 1 3 1 1 1 1 1 1 1 1 1 1 1 1 1 3 1 1 1 1 1 3 1 1 1 1 1 1 1 1 1 1 1 1 1 1 1 1 1 1 1 1 1 1 1 1 1 1 1 1 1 1 1 1 1 1 1 1 1 1 1 1 1 1 1 1 1 1 1 1 1 1 1 1 1 1 1 1 1 1 1 1 1 1 1 1 1 1 1 1 1 1 1 1 1 1 1 1 1 1 1 1 1 1 1 1 1 1 1 1 1 1 1 1 1 1 1 1 1 1 1 1 1 1 1 1 1 1 1 1 1 1 1 1 1 1 1 1 1 1 1 1 1 1 1 1 1 1 1 1 1 1 1 1 1 1 1 1 1 1 1 1 1 1 1 1 1 1 1 1 1 1 1 1 1 1 1 1 1 1 1 1 1 1 1 1 1 1 1 1 3 1 1 1 3 1 1 3 1 1 1 1 1 1 1 1 1 1 1 3 1 1 1 1 3 1 1 1 1 1 1 1 1 1 1 1 1 1 1 1 1 1 1 1 1 1 1 1 1 1 1 1 1 1 1 1 1 1 1 1 1 1 1 1 1 1 1 1 1 1 1 1 1 1 1 1 1 1 1 1 1 1 1 2 1 1 1 1 1 1 1 1 1 1 1 1 1 1 2 1 1 2 1 2 1 1 1 1 1 1 1 1 1 1 1 1 1 2 1 1 1 1 1 1 1 1 1 1 1 1 1 1 1 1 1 1 1 1 1 1 1 1 1 1 1 1 1 1 1 1 1 1 1 1 1 1 1 1 1 1 1 1 1 1 1 1 1 1 1 1 1 1 1 1 1 1 1 1 1 1 1 1 1 1 1 1 1 1 1 1 1 1 1 1 1 1 1 1 1 1 1 1 1 1 1 1 1 1 1 1 1 1 1 1 1 1 1 1 1 1 1 1 1 1 1 1 1 1 1 1 1 1 1 1 1 1 1 1 1 1 1 1 1 1 1 1 1 1 1 1 1 1 1 1 2 1 1 2 1 2 1 1 1 1 1 1 1 1 1 1 1 1 1 1 1 1 1 1 1 1 1 1 1 1 1 1 1 1 1 1 1 1 1 1 1 1 1 1 1 1 1 1 1 1 1 1 1 2 1 1 1 1 1 2 1 1 1 1 1 1 1 
</DataArray>
<DataArray type="Float64" Name="effective_stress" NumberOfComponents="9" format="ascii">
-0.053488304562685669 0.002218577545142774 0 0.002218577545142774 -0.0068935114244652925 0 0 0 -0.015095453996787743 -0.050239175366705142 0.0035429516437022273 0 0.0035429516437022273 -0.01671496692337221 0 0 0 -0.016738535572519336 -0.053789562922125257 0.0046655308894509966 0 0.0046655308894509966 0.0029460379362422212 0 0 0 -0.012710881246470761 -0.051001717851094606 0.0056182995186310663 0 0.0056182995186310663 -0.0074166571668679597 0 0 0 -0.014604593754490637 -0.041337498182597861 0.012342012871212917 0 0.012342012871212917 -0.013784613356618425 0 0 0 -0.013780527884804071 -0.04133019182696996 0.012348663719698942 0 0.012348663719698942 -0.01376093341595269 0 0 0 -0.013772781310730661 -0.04759209202390801 0.011868774064699513 0 0.011868774064699513 -0.0034149744583815336 0 0 0 -0.01275176662057239 -0.04955134154773929 0.010768266551075916 0 0.010768266551075916 -0.0045071769017109471 0 0 0 -0.013514629612362567 -0.045789628611056905 0.014047525537422147 0 0.014047525537422147 -0.0033815535507981456 0 0 0 -0.012292795540463766 -0.036313609058654994 0.0144936259327587 0 0.0144936259327587 -0.00075256540341766404 0 0 0 -0.0092665436155181628 -0.052625330041032627 0.014851817638199056 0 0.014851817638199056 -0.0016860548916112217 0 0 0 -0.01357784623316096 -0.035824563240264007 0.016297206622784208 0 0.016297206622784208 0.0011286195797203663 0 0 0 -0.0086739859151359067 -0.065099617975175161 0.011613891212009999 0 0.011613891212009999 -0.00076933822599588655 0 0 0 -0.016467239050292775 -0.050838330512564311 0.012390709306192554 0 0.012390709306192554 0.00082051514878824644 0 0 0 -0.012504453840944013 -0.077635889619306966 0.004478663643627704 0 0.004478663643627704 -0.002513411382219654 0 0 0 -0.020037325250381665 -0.063092134958204871 0.0057769844932482823 0 0.0057769844932482823 -0.00031023258929041867 0 0 0 -0.015850591886873822 -0.057730231168150195 0.0080477867418220911 0 0.0080477867418220911 0.0034869531634959209 0 0 0 -0.013560819501163571 -0.058431376431450355 0.011939510378590758 0 0.011939510378590758 -0.00095122702028485606 0 0 0 -0.014845650862933804 -0.0064743121225854221 0.017419406262323158 0 0.017419406262323158 -0.002154187031862609 0 0 0 -0.0021571247886120076 -0.01332412385694224 0.021077278238422481 0 0.021077278238422481 -0.0024099333952038171 0 0 0 -0.0039335143130365142 -0.015582881160433337 0.015947130527113971 0 0.015947130527113971 -0.0013336229969822307 0 0 0 -0.0042291260393538888 -0.028405554300675567 0.018655379506782799 0 0.018655379506782799 -0.0020122529085672483 0 0 0 -0.0076044518023107022 -0.030007993617058002 0.017018048226231208 0 0.017018048226231208 -0.0058565310512159879 0 0 0 -0.0089661311670684966 -0.018789816549386794 0.018838468941385855 0 0.018838468941385855 -0.0030815385513390664 0 0 0 -0.0054678387751814651 -0.019099054916569203 0.01664081552890152 0 0.01664081552890152 -0.0063733130705895136 0 0 0 -0.0063680919967896779 -0.031618056120611276 0.01862857196766577 0 0.01862857196766577 -0.00078835612618920192 0 0 0 -0.0081016030617001092 -0.033832431014665265 0.014499591378346669 0 0.014499591378346669 -0.0010412586997018353 0 0 0 -0.0087184224285917818 -0.028224151773627703 0.01596517576638044 0 0.01596517576638044 -0.0027803700083462585 0 0 0 -0.0077511304454934878 -0.012602236232536564 0.015684367516614652 0 0.015684367516614652 -0.00017127555438696193 0 0 0 -0.0031933779467308802 -0.013437662952737805 0.017307942016151098 0 0.017307942016151098 -0.001959516458084086 0 0 0 -0.0038492948527054684 -0.0059760364310739375 0.020281711003556038 0 0.020281711003556038 -0.0017750027039669103 0 0 0 -0.0019377597837602137 -0.0003994084433410483 0.015190622774383484 0 0.015190622774383484 0.00043700539498205127 0 0 0 9.3992379102507406e-06 -0.0016325151780040639 0.018164760022292944 0 0.018164760022292944 -0.0010164921210878558 0 0 0 -0.00066225182477296779 -0.0021696335713435877 0.013760219650736462 0 0.013760219650736462 0.00066346702087759224 0 0 0 -0.00037654163761649539 -0.014852635346959202 0.018946240088782262 0 0.018946240088782262 -0.00038954866048764025 0 0 0 -0.0038105460018617102 -0.033895279252203717 0.018714602346121042 0 0.018714602346121042 -0.00031870818510831844 0 0 0 -0.0085534968593280088 -0.027375972159950763 0.018773565834380678 0 0.018773565834380678 -0.0007592347940951899 0 0 0 -0.0070338017385114891 -0.018180402572834216 0.015128435023509636 0 0.015128435023509636 0.0012049978822954582 0 0 0 -0.0042438511726346877 -0.034104501462617814 0.015310741246481172 0 0.015310741246481172 0.0017354586372422959 0 0 0 -0.0080922607063438796 -0.037902176311370925 0.018643372483666348 0 0.018643372483666348 0.00043580388301120432 0 0 0 -0.0093665931070899371 -0.027451035330373592 0.014547593265986003 0 0.014547593265986003 0.00096143017037187035 0 0 0 -0.0066224012900004299 -0.019658008332655866 0.019025216341434469 0 0.019025216341434469 0.0027785633191936415 0 0 0 -0.0042198612533655578 -0.019842628919015528 0.014834199151363405 0 0.014834199151363405 0.0030162052587350031 0 0 0 -0.0042066059150701347 -0.0051010224545321812 0.01401352897578844 0 0.01401352897578844 0.0023143369204950172 0 0 0 -0.00069667138350929447 -0.018116821408942965 0.019169480652360411 0 0.019169480652360411 0.00065588509794749228 0 0 0 -0.0043652340777488655 -0.014082185462085213 0.012580936736386827 0 0.012580936736386827 0.0045069299939142328 0 0 0 -0.002393813867042743 0.0078768881837355548 0.012930380340850599 0 0.012930380340850599 0.0023649976032714889 0 0 0 0.0025604714467517622 -0.0029874354574398396 0.016576414111037541 0 0.016576414111037541 0.0027375278537380282 0 0 0 -6.2476900925451107e-05 -0.076254807458678575 0.0051394599890354324 0 0.0051394599890354324 -0.0029137618028069814 0 0 0 -0.019792142315371387 -0.060834143704334043 0.013524940064138026 0 0.013524940064138026 4.8562943516378132e-05 0 0 0 -0.015196395190204409 -0.090832930527808026 0.0071455204263889127 0 0.0071455204263889127 -0.00036512196012738031 0 0 0 -0.022799513121983857 -0.062485142707309385 0.0098175061398269488 0 0.0098175061398269488 0.0023979607596998145 0 0 0 -0.015021795486902389 -0.048039047039114741 0.013842485385413689 0 0.013842485385413689 0.0016769927124408515 0 0 0 -0.011590513581668474 -0.049616532786022724 0.015429482596315713 0 0.015429482596315713 -0.00052423906136121051 0 0 0 -0.012535192961845977 -0.050646319971611946 0.017305819721758504 0 0.017305819721758504 -0.00024523342835560541 0 0 0 -0.012722888349991874 -0.058219032665273514 0.011674398049992497 0 0.011674398049992497 0.0017266475526110207 0 0 0 -0.014123096278165614 -0.041249904475072416 0.014127628075589545 0 0.014127628075589545 0.00047834173422652698 0 0 0 -0.01019289068521146 -0.060519297996109049 0.015947478134953685 0 0.015947478134953685 -4.00542258575734e-05 0 0 0 -0.015139838055491669 -0.047827868326316421 0.012415970082852836 0 0.012415970082852836 0.00019424215611044647 0 0 0 -0.011908406542551495 -0.059247466581417767 0.012134084508182813 0 0.012134084508182813 0.0015890022106726139 0 0 0 -0.014414616092686287 -0.081781464851879357 0.0091697747947213203 0 0.0091697747947213203 -0.00025199975967745217 0 0 0 -0.020508366152889205 -0.078311055372322802 0.0096074559951354992 0 0.0096074559951354992 -0.0007990645032076465 0 0 0 -0.019777529968882615 -0.076113929623826099 0.0059252939216988864 0 0.0059252939216988864 0.00092594844369091626 0 0 0 -0.018796995295033789 -0.10281872509595888 0.0068541930939785799 0 0.0068541930939785799 -0.00054995990752294832 0 0 0 -0.025842171250870453 -0.10872774307833986 0.0057237229903906173 0 0.0057237229903906173 -0.00034311615608147855 0 0 0 -0.027267714808605334 -0.079809073063109914 0.0075879017731397269 0 0.0075879017731397269 0.0024253843770384413 0 0 0 -0.019345922171517857 -0.090743173004318459 0.0048067146527822208 0 0.0048067146527822208 0.0016627585523124946 0 0 0 -0.022270103613001472 -0.12436502706463627 0.0036777081329039396 0 0.0036777081329039396 0.0023475824262360473 0 0 0 -0.030504361159600049 -0.094213301488986947 0.010819271909082447 0 0.010819271909082447 0.00359537689991829 0 0 0 -0.022654481147267112 -0.091252055924977107 0.0016192029601786728 0 0.0016192029601786728 0.00023736376136655746 0 0 0 -0.022753673040902648 -0.099397261637106216 0.004017139934331844 0 0.004017139934331844 0.0042668603108358405 0 0 0 -0.023782600331567594 -0.13733890528441037 -0.00068537472017971002 0 -0.00068537472017971002 -0.00052373688222806525 0 0 0 -0.034465660541659601 -0.056513161464184836 0.0043553434198661256 0 0.0043553434198661256 0.0074368866785805773 0 0 0 -0.012269068696401052 -0.047454611049545799 0.014972484482797491 0 0.014972484482797491 0.005368484973782145 0 0 0 -0.010521531518940939 -0.070932650400300098 0.00998142791027622 0 0.00998142791027622 0.00050737360101777568 0 0 0 -0.017606319199820565 -0.069704193804547523 0.010852956614287652 0 0.010852956614287652 0.0041099414002493534 0 0 0 -0.016398563101074546 -0.047488913350339168 0.016420350706114389 0 0.016420350706114389 0.0037908279908015772 0 0 0 -0.010924521339884393 -0.081951820076094889 0.015312069930165787 0 0.015312069930165787 0.00452251592351674 0 0 0 -0.01935732603814453 -0.068068066951135986 0.0098255121741807078 0 0.0098255121741807078 0.00023334277277792768 0 0 0 -0.016958681044589519 -0.06150496169945744 0.016150380199435242 0 0.016150380199435242 0.0024950820715246638 0 0 0 -0.014752469906983187 -0.043803484197050852 0.017214472523293226 0 0.017214472523293226 0.0025358087976568092 0 0 0 -0.010316918849848521 -0.028998434207326729 0.016047429216007755 0 0.016047429216007755 0.0026970937882650637 0 0 0 -0.0065753351047654097 -0.028444824988192473 0.013321258760672311 0 0.013321258760672311 0.0042590175301079961 0 0 0 -0.0060464518645211175 -0.026010416849661089 0.012049522434561824 0 0.012049522434561824 0.0077949176820571175 0 0 0 -0.0045538747919009921 -0.01338706789703544 0.015736054055143531 0 0.015736054055143531 0.0039711974864911105 0 0 0 -0.0023539676026360827 -0.046649943163653958 0.013062789740219603 0 0.013062789740219603 0.0042550086456382315 0 0 0 -0.010598733629503943 -0.00020109645185432956 0.011671443871631812 0 0.011671443871631812 0.0075493614897896855 0 0 0 0.001837066259483839 -0.0038697633845015903 0.016763040267165474 0 0.016763040267165474 0.0024773550081579818 0 0 0 -0.00034810209408590344 -0.010228314773145883 0.010513446816791802 0 0.010513446816791802 0.009219638833290137 0 0 0 -0.00025216898496393126 0.0091471006592662527 0.0056369871794891731 0 0.0056369871794891731 0.012322966506367784 0 0 0 0.0053675167914085092 0.0045013232598717558 0.013657469527438414 0 0.013657469527438414 0.0069498190384223446 0 0 0 0.0028627855745735255 -0.0076098742624044063 0.010009677581047885 0 0.010009677581047885 0.014835335838939936 0 0 0 0.0018063653941338895 0.011149081553019587 0.0062330384265072147 0 0.0062330384265072147 0.014394210755908576 0 0 0 0.006385823077232046 0.011485867557995508 0.0048900891466868539 0 0.0048900891466868539 0.02341343583892988 0 0 0 0.0087248258492313435 -0.027821534635987362 0.01600742538804073 0 0.01600742538804073 0.0055261571598046316 0 0 0 -0.0055738443690456704 -0.038849474435047882 0.0084104658853498687 0 0.0084104658853498687 0.0066701435925106828 0 0 0 -0.0080448327106343032 -0.0090382789207876651 0.010931250118247256 0 0.010931250118247256 0.0074644910740165049 0 0 0 -0.00039344696169279353 -0.019439934031534434 0.0056839405971294832 0 0.0056839405971294832 0.011774968081542034 0 0 0 -0.0019162414874981087 -0.025780036792332067 0.014587287484347435 0 0.014587287484347435 0.012365943850708827 0 0 0 -0.003353523235405817 -0.037189976816972961 0.012606483304114471 0 0.012606483304114471 0.014642685690692464 0 0 0 -0.0056368227815701416 -0.022768469053365034 0.0056822123081182591 0 0.0056822123081182591 0.028986863807473617 0 0 0 0.0015545986885271701 -0.034939040868604665 -0.0014075309226835309 0 -0.0014075309226835309 0.015242226628807198 0 0 0 -0.0049242035599493528 0.034483246270566127 -0.001498193676871297 0 -0.001498193676871297 0.027134479938562203 0 0 0 0.015404431552282084 -0.0120877230196779 0.010090733984206804 0 0.010090733984206804 0.021407601544323335 0 0 0 0.0023299696311613327 0.0043979792303244676 0.0017608732353818213 0 0.0017608732353818213 0.022244560430003904 0 0 0 0.0066606349150820955 0.009395055920101883 0.0041417822139114199 0 0.0041417822139114199 0.036892940042961564 0 0 0 0.011571998990765858 0.026811908167095805 -0.0077073950730560392 0 -0.0077073950730560392 0.039264679991366902 0 0 0 0.01651914703961567 0.00410948519686824 -0.0019383407692048493 0 -0.0019383407692048493 0.054079654683899414 0 0 0 0.014547284970191893 0.0011396894488888143 -0.016075794459169485 0 -0.016075794459169485 0.05025665563631887 0 0 0 0.012849086271301879 0.012036904254680514 -0.022369203407657245 0 -0.022369203407657245 0.043934211721614463 0 0 0 0.013992778994073751 0.029388425107789828 -0.012763063528986651 0 -0.012763063528986651 0.081184592487380081 0 0 0 0.027643254398792477 -0.030647468138305156 -0.0080856722762118194 0 -0.0080856722762118194 0.033319239725457139 0 0 0 0.00066794289678800967 -0.0063939982019826577 -0.006079600219274367 0 -0.006079600219274367 0.026084695423823412 0 0 0 0.0049226743054601799 -0.0077158983205293658 -0.020858975466417629 0 -0.020858975466417629 0.031181052239831031 0 0 0 0.0058662884798254683 -0.036349699354796705 -0.0036061979132736227 0 -0.0036061979132736227 0.017031086314662436 0 0 0 -0.0048296532600335673 -0.041296543426308216 -0.01645176833086559 0 -0.01645176833086559 0.0195970203961989 0 0 0 -0.0054248807575272701 -0.062632078022752183 -0.0079695022321261688 0 -0.0079695022321261688 0.013873572014066748 0 0 0 -0.012189626502171327 -0.073245380156003598 0.0024150792206982519 0 0.0024150792206982519 0.0072804744700540741 0 0 0 -0.016491226421487391 -0.084937578559773783 -0.013414285349306887 0 -0.013414285349306887 0.010935603813916422 0 0 0 -0.018500493686464323 -0.09746066362159958 0.00012768071092414401 0 0.00012768071092414401 0.0033549255250749366 0 0 0 -0.023526434524131112 -0.13950233331723857 -0.0019307383791286603 0 -0.0019307383791286603 0.0047756840900682884 0 0 0 -0.033681662306792592 -0.10425573639282659 0.0022311546414180705 0 0.0022311546414180705 0.003795991029205581 0 0 0 -0.025114936340905281 -0.10097321204731631 -0.0041702549111363035 0 -0.0041702549111363035 0.0046363105834822393 0 0 0 -0.024084225365958528 -0.1080917283906221 -0.0019493417871683377 0 -0.0019493417871683377 0.00024624858869304322 0 0 0 -0.026961369950482261 -0.090945766235391357 0.008643833725680769 0 0.008643833725680769 0.0038880974548237135 0 0 0 -0.021764417195141911 -0.14238247801546283 0.003624460555872594 0 0.003624460555872594 0.0015169493393218658 0 0 0 -0.035216382169035214 -0.10561817997938615 0.0091716072379124658 0 0.0091716072379124658 0.0031873531886117412 0 0 0 -0.025607706697693605 -0.070550084544768465 0.012201558144945335 0 0.012201558144945335 0.0075687899051955498 0 0 0 -0.015745323659893215 -0.053517978040925895 0.0077498510405909771 0 0.0077498510405909771 0.01275121205292673 0 0 0 -0.010191691496999777 -0.07483232750866689 -0.00077447681153078318 0 -0.00077447681153078318 0.0076136655170779312 0 0 0 -0.016804665497897251 0.028443066747244693 -0.0051346197597488298 0 -0.0051346197597488298 0.071834544048025556 0 0 0 0.025069402698817571 0.026927374866801711 -0.0075455555042946787 0 -0.0075455555042946787 0.059465545636069372 0 0 0 0.021598230125717773 0.026561174801777779 -0.0098338605298671968 0 -0.0098338605298671968 0.05298744157627612 0 0 0 0.019887154094513471 0.02286890574201483 -0.0017529962188542886 0 -0.0017529962188542886 0.06160032095442862 0 0 0 0.021117306674110877 0.030271872092075221 0.0063842385925774545 0 0.0063842385925774545 0.067063135955058611 0 0 0 0.024333752011783442 0.033291423021856351 0.0044761402040437749 0 0.0044761402040437749 0.079242509979471895 0 0 0 0.028133483250332072 0.024009197954338889 -0.0051572205825761511 0 -0.0051572205825761511 0.077313089694553125 0 0 0 0.025330571912222981 0.022373072117667633 -0.0040191662283198953 0 -0.0040191662283198953 0.074292957772529034 0 0 0 0.024166507472549156 0.029573832919858663 -0.0054540620669937881 0 -0.0054540620669937881 0.073317429913272614 0 0 0 0.02572281570828281 0.027230139236791594 -0.0040081861250391287 0 -0.0040081861250391287 0.069330203046576194 0 0 0 0.024140085570841928 0.014382251923696944 -0.0033887190165275971 0 -0.0033887190165275971 0.068899094442693903 0 0 0 0.020820336591597703 0.022676972998300168 -0.0070956484979734051 0 -0.0070956484979734051 0.075087247047704808 0 0 0 0.024441055011501241 0.018328502278135237 -0.0090078518057499224 0 -0.0090078518057499224 0.071596930253980978 0 0 0 0.022481358133029043 0.02061987108496019 -0.014142527506050028 0 -0.014142527506050028 0.077057007182788073 0 0 0 0.024419219566937073 0.020493566761026642 -0.00680421290988871 0 -0.00680421290988871 0.089005399261235518 0 0 0 0.027374741505565535 0.068141266140894191 -0.058081777000911383 0 -0.058081777000911383 0.13881823658688514 0 0 0 0.051739875681944825 0.0097156711368625304 -0.030641725621418189 0 -0.030641725621418189 0.086813409591200846 0 0 0 0.024132270182015844 0.06155256564997056 -0.037652939176592362 0 -0.037652939176592362 0.07669657840745725 0 0 0 0.034562286014356965 0.011298980297224981 -0.013773210124416277 0 -0.013773210124416277 0.077350807500016078 0 0 0 0.022162446949310258 0.071036808975759258 -0.011137398836780124 0 -0.011137398836780124 0.12075575691738399 0 0 0 0.047948141473285799 0.055033789717489595 -0.024454352220839054 0 -0.024454352220839054 0.065870239083580473 0 0 0 0.030226007200267524 0.10242206201351478 -0.031524068934203758 0 -0.031524068934203758 0.084351659977906723 0 0 0 0.046693430497855348 0.046142042493480542 -0.021769175971049576 0 -0.021769175971049576 0.064537887943703659 0 0 0 0.027669982609296078 0.033434109255935429 -0.0041458832151835268 0 -0.0041458832151835268 0.062953119078272363 0 0 0 0.024096807083551941 0.063611594319055553 -0.014895559971035838 0 -0.014895559971035838 0.049417982820190026 0 0 0 0.028257394284811402 0.031139844325242087 -0.005809157919942895 0 -0.005809157919942895 0.04080440625497752 0 0 0 0.017986062645054899 0.041236283638040494 -0.0068216887532251344 0 -0.0068216887532251344 0.029848774301681577 0 0 0 0.017771264484930525 0.030773878574068714 -0.021122287003120473 0 -0.021122287003120473 0.067285436995612707 0 0 0 0.024514828892420348 0.026787128089456012 -0.02132376148345809 0 -0.02132376148345809 0.051215501489533077 0 0 0 0.019500657394747274 0.043285654923569616 -0.018870123077265016 0 -0.018870123077265016 0.056527512283845623 0 0 0 0.024953291801853818 0.028212562255722731 -0.0095229857813735504 0 -0.0095229857813735504 0.031040940484116146 0 0 0 0.014813375684959719 0.033861409430605158 -0.0099506491421398266 0 -0.0099506491421398266 0.053435604314565149 0 0 0 0.021824253436292573 0.032466297058905157 -0.0075761730006717373 0 -0.0075761730006717373 0.034581076884573125 0 0 0 0.016761843485869565 0.03177458320918327 0.002720598461917802 0 0.002720598461917802 0.030567388593705495 0 0 0 0.015585492950722197 0.027248179662009236 -0.00029876260374490579 0 -0.00029876260374490579 0.018156610731290414 0 0 0 0.011351197598324911 0.0261984477749274 -0.002838361090062351 0 -0.002838361090062351 0.028966875386775719 0 0 0 0.013791330790425773 0.03182637745243596 -0.0034621409136165052 0 -0.0034621409136165052 0.022525771293067022 0 0 0 0.013588037186375747 0.026772780572940878 0.0037829914641876175 0 0.0037829914641876175 0.024410939989456638 0 0 0 0.012795930140599366 0.015900331497396721 0.0088890974100829176 0 0.0088890974100829176 0.016146381600326505 0 0 0 0.008011678274430804 0.023553106524184346 0.0018432234577799621 0 0.0018432234577799621 0.014598431058524455 0 0 0 0.009537884395677201 0.020984194721157513 0.010340268272668471 0 0.010340268272668471 0.012569788600887507 0 0 0 0.0083884958305112545 0.016239250802089055 0.0076668511539898761 0 0.0076668511539898761 0.0077595828648975018 0 0 0 0.0059997084167466366 0.010060001030513242 0.014017961855086736 0 0.014017961855086736 0.0065454232374040477 0 0 0 0.004151356066979325 0.030940975308653154 0.0020895764808913147 0 0.0020895764808913147 0.021189687279419056 0 0 0 0.013032665647018049 0.029183372906795478 0.00039660391444556499 0 0.00039660391444556499 0.01910720315081461 0 0 0 0.012072644014402516 0.027623030059254768 0.0068164478286519281 0 0.0068164478286519281 0.017170464021580255 0 0 0 0.011198373520208756 0.024924428254366783 0.0053641599460023288 0 0.0053641599460023288 0.013985401843483833 0 0 0 0.0097274575244626557 0.03090194871995227 0.0036542370645181754 0 0.0036542370645181754 0.02350359836841865 0 0 0 0.013601386772092723 0.033971545806904604 0.010071637148223452 0 0.010071637148223452 0.015253435314271528 0 0 0 0.012306245280294045 0.041107712201957608 0.01070650104241298 0 0.01070650104241298 0.023521685688884696 0 0 0 0.016157349472710587 0.041593939775197888 0.0098166940319048771 0 0.0098166940319048771 0.020512477631079516 0 0 0 0.015526604351569353 0.035073166710787196 0.0037390529243717125 0 0.0037390529243717125 0.026725158393374908 0 0 0 0.015449581276040519 0.035394922175605324 0.0036889371244541382 0 0.0036889371244541382 0.034717184998108788 0 0 0 0.017528026793428526 0.030531248183452181 0.00092731853907271518 0 0.00092731853907271518 0.030904895034379997 0 0 0 0.015359035804458033 0.036368676822099641 0.0020245341441600139 0 0.0020245341441600139 0.048159591013052505 0 0 0 0.021132066958788026 0.039453903045172871 0.0075071928242882568 0 0.0075071928242882568 0.03698021757955746 0 0 0 0.019108530156182604 0.027755639661225989 -0.00046574183120146832 0 -0.00046574183120146832 0.044107742893995466 0 0 0 0.017965845638805357 0.032414489315408399 -0.0028889861266031477 0 -0.0028889861266031477 0.059081478654328244 0 0 0 0.02287399199243419 0.027537692627590662 -0.0064101431909354654 0 -0.0064101431909354654 0.040824869065092834 0 0 0 0.017090640423170864 0.042591065257352914 0.012221695505083422 0 0.012221695505083422 0.073661534593505398 0 0 0 0.029063149962714582 0.031764765031006566 0.0063658222876691673 0 0.0063658222876691673 0.050567545371046782 0 0 0 0.020583077600513346 0.036248557660957401 0.0040050608725595233 0 0.0040050608725595233 0.064743948458285475 0 0 0 0.025248126529810719 0.039498783091960157 0.0080780708924930791 0 0.0080780708924930791 0.038276888307865221 0 0 0 0.019443917849956333 0.043976807903865558 0.013277690962805943 0 0.013277690962805943 0.048432333032916275 0 0 0 0.023102285234195472 0.045217966208246758 0.012718820487577883 0 0.012718820487577883 0.051536919421841951 0 0 0 0.024188721407522182 0.047436197838578095 0.013345755264362706 0 0.013345755264362706 0.027214372912726936 0 0 0 0.018662642687826261 0.048099051968325403 0.013953838290427387 0 0.013953838290427387 0.031587269372863595 0 0 0 0.01992158033529725 0.056294408241682387 0.016680614162059293 0 0.016680614162059293 0.023262148698617646 0 0 0 0.019889139235075005 0.054191444533914696 0.014860088544087068 0 0.014860088544087068 0.014023208070022414 0 0 0 0.01705366315098427 0.047849839857812965 0.011391901730287261 0 0.011391901730287261 0.0067551841770362719 0 0 0 0.013651256008712313 0.047244958355580263 0.013887335470269649 0 0.013887335470269649 0.016950932292594631 0 0 0 0.016048972662043706 0.048477225979200358 0.012251378784962894 0 0.012251378784962894 0.015481793097971326 0 0 0 0.015989754769292906 0.035713538005106252 0.0075946860198612964 0 0.0075946860198612964 0.015478500350728064 0 0 0 0.012798009588958586 0.036803090796543043 0.011530234202129286 0 0.011530234202129286 0.0088124743352960971 0 0 0 0.01140389128295978 0.042168008588240755 0.012139478397981088 0 0.012139478397981088 0.010156120879361352 0 0 0 0.013081032366900523 0.043489140234940452 0.01237597549595101 0 0.01237597549595101 0.014413177680593033 0 0 0 0.014475579478883388 0.044519117303466062 0.01089899932158008 0 0.01089899932158008 0.0046943602454139755 0 0 0 0.012303369387220011 0.04423330721936674 0.012920754854054549 0 0.012920754854054549 0.0039818725887898893 0 0 0 0.012053794952039157 0.035903261101283487 0.011942382337229131 0 0.011942382337229131 0.0037614653579138568 0 0 0 0.0099161816147993395 0.05064071944178547 0.012030952382407631 0 0.012030952382407631 0.002731031286182635 0 0 0 0.013342937681992028 0.049955582873127236 0.0096746365280961852 0 0.0096746365280961852 0.0015178167304257528 0 0 0 0.012868349900888244 0.056921545097299839 0.011395759869488244 0 0.011395759869488244 0.0035621310675743867 0 0 0 0.015120919041218556 0.052650952843438729 0.010384607147460109 0 0.010384607147460109 0.0027369897223627274 0 0 0 0.013846985641450371 0.049909048196492244 0.012826699939253949 0 0.012826699939253949 0.0071309537772829184 0 0 0 0.014260000493443784 0.0098172795507810613 0.013224953209450793 0 0.013224953209450793 0.0085495432977301528 0 0 0 0.0045917057121278061 0.019851716437786764 0.011459974765463007 0 0.011459974765463007 0.0039969123466671586 0 0 0 0.0059621571961134788 0.010431405361684874 0.014343208025593364 0 0.014343208025593364 0.0039969538029781815 0 0 0 0.0036070897911657553 0.026507285720858208 0.01066053660682819 0 0.01066053660682819 0.0024558743957212997 0 0 0 0.0072407900291448883 0.022015047970711851 0.012275906579718474 0 0.012275906579718474 0.0099232153492500169 0 0 0 0.0079845658299904643 0.027475819275173848 0.01127983749983677 0 0.01127983749983677 0.0086383711058915999 0 0 0 0.0090285475952663671 0.030031048365658175 0.0077722014544528706 0 0.0077722014544528706 0.0086533085024829565 0 0 0 0.0096710892170353037 0.031174668681292751 0.013318480663361623 0 0.013318480663361623 0.011486573538998377 0 0 0 0.01066531055507278 0.034566396186001082 0.010352891311446078 0 0.010352891311446078 0.0038254152819320875 0 0 0 0.0095979528669832906 0.028954388762353796 0.010972894540041751 0 0.010972894540041751 0.0045481687937034276 0 0 0 0.0083756393890143006 0.035475649460763592 0.01366197632990462 0 0.01366197632990462 0.0023751787270867228 0 0 0 0.0094627070469625752 0.024847313655681047 0.014522388226635326 0 0.014522388226635326 0.0056043013411643007 0 0 0 0.0076129037492113343 0.02263422142540724 0.013068701725691993 0 0.013068701725691993 0.0020384157825689142 0 0 0 0.0061681593019940403 0.01191302049083395 0.013899660387104641 0 0.013899660387104641 0.0020862835994749085 0 0 0 0.003499826022577212 0.010107124226640583 0.016616357993981423 0 0.016616357993981423 0.00086872160516948682 0 0 0 0.0027439614579525193 0.0096994128720294427 0.014157798981235672 0 0.014157798981235672 0.0017335341525237247 0 0 0 0.002858236756138291 0.00035952678091882156 0.017179030829546513 0 0.017179030829546513 0.0010960536827745587 0 0 0 0.00036389511592334334 0.0070023816331563965 0.018835103452500279 0 0.018835103452500279 6.2411208399967269e-05 0 0 0 0.0017661982103890921 -0.00076248060431292897 0.016339731298580608 0 0.016339731298580608 0.0020043546167236859 0 0 0 0.00031046850310269963 0.0075297267665274756 0.014214506663129803 0 0.014214506663129803 -6.3478173908351754e-05 0 0 0 0.0018665621481547719 0.017738149884042147 0.016754062276561732 0 0.016754062276561732 0.0014150261832855671 0 0 0 0.0047882940168319284 0.016048276640536079 0.014617704399707034 0 0.014617704399707034 0.0013981852764966204 0 0 0 0.0043616154792581741 0.019564802505861196 0.017417442246072751 0 0.017417442246072751 0.0014519039755170361 0 0 0 0.0052541766203445537 0.025107166127997693 0.012582659520705091 0 0.012582659520705091 0.0014013195072189455 0 0 0 0.0066271214088041604 0.026823121214391253 0.014125116455051613 0 0.014125116455051613 0.003008615360324346 0 0 0 0.0074579341436789015 0.034741570787299413 0.014546169033248995 0 0.014546169033248995 0.0013160907527896698 0 0 0 0.0090144153850222689 0.027131610092881644 0.013169634622489436 0 0.013169634622489436 0.005213073787541038 0 0 0 0.008086170970105673 0.023538009009258294 0.018053128674663597 0 0.018053128674663597 0.0031000758447014415 0 0 0 0.0066595212134899322 0.020391873939468539 0.015680158210716305 0 0.015680158210716305 0.0067974102559686346 0 0 0 0.0067973210488592936 0.012235689614202905 0.0204013646173095 0 0.0204013646173095 0.0011371808477990408 0 0 0 0.0033432176155004864 0.0072301154271755368 0.016865580896262739 0 0.016865580896262739 0.002407544346211949 0 0 0 0.002409414943346871 -8.2366664546872775e-05 0.0215880371597027 0 0.0215880371597027 -0.0014645870374110428 0 0 0 -0.00038673842548947457 0.048942861874883899 0.0091199180164688934 0 0.0091199180164688934 0.0038197272298267915 0 0 0 0.013190647276177676 0.050906020170494851 0.010199691910637613 0 0.010199691910637613 0.00154829858755752 0 0 0 0.013113579689513093 0.043296720995220153 0.011403131500641489 0 0.011403131500641489 0.0022436308499745698 0 0 0 0.011385087961298689 0.043432680192589578 0.012152420205613973 0 0.012152420205613973 0.0017406208261846502 0 0 0 0.011293325254693556 0.035892834155725126 0.012267044443791409 0 0.012267044443791409 0.0039259728757028954 0 0 0 0.0099547017578570044 0.040975129569195051 0.011840297364948023 0 0.011840297364948023 0.0046716849838623481 0 0 0 0.01141170363826435 0.03217960205883294 0.013541780853742191 0 0.013541780853742191 0.010720548022434257 0 0 0 0.010725037520316798 0.03250983216077806 0.015341665901441688 0 0.015341665901441688 0.0064842528274322185 0 0 0 0.0097485212470525672 0.039277976549646772 0.011840495895507086 0 0.011840495895507086 0.013090813364025008 0 0 0 0.013092197478417944 0.039813015476387034 0.011756575726762281 0 0.011756575726762281 0.0068577777293596827 0 0 0 0.01166769830143668 0.048399532871768333 0.0082082966370898101 0 0.0082082966370898101 0.0079876658034583048 0 0 0 0.014096799668806656 0.044471596467599843 0.010372196902424555 0 0.010372196902424555 0.0030436244124960044 0 0 0 0.011878805220023958 0.042781318870057393 0.0097344068083597343 0 0.0097344068083597343 0.0075507928210460165 0 0 0 0.012583027922775852 0.043884893674710768 0.0093678655183896085 0 0.0093678655183896085 0.014626675673472807 0 0 0 0.014627892337045893 0.04667096384897098 0.0059258503656324166 0 0.0059258503656324166 0.0057036024611444944 0 0 0 0.013093641577528868 0.050551080485999197 0.0029402314925726803 0 0.0029402314925726803 0.016839452128806026 0 0 0 0.016847633153701306 0.046043855921499961 0.001306606036977418 0 0.001306606036977418 0.0038255425602859603 0 0 0 0.01246734962044648 0.054298448505025673 0.0011078659880138597 0 0.0011078659880138597 0.005910971025238132 0 0 0 0.015052354882565951 0.053627773880728341 0.0043284756529455249 0 0.0043284756529455249 0.0037616332533313129 0 0 0 0.014347351783514914 0.054739042602675009 0.0062099204246295839 0 0.0062099204246295839 0.0020002586804558839 0 0 0 0.014184825320782725 0.05213486881140747 0.0032915476152158996 0 0.0032915476152158996 -0.00038186406869882678 0 0 0 0.012938251185677162 0.059202813033501722 0.0036016670339926514 0 0.0036016670339926514 0.0018493629708446592 0 0 0 0.015263044001086599 0.054823837309665446 0.0057492675796790658 0 0.0057492675796790658 -0.0023393328254176764 0 0 0 0.01312112612106194 0.056445744489509939 0.001049773457693286 0 0.001049773457693286 -0.0054020540707580824 0 0 0 0.012760922604687955 0.052138452501917065 -0.0056577279138896406 0 -0.0056577279138896406 -0.0063243891032031749 0 0 0 0.011453515849678471 0.05530141843382011 -0.001614371909833716 0 -0.001614371909833716 1.9113783863145689e-05 0 0 0 0.013830133054420811 0.052242581772304529 -0.0010374107281925745 0 -0.0010374107281925745 0.0013687065927730866 0 0 0 0.013402822091269397 0.049974810732091569 -0.001487119146294667 0 -0.001487119146294667 0.016661320627735836 0 0 0 0.016659032839956851 0.04917383375260214 -0.005628222026461285 0 -0.005628222026461285 0.016377711059471618 0 0 0 0.01638788620301844 0.045344359799429301 -0.0048305737574788057 0 -0.0048305737574788057 0.0043551111040961077 0 0 0 0.012424867725881352 0.040903638444331557 -0.011779909774121107 0 -0.011779909774121107 0.013631003104043856 0 0 0 0.013633660387093849 0.04964220304146854 -0.0070189987064597868 0 -0.0070189987064597868 0.0035336276199566395 0 0 0 0.013293957665356293 0.038935961334641903 -0.011722626131881346 0 -0.011722626131881346 -0.00074152012633679071 0 0 0 0.009548610302076278 0.024927644941951363 -0.017448159991733686 0 -0.017448159991733686 0.0083011516413417936 0 0 0 0.0083071991458232904 0.026992110493635653 -0.019697978764421694 0 -0.019697978764421694 -0.0046055105739342336 0 0 0 0.0055966499799253513 0.012028727777491633 -0.025351101671818841 0 -0.025351101671818841 -0.0061622864868509653 0 0 0 0.0014666103226601661 0.026663752846926309 -0.020021021428599274 0 -0.020021021428599274 -0.010976673575504914 0 0 0 0.003921769817855348 0.032389016735707543 -0.015417391346770837 0 -0.015417391346770837 -0.0070391581971925854 0 0 0 0.0063374646346287429 0.039905681818736424 -0.012552646548216233 0 -0.012552646548216233 -0.0014374850913678795 0 0 0 0.0096170491818421324 0.021314223554645864 -0.018834165741816705 0 -0.018834165741816705 -0.0067507441390906725 0 0 0 0.0036408698538887979 0.03915072573229509 -0.012845585966538939 0 -0.012845585966538939 -0.0073274635553165074 0 0 0 0.0079558155442446404 0.051591947322467045 -0.0074783117424814059 0 -0.0074783117424814059 -0.0095104242992846075 0 0 0 0.010520380755795606 0.054159989892229393 -0.0037659009821153153 0 -0.0037659009821153153 -0.0037381966467146845 0 0 0 0.012605448311378685 0.056513019863492338 -0.0054859748921277634 0 -0.0054859748921277634 -0.0062666825207725353 0 0 0 0.012561584335679957 0.055122181892178844 -0.004719996355229801 0 -0.004719996355229801 -0.010036006347161189 0 0 0 0.011271543886254407 0.067851850216322659 0.00028345749608160785 0 0.00028345749608160785 -0.0077493846379978418 0 0 0 0.015025616394581201 0.045192398481785634 -0.013757663293983147 0 -0.013757663293983147 -0.013242774608023047 0 0 0 0.0079874059684406536 0.03499168202528808 -0.019364810972616074 0 -0.019364810972616074 -0.011562507689843737 0 0 0 0.0058572935838610909 0.045185102861875243 -0.013107597013761789 0 -0.013107597013761789 -0.010205812998684005 0 0 0 0.0087448224657978024 0.04891568202850978 -0.00904043264177826 0 -0.00904043264177826 -0.008948763405600739 0 0 0 0.0099917296557272481 0.027148474616327547 -0.0195578641548197 0 -0.0195578641548197 -0.013926377171528181 0 0 0 0.003305524361199845 0.045782447375580744 -0.019950483942701044 0 -0.019950483942701044 -0.014378767415086216 0 0 0 0.0078509199901236268 0.055453436179639506 -0.015223882126006987 0 -0.015223882126006987 -0.0093039767000712703 0 0 0 0.011537364869892052 0.051418260062426197 -0.012495223214817434 0 -0.012495223214817434 -0.012852189765718522 0 0 0 0.0096415175741769339 0.07456002850327012 -0.0047902858720363468 0 -0.0047902858720363468 -0.0056294097561493542 0 0 0 0.017232654686780199 0.055384158470541442 -0.019245157707631074 0 -0.019245157707631074 -0.0062766945874491399 0 0 0 0.012276865970773064 0.05344915253692472 -0.018123654812716473 0 -0.018123654812716473 -0.0092216457542750666 0 0 0 0.011056876695662408 0.063295486724627578 0.00024598034968298366 0 0.00024598034968298366 -0.0061834977918741717 0 0 0 0.014277997233188351 0.065354275426755398 -0.0087153774738041208 0 -0.0087153774738041208 -0.0096045675905538797 0 0 0 0.013937426959050382 0.073572046825214607 0.0022144134413490074 0 0.0022144134413490074 -0.0077977320851525585 0 0 0 0.0164435786850155 0.085155493157835785 0.0085191268242866616 0 0.0085191268242866616 0.0027837558586506876 0 0 0 0.021984812254121626 0.072333655493343488 0.010638852599402497 0 0.010638852599402497 0.0038637984179523965 0 0 0 0.019049363477823961 0.075875092725637486 0.0099330837452806103 0 0.0099330837452806103 0.0052891731187200003 0 0 0 0.020291066461089358 0.068563779069200859 0.0071107196023171221 0 0.0071107196023171221 -0.0031887512088585607 0 0 0 0.016343756965085571 0.06861610581960198 0.012895778385062831 0 0.012895778385062831 0.005166276350172366 0 0 0 0.018445595542443585 0.071550948840957099 0.016675123132380638 0 0.016675123132380638 0.014485809432499053 0 0 0 0.021509189568364048 0.064862909737771202 0.01216056188014316 0 0.01216056188014316 0.0057688333667519839 0 0 0 0.017657935776130791 0.063808209181180339 0.016890549565240838 0 0.016890549565240838 0.016359804799389643 0 0 0 0.020042003495142499 0.056942860188284754 0.012545453569385984 0 0.012545453569385984 0.0070858028822267296 0 0 0 0.016007165767627875 0.055437347834944369 0.012388065608006664 0 0.012388065608006664 0.0066271788124392036 0 0 0 0.015516131661845895 0.06082866730407447 0.0086863048408748131 0 0.0086863048408748131 -0.00077834193914842406 0 0 0 0.015012581341231512 0.063347699696894064 0.01050465218961383 0 0.01050465218961383 0.0026204785368728473 0 0 0 0.01649204455844171 0.05517301379188002 0.0078989529331358749 0 0.0078989529331358749 -0.0017828175379074052 0 0 0 0.013347549063493154 0.062200906910716287 0.0065716156296708583 0 0.0065716156296708583 0.00027427914945685585 0 0 0 0.015618796515043287 0.057985400701379565 0.0039851757668821867 0 0.0039851757668821867 -0.0047379771499201466 0 0 0 0.013311855887864852 0.061670011161361879 0.0025338087600129547 0 0.0025338087600129547 -0.0028380004603388263 0 0 0 0.014708002675255759 0.060296885702664983 -0.0025226319040171064 0 -0.0025226319040171064 -0.0061725778296903254 0 0 0 0.013531076968243665 0.062978180128737044 0.005615709206740125 0 0.005615709206740125 -0.0030472763880663618 0 0 0 0.014982725935167657 0.067215654266084141 0.0065770511720759945 0 0.0065770511720759945 -0.0027938977767178108 0 0 0 0.016105439122341574 -0.11140353910724357 -0.0079746892524893143 0 -0.0079746892524893143 -0.0046028133840997562 0 0 0 -0.02900158812283582 -0.077784035157581283 -0.021057892224377605 0 -0.021057892224377605 -0.0022217751780898159 0 0 0 -0.020001452583917771 -0.086037067682335447 -0.009865884294762815 0 -0.009865884294762815 -0.00069842428785227284 0 0 0 -0.021683872992546933 -0.076484324687761604 -0.013888472199064802 0 -0.013888472199064802 0.0059788214003061203 0 0 0 -0.017626375821863875 -0.068503133704357899 -0.0092781696147242031 0 -0.0092781696147242031 0.0051828704222093638 0 0 0 -0.015830065820537139 -0.067278621495486218 -0.0061584578529011325 0 -0.0061584578529011325 -0.0081621142910570862 0 0 0 -0.018860183946635828 -0.063718526981586976 -0.0081230565565568128 0 -0.0081230565565568128 -0.021197911255533913 0 0 0 -0.021229109559280222 -0.065495127988058288 -0.010761214068190453 0 -0.010761214068190453 -0.0085321403678563501 0 0 0 -0.01850681708897866 -0.06387844258877079 -0.018703369519081327 0 -0.018703369519081327 -0.0059115329151462476 0 0 0 -0.017447493875979256 -0.058190807994517174 -0.019681971110093784 0 -0.019681971110093784 -0.0037207135598152086 0 0 0 -0.015477880388583096 -0.050034266943253206 -0.019764224506243089 0 -0.019764224506243089 -0.016686455938098897 0 0 0 -0.016680180720338021 -0.0500235617306602 -0.01977173454104016 0 -0.01977173454104016 -0.016652331930160028 0 0 0 -0.016668973415205058 -0.055922842632491115 -0.023425401660176787 0 -0.023425401660176787 -0.0069643880135367153 0 0 0 -0.015721807661506958 -0.038445273007063609 -0.024108763957776568 0 -0.024108763957776568 -0.0022414734956240773 0 0 0 -0.010171686625671918 -0.063233979177772889 -0.02176395500731089 0 -0.02176395500731089 0.00098148781879376507 0 0 0 -0.015563122839744783 -0.091100679915251531 -0.021846316574361938 0 -0.021846316574361938 -0.0037344945751429451 0 0 0 -0.023708793622598614 -0.036649693300846907 -0.028857356923872444 0 -0.028857356923872444 -0.0017748509393960415 0 0 0 -0.0096061360600607562 -0.067371529783208234 -0.026467882582354392 0 -0.026467882582354392 -0.0064931941673738169 0 0 0 -0.018466180987645499 -0.03250215715348654 -0.024729856205187552 0 -0.024729856205187552 -0.0057397186705679618 0 0 0 -0.0095604689560136284 -0.025797225649724441 -0.025113446772787464 0 -0.025113446772787464 -0.0089405622759313463 0 0 0 -0.0086844469814139486 -0.032222016089891642 -0.030193371811629802 0 -0.030193371811629802 -0.0063805137613996438 0 0 0 -0.0096506324628228141 -0.029245951457607326 -0.02762693249707119 0 -0.02762693249707119 -0.0036550661844834409 0 0 0 -0.0082252544105226866 -0.031027203145780446 -0.026185647127337827 0 -0.026185647127337827 -0.0081695415192900179 0 0 0 -0.0097991861662676191 -0.013143123266209299 -0.022812198133569196 0 -0.022812198133569196 -0.0043932580767109784 0 0 0 -0.0043840953357300707 -0.011898492603626652 -0.027109743449658098 0 -0.027109743449658098 -0.0073996745288247776 0 0 0 -0.0048245417831128609 -0.0056701724720003791 -0.021664818190666645 0 -0.021664818190666645 -0.0032446123916901222 0 0 0 -0.0022286962159226275 -0.0067462295104879534 -0.028674973653249627 0 -0.028674973653249627 -0.0060395427374016764 0 0 0 -0.0031964430619724066 0.0065466819391633317 -0.021365426644961959 0 -0.021365426644961959 0.0021844280846481231 0 0 0 0.0021827775059528633 0.018231950624441072 -0.01785832244089286 0 -0.01785832244089286 -0.0018238145153949333 0 0 0 0.0041020340272615394 0.0075238723175175756 -0.027204646565406713 0 -0.027204646565406713 -0.0090649394512038461 0 0 0 -0.00038526678342156589 0.00068917489412149285 -0.026973570835491026 0 -0.026973570835491026 -0.0090249513978141738 0 0 0 -0.002083944125923172 0.0017505824695596296 -0.022013641760484808 0 -0.022013641760484808 -0.0082941767842178889 0 0 0 -0.0016358985786645627 0.018210565689855962 -0.026398623637529046 0 -0.026398623637529046 -0.015151458465645029 0 0 0 0.0007647768060527263 0.028827359021162208 -0.021405043344409028 0 -0.021405043344409028 -0.010094227857836546 0 0 0 0.0046832827908314311 0.002662615815929241 -0.031166071996990095 0 -0.031166071996990095 -0.015340672406270739 0 0 0 -0.0031695141475853728 0.027486438172329937 -0.026620875860882357 0 -0.026620875860882357 -0.015324578645941403 0 0 0 0.0030404648815971387 0.0043246953168206929 -0.027931272454472373 0 -0.027931272454472373 -0.0052229256170683823 0 0 0 -0.00022455757506192062 -0.0058136286780659258 -0.035589564348798175 0 -0.035589564348798175 -0.01181449128347363 0 0 0 -0.0044070299903848902 0.025330666015322856 -0.023974017398396032 0 -0.023974017398396032 -0.0063278948217511816 0 0 0 0.004750692798392922 -0.0042781874672162754 -0.032077133856341672 0 -0.032077133856341672 -0.0061694998663311962 0 0 0 -0.0026119218333868661 0.00079218526714554434 -0.038527312016514888 0 -0.038527312016514888 -0.0041486022878899388 0 0 0 -0.00083910425518609992 -0.039701178146866703 -0.033290048992091453 0 -0.033290048992091453 -0.012889042407783567 0 0 0 -0.013147555138662562 -0.035510703769023093 -0.034964684163755727 0 -0.034964684163755727 -0.0086701397471969158 0 0 0 -0.011045210879054995 -0.038110349011457739 -0.028468666330827848 0 -0.028468666330827848 -0.00329999002462808 0 0 0 -0.010352584759021441 -0.0029735456314001485 -0.027534493613908858 0 -0.027534493613908858 -0.005210493094345181 0 0 0 -0.0020460096814363324 -0.023281635549497033 -0.030913108767150973 0 -0.030913108767150973 -0.01076307817991734 0 0 0 -0.0085111784323535986 -0.061229372373936941 -0.029222212879902024 0 -0.029222212879902024 -0.0063398752509329082 0 0 0 -0.016892311906217455 -0.057297941242436437 -0.026600555159235144 0 -0.026600555159235144 0.0020725507382002434 0 0 0 -0.013806347626059031 -0.081006127722761515 -0.02457719302234521 0 -0.02457719302234521 -0.00034663856553998618 0 0 0 -0.020338191572075375 -0.061527373822331644 -0.036261030506270608 0 -0.036261030506270608 -0.00093917768769212484 0 0 0 -0.015616637877505933 -0.07763649212382176 -0.027925767890188538 0 -0.027925767890188538 -0.0070061017615339338 0 0 0 -0.021160648471338903 -0.042308576684339953 -0.041155496062915756 0 -0.041155496062915756 -0.0020308723708234791 0 0 0 -0.011084862263790855 -0.077191871311713303 -0.031994012160929161 0 -0.031994012160929161 0.0032701298131794718 0 0 0 -0.018480435374633477 -0.12152937847802089 -0.02247694597519078 0 -0.02247694597519078 -0.0068242269403319331 0 0 0 -0.032088401354588222 -0.13134471949821952 -0.026533486203321424 0 -0.026533486203321424 -0.0036045551770280751 0 0 0 -0.033737318668811911 -0.16069913160973059 -0.014556332196131855 0 -0.014556332196131855 -0.0010076373981354331 0 0 0 -0.04042669225196649 -0.11500494272676659 -0.011594017242674375 0 -0.011594017242674375 0.00039599167020405723 0 0 0 -0.02865223776414064 -0.13448564298485105 -0.013349112984312144 0 -0.013349112984312144 -0.0010890836050511353 0 0 0 -0.033893681647475547 -0.083041232326852621 -0.026329843066647755 0 -0.026329843066647755 -0.00098960972276737266 0 0 0 -0.021007710512404978 -0.1133483358852731 -0.01042923635172039 0 -0.01042923635172039 -0.0063070545205321724 0 0 0 -0.02991384760145132 -0.084672801129205999 -0.017449036900938953 0 -0.017449036900938953 0.0043123069207282455 0 0 0 -0.020090123552119449 -0.1713808766179786 -0.012994759329782071 0 -0.012994759329782071 0.0085519053992439836 0 0 0 -0.040707242804683651 -0.25059992494352806 -0.0019937875597438315 0 -0.0019937875597438315 0.00039920492567924182 0 0 0 -0.062550180004462205 -0.15939381916448117 -0.029631164293527551 0 -0.029631164293527551 0.0086472592386509506 0 0 0 -0.03768663998145759 -0.15822071403803045 -0.0079113452758284575 0 -0.0079113452758284575 0.0035622140847683392 0 0 0 -0.038664624988315528 -0.21589627378586207 -0.010929296377083945 0 -0.010929296377083945 0.0033728897780886669 0 0 0 -0.053130846001943344 -0.18475139119278197 -0.01360985635155691 0 -0.01360985635155691 -0.00020912932522300365 0 0 0 -0.046240130129501261 -0.12528792856349025 -0.014462126451579446 0 -0.014462126451579446 0.0025280710462093313 0 0 0 -0.030689964379320252 -0.14501841444270849 -0.012226558749922373 0 -0.012226558749922373 0.0024276327557278786 0 0 0 -0.035647695421745125 -0.13900806203381832 -0.032124136809205971 0 -0.032124136809205971 0.0045285919337168384 0 0 0 -0.033619867525025368 -0.081996576118216258 -0.033401147457093071 0 -0.033401147457093071 0.0047599532030253577 0 0 0 -0.019309155728797746 -0.083384465036669367 -0.032307383394021852 0 -0.032307383394021852 -0.00074778449047325363 0 0 0 -0.021033062381785643 -0.055738773747420089 -0.031802144911565897 0 -0.031802144911565897 -0.008969470092250735 0 0 0 -0.016177060959917701 -0.081537885606657007 -0.044311725927810887 0 -0.044311725927810887 0.011769609645714774 0 0 0 -0.017442068990235579 -0.10853917919780012 -0.021614814427468459 0 -0.021614814427468459 0.0034460552566154962 0 0 0 -0.026273280985296153 -0.090009167773661899 -0.016543155527063896 0 -0.016543155527063896 0.011092585904863044 0 0 0 -0.019729145467199682 -0.017276459688078158 -0.035044569361524655 0 -0.035044569361524655 0.014800828172305186 0 0 0 -0.00061890787894323951 -0.0096207329887554177 -0.030454146864725612 0 -0.030454146864725612 0.035936486769103271 0 0 0 0.0065789384450869598 0.021113219274159531 -0.041661004312377972 0 -0.041661004312377972 0.0094690805205651929 0 0 0 0.0076455749486811914 -0.066462105184827036 -0.030927392534257431 0 -0.030927392534257431 0.014225271869327732 0 0 0 -0.013059208328874822 -0.025238804158506638 -0.040754259124962645 0 -0.040754259124962645 0.0065587764946104746 0 0 0 -0.0046700069159740466 -0.062243736107694958 -0.044208814606032494 0 -0.044208814606032494 0.0007260315459965451 0 0 0 -0.015379426140424618 -0.028209104509518249 -0.045749920969198221 0 -0.045749920969198221 -0.0052546153172108589 0 0 0 -0.0083659299566822797 -0.021148444698536269 -0.034295243676144192 0 -0.034295243676144192 -0.00026563468756016229 0 0 0 -0.0053535198465241157 0.011338410384835374 -0.041668670936197458 0 -0.041668670936197458 0.00077266679575304503 0 0 0 0.003027769295147106 -0.024298243812113048 -0.034349979558219494 0 -0.034349979558219494 0.0055356696894909435 0 0 0 -0.0046906435306555243 0.013099178747886469 -0.030046374506566706 0 -0.030046374506566706 0.00017234024427814458 0 0 0 0.0033178797480411535 0.048810696720641325 -0.03652362544219051 0 -0.03652362544219051 0.0010856668185506707 0 0 0 0.012474090884798002 0.033031458861860583 -0.035113559721440084 0 -0.035113559721440084 -0.0049441445033521735 0 0 0 0.0070218285896271109 0.064739343701021537 -0.027405471480856092 0 -0.027405471480856092 -0.0028856671256117655 0 0 0 0.015463419143852452 0.033578125839743352 -0.023561805287253483 0 -0.023561805287253483 -0.006260388355211699 0 0 0 0.006829434371132914 0.051274401388430133 -0.020911752338455422 0 -0.020911752338455422 0.007607941204715564 0 0 0 0.014720585648286429 0.085666166197191931 -0.029560530808263819 0 -0.029560530808263819 0.012561178052440114 0 0 0 0.024556836062408036 0.024714911593219153 -0.02942157476913039 0 -0.02942157476913039 0.018084463196670217 0 0 0 0.010699843697472337 0.069204879414048015 -0.036052460246619206 0 -0.036052460246619206 0.021920373787820996 0 0 0 0.022781313300467246 0.067584243425779678 -0.018276017148605203 0 -0.018276017148605203 0.032811111639023144 0 0 0 0.025098838766200685 0.10315437064295924 -0.0092186685173412664 0 -0.0092186685173412664 0.068247025295681885 0 0 0 0.04285034898466028 0.11716844239902942 -0.030355471187088048 0 -0.030355471187088048 0.050250996264875114 0 0 0 0.041854859665976143 0.040693293606445247 -0.022022941048543923 0 -0.022022941048543923 0.044532802238063218 0 0 0 0.02130652396112713 0.021245994270979604 -0.04372349299674122 0 -0.04372349299674122 0.047985180578503955 0 0 0 0.017307793712370886 0.077168485954874189 -0.043238150745016329 0 -0.043238150745016329 0.10282328583298206 0 0 0 0.044997942946964076 0.10763270375220868 -0.025267244990000284 0 -0.025267244990000284 0.19125506454740548 0 0 0 0.074721942074903569 0.11241896409742382 0.02834489332422907 0 0.02834489332422907 0.1614848197382209 0 0 0 0.068475945958911225 0.091452655642647707 0.022215552401874512 0 0.022215552401874512 0.2064371436947734 0 0 0 0.074472449834355303 0.068720481258383925 0.016476806838277236 0 0.016476806838277236 0.13043238484791098 0 0 0 0.049788216526573725 0.038040987815584931 -0.020562286675183547 0 -0.020562286675183547 0.098464545887177124 0 0 0 0.034126383425690521 0.064248987016772882 -0.0014678737802231168 0 -0.0014678737802231168 0.10060333457012953 0 0 0 0.041213080396725596 0.012576850464719971 0.03436606160016209 0 0.03436606160016209 0.11336667553130403 0 0 0 0.031485881499005983 -0.017637822085671495 0.013204331793195856 0 0.013204331793195856 0.066035821354085256 0 0 0 0.012099499817103399 -0.052175985853568418 0.023462670222253457 0 0.023462670222253457 0.082275795341209157 0 0 0 0.0075249523719101985 -0.025218339422317937 -0.017398576285713681 0 -0.017398576285713681 0.035688973908124311 0 0 0 0.0026176586214515796 -0.06441848137597235 -0.0057256467599379191 0 -0.0057256467599379191 0.036864657790322476 0 0 0 -0.0068884558964124772 -0.0064353935686204539 -0.012533383987963539 0 -0.012533383987963539 0.093344312911010918 0 0 0 0.021727229835597592 -0.060625123558796457 -0.037114368663952013 0 -0.037114368663952013 0.041632755062886329 0 0 0 -0.004748092123977532 -0.11400333055978892 -0.030826754884512586 0 -0.030826754884512586 0.018393468592810769 0 0 0 -0.023902465491744546 -0.12398373562336978 -0.0040325095743494327 0 -0.0040325095743494327 0.016963186519426965 0 0 0 -0.026755137275985774 -0.083835064115501262 -0.025323844116560745 0 -0.025323844116560745 0.035789992705436369 0 0 0 -0.012011267852516272 -0.11257452636864847 0.015304880134666132 0 0.015304880134666132 0.035430036377244761 0 0 0 -0.019286122497850902 -0.073181342949864558 0.0088948366927957823 0 0.0088948366927957823 0.022866590930488373 0 0 0 -0.012578688004844019 -0.14529552152289313 0.029955601769259932 0 0.029955601769259932 0.017539348352227965 0 0 0 -0.031939043292666357 -0.11690884855481032 0.013069015905912251 0 0.013069015905912251 0.047723631607432537 0 0 0 -0.017296304236844473 -0.12519481570991725 -0.0034083765858317489 0 -0.0034083765858317489 0.018275279347131246 0 0 0 -0.026729884090696598 -0.17689629026103015 0.0097893020737131464 0 0.0097893020737131464 0.016349065510672389 0 0 0 -0.040136806187589413 -0.17066485495547107 0.00093277911418482296 0 0.00093277911418482296 0.0099519026697358903 0 0 0 -0.040178238071433781 -0.25878752132446559 0.0044286074947251786 0 0.0044286074947251786 0.011405695474268285 0 0 0 -0.061845456462549103 -0.18801059858842831 -0.0048130424517976444 0 -0.0048130424517976444 0.0064281201112642572 0 0 0 -0.045395619619290978 -0.26728865075564934 -0.0083693360318203847 0 -0.0083693360318203847 0.0073834455041728031 0 0 0 -0.064976301312869134 -0.19577351251164135 0.0020262172155937619 0 0.0020262172155937619 0.00082132568590143062 0 0 0 -0.04873804670643489 -0.15383602547286288 -0.021585519440047413 0 -0.021585519440047413 0.012324130798059899 0 0 0 -0.035377973668700748 -0.18508842503853076 -0.02246860380696325 0 -0.02246860380696325 0.008503815742541776 0 0 0 -0.044146152323997212 0.084390706456697245 0.030488382248939773 0 0.030488382248939773 0.044104248954760644 0 0 0 0.032123738852864459 0.088327047343208634 0.032356986296619455 0 0.032356986296619455 0.053657650224242959 0 0 0 0.035496174391862909 0.094289831110811684 0.034966407935624388 0 0.034966407935624388 0.055465094279453078 0 0 0 0.037438731347566201 0.072107914819377006 0.029474900842927528 0 0.029474900842927528 0.066612268349483056 0 0 0 0.034680045792215015 0.054326512634212162 0.02228065756161382 0 0.02228065756161382 0.074011519437775536 0 0 0 0.032084508017996935 0.062619372556232178 0.024339287851053541 0 0.024339287851053541 0.046065537800576276 0 0 0 0.027171227589202117 0.044537573838504207 0.016246958997189 0 0.016246958997189 0.052349118256927431 0 0 0 0.024221673023857915 0.071678328719907536 0.026767388755053002 0 0.026767388755053002 0.049173777751245727 0 0 0 0.030213026617788321 0.056746144530055533 0.018064122951919212 0 0.018064122951919212 0.028771580997020894 0 0 0 0.021379431381769121 0.057012873096698183 0.020180964750743432 0 0.020180964750743432 0.042717658086834899 0 0 0 0.024932632795883269 0.056150785542858336 0.014541433665671018 0 0.014541433665671018 0.015518135097321542 0 0 0 0.017917230160044983 0.066637463009198261 0.021554307827702915 0 0.021554307827702915 0.030601513330353561 0 0 0 0.024309744084887952 0.069617445342569251 0.017737840854988755 0 0.017737840854988755 0.013153893552694411 0 0 0 0.020692834723815921 0.070146641139471028 0.021614935884456274 0 0.021614935884456274 0.03099833529478796 0 0 0 0.025286244108564726 0.080447444331660928 0.024645634169196497 0 0.024645634169196497 0.027474657197183852 0 0 0 0.026980525382211178 0.084162922089182357 0.015409622617261962 0 0.015409622617261962 0.010651608749587968 0 0 0 0.023703632709692592 0.074834208084599452 0.012467086520522584 0 0.012467086520522584 0.0096898563867911444 0 0 0 0.021131016117847658 0.071828544570145578 -0.0037974185101716093 0 -0.0037974185101716093 -0.0048691678000236435 0 0 0 0.016739844192530478 0.091845886505959151 0.0040253819238993127 0 0.0040253819238993127 0.010734099759368274 0 0 0 0.025644996566331839 0.088260403356874031 0.005975973942028822 0 0.005975973942028822 0.0069045501739483477 0 0 0 0.023791238382705585 0.091620886915133176 0.021486533433438416 0 0.021486533433438416 0.025453771522045018 0 0 0 0.029268664609294559 0.067790095462148925 -0.010845321823569551 0 -0.010845321823569551 -0.0010770069859803427 0 0 0 0.016678272119042142 0.082945878703577017 -0.015077449868662857 0 -0.015077449868662857 0.0019509211199495863 0 0 0 0.021224199955881675 0.092365752660631739 -0.0025172277932001136 0 -0.0025172277932001136 0.01689981004573364 0 0 0 0.027316390676591334 0.10590982538660312 -0.0089015487072037717 0 -0.0089015487072037717 0.028145621655538716 0 0 0 0.03351386176053546 0.12469818654574746 0.010601034570146453 0 0.010601034570146453 0.047095080449963606 0 0 0 0.04294831674892776 0.10484861303862761 0.023131860585866984 0 0.023131860585866984 0.028823371384615985 0 0 0 0.033417996105810893 0.11895348068930503 0.016189479835908634 0 0.016189479835908634 0.025675225175102179 0 0 0 0.036157176466101788 0.10267285028582646 0.021946367201646444 0 0.021946367201646444 0.041549131991989952 0 0 0 0.03605549556945413 0.13094005334982339 0.028044099276062606 0 0.028044099276062606 0.048041309079594807 0 0 0 0.044745340607354626 0.11152024982514389 0.04407587273429843 0 0.04407587273429843 0.093438671355491332 0 0 0 0.051239730295158825 0.16609935138676635 0.046898977961536172 0 0.046898977961536172 0.088071637490245769 0 0 0 0.063542747219253029 0.13734449230273854 0.04488811365911724 0 0.04488811365911724 0.13765574780605533 0 0 0 0.068750060027198467 0.10548635083184076 0.050137745633367245 0 0.050137745633367245 0.14526200962073244 0 0 0 0.062687090113143315 0.12351342821285657 0.040865821059430076 0 0.040865821059430076 0.097519211172100162 0 0 0 0.055258159846239163 0.16217780724626985 -0.0048029522244115858 0 -0.0048029522244115858 0.073650827794845442 0 0 0 0.058957158760278836 0.16553220837342467 0.015326409896713328 0 0.015326409896713328 0.11892457174539414 0 0 0 0.071114195029704702 0.17302994941632663 -0.030283376399693029 0 -0.030283376399693029 0.10257810051590227 0 0 0 0.06890201248305719 0.3032861113461921 -0.014350744216147682 0 -0.014350744216147682 0.17563802040789775 0 0 0 0.1197310329385224 0.19891969849801699 -0.0064265967333608232 0 -0.0064265967333608232 0.39137501431700605 0 0 0 0.14757367820375572 0.28714260375014933 0.13013541257516709 0 0.13013541257516709 0.2825322071814575 0 0 0 0.14241870273290164 0.14520839000609781 0.076911527125635731 0 0.076911527125635731 0.24309452546726423 0 0 0 0.097075728868340483 0.073105931966790147 0.034008763244215201 0 0.034008763244215201 0.13810231982848475 0 0 0 0.052802062948818687 0.13901177067021855 0.050938479137815282 0 0.050938479137815282 0.14016539281004262 0 0 0 0.069794290870065237 0.081327474619629692 -0.025221671466537046 0 -0.025221671466537046 0.2788960555549102 0 0 0 0.090055882543634946 0.059210666026790204 -0.02666316981362378 0 -0.02666316981362378 0.15600337043060578 0 0 0 0.053803509114348974 0.061395327209945533 -0.026145334163453778 0 -0.026145334163453778 0.1669449015923678 0 0 0 0.057085057200578354 0.078823234159830113 0.033331367531917261 0 0.033331367531917261 0.15655113513970559 0 0 0 0.058843592324883953 0.076909105800040692 0.03316525727698437 0 0.03316525727698437 0.089900008459922964 0 0 0 0.041702278564990918 0.067892317480709258 0.026198826305045615 0 0.026198826305045615 0.14021244488888585 0 0 0 0.05202619059239879 0.047004876185822234 0.013588729507529892 0 0.013588729507529892 0.092254582695825246 0 0 0 0.034814864720411856 0.063119050033716595 0.027078557203913615 0 0.027078557203913615 0.11112951187623531 0 0 0 0.043562140477487979 0.067661722646799899 0.028918562944170598 0 0.028918562944170598 0.065162790636531548 0 0 0 0.033206128320832834 0.084042349164685295 0.03988229167047716 0 0.03988229167047716 0.097440963720546669 0 0 0 0.04537082822130796 0.044096550592961706 0.017101054183341048 0 0.017101054183341048 0.068022672147339244 0 0 0 0.028029805685075251 0.044856903462880217 0.015015485307846193 0 0.015015485307846193 0.094531837344484407 0 0 0 0.034847185201841151 0.05423032845928645 -0.024177561661552504 0 -0.024177561661552504 0.10502406207497328 0 0 0 0.039813597633564943 0.037172650228528864 -0.0030566740242446008 0 -0.0030566740242446008 0.094740100076565262 0 0 0 0.032978187576273535 0.033011051594202735 -8.704593005239708e-05 0 -8.704593005239708e-05 0.083752574892883819 0 0 0 0.029190906621771661 0.050396845425298001 0.0083731667128742037 0 0.0083731667128742037 0.12521073768154206 0 0 0 0.043901895776709998 0.046601033288053373 -0.020507741325056818 0 -0.020507741325056818 0.080253001924879927 0 0 0 0.031713508803233315 0.043234822500719861 -0.020962755949074614 0 -0.020962755949074614 0.065657371325919894 0 0 0 0.027223048456659946 0.072974111922509383 -0.039282483159393033 0 -0.039282483159393033 0.074584079725181482 0 0 0 0.036889547911922692 0.063649633026416325 -0.036789431105665335 0 -0.036789431105665335 0.039115093983391191 0 0 0 0.025691181752451886 0.049184402877852168 -0.024091043064788965 0 -0.024091043064788965 0.031944619346334691 0 0 0 0.020282255556046735 0.076941080320264046 -0.03447253974934808 0 -0.03447253974934808 0.039963343544282173 0 0 0 0.029226105966136548 0.078295152798866341 -0.034301401974540978 0 -0.034301401974540978 0.044034514626570598 0 0 0 0.030582416856359207 0.063386826216275338 -0.025145717136618506 0 -0.025145717136618506 0.014648118898893725 0 0 0 0.019508736278792266 0.11243420980879407 -0.01587539788823893 0 -0.01587539788823893 0.031418215776548464 0 0 0 0.035963106396335709 0.095230136837314641 -0.024976732035764004 0 -0.024976732035764004 0.012363284269950092 0 0 0 0.02689835527681618 0.1015211922281713 -0.030677238915822108 0 -0.030677238915822108 0.021274067382614503 0 0 0 0.030698814902696464 0.13001100011902902 -0.056179412864580919 0 -0.056179412864580919 0.063523667871135114 0 0 0 0.048383666997541069 0.052040773842986214 -0.026167488993888308 0 -0.026167488993888308 0.10492749727811151 0 0 0 0.039242067780274455 0.08106280976114956 -0.046420246623370423 0 -0.046420246623370423 0.07546257342412474 0 0 0 0.039131345796318565 0.08199246185848956 -0.050300250456244228 0 -0.050300250456244228 0.08967982780379595 0 0 0 0.042918072415571391 0.089336679118517476 -0.062026667509899526 0 -0.062026667509899526 0.13740073137126022 0 0 0 0.056684352622444388 0.054897195861600162 -0.055284373705623641 0 -0.055284373705623641 0.18057409145280029 0 0 0 0.058867821828600092 0.1052371326682216 -0.054265337868343824 0 -0.054265337868343824 0.18032666468804714 0 0 0 0.0713909493390672 0.14112858980137305 -0.017141104602968422 0 -0.017141104602968422 0.49895961398996946 0 0 0 0.16002205094783564 0.12721256835229186 -0.020694527571726004 0 -0.020694527571726004 -0.015466310725448795 0 0 0 0.027936564406710801 0.16702273463572231 -0.085531697855949246 0 -0.085531697855949246 0.11365220739944751 0 0 0 0.070168735508792421 0.26676369325632032 0.18037811598435599 0 0.18037811598435599 0.32527680334947839 0 0 0 0.14801012415144971 0.16222955092744318 -0.12354272399998947 0 -0.12354272399998947 0.21708254147497552 0 0 0 0.094828023100604619 0.0097213918981742253 0.0016378177342921234 0 0.0016378177342921234 0.026542912934174059 0 0 0 0.0090660762080870712 0.44270788240737524 0.15152992277178412 0 0.15152992277178412 0.09372551533681639 0 0 0 0.13410834943604788 0.23802885885339808 0.040776712331794474 0 0.040776712331794474 0.056554583301784422 0 0 0 0.073645860538795627 0.022489487141810316 0.0039696423494186943 0 0.0039696423494186943 0.06766748375000585 0 0 0 0.022539242722954041 0.046132047150190369 0.0065075314083149483 0 0.0065075314083149483 0.067277684309632491 0 0 0 0.028352432864955701 0.22938346355236361 0.036813943599207977 0 0.036813943599207977 0.049597130522748889 0 0 0 0.069745148518778124 0.032138597277088933 0.0055699400595438809 0 0.0055699400595438809 0.09597171086344411 0 0 0 0.032027577035133259 0.063769210579574354 0.013722801980211446 0 0.013722801980211446 0.079716169114514512 0 0 0 0.035871344923522286 0.18125914769596929 0.032280640476894829 0 0.032280640476894829 0.036432845706401373 0 0 0 0.054422998350592722 0.10934750376503045 -0.029693881711673642 0 -0.029693881711673642 0.00255671839817595 0 0 0 0.027976055540801667 0.10534749805755901 0.0077246502278094376 0 0.0077246502278094376 0.04953938918631412 0 0 0 0.038721721810968293 0.10647158099284541 -0.0093257490517362485 0 -0.0093257490517362485 0.045263882487374119 0 0 0 0.0379338658700549 0.10979580612611294 -0.0031681769718343578 0 -0.0031681769718343578 0.032505793703573982 0 0 0 0.035575399957421677 0.093298217654188678 0.0093839746706208538 0 0.0093839746706208538 0.046211168902023481 0 0 0 0.034877346639052967 0.1032498488934484 0.0071088494180209308 0 0.0071088494180209308 0.081897551681216485 0 0 0 0.046286850143666236 0.093876474741344168 0.013903881151529129 0 0.013903881151529129 0.095783816543361155 0 0 0 0.047415072821176352 0.1079926249215411 0.0034001921991759221 0 0.0034001921991759221 0.048844201955405175 0 0 0 0.039209206719236556 0.16891844145686652 0.027685594760081228 0 0.027685594760081228 0.048479588292209108 0 0 0 0.054349507437269073 0.18014338795339857 0.018937743145058139 0 0.018937743145058139 0.087191884234127937 0 0 0 0.066833818046882154 0.20452527172252144 0.014303102138506718 0 0.014303102138506718 0.081969735719484849 0 0 0 0.071623751860501406 0.040608248843951283 0.0066575778144409917 0 0.0066575778144409917 0.12154586243256972 0 0 0 0.040538527819130254 0.18685392329333672 0.014903921025375411 0 0.014903921025375411 0.093266000052347753 0 0 0 0.070029980836421202 0.17926447531012801 0.013041674235482192 0 0.013041674235482192 0.095372017137398402 0 0 0 0.068659123111881604 0.15551732911201643 0.026091200147708937 0 0.026091200147708937 0.093404532058421363 0 0 0 0.06223046529260956 0.18448258332058987 0.01284698520408341 0 0.01284698520408341 0.11677026033701665 0 0 0 0.075313210914401907 0.11726625126070611 0.01380302118172075 0 0.01380302118172075 0.12379551973176595 0 0 0 0.06026544274811807 0.049079923989813617 0.0074367423939275135 0 0.0074367423939275135 0.14691480392343373 0 0 0 0.048998681978311837 0.16548125327892316 0.013947403630846456 0 0.013947403630846456 0.11979088800465387 0 0 0 0.071318035320894424 0.10324140937371062 0.011698586763507907 0 0.011698586763507907 0.074882852937063094 0 0 0 0.044531065577693485 0.099217966447813166 0.0075069880457252214 0 0.0075069880457252214 0.045928554757111439 0 0 0 0.036286630301231138 0.11491998249565005 0.0075455346347220176 0 0.0075455346347220176 0.10661933833936221 0 0 0 0.055384830208753066 0.11026574310345827 0.0082525593301305822 0 0.0082525593301305822 0.079445785788960332 0 0 0 0.047427882223104567 0.11736002324702541 0.013056484592632034 0 0.013056484592632034 0.087853634299114525 0 0 0 0.05130341438653499 0.097569973240229618 0.0075222358961671773 0 0.0075222358961671773 0.040011063780855283 0 0 0 0.034395259255271315 0.093533960004273192 0.0054989517749892136 0 0.0054989517749892136 0.045182576951384945 0 0 0 0.034679134238914583 0.10018829770946464 0.0060415254718370615 0 0.0060415254718370615 0.040557089221963064 0 0 0 0.035186346732856921 0.088972297424281976 -0.0061579583561489071 0 -0.0061579583561489071 0.011938744703487991 0 0 0 0.025227760531942534 0.089272684186261442 -0.0010998312794244236 0 -0.0010998312794244236 0.018915423734004899 0 0 0 0.027047026980066613 0.07457721929244128 -0.0031278316448163923 0 -0.0031278316448163923 0.0122612363535912 0 0 0 0.021709613911508118 0.077834193905670257 -0.0059327793444957366 0 -0.0059327793444957366 0.014148793379186841 0 0 0 0.022995746821214302 0.073491546959462806 -0.014197500492781678 0 -0.014197500492781678 0.0076026156026623992 0 0 0 0.020273540640531218 0.082027382929727 -0.0057012709956460461 0 -0.0057012709956460461 0.015064027394144822 0 0 0 0.024272852580967955 0.085792836540742434 -0.014024776630577059 0 -0.014024776630577059 0.0096145308302636456 0 0 0 0.02385184184275152 0.068256489947282256 -0.017128302529837935 0 -0.017128302529837935 0.0035760048463852612 0 0 0 0.0179581236984169 0.083523699544298308 -0.022401825706922646 0 -0.022401825706922646 0.012686739674361958 0 0 0 0.024052609804665059 0.067132595581602283 -0.023540463163515657 0 -0.023540463163515657 0.015502750649348071 0 0 0 0.020658836557737589 0.087772135105920746 -0.015059263963385805 0 -0.015059263963385805 0.0091066104886053378 0 0 0 0.024219686398631542 0.095734173735926464 -0.0029266791674071868 0 -0.0029266791674071868 0.017331327375444128 0 0 0 0.028266375277842704 0.10129188433100739 -0.0066199776723425974 0 -0.0066199776723425974 0.023644199548084388 0 0 0 0.031234020969772902 -0.13579910219723307 0.014070308515713559 0 0.014070308515713559 0.0053316923279753681 0 0 0 -0.032616852467314439 -0.16156774389920003 0.019473979149473575 0 0.019473979149473575 0.0079607057616750687 0 0 0 -0.038401759534381186 -0.11022074757682243 0.048108931334631844 0 0.048108931334631844 0.021014389340502149 0 0 0 -0.022301589559080126 -0.21665569277066155 0.020254340338263455 0 0.020254340338263455 0.0074154693186656573 0 0 0 -0.052310055862999083 -0.22603074600328282 0.015253204384038765 0 0.015253204384038765 0.012455173113339102 0 0 0 -0.053393893222486055 -0.13639986410587956 0.018440383253224557 0 0.018440383253224557 0.0058873216216328572 0 0 0 -0.032628135621061594 -0.14284196809600058 0.024234879538698906 0 0.024234879538698906 0.0084826958884093306 0 0 0 -0.033589818051897979 -0.10092621467460194 0.050178304943291563 0 0.050178304943291563 0.028512770912936691 0 0 0 -0.018103360940416424 -0.060203345315644946 0.050283407798038304 0 0.050283407798038304 0.02987571861561078 0 0 0 -0.0075819066750085484 -0.031270909568314909 0.065376038734206637 0 0.065376038734206637 0.055564376355749623 0 0 0 0.0060733666968587618 -0.05780358053689616 0.042963765972149681 0 0.042963765972149681 0.011176835383050587 0 0 0 -0.011656686288461282 -0.042864444205930663 0.067109916250886581 0 0.067109916250886581 0.026455856664239885 0 0 0 -0.0041021468854224863 -0.083617439504351188 0.037684244657072541 0 0.037684244657072541 0.0059370524250899059 0 0 0 -0.019420096769815265 -0.026798323778526756 0.055303649265728061 0 0.055303649265728061 0.010593603757289571 0 0 0 -0.0040511800053093516 0.076844240990593338 0.079808950438698956 0 0.079808950438698956 0.031714069510049958 0 0 0 0.027139577625161004 0.023605065934517944 0.067981250949226746 0 0.067981250949226746 0.02319228648108318 0 0 0 0.011699338103900336 0.098772964314244593 0.098562052169310355 0 0.098562052169310355 0.066534760620694966 0 0 0 0.041326931233734931 0.023242549995174278 0.073397445673422101 0 0.073397445673422101 0.027763066741456122 0 0 0 0.012751404184157655 -0.051873015756766061 0.041206029604801742 0 0.041206029604801742 0.032792208608917406 0 0 0 -0.0047702017869620805 0.0024819047951027962 0.074952728336868307 0 0.074952728336868307 0.085982150354941389 0 0 0 0.022116013787511102 0.015811645637340499 0.061779065820315726 0 0.061779065820315726 0.060954242173983708 0 0 0 0.019191471952830996 0.076332922057495423 0.095330008097388896 0 0.095330008097388896 0.13888410997880984 0 0 0 0.053804258009076289 0.10285965389116802 0.10208059644605569 0 0.10208059644605569 0.22331369570525483 0 0 0 0.081543337399105686 0.15947388938276014 0.12066339479580596 0 0.12066339479580596 0.085443165471085519 0 0 0 0.06122926371346156 0.17951247978324741 0.10293193382744503 0 0.10293193382744503 0.086232783604904717 0 0 0 0.066436315847037977 0.1141399043781528 0.068705763337320924 0 0.068705763337320924 0.033241519931950236 0 0 0 0.036845356077525704 0.15116026012238487 0.075556621794159673 0 0.075556621794159673 0.042531568368807449 0 0 0 0.04842295712279826 0.18291515272283054 0.033682537121192291 0 0.033682537121192291 0.044475942715562766 0 0 0 0.056847773859598272 0.10220189475481289 0.054465203020703568 0 0.054465203020703568 0.023236727515946853 0 0 0 0.031359655567689826 0.10264611624763886 0.058385671966049379 0 0.058385671966049379 0.022886845035881453 0 0 0 0.031383240320880024 0.14881234634873342 0.037523400461218603 0 0.037523400461218603 0.046078032316414053 0 0 0 0.048722594666286589 0.14342966804911961 0.0327921642888378 0 0.0327921642888378 0.049877207189895856 0 0 0 0.048326718809754254 0.14849625842059622 0.024502481980181678 0 0.024502481980181678 0.06522638910375278 0 0 0 0.05343066188108736 0.13285827439538203 0.033124833281121369 0 0.033124833281121369 0.060018997593862033 0 0 0 0.048219317997311294 0.10383829868139471 0.041537599664006164 0 0.041537599664006164 0.036520779084727728 0 0 0 0.035089769441530527 0.10201368212093098 0.049937251966643559 0 0.049937251966643559 0.025728578103453081 0 0 0 0.03193556505609596 0.05342343568904856 0.042892226241651121 0 0.042892226241651121 0.023569466943690165 0 0 0 0.019248225658184681 0.060019687206214922 0.045590214463616885 0 0.045590214463616885 0.025298821170654961 0 0 0 0.021329627094217651 0.050247512622828339 0.04569529257445204 0 0.04569529257445204 0.018486108264342604 0 0 0 0.017183405221792736 0.00087972818142822984 0.054418312918377065 0 0.054418312918377065 0.012269695367840061 0 0 0 0.0032873558873171005 0.053706848498641158 0.059470637124787507 0 0.059470637124787507 0.017529358390922845 0 0 0 0.017809051722391001 0.070379214481042562 0.047646199338716277 0 0.047646199338716277 0.016699344429440099 0 0 0 0.021769639727620471 0.017165264018874637 0.055626598888499412 0 0.055626598888499412 0.010380005353696653 0 0 0 0.0068863173431428226 0.0012567501318884178 0.068210079021357561 0 0.068210079021357561 0.015522248798509775 0 0 0 0.0041947497325997007 -0.036198409639308871 0.043218333623892713 0 0.043218333623892713 0.0041759266313166066 0 0 0 -0.008005620751998288 -0.052060239361513466 0.053554870099987273 0 0.053554870099987273 0.014877897724156236 0 0 0 -0.0092955854093394741 -0.0432123818540322 0.033484109003416557 0 0.033484109003416557 0.0080364048361030171 0 0 0 -0.0087939942544819072 -0.041884474101703983 0.050966105379016469 0 0.050966105379016469 0.0070240846546509861 0 0 0 -0.008715097361763402 0.0033653661511277022 0.048514979176504935 0 0.048514979176504935 0.0084858427089740118 0 0 0 0.0029628022150252065 0.0096284883539615174 0.048696576505479428 0 0.048696576505479428 0.0059807788211846402 0 0 0 0.0039023167937868863 -0.016885309159554766 0.037041427734894494 0 0.037041427734894494 0.011237925920196143 0 0 0 -0.0014118458098396557 -0.03520779363573201 0.033210607244928969 0 0.033210607244928969 0.0051304310948028231 0 0 0 -0.0075193406352320746 -0.055573528940927153 0.039846680669859857 0 0.039846680669859857 0.0090563893953676811 0 0 0 -0.011629284886389923 -0.084733001419745824 0.014152550594311863 0 0.014152550594311863 0.0070432012096204311 0 0 0 -0.019422450052531182 -0.041677199807190091 0.013694262701841708 0 0.013694262701841708 0.011704293219951367 0 0 0 -0.0074932266468097364 -0.068718352196519672 0.015789370945348935 0 0.015789370945348935 0.010900561424399768 0 0 0 -0.014454447693029948 -0.12725822208029558 0.015218696179399638 0 0.015218696179399638 0.0055938013697298672 0 0 0 -0.030416105177641484 -0.096665878166767305 0.037742759779690438 0 0.037742759779690438 0.006964642826198908 0 0 0 -0.022425308835142044 -0.091297496009501211 0.018994644956465606 0 0.018994644956465606 0.0052953007042457756 0 0 0 -0.021500548826313581 0.0030840375769931316 0.013257326279533466 0 0.013257326279533466 0.017042494428443189 0 0 0 0.0050316330013593091 -0.021244527054476992 0.0094318067777652281 0 0.0094318067777652281 0.0086769618795834447 0 0 0 -0.0031418912937235532 0.0018141459512996949 0.019412175340626447 0 0.019412175340626447 0.0135948127385217 0 0 0 0.0038522396724565144 -0.033565899476486472 0.011231005174138442 0 0.011231005174138442 0.012344565242215388 0 0 0 -0.0053053335585673267 -0.028620609640838124 0.0089057972031998389 0 0.0089057972031998389 0.010585021470852496 0 0 0 -0.0045088970424969066 -0.060113482385741435 0.012688777768852954 0 0.012688777768852954 0.0087079653336221696 0 0 0 -0.012851379263029816 -0.049239285048143788 0.024759750619770649 0 0.024759750619770649 0.0068679667272508738 0 0 0 -0.010592829580223562 -0.031623203610725348 0.019902430908949165 0 0.019902430908949165 0.009596419075316831 0 0 0 -0.005506696133851019 -0.012536691352825979 0.033441412962156636 0 0.033441412962156636 0.0097653679282334593 0 0 0 -0.00069283085614824103 -0.0091968293319786287 0.024977692378616911 0 0.024977692378616911 0.014657239848880899 0 0 0 0.0013651026292260671 0.0053518429662542388 0.030552594173963943 0 0.030552594173963943 0.011290270227337196 0 0 0 0.0041605282983980807 0.021979036256825513 0.026459551485091826 0 0.026459551485091826 0.017915203658852796 0 0 0 0.0099735599789196883 0.023058182480666378 0.022040909141106457 0 0.022040909141106457 0.019684992008237145 0 0 0 0.010685793622225326 -0.0015932154233497808 0.027825587932188256 0 0.027825587932188256 0.014754112645579021 0 0 0 0.0032902243055572544 0.02398708009945319 0.025004063491460116 0 0.025004063491460116 0.020658140740194342 0 0 0 0.011161305209911904 0.060187091911282131 0.023733899319652529 0 0.023733899319652529 0.033717523830443241 0 0 0 0.023476153935431121 0.064651404894401798 0.027096798364991681 0 0.027096798364991681 0.045873736344907101 0 0 0 0.027631285309827502 0.087610862260288025 0.025153675211742499 0 0.025153675211742499 0.045593563720152552 0 0 0 0.033301106495110089 0.026182117760928492 0.032728222428795667 0 0.032728222428795667 0.023074873257383999 0 0 0 0.012314247754578123 0.021247345997254641 0.040787645410687592 0 0.040787645410687592 0.014659210538003009 0 0 0 0.0089766391338139684 0.05362675853614407 0.03054379815008601 0 0.03054379815008601 0.025589349864110877 0 0 0 0.019804027100063681 0.049775971929694851 0.032221467584046648 0 0.032221467584046648 0.024115286216740195 0 0 0 0.018472814536608873 0.079282055042765531 0.039001661558469847 0 0.039001661558469847 0.034770004729979931 0 0 0 0.028513014943186477 0.056921423353551326 0.032383296527659478 0 0.032383296527659478 0.037502595686719431 0 0 0 0.023606004760067911 0.1078463992038432 0.023285332664855884 0 0.023285332664855884 0.063762429305411317 0 0 0 0.042902207127313741 0.10573318435535972 0.030428702927675189 0 0.030428702927675189 0.06398017595542882 0 0 0 0.042428340077697246 0.097627366916337888 0.033319477268299647 0 0.033319477268299647 0.040229174883585017 0 0 0 0.034464135449980837 0.12247334338257909 0.030134751340329835 0 0.030134751340329835 0.06845184559599593 0 0 0 0.0477312972446442 0.14568858912480653 0.016275853725272516 0 0.016275853725272516 0.10547592724932464 0 0 0 0.062791129093532572 0.12719151941812568 0.017240276740670302 0 0.017240276740670302 0.084443980433856147 0 0 0 0.052908874962995345 0.1405610914814539 0.025636076746182179 0 0.025636076746182179 0.11121011890497634 0 0 0 0.062942802596607006 0.09568683244258909 0.032955299329031185 0 0.032955299329031185 0.060630635111344588 0 0 0 0.039079366888483527 0.11395442350748936 0.025966806252124108 0 0.025966806252124108 0.0841009548813485 0 0 0 0.049513844597209811 0.15319590345999146 0.0063077856132336407 0 0.0063077856132336407 0.11544610855291104 0 0 0 0.067160503003225624 0.12464314582829239 0.0016634840538358731 0 0.0016634840538358731 0.10335542534842546 0 0 0 0.056999642794179906 0.16892298730722111 0.017118933922287916 0 0.017118933922287916 0.11891465357361763 0 0 0 0.071959410220209907 0.15080969997552351 0.0087905426363512618 0 0.0087905426363512618 0.1071341321971726 0 0 0 0.064485958043174474 0.18133254781430352 -0.0085689969912881025 0 -0.0085689969912881025 0.1488234713304788 0 0 0 0.082539004786195136 0.2020409632988634 0.011075290762934564 0 0.011075290762934564 0.1522583001748532 0 0 0 0.088574815868429468 0.15523084855234837 -0.012126982539701903 0 -0.012126982539701903 0.10633437651637223 0 0 0 0.065391306267180038 0.11513034743763573 0.00083093573761017225 0 0.00083093573761017225 0.096140564570232456 0 0 0 0.052817728001967268 0.060634606788752432 0.012765089828324177 0 0.012765089828324177 0.032354873227189884 0 0 0 0.02324737000398569 0.06687117166502432 0.0074521897852379837 0 0.0074521897852379837 0.051064567856125898 0 0 0 0.029483934880287777 0.099231377019389999 2.2719958680916807e-05 0 2.2719958680916807e-05 0.047985390357576208 0 0 0 0.036804191844241441 0.061164486020118147 0.018659110784374378 0 0.018659110784374378 0.03345467298922955 0 0 0 0.023654789752336924 0.10793610339912263 0.011804355181906145 0 0.011804355181906145 0.063971299291198491 0 0 0 0.042976850672579836 0.069174280657473997 0.01679445301662863 0 0.01679445301662863 0.056826064287389677 0 0 0 0.031500086236215807 0.10109544427015749 0.015779756736207129 0 0.015779756736207129 0.060554702825694307 0 0 0 0.040412536773962948 0.031817612816047669 0.019197501089801783 0 0.019197501089801783 0.027592585581773577 0 0 0 0.014852549599455367 0.0027373689754561781 0.013247775767705861 0 0.013247775767705861 0.015205761066665602 0 0 0 0.004485782510530445 0.029057982867378929 0.011767058058829383 0 0.011767058058829383 0.019174673810434584 0 0 0 0.012058164169453267 0.015148355064812158 0.01510317356192914 0 0.01510317356192914 0.019739839600622311 0 0 0 0.0087220486663586172 0.031899654608940065 0.013761548650823574 0 0.013761548650823574 0.025479974058185917 0 0 0 0.014344907166781606 0.038040775857343778 0.0032790050141984217 0 0.0032790050141984217 0.017081671857859249 0 0 0 0.01378061192880109 0.025069562498141185 0.003051177794463289 0 0.003051177794463289 0.0098216377545643496 0 0 0 0.0087228000631771607 0.037057382716247922 0.0080460333092718939 0 0.0080460333092718939 0.01759236368081929 0 0 0 0.013662436599267913 0.023390124767986631 0.0097459817011724681 0 0.0097459817011724681 0.016375946319651113 0 0 0 0.0099415177719097692 0.015596323522967026 0.005583722997989149 0 0.005583722997989149 0.013496015098882097 0 0 0 0.0072730846554618367 0.018527236487769938 0.0037443595921926587 0 0.0037443595921926587 0.014144577989477325 0 0 0 0.0081679536193112745 0.015674842876359563 0.0021217262448405272 0 0.0021217262448405272 0.012838298531532288 0 0 0 0.0071282853519729628 0.011007520675130333 0.0030738678004356146 0 0.0030738678004356146 0.012381826389436412 0 0 0 0.0058473367661426856 0.015164915741725071 0.0052880236150807391 0 0.0052880236150807391 0.016415284713387379 0 0 0 0.0078950501137780016 0.0025829547339006886 0.007043433884979855 0 0.007043433884979855 0.016706597519061006 0 0 0 0.0048223880632400906 0.0079996390787224203 0.0059674254921953107 0 0.0059674254921953107 0.013905358914199528 0 0 0 0.005476249498230501 -0.013708133946174872 0.0072686415164406881 0 0.0072686415164406881 0.011270031427249805 0 0 0 -0.00060952562973159985 0.085784944699283328 0.0057421092267997964 0 0.0057421092267997964 0.03919730882265493 0 0 0 0.031245563380484564 0.11440875085723468 0.0090602595455390733 0 0.0090602595455390733 0.081087344780462534 0 0 0 0.048874023909424302 0.11532698788584239 0.014929011928362934 0 0.014929011928362934 0.071877319359901826 0 0 0 0.046801076811436082 0.10266453558722655 0.016639940659748081 0 0.016639940659748081 0.060924022511073428 0 0 0 0.040897139524574966 0.07918285428956981 0.0097944953477167029 0 0.0097944953477167029 0.032175317484709857 0 0 0 0.027839542943569974 0.062947395246144566 0.0020464415903000965 0 0.0020464415903000965 0.022191364665473667 0 0 0 0.021284689977904447 0.063251738447527295 -0.0022143259776362528 0 -0.0022143259776362528 0.017480571589282068 0 0 0 0.020183077509202452 0.075550827265528225 0.0028228884600178805 0 0.0028228884600178805 0.024022418156313563 0 0 0 0.024893311355460385 0.063916248763645045 -0.0028724933173956968 0 -0.0028724933173956968 0.015127172581765214 0 0 0 0.019760855336352523 0.063696878774333637 -0.0056204820745046069 0 -0.0056204820745046069 0.013938476891510759 0 0 0 0.01940883891646103 0.08988263124886392 0.0054016197771419305 0 0.0054016197771419305 0.032172248899427602 0 0 0 0.030513720037072867 0.089891145927640081 0.0061437020497839279 0 0.0061437020497839279 0.032118786390278764 0 0 0 0.03050248307947967 0.078992161948603049 0.0066769537468012174 0 0.0066769537468012174 0.038012665407550189 0 0 0 0.029251206839038271 0.10080576263611007 0.010813768410005255 0 0.010813768410005255 0.064624723376760063 0 0 0 0.041357621503217534 0.10492956674870585 0.012636204135784646 0 0.012636204135784646 0.058870604207474697 0 0 0 0.040950042739045178 0.11715344754482238 0.0095414697876627375 0 0.0095414697876627375 0.095078433601908818 0 0 0 0.053057970286682798 0.13146803601065157 0.0076909678490647559 0 0.0076909678490647559 0.13478478075432965 0 0 0 0.066563204191245312 0.15334328288861071 0.0071249616172840979 0 0.0071249616172840979 0.15835813249032005 0 0 0 0.077925353844732648 0.13502409198886908 0.016144993251142437 0 0.016144993251142437 0.10655209376613051 0 0 0 0.060394046438749877 0.1640986351682715 0.024596397680942239 0 0.024596397680942239 0.11491794456527238 0 0 0 0.06975414493338572 0.19220036800268891 0.0087248415170376008 0 0.0087248415170376008 0.15148983272951888 0 0 0 0.085922550183051616 0.14644879629821461 0.013501822119983575 0 0.013501822119983575 0.14489450250041347 0 0 0 0.072835824699657103 0.057670561762853262 0.0079699261280015213 0 0.0079699261280015213 0.17264913996253498 0 0 0 0.057579925431347059 0.15558777782195299 0.018620986070652101 0 0.018620986070652101 0.10484898593836167 0 0 0 0.065109190940079165 0.17338057454110123 0.016008052613277535 0 0.016008052613277535 0.15748168227408943 0 0 0 0.082715564203797776 0.17498242130677966 0.0061373936039337273 0 0.0061373936039337273 0.15927862284874728 0 0 0 0.083565261038881733 0.066528445724738858 0.0082769613746109822 0 0.0082769613746109822 0.19926377600798179 0 0 0 0.066448055433180164 0.17840970110731269 0.014302645838690509 0 0.014302645838690509 0.16851768818644675 0 0 0 0.086731847323439748 0.1996268914753212 0.012434627945785426 0 0.012434627945785426 0.16474938122700422 0 0 0 0.091094068175580967 0.075949170376369821 0.0083878944674060183 0 0.0083878944674060183 0.22715806156134119 0 0 0 0.075776807984427749 0.17651419674462243 0.021445835612051933 0 0.021445835612051933 0.15643423090123343 0 0 0 0.083237106911463687 0.13031295632605333 0.011904256248765642 0 0.011904256248765642 0.11559988865505266 0 0 0 0.061478211245276637 0.17331519845218962 0.011342765759406237 0 0.011342765759406237 0.17860360679111886 0 0 0 0.087979701310827219 0.13726883134945866 0.022337254675988127 0 0.022337254675988127 0.10642728203101703 0 0 0 0.060924028345118897 0.15672101313011746 0.011726493413083738 0 0.011726493413083738 0.12103738891986526 0 0 0 0.069439600512495675 0.17589041448781662 0.024170082405922971 0 0.024170082405922971 0.1376034718130561 0 0 0 0.078373471575218012 0.1467337971632473 0.0087215273993037634 0 0.0087215273993037634 0.11400898374434987 0 0 0 0.065185695226899321 0.21365615217336459 0.016553655462295369 0 0.016553655462295369 0.18565644871914866 0 0 0 0.099828150223128354 0.20598974453558483 0.0059148727877444407 0 0.0059148727877444407 0.20195061833671546 0 0 0 0.10198509071807504 0.19616052951326729 0.0028913954144599296 0 0.0028913954144599296 0.14888842164391233 0 0 0 0.086262237789294829 0.21615922579167224 0.0011184259652079476 0 0.0011184259652079476 0.19810207266827007 0 0 0 0.10356532461498569 0.085394928730993247 0.0082672476369030565 0 0.0082672476369030565 0.25660413639532931 0 0 0 0.085499766281580625 0.26077315633317838 0.01375921975771266 0 0.01375921975771266 0.21276693754619547 0 0 0 0.11838502346984353 0.24071403489804924 0.013588176239995864 0 0.013588176239995864 0.20629312836848684 0 0 0 0.11175179081663368 0.20113187145741662 -0.0016992822417648545 0 -0.0016992822417648545 0.18953423914651601 0 0 0 0.097666527650983603 0.232324473016285 0.018295319103375007 0 0.018295319103375007 0.20535069266432782 0 0 0 0.10941879142015321 0.097876253755394133 0.0082284340906740756 0 0.0082284340906740756 0.2894235098042004 0 0 0 0.096824940889898625 0.29491350690092943 0.00071675825476269495 0 0.00071675825476269495 0.2343389370822635 0 0 0 0.13231311099579912 0.24380167785985307 -0.013021574633457433 0 -0.013021574633457433 0.21947052165897674 0 0 0 0.11581804987970745 0.15761610174730267 0.024045441656246003 0 0.024045441656246003 0.10360652787537838 0 0 0 0.065305657405670237 0.22644522216194685 0.019974708244269723 0 0.019974708244269723 0.21546704012119022 0 0 0 0.11047806557078421 0.28833695624458233 0.0021792068267954502 0 0.0021792068267954502 0.22529968142659706 0 0 0 0.12840915941779485 0.22946367876383289 0.023348645455692929 0 0.023348645455692929 0.19960659344034948 0 0 0 0.10726756805104554 0.18999774828448179 -0.0032664540916427925 0 -0.0032664540916427925 0.11329097802059729 0 0 0 0.075822181576269965 0.084751191156182626 0.010611199728148946 0 0.010611199728148946 0.030498039711288394 0 0 0 0.028812307716867658 0.13741325572849727 0.018679754264445791 0 0.018679754264445791 0.074492377380767749 0 0 0 0.052976408277316311 0.11353973537272999 0.0055339758002906306 0 0.0055339758002906306 0.0031527072109338583 0 0 0 0.029173110645915989 0.12013530744216527 0.0059296488008706572 0 0.0059296488008706572 0.081296569706081678 0 0 0 0.050357969287061599 0.10449736030368384 0.0097878884638756269 0 0.0097878884638756269 0.033103063976462455 0 0 0 0.034400106070036518 0.089395177226142208 0.012787665715430496 0 0.012787665715430496 0.037200583592756908 0 0 0 0.031648940204724751 0.099759441513930486 0.0075204516972614543 0 0.0075204516972614543 0.061149194291598097 0 0 0 0.04022715895138209 0.12597781858737789 0.021400786306223357 0 0.021400786306223357 0.077282265443612053 0 0 0 0.050815021007747485 0.06500481479842668 0.0057442949496334106 0 0.0057442949496334106 0.014428596027576956 0 0 0 0.019858352706500937 0.068722234781591604 0.0047787670854519959 0 0.0047787670854519959 0.028818730838995294 0 0 0 0.024385241405146793 0.069049896294998747 0.010922283403342059 0 0.010922283403342059 0.013970199057498522 0 0 0 0.020755023838124442 0.078048626528088444 0.0045841719285031335 0 0.0045841719285031335 0.03448380946273566 0 0 0 0.02813310899770597 0.05728340340766902 0.00064337773713246671 0 0.00064337773713246671 0.0092853224371283183 0 0 0 0.016642181461199335 0.069258195638502495 -0.0019373473821060472 0 -0.0019373473821060472 -0.0031926517367371066 0 0 0 0.016516385975441306 0.060692361724795529 0.0054735766887160642 0 0.0054735766887160642 -0.040758995435865142 0 0 0 0.0049833415722325691 0.055201912431757538 -0.0026860702171744855 0 -0.0026860702171744855 -0.015909806539286198 0 0 0 0.0098230264731178352 0.052251540193576362 -0.0036074585448273577 0 -0.0036074585448273577 -0.05226564783785137 0 0 0 -3.5269110687519145e-06 0.05167497485420347 0.002020215936064218 0 0.002020215936064218 -0.018384376145370585 0 0 0 0.0083226496772080827 0.048858257022165896 -0.0066160590443783973 0 -0.0066160590443783973 -0.001114631211267314 0 0 0 0.011935906452724632 0.053985393267185683 0.0017481569812136666 0 0.0017481569812136666 -0.014319393442057904 0 0 0 0.0099164999562819933 0.091530650798942848 -0.014652184715410245 0 -0.014652184715410245 0.017974798384894353 0 0 0 0.0273763622959593 0.076528454487977834 -0.0025728100475487237 0 -0.0025728100475487237 -0.027184448986856156 0 0 0 0.012336001375280448 0.060864646326684202 -0.0098790449312080655 0 -0.0098790449312080655 0.00077636858995444591 0 0 0 0.015410253729159606 0.077066901440742575 -0.0080368945494694588 0 -0.0080368945494694588 0.040181442538263834 0 0 0 0.029312085994751547 0.067444828640354004 -0.0079618713837360522 0 -0.0079618713837360522 0.0041687882192015246 0 0 0 0.01790340421488873 0.061360977635348313 -0.0087386385293728441 0 -0.0087386385293728441 0.018297875094961391 0 0 0 0.019914713182577481 0.065132807357637934 -0.010501971596297316 0 -0.010501971596297316 0.035511761802989206 0 0 0 0.025161142290156757 0.079083653773173723 -0.015919141655144242 0 -0.015919141655144242 0.035114676517741028 0 0 0 0.02854958257272866 0.058707792580792811 -0.0023737825003311563 0 -0.0023737825003311563 0.0054450368652242398 0 0 0 0.016038207361504325 0.056533803400110438 -0.0079659670910498526 0 -0.0079659670910498526 0.018416491343339336 0 0 0 0.018737573685862485 0.052154468399896958 -0.0037322524120084744 0 -0.0037322524120084744 0.013097238777851183 0 0 0 0.016312926794437077 0.059926834114251093 -0.0016726831080691174 0 -0.0016726831080691174 0.016726886640383021 0 0 0 0.019163430188658515 0.057858179826879685 -0.0045978226334065786 0 -0.0045978226334065786 0.015323196293440811 0 0 0 0.018295344030080041 0.060108819524248402 -0.0060696285355194002 0 -0.0060696285355194002 0.018713083011785425 0 0 0 0.019705475634008374 0.055322832936297472 -0.0088954301769908484 0 -0.0088954301769908484 0.018421614916656726 0 0 0 0.018436111963238577 0.052512220711328439 -0.0054552753406740262 0 -0.0054552753406740262 0.01630749927416586 0 0 0 0.017204929996373575 0.058670362583409463 -0.010730253185594396 0 -0.010730253185594396 0.02112648595115596 0 0 0 0.01994921213364137 0.056968756391218345 -0.010485509973423429 0 -0.010485509973423429 0.021327781406895063 0 0 0 0.01957413444952838 0.065563835184601765 -0.015538165001079796 0 -0.015538165001079796 0.034134980734672887 0 0 0 0.024924703979818635 0.071182589935514295 -0.013705181014437628 0 -0.013705181014437628 0.049766820200351614 0 0 0 0.030237352533966422 0.059727068111801285 -0.011970467681162 0 -0.011970467681162 0.028040277785632339 0 0 0 0.021941836474358323 0.055336499717805299 -0.013603204397748647 0 -0.013603204397748647 0.019968585131343364 0 0 0 0.018826271212287138 0.057782090855252807 -0.015381710663293302 0 -0.015381710663293302 0.029076612220124837 0 0 0 0.02171467576884438 0.062024770969867637 -0.015545908904735381 0 -0.015545908904735381 0.04294160519035084 0 0 0 0.026241594040054717 0.059363406924502364 -0.015645509099627475 0 -0.015645509099627475 0.021915769460046169 0 0 0 0.020319794096137149 0.054935009051537087 -0.014624553744823951 0 -0.014624553744823951 0.0090486533445881534 0 0 0 0.015995915599031296 0.066275860479279025 -0.0099910495654520481 0 -0.0099910495654520481 0.014578081427778652 0 0 0 0.020213485476764374 0.05706671947059061 -0.0085394705467855547 0 -0.0085394705467855547 0.011628275730306781 0 0 0 0.017173748800224375 0.065770648857544509 -0.0041142168420654768 0 -0.0041142168420654768 0.01794589401772553 0 0 0 0.020929135718817649 0.060204923500241703 -0.010269450607045094 0 -0.010269450607045094 0.019403588774538238 0 0 0 0.019902128068695013 0.086901180506566589 -0.018033035414324772 0 -0.018033035414324772 0.082354121335896036 0 0 0 0.042313825460615795 0.030483639307433766 -0.012178585200280629 0 -0.012178585200280629 0.091264275315223936 0 0 0 0.030436978655664429 0.09834166886181539 -0.015674185980396493 0 -0.015674185980396493 0.074429613895632851 0 0 0 0.043192820689362144 0.075554113387372723 -0.017069137089358477 0 -0.017069137089358477 0.0746667998131465 0 0 0 0.037555228300129861 0.06270417222461977 -0.01422931963838657 0 -0.01422931963838657 0.070224675951808146 0 0 0 0.033232212044106979 0.057444808886977228 -0.020189236251120679 0 -0.020189236251120679 0.039705836686573209 0 0 0 0.024287661393387616 0.059199220140395747 -0.018786787806646804 0 -0.018786787806646804 0.047677477751843611 0 0 0 0.026719174473059881 0.068591545186647174 -0.016430492748664594 0 -0.016430492748664594 0.044051804276622364 0 0 0 0.028160837365817426 0.084928459832073616 -0.01142494486062462 0 -0.01142494486062462 0.082535083734243231 0 0 0 0.041865885891579219 0.07505301707028833 -0.017488886624286992 0 -0.017488886624286992 0.066938427765531827 0 0 0 0.035497861208955039 0.093080858462699839 -0.013475758604465815 0 -0.013475758604465815 0.068155191820430006 0 0 0 0.040309012570782538 0.081705112508942745 -0.019661846654118853 0 -0.019661846654118853 0.056960190237857367 0 0 0 0.034666325686700028 0.10238067006317675 -0.014186982965691625 0 -0.014186982965691625 0.098530063617424002 0 0 0 0.050227683420150382 0.12959736307003344 -0.016057273414298079 0 -0.016057273414298079 0.10113261506708726 0 0 0 0.057682494534280204 0.093456386306333239 -0.013135155344952354 0 -0.013135155344952354 0.083330718411583238 0 0 0 0.044196776179479036 0.096123594873312901 -0.022153391053586824 0 -0.022153391053586824 0.083578545996002784 0 0 0 0.044925535217328783 0.04136278637906321 -0.012401562619922627 0 -0.012401562619922627 0.12377493657752903 0 0 0 0.041284430739148059 0.10120477611427964 -0.016991124552252601 0 -0.016991124552252601 0.091009875759320513 0 0 0 0.048053662968399968 0.10550077643231104 -0.016879625739701132 0 -0.016879625739701132 0.087014309947410773 0 0 0 0.048128771594930564 0.03563345901297086 -0.012447087830383074 0 -0.012447087830383074 0.10669450448995682 0 0 0 0.035581990875731911 0.12102776473237697 -0.0099228590339277556 0 -0.0099228590339277556 0.10736932379336395 0 0 0 0.057099272131435397 0.047739086739382985 -0.012058530372972132 0 -0.012058530372972132 0.14305289239223501 0 0 0 0.047697994782904485 0.16392784667620158 -0.013983686969855635 0 -0.013983686969855635 0.11623856781784947 0 0 0 0.070041603623512583 0.13827514696045015 -0.016372025279322688 0 -0.016372025279322688 0.11348997604221449 0 0 0 0.062941280750666156 0.11789166932244366 -0.0079148651318838859 0 -0.0079148651318838859 0.10202826876145465 0 0 0 0.054979984520974634 0.09079416859183026 -0.010253098151141393 0 -0.010253098151141393 0.063152055392130202 0 0 0 0.038486555995990213 0.10946468507811269 -0.019626518009824845 0 -0.019626518009824845 0.072032937675205133 0 0 0 0.0453744056883294 0.12655870948033615 -0.010341421180630861 0 -0.010341421180630861 0.11252108369309632 0 0 0 0.059769948293358188 0.1234861623902688 -0.0051804023043853231 0 -0.0051804023043853231 0.079265919645152061 0 0 0 0.05068802050885516 0.10062658437222022 -0.018343455167632916 0 -0.018343455167632916 0.044262231733400714 0 0 0 0.036222204026405247 0.14367846673481111 -0.018341088880490158 0 -0.018341088880490158 0.1171897112311564 0 0 0 0.065217044491491905 0.18384271785868805 -0.0045077100935893011 0 -0.0045077100935893011 0.12242701498771519 0 0 0 0.076567433211600824 0.14744341238626701 -0.018754413923258551 0 -0.018754413923258551 0.10186526281419717 0 0 0 0.062327168800116017 0.1217317037938928 0.0015334305324180564 0 0.0015334305324180564 0.050459583407664842 0 0 0 0.043047821800389449 0.14295044274581636 -0.016919153855121216 0 -0.016919153855121216 0.11270856748125091 0 0 0 0.063914752556766929 0.055516215668505439 -0.011784768738491274 0 -0.011784768738491274 0.16549928758310062 0 0 0 0.055253875812901504 0.18249928423647255 -0.004658099636027843 0 -0.004658099636027843 0.1333491075271116 0 0 0 0.078962097940895593 0.15194360000860541 0.0046137093667839579 0 0.0046137093667839579 0.12130489042848502 0 0 0 0.068312122609272441 0.12876215942753111 -0.0087736794437720533 0 -0.0087736794437720533 0.082416707179634674 0 0 0 0.052794716651791362 0.097244532032369824 0.0057917811344434522 0 0.0057917811344434522 0.055948037394340844 0 0 0 0.038298142356677944 0.09408199411754703 -0.0094682188209931351 0 -0.0094682188209931351 0.057333564342269661 0 0 0 0.037853889614954284 0.11070599183241334 -8.5732070898458801e-05 0 -8.5732070898458801e-05 0.077964837197679215 0 0 0 0.047167707257523145 0.069999123263240648 -0.0032554063651426546 0 -0.0032554063651426546 0.047997438568882167 0 0 0 0.029499140458030038 0.039299687251827198 -0.0076508047205694485 0 -0.0076508047205694485 0.023069122043814172 0 0 0 0.015592202323910564 0.037249530096561401 -0.0097894723541380162 0 -0.0097894723541380162 0.016918650578117145 0 0 0 0.013542045168669858 0.061547574258785431 -0.0020558978857917742 0 -0.0020558978857917742 0.022966119004153462 0 0 0 0.021128423315734945 0.065402794682771215 -0.013194682080568843 0 -0.013194682080568843 0.034165611224600045 0 0 0 0.024892101476842732 0.037232070816562324 -0.017226739604841695 0 -0.017226739604841695 0.027735077210099934 0 0 0 0.016241787006665565 0.033654523155886018 -0.015877050515545915 0 -0.015877050515545915 0.017539532857489881 0 0 0 0.012798514003343975 0.052157741094763899 -0.01737231854972765 0 -0.01737231854972765 0.030569824962783043 0 0 0 0.020681891514386819 0.082617577326229374 -0.014004944991047541 0 -0.014004944991047541 0.059431588378852818 0 0 0 0.035512291426270826 0.10082950500285204 -0.018133309440668488 0 -0.018133309440668488 0.064175205960839143 0 0 0 0.041251177740922351 0.073143009590142305 -0.0081415685051682285 0 -0.0081415685051682285 0.051894737631526522 0 0 0 0.031259436805417207 0.008916727486069087 -0.0034713942363837624 0 -0.0034713942363837624 0.010012986365571575 0 0 0 0.0047324284629099989 0.0065272218484433431 -0.0019399290165534617 0 -0.0019399290165534617 0.0071733148635990673 0 0 0 0.0034251341780104916 0.0091913365867559039 -0.0013164881428426867 0 -0.0013164881428426867 0.0076721783598823366 0 0 0 0.0042158787366596709 0.011293093340101645 -0.0025082612227380618 0 -0.0025082612227380618 0.0080914233802582558 0 0 0 0.0048461291800903084 0.0079368007627516057 -0.0042404891104343978 0 -0.0042404891104343978 0.0072841559593062044 0 0 0 0.0038052391805143415 0.013596723400280064 -0.0072046914945669283 0 -0.0072046914945669283 0.0076965380017810503 0 0 0 0.0053233153505154451 0.022656773226329863 -0.005673140018655376 0 -0.005673140018655376 0.0093892853112063079 0 0 0 0.0080115146343835431 0.014406398832586209 -0.0024435008542733616 0 -0.0024435008542733616 0.0049173957246306799 0 0 0 0.0048309486393045553 0.022362524744037177 -0.0035540303357561864 0 -0.0035540303357561864 0.0069245966993030077 0 0 0 0.0073217803608350467 0.017468292534928653 -0.011808571964600612 0 -0.011808571964600612 0.010782028706614488 0 0 0 0.0070625803103857576 0.011150492751268559 -0.017317467926578844 0 -0.017317467926578844 0.012258546306178619 0 0 0 0.0058522597643616558 -0.0042443451516047948 -0.01136495824983963 0 -0.01136495824983963 0.0070716028723777913 0 0 0 0.00070681443019313117 0.016104393219566193 -0.0095106182984090459 0 -0.0095106182984090459 0.009716023626780701 0 0 0 0.0064551042115866264 0.0077763980499083729 -0.011424039721943169 0 -0.011424039721943169 0.011049778775642061 0 0 0 0.0047065442063873864 0.0022867686063433035 -0.0046177176764472527 0 -0.0046177176764472527 0.0075419913506161729 0 0 0 0.002457189989239883 -0.011298079247271272 -0.0054315905993536084 0 -0.0054315905993536084 0.0058679152072987429 0 0 0 -0.0013575410099931325 0.00049368533716021012 -0.0047022411015285037 0 -0.0047022411015285037 0.009798861006956372 0 0 0 0.0025731365860293121 -0.02585134596483607 -0.0067645630721435701 0 -0.0067645630721435701 0.0083792578345471824 0 0 0 -0.0043680220325722496 -0.0015830113549022418 -0.0091953306193242046 0 -0.0091953306193242046 0.010043831449483065 0 0 0 0.0021152050236452613 -0.0050723591923793609 -0.014465590130616324 0 -0.014465590130616324 0.0083207675414485038 0 0 0 0.00081210208726711919 -0.019727032393944022 -0.0071468086701753641 0 -0.0071468086701753641 0.0036561939105761998 0 0 0 -0.0040177096208415808 -0.0072283478632747256 -0.017118840983513905 0 -0.017118840983513905 0.00765545829832881 0 0 0 0.00010677760876323661 0.010774806487367394 -0.018205424277709215 0 -0.018205424277709215 0.012772709329372578 0 0 0 0.0058868789541850486 0.0067346040541691465 -0.023335520065081383 0 -0.023335520065081383 0.011041353059045633 0 0 0 0.0044439892783036949 0.0081052281549671701 -0.022289631209737648 0 -0.022289631209737648 0.013976185685290687 0 0 0 0.0055203534600647419 -0.0082147874488092132 -0.018796167792502372 0 -0.018796167792502372 0.0063912301179618325 0 0 0 -0.00045588933271201171 -0.0094741853089535324 -0.023662327451012044 0 -0.023662327451012044 0.0088812087653197258 0 0 0 -0.00014824413590844993 0.0064241677539125241 -0.027306579947947607 0 -0.027306579947947607 0.014695683768005008 0 0 0 0.005279962880479383 -0.015988876284006914 -0.022393787371109086 0 -0.022393787371109086 0.0063779379743671427 0 0 0 -0.0024027345774103592 -0.024151618549387965 -0.0134438377483177 0 -0.0134438377483177 0.0066439611795536813 0 0 0 -0.004376914342458349 -0.030429869848203284 -0.011224368551926212 0 -0.011224368551926212 0.0029527554663082434 0 0 0 -0.0068692785954738156 -0.031571997031159316 -0.011399627556502034 0 -0.011399627556502034 0.0083116764206363491 0 0 0 -0.0058150801526307694 -0.046166833175611877 -0.0063108048399826977 0 -0.0063108048399826977 0.0037379850945609139 0 0 0 -0.010607212020262824 -0.026515930301346025 -0.0055914677192803186 0 -0.0055914677192803186 0.0065467217635957198 0 0 0 -0.0049923021344375762 0.064264221957103018 -0.024122536914903847 0 -0.024122536914903847 0.040560414045706317 0 0 0 0.026206159000702445 0.050488379507203751 -0.021812520221845544 0 -0.021812520221845544 0.040005131578448427 0 0 0 0.022623377771412878 0.070943933913977464 -0.02483396224425527 0 -0.02483396224425527 0.061178557786517374 0 0 0 0.033030622925123598 0.063111109659038211 -0.024988690006633618 0 -0.024988690006633618 0.043414816878579288 0 0 0 0.02663148163440443 0.028500976435805292 -0.022154149290571912 0 -0.022154149290571912 0.02343366993872209 0 0 0 0.012983661593631624 0.026421705179797472 -0.021576198124349411 0 -0.021576198124349411 0.016928684166078067 0 0 0 0.010837597336469051 0.045118174659216859 -0.025597365278631851 0 -0.025597365278631851 0.025975051010390438 0 0 0 0.017773306417402157 0.036866761213602439 -0.029030977930966317 0 -0.029030977930966317 0.021788397947319016 0 0 0 0.014663789790230419 0.022688255176709304 -0.025853593245401374 0 -0.025853593245401374 0.021066671838447792 0 0 0 0.010938731753789177 0.019742545491971075 -0.023763847838483398 0 -0.023763847838483398 0.013872636547425543 0 0 0 0.0084037955098492656 0.019122253370693773 -0.024587254355795229 0 -0.024587254355795229 0.017559417137793132 0 0 0 0.0091704176271216048 0.056227469454177115 -0.026783941089652208 0 -0.026783941089652208 0.033147704310081849 0 0 0 0.02234379344106463 0.041526399944014747 -0.025287840186276729 0 -0.025287840186276729 0.035329088933617747 0 0 0 0.019213872219408179 0.078552312727465878 -0.020113801383908753 0 -0.020113801383908753 0.055182287646651673 0 0 0 0.033433650093529499 0.06114591845147499 -0.02496058341893459 0 -0.02496058341893459 0.048800637792062229 0 0 0 0.027486639060884444 0.072596977933767348 -0.02058155900975156 0 -0.02058155900975156 0.045854807810715048 0 0 0 0.029612946436120502 0.054926539238460248 -0.02886495533498723 0 -0.02886495533498723 0.033514829176508165 0 0 0 0.022110342103742076 0.058586554752563025 -0.023307661344780128 0 -0.023307661344780128 0.034734834347878163 0 0 0 0.023330347275110408 0.067161298640328937 -0.026365517984859421 0 -0.026365517984859421 0.034667921867087781 0 0 0 0.025457305126854068 0.037902171864360512 -0.032290850575324992 0 -0.032290850575324992 0.022305450395030846 0 0 0 0.015051905564847812 0.04310912302527764 -0.02445602187447804 0 -0.02445602187447804 0.031204950454706282 0 0 0 0.018578518369995856 0.035255510143304081 -0.031960216044133793 0 -0.031960216044133793 0.019494074386062987 0 0 0 0.013687396132341823 0.011012185566153132 -0.031002294934702745 0 -0.031002294934702745 0.012573589033895161 0 0 0 0.0058964436500120732 0.0050384266541758649 -0.025340175317195623 0 -0.025340175317195623 0.010299780799417402 0 0 0 0.0038345518633983167 0.033761884945054083 -0.02683126746463449 0 -0.02683126746463449 0.019500740053171567 0 0 0 0.013315656249556468 0.016278884135324634 -0.03524220031921016 0 -0.03524220031921016 0.011935080431578537 0 0 0 0.0070534911417258206 0.029265057318934362 -0.028427623414755798 0 -0.028427623414755798 0.015129722525118794 0 0 0 0.011098694961013345 0.0035905797481719515 -0.030357797470797143 0 -0.030357797470797143 0.0087292802769807221 0 0 0 0.00307996500628821 0.0049543107476587855 -0.034554594225949697 0 -0.034554594225949697 0.015274485750341737 0 0 0 0.0050571991245000891 0.061502985038464492 -0.032124063232395306 0 -0.032124063232395306 0.023273152356023619 0 0 0 0.021194034348622076 0.066210861200087789 -0.025346687793341913 0 -0.025346687793341913 0.030584024782100983 0 0 0 0.024198721495547026 0.059502465329005272 -0.024291390282954073 0 -0.024291390282954073 0.035885869230526168 0 0 0 0.023847083639882971 0.030869503309625013 -0.034195004416469166 0 -0.034195004416469166 0.018737929764146122 0 0 0 0.012401858268442756 0.055365428715009712 -0.027748254689468621 0 -0.027748254689468621 0.024880103683883714 0 0 0 0.020061383099723606 -0.050411708285468149 -0.012133025278873943 0 -0.012133025278873943 0.006363103410268689 0 0 0 -0.011012151218799948 -0.063806930373529261 -0.007722367734277702 0 -0.007722367734277702 0.0016886774646302574 0 0 0 -0.01552956322722478 -0.04861938948978789 -0.0071007190890977068 0 -0.0071007190890977068 0.0020664786757367826 0 0 0 -0.011638227703512805 -0.065631588395542284 -0.0084998364606563952 0 -0.0084998364606563952 0.0060136676796807009 0 0 0 -0.014904480178965507 -0.034752967717130434 -0.010618629628392329 0 -0.010618629628392329 0.0014694279684612788 0 0 0 -0.0083208849371669835 -0.017540663988852789 -0.021241210910311725 0 -0.021241210910311725 0.007182535013257052 0 0 0 -0.0025895322438991286 -0.035284179479114108 -0.021323451827926207 0 -0.021323451827926207 0.0061170846950258095 0 0 0 -0.0072917736960219637 -0.0092926274790158803 -0.02144844329318274 0 -0.02144844329318274 0.0068359489055731526 0 0 0 -0.00061416964336052926 -0.015158317119308706 -0.030683884759001523 0 -0.030683884759001523 0.0092616093308564018 0 0 0 -0.0014741769471130484 -0.020661272312177514 -0.027822312386495796 0 -0.027822312386495796 0.0085521658142506674 0 0 0 -0.0030272766244817673 -0.016803121537187472 -0.024886989458142272 0 -0.024886989458142272 0.0084986926685362077 0 0 0 -0.0020761072171628144 -0.018971719695566103 -0.03295823171535292 0 -0.03295823171535292 0.012628254010684126 0 0 0 -0.0015858664212202722 -0.031071754446549311 -0.020413249945699485 0 -0.020413249945699485 0.0056645277324139653 0 0 0 -0.0063518066785337515 -0.044911929783339466 -0.02442061405146384 0 -0.02442061405146384 0.0076066599712745209 0 0 0 -0.0093263174530162085 -0.043407022086418112 -0.020044874577077265 0 -0.020044874577077265 0.0039537169588966803 0 0 0 -0.009863326281880358 -0.043127246671580632 -0.020346262151176242 0 -0.020346262151176242 0.006763591976011174 0 0 0 -0.0090909136738923646 -0.070539731630927999 -0.013910961430297797 0 -0.013910961430297797 0.0037396101808162552 0 0 0 -0.01670003036252779 -0.066531652710304146 -0.0078689674369483154 0 -0.0078689674369483154 0.003567815723811707 0 0 0 -0.01574095924662311 -0.081936342786278815 -0.011572972474165666 0 -0.011572972474165666 0.0043864454873829839 0 0 0 -0.019387474324724097 -0.12398795693120568 -0.0084746764169800759 0 -0.0084746764169800759 0.0036525922237564679 0 0 0 -0.030083841176862303 -0.099036299360864277 -0.0092400192556884031 0 -0.0092400192556884031 0.0040645415680982122 0 0 0 -0.023742939448191613 -0.083416627964206014 -0.0055123203870952597 0 -0.0055123203870952597 0.0024660602525952147 0 0 0 -0.020237641927902783 -0.071520688169316116 -0.021726633387408822 0 -0.021726633387408822 0.0093640177318428108 0 0 0 -0.015539167609368243 -0.057197954377076199 -0.016298752593342791 0 -0.016298752593342791 0.0034515229911127321 0 0 0 -0.013436607846490811 -0.026188570019588964 -0.023916032198370213 0 -0.023916032198370213 0.0080334549126008792 0 0 0 -0.0045387787767470211 -0.031359399086592465 -0.030640482605682196 0 -0.030640482605682196 0.014833494166841099 0 0 0 -0.0041314762299378138 -0.029382641145251076 -0.0287103146500855 0 -0.0287103146500855 0.024489984998550929 0 0 0 -0.0012231640366749952 -0.043406888088832377 -0.017947470834683177 0 -0.017947470834683177 0.003683438939305228 0 0 0 -0.0099308622873816726 -0.044829738836528521 -0.021443029495522931 0 -0.021443029495522931 0.012229733555401801 0 0 0 -0.0081500013202817079 -0.068072597207071706 -0.0063353585598657225 0 -0.0063353585598657225 0.014151270757182477 0 0 0 -0.013480331612472252 -0.065783472183681024 -0.021243476147332491 0 -0.021243476147332491 0.011361845852609131 0 0 0 -0.013605406582767932 -0.086540474265458023 -0.010602108857143022 0 -0.010602108857143022 0.0041782871460602777 0 0 0 -0.02059054677984945 -0.081968055503572598 -0.0068998038801596495 0 -0.0068998038801596495 0.003333523254940178 0 0 0 -0.01965863306215802 -0.12526413544429296 -0.0056209222295645622 0 -0.0056209222295645622 0.0047626737800388064 0 0 0 -0.03012536541606356 0.033590652703538657 -0.032431125119255999 0 -0.032431125119255999 0.023273736821202887 0 0 0 0.01421609738118533 0.074348295543310017 -0.052422505751645004 0 -0.052422505751645004 0.046331671278996178 0 0 0 0.030169991705576604 0.032274257990632049 -0.037897847765546055 0 -0.037897847765546055 0.023936965004545119 0 0 0 0.01405280574879425 0.02785077806576941 -0.030820328599287995 0 -0.030820328599287995 0.014680260276690227 0 0 0 0.010632759585614937 -0.0047080014033966111 -0.032186863429526702 0 -0.032186863429526702 0.013246411966459926 0 0 0 0.0021346026407657592 -0.0026623447647525778 -0.03363145472930662 0 -0.03363145472930662 0.019755196814732479 0 0 0 0.0042732130124949474 0.023117639595913564 -0.042003445178251275 0 -0.042003445178251275 0.02902364732516971 0 0 0 0.013035321730270777 -0.0046164872886745867 -0.025060437578628608 0 -0.025060437578628608 0.028492529835372205 0 0 0 0.0059690106366744322 -0.039735891982560445 -0.016505777907040192 0 -0.016505777907040192 0.012572480871302583 0 0 0 -0.0067908527778144934 -0.028348103400710867 -0.011794131761394655 0 -0.011794131761394655 0.020904051594923034 0 0 0 -0.0018610129514469165 -0.011844482239023457 -0.032369208180129144 0 -0.032369208180129144 0.033634238877148448 0 0 0 0.0054474391595312199 0.027786849942785088 -0.037372926160214037 0 -0.037372926160214037 0.043089251035972886 0 0 0 0.017719025244689504 0.028625667392776943 -0.034583472818711172 0 -0.034583472818711172 0.043131054083967335 0 0 0 0.017939180369186014 0.060325584730685222 -0.047664964545710509 0 -0.047664964545710509 0.066340399265041039 0 0 0 0.031666495998931565 0.085779039511034078 -0.070824141859889889 0 -0.070824141859889889 0.13534779002229813 0 0 0 0.055281707383333073 -0.052809393300016355 0.020249360274119083 0 0.020249360274119083 0.076143168943225592 0 0 0 0.0058334439108023162 0.20121610975250792 -0.071649768421848919 0 -0.071649768421848919 0.06216724208269353 0 0 0 0.065845837958800335 0.0052491438285876268 -0.0025000687647109259 0 -0.0025000687647109259 0.015428334886666312 0 0 0 0.0051693696788134838 0.098640546099045517 -0.033302954457360423 0 -0.033302954457360423 0.01408434975545847 0 0 0 0.028181223963625962 0.091806306186684949 -0.028177806509492614 0 -0.028177806509492614 0.02827725366224465 0 0 0 0.030020889962232511 0.012681319425340908 -0.0063769030313267881 0 -0.0063769030313267881 0.037975439222881539 0 0 0 0.012664189662055611 0.13003991934563874 -0.019815966854900446 0 -0.019815966854900446 0.036184239169452237 0 0 0 0.041556039628772745 0.017234758799929428 -0.0088311316982205741 0 -0.0088311316982205741 0.051588164337359285 0 0 0 0.017205730784322179 0.094767611792333006 -0.017087727131949948 0 -0.017087727131949948 0.03749820414331495 0 0 0 0.033066453983912114 0.087520491677027856 -0.028670606610894711 0 -0.028670606610894711 0.027176861158255461 0 0 0 0.02867433820882076 0.020010831297469084 -0.015847363856662793 0 -0.015847363856662793 0.026263235439591859 0 0 0 0.011568516684265256 -0.0052682130683652934 -0.02279075332318703 0 -0.02279075332318703 0.03877838907374892 0 0 0 0.0083775440013459102 0.020570696247715452 -0.017419017948990909 0 -0.017419017948990909 0.032793483831589115 0 0 0 0.013341045019826157 -0.027191891288151512 -0.022289502464366239 0 -0.022289502464366239 0.025610419164751097 0 0 0 -0.0003953680308501073 0.020496279380356142 -0.003172637828387441 0 -0.003172637828387441 0.05315994039452826 0 0 0 0.0184140549437211 0.014104289943240006 -0.0011239034917742696 0 -0.0011239034917742696 0.013985846850778694 0 0 0 0.0070225341985046819 -0.010140100111939679 -0.0077709899013685135 0 -0.0077709899013685135 0.13881402375558738 0 0 0 0.032168480910911915 0.013859244898810477 0.0077035448580887039 0 0.0077035448580887039 0.053165851133496533 0 0 0 0.016756274008076791 0.029458482508739545 -0.0067407798298342314 0 -0.0067407798298342314 0.021459652945868823 0 0 0 0.012729533863652109 0.037934924018030197 -0.0094243266879881493 0 -0.0094243266879881493 0.051721228782056358 0 0 0 0.022414038200021635 0.027006944698477545 -0.01022670223761693 0 -0.01022670223761693 0.049131923592352578 0 0 0 0.019034717072707527 0.036446576270427716 -0.016017539881543919 0 -0.016017539881543919 0.052288432854339179 0 0 0 0.02218375228119171 0.036330944001584306 -0.014435395200875528 0 -0.014435395200875528 0.073659852372986764 0 0 0 0.027497699093642761 0.055108866828654526 -0.027375752991397728 0 -0.027375752991397728 0.055316880020450959 0 0 0 0.027606436712276347 0.06183653833910667 -0.029077618134495747 0 -0.029077618134495747 0.03229585452478384 0 0 0 0.023533098215972621 0.047456768494755219 -0.018055113362951458 0 -0.018055113362951458 0.030296783873063171 0 0 0 0.019438388091954611 0.049985091160083525 -0.022678889126469093 0 -0.022678889126469093 0.026156574098635477 0 0 0 0.019035416314679768 0.04497829382058785 -0.016485369729557338 0 -0.016485369729557338 0.023673465952812556 0 0 0 0.017162939943350108 0.04939758496182689 -0.021983302866707563 0 -0.021983302866707563 0.014163431706363361 0 0 0 0.015890254167047563 0.02993736926859842 -0.020451162112860799 0 -0.020451162112860799 0.026908583945714271 0 0 0 0.014211488303578164 0.045478388039697865 -0.019853381756542027 0 -0.019853381756542027 0.018858550343016645 0 0 0 0.016084234595678676 0.043651050687876392 -0.021862071067539873 0 -0.021862071067539873 0.014540573914891775 0 0 0 0.014547906150692069 0.035659459561857385 -0.02181992438341504 0 -0.02181992438341504 0.022294893774136515 0 0 0 0.014488588333998492 0.049572256852480137 -0.023854858923404443 0 -0.023854858923404443 0.012237366012735895 0 0 0 0.015452405716303977 0.0478213201460293 -0.0215758357213994 0 -0.0215758357213994 0.016947046020819201 0 0 0 0.016192091541712139 0.044577491612460635 -0.023448056000032386 0 -0.023448056000032386 0.023286756739775094 0 0 0 0.016966062088058925 0.063455158995283201 -0.02118306727717241 0 -0.02118306727717241 0.0095884257225363756 0 0 0 0.018260896179454866 0.056451437635315765 -0.02351447241291782 0 -0.02351447241291782 0.01682432495128286 0 0 0 0.01831894064664966 0.053715862606853598 -0.021752469044201139 0 -0.021752469044201139 0.011870460375075109 0 0 0 0.01639658074548217 0.06020463261212064 -0.020265966847879457 0 -0.020265966847879457 0.0098233920956173337 0 0 0 0.017507006176934514 0.063535644351468912 -0.022169821370868648 0 -0.022169821370868648 0.0097662292317285473 0 0 0 0.018325468395799408 0.061946373474047411 -0.012027567457552679 0 -0.012027567457552679 0.0035769733849548846 0 0 0 0.016380836714750546 0.054637115256297997 -0.019272837088126993 0 -0.019272837088126993 0.0077355091952480137 0 0 0 0.015593156112886475 0.065890132078665731 -0.014776595213345678 0 -0.014776595213345678 0.012629392265331107 0 0 0 0.019629881085999112 0.047171625636385717 -0.020378022672819518 0 -0.020378022672819518 0.028672068636427461 0 0 0 0.018960923568203281 0.056405222180067383 -0.018786377589342401 0 -0.018786377589342401 0.018950385368687206 0 0 0 0.018838901887188564 0.047284497764803257 -0.022839936830242824 0 -0.022839936830242824 0.017296641414271091 0 0 0 0.016145284794768511 0.051964961319510727 -0.018447684792225583 0 -0.018447684792225583 0.017441033028061215 0 0 0 0.017351498586892944 0.049390861694487892 -0.020291372606013436 0 -0.020291372606013436 0.029148608720465097 0 0 0 0.019634867603738226 0.057175031733900372 -0.017818000210059002 0 -0.017818000210059002 0.033215258379132306 0 0 0 0.022597572528258114 0.054107694678841467 -0.01872745922746466 0 -0.01872745922746466 0.047021493099380196 0 0 0 0.025282296944555527 0.042539658198442021 -0.021599740670471435 0 -0.021599740670471435 0.04190864338699607 0 0 0 0.021112075396359564 0.046871221911814615 -0.02046063944973614 0 -0.02046063944973614 0.035795255360604461 0 0 0 0.020666619318104762 0.048993036721694416 -0.015378861518521629 0 -0.015378861518521629 0.062078714891656173 0 0 0 0.027767937903337647 0.092657183075405103 -0.01523549191407092 0 -0.01523549191407092 0.061462664905933106 0 0 0 0.038529961995334483 0.02579031577054914 -0.011566613333914493 0 -0.011566613333914493 0.077219754097039683 0 0 0 0.025752517466897204 0.051843031359471325 -0.016957144809632119 0 -0.016957144809632119 0.065306630345509376 0 0 0 0.029287415426245078 0.078311410258762093 -0.019775811066810561 0 -0.019775811066810561 0.066706317215504018 0 0 0 0.036254431868566472 0.078366541170064419 -0.017778652873042367 0 -0.017778652873042367 0.056452752461227274 0 0 0 0.033704823407822992 0.095070650882745245 -0.013603380161216871 0 -0.013603380161216871 0.051690248826803176 0 0 0 0.036690224927387161 0.02486649872254755 -0.018008779567605104 0 -0.018008779567605104 0.053896787465752855 0 0 0 0.019690821547075091 0.021455043299124593 -0.010502535418080945 0 -0.010502535418080945 0.064243779209969903 0 0 0 0.021424705627273617 0.084375224325653142 -0.016040278296522964 0 -0.016040278296522964 0.048418533311515688 0 0 0 0.033198439409292235 0.076060451616801583 -0.024456933630505329 0 -0.024456933630505329 0.03059175051992935 0 0 0 0.026663050534182442 0.10243214291244401 -0.014301148294965205 0 -0.014301148294965205 0.042163020551481356 0 0 0 0.036148790865981495 0.02313947625538465 -0.018371181289076499 0 -0.018371181289076499 0.039961642460043412 0 0 0 0.015775279678857002 0.031475683180340039 -0.024701594492348988 0 -0.024701594492348988 0.022855524791779519 0 0 0 0.013582801993029844 0.031555698657966133 -0.023009582865779199 0 -0.023009582865779199 0.029966218995658211 0 0 0 0.015380479413406076 0.037340931880694817 -0.019605963052001796 0 -0.019605963052001796 0.044884749185507444 0 0 0 0.020556420266550524 
</DataArray>
<DataArray type="Float64" Name="cross_section_updated" format="ascii">
1 1 1 1 1 1 1 1 1 1 1 1 1 1 1 1 1 1 1 1 1 1 1 1 1 1 1 1 1 1 1 1 1 1 1 1 1 1 1 1 1 1 1 1 1 1 1 1 1 1 1 1 1 1 1 1 1 1 1 1 1 1 1 1 1 1 1 1 1 1 1 1 1 1 1 1 1 1 1 1 1 1 1 1 1 1 1 1 1 1 1 1 1 1 1 1 1 1 1 1 1 1 1 1 1 1 1 1 1 1 1 1 1 1 1 1 1 1 1 1 1 1 1 1 1 1 1 1 1 1 1 1 1 1 1 1 1 1 1 1 1 1 1 1 1 1 1 1 1 1 1 1 1 1 1 1 1 1 1 1 1 1 1 1 1 1 1 1 1 1 1 1 1 1 1 1 1 1 1 1 1 1 1 1 1 1 1 1 1 1 1 1 1 1 1 1 1 1 1 1 1 1 1 1 1 1 1 1 1 1 1 1 1 1 1 1 1 1 1 1 1 1 1 1 1 1 1 1 1 1 1 1 1 1 1 1 1 1 1 1 1 1 1 1 1 1 1 1 1 1 1 1 1 1 1 1 1 1 1 1 1 1 1 1 1 1 1 1 1 1 1 1 1 1 1 1 1 1 1 1 1 1 1 1 1 1 1 1 1 1 1 1 1 1 1 1 1 1 1 1 1 1 1 1 1 1 1 1 1 1 1 1 1 1 1 1 1 1 1 1 1 1 1 1 1 1 1 1 1 1 1 1 1 1 1 1 1 1 1 1 1 1 1 1 1 1 1 1 1 1 1 1 1 1 1 1 1 1 1 1 1 1 1 1 1 1 1 1 1 1 1 1 1 1 1 1 1 1 1 1 1 1 1 1 1 1 1 1 1 1 1 1 1 1 1 1 1 1 1 1 1 1 1 1 1 1 1 1 1 1 1 1 1 1 1 1 1 1 1 1 1 1 1 1 1 1 1 1 1 1 1 1 1 1 1 1 1 1 1 1 1 1 1 1 1 1 1 1 1 1 1 1 1 1 1 1 1 1 1 1 1 1 1 1 1 1 1 1 1 1 1 1 1 1 1 1 1 1 1 1 1 1 1 1 1 1 1 1 1 1 1 1 1 1 1 1 1 1 1 1 1 1 1 1 1 1 1 1 1 1 1 1 1 1 1 1 1 1 1 1 1 1 1 1 1 1 1 1 1 1 1 1 1 1 1 1 1 1 0.0020436920918152175 1 1 0.0021128206025676295 1 1 0.0021598603345707773 1 1 1 1 1 1 1 1 1 1 1 1 1 0.0022025183365335988 1 1 1 1 1 0.0022447903048628047 1 1 1 1 1 1 1 1 1 1 1 1 1 1 1 1 1 1 1 1 1 1 1 1 1 1 1 1 1 1 1 1 1 1 1 1 1 1 1 1 1 1 1 1 1 1 1 1 1 1 1 1 1 1 1 1 1 1 1 1 1 1 1 1 1 1 1 1 1 1 1 1 1 1 1 1 1 1 1 1 1 1 1 1 1 1 1 1 1 1 1 1 1 1 1 1 1 1 1 1 1 1 1 1 1 1 1 1 1 1 1 1 1 1 1 1 1 1 1 1 1 1 1 1 1 1 1 1 1 1 1 1 1 1 1 1 1 1 1 1 1 1 1 1 1 1 1 1 1 1 1 1 1 1 1 1 1 1 1 1 1 1 1 1 1 1 1 1 0.0022876730363279698 1 1 1 0.002332039301437004 1 1 0.0023784531339422839 1 1 1 1 1 1 1 1 1 1 1 0.0024277609252843719 1 1 1 1 0.0024814964222857547 1 1 1 1 1 1 1 1 1 1 1 1 1 1 1 1 1 1 1 1 1 1 1 1 1 1 1 1 1 1 1 1 1 1 1 1 1 1 1 1 1 1 1 1 1 1 1 1 1 1 1 1 1 1 1 1 1 1 0.0010760341208244494 1 1 1 1 1 1 1 1 1 1 1 1 1 1 0.0011031131322979761 1 1 0.0010888906420177813 1 0.0011191936220116632 1 1 1 1 1 1 1 1 1 1 1 1 1 0.001137806764712749 1 1 1 1 1 1 1 1 1 1 1 1 1 1 1 1 1 1 1 1 1 1 1 1 1 1 1 1 1 1 1 1 1 1 1 1 1 1 1 1 1 1 1 1 1 1 1 1 1 1 1 1 1 1 1 1 1 1 1 1 1 1 1 1 1 1 1 1 1 1 1 1 1 1 1 1 1 1 1 1 1 1 1 1 1 1 1 1 1 1 1 1 1 1 1 1 1 1 1 1 1 1 1 1 1 1 1 1 1 1 1 1 1 1 1 1 1 1 1 1 1 1 1 1 1 1 1 1 1 1 1 1 1 1 1 1 0.0010128237065098161 1 1 0.0010316390619510324 1 0.0010429780419412965 1 1 1 1 1 1 1 1 1 1 1 1 1 1 1 1 1 1 1 1 1 1 1 1 1 1 1 1 1 1 1 1 1 1 1 1 1 1 1 1 1 1 1 1 1 1 1 0.001064334045787678 1 1 1 1 1 0.0010535238419783705 1 1 1 1 1 1 1 
</DataArray>
<DataArray type="Float64" Name="displacement_divergence" format="ascii">
-3.7738634991969356e-05 -4.1846338931298343e-05 -3.1777203116176884e-05 -3.6511484386226608e-05 -3.4451319712010182e-05 -3.4431953276826654e-05 -3.1879416551430946e-05 -3.3786574030906404e-05 -3.0731988851159411e-05 -2.316635903879539e-05 -3.3944615582902427e-05 -2.1684964787839786e-05 -4.1168097625731917e-05 -3.1261134602360044e-05 -5.0093313125954158e-05 -3.9626479717184545e-05 -3.3902048752908918e-05 -3.7114127157334505e-05 -5.3928119715300205e-06 -9.8337857825912901e-06 -1.0572815098384728e-05 -1.9011129505776757e-05 -2.2415327917671242e-05 -1.3669596937953672e-05 -1.5920229991974203e-05 -2.0254007654250294e-05 -2.1796056071479443e-05 -1.9377826113733737e-05 -7.9834448668272119e-06 -9.6232371317636736e-06 -4.8443994594005445e-06 2.3498094775639862e-08 -1.6556295619324357e-06 -9.4135409404125529e-07 -9.5263650046542716e-06 -2.1383742148320007e-05 -1.7584504346278716e-05 -1.0609627931586725e-05 -2.0230651765859702e-05 -2.3416482767724852e-05 -1.6556003225001079e-05 -1.0549653133413893e-05 -1.0516514787675336e-05 -1.7416784587732494e-06 -1.0913085194372182e-05 -5.9845346676068387e-06 6.4011786168794067e-06 -1.5619225231361367e-07 -4.948035578842843e-05 -3.7990987975511041e-05 -5.699878280495964e-05 -3.7554488717255968e-05 -2.8976283954171145e-05 -3.1337982404614975e-05 -3.1807220874979699e-05 -3.5307740695414013e-05 -2.5482226713028678e-05 -3.7849595138729188e-05 -2.9771016356378732e-05 -3.6036540231715704e-05 -5.1270915382222925e-05 -4.9443824922206513e-05 -4.6992488237584537e-05 -6.4605428127176122e-05 -6.8169287021513359e-05 -4.8364805428794656e-05 -5.5675259032503791e-05 -7.6260902899000091e-05 -5.6636202868167758e-05 -5.6884182602256645e-05 -5.945650082891894e-05 -8.6164151354149046e-05 -3.0672671741002612e-05 -2.6303828797352304e-05 -4.4015797999551372e-05 -4.0996407752686405e-05 -2.7311303349710951e-05 -4.8393315095361298e-05 -4.2396702611473768e-05 -3.6881174767457994e-05 -2.5792297124621314e-05 -1.6438337761913545e-05 -1.5116129661302788e-05 -1.1384686979752495e-05 -5.8849190065901913e-06 -2.6496834073759815e-05 4.5926656487095934e-06 -8.7025523521475534e-07 -6.3042246240982957e-07 1.3418791978521275e-05 7.1569639364338171e-06 4.5159134853347109e-06 1.596455769308011e-05 2.1812064623078387e-05 -1.3934610922614132e-05 -2.0112081776585713e-05 -9.8361740423200171e-07 -4.7906037187452531e-06 -8.3838080885145511e-06 -1.40920569539253e-05 3.8864967213179231e-06 -1.2310508899873436e-05 3.8511078880705215e-05 5.8249240779033665e-06 1.6651587287705216e-05 2.892999747691459e-05 4.1297867599039169e-05 3.6368212425479769e-05 3.2122715678254712e-05 3.4981947485184314e-05 6.9108135996981163e-05 1.6698572419699418e-06 1.2306685763650523e-05 1.4665721199563661e-05 -1.2074133150083888e-05 -1.3562201893818344e-05 -3.0474066255428396e-05 -4.1228066053718544e-05 -4.6251234216160818e-05 -5.881608631032808e-05 -8.4204155766981503e-05 -6.2787340852263156e-05 -6.0210563414896329e-05 -6.7403424876205648e-05 -5.4411042987854898e-05 -8.8040955422588081e-05 -6.4019266744234134e-05 -3.9363309149732963e-05 -2.5479228742499515e-05 -4.2011663744743184e-05 6.2673506747043864e-05 5.3995575314294421e-05 4.9717885236283689e-05 5.2793266685277148e-05 6.0834380029458634e-05 7.0333708125830169e-05 6.332642978055748e-05 6.0416268681372858e-05 6.4307039270707054e-05 6.0350213927104862e-05 5.2050841478994277e-05 6.1102637528753149e-05 5.6203395332572617e-05 6.1048048917342659e-05 6.8436853763913821e-05 0.00012934968920486203 6.0330675455039625e-05 8.6405715035892363e-05 5.54061173732756e-05 0.00011987035368321461 7.5565018000668812e-05 0.00011673357624463844 6.9174956523240143e-05 6.0242017708879871e-05 7.0643485712028521e-05 4.4965156612637227e-05 4.442816121232626e-05 6.1287072231050904e-05 4.8751643486868142e-05 6.2383229504634537e-05 3.7033439212399316e-05 5.4560633590731441e-05 4.1904608714673919e-05 3.8963732376805549e-05 2.8377993995812291e-05 3.4478326976064474e-05 3.3970092965939385e-05 3.1989825351498437e-05 2.0029195686077017e-05 2.3844710989192997e-05 2.0971239576278147e-05 1.4999271041866593e-05 1.0378390167448308e-05 3.2581664117545122e-05 3.018161003600629e-05 2.7995933800521871e-05 2.4318643811156642e-05 3.400346693023179e-05 3.0765613200735104e-05 4.0393373681776431e-05 3.8816510878923403e-05 3.8623953190101278e-05 4.3820066983571309e-05 3.8397589511145017e-05 5.2830167396970045e-05 4.7771325390456496e-05 4.4914614097013398e-05 5.7184979981085443e-05 4.2726601057927175e-05 7.2657874906786375e-05 5.1457694001283394e-05 6.3120316324526867e-05 4.8609794624890846e-05 5.7755713085488707e-05 6.0471803518805418e-05 4.6656606719565662e-05 4.9803950838243086e-05 4.9722848087687591e-05 4.2634157877460656e-05 3.412814002178074e-05 4.01224316551093e-05 3.9974386923232292e-05 3.1995023972396423e-05 2.8509728207399452e-05 3.27025809172513e-05 3.6188948697208397e-05 3.0758423468050013e-05 3.0134487380097862e-05 2.4790454036998352e-05 3.3357344204980049e-05 3.2170874752220588e-05 3.7802297603046402e-05 3.4617464103625963e-05 3.5650001233609487e-05 1.1479264280319501e-05 1.4905392990283728e-05 9.0177244779143888e-06 1.8101975072862223e-05 1.9961414574976149e-05 2.2571368988165907e-05 2.4177723042588207e-05 2.6663276387681973e-05 2.3994882167458211e-05 2.0939098472535766e-05 2.3656767617406428e-05 1.9032259373028318e-05 1.54203982549851e-05 8.7495650564430223e-06 6.8599036448812703e-06 7.1455918903457367e-06 9.0973778980836051e-07 4.4154955259727293e-06 7.7617125775672198e-07 4.6664053703869354e-06 1.1970735042079817e-05 1.0904038698145446e-05 1.3135441550861394e-05 1.6567803522010389e-05 1.8644835359197254e-05 2.2536038462555683e-05 2.0215427425264174e-05 1.6648803033724831e-05 1.6993302622148232e-05 8.3580440387512193e-06 6.0235373583671771e-06 -9.6684606372370296e-07 3.2976618190444219e-05 3.2783949223782734e-05 2.8462719903246715e-05 2.8233313136733895e-05 2.4886754394642511e-05 2.8529259095660885e-05 2.6812593800791995e-05 2.4371303117631419e-05 3.2730493696044847e-05 2.9169245753591706e-05 3.5241999172016647e-05 2.9697013050059901e-05 3.1457569806939622e-05 3.6569730842614734e-05 3.2734103943822166e-05 4.2119082884253268e-05 3.1168374051116189e-05 3.7630887206414872e-05 3.5868379458787284e-05 3.546206330195683e-05 3.2345627964192903e-05 3.8157610002716492e-05 3.2802815302654865e-05 3.1902306511719903e-05 2.8633789624196197e-05 3.4575332636052031e-05 3.3507055228173505e-05 4.1647582099892122e-05 4.0969715507546102e-05 3.1062169314703373e-05 3.4084150967734632e-05 3.3234894163390731e-05 2.3871525755190691e-05 2.0767997864558222e-05 1.3991624949813384e-05 3.666525806650419e-06 9.8044245446383797e-06 1.5843661586571866e-05 2.4042622954605318e-05 9.1021746347219888e-06 1.9889538860611608e-05 2.6300951889489007e-05 3.1513620778446681e-05 3.1403960839199888e-05 2.8178859715636057e-05 3.7564040986452962e-05 1.996851492110163e-05 1.4643233959652733e-05 2.1862056164494518e-05 2.4979324139318135e-05 8.2638109029996068e-06 1.9627299975309045e-05 2.8843412174730119e-05 2.4103793935442322e-05 4.3081636716950516e-05 3.0692164926932656e-05 2.7642191739156023e-05 3.5694993082970886e-05 3.4843567397625939e-05 4.1108946712538753e-05 5.4962030635304033e-05 4.7623408694559892e-05 5.0727666152723401e-05 4.0859392412713885e-05 4.6113988856108986e-05 5.3772973920910193e-05 4.4144839440326952e-05 5.0105008737856307e-05 4.0017914419069734e-05 3.8790329154614731e-05 3.7531453353078741e-05 4.1230111396104313e-05 3.336887265873291e-05 3.9046991287608224e-05 3.3279639719662135e-05 3.6770006688139397e-05 3.3827692420609178e-05 3.7456814837919119e-05 4.0263597805853889e-05 -7.250397030708958e-05 -5.0003631459794436e-05 -5.4209682481367334e-05 -4.4065939554659706e-05 -3.9575164551342854e-05 -4.7150459866589572e-05 -5.3072773898200551e-05 -4.6267042722446636e-05 -4.3618734689948128e-05 -3.8694700971457751e-05 -4.1700451800845058e-05 -4.1672433538012642e-05 -3.9304519153767395e-05 -2.5429216564179773e-05 -3.8907807099361992e-05 -5.9271984056496468e-05 -2.4015340150151867e-05 -4.6165452469113774e-05 -2.3901172390034052e-05 -2.171111745353485e-05 -2.412658115705699e-05 -2.0563136026306707e-05 -2.4497965415669038e-05 -1.0960238339325174e-05 -1.2061354457782141e-05 -5.5717405398065712e-06 -7.9911076549310294e-06 5.4569437648821579e-06 1.0255085068153843e-05 -9.6316695855392666e-07 -5.2098603148079158e-06 -4.089746446661427e-06 1.9119420151318092e-06 1.1708206977078574e-05 -7.9237853689634243e-06 7.6011622039928492e-06 -5.613939376548189e-07 -1.1017574975962234e-05 1.1876731995982308e-05 -6.5298045834671708e-06 -2.0977606379652456e-06 -3.2868887846656455e-05 -2.7613027197637502e-05 -2.588146189755359e-05 -5.1150242035908402e-06 -2.1277946080883983e-05 -4.2230779765543626e-05 -3.4515869065147609e-05 -5.0845478930188428e-05 -3.9041594693764815e-05 -5.2901621178347313e-05 -2.7712155659477131e-05 -4.6201088436583638e-05 -8.0221003386470469e-05 -8.4343296672029732e-05 -0.00010106673062991617 -7.1630594410351659e-05 -8.4734204118688876e-05 -5.2519276281012455e-05 -7.4784619003628324e-05 -5.0225308880298618e-05 -0.00010176810701170927 -0.00015637545001115575 -9.4216599953643969e-05 -9.6661562470788778e-05 -0.00013282711500485858 -0.00011560032532375317 -7.6724910948300603e-05 -8.9119238554362894e-05 -8.4049668812563472e-05 -4.8272889321994282e-05 -5.2582655954464146e-05 -4.0442652399794225e-05 -4.3605172475588933e-05 -6.5683202463240374e-05 -4.9322863667999246e-05 -1.5472696973581324e-06 1.6447346112717453e-05 1.9113937371702968e-05 -3.2648020822186995e-05 -1.1675017289935081e-05 -3.844856535106152e-05 -2.0914824891705713e-05 -1.3383799616310262e-05 7.5694232378677618e-06 -1.1726608826638805e-05 8.2946993701028819e-06 3.1185227211995021e-05 1.755457147406777e-05 3.8658547859631124e-05 1.7073585927832282e-05 3.6801464120716078e-05 6.1392090156020017e-05 2.6749609243680852e-05 5.6953283251168067e-05 6.2747096915501734e-05 0.00010712587246165079 0.00010463714916494039 5.3266309902817873e-05 4.3269484280927231e-05 0.00011249485736741023 0.00018680485518725884 0.00017118986489727782 0.00018618112458588815 0.00012447054131643417 8.5315958564226237e-05 0.00010303270099181407 7.8714703747514899e-05 3.024874954275867e-05 1.8812380929775457e-05 6.5441465536289706e-06 -1.7221139741031202e-05 5.4318074588994111e-05 -1.1870230309943839e-05 -5.9756163729361559e-05 -6.6887843189964422e-05 -3.0028169631290545e-05 -4.821530624462742e-05 -3.1446720012110125e-05 -7.984760823166593e-05 -4.3240760592111157e-05 -6.6824710226740967e-05 -0.00010034201546897355 -0.00010044559517858459 -0.00015461364115637295 -0.00011348904904822759 -0.00016244075328217277 -0.0001218451167660875 -8.8444934171751899e-05 -0.00011036538080999293 8.0309347132161225e-05 8.8740435979657196e-05 9.3596828368915633e-05 8.6700114480537605e-05 8.0211270044992317e-05 6.7928068973005236e-05 6.0554182559644813e-05 7.5532566544470837e-05 5.3448578454422722e-05 6.2331581989708132e-05 4.4793075400112419e-05 6.0774360212219832e-05 5.1732086809539807e-05 6.3215610271411839e-05 6.745131345552792e-05 5.9259081774231439e-05 5.2827540294619246e-05 4.1849610481326175e-05 6.4112491415829604e-05 5.9478095956764035e-05 7.3171661523236357e-05 4.1695680297605358e-05 5.3060499889704172e-05 6.8290976691478411e-05 8.3784654401338656e-05 0.00010737079187231941 8.354499026452721e-05 9.0392941165254521e-05 9.0138738923635329e-05 0.00011186335151838659 0.000128099325737897 0.00015885686804813267 0.00017187515006799611 0.0001567177252828582 0.00013814539961559794 0.00014739289690069709 0.00017778548757426175 0.00017225503120764298 0.00029932758234630611 0.00036893419550938929 0.0003560467568322542 0.00024268932217085128 0.0001320051573720468 0.0001744857271751632 0.00022513970635908745 0.00013450877278587236 0.0001427126430014459 0.00014710898081220979 0.00010425569641247715 0.00013006547648099692 8.703716180102966e-05 0.00010890535119371987 8.301532080208206e-05 0.00011342707055327002 7.0074514212688089e-05 8.7117963004602954e-05 9.9533994083912338e-05 8.2445468940683852e-05 7.297726655442914e-05 0.00010975473944177489 7.9283772008083213e-05 6.8057621141649809e-05 9.22238697798068e-05 6.4227954381129715e-05 5.0705638890116819e-05 7.3065264915341379e-05 7.6456042140898113e-05 4.8771840696980643e-05 8.9907765990839298e-05 6.7245888192040543e-05 7.6747037256741151e-05 0.0001209591674938526 9.8105169450686118e-05 9.7828364490796458e-05 0.00010729518103892853 0.00014171088155611104 0.00014716955457150024 0.00017847737334766804 0.00040005512736958901 6.9841411016777048e-05 0.00017542183877198114 0.00037002531037862423 0.00023707005775151169 0.022665190520217673 0.00033527087359011944 0.00018411465134698869 0.056348106807385112 7.088108216238932e-05 0.00017436287129694552 0.080068942587833147 8.9678362308805669e-05 0.00013605749587648178 6.9940138852004003e-05 9.6804304527420835e-05 9.4834664675137379e-05 8.8938499893554334e-05 8.7193366597632625e-05 0.00011571712535916564 0.00011853768205294097 9.8023016798091597e-05 0.00013587376859317164 0.00016708454511720492 0.00017905937965125452 0.10134631954782564 0.00017507495209105259 0.00017164780777970427 0.00015557616323152437 0.00018828302728600421 0.000150663606870295 0.12249670494577959 0.00017829508830223594 0.00011132766394423362 9.0716575753077826e-05 0.0001384620755218828 0.00011856970555776169 0.00012825853596633752 8.598814813817789e-05 8.6697835597286514e-05 8.7965866832142255e-05 6.3069401329856082e-05 6.7617567450166242e-05 5.4274034778770252e-05 5.748936705303573e-05 5.0683851601328236e-05 6.0682131452419702e-05 5.9629604606878731e-05 4.4895309246042222e-05 6.0131524511662562e-05 5.1647091394343945e-05 6.0549215996578851e-05 7.066593819460702e-05 7.8085052424432398e-05 -8.1542131168285637e-05 -9.6004398835953424e-05 -5.5753973897700732e-05 -0.00013077513965749723 -0.00013348473305621503 -8.1570339052654435e-05 -8.3974545129744953e-05 -4.5258402351041e-05 -1.8954766687521475e-05 1.5183416742147078e-05 -2.9141715721152806e-05 -1.0255367213557009e-05 -4.8550241924538197e-05 -1.0127950013272442e-05 6.7848944062902524e-05 2.9248345259750425e-05 0.00010331732808433716 3.1878510460394381e-05 -1.1925504467404785e-05 5.5290034468777598e-05 4.797867988207789e-05 0.00013451064502269087 0.00020385834349776421 0.00015307315928365396 0.00016609078961759519 9.2113390193814329e-05 0.00012105739280699569 0.00014211943464899519 7.8399138919224478e-05 7.8458100802199487e-05 0.00012180648666571675 0.00012081679702438414 0.00013357665470271765 0.00012054829499327841 8.7724423603826023e-05 7.9838912640240768e-05 4.8120564145461649e-05 5.3324067735543892e-05 4.295851305448177e-05 8.2183897182923002e-06 4.4522629305977519e-05 5.4424099319051755e-05 1.7215793357857386e-05 1.0486874331499163e-05 -2.001405187999428e-05 -2.3238963523348154e-05 -2.1984985636206399e-05 -2.1787743404408453e-05 7.4070055375626692e-06 9.7557919844669036e-06 -3.5296145245991397e-06 -1.879835158808069e-05 -2.9073212215975381e-05 -4.8556125131328856e-05 -1.8733066617025208e-05 -3.6136119232575616e-05 -7.6040262944102781e-05 -5.6063272087855578e-05 -5.3751372065784751e-05 1.2579082503398186e-05 -7.8547282343086403e-06 9.6305991811413902e-06 -1.3263333896418664e-05 -1.1272242606242926e-05 -3.2128448157573743e-05 -2.6482073950558765e-05 -1.3766740334628796e-05 -1.7320771403704291e-06 3.4127565730632595e-06 1.0401320745995896e-05 2.4933899947299394e-05 2.6714484055563592e-05 8.2255607638925116e-06 2.790326302477982e-05 5.8690384838576068e-05 6.9078213274567906e-05 8.3252766237776159e-05 3.0785619386445098e-05 2.2441597834535996e-05 4.9510067750159438e-05 4.6182036341521453e-05 7.1282537357966053e-05 5.9015011900169154e-05 0.00010725551781828446 0.00010607085019424378 8.616033862495192e-05 0.00011932824311160998 0.00015697782273383157 0.00013227218740748895 0.00015735700649151772 9.7698417221208332e-05 0.00012378461149302467 0.00016790125750806417 0.0001424991069854508 0.00017989852555052449 0.00016121489510793549 0.00020634751196548645 0.00022143703967107274 0.00016347826566795107 0.00013204432000491796 5.8118425009964086e-05 7.3709837200720135e-05 9.2010479610604712e-05 5.9136974380842935e-05 0.00010744212668145105 7.8750215590539172e-05 0.00010103134193490716 3.7131373998638192e-05 1.1214456276326459e-05 3.0145410423633098e-05 2.1805121665897584e-05 3.5862267916955334e-05 3.4451529822003557e-05 2.1807000157941792e-05 3.4156091498167146e-05 2.4853794429773729e-05 1.8182711638656257e-05 2.0419884048279279e-05 1.782071337993324e-05 1.461834191535203e-05 1.9737625284442853e-05 1.2055970158101822e-05 1.369062374557571e-05 -1.5238140743285833e-06 7.8113908451211056e-05 0.0001221850597735608 0.00011700269202859009 0.00010224284881143759 6.9598857358924842e-05 5.3211724944761396e-05 5.0457693773005904e-05 6.2233278388651025e-05 4.9402138340881108e-05 4.8522097291152545e-05 7.628430009268218e-05 7.6256207698699083e-05 7.3128017097595768e-05 0.00010339405375804373 0.00010237510684761304 0.00013264492571670697 0.00016640801047811333 0.00019481338461183159 0.00015098511609687492 0.00017438536233346487 0.00021480637545762821 0.00018208956174914283 0.14394981357836764 0.0001627729773501967 0.00020678891050949361 0.00020891315259720464 0.16612013858295041 0.0002168296183085994 0.00022773517043895436 0.18944201996106941 0.00020809276727865879 0.00015369552811319133 0.00021994925327706804 0.00015231007086279687 0.00017359900128123941 0.00019593367893804546 0.00016296423806724851 0.0002495703755578208 0.00025496272679518747 0.00021565559447323763 0.0002589133115374646 0.21374941570395159 0.00029596255867460873 0.00027937947704158403 0.00024416631912746022 0.00027354697855038303 0.24206235222474654 0.00033078277748949808 0.0002895451246992687 0.00016326414351417536 0.00027619516392696046 0.00032102289854448731 0.00026816892012761348 0.00018955545394067465 7.2030769292169301e-05 0.0001324410206932909 7.2932776614789783e-05 0.00012589492321765411 8.6000265175091442e-05 7.9122350511811896e-05 0.00010056789737845539 0.00012703755251936878 4.9645881766252099e-05 6.0963103512867188e-05 5.1887559595311522e-05 7.0332772494264537e-05 4.1605453652998094e-05 4.1290964938603446e-05 1.2458353930581588e-05 2.4557566182794796e-05 -8.8172776716629458e-09 2.0806624193020137e-05 2.9839766131811675e-05 2.4791249890705107e-05 6.8440905739898354e-05 3.0840003438201007e-05 3.8525634322899519e-05 7.3280214986878997e-05 4.4758510537221759e-05 4.9786782956443509e-05 6.2902855725391902e-05 7.1373956431821555e-05 4.0095518403760648e-05 4.6843934214656343e-05 4.0782316986092597e-05 4.7908575471646182e-05 4.5738360075200371e-05 4.926368908502116e-05 4.6090279908096634e-05 4.3012324990933729e-05 4.9873030334103368e-05 4.8935336123821001e-05 6.2311759949546522e-05 7.5593381334916436e-05 5.4854591185896258e-05 4.7065678030717723e-05 5.4286689422111022e-05 6.560398510013657e-05 5.0799485240342969e-05 3.9989788997578141e-05 5.053371369191111e-05 4.2934372000561112e-05 5.2322839297043843e-05 4.9755320171737525e-05 0.00010578456365153976 0.076092446639161093 0.00010798205172340525 9.388807075032474e-05 8.3080530110267664e-05 6.071915348346903e-05 6.6797936182649799e-05 7.0402093414543686e-05 0.00010466471472894776 8.8744653022387442e-05 0.00010077253142695621 8.6665814216750105e-05 0.00012556920855037582 0.00014420623633570049 0.00011049194044869754 0.00011231383804332197 0.10321107684787018 0.00012013415742099978 0.00012032192898732592 0.08895497718932982 0.0001427481803285887 0.11924498695726118 0.00017510400905878186 0.00015735320187666593 0.00013744996130243565 9.6216389989975767e-05 0.00011343601422082392 0.00014942487073339576 0.00012672005127213804 9.055551006601349e-05 0.00016304261122872948 0.00019141858302900171 0.00015581792200029029 0.00010761955450097389 0.00015978688139191722 0.13813468953225377 0.0001974052448522395 0.00017078030652318155 0.00013198679162947948 9.5745355891694965e-05 9.4634724037385293e-05 0.0001179192681438072 7.3747851145074435e-05 3.8980505809775232e-05 3.3855112921673917e-05 5.2821058289335802e-05 6.223025369210696e-05 4.0604467516664345e-05 3.1996285008360076e-05 5.1704728785967411e-05 8.8780728565676919e-05 0.00010312794435230572 7.8148592013543437e-05 1.1831071157275726e-05 8.56283544502668e-06 1.0539696841648519e-05 1.2115322950223897e-05 9.5130979512868946e-06 1.3308288376288196e-05 2.0028786585958754e-05 1.2077371598260937e-05 1.8304450902087477e-05 1.765645077596409e-05 1.4630649410904461e-05 1.7670360754830805e-06 1.6137760528966896e-05 1.1766360515968934e-05 6.1429749730993214e-06 -3.3938525249828657e-06 6.4328414650727597e-06 -1.0920055081430503e-05 5.2880125591125982e-06 2.0302552181678674e-06 -1.0044274052104104e-05 2.6694402190813055e-07 1.4717197385463038e-05 1.1109973195758821e-05 1.38008836501613e-05 -1.1397233317801507e-06 -3.7061033977069222e-07 1.3199907201198475e-05 -6.0068364435253603e-06 -1.0942285856145942e-05 -1.7173196488683932e-05 -1.4537700381577184e-05 -2.6518030050656305e-05 -1.2480755336093628e-05 6.5515397501755834e-05 5.655844442853256e-05 8.2576557312808753e-05 6.6578704086011579e-05 3.2459153984079267e-05 2.7093993341173375e-05 4.443326604350404e-05 3.6659474475575233e-05 2.7346829384473025e-05 2.1009488774623424e-05 2.292604406780468e-05 5.5859483602661505e-05 4.80346805485205e-05 8.358412523382314e-05 6.8716597652211057e-05 7.4032366090301437e-05 5.5275855259355119e-05 5.8325868187775708e-05 6.3643262817135622e-05 3.7629763912119286e-05 4.6446295924989817e-05 3.42184903308544e-05 1.4741109125030166e-05 9.5863796584956269e-06 3.3289140623891532e-05 1.7633727854314118e-05 2.7746737402533283e-05 7.6999125157206551e-06 1.2642997811250284e-05 5.2985085871555385e-05 6.0496803738867722e-05 5.9617709099707861e-05 3.1004645671106699e-05 5.0153457749308773e-05 -2.7530378047000174e-05 -3.8823908068062073e-05 -2.9095569258782262e-05 -3.7261200447414114e-05 -2.0802212342917658e-05 -6.473830609747544e-06 -1.8229434240054753e-05 -1.5354241084016007e-06 -3.6854423677828291e-06 -7.5681915612042967e-06 -5.1902680429063956e-06 -3.9646660530507846e-06 -1.5879516696335011e-05 -2.3315793632540426e-05 -2.4658315704700873e-05 -2.2727284184730599e-05 -4.1750075906319057e-05 -3.9352398116557935e-05 -4.8468685811810198e-05 -7.5209602942155639e-05 -5.9357348620478522e-05 -5.0594104819756658e-05 -3.8847919023420573e-05 -3.3591519616227132e-05 -1.1346946941867336e-05 -1.0328690574844691e-05 -3.0579100916874446e-06 -2.4827155718454242e-05 -2.0375003300704213e-05 -3.3700829031180733e-05 -3.4013516456920146e-05 -5.1476366949623634e-05 -4.9146582655395177e-05 -7.5313413540158743e-05 3.5540243452963452e-05 7.5424979263941463e-05 3.5132014371985591e-05 2.6581898964037455e-05 5.3365066019144891e-06 1.0683032531237191e-05 3.2588304325676916e-05 1.492252659168595e-05 -1.697713194453586e-05 -4.6525323786172738e-06 1.3618597898828284e-05 4.4297563111723754e-05 4.4847950922965139e-05 7.9166239997328984e-05 0.00013820426845833261 1.4583609777005777e-05 0.00016461459489700112 0.012923424197033712 7.0453059909064876e-05 7.5052224905581503e-05 0.031660474155139028 0.00010389009907193179 0.043014326960805448 8.2666134959780125e-05 7.1685845522052264e-05 2.8921291710663224e-05 2.0943860003364739e-05 3.3352612549565462e-05 -9.8842007712531812e-07 4.6035137359302821e-05 1.7556335496261692e-05 8.0421202277279746e-05 4.1890685020192013e-05 3.1823834659130273e-05 5.6035095500054087e-05 4.7586792681768872e-05 5.5459380702979367e-05 6.8744247734106955e-05 6.9016091780690935e-05 5.8832745539931611e-05 4.8595970229886468e-05 4.7588540786699485e-05 4.2907349858375249e-05 3.9725635417618916e-05 3.5528720758945382e-05 4.0210586489196614e-05 3.6369765376730165e-05 3.6221470834996226e-05 3.863101429076008e-05 4.0480228854280326e-05 4.2415155220147465e-05 4.5652240448637213e-05 4.5797351616624199e-05 4.0991451863705403e-05 4.3767515442336277e-05 4.5813670989498478e-05 4.0952091786876517e-05 3.8982890282216235e-05 4.9074702714997707e-05 4.7402308920508089e-05 4.7097254717971392e-05 4.0363211986921472e-05 4.3378746467232377e-05 4.908716900934554e-05 5.6493931320645294e-05 6.3205742361388713e-05 5.2780188490898989e-05 5.1666548295261966e-05 6.941984475834404e-05 9.6324904988336069e-05 0.064381293667243017 7.3218538565612953e-05 9.0636079671416441e-05 8.4262058519557568e-05 9.1725562318467906e-05 4.9227053867687703e-05 0.053561764068184053 8.2996098523230484e-05 6.6657626335456504e-05 9.0371977164953885e-05 3.9438199197142489e-05 3.3957004982574534e-05 3.8451198533515096e-05 5.1391050666376391e-05 
</DataArray>
</CellData>
</Piece>
</UnstructuredGrid>
</VTKFile>
