<?xml version="1.0"?>
<VTKFile type="UnstructuredGrid" version="0.1" byte_order="LittleEndian">
<UnstructuredGrid>
<Piece NumberOfPoints="3142" NumberOfCells="1054">
<Points>
<DataArray type="Float64" NumberOfComponents="3" format="ascii">
0 0 0 0.049999999999899652 0 0 0.02576622439977887 0.024532886826226379 0 0 0 0 0.02576622439977887 0.024532886826226379 0 0 0.050000000000207989 0 0.049999999999899652 0 0 0.053064897599215843 0.048131547304697528 0 0.02576622439977887 0.024532886826226379 0 0 0.050000000000207989 0 0.02576622439977887 0.024532886826226379 0 0.053064897599215843 0.048131547304697528 0 0 0.10000000000041601 0 0 0.050000000000207989 0 0.044310582753132287 0.101412518374475 0 0 0.15000000000062411 0 0 0.10000000000041601 0 0.044310582753132287 0.101412518374475 0 0.083411279318303222 0.089699755330707398 0 0.044310582753132287 0.101412518374475 0 0.053064897599215843 0.048131547304697528 0 0 0.050000000000207989 0 0.053064897599215843 0.048131547304697528 0 0.044310582753132287 0.101412518374475 0 0.083411279318303222 0.089699755330707398 0 0.065374659239632718 0.1448908038746782 0 0.044310582753132287 0.101412518374475 0 0.083411279318303222 0.089699755330707398 0 0.1053400320299198 0.12877248826361379 0 0.065374659239632718 0.1448908038746782 0 0.083411279318303222 0.089699755330707398 0 0.12372429750337779 0.095814237875728972 0 0.1053400320299198 0.12877248826361379 0 0.14332333627550789 0.14578431753966009 0 0.1053400320299198 0.12877248826361379 0 0.12372429750337779 0.095814237875728972 0 0.14618258501891079 0.062070108745602003 0 0.12372429750337779 0.095814237875728972 0 0.10266856499169109 0.044518360900210059 0 0.083411279318303222 0.089699755330707398 0 0.10266856499169109 0.044518360900210059 0 0.12372429750337779 0.095814237875728972 0 0.099999999999814668 0 0 0.14999999999970359 0 0 0.10266856499169109 0.044518360900210059 0 0.049999999999899652 0 0 0.099999999999814668 0 0 0.053064897599215843 0.048131547304697528 0 0.099999999999814668 0 0 0.10266856499169109 0.044518360900210059 0 0.053064897599215843 0.048131547304697528 0 0.083411279318303222 0.089699755330707398 0 0.053064897599215843 0.048131547304697528 0 0.10266856499169109 0.044518360900210059 0 0 0.25000000000104028 0 0 0.20000000000083221 0 0.044081577119474857 0.2271058242433576 0 0 0.20000000000083221 0 0.038512288486115001 0.1844147282893184 0 0.044081577119474857 0.2271058242433576 0 0.083105206071467416 0.20007701332709979 0 0.044081577119474857 0.2271058242433576 0 0.038512288486115001 0.1844147282893184 0 0 0.15000000000062411 0 0.065374659239632718 0.1448908038746782 0 0.038512288486115001 0.1844147282893184 0 0 0.15000000000062411 0 0.044310582753132287 0.101412518374475 0 0.065374659239632718 0.1448908038746782 0 0.083105206071467416 0.20007701332709979 0 0.038512288486115001 0.1844147282893184 0 0.065374659239632718 0.1448908038746782 0 0 0.20000000000083221 0 0 0.15000000000062411 0 0.038512288486115001 0.1844147282893184 0 0.065374659239632718 0.1448908038746782 0 0.1053400320299198 0.12877248826361379 0 0.106902708054812 0.16453234188234539 0 0.14332333627550789 0.14578431753966009 0 0.106902708054812 0.16453234188234539 0 0.1053400320299198 0.12877248826361379 0 0.083105206071467416 0.20007701332709979 0 0.065374659239632718 0.1448908038746782 0 0.106902708054812 0.16453234188234539 0 0.083105206071467416 0.20007701332709979 0 0.13737030665753211 0.20313708640667491 0 0.095326043202144745 0.24554465089224409 0 0.083105206071467416 0.20007701332709979 0 0.106902708054812 0.16453234188234539 0 0.13737030665753211 0.20313708640667491 0 0.083105206071467416 0.20007701332709979 0 0.095326043202144745 0.24554465089224409 0 0.044081577119474857 0.2271058242433576 0 0.049706944316556423 0.27522722923869108 0 0.044081577119474857 0.2271058242433576 0 0.095326043202144745 0.24554465089224409 0 0.13737030665753211 0.20313708640667491 0 0.14377654328998779 0.2442024734791064 0 0.095326043202144745 0.24554465089224409 0 0.17933913398461551 0.2350063570234002 0 0.14377654328998779 0.2442024734791064 0 0.13737030665753211 0.20313708640667491 0 0.17933913398461551 0.2350063570234002 0 0.13737030665753211 0.20313708640667491 0 0.18124454140915969 0.18790916706335251 0 0.14332333627550789 0.14578431753966009 0 0.18652628422869419 0.14162325200928061 0 0.18124454140915969 0.18790916706335251 0 0.14332333627550789 0.14578431753966009 0 0.13737030665753211 0.20313708640667491 0 0.106902708054812 0.16453234188234539 0 0.14332333627550789 0.14578431753966009 0 0.18124454140915969 0.18790916706335251 0 0.13737030665753211 0.20313708640667491 0 0.14332333627550789 0.14578431753966009 0 0.16141998738593399 0.10404039647458049 0 0.18652628422869419 0.14162325200928061 0 0.2185883431182947 0.18019736283949719 0 0.18652628422869419 0.14162325200928061 0 0.22985637510995899 0.1298347970200906 0 0.2185883431182947 0.18019736283949719 0 0.22985637510995899 0.1298347970200906 0 0.25557216766470708 0.15874861286892261 0 0.2185883431182947 0.18019736283949719 0 0.25557216766470708 0.15874861286892261 0 0.26429849586623999 0.19346700179430079 0 0.2185883431182947 0.18019736283949719 0 0.18124454140915969 0.18790916706335251 0 0.18652628422869419 0.14162325200928061 0 0.17933913398461551 0.2350063570234002 0 0.18124454140915969 0.18790916706335251 0 0.224700362040408 0.22206622194729711 0 0.2185883431182947 0.18019736283949719 0 0.224700362040408 0.22206622194729711 0 0.18124454140915969 0.18790916706335251 0 0.2185883431182947 0.18019736283949719 0 0.26429849586623999 0.19346700179430079 0 0.224700362040408 0.22206622194729711 0 0.25195515620380449 0.25883339815888678 0 0.21049769590865089 0.26857363548218488 0 0.224700362040408 0.22206622194729711 0 0.17933913398461551 0.2350063570234002 0 0.224700362040408 0.22206622194729711 0 0.21049769590865089 0.26857363548218488 0 0.14999999999970359 0 0 0.184418230509967 0.038773194583122873 0 0.14618258501891079 0.062070108745602003 0 0.19922788606653311 0.085920220746880993 0 0.14618258501891079 0.062070108745602003 0 0.184418230509967 0.038773194583122873 0 0.14999999999970359 0 0 0.19999999999955789 0 0 0.184418230509967 0.038773194583122873 0 0.14999999999970359 0 0 0.14618258501891079 0.062070108745602003 0 0.10266856499169109 0.044518360900210059 0 0.14618258501891079 0.062070108745602003 0 0.16141998738593399 0.10404039647458049 0 0.12372429750337779 0.095814237875728972 0 0.14332333627550789 0.14578431753966009 0 0.12372429750337779 0.095814237875728972 0 0.16141998738593399 0.10404039647458049 0 0.19922788606653311 0.085920220746880993 0 0.18652628422869419 0.14162325200928061 0 0.16141998738593399 0.10404039647458049 0 0.19922788606653311 0.085920220746880993 0 0.16141998738593399 0.10404039647458049 0 0.14618258501891079 0.062070108745602003 0 0.19922788606653311 0.085920220746880993 0 0.22985637510995899 0.1298347970200906 0 0.18652628422869419 0.14162325200928061 0 0.19922788606653311 0.085920220746880993 0 0.24218496799700481 0.089025544070598317 0 0.22985637510995899 0.1298347970200906 0 0.27474541102162192 0.11822029332053539 0 0.22985637510995899 0.1298347970200906 0 0.24218496799700481 0.089025544070598317 0 0.19922788606653311 0.085920220746880993 0 0.22668068146512929 0.045875643423131329 0 0.24218496799700481 0.089025544070598317 0 0.27499999999933927 0.060310814194988557 0 0.24218496799700481 0.089025544070598317 0 0.22668068146512929 0.045875643423131329 0 0.19922788606653311 0.085920220746880993 0 0.184418230509967 0.038773194583122873 0 0.22668068146512929 0.045875643423131329 0 0.19999999999955789 0 0 0.22668068146512929 0.045875643423131329 0 0.184418230509967 0.038773194583122873 0 0.19999999999955789 0 0 0.24999999999941211 0 0 0.22668068146512929 0.045875643423131329 0 0.24999999999941211 0 0 0.29999999999926641 0 0 0.27499999999933927 0.060310814194988557 0 0.24999999999941211 0 0 0.27499999999933927 0.060310814194988557 0 0.22668068146512929 0.045875643423131329 0 0.29999999999926641 0 0 0.32541448401678508 0.046215317981507749 0 0.27499999999933927 0.060310814194988557 0 0.29999999999926641 0 0 0.34999999999912063 0 0 0.32541448401678508 0.046215317981507749 0 0.35312867752657662 0.084946736076730367 0 0.32541448401678508 0.046215317981507749 0 0.3615861437013822 0.03582617922508851 0 0.35312867752657662 0.084946736076730367 0 0.3615861437013822 0.03582617922508851 0 0.39591832466117061 0.056982757562006353 0 0.34999999999912063 0 0 0.3615861437013822 0.03582617922508851 0 0.32541448401678508 0.046215317981507749 0 0.34999999999912063 0 0 0.3999999999989749 0 0 0.3615861437013822 0.03582617922508851 0 0.35312867752657662 0.084946736076730367 0 0.39823268594401579 0.1116623613130045 0 0.36246644853392812 0.1399454205365751 0 0.35312867752657662 0.084946736076730367 0 0.36246644853392812 0.1399454205365751 0 0.32215584939770009 0.1218492143506909 0 0.35312867752657662 0.084946736076730367 0 0.3096713403101819 0.085471541595262421 0 0.32541448401678508 0.046215317981507749 0 0.35312867752657662 0.084946736076730367 0 0.32215584939770009 0.1218492143506909 0 0.3096713403101819 0.085471541595262421 0 0.27474541102162192 0.11822029332053539 0 0.3096713403101819 0.085471541595262421 0 0.32215584939770009 0.1218492143506909 0 0.27499999999933927 0.060310814194988557 0 0.32541448401678508 0.046215317981507749 0 0.3096713403101819 0.085471541595262421 0 0.3096713403101819 0.085471541595262421 0 0.27474541102162192 0.11822029332053539 0 0.27499999999933927 0.060310814194988557 0 0.27499999999933927 0.060310814194988557 0 0.27474541102162192 0.11822029332053539 0 0.24218496799700481 0.089025544070598317 0 0.27474541102162192 0.11822029332053539 0 0.25557216766470708 0.15874861286892261 0 0.22985637510995899 0.1298347970200906 0 0.27474541102162192 0.11822029332053539 0 0.29336099386129338 0.15892013001050981 0 0.25557216766470708 0.15874861286892261 0 0.26429849586623999 0.19346700179430079 0 0.25557216766470708 0.15874861286892261 0 0.29336099386129338 0.15892013001050981 0 0.33084213324567391 0.16272720141332131 0 0.31255190597181792 0.19850845631528771 0 0.29336099386129338 0.15892013001050981 0 0.26429849586623999 0.19346700179430079 0 0.29336099386129338 0.15892013001050981 0 0.31255190597181792 0.19850845631528771 0 0.27474541102162192 0.11822029332053539 0 0.32215584939770009 0.1218492143506909 0 0.29336099386129338 0.15892013001050981 0 0.28040350263641872 0.23054717217092141 0 0.25195515620380449 0.25883339815888678 0 0.224700362040408 0.22206622194729711 0 0.26429849586623999 0.19346700179430079 0 0.28040350263641872 0.23054717217092141 0 0.224700362040408 0.22206622194729711 0 0.26429849586623999 0.19346700179430079 0 0.31255190597181792 0.19850845631528771 0 0.28040350263641872 0.23054717217092141 0 0.33758650185219202 0.23837101504325639 0 0.29132859388405002 0.27203693976649962 0 0.28040350263641872 0.23054717217092141 0 0.33758650185219202 0.23837101504325639 0 0.28040350263641872 0.23054717217092141 0 0.31255190597181792 0.19850845631528771 0 0.33758650185219202 0.23837101504325639 0 0.31255190597181792 0.19850845631528771 0 0.3572130504031617 0.1874703368446563 0 0.33758650185219202 0.23837101504325639 0 0.3572130504031617 0.1874703368446563 0 0.38831533174504851 0.2189834941785925 0 0.33758650185219202 0.23837101504325639 0 0.38831533174504851 0.2189834941785925 0 0.3786248352540974 0.27082301512024259 0 0.33084213324567391 0.16272720141332131 0 0.29336099386129338 0.15892013001050981 0 0.32215584939770009 0.1218492143506909 0 0.33084213324567391 0.16272720141332131 0 0.32215584939770009 0.1218492143506909 0 0.36246644853392812 0.1399454205365751 0 0.33084213324567391 0.16272720141332131 0 0.3572130504031617 0.1874703368446563 0 0.31255190597181792 0.19850845631528771 0 0.39801143831225599 0.16651381068160659 0 0.3572130504031617 0.1874703368446563 0 0.36246644853392812 0.1399454205365751 0 0.33084213324567391 0.16272720141332131 0 0.36246644853392812 0.1399454205365751 0 0.3572130504031617 0.1874703368446563 0 0.39801143831225599 0.16651381068160659 0 0.36246644853392812 0.1399454205365751 0 0.39823268594401579 0.1116623613130045 0 0.39801143831225599 0.16651381068160659 0 0.44288491854585582 0.14116182884956319 0 0.42905200079338551 0.19982395548231649 0 0.39801143831225599 0.16651381068160659 0 0.39823268594401579 0.1116623613130045 0 0.44288491854585582 0.14116182884956319 0 0.42377727103934271 0.25099357235810238 0 0.3786248352540974 0.27082301512024259 0 0.38831533174504851 0.2189834941785925 0 0.39801143831225599 0.16651381068160659 0 0.38831533174504851 0.2189834941785925 0 0.3572130504031617 0.1874703368446563 0 0.39801143831225599 0.16651381068160659 0 0.42905200079338551 0.19982395548231649 0 0.38831533174504851 0.2189834941785925 0 0.42377727103934271 0.25099357235810238 0 0.38831533174504851 0.2189834941785925 0 0.42905200079338551 0.19982395548231649 0 0.42377727103934271 0.25099357235810238 0 0.42905200079338551 0.19982395548231649 0 0.46429753744194407 0.22870891180733599 0 0.47357141910802508 0.1873585799078378 0 0.46429753744194407 0.22870891180733599 0 0.42905200079338551 0.19982395548231649 0 0.47357141910802508 0.1873585799078378 0 0.51729576145820033 0.1683240575987815 0 0.50760557329222289 0.20700468884612061 0 0.47357141910802508 0.1873585799078378 0 0.50760557329222289 0.20700468884612061 0 0.46429753744194407 0.22870891180733599 0 0.49695729691142171 0.25014895411178018 0 0.46429753744194407 0.22870891180733599 0 0.50760557329222289 0.20700468884612061 0 0.47357141910802508 0.1873585799078378 0 0.44288491854585582 0.14116182884956319 0 0.48466639505193998 0.1421439844745814 0 0.47357141910802508 0.1873585799078378 0 0.42905200079338551 0.19982395548231649 0 0.44288491854585582 0.14116182884956319 0 0.47357141910802508 0.1873585799078378 0 0.48466639505193998 0.1421439844745814 0 0.51729576145820033 0.1683240575987815 0 0.44288491854585582 0.14116182884956319 0 0.47881186583059909 0.093591717165689425 0 0.48466639505193998 0.1421439844745814 0 0.51076801031701946 0.1202837388510348 0 0.48466639505193998 0.1421439844745814 0 0.47881186583059909 0.093591717165689425 0 0.43698630808430822 0.080423614171545449 0 0.47881186583059909 0.093591717165689425 0 0.44288491854585582 0.14116182884956319 0 0.43698630808430822 0.080423614171545449 0 0.47040171442036788 0.044141676406503738 0 0.47881186583059909 0.093591717165689425 0 0.52375890611712683 0.059318771819432882 0 0.47881186583059909 0.093591717165689425 0 0.47040171442036788 0.044141676406503738 0 0.49999999999869432 0 0 0.52375890611712683 0.059318771819432882 0 0.47040171442036788 0.044141676406503738 0 0.44999999999882923 0 0 0.49999999999869432 0 0 0.47040171442036788 0.044141676406503738 0 0.44999999999882923 0 0 0.47040171442036788 0.044141676406503738 0 0.4320097814748517 0.037406712692169303 0 0.43698630808430822 0.080423614171545449 0 0.4320097814748517 0.037406712692169303 0 0.47040171442036788 0.044141676406503738 0 0.3999999999989749 0 0 0.4320097814748517 0.037406712692169303 0 0.39591832466117061 0.056982757562006353 0 0.43698630808430822 0.080423614171545449 0 0.39591832466117061 0.056982757562006353 0 0.4320097814748517 0.037406712692169303 0 0.3999999999989749 0 0 0.44999999999882923 0 0 0.4320097814748517 0.037406712692169303 0 0.3999999999989749 0 0 0.39591832466117061 0.056982757562006353 0 0.3615861437013822 0.03582617922508851 0 0.35312867752657662 0.084946736076730367 0 0.39591832466117061 0.056982757562006353 0 0.39823268594401579 0.1116623613130045 0 0.43698630808430822 0.080423614171545449 0 0.44288491854585582 0.14116182884956319 0 0.39823268594401579 0.1116623613130045 0 0.43698630808430822 0.080423614171545449 0 0.39823268594401579 0.1116623613130045 0 0.39591832466117061 0.056982757562006353 0 0.43249999999999988 0.43937499999999979 0 0.38707855792647411 0.42299362914874578 0 0.42161023666869668 0.39493916313643851 0 0.38083244760691543 0.38531983672244652 0 0.42161023666869668 0.39493916313643851 0 0.38707855792647411 0.42299362914874578 0 0.38083244760691543 0.38531983672244652 0 0.40076539126862748 0.34589349467022118 0 0.42161023666869668 0.39493916313643851 0 0.43249999999999988 0.43937499999999979 0 0.3908716102680424 0.47010282357248828 0 0.38707855792647411 0.42299362914874578 0 0.38244435121258652 0.51653317813019495 0 0.3908716102680424 0.47010282357248828 0 0.43507373378304309 0.49699695397193322 0 0.43249999999999988 0.43937499999999979 0 0.43507373378304309 0.49699695397193322 0 0.3908716102680424 0.47010282357248828 0 0.43249999999999988 0.43937499999999979 0 0.46111841286828259 0.46690301029591341 0 0.43507373378304309 0.49699695397193322 0 0.43249999999999988 0.43937499999999979 0 0.48858720058566618 0.43964267759203868 0 0.46111841286828259 0.46690301029591341 0 0.49102375406324739 0.49123754822244059 0 0.43507373378304309 0.49699695397193322 0 0.46111841286828259 0.46690301029591341 0 0.49102375406324739 0.49123754822244059 0 0.46111841286828259 0.46690301029591341 0 0.48858720058566618 0.43964267759203868 0 0.52289427570932567 0.3932284363388488 0 0.48858720058566618 0.43964267759203868 0 0.46655310992796922 0.39650496622958609 0 0.43249999999999988 0.43937499999999979 0 0.46655310992796922 0.39650496622958609 0 0.48858720058566618 0.43964267759203868 0 0.43249999999999988 0.43937499999999979 0 0.42161023666869668 0.39493916313643851 0 0.46655310992796922 0.39650496622958609 0 0.4409427642593301 0.35743108089689513 0 0.46655310992796922 0.39650496622958609 0 0.42161023666869668 0.39493916313643851 0 0.52289427570932567 0.3932284363388488 0 0.46655310992796922 0.39650496622958609 0 0.49077833859261139 0.35229981449445641 0 0.5 0.29999999999999999 0 0.49077833859261139 0.35229981449445641 0 0.46226845272279993 0.31901800744800313 0 0.4409427642593301 0.35743108089689513 0 0.46226845272279993 0.31901800744800313 0 0.49077833859261139 0.35229981449445641 0 0.4409427642593301 0.35743108089689513 0 0.41914690343363781 0.30688979866601612 0 0.46226845272279993 0.31901800744800313 0 0.4409427642593301 0.35743108089689513 0 0.49077833859261139 0.35229981449445641 0 0.46655310992796922 0.39650496622958609 0 0.5 0.29999999999999999 0 0.4604742573284204 0.27846934318264788 0 0.49695729691142171 0.25014895411178018 0 0.49695729691142171 0.25014895411178018 0 0.4604742573284204 0.27846934318264788 0 0.46429753744194407 0.22870891180733599 0 0.5 0.29999999999999999 0 0.46226845272279993 0.31901800744800313 0 0.4604742573284204 0.27846934318264788 0 0.41914690343363781 0.30688979866601612 0 0.4604742573284204 0.27846934318264788 0 0.46226845272279993 0.31901800744800313 0 0.42377727103934271 0.25099357235810238 0 0.46429753744194407 0.22870891180733599 0 0.4604742573284204 0.27846934318264788 0 0.42377727103934271 0.25099357235810238 0 0.4604742573284204 0.27846934318264788 0 0.41914690343363781 0.30688979866601612 0 0.42377727103934271 0.25099357235810238 0 0.41914690343363781 0.30688979866601612 0 0.3786248352540974 0.27082301512024259 0 0.36575549820117997 0.31677992835137742 0 0.3786248352540974 0.27082301512024259 0 0.41914690343363781 0.30688979866601612 0 0.4409427642593301 0.35743108089689513 0 0.42161023666869668 0.39493916313643851 0 0.40076539126862748 0.34589349467022118 0 0.4409427642593301 0.35743108089689513 0 0.40076539126862748 0.34589349467022118 0 0.41914690343363781 0.30688979866601612 0 0.36575549820117997 0.31677992835137742 0 0.41914690343363781 0.30688979866601612 0 0.40076539126862748 0.34589349467022118 0 0.40076539126862748 0.34589349467022118 0 0.33277555741076909 0.36432196682010132 0 0.36575549820117997 0.31677992835137742 0 0.38083244760691543 0.38531983672244652 0 0.33277555741076909 0.36432196682010132 0 0.40076539126862748 0.34589349467022118 0 0.36575549820117997 0.31677992835137742 0 0.33277555741076909 0.36432196682010132 0 0.32752639306529541 0.32610012995269699 0 0.33277555741076909 0.36432196682010132 0 0.29644548887253103 0.34914008784168082 0 0.32752639306529541 0.32610012995269699 0 0.33758650185219202 0.23837101504325639 0 0.3786248352540974 0.27082301512024259 0 0.33402499257867951 0.28911035184473982 0 0.36575549820117997 0.31677992835137742 0 0.33402499257867951 0.28911035184473982 0 0.3786248352540974 0.27082301512024259 0 0.36575549820117997 0.31677992835137742 0 0.32752639306529541 0.32610012995269699 0 0.33402499257867951 0.28911035184473982 0 0.29348325746214782 0.31350119524708198 0 0.33402499257867951 0.28911035184473982 0 0.32752639306529541 0.32610012995269699 0 0.33758650185219202 0.23837101504325639 0 0.33402499257867951 0.28911035184473982 0 0.29132859388405002 0.27203693976649962 0 0.29348325746214782 0.31350119524708198 0 0.29132859388405002 0.27203693976649962 0 0.33402499257867951 0.28911035184473982 0 0.29348325746214782 0.31350119524708198 0 0.24432083401701241 0.3006253385567515 0 0.29132859388405002 0.27203693976649962 0 0.25195515620380449 0.25883339815888678 0 0.29132859388405002 0.27203693976649962 0 0.24432083401701241 0.3006253385567515 0 0.25195515620380449 0.25883339815888678 0 0.28040350263641872 0.23054717217092141 0 0.29132859388405002 0.27203693976649962 0 0.27866744612395528 0.38416094670951489 0 0.29644548887253103 0.34914008784168082 0 0.33277555741076909 0.36432196682010132 0 0.29348325746214782 0.31350119524708198 0 0.32752639306529541 0.32610012995269699 0 0.29644548887253103 0.34914008784168082 0 0.29348325746214782 0.31350119524708198 0 0.29644548887253103 0.34914008784168082 0 0.25966125648670141 0.34351016742083729 0 0.29348325746214782 0.31350119524708198 0 0.25966125648670141 0.34351016742083729 0 0.24432083401701241 0.3006253385567515 0 0.27866744612395528 0.38416094670951489 0 0.25966125648670141 0.34351016742083729 0 0.29644548887253103 0.34914008784168082 0 0.27866744612395528 0.38416094670951489 0 0.22033343844674469 0.36963382230740238 0 0.25966125648670141 0.34351016742083729 0 0.27866744612395528 0.38416094670951489 0 0.29124338931648802 0.43334555462578611 0 0.24049127783545701 0.41270748208749802 0 0.29124338931648802 0.43334555462578611 0 0.25982634974572738 0.46097799597715272 0 0.24049127783545701 0.41270748208749802 0 0.27866744612395528 0.38416094670951489 0 0.31778888742534622 0.40581751814196781 0 0.29124338931648802 0.43334555462578611 0 0.27866744612395528 0.38416094670951489 0 0.33277555741076909 0.36432196682010132 0 0.31778888742534622 0.40581751814196781 0 0.33277555741076909 0.36432196682010132 0 0.35221190152536241 0.40457127605439203 0 0.31778888742534622 0.40581751814196781 0 0.34258405725730701 0.4444034294386992 0 0.31778888742534622 0.40581751814196781 0 0.35221190152536241 0.40457127605439203 0 0.34258405725730701 0.4444034294386992 0 0.29124338931648802 0.43334555462578611 0 0.31778888742534622 0.40581751814196781 0 0.34258405725730701 0.4444034294386992 0 0.35221190152536241 0.40457127605439203 0 0.38707855792647411 0.42299362914874578 0 0.38083244760691543 0.38531983672244652 0 0.38707855792647411 0.42299362914874578 0 0.35221190152536241 0.40457127605439203 0 0.38083244760691543 0.38531983672244652 0 0.35221190152536241 0.40457127605439203 0 0.33277555741076909 0.36432196682010132 0 0.38244435121258652 0.51653317813019495 0 0.35024835142131061 0.48654922671676981 0 0.3908716102680424 0.47010282357248828 0 0.34258405725730701 0.4444034294386992 0 0.3908716102680424 0.47010282357248828 0 0.35024835142131061 0.48654922671676981 0 0.34258405725730701 0.4444034294386992 0 0.38707855792647411 0.42299362914874578 0 0.3908716102680424 0.47010282357248828 0 0.34258405725730701 0.4444034294386992 0 0.31068898841644388 0.47541502461811092 0 0.29124338931648802 0.43334555462578611 0 0.35024835142131061 0.48654922671676981 0 0.33190227185843768 0.52715113583864037 0 0.31068898841644388 0.47541502461811092 0 0.34258405725730701 0.4444034294386992 0 0.35024835142131061 0.48654922671676981 0 0.31068898841644388 0.47541502461811092 0 0.28307294598219601 0.50789252727458634 0 0.25982634974572738 0.46097799597715272 0 0.31068898841644388 0.47541502461811092 0 0.29124338931648802 0.43334555462578611 0 0.31068898841644388 0.47541502461811092 0 0.25982634974572738 0.46097799597715272 0 0.28307294598219601 0.50789252727458634 0 0.23975172658309729 0.49475499200540818 0 0.25982634974572738 0.46097799597715272 0 0.22278230690790279 0.44824268025881547 0 0.23975172658309729 0.49475499200540818 0 0.19604738184454831 0.47787523520405789 0 0.22278230690790279 0.44824268025881547 0 0.19604738184454831 0.47787523520405789 0 0.191953871957803 0.42546416763755879 0 0.22278230690790279 0.44824268025881547 0 0.24049127783545701 0.41270748208749802 0 0.25982634974572738 0.46097799597715272 0 0.22278230690790279 0.44824268025881547 0 0.25982634974572738 0.46097799597715272 0 0.23975172658309729 0.49475499200540818 0 0.27866744612395528 0.38416094670951489 0 0.24049127783545701 0.41270748208749802 0 0.22033343844674469 0.36963382230740238 0 0.1650278706801647 0.38791388161335733 0 0.22033343844674469 0.36963382230740238 0 0.191953871957803 0.42546416763755879 0 0.22033343844674469 0.36963382230740238 0 0.24049127783545701 0.41270748208749802 0 0.191953871957803 0.42546416763755879 0 0.22278230690790279 0.44824268025881547 0 0.191953871957803 0.42546416763755879 0 0.24049127783545701 0.41270748208749802 0 0.15801167086041079 0.46008690540259539 0 0.13773355295499351 0.42497777642586831 0 0.191953871957803 0.42546416763755879 0 0.1650278706801647 0.38791388161335733 0 0.191953871957803 0.42546416763755879 0 0.13773355295499351 0.42497777642586831 0 0.1650278706801647 0.38791388161335733 0 0.13773355295499351 0.42497777642586831 0 0.1117088112799664 0.38831403004970022 0 0.15801167086041079 0.46008690540259539 0 0.113541300460994 0.46208784312094731 0 0.13773355295499351 0.42497777642586831 0 0.1216098864341134 0.50637075089503902 0 0.113541300460994 0.46208784312094731 0 0.15801167086041079 0.46008690540259539 0 0.1216098864341134 0.50637075089503902 0 0.15801167086041079 0.46008690540259539 0 0.16618607197337229 0.50652878253548905 0 0.15801167086041079 0.46008690540259539 0 0.19604738184454831 0.47787523520405789 0 0.16618607197337229 0.50652878253548905 0 0.15801167086041079 0.46008690540259539 0 0.191953871957803 0.42546416763755879 0 0.19604738184454831 0.47787523520405789 0 0.25195515620380449 0.25883339815888678 0 0.24432083401701241 0.3006253385567515 0 0.21049769590865089 0.26857363548218488 0 0.19670163708476801 0.31472518408333222 0 0.21049769590865089 0.26857363548218488 0 0.24432083401701241 0.3006253385567515 0 0.19670163708476801 0.31472518408333222 0 0.168349569971391 0.28054490850913671 0 0.21049769590865089 0.26857363548218488 0 0.19670163708476801 0.31472518408333222 0 0.22615676742807109 0.33458786033114157 0 0.18434624290945251 0.35208838264196463 0 0.19670163708476801 0.31472518408333222 0 0.24432083401701241 0.3006253385567515 0 0.22615676742807109 0.33458786033114157 0 0.24432083401701241 0.3006253385567515 0 0.25966125648670141 0.34351016742083729 0 0.22615676742807109 0.33458786033114157 0 0.22033343844674469 0.36963382230740238 0 0.22615676742807109 0.33458786033114157 0 0.25966125648670141 0.34351016742083729 0 0.22033343844674469 0.36963382230740238 0 0.18434624290945251 0.35208838264196463 0 0.22615676742807109 0.33458786033114157 0 0.1650278706801647 0.38791388161335733 0 0.18434624290945251 0.35208838264196463 0 0.22033343844674469 0.36963382230740238 0 0.1650278706801647 0.38791388161335733 0 0.14223753364722069 0.3341983344262433 0 0.18434624290945251 0.35208838264196463 0 0.1650278706801647 0.38791388161335733 0 0.1117088112799664 0.38831403004970022 0 0.14223753364722069 0.3341983344262433 0 0.19670163708476801 0.31472518408333222 0 0.18434624290945251 0.35208838264196463 0 0.14223753364722069 0.3341983344262433 0 0.19670163708476801 0.31472518408333222 0 0.14223753364722069 0.3341983344262433 0 0.168349569971391 0.28054490850913671 0 0.1247745017231483 0.27198077544791172 0 0.168349569971391 0.28054490850913671 0 0.14223753364722069 0.3341983344262433 0 0.1247745017231483 0.27198077544791172 0 0.14377654328998779 0.2442024734791064 0 0.168349569971391 0.28054490850913671 0 0.17933913398461551 0.2350063570234002 0 0.21049769590865089 0.26857363548218488 0 0.168349569971391 0.28054490850913671 0 0.17933913398461551 0.2350063570234002 0 0.168349569971391 0.28054490850913671 0 0.14377654328998779 0.2442024734791064 0 0.049706944316556423 0.27522722923869108 0 0.095326043202144745 0.24554465089224409 0 0.093851963071650835 0.30582068233324772 0 0.1247745017231483 0.27198077544791172 0 0.095326043202144745 0.24554465089224409 0 0.14377654328998779 0.2442024734791064 0 0.1247745017231483 0.27198077544791172 0 0.093851963071650835 0.30582068233324772 0 0.095326043202144745 0.24554465089224409 0 0.1247745017231483 0.27198077544791172 0 0.14223753364722069 0.3341983344262433 0 0.093851963071650835 0.30582068233324772 0 0.049706944316556423 0.27522722923869108 0 0.093851963071650835 0.30582068233324772 0 0.046389130980076937 0.32668781832131749 0 0.087545339447545459 0.35122518864182262 0 0.046389130980076937 0.32668781832131749 0 0.093851963071650835 0.30582068233324772 0 0.087545339447545459 0.35122518864182262 0 0.093851963071650835 0.30582068233324772 0 0.14223753364722069 0.3341983344262433 0 0.087545339447545459 0.35122518864182262 0 0.14223753364722069 0.3341983344262433 0 0.1117088112799664 0.38831403004970022 0 0.087545339447545459 0.35122518864182262 0 0.1117088112799664 0.38831403004970022 0 0.050583896093752537 0.38543522283434112 0 0.087545339447545459 0.35122518864182262 0 0.050583896093752537 0.38543522283434112 0 0.046389130980076937 0.32668781832131749 0 0 0.35000000000145642 0 0.046389130980076937 0.32668781832131749 0 0.050583896093752537 0.38543522283434112 0 0 0.35000000000145642 0 0 0.30000000000124832 0 0.046389130980076937 0.32668781832131749 0 0 0.30000000000124832 0 0.049706944316556423 0.27522722923869108 0 0.046389130980076937 0.32668781832131749 0 0 0.30000000000124832 0 0 0.25000000000104028 0 0.049706944316556423 0.27522722923869108 0 0 0.25000000000104028 0 0.044081577119474857 0.2271058242433576 0 0.049706944316556423 0.27522722923869108 0 0.078358742472063481 0.43365249433908948 0 0.113541300460994 0.46208784312094731 0 0.068743045408989428 0.48853989837882689 0 0.1216098864341134 0.50637075089503902 0 0.068743045408989428 0.48853989837882689 0 0.113541300460994 0.46208784312094731 0 0.113541300460994 0.46208784312094731 0 0.078358742472063481 0.43365249433908948 0 0.13773355295499351 0.42497777642586831 0 0.078358742472063481 0.43365249433908948 0 0.1117088112799664 0.38831403004970022 0 0.13773355295499351 0.42497777642586831 0 0.078358742472063481 0.43365249433908948 0 0.050583896093752537 0.38543522283434112 0 0.1117088112799664 0.38831403004970022 0 0.078358742472063481 0.43365249433908948 0 0.035463093262830522 0.42673416072819947 0 0.050583896093752537 0.38543522283434112 0 0 0.40000000000166441 0 0 0.35000000000145642 0 0.050583896093752537 0.38543522283434112 0 0 0.40000000000166441 0 0.050583896093752537 0.38543522283434112 0 0.035463093262830522 0.42673416072819947 0 0 0.45000000000187229 0 0 0.40000000000166441 0 0.035463093262830522 0.42673416072819947 0 0 0.45000000000187229 0 0.035463093262830522 0.42673416072819947 0 0.033550201249889847 0.46247875832467239 0 0 0.50000000000205869 0 0.033550201249889847 0.46247875832467239 0 0.068743045408989428 0.48853989837882689 0 0.078358742472063481 0.43365249433908948 0 0.068743045408989428 0.48853989837882689 0 0.033550201249889847 0.46247875832467239 0 0.078358742472063481 0.43365249433908948 0 0.033550201249889847 0.46247875832467239 0 0.035463093262830522 0.42673416072819947 0 0 0.50000000000205869 0 0 0.45000000000187229 0 0.033550201249889847 0.46247875832467239 0 0 0.50000000000205869 0 0.068743045408989428 0.48853989837882689 0 0.044576108720083309 0.53509043209532614 0 0 0.55000000000173355 0 0 0.50000000000205869 0 0.044576108720083309 0.53509043209532614 0 0 0.55000000000173355 0 0.044576108720083309 0.53509043209532614 0 0.034381862692950467 0.57372682250960894 0 0.077693244765132896 0.56932317963405099 0 0.034381862692950467 0.57372682250960894 0 0.044576108720083309 0.53509043209532614 0 0.068743045408989428 0.48853989837882689 0 0.085622222639554768 0.53333248912060549 0 0.044576108720083309 0.53509043209532614 0 0.1216098864341134 0.50637075089503902 0 0.085622222639554768 0.53333248912060549 0 0.068743045408989428 0.48853989837882689 0 0.077693244765132896 0.56932317963405099 0 0.044576108720083309 0.53509043209532614 0 0.085622222639554768 0.53333248912060549 0 0.077693244765132896 0.56932317963405099 0 0.085622222639554768 0.53333248912060549 0 0.1154888278694548 0.56733818459978413 0 0.085622222639554768 0.53333248912060549 0 0.1216098864341134 0.50637075089503902 0 0.1154888278694548 0.56733818459978413 0 0.077693244765132896 0.56932317963405099 0 0.1154888278694548 0.56733818459978413 0 0.1024350934457823 0.60772393977513839 0 0.086179601630648681 0.64647209519980475 0 0.050069554451969707 0.61308520079857043 0 0.1024350934457823 0.60772393977513839 0 0.077693244765132896 0.56932317963405099 0 0.1024350934457823 0.60772393977513839 0 0.050069554451969707 0.61308520079857043 0 0.077693244765132896 0.56932317963405099 0 0.050069554451969707 0.61308520079857043 0 0.034381862692950467 0.57372682250960894 0 0 0.60000000000138687 0 0 0.55000000000173355 0 0.034381862692950467 0.57372682250960894 0 0 0.65000000000104008 0 0 0.60000000000138687 0 0.050069554451969707 0.61308520079857043 0 0 0.60000000000138687 0 0.034381862692950467 0.57372682250960894 0 0.050069554451969707 0.61308520079857043 0 0 0.7000000000006934 0 0 0.65000000000104008 0 0.046634677244967337 0.671418230738282 0 0.086179601630648681 0.64647209519980475 0 0.046634677244967337 0.671418230738282 0 0.050069554451969707 0.61308520079857043 0 0 0.65000000000104008 0 0.050069554451969707 0.61308520079857043 0 0.046634677244967337 0.671418230738282 0 0 0.75000000000034661 0 0 0.7000000000006934 0 0.049706944316475897 0.72477277076253799 0 0 0.7000000000006934 0 0.046634677244967337 0.671418230738282 0 0.049706944316475897 0.72477277076253799 0 0 0.75000000000034661 0 0.049706944316475897 0.72477277076253799 0 0.04408157711937423 0.7728941757575627 0 0.049706944316475897 0.72477277076253799 0 0.1020579365089687 0.69352219419301997 0 0.090953281884486245 0.7564451946902494 0 0.1215415378367805 0.72939333680004137 0 0.090953281884486245 0.7564451946902494 0 0.1020579365089687 0.69352219419301997 0 0.049706944316475897 0.72477277076253799 0 0.046634677244967337 0.671418230738282 0 0.1020579365089687 0.69352219419301997 0 0.1215415378367805 0.72939333680004137 0 0.14335651144331049 0.75565258250209677 0 0.090953281884486245 0.7564451946902494 0 0.086179601630648681 0.64647209519980475 0 0.1020579365089687 0.69352219419301997 0 0.046634677244967337 0.671418230738282 0 0.086179601630648681 0.64647209519980475 0 0.1241190223511371 0.64391885572885044 0 0.1020579365089687 0.69352219419301997 0 0.086179601630648681 0.64647209519980475 0 0.1024350934457823 0.60772393977513839 0 0.1241190223511371 0.64391885572885044 0 0.16500388252850301 0.66612077714085194 0 0.1020579365089687 0.69352219419301997 0 0.1241190223511371 0.64391885572885044 0 0.15720202157091859 0.60665697304410315 0 0.16500388252850301 0.66612077714085194 0 0.1241190223511371 0.64391885572885044 0 0.15720202157091859 0.60665697304410315 0 0.19914261668318661 0.62286739485272158 0 0.16500388252850301 0.66612077714085194 0 0.16500388252850301 0.66612077714085194 0 0.15332765547575641 0.71200081858233666 0 0.1020579365089687 0.69352219419301997 0 0.1215415378367805 0.72939333680004137 0 0.15332765547575641 0.71200081858233666 0 0.14335651144331049 0.75565258250209677 0 0.1215415378367805 0.72939333680004137 0 0.1020579365089687 0.69352219419301997 0 0.15332765547575641 0.71200081858233666 0 0.16500388252850301 0.66612077714085194 0 0.19068556247388771 0.71028988922845504 0 0.15332765547575641 0.71200081858233666 0 0.18269480424590959 0.75905448272264375 0 0.14335651144331049 0.75565258250209677 0 0.15332765547575641 0.71200081858233666 0 0.18269480424590959 0.75905448272264375 0 0.15332765547575641 0.71200081858233666 0 0.19068556247388771 0.71028988922845504 0 0.18269480424590959 0.75905448272264375 0 0.19068556247388771 0.71028988922845504 0 0.2248999640082178 0.72584299459689172 0 0.2236846579037573 0.67380363126050236 0 0.2248999640082178 0.72584299459689172 0 0.19068556247388771 0.71028988922845504 0 0.2236846579037573 0.67380363126050236 0 0.26439878998046262 0.7048065392091396 0 0.2248999640082178 0.72584299459689172 0 0.25676291524611189 0.7436741304886243 0 0.22556077506376701 0.77837424984191617 0 0.2248999640082178 0.72584299459689172 0 0.25676291524611189 0.7436741304886243 0 0.2248999640082178 0.72584299459689172 0 0.26439878998046262 0.7048065392091396 0 0.2236846579037573 0.67380363126050236 0 0.16500388252850301 0.66612077714085194 0 0.19914261668318661 0.62286739485272158 0 0.2236846579037573 0.67380363126050236 0 0.19068556247388771 0.71028988922845504 0 0.16500388252850301 0.66612077714085194 0 0.2236846579037573 0.67380363126050236 0 0.19914261668318661 0.62286739485272158 0 0.2459498854893499 0.63248470766216769 0 0.2236846579037573 0.67380363126050236 0 0.2459498854893499 0.63248470766216769 0 0.27820712747429932 0.65530134213254643 0 0.22549374774072969 0.58452645269293457 0 0.2459498854893499 0.63248470766216769 0 0.19914261668318661 0.62286739485272158 0 0.26573297623774761 0.59828298563722948 0 0.2459498854893499 0.63248470766216769 0 0.22549374774072969 0.58452645269293457 0 0.22549374774072969 0.58452645269293457 0 0.19914261668318661 0.62286739485272158 0 0.18381867841758909 0.57774125163628387 0 0.20050006573841939 0.53248514016039872 0 0.22549374774072969 0.58452645269293457 0 0.18381867841758909 0.57774125163628387 0 0.26573297623774761 0.59828298563722948 0 0.22549374774072969 0.58452645269293457 0 0.25115337790845271 0.54719303014923271 0 0.20050006573841939 0.53248514016039872 0 0.25115337790845271 0.54719303014923271 0 0.22549374774072969 0.58452645269293457 0 0.20050006573841939 0.53248514016039872 0 0.23975172658309729 0.49475499200540818 0 0.25115337790845271 0.54719303014923271 0 0.20050006573841939 0.53248514016039872 0 0.16618607197337229 0.50652878253548905 0 0.19604738184454831 0.47787523520405789 0 0.20050006573841939 0.53248514016039872 0 0.19604738184454831 0.47787523520405789 0 0.23975172658309729 0.49475499200540818 0 0.20050006573841939 0.53248514016039872 0 0.18381867841758909 0.57774125163628387 0 0.14934928745814749 0.55042914607228977 0 0.20050006573841939 0.53248514016039872 0 0.14934928745814749 0.55042914607228977 0 0.16618607197337229 0.50652878253548905 0 0.1216098864341134 0.50637075089503902 0 0.16618607197337229 0.50652878253548905 0 0.14934928745814749 0.55042914607228977 0 0.1154888278694548 0.56733818459978413 0 0.1216098864341134 0.50637075089503902 0 0.14934928745814749 0.55042914607228977 0 0.15720202157091859 0.60665697304410315 0 0.1154888278694548 0.56733818459978413 0 0.14934928745814749 0.55042914607228977 0 0.15720202157091859 0.60665697304410315 0 0.1024350934457823 0.60772393977513839 0 0.1154888278694548 0.56733818459978413 0 0.15720202157091859 0.60665697304410315 0 0.1241190223511371 0.64391885572885044 0 0.1024350934457823 0.60772393977513839 0 0.18381867841758909 0.57774125163628387 0 0.19914261668318661 0.62286739485272158 0 0.15720202157091859 0.60665697304410315 0 0.15720202157091859 0.60665697304410315 0 0.14934928745814749 0.55042914607228977 0 0.18381867841758909 0.57774125163628387 0 0.15000000000062411 1 0 0.10000000000041601 1 0 0.10266856499240549 0.95548163909968886 0 0.083411279318375747 0.91030024466934134 0 0.10266856499240549 0.95548163909968886 0 0.053064897599294662 0.95186845269532028 0 0.050000000000207989 1 0 0.053064897599294662 0.95186845269532028 0 0.10000000000041601 1 0 0.10000000000041601 1 0 0.053064897599294662 0.95186845269532028 0 0.10266856499240549 0.95548163909968886 0 0.050000000000207989 1 0 0.025766224399875661 0.97546711317377799 0 0.053064897599294662 0.95186845269532028 0 0 1 0 0.025766224399875661 0.97546711317377799 0 0.050000000000207989 1 0 0 1 0 0 0.94999999999979179 0 0.025766224399875661 0.97546711317377799 0 0 0.94999999999979179 0 0.053064897599294662 0.95186845269532028 0 0.025766224399875661 0.97546711317377799 0 0 0.94999999999979179 0 0.0443105827531413 0.89858748162559932 0 0.053064897599294662 0.95186845269532028 0 0.083411279318375747 0.91030024466934134 0 0.053064897599294662 0.95186845269532028 0 0.0443105827531413 0.89858748162559932 0 0 0.94999999999979179 0 0 0.89999999999958358 0 0.0443105827531413 0.89858748162559932 0 0 0.89999999999958358 0 0 0.84999999999965292 0 0.0443105827531413 0.89858748162559932 0 0.083411279318375747 0.91030024466934134 0 0.0443105827531413 0.89858748162559932 0 0.065374659239661639 0.8551091961254178 0 0.083411279318375747 0.91030024466934134 0 0.065374659239661639 0.8551091961254178 0 0.10562472963403439 0.87143394428979881 0 0.083411279318375747 0.91030024466934134 0 0.1241151115713819 0.9045666525468371 0 0.10266856499240549 0.95548163909968886 0 0.14617343800780541 0.93808063414349496 0 0.10266856499240549 0.95548163909968886 0 0.1241151115713819 0.9045666525468371 0 0.14474682429600511 0.85524784522713515 0 0.1241151115713819 0.9045666525468371 0 0.10562472963403439 0.87143394428979881 0 0.083411279318375747 0.91030024466934134 0 0.10562472963403439 0.87143394428979881 0 0.1241151115713819 0.9045666525468371 0 0.14474682429600511 0.85524784522713515 0 0.10562472963403439 0.87143394428979881 0 0.1074251789111534 0.83564394292147814 0 0.083105206071452636 0.79992298667296435 0 0.1074251789111534 0.83564394292147814 0 0.065374659239661639 0.8551091961254178 0 0.065374659239661639 0.8551091961254178 0 0.1074251789111534 0.83564394292147814 0 0.10562472963403439 0.87143394428979881 0 0 0.84999999999965292 0 0.038512288486097702 0.8155852717111195 0 0.065374659239661639 0.8551091961254178 0 0 0.84999999999965292 0 0.065374659239661639 0.8551091961254178 0 0.0443105827531413 0.89858748162559932 0 0 0.84999999999965292 0 0 0.79999999999999982 0 0.038512288486097702 0.8155852717111195 0 0.083105206071452636 0.79992298667296435 0 0.065374659239661639 0.8551091961254178 0 0.038512288486097702 0.8155852717111195 0 0.083105206071452636 0.79992298667296435 0 0.038512288486097702 0.8155852717111195 0 0.04408157711937423 0.7728941757575627 0 0 0.79999999999999982 0 0.04408157711937423 0.7728941757575627 0 0.038512288486097702 0.8155852717111195 0 0 0.79999999999999982 0 0 0.75000000000034661 0 0.04408157711937423 0.7728941757575627 0 0.049706944316475897 0.72477277076253799 0 0.090953281884486245 0.7564451946902494 0 0.04408157711937423 0.7728941757575627 0 0.083105206071452636 0.79992298667296435 0 0.04408157711937423 0.7728941757575627 0 0.090953281884486245 0.7564451946902494 0 0.083105206071452636 0.79992298667296435 0 0.1382744753146134 0.79650574229207483 0 0.1074251789111534 0.83564394292147814 0 0.083105206071452636 0.79992298667296435 0 0.090953281884486245 0.7564451946902494 0 0.1382744753146134 0.79650574229207483 0 0.1382744753146134 0.79650574229207483 0 0.090953281884486245 0.7564451946902494 0 0.14335651144331049 0.75565258250209677 0 0.18269480424590959 0.75905448272264375 0 0.1382744753146134 0.79650574229207483 0 0.14335651144331049 0.75565258250209677 0 0.18269480424590959 0.75905448272264375 0 0.17777405986036951 0.81832336108265358 0 0.1382744753146134 0.79650574229207483 0 0.18269480424590959 0.75905448272264375 0 0.2248999640082178 0.72584299459689172 0 0.22556077506376701 0.77837424984191617 0 0.21858834311891909 0.81980263716112767 0 0.22556077506376701 0.77837424984191617 0 0.26104540868854792 0.81401944968719064 0 0.21858834311891909 0.81980263716112767 0 0.17777405986036951 0.81832336108265358 0 0.22556077506376701 0.77837424984191617 0 0.18269480424590959 0.75905448272264375 0 0.22556077506376701 0.77837424984191617 0 0.17777405986036951 0.81832336108265358 0 0.21858834311891909 0.81980263716112767 0 0.19741632902693801 0.86755867406447229 0 0.17777405986036951 0.81832336108265358 0 0.21858834311891909 0.81980263716112767 0 0.26104540868854792 0.81401944968719064 0 0.2401283238295133 0.85648409884788523 0 0.21858834311891909 0.81980263716112767 0 0.2401283238295133 0.85648409884788523 0 0.19741632902693801 0.86755867406447229 0 0.14474682429600511 0.85524784522713515 0 0.17777405986036951 0.81832336108265358 0 0.19741632902693801 0.86755867406447229 0 0.14474682429600511 0.85524784522713515 0 0.19741632902693801 0.86755867406447229 0 0.16206583317966519 0.89685560785156404 0 0.14474682429600511 0.85524784522713515 0 0.1382744753146134 0.79650574229207483 0 0.17777405986036951 0.81832336108265358 0 0.14474682429600511 0.85524784522713515 0 0.1074251789111534 0.83564394292147814 0 0.1382744753146134 0.79650574229207483 0 0.14474682429600511 0.85524784522713515 0 0.16206583317966519 0.89685560785156404 0 0.1241151115713819 0.9045666525468371 0 0.14617343800780541 0.93808063414349496 0 0.1241151115713819 0.9045666525468371 0 0.16206583317966519 0.89685560785156404 0 0.19901705110390991 0.9175543425573498 0 0.14617343800780541 0.93808063414349496 0 0.16206583317966519 0.89685560785156404 0 0.19901705110390991 0.9175543425573498 0 0.16206583317966519 0.89685560785156404 0 0.19741632902693801 0.86755867406447229 0 0.19901705110390991 0.9175543425573498 0 0.19741632902693801 0.86755867406447229 0 0.24536017905392571 0.90704567837671446 0 0.19741632902693801 0.86755867406447229 0 0.2401283238295133 0.85648409884788523 0 0.24536017905392571 0.90704567837671446 0 0.19901705110390991 0.9175543425573498 0 0.24536017905392571 0.90704567837671446 0 0.22850979588452081 0.95594428570238643 0 0.19901705110390991 0.9175543425573498 0 0.22850979588452081 0.95594428570238643 0 0.18474005699953849 0.96231585248064622 0 0.27609987656793722 0.94991445621608572 0 0.22850979588452081 0.95594428570238643 0 0.24536017905392571 0.90704567837671446 0 0.25000000000104028 1 0 0.20000000000083221 1 0 0.22850979588452081 0.95594428570238643 0 0.20000000000083221 1 0 0.18474005699953849 0.96231585248064622 0 0.22850979588452081 0.95594428570238643 0 0.20000000000083221 1 0 0.15000000000062411 1 0 0.18474005699953849 0.96231585248064622 0 0.19901705110390991 0.9175543425573498 0 0.18474005699953849 0.96231585248064622 0 0.14617343800780541 0.93808063414349496 0 0.15000000000062411 1 0 0.14617343800780541 0.93808063414349496 0 0.18474005699953849 0.96231585248064622 0 0.15000000000062411 1 0 0.10266856499240549 0.95548163909968886 0 0.14617343800780541 0.93808063414349496 0 0.35000000000145642 1 0 0.32544832635163229 0.95485394099568932 0 0.36184234618600131 0.96443954459096326 0 0.40000000000166441 1 0 0.35000000000145642 1 0 0.36184234618600131 0.96443954459096326 0 0.35752321586431363 0.9185439911803448 0 0.36184234618600131 0.96443954459096326 0 0.32544832635163229 0.95485394099568932 0 0.35752321586431363 0.9185439911803448 0 0.39641108128798319 0.94356127926187128 0 0.36184234618600131 0.96443954459096326 0 0.35000000000145642 1 0 0.30000000000124832 1 0 0.32544832635163229 0.95485394099568932 0 0.30000000000124832 1 0 0.25000000000104028 1 0 0.27609987656793722 0.94991445621608572 0 0.25000000000104028 1 0 0.22850979588452081 0.95594428570238643 0 0.27609987656793722 0.94991445621608572 0 0.30000000000124832 1 0 0.27609987656793722 0.94991445621608572 0 0.32544832635163229 0.95485394099568932 0 0.27609987656793722 0.94991445621608572 0 0.30864387279288652 0.89906554525974958 0 0.32544832635163229 0.95485394099568932 0 0.27270076654418179 0.87751467830216623 0 0.30864387279288652 0.89906554525974958 0 0.24536017905392571 0.90704567837671446 0 0.27609987656793722 0.94991445621608572 0 0.24536017905392571 0.90704567837671446 0 0.30864387279288652 0.89906554525974958 0 0.27270076654418179 0.87751467830216623 0 0.24536017905392571 0.90704567837671446 0 0.2401283238295133 0.85648409884788523 0 0.35752321586431363 0.9185439911803448 0 0.30864387279288652 0.89906554525974958 0 0.35864759629805099 0.87963482415279515 0 0.35752321586431363 0.9185439911803448 0 0.32544832635163229 0.95485394099568932 0 0.30864387279288652 0.89906554525974958 0 0.35752321586431363 0.9185439911803448 0 0.35864759629805099 0.87963482415279515 0 0.39767323751400468 0.89584229130535065 0 0.35864759629805099 0.87963482415279515 0 0.33403534827021109 0.84402799729020661 0 0.39536230704883951 0.84069429572832477 0 0.33403534827021109 0.84402799729020661 0 0.35642984951668422 0.80994399665655703 0 0.39536230704883951 0.84069429572832477 0 0.33403534827021109 0.84402799729020661 0 0.30857225866488791 0.81101973481716805 0 0.35642984951668422 0.80994399665655703 0 0.33403534827021109 0.84402799729020661 0 0.35864759629805099 0.87963482415279515 0 0.30864387279288652 0.89906554525974958 0 0.33403534827021109 0.84402799729020661 0 0.30864387279288652 0.89906554525974958 0 0.29209212897034281 0.84715728365233667 0 0.27270076654418179 0.87751467830216623 0 0.29209212897034281 0.84715728365233667 0 0.30864387279288652 0.89906554525974958 0 0.27270076654418179 0.87751467830216623 0 0.2401283238295133 0.85648409884788523 0 0.29209212897034281 0.84715728365233667 0 0.26104540868854792 0.81401944968719064 0 0.29209212897034281 0.84715728365233667 0 0.2401283238295133 0.85648409884788523 0 0.26104540868854792 0.81401944968719064 0 0.30857225866488791 0.81101973481716805 0 0.29209212897034281 0.84715728365233667 0 0.33403534827021109 0.84402799729020661 0 0.29209212897034281 0.84715728365233667 0 0.30857225866488791 0.81101973481716805 0 0.26104540868854792 0.81401944968719064 0 0.2792923945214143 0.77665808831789485 0 0.30857225866488791 0.81101973481716805 0 0.33123028043633618 0.77629643437932982 0 0.30857225866488791 0.81101973481716805 0 0.2792923945214143 0.77665808831789485 0 0.26104540868854792 0.81401944968719064 0 0.22556077506376701 0.77837424984191617 0 0.2792923945214143 0.77665808831789485 0 0.25676291524611189 0.7436741304886243 0 0.29904318922293632 0.74132814928635593 0 0.2792923945214143 0.77665808831789485 0 0.25676291524611189 0.7436741304886243 0 0.2792923945214143 0.77665808831789485 0 0.22556077506376701 0.77837424984191617 0 0.33123028043633618 0.77629643437932982 0 0.2792923945214143 0.77665808831789485 0 0.29904318922293632 0.74132814928635593 0 0.33123028043633618 0.77629643437932982 0 0.29904318922293632 0.74132814928635593 0 0.35415581127540569 0.73730480045900215 0 0.33123028043633618 0.77629643437932982 0 0.35642984951668422 0.80994399665655703 0 0.30857225866488791 0.81101973481716805 0 0.33123028043633618 0.77629643437932982 0 0.38586766253264881 0.78219501014812498 0 0.35642984951668422 0.80994399665655703 0 0.33123028043633618 0.77629643437932982 0 0.35415581127540569 0.73730480045900215 0 0.38586766253264881 0.78219501014812498 0 0.40326160981139969 0.73346192995102844 0 0.42676259796334498 0.76772545931379299 0 0.38586766253264881 0.78219501014812498 0 0.40326160981139969 0.73346192995102844 0 0.38586766253264881 0.78219501014812498 0 0.35415581127540569 0.73730480045900215 0 0.39536230704883951 0.84069429572832477 0 0.38586766253264881 0.78219501014812498 0 0.42609163930740518 0.80361684430568059 0 0.39536230704883951 0.84069429572832477 0 0.35642984951668422 0.80994399665655703 0 0.38586766253264881 0.78219501014812498 0 0.38586766253264881 0.78219501014812498 0 0.42676259796334498 0.76772545931379299 0 0.42609163930740518 0.80361684430568059 0 0.4656888918609538 0.78493261229743638 0 0.42676259796334498 0.76772545931379299 0 0.45582236402875981 0.73896743678908217 0 0.4656888918609538 0.78493261229743638 0 0.45582236402875981 0.73896743678908217 0 0.50945740445113552 0.75476055527778108 0 0.4656888918609538 0.78493261229743638 0 0.50945740445113552 0.75476055527778108 0 0.50731287292894423 0.78963574450233831 0 0.4656888918609538 0.78493261229743638 0 0.50731287292894423 0.78963574450233831 0 0.50627822638148745 0.8263979829520941 0 0.4656888918609538 0.78493261229743638 0 0.45677673713123867 0.84253684404072415 0 0.42609163930740518 0.80361684430568059 0 0.4656888918609538 0.78493261229743638 0 0.42609163930740518 0.80361684430568059 0 0.42676259796334498 0.76772545931379299 0 0.4656888918609538 0.78493261229743638 0 0.50627822638148745 0.8263979829520941 0 0.45677673713123867 0.84253684404072415 0 0.50202631463681879 0.87892870825713787 0 0.45677673713123867 0.84253684404072415 0 0.50627822638148745 0.8263979829520941 0 0.50202631463681879 0.87892870825713787 0 0.44003836461056539 0.88093474584252718 0 0.45677673713123867 0.84253684404072415 0 0.39536230704883951 0.84069429572832477 0 0.45677673713123867 0.84253684404072415 0 0.44003836461056539 0.88093474584252718 0 0.39536230704883951 0.84069429572832477 0 0.44003836461056539 0.88093474584252718 0 0.39767323751400468 0.89584229130535065 0 0.39536230704883951 0.84069429572832477 0 0.42609163930740518 0.80361684430568059 0 0.45677673713123867 0.84253684404072415 0 0.39536230704883951 0.84069429572832477 0 0.39767323751400468 0.89584229130535065 0 0.35864759629805099 0.87963482415279515 0 0.35752321586431363 0.9185439911803448 0 0.39767323751400468 0.89584229130535065 0 0.39641108128798319 0.94356127926187128 0 0.4367309254023824 0.92065556789053882 0 0.39641108128798319 0.94356127926187128 0 0.39767323751400468 0.89584229130535065 0 0.4367309254023824 0.92065556789053882 0 0.39767323751400468 0.89584229130535065 0 0.44003836461056539 0.88093474584252718 0 0.4367309254023824 0.92065556789053882 0 0.44003836461056539 0.88093474584252718 0 0.47401147028110507 0.91529957330468115 0 0.50202631463681879 0.87892870825713787 0 0.47401147028110507 0.91529957330468115 0 0.44003836461056539 0.88093474584252718 0 0.52122150208832174 0.94089974453840242 0 0.47135117303824892 0.95556877749289892 0 0.47401147028110507 0.91529957330468115 0 0.50202631463681879 0.87892870825713787 0 0.52122150208832174 0.94089974453840242 0 0.47401147028110507 0.91529957330468115 0 0.4367309254023824 0.92065556789053882 0 0.47401147028110507 0.91529957330468115 0 0.47135117303824892 0.95556877749289892 0 0.4367309254023824 0.92065556789053882 0 0.47135117303824892 0.95556877749289892 0 0.4308986359464303 0.96395712492906194 0 0.50000000000205869 1 0 0.47135117303824892 0.95556877749289892 0 0.52122150208832174 0.94089974453840242 0 0.50000000000205869 1 0 0.45000000000187229 1 0 0.47135117303824892 0.95556877749289892 0 0.45000000000187229 1 0 0.4308986359464303 0.96395712492906194 0 0.47135117303824892 0.95556877749289892 0 0.45000000000187229 1 0 0.40000000000166441 1 0 0.4308986359464303 0.96395712492906194 0 0.40000000000166441 1 0 0.39641108128798319 0.94356127926187128 0 0.4308986359464303 0.96395712492906194 0 0.4367309254023824 0.92065556789053882 0 0.4308986359464303 0.96395712492906194 0 0.39641108128798319 0.94356127926187128 0 0.40000000000166441 1 0 0.36184234618600131 0.96443954459096326 0 0.39641108128798319 0.94356127926187128 0 0.33122374654748771 0.57588941099433744 0 0.35765792684946668 0.6000687869219653 0 0.31502927232353312 0.6134992213375432 0 0.35864735590330371 0.63903383440414463 0 0.31502927232353312 0.6134992213375432 0 0.35765792684946668 0.6000687869219653 0 0.35864735590330371 0.63903383440414463 0 0.35765792684946668 0.6000687869219653 0 0.39743091024207589 0.6239520004230239 0 0.33122374654748771 0.57588941099433744 0 0.37272913873093971 0.56192925302619479 0 0.35765792684946668 0.6000687869219653 0 0.38244435121258652 0.51653317813019495 0 0.37272913873093971 0.56192925302619479 0 0.33190227185843768 0.52715113583864037 0 0.33122374654748771 0.57588941099433744 0 0.33190227185843768 0.52715113583864037 0 0.37272913873093971 0.56192925302619479 0 0.38244435121258652 0.51653317813019495 0 0.33190227185843768 0.52715113583864037 0 0.35024835142131061 0.48654922671676981 0 0.33122374654748771 0.57588941099433744 0 0.29110487519241501 0.56588143995431495 0 0.33190227185843768 0.52715113583864037 0 0.28307294598219601 0.50789252727458634 0 0.33190227185843768 0.52715113583864037 0 0.29110487519241501 0.56588143995431495 0 0.31068898841644388 0.47541502461811092 0 0.33190227185843768 0.52715113583864037 0 0.28307294598219601 0.50789252727458634 0 0.28307294598219601 0.50789252727458634 0 0.25115337790845271 0.54719303014923271 0 0.23975172658309729 0.49475499200540818 0 0.28307294598219601 0.50789252727458634 0 0.29110487519241501 0.56588143995431495 0 0.25115337790845271 0.54719303014923271 0 0.26573297623774761 0.59828298563722948 0 0.25115337790845271 0.54719303014923271 0 0.29110487519241501 0.56588143995431495 0 0.33122374654748771 0.57588941099433744 0 0.31502927232353312 0.6134992213375432 0 0.29110487519241501 0.56588143995431495 0 0.26573297623774761 0.59828298563722948 0 0.29110487519241501 0.56588143995431495 0 0.31502927232353312 0.6134992213375432 0 0.26573297623774761 0.59828298563722948 0 0.31502927232353312 0.6134992213375432 0 0.27820712747429932 0.65530134213254643 0 0.26573297623774761 0.59828298563722948 0 0.27820712747429932 0.65530134213254643 0 0.2459498854893499 0.63248470766216769 0 0.2236846579037573 0.67380363126050236 0 0.27820712747429932 0.65530134213254643 0 0.26439878998046262 0.7048065392091396 0 0.31378396441836959 0.70157213313026345 0 0.27820712747429932 0.65530134213254643 0 0.32263089806001177 0.66003674931826484 0 0.31378396441836959 0.70157213313026345 0 0.26439878998046262 0.7048065392091396 0 0.27820712747429932 0.65530134213254643 0 0.27820712747429932 0.65530134213254643 0 0.31502927232353312 0.6134992213375432 0 0.32263089806001177 0.66003674931826484 0 0.25676291524611189 0.7436741304886243 0 0.26439878998046262 0.7048065392091396 0 0.29904318922293632 0.74132814928635593 0 0.31378396441836959 0.70157213313026345 0 0.29904318922293632 0.74132814928635593 0 0.26439878998046262 0.7048065392091396 0 0.31378396441836959 0.70157213313026345 0 0.35415581127540569 0.73730480045900215 0 0.29904318922293632 0.74132814928635593 0 0.31378396441836959 0.70157213313026345 0 0.36622285152418499 0.69092437780804039 0 0.35415581127540569 0.73730480045900215 0 0.40326160981139969 0.73346192995102844 0 0.35415581127540569 0.73730480045900215 0 0.36622285152418499 0.69092437780804039 0 0.35864735590330371 0.63903383440414463 0 0.32263089806001177 0.66003674931826484 0 0.31502927232353312 0.6134992213375432 0 0.31378396441836959 0.70157213313026345 0 0.32263089806001177 0.66003674931826484 0 0.36622285152418499 0.69092437780804039 0 0.35864735590330371 0.63903383440414463 0 0.36622285152418499 0.69092437780804039 0 0.32263089806001177 0.66003674931826484 0 0.35864735590330371 0.63903383440414463 0 0.3977710372045391 0.65868194622830212 0 0.36622285152418499 0.69092437780804039 0 0.35864735590330371 0.63903383440414463 0 0.39743091024207589 0.6239520004230239 0 0.3977710372045391 0.65868194622830212 0 0.36622285152418499 0.69092437780804039 0 0.3977710372045391 0.65868194622830212 0 0.43323420005758778 0.6913544522562407 0 0.43846182030517877 0.64845797726506715 0 0.43323420005758778 0.6913544522562407 0 0.3977710372045391 0.65868194622830212 0 0.43846182030517877 0.64845797726506715 0 0.39743091024207589 0.6239520004230239 0 0.43545892161006339 0.61093128915313821 0 0.43846182030517877 0.64845797726506715 0 0.3977710372045391 0.65868194622830212 0 0.39743091024207589 0.6239520004230239 0 0.40326160981139969 0.73346192995102844 0 0.36622285152418499 0.69092437780804039 0 0.43323420005758778 0.6913544522562407 0 0.40326160981139969 0.73346192995102844 0 0.43323420005758778 0.6913544522562407 0 0.45582236402875981 0.73896743678908217 0 0.40326160981139969 0.73346192995102844 0 0.45582236402875981 0.73896743678908217 0 0.42676259796334498 0.76772545931379299 0 0.5 0.69999999999999996 0 0.45582236402875981 0.73896743678908217 0 0.43323420005758778 0.6913544522562407 0 0.5 0.69999999999999996 0 0.50945740445113552 0.75476055527778108 0 0.45582236402875981 0.73896743678908217 0 0.5 0.69999999999999996 0 0.43323420005758778 0.6913544522562407 0 0.47913475093885149 0.66010775372412711 0 0.43846182030517877 0.64845797726506715 0 0.47095389620662098 0.61892551373708504 0 0.47913475093885149 0.66010775372412711 0 0.43846182030517877 0.64845797726506715 0 0.43545892161006339 0.61093128915313821 0 0.47095389620662098 0.61892551373708504 0 0.43846182030517877 0.64845797726506715 0 0.47913475093885149 0.66010775372412711 0 0.43323420005758778 0.6913544522562407 0 0.50715858906372158 0.63295939104129484 0 0.47913475093885149 0.66010775372412711 0 0.47095389620662098 0.61892551373708504 0 0.50715858906372158 0.63295939104129484 0 0.47095389620662098 0.61892551373708504 0 0.5166924242153631 0.59825134841919447 0 0.46666084890304671 0.57634471035397938 0 0.5166924242153631 0.59825134841919447 0 0.47095389620662098 0.61892551373708504 0 0.46666084890304671 0.57634471035397938 0 0.47095389620662098 0.61892551373708504 0 0.43545892161006339 0.61093128915313821 0 0.4089290844030305 0.58728915500154233 0 0.43545892161006339 0.61093128915313821 0 0.39743091024207589 0.6239520004230239 0 0.43545892161006339 0.61093128915313821 0 0.4089290844030305 0.58728915500154233 0 0.46666084890304671 0.57634471035397938 0 0.4089290844030305 0.58728915500154233 0 0.42644501560315817 0.54603747078095544 0 0.46666084890304671 0.57634471035397938 0 0.4089290844030305 0.58728915500154233 0 0.37272913873093971 0.56192925302619479 0 0.42644501560315817 0.54603747078095544 0 0.4089290844030305 0.58728915500154233 0 0.35765792684946668 0.6000687869219653 0 0.37272913873093971 0.56192925302619479 0 0.4089290844030305 0.58728915500154233 0 0.39743091024207589 0.6239520004230239 0 0.35765792684946668 0.6000687869219653 0 0.38244435121258652 0.51653317813019495 0 0.42644501560315817 0.54603747078095544 0 0.37272913873093971 0.56192925302619479 0 0.38244435121258652 0.51653317813019495 0 0.43507373378304309 0.49699695397193322 0 0.42644501560315817 0.54603747078095544 0 0.46666084890304671 0.57634471035397938 0 0.47793794143994173 0.52940715638744962 0 0.53245488764484505 0.55078124999999989 0 0.49102375406324739 0.49123754822244059 0 0.47793794143994173 0.52940715638744962 0 0.43507373378304309 0.49699695397193322 0 0.43507373378304309 0.49699695397193322 0 0.47793794143994173 0.52940715638744962 0 0.42644501560315817 0.54603747078095544 0 0.46666084890304671 0.57634471035397938 0 0.42644501560315817 0.54603747078095544 0 0.47793794143994173 0.52940715638744962 0 0.49102375406324739 0.49123754822244059 0 0.53330375813596242 0.50827942741749099 0 0.47793794143994173 0.52940715638744962 0 0.53245488764484505 0.55078124999999989 0 0.47793794143994173 0.52940715638744962 0 0.53330375813596242 0.50827942741749099 0 0.53245488764484505 0.55078124999999989 0 0.53330375813596242 0.50827942741749099 0 0.57435499076887508 0.54267261987897775 0 0.57412547362576272 0.58273804879550706 0 0.53245488764484505 0.55078124999999989 0 0.57435499076887508 0.54267261987897775 0 0.57611405284611883 0.50165903596042916 0 0.57435499076887508 0.54267261987897775 0 0.53330375813596242 0.50827942741749099 0 0.57611405284611883 0.50165903596042916 0 0.62042975506801734 0.54295974692364424 0 0.57435499076887508 0.54267261987897775 0 0.57412547362576272 0.58273804879550706 0 0.57435499076887508 0.54267261987897775 0 0.62042975506801734 0.54295974692364424 0 0.57611405284611883 0.50165903596042916 0 0.61547661924074692 0.48539576058873962 0 0.62042975506801734 0.54295974692364424 0 0.6405463747586706 0.63290524857395714 0 0.5991018319127801 0.62925360607495295 0 0.63065402604362242 0.59661356661633302 0 0.57412547362576272 0.58273804879550706 0 0.63065402604362242 0.59661356661633302 0 0.5991018319127801 0.62925360607495295 0 0.57412547362576272 0.58273804879550706 0 0.62042975506801734 0.54295974692364424 0 0.63065402604362242 0.59661356661633302 0 0.57412547362576272 0.58273804879550706 0 0.5991018319127801 0.62925360607495295 0 0.5498280205245758 0.6290146943450976 0 0.46666084890304671 0.57634471035397938 0 0.53245488764484505 0.55078124999999989 0 0.5166924242153631 0.59825134841919447 0 0.57412547362576272 0.58273804879550706 0 0.5498280205245758 0.6290146943450976 0 0.5166924242153631 0.59825134841919447 0 0.57412547362576272 0.58273804879550706 0 0.5166924242153631 0.59825134841919447 0 0.53245488764484505 0.55078124999999989 0 0.50715858906372158 0.63295939104129484 0 0.5166924242153631 0.59825134841919447 0 0.5498280205245758 0.6290146943450976 0 0.50715858906372158 0.63295939104129484 0 0.52584555706968406 0.66664215091846768 0 0.47913475093885149 0.66010775372412711 0 0.50715858906372158 0.63295939104129484 0 0.5498280205245758 0.6290146943450976 0 0.52584555706968406 0.66664215091846768 0 0.5 0.69999999999999996 0 0.47913475093885149 0.66010775372412711 0 0.52584555706968406 0.66664215091846768 0 0.54999999999999993 0.69999999999999996 0 0.52584555706968406 0.66664215091846768 0 0.57484956128872922 0.66573805030881994 0 0.57484956128872922 0.66573805030881994 0 0.52584555706968406 0.66664215091846768 0 0.5498280205245758 0.6290146943450976 0 0.50945740445113552 0.75476055527778108 0 0.5 0.69999999999999996 0 0.55363780716230748 0.74348740161571747 0 0.5 0.69999999999999996 0 0.52584555706968406 0.66664215091846768 0 0.54999999999999993 0.69999999999999996 0 0.5 0.69999999999999996 0 0.54999999999999993 0.69999999999999996 0 0.5 0.69999999999999996 0 0.54999999999999993 0.69999999999999996 0 0.55363780716230748 0.74348740161571747 0 0.59999999999999976 0.69999999999999996 0 0.59636844454254345 0.75937156204589151 0 0.55363780716230748 0.74348740161571747 0 0.54999999999999993 0.69999999999999996 0 0.59999999999999976 0.69999999999999996 0 0.54999999999999993 0.69999999999999996 0 0.57484956128872922 0.66573805030881994 0 0.59999999999999976 0.69999999999999996 0 0.54999999999999993 0.69999999999999996 0 0.59999999999999976 0.69999999999999996 0 0.55363780716230748 0.74348740161571747 0 0.59999999999999976 0.69999999999999996 0 0.6499999999999998 0.69999999999999996 0 0.59999999999999976 0.69999999999999996 0 0.62460753523532009 0.66851202781000296 0 0.6499999999999998 0.69999999999999996 0 0.59999999999999976 0.69999999999999996 0 0.63221990677827677 0.73442891067859706 0 0.59636844454254345 0.75937156204589151 0 0.57484956128872922 0.66573805030881994 0 0.5498280205245758 0.6290146943450976 0 0.5991018319127801 0.62925360607495295 0 0.59999999999999976 0.69999999999999996 0 0.57484956128872922 0.66573805030881994 0 0.62460753523532009 0.66851202781000296 0 0.57484956128872922 0.66573805030881994 0 0.5991018319127801 0.62925360607495295 0 0.62460753523532009 0.66851202781000296 0 0.6405463747586706 0.63290524857395714 0 0.62460753523532009 0.66851202781000296 0 0.5991018319127801 0.62925360607495295 0 0.6405463747586706 0.63290524857395714 0 0.675261390228442 0.65996937624687813 0 0.62460753523532009 0.66851202781000296 0 0.6499999999999998 0.69999999999999996 0 0.62460753523532009 0.66851202781000296 0 0.675261390228442 0.65996937624687813 0 0.6499999999999998 0.69999999999999996 0 0.675261390228442 0.65996937624687813 0 0.69999999999999984 0.69999999999999996 0 0.6405463747586706 0.63290524857395714 0 0.67529834988829951 0.61613270668143583 0 0.675261390228442 0.65996937624687813 0 0.64753070846764316 0.77332939069435502 0 0.63221990677827677 0.73442891067859706 0 0.66427993341343905 0.73232764502436276 0 0.6499999999999998 0.69999999999999996 0 0.66427993341343905 0.73232764502436276 0 0.63221990677827677 0.73442891067859706 0 0.59999999999999976 0.69999999999999996 0 0.6499999999999998 0.69999999999999996 0 0.63221990677827677 0.73442891067859706 0 0.6499999999999998 0.69999999999999996 0 0.69999999999999984 0.69999999999999996 0 0.6499999999999998 0.69999999999999996 0 0.69999999999999984 0.69999999999999996 0 0.66427993341343905 0.73232764502436276 0 0.69999999999999984 0.69999999999999996 0 0.6916490518212759 0.75387992374886192 0 0.66427993341343905 0.73232764502436276 0 0.69999999999999984 0.69999999999999996 0 0.72501250972655151 0.74067302935308721 0 0.6916490518212759 0.75387992374886192 0 0.69999999999999984 0.69999999999999996 0 0.74999999999999989 0.69999999999999996 0 0.72501250972655151 0.74067302935308721 0 0.69999999999999984 0.69999999999999996 0 0.72500000000000064 0.67022701834392062 0 0.74999999999999989 0.69999999999999996 0 0.69999999999999984 0.69999999999999996 0 0.74999999999999989 0.69999999999999996 0 0.74999999999999989 0.69999999999999996 0 0.75841349681148107 0.75422312624214749 0 0.72501250972655151 0.74067302935308721 0 0.71406021706547751 0.63292083137662503 0 0.72500000000000064 0.67022701834392062 0 0.675261390228442 0.65996937624687813 0 0.71406021706547751 0.63292083137662503 0 0.675261390228442 0.65996937624687813 0 0.67529834988829951 0.61613270668143583 0 0.69999999999999984 0.69999999999999996 0 0.675261390228442 0.65996937624687813 0 0.72500000000000064 0.67022701834392062 0 0.71406021706547751 0.63292083137662503 0 0.74994237037456724 0.62775548192980357 0 0.72500000000000064 0.67022701834392062 0 0.7750489929959945 0.66593931409600093 0 0.72500000000000064 0.67022701834392062 0 0.74994237037456724 0.62775548192980357 0 0.71406021706547751 0.63292083137662503 0 0.71809016091162536 0.58185040402320831 0 0.74994237037456724 0.62775548192980357 0 0.77293540622714185 0.59448302402785813 0 0.74994237037456724 0.62775548192980357 0 0.71809016091162536 0.58185040402320831 0 0.71406021706547751 0.63292083137662503 0 0.67529834988829951 0.61613270668143583 0 0.71809016091162536 0.58185040402320831 0 0.67323294229744413 0.57556450033612505 0 0.67569444444444449 0.53500863336860327 0 0.71809016091162536 0.58185040402320831 0 0.67323294229744413 0.57556450033612505 0 0.71809016091162536 0.58185040402320831 0 0.67529834988829951 0.61613270668143583 0 0.7152569930854884 0.5237994455134295 0 0.77151014687832564 0.54436834383023036 0 0.71809016091162536 0.58185040402320831 0 0.7152569930854884 0.5237994455134295 0 0.73947346780852752 0.49062440112282169 0 0.77151014687832564 0.54436834383023036 0 0.7152569930854884 0.5237994455134295 0 0.67569444444444449 0.53500863336860327 0 0.69385896817107129 0.48377516041410151 0 0.7152569930854884 0.5237994455134295 0 0.71809016091162536 0.58185040402320831 0 0.67569444444444449 0.53500863336860327 0 0.67323294229744413 0.57556450033612505 0 0.62042975506801734 0.54295974692364424 0 0.67569444444444449 0.53500863336860327 0 0.6541250972820879 0.49999999999999989 0 0.69385896817107129 0.48377516041410151 0 0.67569444444444449 0.53500863336860327 0 0.6541250972820879 0.49999999999999989 0 0.67569444444444449 0.53500863336860327 0 0.62042975506801734 0.54295974692364424 0 0.6541250972820879 0.49999999999999989 0 0.62042975506801734 0.54295974692364424 0 0.61547661924074692 0.48539576058873962 0 0.67323294229744413 0.57556450033612505 0 0.63065402604362242 0.59661356661633302 0 0.62042975506801734 0.54295974692364424 0 0.6405463747586706 0.63290524857395714 0 0.63065402604362242 0.59661356661633302 0 0.67529834988829951 0.61613270668143583 0 0.67323294229744413 0.57556450033612505 0 0.67529834988829951 0.61613270668143583 0 0.63065402604362242 0.59661356661633302 0 0.60000000000138687 1 0 0.57382506491224949 0.9629411906298494 0 0.62065498684670595 0.95224934003983619 0 0.65000000000104008 1 0 0.60000000000138687 1 0 0.62065498684670595 0.95224934003983619 0 0.57724883562309992 0.92155686857100794 0 0.62065498684670595 0.95224934003983619 0 0.57382506491224949 0.9629411906298494 0 0.60000000000138687 1 0 0.55000000000173355 1 0 0.57382506491224949 0.9629411906298494 0 0.55000000000173355 1 0 0.50000000000205869 1 0 0.52122150208832174 0.94089974453840242 0 0.57724883562309992 0.92155686857100794 0 0.57382506491224949 0.9629411906298494 0 0.52122150208832174 0.94089974453840242 0 0.55000000000173355 1 0 0.52122150208832174 0.94089974453840242 0 0.57382506491224949 0.9629411906298494 0 0.57724883562309992 0.92155686857100794 0 0.52122150208832174 0.94089974453840242 0 0.54783390826260769 0.89287767010860219 0 0.50202631463681879 0.87892870825713787 0 0.54783390826260769 0.89287767010860219 0 0.52122150208832174 0.94089974453840242 0 0.55899371797446828 0.85003102233514438 0 0.5832743223239254 0.88483152652961872 0 0.54783390826260769 0.89287767010860219 0 0.57724883562309992 0.92155686857100794 0 0.54783390826260769 0.89287767010860219 0 0.5832743223239254 0.88483152652961872 0 0.57724883562309992 0.92155686857100794 0 0.5832743223239254 0.88483152652961872 0 0.61885627562261258 0.90282959257498208 0 0.57724883562309992 0.92155686857100794 0 0.61885627562261258 0.90282959257498208 0 0.62065498684670595 0.95224934003983619 0 0.61343887413683884 0.856862479058357 0 0.61885627562261258 0.90282959257498208 0 0.5832743223239254 0.88483152652961872 0 0.61343887413683884 0.856862479058357 0 0.60294066490120068 0.80851322453934582 0 0.65005442820240822 0.82644988530054031 0 0.61343887413683884 0.856862479058357 0 0.55899371797446828 0.85003102233514438 0 0.60294066490120068 0.80851322453934582 0 0.54782696902220018 0.79245182748204157 0 0.60294066490120068 0.80851322453934582 0 0.55899371797446828 0.85003102233514438 0 0.61343887413683884 0.856862479058357 0 0.5832743223239254 0.88483152652961872 0 0.55899371797446828 0.85003102233514438 0 0.50202631463681879 0.87892870825713787 0 0.55899371797446828 0.85003102233514438 0 0.54783390826260769 0.89287767010860219 0 0.50202631463681879 0.87892870825713787 0 0.50627822638148745 0.8263979829520941 0 0.55899371797446828 0.85003102233514438 0 0.54782696902220018 0.79245182748204157 0 0.55899371797446828 0.85003102233514438 0 0.50627822638148745 0.8263979829520941 0 0.54782696902220018 0.79245182748204157 0 0.50627822638148745 0.8263979829520941 0 0.50731287292894423 0.78963574450233831 0 0.54782696902220018 0.79245182748204157 0 0.50731287292894423 0.78963574450233831 0 0.50945740445113552 0.75476055527778108 0 0.54782696902220018 0.79245182748204157 0 0.50945740445113552 0.75476055527778108 0 0.55363780716230748 0.74348740161571747 0 0.54782696902220018 0.79245182748204157 0 0.55363780716230748 0.74348740161571747 0 0.59636844454254345 0.75937156204589151 0 0.54782696902220018 0.79245182748204157 0 0.59636844454254345 0.75937156204589151 0 0.60294066490120068 0.80851322453934582 0 0.64753070846764316 0.77332939069435502 0 0.60294066490120068 0.80851322453934582 0 0.59636844454254345 0.75937156204589151 0 0.64753070846764316 0.77332939069435502 0 0.59636844454254345 0.75937156204589151 0 0.63221990677827677 0.73442891067859706 0 0.64753070846764316 0.77332939069435502 0 0.65005442820240822 0.82644988530054031 0 0.60294066490120068 0.80851322453934582 0 0.64753070846764316 0.77332939069435502 0 0.68024162096458085 0.79868546898116533 0 0.65005442820240822 0.82644988530054031 0 0.64753070846764316 0.77332939069435502 0 0.6916490518212759 0.75387992374886192 0 0.68024162096458085 0.79868546898116533 0 0.64753070846764316 0.77332939069435502 0 0.66427993341343905 0.73232764502436276 0 0.6916490518212759 0.75387992374886192 0 0.6916490518212759 0.75387992374886192 0 0.72501250972655151 0.74067302935308721 0 0.72500000000000064 0.7952620967744265 0 0.72501250972655151 0.74067302935308721 0 0.75841349681148107 0.75422312624214749 0 0.72500000000000064 0.7952620967744265 0 0.72500000000000064 0.7952620967744265 0 0.68024162096458085 0.79868546898116533 0 0.6916490518212759 0.75387992374886192 0 0.72500000000000064 0.7952620967744265 0 0.68697391633157634 0.84450604838764298 0 0.68024162096458085 0.79868546898116533 0 0.72500000000000064 0.7952620967744265 0 0.72863726579783861 0.85390518901155588 0 0.68697391633157634 0.84450604838764298 0 0.72500000000000064 0.7952620967744265 0 0.76901770135486491 0.84293557325473656 0 0.72863726579783861 0.85390518901155588 0 0.7250000000005199 0.89375000000045834 0 0.68697391633157634 0.84450604838764298 0 0.72863726579783861 0.85390518901155588 0 0.7250000000005199 0.89375000000045834 0 0.66412543161245952 0.88015090885499059 0 0.68697391633157634 0.84450604838764298 0 0.68697391633157634 0.84450604838764298 0 0.66412543161245952 0.88015090885499059 0 0.65005442820240822 0.82644988530054031 0 0.68697391633157634 0.84450604838764298 0 0.65005442820240822 0.82644988530054031 0 0.68024162096458085 0.79868546898116533 0 0.61343887413683884 0.856862479058357 0 0.65005442820240822 0.82644988530054031 0 0.66412543161245952 0.88015090885499059 0 0.61343887413683884 0.856862479058357 0 0.66412543161245952 0.88015090885499059 0 0.61885627562261258 0.90282959257498208 0 0.65507451745379841 0.92229208810758578 0 0.61885627562261258 0.90282959257498208 0 0.66412543161245952 0.88015090885499059 0 0.65507451745379841 0.92229208810758578 0 0.62065498684670595 0.95224934003983619 0 0.61885627562261258 0.90282959257498208 0 0.65507451745379841 0.92229208810758578 0 0.68987011941058407 0.92105047536677087 0 0.68015064798562208 0.95924320340003011 0 0.65507451745379841 0.92229208810758578 0 0.66412543161245952 0.88015090885499059 0 0.68987011941058407 0.92105047536677087 0 0.7250000000005199 0.89375000000045834 0 0.68987011941058407 0.92105047536677087 0 0.66412543161245952 0.88015090885499059 0 0.7250000000005199 0.89375000000045834 0 0.72863726579783861 0.85390518901155588 0 0.76891166905518427 0.88835469571185499 0 0.7250000000005199 0.89375000000045834 0 0.75729602384198635 0.92353652857884294 0 0.7250000000005199 0.94981617647078953 0 0.7250000000005199 0.89375000000045834 0 0.7250000000005199 0.94981617647078953 0 0.68987011941058407 0.92105047536677087 0 0.7250000000005199 0.94981617647078953 0 0.68015064798562208 0.95924320340003011 0 0.68987011941058407 0.92105047536677087 0 0.75000000000034661 1 0 0.7000000000006934 1 0 0.7250000000005199 0.94981617647078953 0 0.75000000000034661 1 0 0.7250000000005199 0.94981617647078953 0 0.770759834363826 0.95919399014344442 0 0.7000000000006934 1 0 0.68015064798562208 0.95924320340003011 0 0.7250000000005199 0.94981617647078953 0 0.7000000000006934 1 0 0.65000000000104008 1 0 0.68015064798562208 0.95924320340003011 0 0.65507451745379841 0.92229208810758578 0 0.68015064798562208 0.95924320340003011 0 0.62065498684670595 0.95224934003983619 0 0.65000000000104008 1 0 0.62065498684670595 0.95224934003983619 0 0.68015064798562208 0.95924320340003011 0 0.84999999999965292 1 0 0.85170973911348691 0.93569607295217616 0 0.89898474358632463 0.95391965591118966 0 0.84999999999965292 1 0 0.81486180804382891 0.96321394949790495 0 0.85170973911348691 0.93569607295217616 0 0.79680861578988083 0.92656778056766709 0 0.85170973911348691 0.93569607295217616 0 0.81486180804382891 0.96321394949790495 0 0.84999999999965292 1 0 0.79999999999999982 1 0 0.81486180804382891 0.96321394949790495 0 0.79999999999999982 1 0 0.770759834363826 0.95919399014344442 0 0.81486180804382891 0.96321394949790495 0 0.79999999999999982 1 0 0.75000000000034661 1 0 0.770759834363826 0.95919399014344442 0 0.7250000000005199 0.94981617647078953 0 0.75729602384198635 0.92353652857884294 0 0.770759834363826 0.95919399014344442 0 0.79680861578988083 0.92656778056766709 0 0.81486180804382891 0.96321394949790495 0 0.770759834363826 0.95919399014344442 0 0.79680861578988083 0.92656778056766709 0 0.75729602384198635 0.92353652857884294 0 0.76891166905518427 0.88835469571185499 0 0.79680861578988083 0.92656778056766709 0 0.770759834363826 0.95919399014344442 0 0.75729602384198635 0.92353652857884294 0 0.7250000000005199 0.89375000000045834 0 0.76891166905518427 0.88835469571185499 0 0.75729602384198635 0.92353652857884294 0 0.79680861578988083 0.92656778056766709 0 0.76891166905518427 0.88835469571185499 0 0.81159157511211755 0.88795995483179491 0 0.85170973911348691 0.93569607295217616 0 0.81159157511211755 0.88795995483179491 0 0.85600844944837662 0.88483418979512773 0 0.79680861578988083 0.92656778056766709 0 0.81159157511211755 0.88795995483179491 0 0.85170973911348691 0.93569607295217616 0 0.90416666666660628 0.9041666666666166 0 0.85170973911348691 0.93569607295217616 0 0.85600844944837662 0.88483418979512773 0 0.82709327591091286 0.84937141670920724 0 0.88088768115933802 0.84674609810493673 0 0.85600844944837662 0.88483418979512773 0 0.82709327591091286 0.84937141670920724 0 0.84725310900444062 0.80779732082917555 0 0.88088768115933802 0.84674609810493673 0 0.82709327591091286 0.84937141670920724 0 0.80041942726660109 0.81543261647703358 0 0.84725310900444062 0.80779732082917555 0 0.82709327591091286 0.84937141670920724 0 0.85600844944837662 0.88483418979512773 0 0.81159157511211755 0.88795995483179491 0 0.76901770135486491 0.84293557325473656 0 0.81159157511211755 0.88795995483179491 0 0.76891166905518427 0.88835469571185499 0 0.82709327591091286 0.84937141670920724 0 0.81159157511211755 0.88795995483179491 0 0.76901770135486491 0.84293557325473656 0 0.76901770135486491 0.84293557325473656 0 0.76891166905518427 0.88835469571185499 0 0.72863726579783861 0.85390518901155588 0 0.76901770135486491 0.84293557325473656 0 0.77094201086366854 0.79647480515688507 0 0.80041942726660109 0.81543261647703358 0 0.82709327591091286 0.84937141670920724 0 0.76901770135486491 0.84293557325473656 0 0.80041942726660109 0.81543261647703358 0 0.80185942888539485 0.77452061303608133 0 0.80041942726660109 0.81543261647703358 0 0.77094201086366854 0.79647480515688507 0 0.72500000000000064 0.7952620967744265 0 0.75841349681148107 0.75422312624214749 0 0.77094201086366854 0.79647480515688507 0 0.72500000000000064 0.7952620967744265 0 0.77094201086366854 0.79647480515688507 0 0.76901770135486491 0.84293557325473656 0 0.80185942888539485 0.77452061303608133 0 0.77094201086366854 0.79647480515688507 0 0.75841349681148107 0.75422312624214749 0 0.80185942888539485 0.77452061303608133 0 0.75841349681148107 0.75422312624214749 0 0.78578450296893509 0.73292684821144505 0 0.80185942888539485 0.77452061303608133 0 0.85491058998424563 0.76004753345552634 0 0.84725310900444062 0.80779732082917555 0 0.80185942888539485 0.77452061303608133 0 0.81864958914779962 0.73589050177899629 0 0.85491058998424563 0.76004753345552634 0 0.80185942888539485 0.77452061303608133 0 0.84725310900444062 0.80779732082917555 0 0.80041942726660109 0.81543261647703358 0 0.90299850604011456 0.79563452813489832 0 0.84725310900444062 0.80779732082917555 0 0.85491058998424563 0.76004753345552634 0 0.90299850604011456 0.79563452813489832 0 0.85491058998424563 0.76004753345552634 0 0.89999166460796554 0.74528934923809909 0 0.90299850604011456 0.79563452813489832 0 0.94399509803918602 0.75600490196082126 0 0.95386563387742829 0.80414874155775029 0 0.90299850604011456 0.79563452813489832 0 0.89999166460796554 0.74528934923809909 0 0.94399509803918602 0.75600490196082126 0 0.94399509803918602 0.75600490196082126 0 0.97435614836745565 0.77499999999987745 0 0.95386563387742829 0.80414874155775029 0 0.94399509803918602 0.75600490196082126 0 0.97166519676947294 0.73337114490064459 0 0.97435614836745565 0.77499999999987745 0 1 0.74999999999993494 0 0.97435614836745565 0.77499999999987745 0 0.97166519676947294 0.73337114490064459 0 1 0.74999999999993494 0 1 0.7999999999998193 0 0.97435614836745565 0.77499999999987745 0 1 0.7999999999998193 0 0.95386563387742829 0.80414874155775029 0 0.97435614836745565 0.77499999999987745 0 1 0.84999999999982645 0 0.95391631417670719 0.89584263333814784 0 0.93677536231884972 0.85000000000000286 0 1 0.84999999999982645 0 0.93677536231884972 0.85000000000000286 0 0.95386563387742829 0.80414874155775029 0 1 0.7999999999998193 0 1 0.84999999999982645 0 0.95386563387742829 0.80414874155775029 0 0.90416666666660628 0.9041666666666166 0 0.88088768115933802 0.84674609810493673 0 0.93677536231884972 0.85000000000000286 0 0.90299850604011456 0.79563452813489832 0 0.95386563387742829 0.80414874155775029 0 0.93677536231884972 0.85000000000000286 0 0.90299850604011456 0.79563452813489832 0 0.93677536231884972 0.85000000000000286 0 0.88088768115933802 0.84674609810493673 0 0.90299850604011456 0.79563452813489832 0 0.88088768115933802 0.84674609810493673 0 0.84725310900444062 0.80779732082917555 0 0.90416666666660628 0.9041666666666166 0 0.85600844944837662 0.88483418979512773 0 0.88088768115933802 0.84674609810493673 0 0.90416666666660628 0.9041666666666166 0 0.89898474358632463 0.95391965591118966 0 0.85170973911348691 0.93569607295217616 0 0.90416666666660628 0.9041666666666166 0 0.95391631417670719 0.89584263333814784 0 0.94399509803919068 0.9439950980391687 0 0.90416666666660628 0.9041666666666166 0 0.94399509803919068 0.9439950980391687 0 0.89898474358632463 0.95391965591118966 0 0.90416666666660628 0.9041666666666166 0 0.93677536231884972 0.85000000000000286 0 0.95391631417670719 0.89584263333814784 0 1 0.84999999999982645 0 1 0.8999999999998336 0 0.95391631417670719 0.89584263333814784 0 1 0.8999999999998336 0 1 0.94999999999997109 0 0.97435614836744289 0.92499999999990257 0 1 0.8999999999998336 0 0.97435614836744289 0.92499999999990257 0 0.95391631417670719 0.89584263333814784 0 0.94399509803919068 0.9439950980391687 0 0.95391631417670719 0.89584263333814784 0 0.97435614836744289 0.92499999999990257 0 0.94399509803919068 0.9439950980391687 0 0.97435614836744289 0.92499999999990257 0 0.97166519676946206 0.96662885509935492 0 1 0.94999999999997109 0 0.97166519676946206 0.96662885509935492 0 0.97435614836744289 0.92499999999990257 0 1 1 0 0.97166519676946206 0.96662885509935492 0 1 0.94999999999997109 0 1 1 0 0.94999999999979179 1 0 0.97166519676946206 0.96662885509935492 0 0.94999999999979179 1 0 0.94399509803919068 0.9439950980391687 0 0.97166519676946206 0.96662885509935492 0 0.94999999999979179 1 0 0.89999999999958358 1 0 0.89898474358632463 0.95391965591118966 0 0.94999999999979179 1 0 0.89898474358632463 0.95391965591118966 0 0.94399509803919068 0.9439950980391687 0 0.89999999999958358 1 0 0.84999999999965292 1 0 0.89898474358632463 0.95391965591118966 0 0.86956835336234861 0.571283299838105 0 0.81723410853263523 0.59419663659258926 0 0.82862096804812391 0.55037090955459045 0 0.83758014339878906 0.63222013025741819 0 0.81723410853263523 0.59419663659258926 0 0.87159648282691515 0.61285406320581504 0 0.83758014339878906 0.63222013025741819 0 0.79884539758237771 0.62875045078114233 0 0.81723410853263523 0.59419663659258926 0 0.86956835336234861 0.571283299838105 0 0.87159648282691515 0.61285406320581504 0 0.81723410853263523 0.59419663659258926 0 0.86956835336234861 0.571283299838105 0 0.82862096804812391 0.55037090955459045 0 0.86907294890112186 0.52008116128001669 0 0.82862096804812391 0.55037090955459045 0 0.81441713509985358 0.51161854125224959 0 0.86907294890112186 0.52008116128001669 0 0.84723782639812573 0.48638347960178252 0 0.86907294890112186 0.52008116128001669 0 0.81441713509985358 0.51161854125224959 0 0.82862096804812391 0.55037090955459045 0 0.77151014687832564 0.54436834383023036 0 0.81441713509985358 0.51161854125224959 0 0.77846603114747959 0.49850927265137401 0 0.81441713509985358 0.51161854125224959 0 0.77151014687832564 0.54436834383023036 0 0.77846603114747959 0.49850927265137401 0 0.77151014687832564 0.54436834383023036 0 0.73947346780852752 0.49062440112282169 0 0.77293540622714185 0.59448302402785813 0 0.71809016091162536 0.58185040402320831 0 0.77151014687832564 0.54436834383023036 0 0.81723410853263523 0.59419663659258926 0 0.77293540622714185 0.59448302402785813 0 0.77151014687832564 0.54436834383023036 0 0.82862096804812391 0.55037090955459045 0 0.81723410853263523 0.59419663659258926 0 0.77151014687832564 0.54436834383023036 0 0.77293540622714185 0.59448302402785813 0 0.81723410853263523 0.59419663659258926 0 0.79884539758237771 0.62875045078114233 0 0.77293540622714185 0.59448302402785813 0 0.79884539758237771 0.62875045078114233 0 0.74994237037456724 0.62775548192980357 0 0.7750489929959945 0.66593931409600093 0 0.74994237037456724 0.62775548192980357 0 0.79884539758237771 0.62875045078114233 0 0.74999999999999989 0.69999999999999996 0 0.72500000000000064 0.67022701834392062 0 0.7750489929959945 0.66593931409600093 0 0.79999999999999982 0.69999999999999996 0 0.7750489929959945 0.66593931409600093 0 0.82457059160610424 0.66831947184359608 0 0.7750489929959945 0.66593931409600093 0 0.79884539758237771 0.62875045078114233 0 0.82457059160610424 0.66831947184359608 0 0.74999999999999989 0.69999999999999996 0 0.78578450296893509 0.73292684821144505 0 0.75841349681148107 0.75422312624214749 0 0.74999999999999989 0.69999999999999996 0 0.79999999999999982 0.69999999999999996 0 0.78578450296893509 0.73292684821144505 0 0.74999999999999989 0.69999999999999996 0 0.7750489929959945 0.66593931409600093 0 0.79999999999999982 0.69999999999999996 0 0.74999999999999989 0.69999999999999996 0 0.79999999999999982 0.69999999999999996 0 0.80185942888539485 0.77452061303608133 0 0.78578450296893509 0.73292684821144505 0 0.81864958914779962 0.73589050177899629 0 0.79999999999999982 0.69999999999999996 0 0.81864958914779962 0.73589050177899629 0 0.78578450296893509 0.73292684821144505 0 0.84999999999999987 0.69999999999999996 0 0.85491058998424563 0.76004753345552634 0 0.81864958914779962 0.73589050177899629 0 0.79999999999999982 0.69999999999999996 0 0.84999999999999987 0.69999999999999996 0 0.79999999999999982 0.69999999999999996 0 0.82457059160610424 0.66831947184359608 0 0.84999999999999987 0.69999999999999996 0 0.79999999999999982 0.69999999999999996 0 0.84999999999999987 0.69999999999999996 0 0.81864958914779962 0.73589050177899629 0 0.84999999999999987 0.69999999999999996 0 0.89999999999999991 0.69999999999999996 0 0.84999999999999987 0.69999999999999996 0 0.89999166460796554 0.74528934923809909 0 0.85491058998424563 0.76004753345552634 0 0.83758014339878906 0.63222013025741819 0 0.82457059160610424 0.66831947184359608 0 0.79884539758237771 0.62875045078114233 0 0.84999999999999987 0.69999999999999996 0 0.82457059160610424 0.66831947184359608 0 0.87712158428786946 0.65709029563313581 0 0.83758014339878906 0.63222013025741819 0 0.87159648282691515 0.61285406320581504 0 0.87712158428786946 0.65709029563313581 0 0.83758014339878906 0.63222013025741819 0 0.87712158428786946 0.65709029563313581 0 0.82457059160610424 0.66831947184359608 0 0.91750694127105259 0.63017627779935648 0 0.92057473616084773 0.66770436535372446 0 0.87712158428786946 0.65709029563313581 0 0.91750694127105259 0.63017627779935648 0 0.87712158428786946 0.65709029563313581 0 0.87159648282691515 0.61285406320581504 0 0.84999999999999987 0.69999999999999996 0 0.87712158428786946 0.65709029563313581 0 0.89999999999999991 0.69999999999999996 0 0.89999999999999991 0.69999999999999996 0 0.87712158428786946 0.65709029563313581 0 0.92057473616084773 0.66770436535372446 0 0.91750694127105259 0.63017627779935648 0 0.9578014258160763 0.65787212321113708 0 0.92057473616084773 0.66770436535372446 0 0.84999999999999987 0.69999999999999996 0 0.89999999999999991 0.69999999999999996 0 0.89999166460796554 0.74528934923809909 0 0.89999999999999991 0.69999999999999996 0 0.94999999999999996 0.69999999999999996 0 0.89999999999999991 0.69999999999999996 0 0.92057473616084773 0.66770436535372446 0 0.94999999999999996 0.69999999999999996 0 0.89999999999999991 0.69999999999999996 0 0.94999999999999996 0.69999999999999996 0 0.89999166460796554 0.74528934923809909 0 0.94999999999999996 0.69999999999999996 0 0.94399509803918602 0.75600490196082126 0 0.89999166460796554 0.74528934923809909 0 0.94999999999999996 0.69999999999999996 0 0.97166519676947294 0.73337114490064459 0 0.94399509803918602 0.75600490196082126 0 0.94999999999999996 0.69999999999999996 0 1 0.69999999999999996 0 1 0.69999999999999996 0 0.97166519676947294 0.73337114490064459 0 0.94999999999999996 0.69999999999999996 0 1 0.69999999999999996 0 1 0.74999999999993494 0 0.97166519676947294 0.73337114490064459 0 0.91750694127105259 0.63017627779935648 0 0.95867599106212187 0.60011091146651041 0 0.9578014258160763 0.65787212321113708 0 0.94999999999999996 0.69999999999999996 0 0.92057473616084773 0.66770436535372446 0 0.9578014258160763 0.65787212321113708 0 1 0.69999999999999996 0 0.94999999999999996 0.69999999999999996 0 0.9578014258160763 0.65787212321113708 0 1 0.69999999999999996 0 0.9578014258160763 0.65787212321113708 0 1 0.64999999999986979 0 1 0.64999999999986979 0 0.9578014258160763 0.65787212321113708 0 0.95867599106212187 0.60011091146651041 0 1 0.54999999999963112 0 0.95867599106212187 0.60011091146651041 0 0.93732437411268477 0.55911392101136159 0 1 0.59999999999973963 0 1 0.64999999999986979 0 0.95867599106212187 0.60011091146651041 0 1 0.54999999999963112 0 1 0.59999999999973963 0 0.95867599106212187 0.60011091146651041 0 0.91750694127105259 0.63017627779935648 0 0.91143117093204207 0.58709913730335972 0 0.95867599106212187 0.60011091146651041 0 0.93732437411268477 0.55911392101136159 0 0.95867599106212187 0.60011091146651041 0 0.91143117093204207 0.58709913730335972 0 0.86956835336234861 0.571283299838105 0 0.90900154012161016 0.53607784105648792 0 0.91143117093204207 0.58709913730335972 0 0.86956835336234861 0.571283299838105 0 0.91143117093204207 0.58709913730335972 0 0.87159648282691515 0.61285406320581504 0 0.91750694127105259 0.63017627779935648 0 0.87159648282691515 0.61285406320581504 0 0.91143117093204207 0.58709913730335972 0 0.91696753777131557 0.497780560203536 0 0.90900154012161016 0.53607784105648792 0 0.86907294890112186 0.52008116128001669 0 0.86956835336234861 0.571283299838105 0 0.86907294890112186 0.52008116128001669 0 0.90900154012161016 0.53607784105648792 0 0.93732437411268477 0.55911392101136159 0 0.90900154012161016 0.53607784105648792 0 0.95631871884947484 0.51827533208233789 0 0.93732437411268477 0.55911392101136159 0 0.91143117093204207 0.58709913730335972 0 0.90900154012161016 0.53607784105648792 0 0.91696753777131557 0.497780560203536 0 0.95631871884947484 0.51827533208233789 0 0.90900154012161016 0.53607784105648792 0 1 0.54999999999963112 0 0.93732437411268477 0.55911392101136159 0 0.95631871884947484 0.51827533208233789 0 1 0.49999999999950101 0 1 0.54999999999963112 0 0.95631871884947484 0.51827533208233789 0 1 0.49999999999950101 0 0.95631871884947484 0.51827533208233789 0 0.96228564064454991 0.48206450662049471 0 1 0.44999999999963131 0 1 0.49999999999950101 0 0.96228564064454991 0.48206450662049471 0 1 0.44999999999963131 0 0.96228564064454991 0.48206450662049471 0 0.93814194660195893 0.44426664081746747 0 0.91696753777131557 0.497780560203536 0 0.93814194660195893 0.44426664081746747 0 0.96228564064454991 0.48206450662049471 0 0.91696753777131557 0.497780560203536 0 0.96228564064454991 0.48206450662049471 0 0.95631871884947484 0.51827533208233789 0 1 0.34999999999993492 0 1 0.39999999999978308 0 0.95871855522754235 0.40006508612975411 0 1 0.39999999999978308 0 1 0.44999999999963131 0 0.95871855522754235 0.40006508612975411 0 1 0.44999999999963131 0 0.93814194660195893 0.44426664081746747 0 0.95871855522754235 0.40006508612975411 0 0.91750694127107502 0.36982372220068471 0 0.95871855522754235 0.40006508612975411 0 0.90594285160987287 0.4141265964174129 0 0.93814194660195893 0.44426664081746747 0 0.90594285160987287 0.4141265964174129 0 0.95871855522754235 0.40006508612975411 0 0.90594285160987287 0.4141265964174129 0 0.88594198078881503 0.46167788676578442 0 0.86411095495256451 0.42388805655111889 0 0.86411095495256451 0.42388805655111889 0 0.86844634540301924 0.38530937474099819 0 0.90594285160987287 0.4141265964174129 0 0.91750694127107502 0.36982372220068471 0 0.90594285160987287 0.4141265964174129 0 0.86844634540301924 0.38530937474099819 0 0.91696753777131557 0.497780560203536 0 0.88594198078881503 0.46167788676578442 0 0.93814194660195893 0.44426664081746747 0 0.93814194660195893 0.44426664081746747 0 0.88594198078881503 0.46167788676578442 0 0.90594285160987287 0.4141265964174129 0 0.91696753777131557 0.497780560203536 0 0.86907294890112186 0.52008116128001669 0 0.88594198078881503 0.46167788676578442 0 0.84723782639812573 0.48638347960178252 0 0.88594198078881503 0.46167788676578442 0 0.86907294890112186 0.52008116128001669 0 0.84723782639812573 0.48638347960178252 0 0.81441713509985358 0.51161854125224959 0 0.81400510706333218 0.47357325943904899 0 0.84723782639812573 0.48638347960178252 0 0.81400510706333218 0.47357325943904899 0 0.84925632466077294 0.45359738909549091 0 0.81973119833356312 0.43505687159469048 0 0.84925632466077294 0.45359738909549091 0 0.81400510706333218 0.47357325943904899 0 0.84723782639812573 0.48638347960178252 0 0.84925632466077294 0.45359738909549091 0 0.88594198078881503 0.46167788676578442 0 0.86411095495256451 0.42388805655111889 0 0.84925632466077294 0.45359738909549091 0 0.81973119833356312 0.43505687159469048 0 0.86411095495256451 0.42388805655111889 0 0.88594198078881503 0.46167788676578442 0 0.84925632466077294 0.45359738909549091 0 0.86411095495256451 0.42388805655111889 0 0.81308179852519835 0.39754945808726527 0 0.86844634540301924 0.38530937474099819 0 0.83573492347052902 0.36590755630746369 0 0.86844634540301924 0.38530937474099819 0 0.81308179852519835 0.39754945808726527 0 0.86411095495256451 0.42388805655111889 0 0.81973119833356312 0.43505687159469048 0 0.81308179852519835 0.39754945808726527 0 0.77354604466818633 0.40378688774472771 0 0.81973119833356312 0.43505687159469048 0 0.77972660463949339 0.45529290596363098 0 0.77354604466818633 0.40378688774472771 0 0.81308179852519835 0.39754945808726527 0 0.81973119833356312 0.43505687159469048 0 0.77354604466818633 0.40378688774472771 0 0.78145581580700685 0.34881365920033602 0 0.81308179852519835 0.39754945808726527 0 0.77354604466818633 0.40378688774472771 0 0.77972660463949339 0.45529290596363098 0 0.73483647259922602 0.44789725365921768 0 0.73483647259922602 0.44789725365921768 0 0.77972660463949339 0.45529290596363098 0 0.73947346780852752 0.49062440112282169 0 0.77846603114747959 0.49850927265137401 0 0.73947346780852752 0.49062440112282169 0 0.77972660463949339 0.45529290596363098 0 0.77846603114747959 0.49850927265137401 0 0.77972660463949339 0.45529290596363098 0 0.81400510706333218 0.47357325943904899 0 0.77846603114747959 0.49850927265137401 0 0.81400510706333218 0.47357325943904899 0 0.81441713509985358 0.51161854125224959 0 0.81973119833356312 0.43505687159469048 0 0.81400510706333218 0.47357325943904899 0 0.77972660463949339 0.45529290596363098 0 0.79999999999999982 0.29999999999999999 0 0.77075983436335049 0.25919399014334171 0 0.81486180804364938 0.26321394949780091 0 0.74999999999999989 0.29999999999999999 0 0.79999999999999982 0.29999999999999999 0 0.74999999999999989 0.29999999999999999 0 0.77075983436335049 0.25919399014334171 0 0.79999999999999982 0.29999999999999999 0 0.74999999999999989 0.29999999999999999 0 0.79999999999999982 0.29999999999999999 0 0.78145581580700685 0.34881365920033602 0 0.74999999999999989 0.29999999999999999 0 0.78145581580700685 0.34881365920033602 0 0.73090396928863699 0.33699297293167962 0 0.77354604466818633 0.40378688774472771 0 0.74764719760526988 0.3719647154012321 0 0.78145581580700685 0.34881365920033602 0 0.78145581580700685 0.34881365920033602 0 0.74764719760526988 0.3719647154012321 0 0.73090396928863699 0.33699297293167962 0 0.83573492347052902 0.36590755630746369 0 0.81308179852519835 0.39754945808726527 0 0.78145581580700685 0.34881365920033602 0 0.79999999999999982 0.29999999999999999 0 0.82500000000000062 0.33010209762754811 0 0.78145581580700685 0.34881365920033602 0 0.83573492347052902 0.36590755630746369 0 0.78145581580700685 0.34881365920033602 0 0.82500000000000062 0.33010209762754811 0 0.83573492347052902 0.36590755630746369 0 0.82500000000000062 0.33010209762754811 0 0.87430060258887643 0.34056085888204451 0 0.83573492347052902 0.36590755630746369 0 0.87430060258887643 0.34056085888204451 0 0.86844634540301924 0.38530937474099819 0 0.84999999999999987 0.29999999999999999 0 0.87430060258887643 0.34056085888204451 0 0.82500000000000062 0.33010209762754811 0 0.84999999999999987 0.29999999999999999 0 0.89999999999999991 0.29999999999999999 0 0.87430060258887643 0.34056085888204451 0 0.84999999999999987 0.29999999999999999 0 0.81486180804364938 0.26321394949780091 0 0.8517097391133297 0.2356960729520409 0 0.84999999999999987 0.29999999999999999 0 0.8517097391133297 0.2356960729520409 0 0.89898474358614167 0.25391965591104898 0 0.84999999999999987 0.29999999999999999 0 0.89999999999999991 0.29999999999999999 0 0.79999999999999982 0.29999999999999999 0 0.84999999999999987 0.29999999999999999 0 0.82500000000000062 0.33010209762754811 0 0.79999999999999982 0.29999999999999999 0 0.81486180804364938 0.26321394949780091 0 0.84999999999999987 0.29999999999999999 0 0.79999999999999982 0.29999999999999999 0 0.84999999999999987 0.29999999999999999 0 0.84999999999999987 0.29999999999999999 0 0.89898474358614167 0.25391965591104898 0 0.89999999999999991 0.29999999999999999 0 0.89999999999999991 0.29999999999999999 0 0.94999999999999996 0.29999999999999999 0 0.89999999999999991 0.29999999999999999 0 0.94999999999999996 0.29999999999999999 0 0.92012390126144183 0.33123581297173937 0 0.89999999999999991 0.29999999999999999 0 0.89898474358614167 0.25391965591104898 0 0.94999999999999996 0.29999999999999999 0 0.94999999999999996 0.29999999999999999 0 0.89898474358614167 0.25391965591104898 0 0.94399509803921056 0.24399509803922639 0 0.91750694127107502 0.36982372220068471 0 0.86844634540301924 0.38530937474099819 0 0.87430060258887643 0.34056085888204451 0 0.91750694127107502 0.36982372220068471 0 0.87430060258887643 0.34056085888204451 0 0.92012390126144183 0.33123581297173937 0 0.89999999999999991 0.29999999999999999 0 0.92012390126144183 0.33123581297173937 0 0.87430060258887643 0.34056085888204451 0 0.91750694127107502 0.36982372220068471 0 0.92012390126144183 0.33123581297173937 0 0.95780851984364423 0.34215720972155339 0 0.91750694127107502 0.36982372220068471 0 0.95780851984364423 0.34215720972155339 0 0.95871855522754235 0.40006508612975411 0 0.94999999999999996 0.29999999999999999 0 0.95780851984364423 0.34215720972155339 0 0.92012390126144183 0.33123581297173937 0 1 0.29999999999999999 0 0.95780851984364423 0.34215720972155339 0 0.94999999999999996 0.29999999999999999 0 1 0.29999999999999999 0 1 0.34999999999993492 0 0.95780851984364423 0.34215720972155339 0 1 0.34999999999993492 0 0.95871855522754235 0.40006508612975411 0 0.95780851984364423 0.34215720972155339 0 0.94999999999999996 0.29999999999999999 0 0.94399509803921056 0.24399509803922639 0 0.97166519676951801 0.26662885509932011 0 0.94999999999999996 0.29999999999999999 0 1 0.29999999999999999 0 1 0.29999999999999999 0 0.94999999999999996 0.29999999999999999 0 0.97166519676951801 0.26662885509932011 0 1 0.29999999999999999 0 0.97166519676951801 0.26662885509932011 0 1 0.24999999999987299 0 1 0.24999999999987299 0 0.97166519676951801 0.26662885509932011 0 0.97435614836740092 0.22499999999981049 0 1 0.19999999999974799 0 1 0.24999999999987299 0 0.97435614836740092 0.22499999999981049 0 0.94399509803921056 0.24399509803922639 0 0.95391631417672862 0.19584263333809451 0 0.97435614836740092 0.22499999999981049 0 0.94399509803921056 0.24399509803922639 0 0.97435614836740092 0.22499999999981049 0 0.97166519676951801 0.26662885509932011 0 1 0.19999999999974799 0 0.97435614836740092 0.22499999999981049 0 0.95391631417672862 0.19584263333809451 0 1 0.14999999999961891 0 0.95391631417672862 0.19584263333809451 0 0.93677536231883773 0.14999999999999089 0 1 0.14999999999961891 0 0.93677536231883773 0.14999999999999089 0 0.95386563387744361 0.1041487415577465 0 1 0.14999999999961891 0 1 0.19999999999974799 0 0.95391631417672862 0.19584263333809451 0 0.90416666666668166 0.20416666666667119 0 0.93677536231883773 0.14999999999999089 0 0.95391631417672862 0.19584263333809451 0 0.90416666666668166 0.20416666666667119 0 0.88088768115941807 0.14674609810479519 0 0.93677536231883773 0.14999999999999089 0 0.90299850604006393 0.09563452813493091 0 0.93677536231883773 0.14999999999999089 0 0.88088768115941807 0.14674609810479519 0 0.90416666666668166 0.20416666666667119 0 0.85600844944842547 0.1848341897950983 0 0.88088768115941807 0.14674609810479519 0 0.90416666666668166 0.20416666666667119 0 0.89898474358614167 0.25391965591104898 0 0.8517097391133297 0.2356960729520409 0 0.90416666666668166 0.20416666666667119 0 0.94399509803921056 0.24399509803922639 0 0.89898474358614167 0.25391965591104898 0 0.90416666666668166 0.20416666666667119 0 0.95391631417672862 0.19584263333809451 0 0.94399509803921056 0.24399509803922639 0 0.94999999999986839 0 0 0.97166519676946894 0.033371144900598393 0 0.94399509803922566 0.056004901960802607 0 1 0 0 0.97166519676946894 0.033371144900598393 0 0.94999999999986839 0 0 1 0 0 1 0.049999999999896842 0 0.97166519676946894 0.033371144900598393 0 1 0.049999999999896842 0 0.97435614836748241 0.074999999999825387 0 0.97166519676946894 0.033371144900598393 0 0.94399509803922566 0.056004901960802607 0 0.97166519676946894 0.033371144900598393 0 0.97435614836748241 0.074999999999825387 0 0.94399509803922566 0.056004901960802607 0 0.97435614836748241 0.074999999999825387 0 0.95386563387744361 0.1041487415577465 0 1 0.099999999999753911 0 0.95386563387744361 0.1041487415577465 0 0.97435614836748241 0.074999999999825387 0 1 0.049999999999896842 0 1 0.099999999999753911 0 0.97435614836748241 0.074999999999825387 0 1 0.099999999999753911 0 1 0.14999999999961891 0 0.95386563387744361 0.1041487415577465 0 0.90299850604006393 0.09563452813493091 0 0.95386563387744361 0.1041487415577465 0 0.93677536231883773 0.14999999999999089 0 0.90299850604006393 0.09563452813493091 0 0.88088768115941807 0.14674609810479519 0 0.84725310900442086 0.10779732082922661 0 0.90299850604006393 0.09563452813493091 0 0.85491058998398861 0.060047533455626502 0 0.899991664607802 0.045289349238254978 0 0.90299850604006393 0.09563452813493091 0 0.94399509803922566 0.056004901960802607 0 0.95386563387744361 0.1041487415577465 0 0.90299850604006393 0.09563452813493091 0 0.899991664607802 0.045289349238254978 0 0.94399509803922566 0.056004901960802607 0 0.94999999999986839 0 0 0.94399509803922566 0.056004901960802607 0 0.899991664607802 0.045289349238254978 0 0.84999999999960507 0 0 0.89999999999973679 0 0 0.899991664607802 0.045289349238254978 0 0.89999999999973679 0 0 0.94999999999986839 0 0 0.899991664607802 0.045289349238254978 0 0.79999999999947335 0 0 0.84999999999960507 0 0 0.81864958914740749 0.035890501779055867 0 0.84999999999960507 0 0 0.899991664607802 0.045289349238254978 0 0.85491058998398861 0.060047533455626502 0 0.80185942888501827 0.074520613036224564 0 0.81864958914740749 0.035890501779055867 0 0.85491058998398861 0.060047533455626502 0 0.84999999999960507 0 0 0.85491058998398861 0.060047533455626502 0 0.81864958914740749 0.035890501779055867 0 0.80185942888501827 0.074520613036224564 0 0.85491058998398861 0.060047533455626502 0 0.84725310900442086 0.10779732082922661 0 0.90299850604006393 0.09563452813493091 0 0.84725310900442086 0.10779732082922661 0 0.85491058998398861 0.060047533455626502 0 0.80185942888501827 0.074520613036224564 0 0.84725310900442086 0.10779732082922661 0 0.80076557130237269 0.1154587552654202 0 0.82709327591102189 0.14937141670914489 0 0.80076557130237269 0.1154587552654202 0 0.84725310900442086 0.10779732082922661 0 0.80185942888501827 0.074520613036224564 0 0.80076557130237269 0.1154587552654202 0 0.76878382444651716 0.097147941686331368 0 0.72525833953073282 0.1032114801687094 0 0.76878382444651716 0.097147941686331368 0 0.77144070960558853 0.14311854477243749 0 0.77144070960558853 0.14311854477243749 0 0.76878382444651716 0.097147941686331368 0 0.80076557130237269 0.1154587552654202 0 0.80185942888501827 0.074520613036224564 0 0.76878382444651716 0.097147941686331368 0 0.7527966693318906 0.053051678021508272 0 0.80185942888501827 0.074520613036224564 0 0.78393852574753176 0.032039079577822822 0 0.81864958914740749 0.035890501779055867 0 0.80185942888501827 0.074520613036224564 0 0.7527966693318906 0.053051678021508272 0 0.78393852574753176 0.032039079577822822 0 0.74999999999934175 0 0 0.78393852574753176 0.032039079577822822 0 0.7527966693318906 0.053051678021508272 0 0.74999999999934175 0 0 0.79999999999947335 0 0 0.78393852574753176 0.032039079577822822 0 0.79999999999947335 0 0 0.81864958914740749 0.035890501779055867 0 0.78393852574753176 0.032039079577822822 0 0.79680861578956375 0.22656778056752541 0 0.81283102246527783 0.1881007222486438 0 0.8517097391133297 0.2356960729520409 0 0.8517097391133297 0.2356960729520409 0 0.81283102246527783 0.1881007222486438 0 0.85600844944842547 0.1848341897950983 0 0.79680861578956375 0.22656778056752541 0 0.8517097391133297 0.2356960729520409 0 0.81486180804364938 0.26321394949780091 0 0.90416666666668166 0.20416666666667119 0 0.8517097391133297 0.2356960729520409 0 0.85600844944842547 0.1848341897950983 0 0.82709327591102189 0.14937141670914489 0 0.88088768115941807 0.14674609810479519 0 0.85600844944842547 0.1848341897950983 0 0.82709327591102189 0.14937141670914489 0 0.84725310900442086 0.10779732082922661 0 0.88088768115941807 0.14674609810479519 0 0.82709327591102189 0.14937141670914489 0 0.85600844944842547 0.1848341897950983 0 0.81283102246527783 0.1881007222486438 0 0.77144070960558853 0.14311854477243749 0 0.81283102246527783 0.1881007222486438 0 0.76587607630038135 0.18880039518954719 0 0.82709327591102189 0.14937141670914489 0 0.81283102246527783 0.1881007222486438 0 0.77144070960558853 0.14311854477243749 0 0.82709327591102189 0.14937141670914489 0 0.77144070960558853 0.14311854477243749 0 0.80076557130237269 0.1154587552654202 0 0.77144070960558853 0.14311854477243749 0 0.76587607630038135 0.18880039518954719 0 0.72634814642510737 0.16106886917518889 0 0.79680861578956375 0.22656778056752541 0 0.75668890529066124 0.2244279804069782 0 0.76587607630038135 0.18880039518954719 0 0.79680861578956375 0.22656778056752541 0 0.76587607630038135 0.18880039518954719 0 0.81283102246527783 0.1881007222486438 0 0.79680861578956375 0.22656778056752541 0 0.81486180804364938 0.26321394949780091 0 0.77075983436335049 0.25919399014334171 0 0.79680861578956375 0.22656778056752541 0 0.77075983436335049 0.25919399014334171 0 0.75668890529066124 0.2244279804069782 0 0.72500000000000064 0.2498161764706 0 0.75668890529066124 0.2244279804069782 0 0.77075983436335049 0.25919399014334171 0 0.72500000000001008 0.19776155966387679 0 0.75668890529066124 0.2244279804069782 0 0.72500000000000064 0.2498161764706 0 0.72500000000001008 0.19776155966387679 0 0.72500000000000064 0.2498161764706 0 0.69397719155551807 0.2245125647000914 0 0.72500000000000064 0.2498161764706 0 0.67933712972090698 0.25920070958121938 0 0.69397719155551807 0.2245125647000914 0 0.72500000000001008 0.19776155966387679 0 0.69397719155551807 0.2245125647000914 0 0.6865991819015953 0.189116534044597 0 0.72500000000001008 0.19776155966387679 0 0.76587607630038135 0.18880039518954719 0 0.75668890529066124 0.2244279804069782 0 0.72500000000001008 0.19776155966387679 0 0.72634814642510737 0.16106886917518889 0 0.76587607630038135 0.18880039518954719 0 0.72525833953073282 0.1032114801687094 0 0.77144070960558853 0.14311854477243749 0 0.72634814642510737 0.16106886917518889 0 0.72525833953073282 0.1032114801687094 0 0.72634814642510737 0.16106886917518889 0 0.68391457121233579 0.14440470121196541 0 0.72500000000001008 0.19776155966387679 0 0.6865991819015953 0.189116534044597 0 0.72634814642510737 0.16106886917518889 0 0.68391457121233579 0.14440470121196541 0 0.72634814642510737 0.16106886917518889 0 0.6865991819015953 0.189116534044597 0 0.68391457121233579 0.14440470121196541 0 0.6865991819015953 0.189116534044597 0 0.64011864159029941 0.18789607982138171 0 0.6236733212988993 0.14864538214901801 0 0.65290632656860115 0.11434202593454081 0 0.68391457121233579 0.14440470121196541 0 0.6236733212988993 0.14864538214901801 0 0.68391457121233579 0.14440470121196541 0 0.64011864159029941 0.18789607982138171 0 0.65394964615507722 0.22666784374016369 0 0.59814117807200873 0.23398510860739519 0 0.64011864159029941 0.18789607982138171 0 0.65394964615507722 0.22666784374016369 0 0.62657463266645097 0.26524202571255862 0 0.59814117807200873 0.23398510860739519 0 0.65394964615507722 0.22666784374016369 0 0.69397719155551807 0.2245125647000914 0 0.67933712972090698 0.25920070958121938 0 0.65394964615507722 0.22666784374016369 0 0.64011864159029941 0.18789607982138171 0 0.6865991819015953 0.189116534044597 0 0.65394964615507722 0.22666784374016369 0 0.6865991819015953 0.189116534044597 0 0.69397719155551807 0.2245125647000914 0 0.69999999999921003 0 0 0.72683645290270404 0.027797073151180601 0 0.7010294155333181 0.056779085686491267 0 0.69999999999921003 0 0 0.7010294155333181 0.056779085686491267 0 0.66369801598854572 0.036327466368102787 0 0.74999999999934175 0 0 0.7527966693318906 0.053051678021508272 0 0.72683645290270404 0.027797073151180601 0 0.69999999999921003 0 0 0.74999999999934175 0 0 0.72683645290270404 0.027797073151180601 0 0.7527966693318906 0.053051678021508272 0 0.7010294155333181 0.056779085686491267 0 0.72683645290270404 0.027797073151180601 0 0.72525833953073282 0.1032114801687094 0 0.68330259535470161 0.10038702501083881 0 0.7010294155333181 0.056779085686491267 0 0.72525833953073282 0.1032114801687094 0 0.7010294155333181 0.056779085686491267 0 0.7527966693318906 0.053051678021508272 0 0.72525833953073282 0.1032114801687094 0 0.7527966693318906 0.053051678021508272 0 0.76878382444651716 0.097147941686331368 0 0.72525833953073282 0.1032114801687094 0 0.68391457121233579 0.14440470121196541 0 0.68330259535470161 0.10038702501083881 0 0.65408113592120842 0.073941773121567966 0 0.68330259535470161 0.10038702501083881 0 0.65290632656860115 0.11434202593454081 0 0.68391457121233579 0.14440470121196541 0 0.65290632656860115 0.11434202593454081 0 0.68330259535470161 0.10038702501083881 0 0.6236733212988993 0.14864538214901801 0 0.61956000905586006 0.1043312481793135 0 0.65290632656860115 0.11434202593454081 0 0.65408113592120842 0.073941773121567966 0 0.65290632656860115 0.11434202593454081 0 0.61956000905586006 0.1043312481793135 0 0.65408113592120842 0.073941773121567966 0 0.61956000905586006 0.1043312481793135 0 0.61940220174112337 0.047251958781050582 0 0.65408113592120842 0.073941773121567966 0 0.7010294155333181 0.056779085686491267 0 0.68330259535470161 0.10038702501083881 0 0.65408113592120842 0.073941773121567966 0 0.66369801598854572 0.036327466368102787 0 0.7010294155333181 0.056779085686491267 0 0.65408113592120842 0.073941773121567966 0 0.61940220174112337 0.047251958781050582 0 0.66369801598854572 0.036327466368102787 0 0.64999999999907843 0 0 0.66369801598854572 0.036327466368102787 0 0.61940220174112337 0.047251958781050582 0 0.64999999999907843 0 0 0.69999999999921003 0 0 0.66369801598854572 0.036327466368102787 0 0.5499999999988151 0 0 0.59999999999894682 0 0 0.57396793757665954 0.037011367187645222 0 0.59999999999894682 0 0 0.64999999999907843 0 0 0.61940220174112337 0.047251958781050582 0 0.59999999999894682 0 0 0.61940220174112337 0.047251958781050582 0 0.57396793757665954 0.037011367187645222 0 0.57667858002728545 0.078486105337742612 0 0.57396793757665954 0.037011367187645222 0 0.61940220174112337 0.047251958781050582 0 0.57667858002728545 0.078486105337742612 0 0.61940220174112337 0.047251958781050582 0 0.61956000905586006 0.1043312481793135 0 0.6236733212988993 0.14864538214901801 0 0.58516465772821369 0.11653801664834119 0 0.61956000905586006 0.1043312481793135 0 0.57667858002728545 0.078486105337742612 0 0.61956000905586006 0.1043312481793135 0 0.58516465772821369 0.11653801664834119 0 0.56202748619534593 0.15054058349222879 0 0.54979595918804436 0.1060565713905809 0 0.58516465772821369 0.11653801664834119 0 0.57667858002728545 0.078486105337742612 0 0.58516465772821369 0.11653801664834119 0 0.54979595918804436 0.1060565713905809 0 0.51076801031701946 0.1202837388510348 0 0.52375890611712683 0.059318771819432882 0 0.54979595918804436 0.1060565713905809 0 0.51076801031701946 0.1202837388510348 0 0.47881186583059909 0.093591717165689425 0 0.52375890611712683 0.059318771819432882 0 0.57667858002728545 0.078486105337742612 0 0.54979595918804436 0.1060565713905809 0 0.52375890611712683 0.059318771819432882 0 0.5499999999988151 0 0 0.57396793757665954 0.037011367187645222 0 0.52375890611712683 0.059318771819432882 0 0.57667858002728545 0.078486105337742612 0 0.52375890611712683 0.059318771819432882 0 0.57396793757665954 0.037011367187645222 0 0.49999999999869432 0 0 0.5499999999988151 0 0 0.52375890611712683 0.059318771819432882 0 0.55306006949600994 0.20198184231352201 0 0.59443395090188023 0.18455690917515069 0 0.59814117807200873 0.23398510860739519 0 0.55306006949600994 0.20198184231352201 0 0.59814117807200873 0.23398510860739519 0 0.54248833945060504 0.2520322959927106 0 0.59814117807200873 0.23398510860739519 0 0.59443395090188023 0.18455690917515069 0 0.64011864159029941 0.18789607982138171 0 0.6236733212988993 0.14864538214901801 0 0.64011864159029941 0.18789607982138171 0 0.59443395090188023 0.18455690917515069 0 0.6236733212988993 0.14864538214901801 0 0.56202748619534593 0.15054058349222879 0 0.58516465772821369 0.11653801664834119 0 0.6236733212988993 0.14864538214901801 0 0.59443395090188023 0.18455690917515069 0 0.56202748619534593 0.15054058349222879 0 0.55306006949600994 0.20198184231352201 0 0.56202748619534593 0.15054058349222879 0 0.59443395090188023 0.18455690917515069 0 0.55306006949600994 0.20198184231352201 0 0.51729576145820033 0.1683240575987815 0 0.56202748619534593 0.15054058349222879 0 0.51076801031701946 0.1202837388510348 0 0.54979595918804436 0.1060565713905809 0 0.56202748619534593 0.15054058349222879 0 0.51076801031701946 0.1202837388510348 0 0.51729576145820033 0.1683240575987815 0 0.48466639505193998 0.1421439844745814 0 0.51076801031701946 0.1202837388510348 0 0.56202748619534593 0.15054058349222879 0 0.51729576145820033 0.1683240575987815 0 0.55306006949600994 0.20198184231352201 0 0.50760557329222289 0.20700468884612061 0 0.51729576145820033 0.1683240575987815 0 0.50760557329222289 0.20700468884612061 0 0.55306006949600994 0.20198184231352201 0 0.54248833945060504 0.2520322959927106 0 0.49695729691142171 0.25014895411178018 0 0.50760557329222289 0.20700468884612061 0 0.54248833945060504 0.2520322959927106 0 0.5 0.29999999999999999 0 0.49695729691142171 0.25014895411178018 0 0.54248833945060504 0.2520322959927106 0 0.5 0.29999999999999999 0 0.54999999999999993 0.29999999999999999 0 0.52752007115234678 0.33170632466418198 0 0.5 0.29999999999999999 0 0.54248833945060504 0.2520322959927106 0 0.54999999999999993 0.29999999999999999 0 0.5 0.29999999999999999 0 0.54999999999999993 0.29999999999999999 0 0.54999999999999993 0.29999999999999999 0 0.54248833945060504 0.2520322959927106 0 0.5794309697024993 0.27124795968204829 0 0.59814117807200873 0.23398510860739519 0 0.5794309697024993 0.27124795968204829 0 0.54248833945060504 0.2520322959927106 0 0.54999999999999993 0.29999999999999999 0 0.59999999999999976 0.29999999999999999 0 0.54999999999999993 0.29999999999999999 0 0.5794309697024993 0.27124795968204829 0 0.59999999999999976 0.29999999999999999 0 0.59999999999999976 0.29999999999999999 0 0.6499999999999998 0.29999999999999999 0 0.59999999999999976 0.29999999999999999 0 0.5794309697024993 0.27124795968204829 0 0.62657463266645097 0.26524202571255862 0 0.59814117807200873 0.23398510860739519 0 0.62657463266645097 0.26524202571255862 0 0.5794309697024993 0.27124795968204829 0 0.6084546825910605 0.37989672713932537 0 0.56836770495988642 0.3523062350852913 0 0.61959173890754571 0.33832250091341232 0 0.59999999999999976 0.29999999999999999 0 0.6499999999999998 0.29999999999999999 0 0.61959173890754571 0.33832250091341232 0 0.59999999999999976 0.29999999999999999 0 0.61959173890754571 0.33832250091341232 0 0.56836770495988642 0.3523062350852913 0 0.54999999999999993 0.29999999999999999 0 0.59999999999999976 0.29999999999999999 0 0.56836770495988642 0.3523062350852913 0 0.56836770495988642 0.3523062350852913 0 0.52289427570932567 0.3932284363388488 0 0.52752007115234678 0.33170632466418198 0 0.54999999999999993 0.29999999999999999 0 0.56836770495988642 0.3523062350852913 0 0.52752007115234678 0.33170632466418198 0 0.5 0.29999999999999999 0 0.52752007115234678 0.33170632466418198 0 0.49077833859261139 0.35229981449445641 0 0.52752007115234678 0.33170632466418198 0 0.52289427570932567 0.3932284363388488 0 0.49077833859261139 0.35229981449445641 0 0.52289427570932567 0.3932284363388488 0 0.56836770495988642 0.3523062350852913 0 0.57744073070774993 0.41535148636609359 0 0.52289427570932567 0.3932284363388488 0 0.57744073070774993 0.41535148636609359 0 0.53823865529665704 0.45873898050322898 0 0.52289427570932567 0.3932284363388488 0 0.53823865529665704 0.45873898050322898 0 0.48858720058566618 0.43964267759203868 0 0.49102375406324739 0.49123754822244059 0 0.53823865529665704 0.45873898050322898 0 0.53330375813596242 0.50827942741749099 0 0.49102375406324739 0.49123754822244059 0 0.48858720058566618 0.43964267759203868 0 0.53823865529665704 0.45873898050322898 0 0.57611405284611883 0.50165903596042916 0 0.53330375813596242 0.50827942741749099 0 0.53823865529665704 0.45873898050322898 0 0.57611405284611883 0.50165903596042916 0 0.57975577671020095 0.46172033326338591 0 0.61547661924074692 0.48539576058873962 0 0.57611405284611883 0.50165903596042916 0 0.53823865529665704 0.45873898050322898 0 0.57975577671020095 0.46172033326338591 0 0.61209567303293111 0.44669033081290321 0 0.57975577671020095 0.46172033326338591 0 0.57744073070774993 0.41535148636609359 0 0.53823865529665704 0.45873898050322898 0 0.57744073070774993 0.41535148636609359 0 0.57975577671020095 0.46172033326338591 0 0.61209567303293111 0.44669033081290321 0 0.61547661924074692 0.48539576058873962 0 0.57975577671020095 0.46172033326338591 0 0.6084546825910605 0.37989672713932537 0 0.57744073070774993 0.41535148636609359 0 0.56836770495988642 0.3523062350852913 0 0.61209567303293111 0.44669033081290321 0 0.57744073070774993 0.41535148636609359 0 0.63912439215427275 0.41063340167983359 0 0.6084546825910605 0.37989672713932537 0 0.63912439215427275 0.41063340167983359 0 0.57744073070774993 0.41535148636609359 0 0.6084546825910605 0.37989672713932537 0 0.65481233915350323 0.35652751921065562 0 0.63912439215427275 0.41063340167983359 0 0.6879972333610942 0.43038561374960838 0 0.65178832218679827 0.45929119821019959 0 0.63912439215427275 0.41063340167983359 0 0.6879972333610942 0.43038561374960838 0 0.63912439215427275 0.41063340167983359 0 0.68128176404677243 0.38629093627004979 0 0.65481233915350323 0.35652751921065562 0 0.68128176404677243 0.38629093627004979 0 0.63912439215427275 0.41063340167983359 0 0.6541250972820879 0.49999999999999989 0 0.61547661924074692 0.48539576058873962 0 0.65178832218679827 0.45929119821019959 0 0.61209567303293111 0.44669033081290321 0 0.65178832218679827 0.45929119821019959 0 0.61547661924074692 0.48539576058873962 0 0.61209567303293111 0.44669033081290321 0 0.63912439215427275 0.41063340167983359 0 0.65178832218679827 0.45929119821019959 0 0.6879972333610942 0.43038561374960838 0 0.69385896817107129 0.48377516041410151 0 0.65178832218679827 0.45929119821019959 0 0.6541250972820879 0.49999999999999989 0 0.65178832218679827 0.45929119821019959 0 0.69385896817107129 0.48377516041410151 0 0.7152569930854884 0.5237994455134295 0 0.69385896817107129 0.48377516041410151 0 0.73947346780852752 0.49062440112282169 0 0.6879972333610942 0.43038561374960838 0 0.73483647259922602 0.44789725365921768 0 0.69385896817107129 0.48377516041410151 0 0.73483647259922602 0.44789725365921768 0 0.73947346780852752 0.49062440112282169 0 0.69385896817107129 0.48377516041410151 0 0.71508799138962864 0.36622814920737751 0 0.72622533758026719 0.40265885511101601 0 0.68128176404677243 0.38629093627004979 0 0.6879972333610942 0.43038561374960838 0 0.72622533758026719 0.40265885511101601 0 0.73483647259922602 0.44789725365921768 0 0.6879972333610942 0.43038561374960838 0 0.68128176404677243 0.38629093627004979 0 0.72622533758026719 0.40265885511101601 0 0.77354604466818633 0.40378688774472771 0 0.73483647259922602 0.44789725365921768 0 0.72622533758026719 0.40265885511101601 0 0.71508799138962864 0.36622814920737751 0 0.74764719760526988 0.3719647154012321 0 0.72622533758026719 0.40265885511101601 0 0.77354604466818633 0.40378688774472771 0 0.72622533758026719 0.40265885511101601 0 0.74764719760526988 0.3719647154012321 0 0.71508799138962864 0.36622814920737751 0 0.73090396928863699 0.33699297293167962 0 0.74764719760526988 0.3719647154012321 0 0.71508799138962864 0.36622814920737751 0 0.68887083591306764 0.33632058575757479 0 0.73090396928863699 0.33699297293167962 0 0.71508799138962864 0.36622814920737751 0 0.68128176404677243 0.38629093627004979 0 0.68887083591306764 0.33632058575757479 0 0.69999999999999984 0.29999999999999999 0 0.73090396928863699 0.33699297293167962 0 0.68887083591306764 0.33632058575757479 0 0.69999999999999984 0.29999999999999999 0 0.72500000000000064 0.2498161764706 0 0.74999999999999989 0.29999999999999999 0 0.69999999999999984 0.29999999999999999 0 0.74999999999999989 0.29999999999999999 0 0.69999999999999984 0.29999999999999999 0 0.74999999999999989 0.29999999999999999 0 0.73090396928863699 0.33699297293167962 0 0.74999999999999989 0.29999999999999999 0 0.72500000000000064 0.2498161764706 0 0.77075983436335049 0.25919399014334171 0 0.69999999999999984 0.29999999999999999 0 0.67933712972090698 0.25920070958121938 0 0.72500000000000064 0.2498161764706 0 0.6499999999999998 0.29999999999999999 0 0.67933712972090698 0.25920070958121938 0 0.69999999999999984 0.29999999999999999 0 0.6499999999999998 0.29999999999999999 0 0.69999999999999984 0.29999999999999999 0 0.68887083591306764 0.33632058575757479 0 0.6499999999999998 0.29999999999999999 0 0.69999999999999984 0.29999999999999999 0 0.6499999999999998 0.29999999999999999 0 0.62657463266645097 0.26524202571255862 0 0.67933712972090698 0.25920070958121938 0 0.65394964615507722 0.22666784374016369 0 0.67933712972090698 0.25920070958121938 0 0.62657463266645097 0.26524202571255862 0 0.59999999999999976 0.29999999999999999 0 0.62657463266645097 0.26524202571255862 0 0.6499999999999998 0.29999999999999999 0 0.6499999999999998 0.29999999999999999 0 0.65481233915350323 0.35652751921065562 0 0.61959173890754571 0.33832250091341232 0 0.6084546825910605 0.37989672713932537 0 0.61959173890754571 0.33832250091341232 0 0.65481233915350323 0.35652751921065562 0 0.65481233915350323 0.35652751921065562 0 0.68887083591306764 0.33632058575757479 0 0.68128176404677243 0.38629093627004979 0 0.6499999999999998 0.29999999999999999 0 0.68887083591306764 0.33632058575757479 0 0.65481233915350323 0.35652751921065562 0 
</DataArray>
</Points>
<Cells>
<DataArray type="UInt32" Name="connectivity" format="ascii">
0 1 2 3 4 5 6 7 8 9 10 11 12 13 14 15 16 17 18 19 20 21 22 23 24 25 26 27 28 29 30 31 32 33 34 35 36 37 38 39 40 41 42 43 44 45 46 47 48 49 50 51 52 53 54 55 56 57 58 59 60 61 62 63 64 65 66 67 68 69 70 71 72 73 74 75 76 77 78 79 80 81 82 83 84 85 86 87 88 89 90 91 92 93 94 95 96 97 98 99 100 101 102 103 104 105 106 107 108 109 110 111 112 113 114 115 116 117 118 119 120 121 122 123 124 125 126 127 128 129 130 131 132 133 134 135 136 137 138 139 140 141 142 143 144 145 146 147 148 149 150 151 152 153 154 155 156 157 158 159 160 161 162 163 164 165 166 167 168 169 170 171 172 173 174 175 176 177 178 179 180 181 182 183 184 185 186 187 188 189 190 191 192 193 194 195 196 197 198 199 200 201 202 203 204 205 206 207 208 209 210 211 212 213 214 215 216 217 218 219 220 221 222 223 224 225 226 227 228 229 230 231 232 233 234 235 236 237 238 239 240 241 242 243 244 245 246 247 248 249 250 251 252 253 254 255 256 257 258 259 260 261 262 263 264 265 266 267 268 269 270 271 272 273 274 275 276 277 278 279 280 281 282 283 284 285 286 287 288 289 290 291 292 293 294 295 296 297 298 299 300 301 302 303 304 305 306 307 308 309 310 311 312 313 314 315 316 317 318 319 320 321 322 323 324 325 326 327 328 329 330 331 332 333 334 335 336 337 338 339 340 341 342 343 344 345 346 347 348 349 350 351 352 353 354 355 356 357 358 359 360 361 362 363 364 365 366 367 368 369 370 371 372 373 374 375 376 377 378 379 380 381 382 383 384 385 386 387 388 389 390 391 392 393 394 395 396 397 398 399 400 401 402 403 404 405 406 407 408 409 410 411 412 413 414 415 416 417 418 419 420 421 422 423 424 425 426 427 428 429 430 431 432 433 434 435 436 437 438 439 440 441 442 443 444 445 446 447 448 449 450 451 452 453 454 455 456 457 458 459 460 461 462 463 464 465 466 467 468 469 470 471 472 473 474 475 476 477 478 479 480 481 482 483 484 485 486 487 488 489 490 491 492 493 494 495 496 497 498 499 500 501 502 503 504 505 506 507 508 509 510 511 512 513 514 515 516 517 518 519 520 521 522 523 524 525 526 527 528 529 530 531 532 533 534 535 536 537 538 539 540 541 542 543 544 545 546 547 548 549 550 551 552 553 554 555 556 557 558 559 560 561 562 563 564 565 566 567 568 569 570 571 572 573 574 575 576 577 578 579 580 581 582 583 584 585 586 587 588 589 590 591 592 593 594 595 596 597 598 599 600 601 602 603 604 605 606 607 608 609 610 611 612 613 614 615 616 617 618 619 620 621 622 623 624 625 626 627 628 629 630 631 632 633 634 635 636 637 638 639 640 641 642 643 644 645 646 647 648 649 650 651 652 653 654 655 656 657 658 659 660 661 662 663 664 665 666 667 668 669 670 671 672 673 674 675 676 677 678 679 680 681 682 683 684 685 686 687 688 689 690 691 692 693 694 695 696 697 698 699 700 701 702 703 704 705 706 707 708 709 710 711 712 713 714 715 716 717 718 719 720 721 722 723 724 725 726 727 728 729 730 731 732 733 734 735 736 737 738 739 740 741 742 743 744 745 746 747 748 749 750 751 752 753 754 755 756 757 758 759 760 761 762 763 764 765 766 767 768 769 770 771 772 773 774 775 776 777 778 779 780 781 782 783 784 785 786 787 788 789 790 791 792 793 794 795 796 797 798 799 800 801 802 803 804 805 806 807 808 809 810 811 812 813 814 815 816 817 818 819 820 821 822 823 824 825 826 827 828 829 830 831 832 833 834 835 836 837 838 839 840 841 842 843 844 845 846 847 848 849 850 851 852 853 854 855 856 857 858 859 860 861 862 863 864 865 866 867 868 869 870 871 872 873 874 875 876 877 878 879 880 881 882 883 884 885 886 887 888 889 890 891 892 893 894 895 896 897 898 899 900 901 902 903 904 905 906 907 908 909 910 911 912 913 914 915 916 917 918 919 920 921 922 923 924 925 926 927 928 929 930 931 932 933 934 935 936 937 938 939 940 941 942 943 944 945 946 947 948 949 950 951 952 953 954 955 956 957 958 959 960 961 962 963 964 965 966 967 968 969 970 971 972 973 974 975 976 977 978 979 980 981 982 983 984 985 986 987 988 989 990 991 992 993 994 995 996 997 998 999 1000 1001 1002 1003 1004 1005 1006 1007 1008 1009 1010 1011 1012 1013 1014 1015 1016 1017 1018 1019 1020 1021 1022 1023 1024 1025 1026 1027 1028 1029 1030 1031 1032 1033 1034 1035 1036 1037 1038 1039 1040 1041 1042 1043 1044 1045 1046 1047 1048 1049 1050 1051 1052 1053 1054 1055 1056 1057 1058 1059 1060 1061 1062 1063 1064 1065 1066 1067 1068 1069 1070 1071 1072 1073 1074 1075 1076 1077 1078 1079 1080 1081 1082 1083 1084 1085 1086 1087 1088 1089 1090 1091 1092 1093 1094 1095 1096 1097 1098 1099 1100 1101 1102 1103 1104 1105 1106 1107 1108 1109 1110 1111 1112 1113 1114 1115 1116 1117 1118 1119 1120 1121 1122 1123 1124 1125 1126 1127 1128 1129 1130 1131 1132 1133 1134 1135 1136 1137 1138 1139 1140 1141 1142 1143 1144 1145 1146 1147 1148 1149 1150 1151 1152 1153 1154 1155 1156 1157 1158 1159 1160 1161 1162 1163 1164 1165 1166 1167 1168 1169 1170 1171 1172 1173 1174 1175 1176 1177 1178 1179 1180 1181 1182 1183 1184 1185 1186 1187 1188 1189 1190 1191 1192 1193 1194 1195 1196 1197 1198 1199 1200 1201 1202 1203 1204 1205 1206 1207 1208 1209 1210 1211 1212 1213 1214 1215 1216 1217 1218 1219 1220 1221 1222 1223 1224 1225 1226 1227 1228 1229 1230 1231 1232 1233 1234 1235 1236 1237 1238 1239 1240 1241 1242 1243 1244 1245 1246 1247 1248 1249 1250 1251 1252 1253 1254 1255 1256 1257 1258 1259 1260 1261 1262 1263 1264 1265 1266 1267 1268 1269 1270 1271 1272 1273 1274 1275 1276 1277 1278 1279 1280 1281 1282 1283 1284 1285 1286 1287 1288 1289 1290 1291 1292 1293 1294 1295 1296 1297 1298 1299 1300 1301 1302 1303 1304 1305 1306 1307 1308 1309 1310 1311 1312 1313 1314 1315 1316 1317 1318 1319 1320 1321 1322 1323 1324 1325 1326 1327 1328 1329 1330 1331 1332 1333 1334 1335 1336 1337 1338 1339 1340 1341 1342 1343 1344 1345 1346 1347 1348 1349 1350 1351 1352 1353 1354 1355 1356 1357 1358 1359 1360 1361 1362 1363 1364 1365 1366 1367 1368 1369 1370 1371 1372 1373 1374 1375 1376 1377 1378 1379 1380 1381 1382 1383 1384 1385 1386 1387 1388 1389 1390 1391 1392 1393 1394 1395 1396 1397 1398 1399 1400 1401 1402 1403 1404 1405 1406 1407 1408 1409 1410 1411 1412 1413 1414 1415 1416 1417 1418 1419 1420 1421 1422 1423 1424 1425 1426 1427 1428 1429 1430 1431 1432 1433 1434 1435 1436 1437 1438 1439 1440 1441 1442 1443 1444 1445 1446 1447 1448 1449 1450 1451 1452 1453 1454 1455 1456 1457 1458 1459 1460 1461 1462 1463 1464 1465 1466 1467 1468 1469 1470 1471 1472 1473 1474 1475 1476 1477 1478 1479 1480 1481 1482 1483 1484 1485 1486 1487 1488 1489 1490 1491 1492 1493 1494 1495 1496 1497 1498 1499 1500 1501 1502 1503 1504 1505 1506 1507 1508 1509 1510 1511 1512 1513 1514 1515 1516 1517 1518 1519 1520 1521 1522 1523 1524 1525 1526 1527 1528 1529 1530 1531 1532 1533 1534 1535 1536 1537 1538 1539 1540 1541 1542 1543 1544 1545 1546 1547 1548 1549 1550 1551 1552 1553 1554 1555 1556 1557 1558 1559 1560 1561 1562 1563 1564 1565 1566 1567 1568 1569 1570 1571 1572 1573 1574 1575 1576 1577 1578 1579 1580 1581 1582 1583 1584 1585 1586 1587 1588 1589 1590 1591 1592 1593 1594 1595 1596 1597 1598 1599 1600 1601 1602 1603 1604 1605 1606 1607 1608 1609 1610 1611 1612 1613 1614 1615 1616 1617 1618 1619 1620 1621 1622 1623 1624 1625 1626 1627 1628 1629 1630 1631 1632 1633 1634 1635 1636 1637 1638 1639 1640 1641 1642 1643 1644 1645 1646 1647 1648 1649 1650 1651 1652 1653 1654 1655 1656 1657 1658 1659 1660 1661 1662 1663 1664 1665 1666 1667 1668 1669 1670 1671 1672 1673 1674 1675 1676 1677 1678 1679 1680 1681 1682 1683 1684 1685 1686 1687 1688 1689 1690 1691 1692 1693 1694 1695 1696 1697 1698 1699 1700 1701 1702 1703 1704 1705 1706 1707 1708 1709 1710 1711 1712 1713 1714 1715 1716 1717 1718 1719 1720 1721 1722 1723 1724 1725 1726 1727 1728 1729 1730 1731 1732 1733 1734 1735 1736 1737 1738 1739 1740 1741 1742 1743 1744 1745 1746 1747 1748 1749 1750 1751 1752 1753 1754 1755 1756 1757 1758 1759 1760 1761 1762 1763 1764 1765 1766 1767 1768 1769 1770 1771 1772 1773 1774 1775 1776 1777 1778 1779 1780 1781 1782 1783 1784 1785 1786 1787 1788 1789 1790 1791 1792 1793 1794 1795 1796 1797 1798 1799 1800 1801 1802 1803 1804 1805 1806 1807 1808 1809 1810 1811 1812 1813 1814 1815 1816 1817 1818 1819 1820 1821 1822 1823 1824 1825 1826 1827 1828 1829 1830 1831 1832 1833 1834 1835 1836 1837 1838 1839 1840 1841 1842 1843 1844 1845 1846 1847 1848 1849 1850 1851 1852 1853 1854 1855 1856 1857 1858 1859 1860 1861 1862 1863 1864 1865 1866 1867 1868 1869 1870 1871 1872 1873 1874 1875 1876 1877 1878 1879 1880 1881 1882 1883 1884 1885 1886 1887 1888 1889 1890 1891 1892 1893 1894 1895 1896 1897 1898 1899 1900 1901 1902 1903 1904 1905 1906 1907 1908 1909 1910 1911 1912 1913 1914 1915 1916 1917 1918 1919 1920 1921 1922 1923 1924 1925 1926 1927 1928 1929 1930 1931 1932 1933 1934 1935 1936 1937 1938 1939 1940 1941 1942 1943 1944 1945 1946 1947 1948 1949 1950 1951 1952 1953 1954 1955 1956 1957 1958 1959 1960 1961 1962 1963 1964 1965 1966 1967 1968 1969 1970 1971 1972 1973 1974 1975 1976 1977 1978 1979 1980 1981 1982 1983 1984 1985 1986 1987 1988 1989 1990 1991 1992 1993 1994 1995 1996 1997 1998 1999 2000 2001 2002 2003 2004 2005 2006 2007 2008 2009 2010 2011 2012 2013 2014 2015 2016 2017 2018 2019 2020 2021 2022 2023 2024 2025 2026 2027 2028 2029 2030 2031 2032 2033 2034 2035 2036 2037 2038 2039 2040 2041 2042 2043 2044 2045 2046 2047 2048 2049 2050 2051 2052 2053 2054 2055 2056 2057 2058 2059 2060 2061 2062 2063 2064 2065 2066 2067 2068 2069 2070 2071 2072 2073 2074 2075 2076 2077 2078 2079 2080 2081 2082 2083 2084 2085 2086 2087 2088 2089 2090 2091 2092 2093 2094 2095 2096 2097 2098 2099 2100 2101 2102 2103 2104 2105 2106 2107 2108 2109 2110 2111 2112 2113 2114 2115 2116 2117 2118 2119 2120 2121 2122 2123 2124 2125 2126 2127 2128 2129 2130 2131 2132 2133 2134 2135 2136 2137 2138 2139 2140 2141 2142 2143 2144 2145 2146 2147 2148 2149 2150 2151 2152 2153 2154 2155 2156 2157 2158 2159 2160 2161 2162 2163 2164 2165 2166 2167 2168 2169 2170 2171 2172 2173 2174 2175 2176 2177 2178 2179 2180 2181 2182 2183 2184 2185 2186 2187 2188 2189 2190 2191 2192 2193 2194 2195 2196 2197 2198 2199 2200 2201 2202 2203 2204 2205 2206 2207 2208 2209 2210 2211 2212 2213 2214 2215 2216 2217 2218 2219 2220 2221 2222 2223 2224 2225 2226 2227 2228 2229 2230 2231 2232 2233 2234 2235 2236 2237 2238 2239 2240 2241 2242 2243 2244 2245 2246 2247 2248 2249 2250 2251 2252 2253 2254 2255 2256 2257 2258 2259 2260 2261 2262 2263 2264 2265 2266 2267 2268 2269 2270 2271 2272 2273 2274 2275 2276 2277 2278 2279 2280 2281 2282 2283 2284 2285 2286 2287 2288 2289 2290 2291 2292 2293 2294 2295 2296 2297 2298 2299 2300 2301 2302 2303 2304 2305 2306 2307 2308 2309 2310 2311 2312 2313 2314 2315 2316 2317 2318 2319 2320 2321 2322 2323 2324 2325 2326 2327 2328 2329 2330 2331 2332 2333 2334 2335 2336 2337 2338 2339 2340 2341 2342 2343 2344 2345 2346 2347 2348 2349 2350 2351 2352 2353 2354 2355 2356 2357 2358 2359 2360 2361 2362 2363 2364 2365 2366 2367 2368 2369 2370 2371 2372 2373 2374 2375 2376 2377 2378 2379 2380 2381 2382 2383 2384 2385 2386 2387 2388 2389 2390 2391 2392 2393 2394 2395 2396 2397 2398 2399 2400 2401 2402 2403 2404 2405 2406 2407 2408 2409 2410 2411 2412 2413 2414 2415 2416 2417 2418 2419 2420 2421 2422 2423 2424 2425 2426 2427 2428 2429 2430 2431 2432 2433 2434 2435 2436 2437 2438 2439 2440 2441 2442 2443 2444 2445 2446 2447 2448 2449 2450 2451 2452 2453 2454 2455 2456 2457 2458 2459 2460 2461 2462 2463 2464 2465 2466 2467 2468 2469 2470 2471 2472 2473 2474 2475 2476 2477 2478 2479 2480 2481 2482 2483 2484 2485 2486 2487 2488 2489 2490 2491 2492 2493 2494 2495 2496 2497 2498 2499 2500 2501 2502 2503 2504 2505 2506 2507 2508 2509 2510 2511 2512 2513 2514 2515 2516 2517 2518 2519 2520 2521 2522 2523 2524 2525 2526 2527 2528 2529 2530 2531 2532 2533 2534 2535 2536 2537 2538 2539 2540 2541 2542 2543 2544 2545 2546 2547 2548 2549 2550 2551 2552 2553 2554 2555 2556 2557 2558 2559 2560 2561 2562 2563 2564 2565 2566 2567 2568 2569 2570 2571 2572 2573 2574 2575 2576 2577 2578 2579 2580 2581 2582 2583 2584 2585 2586 2587 2588 2589 2590 2591 2592 2593 2594 2595 2596 2597 2598 2599 2600 2601 2602 2603 2604 2605 2606 2607 2608 2609 2610 2611 2612 2613 2614 2615 2616 2617 2618 2619 2620 2621 2622 2623 2624 2625 2626 2627 2628 2629 2630 2631 2632 2633 2634 2635 2636 2637 2638 2639 2640 2641 2642 2643 2644 2645 2646 2647 2648 2649 2650 2651 2652 2653 2654 2655 2656 2657 2658 2659 2660 2661 2662 2663 2664 2665 2666 2667 2668 2669 2670 2671 2672 2673 2674 2675 2676 2677 2678 2679 2680 2681 2682 2683 2684 2685 2686 2687 2688 2689 2690 2691 2692 2693 2694 2695 2696 2697 2698 2699 2700 2701 2702 2703 2704 2705 2706 2707 2708 2709 2710 2711 2712 2713 2714 2715 2716 2717 2718 2719 2720 2721 2722 2723 2724 2725 2726 2727 2728 2729 2730 2731 2732 2733 2734 2735 2736 2737 2738 2739 2740 2741 2742 2743 2744 2745 2746 2747 2748 2749 2750 2751 2752 2753 2754 2755 2756 2757 2758 2759 2760 2761 2762 2763 2764 2765 2766 2767 2768 2769 2770 2771 2772 2773 2774 2775 2776 2777 2778 2779 2780 2781 2782 2783 2784 2785 2786 2787 2788 2789 2790 2791 2792 2793 2794 2795 2796 2797 2798 2799 2800 2801 2802 2803 2804 2805 2806 2807 2808 2809 2810 2811 2812 2813 2814 2815 2816 2817 2818 2819 2820 2821 2822 2823 2824 2825 2826 2827 2828 2829 2830 2831 2832 2833 2834 2835 2836 2837 2838 2839 2840 2841 2842 2843 2844 2845 2846 2847 2848 2849 2850 2851 2852 2853 2854 2855 2856 2857 2858 2859 2860 2861 2862 2863 2864 2865 2866 2867 2868 2869 2870 2871 2872 2873 2874 2875 2876 2877 2878 2879 2880 2881 2882 2883 2884 2885 2886 2887 2888 2889 2890 2891 2892 2893 2894 2895 2896 2897 2898 2899 2900 2901 2902 2903 2904 2905 2906 2907 2908 2909 2910 2911 2912 2913 2914 2915 2916 2917 2918 2919 2920 2921 2922 2923 2924 2925 2926 2927 2928 2929 2930 2931 2932 2933 2934 2935 2936 2937 2938 2939 2940 2941 2942 2943 2944 2945 2946 2947 2948 2949 2950 2951 2952 2953 2954 2955 2956 2957 2958 2959 2960 2961 2962 2963 2964 2965 2966 2967 2968 2969 2970 2971 2972 2973 2974 2975 2976 2977 2978 2979 2980 2981 2982 2983 2984 2985 2986 2987 2988 2989 2990 2991 2992 2993 2994 2995 2996 2997 2998 2999 3000 3001 3002 3003 3004 3005 3006 3007 3008 3009 3010 3011 3012 3013 3014 3015 3016 3017 3018 3019 3020 3021 3022 3023 3024 3025 3026 3027 3028 3029 3030 3031 3032 3033 3034 3035 3036 3037 3038 3039 3040 3041 3042 3043 3044 3045 3046 3047 3048 3049 3050 3051 3052 3053 3054 3055 3056 3057 3058 3059 3060 3061 3062 3063 3064 3065 3066 3067 3068 3069 3070 3071 3072 3073 3074 3075 3076 3077 3078 3079 3080 3081 3082 3083 3084 3085 3086 3087 3088 3089 3090 3091 3092 3093 3094 3095 3096 3097 3098 3099 3100 3101 3102 3103 3104 3105 3106 3107 3108 3109 3110 3111 3112 3113 3114 3115 3116 3117 3118 3119 3120 3121 3122 3123 3124 3125 3126 3127 3128 3129 3130 3131 3132 3133 3134 3135 3136 3137 3138 3139 3140 3141 
</DataArray>
<DataArray type="UInt32" Name="offsets" format="ascii">
3 6 9 12 15 18 21 24 27 30 33 36 39 42 45 48 51 54 57 60 63 66 69 72 75 78 81 84 87 90 93 96 99 102 105 108 111 114 117 120 123 126 129 132 135 138 141 144 147 150 153 156 159 162 165 168 171 174 177 180 183 186 189 192 195 198 201 204 207 210 213 216 219 222 225 228 231 234 237 240 243 246 249 252 255 258 261 264 267 270 273 276 279 282 285 288 291 294 297 300 303 306 309 312 315 318 321 324 327 330 333 336 339 342 345 348 351 354 357 360 363 366 369 372 375 378 381 384 387 390 393 396 399 402 405 408 411 414 417 420 423 426 429 432 435 438 441 444 447 450 453 456 459 462 465 468 471 474 477 480 483 486 489 492 495 498 501 504 507 510 513 516 519 522 525 528 531 534 537 540 543 546 549 552 555 558 561 564 567 570 573 576 579 582 585 588 591 594 597 600 603 606 609 612 615 618 621 624 627 630 633 636 639 642 645 648 651 654 657 660 663 666 669 672 675 678 681 684 687 690 693 696 699 702 705 708 711 714 717 720 723 726 729 732 735 738 741 744 747 750 753 756 759 762 765 768 771 774 777 780 783 786 789 792 795 798 801 804 807 810 813 816 819 822 825 828 831 834 837 840 843 846 849 852 855 858 861 864 867 870 873 876 879 882 885 888 891 894 897 900 903 906 909 912 915 918 921 924 927 930 933 936 939 942 945 948 951 954 957 960 963 966 969 972 975 978 981 984 987 990 993 996 999 1002 1005 1008 1011 1014 1017 1020 1023 1026 1029 1032 1035 1038 1041 1044 1047 1050 1053 1056 1059 1062 1065 1068 1071 1074 1077 1080 1083 1086 1089 1092 1095 1098 1101 1104 1107 1110 1113 1116 1119 1122 1125 1128 1131 1134 1137 1140 1143 1146 1149 1152 1155 1158 1161 1164 1167 1170 1173 1176 1179 1182 1185 1188 1191 1194 1197 1200 1203 1206 1209 1212 1215 1218 1221 1224 1227 1230 1233 1236 1239 1242 1245 1248 1251 1254 1257 1260 1263 1266 1269 1272 1275 1278 1281 1284 1287 1290 1293 1296 1299 1302 1305 1308 1311 1314 1317 1320 1323 1326 1329 1332 1335 1338 1341 1344 1347 1350 1353 1356 1359 1362 1365 1368 1371 1374 1377 1380 1383 1386 1389 1392 1395 1398 1401 1404 1407 1410 1413 1416 1419 1422 1425 1428 1431 1434 1437 1440 1443 1446 1449 1452 1455 1458 1461 1464 1467 1470 1473 1476 1479 1482 1485 1488 1491 1494 1497 1500 1503 1506 1509 1512 1515 1518 1521 1524 1527 1530 1533 1536 1539 1542 1545 1548 1551 1554 1557 1560 1563 1566 1569 1572 1575 1578 1581 1584 1587 1590 1593 1596 1599 1602 1605 1608 1611 1614 1616 1619 1622 1624 1627 1630 1632 1635 1638 1641 1644 1647 1650 1653 1656 1659 1662 1665 1668 1671 1673 1676 1679 1682 1685 1688 1690 1693 1696 1699 1702 1705 1708 1711 1714 1717 1720 1723 1726 1729 1732 1735 1738 1741 1744 1747 1750 1753 1756 1759 1762 1765 1768 1771 1774 1777 1780 1783 1786 1789 1792 1795 1798 1801 1804 1807 1810 1813 1816 1819 1822 1825 1828 1831 1834 1837 1840 1843 1846 1849 1852 1855 1858 1861 1864 1867 1870 1873 1876 1879 1882 1885 1888 1891 1894 1897 1900 1903 1906 1909 1912 1915 1918 1921 1924 1927 1930 1933 1936 1939 1942 1945 1948 1951 1954 1957 1960 1963 1966 1969 1972 1975 1978 1981 1984 1987 1990 1993 1996 1999 2002 2005 2008 2011 2014 2017 2020 2023 2026 2029 2032 2035 2038 2041 2044 2047 2050 2053 2056 2059 2062 2065 2068 2071 2074 2077 2080 2083 2086 2089 2092 2095 2098 2101 2104 2107 2110 2113 2116 2119 2122 2125 2128 2131 2134 2137 2140 2143 2146 2149 2152 2155 2158 2161 2164 2167 2170 2173 2176 2179 2182 2185 2188 2191 2194 2196 2199 2202 2205 2207 2210 2213 2215 2218 2221 2224 2227 2230 2233 2236 2239 2242 2245 2248 2250 2253 2256 2259 2262 2264 2267 2270 2273 2276 2279 2282 2285 2288 2291 2294 2297 2300 2303 2306 2309 2312 2315 2318 2321 2324 2327 2330 2333 2336 2339 2342 2345 2348 2351 2354 2357 2360 2363 2366 2369 2372 2375 2378 2381 2384 2387 2390 2393 2396 2399 2402 2405 2408 2411 2414 2417 2420 2423 2426 2429 2432 2435 2438 2440 2443 2446 2449 2452 2455 2458 2461 2464 2467 2470 2473 2476 2479 2482 2484 2487 2490 2492 2495 2497 2500 2503 2506 2509 2512 2515 2518 2521 2524 2527 2530 2533 2536 2538 2541 2544 2547 2550 2553 2556 2559 2562 2565 2568 2571 2574 2577 2580 2583 2586 2589 2592 2595 2598 2601 2604 2607 2610 2613 2616 2619 2622 2625 2628 2631 2634 2637 2640 2643 2646 2649 2652 2655 2658 2661 2664 2667 2670 2673 2676 2679 2682 2685 2688 2691 2694 2697 2700 2703 2706 2709 2712 2715 2718 2721 2724 2727 2730 2733 2736 2739 2742 2745 2748 2751 2754 2757 2760 2763 2766 2769 2772 2775 2778 2781 2784 2787 2790 2793 2796 2799 2802 2805 2808 2811 2814 2817 2820 2823 2826 2829 2832 2835 2838 2841 2844 2847 2850 2853 2856 2859 2862 2865 2868 2871 2874 2877 2880 2883 2886 2889 2892 2895 2898 2901 2904 2907 2910 2913 2916 2919 2922 2925 2928 2931 2934 2937 2940 2943 2946 2948 2951 2954 2956 2959 2961 2964 2967 2970 2973 2976 2979 2982 2985 2988 2991 2994 2997 3000 3003 3006 3009 3012 3015 3018 3021 3024 3027 3030 3033 3036 3039 3042 3045 3048 3051 3054 3057 3060 3063 3066 3069 3072 3075 3078 3081 3084 3087 3090 3093 3096 3099 3102 3104 3107 3110 3113 3116 3119 3121 3124 3127 3130 3133 3136 3139 3142 
</DataArray>
<DataArray type="UInt32" Name="types" format="ascii">
5 5 5 5 5 5 5 5 5 5 5 5 5 5 5 5 5 5 5 5 5 5 5 5 5 5 5 5 5 5 5 5 5 5 5 5 5 5 5 5 5 5 5 5 5 5 5 5 5 5 5 5 5 5 5 5 5 5 5 5 5 5 5 5 5 5 5 5 5 5 5 5 5 5 5 5 5 5 5 5 5 5 5 5 5 5 5 5 5 5 5 5 5 5 5 5 5 5 5 5 5 5 5 5 5 5 5 5 5 5 5 5 5 5 5 5 5 5 5 5 5 5 5 5 5 5 5 5 5 5 5 5 5 5 5 5 5 5 5 5 5 5 5 5 5 5 5 5 5 5 5 5 5 5 5 5 5 5 5 5 5 5 5 5 5 5 5 5 5 5 5 5 5 5 5 5 5 5 5 5 5 5 5 5 5 5 5 5 5 5 5 5 5 5 5 5 5 5 5 5 5 5 5 5 5 5 5 5 5 5 5 5 5 5 5 5 5 5 5 5 5 5 5 5 5 5 5 5 5 5 5 5 5 5 5 5 5 5 5 5 5 5 5 5 5 5 5 5 5 5 5 5 5 5 5 5 5 5 5 5 5 5 5 5 5 5 5 5 5 5 5 5 5 5 5 5 5 5 5 5 5 5 5 5 5 5 5 5 5 5 5 5 5 5 5 5 5 5 5 5 5 5 5 5 5 5 5 5 5 5 5 5 5 5 5 5 5 5 5 5 5 5 5 5 5 5 5 5 5 5 5 5 5 5 5 5 5 5 5 5 5 5 5 5 5 5 5 5 5 5 5 5 5 5 5 5 5 5 5 5 5 5 5 5 5 5 5 5 5 5 5 5 5 5 5 5 5 5 5 5 5 5 5 5 5 5 5 5 5 5 5 5 5 5 5 5 5 5 5 5 5 5 5 5 5 5 5 5 5 5 5 5 5 5 5 5 5 5 5 5 5 5 5 5 5 5 5 5 5 5 5 5 5 5 5 5 5 5 5 5 5 5 5 5 5 5 5 5 5 5 5 5 5 5 5 5 5 5 5 5 5 5 5 5 5 5 5 5 5 5 5 5 5 5 5 5 5 5 5 5 5 5 5 5 5 5 5 5 5 5 5 5 5 5 5 5 5 5 5 5 5 5 5 5 5 5 5 5 5 5 5 5 5 5 5 5 5 5 5 5 5 5 5 5 5 5 5 5 5 5 5 5 5 5 5 5 5 5 3 5 5 3 5 5 3 5 5 5 5 5 5 5 5 5 5 5 5 5 3 5 5 5 5 5 3 5 5 5 5 5 5 5 5 5 5 5 5 5 5 5 5 5 5 5 5 5 5 5 5 5 5 5 5 5 5 5 5 5 5 5 5 5 5 5 5 5 5 5 5 5 5 5 5 5 5 5 5 5 5 5 5 5 5 5 5 5 5 5 5 5 5 5 5 5 5 5 5 5 5 5 5 5 5 5 5 5 5 5 5 5 5 5 5 5 5 5 5 5 5 5 5 5 5 5 5 5 5 5 5 5 5 5 5 5 5 5 5 5 5 5 5 5 5 5 5 5 5 5 5 5 5 5 5 5 5 5 5 5 5 5 5 5 5 5 5 5 5 5 5 5 5 5 5 5 5 5 5 5 5 5 5 5 5 5 5 5 5 5 5 5 5 5 5 3 5 5 5 3 5 5 3 5 5 5 5 5 5 5 5 5 5 5 3 5 5 5 5 3 5 5 5 5 5 5 5 5 5 5 5 5 5 5 5 5 5 5 5 5 5 5 5 5 5 5 5 5 5 5 5 5 5 5 5 5 5 5 5 5 5 5 5 5 5 5 5 5 5 5 5 5 5 5 5 5 5 5 3 5 5 5 5 5 5 5 5 5 5 5 5 5 5 3 5 5 3 5 3 5 5 5 5 5 5 5 5 5 5 5 5 5 3 5 5 5 5 5 5 5 5 5 5 5 5 5 5 5 5 5 5 5 5 5 5 5 5 5 5 5 5 5 5 5 5 5 5 5 5 5 5 5 5 5 5 5 5 5 5 5 5 5 5 5 5 5 5 5 5 5 5 5 5 5 5 5 5 5 5 5 5 5 5 5 5 5 5 5 5 5 5 5 5 5 5 5 5 5 5 5 5 5 5 5 5 5 5 5 5 5 5 5 5 5 5 5 5 5 5 5 5 5 5 5 5 5 5 5 5 5 5 5 5 5 5 5 5 5 5 5 5 5 5 5 5 5 5 5 5 3 5 5 3 5 3 5 5 5 5 5 5 5 5 5 5 5 5 5 5 5 5 5 5 5 5 5 5 5 5 5 5 5 5 5 5 5 5 5 5 5 5 5 5 5 5 5 5 5 5 5 5 5 3 5 5 5 5 5 3 5 5 5 5 5 5 5 
</DataArray>
</Cells>
<PointData Scalars="" Vectors="displacement," Tensors="">
<DataArray type="Float64" Name="displacement" NumberOfComponents="3" format="ascii">
-1.5085178226475213e-09 -6.2021340559650221e-10 0 -1.7546176906781482e-06 4.2884643025468618e-08 0 -8.0073745749234271e-07 2.0340747038838951e-07 0 -1.5085178226475213e-09 -6.2021340559650221e-10 0 -8.0073745749234293e-07 2.0340747038838957e-07 0 -1.4243999281115209e-09 4.5739980187891257e-10 0 -1.7546176906781482e-06 4.2884643025468618e-08 0 -1.811911243454665e-06 7.7167319091489797e-07 0 -8.0073745749234271e-07 2.0340747038838951e-07 0 -1.4243999281115209e-09 4.5739980187891257e-10 0 -8.0073745749234271e-07 2.0340747038838957e-07 0 -1.811911243454665e-06 7.7167319091489797e-07 0 -1.4192811269155268e-09 2.9456959869274844e-10 0 -1.4243999281115209e-09 4.5739980187891257e-10 0 -1.1609479076559927e-06 1.0975699079107479e-06 0 -7.4901265883826385e-10 8.4321300935834297e-10 0 -1.4192811269155268e-09 2.9456959869274844e-10 0 -1.1609479076559927e-06 1.0975699079107479e-06 0 -2.536372373771675e-06 1.6615862764669088e-06 0 -1.1609479076559927e-06 1.0975699079107479e-06 0 -1.811911243454665e-06 7.7167319091489797e-07 0 -1.4243999281115209e-09 4.5739980187891257e-10 0 -1.811911243454665e-06 7.7167319091489797e-07 0 -1.1609479076559927e-06 1.0975699079107479e-06 0 -2.536372373771675e-06 1.6615862764669088e-06 0 -1.3496310739729759e-06 1.8255327226433485e-06 0 -1.1609479076559927e-06 1.0975699079107479e-06 0 -2.536372373771675e-06 1.6615862764669088e-06 0 -2.5964953701071344e-06 2.3338555186251556e-06 0 -1.3496310739729759e-06 1.8255327226433485e-06 0 -2.536372373771675e-06 1.6615862764669088e-06 0 -3.9183440887763837e-06 2.1530563523073631e-06 0 -2.5964953701071344e-06 2.3338555186251556e-06 0 -3.1506427139399544e-06 2.7572845816095814e-06 0 -2.5964953701071344e-06 2.3338555186251556e-06 0 -3.9183440887763837e-06 2.1530563523073631e-06 0 -5.5820468243303442e-06 1.7575553380853963e-06 0 -3.9183440887763837e-06 2.1530563523073631e-06 0 -3.8913461938459196e-06 1.2868024258603793e-06 0 -2.536372373771675e-06 1.6615862764669088e-06 0 -3.8913461938459196e-06 1.2868024258603793e-06 0 -3.9183440887763837e-06 2.1530563523073631e-06 0 -3.964025048142747e-06 5.3941675216784801e-07 0 -6.6844849496016776e-06 7.4754567897740671e-07 0 -3.8913461938459196e-06 1.2868024258603793e-06 0 -1.7546176906781482e-06 4.2884643025468618e-08 0 -3.964025048142747e-06 5.3941675216784801e-07 0 -1.811911243454665e-06 7.7167319091489797e-07 0 -3.964025048142747e-06 5.3941675216784801e-07 0 -3.8913461938459196e-06 1.2868024258603793e-06 0 -1.811911243454665e-06 7.7167319091489797e-07 0 -2.536372373771675e-06 1.6615862764669088e-06 0 -1.811911243454665e-06 7.7167319091489797e-07 0 -3.8913461938459196e-06 1.2868024258603793e-06 0 -2.9002892590245934e-11 7.4489011321451151e-10 0 -4.7286568845638386e-10 6.0590772405638496e-10 0 -1.9381740960273639e-07 1.5258787554761581e-06 0 -4.7286568845638386e-10 6.0590772405638496e-10 0 -4.7586738010765218e-07 1.2749255637740405e-06 0 -1.9381740960273639e-07 1.5258787554761581e-06 0 -8.4505047473033498e-07 2.3819665712658377e-06 0 -1.9381740960273639e-07 1.5258787554761581e-06 0 -4.7586738010765218e-07 1.2749255637740405e-06 0 -7.4901265883826385e-10 8.4321300935834297e-10 0 -1.3496310739729759e-06 1.8255327226433485e-06 0 -4.7586738010765218e-07 1.2749255637740405e-06 0 -7.4901265883826385e-10 8.4321300935834297e-10 0 -1.1609479076559927e-06 1.0975699079107479e-06 0 -1.3496310739729759e-06 1.8255327226433485e-06 0 -8.4505047473033498e-07 2.3819665712658377e-06 0 -4.7586738010765218e-07 1.2749255637740405e-06 0 -1.3496310739729759e-06 1.8255327226433485e-06 0 -4.7286568845638386e-10 6.0590772405638496e-10 0 -7.4901265883826385e-10 8.4321300935834297e-10 0 -4.7586738010765218e-07 1.2749255637740405e-06 0 -1.3496310739729759e-06 1.8255327226433485e-06 0 -2.5964953701071344e-06 2.3338555186251556e-06 0 -1.8656598889285852e-06 2.6087656621969547e-06 0 -3.1506427139399544e-06 2.7572845816095814e-06 0 -1.8656598889285852e-06 2.6087656621969547e-06 0 -2.5964953701071344e-06 2.3338555186251556e-06 0 -8.4505047473033498e-07 2.3819665712658377e-06 0 -1.3496310739729759e-06 1.8255327226433485e-06 0 -1.8656598889285852e-06 2.6087656621969547e-06 0 -8.4505047473033498e-07 2.3819665712658377e-06 0 -1.2872824267366054e-06 3.0520105494064486e-06 0 -7.0732447670917653e-08 2.6575583882478596e-06 0 -8.4505047473033498e-07 2.3819665712658377e-06 0 -1.8656598889285852e-06 2.6087656621969547e-06 0 -1.2872824267366054e-06 3.0520105494064486e-06 0 -8.4505047473033498e-07 2.3819665712658377e-06 0 -7.0732447670917653e-08 2.6575583882478596e-06 0 -1.9381740960273639e-07 1.5258787554761581e-06 0 2.1438573026156049e-07 1.6672294228228693e-06 0 -1.9381740960273639e-07 1.5258787554761581e-06 0 -7.0732447670917653e-08 2.6575583882478596e-06 0 -1.2872824267366054e-06 3.0520105494064486e-06 0 -1.6390358008622771e-07 3.0880601860694236e-06 0 -7.0732447670917653e-08 2.6575583882478596e-06 0 -4.8712287149521879e-07 3.1020940024157051e-06 0 -1.6390358008622753e-07 3.0880601860694236e-06 0 -1.2872824267366054e-06 3.0520105494064486e-06 0 -4.8712287149521879e-07 3.1020940024157051e-06 0 -1.2872824267366054e-06 3.0520105494064486e-06 0 -2.3567520658584845e-06 2.9614384090463243e-06 0 -3.1506427139399544e-06 2.7572845816095814e-06 0 -4.3757840499003111e-06 2.5895006510115682e-06 0 -2.3567520658584845e-06 2.9614384090463243e-06 0 -3.1506427139399544e-06 2.7572845816095814e-06 0 -1.2872824267366054e-06 3.0520105494064486e-06 0 -1.8656598889285852e-06 2.6087656621969547e-06 0 -3.1506427139399544e-06 2.7572845816095814e-06 0 -2.3567520658584845e-06 2.9614384090463243e-06 0 -1.2872824267366054e-06 3.0520105494064486e-06 0 -3.1506427139399544e-06 2.7572845816095814e-06 0 -5.0163876536229266e-06 2.3131629173577187e-06 0 -4.3757840499003102e-06 2.5895006510115686e-06 0 -3.2489472861199159e-06 2.4822115370213003e-06 0 -4.3757840499003111e-06 2.5895006510115686e-06 0 -6.1821046957620538e-06 1.8658420300477635e-06 0 -3.2489472861199159e-06 2.4822115370213003e-06 0 -6.1821046957620538e-06 1.8658420300477635e-06 0 -5.1522299897145043e-06 1.4637712540625392e-06 0 -3.2489472861199159e-06 2.4822115370213003e-06 0 -5.1522299897145043e-06 1.463771254062539e-06 0 -3.1020652737531068e-06 1.4698674779997394e-06 0 -3.2489472861199159e-06 2.4822115370213003e-06 0 -2.3567520658584845e-06 2.9614384090463243e-06 0 -4.3757840499003102e-06 2.5895006510115686e-06 0 -4.8712287149521879e-07 3.1020940024157051e-06 0 -2.3567520658584845e-06 2.9614384090463243e-06 0 -1.1999944323418348e-06 2.5917317741728654e-06 0 -3.2489472861199159e-06 2.4822115370213003e-06 0 -1.1999944323418348e-06 2.5917317741728654e-06 0 -2.3567520658584845e-06 2.9614384090463243e-06 0 -3.2489472861199159e-06 2.4822115370213003e-06 0 -3.1020652737531068e-06 1.4698674779997394e-06 0 -1.1999944323418348e-06 2.5917317741728654e-06 0 6.6726138108781809e-07 2.0178583931317076e-06 0 9.2092667915226344e-07 2.8389978157907481e-06 0 -1.1999944323418348e-06 2.5917317741728654e-06 0 -4.8712287149521879e-07 3.1020940024157051e-06 0 -1.1999944323418348e-06 2.5917317741728654e-06 0 9.2092667915226354e-07 2.8389978157907481e-06 0 -6.6844849496016776e-06 7.4754567897740671e-07 0 -7.9795816560956124e-06 1.2330266114801114e-06 0 -5.5820468243303442e-06 1.7575553380853963e-06 0 -7.1381231325256881e-06 1.8470242405846777e-06 0 -5.5820468243303434e-06 1.7575553380853963e-06 0 -7.9795816560956124e-06 1.2330266114801112e-06 0 -6.6844849496016776e-06 7.4754567897740671e-07 0 -9.9140430821149784e-06 2.5286670255077541e-07 0 -7.9795816560956124e-06 1.2330266114801112e-06 0 -6.6844849496016776e-06 7.4754567897740671e-07 0 -5.5820468243303442e-06 1.7575553380853965e-06 0 -3.8913461938459196e-06 1.2868024258603793e-06 0 -5.5820468243303442e-06 1.7575553380853963e-06 0 -5.0163876536229266e-06 2.3131629173577187e-06 0 -3.9183440887763837e-06 2.1530563523073631e-06 0 -3.1506427139399544e-06 2.7572845816095814e-06 0 -3.9183440887763837e-06 2.1530563523073631e-06 0 -5.0163876536229266e-06 2.3131629173577187e-06 0 -7.1381231325256881e-06 1.8470242405846777e-06 0 -4.3757840499003102e-06 2.5895006510115686e-06 0 -5.0163876536229266e-06 2.3131629173577187e-06 0 -7.1381231325256881e-06 1.8470242405846777e-06 0 -5.0163876536229266e-06 2.3131629173577187e-06 0 -5.5820468243303442e-06 1.7575553380853963e-06 0 -7.1381231325256881e-06 1.8470242405846777e-06 0 -6.1821046957620538e-06 1.8658420300477635e-06 0 -4.3757840499003102e-06 2.5895006510115686e-06 0 -7.1381231325256881e-06 1.8470242405846777e-06 0 -8.8527726703076029e-06 1.0398006456239049e-06 0 -6.1821046957620538e-06 1.8658420300477635e-06 0 -8.3853946573776655e-06 4.2611429236564623e-07 0 -6.1821046957620538e-06 1.8658420300477635e-06 0 -8.8527726703076046e-06 1.0398006456239049e-06 0 -7.1381231325256881e-06 1.8470242405846777e-06 0 -1.0098722831852061e-05 6.8634321865562962e-07 0 -8.8527726703076046e-06 1.0398006456239049e-06 0 -1.2236132324671017e-05 -5.3083154740692219e-07 0 -8.8527726703076046e-06 1.0398006456239049e-06 0 -1.0098722831852061e-05 6.8634321865562962e-07 0 -7.1381231325256881e-06 1.8470242405846777e-06 0 -7.9795816560956124e-06 1.2330266114801112e-06 0 -1.0098722831852061e-05 6.8634321865562962e-07 0 -9.9140430821149784e-06 2.5286670255077557e-07 0 -1.0098722831852061e-05 6.8634321865562962e-07 0 -7.9795816560956124e-06 1.2330266114801112e-06 0 -9.9140430821149784e-06 2.5286670255077557e-07 0 -1.3591616517990645e-05 -1.0033319481331845e-06 0 -1.0098722831852061e-05 6.8634321865562962e-07 0 -1.3591616517990645e-05 -1.0033319481331845e-06 0 -1.7509098207522878e-05 -3.1649589014650631e-06 0 -1.2236132324671017e-05 -5.3083154740692219e-07 0 -1.3591616517990645e-05 -1.0033319481331845e-06 0 -1.2236132324671017e-05 -5.3083154740692219e-07 0 -1.0098722831852061e-05 6.8634321865562962e-07 0 -1.7509098207522878e-05 -3.1649589014650631e-06 0 -1.6432001695527546e-05 -3.3609395732318043e-06 0 -1.2236132324671017e-05 -5.3083154740692219e-07 0 -1.7509098207522878e-05 -3.1649589014650631e-06 0 -2.2052613917586958e-05 -6.4281709352561545e-06 0 -1.6432001695527546e-05 -3.3609395732318043e-06 0 -1.4602464124145377e-05 -4.4380860489261968e-06 0 -1.6432001695527546e-05 -3.3609395732318043e-06 0 -1.9962609792689796e-05 -6.3040271855622587e-06 0 -1.4602464124145377e-05 -4.4380860489261968e-06 0 -1.9962609792689796e-05 -6.3040271855622587e-06 0 -2.0225995336816857e-05 -8.9872889639814632e-06 0 -2.2052613917586958e-05 -6.4281709352561545e-06 0 -1.9962609792689796e-05 -6.3040271855622587e-06 0 -1.6432001695527546e-05 -3.3609395732318043e-06 0 -2.2052613917586958e-05 -6.4281709352561545e-06 0 -2.7078946496601178e-05 -1.0971934733491773e-05 0 -1.9962609792689796e-05 -6.3040271855622587e-06 0 -1.4602464124145377e-05 -4.4380860489261968e-06 0 -1.3853293655318721e-05 -7.9852633163449151e-06 0 -9.4104022139690498e-06 -4.2653988661454192e-06 0 -1.4602464124145377e-05 -4.4380860489261968e-06 0 -9.4104022139690498e-06 -4.2653988661454192e-06 0 -9.7748080441816995e-06 -1.7715564929364003e-06 0 -1.4602464124145377e-05 -4.4380860489261968e-06 0 -1.2293107640799535e-05 -1.6847477347291705e-06 0 -1.6432001695527546e-05 -3.3609395732318043e-06 0 -1.4602464124145377e-05 -4.4380860489261968e-06 0 -9.7748080441816995e-06 -1.7715564929364003e-06 0 -1.2293107640799535e-05 -1.6847477347291705e-06 0 -8.3853946573776655e-06 4.2611429236564623e-07 0 -1.2293107640799537e-05 -1.6847477347291707e-06 0 -9.7748080441816995e-06 -1.7715564929364003e-06 0 -1.2236132324671017e-05 -5.3083154740692219e-07 0 -1.6432001695527546e-05 -3.3609395732318043e-06 0 -1.2293107640799535e-05 -1.6847477347291705e-06 0 -1.2293107640799535e-05 -1.6847477347291705e-06 0 -8.3853946573776655e-06 4.2611429236564618e-07 0 -1.2236132324671017e-05 -5.3083154740692219e-07 0 -1.2236132324671017e-05 -5.3083154740692219e-07 0 -8.3853946573776655e-06 4.2611429236564623e-07 0 -8.8527726703076046e-06 1.0398006456239049e-06 0 -8.3853946573776655e-06 4.2611429236564623e-07 0 -5.1522299897145043e-06 1.4637712540625392e-06 0 -6.1821046957620538e-06 1.8658420300477635e-06 0 -8.3853946573776655e-06 4.2611429236564623e-07 0 -5.9672849966875974e-06 1.0081977832545902e-07 0 -5.1522299897145043e-06 1.4637712540625392e-06 0 -3.1020652737531068e-06 1.4698674779997394e-06 0 -5.1522299897145035e-06 1.4637712540625394e-06 0 -5.9672849966875974e-06 1.0081977832545902e-07 0 -6.4555282539133668e-06 -1.8143020438106853e-06 0 -3.2541113665964194e-06 -4.711718390777499e-07 0 -5.9672849966875974e-06 1.0081977832545902e-07 0 -3.1020652737531068e-06 1.4698674779997394e-06 0 -5.9672849966875974e-06 1.0081977832545902e-07 0 -3.2541113665964194e-06 -4.711718390777499e-07 0 -8.3853946573776655e-06 4.2611429236564623e-07 0 -9.7748080441816995e-06 -1.7715564929364003e-06 0 -5.9672849966875974e-06 1.0081977832545902e-07 0 -8.7498503602249415e-07 1.1103419480497927e-06 0 6.6726138108781809e-07 2.0178583931317076e-06 0 -1.1999944323418348e-06 2.5917317741728654e-06 0 -3.1020652737531068e-06 1.4698674779997394e-06 0 -8.7498503602249415e-07 1.1103419480497927e-06 0 -1.1999944323418348e-06 2.5917317741728654e-06 0 -3.1020652737531068e-06 1.4698674779997394e-06 0 -3.254111366596419e-06 -4.711718390777499e-07 0 -8.7498503602249415e-07 1.1103419480497927e-06 0 -2.0402819032720666e-07 -1.5242569754175742e-06 0 1.680332922873309e-06 8.257653905124054e-07 0 -8.7498503602249415e-07 1.1103419480497927e-06 0 -2.0402819032720666e-07 -1.5242569754175742e-06 0 -8.7498503602249457e-07 1.1103419480497925e-06 0 -3.2541113665964194e-06 -4.711718390777499e-07 0 -2.0402819032720666e-07 -1.5242569754175742e-06 0 -3.2541113665964194e-06 -4.711718390777499e-07 0 -4.5791117340433371e-06 -3.2520401789322358e-06 0 -2.0402819032720666e-07 -1.5242569754175742e-06 0 -4.5791117340433371e-06 -3.2520401789322358e-06 0 -1.6838033145679642e-06 -5.3001244874336443e-06 0 -2.0402819032720666e-07 -1.5242569754175742e-06 0 -1.6838033145679642e-06 -5.3001244874336443e-06 0 2.5753156204808374e-06 -4.0053982340662642e-06 0 -6.4555282539133668e-06 -1.8143020438106853e-06 0 -5.9672849966875974e-06 1.0081977832545902e-07 0 -9.7748080441816995e-06 -1.7715564929364003e-06 0 -6.4555282539133668e-06 -1.8143020438106853e-06 0 -9.7748080441816995e-06 -1.7715564929364001e-06 0 -9.4104022139690498e-06 -4.2653988661454192e-06 0 -6.4555282539133668e-06 -1.8143020438106853e-06 0 -4.5791117340433371e-06 -3.2520401789322358e-06 0 -3.2541113665964194e-06 -4.711718390777499e-07 0 -7.3795689477005248e-06 -6.9555812560517221e-06 0 -4.5791117340433371e-06 -3.2520401789322358e-06 0 -9.4104022139690498e-06 -4.2653988661454192e-06 0 -6.4555282539133668e-06 -1.8143020438106853e-06 0 -9.4104022139690498e-06 -4.2653988661454192e-06 0 -4.5791117340433371e-06 -3.2520401789322358e-06 0 -7.3795689477005248e-06 -6.9555812560517221e-06 0 -9.4104022139690498e-06 -4.2653988661454192e-06 0 -1.3853293655318721e-05 -7.9852633163449151e-06 0 -7.3795689477005248e-06 -6.9555812560517221e-06 0 -1.1715528275696639e-05 -1.2605239585011498e-05 0 -3.8517388952503517e-06 -9.6281131273586923e-06 0 -7.3795689477005248e-06 -6.9555812560517221e-06 0 -1.3853293655318719e-05 -7.9852633163449134e-06 0 -1.1715528275696639e-05 -1.2605239585011498e-05 0 1.6844118067801508e-06 -8.0289416063060371e-06 0 2.5753156204808374e-06 -4.005398234066265e-06 0 -1.6838033145679642e-06 -5.3001244874336443e-06 0 -7.3795689477005248e-06 -6.9555812560517221e-06 0 -1.6838033145679644e-06 -5.3001244874336443e-06 0 -4.5791117340433371e-06 -3.2520401789322358e-06 0 -7.3795689477005248e-06 -6.9555812560517221e-06 0 -3.8517388952503517e-06 -9.6281131273586923e-06 0 -1.6838033145679642e-06 -5.3001244874336443e-06 0 1.6844118067801508e-06 -8.0289416063060371e-06 0 -1.6838033145679642e-06 -5.3001244874336443e-06 0 -3.8517388952503517e-06 -9.6281131273586923e-06 0 1.6844118067801508e-06 -8.0289416063060371e-06 0 -3.8517388952503517e-06 -9.6281131273586923e-06 0 -3.5282750443125779e-07 -1.3299253663346985e-05 0 -5.9997138774266003e-06 -1.5961477253916537e-05 0 -3.5282750443125768e-07 -1.3299253663346983e-05 0 -3.8517388952503517e-06 -9.6281131273586923e-06 0 -5.9997138774266003e-06 -1.5961477253916537e-05 0 -9.4800677877050323e-06 -2.4364174705702991e-05 0 -3.4059588100461124e-06 -2.133531942077655e-05 0 -5.9997138774266003e-06 -1.5961477253916537e-05 0 -3.4059588100461124e-06 -2.133531942077655e-05 0 -3.5282750443125779e-07 -1.3299253663346985e-05 0 2.7408402711009936e-06 -1.7586255679440975e-05 0 -3.5282750443125779e-07 -1.3299253663346985e-05 0 -3.4059588100461124e-06 -2.133531942077655e-05 0 -5.9997138774266003e-06 -1.5961477253916537e-05 0 -1.1715528275696639e-05 -1.2605239585011498e-05 0 -1.2900412413103243e-05 -1.9011304069326045e-05 0 -5.9997138774266003e-06 -1.5961477253916537e-05 0 -3.8517388952503517e-06 -9.6281131273586923e-06 0 -1.1715528275696639e-05 -1.2605239585011498e-05 0 -5.9997138774266003e-06 -1.5961477253916537e-05 0 -1.2900412413103243e-05 -1.9011304069326045e-05 0 -9.4800677877050323e-06 -2.4364174705702991e-05 0 -1.1715528275696639e-05 -1.2605239585011498e-05 0 -2.0127428071309139e-05 -1.9096008233759762e-05 0 -1.2900412413103243e-05 -1.9011304069326045e-05 0 -1.7229134043350127e-05 -2.4195659602046974e-05 0 -1.2900412413103243e-05 -1.9011304069326045e-05 0 -2.0127428071309139e-05 -1.9096008233759762e-05 0 -1.981411957794898e-05 -1.3219878704683538e-05 0 -2.0127428071309139e-05 -1.9096008233759762e-05 0 -1.1715528275696639e-05 -1.2605239585011498e-05 0 -1.981411957794898e-05 -1.3219878704683538e-05 0 -2.7406629049691204e-05 -1.8997476099781047e-05 0 -2.0127428071309139e-05 -1.9096008233759762e-05 0 -2.8631214083955862e-05 -2.8187804119524029e-05 0 -2.0127428071309139e-05 -1.9096008233759762e-05 0 -2.7406629049691204e-05 -1.8997476099781047e-05 0 -3.7676295871675843e-05 -2.5492664155984196e-05 0 -2.8631214083955862e-05 -2.8187804119524029e-05 0 -2.7406629049691204e-05 -1.8997476099781047e-05 0 -3.2368159610059638e-05 -1.7337329730196126e-05 0 -3.7676295871675843e-05 -2.5492664155984196e-05 0 -2.7406629049691204e-05 -1.8997476099781047e-05 0 -3.2368159610059638e-05 -1.7337329730196126e-05 0 -2.7406629049691204e-05 -1.8997476099781047e-05 0 -2.5376754105394305e-05 -1.370641734013343e-05 0 -1.981411957794898e-05 -1.3219878704683538e-05 0 -2.5376754105394305e-05 -1.3706417340133432e-05 0 -2.7406629049691204e-05 -1.8997476099781047e-05 0 -2.7078946496601178e-05 -1.0971934733491773e-05 0 -2.5376754105394305e-05 -1.370641734013343e-05 0 -2.0225995336816857e-05 -8.9872889639814632e-06 0 -1.981411957794898e-05 -1.3219878704683538e-05 0 -2.0225995336816857e-05 -8.9872889639814632e-06 0 -2.5376754105394305e-05 -1.370641734013343e-05 0 -2.7078946496601178e-05 -1.0971934733491773e-05 0 -3.2368159610059638e-05 -1.7337329730196126e-05 0 -2.5376754105394305e-05 -1.370641734013343e-05 0 -2.7078946496601178e-05 -1.0971934733491773e-05 0 -2.0225995336816857e-05 -8.9872889639814615e-06 0 -1.9962609792689796e-05 -6.3040271855622587e-06 0 -1.4602464124145377e-05 -4.4380860489261968e-06 0 -2.0225995336816857e-05 -8.9872889639814632e-06 0 -1.3853293655318721e-05 -7.9852633163449151e-06 0 -1.981411957794898e-05 -1.3219878704683538e-05 0 -1.1715528275696639e-05 -1.2605239585011498e-05 0 -1.3853293655318721e-05 -7.9852633163449151e-06 0 -1.981411957794898e-05 -1.3219878704683538e-05 0 -1.3853293655318721e-05 -7.9852633163449151e-06 0 -2.0225995336816857e-05 -8.9872889639814632e-06 0 1.0218648188052018e-05 -2.4412548498029057e-06 0 9.4909338571438604e-06 -1.1053938286895408e-06 0 8.5309917159534523e-06 -3.8492986249118672e-06 0 7.9706705414107029e-06 -2.0744347860600679e-06 0 8.5309917159534523e-06 -3.8492986249118672e-06 0 9.4909338571438604e-06 -1.1053938286895408e-06 0 7.9706705414107029e-06 -2.0744347860600679e-06 0 6.7527347397444611e-06 -4.2405054080807396e-06 0 8.5309917159534523e-06 -3.8492986249118672e-06 0 1.0218648188052018e-05 -2.4412548498029057e-06 0 1.1468845412279222e-05 4.6510259646431355e-07 0 9.4909338571438604e-06 -1.1053938286895408e-06 0 1.3517456807258283e-05 2.5131724235463836e-06 0 1.1468845412279222e-05 4.6510259646431371e-07 0 1.290747513979781e-05 1.7810235857996779e-07 0 1.0218648188052018e-05 -2.4412548498029057e-06 0 1.290747513979781e-05 1.7810235857996779e-07 0 1.1468845412279222e-05 4.6510259646431371e-07 0 1.0218648188052018e-05 -2.4412548498029057e-06 0 1.14270611622075e-05 -2.6800533587561996e-06 0 1.290747513979781e-05 1.7810235857996779e-07 0 1.0218648188052018e-05 -2.4412548498029057e-06 0 1.0027971220318859e-05 -5.4090083623081259e-06 0 1.14270611622075e-05 -2.6800533587561992e-06 0 1.2701092892957531e-05 -3.3651008515112818e-06 0 1.290747513979781e-05 1.7810235857996779e-07 0 1.14270611622075e-05 -2.6800533587561992e-06 0 1.2701092892957531e-05 -3.3651008515112818e-06 0 1.1427061162207498e-05 -2.6800533587561984e-06 0 1.0027971220318859e-05 -5.4090083623081267e-06 0 7.7045913610740885e-06 -9.1844829497528503e-06 0 1.0027971220318859e-05 -5.4090083623081267e-06 0 8.3500358959524868e-06 -6.2405666218167405e-06 0 1.0218648188052018e-05 -2.4412548498029057e-06 0 8.3500358959524868e-06 -6.2405666218167396e-06 0 1.0027971220318859e-05 -5.4090083623081267e-06 0 1.0218648188052018e-05 -2.4412548498029057e-06 0 8.5309917159534523e-06 -3.8492986249118672e-06 0 8.3500358959524868e-06 -6.2405666218167405e-06 0 7.3436891905566036e-06 -6.6982752986075419e-06 0 8.3500358959524868e-06 -6.2405666218167396e-06 0 8.5309917159534523e-06 -3.8492986249118672e-06 0 7.7045913610740885e-06 -9.1844829497528503e-06 0 8.3500358959524868e-06 -6.2405666218167405e-06 0 6.5645324542614162e-06 -9.898220879342571e-06 0 7.9581334622690589e-06 -1.4776297146970782e-05 0 6.5645324542614162e-06 -9.898220879342571e-06 0 6.986875330057766e-06 -1.0105561274225736e-05 0 7.3436891905566036e-06 -6.6982752986075419e-06 0 6.986875330057766e-06 -1.0105561274225736e-05 0 6.5645324542614162e-06 -9.898220879342571e-06 0 7.3436891905566036e-06 -6.6982752986075419e-06 0 5.6761715557985888e-06 -6.5915456757477972e-06 0 6.986875330057766e-06 -1.0105561274225736e-05 0 7.3436891905566036e-06 -6.6982752986075419e-06 0 6.5645324542614162e-06 -9.898220879342571e-06 0 8.3500358959524868e-06 -6.2405666218167405e-06 0 7.9581334622690589e-06 -1.4776297146970782e-05 0 4.9186852246253837e-06 -1.1230478062797408e-05 0 2.7408402711009936e-06 -1.7586255679440975e-05 0 2.7408402711009936e-06 -1.7586255679440975e-05 0 4.9186852246253837e-06 -1.1230478062797408e-05 0 -3.5282750443125779e-07 -1.3299253663346985e-05 0 7.9581334622690589e-06 -1.4776297146970782e-05 0 6.986875330057766e-06 -1.0105561274225736e-05 0 4.9186852246253837e-06 -1.1230478062797408e-05 0 5.6761715557985888e-06 -6.5915456757477972e-06 0 4.9186852246253837e-06 -1.1230478062797408e-05 0 6.986875330057766e-06 -1.0105561274225736e-05 0 1.6844118067801508e-06 -8.0289416063060371e-06 0 -3.5282750443125779e-07 -1.3299253663346985e-05 0 4.9186852246253837e-06 -1.1230478062797408e-05 0 1.6844118067801508e-06 -8.0289416063060371e-06 0 4.9186852246253828e-06 -1.1230478062797408e-05 0 5.6761715557985888e-06 -6.5915456757477972e-06 0 1.6844118067801508e-06 -8.0289416063060371e-06 0 5.6761715557985888e-06 -6.5915456757477972e-06 0 2.5753156204808374e-06 -4.0053982340662642e-06 0 5.1242907017911773e-06 -2.6442351640896314e-06 0 2.5753156204808374e-06 -4.0053982340662642e-06 0 5.6761715557985888e-06 -6.5915456757477972e-06 0 7.3436891905566036e-06 -6.6982752986075419e-06 0 8.5309917159534523e-06 -3.8492986249118672e-06 0 6.7527347397444611e-06 -4.2405054080807396e-06 0 7.3436891905566036e-06 -6.6982752986075419e-06 0 6.7527347397444611e-06 -4.2405054080807396e-06 0 5.6761715557985888e-06 -6.5915456757477972e-06 0 5.1242907017911773e-06 -2.6442351640896314e-06 0 5.6761715557985888e-06 -6.5915456757477972e-06 0 6.7527347397444611e-06 -4.2405054080807396e-06 0 6.7527347397444611e-06 -4.2405054080807396e-06 0 6.6628997941485053e-06 -1.2421046343641113e-07 0 5.1242907017911773e-06 -2.6442351640896314e-06 0 7.9706705414107029e-06 -2.0744347860600679e-06 0 6.6628997941485053e-06 -1.2421046343641113e-07 0 6.7527347397444611e-06 -4.2405054080807396e-06 0 5.1242907017911773e-06 -2.6442351640896314e-06 0 6.6628997941485053e-06 -1.2421046343641068e-07 0 4.9552086271623267e-06 -4.2487326954787919e-07 0 6.6628997941485053e-06 -1.2421046343641113e-07 0 5.4525441975945257e-06 9.4710021087138093e-07 0 4.9552086271623267e-06 -4.2487326954787919e-07 0 -2.0402819032720666e-07 -1.5242569754175742e-06 0 2.5753156204808374e-06 -4.0053982340662642e-06 0 3.1301390584463689e-06 -1.0467037450109979e-06 0 5.1242907017911773e-06 -2.6442351640896314e-06 0 3.1301390584463693e-06 -1.0467037450109979e-06 0 2.5753156204808374e-06 -4.0053982340662642e-06 0 5.1242907017911773e-06 -2.6442351640896314e-06 0 4.9552086271623259e-06 -4.2487326954787903e-07 0 3.1301390584463689e-06 -1.0467037450109979e-06 0 3.850102359093955e-06 8.7584917864295733e-07 0 3.1301390584463689e-06 -1.0467037450109979e-06 0 4.9552086271623267e-06 -4.2487326954787919e-07 0 -2.0402819032720666e-07 -1.5242569754175742e-06 0 3.1301390584463689e-06 -1.0467037450109977e-06 0 1.680332922873309e-06 8.257653905124054e-07 0 3.850102359093955e-06 8.7584917864295733e-07 0 1.680332922873309e-06 8.2576539051240519e-07 0 3.1301390584463689e-06 -1.0467037450109979e-06 0 3.850102359093955e-06 8.7584917864295733e-07 0 2.5911491052150365e-06 2.2826766427964604e-06 0 1.680332922873309e-06 8.257653905124054e-07 0 6.6726138108781809e-07 2.0178583931317076e-06 0 1.680332922873309e-06 8.257653905124054e-07 0 2.5911491052150365e-06 2.2826766427964604e-06 0 6.6726138108781809e-07 2.0178583931317076e-06 0 -8.7498503602249415e-07 1.1103419480497927e-06 0 1.680332922873309e-06 8.257653905124054e-07 0 6.4961844175056603e-06 1.7411146873831307e-06 0 5.4525441975945265e-06 9.4710021087138083e-07 0 6.6628997941485053e-06 -1.2421046343641113e-07 0 3.850102359093955e-06 8.7584917864295733e-07 0 4.9552086271623276e-06 -4.2487326954787919e-07 0 5.4525441975945257e-06 9.4710021087138093e-07 0 3.850102359093955e-06 8.7584917864295733e-07 0 5.4525441975945257e-06 9.4710021087138093e-07 0 4.6242328531787275e-06 1.957639179216267e-06 0 3.850102359093955e-06 8.7584917864295733e-07 0 4.6242328531787275e-06 1.957639179216267e-06 0 2.5911491052150365e-06 2.2826766427964604e-06 0 6.4961844175056603e-06 1.7411146873831307e-06 0 4.6242328531787275e-06 1.957639179216267e-06 0 5.4525441975945257e-06 9.4710021087138093e-07 0 6.4961844175056603e-06 1.7411146873831307e-06 0 4.7490929503663291e-06 2.5797505747268922e-06 0 4.6242328531787275e-06 1.957639179216267e-06 0 6.4961844175056603e-06 1.7411146873831307e-06 0 8.4847740396103177e-06 1.8683205858330298e-06 0 6.5470943490105812e-06 2.3400925120191495e-06 0 8.4847740396103177e-06 1.8683205858330296e-06 0 8.5600847283131355e-06 2.29123692251042e-06 0 6.5470943490105812e-06 2.3400925120191495e-06 0 6.4961844175056603e-06 1.7411146873831307e-06 0 8.0089353928006852e-06 9.2487499953376223e-07 0 8.4847740396103177e-06 1.8683205858330296e-06 0 6.4961844175056603e-06 1.7411146873831307e-06 0 6.6628997941485053e-06 -1.2421046343641113e-07 0 8.0089353928006852e-06 9.2487499953376223e-07 0 6.6628997941485053e-06 -1.2421046343641113e-07 0 8.4631047639503582e-06 -2.4812554171700006e-07 0 8.0089353928006852e-06 9.2487499953376223e-07 0 9.9050262574939963e-06 1.0295723229890751e-06 0 8.0089353928006852e-06 9.2487499953376223e-07 0 8.4631047639503582e-06 -2.4812554171700006e-07 0 9.9050262574939963e-06 1.0295723229890751e-06 0 8.4847740396103177e-06 1.8683205858330296e-06 0 8.0089353928006852e-06 9.2487499953376223e-07 0 9.9050262574939963e-06 1.0295723229890751e-06 0 8.4631047639503582e-06 -2.4812554171700006e-07 0 9.4909338571438604e-06 -1.1053938286895408e-06 0 7.9706705414107029e-06 -2.0744347860600679e-06 0 9.4909338571438604e-06 -1.105393828689541e-06 0 8.4631047639503582e-06 -2.4812554171700006e-07 0 7.9706705414107029e-06 -2.0744347860600679e-06 0 8.4631047639503582e-06 -2.4812554171700017e-07 0 6.6628997941485053e-06 -1.2421046343641113e-07 0 1.3517456807258283e-05 2.5131724235463836e-06 0 1.170214654913663e-05 1.9546110070767553e-06 0 1.1468845412279222e-05 4.6510259646431371e-07 0 9.9050262574939963e-06 1.0295723229890751e-06 0 1.1468845412279222e-05 4.6510259646431371e-07 0 1.170214654913663e-05 1.9546110070767553e-06 0 9.9050262574939963e-06 1.0295723229890751e-06 0 9.4909338571438604e-06 -1.1053938286895408e-06 0 1.1468845412279222e-05 4.6510259646431371e-07 0 9.9050262574939963e-06 1.0295723229890751e-06 0 1.0452892349806892e-05 2.1624452668263801e-06 0 8.4847740396103177e-06 1.8683205858330296e-06 0 1.170214654913663e-05 1.9546110070767553e-06 0 1.2923152275036035e-05 3.0532332373578342e-06 0 1.0452892349806892e-05 2.1624452668263801e-06 0 9.9050262574939963e-06 1.0295723229890751e-06 0 1.170214654913663e-05 1.9546110070767553e-06 0 1.0452892349806892e-05 2.1624452668263801e-06 0 1.0713943966230116e-05 2.4835579377541465e-06 0 8.5600847283131355e-06 2.29123692251042e-06 0 1.0452892349806892e-05 2.1624452668263801e-06 0 8.4847740396103177e-06 1.8683205858330296e-06 0 1.0452892349806892e-05 2.1624452668263801e-06 0 8.5600847283131355e-06 2.29123692251042e-06 0 1.0713943966230116e-05 2.4835579377541465e-06 0 8.80008963877149e-06 2.2335382017000154e-06 0 8.5600847283131355e-06 2.29123692251042e-06 0 7.0590521136109845e-06 2.3419478654128729e-06 0 8.80008963877149e-06 2.2335382017000154e-06 0 6.8117065460872801e-06 2.0618211838824345e-06 0 7.0590521136109845e-06 2.3419478654128729e-06 0 6.8117065460872801e-06 2.0618211838824345e-06 0 5.5454982397065938e-06 2.4629250917226227e-06 0 7.0590521136109845e-06 2.3419478654128729e-06 0 6.5470943490105812e-06 2.3400925120191495e-06 0 8.5600847283131355e-06 2.29123692251042e-06 0 7.0590521136109845e-06 2.3419478654128729e-06 0 8.5600847283131355e-06 2.29123692251042e-06 0 8.80008963877149e-06 2.2335382017000154e-06 0 6.4961844175056603e-06 1.7411146873831307e-06 0 6.5470943490105812e-06 2.3400925120191491e-06 0 4.7490929503663299e-06 2.5797505747268922e-06 0 3.8828503012819363e-06 2.6717463273021652e-06 0 4.7490929503663299e-06 2.5797505747268922e-06 0 5.5454982397065938e-06 2.4629250917226227e-06 0 4.7490929503663299e-06 2.5797505747268922e-06 0 6.5470943490105804e-06 2.3400925120191495e-06 0 5.5454982397065938e-06 2.4629250917226227e-06 0 7.0590521136109845e-06 2.3419478654128729e-06 0 5.5454982397065938e-06 2.4629250917226227e-06 0 6.5470943490105812e-06 2.3400925120191495e-06 0 5.1164642983189299e-06 2.0375967124881198e-06 0 3.8524686460331833e-06 2.2420311250459372e-06 0 5.5454982397065938e-06 2.4629250917226227e-06 0 3.8828503012819363e-06 2.6717463273021652e-06 0 5.5454982397065938e-06 2.4629250917226227e-06 0 3.8524686460331833e-06 2.2420311250459372e-06 0 3.8828503012819363e-06 2.6717463273021652e-06 0 3.8524686460331833e-06 2.2420311250459372e-06 0 2.5625110430993387e-06 2.3085344104218115e-06 0 5.1164642983189299e-06 2.0375967124881198e-06 0 3.5486861307497481e-06 1.6237259096302688e-06 0 3.8524686460331833e-06 2.2420311250459372e-06 0 4.3094395029265441e-06 1.1781007893019158e-06 0 3.5486861307497481e-06 1.6237259096302688e-06 0 5.1164642983189299e-06 2.0375967124881198e-06 0 4.3094395029265441e-06 1.1781007893019158e-06 0 5.1164642983189299e-06 2.0375967124881198e-06 0 6.1141266601932287e-06 1.5421284998479752e-06 0 5.1164642983189299e-06 2.0375967124881198e-06 0 6.8117065460872801e-06 2.0618211838824345e-06 0 6.1141266601932287e-06 1.5421284998479752e-06 0 5.1164642983189299e-06 2.0375967124881198e-06 0 5.5454982397065938e-06 2.4629250917226227e-06 0 6.8117065460872801e-06 2.0618211838824345e-06 0 6.6726138108781809e-07 2.0178583931317076e-06 0 2.5911491052150365e-06 2.2826766427964604e-06 0 9.2092667915226354e-07 2.8389978157907481e-06 0 2.4986249958969484e-06 2.9135151646919417e-06 0 9.2092667915226354e-07 2.8389978157907481e-06 0 2.5911491052150365e-06 2.2826766427964604e-06 0 2.4986249958969484e-06 2.9135151646919417e-06 0 1.0827154024628112e-06 3.1091537732768647e-06 0 9.2092667915226354e-07 2.8389978157907481e-06 0 2.4986249958969484e-06 2.9135151646919417e-06 0 3.6640224590126308e-06 2.5485988092051449e-06 0 3.4393670339908386e-06 2.8256352945866538e-06 0 2.4986249958969484e-06 2.9135151646919417e-06 0 2.5911491052150365e-06 2.2826766427964604e-06 0 3.6640224590126308e-06 2.5485988092051449e-06 0 2.5911491052150365e-06 2.2826766427964604e-06 0 4.6242328531787275e-06 1.957639179216267e-06 0 3.6640224590126308e-06 2.5485988092051449e-06 0 4.7490929503663299e-06 2.5797505747268922e-06 0 3.6640224590126308e-06 2.5485988092051449e-06 0 4.6242328531787275e-06 1.957639179216267e-06 0 4.7490929503663299e-06 2.5797505747268922e-06 0 3.4393670339908386e-06 2.8256352945866538e-06 0 3.6640224590126308e-06 2.5485988092051449e-06 0 3.8828503012819363e-06 2.6717463273021652e-06 0 3.439367033990839e-06 2.8256352945866542e-06 0 4.7490929503663299e-06 2.5797505747268922e-06 0 3.8828503012819363e-06 2.6717463273021652e-06 0 2.1970826636196342e-06 2.9121769867429411e-06 0 3.4393670339908386e-06 2.8256352945866538e-06 0 3.8828503012819363e-06 2.6717463273021652e-06 0 2.5625110430993387e-06 2.3085344104218115e-06 0 2.1970826636196342e-06 2.9121769867429411e-06 0 2.4986249958969484e-06 2.9135151646919417e-06 0 3.4393670339908386e-06 2.8256352945866538e-06 0 2.1970826636196342e-06 2.9121769867429411e-06 0 2.4986249958969484e-06 2.9135151646919417e-06 0 2.1970826636196342e-06 2.9121769867429411e-06 0 1.0827154024628112e-06 3.1091537732768647e-06 0 5.2864585964717438e-07 2.9560272411088587e-06 0 1.0827154024628112e-06 3.1091537732768647e-06 0 2.1970826636196342e-06 2.9121769867429411e-06 0 5.2864585964717438e-07 2.9560272411088587e-06 0 -1.6390358008622771e-07 3.0880601860694236e-06 0 1.0827154024628112e-06 3.1091537732768647e-06 0 -4.8712287149521879e-07 3.1020940024157051e-06 0 9.2092667915226354e-07 2.8389978157907481e-06 0 1.0827154024628112e-06 3.1091537732768647e-06 0 -4.8712287149521879e-07 3.1020940024157051e-06 0 1.0827154024628112e-06 3.1091537732768647e-06 0 -1.6390358008622771e-07 3.0880601860694236e-06 0 2.1438573026156049e-07 1.6672294228228693e-06 0 -7.0732447670917653e-08 2.6575583882478596e-06 0 9.4177672160943763e-07 2.5196984203606014e-06 0 5.2864585964717438e-07 2.9560272411088587e-06 0 -7.0732447670917666e-08 2.6575583882478596e-06 0 -1.6390358008622771e-07 3.0880601860694236e-06 0 5.2864585964717438e-07 2.9560272411088587e-06 0 9.4177672160943763e-07 2.5196984203606014e-06 0 -7.0732447670917653e-08 2.6575583882478596e-06 0 5.2864585964717438e-07 2.9560272411088587e-06 0 2.1970826636196342e-06 2.9121769867429411e-06 0 9.4177672160943763e-07 2.5196984203606014e-06 0 2.1438573026156049e-07 1.6672294228228693e-06 0 9.4177672160943763e-07 2.5196984203606014e-06 0 5.8997807826950657e-07 1.4462074073613444e-06 0 1.4815353427046706e-06 2.210061515834909e-06 0 5.8997807826950657e-07 1.4462074073613444e-06 0 9.4177672160943763e-07 2.5196984203606014e-06 0 1.4815353427046706e-06 2.210061515834909e-06 0 9.4177672160943753e-07 2.519698420360601e-06 0 2.1970826636196342e-06 2.9121769867429411e-06 0 1.4815353427046706e-06 2.210061515834909e-06 0 2.1970826636196342e-06 2.9121769867429411e-06 0 2.5625110430993387e-06 2.3085344104218115e-06 0 1.4815353427046706e-06 2.210061515834909e-06 0 2.5625110430993387e-06 2.3085344104218115e-06 0 1.0259438518745094e-06 1.3610829116888867e-06 0 1.4815353427046706e-06 2.210061515834909e-06 0 1.0259438518745094e-06 1.3610829116888865e-06 0 5.8997807826950657e-07 1.4462074073613444e-06 0 6.8968963458116046e-10 6.594477116521946e-10 0 5.8997807826950657e-07 1.4462074073613444e-06 0 1.0259438518745094e-06 1.3610829116888867e-06 0 6.8968963458116046e-10 6.594477116521946e-10 0 4.0502272514936933e-10 6.5521049420434891e-10 0 5.8997807826950657e-07 1.4462074073613444e-06 0 4.0502272514936933e-10 6.5521049420434891e-10 0 2.1438573026156049e-07 1.6672294228228693e-06 0 5.8997807826950657e-07 1.4462074073613444e-06 0 4.0502272514936933e-10 6.5521049420434891e-10 0 -2.9002892590245934e-11 7.4489011321451151e-10 0 2.1438573026156049e-07 1.6672294228228693e-06 0 -2.9002892590245934e-11 7.4489011321451151e-10 0 -1.9381740960273639e-07 1.5258787554761581e-06 0 2.1438573026156049e-07 1.6672294228228693e-06 0 2.137471687527232e-06 1.5024363933599833e-06 0 3.5486861307497481e-06 1.6237259096302686e-06 0 2.2014759462229054e-06 8.7991074883619363e-07 0 4.3094395029265441e-06 1.1781007893019158e-06 0 2.2014759462229054e-06 8.7991074883619363e-07 0 3.5486861307497481e-06 1.6237259096302688e-06 0 3.5486861307497481e-06 1.6237259096302688e-06 0 2.137471687527232e-06 1.5024363933599833e-06 0 3.8524686460331833e-06 2.2420311250459372e-06 0 2.137471687527232e-06 1.5024363933599833e-06 0 2.5625110430993387e-06 2.3085344104218115e-06 0 3.8524686460331833e-06 2.2420311250459372e-06 0 2.137471687527232e-06 1.5024363933599833e-06 0 1.0259438518745094e-06 1.3610829116888867e-06 0 2.5625110430993387e-06 2.3085344104218115e-06 0 2.137471687527232e-06 1.5024363933599833e-06 0 8.8190412504294712e-07 8.3305285535808592e-07 0 1.0259438518745094e-06 1.3610829116888867e-06 0 1.0924424720427695e-09 4.3909363434892965e-10 0 6.8968963458116046e-10 6.594477116521946e-10 0 1.0259438518745094e-06 1.3610829116888867e-06 0 1.0924424720427695e-09 4.3909363434892965e-10 0 1.0259438518745094e-06 1.3610829116888867e-06 0 8.8190412504294723e-07 8.3305285535808603e-07 0 1.2905969207369532e-09 3.7010822736972028e-10 0 1.0924424720427695e-09 4.3909363434892965e-10 0 8.8190412504294723e-07 8.3305285535808603e-07 0 1.2905969207369532e-09 3.7010822736972028e-10 0 8.8190412504294733e-07 8.3305285535808613e-07 0 9.3309157435636142e-07 6.225990254444377e-07 0 1.3902874608361417e-09 3.0793306128232514e-10 0 9.3309157435636142e-07 6.225990254444377e-07 0 2.2014759462229054e-06 8.7991074883619363e-07 0 2.137471687527232e-06 1.5024363933599833e-06 0 2.2014759462229054e-06 8.7991074883619363e-07 0 9.3309157435636142e-07 6.225990254444377e-07 0 2.137471687527232e-06 1.5024363933599833e-06 0 9.3309157435636142e-07 6.225990254444377e-07 0 8.8190412504294723e-07 8.3305285535808603e-07 0 1.3902874608361417e-09 3.0793306128232514e-10 0 1.2905969207369532e-09 3.7010822736972028e-10 0 9.3309157435636142e-07 6.225990254444377e-07 0 1.3902874608361417e-09 3.0793306128232514e-10 0 2.2014759462229054e-06 8.7991074883619363e-07 0 1.4329867118106502e-06 2.5646870281385474e-07 0 1.5016248480833008e-09 -9.4945747457891515e-11 0 1.3902874608362199e-09 3.0793306128233915e-10 0 1.4329867118106502e-06 2.5646870281385474e-07 0 1.5016248480833008e-09 -9.4945747457891515e-11 0 1.4329867118106502e-06 2.5646870281385474e-07 0 1.0935073007447702e-06 -1.0468024394333521e-07 0 2.7182643670773759e-06 -2.6256736206732453e-08 0 1.0935073007447702e-06 -1.0468024394333521e-07 0 1.4329867118106502e-06 2.5646870281385474e-07 0 2.2014759462229054e-06 8.7991074883619363e-07 0 2.9742721468247374e-06 4.9578373302895248e-07 0 1.4329867118106502e-06 2.5646870281385474e-07 0 4.3094395029265441e-06 1.1781007893019158e-06 0 2.9742721468247365e-06 4.9578373302895248e-07 0 2.2014759462229054e-06 8.7991074883619363e-07 0 2.7182643670773759e-06 -2.6256736206732453e-08 0 1.4329867118106502e-06 2.5646870281385474e-07 0 2.9742721468247365e-06 4.9578373302895248e-07 0 2.7182643670773759e-06 -2.6256736206732453e-08 0 2.9742721468247365e-06 4.9578373302895248e-07 0 4.3144089435225267e-06 1.7701043065597389e-07 0 2.9742721468247365e-06 4.9578373302895248e-07 0 4.3094395029265441e-06 1.1781007893019158e-06 0 4.3144089435225267e-06 1.7701043065597389e-07 0 2.7182643670773759e-06 -2.6256736206732453e-08 0 4.3144089435225267e-06 1.7701043065597389e-07 0 3.6645105778173236e-06 -6.1785210873054481e-07 0 2.693833009419295e-06 -1.2593166785182883e-06 0 1.5682002386034996e-06 -5.6514785549795781e-07 0 3.6645105778173236e-06 -6.1785210873054481e-07 0 2.7182643670773759e-06 -2.6256736206732453e-08 0 3.6645105778173236e-06 -6.1785210873054481e-07 0 1.5682002386034996e-06 -5.6514785549795781e-07 0 2.7182643670773759e-06 -2.6256736206732453e-08 0 1.5682002386034996e-06 -5.6514785549795781e-07 0 1.0935073007447702e-06 -1.0468024394333521e-07 0 1.5298786299301872e-09 1.7354200242220483e-11 0 1.5016248480831007e-09 -9.4945747457872334e-11 0 1.0935073007447702e-06 -1.0468024394333521e-07 0 1.1884643332503257e-09 -4.8465952937593362e-10 0 1.5298786299301872e-09 1.7354200242220483e-11 0 1.5682002386034996e-06 -5.6514785549795781e-07 0 1.5298786299301872e-09 1.7354200242220483e-11 0 1.0935073007447702e-06 -1.0468024394333528e-07 0 1.5682002386034996e-06 -5.6514785549795781e-07 0 8.7530265105919938e-10 -6.1449907201857484e-10 0 1.1884643332503257e-09 -4.8465952937593362e-10 0 1.2133639350697401e-06 -1.0951712870827681e-06 0 2.693833009419295e-06 -1.2593166785182883e-06 0 1.2133639350697403e-06 -1.0951712870827681e-06 0 1.5682002386034996e-06 -5.6514785549795781e-07 0 1.1884643332503257e-09 -4.8465952937593362e-10 0 1.5682002386034996e-06 -5.6514785549795781e-07 0 1.2133639350697401e-06 -1.0951712870827681e-06 0 3.7906777298844433e-10 -9.1038413475959591e-10 0 8.7530265105919938e-10 -6.1449907201857484e-10 0 7.8345322546441148e-07 -1.7253888180000505e-06 0 8.7530265105919938e-10 -6.1449907201857484e-10 0 1.2133639350697401e-06 -1.0951712870827681e-06 0 7.8345322546441148e-07 -1.7253888180000505e-06 0 3.7906777298844433e-10 -9.1038413475959591e-10 0 7.8345322546441148e-07 -1.7253888180000505e-06 0 1.7581053298707739e-07 -1.8699987514291489e-06 0 7.8345322546441148e-07 -1.7253888180000505e-06 0 2.6092697957456638e-06 -2.1997330695214588e-06 0 9.8883265412632166e-07 -2.9336028853631547e-06 0 2.3339919555527679e-06 -2.8777550817813826e-06 0 9.8883265412632166e-07 -2.9336028853631547e-06 0 2.6092697957456638e-06 -2.1997330695214588e-06 0 7.8345322546441148e-07 -1.7253888180000505e-06 0 1.2133639350697401e-06 -1.0951712870827681e-06 0 2.6092697957456638e-06 -2.1997330695214588e-06 0 2.3339919555527679e-06 -2.8777550817813826e-06 0 1.9073456510288208e-06 -3.3240726152287713e-06 0 9.8883265412632166e-07 -2.9336028853631547e-06 0 2.693833009419295e-06 -1.2593166785182883e-06 0 2.6092697957456638e-06 -2.1997330695214588e-06 0 1.2133639350697401e-06 -1.0951712870827681e-06 0 2.693833009419295e-06 -1.2593166785182883e-06 0 4.2356527635094681e-06 -1.2092800156907476e-06 0 2.6092697957456638e-06 -2.1997330695214588e-06 0 2.693833009419295e-06 -1.2593166785182883e-06 0 3.6645105778173236e-06 -6.1785210873054481e-07 0 4.2356527635094681e-06 -1.2092800156907476e-06 0 5.6697315303349371e-06 -1.5426480315592136e-06 0 2.6092697957456638e-06 -2.1997330695214588e-06 0 4.2356527635094681e-06 -1.2092800156907476e-06 0 6.1544742036405753e-06 -2.7411936990978979e-07 0 5.6697315303349371e-06 -1.5426480315592136e-06 0 4.2356527635094681e-06 -1.2092800156907476e-06 0 6.1544742036405753e-06 -2.7411936990978979e-07 0 8.0675349306862192e-06 -3.4003941631230342e-08 0 5.6697315303349371e-06 -1.5426480315592136e-06 0 5.6697315303349371e-06 -1.5426480315592136e-06 0 3.9217711085290857e-06 -2.5440393268893942e-06 0 2.6092697957456638e-06 -2.1997330695214588e-06 0 2.3339919555527679e-06 -2.8777550817813826e-06 0 3.9217711085290857e-06 -2.5440393268893942e-06 0 1.9073456510288208e-06 -3.3240726152287713e-06 0 2.3339919555527679e-06 -2.8777550817813826e-06 0 2.6092697957456638e-06 -2.1997330695214588e-06 0 3.9217711085290857e-06 -2.5440393268893942e-06 0 5.6697315303349371e-06 -1.5426480315592136e-06 0 5.3845340300129874e-06 -2.1677267952620732e-06 0 3.9217711085290857e-06 -2.5440393268893942e-06 0 2.6781277242621444e-06 -3.3486474490383173e-06 0 1.9073456510288208e-06 -3.3240726152287713e-06 0 3.9217711085290857e-06 -2.5440393268893942e-06 0 2.6781277242621444e-06 -3.3486474490383173e-06 0 3.9217711085290857e-06 -2.5440393268893942e-06 0 5.3845340300129874e-06 -2.1677267952620732e-06 0 2.6781277242621444e-06 -3.3486474490383173e-06 0 5.3845340300129874e-06 -2.1677267952620732e-06 0 6.0969983377306451e-06 -1.9278574554927514e-06 0 8.3370419437802005e-06 -7.1334862690107239e-07 0 6.0969983377306451e-06 -1.9278574554927514e-06 0 5.3845340300129874e-06 -2.1677267952620732e-06 0 8.3370419437802005e-06 -7.1334862690107239e-07 0 9.243771013993596e-06 -1.1834400424484394e-07 0 6.0969983377306451e-06 -1.9278574554927514e-06 0 6.1411204143421997e-06 -1.2363405164416774e-06 0 2.3016592034899114e-06 -2.9360721054142199e-06 0 6.0969983377306451e-06 -1.9278574554927514e-06 0 6.1411204143421997e-06 -1.2363405164416774e-06 0 6.0969983377306451e-06 -1.9278574554927514e-06 0 9.2437710139935943e-06 -1.1834400424484424e-07 0 8.3370419437802005e-06 -7.1334862690107239e-07 0 5.6697315303349371e-06 -1.5426480315592136e-06 0 8.0675349306862192e-06 -3.4003941631230342e-08 0 8.3370419437802005e-06 -7.1334862690107239e-07 0 5.3845340300129874e-06 -2.1677267952620732e-06 0 5.6697315303349371e-06 -1.5426480315592136e-06 0 8.3370419437802005e-06 -7.1334862690107239e-07 0 8.0675349306862192e-06 -3.4003941631230342e-08 0 1.0472597754091699e-05 8.9698009993867732e-07 0 8.3370419437802005e-06 -7.1334862690107239e-07 0 1.0472597754091699e-05 8.9698009993867732e-07 0 1.2048067698735388e-05 1.5026847099501901e-06 0 9.5686177737780736e-06 1.2208149989093481e-06 0 1.0472597754091699e-05 8.9698009993867732e-07 0 8.0675349306862192e-06 -3.4003941631230342e-08 0 1.1699982986681054e-05 1.9339649320601413e-06 0 1.0472597754091699e-05 8.9698009993867732e-07 0 9.5686177737780736e-06 1.2208149989093481e-06 0 9.5686177737780736e-06 1.2208149989093481e-06 0 8.0675349306862192e-06 -3.4003941631230342e-08 0 7.4749128630936471e-06 6.2068703025010427e-07 0 7.9207066692390291e-06 1.5506853869026184e-06 0 9.5686177737780736e-06 1.2208149989093479e-06 0 7.4749128630936471e-06 6.2068703025010427e-07 0 1.1699982986681054e-05 1.9339649320601413e-06 0 9.5686177737780736e-06 1.2208149989093481e-06 0 1.039627953603144e-05 2.0908945819549825e-06 0 7.9207066692390291e-06 1.5506853869026184e-06 0 1.039627953603144e-05 2.0908945819549825e-06 0 9.5686177737780736e-06 1.2208149989093481e-06 0 7.9207066692390291e-06 1.5506853869026184e-06 0 8.80008963877149e-06 2.2335382017000154e-06 0 1.039627953603144e-05 2.0908945819549825e-06 0 7.9207066692390291e-06 1.5506853869026184e-06 0 6.1141266601932287e-06 1.5421284998479752e-06 0 6.8117065460872801e-06 2.0618211838824345e-06 0 7.9207066692390291e-06 1.5506853869026184e-06 0 6.8117065460872801e-06 2.0618211838824345e-06 0 8.80008963877149e-06 2.2335382017000154e-06 0 7.9207066692390291e-06 1.5506853869026184e-06 0 7.4749128630936471e-06 6.2068703025010427e-07 0 5.7622746897840051e-06 7.1577716590195992e-07 0 7.9207066692390291e-06 1.5506853869026184e-06 0 5.7622746897840051e-06 7.1577716590195992e-07 0 6.1141266601932287e-06 1.5421284998479752e-06 0 4.3094395029265441e-06 1.1781007893019158e-06 0 6.1141266601932287e-06 1.5421284998479752e-06 0 5.7622746897840051e-06 7.1577716590195992e-07 0 4.3144089435225267e-06 1.7701043065597389e-07 0 4.3094395029265441e-06 1.1781007893019158e-06 0 5.7622746897840051e-06 7.1577716590195992e-07 0 6.1544742036405753e-06 -2.7411936990978979e-07 0 4.3144089435225267e-06 1.7701043065597389e-07 0 5.7622746897840051e-06 7.1577716590195992e-07 0 6.1544742036405753e-06 -2.7411936990978979e-07 0 3.6645105778173236e-06 -6.1785210873054481e-07 0 4.3144089435225267e-06 1.7701043065597389e-07 0 6.1544742036405753e-06 -2.7411936990978979e-07 0 4.2356527635094681e-06 -1.2092800156907476e-06 0 3.6645105778173236e-06 -6.1785210873054481e-07 0 7.4749128630936471e-06 6.2068703025010427e-07 0 8.0675349306862192e-06 -3.4003941631230342e-08 0 6.1544742036405753e-06 -2.7411936990978979e-07 0 6.1544742036405753e-06 -2.7411936990978979e-07 0 5.7622746897840051e-06 7.1577716590195992e-07 0 7.4749128630936471e-06 6.2068703025010427e-07 0 -9.1822957334537537e-06 -1.7416434962432444e-06 0 -5.2604605033346316e-06 -1.3055640285148921e-06 0 -5.1453227608700266e-06 -2.3606582018911579e-06 0 -3.1384782241472282e-06 -2.7233889547172158e-06 0 -5.1453227608700266e-06 -2.3606582018911579e-06 0 -2.3533322112950466e-06 -1.3934060459543547e-06 0 -2.2274115738917211e-06 -3.872985768455354e-07 0 -2.3533322112950466e-06 -1.3934060459543547e-06 0 -5.2604605033346316e-06 -1.3055640285148921e-06 0 -5.2604605033346316e-06 -1.3055640285148921e-06 0 -2.3533322112950466e-06 -1.3934060459543547e-06 0 -5.1453227608700266e-06 -2.3606582018911579e-06 0 -2.2274115738917211e-06 -3.872985768455354e-07 0 -1.0223319747415283e-06 -4.3807627901630741e-07 0 -2.3533322112950466e-06 -1.3934060459543547e-06 0 -1.6960896359658318e-09 6.9343158450156173e-10 0 -1.0223319747415283e-06 -4.3807627901630741e-07 0 -2.2274115738917211e-06 -3.872985768455354e-07 0 -1.6960896359658318e-09 6.9343158450156173e-10 0 -1.9205900797321716e-09 -7.4624331310043864e-10 0 -1.0223319747415283e-06 -4.3807627901630741e-07 0 -1.9205900797321716e-09 -7.4624331310043864e-10 0 -2.3533322112950466e-06 -1.3934060459543547e-06 0 -1.0223319747415283e-06 -4.3807627901630741e-07 0 -1.9205900797321716e-09 -7.4624331310043864e-10 0 -1.4128568242167912e-06 -1.7464343419700643e-06 0 -2.3533322112950466e-06 -1.3934060459543547e-06 0 -3.1384782241472282e-06 -2.7233889547172158e-06 0 -2.3533322112950466e-06 -1.3934060459543547e-06 0 -1.4128568242167908e-06 -1.7464343419700643e-06 0 -1.9205900797321716e-09 -7.4624331310043864e-10 0 -1.7195584732920316e-09 -4.8395485750251075e-10 0 -1.4128568242167908e-06 -1.7464343419700643e-06 0 -1.7195584732923521e-09 -4.8395485750290738e-10 0 -7.5538601521433723e-10 -1.2621338724578981e-09 0 -1.4128568242167908e-06 -1.7464343419700643e-06 0 -3.1384782241472282e-06 -2.7233889547172158e-06 0 -1.4128568242167908e-06 -1.7464343419700643e-06 0 -1.3920453943297494e-06 -2.6877879062953509e-06 0 -3.1384782241472282e-06 -2.7233889547172158e-06 0 -1.3920453943297496e-06 -2.6877879062953509e-06 0 -2.8589709736511055e-06 -3.5824900022857131e-06 0 -3.1384782241472282e-06 -2.7233889547172158e-06 0 -4.8518586283346224e-06 -3.5552048835003706e-06 0 -5.1453227608700266e-06 -2.3606582018911579e-06 0 -7.3829802029195358e-06 -3.1501207151573796e-06 0 -5.1453227608700266e-06 -2.3606582018911579e-06 0 -4.8518586283346224e-06 -3.5552048835003706e-06 0 -3.1378672527494207e-06 -4.1606771321570055e-06 0 -4.8518586283346224e-06 -3.5552048835003706e-06 0 -2.8589709736511055e-06 -3.5824900022857131e-06 0 -3.1384782241472282e-06 -2.7233889547172158e-06 0 -2.8589709736511055e-06 -3.5824900022857131e-06 0 -4.8518586283346224e-06 -3.5552048835003706e-06 0 -3.1378672527494207e-06 -4.1606771321570055e-06 0 -2.8589709736511055e-06 -3.5824900022857131e-06 0 -1.5966296355160346e-06 -3.7315231782790175e-06 0 -2.9152857654948847e-07 -3.1071591885082353e-06 0 -1.5966296355160346e-06 -3.7315231782790175e-06 0 -1.3920453943297494e-06 -2.6877879062953509e-06 0 -1.3920453943297494e-06 -2.6877879062953509e-06 0 -1.5966296355160344e-06 -3.7315231782790175e-06 0 -2.8589709736511055e-06 -3.5824900022857131e-06 0 -7.5538601521433723e-10 -1.2621338724578981e-09 0 -3.2965265025714768e-07 -1.7444752490014534e-06 0 -1.3920453943297494e-06 -2.6877879062953509e-06 0 -7.5538601521433723e-10 -1.2621338724578981e-09 0 -1.3920453943297494e-06 -2.6877879062953509e-06 0 -1.4128568242167908e-06 -1.7464343419700643e-06 0 -7.5538601521433723e-10 -1.2621338724578981e-09 0 -2.4997685620069753e-10 -8.3491613907941686e-10 0 -3.2965265025714768e-07 -1.7444752490014534e-06 0 -2.9152857654948847e-07 -3.1071591885082353e-06 0 -1.3920453943297496e-06 -2.6877879062953505e-06 0 -3.2965265025714768e-07 -1.7444752490014534e-06 0 -2.9152857654948847e-07 -3.1071591885082353e-06 0 -3.2965265025714768e-07 -1.7444752490014534e-06 0 1.7581053298707739e-07 -1.8699987514291489e-06 0 -2.4997685620069753e-10 -8.3491613907941686e-10 0 1.7581053298707739e-07 -1.8699987514291489e-06 0 -3.2965265025714768e-07 -1.7444752490014534e-06 0 -2.4997685620069753e-10 -8.3491613907941686e-10 0 3.7906777298844433e-10 -9.1038413475959591e-10 0 1.7581053298707739e-07 -1.8699987514291489e-06 0 7.8345322546441148e-07 -1.7253888180000505e-06 0 9.8883265412632166e-07 -2.9336028853631547e-06 0 1.7581053298707739e-07 -1.8699987514291489e-06 0 -2.9152857654948847e-07 -3.1071591885082353e-06 0 1.7581053298707739e-07 -1.8699987514291489e-06 0 9.8883265412632166e-07 -2.9336028853631547e-06 0 -2.9152857654948847e-07 -3.1071591885082353e-06 0 -1.6953385754997772e-08 -3.938748261865265e-06 0 -1.5966296355160346e-06 -3.7315231782790175e-06 0 -2.9152857654948847e-07 -3.1071591885082353e-06 0 9.8883265412632166e-07 -2.9336028853631547e-06 0 -1.6953385754997772e-08 -3.938748261865265e-06 0 -1.6953385754997772e-08 -3.938748261865265e-06 0 9.8883265412632166e-07 -2.9336028853631547e-06 0 1.9073456510288208e-06 -3.3240726152287713e-06 0 2.6781277242621444e-06 -3.3486474490383173e-06 0 -1.6953385754997772e-08 -3.938748261865265e-06 0 1.9073456510288208e-06 -3.3240726152287713e-06 0 2.6781277242621444e-06 -3.3486474490383173e-06 0 -1.2102027099129792e-06 -4.1142775223083286e-06 0 -1.6953385754997772e-08 -3.938748261865265e-06 0 2.6781277242621444e-06 -3.3486474490383173e-06 0 6.0969983377306451e-06 -1.9278574554927514e-06 0 2.3016592034899114e-06 -2.9360721054142199e-06 0 -1.3959430771838002e-06 -3.4070260774140591e-06 0 2.3016592034899114e-06 -2.9360721054142199e-06 0 -6.9674888450041025e-07 -2.0635674163888906e-06 0 -1.3959430771838002e-06 -3.4070260774140591e-06 0 -1.2102027099129792e-06 -4.1142775223083286e-06 0 2.3016592034899114e-06 -2.9360721054142199e-06 0 2.6781277242621444e-06 -3.3486474490383173e-06 0 2.3016592034899114e-06 -2.9360721054142199e-06 0 -1.2102027099129792e-06 -4.1142775223083286e-06 0 -1.3959430771838002e-06 -3.4070260774140591e-06 0 -5.2837328334032155e-06 -3.9717577589411909e-06 0 -1.2102027099129792e-06 -4.1142775223083286e-06 0 -1.3959430771838002e-06 -3.4070260774140591e-06 0 -6.9674888450041025e-07 -2.0635674163888906e-06 0 -5.35982236658434e-06 -2.8953214096681393e-06 0 -1.3959430771838002e-06 -3.4070260774140591e-06 0 -5.35982236658434e-06 -2.8953214096681393e-06 0 -5.2837328334032155e-06 -3.9717577589411909e-06 0 -3.1378672527494207e-06 -4.1606771321570055e-06 0 -1.2102027099129792e-06 -4.1142775223083286e-06 0 -5.2837328334032155e-06 -3.9717577589411909e-06 0 -3.1378672527494207e-06 -4.1606771321570055e-06 0 -5.2837328334032155e-06 -3.9717577589411909e-06 0 -6.0665329556646808e-06 -3.8528662054605091e-06 0 -3.1378672527494207e-06 -4.1606771321570055e-06 0 -1.6953385754997772e-08 -3.938748261865265e-06 0 -1.2102027099129792e-06 -4.1142775223083286e-06 0 -3.1378672527494207e-06 -4.1606771321570055e-06 0 -1.5966296355160346e-06 -3.7315231782790175e-06 0 -1.6953385754997772e-08 -3.938748261865265e-06 0 -3.1378672527494207e-06 -4.1606771321570055e-06 0 -6.0665329556646808e-06 -3.8528662054605091e-06 0 -4.8518586283346224e-06 -3.5552048835003706e-06 0 -7.3829802029195358e-06 -3.1501207151573796e-06 0 -4.8518586283346224e-06 -3.5552048835003706e-06 0 -6.0665329556646808e-06 -3.8528662054605091e-06 0 -9.3584667272194226e-06 -3.2703832174309548e-06 0 -7.382980202919535e-06 -3.1501207151573796e-06 0 -6.0665329556646808e-06 -3.8528662054605091e-06 0 -9.3584667272194226e-06 -3.2703832174309548e-06 0 -6.0665329556646808e-06 -3.8528662054605091e-06 0 -5.2837328334032155e-06 -3.9717577589411909e-06 0 -9.3584667272194226e-06 -3.2703832174309548e-06 0 -5.2837328334032155e-06 -3.9717577589411909e-06 0 -1.1064714658095134e-05 -2.3451502440090416e-06 0 -5.2837328334032155e-06 -3.9717577589411909e-06 0 -5.3598223665843392e-06 -2.8953214096681397e-06 0 -1.1064714658095134e-05 -2.3451502440090416e-06 0 -9.3584667272194226e-06 -3.2703832174309548e-06 0 -1.1064714658095134e-05 -2.3451502440090416e-06 0 -1.4427700060411554e-05 -1.7433752321414579e-06 0 -9.3584667272194226e-06 -3.2703832174309548e-06 0 -1.4427700060411554e-05 -1.7433752321414579e-06 0 -1.1062804430253119e-05 -2.4859542800464252e-06 0 -1.8332947023867746e-05 3.422222273260489e-07 0 -1.4427700060411554e-05 -1.7433752321414579e-06 0 -1.1064714658095134e-05 -2.3451502440090416e-06 0 -1.9784320730353814e-05 6.9690498014345552e-07 0 -1.3992901302773154e-05 -1.1140172459766184e-06 0 -1.4427700060411554e-05 -1.7433752321414579e-06 0 -1.3992901302773154e-05 -1.1140172459766184e-06 0 -1.1062804430253119e-05 -2.4859542800464252e-06 0 -1.4427700060411554e-05 -1.7433752321414579e-06 0 -1.3992901302773154e-05 -1.1140172459766184e-06 0 -9.1822957334537537e-06 -1.7416434962432444e-06 0 -1.1062804430253119e-05 -2.4859542800464252e-06 0 -9.3584667272194226e-06 -3.2703832174309548e-06 0 -1.1062804430253119e-05 -2.4859542800464252e-06 0 -7.3829802029195358e-06 -3.1501207151573796e-06 0 -9.1822957334537537e-06 -1.7416434962432444e-06 0 -7.3829802029195358e-06 -3.1501207151573796e-06 0 -1.1062804430253119e-05 -2.4859542800464252e-06 0 -9.1822957334537537e-06 -1.7416434962432444e-06 0 -5.1453227608700274e-06 -2.3606582018911583e-06 0 -7.3829802029195358e-06 -3.1501207151573796e-06 0 -3.4450636571093788e-05 1.0193363295356704e-05 0 -2.4170439574640065e-05 4.8158559056086062e-06 0 -3.0373737253771571e-05 1.0030456130358541e-05 0 -4.3721234025025159e-05 1.8704023102282927e-05 0 -3.4450636571093788e-05 1.0193363295356704e-05 0 -3.0373737253771571e-05 1.0030456130358541e-05 0 -2.1003135080425173e-05 7.4100723019005136e-06 0 -3.0373737253771571e-05 1.0030456130358541e-05 0 -2.4170439574640065e-05 4.8158559056086062e-06 0 -2.1003135080425173e-05 7.4100723019005136e-06 0 -3.0469171570266802e-05 1.5163949411097347e-05 0 -3.0373737253771571e-05 1.0030456130358541e-05 0 -3.4450636571093788e-05 1.0193363295356704e-05 0 -2.6501311367256352e-05 4.2701737091045133e-06 0 -2.4170439574640065e-05 4.8158559056086062e-06 0 -2.6501311367256352e-05 4.2701737091045133e-06 0 -1.9784320730353814e-05 6.9690498014345552e-07 0 -1.8332947023867746e-05 3.422222273260489e-07 0 -1.9784320730353814e-05 6.9690498014345552e-07 0 -1.4427700060411554e-05 -1.7433752321414579e-06 0 -1.8332947023867746e-05 3.422222273260489e-07 0 -2.6501311367256352e-05 4.2701737091045133e-06 0 -1.8332947023867746e-05 3.4222222732604896e-07 0 -2.4170439574640065e-05 4.8158559056086062e-06 0 -1.8332947023867746e-05 3.422222273260489e-07 0 -1.3919626494198062e-05 1.3242867690607737e-06 0 -2.4170439574640065e-05 4.8158559056086062e-06 0 -8.9142085296916355e-06 -1.3458120036284126e-06 0 -1.3919626494198064e-05 1.3242867690607743e-06 0 -1.1064714658095134e-05 -2.3451502440090416e-06 0 -1.8332947023867746e-05 3.422222273260489e-07 0 -1.1064714658095134e-05 -2.3451502440090416e-06 0 -1.3919626494198064e-05 1.3242867690607743e-06 0 -8.9142085296916355e-06 -1.3458120036284126e-06 0 -1.1064714658095134e-05 -2.3451502440090416e-06 0 -5.35982236658434e-06 -2.8953214096681393e-06 0 -2.1003135080425173e-05 7.4100723019005136e-06 0 -1.3919626494198064e-05 1.3242867690607743e-06 0 -1.3087787062026738e-05 6.47903770259516e-06 0 -2.1003135080425173e-05 7.4100723019005136e-06 0 -2.4170439574640065e-05 4.8158559056086062e-06 0 -1.3919626494198064e-05 1.3242867690607743e-06 0 -2.1003135080425173e-05 7.4100723019005136e-06 0 -1.3087787062026738e-05 6.47903770259516e-06 0 -1.91632085235377e-05 1.346035820613781e-05 0 -1.3087787062026738e-05 6.47903770259516e-06 0 -5.4083439249117319e-06 2.8301662998379145e-06 0 -5.7526633054222512e-06 1.0737659337961408e-05 0 -5.4083439249117319e-06 2.8301662998379149e-06 0 9.1906797189326102e-07 4.888091172367052e-06 0 -5.7526633054222512e-06 1.0737659337961408e-05 0 -5.4083439249117319e-06 2.8301662998379149e-06 0 1.0741247934660856e-07 5.4076345756932449e-07 0 9.1906797189326102e-07 4.888091172367052e-06 0 -5.4083439249117319e-06 2.8301662998379149e-06 0 -1.3087787062026738e-05 6.47903770259516e-06 0 -1.3919626494198064e-05 1.3242867690607743e-06 0 -5.4083439249117319e-06 2.8301662998379149e-06 0 -1.3919626494198064e-05 1.3242867690607743e-06 0 -5.0673765090298132e-06 -4.9959973709581038e-07 0 -8.9142085296916355e-06 -1.3458120036284126e-06 0 -5.0673765090298132e-06 -4.9959973709581038e-07 0 -1.3919626494198064e-05 1.3242867690607743e-06 0 -8.9142085296916355e-06 -1.3458120036284126e-06 0 -5.35982236658434e-06 -2.8953214096681393e-06 0 -5.0673765090298132e-06 -4.9959973709581038e-07 0 -6.9674888450041025e-07 -2.0635674163888906e-06 0 -5.0673765090298132e-06 -4.9959973709581028e-07 0 -5.35982236658434e-06 -2.8953214096681393e-06 0 -6.9674888450041025e-07 -2.0635674163888906e-06 0 1.074124793466076e-07 5.4076345756932417e-07 0 -5.0673765090298132e-06 -4.9959973709581038e-07 0 -5.4083439249117319e-06 2.8301662998379149e-06 0 -5.0673765090298124e-06 -4.995997370958106e-07 0 1.0741247934660856e-07 5.4076345756932449e-07 0 -6.9674888450041025e-07 -2.0635674163888906e-06 0 3.858136396338913e-06 -8.7124811542882955e-07 0 1.0741247934660856e-07 5.4076345756932449e-07 0 5.7524860297934484e-06 2.4695173552810733e-06 0 1.0741247934660856e-07 5.4076345756932449e-07 0 3.8581363963389121e-06 -8.7124811542882945e-07 0 -6.9674888450041025e-07 -2.0635674163888906e-06 0 2.3016592034899114e-06 -2.9360721054142199e-06 0 3.8581363963389121e-06 -8.7124811542882945e-07 0 6.1411204143421997e-06 -1.2363405164416774e-06 0 8.4197174629368075e-06 7.4822233723164648e-07 0 3.8581363963389121e-06 -8.7124811542882945e-07 0 6.1411204143421997e-06 -1.2363405164416774e-06 0 3.8581363963389121e-06 -8.7124811542882955e-07 0 2.3016592034899114e-06 -2.9360721054142199e-06 0 5.7524860297934484e-06 2.4695173552810733e-06 0 3.8581363963389113e-06 -8.7124811542882987e-07 0 8.4197174629368075e-06 7.4822233723164648e-07 0 5.7524860297934484e-06 2.4695173552810733e-06 0 8.4197174629368075e-06 7.4822233723164648e-07 0 1.2239039244878349e-05 4.6765367614425475e-06 0 5.7524860297934484e-06 2.4695173552810733e-06 0 9.1906797189326102e-07 4.888091172367052e-06 0 1.0741247934660856e-07 5.4076345756932449e-07 0 5.7524860297934484e-06 2.4695173552810733e-06 0 7.1764946012140605e-06 8.0214714885431964e-06 0 9.1906797189326102e-07 4.888091172367052e-06 0 5.7524860297934484e-06 2.4695173552810733e-06 0 1.2239039244878349e-05 4.6765367614425475e-06 0 7.1764946012140622e-06 8.0214714885431964e-06 0 1.6460143244738497e-05 9.6548086045402297e-06 0 1.2012721736807388e-05 1.3719199128525477e-05 0 7.1764946012140622e-06 8.0214714885431964e-06 0 1.6460143244738497e-05 9.6548086045402297e-06 0 7.1764946012140622e-06 8.0214714885431964e-06 0 1.2239039244878349e-05 4.6765367614425475e-06 0 -5.7526633054222512e-06 1.0737659337961408e-05 0 7.1764946012140622e-06 8.0214714885431964e-06 0 3.1246912083084604e-06 1.5391250036091589e-05 0 -5.7526633054222512e-06 1.0737659337961408e-05 0 9.1906797189326102e-07 4.888091172367052e-06 0 7.1764946012140622e-06 8.0214714885431964e-06 0 7.1764946012140622e-06 8.0214714885431964e-06 0 1.2012721736807388e-05 1.3719199128525477e-05 0 3.1246912083084604e-06 1.5391250036091589e-05 0 8.6247541381309838e-06 2.3802528585153546e-05 0 1.201272173680739e-05 1.3719199128525476e-05 0 2.0634265853796093e-05 1.6935736746470292e-05 0 8.6247541381309838e-06 2.3802528585153546e-05 0 2.0634265853796093e-05 1.6935736746470292e-05 0 1.8659843363414578e-05 3.5278198384288858e-05 0 8.6247541381309838e-06 2.3802528585153546e-05 0 1.8659843363414578e-05 3.5278198384288858e-05 0 7.7787006778427245e-06 3.8701553714048009e-05 0 8.6247541381309838e-06 2.3802528585153546e-05 0 7.7787006778427228e-06 3.8701553714048009e-05 0 -4.3120845063141977e-06 4.0964939599874085e-05 0 8.6247541381309838e-06 2.3802528585153546e-05 0 -8.0041650582044412e-06 2.4946182442543506e-05 0 3.1246912083084604e-06 1.5391250036091589e-05 0 8.6247541381309838e-06 2.3802528585153546e-05 0 3.1246912083084617e-06 1.5391250036091585e-05 0 1.2012721736807388e-05 1.3719199128525477e-05 0 8.6247541381309838e-06 2.3802528585153546e-05 0 -4.3120845063141977e-06 4.0964939599874085e-05 0 -8.0041650582044412e-06 2.4946182442543506e-05 0 -2.1303599317733515e-05 4.2098448073059324e-05 0 -8.0041650582044412e-06 2.4946182442543506e-05 0 -4.3120845063141977e-06 4.0964939599874085e-05 0 -2.1303599317733515e-05 4.2098448073059324e-05 0 -1.8046488407221611e-05 2.2207813908275774e-05 0 -8.0041650582044412e-06 2.4946182442543506e-05 0 -5.7526633054222512e-06 1.0737659337961408e-05 0 -8.0041650582044378e-06 2.4946182442543506e-05 0 -1.8046488407221614e-05 2.2207813908275774e-05 0 -5.7526633054222512e-06 1.0737659337961408e-05 0 -1.8046488407221614e-05 2.2207813908275774e-05 0 -1.91632085235377e-05 1.346035820613781e-05 0 -5.7526633054222512e-06 1.0737659337961408e-05 0 3.12469120830846e-06 1.5391250036091592e-05 0 -8.0041650582044412e-06 2.4946182442543506e-05 0 -5.7526633054222512e-06 1.0737659337961408e-05 0 -1.91632085235377e-05 1.346035820613781e-05 0 -1.3087787062026738e-05 6.47903770259516e-06 0 -2.1003135080425173e-05 7.4100723019005136e-06 0 -1.91632085235377e-05 1.346035820613781e-05 0 -3.0469171570266802e-05 1.5163949411097347e-05 0 -2.8935890241305393e-05 2.326368614999397e-05 0 -3.0469171570266802e-05 1.5163949411097347e-05 0 -1.91632085235377e-05 1.346035820613781e-05 0 -2.8935890241305393e-05 2.326368614999397e-05 0 -1.91632085235377e-05 1.346035820613781e-05 0 -1.8046488407221614e-05 2.2207813908275774e-05 0 -2.8935890241305393e-05 2.326368614999397e-05 0 -1.8046488407221614e-05 2.2207813908275774e-05 0 -3.0977123748777791e-05 3.4268960146314835e-05 0 -2.1303599317733515e-05 4.2098448073059324e-05 0 -3.0977123748777791e-05 3.4268960146314835e-05 0 -1.8046488407221614e-05 2.2207813908275774e-05 0 -4.4650112408869052e-05 5.2892874951023784e-05 0 -4.3427494797569998e-05 3.5231820120279083e-05 0 -3.0977123748777791e-05 3.4268960146314835e-05 0 -2.1303599317733515e-05 4.2098448073059324e-05 0 -4.4650112408869052e-05 5.2892874951023784e-05 0 -3.0977123748777791e-05 3.4268960146314835e-05 0 -2.8935890241305393e-05 2.326368614999397e-05 0 -3.0977123748777791e-05 3.4268960146314835e-05 0 -4.3427494797569998e-05 3.5231820120279083e-05 0 -2.8935890241305393e-05 2.326368614999397e-05 0 -4.3427494797569998e-05 3.5231820120279083e-05 0 -4.0151485701356103e-05 2.3942538907429067e-05 0 -6.3758723007994845e-05 4.7999632466503593e-05 0 -4.3427494797569998e-05 3.5231820120279083e-05 0 -4.4650112408869052e-05 5.2892874951023784e-05 0 -6.3758723007994845e-05 4.7999632466503593e-05 0 -5.3791248790489729e-05 3.1311456493712594e-05 0 -4.3427494797569998e-05 3.5231820120279083e-05 0 -5.3791248790489729e-05 3.1311456493712594e-05 0 -4.0151485701356103e-05 2.3942538907429067e-05 0 -4.3427494797569998e-05 3.5231820120279083e-05 0 -5.3791248790489729e-05 3.1311456493712594e-05 0 -4.3721234025025159e-05 1.8704023102282927e-05 0 -4.0151485701356103e-05 2.3942538907429067e-05 0 -4.3721234025025159e-05 1.8704023102282927e-05 0 -3.0469171570266802e-05 1.5163949411097349e-05 0 -4.0151485701356103e-05 2.3942538907429067e-05 0 -2.8935890241305393e-05 2.326368614999397e-05 0 -4.0151485701356103e-05 2.3942538907429067e-05 0 -3.0469171570266802e-05 1.5163949411097347e-05 0 -4.3721234025025159e-05 1.8704023102282927e-05 0 -3.0373737253771571e-05 1.0030456130358541e-05 0 -3.0469171570266802e-05 1.5163949411097347e-05 0 1.450201438666883e-05 3.7819786808157852e-06 0 1.6406017723589315e-05 4.9526975150354572e-06 0 1.4519520351097842e-05 3.4924603616361439e-06 0 1.7397860256786348e-05 5.5051134942221031e-06 0 1.4519520351097842e-05 3.4924603616361439e-06 0 1.6406017723589315e-05 4.9526975150354572e-06 0 1.7397860256786348e-05 5.5051134942221031e-06 0 1.6406017723589315e-05 4.9526975150354572e-06 0 1.9186565171954696e-05 7.0171190729037527e-06 0 1.450201438666883e-05 3.7819786808157852e-06 0 1.5489439642231718e-05 4.2277111075494558e-06 0 1.6406017723589315e-05 4.9526975150354572e-06 0 1.3517456807258283e-05 2.5131724235463836e-06 0 1.5489439642231718e-05 4.2277111075494558e-06 0 1.2923152275036035e-05 3.0532332373578342e-06 0 1.450201438666883e-05 3.7819786808157852e-06 0 1.2923152275036035e-05 3.0532332373578342e-06 0 1.5489439642231718e-05 4.2277111075494558e-06 0 1.3517456807258283e-05 2.5131724235463836e-06 0 1.2923152275036035e-05 3.0532332373578342e-06 0 1.170214654913663e-05 1.9546110070767553e-06 0 1.450201438666883e-05 3.7819786808157852e-06 0 1.2534162999589204e-05 2.8327948779053983e-06 0 1.2923152275036035e-05 3.0532332373578342e-06 0 1.0713943966230116e-05 2.4835579377541465e-06 0 1.2923152275036035e-05 3.0532332373578346e-06 0 1.2534162999589204e-05 2.8327948779053983e-06 0 1.0452892349806892e-05 2.1624452668263801e-06 0 1.2923152275036035e-05 3.0532332373578342e-06 0 1.0713943966230116e-05 2.4835579377541465e-06 0 1.0713943966230116e-05 2.4835579377541465e-06 0 1.039627953603144e-05 2.0908945819549825e-06 0 8.80008963877149e-06 2.2335382017000154e-06 0 1.0713943966230116e-05 2.4835579377541465e-06 0 1.2534162999589204e-05 2.8327948779053983e-06 0 1.039627953603144e-05 2.0908945819549825e-06 0 1.1699982986681054e-05 1.9339649320601413e-06 0 1.039627953603144e-05 2.0908945819549825e-06 0 1.2534162999589204e-05 2.8327948779053983e-06 0 1.450201438666883e-05 3.7819786808157852e-06 0 1.4519520351097842e-05 3.4924603616361439e-06 0 1.2534162999589204e-05 2.8327948779053983e-06 0 1.1699982986681054e-05 1.9339649320601413e-06 0 1.2534162999589204e-05 2.8327948779053983e-06 0 1.4519520351097842e-05 3.4924603616361439e-06 0 1.1699982986681054e-05 1.9339649320601413e-06 0 1.4519520351097842e-05 3.4924603616361439e-06 0 1.2048067698735388e-05 1.5026847099501901e-06 0 1.1699982986681054e-05 1.9339649320601413e-06 0 1.2048067698735388e-05 1.5026847099501896e-06 0 1.0472597754091699e-05 8.9698009993867732e-07 0 8.3370419437802005e-06 -7.1334862690107239e-07 0 1.2048067698735388e-05 1.5026847099501901e-06 0 9.2437710139935943e-06 -1.1834400424484424e-07 0 1.2486386551067514e-05 2.3297616784315775e-06 0 1.2048067698735388e-05 1.5026847099501903e-06 0 1.4741302111324022e-05 3.5002763861527207e-06 0 1.2486386551067514e-05 2.3297616784315775e-06 0 9.2437710139935943e-06 -1.1834400424484416e-07 0 1.2048067698735388e-05 1.5026847099501901e-06 0 1.2048067698735388e-05 1.5026847099501901e-06 0 1.4519520351097842e-05 3.4924603616361439e-06 0 1.4741302111324022e-05 3.5002763861527207e-06 0 6.1411204143421997e-06 -1.2363405164416774e-06 0 9.2437710139935943e-06 -1.1834400424484424e-07 0 8.4197174629368075e-06 7.4822233723164648e-07 0 1.2486386551067514e-05 2.3297616784315775e-06 0 8.4197174629368075e-06 7.4822233723164638e-07 0 9.2437710139935943e-06 -1.1834400424484424e-07 0 1.2486386551067514e-05 2.3297616784315775e-06 0 1.2239039244878349e-05 4.6765367614425475e-06 0 8.4197174629368075e-06 7.4822233723164648e-07 0 1.2486386551067514e-05 2.3297616784315775e-06 0 1.7119211828685889e-05 5.9505935424220425e-06 0 1.2239039244878349e-05 4.6765367614425475e-06 0 1.6460143244738497e-05 9.6548086045402297e-06 0 1.2239039244878349e-05 4.6765367614425475e-06 0 1.7119211828685889e-05 5.9505935424220425e-06 0 1.7397860256786348e-05 5.5051134942221031e-06 0 1.4741302111324022e-05 3.5002763861527207e-06 0 1.4519520351097842e-05 3.4924603616361439e-06 0 1.2486386551067514e-05 2.3297616784315775e-06 0 1.4741302111324022e-05 3.5002763861527203e-06 0 1.7119211828685889e-05 5.9505935424220425e-06 0 1.7397860256786348e-05 5.5051134942221031e-06 0 1.7119211828685889e-05 5.9505935424220425e-06 0 1.4741302111324022e-05 3.5002763861527207e-06 0 1.7397860256786348e-05 5.5051134942221031e-06 0 2.0324233940855803e-05 8.2536363968909384e-06 0 1.7119211828685889e-05 5.9505935424220425e-06 0 1.7397860256786348e-05 5.5051134942221031e-06 0 1.9186565171954696e-05 7.0171190729037527e-06 0 2.0324233940855807e-05 8.2536363968909367e-06 0 1.7119211828685889e-05 5.9505935424220425e-06 0 2.0324233940855807e-05 8.2536363968909367e-06 0 2.374897218407104e-05 1.205998445858413e-05 0 2.2670360833112912e-05 9.8024923791508898e-06 0 2.374897218407104e-05 1.205998445858413e-05 0 2.0324233940855807e-05 8.2536363968909367e-06 0 2.2670360833112912e-05 9.8024923791508898e-06 0 1.9186565171954696e-05 7.0171190729037527e-06 0 1.9795731247435829e-05 6.982400438028741e-06 0 2.2670360833112912e-05 9.8024923791508898e-06 0 2.0324233940855803e-05 8.2536363968909367e-06 0 1.9186565171954696e-05 7.0171190729037527e-06 0 1.6460143244738497e-05 9.6548086045402297e-06 0 1.7119211828685889e-05 5.9505935424220425e-06 0 2.374897218407104e-05 1.205998445858413e-05 0 1.6460143244738497e-05 9.6548086045402297e-06 0 2.374897218407104e-05 1.205998445858413e-05 0 2.0634265853796093e-05 1.6935736746470292e-05 0 1.6460143244738497e-05 9.6548086045402297e-06 0 2.0634265853796093e-05 1.6935736746470292e-05 0 1.2012721736807388e-05 1.3719199128525477e-05 0 3.4121344122015267e-05 2.0440075650667772e-05 0 2.0634265853796089e-05 1.6935736746470292e-05 0 2.374897218407104e-05 1.205998445858413e-05 0 3.4121344122015267e-05 2.0440075650667772e-05 0 1.8659843363414578e-05 3.5278198384288858e-05 0 2.0634265853796093e-05 1.6935736746470292e-05 0 3.4121344122015267e-05 2.0440075650667772e-05 0 2.374897218407104e-05 1.205998445858413e-05 0 2.5719370152930671e-05 1.314550606982256e-05 0 2.2670360833112912e-05 9.8024923791508898e-06 0 2.1061520912301762e-05 7.3231413843791637e-06 0 2.5719370152930671e-05 1.314550606982256e-05 0 2.2670360833112912e-05 9.8024923791508898e-06 0 1.9795731247435829e-05 6.982400438028741e-06 0 2.1061520912301762e-05 7.3231413843791637e-06 0 2.2670360833112912e-05 9.8024923791508898e-06 0 2.5719370152930671e-05 1.314550606982256e-05 0 2.374897218407104e-05 1.205998445858413e-05 0 2.231455991651575e-05 3.992125116590788e-06 0 2.5719370152930671e-05 1.314550606982256e-05 0 2.1061520912301762e-05 7.3231413843791637e-06 0 2.231455991651575e-05 3.992125116590788e-06 0 2.1061520912301762e-05 7.3231413843791637e-06 0 1.950536835471787e-05 -4.4098862334212207e-07 0 1.769397512298801e-05 3.5932840065939731e-06 0 1.950536835471787e-05 -4.4098862334212207e-07 0 2.1061520912301762e-05 7.3231413843791637e-06 0 1.769397512298801e-05 3.5932840065939731e-06 0 2.1061520912301762e-05 7.3231413843791637e-06 0 1.9795731247435829e-05 6.982400438028741e-06 0 1.7657288538135612e-05 5.6410816298303289e-06 0 1.9795731247435829e-05 6.982400438028741e-06 0 1.9186565171954696e-05 7.0171190729037527e-06 0 1.9795731247435829e-05 6.982400438028741e-06 0 1.7657288538135612e-05 5.6410816298303289e-06 0 1.769397512298801e-05 3.5932840065939731e-06 0 1.7657288538135612e-05 5.6410816298303289e-06 0 1.557715386663999e-05 3.0681314402453702e-06 0 1.769397512298801e-05 3.5932840065939731e-06 0 1.7657288538135612e-05 5.6410816298303289e-06 0 1.5489439642231718e-05 4.2277111075494558e-06 0 1.557715386663999e-05 3.0681314402453702e-06 0 1.7657288538135612e-05 5.6410816298303289e-06 0 1.6406017723589315e-05 4.9526975150354572e-06 0 1.5489439642231718e-05 4.2277111075494558e-06 0 1.7657288538135612e-05 5.6410816298303289e-06 0 1.9186565171954696e-05 7.0171190729037527e-06 0 1.6406017723589315e-05 4.9526975150354572e-06 0 1.3517456807258283e-05 2.5131724235463836e-06 0 1.557715386663999e-05 3.0681314402453702e-06 0 1.5489439642231718e-05 4.2277111075494558e-06 0 1.3517456807258283e-05 2.5131724235463836e-06 0 1.290747513979781e-05 1.7810235857996779e-07 0 1.557715386663999e-05 3.0681314402453702e-06 0 1.769397512298801e-05 3.5932840065939731e-06 0 1.4771920210023679e-05 -4.166022864006803e-07 0 1.6720047740794383e-05 -4.974826330096415e-06 0 1.2701092892957531e-05 -3.3651008515112818e-06 0 1.4771920210023679e-05 -4.166022864006803e-07 0 1.290747513979781e-05 1.7810235857996779e-07 0 1.290747513979781e-05 1.7810235857996779e-07 0 1.4771920210023679e-05 -4.166022864006803e-07 0 1.557715386663999e-05 3.0681314402453702e-06 0 1.769397512298801e-05 3.5932840065939731e-06 0 1.557715386663999e-05 3.0681314402453702e-06 0 1.4771920210023679e-05 -4.166022864006803e-07 0 1.2701092892957531e-05 -3.3651008515112818e-06 0 1.4123291137072712e-05 -6.5807517918124883e-06 0 1.4771920210023679e-05 -4.166022864006803e-07 0 1.6720047740794383e-05 -4.974826330096415e-06 0 1.4771920210023679e-05 -4.166022864006803e-07 0 1.4123291137072712e-05 -6.5807517918124883e-06 0 1.6720047740794383e-05 -4.974826330096415e-06 0 1.4123291137072712e-05 -6.5807517918124883e-06 0 1.7420802625165196e-05 -1.0861646839538905e-05 0 2.0270689697254062e-05 -1.0357974169612422e-05 0 1.672004774079438e-05 -4.9748263300964159e-06 0 1.7420802625165196e-05 -1.0861646839538905e-05 0 1.4606944173186121e-05 -1.1518595511919855e-05 0 1.7420802625165196e-05 -1.0861646839538905e-05 0 1.4123291137072712e-05 -6.5807517918124883e-06 0 1.4606944173186121e-05 -1.1518595511919855e-05 0 1.9206412877979976e-05 -1.7070133674061838e-05 0 1.7420802625165196e-05 -1.0861646839538905e-05 0 2.0270689697254062e-05 -1.0357974169612422e-05 0 1.7420802625165192e-05 -1.0861646839538903e-05 0 1.9206412877979976e-05 -1.7070133674061838e-05 0 1.4606944173186121e-05 -1.1518595511919855e-05 0 1.4767359854086487e-05 -1.6236707900418008e-05 0 1.9206412877979976e-05 -1.7070133674061838e-05 0 2.9797139919032248e-05 -2.09473131092767e-05 0 2.6657370700867767e-05 -1.4921112732600861e-05 0 2.5007851547920891e-05 -1.9223115156245947e-05 0 2.0270689697254062e-05 -1.0357974169612422e-05 0 2.5007851547920891e-05 -1.9223115156245947e-05 0 2.6657370700867767e-05 -1.4921112732600861e-05 0 2.0270689697254062e-05 -1.0357974169612422e-05 0 1.9206412877979976e-05 -1.7070133674061838e-05 0 2.5007851547920891e-05 -1.9223115156245947e-05 0 2.0270689697254062e-05 -1.0357974169612422e-05 0 2.6657370700867767e-05 -1.4921112732600862e-05 0 2.3123541260722655e-05 -4.9127771253511618e-06 0 1.769397512298801e-05 3.5932840065939731e-06 0 1.6720047740794386e-05 -4.9748263300964142e-06 0 1.950536835471787e-05 -4.4098862334212207e-07 0 2.0270689697254062e-05 -1.0357974169612422e-05 0 2.3123541260722652e-05 -4.9127771253511601e-06 0 1.950536835471787e-05 -4.4098862334212207e-07 0 2.0270689697254062e-05 -1.0357974169612422e-05 0 1.950536835471787e-05 -4.4098862334212207e-07 0 1.6720047740794383e-05 -4.974826330096415e-06 0 2.231455991651575e-05 3.992125116590788e-06 0 1.950536835471787e-05 -4.4098862334212207e-07 0 2.3123541260722655e-05 -4.9127771253511618e-06 0 2.231455991651575e-05 3.992125116590788e-06 0 2.6248451821265416e-05 3.5738719930378854e-06 0 2.5719370152930671e-05 1.314550606982256e-05 0 2.231455991651575e-05 3.992125116590788e-06 0 2.3123541260722655e-05 -4.9127771253511618e-06 0 2.6248451821265416e-05 3.573871993037885e-06 0 3.4121344122015267e-05 2.0440075650667772e-05 0 2.5719370152930671e-05 1.3145506069822562e-05 0 2.6248451821265416e-05 3.573871993037885e-06 0 3.7063282222265015e-05 -4.9575246414239327e-06 0 2.6248451821265416e-05 3.573871993037885e-06 0 3.0356900640544093e-05 -1.0953514180438807e-05 0 3.0356900640544093e-05 -1.0953514180438807e-05 0 2.6248451821265416e-05 3.573871993037885e-06 0 2.3123541260722655e-05 -4.9127771253511618e-06 0 1.8659843363414578e-05 3.5278198384288858e-05 0 3.4121344122015267e-05 2.0440075650667772e-05 0 2.7110855639397015e-05 6.1844561888193606e-05 0 3.4121344122015267e-05 2.0440075650667772e-05 0 2.6248451821265416e-05 3.573871993037885e-06 0 3.7063282222265015e-05 -4.9575246414239327e-06 0 1.9155746731484795e-05 1.7475436753050953e-05 0 4.8181795057107273e-05 3.0373809643393936e-05 0 3.4121344122015267e-05 2.0440075650667772e-05 0 4.895904086711662e-05 6.077976557282325e-05 0 2.7110855639397015e-05 6.1844561888193606e-05 0 5.6858782904751876e-05 9.0205596447058946e-05 0 2.5534076080434572e-05 8.6836414491799099e-05 0 2.7110855639397015e-05 6.1844561888193606e-05 0 4.8181795057107273e-05 3.0373809643393936e-05 0 4.6438769104671075e-05 3.6692028176534958e-05 0 3.7063282222265015e-05 -4.9575246414239327e-06 0 3.0356900640544093e-05 -1.0953514180438807e-05 0 3.7753173130012221e-05 -1.4619710675988898e-05 0 4.895904086711662e-05 6.077976557282325e-05 0 5.6858782904751876e-05 9.0205596447058946e-05 0 2.7110855639397015e-05 6.1844561888193606e-05 0 4.6438769104671075e-05 3.6692028176534958e-05 0 5.1618650134283031e-05 4.9244347754222952e-05 0 3.7753173130012221e-05 -1.4619710675988898e-05 0 3.3716147230870799e-05 -1.8844040973218848e-05 0 3.8903286268762903e-05 -2.0655793723744253e-05 0 5.6858782904751876e-05 9.0205596447058946e-05 0 4.2865146684315014e-05 0.00010838681342425002 0 2.5534076080434572e-05 8.6836414491799099e-05 0 3.0356900640544093e-05 -1.0953514180438807e-05 0 2.3123541260722655e-05 -4.9127771253511618e-06 0 2.6657370700867767e-05 -1.4921112732600861e-05 0 3.7753173130012221e-05 -1.4619710675988898e-05 0 3.0356900640544093e-05 -1.0953514180438807e-05 0 3.3716147230870799e-05 -1.8844040973218848e-05 0 3.0356900640544093e-05 -1.0953514180438807e-05 0 2.6657370700867767e-05 -1.4921112732600861e-05 0 3.3716147230870799e-05 -1.8844040973218848e-05 0 2.9797139919032248e-05 -2.09473131092767e-05 0 3.3716147230870799e-05 -1.8844040973218848e-05 0 2.6657370700867767e-05 -1.4921112732600861e-05 0 2.9797139919032248e-05 -2.09473131092767e-05 0 3.5092494301245581e-05 -2.4818443052656749e-05 0 3.3716147230870799e-05 -1.8844040973218848e-05 0 3.8903286268762903e-05 -2.0655793723744253e-05 0 3.3716147230870799e-05 -1.8844040973218848e-05 0 3.5092494301245581e-05 -2.4818443052656749e-05 0 3.8903286268762903e-05 -2.0655793723744253e-05 0 3.5092494301245581e-05 -2.4818443052656749e-05 0 4.0908065112492223e-05 -2.5401313645643609e-05 0 2.9797139919032248e-05 -2.09473131092767e-05 0 2.9803493749277994e-05 -2.502451766044359e-05 0 3.5092494301245581e-05 -2.4818443052656749e-05 0 2.4194584271399761e-05 0.00011678592862263318 0 4.2865146684315007e-05 0.00010838681342425002 0 4.748504190729769e-05 0.00012700493107451342 0 6.3492118683476371e-05 0.00011816153438655963 0 4.748504190729769e-05 0.00012700493107451342 0 4.2865146684315014e-05 0.00010838681342425002 0 5.6858782904751876e-05 9.0205596447058946e-05 0 6.3492118683476371e-05 0.00011816153438655963 0 4.2865146684315014e-05 0.00010838681342425002 0 5.1618650134283031e-05 4.9244347754222952e-05 0 5.4965740524325616e-05 6.0644914557989145e-05 0 6.3492118683476371e-05 0.00011816153438655963 0 6.929193354511362e-05 0.00014713369617628264 0 4.748504190729769e-05 0.00012700493107451342 0 6.929193354511362e-05 0.00014713369617628264 0 3.843511898900461e-05 0.00014336403080780256 0 4.748504190729769e-05 0.00012700493107451342 0 6.929193354511362e-05 0.00014713369617628264 0 4.8740556033028456e-05 0.00016357862321023832 0 3.843511898900461e-05 0.00014336403080780256 0 6.929193354511362e-05 0.00014713369617628264 0 7.4666193289057685e-05 0.00017718018185149543 0 4.8740556033028456e-05 0.00016357862321023832 0 4.0908065112492223e-05 -2.5401313645643609e-05 0 3.8767997417245222e-05 -2.9371009433793289e-05 0 4.339559270989996e-05 -2.9805572637346988e-05 0 5.4965740524325616e-05 6.0644914557989145e-05 0 5.8751533416735255e-05 7.3655470032850097e-05 0 7.4666193289057685e-05 0.00017718018185149543 0 4.3818827330661288e-05 0.00018460708965263746 0 4.8740556033028456e-05 0.00016357862321023832 0 3.3863656343936494e-05 -2.9198273767299338e-05 0 3.8767997417245222e-05 -2.9371009433793289e-05 0 3.5092494301245581e-05 -2.4818443052656749e-05 0 3.3863656343936494e-05 -2.9198273767299338e-05 0 3.5092494301245581e-05 -2.4818443052656749e-05 0 2.9803493749277994e-05 -2.5024517660443594e-05 0 4.0908065112492223e-05 -2.5401313645643609e-05 0 3.5092494301245581e-05 -2.4818443052656749e-05 0 3.8767997417245222e-05 -2.9371009433793289e-05 0 3.3863656343936494e-05 -2.9198273767299338e-05 0 3.5129947757782867e-05 -3.3017157318104689e-05 0 3.8767997417245222e-05 -2.9371009433793289e-05 0 4.1095216854749834e-05 -3.4375667553622117e-05 0 3.8767997417245222e-05 -2.9371009433793289e-05 0 3.5129947757782867e-05 -3.3017157318104689e-05 0 3.3863656343936494e-05 -2.9198273767299338e-05 0 2.811693782249902e-05 -2.9608279520193651e-05 0 3.5129947757782867e-05 -3.3017157318104689e-05 0 3.2218847232513958e-05 -3.572310650621064e-05 0 3.5129947757782867e-05 -3.3017157318104689e-05 0 2.811693782249902e-05 -2.9608279520193651e-05 0 3.3863656343936494e-05 -2.9198273767299338e-05 0 2.9803493749277994e-05 -2.5024517660443594e-05 0 2.811693782249902e-05 -2.9608279520193651e-05 0 2.5163149545431573e-05 -2.4329221067181664e-05 0 2.1199337809793215e-05 -2.4023642231976937e-05 0 2.811693782249902e-05 -2.9608279520193651e-05 0 2.5163149545431573e-05 -2.4329221067181664e-05 0 2.811693782249902e-05 -2.9608279520193651e-05 0 2.9803493749277994e-05 -2.5024517660443594e-05 0 2.1829028915942605e-05 -2.8602020824988721e-05 0 2.6276790337218834e-05 -3.5313344580954325e-05 0 2.811693782249902e-05 -2.9608279520193651e-05 0 2.1829028915942605e-05 -2.8602020824988721e-05 0 1.9538204130403188e-05 -3.1033644679498254e-05 0 2.6276790337218837e-05 -3.5313344580954325e-05 0 2.1829028915942605e-05 -2.8602020824988721e-05 0 2.1199337809793215e-05 -2.4023642231976937e-05 0 1.7353786450047455e-05 -2.5549545598735975e-05 0 2.1829028915942605e-05 -2.8602020824988721e-05 0 2.811693782249902e-05 -2.9608279520193651e-05 0 2.1199337809793215e-05 -2.4023642231976937e-05 0 2.5163149545431573e-05 -2.4329221067181664e-05 0 1.9206412877979976e-05 -1.7070133674061838e-05 0 2.1199337809793215e-05 -2.4023642231976937e-05 0 1.7240971517524964e-05 -2.0895568105838115e-05 0 1.7353786450047455e-05 -2.5549545598735975e-05 0 2.1199337809793215e-05 -2.4023642231976937e-05 0 1.7240971517524964e-05 -2.0895568105838115e-05 0 2.1199337809793215e-05 -2.4023642231976937e-05 0 1.9206412877979976e-05 -1.7070133674061838e-05 0 1.7240971517524964e-05 -2.0895568105838115e-05 0 1.9206412877979976e-05 -1.7070133674061838e-05 0 1.4767359854086487e-05 -1.6236707900418008e-05 0 2.5163149545431573e-05 -2.4329221067181664e-05 0 2.5007851547920891e-05 -1.9223115156245947e-05 0 1.9206412877979976e-05 -1.7070133674061838e-05 0 2.9797139919032248e-05 -2.09473131092767e-05 0 2.5007851547920891e-05 -1.9223115156245947e-05 0 2.9803493749277994e-05 -2.5024517660443594e-05 0 2.5163149545431573e-05 -2.4329221067181664e-05 0 2.9803493749277994e-05 -2.5024517660443594e-05 0 2.5007851547920891e-05 -1.9223115156245947e-05 0 -8.1382969139140901e-05 9.3206343438332069e-05 0 -5.9996004040303742e-05 7.8108759005765727e-05 0 -5.9916382753953884e-05 0.0001021731770976784 0 -8.8164461940884123e-05 0.00012045026961303819 0 -8.1382969139140901e-05 9.3206343438332069e-05 0 -5.9916382753953884e-05 0.0001021731770976784 0 -4.2386725548507962e-05 7.8111612705251686e-05 0 -5.9916382753953884e-05 0.0001021731770976784 0 -5.9996004040303742e-05 7.8108759005765727e-05 0 -8.1382969139140901e-05 9.3206343438332069e-05 0 -7.2681328013833927e-05 6.8675699143784101e-05 0 -5.9996004040303742e-05 7.8108759005765727e-05 0 -7.2681328013833927e-05 6.8675699143784101e-05 0 -6.3758723007994845e-05 4.7999632466503593e-05 0 -4.4650112408869052e-05 5.2892874951023784e-05 0 -4.2386725548507962e-05 7.8111612705251686e-05 0 -5.9996004040303742e-05 7.8108759005765727e-05 0 -4.4650112408869052e-05 5.2892874951023784e-05 0 -7.2681328013833927e-05 6.8675699143784101e-05 0 -4.4650112408869052e-05 5.2892874951023784e-05 0 -5.9996004040303742e-05 7.8108759005765727e-05 0 -4.2386725548507962e-05 7.8111612705251686e-05 0 -4.4650112408869052e-05 5.2892874951023784e-05 0 -2.8959736372132997e-05 6.3086222787361353e-05 0 -2.1303599317733515e-05 4.2098448073059324e-05 0 -2.8959736372132997e-05 6.3086222787361353e-05 0 -4.4650112408869052e-05 5.2892874951023784e-05 0 -1.3293992849916457e-05 6.6582275148472129e-05 0 -2.7492270023051601e-05 8.0263914781933729e-05 0 -2.8959736372132997e-05 6.3086222787361353e-05 0 -4.2386725548507962e-05 7.8111612705251686e-05 0 -2.8959736372132997e-05 6.3086222787361353e-05 0 -2.7492270023051601e-05 8.0263914781933729e-05 0 -4.2386725548507962e-05 7.8111612705251686e-05 0 -2.7492270023051601e-05 8.0263914781933743e-05 0 -3.6618463247781105e-05 9.9962885216411894e-05 0 -4.2386725548507962e-05 7.8111612705251686e-05 0 -3.6618463247781105e-05 9.9962885216411894e-05 0 -5.9916382753953884e-05 0.0001021731770976784 0 -1.5952164983175605e-05 9.6358678767754515e-05 0 -3.6618463247781105e-05 9.9962885216411894e-05 0 -2.7492270023051601e-05 8.0263914781933729e-05 0 -1.5952164983175605e-05 9.6358678767754515e-05 0 4.3943254208081201e-06 9.0178324602585387e-05 0 -1.3889375983245889e-06 0.00011763392337829335 0 -1.5952164983175605e-05 9.6358678767754515e-05 0 -1.3293992849916457e-05 6.6582275148472129e-05 0 4.3943254208081201e-06 9.0178324602585387e-05 0 7.6396465813915037e-06 5.9188839147167866e-05 0 4.3943254208081185e-06 9.0178324602585387e-05 0 -1.3293992849916457e-05 6.6582275148472129e-05 0 -1.5952164983175605e-05 9.6358678767754515e-05 0 -2.7492270023051601e-05 8.0263914781933729e-05 0 -1.3293992849916457e-05 6.6582275148472129e-05 0 -2.1303599317733515e-05 4.2098448073059324e-05 0 -1.3293992849916457e-05 6.6582275148472129e-05 0 -2.8959736372132997e-05 6.3086222787361353e-05 0 -2.1303599317733515e-05 4.2098448073059324e-05 0 -4.3120845063141985e-06 4.0964939599874078e-05 0 -1.3293992849916457e-05 6.6582275148472129e-05 0 7.6396465813915037e-06 5.9188839147167866e-05 0 -1.3293992849916457e-05 6.6582275148472129e-05 0 -4.3120845063141977e-06 4.0964939599874085e-05 0 7.6396465813915037e-06 5.9188839147167866e-05 0 -4.3120845063142002e-06 4.0964939599874085e-05 0 7.7787006778427245e-06 3.8701553714048009e-05 0 7.6396465813915037e-06 5.9188839147167866e-05 0 7.7787006778427228e-06 3.8701553714048009e-05 0 1.8659843363414578e-05 3.5278198384288858e-05 0 7.6396465813915037e-06 5.9188839147167866e-05 0 1.8659843363414578e-05 3.5278198384288858e-05 0 2.7110855639397015e-05 6.1844561888193606e-05 0 7.6396465813915037e-06 5.9188839147167866e-05 0 2.7110855639397015e-05 6.1844561888193606e-05 0 2.5534076080434572e-05 8.6836414491799099e-05 0 7.6396465813915037e-06 5.9188839147167866e-05 0 2.5534076080434572e-05 8.6836414491799099e-05 0 4.3943254208081201e-06 9.0178324602585387e-05 0 2.4194584271399761e-05 0.00011678592862263318 0 4.3943254208081201e-06 9.0178324602585387e-05 0 2.5534076080434572e-05 8.6836414491799099e-05 0 2.4194584271399761e-05 0.00011678592862263318 0 2.5534076080434572e-05 8.6836414491799099e-05 0 4.2865146684315014e-05 0.00010838681342425002 0 2.4194584271399761e-05 0.00011678592862263318 0 -1.388937598324591e-06 0.00011763392337829335 0 4.3943254208081201e-06 9.0178324602585387e-05 0 2.4194584271399761e-05 0.00011678592862263318 0 1.3959627675872012e-05 0.00013612425784218079 0 -1.3889375983245889e-06 0.00011763392337829335 0 2.4194584271399761e-05 0.00011678592862263318 0 3.843511898900461e-05 0.00014336403080780256 0 1.3959627675872012e-05 0.00013612425784218079 0 2.4194584271399761e-05 0.00011678592862263318 0 4.748504190729769e-05 0.00012700493107451342 0 3.843511898900461e-05 0.00014336403080780256 0 3.843511898900461e-05 0.00014336403080780256 0 4.8740556033028456e-05 0.00016357862321023832 0 1.8461432719905696e-05 0.00016374894367840407 0 4.8740556033028456e-05 0.00016357862321023832 0 4.3818827330661288e-05 0.00018460708965263746 0 1.8461432719905696e-05 0.00016374894367840407 0 1.8461432719905696e-05 0.00016374894367840407 0 1.3959627675872012e-05 0.00013612425784218079 0 3.843511898900461e-05 0.00014336403080780256 0 1.8461432719905696e-05 0.00016374894367840407 0 -9.1550523344054856e-06 0.0001397610524743709 0 1.3959627675872012e-05 0.00013612425784218079 0 1.8461432719905696e-05 0.00016374894367840407 0 -1.322219001164532e-05 0.00016598770997300062 0 -9.1550523344054856e-06 0.0001397610524743709 0 1.8461432719905696e-05 0.00016374894367840407 0 -6.1105481070653413e-06 0.00019180698541677486 0 -1.322219001164532e-05 0.00016598770997300062 0 -3.4692680660460726e-05 0.00016361357574846351 0 -9.1550523344054856e-06 0.00013976105247437087 0 -1.322219001164532e-05 0.00016598770997300062 0 -3.4692680660460726e-05 0.00016361357574846351 0 -2.7010671312666406e-05 0.00012592033490796994 0 -9.1550523344054856e-06 0.0001397610524743709 0 -9.1550523344054856e-06 0.0001397610524743709 0 -2.7010671312666406e-05 0.00012592033490796994 0 -1.3889375983245889e-06 0.00011763392337829335 0 -9.1550523344054856e-06 0.0001397610524743709 0 -1.3889375983245889e-06 0.00011763392337829335 0 1.3959627675872012e-05 0.00013612425784218079 0 -1.5952164983175605e-05 9.6358678767754515e-05 0 -1.3889375983245889e-06 0.00011763392337829335 0 -2.7010671312666406e-05 0.00012592033490796994 0 -1.5952164983175605e-05 9.6358678767754515e-05 0 -2.7010671312666406e-05 0.00012592033490796994 0 -3.6618463247781105e-05 9.9962885216411894e-05 0 -4.7667249711942208e-05 0.00012116696465338144 0 -3.6618463247781105e-05 9.9962885216411894e-05 0 -2.7010671312666406e-05 0.00012592033490796994 0 -4.7667249711942208e-05 0.00012116696465338144 0 -5.9916382753953884e-05 0.0001021731770976784 0 -3.6618463247781105e-05 9.9962885216411894e-05 0 -4.7667249711942208e-05 0.00012116696465338144 0 -4.8568914929318918e-05 0.00014199624518811786 0 -6.8525211482798151e-05 0.00013679389132340589 0 -4.7667249711942208e-05 0.00012116696465338144 0 -2.7010671312666406e-05 0.00012592033490796994 0 -4.8568914929318918e-05 0.00014199624518811786 0 -3.4692680660460726e-05 0.00016361357574846351 0 -4.8568914929318918e-05 0.00014199624518811788 0 -2.7010671312666406e-05 0.00012592033490796994 0 -3.4692680660460726e-05 0.00016361357574846351 0 -1.322219001164532e-05 0.00016598770997300062 0 -3.1987245010788327e-05 0.00019178579604638133 0 -3.4692680660460726e-05 0.00016361357574846351 0 -5.2162490813439932e-05 0.0001844877773910314 0 -6.5964479119202924e-05 0.0001642743753876898 0 -3.4692680660460726e-05 0.00016361357574846351 0 -6.5964479119202924e-05 0.0001642743753876898 0 -4.8568914929318918e-05 0.00014199624518811786 0 -6.5964479119202924e-05 0.0001642743753876898 0 -6.8525211482798151e-05 0.00013679389132340589 0 -4.8568914929318918e-05 0.00014199624518811786 0 -9.7708715332974299e-05 0.00018120461937228528 0 -9.37266950024065e-05 0.0001501059204663472 0 -6.5964479119202924e-05 0.0001642743753876898 0 -9.7708715332974299e-05 0.00018120461937228528 0 -6.5964479119202924e-05 0.0001642743753876898 0 -7.3788427034637366e-05 0.00019370350660012148 0 -9.3726695002406513e-05 0.0001501059204663472 0 -6.8525211482798151e-05 0.00013679389132340589 0 -6.5964479119202924e-05 0.0001642743753876898 0 -9.3726695002406513e-05 0.0001501059204663472 0 -8.8164461940884123e-05 0.00012045026961303819 0 -6.8525211482798151e-05 0.00013679389132340589 0 -4.7667249711942208e-05 0.00012116696465338144 0 -6.8525211482798151e-05 0.00013679389132340589 0 -5.9916382753953884e-05 0.0001021731770976784 0 -8.8164461940884123e-05 0.00012045026961303819 0 -5.9916382753953884e-05 0.0001021731770976784 0 -6.8525211482798151e-05 0.00013679389132340589 0 -0.00010271457409707453 0.00024658092440645231 0 -6.1174311875697313e-05 0.00024713506261939903 0 -7.3453067376202954e-05 0.00027934919602574227 0 -0.00010271457409707453 0.00024658092440645231 0 -7.7907811204689249e-05 0.00022268832070728234 0 -6.1174311875697313e-05 0.00024713506261939903 0 -5.4820405930637723e-05 0.00021034339939589517 0 -6.1174311875697313e-05 0.00024713506261939903 0 -7.7907811204689249e-05 0.00022268832070728234 0 -0.00010271457409707453 0.00024658092440645231 0 -0.00010074702689695132 0.0002134515578388274 0 -7.7907811204689249e-05 0.00022268832070728234 0 -0.00010074702689695132 0.0002134515578388274 0 -7.3788427034637366e-05 0.00019370350660012148 0 -7.7907811204689249e-05 0.00022268832070728234 0 -0.00010074702689695132 0.0002134515578388274 0 -9.7708715332974299e-05 0.00018120461937228528 0 -7.3788427034637366e-05 0.00019370350660012148 0 -6.5964479119202924e-05 0.0001642743753876898 0 -5.2162490813439932e-05 0.0001844877773910314 0 -7.3788427034637366e-05 0.00019370350660012148 0 -5.4820405930637723e-05 0.00021034339939589517 0 -7.7907811204689249e-05 0.00022268832070728234 0 -7.3788427034637366e-05 0.00019370350660012148 0 -5.4820405930637723e-05 0.00021034339939589517 0 -5.2162490813439932e-05 0.0001844877773910314 0 -3.1987245010788327e-05 0.00019178579604638133 0 -5.4820405930637723e-05 0.00021034339939589517 0 -7.3788427034637366e-05 0.00019370350660012148 0 -5.2162490813439932e-05 0.0001844877773910314 0 -3.4692680660460726e-05 0.00016361357574846351 0 -3.1987245010788327e-05 0.00019178579604638133 0 -5.2162490813439932e-05 0.0001844877773910314 0 -5.4820405930637723e-05 0.00021034339939589517 0 -3.1987245010788327e-05 0.00019178579604638133 0 -3.168299269357573e-05 0.00021992027966048078 0 -6.1174311875697313e-05 0.00024713506261939903 0 -3.168299269357573e-05 0.00021992027966048078 0 -2.964796024538236e-05 0.00024983234630044699 0 -5.4820405930637723e-05 0.00021034339939589517 0 -3.168299269357573e-05 0.00021992027966048078 0 -6.1174311875697313e-05 0.00024713506261939903 0 -4.1471304577516003e-05 0.00028259830587508579 0 -6.1174311875697313e-05 0.00024713506261939903 0 -2.964796024538236e-05 0.00024983234630044699 0 -8.5263467646230561e-06 0.00023019906238368412 0 -5.4704324392497754e-06 0.00026659389798245952 0 -2.964796024538236e-05 0.00024983234630044699 0 -8.5263467646230561e-06 0.00023019906238368412 0 1.7478900861840635e-05 0.00024353767382439612 0 -5.4704324392497805e-06 0.00026659389798245952 0 -8.5263467646230561e-06 0.00023019906238368412 0 1.0763451063226187e-05 0.00021238081232619052 0 1.7478900861840635e-05 0.00024353767382439612 0 -8.5263467646230561e-06 0.00023019906238368412 0 -2.964796024538236e-05 0.00024983234630044699 0 -3.168299269357573e-05 0.00021992027966048078 0 -6.1105481070653413e-06 0.00019180698541677486 0 -3.168299269357573e-05 0.00021992027966048078 0 -3.1987245010788327e-05 0.00019178579604638133 0 -8.5263467646230561e-06 0.00023019906238368412 0 -3.168299269357573e-05 0.00021992027966048078 0 -6.1105481070653413e-06 0.00019180698541677486 0 -6.1105481070653413e-06 0.00019180698541677486 0 -3.1987245010788327e-05 0.00019178579604638133 0 -1.322219001164532e-05 0.00016598770997300062 0 -6.1105481070653413e-06 0.00019180698541677486 0 2.0291249199597138e-05 0.0001931530850961402 0 1.0763451063226189e-05 0.00021238081232619052 0 -8.5263467646230561e-06 0.00023019906238368412 0 -6.1105481070653455e-06 0.00019180698541677486 0 1.0763451063226189e-05 0.00021238081232619052 0 3.5003839878467809e-05 0.00021290015371458441 0 1.0763451063226189e-05 0.00021238081232619052 0 2.0291249199597138e-05 0.0001931530850961402 0 1.8461432719905696e-05 0.00016374894367840407 0 4.3818827330661288e-05 0.00018460708965263746 0 2.0291249199597138e-05 0.0001931530850961402 0 1.8461432719905696e-05 0.00016374894367840407 0 2.0291249199597138e-05 0.0001931530850961402 0 -6.1105481070653413e-06 0.00019180698541677486 0 3.5003839878467809e-05 0.00021290015371458441 0 2.0291249199597138e-05 0.0001931530850961402 0 4.3818827330661288e-05 0.00018460708965263746 0 3.5003839878467809e-05 0.00021290015371458441 0 4.3818827330661288e-05 0.00018460708965263746 0 5.8653781357208382e-05 0.00020131716266853835 0 3.5003839878467809e-05 0.00021290015371458441 0 4.7456683375580341e-05 0.00024775966977403805 0 1.7478900861840635e-05 0.00024353767382439612 0 3.5003839878467809e-05 0.00021290015371458441 0 5.9632185567250091e-05 0.00022266814531125571 0 4.7456683375580341e-05 0.00024775966977403805 0 3.5003839878467809e-05 0.00021290015371458441 0 1.7478900861840635e-05 0.00024353767382439612 0 1.0763451063226189e-05 0.00021238081232619052 0 2.804813095147982e-05 0.00028124276753428425 0 1.7478900861840635e-05 0.00024353767382439612 0 4.7456683375580341e-05 0.00024775966977403805 0 2.804813095147982e-05 0.00028124276753428425 0 4.7456683375580341e-05 0.00024775966977403805 0 6.0661114278305258e-05 0.00027762550518656986 0 2.804813095147982e-05 0.00028124276753428425 0 5.7610726782164045e-05 0.00030858698497786898 0 2.5206320723658076e-05 0.0003166988449594561 0 2.804813095147982e-05 0.00028124276753428425 0 6.0661114278305264e-05 0.00027762550518656986 0 5.7610726782164052e-05 0.00030858698497786898 0 5.7610726782164052e-05 0.00030858698497786898 0 4.6854260706664308e-05 0.00033061681640230128 0 2.5206320723658076e-05 0.0003166988449594561 0 5.7610726782164052e-05 0.00030858698497786898 0 7.642488977842829e-05 0.00032686901798727056 0 4.6854260706664308e-05 0.00033061681640230128 0 6.7533996630116195e-05 0.00034864859295395608 0 4.6854260706664308e-05 0.00033061681640230128 0 7.642488977842829e-05 0.00032686901798727056 0 6.7533996630116195e-05 0.00034864859295395608 0 3.0543895559098975e-05 0.00034923319502179972 0 4.6854260706664308e-05 0.00033061681640230128 0 3.0543895559098975e-05 0.00034923319502179972 0 2.5206320723658076e-05 0.0003166988449594561 0 4.6854260706664308e-05 0.00033061681640230128 0 -4.2652058040254226e-06 0.00034861134366001519 0 -3.56026336674696e-05 0.0003166914059978751 0 -6.0138918682446077e-06 0.00030501915566643066 0 -4.2652058040254226e-06 0.00034861134366001519 0 -6.0138918682446077e-06 0.00030501915566643066 0 2.5206320723658076e-05 0.0003166988449594561 0 3.0543895559098975e-05 0.00034923319502179972 0 -4.2652058040254226e-06 0.00034861134366001519 0 2.5206320723658076e-05 0.0003166988449594561 0 -4.1471304577516003e-05 0.00028259830587508579 0 -5.4704324392497805e-06 0.00026659389798245952 0 -6.0138918682446077e-06 0.00030501915566643066 0 2.804813095147982e-05 0.00028124276753428425 0 2.5206320723658076e-05 0.0003166988449594561 0 -6.0138918682446077e-06 0.00030501915566643066 0 2.804813095147982e-05 0.00028124276753428425 0 -6.0138918682446077e-06 0.00030501915566643066 0 -5.4704324392497805e-06 0.00026659389798245952 0 2.804813095147982e-05 0.00028124276753428425 0 -5.4704324392497805e-06 0.00026659389798245952 0 1.7478900861840635e-05 0.00024353767382439612 0 -4.1471304577516003e-05 0.00028259830587508579 0 -2.964796024538236e-05 0.00024983234630044699 0 -5.4704324392497805e-06 0.00026659389798245952 0 -4.1471304577516003e-05 0.00028259830587508579 0 -7.3453067376202954e-05 0.00027934919602574227 0 -6.1174311875697313e-05 0.00024713506261939903 0 -4.1471304577516003e-05 0.00028259830587508579 0 -3.5602633667469593e-05 0.0003166914059978751 0 -6.7112291282062168e-05 0.00030986444468781362 0 -4.1471304577516003e-05 0.00028259830587508579 0 -6.7112291282062168e-05 0.00030986444468781362 0 -7.3453067376202954e-05 0.00027934919602574227 0 -4.1471304577516003e-05 0.00028259830587508579 0 -6.0138918682446026e-06 0.00030501915566643061 0 -3.5602633667469593e-05 0.0003166914059978751 0 -4.2652058040254226e-06 0.00034861134366001519 0 -3.7596180063518929e-05 0.00034799881936672147 0 -3.5602633667469593e-05 0.0003166914059978751 0 -3.7596180063518929e-05 0.00034799881936672147 0 -7.0907031176378608e-05 0.00034762084289913665 0 -5.4498426328998904e-05 0.00033045047747227156 0 -3.7596180063518929e-05 0.00034799881936672147 0 -5.4498426328998904e-05 0.00033045047747227156 0 -3.5602633667469593e-05 0.0003166914059978751 0 -6.7112291282062168e-05 0.00030986444468781362 0 -3.5602633667469593e-05 0.0003166914059978751 0 -5.4498426328998904e-05 0.00033045047747227156 0 -6.7112291282062168e-05 0.00030986444468781362 0 -5.4498426328998904e-05 0.00033045047747227156 0 -8.2066239889093355e-05 0.0003286279120778893 0 -7.0907031176378608e-05 0.00034762084289913665 0 -8.2066239889093355e-05 0.0003286279120778893 0 -5.4498426328998904e-05 0.00033045047747227156 0 -0.00010419410481646762 0.00034767260236185266 0 -8.2066239889093355e-05 0.0003286279120778893 0 -7.0907031176378608e-05 0.00034762084289913665 0 -0.00010419410481646762 0.00034767260236185266 0 -0.0001042267109342392 0.0003141527259512634 0 -8.2066239889093355e-05 0.0003286279120778893 0 -0.0001042267109342392 0.0003141527259512634 0 -6.7112291282062168e-05 0.00030986444468781362 0 -8.2066239889093355e-05 0.0003286279120778893 0 -0.0001042267109342392 0.0003141527259512634 0 -0.00010379430058068093 0.00028041502585154991 0 -7.3453067376202954e-05 0.00027934919602574227 0 -0.0001042267109342392 0.0003141527259512634 0 -7.3453067376202954e-05 0.00027934919602574227 0 -6.7112291282062168e-05 0.00030986444468781362 0 -0.00010379430058068093 0.00028041502585154991 0 -0.00010271457409707453 0.00024658092440645231 0 -7.3453067376202954e-05 0.00027934919602574227 0 3.3546845145264929e-05 -4.6908953613489408e-05 0 3.4271113029082463e-05 -4.0604522902894344e-05 0 2.9171066006281013e-05 -4.1914472884371647e-05 0 4.055751401249782e-05 -4.2354733767272503e-05 0 3.4271113029082463e-05 -4.0604522902894344e-05 0 3.9749311996848118e-05 -4.6913643405831559e-05 0 4.055751401249782e-05 -4.2354733767272503e-05 0 3.7849088045149462e-05 -3.8126633964006102e-05 0 3.4271113029082463e-05 -4.0604522902894344e-05 0 3.3546845145264929e-05 -4.6908953613489408e-05 0 3.9749311996848118e-05 -4.6913643405831559e-05 0 3.4271113029082463e-05 -4.0604522902894344e-05 0 3.3546845145264929e-05 -4.6908953613489408e-05 0 2.9171066006281013e-05 -4.1914472884371647e-05 0 2.6730827532151097e-05 -4.6476256933682582e-05 0 2.9171066006281013e-05 -4.1914472884371647e-05 0 2.4152047179664779e-05 -3.9987185900684842e-05 0 2.6730827532151097e-05 -4.6476256933682582e-05 0 2.2441842302651425e-05 -4.3564377524552023e-05 0 2.6730827532151097e-05 -4.6476256933682582e-05 0 2.4152047179664779e-05 -3.9987185900684842e-05 0 2.9171066006281013e-05 -4.1914472884371647e-05 0 2.6276790337218837e-05 -3.5313344580954325e-05 0 2.4152047179664779e-05 -3.9987185900684842e-05 0 2.1632746380678798e-05 -3.5743486593462273e-05 0 2.4152047179664779e-05 -3.9987185900684842e-05 0 2.6276790337218837e-05 -3.5313344580954325e-05 0 2.1632746380678798e-05 -3.5743486593462273e-05 0 2.6276790337218837e-05 -3.5313344580954325e-05 0 1.9538204130403188e-05 -3.1033644679498254e-05 0 3.2218847232513958e-05 -3.572310650621064e-05 0 2.811693782249902e-05 -2.9608279520193651e-05 0 2.6276790337218837e-05 -3.5313344580954325e-05 0 3.4271113029082463e-05 -4.0604522902894344e-05 0 3.2218847232513958e-05 -3.572310650621064e-05 0 2.6276790337218837e-05 -3.5313344580954325e-05 0 2.9171066006281013e-05 -4.1914472884371647e-05 0 3.4271113029082463e-05 -4.0604522902894344e-05 0 2.6276790337218837e-05 -3.5313344580954325e-05 0 3.2218847232513958e-05 -3.572310650621064e-05 0 3.4271113029082463e-05 -4.0604522902894344e-05 0 3.7849088045149462e-05 -3.8126633964006102e-05 0 3.2218847232513958e-05 -3.572310650621064e-05 0 3.7849088045149462e-05 -3.8126633964006102e-05 0 3.5129947757782867e-05 -3.3017157318104689e-05 0 4.1095216854749834e-05 -3.4375667553622117e-05 0 3.5129947757782867e-05 -3.3017157318104689e-05 0 3.7849088045149462e-05 -3.8126633964006102e-05 0 4.339559270989996e-05 -2.9805572637346988e-05 0 3.8767997417245222e-05 -2.9371009433793289e-05 0 4.1095216854749834e-05 -3.4375667553622117e-05 0 4.6691683029488089e-05 -3.4353275130301606e-05 0 4.1095216854749834e-05 -3.4375667553622117e-05 0 4.4645392241593416e-05 -3.9316177041529116e-05 0 4.1095216854749834e-05 -3.4375667553622117e-05 0 3.7849088045149462e-05 -3.8126633964006102e-05 0 4.4645392241593416e-05 -3.9316177041529116e-05 0 7.4666193289057685e-05 0.00017718018185149543 0 5.8653781357208382e-05 0.00020131716266853835 0 4.3818827330661288e-05 0.00018460708965263746 0 7.4666193289057685e-05 0.00017718018185149543 0 7.9849215371492898e-05 0.00020817051568421539 0 5.8653781357208382e-05 0.00020131716266853835 0 4.339559270989996e-05 -2.9805572637346988e-05 0 4.1095216854749834e-05 -3.4375667553622117e-05 0 4.6691683029488089e-05 -3.4353275130301606e-05 0 5.8751533416735255e-05 7.3655470032850097e-05 0 6.3008313170975281e-05 8.7207211287637526e-05 0 3.5003839878467809e-05 0.00021290015371458441 0 5.8653781357208382e-05 0.00020131716266853835 0 5.9632185567250091e-05 0.00022266814531125571 0 7.9849215371492898e-05 0.00020817051568421539 0 5.9632185567250091e-05 0.00022266814531125571 0 5.8653781357208382e-05 0.00020131716266853835 0 8.5049911588758762e-05 0.00024059569158615013 0 4.7456683375580341e-05 0.00024775966977403805 0 5.9632185567250091e-05 0.00022266814531125571 0 6.3008313170975281e-05 8.7207211287637526e-05 0 6.6595012279928886e-05 9.9885303972491285e-05 0 4.6691683029488089e-05 -3.4353275130301606e-05 0 4.464539224159341e-05 -3.9316177041529116e-05 0 5.0894149297149097e-05 -3.9521220316050712e-05 0 7.9849215371492898e-05 0.00020817051568421539 0 8.5049911588758762e-05 0.00024059569158615013 0 5.9632185567250091e-05 0.00022266814531125571 0 6.6595012279928886e-05 9.9885303972491285e-05 0 7.5176886789801137e-05 0.0001151966381705305 0 8.5049911588758762e-05 0.00024059569158615013 0 6.0661114278305258e-05 0.00027762550518656986 0 4.7456683375580341e-05 0.00024775966977403805 0 4.055751401249782e-05 -4.2354733767272503e-05 0 4.4645392241593416e-05 -3.9316177041529116e-05 0 3.7849088045149462e-05 -3.8126633964006102e-05 0 5.0894149297149097e-05 -3.9521220316050712e-05 0 4.4645392241593416e-05 -3.9316177041529116e-05 0 4.7151588008555431e-05 -4.6228545539674807e-05 0 4.055751401249782e-05 -4.2354733767272503e-05 0 3.9749311996848118e-05 -4.6913643405831559e-05 0 4.7151588008555431e-05 -4.6228545539674807e-05 0 4.055751401249782e-05 -4.2354733767272503e-05 0 4.7151588008555431e-05 -4.6228545539674807e-05 0 4.4645392241593416e-05 -3.9316177041529116e-05 0 4.5753197370273656e-05 -5.2983571700677607e-05 0 5.3055916548871697e-05 -5.1830019823008757e-05 0 4.7151588008555431e-05 -4.6228545539674807e-05 0 4.5753197370273656e-05 -5.2983571700677607e-05 0 4.7151588008555431e-05 -4.6228545539674807e-05 0 3.9749311996848118e-05 -4.6913643405831559e-05 0 5.0894149297149097e-05 -3.9521220316050712e-05 0 4.7151588008555431e-05 -4.6228545539674807e-05 0 5.6303391579170164e-05 -4.5686313436362337e-05 0 5.6303391579170164e-05 -4.5686313436362337e-05 0 4.7151588008555431e-05 -4.6228545539674807e-05 0 5.3055916548871697e-05 -5.1830019823008757e-05 0 4.5753197370273656e-05 -5.2983571700677607e-05 0 5.5056456027662107e-05 -5.9159174235978442e-05 0 5.3055916548871697e-05 -5.1830019823008757e-05 0 8.5049911588758762e-05 0.00024059569158615013 0 9.0481538924506289e-05 0.00027369181367168662 0 6.0661114278305258e-05 0.00027762550518656986 0 7.5176886789801137e-05 0.0001151966381705305 0 6.8699054871681581e-05 0.00012567573835488372 0 5.6303391579170164e-05 -4.5686313436362337e-05 0 5.3055916548871697e-05 -5.1830019823008757e-05 0 6.3311565279636147e-05 -5.3825684739460588e-05 0 9.0481538924506289e-05 0.00027369181367168662 0 9.6769501958535943e-05 0.00030826624532691158 0 6.0661114278305258e-05 0.00027762550518656986 0 9.6769501958535943e-05 0.00030826624532691158 0 5.7610726782164052e-05 0.00030858698497786892 0 6.0661114278305258e-05 0.00027762550518656986 0 9.6769501958535943e-05 0.00030826624532691158 0 7.642488977842829e-05 0.00032686901798727056 0 5.7610726782164052e-05 0.00030858698497786898 0 6.8699054871681581e-05 0.00012567573835488372 0 0.00012522740838153966 0.00014105046570066256 0 0.00010516311686274788 0.00034427487483613907 0 7.642488977842829e-05 0.00032686901798727056 0 9.6769501958535943e-05 0.00030826624532691158 0 0.00010516311686274788 0.00034427487483613907 0 6.7533996630116195e-05 0.00034864859295395608 0 7.642488977842829e-05 0.00032686901798727056 0 4.5753197370273656e-05 -5.2983571700677607e-05 0 4.284306281612731e-05 -6.0177221299399212e-05 0 5.5056456027662107e-05 -5.9159174235978442e-05 0 6.3311565279636147e-05 -5.3825684739460588e-05 0 5.3055916548871697e-05 -5.1830019823008757e-05 0 5.5056456027662107e-05 -5.9159174235978442e-05 0 7.1448956653063418e-05 -6.4968083685671937e-05 0 6.3311565279636147e-05 -5.3825684739460588e-05 0 5.5056456027662107e-05 -5.9159174235978442e-05 0 7.1448956653063418e-05 -6.4968083685671937e-05 0 5.5056456027662107e-05 -5.9159174235978442e-05 0 5.7955251858338211e-05 -6.8732766323963113e-05 0 5.7955251858338211e-05 -6.8732766323963113e-05 0 5.5056456027662107e-05 -5.9159174235978442e-05 0 4.284306281612731e-05 -6.0177221299399212e-05 0 3.5820107311429869e-05 -6.5563608192034762e-05 0 4.284306281612731e-05 -6.0177221299399212e-05 0 3.4610068822802785e-05 -5.5928577620000886e-05 0 4.5968278327553216e-05 -6.8337580565436308e-05 0 5.7955251858338211e-05 -6.8732766323963113e-05 0 4.284306281612731e-05 -6.0177221299399212e-05 0 3.5820107311429869e-05 -6.5563608192034762e-05 0 4.5968278327553216e-05 -6.8337580565436308e-05 0 4.284306281612731e-05 -6.0177221299399212e-05 0 4.5753197370273656e-05 -5.2983571700677607e-05 0 3.7839889116631029e-05 -5.2488290039927063e-05 0 4.284306281612731e-05 -6.0177221299399212e-05 0 3.4610068822802785e-05 -5.5928577620000886e-05 0 4.284306281612731e-05 -6.0177221299399212e-05 0 3.7839889116631029e-05 -5.2488290039927063e-05 0 3.3546845145264929e-05 -4.6908953613489408e-05 0 3.01100255114158e-05 -5.1629438596654861e-05 0 3.7839889116631029e-05 -5.2488290039927063e-05 0 3.3546845145264929e-05 -4.6908953613489408e-05 0 3.7839889116631029e-05 -5.2488290039927063e-05 0 3.9749311996848118e-05 -4.6913643405831559e-05 0 4.5753197370273656e-05 -5.2983571700677607e-05 0 3.9749311996848118e-05 -4.6913643405831559e-05 0 3.7839889116631029e-05 -5.2488290039927063e-05 0 2.5471973083431663e-05 -5.1833010899434116e-05 0 3.01100255114158e-05 -5.1629438596654861e-05 0 2.6730827532151097e-05 -4.6476256933682582e-05 0 3.3546845145264929e-05 -4.6908953613489408e-05 0 2.6730827532151097e-05 -4.6476256933682582e-05 0 3.01100255114158e-05 -5.1629438596654861e-05 0 3.4610068822802785e-05 -5.5928577620000886e-05 0 3.01100255114158e-05 -5.1629438596654861e-05 0 2.9213065595207112e-05 -5.7349158386477235e-05 0 3.4610068822802785e-05 -5.5928577620000886e-05 0 3.7839889116631029e-05 -5.2488290039927063e-05 0 3.01100255114158e-05 -5.1629438596654861e-05 0 2.5471973083431663e-05 -5.1833010899434116e-05 0 2.9213065595207112e-05 -5.7349158386477235e-05 0 3.01100255114158e-05 -5.1629438596654861e-05 0 3.5820107311429869e-05 -6.5563608192034762e-05 0 3.4610068822802785e-05 -5.5928577620000886e-05 0 2.9213065595207112e-05 -5.7349158386477235e-05 0 2.8628385776122782e-05 -6.2031366706153022e-05 0 3.5820107311429869e-05 -6.5563608192034762e-05 0 2.9213065595207112e-05 -5.7349158386477235e-05 0 2.8628385776122782e-05 -6.2031366706153022e-05 0 2.9213065595207112e-05 -5.7349158386477235e-05 0 2.5143771818587713e-05 -5.6506277722434043e-05 0 2.3532511413134278e-05 -5.8319625015280967e-05 0 2.8628385776122785e-05 -6.2031366706153022e-05 0 2.5143771818587713e-05 -5.6506277722434043e-05 0 2.3532511413134278e-05 -5.8319625015280967e-05 0 2.5143771818587713e-05 -5.6506277722434043e-05 0 2.0888487053984648e-05 -5.274556214494949e-05 0 2.5471973083431663e-05 -5.1833010899434116e-05 0 2.0888487053984648e-05 -5.2745562144949497e-05 0 2.5143771818587713e-05 -5.6506277722434043e-05 0 2.5471973083431663e-05 -5.1833010899434116e-05 0 2.5143771818587713e-05 -5.6506277722434043e-05 0 2.9213065595207112e-05 -5.7349158386477235e-05 0 2.0238879827660504e-05 -5.3848197372222532e-05 0 2.1141656388646357e-05 -5.5274905449845146e-05 0 1.8736130696164335e-05 -5.3161143944180443e-05 0 2.1141656388646357e-05 -5.5274905449845146e-05 0 2.3532511413134278e-05 -5.8319625015280967e-05 0 1.8736130696164335e-05 -5.3161143944180443e-05 0 2.3532511413134278e-05 -5.8319625015280967e-05 0 2.0888487053984648e-05 -5.274556214494949e-05 0 1.8736130696164335e-05 -5.3161143944180443e-05 0 1.5328666913140109e-05 -4.9992465210976497e-05 0 1.8736130696164335e-05 -5.3161143944180443e-05 0 1.7525046272647517e-05 -4.9159894412804462e-05 0 2.0888487053984648e-05 -5.274556214494949e-05 0 1.7525046272647517e-05 -4.9159894412804462e-05 0 1.8736130696164335e-05 -5.3161143944180443e-05 0 1.7525046272647517e-05 -4.9159894412804462e-05 0 2.0905630550454167e-05 -4.7693756690999951e-05 0 1.7036985117158621e-05 -4.4991221939345398e-05 0 1.7036985117158621e-05 -4.4991221939345398e-05 0 1.4186104232758468e-05 -4.5494003968998892e-05 0 1.7525046272647517e-05 -4.9159894412804462e-05 0 1.5328666913140109e-05 -4.9992465210976497e-05 0 1.7525046272647517e-05 -4.9159894412804462e-05 0 1.4186104232758468e-05 -4.5494003968998892e-05 0 2.5471973083431663e-05 -5.1833010899434116e-05 0 2.0905630550454167e-05 -4.7693756690999951e-05 0 2.0888487053984648e-05 -5.274556214494949e-05 0 2.0888487053984648e-05 -5.274556214494949e-05 0 2.0905630550454167e-05 -4.7693756690999951e-05 0 1.7525046272647517e-05 -4.9159894412804462e-05 0 2.5471973083431663e-05 -5.1833010899434116e-05 0 2.6730827532151097e-05 -4.6476256933682582e-05 0 2.0905630550454167e-05 -4.7693756690999951e-05 0 2.2441842302651425e-05 -4.3564377524552023e-05 0 2.0905630550454167e-05 -4.7693756690999951e-05 0 2.6730827532151097e-05 -4.6476256933682582e-05 0 2.2441842302651425e-05 -4.3564377524552023e-05 0 2.4152047179664779e-05 -3.9987185900684842e-05 0 2.0219554217587978e-05 -3.9636536156739277e-05 0 2.2441842302651425e-05 -4.3564377524552023e-05 0 2.0219554217587978e-05 -3.9636536156739277e-05 0 1.9247827494757277e-05 -4.3521543428887859e-05 0 1.6782777392717287e-05 -4.0099131862981197e-05 0 1.9247827494757277e-05 -4.3521543428887859e-05 0 2.0219554217587978e-05 -3.9636536156739277e-05 0 2.2441842302651425e-05 -4.3564377524552023e-05 0 1.9247827494757277e-05 -4.3521543428887859e-05 0 2.0905630550454167e-05 -4.7693756690999951e-05 0 1.7036985117158621e-05 -4.4991221939345398e-05 0 1.9247827494757277e-05 -4.3521543428887859e-05 0 1.6782777392717287e-05 -4.0099131862981197e-05 0 1.7036985117158621e-05 -4.4991221939345398e-05 0 2.0905630550454167e-05 -4.7693756690999951e-05 0 1.9247827494757277e-05 -4.3521543428887859e-05 0 1.7036985117158621e-05 -4.4991221939345398e-05 0 1.3413837583438503e-05 -3.9386124713471279e-05 0 1.4186104232758468e-05 -4.5494003968998892e-05 0 1.1615300998380251e-05 -4.223949477413771e-05 0 1.4186104232758468e-05 -4.5494003968998892e-05 0 1.3413837583438503e-05 -3.9386124713471279e-05 0 1.7036985117158621e-05 -4.4991221939345398e-05 0 1.6782777392717287e-05 -4.0099131862981197e-05 0 1.3413837583438503e-05 -3.9386124713471279e-05 0 1.2909653592856414e-05 -3.4729971801966643e-05 0 1.6782777392717287e-05 -4.0099131862981197e-05 0 1.7519077684354049e-05 -3.553365674018952e-05 0 1.2909653592856414e-05 -3.4729971801966643e-05 0 1.3413837583438503e-05 -3.9386124713471279e-05 0 1.6782777392717287e-05 -4.0099131862981197e-05 0 1.2909653592856414e-05 -3.4729971801966643e-05 0 8.5228236675296001e-06 -3.6337299900303004e-05 0 1.3413837583438503e-05 -3.9386124713471279e-05 0 1.2909653592856414e-05 -3.4729971801966643e-05 0 1.7519077684354049e-05 -3.553365674018952e-05 0 1.5628599705415766e-05 -3.0151302035739125e-05 0 1.5628599705415766e-05 -3.0151302035739125e-05 0 1.7519077684354049e-05 -3.553365674018952e-05 0 1.9538204130403188e-05 -3.1033644679498254e-05 0 2.1632746380678798e-05 -3.5743486593462273e-05 0 1.9538204130403188e-05 -3.1033644679498254e-05 0 1.7519077684354049e-05 -3.553365674018952e-05 0 2.1632746380678798e-05 -3.5743486593462273e-05 0 1.7519077684354049e-05 -3.553365674018952e-05 0 2.0219554217587978e-05 -3.9636536156739277e-05 0 2.1632746380678798e-05 -3.5743486593462273e-05 0 2.0219554217587978e-05 -3.9636536156739277e-05 0 2.4152047179664779e-05 -3.9987185900684842e-05 0 1.6782777392717287e-05 -4.0099131862981197e-05 0 2.0219554217587978e-05 -3.9636536156739277e-05 0 1.7519077684354049e-05 -3.553365674018952e-05 0 3.0181391045690578e-05 -0.00010413074513530337 0 1.6637931098838371e-05 -9.5662119409128561e-05 0 1.9642810936620978e-05 -0.00011057421620759415 0 1.5278829522684699e-05 -6.095316542788436e-05 0 1.7403680264637524e-05 -7.2241951559382046e-05 0 2.7522459453395548e-05 -8.7730391861578209e-05 0 1.6637931098838371e-05 -9.5662119409128561e-05 0 3.0181391045690578e-05 -0.00010413074513530337 0 3.2123250594618876e-06 -3.4157978302727475e-05 0 4.8013104850188294e-06 -4.0293987523863195e-05 0 8.5228236675296001e-06 -3.6337299900303004e-05 0 3.2123250594618876e-06 -3.4157978302727475e-05 0 8.5228236675296001e-06 -3.6337299900303004e-05 0 6.3102668322938141e-06 -3.0497062485435493e-05 0 1.2909653592856414e-05 -3.4729971801966643e-05 0 9.6259041995152901e-06 -3.1880573831129396e-05 0 8.5228236675296001e-06 -3.6337299900303004e-05 0 8.5228236675296001e-06 -3.6337299900303004e-05 0 9.6259041995152901e-06 -3.1880573831129396e-05 0 6.3102668322938141e-06 -3.0497062485435493e-05 0 1.1615300998380251e-05 -4.223949477413771e-05 0 1.3413837583438503e-05 -3.9386124713471279e-05 0 8.5228236675296001e-06 -3.6337299900303004e-05 0 4.8013104850188294e-06 -4.0293987523863195e-05 0 8.3914316624633064e-06 -4.1926028682077944e-05 0 8.5228236675296001e-06 -3.6337299900303004e-05 0 1.1615300998380251e-05 -4.223949477413771e-05 0 8.5228236675296001e-06 -3.6337299900303004e-05 0 8.3914316624633064e-06 -4.1926028682077944e-05 0 1.1615300998380251e-05 -4.223949477413771e-05 0 8.3914316624633064e-06 -4.1926028682077944e-05 0 1.1449210257643083e-05 -4.6727833420456157e-05 0 1.1615300998380251e-05 -4.223949477413771e-05 0 1.1449210257643083e-05 -4.6727833420456157e-05 0 1.4186104232758468e-05 -4.5494003968998892e-05 0 7.1944295972375426e-06 -4.5982938984767518e-05 0 1.1449210257643083e-05 -4.6727833420456151e-05 0 8.3914316624633064e-06 -4.1926028682077944e-05 0 7.1944295972375426e-06 -4.5982938984767518e-05 0 1.0619353135306083e-05 -5.0806297590787497e-05 0 1.1449210257643083e-05 -4.6727833420456157e-05 0 3.2906499516733247e-05 -0.00012144969561912481 0 1.9642810936620978e-05 -0.00011057421620759415 0 1.2607317988526933e-05 -0.00012423600528879125 0 3.2906499516733247e-05 -0.00012144969561912481 0 1.2607317988526932e-05 -0.00012423600528879125 0 2.057248168328562e-05 -0.00014095130924095573 0 1.974433436985757e-05 -8.3560707010714669e-05 0 2.3559666472463402e-05 -9.5336234313184588e-05 0 4.8013104850188294e-06 -4.0293987523863195e-05 0 7.1944295972375426e-06 -4.5982938984767518e-05 0 8.3914316624633064e-06 -4.1926028682077944e-05 0 3.0181391045690578e-05 -0.00010413074513530337 0 1.9642810936620978e-05 -0.00011057421620759415 0 3.2906499516733247e-05 -0.00012144969561912481 0 1.7403680264637524e-05 -7.2241951559382046e-05 0 1.974433436985757e-05 -8.3560707010714669e-05 0 3.2906499516733247e-05 -0.00012144969561912481 0 2.057248168328562e-05 -0.00014095130924095573 0 3.5987853248751438e-05 -0.00013917590046067429 0 2.3559666472463402e-05 -9.5336234313184588e-05 0 2.5326056653407525e-05 -0.00010536826243204381 0 1.0619353135306083e-05 -5.0806297590787497e-05 0 1.5295029914786558e-05 -5.4161990665390655e-05 0 1.3719342909898409e-05 -5.0853982856655257e-05 0 3.5987853248751438e-05 -0.00013917590046067429 0 2.057248168328562e-05 -0.00014095130924095573 0 3.9674400953430627e-05 -0.00015769081439729137 0 3.9674400953430627e-05 -0.00015769081439729137 0 2.057248168328562e-05 -0.00014095130924095576 0 1.9815854962855384e-05 -0.00015775212741391158 0 1.5328666913140109e-05 -4.9992465210976497e-05 0 1.4186104232758468e-05 -4.5494003968998892e-05 0 1.1449210257643083e-05 -4.6727833420456157e-05 0 1.5328666913140109e-05 -4.9992465210976497e-05 0 1.1449210257643083e-05 -4.6727833420456157e-05 0 1.3719342909898409e-05 -5.0853982856655257e-05 0 1.0619353135306083e-05 -5.0806297590787497e-05 0 1.3719342909898409e-05 -5.0853982856655257e-05 0 1.1449210257643083e-05 -4.6727833420456157e-05 0 1.5328666913140109e-05 -4.9992465210976497e-05 0 1.3719342909898409e-05 -5.0853982856655257e-05 0 1.6802072088292105e-05 -5.2688626614143102e-05 0 1.5328666913140109e-05 -4.9992465210976497e-05 0 1.6802072088292105e-05 -5.2688626614143102e-05 0 1.8736130696164335e-05 -5.3161143944180443e-05 0 1.5295029914786558e-05 -5.4161990665390655e-05 0 1.6802072088292105e-05 -5.2688626614143102e-05 0 1.3719342909898409e-05 -5.0853982856655257e-05 0 2.0817086959388601e-05 -5.5323843785570229e-05 0 1.6802072088292105e-05 -5.2688626614143102e-05 0 1.5295029914786558e-05 -5.4161990665390655e-05 0 2.0817086959388601e-05 -5.5323843785570229e-05 0 2.0238879827660504e-05 -5.3848197372222532e-05 0 1.6802072088292105e-05 -5.2688626614143102e-05 0 2.0238879827660504e-05 -5.3848197372222532e-05 0 1.8736130696164335e-05 -5.3161143944180443e-05 0 1.6802072088292105e-05 -5.2688626614143102e-05 0 3.9674400953430627e-05 -0.00015769081439729137 0 1.9815854962855384e-05 -0.00015775212741391158 0 2.9785739786670467e-05 -0.00016744941894085137 0 2.5326056653407525e-05 -0.00010536826243204381 0 3.9411863754678831e-05 -0.00011649396053863139 0 4.5083637469716521e-05 -0.00017651383884589126 0 3.9674400953430627e-05 -0.00015769081439729137 0 2.9785739786670467e-05 -0.00016744941894085137 0 4.5083637469716521e-05 -0.00017651383884589126 0 2.9785739786670467e-05 -0.00016744941894085137 0 2.5756734490363236e-05 -0.00017871016991598702 0 2.5756734490363236e-05 -0.00017871016991598702 0 2.9785739786670467e-05 -0.00016744941894085137 0 1.4720326645622046e-05 -0.00016919392053155684 0 6.5900402600903915e-06 -0.000178713600578242 0 2.5756734490363236e-05 -0.00017871016991598702 0 1.4720326645622046e-05 -0.00016919392053155684 0 1.9815854962855384e-05 -0.00015775212741391158 0 3.4981311304789637e-06 -0.00016182037882936135 0 1.4720326645622046e-05 -0.00016919392053155684 0 1.9815854962855384e-05 -0.00015775212741391158 0 1.4720326645622046e-05 -0.00016919392053155684 0 2.9785739786670467e-05 -0.00016744941894085137 0 6.5900402600903915e-06 -0.000178713600578242 0 1.4720326645622049e-05 -0.00016919392053155684 0 3.4981311304789637e-06 -0.00016182037882936135 0 -1.1232238924893242e-05 -0.00017809884998040031 0 3.4981311304789637e-06 -0.00016182037882936135 0 -1.2360791992211129e-05 -0.00015552431628595414 0 -1.1232238924893242e-05 -0.00017809884998040031 0 -1.2360791992211129e-05 -0.00015552431628595414 0 -2.7302152061564313e-05 -0.00016145297046557609 0 -1.1232238924893242e-05 -0.00017809884998040031 0 6.5900402600903915e-06 -0.000178713600578242 0 3.4981311304789637e-06 -0.00016182037882936135 0 4.5602263546841321e-06 -0.00014355120833278403 0 -1.2360791992211129e-05 -0.00015552431628595414 0 3.4981311304789637e-06 -0.00016182037882936135 0 4.5602263546841321e-06 -0.00014355120833278403 0 -1.4239233252004775e-05 -0.00013533740121098159 0 -1.2360791992211129e-05 -0.00015552431628595414 0 -3.0375857857665573e-05 -0.00014329276991804693 0 -1.2360791992211129e-05 -0.00015552431628595414 0 -1.4239233252004775e-05 -0.00013533740121098159 0 4.5602263546841321e-06 -0.00014355120833278403 0 -2.8057786454316749e-06 -0.00012629154839858541 0 -1.4239233252004775e-05 -0.00013533740121098159 0 4.5602263546841321e-06 -0.00014355120833278403 0 2.057248168328562e-05 -0.00014095130924095573 0 1.2607317988526933e-05 -0.00012423600528879125 0 4.5602263546841321e-06 -0.00014355120833278403 0 1.9815854962855384e-05 -0.00015775212741391158 0 2.057248168328562e-05 -0.00014095130924095573 0 4.5602263546841321e-06 -0.00014355120833278403 0 3.4981311304789621e-06 -0.00016182037882936135 0 1.9815854962855384e-05 -0.00015775212741391158 0 -6.2443405864499356e-05 -0.0001601214580309497 0 -5.1046247700887551e-05 -0.00016758046268381234 0 -4.3355802130165397e-05 -0.00015787270151628808 0 -6.2421820425352347e-05 -0.00017739510367283036 0 -5.1046247700887551e-05 -0.00016758046268381234 0 -6.2443405864499356e-05 -0.0001601214580309497 0 -6.2421820425352347e-05 -0.00017739510367283036 0 -4.5302810418784463e-05 -0.00017736119484727453 0 -5.1046247700887551e-05 -0.00016758046268381234 0 -4.530281041878447e-05 -0.00017736119484727456 0 -3.6905692208192051e-05 -0.00016853138044227976 0 -5.1046247700887551e-05 -0.00016758046268381234 0 -4.3355802130165397e-05 -0.00015787270151628808 0 -5.1046247700887551e-05 -0.00016758046268381234 0 -3.6905692208192051e-05 -0.00016853138044227976 0 -4.3355802130165397e-05 -0.00015787270151628808 0 -3.6905692208192051e-05 -0.00016853138044227976 0 -2.7302152061564313e-05 -0.00016145297046557609 0 -2.8220775647470126e-05 -0.00017761600362153383 0 -2.7302152061564313e-05 -0.00016145297046557609 0 -3.6905692208192051e-05 -0.00016853138044227976 0 -4.530281041878447e-05 -0.00017736119484727456 0 -2.8220775647470126e-05 -0.00017761600362153383 0 -3.6905692208192051e-05 -0.00016853138044227976 0 -2.8220775647470126e-05 -0.00017761600362153383 0 -1.1232238924893242e-05 -0.00017809884998040031 0 -2.7302152061564313e-05 -0.00016145297046557609 0 -3.0375857857665573e-05 -0.00014329276991804693 0 -2.7302152061564313e-05 -0.00016145297046557609 0 -1.2360791992211129e-05 -0.00015552431628595414 0 -3.0375857857665573e-05 -0.00014329276991804693 0 -1.4239233252004775e-05 -0.00013533740121098159 0 -2.6516555333793726e-05 -0.00012343318600345314 0 -3.0375857857665573e-05 -0.00014329276991804693 0 -4.1503298918952937e-05 -0.00012637001755548021 0 -4.6797372072807419e-05 -0.00014239599992818089 0 -3.0375857857665573e-05 -0.00014329276991804693 0 -4.3355802130165397e-05 -0.00015787270151628808 0 -2.7302152061564313e-05 -0.00016145297046557609 0 -3.0375857857665573e-05 -0.00014329276991804693 0 -4.6797372072807419e-05 -0.00014239599992818089 0 -4.3355802130165397e-05 -0.00015787270151628808 0 -6.2443405864499356e-05 -0.0001601214580309497 0 -4.3355802130165397e-05 -0.00015787270151628808 0 -4.6797372072807419e-05 -0.00014239599992818089 0 -6.1417758556528434e-05 -0.00012502618912645972 0 -6.2153829007781367e-05 -0.00014263216939405338 0 -4.6797372072807419e-05 -0.00014239599992818089 0 -6.2153829007781367e-05 -0.00014263216939405338 0 -6.2443405864499356e-05 -0.0001601214580309497 0 -4.6797372072807419e-05 -0.00014239599992818089 0 -6.0036995687055008e-05 -0.00010786515776601123 0 -6.1417758556528434e-05 -0.00012502618912645972 0 -4.8773499050721607e-05 -0.00011382581813477994 0 -6.1417758556528434e-05 -0.00012502618912645972 0 -4.6797372072807419e-05 -0.00014239599992818089 0 -4.1503298918952937e-05 -0.00012637001755548021 0 -3.629825981219688e-05 -0.00010770178958162158 0 -4.8773499050721607e-05 -0.00011382581813477994 0 -4.1503298918952937e-05 -0.00012637001755548021 0 -6.1417758556528434e-05 -0.00012502618912645972 0 -4.1503298918952937e-05 -0.00012637001755548021 0 -4.8773499050721607e-05 -0.00011382581813477994 0 -3.629825981219688e-05 -0.00010770178958162158 0 -4.150329891895293e-05 -0.00012637001755548023 0 -2.6516555333793726e-05 -0.00012343318600345314 0 -3.0375857857665573e-05 -0.00014329276991804693 0 -2.6516555333793726e-05 -0.00012343318600345314 0 -4.1503298918952937e-05 -0.00012637001755548021 0 -3.629825981219688e-05 -0.00010770178958162158 0 -2.6516555333793726e-05 -0.00012343318600345314 0 -2.4062553077032019e-05 -0.00010712309077901741 0 -1.3947199002498423e-05 -0.00011615657502682602 0 -2.4062553077032019e-05 -0.00010712309077901741 0 -2.6516555333793726e-05 -0.00012343318600345314 0 -3.629825981219688e-05 -0.00010770178958162158 0 -2.4062553077032019e-05 -0.00010712309077901741 0 -2.9093774986853396e-05 -9.6362198484959341e-05 0 -2.6726664023159017e-05 -8.1836256252119276e-05 0 -2.9093774986853396e-05 -9.6362198484959341e-05 0 -1.6101089046753488e-05 -9.6900332697070818e-05 0 -1.6101089046753488e-05 -9.6900332697070818e-05 0 -2.9093774986853396e-05 -9.6362198484959341e-05 0 -2.4062553077032019e-05 -0.00010712309077901741 0 -3.629825981219688e-05 -0.00010770178958162158 0 -2.9093774986853396e-05 -9.6362198484959341e-05 0 -4.1564470449511132e-05 -9.133255231785577e-05 0 -3.629825981219688e-05 -0.00010770178958162158 0 -4.907354924133655e-05 -0.00010203589587076515 0 -4.8773499050721607e-05 -0.00011382581813477994 0 -3.629825981219688e-05 -0.00010770178958162158 0 -4.1564470449511125e-05 -9.1332552317855757e-05 0 -4.907354924133655e-05 -0.00010203589587076515 0 -5.7899452932373223e-05 -9.115748700805401e-05 0 -4.907354924133655e-05 -0.00010203589587076517 0 -4.1564470449511132e-05 -9.133255231785577e-05 0 -5.7899452932373223e-05 -9.115748700805401e-05 0 -6.0036995687055008e-05 -0.00010786515776601123 0 -4.907354924133655e-05 -0.00010203589587076515 0 -6.0036995687055008e-05 -0.00010786515776601123 0 -4.8773499050721607e-05 -0.00011382581813477994 0 -4.907354924133655e-05 -0.00010203589587076515 0 8.0942524847502507e-06 -0.00010503014475052571 0 -2.7734376025487196e-06 -0.00011097388444844197 0 1.2607317988526933e-05 -0.00012423600528879125 0 1.2607317988526933e-05 -0.00012423600528879125 0 -2.7734376025487196e-06 -0.00011097388444844197 0 -2.8057786454316749e-06 -0.00012629154839858541 0 8.0942524847502507e-06 -0.00010503014475052571 0 1.2607317988526933e-05 -0.00012423600528879125 0 1.9642810936620978e-05 -0.00011057421620759415 0 4.5602263546841321e-06 -0.00014355120833278403 0 1.2607317988526933e-05 -0.00012423600528879125 0 -2.8057786454316749e-06 -0.00012629154839858541 0 -1.3947199002498423e-05 -0.00011615657502682602 0 -1.4239233252004775e-05 -0.00013533740121098159 0 -2.8057786454316749e-06 -0.00012629154839858541 0 -1.3947199002498423e-05 -0.00011615657502682602 0 -2.6516555333793726e-05 -0.00012343318600345314 0 -1.4239233252004775e-05 -0.00013533740121098159 0 -1.3947199002498423e-05 -0.00011615657502682602 0 -2.8057786454316749e-06 -0.00012629154839858541 0 -2.7734376025487196e-06 -0.00011097388444844197 0 -1.6101089046753488e-05 -9.6900332697070818e-05 0 -2.7734376025487196e-06 -0.00011097388444844197 0 -3.3591802492952522e-06 -9.4816345551615745e-05 0 -1.3947199002498423e-05 -0.00011615657502682602 0 -2.7734376025487196e-06 -0.00011097388444844197 0 -1.6101089046753488e-05 -9.6900332697070818e-05 0 -1.3947199002498423e-05 -0.00011615657502682602 0 -1.6101089046753492e-05 -9.6900332697070818e-05 0 -2.4062553077032019e-05 -0.00010712309077901741 0 -1.6101089046753488e-05 -9.6900332697070818e-05 0 -3.3591802492952513e-06 -9.4816345551615745e-05 0 -1.129417343010644e-05 -8.1883240768755101e-05 0 8.0942524847502507e-06 -0.00010503014475052571 0 6.3303789235597341e-06 -9.1489422994712815e-05 0 -3.3591802492952522e-06 -9.4816345551615745e-05 0 8.0942524847502507e-06 -0.00010503014475052571 0 -3.3591802492952522e-06 -9.4816345551615745e-05 0 -2.7734376025487196e-06 -0.00011097388444844197 0 8.0942524847502507e-06 -0.00010503014475052571 0 1.9642810936620978e-05 -0.00011057421620759415 0 1.6637931098838371e-05 -9.5662119409128561e-05 0 8.0942524847502507e-06 -0.00010503014475052571 0 1.6637931098838371e-05 -9.5662119409128561e-05 0 6.3303789235597341e-06 -9.1489422994712815e-05 0 1.2204210656366268e-05 -8.0909965631367273e-05 0 6.3303789235597341e-06 -9.1489422994712815e-05 0 1.6637931098838371e-05 -9.5662119409128561e-05 0 -1.6780643157863993e-06 -8.1321463200265663e-05 0 6.3303789235597341e-06 -9.1489422994712815e-05 0 1.2204210656366268e-05 -8.0909965631367273e-05 0 -1.6780643157863993e-06 -8.1321463200265663e-05 0 1.2204210656366268e-05 -8.090996563136726e-05 0 4.4896791398059444e-06 -7.135046026301665e-05 0 1.2204210656366268e-05 -8.0909965631367273e-05 0 1.287811309180095e-05 -6.6572804678654004e-05 0 4.4896791398059444e-06 -7.135046026301665e-05 0 -1.6780643157863993e-06 -8.1321463200265663e-05 0 4.4896791398059444e-06 -7.135046026301665e-05 0 -4.549771927646406e-06 -6.9184854225620165e-05 0 -1.6780643157863993e-06 -8.1321463200265663e-05 0 -3.3591802492952522e-06 -9.4816345551615745e-05 0 6.3303789235597341e-06 -9.1489422994712815e-05 0 -1.6780643157863993e-06 -8.1321463200265663e-05 0 -1.129417343010644e-05 -8.1883240768755101e-05 0 -3.3591802492952522e-06 -9.4816345551615745e-05 0 -2.6726664023159017e-05 -8.1836256252119276e-05 0 -1.6101089046753488e-05 -9.6900332697070818e-05 0 -1.129417343010644e-05 -8.1883240768755101e-05 0 -2.6726664023159017e-05 -8.1836256252119276e-05 0 -1.129417343010644e-05 -8.1883240768755101e-05 0 -1.5574735380996183e-05 -6.8492212997015635e-05 0 -1.6780643157863993e-06 -8.1321463200265663e-05 0 -4.549771927646406e-06 -6.9184854225620165e-05 0 -1.129417343010644e-05 -8.1883240768755101e-05 0 -1.5574735380996183e-05 -6.8492212997015635e-05 0 -1.129417343010644e-05 -8.1883240768755101e-05 0 -4.549771927646406e-06 -6.9184854225620165e-05 0 -1.5574735380996183e-05 -6.8492212997015635e-05 0 -4.549771927646406e-06 -6.9184854225620165e-05 0 -5.4760451253041956e-06 -5.5223049487949535e-05 0 -1.4320315693713223e-05 -5.0785222609684168e-05 0 -2.2533690442139388e-05 -5.95369119138408e-05 0 -1.5574735380996183e-05 -6.8492212997015635e-05 0 -1.4320315693713223e-05 -5.0785222609684168e-05 0 -1.5574735380996183e-05 -6.8492212997015635e-05 0 -5.4760451253041956e-06 -5.5223049487949535e-05 0 3.7779128258423634e-06 -5.9182820647372516e-05 0 3.4116285323044743e-06 -4.3193788254689357e-05 0 -5.4760451253041956e-06 -5.5223049487949535e-05 0 3.7779128258423634e-06 -5.9182820647372516e-05 0 1.1894740663412797e-05 -5.1158631213324353e-05 0 3.4116285323044743e-06 -4.3193788254689357e-05 0 3.7779128258423634e-06 -5.9182820647372516e-05 0 4.4896791398059453e-06 -7.135046026301665e-05 0 1.287811309180095e-05 -6.6572804678654004e-05 0 3.7779128258423634e-06 -5.9182820647372516e-05 0 -5.4760451253041956e-06 -5.5223049487949535e-05 0 -4.549771927646406e-06 -6.9184854225620165e-05 0 3.7779128258423634e-06 -5.9182820647372516e-05 0 -4.549771927646406e-06 -6.9184854225620165e-05 0 4.4896791398059444e-06 -7.135046026301665e-05 0 -5.4986659549596109e-05 -7.5399598887239904e-05 0 -4.8264118513841757e-05 -8.3254721048269296e-05 0 -3.8774086146075128e-05 -7.4706457534206525e-05 0 -5.4986659549596109e-05 -7.5399598887239904e-05 0 -3.8774086146075128e-05 -7.4706457534206525e-05 0 -4.2609792773397159e-05 -6.3835949827111902e-05 0 -5.7899452932373223e-05 -9.115748700805401e-05 0 -4.1564470449511132e-05 -9.133255231785577e-05 0 -4.8264118513841757e-05 -8.3254721048269296e-05 0 -5.4986659549596109e-05 -7.5399598887239904e-05 0 -5.7899452932373223e-05 -9.115748700805401e-05 0 -4.8264118513841757e-05 -8.3254721048269296e-05 0 -4.1564470449511132e-05 -9.133255231785577e-05 0 -3.8774086146075128e-05 -7.4706457534206525e-05 0 -4.8264118513841757e-05 -8.3254721048269296e-05 0 -2.6726664023159017e-05 -8.1836256252119276e-05 0 -2.6637833229983263e-05 -6.8761502409733189e-05 0 -3.8774086146075128e-05 -7.4706457534206525e-05 0 -2.6726664023159017e-05 -8.1836256252119276e-05 0 -3.8774086146075121e-05 -7.4706457534206525e-05 0 -4.1564470449511132e-05 -9.133255231785577e-05 0 -2.6726664023159017e-05 -8.1836256252119276e-05 0 -4.1564470449511132e-05 -9.133255231785577e-05 0 -2.9093774986853396e-05 -9.6362198484959341e-05 0 -2.6726664023159017e-05 -8.1836256252119276e-05 0 -1.5574735380996183e-05 -6.8492212997015622e-05 0 -2.6637833229983263e-05 -6.8761502409733189e-05 0 -3.2441243276390633e-05 -6.0349614503702996e-05 0 -2.6637833229983263e-05 -6.8761502409733189e-05 0 -2.2533690442139388e-05 -5.95369119138408e-05 0 -1.5574735380996183e-05 -6.8492212997015635e-05 0 -2.2533690442139388e-05 -5.95369119138408e-05 0 -2.6637833229983263e-05 -6.8761502409733189e-05 0 -1.4320315693713223e-05 -5.0785222609684168e-05 0 -2.4008819059929534e-05 -5.025802290751179e-05 0 -2.2533690442139388e-05 -5.95369119138408e-05 0 -3.2441243276390633e-05 -6.0349614503702996e-05 0 -2.2533690442139388e-05 -5.95369119138408e-05 0 -2.4008819059929534e-05 -5.025802290751179e-05 0 -3.2441243276390633e-05 -6.0349614503702996e-05 0 -2.4008819059929534e-05 -5.025802290751179e-05 0 -3.7213803260823719e-05 -5.1189878767135069e-05 0 -3.2441243276390633e-05 -6.0349614503702996e-05 0 -3.8774086146075128e-05 -7.4706457534206525e-05 0 -2.6637833229983263e-05 -6.8761502409733189e-05 0 -3.2441243276390633e-05 -6.0349614503702996e-05 0 -4.2609792773397159e-05 -6.3835949827111902e-05 0 -3.8774086146075128e-05 -7.4706457534206525e-05 0 -3.2441243276390633e-05 -6.0349614503702996e-05 0 -3.7213803260823719e-05 -5.1189878767135069e-05 0 -4.2609792773397159e-05 -6.3835949827111902e-05 0 -5.1502429439899002e-05 -6.0710825541199542e-05 0 -4.2609792773397159e-05 -6.3835949827111902e-05 0 -3.7213803260823719e-05 -5.1189878767135069e-05 0 -5.1502429439899002e-05 -6.0710825541199542e-05 0 -5.4986659549596109e-05 -7.5399598887239904e-05 0 -4.2609792773397159e-05 -6.3835949827111902e-05 0 -4.2542234539294656e-05 -3.5507849244345681e-05 0 -4.7446767491198612e-05 -4.736306942483963e-05 0 -3.6660040127017294e-05 -3.9920061340353021e-05 0 -4.7446767491198612e-05 -4.736306942483963e-05 0 -5.1502429439899002e-05 -6.0710825541199542e-05 0 -3.7213803260823719e-05 -5.1189878767135069e-05 0 -4.7446767491198612e-05 -4.736306942483963e-05 0 -3.7213803260823719e-05 -5.1189878767135069e-05 0 -3.6660040127017294e-05 -3.9920061340353021e-05 0 -2.7953793559308189e-05 -3.957002799420672e-05 0 -3.6660040127017294e-05 -3.9920061340353021e-05 0 -3.7213803260823719e-05 -5.1189878767135069e-05 0 -2.7953793559308189e-05 -3.957002799420672e-05 0 -3.7213803260823719e-05 -5.1189878767135069e-05 0 -2.4008819059929534e-05 -5.025802290751179e-05 0 -1.4320315693713223e-05 -5.0785222609684168e-05 0 -2.0430896225935736e-05 -4.1063633633974293e-05 0 -2.4008819059929534e-05 -5.025802290751179e-05 0 -2.7953793559308189e-05 -3.957002799420672e-05 0 -2.4008819059929534e-05 -5.025802290751179e-05 0 -2.0430896225935736e-05 -4.1063633633974293e-05 0 -1.3276939908679517e-05 -3.4669031197261859e-05 0 -2.1298491819444428e-05 -3.2860615636243279e-05 0 -2.0430896225935736e-05 -4.1063633633974293e-05 0 -2.7953793559308189e-05 -3.957002799420672e-05 0 -2.0430896225935736e-05 -4.1063633633974293e-05 0 -2.1298491819444428e-05 -3.2860615636243279e-05 0 -1.7229134043350127e-05 -2.4195659602046974e-05 0 -2.8631214083955862e-05 -2.8187804119524029e-05 0 -2.1298491819444428e-05 -3.2860615636243279e-05 0 -1.7229134043350127e-05 -2.4195659602046974e-05 0 -2.0127428071309142e-05 -1.9096008233759762e-05 0 -2.8631214083955862e-05 -2.8187804119524029e-05 0 -2.7953793559308189e-05 -3.957002799420672e-05 0 -2.1298491819444428e-05 -3.2860615636243279e-05 0 -2.8631214083955862e-05 -2.8187804119524029e-05 0 -4.2542234539294656e-05 -3.5507849244345681e-05 0 -3.6660040127017294e-05 -3.9920061340353021e-05 0 -2.8631214083955862e-05 -2.8187804119524029e-05 0 -2.7953793559308189e-05 -3.957002799420672e-05 0 -2.8631214083955862e-05 -2.8187804119524029e-05 0 -3.6660040127017294e-05 -3.9920061340353021e-05 0 -3.7676295871675843e-05 -2.5492664155984196e-05 0 -4.2542234539294656e-05 -3.5507849244345681e-05 0 -2.8631214083955862e-05 -2.8187804119524029e-05 0 -3.8613805429633136e-06 -3.1601577027926645e-05 0 -6.8009558948232678e-06 -4.2610075338216684e-05 0 3.4116285323044743e-06 -4.3193788254689357e-05 0 -3.8613805429633136e-06 -3.1601577027926645e-05 0 3.4116285323044743e-06 -4.3193788254689357e-05 0 4.2600692390795389e-06 -2.8099739164464679e-05 0 3.4116285323044743e-06 -4.3193788254689357e-05 0 -6.8009558948232678e-06 -4.2610075338216684e-05 0 -5.4760451253041956e-06 -5.5223049487949535e-05 0 -1.4320315693713223e-05 -5.0785222609684168e-05 0 -5.4760451253041956e-06 -5.5223049487949535e-05 0 -6.8009558948232678e-06 -4.2610075338216684e-05 0 -1.4320315693713223e-05 -5.0785222609684168e-05 0 -1.3276939908679514e-05 -3.4669031197261859e-05 0 -2.0430896225935736e-05 -4.1063633633974293e-05 0 -1.4320315693713223e-05 -5.0785222609684168e-05 0 -6.8009558948232678e-06 -4.2610075338216684e-05 0 -1.3276939908679517e-05 -3.4669031197261859e-05 0 -3.8613805429633136e-06 -3.1601577027926645e-05 0 -1.3276939908679517e-05 -3.4669031197261859e-05 0 -6.8009558948232678e-06 -4.2610075338216684e-05 0 -3.8613805429633136e-06 -3.1601577027926645e-05 0 -9.480067787705034e-06 -2.4364174705702991e-05 0 -1.3276939908679517e-05 -3.4669031197261859e-05 0 -1.7229134043350127e-05 -2.4195659602046974e-05 0 -2.1298491819444428e-05 -3.2860615636243279e-05 0 -1.3276939908679517e-05 -3.4669031197261859e-05 0 -1.7229134043350127e-05 -2.4195659602046974e-05 0 -9.4800677877050323e-06 -2.4364174705702991e-05 0 -1.2900412413103243e-05 -1.9011304069326045e-05 0 -1.7229134043350127e-05 -2.4195659602046974e-05 0 -1.3276939908679517e-05 -3.4669031197261859e-05 0 -9.4800677877050323e-06 -2.4364174705702991e-05 0 -3.8613805429633136e-06 -3.1601577027926645e-05 0 -3.4059588100461124e-06 -2.133531942077655e-05 0 -9.4800677877050323e-06 -2.4364174705702991e-05 0 -3.4059588100461124e-06 -2.133531942077655e-05 0 -3.8613805429633136e-06 -3.1601577027926645e-05 0 4.2600692390795389e-06 -2.8099739164464679e-05 0 2.7408402711009936e-06 -1.7586255679440975e-05 0 -3.4059588100461124e-06 -2.133531942077655e-05 0 4.2600692390795389e-06 -2.8099739164464679e-05 0 7.9581334622690589e-06 -1.4776297146970782e-05 0 2.7408402711009936e-06 -1.7586255679440975e-05 0 4.2600692390795389e-06 -2.8099739164464679e-05 0 7.9581334622690589e-06 -1.4776297146970782e-05 0 4.8693286841547457e-06 -1.2247899541727513e-05 0 5.6746375371854892e-06 -1.1317916008063133e-05 0 7.9581334622690589e-06 -1.4776297146970782e-05 0 4.2600692390795389e-06 -2.8099739164464679e-05 0 1.4393952255281124e-05 -3.0796927332705269e-05 0 6.8046932867025772e-06 -1.4600846686295567e-05 0 1.0096154338235351e-05 -2.1690819182885914e-05 0 1.4393952255281124e-05 -3.0796927332705269e-05 0 4.2600692390795389e-06 -2.8099739164464679e-05 0 1.0587553928473157e-05 -3.8185268699400018e-05 0 3.4116285323044743e-06 -4.3193788254689357e-05 0 1.0587553928473157e-05 -3.8185268699400018e-05 0 4.2600692390795389e-06 -2.8099739164464679e-05 0 1.0096154338235351e-05 -2.1690819182885914e-05 0 1.0951407948322345e-05 -2.9923681660776586e-05 0 1.4393952255281124e-05 -3.0796927332705269e-05 0 1.0587553928473157e-05 -3.8185268699400018e-05 0 1.873926842853421e-05 -4.3744924140520233e-05 0 1.0951407948322345e-05 -2.9923681660776586e-05 0 1.2234734382140279e-05 -3.9589383279283416e-05 0 1.873926842853421e-05 -4.3744924140520233e-05 0 1.0587553928473157e-05 -3.8185268699400018e-05 0 1.18947406634128e-05 -5.1158631213324353e-05 0 3.4116285323044743e-06 -4.3193788254689357e-05 0 1.18947406634128e-05 -5.1158631213324353e-05 0 1.0587553928473157e-05 -3.8185268699400018e-05 0 7.8964634999131586e-06 -1.5617609639210255e-05 0 6.211547709061414e-06 -1.2390230828981068e-05 0 5.4665059357081891e-06 -1.7200903975433697e-05 0 3.3393861174307583e-06 -1.6187852355020378e-05 0 2.4283499395592807e-06 -2.1599321519697667e-05 0 5.4665059357081891e-06 -1.7200903975433697e-05 0 3.3393861174307583e-06 -1.6187852355020378e-05 0 5.4665059357081891e-06 -1.7200903975433697e-05 0 6.211547709061414e-06 -1.2390230828981068e-05 0 4.8693286841547457e-06 -1.2247899541727513e-05 0 3.3393861174307583e-06 -1.6187852355020378e-05 0 6.211547709061414e-06 -1.2390230828981068e-05 0 6.211547709061414e-06 -1.2390230828981068e-05 0 7.7045913610740885e-06 -9.1844829497528503e-06 0 5.6746375371854892e-06 -1.1317916008063133e-05 0 4.8693286841547457e-06 -1.2247899541727513e-05 0 6.2115477090614132e-06 -1.2390230828981067e-05 0 5.6746375371854892e-06 -1.1317916008063133e-05 0 7.9581334622690589e-06 -1.4776297146970782e-05 0 5.6746375371854892e-06 -1.1317916008063133e-05 0 6.5645324542614162e-06 -9.898220879342571e-06 0 5.6746375371854892e-06 -1.1317916008063133e-05 0 7.7045913610740885e-06 -9.1844829497528503e-06 0 6.5645324542614162e-06 -9.898220879342571e-06 0 7.7045913610740885e-06 -9.1844829497528503e-06 0 6.211547709061414e-06 -1.2390230828981068e-05 0 9.3565829851527589e-06 -1.2424415312504776e-05 0 7.7045913610740885e-06 -9.1844829497528503e-06 0 9.3565829851527589e-06 -1.2424415312504776e-05 0 1.1234117325305226e-05 -8.4412384341798853e-06 0 7.7045913610740885e-06 -9.1844829497528503e-06 0 1.1234117325305226e-05 -8.4412384341798853e-06 0 1.0027971220318859e-05 -5.4090083623081267e-06 0 1.2701092892957531e-05 -3.3651008515112818e-06 0 1.1234117325305226e-05 -8.4412384341798853e-06 0 1.4123291137072712e-05 -6.5807517918124883e-06 0 1.2701092892957531e-05 -3.3651008515112818e-06 0 1.0027971220318859e-05 -5.4090083623081267e-06 0 1.1234117325305226e-05 -8.4412384341798853e-06 0 1.4606944173186121e-05 -1.1518595511919855e-05 0 1.4123291137072712e-05 -6.5807517918124883e-06 0 1.1234117325305226e-05 -8.4412384341798853e-06 0 1.4606944173186121e-05 -1.1518595511919855e-05 0 1.2274673425713793e-05 -1.2311607982181269e-05 0 1.4767359854086487e-05 -1.6236707900418008e-05 0 1.4606944173186121e-05 -1.1518595511919855e-05 0 1.1234117325305226e-05 -8.4412384341798853e-06 0 1.2274673425713793e-05 -1.2311607982181269e-05 0 1.2074993401436354e-05 -1.5847812069658435e-05 0 1.2274673425713793e-05 -1.2311607982181267e-05 0 9.3565829851527589e-06 -1.2424415312504776e-05 0 1.1234117325305226e-05 -8.4412384341798853e-06 0 9.3565829851527572e-06 -1.2424415312504776e-05 0 1.2274673425713793e-05 -1.2311607982181269e-05 0 1.2074993401436354e-05 -1.5847812069658435e-05 0 1.4767359854086487e-05 -1.6236707900418008e-05 0 1.2274673425713793e-05 -1.2311607982181269e-05 0 7.8964634999131586e-06 -1.5617609639210255e-05 0 9.3565829851527589e-06 -1.2424415312504776e-05 0 6.211547709061414e-06 -1.2390230828981068e-05 0 1.2074993401436354e-05 -1.5847812069658435e-05 0 9.3565829851527589e-06 -1.2424415312504776e-05 0 1.0351574306258194e-05 -1.8735908211158073e-05 0 7.8964634999131586e-06 -1.5617609639210255e-05 0 1.0351574306258194e-05 -1.8735908211158073e-05 0 9.3565829851527589e-06 -1.2424415312504776e-05 0 7.8964634999131586e-06 -1.5617609639210255e-05 0 6.9412202346912018e-06 -2.0857861656487138e-05 0 1.0351574306258194e-05 -1.8735908211158073e-05 0 1.2913498606117037e-05 -2.4465600366305132e-05 0 1.4048840140082847e-05 -2.0318049038333111e-05 0 1.0351574306258194e-05 -1.8735908211158073e-05 0 1.2913498606117037e-05 -2.4465600366305132e-05 0 1.0351574306258194e-05 -1.8735908211158073e-05 0 9.474501121219234e-06 -2.3702315203529901e-05 0 6.9412202346912018e-06 -2.0857861656487138e-05 0 9.474501121219234e-06 -2.3702315203529901e-05 0 1.0351574306258194e-05 -1.8735908211158073e-05 0 1.7240971517524964e-05 -2.0895568105838115e-05 0 1.4767359854086487e-05 -1.6236707900418008e-05 0 1.4048840140082847e-05 -2.0318049038333111e-05 0 1.2074993401436354e-05 -1.5847812069658435e-05 0 1.4048840140082847e-05 -2.0318049038333111e-05 0 1.4767359854086487e-05 -1.6236707900418008e-05 0 1.2074993401436354e-05 -1.5847812069658435e-05 0 1.0351574306258194e-05 -1.8735908211158073e-05 0 1.4048840140082847e-05 -2.0318049038333111e-05 0 1.2913498606117037e-05 -2.4465600366305132e-05 0 1.7353786450047455e-05 -2.5549545598735975e-05 0 1.4048840140082847e-05 -2.0318049038333111e-05 0 1.7240971517524964e-05 -2.0895568105838115e-05 0 1.4048840140082847e-05 -2.0318049038333111e-05 0 1.7353786450047455e-05 -2.5549545598735975e-05 0 2.1829028915942605e-05 -2.8602020824988721e-05 0 1.7353786450047455e-05 -2.5549545598735975e-05 0 1.9538204130403188e-05 -3.1033644679498254e-05 0 1.2913498606117037e-05 -2.4465600366305132e-05 0 1.5628599705415766e-05 -3.0151302035739125e-05 0 1.7353786450047455e-05 -2.5549545598735975e-05 0 1.5628599705415766e-05 -3.0151302035739125e-05 0 1.9538204130403188e-05 -3.1033644679498254e-05 0 1.7353786450047455e-05 -2.5549545598735975e-05 0 8.4871913786346535e-06 -2.7993191830497943e-05 0 1.166456573266226e-05 -2.9061984686638209e-05 0 9.474501121219234e-06 -2.3702315203529901e-05 0 1.2913498606117037e-05 -2.4465600366305132e-05 0 1.166456573266226e-05 -2.9061984686638209e-05 0 1.5628599705415766e-05 -3.0151302035739125e-05 0 1.2913498606117037e-05 -2.4465600366305132e-05 0 9.474501121219234e-06 -2.3702315203529901e-05 0 1.166456573266226e-05 -2.9061984686638209e-05 0 1.2909653592856414e-05 -3.4729971801966643e-05 0 1.5628599705415766e-05 -3.0151302035739121e-05 0 1.166456573266226e-05 -2.9061984686638209e-05 0 8.4871913786346535e-06 -2.7993191830497943e-05 0 9.6259041995152901e-06 -3.1880573831129396e-05 0 1.166456573266226e-05 -2.9061984686638209e-05 0 1.2909653592856414e-05 -3.4729971801966643e-05 0 1.166456573266226e-05 -2.9061984686638209e-05 0 9.6259041995152901e-06 -3.1880573831129396e-05 0 8.4871913786346535e-06 -2.7993191830497943e-05 0 6.3102668322938141e-06 -3.0497062485435493e-05 0 9.6259041995152901e-06 -3.1880573831129396e-05 0 8.4871913786346535e-06 -2.7993191830497943e-05 0 5.6695570329663129e-06 -2.5289188871204376e-05 0 6.3102668322938141e-06 -3.0497062485435493e-05 0 8.4871913786346535e-06 -2.7993191830497943e-05 0 9.474501121219234e-06 -2.3702315203529901e-05 0 5.6695570329663129e-06 -2.5289188871204376e-05 0 2.3992536781939751e-06 -2.7865871354353422e-05 0 6.3102668322938141e-06 -3.0497062485435493e-05 0 5.6695570329663129e-06 -2.5289188871204376e-05 0 2.4891335283694173e-05 -7.2163112704082063e-05 0 1.2204210656366268e-05 -8.0909965631367273e-05 0 2.7522459453395548e-05 -8.7730391861578209e-05 0 1.3592863236600794e-05 -5.0026394740129356e-05 0 1.5278829522684699e-05 -6.095316542788436e-05 0 2.3992536781939751e-06 -2.7865871354353422e-05 0 3.2123250594618876e-06 -3.4157978302727475e-05 0 6.3102668322938141e-06 -3.0497062485435493e-05 0 2.7522459453395548e-05 -8.7730391861578209e-05 0 1.2204210656366268e-05 -8.0909965631367273e-05 0 1.6637931098838371e-05 -9.5662119409128561e-05 0 2.4891335283694173e-05 -7.2163112704082063e-05 0 1.287811309180095e-05 -6.6572804678654004e-05 0 1.2204210656366268e-05 -8.0909965631367273e-05 0 2.2015688993994939e-05 -5.751331409896412e-05 0 1.287811309180095e-05 -6.6572804678654004e-05 0 2.4891335283694173e-05 -7.2163112704082063e-05 0 2.4283499395592811e-06 -2.1599321519697667e-05 0 2.3992536781939751e-06 -2.7865871354353422e-05 0 5.6695570329663129e-06 -2.5289188871204376e-05 0 1.2234734382140279e-05 -3.9589383279283416e-05 0 1.3592863236600794e-05 -5.0026394740129356e-05 0 2.2015688993994939e-05 -5.751331409896412e-05 0 1.18947406634128e-05 -5.1158631213324353e-05 0 1.287811309180095e-05 -6.6572804678654004e-05 0 3.7779128258423634e-06 -5.9182820647372516e-05 0 1.287811309180095e-05 -6.6572804678654004e-05 0 1.18947406634128e-05 -5.1158631213324353e-05 0 1.873926842853421e-05 -4.3744924140520233e-05 0 1.18947406634128e-05 -5.1158631213324353e-05 0 2.2015688993994939e-05 -5.751331409896412e-05 0 2.4283499395592811e-06 -2.1599321519697667e-05 0 6.9412202346912018e-06 -2.0857861656487138e-05 0 5.4665059357081891e-06 -1.7200903975433697e-05 0 7.8964634999131586e-06 -1.5617609639210255e-05 0 5.4665059357081883e-06 -1.7200903975433697e-05 0 6.9412202346912018e-06 -2.0857861656487138e-05 0 6.9412202346912018e-06 -2.0857861656487138e-05 0 5.6695570329663129e-06 -2.5289188871204376e-05 0 9.474501121219234e-06 -2.3702315203529901e-05 0 2.4283499395592811e-06 -2.1599321519697667e-05 0 5.6695570329663129e-06 -2.5289188871204376e-05 0 6.9412202346912018e-06 -2.0857861656487138e-05 0 
</DataArray>
</PointData>
<CellData Scalars="region_id,cross_section_updated,displacement_divergence," Vectors="" Tensors="stress,">
<DataArray type="Float64" Name="region_id" format="ascii">
1 1 1 1 1 1 1 1 1 1 1 1 1 1 1 1 1 1 1 1 1 1 1 1 1 1 1 1 1 1 1 1 1 1 1 1 1 1 1 1 1 1 1 1 1 1 1 1 1 1 1 1 1 1 1 1 1 1 1 1 1 1 1 1 1 1 1 1 1 1 1 1 1 1 1 1 1 1 1 1 1 1 1 1 1 1 1 1 1 1 1 1 1 1 1 1 1 1 1 1 1 1 1 1 1 1 1 1 1 1 1 1 1 1 1 1 1 1 1 1 1 1 1 1 1 1 1 1 1 1 1 1 1 1 1 1 1 1 1 1 1 1 1 1 1 1 1 1 1 1 1 1 1 1 1 1 1 1 1 1 1 1 1 1 1 1 1 1 1 1 1 1 1 1 1 1 1 1 1 1 1 1 1 1 1 1 1 1 1 1 1 1 1 1 1 1 1 1 1 1 1 1 1 1 1 1 1 1 1 1 1 1 1 1 1 1 1 1 1 1 1 1 1 1 1 1 1 1 1 1 1 1 1 1 1 1 1 1 1 1 1 1 1 1 1 1 1 1 1 1 1 1 1 1 1 1 1 1 1 1 1 1 1 1 1 1 1 1 1 1 1 1 1 1 1 1 1 1 1 1 1 1 1 1 1 1 1 1 1 1 1 1 1 1 1 1 1 1 1 1 1 1 1 1 1 1 1 1 1 1 1 1 1 1 1 1 1 1 1 1 1 1 1 1 1 1 1 1 1 1 1 1 1 1 1 1 1 1 1 1 1 1 1 1 1 1 1 1 1 1 1 1 1 1 1 1 1 1 1 1 1 1 1 1 1 1 1 1 1 1 1 1 1 1 1 1 1 1 1 1 1 1 1 1 1 1 1 1 1 1 1 1 1 1 1 1 1 1 1 1 1 1 1 1 1 1 1 1 1 1 1 1 1 1 1 1 1 1 1 1 1 1 1 1 1 1 1 1 1 1 1 1 1 1 1 1 1 1 1 1 1 1 1 1 1 1 1 1 1 1 1 1 1 1 1 1 1 1 1 1 1 1 1 1 1 1 1 1 1 1 1 1 1 1 1 1 1 1 1 1 1 1 1 1 1 1 1 1 1 1 1 1 1 1 1 1 1 1 1 1 1 1 1 1 1 1 1 1 1 1 1 1 1 1 1 1 1 1 1 1 1 1 1 1 1 1 1 1 1 1 1 1 1 1 1 1 1 1 3 1 1 3 1 1 3 1 1 1 1 1 1 1 1 1 1 1 1 1 3 1 1 1 1 1 3 1 1 1 1 1 1 1 1 1 1 1 1 1 1 1 1 1 1 1 1 1 1 1 1 1 1 1 1 1 1 1 1 1 1 1 1 1 1 1 1 1 1 1 1 1 1 1 1 1 1 1 1 1 1 1 1 1 1 1 1 1 1 1 1 1 1 1 1 1 1 1 1 1 1 1 1 1 1 1 1 1 1 1 1 1 1 1 1 1 1 1 1 1 1 1 1 1 1 1 1 1 1 1 1 1 1 1 1 1 1 1 1 1 1 1 1 1 1 1 1 1 1 1 1 1 1 1 1 1 1 1 1 1 1 1 1 1 1 1 1 1 1 1 1 1 1 1 1 1 1 1 1 1 1 1 1 1 1 1 1 1 1 1 1 1 1 1 1 3 1 1 1 3 1 1 3 1 1 1 1 1 1 1 1 1 1 1 3 1 1 1 1 3 1 1 1 1 1 1 1 1 1 1 1 1 1 1 1 1 1 1 1 1 1 1 1 1 1 1 1 1 1 1 1 1 1 1 1 1 1 1 1 1 1 1 1 1 1 1 1 1 1 1 1 1 1 1 1 1 1 1 2 1 1 1 1 1 1 1 1 1 1 1 1 1 1 2 1 1 2 1 2 1 1 1 1 1 1 1 1 1 1 1 1 1 2 1 1 1 1 1 1 1 1 1 1 1 1 1 1 1 1 1 1 1 1 1 1 1 1 1 1 1 1 1 1 1 1 1 1 1 1 1 1 1 1 1 1 1 1 1 1 1 1 1 1 1 1 1 1 1 1 1 1 1 1 1 1 1 1 1 1 1 1 1 1 1 1 1 1 1 1 1 1 1 1 1 1 1 1 1 1 1 1 1 1 1 1 1 1 1 1 1 1 1 1 1 1 1 1 1 1 1 1 1 1 1 1 1 1 1 1 1 1 1 1 1 1 1 1 1 1 1 1 1 1 1 1 1 1 1 1 2 1 1 2 1 2 1 1 1 1 1 1 1 1 1 1 1 1 1 1 1 1 1 1 1 1 1 1 1 1 1 1 1 1 1 1 1 1 1 1 1 1 1 1 1 1 1 1 1 1 1 1 1 2 1 1 1 1 1 2 1 1 1 1 1 1 1 
</DataArray>
<DataArray type="Float64" Name="stress" NumberOfComponents="9" format="ascii">
-0.039113557030123015 0.0020468384745387603 0 0.0020468384745387603 -0.0051416840273918341 0 0 0 -0.011063810264378714 -0.03721546906720976 0.0031598310934440078 0 0.0031598310934440078 -0.012382167273977212 0 0 0 -0.012399409085296744 -0.03988358537097058 0.0037655225383917031 0 0.0037655225383917031 0.0023010777128441122 0 0 0 -0.0093956269145316143 -0.038285757449195053 0.0046122536718711171 0 0.0046122536718711171 -0.0053124998480632568 0 0 0 -0.010899564324314579 -0.031403158336383886 0.0099053942104956449 0 0.0099053942104956449 -0.010471193156462579 0 0 0 -0.010468587873211617 -0.031397975429677351 0.0099105339668312982 0 0.0099105339668312982 -0.010454287417131634 0 0 0 -0.010463065711702245 -0.036207396896999026 0.0095478693924500122 0 0.0095478693924500122 -0.0025481351741099209 0 0 0 -0.0096888830177772351 -0.037239443399274499 0.0085939446816552505 0 0.0085939446816552505 -0.0032889137467460652 0 0 0 -0.010132089286505139 -0.034816991604837103 0.011227600792290396 0 0.011227600792290396 -0.0025192741922375698 0 0 0 -0.0093340664492686728 -0.027851919925413464 0.011621187049549207 0 0.011621187049549207 -0.00052754981627436623 0 0 0 -0.0070948674354219549 -0.040127632442911849 0.011928378255500515 0 0.011928378255500515 -0.0012929848134699273 0 0 0 -0.010355154314095442 -0.027508547236891771 0.01301288918606581 0 0.01301288918606581 0.00081925792692570665 0 0 0 -0.0066723223274915179 -0.049604531852129131 0.0093137151695554827 0 0.0093137151695554827 -0.00062403060878334776 0 0 0 -0.012557140615228127 -0.038697447639406704 0.0098855344710766374 0 0.0098855344710766374 0.00061775018211085095 0 0 0 -0.0095199243643239641 -0.058675541939032641 0.0036226357016843742 0 0.0036226357016843742 -0.0019171921233396005 0 0 0 -0.015148183515593064 -0.047222080786270701 0.0046216321599625715 0 0.0046216321599625715 -0.00026417148083743291 0 0 0 -0.011871563066777037 -0.043506225955633811 0.0062738892067505546 0 0.0062738892067505546 0.0026664328701542284 0 0 0 -0.010209948271369904 -0.043960075556149815 0.0095406578629959327 0 0.0095406578629959327 -0.00064912375403158168 0 0 0 -0.011152299827545349 -0.005268713276087876 0.013843323458363026 0 0.013843323458363026 -0.0017532728010606004 0 0 0 -0.001755496519287119 -0.010429102679083939 0.016597608749787891 0 0.016597608749787891 -0.0018940340665219851 0 0 0 -0.0030807841864014824 -0.012223518125773873 0.012763896174804851 0 0.012763896174804851 -0.0011235862512039979 0 0 0 -0.0033367760942444678 -0.021830448166805082 0.014745835290458659 0 0.014745835290458659 -0.0016005261926605244 0 0 0 -0.0058577435898664043 -0.02300724815707824 0.013441570250960669 0 0.013441570250960669 -0.0043588270221715519 0 0 0 -0.0068415187948124515 -0.014592351405623778 0.0149183616447927 0 0.0149183616447927 -0.0023310598731639751 0 0 0 -0.0042308528196969373 -0.014811979793202288 0.013236901132979696 0 0.013236901132979696 -0.0049423891104871786 0 0 0 -0.0049385922259223662 -0.024266893081974487 0.014787480796453718 0 0.014787480796453718 -0.00061339568215405815 0 0 0 -0.0062200721910321347 -0.026122203318858811 0.011741602215180171 0 0.011741602215180171 -0.00087351540518205983 0 0 0 -0.0067489296810102246 -0.021804716153580012 0.012842296195129849 0 0.012842296195129849 -0.0022077508826887325 0 0 0 -0.0060031167590671852 -0.0099861533049522173 0.012682757640090445 0 0.012682757640090445 -0.0003583926137618737 0 0 0 -0.0025861364796785219 -0.010568900072806845 0.013862507388896113 0 0.013862507388896113 -0.0015842545500622668 0 0 0 -0.0030382886557172809 -0.0048941533703926064 0.016069075558168971 0 0.016069075558168971 -0.00148314824960602 0 0 0 -0.0015943254049996516 -0.0006661451269182289 0.012204977667546878 0 0.012204977667546878 0.00017410872265503832 0 0 0 -0.00012300910106579624 -0.0015946614507925251 0.014563288900195006 0 0.014563288900195006 -0.0010713755584023273 0 0 0 -0.00066650925229871536 -0.0020101554559871782 0.011302201723882598 0 0.011302201723882598 0.00016690298731462938 0 0 0 -0.00046081311716813719 -0.011720545799344282 0.015287985008357725 0 0.015287985008357725 -0.00076623781037675476 0 0 0 -0.0031216959024302562 -0.026239186626034344 0.015075792820335943 0 0.015075792820335943 -0.0005577389804547056 0 0 0 -0.0066992314016222597 -0.021175377301069088 0.015022880655947188 0 0.015022880655947188 -0.00079066141686742752 0 0 0 -0.0054915096794841307 -0.014263212241250003 0.012315085782657526 0 0.012315085782657526 0.00069476415560001253 0 0 0 -0.0033921120214124995 -0.026383013238995279 0.012331917000200065 0 0.012331917000200065 0.0011745208912250643 0 0 0 -0.0063021230869425536 -0.029399597838014595 0.015138425659122547 0 0.015138425659122547 -0.00014328877325264777 0 0 0 -0.0073857216528168141 -0.021593984220533345 0.012082611448253254 0 0.012082611448253254 0.00025121895845284584 0 0 0 -0.0053356913155201196 -0.015553042722940157 0.015553081281682096 0 0.015553081281682096 0.0014227087399113353 0 0 0 -0.0035325834957572067 -0.015599054645474 0.012175388233098865 0 0.012175388233098865 0.0019788491885858184 0 0 0 -0.0034050513642220441 -0.0043064435266782887 0.011598800387926052 0 0.011598800387926052 0.0012961115173838662 0 0 0 -0.00075258300232360477 -0.014315289788331159 0.015583190629959068 0 0.015583190629959068 -0.00012348484367324247 0 0 0 -0.0036096936580010952 -0.011332528071208881 0.010677247590129798 0 0.010677247590129798 0.0027373136522553659 0 0 0 -0.0021488036047383752 0.0056257334169328779 0.010849528225848205 0 0.010849528225848205 0.0010340970682694017 0 0 0 0.0016649576213005716 -0.0027330561509790775 0.013614138830935924 0 0.013614138830935924 0.0012866126445400528 0 0 0 -0.00036161087660975186 -0.05827102201335909 0.0041976984319442804 0 0.0041976984319442804 -0.0023260393785851027 0 0 0 -0.015149265347986041 -0.04638509683688672 0.010663355597389144 0 0.010663355597389144 5.6023397092021254e-05 0 0 0 -0.011582268359948675 -0.068988039721762207 0.0056163660508672369 0 0.0056163660508672369 -0.00027239868383324706 0 0 0 -0.017315109601398874 -0.047274221373900735 0.0076605704004076187 0 0.0076605704004076187 0.0018711842404335955 0 0 0 -0.011350759283366782 -0.036714736295070716 0.011039188814816282 0 0.011039188814816282 0.0013110801838224322 0 0 0 -0.0088509140278120787 -0.038065903210898623 0.012421900509739186 0 0.012421900509739186 -0.00052668839970656731 0 0 0 -0.0096481479026512985 -0.038861831236533743 0.013855466127328596 0 0.013855466127328596 -0.00035839213253513469 0 0 0 -0.0098050558422672178 -0.0447237074850972 0.0094947771119080204 0 0.0094947771119080204 0.0011868055181827389 0 0 0 -0.010884225491728619 -0.032012494996847128 0.01151858943906638 0 0.01151858943906638 0.00015654761440968973 0 0 0 -0.0079639868456093579 -0.046729097568082037 0.012968586936045995 0 0.012968586936045995 -0.00037283237436985806 0 0 0 -0.01177548248561296 -0.037273227570551494 0.010318033181168683 0 0.010318033181168683 -0.00021436204045000712 0 0 0 -0.0093718974027503909 -0.045610658611477957 0.0097876169279349362 0 0.0097876169279349362 0.0011610949526112621 0 0 0 -0.011112390914716677 -0.063335169788020021 0.0076767507287485394 0 0.0076767507287485394 -0.0005080180127450401 0 0 0 -0.015960796950191244 -0.060108726301699618 0.0078014556446514395 0 0.0078014556446514395 -0.00079516365786969426 0 0 0 -0.015225972489892318 -0.058265004948424307 0.0047051258644288003 0 0.0047051258644288003 0.0006429267640506893 0 0 0 -0.014405519546093412 -0.078637472490636434 0.0054507802785742311 0 0.0054507802785742311 -0.00054771757518037173 0 0 0 -0.019796297516454193 -0.083717501801372635 0.0046879513512607801 0 0.0046879513512607801 -0.00043367727332432361 0 0 0 -0.021037794768674241 -0.061436834195979978 0.0060630419281016033 0 0.0060630419281016033 0.0017710813560609523 0 0 0 -0.014916438209979748 -0.070553801609185993 0.0040742251518289209 0 0.0040742251518289209 0.0011019000619933838 0 0 0 -0.017362975386798138 -0.096384710128868054 0.0032050933798361317 0 0.0032050933798361317 0.0016308750583448051 0 0 0 -0.023688458767630798 -0.073565074972808481 0.0091999860424287899 0 0.0091999860424287899 0.0023852674488932801 0 0 0 -0.017794951880978786 -0.072405133294483462 0.0022553819264666819 0 0.0022553819264666819 -0.00047932901589705507 0 0 0 -0.018221115577595138 -0.077876823386027944 0.0034895264976721671 0 0.0034895264976721671 0.0031049920326494673 0 0 0 -0.018692957838344633 -0.10749033205888321 -1.1093204525064996e-05 0 -1.1093204525064996e-05 -0.00078571111880235134 0 0 0 -0.027069010794421394 -0.045106870705904863 0.0049271661366017371 0 0.0049271661366017371 0.0045229628014941681 0 0 0 -0.010145976976102679 -0.037400675503846806 0.012814003815142343 0 0.012814003815142343 0.0032869047017311404 0 0 0 -0.0085284427005289272 -0.055594188790524413 0.0085533614661977113 0 0.0085533614661977113 1.2721997759007619e-06 0 0 0 -0.013898229147687111 -0.05479567975144066 0.0095914048017286917 0 0.0095914048017286917 0.0022974013500894272 0 0 0 -0.013124569600337798 -0.037091347586523299 0.013602362177944546 0 0.013602362177944546 0.0024488291485012317 0 0 0 -0.0086606296095055064 -0.063550446425787055 0.012550017170707386 0 0.012550017170707386 0.0030672934344058295 0 0 0 -0.015120788247845303 -0.053157549974525389 0.0084590385040017955 0 0.0084590385040017955 -0.00030430072599802425 0 0 0 -0.013365462675130875 -0.047557494445388475 0.01310617202425028 0 0.01310617202425028 0.0016167694342016821 0 0 0 -0.011485181252796697 -0.034137000341287617 0.014178110419852112 0 0.014178110419852112 0.0012981356632877604 0 0 0 -0.0082097161694999598 -0.022851724901073307 0.013326540385550338 0 0.013326540385550338 0.0014729056863508408 0 0 0 -0.0053447048036806112 -0.022533335050333843 0.011374611488388114 0 0.011374611488388114 0.0023572475123639297 0 0 0 -0.0050440218844924898 -0.020885251223867592 0.010611008597624467 0 0.010611008597624467 0.004617141560853244 0 0 0 -0.0040670274157535843 -0.010905413121103387 0.013207221532826757 0 0.013207221532826757 0.0020406075258365425 0 0 0 -0.0022162013988167163 -0.036622902614013457 0.011222945072918582 0 0.011222945072918582 0.0023934305443997477 0 0 0 -0.0085573680174034269 -0.00071569184865049804 0.010029039316435558 0 0.010029039316435558 0.0046978572678412697 0 0 0 0.00099554135479769032 -0.0034585514062064494 0.01388151765513207 0 0.01388151765513207 0.00096571776111883598 0 0 0 -0.00062320841127190378 -0.0085910118875571328 0.009309173777625206 0 0.009309173777625206 0.0058243511600884548 0 0 0 -0.00069166518186716819 0.0063045181045783653 0.0055457115342684438 0 0.0055457115342684438 0.0079362758871155022 0 0 0 0.0035601984979234669 0.0027616913512903121 0.011678492269704356 0 0.011678492269704356 0.0038578234358822346 0 0 0 0.0016548786967931382 -0.0067811964755104329 0.0091244735625574704 0 0.0091244735625574704 0.0094536729926437066 0 0 0 0.00066811912928332017 0.0076384732081362545 0.0062141840055981931 0 0.0062141840055981931 0.0091067389124201217 0 0 0 0.0041863030301390984 0.0076463414110362962 0.0050915996808299467 0 0.0050915996808299467 0.015255874941781045 0 0 0 0.0057255540882043335 -0.022080752718958083 0.013482316028789906 0 0.013482316028789906 0.0033365123712223096 0 0 0 -0.0046860600869339381 -0.031012837311493319 0.0079073016545914004 0 0.0079073016545914004 0.0039304731814283483 0 0 0 -0.0067705910325162513 -0.0077627180609359178 0.0097603409804317802 0 0.0097603409804317802 0.0043825054021341056 0 0 0 -0.00084505316470044958 -0.016107648856181191 0.0060416086387291013 0 0.0060416086387291013 0.0073964078666126365 0 0 0 -0.0021778102473921437 -0.020798392679987319 0.012683380157953089 0 0.012683380157953089 0.0078498046314892933 0 0 0 -0.0032371470121245055 -0.029822888697588756 0.011380892415958049 0 0.011380892415958049 0.0096978725656380327 0 0 0 -0.0050312540329876948 -0.019203217194070046 0.0064779778631359822 0 0.0064779778631359822 0.01951794403622395 0 0 0 7.8681710538486271e-05 -0.028696583796651711 0.00093685949336239083 0 0.00093685949336239083 0.0099609524277752652 0 0 0 -0.0046839078422191115 0.025000554305760946 0.00014362108058153106 0 0.00014362108058153106 0.017999647053210721 0 0 0 0.010750050339742925 -0.010549134083157181 0.0094129440281944463 0 0.0094129440281944463 0.013897312186286336 0 0 0 0.00083704452578228523 0.0023785203326718574 0.0032045584480584616 0 0.0032045584480584616 0.014714970767743307 0 0 0 0.0042733727751037912 0.0055921499384249396 0.0046922894753762337 0 0.0046922894753762337 0.024621232654505776 0 0 0 0.0075533456482326788 0.019301747764061357 -0.0041848455193575496 0 -0.0041848455193575496 0.026612247076998843 0 0 0 0.011478498710265054 0.0010430753194293381 0.00064335585631271341 0 0.00064335585631271341 0.037310453597659929 0 0 0 0.0095883822292723332 -0.0015934261967755492 -0.0094257548943944836 0 -0.0094257548943944836 0.03557874654566151 0 0 0 0.0084963300872214764 0.0074764783807416413 -0.014663883412072073 0 -0.014663883412072073 0.029851476831243673 0 0 0 0.0093319888029963216 0.019996205904623282 -0.007730499334917415 0 -0.007730499334917415 0.056692835490213755 0 0 0 0.019172260348709252 -0.026253005232824991 -0.0036773966589987162 0 -0.0036773966589987162 0.022884231769471131 0 0 0 -0.00084219336583847559 -0.006396934058226722 -0.0023022641533369942 0 -0.0023022641533369942 0.017516344104495263 0 0 0 0.0027798525115671213 -0.0085876387859339029 -0.013310411221844898 0 -0.013310411221844898 0.021375247591959995 0 0 0 0.0031969022015065421 -0.030222338964467965 -0.0004389530102786865 0 -0.0004389530102786865 0.011568673578003841 0 0 0 -0.0046634163466160172 -0.035546238541001168 -0.010286481670462061 0 -0.010286481670462061 0.013045098111025388 0 0 0 -0.0056252851074939658 -0.051430604091399289 -0.0039668179090469532 0 -0.0039668179090469532 0.0090034793850711781 0 0 0 -0.010606781176581981 -0.059001131118132918 0.0036401487930412812 0 0.0036401487930412812 0.0050160251662239586 0 0 0 -0.01349627648797723 -0.070264638534559803 -0.008645595745087914 0 -0.008645595745087914 0.0071801381544711607 0 0 0 -0.015771125095022154 -0.079188648585182153 0.0010640628868253121 0 0.0010640628868253121 0.0019571706805369959 0 0 0 -0.019307869476161255 -0.11228474575433404 -0.00065580202052741043 0 -0.00065580202052741043 0.0028664834813512119 0 0 0 -0.027354565568245753 -0.083438585644350402 0.0024454183352422554 0 0.0024454183352422554 0.0024693098529837976 0 0 0 -0.020242318947841662 -0.081419520710743182 -0.0017848753305621246 0 -0.0017848753305621246 0.0025334440609827563 0 0 0 -0.019721519162440165 -0.086141169336694565 -0.00075847444869032998 0 -0.00075847444869032998 -0.00045537538162676583 0 0 0 -0.02164913617958035 -0.071997027580247008 0.0079804666248499551 0 0.0079804666248499551 0.0025355639253972773 0 0 0 -0.017365365913712461 -0.112605554563939 0.0034876464706426928 0 0.0034876464706426928 0.00069297557051078984 0 0 0 -0.027978144748357026 -0.082791595747244526 0.007698399344147247 0 0.007698399344147247 0.0022639896703176704 0 0 0 -0.020131901519231683 -0.05563945290130224 0.010808763485862682 0 0.010808763485862682 0.0051451659948179296 0 0 0 -0.012623571726621083 -0.042943107135704407 0.0079224424561514378 0 0.0079224424561514378 0.0086725446389597748 0 0 0 -0.0085676406241861451 -0.060170611821433406 0.0010653086704820874 0 0.0010653086704820874 0.0047423902663073225 0 0 0 -0.013857055388781528 0.020125322600449764 -0.0029771747716109687 0 -0.0029771747716109687 0.05221841155497936 0 0 0 0.018085933538857277 0.018983683153874692 -0.0047946285746559734 0 -0.0047946285746559734 0.042891938167454312 0 0 0 0.015468905330332258 0.018689242558591543 -0.0066639859419278281 0 -0.0066639859419278281 0.037616522836739857 0 0 0 0.01407644134883285 0.015795789999501784 -0.00030397765023523413 0 -0.00030397765023523413 0.044490020601479829 0 0 0 0.015071452650245405 0.021625932707868896 0.0060150311188767571 0 0.0060150311188767571 0.048448626317734764 0 0 0 0.017518639756400924 0.023935608736815123 0.004547005568960997 0 0.004547005568960997 0.05813919560773248 0 0 0 0.020518701086136907 0.015819457041267519 -0.0030480063914382128 0 -0.0030480063914382128 0.056353450054888669 0 0 0 0.01804322677403903 0.014273588057847793 -0.0021868147002437276 0 -0.0021868147002437276 0.054427646529522478 0 0 0 0.017175308646842573 0.019449946728052878 -0.0033156919173242599 0 -0.0033156919173242599 0.053518926800760577 0 0 0 0.018242218382203374 0.017482561369865347 -0.0022231664573613558 0 -0.0022231664573613558 0.0509717296108219 0 0 0 0.017113572745171814 0.0071416067590313742 -0.0024790891122554656 0 -0.0024790891122554656 0.049996677127655126 0 0 0 0.014284570971671635 0.014254036968982871 -0.0049607059737086789 0 -0.0049607059737086789 0.05426307472937196 0 0 0 0.017129277924588716 0.011569864308039184 -0.006190638705316949 0 -0.006190638705316949 0.051975592345394193 0 0 0 0.015886364163358334 0.01302401933791399 -0.010324141781097904 0 -0.010324141781097904 0.055195933946629722 0 0 0 0.01705498832113592 0.011067425305472153 -0.0055060746518686672 0 -0.0055060746518686672 0.063304152931554419 0 0 0 0.01859289455925664 0.047579015840756224 -0.043411817242374889 0 -0.043411817242374889 0.099500670123768453 0 0 0 0.036769921491131181 0.0038265218953667107 -0.023108098453052686 0 -0.023108098453052686 0.061297276278080598 0 0 0 0.016280949543361824 0.043873109767981984 -0.027773425568221807 0 -0.027773425568221807 0.054720943628827817 0 0 0 0.024648513349202449 0.0055649357040245609 -0.010117818168550799 0 -0.010117818168550799 0.05561306086956766 0 0 0 0.015294499143398053 0.050274518713381774 -0.0084611354728613974 0 -0.0084611354728613974 0.084992208713330575 0 0 0 0.033816681856678091 0.040755456268386489 -0.017264811384257714 0 -0.017264811384257714 0.045560942320428122 0 0 0 0.021579099647203642 0.073390673646435214 -0.023452686618307413 0 -0.023452686618307413 0.059124955066893303 0 0 0 0.033128907178332154 0.032200063641597998 -0.016053169509630517 0 -0.016053169509630517 0.044592811358975915 0 0 0 0.019198218750143492 0.023194456715591186 -0.0021411313235523907 0 -0.0021411313235523907 0.042904408736429256 0 0 0 0.016524716363005121 0.046132852525095316 -0.010463594806838832 0 -0.010463594806838832 0.033946846442270612 0 0 0 0.020019924741841486 0.022095105546362692 -0.0033364128945167493 0 -0.0033364128945167493 0.027659250828044518 0 0 0 0.012438589093601789 0.029847076278104526 -0.004255185991747075 0 -0.004255185991747075 0.019978785520213406 0 0 0 0.012456465449579479 0.021352357493442723 -0.015243510727429722 0 -0.015243510727429722 0.04839588190496364 0 0 0 0.017437059849601599 0.018248434392073992 -0.015484145164743699 0 -0.015484145164743699 0.035628756786227928 0 0 0 0.01346929779457548 0.031459706855981776 -0.013276180104575834 0 -0.013276180104575834 0.040212452823301631 0 0 0 0.017918039919820841 0.020339263511012874 -0.0063528513993939854 0 -0.0063528513993939854 0.021240197706772178 0 0 0 0.01039486530444626 0.024758269389412845 -0.0065319429243852582 0 -0.0065319429243852582 0.038326792543707675 0 0 0 0.01577126548328012 0.023913445297255663 -0.0046698282999412567 0 -0.0046698282999412567 0.02431882608926254 0 0 0 0.012058067846629545 0.023700563084094135 0.0031094866048724922 0 0.0031094866048724922 0.02138445698868733 0 0 0 0.011271255018195366 0.019878895924289944 0.00097155687328906969 0 0.00097155687328906969 0.011849075459751588 0 0 0 0.0079319928460103873 0.018955631816993883 -0.0010002045348320408 0 -0.0010002045348320408 0.019623749811857633 0 0 0 0.0096448454072128702 0.023388609823712027 -0.0016042774705471992 0 -0.0016042774705471992 0.015164088127040572 0 0 0 0.0096381744876881514 0.019794536952482452 0.0039861796294223279 0 0.0039861796294223279 0.016712035736065153 0 0 0 0.0091266431721369022 0.011427968333542371 0.0079668184415652796 0 0.0079668184415652796 0.0103806941722647 0 0 0 0.0054521656264517656 0.017393354848711316 0.0025431333209550711 0 0.0025431333209550711 0.009595960610538426 0 0 0 0.0067473288648124356 0.015573417097351539 0.0089480638444657031 0 0.0089480638444657031 0.0081053456881582317 0 0 0 0.0059196906963774436 0.011941702980156633 0.0069101299593133502 0 0.0069101299593133502 0.0047905016678038842 0 0 0 0.0041830511619901332 0.0071702760873850156 0.011774709992863286 0 0.011774709992863286 0.0036928339244009997 0 0 0 0.002715777502946503 0.023195378911526388 0.0025574714642432259 0 0.0025574714642432259 0.01451047453069507 0 0 0 0.0094264633605553611 0.021724180117161825 0.0013689725830561385 0 0.0013689725830561385 0.01293661040407287 0 0 0 0.0086651976303086693 0.020740552987397669 0.0062043567041121621 0 0.0062043567041121621 0.011540562792246523 0 0 0 0.0080702789449110506 0.018639009753895916 0.0051270707198673004 0 0.0051270707198673004 0.0093400398509452601 0 0 0 0.0069947624012102957 0.023233953390484362 0.0038190697028400219 0 0.0038190697028400219 0.016381994721972673 0 0 0 0.0099039870281142604 0.025732544654169319 0.0085999967304911332 0 0.0085999967304911332 0.010261874597932999 0 0 0 0.0089986048130255812 0.031328408684363401 0.0090719785718128554 0 0.0090719785718128554 0.016351058718547345 0 0 0 0.0119198668507277 0.031716115085812555 0.0083741208789871215 0 0.0083741208789871215 0.014026818193859654 0 0 0 0.011435733319918059 0.026456996786452587 0.003843261415557464 0 0.003843261415557464 0.018661203441448802 0 0 0 0.011279550056975354 0.026628280908099603 0.0038482047885376974 0 0.0038482047885376974 0.024651655537305597 0 0 0 0.012819984111351303 0.022728915124638198 0.0016383903133380187 0 0.0016383903133380187 0.021599512959525217 0 0 0 0.01108210702104085 0.02717925888895676 0.002612567397440414 0 0.002612567397440414 0.034714128676968999 0 0 0 0.015473346891481434 0.029921203148925393 0.0067046715263823116 0 0.0067046715263823116 0.026329614481509181 0 0 0 0.014062704407608642 0.020285409277511064 0.00063484762738316193 0 0.00063484762738316193 0.031481223776514924 0 0 0 0.012941658263506493 0.023792579107291167 -0.0011888272965775719 0 -0.0011888272965775719 0.042767383320132801 0 0 0 0.016639990606855996 0.020040026776996026 -0.0038788863887059769 0 -0.0038788863887059769 0.02901111277030333 0 0 0 0.012262784886824842 0.031867829839255166 0.010478681570359118 0 0.010478681570359118 0.053743780937110366 0 0 0 0.021402902694091369 0.02353771806358337 0.0059255262782779063 0 0.0059255262782779063 0.036276882482785822 0 0 0 0.014953650136592288 0.026912839123939727 0.004156386596454861 0 0.004156386596454861 0.047171744534418747 0 0 0 0.018521145914589615 0.029898213087477043 0.0071756291880966036 0 0.0071756291880966036 0.027193412227921196 0 0 0 0.014272906328849557 0.033368280654233987 0.011168548600282387 0 0.011168548600282387 0.034482109530309502 0 0 0 0.0169625975461359 0.034416493093070502 0.010736127582646041 0 0.010736127582646041 0.037220939555573387 0 0 0 0.017909358162160969 0.036260965435822912 0.011066282706185324 0 0.011066282706185324 0.018732725931412494 0 0 0 0.013748422841808865 0.036817374667685088 0.011539888859568848 0 0.011539888859568848 0.022293116887432938 0 0 0 0.0147776228887795 0.043310689082117368 0.013438430202717427 0 0.013438430202717427 0.015993034627685407 0 0 0 0.014825930927450683 0.041603586139520893 0.011948594132136555 0 0.011948594132136555 0.0091940928264663963 0 0 0 0.012699419741496822 0.036672068392418496 0.0093623148356744186 0 0.0093623148356744186 0.0039077859104669418 0 0 0 0.010144963575721366 0.036222745819443597 0.011342154185074657 0 0.011342154185074657 0.01150054217375162 0 0 0 0.011930821998298801 0.037103123325406183 0.010099021113805173 0 0.010099021113805173 0.010134134181995352 0 0 0 0.011809314376850394 0.027087983357011288 0.0066717843948597873 0 0.0066717843948597873 0.01043478338659571 0 0 0 0.0093806916859017556 0.027978913091645539 0.0095537141781894853 0 0.0095537141781894853 0.0055595136166430026 0 0 0 0.008384606677072132 0.032213649152047441 0.010006209256568609 0 0.010006209256568609 0.0065779736251156025 0 0 0 0.0096979056942907652 0.033166987605503281 0.010206330848814976 0 0.010206330848814976 0.0095717552328301453 0 0 0 0.010684685709583364 0.033988203320912215 0.0088833877437469212 0 0.0088833877437469212 0.0025630547856816191 0 0 0 0.009137814526648462 0.033817921323932618 0.01047193567193646 0 0.01047193567193646 0.0021661290640897224 0 0 0 0.0089960125970055815 0.027227710923866263 0.0097101050238694864 0 0.0097101050238694864 0.0020209923716713665 0 0 0 0.007312175823884411 0.038762610191451455 0.0096237114417232223 0 0.0096237114417232223 0.0012787678566812261 0 0 0 0.010010344512033174 0.03821606033576995 0.0077801021321662091 0 0.0077801021321662091 0.00029789075373817114 0 0 0 0.0096284877723770302 0.043676024278791525 0.0090297166250059221 0 0.0090297166250059221 0.0016375816917472107 0 0 0 0.011328401492634685 0.040444865171111649 0.00839652832870183 0 0.00839652832870183 0.00095073881730541737 0 0 0 0.010348900997104272 0.038241074728040579 0.010335164043551363 0 0.010335164043551363 0.0042192277887479895 0 0 0 0.010615075629197146 0.0070252655685032273 0.011116765664022001 0 0.011116765664022001 0.0053713990710340213 0 0 0 0.0030991661598843137 0.01485473468735601 0.0096530050127331887 0 0.0096530050127331887 0.0022068033397655354 0 0 0 0.004265384506780389 0.0075671014221756448 0.011839910881761697 0 0.011839910881761697 0.0021710226690598924 0 0 0 0.0024345310228088869 0.020052695751219277 0.0089809375508385254 0 0.0089809375508385254 0.0010596914882842062 0 0 0 0.0052780968098758742 0.016460552092216224 0.010313156723649018 0 0.010313156723649018 0.0064306804288237346 0 0 0 0.0057228081302599931 0.020705627513119669 0.0095215930773784041 0 0.0095215930773784041 0.0054046888471644683 0 0 0 0.0065275790900710309 0.02267670563281577 0.0068368734055988326 0 0.0068368734055988326 0.0054731369284297237 0 0 0 0.0070374606403113774 0.023552338429807949 0.011005531885490883 0 0.011005531885490883 0.0076076165748584085 0 0 0 0.0077899887511665954 0.026319306674833488 0.0086358957359298077 0 0.0086358957359298077 0.002033179534036561 0 0 0 0.0070881215522175193 0.021910080319417116 0.0091309972532265596 0 0.0091309972532265596 0.002613735581992585 0 0 0 0.0061309539753524323 0.026965873030508847 0.011027005999670209 0 0.011027005999670209 0.0011562827920700153 0 0 0 0.007030538955644712 0.018722636868643019 0.01188194236944826 0 0.01188194236944826 0.0034054590511716429 0 0 0 0.0055320239799536639 0.017059907832170308 0.010739177227405923 0 0.010739177227405923 0.00096107232979079915 0 0 0 0.0045052450404902723 0.008739546241164806 0.011388166739367048 0 0.011388166739367048 0.0010040129943279935 0 0 0 0.0024358898088731977 0.0074386451132574041 0.013425995443745399 0 0.013425995443745399 0.00027065459487582433 0 0 0 0.0019273249270333054 0.007071166253734603 0.011672356143590249 0 0.011672356143590249 0.00076324145725868708 0 0 0 0.0019586019277483269 -0.00011651127804001606 0.013956589929884605 0 0.013956589929884605 0.00024587470750712589 0 0 0 3.2340857366775291e-05 0.0049926461427405502 0.014984647238520081 0 0.014984647238520081 -0.00023940709775525232 0 0 0 0.0011883097612463249 -0.00096714940854610715 0.01319792827492725 0 0.01319792827492725 0.0011183062516122444 0 0 0 3.7789210766525638e-05 0.0053945127199144273 0.011540290582164606 0 0.011540290582164606 -0.00033033256040113784 0 0 0 0.0012660450398783198 0.013247857303959701 0.013435313816769639 0 0.013435313816769639 0.00060901644462466042 0 0 0 0.0034642184371460934 0.011949142261577266 0.011734927077960068 0 0.011734927077960068 0.00086889742257970776 0 0 0 0.0032045099210392444 0.014585809651839123 0.013861095636163388 0 0.013861095636163388 0.00068360090452992267 0 0 0 0.0038173526390922578 0.018945598226978857 0.01020928273792835 0 0.01020928273792835 0.00070023997798421105 0 0 0 0.0049114595512407648 0.02020632995254671 0.01140181393439532 0 0.01140181393439532 0.0016730027982791718 0 0 0 0.0054698331877064688 0.026349724109041961 0.01161363827042311 0 0.01161363827042311 0.00059228755498696647 0 0 0 0.0067355029160072319 0.020446755841260409 0.010569133175282359 0 0.010569133175282359 0.0037248307367842536 0 0 0 0.0060428966445111656 0.017617217954901447 0.014266925110625118 0 0.014266925110625118 0.0020892047462848194 0 0 0 0.0049266056752965675 0.015247254968268911 0.012466834482044865 0 0.012466834482044865 0.0050825087167285189 0 0 0 0.0050824409212493578 0.0089655257274053584 0.016102880959904895 0 0.016102880959904895 0.00063741239028029112 0 0 0 0.0024007345294214145 0.0051702883649330147 0.013414312907299865 0 0.013414312907299865 0.0017215162897721327 0 0 0 0.0017229511636762868 -0.00040677494814751226 0.017015057194399424 0 0.017015057194399424 -0.0012489165310884884 0 0 0 -0.00041392286980899973 0.037410299855655887 0.0072906425858140656 0 0.0072906425858140656 0.0024369425399431936 0 0 0 0.0099618105988997698 0.038845470854459704 0.0080758021911839784 0 0.0080758021911839784 0.00034362965607731555 0 0 0 0.009797275127634255 0.032947580093066781 0.0091365803875175337 0 0.0091365803875175337 0.00091305744693932073 0 0 0 0.0084651593850015271 0.033131327794475751 0.0097388802175718443 0 0.0097388802175718443 0.00074568784759770912 0 0 0 0.0084692539105183633 0.027202074581677775 0.0098406550969407716 0 0.0098406550969407716 0.0024920711377881856 0 0 0 0.007423536429866491 0.031132129201773467 0.0094031499944026743 0 0.0094031499944026743 0.0032543986598853117 0 0 0 0.0085966319654146948 0.024313534532600063 0.010762216366450139 0 0.010762216366450139 0.0080998106238842418 0 0 0 0.008103336289121077 0.024517224209973008 0.012138715269872088 0 0.012138715269872088 0.0046703008119035223 0 0 0 0.0072968812554691353 0.029800764979412305 0.0093933282614085799 0 0.0093933282614085799 0.0099321166377885541 0 0 0 0.0099332204043002161 0.030131011019663766 0.0092771157891804248 0 0.0092771157891804248 0.0049240291082171782 0 0 0 0.0087637600319702379 0.03687753558783495 0.0064948102208334637 0 0.0064948102208334637 0.0058447298299696502 0 0 0 0.010680566354451151 0.033803192680186708 0.0082109749040170515 0 0.0082109749040170515 0.0017683944620654969 0 0 0 0.0088928967855630495 0.032545234223802746 0.0077542573565255552 0 0.0077542573565255552 0.0055050864379585715 0 0 0 0.009512580165440326 0.033326614655462709 0.0074194646131989722 0 0.0074194646131989722 0.011107545148277715 0 0 0 0.011108539950935107 0.035472924022021277 0.0046721170486627248 0 0.0046721170486627248 0.0039421840620171514 0 0 0 0.0098537770210096083 0.038533607426361513 0.0023020652156311786 0 0.0023020652156311786 0.01283594106086732 0 0 0 0.012842387121807207 0.034963362282046023 0.0010159687963056825 0 0.0010159687963056825 0.0024954973878779907 0 0 0 0.0093647149174810006 0.0415097664551725 0.00081043258821014621 0 0.00081043258821014621 0.0041148517693656798 0 0 0 0.011406154556134546 0.040976385971084814 0.0033719361063489365 0 0.0033719361063489365 0.0023503716882888456 0 0 0 0.010831689414843415 0.041911215187034688 0.0049307642815697768 0 0.0049307642815697768 0.00089385935192654378 0 0 0 0.010701268634740312 0.039781732598503393 0.0025716768448542245 0 0.0025716768448542245 -0.00097550772724864718 0 0 0 0.0097015562178136856 0.045426461934327832 0.0027546193508554704 0 0.0027546193508554704 0.00076778157470122122 0 0 0 0.011548560877257264 0.041942320942399774 0.0045261694356069967 0 0.0045261694356069967 -0.0027629779533528574 0 0 0 0.0097948357472617282 0.043219297753464968 0.00077405554735343954 0 0.00077405554735343954 -0.0050637361775267772 0 0 0 0.0095388903939845511 0.03988323434941296 -0.0045799562781389958 0 -0.0045799562781389958 -0.0056270161632865027 0 0 0 0.0085640545465316183 0.042368312969580699 -0.0014017068925706319 0 -0.0014017068925706319 -0.00064429345437021918 0 0 0 0.010431004878802618 0.039902104871836853 -0.00087277156250812238 0 -0.00087277156250812238 0.00056758072411238446 0 0 0 0.010117421398987308 0.038113746846431235 -0.0012171435991791383 0 -0.0012171435991791383 0.012706978014361365 0 0 0 0.012705181215198152 0.037545981527207541 -0.0045167225960903307 0 -0.0045167225960903307 0.012504617549503915 0 0 0 0.012512649769177863 0.034476701363888675 -0.0038583090389725195 0 -0.0038583090389725195 0.0029188824146065516 0 0 0 0.0093488959446238057 0.031194021005033806 -0.009391492832817927 0 -0.009391492832817927 0.010395237091434873 0 0 0 0.010397314524117171 0.037999713349973464 -0.0057168153206536834 0 -0.0057168153206536834 0.002329990155760929 0 0 0 0.010082425876433595 0.029557407450324993 -0.0092899488747694194 0 -0.0092899488747694194 -0.0010197781587489678 0 0 0 0.007134407322894009 0.018896170236621726 -0.013882334319139747 0 -0.013882334319139747 0.0062924111975353938 0 0 0 0.0062971453585392804 0.020370521792331533 -0.015556959552429651 0 -0.015556959552429651 -0.0039872158652556333 0 0 0 0.0040958264817689757 0.0089191609110120251 -0.019987313438151445 0 -0.019987313438151445 -0.0050333583136077664 0 0 0 0.00097145064935106121 0.020230713261682586 -0.015926063434106193 0 -0.015926063434106193 -0.0090683712716196768 0 0 0 0.0027905854975157247 0.024771049793105279 -0.012551165044773908 0 -0.012551165044773908 -0.0060770072617196691 0 0 0 0.0046735106328463939 0.030514852403166003 -0.010123135330201996 0 -0.010123135330201996 -0.0014710030712924648 0 0 0 0.007260962332968383 0.016212172898318198 -0.015215644117169351 0 -0.015215644117169351 -0.0059797568789780667 0 0 0 0.0025581040048350302 0.029788284470664353 -0.010286586937277272 0 -0.010286586937277272 -0.006416519091496679 0 0 0 0.0058429413447919198 0.039550341500649552 -0.0060772937497087232 0 -0.0060772937497087232 -0.0081273667667703109 0 0 0 0.0078557436834698104 0.04151524988978092 -0.0032095936685030881 0 -0.0032095936685030881 -0.0037256538739484854 0 0 0 0.0094473990039581138 0.043511025906637676 -0.0046712257109472761 0 -0.0046712257109472761 -0.0057673710418015417 0 0 0 0.0094359137162090354 0.042312885239090006 -0.0040154380841261259 0 -0.0040154380841261259 -0.0091676275451948556 0 0 0 0.0082863144234737764 0.052337776899993152 -6.9993282825022048e-05 0 -6.9993282825022048e-05 -0.0073686632222789844 0 0 0 0.011242278419428542 0.034609002868283258 -0.011150208989757573 0 -0.011150208989757573 -0.011458835906960887 0 0 0 0.005787541740330587 0.026802998209819379 -0.015550078647461628 0 -0.015550078647461628 -0.0099256259553969356 0 0 0 0.0042193430636056073 0.034737795595344415 -0.010684369985552583 0 -0.010684369985552583 -0.0086522662582193335 0 0 0 0.0065213823342812737 0.037626093482795872 -0.0077139474201887159 0 -0.0077139474201887159 -0.0082471841070876906 0 0 0 0.0073447273439270488 0.020687807777615117 -0.015984775464441662 0 -0.015984775464441662 -0.011944852834642278 0 0 0 0.0021857387357432055 0.035173831122498563 -0.016169013970485539 0 -0.016169013970485539 -0.012527941385905815 0 0 0 0.0056614724341481817 0.042844185668825766 -0.012682500759593752 0 -0.012682500759593752 -0.0086186225937774918 0 0 0 0.0085563907687620632 0.039487480814031944 -0.010475872423895076 0 -0.010475872423895076 -0.012175291781830605 0 0 0 0.006828047258050334 0.057610966676491016 -0.0045527612401742162 0 -0.0045527612401742162 -0.0065118537452650352 0 0 0 0.01277477823280649 0.042694447716980645 -0.016042185914890796 0 -0.016042185914890796 -0.0066791035960781509 0 0 0 0.0090038360302256305 0.040964512684427835 -0.015047353791614256 0 -0.015047353791614256 -0.0098904342728869145 0 0 0 0.0077685196028852363 0.048729653293542896 -0.0003121904759257244 0 -0.0003121904759257244 -0.006693176884389045 0 0 0 0.010509119102288461 0.050453115131578852 -0.0073173607196482578 0 -0.0073173607196482578 -0.0090086956903646168 0 0 0 0.01036110486030356 0.056810026366392867 0.0014047441875308835 0 0.0014047441875308835 -0.008198027613172211 0 0 0 0.012152999688305164 0.065841280186482415 0.0060755345044796417 0 0.0060755345044796417 -0.00033743475798732325 0 0 0 0.016375961357123773 0.055807710640123319 0.0079836122058664864 0 0.0079836122058664864 0.00078948064235542749 0 0 0 0.01414929782061968 0.058656627774235089 0.0076273412382624004 0 0.0076273412382624004 0.0016800428357406638 0 0 0 0.01508416765249394 0.052885481930836441 0.0054343415414208921 0 0.0054343415414208921 -0.0042736568863835714 0 0 0 0.012152956261113216 0.052937455486813535 0.0099672165337914339 0 0.0099672165337914339 0.0023083606623975558 0 0 0 0.013811454037302768 0.055228738541939562 0.012931733263157873 0 0.012931733263157873 0.0088010320622481375 0 0 0 0.016007442651046921 0.050002801542287145 0.0096212152602456885 0 0.0096212152602456885 0.0024619749206416242 0 0 0 0.013116194115732189 0.049127155159354854 0.013349940210039525 0 0.013349940210039525 0.010638465747720129 0 0 0 0.014941405226768739 0.043686865324090621 0.0099515206492897194 0 0.0099515206492897194 0.0038991846914568015 0 0 0 0.011896512503886847 0.042654663005575424 0.009970847535250113 0 0.009970847535250113 0.0035570189905817298 0 0 0 0.011552920499039287 0.046717870002537819 0.0068070091363369783 0 0.0068070091363369783 -0.0022316887791996864 0 0 0 0.011121545305834524 0.048803819092040734 0.0082675502478066366 0 0.0082675502478066366 0.00078383173832138192 0 0 0 0.012396912707590531 0.042282620323428659 0.0062896298779535039 0 0.0062896298779535039 -0.0026204865303615862 0 0 0 0.0099155334482667751 0.047829548718892612 0.0050896405780117421 0 0.0050896405780117421 -0.00070212886208198934 0 0 0 0.011781854964202641 0.044459962442938851 0.0030374566645147943 0 0.0030374566645147943 -0.0049502801722220349 0 0 0 0.0098774205676792036 0.047418827702649324 0.001809783962194863 0 0.001809783962194863 -0.0031430182151205646 0 0 0 0.011068952371882188 0.046345609468095413 -0.0021745360847147642 0 -0.0021745360847147642 -0.0057442487526705478 0 0 0 0.010150340178856226 0.048419502957299486 0.0041327080620022095 0 0.0041327080620022095 -0.0040604380967958053 0 0 0 0.011089766215125923 0.051839323628060534 0.0050495757952937681 0 0.0050495757952937681 -0.0033735366086892131 0 0 0 0.012116446754842823 -0.08485308383849334 -0.00640384807120788 0 -0.00640384807120788 -0.0035617967889009505 0 0 0 -0.02210372015684858 -0.05895522046137381 -0.016723858472175428 0 -0.016723858472175428 -0.0016645265719922656 0 0 0 -0.015154936758341515 -0.064899643092517126 -0.0078447491808867724 0 -0.0078447491808867724 -0.00058379779401269982 0 0 0 -0.016370860221632453 -0.058051093487529085 -0.010827208114324791 0 -0.010827208114324791 0.0045785804215122197 0 0 0 -0.013368128266504208 -0.051139571132136283 -0.0073713357587599608 0 -0.0073713357587599608 0.0040337280232655322 0 0 0 -0.01177646077721769 -0.049523167150252456 -0.0051636986732186019 0 -0.0051636986732186019 -0.0061237104589815933 0 0 0 -0.013911719402308509 -0.047517016842610622 -0.0067987862808506511 0 -0.0067987862808506511 -0.015808292549721489 0 0 0 -0.015831327348083027 -0.049492403953016836 -0.0086585251385601341 0 -0.0086585251385601341 -0.0061221359993641686 0 0 0 -0.01390363498809525 -0.048333052434778319 -0.014825101811963705 0 -0.014825101811963705 -0.0043760608010339035 0 0 0 -0.013177278308953056 -0.044512723702020633 -0.015721969391538936 0 -0.015721969391538936 -0.0027985976887979769 0 0 0 -0.011827830347704653 -0.03821806002013791 -0.0157626990657142 0 -0.0157626990657142 -0.012744948827098694 0 0 0 -0.012740752211809151 -0.038210320132126045 -0.015768538851052959 0 -0.015768538851052959 -0.012720172225056284 0 0 0 -0.01273262308929558 -0.042762756637671456 -0.018628901580488522 0 -0.018628901580488522 -0.0053620656472970069 0 0 0 -0.012031205571242119 -0.029610539544533208 -0.019228649468169576 0 -0.019228649468169576 -0.0017307134694905246 0 0 0 -0.0078353132535059298 -0.048418301405609529 -0.0172752779300871 0 -0.0172752779300871 0.00070374068252321287 0 0 0 -0.011928640180771583 -0.069945273287449233 -0.017409872090229071 0 -0.017409872090229071 -0.0030240754194164748 0 0 0 -0.018242337176716431 -0.028263008154278683 -0.022945494658149657 0 -0.022945494658149657 -0.0015600323059573457 0 0 0 -0.0074557601150590028 -0.051722550771883327 -0.02112983043963745 0 -0.02112983043963745 -0.0051481247994517379 0 0 0 -0.014217668892833768 -0.025222575626859527 -0.01988818681118943 0 -0.01988818681118943 -0.0046813012980840563 0 0 0 -0.0074759692312358905 -0.020047271270466353 -0.02011488039334813 0 -0.02011488039334813 -0.0071528401925591359 0 0 0 -0.006800027865756373 -0.024842848173698768 -0.023920610142820885 0 -0.023920610142820885 -0.005096983246078185 0 0 0 -0.0074849578549442408 -0.022592182122233562 -0.021816677459567065 0 -0.021816677459567065 -0.0029539789252760948 0 0 0 -0.0063865402618774117 -0.023891840437125521 -0.020648399489988797 0 -0.020648399489988797 -0.0061735788146955739 0 0 0 -0.0075163548129552737 -0.010262329301643959 -0.018112623524509718 0 -0.018112623524509718 -0.0034298904121934639 0 0 0 -0.0034230549284593559 -0.0093180449858762636 -0.021442219789576576 0 -0.021442219789576576 -0.0057737122417595259 0 0 0 -0.0037729393069089456 -0.0045932847264642321 -0.017294038875052029 0 -0.017294038875052029 -0.0027006577322095521 0 0 0 -0.0018234856146684443 -0.0054146545516570443 -0.022576367335958553 0 -0.022576367335958553 -0.004810059045690325 0 0 0 -0.0025561783993368441 0.0047840848949478538 -0.016965613579287844 0 -0.016965613579287844 0.0015963049488904694 0 0 0 0.0015950974609595806 0.013800219653938758 -0.014326118563957211 0 -0.014326118563957211 -0.0016930498438782263 0 0 0 0.0030267924525151351 0.0055283703785454844 -0.021527834214210499 0 -0.021527834214210499 -0.0073677446199497121 0 0 0 -0.00045984356035105173 0.00035509403842755305 -0.021524501468159617 0 -0.021524501468159617 -0.0072677163825228541 0 0 0 -0.0017281555860238287 0.0011107927384940786 -0.01774679060769669 0 -0.01774679060769669 -0.0068709165345347094 0 0 0 -0.0014400309490101562 0.01381525836902453 -0.021080155897553649 0 -0.021080155897553649 -0.012464785051587629 0 0 0 0.00033761832935922526 0.022113094326612792 -0.017408315245837514 0 -0.017408315245837514 -0.0085892069031887758 0 0 0 0.0033809718558560006 0.0018344436594398862 -0.025021216913773445 0 -0.025021216913773445 -0.012939727509969577 0 0 0 -0.0027763209626324205 0.020929605503933104 -0.021668346539450115 0 -0.021668346539450115 -0.01374224971252154 0 0 0 0.0017968389478528919 0.002820783877440663 -0.023083967539012675 0 -0.023083967539012675 -0.0056561897302337839 0 0 0 -0.0007088514631982774 -0.0049297037832142336 -0.028736006207699987 0 -0.028736006207699987 -0.010603510429637253 0 0 0 -0.0038833035532128725 0.019370597727178512 -0.019620684571135149 0 -0.019620684571135149 -0.0060036179615613749 0 0 0 0.0033417449414042885 -0.0035209230430524631 -0.02585252449907597 0 -0.02585252449907597 -0.0055229236529798359 0 0 0 -0.0022609616740080773 0.00022788425889734912 -0.031181772942781402 0 -0.031181772942781402 -0.0044981357867434762 0 0 0 -0.0010675628819615327 -0.031329921032301492 -0.027145649663987886 0 -0.027145649663987886 -0.011229438208857849 0 0 0 -0.010639839810289835 -0.027679979234907979 -0.028043734389568063 0 -0.028043734389568063 -0.0075048321771796073 0 0 0 -0.0087962028530219026 -0.029672856241906884 -0.022851725572766556 0 -0.022851725572766556 -0.0029135474851776505 0 0 0 -0.0081466009317711294 -0.0025036665930179367 -0.022215029620752398 0 -0.022215029620752398 -0.0045694751407284843 0 0 0 -0.0017682854334366022 -0.018119948053977937 -0.024664803795231741 0 -0.024664803795231741 -0.0088829811678080989 0 0 0 -0.0067507323054465107 -0.047304199040512078 -0.02338431651519194 0 -0.02338431651519194 -0.0052814475547374937 0 0 0 -0.013146411648812382 -0.04403394486116502 -0.021114521932009626 0 -0.021114521932009626 0.0015510078251679826 0 0 0 -0.010620734258999259 -0.062660378298817432 -0.01975829351061691 0 -0.01975829351061691 -0.00060211807501442394 0 0 0 -0.01581562409345795 -0.047564646541747732 -0.028814453867747683 0 -0.028814453867747683 -0.0011658351372027254 0 0 0 -0.012182620419737611 -0.060563144083301518 -0.022705944661679925 0 -0.022705944661679925 -0.0060085374957967869 0 0 0 -0.016642920394774573 -0.03304803776345662 -0.032964658010444299 0 -0.032964658010444299 -0.0024216205397164098 0 0 0 -0.0088674145757932608 -0.059901642689604691 -0.025473093324131849 0 -0.025473093324131849 0.0022330584455904356 0 0 0 -0.01441714606100356 -0.094098613429749262 -0.018070983750366372 0 -0.018070983750366372 -0.0057099889382835056 0 0 0 -0.024952150592008209 -0.10243821662766324 -0.021611165386202232 0 -0.021611165386202232 -0.0035757535229099316 0 0 0 -0.026503492537643312 -0.1239046416705599 -0.011547337580074755 0 -0.011547337580074755 -0.0010630816480597174 0 0 0 -0.031241930829654894 -0.088786846237933828 -0.0092008122258012432 0 -0.0092008122258012432 0.00015579589279095946 0 0 0 -0.022157762586285719 -0.10292527352948355 -0.010496449014148633 0 -0.010496449014148633 -0.0008970641532904805 0 0 0 -0.025955584420693501 -0.06379238933136433 -0.020759304271918477 0 -0.020759304271918477 -0.00081151630615045392 0 0 0 -0.016150976409378699 -0.08730217542350413 -0.0084211713985400984 0 -0.0084211713985400984 -0.005038051845645093 0 0 0 -0.023085056817287296 -0.064526783578201144 -0.01363443467572102 0 -0.01363443467572102 0.0033365579641334298 0 0 0 -0.015297556403516925 -0.13549885959542218 -0.010787597152275646 0 -0.010787597152275646 0.0061186993667232958 0 0 0 -0.032345040057174743 -0.19798812001877947 -0.0024718809839438249 0 -0.0024718809839438249 -0.00064612300719907312 0 0 0 -0.049658560756494677 -0.12567793354271847 -0.024563979092328679 0 -0.024563979092328679 0.0058076161093847233 0 0 0 -0.029967579358333423 -0.12683152442288384 -0.0079211663285192954 0 -0.0079211663285192954 0.0012432444997119707 0 0 0 -0.031397069980792905 -0.16890793718138608 -0.0091138754989182023 0 -0.0091138754989182023 0.0020330014993206746 0 0 0 -0.041718733920516324 -0.14347874578528572 -0.011007120900149044 0 -0.011007120900149044 -0.00054883659588369875 0 0 0 -0.036006895595292361 -0.097337401821228284 -0.011571390754752678 0 -0.011571390754752678 0.001723422745832307 0 0 0 -0.023903494768848985 -0.11372611429675603 -0.010013131438305671 0 -0.010013131438305671 0.0014832289319016631 0 0 0 -0.028060721341213585 -0.10905579243780361 -0.026281837425733111 0 -0.026281837425733111 0.0024492365585190162 0 0 0 -0.026651638969821149 -0.064780917940951005 -0.02756724881003824 0 -0.02756724881003824 0.0023696176300081126 0 0 0 -0.015602825077735721 -0.065430926036494058 -0.026158001143072897 0 -0.026158001143072897 -0.0011601137066175569 0 0 0 -0.016647759935777912 -0.044089422843064573 -0.026144052532423811 0 -0.026144052532423811 -0.0078853926753264247 0 0 0 -0.012993703879597751 -0.064863355002795692 -0.036637465020431775 0 -0.036637465020431775 0.0074060449081109481 0 0 0 -0.0143643275236712 -0.086369561907500475 -0.018422032968320505 0 -0.018422032968320505 0.0016143262051144525 0 0 0 -0.02118880892559653 -0.072916135528707723 -0.015405945237256219 0 -0.015405945237256219 0.0063643243546413798 0 0 0 -0.016637952793516576 -0.014905761793655221 -0.029793320777466617 0 -0.029793320777466617 0.0087562775005007309 0 0 0 -0.0015373710732886278 -0.0094483218459054316 -0.026412490266551195 0 -0.026412490266551195 0.023775371520400462 0 0 0 0.0035817624186237629 0.015292855331894225 -0.034516486321428834 0 -0.034516486321428834 0.0043468835654784377 0 0 0 0.00490993472434317 -0.053695610774264838 -0.026569115832664053 0 -0.026569115832664053 0.0083522963984201497 0 0 0 -0.01133582859396118 -0.020603819878105323 -0.033575391366141377 0 -0.033575391366141377 0.0033662638058113677 0 0 0 -0.0043093890180734892 -0.049245965010881333 -0.036058723366637388 0 -0.036058723366637388 -0.0013160201184158372 0 0 0 -0.012640496282324287 -0.022488050012654571 -0.037057793582799724 0 -0.037057793582799724 -0.0055989512227997366 0 0 0 -0.0070217503088635764 -0.017166717324326113 -0.028280505105238666 0 -0.028280505105238666 -0.002068426500800899 0 0 0 -0.0048087859562817512 0.0081740333902452257 -0.033978322356393892 0 -0.033978322356393892 -0.0014481172250089373 0 0 0 0.0016814790413090712 -0.020300206299622439 -0.028847375796506376 0 -0.028847375796506376 0.0014209598101083895 0 0 0 -0.0047198116223785185 0.009296735768151208 -0.025121526132570862 0 -0.025121526132570862 -0.002569949151813738 0 0 0 0.0016816966540843682 0.037148762816860317 -0.030071649787482595 0 -0.030071649787482595 -0.0021622001400603153 0 0 0 0.0087466406692000009 0.025223948429740302 -0.028588998462168707 0 -0.028588998462168707 -0.0058355477752802531 0 0 0 0.0048471001636150096 0.049779169021979194 -0.022535353483846447 0 -0.022535353483846447 -0.004980866730892982 0 0 0 0.011199575572771549 0.025480614513406649 -0.019658772630817334 0 -0.019658772630817334 -0.0073522693280908061 0 0 0 0.004532086296328959 0.038888641228658705 -0.017958144932312289 0 -0.017958144932312289 0.0023832217536726048 0 0 0 0.010317965745582827 0.065521831682014295 -0.024435176287831109 0 -0.024435176287831109 0.0054643296060195579 0 0 0 0.017746540322008449 0.017717983838941742 -0.025135072088129637 0 -0.025135072088129637 0.0099425295189876032 0 0 0 0.006915128339482335 0.052435864387460084 -0.030164079750386548 0 -0.030164079750386548 0.01257867541168517 0 0 0 0.016253634949786322 0.050856217052188998 -0.016289358702936116 0 -0.016289358702936116 0.020104449022348536 0 0 0 0.01774016651863438 0.077271414555901419 -0.0095331247072217712 0 -0.0095331247072217712 0.045550239865135178 0 0 0 0.030705413605259149 0.088809649587035897 -0.025127221656217398 0 -0.025127221656217398 0.032531199071794678 0 0 0 0.030335212164707644 0.029604104498714454 -0.020217074049122458 0 -0.020217074049122458 0.029359892221568692 0 0 0 0.014740999180070814 0.014516862767854397 -0.036533049813938678 0 -0.036533049813938678 0.031811484509787491 0 0 0 0.011582086819410461 0.056820581773510265 -0.036085400188089437 0 -0.036085400188089437 0.071759958689886882 0 0 0 0.032145135115849294 0.079179595770602906 -0.021916735264555467 0 -0.021916735264555467 0.13692178120095555 0 0 0 0.054025344242889572 0.083837849747394597 0.019054421898542784 0 0.019054421898542784 0.11446282934823196 0 0 0 0.049575169773906649 0.065525809223796305 0.013347185802105421 0 0.013347185802105421 0.14913955689579739 0 0 0 0.053666341529898465 0.048704799188846959 0.0085819707990516941 0 0.0085819707990516941 0.092411124174423653 0 0 0 0.035278980840817598 0.026225816740475822 -0.019588724023012871 0 -0.019588724023012871 0.069402894023208553 0 0 0 0.023907177690921062 0.04709960930901147 -0.0042928199024982738 0 -0.0042928199024982738 0.070107732644980603 0 0 0 0.029301835488498018 0.0047712213846643481 0.022300202896684551 0 0.022300202896684551 0.080132606593181388 0 0 0 0.021225956994461448 -0.018423366031295518 0.0054292687029900144 0 0.0054292687029900144 0.046195492668088201 0 0 0 0.0069430316591981844 -0.046439972992696976 0.013848556247316172 0 0.013848556247316172 0.058698910432400941 0 0 0 0.0030647343599259913 -0.022468770628115142 -0.017380634050919774 0 -0.017380634050919774 0.023609139744157903 0 0 0 0.00028509227901069023 -0.053967824977190049 -0.0080524154668162734 0 -0.0080524154668162734 0.024812653241562566 0 0 0 -0.0072887929339068847 -0.008663998890210467 -0.013539727670144192 0 -0.013539727670144192 0.06604750231515949 0 0 0 0.014345875856237242 -0.049740083592864602 -0.031859829983216917 0 -0.031859829983216917 0.028877201615804319 0 0 0 -0.0052157204942650604 -0.091255809870861848 -0.026328984989475168 0 -0.026328984989475168 0.012556102724065266 0 0 0 -0.01967492678669916 -0.10099707518861141 -0.0059914612224036129 0 -0.0059914612224036129 0.010749868806820773 0 0 0 -0.022561801595447684 -0.068631189903779893 -0.023126401021977661 0 -0.023126401021977661 0.025225853909137896 0 0 0 -0.010851333998660478 -0.09362218739355449 0.0082235531832973163 0 0.0082235531832973163 0.024027146672902719 0 0 0 -0.017398760180162957 -0.062175368851431906 0.0030648203570166344 0 0.0030648203570166344 0.014161114561790256 0 0 0 -0.012003563572410419 -0.121998783290133 0.020549152333643961 0 0.020549152333643961 0.010793472590239883 0 0 0 -0.027801327674973342 -0.098074860770002048 0.0062557268713136494 0 0.0062557268713136494 0.033964001263411869 0 0 0 -0.016027714876647559 -0.10261553916288413 -0.0057178406298115866 0 -0.0057178406298115866 0.012545116871713224 0 0 0 -0.022517605572792809 -0.14435747214622605 0.0051051955704177476 0 0.0051051955704177476 0.01033030302272242 0 0 0 -0.033506792280875913 -0.14065271296416001 -0.0010477438261685679 0 -0.0010477438261685679 0.00602987674142208 0 0 0 -0.033655709055684463 -0.21035788383391085 0.0018853577088102701 0 0.0018853577088102701 0.0068446984162173763 0 0 0 -0.050878296354423369 -0.15202177115382073 -0.0050611532485034805 0 -0.0050611532485034805 0.0036731837736878048 0 0 0 -0.037087146845033198 -0.21335260214737023 -0.0078193517290164986 0 -0.0078193517290164986 0.0044231385449420291 0 0 0 -0.052232365900607036 -0.15757309474944403 0.00020656774524102639 0 0.00020656774524102639 -0.00094422358972046094 0 0 0 -0.039629329584790984 -0.12327878899260376 -0.019099865092326723 0 -0.019099865092326723 0.0082678452713200318 0 0 0 -0.028752735930320895 -0.14654818507017262 -0.018584139634959709 0 -0.018584139634959709 0.0058817516369324974 0 0 0 -0.035166608358310009 0.064907135736576457 0.023764047225556625 0 0.023764047225556625 0.030338342663513346 0 0 0 0.023811369600022458 0.067511498327932351 0.025020785411935371 0 0.025020785411935371 0.036585729694172786 0 0 0 0.02602430700552627 0.071788584252425125 0.027243945910694276 0 0.027243945910694276 0.03785840172177983 0 0 0 0.027411746493551239 0.054837575412380574 0.023326705706004598 0 0.023326705706004598 0.046883652842609674 0 0 0 0.025430307063747569 0.041101922107209948 0.018095585736820099 0 0.018095585736820099 0.053329436048074927 0 0 0 0.023607839538821229 0.047888258788254139 0.019488925611864327 0 0.019488925611864327 0.032147047547363757 0 0 0 0.020008826583904477 0.03379131382092343 0.013428679326963641 0 0.013428679326963641 0.037462938358597375 0 0 0 0.017813563044880212 0.055084617032250968 0.021129384900610233 0 0.021129384900610233 0.034605499476342033 0 0 0 0.022422529127148236 0.043579388395057816 0.01456098929773467 0 0.01456098929773467 0.01949839333045858 0 0 0 0.015769445431379099 0.043741418396229144 0.016258009627015756 0 0.016258009627015756 0.03040235553426629 0 0 0 0.018535943482623867 0.043194726381161674 0.011746569028237796 0 0.011746569028237796 0.009858826052674588 0 0 0 0.013263388108459074 0.051298466795182622 0.016993032470427803 0 0.016993032470427803 0.021034871947564138 0 0 0 0.018083334685686688 0.053712018059042695 0.013965864727361617 0 0.013965864727361617 0.0075993927053298604 0 0 0 0.015327852691093144 0.053924796211346049 0.017036370146563163 0 0.017036370146563163 0.020372874137599112 0 0 0 0.018574417587236297 0.061993242531217893 0.0190768006352732 0 0.0190768006352732 0.018100660124531251 0 0 0 0.020023475663937293 0.06496874330000163 0.011814380606877851 0 0.011814380606877851 0.0050919150834803674 0 0 0 0.017515164595870505 0.05768503570539936 0.0092503271757688171 0 0.0092503271757688171 0.004499031905305784 0 0 0 0.015546016902676305 0.055278515359252926 -0.0035916063170288166 0 -0.0035916063170288166 -0.0067962169154210765 0 0 0 0.012120574610957962 0.070650147396805155 0.002579391360305161 0 0.002579391360305161 0.0041470227272220883 0 0 0 0.018699292531006832 0.068015060778344918 0.0037056410293788327 0 0.0037056410293788327 0.0021172809400971659 0 0 0 0.017533085429610525 0.070498236703925077 0.016206827629454745 0 0.016206827629454745 0.015708185321609912 0 0 0 0.021551605506383745 0.05210697261553901 -0.0096638372742645536 0 -0.0096638372742645536 -0.0037064066857815398 0 0 0 0.012100141482439365 0.063739874376052719 -0.012700013063887449 0 -0.012700013063887449 -0.0021491365897120451 0 0 0 0.015397684446585184 0.070774079747547583 -0.0033801293521073233 0 -0.0033801293521073233 0.0089523118684416841 0 0 0 0.019931597903997327 0.080847518292865683 -0.0079241978278975604 0 -0.0079241978278975604 0.016245052591171094 0 0 0 0.024273142721009194 0.094762164973165613 0.0066852249136983635 0 0.0066852249136983635 0.030396712513603125 0 0 0 0.031289719371692178 0.080599197961621752 0.017705445177156831 0 0.017705445177156831 0.018174829950596758 0 0 0 0.024693506978054631 0.091349669038187004 0.011645705758625675 0 0.011645705758625675 0.015427972961020397 0 0 0 0.026694410499801851 0.078273433399145997 0.016415567717009673 0 0.016415567717009673 0.026541884634383093 0 0 0 0.026203829508382313 0.099629890986664707 0.021431724752085046 0 0.021431724752085046 0.031286417207173817 0 0 0 0.032729077048459586 0.084397796209696077 0.033925575986067463 0 0.033925575986067463 0.06556016409887222 0 0 0 0.037489490077142057 0.12580837804998818 0.035389237441468394 0 0.035389237441468394 0.06078043958758339 0 0 0 0.04664720440939292 0.10282491590016987 0.034437681392148478 0 0.034437681392148478 0.097287324599110506 0 0 0 0.050028060124820077 0.078631211989603586 0.03898712373856119 0 0.03898712373856119 0.10430746610074151 0 0 0 0.045734669522586313 0.092929474748153704 0.031603339152106155 0 0.031603339152106155 0.068463978891283417 0 0 0 0.040348363409859325 0.12260513320788516 -0.0044363310339698286 0 -0.0044363310339698286 0.049124613564841935 0 0 0 0.04293243669318178 0.12437593887943303 0.010398748537896046 0 0.010398748537896046 0.082637055281408411 0 0 0 0.051753248540210378 0.13042761750923559 -0.025069711732949741 0 -0.025069711732949741 0.070608457762602883 0 0 0 0.050259018817959633 0.22772331670921253 -0.011449280091282391 0 -0.011449280091282391 0.12461534481219408 0 0 0 0.088084665380351604 0.14787206257781868 -0.0058115037560658445 0 -0.0058115037560658445 0.28742866769060343 0 0 0 0.10882518256710548 0.2151530994432452 0.099197106301448137 0 0.099197106301448137 0.20582183046169411 0 0 0 0.10524373247623484 0.10720290000565579 0.059340084331848897 0 0.059340084331848897 0.17717164547432443 0 0 0 0.07109363636999505 0.052794148138185379 0.027056909576736135 0 0.027056909576736135 0.098393690100371661 0 0 0 0.037796959559639229 0.10278393157083485 0.039191632513073713 0 0.039191632513073713 0.098826812520506263 0 0 0 0.050402686022835284 0.057188191373240327 -0.017586053408253775 0 -0.017586053408253775 0.20357136247304836 0 0 0 0.065189888461572199 0.040547511202331826 -0.018462334113027428 0 -0.018462334113027428 0.11228301996559098 0 0 0 0.038207632791980708 0.042037585970029892 -0.018225650429865358 0 -0.018225650429865358 0.12083430758915389 0 0 0 0.040717973389795964 0.05737263693113296 0.026752303725735574 0 0.026752303725735574 0.11367323215875769 0 0 0 0.042761467272472688 0.057426037797623918 0.026292873718037353 0 0.026292873718037353 0.063650372091344956 0 0 0 0.030269102472242203 0.049437339929155513 0.021446456777146891 0 0.021446456777146891 0.10138966271105168 0 0 0 0.037706750660051802 0.033885689129894175 0.011766546910880634 0 0.011766546910880634 0.06617771349496207 0 0 0 0.025015850656214034 0.047054881245467028 0.02195121527904989 0 0.02195121527904989 0.080591413464486908 0 0 0 0.031911573677488494 0.051247576096421409 0.02300177408308017 0 0.02300177408308017 0.045851442655235608 0 0 0 0.024274754687914228 0.063416843789385821 0.031306132333135547 0 0.031306132333135547 0.069440583977060114 0 0 0 0.033214356941611518 0.032711906714931328 0.014252569203247155 0 0.014252569203247155 0.04865244310422269 0 0 0 0.020341087454788513 0.032942579894818629 0.012798443177748236 0 0.012798443177748236 0.069324665582204972 0 0 0 0.025566811369255905 0.036308830935720099 -0.016913116865806623 0 -0.016913116865806623 0.075801014853204396 0 0 0 0.02802746144723112 0.025385683644273422 -0.00098997545785206044 0 -0.00098997545785206044 0.069867706762431744 0 0 0 0.023813347601676308 0.022416007652969697 0.0012915564618211743 0 0.0012915564618211743 0.060653155003119727 0 0 0 0.020767290664022362 0.035808587704530624 0.0079851166075536172 0 0.0079851166075536172 0.09192535104688461 0 0 0 0.031933484687853793 0.030392778353601772 -0.014551879312711598 0 -0.014551879312711598 0.058088135875251266 0 0 0 0.02212022855721326 0.028360194414012441 -0.014531790926359815 0 -0.014531790926359815 0.047676684417936599 0 0 0 0.019009219707987232 0.048436558856284881 -0.028812469469219781 0 -0.028812469469219781 0.053600993627091975 0 0 0 0.025509388120844204 0.041340231265563313 -0.026764513252324672 0 -0.026764513252324672 0.026344844787807242 0 0 0 0.016921269013342607 0.030922373817245684 -0.017626047171287039 0 -0.017626047171287039 0.022195184236478944 0 0 0 0.013279389513431168 0.050074516907128178 -0.025824208877523555 0 -0.025824208877523555 0.02760967556507643 0 0 0 0.019421048118051135 0.05069155334373647 -0.025388535264000922 0 -0.025388535264000922 0.029482699248466835 0 0 0 0.020043563148050822 0.040034904725452916 -0.018958176294829168 0 -0.018958176294829168 0.0090552791333475824 0 0 0 0.012272545964700107 0.075623100857350661 -0.012254924333164167 0 -0.012254924333164167 0.016600563670360113 0 0 0 0.023055916131927701 0.062844874481132657 -0.018632163031593464 0 -0.018632163031593464 0.0038805387282029868 0 0 0 0.016681353302333946 0.067786004879862388 -0.023003246033027364 0 -0.023003246033027364 0.011133856966644484 0 0 0 0.019729965461626697 0.089882416991967751 -0.041647576634121802 0 -0.041647576634121802 0.041685832985056598 0 0 0 0.032892062494256073 0.035018846753123369 -0.018074796794951976 0 -0.018074796794951976 0.075683373137559851 0 0 0 0.027675554972670793 0.054504992888318796 -0.033672780961546286 0 -0.033672780961546286 0.051735225946887911 0 0 0 0.026560054708801701 0.055232616946014369 -0.036810447073585849 0 -0.036810447073585849 0.063141833238730641 0 0 0 0.029593612546186268 0.061450672414638696 -0.045450792786524814 0 -0.045450792786524814 0.097533594855768485 0 0 0 0.039746066817601795 0.037395264886849917 -0.040185664787103739 0 -0.040185664787103739 0.12957159354057501 0 0 0 0.04174171460685628 0.073294625786878953 -0.039406509227938986 0 -0.039406509227938986 0.12930868914797017 0 0 0 0.05065082873371228 0.10169044282151039 -0.011134788969615832 0 -0.011134788969615832 0.36768990023409304 0 0 0 0.11734508576390082 0.090143568321292028 -0.014870549468389116 0 -0.014870549468389116 -0.01320570198472748 0 0 0 0.019234466584141137 0.11847666063265569 -0.063064389938493962 0 -0.063064389938493962 0.07899130600559634 0 0 0 0.049366991659563 0.20107255413020092 0.13603412721367925 0 0.13603412721367925 0.23775507541856833 0 0 0 0.10970690738719231 0.11542836239563148 -0.09054029174386076 0 -0.09054029174386076 0.15800104877090995 0 0 0 0.068357352791635351 0.0072703541812396627 0.001292762847607906 0 0.001292762847607906 0.019953395450879138 0 0 0 0.0068059374080297001 0.33890283008271321 0.11182684331291529 0 0.11182684331291529 0.067095898561652323 0 0 0 0.1014996821610914 0.17861923220230591 0.029764276062860473 0 0.029764276062860473 0.037665973080005966 0 0 0 0.054071301320577914 0.017014427110871033 0.0031506825902242542 0 0.0031506825902242542 0.051154834993569022 0 0 0 0.017042315526110012 0.03049666859005408 0.0050008207590293979 0 0.0050008207590293979 0.047336987674341524 0 0 0 0.019458414066098953 0.17969564427743823 0.02915896000480498 0 0.02915896000480498 0.03350344242365666 0 0 0 0.053299771675273777 0.024488580668045861 0.0044698627755668154 0 0.0044698627755668154 0.073134229618242425 0 0 0 0.024405702571572069 0.043528387063288543 0.010185153659907326 0 0.010185153659907326 0.056977920309822572 0 0 0 0.025126576843277793 0.13747475095378381 0.026564919447798485 0 0.026564919447798485 0.023565647292449921 0 0 0 0.040260099561558405 0.074723060125520671 -0.021758127037212291 0 -0.021758127037212291 -0.0030235378136628799 0 0 0 0.017924880577964472 0.073333916662763218 0.0057153696768499906 0 0.0057153696768499906 0.034900793108190553 0 0 0 0.027058677442738419 0.072864700916113384 -0.0070829386555742724 0 -0.0070829386555742724 0.027719662689848379 0 0 0 0.025146090901490448 0.073948887954283365 -0.0025524946203640264 0 -0.0025524946203640264 0.018473523748081006 0 0 0 0.023105602925591079 0.062075660219334222 0.0061623062122273253 0 0.0061623062122273253 0.02792927450234578 0 0 0 0.02250123368041998 0.071280387484743524 0.0053426089620436101 0 0.0053426089620436101 0.059042329168904728 0 0 0 0.032580679163412118 0.065751996410630092 0.010235559031686881 0 0.010235559031686881 0.068950143233214356 0 0 0 0.033675534910961119 0.071966897636994626 0.0022403014277724703 0 0.0022403014277724703 0.028899813789828421 0 0 0 0.025216677856705755 0.12683918077948009 0.022696218903372145 0 0.022696218903372145 0.029120719939397022 0 0 0 0.038989975179719027 0.13683010239337901 0.015492091487681492 0 0.015492091487681492 0.063267986908083884 0 0 0 0.050024522325366028 0.16113404600074777 0.011405581610720104 0 0.011405581610720104 0.058868648163876713 0 0 0 0.055000673541155898 0.031215563962584039 0.0053884746191636117 0 0.0053884746191636117 0.093432478102789374 0 0 0 0.031162010516343354 0.14623579562663847 0.013221365934430327 0 0.013221365934430327 0.067519235735131744 0 0 0 0.053438757840442497 0.13676019453292559 0.010291782077620937 0 0.010291782077620937 0.067145060778986854 0 0 0 0.050976313827978126 0.11526902667228556 0.022744865526531877 0 0.022744865526531877 0.065632500553797435 0 0 0 0.045225381806520693 0.14288989455708512 0.011818936540129216 0 0.011818936540129216 0.084717060058836502 0 0 0 0.056901738653980294 0.083447914967244741 0.010227703215923312 0 0.010227703215923312 0.091141978667639401 0 0 0 0.043647473408720966 0.038042935460494698 0.0060695313449767949 0 0.0060695313449767949 0.11388651563636988 0 0 0 0.037982362774216148 0.12361847043690749 0.011942791846683232 0 0.011942791846683232 0.085921194422955316 0 0 0 0.052384916214965493 0.069211580054997363 0.0081817288612668071 0 0.0081817288612668071 0.048286442916588374 0 0 0 0.029374505742896441 0.06480915513675492 0.004409529878610402 0 0.004409529878610402 0.026518781278199954 0 0 0 0.022831984103738795 0.079679354808421865 0.0050810515656182775 0 0.0050810515656182775 0.077908500733057884 0 0 0 0.039396963885369951 0.072623569169722346 0.0053801683858293453 0 0.0053801683858293453 0.051410692397924951 0 0 0 0.03100856539191188 0.079451921350457144 0.0085609383967933175 0 0.0085609383967933175 0.056949862947010876 0 0 0 0.034100446074366964 0.062346620688745476 0.0040610515766340005 0 0.0040610515766340005 0.020383025769697249 0 0 0 0.02068241161461077 0.058039538085699532 0.0030892702902797775 0 0.0030892702902797775 0.023284812040178793 0 0 0 0.020331087531469588 0.064810255528272298 0.0037273653401624224 0 0.0037273653401624224 0.021120211039512116 0 0 0 0.021482616641946117 0.056233853360109262 -0.0059082540421238061 0 -0.0059082540421238061 0.0032205473521077776 0 0 0 0.014863600178054309 0.055722511844559869 -0.0017133569777474447 0 -0.0017133569777474447 0.006598238602829154 0 0 0 0.015580187611847179 0.043525237579228993 -0.0034655834005504482 0 -0.0034655834005504482 0.0020065260674907437 0 0 0 0.011382940911679906 0.046621140272641276 -0.0061056478874483566 0 -0.0061056478874483566 0.003928536421678841 0 0 0 0.012637419173579995 0.044601097025473185 -0.011821145846781719 0 -0.011821145846781719 0.0015313733864313894 0 0 0 0.011533117602976151 0.050553264939261697 -0.005166966033240239 0 -0.005166966033240239 0.0045559144066584442 0 0 0 0.013777294836480009 0.054555679193030254 -0.010887135951978738 0 -0.010887135951978738 0.0018598303374575131 0 0 0 0.014103877382621921 0.041496634420263329 -0.013517389325929427 0 -0.013517389325929427 -0.00081525146426120187 0 0 0 0.010170345739000525 0.053334734751758497 -0.01757304792744048 0 -0.01757304792744048 0.0061863337933454887 0 0 0 0.014880267136276007 0.041544087502709909 -0.017970533921806281 0 -0.017970533921806281 0.0093212027700492195 0 0 0 0.012716322568189775 0.056306206539408085 -0.011817130497226547 0 -0.011817130497226547 0.0019283619912266459 0 0 0 0.014558642132658658 0.062248465902710132 -0.0029467353037333499 0 -0.0029467353037333499 0.006110362547841891 0 0 0 0.017089707112638047 0.066153664982792251 -0.0055388480441598831 0 -0.0055388480441598831 0.010571053179735786 0 0 0 0.01918117954063199 -0.11909030483592065 0.0098417760821993827 0 0.0098417760821993827 0.0011287125122945163 0 0 0 -0.029490398080906477 -0.14359274067864947 0.014661911011621957 0 0.014661911011621957 0.0032373172786286375 0 0 0 -0.035088855850005318 -0.099438348071318128 0.036076354316226689 0 0.036076354316226689 0.012999041379416099 0 0 0 -0.02160982667297584 -0.18449080130164419 0.014569946196467121 0 0.014569946196467121 0.0034326281185750318 0 0 0 -0.045264543295767234 -0.18786648239673953 0.010447225484168987 0 0.010447225484168987 0.0074472731871961795 0 0 0 -0.045104802302385782 -0.11625728150802875 0.011499337589913228 0 0.011499337589913228 0.0020608009515958176 0 0 0 -0.028549120139108181 -0.12329204777671349 0.017696662043916178 0 0.017696662043916178 0.0039724106500289569 0 0 0 -0.029829909281671008 -0.089050612238813054 0.035854899430619452 0 0.035854899430619452 0.019353190570873258 0 0 0 -0.01742435541698506 -0.055199713267285289 0.03540681263480451 0 0.03540681263480451 0.019604614409034937 0 0 0 -0.0088987747145625185 -0.034078360179887801 0.047330261772171811 0 0.047330261772171811 0.039258333066123141 0 0 0 0.0012949932215588489 -0.054465405697588509 0.030170605494648006 0 0.030170605494648006 0.0050201797566291617 0 0 0 -0.012361306485239809 -0.044985872101197366 0.050091664657339496 0 0.050091664657339496 0.016745865196688192 0 0 0 -0.0070600017261272519 -0.07676124915463145 0.02708912995615248 0 0.02708912995615248 0.0012901717780580135 0 0 0 -0.018867769344143359 -0.03150038202260666 0.040239091244408387 0 0.040239091244408387 0.0044291259523375204 0 0 0 -0.0067678140175673474 0.049567092822602604 0.06100977805211838 0 0.06100977805211838 0.018025735881531779 0 0 0 0.016898207176033492 0.0086411963523097546 0.049609665991229859 0 0.049609665991229859 0.012832578317345966 0 0 0 0.005368443667413958 0.068069612123969336 0.073226620478200138 0 0.073226620478200138 0.044574272755832478 0 0 0 0.028160971219950426 0.0081852212865314855 0.054205592422561955 0 0.054205592422561955 0.016246430042410553 0 0 0 0.0061079128322357179 -0.048052619669121888 0.027374079897835357 0 0.027374079897835357 0.021280994659415686 0 0 0 -0.0066929062524264671 -0.0058709158582326143 0.05366509955905685 0 0.05366509955905685 0.060740574257410238 0 0 0 0.013717414599794378 0.0052463784375841455 0.042876033354607324 0 0.042876033354607324 0.041655779527510067 0 0 0 0.011725539491273598 0.053529703100262949 0.068831482401168098 0 0.068831482401168098 0.098539031833428492 0 0 0 0.038017183733422888 0.073294481211751139 0.074340833736948345 0 0.074340833736948345 0.16171718567415327 0 0 0 0.058752916721476145 0.11820848290297037 0.087661052946671203 0 0.087661052946671203 0.058237856830855028 0 0 0 0.044111584933456349 0.13329345181109176 0.077766120961108909 0 0.077766120961108909 0.059930264996349458 0 0 0 0.04830592920186029 0.080017169955656886 0.050013188274844189 0 0.050013188274844189 0.018687322424729258 0 0 0 0.024676123095096592 0.10928792440777402 0.05818355621531146 0 0.05818355621531146 0.025044707522495102 0 0 0 0.03358315798256728 0.13433991530745115 0.025464798941022548 0 0.025464798941022548 0.027467837501749415 0 0 0 0.040451938202300308 0.069288624051058817 0.041100365437419462 0 0.041100365437419462 0.010361863088554829 0 0 0 0.019912621784903467 0.070259245552203309 0.046540708734109981 0 0.046540708734109981 0.0099936900791552929 0 0 0 0.020063233907839706 0.10709350016861663 0.030239463227288765 0 0.030239463227288765 0.025839490819864253 0 0 0 0.033233247747120442 0.10437581464757029 0.027502242097776408 0 0.027502242097776408 0.030704934554777852 0 0 0 0.033770187300587118 0.1084936302130306 0.021010825260719179 0 0.021010825260719179 0.039641012458465408 0 0 0 0.037033660667874058 0.094497344868688771 0.029438435224800996 0 0.029438435224800996 0.034980734759518572 0 0 0 0.032369519907051725 0.070146967734822541 0.03434251747368694 0 0.03434251747368694 0.018546989124119673 0 0 0 0.022173489214735609 0.069093905680278733 0.041148737170080052 0 0.041148737170080052 0.011098620177204754 0 0 0 0.0200481314643709 0.0291811032320584 0.035153201806548795 0 0.035153201806548795 0.0087888853456019045 0 0 0 0.0094924971444148437 0.034048340108370878 0.038774357609894228 0 0.038774357609894228 0.0097949363900582398 0 0 0 0.010960819124606891 0.027322544894765377 0.037299030857079529 0 0.037299030857079529 0.0068907318535655904 0 0 0 0.0085533191870827974 -0.011985266551719054 0.043427854881694983 0 0.043427854881694983 0.0040398914712813649 0 0 0 -0.0019863437701095332 0.030389666674116356 0.046736255697759965 0 0.046736255697759965 0.0067847502088047573 0 0 0 0.0092936042207302227 0.043269726929904273 0.037478309095554274 0 0.037478309095554274 0.0044382126983810721 0 0 0 0.011926984907071336 0.0020980494063086441 0.042007767824308373 0 0.042007767824308373 0.0025025795309212562 0 0 0 0.0011501572343075583 -0.010634314913656184 0.052153337181507775 0 0.052153337181507775 0.0073638764034495985 0 0 0 -0.0008176096275516187 -0.040173894469750948 0.032407925943251814 0 0.032407925943251814 -0.0010120946660276964 0 0 0 -0.01029649728394455 -0.053761778297236273 0.041243942627615215 0 0.041243942627615215 0.0075551283008143955 0 0 0 -0.011551662499105331 -0.047450224016442055 0.026096001117019228 0 0.026096001117019228 0.0015420313455827284 0 0 0 -0.011477048167714665 -0.046129510127669415 0.039846230402149185 0 0.039846230402149185 0.0015774270933353041 0 0 0 -0.0111380207585835 -0.0102524981662524 0.03896761810639271 0 0.03896761810639271 0.00067708881251871134 0 0 0 -0.0023938523384334776 -0.005990450462631608 0.040864754859269325 0 0.040864754859269325 -0.0030957388651193241 0 0 0 -0.0022715473319377122 -0.027087697276677369 0.031081430330065274 0 0.031081430330065274 0.0035425709839529418 0 0 0 -0.0058862815731808293 -0.041435637422084781 0.02669918693170148 0 0.02669918693170148 -0.0012400757311827881 0 0 0 -0.010668928288316781 -0.05852315027551902 0.032165410974448083 0 0.032165410974448083 0.002712291132339395 0 0 0 -0.013952714785794962 -0.08456179745505521 0.011635672268393472 0 0.011635672268393472 0.0011639087929409264 0 0 0 -0.020849472165528571 -0.047689695705410262 0.011849971209636045 0 0.011849971209636045 0.0042768184803629872 0 0 0 -0.010853219306261819 -0.069092029534414623 0.012785928099054544 0 0.012785928099054544 0.0042660119511828132 0 0 0 -0.016206504395807952 -0.11838818568500487 0.011581258753753168 0 0.011581258753753168 0.000818358884886905 0 0 0 -0.029392456700029435 -0.089983545514641383 0.028649644220116732 0 0.028649644220116732 0.0024743340264652414 0 0 0 -0.021877302872044035 -0.086364151871992312 0.014769768193202082 0 0.014769768193202082 0.00013250537155928832 0 0 0 -0.021557911625108006 -0.0089606837327921365 0.012605684942793349 0 0.012605684942793349 0.0070440416719780019 0 0 0 -0.00047916051520336539 -0.030973155764235205 0.0094229366590006247 0 0.0094229366590006247 -0.00050533099303251561 0 0 0 -0.0078696216893168192 -0.011423203180449093 0.017923948659907374 0 0.017923948659907374 0.0040130578013348739 0 0 0 -0.0018525363447787768 -0.04058293322366513 0.010329232434693397 0 0.010329232434693397 0.0041742211377648886 0 0 0 -0.0091021780214752823 -0.037040348986782545 0.0082974017508150588 0 0.0082974017508150588 0.0024965871230824277 0 0 0 -0.0086359404659248629 -0.064195911558496244 0.011131620932914728 0 0.011131620932914728 0.0018642054203894531 0 0 0 -0.01558292653452642 -0.053952407000944502 0.020907307906830042 0 0.020907307906830042 7.1173656834844223e-05 0 0 0 -0.013470308336027026 -0.03972043217348098 0.017808866841088511 0 0.017808866841088511 0.0013868148980948902 0 0 0 -0.0095834043188465223 -0.023881008873148257 0.029107718821153011 0 0.029107718821153011 0.00099463609920391605 0 0 0 -0.0057215931934861963 -0.020945848393808975 0.022015689874773203 0 0.022015689874773203 0.0055099839420638119 0 0 0 -0.0038589661129366792 -0.0092396026016756672 0.026250294192288803 0 0.026250294192288803 0.0017923354537003888 0 0 0 -0.0018618167869934865 0.0036567140566774459 0.024221543495204223 0 0.024221543495204223 0.0058771757432412031 0 0 0 0.0023834724499802729 0.0042148745106693752 0.021623470320468297 0 0.021623470320468297 0.0055745586192150753 0 0 0 0.0024473582824713347 -0.014940073039692914 0.025489216242008617 0 0.025489216242008617 0.0035872441580746539 0 0 0 -0.0028382072204047315 0.0055801621204221163 0.023629494961900477 0 0.023629494961900477 0.00647416090307118 0 0 0 0.0030135807558733241 0.032780337174539209 0.023718064378242781 0 0.023718064378242781 0.012969031873883097 0 0 0 0.011437342262105243 0.035263226450667928 0.025781063981874741 0 0.025781063981874741 0.019654110460981755 0 0 0 0.013729334227912227 0.054722690419324538 0.024746502136711923 0 0.024746502136711923 0.02027581730603778 0 0 0 0.018749626931340968 0.0061425787637470197 0.030052818816870497 0 0.030052818816870497 0.006618014318868326 0 0 0 0.0031901482706537809 0.0026602091641796388 0.03579213774836254 0 0.03579213774836254 0.0020306398646265933 0 0 0 0.0011727122572016135 0.028302499965038086 0.028257174041653066 0 0.028257174041653066 0.0086122444408940346 0 0 0 0.0092286861014829746 0.026040619244050128 0.027999238119602587 0 0.027999238119602587 0.0097754825178902605 0 0 0 0.0089540254404849862 0.048612245985726707 0.034782582663116735 0 0.034782582663116735 0.014171348762848146 0 0 0 0.01569589868714398 0.030502426152548612 0.029450272190060744 0 0.029450272190060744 0.016534621895289092 0 0 0 0.011759262011959315 0.071876439604675157 0.022128428255388854 0 0.022128428255388854 0.034665543519916409 0 0 0 0.0266354957811481 0.070981623685631101 0.026622185982511537 0 0.026622185982511537 0.037080188834669237 0 0 0 0.027015453130075251 0.06473822549236119 0.029640269988513879 0 0.029640269988513879 0.018953789301619395 0 0 0 0.020923003698494869 0.08401007754580192 0.027881804929568155 0 0.027881804929568155 0.039347937297863567 0 0 0 0.030839503710916372 0.10496561334717702 0.015104265583045784 0 0.015104265583045784 0.069870552436309907 0 0 0 0.043709041445871843 0.086726153787758165 0.017904967533781457 0 0.017904967533781457 0.047823338684276351 0 0 0 0.033637373118008629 0.097635475097841096 0.023866018701814262 0 0.023866018701814262 0.072164168591538846 0 0 0 0.04244991092234518 0.060790195706969641 0.030472012287181549 0 0.030472012287181549 0.031765795341779146 0 0 0 0.023138997762187419 0.073743919816475323 0.024739296300615998 0 0.024739296300615998 0.046743203975904812 0 0 0 0.030121780948094923 0.10781053088462 0.0081336704177021879 0 0.0081336704177021879 0.069710879958927663 0 0 0 0.044380352710886584 0.081171103985702153 0.0029864652018165572 0 0.0029864652018165572 0.055317708081663142 0 0 0 0.034122203016841102 0.11978287957212669 0.017239211691325806 0 0.017239211691325806 0.072211733353945928 0 0 0 0.047998653231517696 0.10103242075669172 0.0090583096833745103 0 0.0090583096833745103 0.057818712438843178 0 0 0 0.039712783298884169 0.1306942700864111 -0.0075737889587381702 0 -0.0075737889587381702 0.091503847057028409 0 0 0 0.055549529285859656 0.14536838044645073 0.010709987611071892 0 0.010709987611071892 0.09318453338977406 0 0 0 0.059638228459056197 0.10690882533369142 -0.010096699957591326 0 -0.010096699957591326 0.048107785891921738 0 0 0 0.038754152806403513 0.070447191705947709 0.00039657451068242366 0 0.00039657451068242366 0.044268577135335718 0 0 0 0.028678942210320635 0.03191507182707265 0.013479107143621105 0 0.013479107143621105 0.0072386520533420651 0 0 0 0.0097884309701037342 0.034094875673512881 0.0075552818564232236 0 0.0075552818564232236 0.01377806359279532 0 0 0 0.011968234816576828 0.058733762117315624 0.0031632429148129582 0 0.0031632429148129582 0.0063117583210363648 0 0 0 0.01626138010958833 0.032905420235139649 0.019783177599869362 0 0.019783177599869362 0.010950849264607765 0 0 0 0.010964067374936826 0.067540764589729907 0.014286566904198383 0 0.014286566904198383 0.027611267358495617 0 0 0 0.023788007987056048 0.037533796197096958 0.017258270641481221 0 0.017258270641481221 0.023774654555108299 0 0 0 0.015327112688050981 0.064283164891333899 0.017700872769106146 0 0.017700872769106146 0.028489903737735744 0 0 0 0.02319326715726755 0.010233804998827978 0.01961493884555543 0 0.01961493884555543 0.0070903027089439519 0 0 0 0.0043310269269429824 -0.011594979921022847 0.014125337946184313 0 0.014125337946184313 0.0019466052336761797 0 0 0 -0.0024120936718367847 0.010292625010801526 0.013051357458206958 0 0.013051357458206958 0.0027880556921422439 0 0 0 0.0032701701757362756 0.0011128504906956493 0.014502162992803491 0 0.014502162992803491 0.0061646080738828601 0 0 0 0.0018193646411446274 0.010648973231514036 0.014435238587031218 0 0.014435238587031218 0.0019219964036087944 0 0 0 0.0031427424087804301 0.015354311268276355 0.0055382741185283635 0 0.0055382741185283635 -0.0079490811675064776 0 0 0 0.0018513075251926914 0.0085261244820125353 0.0042892649793353499 0 0.0042892649793353499 -0.0052214564811151956 0 0 0 0.00082616700022389072 0.017618425569849716 0.008135425234326199 0 0.008135425234326199 0.00091565418653338781 0 0 0 0.0046335199390954429 0.0073949360195402214 0.0094441715070319177 0 0.0094441715070319177 -7.7284174306413433e-05 0 0 0 0.001829412961308341 0.0014523063350675436 0.00636840273921635 0 0.00636840273921635 0.00053776887885348401 0 0 0 0.00049751880347992383 0.0062879005487439521 0.0032594725156089854 0 0.0032594725156089854 0.0015949914224968609 0 0 0 0.0019707229928100922 0.0041701728432550489 0.0020680037610274482 0 0.0020680037610274482 0.0024942594856920408 0 0 0 0.0016661080822371055 0.0013711779456295758 0.0027040171330135034 0 0.0027040171330135034 0.0020267422995150497 0 0 0 0.00084948006128637843 0.0038528460458591152 0.0047034063632072076 0 0.0047034063632072076 0.0057994744087448424 0 0 0 0.002413080113651267 -0.0070724782200652925 0.0066010230202875097 0 0.0066010230202875097 0.0064568279674173112 0 0 0 -0.00015391256316199531 -0.0046369623702147145 0.006658493419495759 0 0.006658493419495759 0.0024954749863796977 0 0 0 -0.00053537184595819909 -0.02262505689572869 0.0074863287406045703 0 0.0074863287406045703 0.001227324263718188 0 0 0 -0.0053494331580021814 0.049613462810228048 0.0024360089375807803 0 0.0024360089375807803 0.014841574339440555 0 0 0 0.016113759287417206 0.07259661170694548 0.0054623917557471979 0 0.0054623917557471979 0.045197883600032407 0 0 0 0.029448623826744569 0.074665642549503419 0.00961377577917856 0 0.00961377577917856 0.0387567532142854 0 0 0 0.028355598940947246 0.062748176638368569 0.01149983029673679 0 0.01149983029673679 0.026936104195800892 0 0 0 0.022421070208542337 0.043961822418979946 0.0058001072282218569 0 0.0058001072282218569 0.0068601138953252594 0 0 0 0.012705484078576246 0.031876744091038189 0.00050715156176095455 0 0.00050715156176095455 0.0035951865514876613 0 0 0 0.0088679826606314349 0.032431570956164335 -0.0038417877941552825 0 -0.0038417877941552825 -0.00043007246584547687 0 0 0 0.0080003746225797423 0.043195515954476849 0.00024245084917137033 0 0.00024245084917137033 0.0062239536231496473 0 0 0 0.012354867394406499 0.034463185405815555 -0.0036252080371986933 0 -0.0036252080371986933 0.0028712412360352157 0 0 0 0.0093336066604626233 0.035229223874399029 -0.0051498432351675394 0 -0.0051498432351675394 0.0024893520084350307 0 0 0 0.0094296439707085566 0.055336618192706355 0.0027512509436730392 0 0.0027512509436730392 0.013070976472678075 0 0 0 0.017101898666346094 0.054486270689956817 0.0028017045121548831 0 0.0028017045121548831 0.012784311411923266 0 0 0 0.016817645525470104 0.044855171985557274 0.0042099410274200333 0 0.0042099410274200333 0.014804953047423408 0 0 0 0.014915031258245226 0.06183707193727811 0.0074146664458641792 0 0.0074146664458641792 0.034600564037248205 0 0 0 0.024109408993631565 0.067290810387330535 0.007802596801433026 0 0.007802596801433026 0.032028146911418753 0 0 0 0.024829739324687378 0.077189924637186602 0.0064491487206265741 0 0.0064491487206265741 0.061537743034999037 0 0 0 0.03468191691804634 0.092845923583114331 0.005649313347848961 0 0.005649313347848961 0.099976445073172715 0 0 0 0.04820559216407172 0.10991655817198978 0.0049737383687407655 0 0.0049737383687407655 0.11816488113419343 0 0 0 0.057020359826545769 0.092944552588919094 0.011078400434352487 0 0.011078400434352487 0.06929667413676377 0 0 0 0.04056030668142066 0.12146382024963054 0.022870101293555045 0 0.022870101293555045 0.080691472103145756 0 0 0 0.05053882308819424 0.14817260080171035 0.00833886127749758 0 0.00833886127749758 0.11280438912927782 0 0 0 0.065244247482747042 0.10602033569194386 0.010025557326703738 0 0.010025557326703738 0.10711122662219019 0 0 0 0.053282890578533471 0.045053117244437696 0.006551227222154548 0 0.006551227222154548 0.13488691782904175 0 0 0 0.044985008768369861 0.11212187157582676 0.018419676164256771 0 0.018419676164256771 0.067660190049702695 0 0 0 0.044945515406382253 0.12928308297641133 0.014462767277755528 0 0.014462767277755528 0.1173622132128691 0 0 0 0.061661324047320276 0.12971985922608315 0.0058762652861075182 0 0.0058762652861075182 0.11399267159189186 0 0 0 0.060928132704493765 0.052350151050286682 0.0068327542048402818 0 0.0068327542048402818 0.15682090440788699 0 0 0 0.052292763864543415 0.13145606036527846 0.010567598777743548 0 0.010567598777743548 0.12541033996553141 0 0 0 0.06421660008270258 0.15160157245775085 0.01246312927922642 0 0.01246312927922642 0.12196015946823735 0 0 0 0.068390432981496829 0.060155468889261918 0.0069558816372788899 0 0.0069558816372788899 0.17991716669915392 0 0 0 0.060018158897103963 0.12816189039551107 0.020077489632095435 0 0.020077489632095435 0.11037877000735197 0 0 0 0.059635165100715648 0.086864384720595406 0.0084254119331773625 0 0.0084254119331773625 0.075282740961184036 0 0 0 0.040536781420444784 0.12586175961909637 0.0088920182011960058 0 0.0088920182011960058 0.13219328451541801 0 0 0 0.06451376103362863 0.092147164364597411 0.016841872551081466 0 0.016841872551081466 0.062808595423648583 0 0 0 0.038738939947061513 0.10939742160034427 0.0073136799807679009 0 0.0073136799807679009 0.078957983935099341 0 0 0 0.047088851383860986 0.12502175871458576 0.019211290059708952 0 0.019211290059708952 0.086598903503168609 0 0 0 0.052905165554438596 0.09861240365246593 0.0054344058870208212 0 0.0054344058870208212 0.06869285985171647 0 0 0 0.041826315876045461 0.16117307592628921 0.012918842066276415 0 0.012918842066276415 0.1373277217295209 0 0 0 0.07462519941395257 0.153011991566816 0.0040648307512718418 0 0.0040648307512718418 0.15079186214036966 0 0 0 0.075950963426796303 0.14183278238351515 0.00056380460053312431 0 0.00056380460053312431 0.096176556966955262 0 0 0 0.059502334837617465 0.16515053762436116 0.0014000420187332274 0 0.0014000420187332274 0.14782746338524344 0 0 0 0.078244500252401039 0.067991537751407261 0.0068474412038984182 0 0.0068474412038984182 0.2043891944969814 0 0 0 0.068095183062097164 0.20280639493894559 0.01082472352558711 0 0.01082472352558711 0.15989606798701483 0 0 0 0.090675615731490133 0.18570477101671434 0.013227779427876563 0 0.013227779427876563 0.15468467887224779 0 0 0 0.085097362472239979 0.1496939862529334 -0.0017210211391773811 0 -0.0017210211391773811 0.13427549186409649 0 0 0 0.070992369529257582 0.17564157303943984 0.017143947183495989 0 0.017143947183495989 0.1480731817801777 0 0 0 0.080928688704904106 0.078490169343054916 0.006840207507624662 0 0.006840207507624662 0.23185269340453379 0 0 0 0.077585715686897191 0.237407067663022 0.00061592505055285685 0 0.00061592505055285685 0.17502984911950481 0 0 0 0.10310922919563126 0.18845573852509889 -0.014107002929643286 0 -0.014107002929643286 0.15612456602191641 0 0 0 0.08614507613675372 0.10765791638753947 0.019622181096404234 0 0.019622181096404234 0.05204268874997986 0 0 0 0.039925151284379845 0.17101495149553669 0.017859204405639595 0 0.017859204405639595 0.15810275030615295 0 0 0 0.082279425450422439 0.2294311570605041 0.001297593577910261 0 0.001297593577910261 0.1675004232821673 0 0 0 0.099232895085667905 0.17296431493180553 0.022820021065297347 0 0.022820021065297347 0.13796800126060438 0 0 0 0.07773307904810256 0.13582690706236833 -0.0044508534228808877 0 -0.0044508534228808877 0.060454561455164146 0 0 0 0.049070367129383119 0.045347771994482755 0.0081679433235490873 0 0.0081679433235490873 -0.0082552411771235068 0 0 0 0.0092731327043398815 0.08836318780821506 0.016898265126254808 0 0.016898265126254808 0.021023766420855239 0 0 0 0.027346738557267547 0.069214448907324061 0.0021367687036385474 0 0.0021367687036385474 -0.036106594329996487 0 0 0 0.0082769636443319212 0.073816796979168042 0.003822272159302198 0 0.003822272159302198 0.037320153486447488 0 0 0 0.027784237616403862 0.062061723085592047 0.0053523436974944882 0 0.0053523436974944882 -0.0028152271176830057 0 0 0 0.014811623991977163 0.051099500735434455 0.0080252618384813457 0 0.0080252618384813457 0.0056425657953176334 0 0 0 0.014185516632688022 0.059061956770332158 0.0044685328039918426 0 0.0044685328039918426 0.026630665813337284 0 0 0 0.021423155645917291 0.080921652068780825 0.015793165347216975 0 0.015793165347216975 0.03502944980715883 0 0 0 0.0289877754689849 0.032051481102158552 0.0027768570651311997 0 0.0027768570651311997 -0.010514390209812596 0 0 0 0.0053842727230864473 0.034812883004439472 0.0026609713689256242 0 0.0026609713689256242 0.0038922248770376228 0 0 0 0.0096762769703692166 0.034355214054804406 0.0075368319115835525 0 0.0075368319115835525 -0.016264694374799937 0 0 0 0.0045226299200011311 0.040520401087907942 0.0024289492444288241 0 0.0024289492444288241 0.0028487333210300836 0 0 0 0.010842283602234604 0.026036623282035265 -0.00074507187710809442 0 -0.00074507187710809442 -0.014266758328802531 0 0 0 0.0029424662383081279 0.033830213598651793 -0.0032331500739971319 0 -0.0032331500739971319 -0.030726838513683408 0 0 0 0.00077584377124217951 0.027892678530308815 0.0028351381271973786 0 0.0028351381271973786 -0.066056925521844514 0 0 0 -0.0095410617478839787 0.025757364857588283 -0.0029028082425611723 0 -0.0029028082425611723 -0.038317281099238709 0 0 0 -0.0031399790604126343 0.023018303442338042 -0.0037110308131070857 0 -0.0037110308131070857 -0.071511054924697767 0 0 0 -0.012123187870589778 0.023380173519024938 0.0018659040427184137 0 0.0018659040427184137 -0.039753970240786085 0 0 0 -0.0040934491804403006 0.020228601688534242 -0.0066867096604220633 0 -0.0066867096604220633 -0.022620219479098425 0 0 0 -0.00059790444764104556 0.023299357600966131 -3.951381508632279e-06 0 -3.951381508632279e-06 -0.037791294760713079 0 0 0 -0.0036229842899366815 0.058546121052166077 -0.01327725108923461 0 -0.01327725108923461 -0.010921065305319446 0 0 0 0.011906263936711643 0.045658337218575762 -0.001393031602177297 0 -0.001393031602177297 -0.049734571656635973 0 0 0 -0.0010190586095150667 0.031498690583197375 -0.0085855687832727054 0 -0.0085855687832727054 -0.022780338565116187 0 0 0 0.0021795880045202831 0.046202659102318799 -0.0065527898131363949 0 -0.0065527898131363949 0.014257833828870137 0 0 0 0.01511512323279729 0.037386564103747078 -0.0063629508274882229 0 -0.0063629508274882229 -0.019066251925184741 0 0 0 0.004580078044640612 0.032682868629593215 -0.0072993569234048317 0 -0.0072993569234048317 -0.0022141190604695327 0 0 0 0.0076171873922809274 0.036381057503126597 -0.0087916815263475168 0 -0.0087916815263475168 0.014135803069388581 0 0 0 0.012629215143128709 0.048679003594612066 -0.01312312685123318 0 -0.01312312685123318 0.010250176689263313 0 0 0 0.01473229507096889 0.0292527262308164 -0.002566604007119111 0 -0.002566604007119111 -0.016350499660875983 0 0 0 0.003225556642485139 0.028047105822980034 -0.0072296621677424844 0 -0.0072296621677424844 -0.002901590607546467 0 0 0 0.0062863788038584612 0.022651842216502571 -0.0046164571996529513 0 -0.0046164571996529513 -0.0065709131964051259 0 0 0 0.0040202322550243474 0.030384526731269901 -0.0025048232503649959 0 -0.0025048232503649959 -0.0029102166216019576 0 0 0 0.0068685775274170968 0.029380340584014897 -0.00482011052780984 0 -0.00482011052780984 0.0012922187165933519 0 0 0 0.007668139825152076 0.031012473961944731 -0.0063108907234309675 0 -0.0063108907234309675 0.0013944784616846118 0 0 0 0.0081017381059074189 0.028225567250759809 -0.0079813425789224124 0 -0.0079813425789224124 0.004313668827613526 0 0 0 0.0081348090195933476 0.024817846472717849 -0.0052247637397863089 0 -0.0052247637397863089 -0.00047095945399880379 0 0 0 0.0060867217546797872 0.030987157180291214 -0.0093818228707548412 0 -0.0093818228707548412 0.0034379044259233993 0 0 0 0.008606265401553681 0.028464896206387591 -0.0099499714510956627 0 -0.0099499714510956627 0.002382209172944405 0 0 0 0.00771177634483311 0.037529862444171003 -0.013115649697687276 0 -0.013115649697687276 0.013204527412324696 0 0 0 0.012683597464123841 0.043121552108977057 -0.011195181347078281 0 -0.011195181347078281 0.028561454224319549 0 0 0 0.017920751583324179 0.032751016209037476 -0.010036759168359791 0 -0.010036759168359791 0.011460743339970048 0 0 0 0.011052939887251922 0.029671982584378254 -0.011432185108123244 0 -0.011432185108123244 0.007970704114056093 0 0 0 0.0094106716746086283 0.032156160604257855 -0.01292255417256466 0 -0.01292255417256466 0.012657963863103694 0 0 0 0.011203531116840471 0.036148562499212895 -0.012902307211068553 0 -0.012902307211068553 0.025466683993452005 0 0 0 0.015403811623166209 0.033009549477057594 -0.013421523367349086 0 -0.013421523367349086 0.0096799434246200716 0 0 0 0.01067237322541937 0.029925980596762047 -0.012042178278335702 0 -0.012042178278335702 0.0016794480134384449 0 0 0 0.0079013571525500814 0.037787383796927254 -0.0091666478325500983 0 -0.0091666478325500983 0.0037110363620452835 0 0 0 0.010374605039743079 0.029818951458480104 -0.0077268091955545737 0 -0.0077268091955545737 0.0011729481523157781 0 0 0 0.0077479749026988873 0.035828334318420252 -0.0048493586703512448 0 -0.0048493586703512448 0.003441722410169934 0 0 0 0.009817514182147602 0.032541270211060673 -0.009323431351515088 0 -0.009323431351515088 0.0051308096790757818 0 0 0 0.0094180199725341571 0.063508955377267085 -0.015464058241171807 0 -0.015464058241171807 0.060834208896763275 0 0 0 0.031085791068507729 0.023532830651865056 -0.010028353279973069 0 -0.010028353279973069 0.070462501508110176 0 0 0 0.023498833039993807 0.074816219972537734 -0.013685744902408481 0 -0.013685744902408481 0.054277038010731138 0 0 0 0.032273314495817162 0.051910007202491892 -0.013763191173836509 0 -0.013763191173836509 0.054034954371831145 0 0 0 0.026486240393580773 0.039933074577140348 -0.011540185756612753 0 -0.011540185756612753 0.050740045456087013 0 0 0 0.02266828000830684 0.033865399409160446 -0.01628261327376479 0 -0.01628261327376479 0.023441932135940813 0 0 0 0.014326832886275287 0.036280178067381263 -0.014604862222610371 0 -0.014604862222610371 0.031012059362446331 0 0 0 0.016823059357456926 0.042285596872793652 -0.012895683451674467 0 -0.012895683451674467 0.024826724913591558 0 0 0 0.016778080446596344 0.058095778007257654 -0.0088064035984835032 0 -0.0088064035984835032 0.060538526861477981 0 0 0 0.02965857621718393 0.04845540933904513 -0.014586745541262741 0 -0.014586745541262741 0.044239864657589223 0 0 0 0.023173818499158449 0.063739212894918074 -0.010293959361443283 0 -0.010293959361443283 0.044537477439232698 0 0 0 0.027069172583537637 0.052523936044163611 -0.016481895989446105 0 -0.016481895989446105 0.0319168210035079 0 0 0 0.021110189261917878 0.072996487129279253 -0.011805592852677571 0 -0.011805592852677571 0.073196593913272268 0 0 0 0.036548270260637838 0.097970177843971828 -0.013042769281428713 0 -0.013042769281428713 0.074715427095529252 0 0 0 0.04317140123487534 0.068523967906823025 -0.011346686200401246 0 -0.011346686200401246 0.059268479449902767 0 0 0 0.031948111839181448 0.069023081553105894 -0.019846008443941354 0 -0.019846008443941354 0.058831772361445919 0 0 0 0.031963713478638037 0.032858839871311357 -0.010310318225007966 0 -0.010310318225007966 0.098332338359367305 0 0 0 0.032797794557669659 0.07354582328101833 -0.013705700339121718 0 -0.013705700339121718 0.067477846661057495 0 0 0 0.035255917485518928 0.079491125475163571 -0.015150687120496609 0 -0.015150687120496609 0.064066434278760021 0 0 0 0.035889389938481009 0.027916878547684775 -0.01030898013964416 0 -0.01030898013964416 0.083600833780320238 0 0 0 0.027879428082001254 0.092488302923774857 -0.0085397633770065706 0 -0.0085397633770065706 0.080258269922160341 0 0 0 0.043186643211483799 0.03842207868470017 -0.01002983045536876 0 -0.01002983045536876 0.11515318708252006 0 0 0 0.038393816441805055 0.12890103278808929 -0.011246365297335952 0 -0.011246365297335952 0.087459784477517566 0 0 0 0.054090204316401769 0.10715197493225181 -0.014956106706011107 0 -0.014956106706011107 0.085516871697287847 0 0 0 0.048167211657385023 0.088015069113726474 -0.0065007074776979312 0 -0.0065007074776979312 0.072183239447559444 0 0 0 0.040049577140321313 0.059813600993702587 -0.0078357354323549677 0 -0.0078357354323549677 0.037268852006671738 0 0 0 0.024270613250093553 0.077186705477931439 -0.016400849811495422 0 -0.016400849811495422 0.043271739484006089 0 0 0 0.030114611240484312 0.093960166928215266 -0.0081434928296731379 0 -0.0081434928296731379 0.084587446826172807 0 0 0 0.044636903438596914 0.089510561413278844 -0.0030996165283982968 0 -0.0030996165283982968 0.049738430625410071 0 0 0 0.034812248009672205 0.067809932043155607 -0.015701371388322144 0 -0.015701371388322144 0.015101872627734991 0 0 0 0.020727951167722691 0.10917924948692768 -0.016153774393134923 0 -0.016153774393134923 0.085951213719998865 0 0 0 0.048782615801731585 0.14823070343355282 -0.0031780981898757443 0 -0.0031780981898757443 0.091280459446127837 0 0 0 0.059877790719920165 0.11213356571424328 -0.017813480375727886 0 -0.017813480375727886 0.068858312056206183 0 0 0 0.045247969442612355 0.087463156578618695 0.0024680210477640019 0 0.0024680210477640019 0.020887140369691082 0 0 0 0.027087574237077527 0.10938149116892004 -0.01552295615181043 0 -0.01552295615181043 0.081675786476968715 0 0 0 0.047764319411472189 0.045281823128874861 -0.0098181898946471079 0 -0.0098181898946471079 0.13494397773214326 0 0 0 0.04505645021525452 0.14903005511208511 -0.0039604621432635179 0 -0.0039604621432635179 0.10089902829395658 0 0 0 0.062482270851510702 0.11915653503932999 0.0059598551391819576 0 0.0059598551391819576 0.086573907841700937 0 0 0 0.051432610720257843 0.094297333286565976 -0.0083642897975716446 0 -0.0083642897975716446 0.049412007471580033 0 0 0 0.035927335189536391 0.06802319338250927 0.0048696670291303867 0 0.0048696670291303867 0.022747585255608438 0 0 0 0.022692694659529593 0.064007112380653708 -0.0090472544807407296 0 -0.0090472544807407296 0.029711441109329106 0 0 0 0.023429638372495676 0.080581599864956388 0.00017090556287935321 0 0.00017090556287935321 0.046364437257325974 0 0 0 0.031736509280571035 0.043214676707226563 -0.0025249233550805883 0 -0.0025249233550805883 0.019061259612806136 0 0 0 0.015568984080008619 0.019885599889494565 -0.0071137403965713109 0 -0.0071137403965713109 0.0025371395443247735 0 0 0 0.0056056848584548069 0.019906500133685778 -0.0098134750366297274 0 -0.0098134750366297274 0.0025998402770257556 0 0 0 0.0056265851026777725 0.037006614252909839 -0.0036089177883507073 0 -0.0036089177883507073 -0.00077914133628557384 0 0 0 0.0090568682291561776 0.041246759874116412 -0.013656271607380699 0 -0.013656271607380699 0.013715502554051184 0 0 0 0.013740565607041955 0.019269949152954602 -0.016019535002742114 0 -0.016019535002742114 0.010127212580237632 0 0 0 0.0073492904332980724 0.01758839983410021 -0.01561212999102346 0 -0.01561212999102346 0.0052282045178571046 0 0 0 0.0057041510879891621 0.031925148920654234 -0.016998888183314909 0 -0.016998888183314909 0.013509710087475924 0 0 0 0.01135871475203265 0.057185707871603347 -0.013204383206924186 0 -0.013204383206924186 0.03488542539274142 0 0 0 0.023017783316086032 0.071988541635445991 -0.017055354747206097 0 -0.017055354747206097 0.038602992999447583 0 0 0 0.027647883658723282 0.047592556392807905 -0.0077091068535142804 0 -0.0077091068535142804 0.025613986667302413 0 0 0 0.018301635765027635 0.0022334303464891514 -0.0030582248399253498 0 -0.0030582248399253498 0.0037090119929326093 0 0 0 0.0014856105848556345 0.00082650842897935561 -0.0016903408743480508 0 -0.0016903408743480508 0.0010980571815326634 0 0 0 0.0004811414026282268 0.0023907790336111872 -0.0012808821841785445 0 -0.0012808821841785445 0.0015203146230632588 0 0 0 0.00097777341416861144 0.0039583502120577041 -0.0021619575637408239 0 -0.0021619575637408239 0.00073235868793108949 0 0 0 0.0011726772249973649 -0.00015188650343866961 -0.0045121559572207648 0 -0.0045121559572207648 -0.0002167465236926347 0 0 0 -9.2158256782770565e-05 0.0041699225573235132 -0.006718705339700981 0 -0.006718705339700981 -0.0015348101508196876 0 0 0 0.00065877810162584538 0.010975757827420551 -0.0055679082692566273 0 -0.0055679082692566273 -0.00026254069193765162 0 0 0 0.0026783042838705029 0.0046952690488480005 -0.0030609362395268569 0 -0.0030609362395268569 -0.0038708308345968864 0 0 0 0.00020610955356261198 0.0089085513751007185 -0.0045778436725358862 0 -0.0045778436725358862 -0.0073312051974788626 0 0 0 0.00039433654440535295 0.0052253585698662786 -0.011395661198246809 0 -0.011395661198246809 -0.0020418004081452779 0 0 0 0.00079588954043030569 0.00021666143144349892 -0.016135272976167014 0 -0.016135272976167014 0.0018759987050755988 0 0 0 0.00052316503412985771 -0.011197583972894609 -0.011036813828860459 0 -0.011036813828860459 -0.00015533846286253095 0 0 0 -0.002838230608939174 0.0052467864069667414 -0.0097348193414215078 0 -0.0097348193414215078 0.00045575424852684066 0 0 0 0.0014256351638735065 -0.00018732859138445579 -0.010501049241814275 0 -0.010501049241814275 0.003394364757586088 0 0 0 0.00080175904155035949 -0.0046428210917498769 -0.0047899377947828725 0 -0.0047899377947828725 0.00099042598405968407 0 0 0 -0.00091309877692249963 -0.015605741505276827 -0.005219183442065946 0 -0.005219183442065946 0.00029128436423286885 0 0 0 -0.0038286142852608229 -0.0048897234220339758 -0.0042849929882171622 0 -0.0042849929882171622 0.003863748563800673 0 0 0 -0.00025649371455815917 -0.028231569825639236 -0.0060166413262543158 0 -0.0060166413262543158 0.0036741141691489787 0 0 0 -0.0061393639141222867 -0.0077523189248684954 -0.0084031463858699196 0 -0.0084031463858699196 0.0043681033146545367 0 0 0 -0.00084605390255343416 -0.011094986701696841 -0.01286331901265636 0 -0.01286331901265636 0.0030595662093997333 0 0 0 -0.0020088551230744711 -0.023446963894323075 -0.0066774349271605526 0 -0.0066774349271605526 -0.0011471142895412845 0 0 0 -0.0061485195459661524 -0.01354959676581613 -0.015471272407661829 0 -0.015471272407661829 0.0011421931664457041 0 0 0 -0.0031018508998426064 0.00087823541385989579 -0.016612547747506173 0 -0.016612547747506173 0.0051265177481947255 0 0 0 0.0015011882905135998 -0.0023425622298023363 -0.020509019572088061 0 -0.020509019572088061 0.0043203671800164933 0 0 0 0.00049445123755331721 -0.0017338528531407604 -0.019678517195235168 0 -0.019678517195235168 0.0050983817319414371 0 0 0 0.00084113221969994711 -0.014291307731827081 -0.01634079838256608 0 -0.01634079838256608 0.00064210446365785268 0 0 0 -0.0034123008170422534 -0.014860939214677349 -0.01967815190234258 0 -0.01967815190234258 0.0030694563525335283 0 0 0 -0.0029478707155358164 -0.002384700976290538 -0.02326149046906445 0 -0.02326149046906445 0.0077439999540568627 0 0 0 0.0013398247444416922 -0.020130737355660289 -0.018939312456546176 0 -0.018939312456546176 0.0020382408589212364 0 0 0 -0.0045231241241847631 -0.026965076735309235 -0.011658148712902161 0 -0.011658148712902161 0.0021042560642139385 0 0 0 -0.0062152051677738518 -0.032079280405197474 -0.0097283771849627776 0 -0.0097283771849627776 -0.0010482383250089988 0 0 0 -0.0082818796825516738 -0.03294292561364276 -0.00977426942742321 0 -0.00977426942742321 0.0042823855539744216 0 0 0 -0.0071651350149171122 -0.045529756430644941 -0.0053579962686397149 0 -0.0053579962686397149 0.00021346700733815283 0 0 0 -0.011329072355826808 -0.028913256051328107 -0.0050485353888900519 0 -0.0050485353888900519 0.0021525284987353732 0 0 0 -0.0066901818881481834 0.042831069054771853 -0.02198100752219545 0 -0.02198100752219545 0.02306011574819733 0 0 0 0.016472796200742379 0.030982743355384756 -0.019616824774417063 0 -0.019616824774417063 0.02152533579699023 0 0 0 0.013127019788093719 0.048130072096933985 -0.021798184454915548 0 -0.021798184454915548 0.040500208957272577 0 0 0 0.022157570263551696 0.040248200594399819 -0.022691364573495743 0 -0.022691364573495743 0.023860257969243737 0 0 0 0.016027114640910778 0.013327689099341011 -0.019968139206145402 0 -0.019968139206145402 0.0095038006214593906 0 0 0 0.0057078724301997674 0.012334392327787713 -0.019793363628343608 0 -0.019793363628343608 0.0064361207113090568 0 0 0 0.0046926282597744007 0.027324946156917718 -0.023208050443545125 0 -0.023208050443545125 0.012593024030973066 0 0 0 0.0099794925469726126 0.02147716636391761 -0.025238124500605252 0 -0.025238124500605252 0.011116020727150122 0 0 0 0.0081482967727669608 0.0097024261075703833 -0.022386476514470011 0 -0.022386476514470011 0.0097886988476523218 0 0 0 0.0048727812388056901 0.0078059821151730269 -0.02096862448429046 0 -0.02096862448429046 0.0052248979557720787 0 0 0 0.0032577200177361654 0.0077153109099767359 -0.020567841695465883 0 -0.020567841695465883 0.0082357597962427476 0 0 0 0.0039877676765547876 0.037377009199365485 -0.023352178824216724 0 -0.023352178824216724 0.019138790446529885 0 0 0 0.014128949911473843 0.024648844202787568 -0.021770932718843339 0 -0.021770932718843339 0.020223100970401919 0 0 0 0.011217986293297622 0.055917313467696461 -0.017910842290690732 0 -0.017910842290690732 0.035711943741648655 0 0 0 0.02290731430233639 0.041305514499520135 -0.021429418646005782 0 -0.021429418646005782 0.031841948911542683 0 0 0 0.018286865852765732 0.051839555893164468 -0.017672496030908036 0 -0.017672496030908036 0.029441887813088652 0 0 0 0.020320360926563197 0.037124580415347719 -0.024333445800352793 0 -0.024333445800352793 0.020806979460059605 0 0 0 0.01448288996885172 0.040543353257881151 -0.019162188363758936 0 -0.019162188363758936 0.021946570407572717 0 0 0 0.015622480916363524 0.048196731031262874 -0.021933109332949285 0 -0.021933109332949285 0.022159656955849982 0 0 0 0.017589096996778353 0.023740032755786955 -0.026224403150534648 0 -0.026224403150534648 0.013169037769229286 0 0 0 0.0092272676312540325 0.027021672844464995 -0.020480674653472503 0 -0.020480674653472503 0.018332291363826858 0 0 0 0.011338491052073074 0.021033001896602711 -0.026704877818217509 0 -0.026704877818217509 0.010431011791043499 0 0 0 0.0078660034219116617 0.0016671034808032337 -0.025651729429785997 0 -0.025651729429785997 0.0063372804537431549 0 0 0 0.0020010959836365139 -0.0026135318048457253 -0.020319979560524337 0 -0.020319979560524337 0.0046439090201910865 0 0 0 0.00050759430383636762 0.020251736280339716 -0.021691938202280409 0 -0.021691938202280409 0.010662904090621428 0 0 0 0.0077286600927403137 0.0063843453393533922 -0.028254763668276145 0 -0.028254763668276145 0.005904368094897583 0 0 0 0.0030721783585626605 0.017189279744445212 -0.021870939491222374 0 -0.021870939491222374 0.0084479811108937319 0 0 0 0.0064093152138346259 -0.0030923615022980799 -0.02310054909391801 0 -0.02310054909391801 0.0042320466704626192 0 0 0 0.00028492129204105154 -0.0018628263418393187 -0.026359142703399417 0 -0.026359142703399417 0.0098329327879205231 0 0 0 0.0019925266115202733 0.043426277656601675 -0.024285152410006866 0 -0.024285152410006866 0.014548711672757175 0 0 0 0.014493747332339657 0.047260282864217379 -0.019469626279139507 0 -0.019469626279139507 0.02128095801965546 0 0 0 0.017135310220968231 0.041685527633475328 -0.019333950575530327 0 -0.019333950575530327 0.02419517167776819 0 0 0 0.016470174827810879 0.01857689631120843 -0.026701747968917777 0 -0.026701747968917777 0.011601644463093086 0 0 0 0.0075446351935754274 0.038281868117311491 -0.02199400488559633 0 -0.02199400488559633 0.015060451923748497 0 0 0 0.013335580010265025 -0.048209555363768863 -0.0099272086194811537 0 -0.0099272086194811537 0.0029697835580402288 0 0 0 -0.011309942951432284 -0.057998990930872546 -0.0057379172023945824 0 -0.0057379172023945824 -0.00049306360690330731 0 0 0 -0.014623013634444047 -0.046922111958827672 -0.0057548619948020185 0 -0.0057548619948020185 -0.00090833539198509339 0 0 0 -0.011957611837703164 -0.061235706849558591 -0.0068286540673320115 0 -0.0068286540673320115 0.002711655948568481 0 0 0 -0.014631012725247583 -0.035051935827348446 -0.0087551873934488406 0 -0.0087551873934488406 -0.0014665639922459839 0 0 0 -0.0091296249548984409 -0.02060037620915256 -0.016884539377990358 0 -0.016884539377990358 0.0031498233914126761 0 0 0 -0.0043626382044351653 -0.035322282392409088 -0.017208593346436873 0 -0.017208593346436873 0.0026573160799190365 0 0 0 -0.0081662415781225128 -0.014478744029174928 -0.01793444163155189 0 -0.01793444163155189 0.0022155789359454836 0 0 0 -0.0030657912733074166 -0.018681690862946687 -0.024295286944677308 0 -0.024295286944677308 0.0049302663483170583 0 0 0 -0.003437856128657435 -0.022706577946292827 -0.021459974634443268 0 -0.021459974634443268 0.0046382355983962675 0 0 0 -0.0045170855869741677 -0.019302370249670964 -0.018863110879681289 0 -0.018863110879681289 0.0045220713982065952 0 0 0 -0.0036950747128661199 -0.020681538198361743 -0.024753998088019813 0 -0.024753998088019813 0.0083924095771934493 0 0 0 -0.0030722821552920665 -0.030187931091284068 -0.014979641411267064 0 -0.014979641411267064 0.0026527332323638339 0 0 0 -0.0068837994647301982 -0.041779590732607452 -0.018331092506177815 0 -0.018331092506177815 0.0043052006454995517 0 0 0 -0.0093685975217770445 -0.041079128007875942 -0.015266307098569076 0 -0.015266307098569076 0.0013633837401889615 0 0 0 -0.0099289360669216897 -0.041339421217843814 -0.015914816678392119 0 -0.015914816678392119 0.0032837947831412251 0 0 0 -0.0095139066086757651 -0.062219376480287414 -0.010007106874239946 0 -0.010007106874239946 0.0016815809414643113 0 0 0 -0.015134448884705831 -0.059547261951316072 -0.0058492622131213201 0 -0.0058492622131213201 0.0012538992193413812 0 0 0 -0.014573340682993735 -0.073722491985431016 -0.0090833852752687516 0 -0.0090833852752687516 0.0018232510637345989 0 0 0 -0.017974810230424132 -0.10397580505548987 -0.0058612580937600642 0 -0.0058612580937600642 0.0019626937545571543 0 0 0 -0.025503277825233206 -0.085884866899018142 -0.0068349571148770463 0 -0.0068349571148770463 0.0019077640190874323 0 0 0 -0.020994275719982747 -0.071468785916094318 -0.0036261212161884937 0 -0.0036261212161884937 0.00070117445237616316 0 0 0 -0.017691902865929504 -0.062462241919093858 -0.015928836092246712 0 -0.015928836092246712 0.0058669252483450618 0 0 0 -0.01414882916768714 -0.050201961246035876 -0.01121658121215402 0 -0.01121658121215402 0.0014453488590433494 0 0 0 -0.012189153096748118 -0.025704993956894684 -0.016747910059534077 0 -0.016747910059534077 0.0047690970273539524 0 0 0 -0.0052339742323851968 -0.030104408310017094 -0.02236792815500932 0 -0.02236792815500932 0.010092661151049676 0 0 0 -0.0050029367897418964 -0.027700018690202638 -0.020163758557774136 0 -0.020163758557774136 0.017614674946766329 0 0 0 -0.0025213359358590426 -0.038420531868588931 -0.012020926603497351 0 -0.012020926603497351 0.001437350530215209 0 0 0 -0.0092457953345933819 -0.039073291619166492 -0.014459084351983342 0 -0.014459084351983342 0.0079926678315044852 0 0 0 -0.0077701559469154774 -0.056057830517210944 -0.002691208957233765 0 -0.002691208957233765 0.0098168839063581537 0 0 0 -0.011560236652713246 -0.056240391984749755 -0.014589060132716158 0 -0.014589060132716158 0.0077678885947287668 0 0 0 -0.012118125847505185 -0.073241098783125055 -0.0075016809871228385 0 -0.0075016809871228385 0.002182060743310954 0 0 0 -0.017764759509953473 -0.06849909376050306 -0.0037124866353973884 0 -0.0037124866353973884 0.0017454460168693231 0 0 0 -0.016688411935908476 -0.10286547061488611 -0.003536824355914887 0 -0.003536824355914887 0.0028236628821933785 0 0 0 -0.025010451933173194 0.021734111628359476 -0.022917613359531547 0 -0.022917613359531547 0.015668549881658667 0 0 0 0.0093506653775045079 0.053591681298784222 -0.038425604774297961 0 -0.038425604774297961 0.032382741987383779 0 0 0 0.021493605821542028 0.020349987176851429 -0.028470076111231202 0 -0.028470076111231202 0.016326721546910922 0 0 0 0.0091691771809406172 0.016590801782924297 -0.022549259849265146 0 -0.022549259849265146 0.0084043746432152511 0 0 0 0.0062487941065348107 -0.0086616953646243 -0.02319424673921611 0 -0.02319424673921611 0.0081925594927672041 0 0 0 -0.00011728396796428786 -0.0068419894872723819 -0.024135478437882302 0 -0.024135478437882302 0.01389762689749896 0 0 0 0.0017639093525566585 0.013538033042096234 -0.030352501985911107 0 -0.030352501985911107 0.019762831888912091 0 0 0 0.0083252162327520779 -0.0072505202101351973 -0.016514637010512312 0 -0.016514637010512312 0.019899135317064998 0 0 0 0.0031621537767324848 -0.034612190542386789 -0.010123125946642261 0 -0.010123125946642261 0.0082346400487872673 0 0 0 -0.0065943876233998111 -0.024695580872331868 -0.0063644456984010001 0 -0.0063644456984010001 0.014255569306617311 0 0 0 -0.0026100028914286533 -0.013079542652638415 -0.022363010287605622 0 -0.022363010287605622 0.023768712997187524 0 0 0 0.0026722925861372704 0.017986883430552159 -0.025786971532570157 0 -0.025786971532570157 0.029826260597770715 0 0 0 0.011953286007080732 0.018837484991229531 -0.023745222861061507 0 -0.023745222861061507 0.030590732644228624 0 0 0 0.012357054408864532 0.044476993532435956 -0.03317983485304643 0 -0.03317983485304643 0.0464034883372616 0 0 0 0.02272012046742438 0.063189241456288375 -0.052379652608301575 0 -0.052379652608301575 0.096411466801484214 0 0 0 0.039900177064443147 -0.04805768399262228 0.01286696629958585 0 0.01286696629958585 0.053510453821449422 0 0 0 0.0013631924572067855 0.15203837647352478 -0.051721863866217077 0 -0.051721863866217077 0.044222726667801471 0 0 0 0.049065275785331569 0.0037888006234323372 -0.0019616444941979983 0 -0.0019616444941979983 0.011155748362998916 0 0 0 0.0037361372466078128 0.074331281179768713 -0.02582989711687983 0 -0.02582989711687983 0.009126720452094006 0 0 0 0.020864500407965711 0.066814716272459398 -0.020406805983687826 0 -0.020406805983687826 0.020013983232437749 0 0 0 0.021707174876224269 0.0092417460019376101 -0.0050507640762690927 0 -0.0050507640762690927 0.027670501774767264 0 0 0 0.0092280619441762191 0.10104467856411486 -0.01504576111436623 0 -0.01504576111436623 0.025033800604146395 0 0 0 0.031519619792065245 0.012725012707364893 -0.007074769886055877 0 -0.007074769886055877 0.038092905230330321 0 0 0 0.012704479484423808 0.071500614442775945 -0.013248688648620777 0 -0.013248688648620777 0.027257057405098761 0 0 0 0.024689417961968607 0.065390216842699633 -0.022036018731462159 0 -0.022036018731462159 0.017506059032371235 0 0 0 0.020724068968767662 0.0074051828054864377 -0.012500365650966669 0 -0.012500365650966669 0.017343320495110726 0 0 0 0.0061871258251492978 -0.010306643489164824 -0.017363430084716455 0 -0.017363430084716455 0.027386384916279982 0 0 0 0.0042699353567788034 0.0082139524980277129 -0.013404915619078583 0 -0.013404915619078583 0.022934979047736725 0 0 0 0.0077872328864411339 -0.026738728938658141 -0.016957307361888645 0 -0.016957307361888645 0.017700137454361109 0 0 0 -0.0022596478710742718 0.0085618707553811457 -0.0037598332375654714 0 -0.0037598332375654714 0.03646343958651424 0 0 0 0.011256327585473833 0.0034545396122498545 -0.0018637278650870948 0 -0.0018637278650870948 0.009573438305294113 0 0 0 0.0032569944793860023 -0.013763358007717538 -0.0076695025751512685 0 -0.0076695025751512685 0.097748019589609297 0 0 0 0.020996165395472929 0.0060938770617557717 0.0049991025383229054 0 0.0049991025383229054 0.037412721715313499 0 0 0 0.010876649694267333 0.016212691841554619 -0.0057988424182078488 0 -0.0057988424182078488 0.014473165458048887 0 0 0 0.0076714643249008868 0.022347368053306886 -0.0076091603420139521 0 -0.0076091603420139521 0.03721908337451027 0 0 0 0.014891612856954291 0.015984743851943602 -0.007581612093548018 0 -0.007581612093548018 0.035396745761889607 0 0 0 0.012845372403458294 0.023216112593122756 -0.011353400835852505 0 -0.011353400835852505 0.038481604442948431 0 0 0 0.015424429259017797 0.02264981510317049 -0.010447239132322886 0 -0.010447239132322886 0.053720345754737747 0 0 0 0.019092540214477066 0.035350332974423894 -0.020349428492229212 0 -0.020349428492229212 0.04002136273475998 0 0 0 0.018842923927295967 0.038878434808869503 -0.021984787712507808 0 -0.021984787712507808 0.022853611689121131 0 0 0 0.015433011624497631 0.02939350460000105 -0.013498692928158862 0 -0.013498692928158862 0.021831425654878334 0 0 0 0.012806232563719863 0.03014537951728638 -0.017581597890466816 0 -0.017581597890466816 0.018275759046709972 0 0 0 0.012105284640999053 0.027586731591394645 -0.01273259116602217 0 -0.01273259116602217 0.016782426390388239 0 0 0 0.011092289495445717 0.029969503840529793 -0.016880625482557032 0 -0.016880625482557032 0.0094811812150837893 0 0 0 0.0098626712639034164 0.015155326422076842 -0.016116206232718713 0 -0.016116206232718713 0.018127307903782919 0 0 0 0.0083206585814649403 0.026629687543521977 -0.01540525489704031 0 -0.01540525489704031 0.012721150096757727 0 0 0 0.0098377094100699086 0.02503551979696457 -0.017206761678850463 0 -0.017206761678850463 0.0089847493295711622 0 0 0 0.0085050672816339296 0.018714726432907086 -0.016964806418544948 0 -0.016964806418544948 0.014287023199416882 0 0 0 0.0082504374080810405 0.028219681207552666 -0.018664667553924819 0 -0.018664667553924819 0.0070188353633253708 0 0 0 0.0088096291427194884 0.026956645846457294 -0.017148708331300083 0 -0.017148708331300083 0.009604570216223407 0 0 0 0.0091403040156702309 0.024902198160816125 -0.01833440110348955 0 -0.01833440110348955 0.014784298779842331 0 0 0 0.0099216242351645723 0.039190019672069754 -0.016536221328022349 0 -0.016536221328022349 0.0051399324823269144 0 0 0 0.011082488038599153 0.034034432163432771 -0.018190400678717931 0 -0.018190400678717931 0.011114387933081948 0 0 0 0.011287205024128666 0.03209748599810168 -0.017116775408479196 0 -0.017116775408479196 0.0069734375166914941 0 0 0 0.0097677308786982692 0.035815339540639701 -0.01623405674007683 0 -0.01623405674007683 0.0043610194029875954 0 0 0 0.010044089735906817 0.037955377029580913 -0.017459100788434989 0 -0.017459100788434989 0.0048734279027837363 0 0 0 0.010707201233091162 0.035362409765529235 -0.0098137360707530874 0 -0.0098137360707530874 -0.0021170472878755398 0 0 0 0.0083113406194134654 0.030718075879326789 -0.01543084193917936 0 -0.01543084193917936 0.0024806559634110714 0 0 0 0.0082996829606845068 0.03856640391668667 -0.012532957978524939 0 -0.012532957978524939 0.0046113667966841965 0 0 0 0.010794442678342699 0.026114333322846642 -0.016316238099890495 0 -0.016316238099890495 0.01725048324683684 0 0 0 0.01084120414242086 0.0321456916860616 -0.015414388040362798 0 -0.015414388040362798 0.0095974487071134318 0 0 0 0.010435785098293765 0.026183838691938272 -0.017947121407683897 0 -0.017947121407683897 0.009689806431322362 0 0 0 0.0089684112808151306 0.028685733294960408 -0.014701572417525732 0 -0.014701572417525732 0.0081906784714166347 0 0 0 0.0092191029415942538 0.027896003463659891 -0.015938599805405573 0 -0.015938599805405573 0.01737383634076739 0 0 0 0.011317459951106834 0.032427957547916497 -0.014630703112351828 0 -0.014630703112351828 0.01944793064764605 0 0 0 0.012968972048890692 0.031631769929396064 -0.015009780560302444 0 -0.015009780560302444 0.031047766461059445 0 0 0 0.015669884097613967 0.024100579908114789 -0.016878122984535227 0 -0.016878122984535227 0.027721701705210045 0 0 0 0.012955570403331257 0.026567014841221981 -0.015989438582233645 0 -0.015989438582233645 0.023486243743371826 0 0 0 0.012513314646148438 0.029609310741946032 -0.012070228522056664 0 -0.012070228522056664 0.044874932325371097 0 0 0 0.018621060766829262 0.070824460828938285 -0.012927074704262576 0 -0.012927074704262576 0.044081435625927368 0 0 0 0.028726474113716427 0.01961439417258189 -0.0094478573653888169 0 -0.0094478573653888169 0.058735280675436277 0 0 0 0.019587418712004544 0.033114463423822571 -0.013481526327878267 0 -0.013481526327878267 0.047306821870321092 0 0 0 0.02010532132353593 0.056887742211853221 -0.016729976896366683 0 -0.016729976896366683 0.048295097666290365 0 0 0 0.026295709969536007 0.057699476232021818 -0.014570388709409632 0 -0.014570388709409632 0.040482952363499747 0 0 0 0.024545607148880377 0.073562940416958378 -0.01107066009144364 0 -0.01107066009144364 0.036647458710124647 0 0 0 0.027552599781770659 0.012317484832091385 -0.014187746955866332 0 -0.014187746955866332 0.038814615223653703 0 0 0 0.0127830250139363 0.016074841878306073 -0.0084993802236739413 0 -0.0084993802236739413 0.048137605388232724 0 0 0 0.016053111816634699 0.06312837013125433 -0.012794217985871215 0 -0.012794217985871215 0.034970499824092616 0 0 0 0.024524717488836723 0.056114643679364584 -0.019451106721297517 0 -0.019451106721297517 0.019510955346467185 0 0 0 0.018906399756458026 0.079737828339130401 -0.011339045826698479 0 -0.011339045826698479 0.029522568827904827 0 0 0 0.027315099291758793 0.0099464589262286927 -0.014368093937916465 0 -0.014368093937916465 0.027813356120387177 0 0 0 0.0094399537616539596 0.015897806712577373 -0.018920125968809348 0 -0.018920125968809348 0.014920805207980697 0 0 0 0.0077046529801395036 0.015611700206191348 -0.017933835257292682 0 -0.017933835257292682 0.019267256601919414 0 0 0 0.0087197392020277043 0.020667638388093906 -0.014969318080145816 0 -0.014969318080145816 0.031454667157496341 0 0 0 0.013030576386397541 
</DataArray>
<DataArray type="Float64" Name="cross_section_updated" format="ascii">
1 1 1 1 1 1 1 1 1 1 1 1 1 1 1 1 1 1 1 1 1 1 1 1 1 1 1 1 1 1 1 1 1 1 1 1 1 1 1 1 1 1 1 1 1 1 1 1 1 1 1 1 1 1 1 1 1 1 1 1 1 1 1 1 1 1 1 1 1 1 1 1 1 1 1 1 1 1 1 1 1 1 1 1 1 1 1 1 1 1 1 1 1 1 1 1 1 1 1 1 1 1 1 1 1 1 1 1 1 1 1 1 1 1 1 1 1 1 1 1 1 1 1 1 1 1 1 1 1 1 1 1 1 1 1 1 1 1 1 1 1 1 1 1 1 1 1 1 1 1 1 1 1 1 1 1 1 1 1 1 1 1 1 1 1 1 1 1 1 1 1 1 1 1 1 1 1 1 1 1 1 1 1 1 1 1 1 1 1 1 1 1 1 1 1 1 1 1 1 1 1 1 1 1 1 1 1 1 1 1 1 1 1 1 1 1 1 1 1 1 1 1 1 1 1 1 1 1 1 1 1 1 1 1 1 1 1 1 1 1 1 1 1 1 1 1 1 1 1 1 1 1 1 1 1 1 1 1 1 1 1 1 1 1 1 1 1 1 1 1 1 1 1 1 1 1 1 1 1 1 1 1 1 1 1 1 1 1 1 1 1 1 1 1 1 1 1 1 1 1 1 1 1 1 1 1 1 1 1 1 1 1 1 1 1 1 1 1 1 1 1 1 1 1 1 1 1 1 1 1 1 1 1 1 1 1 1 1 1 1 1 1 1 1 1 1 1 1 1 1 1 1 1 1 1 1 1 1 1 1 1 1 1 1 1 1 1 1 1 1 1 1 1 1 1 1 1 1 1 1 1 1 1 1 1 1 1 1 1 1 1 1 1 1 1 1 1 1 1 1 1 1 1 1 1 1 1 1 1 1 1 1 1 1 1 1 1 1 1 1 1 1 1 1 1 1 1 1 1 1 1 1 1 1 1 1 1 1 1 1 1 1 1 1 1 1 1 1 1 1 1 1 1 1 1 1 1 1 1 1 1 1 1 1 1 1 1 1 1 1 1 1 1 1 1 1 1 1 1 1 1 1 1 1 1 1 1 1 1 1 1 1 1 1 1 1 1 1 1 1 1 1 1 1 1 1 1 1 1 1 1 1 1 1 1 1 1 1 1 1 1 1 1 1 1 1 1 1 1 1 1 1 1 1 1 1 1 1 0.0020328686451071233 1 1 0.0020852812986686476 1 1 0.0021218213176166759 1 1 1 1 1 1 1 1 1 1 1 1 1 0.002155676168966115 1 1 1 1 1 0.0021897603821553844 1 1 1 1 1 1 1 1 1 1 1 1 1 1 1 1 1 1 1 1 1 1 1 1 1 1 1 1 1 1 1 1 1 1 1 1 1 1 1 1 1 1 1 1 1 1 1 1 1 1 1 1 1 1 1 1 1 1 1 1 1 1 1 1 1 1 1 1 1 1 1 1 1 1 1 1 1 1 1 1 1 1 1 1 1 1 1 1 1 1 1 1 1 1 1 1 1 1 1 1 1 1 1 1 1 1 1 1 1 1 1 1 1 1 1 1 1 1 1 1 1 1 1 1 1 1 1 1 1 1 1 1 1 1 1 1 1 1 1 1 1 1 1 1 1 1 1 1 1 1 1 1 1 1 1 1 1 1 1 1 1 1 1 1 1 1 1 1 0.0022247547726516798 1 1 1 0.0022613203513583589 1 1 0.0022997475195051251 1 1 1 1 1 1 1 1 1 1 1 0.0023407350285872108 1 1 1 1 0.0023856674442940917 1 1 1 1 1 1 1 1 1 1 1 1 1 1 1 1 1 1 1 1 1 1 1 1 1 1 1 1 1 1 1 1 1 1 1 1 1 1 1 1 1 1 1 1 1 1 1 1 1 1 1 1 1 1 1 1 1 1 0.0010587045855851454 1 1 1 1 1 1 1 1 1 1 1 1 1 1 0.0010819181797521221 1 1 0.0010696517571228987 1 0.0010959492133008938 1 1 1 1 1 1 1 1 1 1 1 1 1 0.0011123594093961108 1 1 1 1 1 1 1 1 1 1 1 1 1 1 1 1 1 1 1 1 1 1 1 1 1 1 1 1 1 1 1 1 1 1 1 1 1 1 1 1 1 1 1 1 1 1 1 1 1 1 1 1 1 1 1 1 1 1 1 1 1 1 1 1 1 1 1 1 1 1 1 1 1 1 1 1 1 1 1 1 1 1 1 1 1 1 1 1 1 1 1 1 1 1 1 1 1 1 1 1 1 1 1 1 1 1 1 1 1 1 1 1 1 1 1 1 1 1 1 1 1 1 1 1 1 1 1 1 1 1 1 1 1 1 1 1 0.0010092745138954888 1 1 0.0010230530497882387 1 0.0010317355321823832 1 1 1 1 1 1 1 1 1 1 1 1 1 1 1 1 1 1 1 1 1 1 1 1 1 1 1 1 1 1 1 1 1 1 1 1 1 1 1 1 1 1 1 1 1 1 1 0.0010489348274542898 1 1 1 1 1 0.0010401056169644974 1 1 1 1 1 1 1 
</DataArray>
<DataArray type="Float64" Name="displacement_divergence" format="ascii">
-2.7659525660946785e-05 -3.0998522713241862e-05 -2.3489067286329034e-05 -2.7248910810786452e-05 -2.6171469683029039e-05 -2.6157664279255623e-05 -2.4222207544443091e-05 -2.5330223216262856e-05 -2.3335166123171679e-05 -1.7737168588554893e-05 -2.588788578523862e-05 -1.6680805818728791e-05 -3.1392851538070316e-05 -2.3799810910809903e-05 -3.787045878898265e-05 -2.96789076669426e-05 -2.5524870678424742e-05 -2.7880749568863356e-05 -4.3887412982177973e-06 -7.7019604660037063e-06 -8.3419402356111674e-06 -1.464435897466601e-05 -1.7103796987031121e-05 -1.057713204924234e-05 -1.2346480564805914e-05 -1.5550180477580334e-05 -1.6872324202525554e-05 -1.5007791897667965e-05 -6.4653411991963175e-06 -7.5957216392931939e-06 -3.9858135124991352e-06 -3.0752275266448842e-07 -1.6662731307467783e-06 -1.152032792920362e-06 -7.8042397560756311e-06 -1.6748078504055669e-05 -1.3728774198710347e-05 -8.4802800535312416e-06 -1.5755307717356364e-05 -1.8464304132042038e-05 -1.3339228288800302e-05 -8.8314587393930339e-06 -8.5126284105551013e-06 -1.88145750580903e-06 -9.0242341450027355e-06 -5.372009011845932e-06 4.1623940532514261e-06 -9.0402719152438561e-07 -3.7873163369965107e-05 -2.8955670899871651e-05 -4.3287774003497187e-05 -2.837689820841697e-05 -2.2127285069530183e-05 -2.4120369756628242e-05 -2.4512639605668032e-05 -2.7210563729321563e-05 -1.9909967114023415e-05 -2.9438706214032442e-05 -2.3429743506875969e-05 -2.7780977286791713e-05 -3.9901992375478081e-05 -3.8064931224730831e-05 -3.6013798865233549e-05 -4.9490743791135496e-05 -5.2594486921685601e-05 -3.7291095524949353e-05 -4.3407438466995377e-05 -5.9221146919077044e-05 -4.4487379702447025e-05 -4.5552788943987878e-05 -4.6732394595861431e-05 -6.7672526986053508e-05 -2.5364942440256731e-05 -2.1321106751322376e-05 -3.4745572869217795e-05 -3.2811424000844541e-05 -2.1651574023763797e-05 -3.7801970619613213e-05 -3.3413656687827184e-05 -2.8712953131991717e-05 -2.0524290423749915e-05 -1.3361762009201506e-05 -1.2610054711231206e-05 -1.0167568539383948e-05 -5.5405034970417943e-06 -2.1393420043508561e-05 2.4888533869942296e-06 -1.5580210281797614e-06 -1.7291629546679172e-06 8.9004962448086692e-06 4.1371967419828427e-06 1.6702978232083178e-06 1.0465757575347732e-05 1.4313885220510849e-05 -1.1715150217334854e-05 -1.6926477581290578e-05 -2.1126329117511145e-06 -5.4445256184803377e-06 -8.0928675303112632e-06 -1.2578135082469286e-05 1.9670427634624929e-07 -1.1709769605547767e-05 2.6875125849357305e-05 2.0926113144557074e-06 1.0683431937759451e-05 1.8883364120581724e-05 2.8696246775662612e-05 2.3970955573180868e-05 2.1240825218053891e-05 2.3329972007490765e-05 4.7930650871773209e-05 -2.1054834145962432e-06 6.9496312789178564e-06 7.9922555037663791e-06 -1.1658540866540089e-05 -1.4063212768734954e-05 -2.6516952941454968e-05 -3.3740691219943139e-05 -3.9427812737555397e-05 -4.8269673690403032e-05 -6.8386413920614342e-05 -5.0605797369604054e-05 -4.9303797906100436e-05 -5.4122840448950893e-05 -4.3413414784281153e-05 -6.9945361870892703e-05 -5.0329753798079253e-05 -3.1558929316552651e-05 -2.1419101560465329e-05 -3.4642638471953839e-05 4.521483384714318e-05 3.8672263325830635e-05 3.5191103372082103e-05 3.7678631625613521e-05 4.3796599391002318e-05 5.1296752715342209e-05 4.5108066935097604e-05 4.2938271617106412e-05 4.560554595550843e-05 4.2783931862929513e-05 3.5711427429179057e-05 4.2823194811471797e-05 3.9715910408395835e-05 4.2637470802839821e-05 4.6482236398141629e-05 9.1924803727827967e-05 4.0702373858404552e-05 6.1621283373006089e-05 3.8236247858495099e-05 8.4541704641695242e-05 5.3947749118009151e-05 8.2822267945830455e-05 4.7995546875358777e-05 4.1311790907512833e-05 5.004981185460368e-05 3.1096472734004484e-05 3.1141163623948692e-05 4.3592649624003989e-05 3.3673244486438677e-05 4.4795099799552093e-05 2.5987163261115666e-05 3.9428163708200312e-05 3.0145169616573862e-05 2.8178137545488434e-05 1.9829982115025962e-05 2.4112113518032182e-05 2.4095436219220395e-05 2.281660793034225e-05 1.363041406612941e-05 1.6868322162031083e-05 1.4799226740943616e-05 1.045762790497532e-05 6.7894437573662604e-06 2.3566158401388392e-05 2.1662994075771681e-05 2.0175697362277634e-05 1.7486906003025751e-05 2.4759967570285677e-05 2.2496512032563928e-05 2.9799667126819215e-05 2.8589333299795132e-05 2.8198875142438392e-05 3.204996027837827e-05 2.770526755260212e-05 3.868336722870355e-05 3.5156761019021577e-05 3.2354145658766274e-05 4.1599976517140024e-05 3.0656962217062097e-05 5.3507256735228449e-05 3.7384125341480786e-05 4.630286478647403e-05 3.568226582212387e-05 4.2406493865339764e-05 4.4773395405402424e-05 3.4371057104522195e-05 3.6944057221948782e-05 3.7064827318626702e-05 3.174854935374203e-05 2.5362408939303378e-05 2.9827054995747039e-05 2.9523285942125956e-05 2.3451729214754379e-05 2.0961516692680332e-05 2.4244764235726921e-05 2.6711714273958369e-05 2.2844536316621146e-05 2.2490031492513949e-05 1.8280439559711039e-05 2.5025861280082937e-05 2.407121943094258e-05 2.83210037315867e-05 2.587225249276066e-05 2.6537689072992852e-05 7.7479153997107941e-06 1.0663461266950968e-05 6.0863275570222121e-06 1.3195242024689682e-05 1.4307020325649987e-05 1.6318947725177584e-05 1.759365160077846e-05 1.9474971877916507e-05 1.7720303880543802e-05 1.5327384938381047e-05 1.7576347389111776e-05 1.3830059949884159e-05 1.1263112601225684e-05 6.0897245221830008e-06 4.8183123175832675e-06 4.8965048193708304e-06 8.0852143416935111e-08 2.9707744031158114e-06 9.447302691630488e-08 3.1651125996958037e-06 8.6605460928652182e-06 8.0112748025981151e-06 9.5433815977306549e-06 1.2278648878101908e-05 1.3674582969266175e-05 1.6838757290018085e-05 1.510724161127791e-05 1.2316514188241422e-05 1.2706102303123394e-05 6.0018363235535339e-06 4.3073779091907178e-06 -1.0348071745225039e-06 2.4904526497249428e-05 2.449318781908564e-05 2.1162898462503816e-05 2.1173134776295886e-05 1.8558841074666223e-05 2.1491579913536735e-05 2.0258340722802692e-05 1.8242203138672837e-05 2.4833051010750539e-05 2.1909400079925596e-05 2.6701415886127884e-05 2.223224196390763e-05 2.3781450413600824e-05 2.7771349877337767e-05 2.4634442552524024e-05 3.2105967804518023e-05 2.3411787293702504e-05 2.851538639033636e-05 2.7079223537108548e-05 2.6753171586850776e-05 2.4253890544534213e-05 2.8871402193143155e-05 2.4487089368154313e-05 2.3847225984961335e-05 2.1410136366329046e-05 2.6077512197006543e-05 2.5293553497468263e-05 3.1762953037995376e-05 3.1281624422944667e-05 2.3372239861559514e-05 2.5993286310292925e-05 2.5206064691083994e-05 1.7836018307235017e-05 1.57428633963482e-05 1.023956620442244e-05 2.4286266233776552e-06 6.9764637437893165e-06 1.1683776582115976e-05 1.8152405832420958e-05 6.3952600120875872e-06 1.4607353361979801e-05 1.963935920867453e-05 2.3618497509895263e-05 2.3589784290522579e-05 2.0715786058684459e-05 2.8105696048571346e-05 1.446885435082648e-05 1.054835765901404e-05 1.6303455835703191e-05 1.8361818359817597e-05 5.464346839358016e-06 1.415368108537046e-05 2.1390976921905154e-05 1.7070118145125828e-05 3.1936945582016252e-05 2.2509590075564078e-05 1.9421299007213079e-05 2.6272797755721148e-05 2.590276215075889e-05 3.0382499220762868e-05 4.0939903392809421e-05 3.5373244551549206e-05 3.7710419131234795e-05 3.0382390652783032e-05 3.4528635093256907e-05 4.0018606627617336e-05 3.2790485289330439e-05 3.735351306692182e-05 2.9741281259717135e-05 2.8882301247598202e-05 2.7803863264586318e-05 3.0992281768976326e-05 2.4788833620666945e-05 2.9454637410506646e-05 2.4693551419198008e-05 2.7672380929705489e-05 2.5375850447140553e-05 2.7724415537814797e-05 3.0291116887107048e-05 -5.5259300392121422e-05 -3.788734189585379e-05 -4.0927150554081161e-05 -3.3420320666260515e-05 -2.9441151943044225e-05 -3.4779298505771283e-05 -3.9578318370207563e-05 -3.4759087470238122e-05 -3.2943195772382625e-05 -2.956957586926165e-05 -3.1851880529522875e-05 -3.1831557723238951e-05 -3.007801392810527e-05 -1.9588283133764836e-05 -2.9821600451928939e-05 -4.560584294179107e-05 -1.863940028764752e-05 -3.5544172232084427e-05 -1.8689923078089711e-05 -1.7000069664390928e-05 -1.8712394637360598e-05 -1.596635065469354e-05 -1.8790887032388183e-05 -8.5576373211483919e-06 -9.4323482672723653e-06 -4.5587140366711116e-06 -6.3904459983421039e-06 3.987743652398952e-06 7.5669811312878286e-06 -1.1496089008776274e-06 -4.3203889650595691e-06 -3.600077372525385e-06 8.440458233980485e-07 8.4524296396399929e-06 -6.9408024065810393e-06 4.4920973696322244e-06 -1.7721286579957097e-06 -9.7082588830321812e-06 8.354362353510717e-06 -5.6524041850201828e-06 -2.6689072049038192e-06 -2.6599599525724605e-05 -2.1990507132554752e-05 -2.0366502329427797e-05 -4.4207135835915116e-06 -1.6876830763616271e-05 -3.2866029122031006e-05 -2.6551835647498142e-05 -3.953906023364491e-05 -3.0456551049344021e-05 -4.1607300986936441e-05 -2.2168536439483134e-05 -3.6042865152508883e-05 -6.2380376480020481e-05 -6.6258731344108268e-05 -7.8104827074137242e-05 -5.5394406465714241e-05 -6.4888961051733779e-05 -4.0377441023446749e-05 -5.7712642043218232e-05 -3.8243891008792287e-05 -8.0862600142936729e-05 -0.00012414640189123657 -7.4918948395833658e-05 -7.8492674951982237e-05 -0.00010429683480129082 -9.0017238988230981e-05 -5.9758736922122411e-05 -7.0151803353033903e-05 -6.6629097424552897e-05 -3.9007062694339284e-05 -4.1619399839444779e-05 -3.2484259698994395e-05 -3.591081880917804e-05 -5.2972022313991333e-05 -4.1594881983791409e-05 -3.8434276832215847e-06 8.9544060465594088e-06 1.2274836810857923e-05 -2.8339571484902906e-05 -1.0773472545183708e-05 -3.1601240705810777e-05 -1.7554375772158918e-05 -1.202196489070439e-05 4.203697603272676e-06 -1.1799529055946271e-05 4.2042416352109229e-06 2.1866601672999987e-05 1.2117750409037517e-05 2.7998938931928886e-05 1.1330215740822405e-05 2.5794914363957065e-05 4.4366350805021047e-05 1.7287820848705826e-05 4.0634087374465767e-05 4.4350416296585969e-05 7.676353401314788e-05 7.5838030411769092e-05 3.6852497950177001e-05 2.8955217048526202e-05 8.0362837789623213e-05 0.00013506336060722398 0.00012393792443476652 0.00013416585382474604 8.8197452102043881e-05 5.9767944227302682e-05 7.3254588721244959e-05 5.3064892486153576e-05 1.7357579147995149e-05 7.6618358998148135e-06 7.1273069752672558e-07 -1.8221982334767201e-05 3.5864689640593094e-05 -1.3039301235662708e-05 -4.9187316966747894e-05 -5.6404503988619065e-05 -2.712833499665104e-05 -4.349690045040748e-05 -3.0008908931025919e-05 -6.9503319187433268e-05 -4.0069287191618955e-05 -5.6294013931982006e-05 -8.3766980702189688e-05 -8.4139272639211123e-05 -0.00012719574088605832 -9.2717867112583261e-05 -0.00013058091475151774 -9.9073323961977624e-05 -7.1881839825802365e-05 -8.7916520895774976e-05 5.9528424000056097e-05 6.506076751381569e-05 6.8529366233878125e-05 6.357576765936892e-05 5.9019598847053047e-05 5.002206645976118e-05 4.4533907612200499e-05 5.6056322817870586e-05 3.9423613578447733e-05 4.6339858706559694e-05 3.3158470271147649e-05 4.5208336714216728e-05 3.8319631727732893e-05 4.6436043968090833e-05 5.0058689159843159e-05 4.3787911489676264e-05 3.8865042256690729e-05 3.030143652739493e-05 4.6748231327517031e-05 4.3832713574026314e-05 5.3879013765959351e-05 3.0250353706098434e-05 3.8494211116462963e-05 4.9828994759993329e-05 6.0682856802522966e-05 7.8224298429230494e-05 6.173376744513652e-05 6.6736026249504597e-05 6.5509573770955714e-05 8.1822692621148969e-05 9.372372519285524e-05 0.00011661801102348231 0.00012507015031205021 0.00011433667380646587 0.00010087090852464828 0.00010733109173295457 0.00012938312135052593 0.00012564754704489907 0.00022021166345087906 0.00027206295641776378 0.00026310933119058719 0.00017773409092498757 9.4492398899098177e-05 0.00012600671505708829 0.00016297472115393044 9.5519081979951776e-05 0.00010179493347448988 0.00010690366818118168 7.5672756180605549e-05 9.4266876650129464e-05 6.2539626640535149e-05 7.9778934193721222e-05 6.0686886719785578e-05 8.3035892354028717e-05 5.0852718636971329e-05 6.3917028423139783e-05 7.0068653618077787e-05 5.9533369004190777e-05 5.1918226660055864e-05 7.9833711719634419e-05 5.5300571393033179e-05 4.7523049269968096e-05 6.3773470302110421e-05 4.2303172533356571e-05 3.3198473783577884e-05 4.8552620295127863e-05 5.0108907870127026e-05 3.0681364911750299e-05 5.7639790329819121e-05 4.1703383255834922e-05 4.9324913654066849e-05 8.2230156235640206e-05 6.9188887431677028e-05 6.6400136772004219e-05 7.3984031365465619e-05 9.9365167044004478e-05 0.0001043542865171406 0.00012662707183428069 0.00029336271440975198 4.808616646035288e-05 0.00012341747914890752 0.00027426726846798072 0.00017089338197908831 0.017014843520074249 0.00025374920540272863 0.00013517825330144504 0.042605788815275027 4.8646035165247431e-05 0.00013324942918818477 0.061014256428930172 6.2816442108194824e-05 0.00010065024890389606 4.4812201444911076e-05 6.7646693606846175e-05 6.2865227253726147e-05 5.7764007313977655e-05 5.6253084201049973e-05 8.1451697908530138e-05 8.4188837277402969e-05 6.3041694641764365e-05 9.7474937949297829e-05 0.00012506130581341418 0.00013750168385289006 0.077905026290858381 0.00013359689460110645 0.00012744078456994518 0.00011306345451630182 0.00014225434663495129 0.00010911868352180248 0.094955906935540374 0.00013096229053741366 7.3436264357241169e-05 5.7079960259346892e-05 9.8492409713424962e-05 7.7521413479779595e-05 8.5251115185917391e-05 5.1706029036526909e-05 5.0827718828673973e-05 5.3706541604864951e-05 3.7159000445135744e-05 3.8950469029617931e-05 2.8457352279199696e-05 3.1593547933950064e-05 2.883279400744032e-05 3.4443237091200041e-05 3.5259693456554816e-05 2.5425864347501377e-05 3.7200667840690149e-05 3.1790806420474525e-05 3.6396605331646579e-05 4.272426778159481e-05 4.7952948851580048e-05 -7.3725995202266479e-05 -8.7722139625013087e-05 -5.4024566682439211e-05 -0.00011316135823941781 -0.00011276200575596469 -7.1372800347770392e-05 -7.4574773204177545e-05 -4.3560888542462477e-05 -2.2246936786406331e-05 3.237483053896914e-06 -3.0903266213099401e-05 -1.765000431531847e-05 -4.7169423360358172e-05 -1.6919535043917867e-05 4.2245517940084267e-05 1.3421109168535112e-05 7.0402428049875935e-05 1.5269782080589572e-05 -1.673226563106661e-05 3.4293536499486105e-05 2.9313848728184326e-05 9.5042959333557298e-05 0.00014688229180369046 0.00011027896233364084 0.00012076482300465061 6.1690307737741418e-05 8.3957894956417957e-05 0.00010112984550574976 4.9781554462258675e-05 5.0158084769599126e-05 8.3083119367801522e-05 8.4425468251467716e-05 9.258415166968478e-05 8.0923799767629399e-05 5.54337230368393e-05 5.0120328660926885e-05 2.373124286103706e-05 2.7402047811517487e-05 2.1383297967706317e-05 -4.9658594252735729e-06 2.3234010551825921e-05 2.9817462267678254e-05 2.8753930857688525e-06 -2.0440240688789253e-06 -2.574124320986167e-05 -2.8879156247763309e-05 -2.8692620419286993e-05 -2.7845051896458568e-05 -5.9846308460838153e-06 -5.6788683298439639e-06 -1.4715703932952073e-05 -2.6672320720791658e-05 -3.4881786964487561e-05 -5.2123680413821479e-05 -2.7133048265654859e-05 -4.0516260989520133e-05 -7.3481141750073291e-05 -5.4693257180109646e-05 -5.3894779062770102e-05 -1.1979012880081023e-06 -1.967405422329243e-05 -4.6313408619469074e-06 -2.2755445053688518e-05 -2.1589851164813354e-05 -3.8957316336315703e-05 -3.3675770840067495e-05 -2.3958510797116115e-05 -1.4303982983714623e-05 -9.6474152823417154e-06 -4.6545419674854163e-06 5.9586811249501964e-06 6.1183957061781633e-06 -7.0955180510119589e-06 7.5339518896848021e-06 2.8593355655264288e-05 3.4323335569780029e-05 4.6874067328353097e-05 7.9753706766338278e-06 2.9317806430027848e-06 2.3071715253707116e-05 2.2385063601211805e-05 3.9239746717859144e-05 2.9398155029898565e-05 6.658873945287108e-05 6.7538632825187885e-05 5.2307509246236894e-05 7.7098759277290183e-05 0.00010927260361467961 8.4093432795022405e-05 0.00010612477730586115 5.7847494405468582e-05 7.5304452370237619e-05 0.00011095088177721577 8.5305507542104628e-05 0.00011999663307879493 9.9281958247210422e-05 0.00013887382321464952 0.0001490955711476406 9.6885382016009963e-05 7.1697355525802281e-05 2.4471077425259648e-05 2.9920587041441619e-05 4.0653450273970757e-05 2.741016843734248e-05 5.9470019967641091e-05 3.8317781720127383e-05 5.7983167893167851e-05 1.0827567317357734e-05 -6.0302341795918099e-06 8.1754254393400297e-06 4.5484116028612215e-06 7.8568560219509018e-06 4.6282688129827346e-06 2.0654175005603514e-06 1.158379984774003e-05 4.5735324032711126e-06 1.2437970086983524e-06 4.9268074820245367e-06 4.165270205591827e-06 2.1237001532163624e-06 6.0327002841271266e-06 -3.8478140790536991e-07 -1.33842961489751e-06 -1.3373582895006252e-05 4.0284398218542799e-05 7.3621559566861331e-05 7.0888997352368298e-05 5.6052675521356007e-05 3.1763710196440476e-05 2.2169956651578481e-05 2.00009365564492e-05 3.0887168486016213e-05 2.3334016651156871e-05 2.3574109926771192e-05 4.2754746665865195e-05 4.204411381367526e-05 3.7287578145613033e-05 6.0273522484078582e-05 6.2074348311718405e-05 8.6704792295116018e-05 0.00012051398041017952 0.00014255089956636418 0.00010140076670355185 0.00012634705772048525 0.00016311061870686802 0.00013320722644633368 0.11246252192092465 0.00011236378851595553 0.00015415331011830059 0.00015232033176123421 0.13073190966135853 0.00016054150020675638 0.00017097608245374239 0.15004539724275989 0.00014908791275178909 0.000101341953551112 0.00016128440258407158 9.6847349867653677e-05 0.00011772212845965232 0.00013226291388609643 0.00010456578969011369 0.00018656299853488133 0.00018987740856699097 0.00014875583709404402 0.00019561125063100124 0.17023795765524286 0.00022668903932872503 0.00021274340618060005 0.00017748092382314357 0.0002023217217622603 0.19396428921724296 0.00025777307298907939 0.00021536269034188511 9.9812878210949396e-05 0.00020569856362605624 0.00024808223771416991 0.00019433269762025645 0.00012267591782345779 2.3182831760849712e-05 6.836684639316892e-05 2.0692409110829735e-05 6.9460594041009446e-05 3.7029059979943051e-05 3.5463791581719995e-05 5.3557889114793375e-05 7.2469438672461773e-05 1.3460681807716049e-05 2.4190692425923121e-05 1.1306574800002507e-05 2.7105709005586587e-05 7.3561655957701984e-06 1.939609428104833e-06 -2.3852654369709333e-05 -7.8499476510317419e-06 -3.03079696764748e-05 -1.0233622951100652e-05 -1.4947611191025272e-06 -9.0574607248417732e-06 2.9765659841779168e-05 -2.5476465237877274e-06 5.4489700113007945e-06 3.7787808081993202e-05 1.1450195111601226e-05 1.9042968480702141e-05 3.1573037857821794e-05 3.6830737677421871e-05 8.0638916062132247e-06 1.5715947009645962e-05 1.0050580637560873e-05 1.7171443818542534e-05 1.9170349562880155e-05 2.025434526476853e-05 2.0337022548983234e-05 1.521680438669935e-05 2.1515663503884051e-05 1.9279440862082493e-05 3.1708993660309499e-05 4.4801878958310344e-05 2.7632349718129763e-05 2.3526679186521753e-05 2.8008827792101298e-05 3.8509529057915499e-05 2.6680933063548675e-05 1.9753392881375178e-05 2.5936512599357983e-05 1.9369937256747355e-05 2.4543785455369066e-05 2.3545049931335331e-05 7.7714477671269287e-05 0.058747082599984526 8.0683286239542715e-05 6.6215600983951734e-05 5.6670700020766977e-05 3.5817082215688196e-05 4.2057648393642455e-05 4.1945201116490858e-05 7.4146440542959728e-05 5.7934546247896245e-05 6.7672931458844204e-05 5.2775473154794772e-05 9.1370675651594583e-05 0.0001079285030871882 7.9870279597953628e-05 7.9909283696594506e-05 0.081994486394174171 8.813979371379726e-05 8.9723474846202175e-05 0.069698570205003141 0.00010796660802870912 0.095984541104512641 0.00013522551079100443 0.00012041802914346286 0.00010012394285080365 6.0676533125234022e-05 7.5286528101210911e-05 0.00011159225859649251 8.7030620024180732e-05 5.1819877919306629e-05 0.00012195653950432923 0.00014969447679980051 0.00011311992360653085 6.7718935592693953e-05 0.00011941079852868049 0.11264112553813629 0.00015620567712877533 0.00012858152680064391 8.9818337973840943e-05 5.6731736648824638e-05 5.8574095931238903e-05 7.9341273201428628e-05 3.8922460200020714e-05 1.4014212146136722e-05 1.4066462756694587e-05 2.2642170572889818e-05 3.4351414017604227e-05 1.8373226083245571e-05 1.4260377719973452e-05 2.8396786880081036e-05 5.7544458290214998e-05 6.911970914680798e-05 4.5754089412568776e-05 3.7140264621381841e-06 1.2028535065697343e-06 2.4444335354217195e-06 2.9316930624931001e-06 -2.3039564195706519e-07 1.6469452540643706e-06 6.695760709675945e-06 5.1527388390614831e-07 9.8584136101305273e-07 1.9897238510749836e-06 1.3079125853244535e-06 -7.0955765223480217e-06 3.5640879096836102e-06 2.0043976038755539e-06 -2.2827469423063358e-06 -9.5715357131521094e-06 -6.4123428639584895e-07 -1.5348409785306046e-05 -2.1151347563835854e-06 -5.0221378076855446e-06 -1.5371298864914939e-05 -7.7546272496059956e-06 3.752970726284173e-06 1.2361280938835359e-06 2.1028305492501714e-06 -8.5307520426057217e-06 -7.3696767888395062e-06 3.3495618611043389e-06 -1.1307810310461422e-05 -1.5538012919434456e-05 -2.0704699206379289e-05 -1.7912837537292694e-05 -2.8322680889566413e-05 -1.6725454720370068e-05 4.1181990501855717e-05 3.2817549470235026e-05 5.539392565887891e-05 4.0067786602277639e-05 1.4269681075499731e-05 1.1731570649435542e-05 2.4948731367431358e-05 2.0370741931917185e-05 1.2181953097014503e-05 8.1443000443403614e-06 9.9694191913870861e-06 3.532237477868504e-05 2.804496573324388e-05 5.7268285755840724e-05 4.5717164631914027e-05 5.0800902316407506e-05 3.6207224922129655e-05 3.9056202290908715e-05 4.3972742491945292e-05 2.306816907813496e-05 2.8346227630182338e-05 1.966500855477891e-05 5.0027399590914408e-06 1.2689857595910492e-06 1.9321650231850663e-05 7.6804458964067467e-06 1.602328803458672e-05 7.1230323010285437e-07 4.9813165288006053e-06 3.6234368330849333e-05 4.2838275552420195e-05 4.1175437069526904e-05 1.8861587983938456e-05 3.3338950025662466e-05 -2.82748573785809e-05 -3.6557534086109569e-05 -2.9894029594257934e-05 -3.6577531813118593e-05 -2.2824062387246258e-05 -1.0906595511087904e-05 -2.0415603945306282e-05 -7.6644781832680472e-06 -8.5946403216433705e-06 -1.1292713967435289e-05 -9.2376867821654732e-06 -7.6807053882301749e-06 -1.7209498661825364e-05 -2.3421493804442464e-05 -2.4822340167304563e-05 -2.378476652168933e-05 -3.7836122211764656e-05 -3.6433351707484257e-05 -4.4937025576060252e-05 -6.3758194563083006e-05 -5.2485689299956641e-05 -4.4229757164823691e-05 -3.5372072919217891e-05 -3.0472882741870298e-05 -1.3084935580963191e-05 -1.2507341974354793e-05 -6.3033398396476715e-06 -2.3114488336483632e-05 -1.9425389867288841e-05 -2.8900591631782896e-05 -3.029531461876307e-05 -4.4411898774883733e-05 -4.1721029839771051e-05 -6.2526129832932956e-05 2.3376663443761382e-05 5.3734014553854972e-05 2.2922942952351586e-05 1.5621985266337326e-05 -2.9320991991061557e-07 4.4097733813917828e-06 2.0813040581880228e-05 7.9053844418310168e-06 -1.6485969058499788e-05 -6.5250072285716868e-06 6.6807314653431673e-06 2.9883215017701857e-05 3.0892636022161399e-05 5.680030116856109e-05 9.9750442661107841e-05 3.4079811430169052e-06 0.0001226631894633291 0.0093403431165195346 5.2161251019914277e-05 5.4267937190560875e-05 0.023070154860440541 7.8799049480163187e-05 0.031761198711059521 6.1723544904921713e-05 5.1810172421919089e-05 1.5467814562873227e-05 1.0674838391946917e-05 1.9468082216102806e-05 -5.6491196776856079e-06 2.814081896368464e-05 8.1424861984650106e-06 5.249041348868232e-05 2.7191624235668342e-05 1.9178660812252206e-05 3.722903214238571e-05 3.2113431008645748e-05 3.8561073147544471e-05 4.7731350536192671e-05 4.7107309818239865e-05 3.8582529061244146e-05 3.2015581409299703e-05 3.0263211602497668e-05 2.7730723738614402e-05 2.4656678159758481e-05 2.0801646453662308e-05 2.459427352517491e-05 2.1262668204084811e-05 2.0626093520202584e-05 2.2024072856798764e-05 2.2850760039175625e-05 2.4804060587911494e-05 2.7706220096497785e-05 2.8218012560321808e-05 2.4419327196745688e-05 2.5110224339767075e-05 2.6768003082727933e-05 2.0778351548533499e-05 2.0749207401711284e-05 2.6986106695857026e-05 2.7103010356052199e-05 2.6089462745734391e-05 2.2421028202037786e-05 2.304775735398573e-05 2.8293649877766925e-05 3.2422430122226514e-05 3.9174710244034756e-05 3.2388926008328016e-05 3.1283286615371199e-05 4.6552651917073111e-05 7.1816185284290885e-05 0.04896854678001137 5.0263303308839785e-05 6.5739274923839975e-05 6.1364017872201173e-05 6.8881499454426839e-05 3.195756253484075e-05 0.040132779541586748 6.1311793722092049e-05 4.7265999391144604e-05 6.8287748229396944e-05 2.3599884404134897e-05 1.9261632450348783e-05 2.1799348005069178e-05 3.2576440965993898e-05 
</DataArray>
</CellData>
</Piece>
</UnstructuredGrid>
</VTKFile>
