<?xml version="1.0"?>
<VTKFile type="UnstructuredGrid" version="0.1" byte_order="LittleEndian">
<UnstructuredGrid>
<Piece NumberOfPoints="3142" NumberOfCells="1054">
<Points>
<DataArray type="Float64" NumberOfComponents="3" format="ascii">
0.5 0.29999999999999999 0 0.54999999999999993 0.29999999999999999 0 0.54999999999999993 0.29999999999999999 0 0.59999999999999976 0.29999999999999999 0 0.59999999999999976 0.29999999999999999 0 0.6499999999999998 0.29999999999999999 0 0.6499999999999998 0.29999999999999999 0 0.69999999999999984 0.29999999999999999 0 0.69999999999999984 0.29999999999999999 0 0.74999999999999989 0.29999999999999999 0 0.74999999999999989 0.29999999999999999 0 0.79999999999999982 0.29999999999999999 0 0.79999999999999982 0.29999999999999999 0 0.84999999999999987 0.29999999999999999 0 0.84999999999999987 0.29999999999999999 0 0.89999999999999991 0.29999999999999999 0 0.89999999999999991 0.29999999999999999 0 0.94999999999999996 0.29999999999999999 0 0.94999999999999996 0.29999999999999999 0 1 0.29999999999999999 0 0.5 0.69999999999999996 0 0.54999999999999993 0.69999999999999996 0 0.54999999999999993 0.69999999999999996 0 0.59999999999999976 0.69999999999999996 0 0.59999999999999976 0.69999999999999996 0 0.6499999999999998 0.69999999999999996 0 0.6499999999999998 0.69999999999999996 0 0.69999999999999984 0.69999999999999996 0 0.69999999999999984 0.69999999999999996 0 0.74999999999999989 0.69999999999999996 0 0.74999999999999989 0.69999999999999996 0 0.79999999999999982 0.69999999999999996 0 0.79999999999999982 0.69999999999999996 0 0.84999999999999987 0.69999999999999996 0 0.84999999999999987 0.69999999999999996 0 0.89999999999999991 0.69999999999999996 0 0.89999999999999991 0.69999999999999996 0 0.94999999999999996 0.69999999999999996 0 0.94999999999999996 0.69999999999999996 0 1 0.69999999999999996 0 0.40076539126862748 0.34589349467022118 0 0.33277555741076909 0.36432196682010132 0 0.36575549820117997 0.31677992835137742 0 0.38083244760691543 0.38531983672244652 0 0.33277555741076909 0.36432196682010132 0 0.40076539126862748 0.34589349467022118 0 0.56836770495988642 0.3523062350852913 0 0.52289427570932567 0.3932284363388488 0 0.52752007115234678 0.33170632466418198 0 0.52752007115234678 0.33170632466418198 0 0.52289427570932567 0.3932284363388488 0 0.49077833859261139 0.35229981449445641 0 0.10000000000041601 1 0 0.053064897599294662 0.95186845269532028 0 0.10266856499240549 0.95548163909968886 0 0.099999999999814668 0 0 0.10266856499169109 0.044518360900210059 0 0.053064897599215843 0.048131547304697528 0 0.050000000000207989 1 0 0.053064897599294662 0.95186845269532028 0 0.10000000000041601 1 0 0.049999999999899652 0 0 0.099999999999814668 0 0 0.053064897599215843 0.048131547304697528 0 0.24999999999941211 0 0 0.29999999999926641 0 0 0.27499999999933927 0.060310814194988557 0 0.30000000000124832 1 0 0.25000000000104028 1 0 0.27609987656793722 0.94991445621608572 0 0.15720202157091859 0.60665697304410315 0 0.19914261668318661 0.62286739485272158 0 0.16500388252850301 0.66612077714085194 0 0.2236846579037573 0.67380363126050236 0 0.16500388252850301 0.66612077714085194 0 0.19914261668318661 0.62286739485272158 0 0.1247745017231483 0.27198077544791172 0 0.168349569971391 0.28054490850913671 0 0.14223753364722069 0.3341983344262433 0 0 0.75000000000034661 0 0 0.7000000000006934 0 0.049706944316475897 0.72477277076253799 0 0 0.30000000000124832 0 0 0.25000000000104028 0 0.049706944316556423 0.27522722923869108 0 0.59999999999999976 0.29999999999999999 0 0.61959173890754571 0.33832250091341232 0 0.56836770495988642 0.3523062350852913 0 0.5 0.69999999999999996 0 0.43323420005758778 0.6913544522562407 0 0.47913475093885149 0.66010775372412711 0 1 0.14999999999961891 0 0.95391631417672862 0.19584263333809451 0 0.93677536231883773 0.14999999999999089 0 1 0.84999999999982645 0 0.95391631417670719 0.89584263333814784 0 0.93677536231884972 0.85000000000000286 0 1 0.84999999999982645 0 0.93677536231884972 0.85000000000000286 0 0.95386563387742829 0.80414874155775029 0 1 0.14999999999961891 0 0.93677536231883773 0.14999999999999089 0 0.95386563387744361 0.1041487415577465 0 0.90416666666660628 0.9041666666666166 0 0.88088768115933802 0.84674609810493673 0 0.93677536231884972 0.85000000000000286 0 0.90416666666668166 0.20416666666667119 0 0.88088768115941807 0.14674609810479519 0 0.93677536231883773 0.14999999999999089 0 0.1247745017231483 0.27198077544791172 0 0.14223753364722069 0.3341983344262433 0 0.093851963071650835 0.30582068233324772 0 0.5 0.69999999999999996 0 0.45582236402875981 0.73896743678908217 0 0.43323420005758778 0.6913544522562407 0 0.55000000000173355 1 0 0.50000000000205869 1 0 0.52122150208832174 0.94089974453840242 0 0.49999999999869432 0 0 0.5499999999988151 0 0 0.52375890611712683 0.059318771819432882 0 0.54999999999999993 0.29999999999999999 0 0.59999999999999976 0.29999999999999999 0 0.56836770495988642 0.3523062350852913 0 0.50202631463681879 0.87892870825713787 0 0.44003836461056539 0.88093474584252718 0 0.45677673713123867 0.84253684404072415 0 0.33403534827021109 0.84402799729020661 0 0.35864759629805099 0.87963482415279515 0 0.30864387279288652 0.89906554525974958 0 0.53245488764484505 0.55078124999999989 0 0.47793794143994173 0.52940715638744962 0 0.53330375813596242 0.50827942741749099 0 0.82709327591102189 0.14937141670914489 0 0.81283102246527783 0.1881007222486438 0 0.77144070960558853 0.14311854477243749 0 0.82709327591091286 0.84937141670920724 0 0.81159157511211755 0.88795995483179491 0 0.76901770135486491 0.84293557325473656 0 0.77144070960558853 0.14311854477243749 0 0.81283102246527783 0.1881007222486438 0 0.76587607630038135 0.18880039518954719 0 0.76901770135486491 0.84293557325473656 0 0.81159157511211755 0.88795995483179491 0 0.76891166905518427 0.88835469571185499 0 0.33403534827021109 0.84402799729020661 0 0.30864387279288652 0.89906554525974958 0 0.29209212897034281 0.84715728365233667 0 0.57412547362576272 0.58273804879550706 0 0.5166924242153631 0.59825134841919447 0 0.53245488764484505 0.55078124999999989 0 0.50202631463681879 0.87892870825713787 0 0.47401147028110507 0.91529957330468115 0 0.44003836461056539 0.88093474584252718 0 0.5 0.69999999999999996 0 0.54999999999999993 0.69999999999999996 0 0.55363780716230748 0.74348740161571747 0 1 0.34999999999993492 0 0.95871855522754235 0.40006508612975411 0 0.95780851984364423 0.34215720972155339 0 1 0.64999999999986979 0 0.9578014258160763 0.65787212321113708 0 0.95867599106212187 0.60011091146651041 0 0.46666084890304671 0.57634471035397938 0 0.47793794143994173 0.52940715638744962 0 0.53245488764484505 0.55078124999999989 0 0.94999999999999996 0.29999999999999999 0 0.89898474358614167 0.25391965591104898 0 0.94399509803921056 0.24399509803922639 0 0.94999999999979179 1 0 0.89898474358632463 0.95391965591118966 0 0.94399509803919068 0.9439950980391687 0 0 0.65000000000104008 0 0.050069554451969707 0.61308520079857043 0 0.046634677244967337 0.671418230738282 0 0 0.35000000000145642 0 0.046389130980076937 0.32668781832131749 0 0.050583896093752537 0.38543522283434112 0 0.50202631463681879 0.87892870825713787 0 0.50627822638148745 0.8263979829520941 0 0.55899371797446828 0.85003102233514438 0 0.54782696902220018 0.79245182748204157 0 0.55899371797446828 0.85003102233514438 0 0.50627822638148745 0.8263979829520941 0 0.50945740445113552 0.75476055527778108 0 0.5 0.69999999999999996 0 0.55363780716230748 0.74348740161571747 0 0.84999999999965292 1 0 0.85170973911348691 0.93569607295217616 0 0.89898474358632463 0.95391965591118966 0 0.84999999999999987 0.29999999999999999 0 0.8517097391133297 0.2356960729520409 0 0.89898474358614167 0.25391965591104898 0 0.86956835336234861 0.571283299838105 0 0.82862096804812391 0.55037090955459045 0 0.86907294890112186 0.52008116128001669 0 0.49102375406324739 0.49123754822244059 0 0.53330375813596242 0.50827942741749099 0 0.47793794143994173 0.52940715638744962 0 0.57611405284611883 0.50165903596042916 0 0.61547661924074692 0.48539576058873962 0 0.62042975506801734 0.54295974692364424 0 0.71406021706547751 0.63292083137662503 0 0.67529834988829951 0.61613270668143583 0 0.71809016091162536 0.58185040402320831 0 0.65000000000104008 1 0 0.62065498684670595 0.95224934003983619 0 0.68015064798562208 0.95924320340003011 0 0.84999999999960507 0 0 0.899991664607802 0.045289349238254978 0 0.85491058998398861 0.060047533455626502 0 0.84999999999999987 0.69999999999999996 0 0.89999166460796554 0.74528934923809909 0 0.85491058998424563 0.76004753345552634 0 0.89999999999999991 0.29999999999999999 0 0.89898474358614167 0.25391965591104898 0 0.94999999999999996 0.29999999999999999 0 0.94999999999979179 1 0 0.89999999999958358 1 0 0.89898474358632463 0.95391965591118966 0 0.86411095495256451 0.42388805655111889 0 0.81308179852519835 0.39754945808726527 0 0.86844634540301924 0.38530937474099819 0 0.5 0.29999999999999999 0 0.49695729691142171 0.25014895411178018 0 0.54248833945060504 0.2520322959927106 0 0.86411095495256451 0.42388805655111889 0 0.81973119833356312 0.43505687159469048 0 0.81308179852519835 0.39754945808726527 0 0.67323294229744413 0.57556450033612505 0 0.71809016091162536 0.58185040402320831 0 0.67529834988829951 0.61613270668143583 0 0.6236733212988993 0.14864538214901801 0 0.68391457121233579 0.14440470121196541 0 0.64011864159029941 0.18789607982138171 0 0 0.050000000000207989 0 0.053064897599215843 0.048131547304697528 0 0.044310582753132287 0.101412518374475 0 0 0.94999999999979179 0 0.0443105827531413 0.89858748162559932 0 0.053064897599294662 0.95186845269532028 0 1 0.34999999999993492 0 1 0.39999999999978308 0 0.95871855522754235 0.40006508612975411 0 1 0.59999999999973963 0 1 0.64999999999986979 0 0.95867599106212187 0.60011091146651041 0 0 0.84999999999965292 0 0.065374659239661639 0.8551091961254178 0 0.0443105827531413 0.89858748162559932 0 0 0.15000000000062411 0 0.044310582753132287 0.101412518374475 0 0.065374659239632718 0.1448908038746782 0 0.16500388252850301 0.66612077714085194 0 0.1020579365089687 0.69352219419301997 0 0.1241190223511371 0.64391885572885044 0 0.14999999999970359 0 0 0.14618258501891079 0.062070108745602003 0 0.10266856499169109 0.044518360900210059 0 0.15000000000062411 1 0 0.10266856499240549 0.95548163909968886 0 0.14617343800780541 0.93808063414349496 0 0.7152569930854884 0.5237994455134295 0 0.67569444444444449 0.53500863336860327 0 0.69385896817107129 0.48377516041410151 0 0.6541250972820879 0.49999999999999989 0 0.62042975506801734 0.54295974692364424 0 0.61547661924074692 0.48539576058873962 0 0.94999999999999996 0.69999999999999996 0 0.94399509803918602 0.75600490196082126 0 0.89999166460796554 0.74528934923809909 0 0.94999999999986839 0 0 0.94399509803922566 0.056004901960802607 0 0.899991664607802 0.045289349238254978 0 0.6541250972820879 0.49999999999999989 0 0.69385896817107129 0.48377516041410151 0 0.67569444444444449 0.53500863336860327 0 0.82862096804812391 0.55037090955459045 0 0.81723410853263523 0.59419663659258926 0 0.77151014687832564 0.54436834383023036 0 0.7250000000005199 0.89375000000045834 0 0.66412543161245952 0.88015090885499059 0 0.68697391633157634 0.84450604838764298 0 0 0.94999999999979179 0 0 0.89999999999958358 0 0.0443105827531413 0.89858748162559932 0 0 0.10000000000041601 0 0 0.050000000000207989 0 0.044310582753132287 0.101412518374475 0 0.16500388252850301 0.66612077714085194 0 0.15332765547575641 0.71200081858233666 0 0.1020579365089687 0.69352219419301997 0 0.90299850604011456 0.79563452813489832 0 0.93677536231884972 0.85000000000000286 0 0.88088768115933802 0.84674609810493673 0 0.90299850604006393 0.09563452813493091 0 0.93677536231883773 0.14999999999999089 0 0.88088768115941807 0.14674609810479519 0 0.68391457121233579 0.14440470121196541 0 0.6865991819015953 0.189116534044597 0 0.64011864159029941 0.18789607982138171 0 0.085622222639554768 0.53333248912060549 0 0.1216098864341134 0.50637075089503902 0 0.1154888278694548 0.56733818459978413 0 0.21858834311891909 0.81980263716112767 0 0.22556077506376701 0.77837424984191617 0 0.26104540868854792 0.81401944968719064 0 0.81723410853263523 0.59419663659258926 0 0.77293540622714185 0.59448302402785813 0 0.77151014687832564 0.54436834383023036 0 0.1154888278694548 0.56733818459978413 0 0.1216098864341134 0.50637075089503902 0 0.14934928745814749 0.55042914607228977 0 0.1216098864341134 0.50637075089503902 0 0.068743045408989428 0.48853989837882689 0 0.113541300460994 0.46208784312094731 0 0.078358742472063481 0.43365249433908948 0 0.113541300460994 0.46208784312094731 0 0.068743045408989428 0.48853989837882689 0 0.83573492347052902 0.36590755630746369 0 0.81308179852519835 0.39754945808726527 0 0.78145581580700685 0.34881365920033602 0 0.57611405284611883 0.50165903596042916 0 0.62042975506801734 0.54295974692364424 0 0.57435499076887508 0.54267261987897775 0 0.86956835336234861 0.571283299838105 0 0.81723410853263523 0.59419663659258926 0 0.82862096804812391 0.55037090955459045 0 0.46666084890304671 0.57634471035397938 0 0.53245488764484505 0.55078124999999989 0 0.5166924242153631 0.59825134841919447 0 0.89999999999999991 0.69999999999999996 0 0.94999999999999996 0.69999999999999996 0 0.89999166460796554 0.74528934923809909 0 0.89999999999973679 0 0 0.94999999999986839 0 0 0.899991664607802 0.045289349238254978 0 0.84999999999960507 0 0 0.89999999999973679 0 0 0.899991664607802 0.045289349238254978 0 0.84999999999999987 0.69999999999999996 0 0.89999999999999991 0.69999999999999996 0 0.89999166460796554 0.74528934923809909 0 0.43545892161006339 0.61093128915313821 0 0.4089290844030305 0.58728915500154233 0 0.46666084890304671 0.57634471035397938 0 0.1650278706801647 0.38791388161335733 0 0.1117088112799664 0.38831403004970022 0 0.14223753364722069 0.3341983344262433 0 0.087545339447545459 0.35122518864182262 0 0.14223753364722069 0.3341983344262433 0 0.1117088112799664 0.38831403004970022 0 0.6916490518212759 0.75387992374886192 0 0.72501250972655151 0.74067302935308721 0 0.72500000000000064 0.7952620967744265 0 0.72501250972655151 0.74067302935308721 0 0.75841349681148107 0.75422312624214749 0 0.72500000000000064 0.7952620967744265 0 0.57412547362576272 0.58273804879550706 0 0.53245488764484505 0.55078124999999989 0 0.57435499076887508 0.54267261987897775 0 1 0.54999999999963112 0 0.95867599106212187 0.60011091146651041 0 0.93732437411268477 0.55911392101136159 0 1 0.44999999999963131 0 0.93814194660195893 0.44426664081746747 0 0.95871855522754235 0.40006508612975411 0 0.4089290844030305 0.58728915500154233 0 0.42644501560315817 0.54603747078095544 0 0.46666084890304671 0.57634471035397938 0 0.89999999999958358 1 0 0.84999999999965292 1 0 0.89898474358632463 0.95391965591118966 0 0.84999999999999987 0.29999999999999999 0 0.89898474358614167 0.25391965591104898 0 0.89999999999999991 0.29999999999999999 0 0.29999999999926641 0 0 0.32541448401678508 0.046215317981507749 0 0.27499999999933927 0.060310814194988557 0 0.30000000000124832 1 0 0.27609987656793722 0.94991445621608572 0 0.32544832635163229 0.95485394099568932 0 0.57412547362576272 0.58273804879550706 0 0.62042975506801734 0.54295974692364424 0 0.63065402604362242 0.59661356661633302 0 0.5 0.29999999999999999 0 0.54248833945060504 0.2520322959927106 0 0.54999999999999993 0.29999999999999999 0 0.67323294229744413 0.57556450033612505 0 0.62042975506801734 0.54295974692364424 0 0.67569444444444449 0.53500863336860327 0 0.6541250972820879 0.49999999999999989 0 0.67569444444444449 0.53500863336860327 0 0.62042975506801734 0.54295974692364424 0 1 0.14999999999961891 0 1 0.19999999999974799 0 0.95391631417672862 0.19584263333809451 0 1 0.84999999999982645 0 1 0.8999999999998336 0 0.95391631417670719 0.89584263333814784 0 1 0.7999999999998193 0 1 0.84999999999982645 0 0.95386563387742829 0.80414874155775029 0 1 0.099999999999753911 0 1 0.14999999999961891 0 0.95386563387744361 0.1041487415577465 0 0.4656888918609538 0.78493261229743638 0 0.50627822638148745 0.8263979829520941 0 0.45677673713123867 0.84253684404072415 0 0.6879972333610942 0.43038561374960838 0 0.72622533758026719 0.40265885511101601 0 0.73483647259922602 0.44789725365921768 0 0.67323294229744413 0.57556450033612505 0 0.67569444444444449 0.53500863336860327 0 0.71809016091162536 0.58185040402320831 0 0.7152569930854884 0.5237994455134295 0 0.71809016091162536 0.58185040402320831 0 0.67569444444444449 0.53500863336860327 0 0.65394964615507722 0.22666784374016369 0 0.59814117807200873 0.23398510860739519 0 0.64011864159029941 0.18789607982138171 0 0.55000000000173355 1 0 0.52122150208832174 0.94089974453840242 0 0.57382506491224949 0.9629411906298494 0 0.39801143831225599 0.16651381068160659 0 0.44288491854585582 0.14116182884956319 0 0.42905200079338551 0.19982395548231649 0 0.47357141910802508 0.1873585799078378 0 0.42905200079338551 0.19982395548231649 0 0.44288491854585582 0.14116182884956319 0 0.90594285160987287 0.4141265964174129 0 0.88594198078881503 0.46167788676578442 0 0.86411095495256451 0.42388805655111889 0 0.65507451745379841 0.92229208810758578 0 0.68015064798562208 0.95924320340003011 0 0.62065498684670595 0.95224934003983619 0 0.35312867752657662 0.084946736076730367 0 0.39591832466117061 0.056982757562006353 0 0.39823268594401579 0.1116623613130045 0 0.43698630808430822 0.080423614171545449 0 0.39823268594401579 0.1116623613130045 0 0.39591832466117061 0.056982757562006353 0 0.4367309254023824 0.92065556789053882 0 0.39641108128798319 0.94356127926187128 0 0.39767323751400468 0.89584229130535065 0 0.35752321586431363 0.9185439911803448 0 0.39767323751400468 0.89584229130535065 0 0.39641108128798319 0.94356127926187128 0 0.77354604466818633 0.40378688774472771 0 0.77972660463949339 0.45529290596363098 0 0.73483647259922602 0.44789725365921768 0 0.5499999999988151 0 0 0.57396793757665954 0.037011367187645222 0 0.52375890611712683 0.059318771819432882 0 0.64753070846764316 0.77332939069435502 0 0.60294066490120068 0.80851322453934582 0 0.59636844454254345 0.75937156204589151 0 0.49102375406324739 0.49123754822244059 0 0.48858720058566618 0.43964267759203868 0 0.53823865529665704 0.45873898050322898 0 0.28307294598219601 0.50789252727458634 0 0.29110487519241501 0.56588143995431495 0 0.25115337790845271 0.54719303014923271 0 0.79680861578988083 0.92656778056766709 0 0.81159157511211755 0.88795995483179491 0 0.85170973911348691 0.93569607295217616 0 0.79680861578956375 0.22656778056752541 0 0.81283102246527783 0.1881007222486438 0 0.8517097391133297 0.2356960729520409 0 0.57412547362576272 0.58273804879550706 0 0.57435499076887508 0.54267261987897775 0 0.62042975506801734 0.54295974692364424 0 0.93814194660195893 0.44426664081746747 0 0.88594198078881503 0.46167788676578442 0 0.90594285160987287 0.4141265964174129 0 0.7152569930854884 0.5237994455134295 0 0.73947346780852752 0.49062440112282169 0 0.77151014687832564 0.54436834383023036 0 0 0.7000000000006934 0 0.046634677244967337 0.671418230738282 0 0.049706944316475897 0.72477277076253799 0 0 0.30000000000124832 0 0.049706944316556423 0.27522722923869108 0 0.046389130980076937 0.32668781832131749 0 0.59814117807200873 0.23398510860739519 0 0.59443395090188023 0.18455690917515069 0 0.64011864159029941 0.18789607982138171 0 0.21858834311891909 0.81980263716112767 0 0.26104540868854792 0.81401944968719064 0 0.2401283238295133 0.85648409884788523 0 0.39536230704883951 0.84069429572832477 0 0.45677673713123867 0.84253684404072415 0 0.44003836461056539 0.88093474584252718 0 0.086179601630648681 0.64647209519980475 0 0.050069554451969707 0.61308520079857043 0 0.1024350934457823 0.60772393977513839 0 0.077693244765132896 0.56932317963405099 0 0.1024350934457823 0.60772393977513839 0 0.050069554451969707 0.61308520079857043 0 0.078358742472063481 0.43365249433908948 0 0.050583896093752537 0.38543522283434112 0 0.1117088112799664 0.38831403004970022 0 0.087545339447545459 0.35122518864182262 0 0.1117088112799664 0.38831403004970022 0 0.050583896093752537 0.38543522283434112 0 0.33403534827021109 0.84402799729020661 0 0.35642984951668422 0.80994399665655703 0 0.39536230704883951 0.84069429572832477 0 0.28307294598219601 0.50789252727458634 0 0.33190227185843768 0.52715113583864037 0 0.29110487519241501 0.56588143995431495 0 0.2236846579037573 0.67380363126050236 0 0.19068556247388771 0.71028988922845504 0 0.16500388252850301 0.66612077714085194 0 0.26104540868854792 0.81401944968719064 0 0.22556077506376701 0.77837424984191617 0 0.2792923945214143 0.77665808831789485 0 0.38244435121258652 0.51653317813019495 0 0.37272913873093971 0.56192925302619479 0 0.33190227185843768 0.52715113583864037 0 0.25195515620380449 0.25883339815888678 0 0.29132859388405002 0.27203693976649962 0 0.24432083401701241 0.3006253385567515 0 0.29348325746214782 0.31350119524708198 0 0.24432083401701241 0.3006253385567515 0 0.29132859388405002 0.27203693976649962 0 0 0.89999999999958358 0 0 0.84999999999965292 0 0.0443105827531413 0.89858748162559932 0 0 0.15000000000062411 0 0 0.10000000000041601 0 0.044310582753132287 0.101412518374475 0 0.59999999999999976 0.69999999999999996 0 0.59636844454254345 0.75937156204589151 0 0.55363780716230748 0.74348740161571747 0 0.1650278706801647 0.38791388161335733 0 0.22033343844674469 0.36963382230740238 0 0.191953871957803 0.42546416763755879 0 0.52289427570932567 0.3932284363388488 0 0.46655310992796922 0.39650496622958609 0 0.49077833859261139 0.35229981449445641 0 0.91696753777131557 0.497780560203536 0 0.88594198078881503 0.46167788676578442 0 0.93814194660195893 0.44426664081746747 0 0.24999999999941211 0 0 0.27499999999933927 0.060310814194988557 0 0.22668068146512929 0.045875643423131329 0 0.25000000000104028 1 0 0.22850979588452081 0.95594428570238643 0 0.27609987656793722 0.94991445621608572 0 0.77846603114747959 0.49850927265137401 0 0.77151014687832564 0.54436834383023036 0 0.73947346780852752 0.49062440112282169 0 0.27499999999933927 0.060310814194988557 0 0.27474541102162192 0.11822029332053539 0 0.24218496799700481 0.089025544070598317 0 0.27270076654418179 0.87751467830216623 0 0.29209212897034281 0.84715728365233667 0 0.30864387279288652 0.89906554525974958 0 0.3096713403101819 0.085471541595262421 0 0.27474541102162192 0.11822029332053539 0 0.27499999999933927 0.060310814194988557 0 0.17933913398461551 0.2350063570234002 0 0.18124454140915969 0.18790916706335251 0 0.224700362040408 0.22206622194729711 0 0.18269480424590959 0.75905448272264375 0 0.22556077506376701 0.77837424984191617 0 0.17777405986036951 0.81832336108265358 0 0.35864759629805099 0.87963482415279515 0 0.33403534827021109 0.84402799729020661 0 0.39536230704883951 0.84069429572832477 0 0.77354604466818633 0.40378688774472771 0 0.73483647259922602 0.44789725365921768 0 0.72622533758026719 0.40265885511101601 0 0.80185942888539485 0.77452061303608133 0 0.85491058998424563 0.76004753345552634 0 0.84725310900444062 0.80779732082917555 0 0.80185942888501827 0.074520613036224564 0 0.85491058998398861 0.060047533455626502 0 0.84725310900442086 0.10779732082922661 0 0.086179601630648681 0.64647209519980475 0 0.046634677244967337 0.671418230738282 0 0.050069554451969707 0.61308520079857043 0 0.087545339447545459 0.35122518864182262 0 0.050583896093752537 0.38543522283434112 0 0.046389130980076937 0.32668781832131749 0 0 0.75000000000034661 0 0.049706944316475897 0.72477277076253799 0 0.04408157711937423 0.7728941757575627 0 0 0.25000000000104028 0 0.044081577119474857 0.2271058242433576 0 0.049706944316556423 0.27522722923869108 0 0.52289427570932567 0.3932284363388488 0 0.56836770495988642 0.3523062350852913 0 0.57744073070774993 0.41535148636609359 0 0.6084546825910605 0.37989672713932537 0 0.57744073070774993 0.41535148636609359 0 0.56836770495988642 0.3523062350852913 0 0.61343887413683884 0.856862479058357 0 0.55899371797446828 0.85003102233514438 0 0.60294066490120068 0.80851322453934582 0 0.54782696902220018 0.79245182748204157 0 0.60294066490120068 0.80851322453934582 0 0.55899371797446828 0.85003102233514438 0 0.40326160981139969 0.73346192995102844 0 0.36622285152418499 0.69092437780804039 0 0.43323420005758778 0.6913544522562407 0 0.52289427570932567 0.3932284363388488 0 0.48858720058566618 0.43964267759203868 0 0.46655310992796922 0.39650496622958609 0 0.15720202157091859 0.60665697304410315 0 0.1154888278694548 0.56733818459978413 0 0.14934928745814749 0.55042914607228977 0 0.6879972333610942 0.43038561374960838 0 0.73483647259922602 0.44789725365921768 0 0.69385896817107129 0.48377516041410151 0 0.7250000000005199 0.89375000000045834 0 0.68987011941058407 0.92105047536677087 0 0.66412543161245952 0.88015090885499059 0 0.83573492347052902 0.36590755630746369 0 0.78145581580700685 0.34881365920033602 0 0.82500000000000062 0.33010209762754811 0 0.82862096804812391 0.55037090955459045 0 0.81441713509985358 0.51161854125224959 0 0.86907294890112186 0.52008116128001669 0 0.19670163708476801 0.31472518408333222 0 0.14223753364722069 0.3341983344262433 0 0.168349569971391 0.28054490850913671 0 0.50202631463681879 0.87892870825713787 0 0.45677673713123867 0.84253684404072415 0 0.50627822638148745 0.8263979829520941 0 0.099999999999814668 0 0 0.14999999999970359 0 0 0.10266856499169109 0.044518360900210059 0 0.15000000000062411 1 0 0.10000000000041601 1 0 0.10266856499240549 0.95548163909968886 0 0.67323294229744413 0.57556450033612505 0 0.63065402604362242 0.59661356661633302 0 0.62042975506801734 0.54295974692364424 0 0.083105206071467416 0.20007701332709979 0 0.13737030665753211 0.20313708640667491 0 0.095326043202144745 0.24554465089224409 0 0.083105206071452636 0.79992298667296435 0 0.090953281884486245 0.7564451946902494 0 0.1382744753146134 0.79650574229207483 0 0.50000000000205869 1 0 0.47135117303824892 0.95556877749289892 0 0.52122150208832174 0.94089974453840242 0 0.49999999999869432 0 0 0.52375890611712683 0.059318771819432882 0 0.47040171442036788 0.044141676406503738 0 0.4656888918609538 0.78493261229743638 0 0.45582236402875981 0.73896743678908217 0 0.50945740445113552 0.75476055527778108 0 0.5 0.69999999999999996 0 0.50945740445113552 0.75476055527778108 0 0.45582236402875981 0.73896743678908217 0 0.55306006949600994 0.20198184231352201 0 0.56202748619534593 0.15054058349222879 0 0.59443395090188023 0.18455690917515069 0 0.6236733212988993 0.14864538214901801 0 0.59443395090188023 0.18455690917515069 0 0.56202748619534593 0.15054058349222879 0 0.57412547362576272 0.58273804879550706 0 0.5498280205245758 0.6290146943450976 0 0.5166924242153631 0.59825134841919447 0 0.91696753777131557 0.497780560203536 0 0.93814194660195893 0.44426664081746747 0 0.96228564064454991 0.48206450662049471 0 0.15720202157091859 0.60665697304410315 0 0.16500388252850301 0.66612077714085194 0 0.1241190223511371 0.64391885572885044 0 0.44288491854585582 0.14116182884956319 0 0.47881186583059909 0.093591717165689425 0 0.48466639505193998 0.1421439844745814 0 1 0.54999999999963112 0 0.93732437411268477 0.55911392101136159 0 0.95631871884947484 0.51827533208233789 0 0.57724883562309992 0.92155686857100794 0 0.57382506491224949 0.9629411906298494 0 0.52122150208832174 0.94089974453840242 0 0.85170973911348691 0.93569607295217616 0 0.81159157511211755 0.88795995483179491 0 0.85600844944837662 0.88483418979512773 0 0.8517097391133297 0.2356960729520409 0 0.81283102246527783 0.1881007222486438 0 0.85600844944842547 0.1848341897950983 0 0.27866744612395528 0.38416094670951489 0 0.29124338931648802 0.43334555462578611 0 0.24049127783545701 0.41270748208749802 0 0.6084546825910605 0.37989672713932537 0 0.56836770495988642 0.3523062350852913 0 0.61959173890754571 0.33832250091341232 0 0.20050006573841939 0.53248514016039872 0 0.25115337790845271 0.54719303014923271 0 0.22549374774072969 0.58452645269293457 0 0.26573297623774761 0.59828298563722948 0 0.22549374774072969 0.58452645269293457 0 0.25115337790845271 0.54719303014923271 0 0.26104540868854792 0.81401944968719064 0 0.29209212897034281 0.84715728365233667 0 0.2401283238295133 0.85648409884788523 0 0.6236733212988993 0.14864538214901801 0 0.65290632656860115 0.11434202593454081 0 0.68391457121233579 0.14440470121196541 0 0.19901705110390991 0.9175543425573498 0 0.19741632902693801 0.86755867406447229 0 0.24536017905392571 0.90704567837671446 0 0.72500000000000064 0.7952620967744265 0 0.76901770135486491 0.84293557325473656 0 0.72863726579783861 0.85390518901155588 0 0.72500000000000064 0.7952620967744265 0 0.72863726579783861 0.85390518901155588 0 0.68697391633157634 0.84450604838764298 0 0.7250000000005199 0.89375000000045834 0 0.68697391633157634 0.84450604838764298 0 0.72863726579783861 0.85390518901155588 0 0.72525833953073282 0.1032114801687094 0 0.77144070960558853 0.14311854477243749 0 0.72634814642510737 0.16106886917518889 0 0.72525833953073282 0.1032114801687094 0 0.72634814642510737 0.16106886917518889 0 0.68391457121233579 0.14440470121196541 0 0.36622285152418499 0.69092437780804039 0 0.3977710372045391 0.65868194622830212 0 0.43323420005758778 0.6913544522562407 0 0 0.65000000000104008 0 0 0.60000000000138687 0 0.050069554451969707 0.61308520079857043 0 0 0.40000000000166441 0 0 0.35000000000145642 0 0.050583896093752537 0.38543522283434112 0 0.22033343844674469 0.36963382230740238 0 0.24049127783545701 0.41270748208749802 0 0.191953871957803 0.42546416763755879 0 0.5 0.29999999999999999 0 0.4604742573284204 0.27846934318264788 0 0.49695729691142171 0.25014895411178018 0 0.19741632902693801 0.86755867406447229 0 0.2401283238295133 0.85648409884788523 0 0.24536017905392571 0.90704567837671446 0 0 0.50000000000205869 0 0.068743045408989428 0.48853989837882689 0 0.044576108720083309 0.53509043209532614 0 0.15000000000062411 1 0 0.14617343800780541 0.93808063414349496 0 0.18474005699953849 0.96231585248064622 0 0.14999999999970359 0 0 0.184418230509967 0.038773194583122873 0 0.14618258501891079 0.062070108745602003 0 0.57667858002728545 0.078486105337742612 0 0.52375890611712683 0.059318771819432882 0 0.57396793757665954 0.037011367187645222 0 0.113541300460994 0.46208784312094731 0 0.078358742472063481 0.43365249433908948 0 0.13773355295499351 0.42497777642586831 0 0.77354604466818633 0.40378688774472771 0 0.78145581580700685 0.34881365920033602 0 0.81308179852519835 0.39754945808726527 0 0.38244435121258652 0.51653317813019495 0 0.33190227185843768 0.52715113583864037 0 0.35024835142131061 0.48654922671676981 0 0.64753070846764316 0.77332939069435502 0 0.65005442820240822 0.82644988530054031 0 0.60294066490120068 0.80851322453934582 0 0.15720202157091859 0.60665697304410315 0 0.1024350934457823 0.60772393977513839 0 0.1154888278694548 0.56733818459978413 0 0.90416666666660628 0.9041666666666166 0 0.85600844944837662 0.88483418979512773 0 0.88088768115933802 0.84674609810493673 0 0.90416666666668166 0.20416666666667119 0 0.85600844944842547 0.1848341897950983 0 0.88088768115941807 0.14674609810479519 0 0.078358742472063481 0.43365249433908948 0 0.1117088112799664 0.38831403004970022 0 0.13773355295499351 0.42497777642586831 0 0.38244435121258652 0.51653317813019495 0 0.3908716102680424 0.47010282357248828 0 0.43507373378304309 0.49699695397193322 0 0.90299850604011456 0.79563452813489832 0 0.95386563387742829 0.80414874155775029 0 0.93677536231884972 0.85000000000000286 0 0.90416666666660628 0.9041666666666166 0 0.93677536231884972 0.85000000000000286 0 0.95391631417670719 0.89584263333814784 0 0.90299850604006393 0.09563452813493091 0 0.95386563387744361 0.1041487415577465 0 0.93677536231883773 0.14999999999999089 0 0.90416666666668166 0.20416666666667119 0 0.93677536231883773 0.14999999999999089 0 0.95391631417672862 0.19584263333809451 0 0.39536230704883951 0.84069429572832477 0 0.44003836461056539 0.88093474584252718 0 0.39767323751400468 0.89584229130535065 0 0.51076801031701946 0.1202837388510348 0 0.52375890611712683 0.059318771819432882 0 0.54979595918804436 0.1060565713905809 0 0.57667858002728545 0.078486105337742612 0 0.54979595918804436 0.1060565713905809 0 0.52375890611712683 0.059318771819432882 0 0.57724883562309992 0.92155686857100794 0 0.52122150208832174 0.94089974453840242 0 0.54783390826260769 0.89287767010860219 0 0.50202631463681879 0.87892870825713787 0 0.54783390826260769 0.89287767010860219 0 0.52122150208832174 0.94089974453840242 0 0.087545339447545459 0.35122518864182262 0 0.093851963071650835 0.30582068233324772 0 0.14223753364722069 0.3341983344262433 0 0.54999999999999993 0.69999999999999996 0 0.59999999999999976 0.69999999999999996 0 0.55363780716230748 0.74348740161571747 0 0.083105206071452636 0.79992298667296435 0 0.1074251789111534 0.83564394292147814 0 0.065374659239661639 0.8551091961254178 0 0.083105206071467416 0.20007701332709979 0 0.065374659239632718 0.1448908038746782 0 0.106902708054812 0.16453234188234539 0 0.52289427570932567 0.3932284363388488 0 0.53823865529665704 0.45873898050322898 0 0.48858720058566618 0.43964267759203868 0 0.13737030665753211 0.20313708640667491 0 0.14377654328998779 0.2442024734791064 0 0.095326043202144745 0.24554465089224409 0 0.1382744753146134 0.79650574229207483 0 0.090953281884486245 0.7564451946902494 0 0.14335651144331049 0.75565258250209677 0 0.27270076654418179 0.87751467830216623 0 0.30864387279288652 0.89906554525974958 0 0.24536017905392571 0.90704567837671446 0 0.27609987656793722 0.94991445621608572 0 0.24536017905392571 0.90704567837671446 0 0.30864387279288652 0.89906554525974958 0 0.90299850604011456 0.79563452813489832 0 0.84725310900444062 0.80779732082917555 0 0.85491058998424563 0.76004753345552634 0 0.90299850604006393 0.09563452813493091 0 0.84725310900442086 0.10779732082922661 0 0.85491058998398861 0.060047533455626502 0 1 0.54999999999963112 0 1 0.59999999999973963 0 0.95867599106212187 0.60011091146651041 0 1 0.39999999999978308 0 1 0.44999999999963131 0 0.95871855522754235 0.40006508612975411 0 0.28040350263641872 0.23054717217092141 0 0.25195515620380449 0.25883339815888678 0 0.224700362040408 0.22206622194729711 0 0.84999999999999987 0.29999999999999999 0 0.87430060258887643 0.34056085888204451 0 0.82500000000000062 0.33010209762754811 0 0.84999999999999987 0.69999999999999996 0 0.82457059160610424 0.66831947184359608 0 0.87712158428786946 0.65709029563313581 0 0.86956835336234861 0.571283299838105 0 0.87159648282691515 0.61285406320581504 0 0.81723410853263523 0.59419663659258926 0 0.43698630808430822 0.080423614171545449 0 0.47881186583059909 0.093591717165689425 0 0.44288491854585582 0.14116182884956319 0 1 0.44999999999963131 0 0.96228564064454991 0.48206450662049471 0 0.93814194660195893 0.44426664081746747 0 0.35752321586431363 0.9185439911803448 0 0.30864387279288652 0.89906554525974958 0 0.35864759629805099 0.87963482415279515 0 0.29124338931648802 0.43334555462578611 0 0.25982634974572738 0.46097799597715272 0 0.24049127783545701 0.41270748208749802 0 0.51076801031701946 0.1202837388510348 0 0.56202748619534593 0.15054058349222879 0 0.51729576145820033 0.1683240575987815 0 0.55306006949600994 0.20198184231352201 0 0.51729576145820033 0.1683240575987815 0 0.56202748619534593 0.15054058349222879 0 0.26429849586623999 0.19346700179430079 0 0.28040350263641872 0.23054717217092141 0 0.224700362040408 0.22206622194729711 0 0.51076801031701946 0.1202837388510348 0 0.48466639505193998 0.1421439844745814 0 0.47881186583059909 0.093591717165689425 0 0.2185883431182947 0.18019736283949719 0 0.26429849586623999 0.19346700179430079 0 0.224700362040408 0.22206622194729711 0 0.18269480424590959 0.75905448272264375 0 0.2248999640082178 0.72584299459689172 0 0.22556077506376701 0.77837424984191617 0 0.51076801031701946 0.1202837388510348 0 0.47881186583059909 0.093591717165689425 0 0.52375890611712683 0.059318771819432882 0 0.50202631463681879 0.87892870825713787 0 0.52122150208832174 0.94089974453840242 0 0.47401147028110507 0.91529957330468115 0 0 0.84999999999965292 0 0.038512288486097702 0.8155852717111195 0 0.065374659239661639 0.8551091961254178 0 0 0.15000000000062411 0 0.065374659239632718 0.1448908038746782 0 0.038512288486115001 0.1844147282893184 0 0.2185883431182947 0.18019736283949719 0 0.224700362040408 0.22206622194729711 0 0.18124454140915969 0.18790916706335251 0 0.21858834311891909 0.81980263716112767 0 0.17777405986036951 0.81832336108265358 0 0.22556077506376701 0.77837424984191617 0 0.1215415378367805 0.72939333680004137 0 0.1020579365089687 0.69352219419301997 0 0.15332765547575641 0.71200081858233666 0 0.49695729691142171 0.25014895411178018 0 0.50760557329222289 0.20700468884612061 0 0.54248833945060504 0.2520322959927106 0 0.15720202157091859 0.60665697304410315 0 0.14934928745814749 0.55042914607228977 0 0.18381867841758909 0.57774125163628387 0 0.90416666666660628 0.9041666666666166 0 0.85170973911348691 0.93569607295217616 0 0.85600844944837662 0.88483418979512773 0 0.90416666666668166 0.20416666666667119 0 0.8517097391133297 0.2356960729520409 0 0.85600844944842547 0.1848341897950983 0 0.17933913398461551 0.2350063570234002 0 0.13737030665753211 0.20313708640667491 0 0.18124454140915969 0.18790916706335251 0 0.18269480424590959 0.75905448272264375 0 0.17777405986036951 0.81832336108265358 0 0.1382744753146134 0.79650574229207483 0 0.1216098864341134 0.50637075089503902 0 0.15801167086041079 0.46008690540259539 0 0.16618607197337229 0.50652878253548905 0 0.50760557329222289 0.20700468884612061 0 0.55306006949600994 0.20198184231352201 0 0.54248833945060504 0.2520322959927106 0 0.75000000000034661 1 0 0.7000000000006934 1 0 0.7250000000005199 0.94981617647078953 0 0.69999999999999984 0.29999999999999999 0 0.72500000000000064 0.2498161764706 0 0.74999999999999989 0.29999999999999999 0 0.72525833953073282 0.1032114801687094 0 0.68391457121233579 0.14440470121196541 0 0.68330259535470161 0.10038702501083881 0 0.43249999999999988 0.43937499999999979 0 0.46655310992796922 0.39650496622958609 0 0.48858720058566618 0.43964267759203868 0 0.19901705110390991 0.9175543425573498 0 0.14617343800780541 0.93808063414349496 0 0.16206583317966519 0.89685560785156404 0 0.19922788606653311 0.085920220746880993 0 0.16141998738593399 0.10404039647458049 0 0.14618258501891079 0.062070108745602003 0 0.31378396441836959 0.70157213313026345 0 0.26439878998046262 0.7048065392091396 0 0.27820712747429932 0.65530134213254643 0 0.1216098864341134 0.50637075089503902 0 0.113541300460994 0.46208784312094731 0 0.15801167086041079 0.46008690540259539 0 0.6084546825910605 0.37989672713932537 0 0.65481233915350323 0.35652751921065562 0 0.63912439215427275 0.41063340167983359 0 0.19901705110390991 0.9175543425573498 0 0.18474005699953849 0.96231585248064622 0 0.14617343800780541 0.93808063414349496 0 0.19922788606653311 0.085920220746880993 0 0.14618258501891079 0.062070108745602003 0 0.184418230509967 0.038773194583122873 0 0.38244435121258652 0.51653317813019495 0 0.35024835142131061 0.48654922671676981 0 0.3908716102680424 0.47010282357248828 0 0.82709327591102189 0.14937141670914489 0 0.77144070960558853 0.14311854477243749 0 0.80076557130237269 0.1154587552654202 0 0.82709327591091286 0.84937141670920724 0 0.76901770135486491 0.84293557325473656 0 0.80041942726660109 0.81543261647703358 0 0.43698630808430822 0.080423614171545449 0 0.44288491854585582 0.14116182884956319 0 0.39823268594401579 0.1116623613130045 0 0.39801143831225599 0.16651381068160659 0 0.39823268594401579 0.1116623613130045 0 0.44288491854585582 0.14116182884956319 0 0.36575549820117997 0.31677992835137742 0 0.3786248352540974 0.27082301512024259 0 0.41914690343363781 0.30688979866601612 0 0.42377727103934271 0.25099357235810238 0 0.41914690343363781 0.30688979866601612 0 0.3786248352540974 0.27082301512024259 0 0.049706944316475897 0.72477277076253799 0 0.1020579365089687 0.69352219419301997 0 0.090953281884486245 0.7564451946902494 0 0.1215415378367805 0.72939333680004137 0 0.090953281884486245 0.7564451946902494 0 0.1020579365089687 0.69352219419301997 0 0.1247745017231483 0.27198077544791172 0 0.093851963071650835 0.30582068233324772 0 0.095326043202144745 0.24554465089224409 0 0.049706944316556423 0.27522722923869108 0 0.095326043202144745 0.24554465089224409 0 0.093851963071650835 0.30582068233324772 0 0.77354604466818633 0.40378688774472771 0 0.81973119833356312 0.43505687159469048 0 0.77972660463949339 0.45529290596363098 0 0.43249999999999988 0.43937499999999979 0 0.43507373378304309 0.49699695397193322 0 0.3908716102680424 0.47010282357248828 0 0.26573297623774761 0.59828298563722948 0 0.2459498854893499 0.63248470766216769 0 0.22549374774072969 0.58452645269293457 0 0.72500000000000064 0.7952620967744265 0 0.77094201086366854 0.79647480515688507 0 0.76901770135486491 0.84293557325473656 0 0.72525833953073282 0.1032114801687094 0 0.76878382444651716 0.097147941686331368 0 0.77144070960558853 0.14311854477243749 0 0.72500000000000064 0.7952620967744265 0 0.68697391633157634 0.84450604838764298 0 0.68024162096458085 0.79868546898116533 0 0.31378396441836959 0.70157213313026345 0 0.29904318922293632 0.74132814928635593 0 0.26439878998046262 0.7048065392091396 0 0.31378396441836959 0.70157213313026345 0 0.35415581127540569 0.73730480045900215 0 0.29904318922293632 0.74132814928635593 0 0.61343887413683884 0.856862479058357 0 0.65005442820240822 0.82644988530054031 0 0.66412543161245952 0.88015090885499059 0 0.68697391633157634 0.84450604838764298 0 0.66412543161245952 0.88015090885499059 0 0.65005442820240822 0.82644988530054031 0 0.083411279318375747 0.91030024466934134 0 0.065374659239661639 0.8551091961254178 0 0.10562472963403439 0.87143394428979881 0 0.083411279318303222 0.089699755330707398 0 0.1053400320299198 0.12877248826361379 0 0.065374659239632718 0.1448908038746782 0 0.55306006949600994 0.20198184231352201 0 0.59443395090188023 0.18455690917515069 0 0.59814117807200873 0.23398510860739519 0 0.84999999999999987 0.29999999999999999 0 0.89999999999999991 0.29999999999999999 0 0.87430060258887643 0.34056085888204451 0 0.84999999999999987 0.69999999999999996 0 0.87712158428786946 0.65709029563313581 0 0.89999999999999991 0.69999999999999996 0 0.34258405725730701 0.4444034294386992 0 0.3908716102680424 0.47010282357248828 0 0.35024835142131061 0.48654922671676981 0 0.26573297623774761 0.59828298563722948 0 0.31502927232353312 0.6134992213375432 0 0.27820712747429932 0.65530134213254643 0 0.91696753777131557 0.497780560203536 0 0.86907294890112186 0.52008116128001669 0 0.88594198078881503 0.46167788676578442 0 0.84723782639812573 0.48638347960178252 0 0.88594198078881503 0.46167788676578442 0 0.86907294890112186 0.52008116128001669 0 0.7152569930854884 0.5237994455134295 0 0.77151014687832564 0.54436834383023036 0 0.71809016091162536 0.58185040402320831 0 0.90416666666660628 0.9041666666666166 0 0.89898474358632463 0.95391965591118966 0 0.85170973911348691 0.93569607295217616 0 0.90416666666668166 0.20416666666667119 0 0.89898474358614167 0.25391965591104898 0 0.8517097391133297 0.2356960729520409 0 0.91750694127107502 0.36982372220068471 0 0.95780851984364423 0.34215720972155339 0 0.95871855522754235 0.40006508612975411 0 0.91750694127105259 0.63017627779935648 0 0.95867599106212187 0.60011091146651041 0 0.9578014258160763 0.65787212321113708 0 0.90299850604011456 0.79563452813489832 0 0.88088768115933802 0.84674609810493673 0 0.84725310900444062 0.80779732082917555 0 0.90299850604006393 0.09563452813493091 0 0.88088768115941807 0.14674609810479519 0 0.84725310900442086 0.10779732082922661 0 0.1216098864341134 0.50637075089503902 0 0.16618607197337229 0.50652878253548905 0 0.14934928745814749 0.55042914607228977 0 0.20050006573841939 0.53248514016039872 0 0.14934928745814749 0.55042914607228977 0 0.16618607197337229 0.50652878253548905 0 0.80185942888539485 0.77452061303608133 0 0.84725310900444062 0.80779732082917555 0 0.80041942726660109 0.81543261647703358 0 0.80185942888501827 0.074520613036224564 0 0.84725310900442086 0.10779732082922661 0 0.80076557130237269 0.1154587552654202 0 0.083105206071452636 0.79992298667296435 0 0.065374659239661639 0.8551091961254178 0 0.038512288486097702 0.8155852717111195 0 0.083105206071467416 0.20007701332709979 0 0.038512288486115001 0.1844147282893184 0 0.065374659239632718 0.1448908038746782 0 0.54782696902220018 0.79245182748204157 0 0.59636844454254345 0.75937156204589151 0 0.60294066490120068 0.80851322453934582 0 0.083411279318375747 0.91030024466934134 0 0.0443105827531413 0.89858748162559932 0 0.065374659239661639 0.8551091961254178 0 0.083411279318303222 0.089699755330707398 0 0.065374659239632718 0.1448908038746782 0 0.044310582753132287 0.101412518374475 0 0.84999999999965292 1 0 0.81486180804382891 0.96321394949790495 0 0.85170973911348691 0.93569607295217616 0 0.84999999999999987 0.29999999999999999 0 0.81486180804364938 0.26321394949780091 0 0.8517097391133297 0.2356960729520409 0 0.4656888918609538 0.78493261229743638 0 0.45677673713123867 0.84253684404072415 0 0.42609163930740518 0.80361684430568059 0 0.39536230704883951 0.84069429572832477 0 0.42609163930740518 0.80361684430568059 0 0.45677673713123867 0.84253684404072415 0 0.6236733212988993 0.14864538214901801 0 0.56202748619534593 0.15054058349222879 0 0.58516465772821369 0.11653801664834119 0 0.57412547362576272 0.58273804879550706 0 0.63065402604362242 0.59661356661633302 0 0.5991018319127801 0.62925360607495295 0 0.61343887413683884 0.856862479058357 0 0.5832743223239254 0.88483152652961872 0 0.55899371797446828 0.85003102233514438 0 0.50202631463681879 0.87892870825713787 0 0.55899371797446828 0.85003102233514438 0 0.54783390826260769 0.89287767010860219 0 0.51076801031701946 0.1202837388510348 0 0.54979595918804436 0.1060565713905809 0 0.56202748619534593 0.15054058349222879 0 0.55306006949600994 0.20198184231352201 0 0.59814117807200873 0.23398510860739519 0 0.54248833945060504 0.2520322959927106 0 0.83573492347052902 0.36590755630746369 0 0.82500000000000062 0.33010209762754811 0 0.87430060258887643 0.34056085888204451 0 0.83758014339878906 0.63222013025741819 0 0.87712158428786946 0.65709029563313581 0 0.82457059160610424 0.66831947184359608 0 0.49102375406324739 0.49123754822244059 0 0.53823865529665704 0.45873898050322898 0 0.53330375813596242 0.50827942741749099 0 0.52289427570932567 0.3932284363388488 0 0.57744073070774993 0.41535148636609359 0 0.53823865529665704 0.45873898050322898 0 0.4089290844030305 0.58728915500154233 0 0.37272913873093971 0.56192925302619479 0 0.42644501560315817 0.54603747078095544 0 0.49695729691142171 0.25014895411178018 0 0.4604742573284204 0.27846934318264788 0 0.46429753744194407 0.22870891180733599 0 0.90299850604011456 0.79563452813489832 0 0.85491058998424563 0.76004753345552634 0 0.89999166460796554 0.74528934923809909 0 0.90299850604006393 0.09563452813493091 0 0.85491058998398861 0.060047533455626502 0 0.899991664607802 0.045289349238254978 0 0.38244435121258652 0.51653317813019495 0 0.42644501560315817 0.54603747078095544 0 0.37272913873093971 0.56192925302619479 0 0.71406021706547751 0.63292083137662503 0 0.71809016091162536 0.58185040402320831 0 0.74994237037456724 0.62775548192980357 0 0.84723782639812573 0.48638347960178252 0 0.86907294890112186 0.52008116128001669 0 0.81441713509985358 0.51161854125224959 0 0.33122374654748771 0.57588941099433744 0 0.33190227185843768 0.52715113583864037 0 0.37272913873093971 0.56192925302619479 0 0.086179601630648681 0.64647209519980475 0 0.1241190223511371 0.64391885572885044 0 0.1020579365089687 0.69352219419301997 0 0.59999999999894682 0 0 0.64999999999907843 0 0 0.61940220174112337 0.047251958781050582 0 0.18269480424590959 0.75905448272264375 0 0.14335651144331049 0.75565258250209677 0 0.15332765547575641 0.71200081858233666 0 0.22549374774072969 0.58452645269293457 0 0.2459498854893499 0.63248470766216769 0 0.19914261668318661 0.62286739485272158 0 0.38244435121258652 0.51653317813019495 0 0.43507373378304309 0.49699695397193322 0 0.42644501560315817 0.54603747078095544 0 0.65000000000104008 1 0 0.60000000000138687 1 0 0.62065498684670595 0.95224934003983619 0 0.078358742472063481 0.43365249433908948 0 0.068743045408989428 0.48853989837882689 0 0.033550201249889847 0.46247875832467239 0 0.2236846579037573 0.67380363126050236 0 0.27820712747429932 0.65530134213254643 0 0.26439878998046262 0.7048065392091396 0 0.6879972333610942 0.43038561374960838 0 0.68128176404677243 0.38629093627004979 0 0.72622533758026719 0.40265885511101601 0 0.72525833953073282 0.1032114801687094 0 0.7010294155333181 0.056779085686491267 0 0.7527966693318906 0.053051678021508272 0 0.18269480424590959 0.75905448272264375 0 0.15332765547575641 0.71200081858233666 0 0.19068556247388771 0.71028988922845504 0 0.1216098864341134 0.50637075089503902 0 0.085622222639554768 0.53333248912060549 0 0.068743045408989428 0.48853989837882689 0 0.25676291524611189 0.7436741304886243 0 0.26439878998046262 0.7048065392091396 0 0.29904318922293632 0.74132814928635593 0 0.65481233915350323 0.35652751921065562 0 0.68128176404677243 0.38629093627004979 0 0.63912439215427275 0.41063340167983359 0 0.83573492347052902 0.36590755630746369 0 0.86844634540301924 0.38530937474099819 0 0.81308179852519835 0.39754945808726527 0 0.27270076654418179 0.87751467830216623 0 0.2401283238295133 0.85648409884788523 0 0.29209212897034281 0.84715728365233667 0 0.84999999999999987 0.69999999999999996 0 0.85491058998424563 0.76004753345552634 0 0.81864958914779962 0.73589050177899629 0 0.84999999999960507 0 0 0.85491058998398861 0.060047533455626502 0 0.81864958914740749 0.035890501779055867 0 0.18381867841758909 0.57774125163628387 0 0.19914261668318661 0.62286739485272158 0 0.15720202157091859 0.60665697304410315 0 0.22549374774072969 0.58452645269293457 0 0.19914261668318661 0.62286739485272158 0 0.18381867841758909 0.57774125163628387 0 0.79680861578988083 0.92656778056766709 0 0.85170973911348691 0.93569607295217616 0 0.81486180804382891 0.96321394949790495 0 0.79680861578956375 0.22656778056752541 0 0.8517097391133297 0.2356960729520409 0 0.81486180804364938 0.26321394949780091 0 0.20050006573841939 0.53248514016039872 0 0.23975172658309729 0.49475499200540818 0 0.25115337790845271 0.54719303014923271 0 0.28307294598219601 0.50789252727458634 0 0.25115337790845271 0.54719303014923271 0 0.23975172658309729 0.49475499200540818 0 0.20050006573841939 0.53248514016039872 0 0.18381867841758909 0.57774125163628387 0 0.14934928745814749 0.55042914607228977 0 0.19922788606653311 0.085920220746880993 0 0.22985637510995899 0.1298347970200906 0 0.18652628422869419 0.14162325200928061 0 0.33758650185219202 0.23837101504325639 0 0.38831533174504851 0.2189834941785925 0 0.3786248352540974 0.27082301512024259 0 0.42377727103934271 0.25099357235810238 0 0.3786248352540974 0.27082301512024259 0 0.38831533174504851 0.2189834941785925 0 0.19922788606653311 0.085920220746880993 0 0.18652628422869419 0.14162325200928061 0 0.16141998738593399 0.10404039647458049 0 0.54782696902220018 0.79245182748204157 0 0.55363780716230748 0.74348740161571747 0 0.59636844454254345 0.75937156204589151 0 0.82709327591091286 0.84937141670920724 0 0.88088768115933802 0.84674609810493673 0 0.85600844944837662 0.88483418979512773 0 0.82709327591102189 0.14937141670914489 0 0.88088768115941807 0.14674609810479519 0 0.85600844944842547 0.1848341897950983 0 0.27866744612395528 0.38416094670951489 0 0.22033343844674469 0.36963382230740238 0 0.25966125648670141 0.34351016742083729 0 0 0.50000000000205869 0 0.033550201249889847 0.46247875832467239 0 0.068743045408989428 0.48853989837882689 0 0.31378396441836959 0.70157213313026345 0 0.36622285152418499 0.69092437780804039 0 0.35415581127540569 0.73730480045900215 0 0.77293540622714185 0.59448302402785813 0 0.71809016091162536 0.58185040402320831 0 0.77151014687832564 0.54436834383023036 0 0.7152569930854884 0.5237994455134295 0 0.69385896817107129 0.48377516041410151 0 0.73947346780852752 0.49062440112282169 0 0.15801167086041079 0.46008690540259539 0 0.191953871957803 0.42546416763755879 0 0.19604738184454831 0.47787523520405789 0 0.57667858002728545 0.078486105337742612 0 0.61940220174112337 0.047251958781050582 0 0.61956000905586006 0.1043312481793135 0 0.65408113592120842 0.073941773121567966 0 0.61956000905586006 0.1043312481793135 0 0.61940220174112337 0.047251958781050582 0 0 0.55000000000173355 0 0 0.50000000000205869 0 0.044576108720083309 0.53509043209532614 0 0.65507451745379841 0.92229208810758578 0 0.62065498684670595 0.95224934003983619 0 0.61885627562261258 0.90282959257498208 0 0.57724883562309992 0.92155686857100794 0 0.61885627562261258 0.90282959257498208 0 0.62065498684670595 0.95224934003983619 0 0.91750694127107502 0.36982372220068471 0 0.86844634540301924 0.38530937474099819 0 0.87430060258887643 0.34056085888204451 0 0.91750694127105259 0.63017627779935648 0 0.87712158428786946 0.65709029563313581 0 0.87159648282691515 0.61285406320581504 0 0.33123028043633618 0.77629643437932982 0 0.29904318922293632 0.74132814928635593 0 0.35415581127540569 0.73730480045900215 0 0.86411095495256451 0.42388805655111889 0 0.84925632466077294 0.45359738909549091 0 0.81973119833356312 0.43505687159469048 0 0.43846182030517877 0.64845797726506715 0 0.47913475093885149 0.66010775372412711 0 0.43323420005758778 0.6913544522562407 0 0.18269480424590959 0.75905448272264375 0 0.19068556247388771 0.71028988922845504 0 0.2248999640082178 0.72584299459689172 0 0.39536230704883951 0.84069429572832477 0 0.38586766253264881 0.78219501014812498 0 0.42609163930740518 0.80361684430568059 0 0.59999999999999976 0.69999999999999996 0 0.63221990677827677 0.73442891067859706 0 0.59636844454254345 0.75937156204589151 0 0.27866744612395528 0.38416094670951489 0 0.24049127783545701 0.41270748208749802 0 0.22033343844674469 0.36963382230740238 0 0.82709327591091286 0.84937141670920724 0 0.84725310900444062 0.80779732082917555 0 0.88088768115933802 0.84674609810493673 0 0.82709327591102189 0.14937141670914489 0 0.84725310900442086 0.10779732082922661 0 0.88088768115941807 0.14674609810479519 0 0.1650278706801647 0.38791388161335733 0 0.18434624290945251 0.35208838264196463 0 0.22033343844674469 0.36963382230740238 0 0.4409427642593301 0.35743108089689513 0 0.49077833859261139 0.35229981449445641 0 0.46655310992796922 0.39650496622958609 0 0.80185942888539485 0.77452061303608133 0 0.81864958914779962 0.73589050177899629 0 0.85491058998424563 0.76004753345552634 0 0.80185942888501827 0.074520613036224564 0 0.81864958914740749 0.035890501779055867 0 0.85491058998398861 0.060047533455626502 0 0.29999999999926641 0 0 0.34999999999912063 0 0 0.32541448401678508 0.046215317981507749 0 0.35000000000145642 1 0 0.30000000000124832 1 0 0.32544832635163229 0.95485394099568932 0 0.4656888918609538 0.78493261229743638 0 0.50731287292894423 0.78963574450233831 0 0.50627822638148745 0.8263979829520941 0 0.2185883431182947 0.18019736283949719 0 0.25557216766470708 0.15874861286892261 0 0.26429849586623999 0.19346700179430079 0 1 0.29999999999999999 0 1 0.34999999999993492 0 0.95780851984364423 0.34215720972155339 0 1 0.29999999999999999 0 0.95780851984364423 0.34215720972155339 0 0.94999999999999996 0.29999999999999999 0 1 0.69999999999999996 0 0.94999999999999996 0.69999999999999996 0 0.9578014258160763 0.65787212321113708 0 1 0.69999999999999996 0 0.9578014258160763 0.65787212321113708 0 1 0.64999999999986979 0 0.91750694127107502 0.36982372220068471 0 0.90594285160987287 0.4141265964174129 0 0.86844634540301924 0.38530937474099819 0 0.91750694127105259 0.63017627779935648 0 0.87159648282691515 0.61285406320581504 0 0.91143117093204207 0.58709913730335972 0 0.74999999999999989 0.69999999999999996 0 0.7750489929959945 0.66593931409600093 0 0.79999999999999982 0.69999999999999996 0 0.74999999999999989 0.29999999999999999 0 0.79999999999999982 0.29999999999999999 0 0.78145581580700685 0.34881365920033602 0 0.54999999999999993 0.69999999999999996 0 0.57484956128872922 0.66573805030881994 0 0.59999999999999976 0.69999999999999996 0 0.90299850604011456 0.79563452813489832 0 0.94399509803918602 0.75600490196082126 0 0.95386563387742829 0.80414874155775029 0 0.90416666666660628 0.9041666666666166 0 0.95391631417670719 0.89584263333814784 0 0.94399509803919068 0.9439950980391687 0 0.90299850604006393 0.09563452813493091 0 0.94399509803922566 0.056004901960802607 0 0.95386563387744361 0.1041487415577465 0 0.90416666666668166 0.20416666666667119 0 0.95391631417672862 0.19584263333809451 0 0.94399509803921056 0.24399509803922639 0 0.22278230690790279 0.44824268025881547 0 0.19604738184454831 0.47787523520405789 0 0.191953871957803 0.42546416763755879 0 0.90299850604011456 0.79563452813489832 0 0.89999166460796554 0.74528934923809909 0 0.94399509803918602 0.75600490196082126 0 0.90299850604006393 0.09563452813493091 0 0.899991664607802 0.045289349238254978 0 0.94399509803922566 0.056004901960802607 0 0.49102375406324739 0.49123754822244059 0 0.47793794143994173 0.52940715638744962 0 0.43507373378304309 0.49699695397193322 0 0.90416666666660628 0.9041666666666166 0 0.94399509803919068 0.9439950980391687 0 0.89898474358632463 0.95391965591118966 0 0.90416666666668166 0.20416666666667119 0 0.94399509803921056 0.24399509803922639 0 0.89898474358614167 0.25391965591104898 0 0.65394964615507722 0.22666784374016369 0 0.62657463266645097 0.26524202571255862 0 0.59814117807200873 0.23398510860739519 0 0.6084546825910605 0.37989672713932537 0 0.63912439215427275 0.41063340167983359 0 0.57744073070774993 0.41535148636609359 0 0.61209567303293111 0.44669033081290321 0 0.57744073070774993 0.41535148636609359 0 0.63912439215427275 0.41063340167983359 0 0.25676291524611189 0.7436741304886243 0 0.22556077506376701 0.77837424984191617 0 0.2248999640082178 0.72584299459689172 0 0.61343887413683884 0.856862479058357 0 0.60294066490120068 0.80851322453934582 0 0.65005442820240822 0.82644988530054031 0 0.64999999999907843 0 0 0.66369801598854572 0.036327466368102787 0 0.61940220174112337 0.047251958781050582 0 0.40326160981139969 0.73346192995102844 0 0.38586766253264881 0.78219501014812498 0 0.35415581127540569 0.73730480045900215 0 0.33123028043633618 0.77629643437932982 0 0.35415581127540569 0.73730480045900215 0 0.38586766253264881 0.78219501014812498 0 0.26573297623774761 0.59828298563722948 0 0.29110487519241501 0.56588143995431495 0 0.31502927232353312 0.6134992213375432 0 0.77846603114747959 0.49850927265137401 0 0.81441713509985358 0.51161854125224959 0 0.77151014687832564 0.54436834383023036 0 0.82862096804812391 0.55037090955459045 0 0.77151014687832564 0.54436834383023036 0 0.81441713509985358 0.51161854125224959 0 0.50000000000205869 1 0 0.45000000000187229 1 0 0.47135117303824892 0.95556877749289892 0 0.44999999999882923 0 0 0.49999999999869432 0 0 0.47040171442036788 0.044141676406503738 0 0 0.7000000000006934 0 0 0.65000000000104008 0 0.046634677244967337 0.671418230738282 0 0 0.35000000000145642 0 0 0.30000000000124832 0 0.046389130980076937 0.32668781832131749 0 0.31378396441836959 0.70157213313026345 0 0.27820712747429932 0.65530134213254643 0 0.32263089806001177 0.66003674931826484 0 0.33122374654748771 0.57588941099433744 0 0.31502927232353312 0.6134992213375432 0 0.29110487519241501 0.56588143995431495 0 0.26573297623774761 0.59828298563722948 0 0.27820712747429932 0.65530134213254643 0 0.2459498854893499 0.63248470766216769 0 0.14474682429600511 0.85524784522713515 0 0.16206583317966519 0.89685560785156404 0 0.1241151115713819 0.9045666525468371 0 0.14332333627550789 0.14578431753966009 0 0.12372429750337779 0.095814237875728972 0 0.16141998738593399 0.10404039647458049 0 0.64753070846764316 0.77332939069435502 0 0.59636844454254345 0.75937156204589151 0 0.63221990677827677 0.73442891067859706 0 0.14474682429600511 0.85524784522713515 0 0.1241151115713819 0.9045666525468371 0 0.10562472963403439 0.87143394428979881 0 0.14332333627550789 0.14578431753966009 0 0.1053400320299198 0.12877248826361379 0 0.12372429750337779 0.095814237875728972 0 0.77354604466818633 0.40378688774472771 0 0.81308179852519835 0.39754945808726527 0 0.81973119833356312 0.43505687159469048 0 0.54782696902220018 0.79245182748204157 0 0.50945740445113552 0.75476055527778108 0 0.55363780716230748 0.74348740161571747 0 0.2236846579037573 0.67380363126050236 0 0.2459498854893499 0.63248470766216769 0 0.27820712747429932 0.65530134213254643 0 0.77293540622714185 0.59448302402785813 0 0.74994237037456724 0.62775548192980357 0 0.71809016091162536 0.58185040402320831 0 0 0.79999999999999982 0 0 0.75000000000034661 0 0.04408157711937423 0.7728941757575627 0 0 0.25000000000104028 0 0 0.20000000000083221 0 0.044081577119474857 0.2271058242433576 0 0.19999999999955789 0 0 0.24999999999941211 0 0 0.22668068146512929 0.045875643423131329 0 0.25000000000104028 1 0 0.20000000000083221 1 0 0.22850979588452081 0.95594428570238643 0 0.47357141910802508 0.1873585799078378 0 0.44288491854585582 0.14116182884956319 0 0.48466639505193998 0.1421439844745814 0 0.59999999999999976 0.29999999999999999 0 0.5794309697024993 0.27124795968204829 0 0.62657463266645097 0.26524202571255862 0 0.43249999999999988 0.43937499999999979 0 0.42161023666869668 0.39493916313643851 0 0.46655310992796922 0.39650496622958609 0 0.31068898841644388 0.47541502461811092 0 0.33190227185843768 0.52715113583864037 0 0.28307294598219601 0.50789252727458634 0 0.35024835142131061 0.48654922671676981 0 0.33190227185843768 0.52715113583864037 0 0.31068898841644388 0.47541502461811092 0 0.35864735590330371 0.63903383440414463 0 0.36622285152418499 0.69092437780804039 0 0.32263089806001177 0.66003674931826484 0 0.31378396441836959 0.70157213313026345 0 0.32263089806001177 0.66003674931826484 0 0.36622285152418499 0.69092437780804039 0 0.86956835336234861 0.571283299838105 0 0.90900154012161016 0.53607784105648792 0 0.91143117093204207 0.58709913730335972 0 0.6499999999999998 0.29999999999999999 0 0.65481233915350323 0.35652751921065562 0 0.61959173890754571 0.33832250091341232 0 0.4409427642593301 0.35743108089689513 0 0.46226845272279993 0.31901800744800313 0 0.49077833859261139 0.35229981449445641 0 0.5 0.29999999999999999 0 0.49077833859261139 0.35229981449445641 0 0.46226845272279993 0.31901800744800313 0 0.14999999999970359 0 0 0.19999999999955789 0 0 0.184418230509967 0.038773194583122873 0 0.20000000000083221 1 0 0.15000000000062411 1 0 0.18474005699953849 0.96231585248064622 0 1 0.49999999999950101 0 1 0.54999999999963112 0 0.95631871884947484 0.51827533208233789 0 0.38586766253264881 0.78219501014812498 0 0.42676259796334498 0.76772545931379299 0 0.42609163930740518 0.80361684430568059 0 0.20050006573841939 0.53248514016039872 0 0.22549374774072969 0.58452645269293457 0 0.18381867841758909 0.57774125163628387 0 0.065374659239661639 0.8551091961254178 0 0.1074251789111534 0.83564394292147814 0 0.10562472963403439 0.87143394428979881 0 0.065374659239632718 0.1448908038746782 0 0.1053400320299198 0.12877248826361379 0 0.106902708054812 0.16453234188234539 0 0.1650278706801647 0.38791388161335733 0 0.14223753364722069 0.3341983344262433 0 0.18434624290945251 0.35208838264196463 0 0.43249999999999988 0.43937499999999979 0 0.46111841286828259 0.46690301029591341 0 0.43507373378304309 0.49699695397193322 0 0.83758014339878906 0.63222013025741819 0 0.81723410853263523 0.59419663659258926 0 0.87159648282691515 0.61285406320581504 0 0.19670163708476801 0.31472518408333222 0 0.18434624290945251 0.35208838264196463 0 0.14223753364722069 0.3341983344262433 0 0.75000000000034661 1 0 0.7250000000005199 0.94981617647078953 0 0.770759834363826 0.95919399014344442 0 0.74999999999999989 0.29999999999999999 0 0.72500000000000064 0.2498161764706 0 0.77075983436335049 0.25919399014334171 0 0.69999999999999984 0.29999999999999999 0 0.67933712972090698 0.25920070958121938 0 0.72500000000000064 0.2498161764706 0 0.57611405284611883 0.50165903596042916 0 0.53330375813596242 0.50827942741749099 0 0.53823865529665704 0.45873898050322898 0 0.6499999999999998 0.29999999999999999 0 0.68887083591306764 0.33632058575757479 0 0.65481233915350323 0.35652751921065562 0 0.27866744612395528 0.38416094670951489 0 0.33277555741076909 0.36432196682010132 0 0.31778888742534622 0.40581751814196781 0 0.49102375406324739 0.49123754822244059 0 0.43507373378304309 0.49699695397193322 0 0.46111841286828259 0.46690301029591341 0 0.94999999999999996 0.69999999999999996 0 0.97166519676947294 0.73337114490064459 0 0.94399509803918602 0.75600490196082126 0 0.94999999999986839 0 0 0.97166519676946894 0.033371144900598393 0 0.94399509803922566 0.056004901960802607 0 0.94999999999999996 0.29999999999999999 0 0.94399509803921056 0.24399509803922639 0 0.97166519676951801 0.26662885509932011 0 0.94999999999979179 1 0 0.94399509803919068 0.9439950980391687 0 0.97166519676946206 0.96662885509935492 0 0.34258405725730701 0.4444034294386992 0 0.29124338931648802 0.43334555462578611 0 0.31778888742534622 0.40581751814196781 0 0.27866744612395528 0.38416094670951489 0 0.31778888742534622 0.40581751814196781 0 0.29124338931648802 0.43334555462578611 0 0.36575549820117997 0.31677992835137742 0 0.33277555741076909 0.36432196682010132 0 0.32752639306529541 0.32610012995269699 0 0.35752321586431363 0.9185439911803448 0 0.32544832635163229 0.95485394099568932 0 0.30864387279288652 0.89906554525974958 0 0.27609987656793722 0.94991445621608572 0 0.30864387279288652 0.89906554525974958 0 0.32544832635163229 0.95485394099568932 0 0.33123028043633618 0.77629643437932982 0 0.30857225866488791 0.81101973481716805 0 0.2792923945214143 0.77665808831789485 0 0.33758650185219202 0.23837101504325639 0 0.29132859388405002 0.27203693976649962 0 0.28040350263641872 0.23054717217092141 0 0.4409427642593301 0.35743108089689513 0 0.41914690343363781 0.30688979866601612 0 0.46226845272279993 0.31901800744800313 0 0.14332333627550789 0.14578431753966009 0 0.13737030665753211 0.20313708640667491 0 0.106902708054812 0.16453234188234539 0 0.083105206071467416 0.20007701332709979 0 0.106902708054812 0.16453234188234539 0 0.13737030665753211 0.20313708640667491 0 0.083105206071452636 0.79992298667296435 0 0.1382744753146134 0.79650574229207483 0 0.1074251789111534 0.83564394292147814 0 0.14474682429600511 0.85524784522713515 0 0.1074251789111534 0.83564394292147814 0 0.1382744753146134 0.79650574229207483 0 0.65408113592120842 0.073941773121567966 0 0.7010294155333181 0.056779085686491267 0 0.68330259535470161 0.10038702501083881 0 0.72525833953073282 0.1032114801687094 0 0.68330259535470161 0.10038702501083881 0 0.7010294155333181 0.056779085686491267 0 0.049706944316475897 0.72477277076253799 0 0.046634677244967337 0.671418230738282 0 0.1020579365089687 0.69352219419301997 0 0.086179601630648681 0.64647209519980475 0 0.1020579365089687 0.69352219419301997 0 0.046634677244967337 0.671418230738282 0 0.087545339447545459 0.35122518864182262 0 0.046389130980076937 0.32668781832131749 0 0.093851963071650835 0.30582068233324772 0 0.049706944316556423 0.27522722923869108 0 0.093851963071650835 0.30582068233324772 0 0.046389130980076937 0.32668781832131749 0 0.82709327591091286 0.84937141670920724 0 0.80041942726660109 0.81543261647703358 0 0.84725310900444062 0.80779732082917555 0 0.82709327591102189 0.14937141670914489 0 0.80076557130237269 0.1154587552654202 0 0.84725310900442086 0.10779732082922661 0 0.17933913398461551 0.2350063570234002 0 0.14377654328998779 0.2442024734791064 0 0.13737030665753211 0.20313708640667491 0 0.18269480424590959 0.75905448272264375 0 0.1382744753146134 0.79650574229207483 0 0.14335651144331049 0.75565258250209677 0 0.33758650185219202 0.23837101504325639 0 0.3786248352540974 0.27082301512024259 0 0.33402499257867951 0.28911035184473982 0 0.14332333627550789 0.14578431753966009 0 0.18124454140915969 0.18790916706335251 0 0.13737030665753211 0.20313708640667491 0 0.14474682429600511 0.85524784522713515 0 0.1382744753146134 0.79650574229207483 0 0.17777405986036951 0.81832336108265358 0 0.5 0.29999999999999999 0 0.52752007115234678 0.33170632466418198 0 0.49077833859261139 0.35229981449445641 0 0.27866744612395528 0.38416094670951489 0 0.29644548887253103 0.34914008784168082 0 0.33277555741076909 0.36432196682010132 0 0 0.84999999999965292 0 0 0.79999999999999982 0 0.038512288486097702 0.8155852717111195 0 0 0.20000000000083221 0 0 0.15000000000062411 0 0.038512288486115001 0.1844147282893184 0 0.40326160981139969 0.73346192995102844 0 0.35415581127540569 0.73730480045900215 0 0.36622285152418499 0.69092437780804039 0 0.91696753777131557 0.497780560203536 0 0.96228564064454991 0.48206450662049471 0 0.95631871884947484 0.51827533208233789 0 0.33758650185219202 0.23837101504325639 0 0.31255190597181792 0.19850845631528771 0 0.3572130504031617 0.1874703368446563 0 0.59814117807200873 0.23398510860739519 0 0.62657463266645097 0.26524202571255862 0 0.5794309697024993 0.27124795968204829 0 0.34258405725730701 0.4444034294386992 0 0.31068898841644388 0.47541502461811092 0 0.29124338931648802 0.43334555462578611 0 0.38083244760691543 0.38531983672244652 0 0.35221190152536241 0.40457127605439203 0 0.33277555741076909 0.36432196682010132 0 0.083411279318375747 0.91030024466934134 0 0.10266856499240549 0.95548163909968886 0 0.053064897599294662 0.95186845269532028 0 0.083411279318303222 0.089699755330707398 0 0.053064897599215843 0.048131547304697528 0 0.10266856499169109 0.044518360900210059 0 0.42377727103934271 0.25099357235810238 0 0.4604742573284204 0.27846934318264788 0 0.41914690343363781 0.30688979866601612 0 0.28307294598219601 0.50789252727458634 0 0.25982634974572738 0.46097799597715272 0 0.31068898841644388 0.47541502461811092 0 0.29348325746214782 0.31350119524708198 0 0.29132859388405002 0.27203693976649962 0 0.33402499257867951 0.28911035184473982 0 0.35312867752657662 0.084946736076730367 0 0.39823268594401579 0.1116623613130045 0 0.36246644853392812 0.1399454205365751 0 0.7000000000006934 1 0 0.68015064798562208 0.95924320340003011 0 0.7250000000005199 0.94981617647078953 0 0.42377727103934271 0.25099357235810238 0 0.38831533174504851 0.2189834941785925 0 0.42905200079338551 0.19982395548231649 0 0.53823865529665704 0.45873898050322898 0 0.57744073070774993 0.41535148636609359 0 0.57975577671020095 0.46172033326338591 0 0.33758650185219202 0.23837101504325639 0 0.3572130504031617 0.1874703368446563 0 0.38831533174504851 0.2189834941785925 0 0.29124338931648802 0.43334555462578611 0 0.31068898841644388 0.47541502461811092 0 0.25982634974572738 0.46097799597715272 0 0.6084546825910605 0.37989672713932537 0 0.61959173890754571 0.33832250091341232 0 0.65481233915350323 0.35652751921065562 0 0.40326160981139969 0.73346192995102844 0 0.43323420005758778 0.6913544522562407 0 0.45582236402875981 0.73896743678908217 0 0.33758650185219202 0.23837101504325639 0 0.28040350263641872 0.23054717217092141 0 0.31255190597181792 0.19850845631528771 0 0.79999999999999982 1 0 0.75000000000034661 1 0 0.770759834363826 0.95919399014344442 0 0.74999999999999989 0.29999999999999999 0 0.77075983436335049 0.25919399014334171 0 0.79999999999999982 0.29999999999999999 0 0.6499999999999998 0.29999999999999999 0 0.67933712972090698 0.25920070958121938 0 0.69999999999999984 0.29999999999999999 0 0.39536230704883951 0.84069429572832477 0 0.39767323751400468 0.89584229130535065 0 0.35864759629805099 0.87963482415279515 0 0.54999999999999993 0.69999999999999996 0 0.52584555706968406 0.66664215091846768 0 0.57484956128872922 0.66573805030881994 0 0.35312867752657662 0.084946736076730367 0 0.32541448401678508 0.046215317981507749 0 0.3615861437013822 0.03582617922508851 0 0.35752321586431363 0.9185439911803448 0 0.36184234618600131 0.96443954459096326 0 0.32544832635163229 0.95485394099568932 0 0.35312867752657662 0.084946736076730367 0 0.3615861437013822 0.03582617922508851 0 0.39591832466117061 0.056982757562006353 0 0.35752321586431363 0.9185439911803448 0 0.39641108128798319 0.94356127926187128 0 0.36184234618600131 0.96443954459096326 0 0.083411279318303222 0.089699755330707398 0 0.044310582753132287 0.101412518374475 0 0.053064897599215843 0.048131547304697528 0 0.083411279318375747 0.91030024466934134 0 0.053064897599294662 0.95186845269532028 0 0.0443105827531413 0.89858748162559932 0 0.38083244760691543 0.38531983672244652 0 0.40076539126862748 0.34589349467022118 0 0.42161023666869668 0.39493916313643851 0 0.4409427642593301 0.35743108089689513 0 0.42161023666869668 0.39493916313643851 0 0.40076539126862748 0.34589349467022118 0 0.79999999999999982 0.29999999999999999 0 0.82500000000000062 0.33010209762754811 0 0.78145581580700685 0.34881365920033602 0 0.79999999999999982 0.69999999999999996 0 0.7750489929959945 0.66593931409600093 0 0.82457059160610424 0.66831947184359608 0 0.59999999999999976 0.69999999999999996 0 0.57484956128872922 0.66573805030881994 0 0.62460753523532009 0.66851202781000296 0 0.74999999999999989 0.69999999999999996 0 0.72500000000000064 0.67022701834392062 0 0.7750489929959945 0.66593931409600093 0 0.74999999999999989 0.29999999999999999 0 0.78145581580700685 0.34881365920033602 0 0.73090396928863699 0.33699297293167962 0 0.33758650185219202 0.23837101504325639 0 0.33402499257867951 0.28911035184473982 0 0.29132859388405002 0.27203693976649962 0 0.36575549820117997 0.31677992835137742 0 0.41914690343363781 0.30688979866601612 0 0.40076539126862748 0.34589349467022118 0 0.4409427642593301 0.35743108089689513 0 0.40076539126862748 0.34589349467022118 0 0.41914690343363781 0.30688979866601612 0 0.34258405725730701 0.4444034294386992 0 0.38707855792647411 0.42299362914874578 0 0.3908716102680424 0.47010282357248828 0 0.7000000000006934 1 0 0.65000000000104008 1 0 0.68015064798562208 0.95924320340003011 0 0.49102375406324739 0.49123754822244059 0 0.46111841286828259 0.46690301029591341 0 0.48858720058566618 0.43964267759203868 0 0.4656888918609538 0.78493261229743638 0 0.42676259796334498 0.76772545931379299 0 0.45582236402875981 0.73896743678908217 0 0.40326160981139969 0.73346192995102844 0 0.45582236402875981 0.73896743678908217 0 0.42676259796334498 0.76772545931379299 0 0.59999999999999976 0.29999999999999999 0 0.62657463266645097 0.26524202571255862 0 0.6499999999999998 0.29999999999999999 0 0.40000000000166441 1 0 0.36184234618600131 0.96443954459096326 0 0.39641108128798319 0.94356127926187128 0 0.3999999999989749 0 0 0.39591832466117061 0.056982757562006353 0 0.3615861437013822 0.03582617922508851 0 0.43249999999999988 0.43937499999999979 0 0.48858720058566618 0.43964267759203868 0 0.46111841286828259 0.46690301029591341 0 0.7250000000005199 0.89375000000045834 0 0.7250000000005199 0.94981617647078953 0 0.68987011941058407 0.92105047536677087 0 0.7250000000005199 0.89375000000045834 0 0.75729602384198635 0.92353652857884294 0 0.7250000000005199 0.94981617647078953 0 0.72500000000001008 0.19776155966387679 0 0.75668890529066124 0.2244279804069782 0 0.72500000000000064 0.2498161764706 0 0.72500000000001008 0.19776155966387679 0 0.72500000000000064 0.2498161764706 0 0.69397719155551807 0.2245125647000914 0 0.79999999999999982 0.29999999999999999 0 0.81486180804364938 0.26321394949780091 0 0.84999999999999987 0.29999999999999999 0 0.84999999999965292 1 0 0.79999999999999982 1 0 0.81486180804382891 0.96321394949790495 0 0.1247745017231483 0.27198077544791172 0 0.095326043202144745 0.24554465089224409 0 0.14377654328998779 0.2442024734791064 0 0.1215415378367805 0.72939333680004137 0 0.14335651144331049 0.75565258250209677 0 0.090953281884486245 0.7564451946902494 0 0.72500000000001008 0.19776155966387679 0 0.72634814642510737 0.16106886917518889 0 0.76587607630038135 0.18880039518954719 0 0.72500000000001008 0.19776155966387679 0 0.6865991819015953 0.189116534044597 0 0.72634814642510737 0.16106886917518889 0 0.77144070960558853 0.14311854477243749 0 0.76587607630038135 0.18880039518954719 0 0.72634814642510737 0.16106886917518889 0 0.68391457121233579 0.14440470121196541 0 0.72634814642510737 0.16106886917518889 0 0.6865991819015953 0.189116534044597 0 0.7250000000005199 0.89375000000045834 0 0.72863726579783861 0.85390518901155588 0 0.76891166905518427 0.88835469571185499 0 0.76901770135486491 0.84293557325473656 0 0.76891166905518427 0.88835469571185499 0 0.72863726579783861 0.85390518901155588 0 0 0.20000000000083221 0 0.038512288486115001 0.1844147282893184 0 0.044081577119474857 0.2271058242433576 0 0 0.79999999999999982 0 0.04408157711937423 0.7728941757575627 0 0.038512288486097702 0.8155852717111195 0 0.52375890611712683 0.059318771819432882 0 0.47881186583059909 0.093591717165689425 0 0.47040171442036788 0.044141676406503738 0 0.52122150208832174 0.94089974453840242 0 0.47135117303824892 0.95556877749289892 0 0.47401147028110507 0.91529957330468115 0 0.27474541102162192 0.11822029332053539 0 0.3096713403101819 0.085471541595262421 0 0.32215584939770009 0.1218492143506909 0 0.22278230690790279 0.44824268025881547 0 0.24049127783545701 0.41270748208749802 0 0.25982634974572738 0.46097799597715272 0 0.93732437411268477 0.55911392101136159 0 0.91143117093204207 0.58709913730335972 0 0.90900154012161016 0.53607784105648792 0 0.19901705110390991 0.9175543425573498 0 0.24536017905392571 0.90704567837671446 0 0.22850979588452081 0.95594428570238643 0 0.27609987656793722 0.94991445621608572 0 0.22850979588452081 0.95594428570238643 0 0.24536017905392571 0.90704567837671446 0 0.15720202157091859 0.60665697304410315 0 0.1241190223511371 0.64391885572885044 0 0.1024350934457823 0.60772393977513839 0 0.6499999999999998 0.69999999999999996 0 0.675261390228442 0.65996937624687813 0 0.69999999999999984 0.69999999999999996 0 0.3999999999989749 0 0 0.4320097814748517 0.037406712692169303 0 0.39591832466117061 0.056982757562006353 0 0.40000000000166441 1 0 0.39641108128798319 0.94356127926187128 0 0.4308986359464303 0.96395712492906194 0 0.54999999999999993 0.29999999999999999 0 0.56836770495988642 0.3523062350852913 0 0.52752007115234678 0.33170632466418198 0 0.14474682429600511 0.85524784522713515 0 0.17777405986036951 0.81832336108265358 0 0.19741632902693801 0.86755867406447229 0 0.21858834311891909 0.81980263716112767 0 0.19741632902693801 0.86755867406447229 0 0.17777405986036951 0.81832336108265358 0 0.54782696902220018 0.79245182748204157 0 0.50731287292894423 0.78963574450233831 0 0.50945740445113552 0.75476055527778108 0 0.20000000000083221 1 0 0.18474005699953849 0.96231585248064622 0 0.22850979588452081 0.95594428570238643 0 0.19999999999955789 0 0 0.22668068146512929 0.045875643423131329 0 0.184418230509967 0.038773194583122873 0 0.77846603114747959 0.49850927265137401 0 0.73947346780852752 0.49062440112282169 0 0.77972660463949339 0.45529290596363098 0 0.73483647259922602 0.44789725365921768 0 0.77972660463949339 0.45529290596363098 0 0.73947346780852752 0.49062440112282169 0 0.34258405725730701 0.4444034294386992 0 0.35024835142131061 0.48654922671676981 0 0.31068898841644388 0.47541502461811092 0 0.33123028043633618 0.77629643437932982 0 0.2792923945214143 0.77665808831789485 0 0.29904318922293632 0.74132814928635593 0 0.26573297623774761 0.59828298563722948 0 0.25115337790845271 0.54719303014923271 0 0.29110487519241501 0.56588143995431495 0 0.4656888918609538 0.78493261229743638 0 0.50945740445113552 0.75476055527778108 0 0.50731287292894423 0.78963574450233831 0 0.35312867752657662 0.084946736076730367 0 0.36246644853392812 0.1399454205365751 0 0.32215584939770009 0.1218492143506909 0 0.29348325746214782 0.31350119524708198 0 0.25966125648670141 0.34351016742083729 0 0.24432083401701241 0.3006253385567515 0 0.59999999999999976 0.69999999999999996 0 0.6499999999999998 0.69999999999999996 0 0.63221990677827677 0.73442891067859706 0 0.69999999999921003 0 0 0.7010294155333181 0.056779085686491267 0 0.66369801598854572 0.036327466368102787 0 0.40000000000166441 1 0 0.35000000000145642 1 0 0.36184234618600131 0.96443954459096326 0 0.34999999999912063 0 0 0.3999999999989749 0 0 0.3615861437013822 0.03582617922508851 0 0.43507373378304309 0.49699695397193322 0 0.47793794143994173 0.52940715638744962 0 0.42644501560315817 0.54603747078095544 0 0.14474682429600511 0.85524784522713515 0 0.19741632902693801 0.86755867406447229 0 0.16206583317966519 0.89685560785156404 0 0.19901705110390991 0.9175543425573498 0 0.16206583317966519 0.89685560785156404 0 0.19741632902693801 0.86755867406447229 0 0.35864735590330371 0.63903383440414463 0 0.3977710372045391 0.65868194622830212 0 0.36622285152418499 0.69092437780804039 0 0.7527966693318906 0.053051678021508272 0 0.7010294155333181 0.056779085686491267 0 0.72683645290270404 0.027797073151180601 0 0.71508799138962864 0.36622814920737751 0 0.72622533758026719 0.40265885511101601 0 0.68128176404677243 0.38629093627004979 0 0.79999999999999982 0.69999999999999996 0 0.84999999999999987 0.69999999999999996 0 0.81864958914779962 0.73589050177899629 0 0.79999999999947335 0 0 0.84999999999960507 0 0 0.81864958914740749 0.035890501779055867 0 0.39536230704883951 0.84069429572832477 0 0.35642984951668422 0.80994399665655703 0 0.38586766253264881 0.78219501014812498 0 0.42377727103934271 0.25099357235810238 0 0.46429753744194407 0.22870891180733599 0 0.4604742573284204 0.27846934318264788 0 0.39801143831225599 0.16651381068160659 0 0.42905200079338551 0.19982395548231649 0 0.38831533174504851 0.2189834941785925 0 0.79999999999999982 1 0 0.770759834363826 0.95919399014344442 0 0.81486180804382891 0.96321394949790495 0 0.79999999999999982 0.29999999999999999 0 0.77075983436335049 0.25919399014334171 0 0.81486180804364938 0.26321394949780091 0 0.25195515620380449 0.25883339815888678 0 0.21049769590865089 0.26857363548218488 0 0.224700362040408 0.22206622194729711 0 0.40326160981139969 0.73346192995102844 0 0.42676259796334498 0.76772545931379299 0 0.38586766253264881 0.78219501014812498 0 0.35312867752657662 0.084946736076730367 0 0.3096713403101819 0.085471541595262421 0 0.32541448401678508 0.046215317981507749 0 0.59999999999999976 0.29999999999999999 0 0.6499999999999998 0.29999999999999999 0 0.61959173890754571 0.33832250091341232 0 0.2185883431182947 0.18019736283949719 0 0.18652628422869419 0.14162325200928061 0 0.22985637510995899 0.1298347970200906 0 0.64999999999907843 0 0 0.69999999999921003 0 0 0.66369801598854572 0.036327466368102787 0 0.27499999999933927 0.060310814194988557 0 0.24218496799700481 0.089025544070598317 0 0.22668068146512929 0.045875643423131329 0 0.19922788606653311 0.085920220746880993 0 0.22668068146512929 0.045875643423131329 0 0.24218496799700481 0.089025544070598317 0 0.65507451745379841 0.92229208810758578 0 0.66412543161245952 0.88015090885499059 0 0.68987011941058407 0.92105047536677087 0 0.049706944316475897 0.72477277076253799 0 0.090953281884486245 0.7564451946902494 0 0.04408157711937423 0.7728941757575627 0 0.083105206071452636 0.79992298667296435 0 0.04408157711937423 0.7728941757575627 0 0.090953281884486245 0.7564451946902494 0 0.083105206071467416 0.20007701332709979 0 0.095326043202144745 0.24554465089224409 0 0.044081577119474857 0.2271058242433576 0 0.049706944316556423 0.27522722923869108 0 0.044081577119474857 0.2271058242433576 0 0.095326043202144745 0.24554465089224409 0 0.36575549820117997 0.31677992835137742 0 0.33402499257867951 0.28911035184473982 0 0.3786248352540974 0.27082301512024259 0 0.53245488764484505 0.55078124999999989 0 0.53330375813596242 0.50827942741749099 0 0.57435499076887508 0.54267261987897775 0 0.57611405284611883 0.50165903596042916 0 0.57435499076887508 0.54267261987897775 0 0.53330375813596242 0.50827942741749099 0 0.6499999999999998 0.29999999999999999 0 0.69999999999999984 0.29999999999999999 0 0.68887083591306764 0.33632058575757479 0 0.57611405284611883 0.50165903596042916 0 0.53823865529665704 0.45873898050322898 0 0.57975577671020095 0.46172033326338591 0 0.7750489929959945 0.66593931409600093 0 0.72500000000000064 0.67022701834392062 0 0.74994237037456724 0.62775548192980357 0 0.78145581580700685 0.34881365920033602 0 0.74764719760526988 0.3719647154012321 0 0.73090396928863699 0.33699297293167962 0 0.3999999999989749 0 0 0.44999999999882923 0 0 0.4320097814748517 0.037406712692169303 0 0.45000000000187229 1 0 0.40000000000166441 1 0 0.4308986359464303 0.96395712492906194 0 0.57484956128872922 0.66573805030881994 0 0.5991018319127801 0.62925360607495295 0 0.62460753523532009 0.66851202781000296 0 0.7750489929959945 0.66593931409600093 0 0.79884539758237771 0.62875045078114233 0 0.82457059160610424 0.66831947184359608 0 0.39801143831225599 0.16651381068160659 0 0.36246644853392812 0.1399454205365751 0 0.39823268594401579 0.1116623613130045 0 0.078358742472063481 0.43365249433908948 0 0.033550201249889847 0.46247875832467239 0 0.035463093262830522 0.42673416072819947 0 0.25676291524611189 0.7436741304886243 0 0.2792923945214143 0.77665808831789485 0 0.22556077506376701 0.77837424984191617 0 0.2236846579037573 0.67380363126050236 0 0.2248999640082178 0.72584299459689172 0 0.19068556247388771 0.71028988922845504 0 0.50715858906372158 0.63295939104129484 0 0.5166924242153631 0.59825134841919447 0 0.5498280205245758 0.6290146943450976 0 0.14618258501891079 0.062070108745602003 0 0.12372429750337779 0.095814237875728972 0 0.10266856499169109 0.044518360900210059 0 0.083411279318303222 0.089699755330707398 0 0.10266856499169109 0.044518360900210059 0 0.12372429750337779 0.095814237875728972 0 0.083411279318375747 0.91030024466934134 0 0.1241151115713819 0.9045666525468371 0 0.10266856499240549 0.95548163909968886 0 0.14617343800780541 0.93808063414349496 0 0.10266856499240549 0.95548163909968886 0 0.1241151115713819 0.9045666525468371 0 0.5499999999988151 0 0 0.59999999999894682 0 0 0.57396793757665954 0.037011367187645222 0 0.54782696902220018 0.79245182748204157 0 0.50627822638148745 0.8263979829520941 0 0.50731287292894423 0.78963574450233831 0 0.6499999999999998 0.29999999999999999 0 0.62657463266645097 0.26524202571255862 0 0.67933712972090698 0.25920070958121938 0 0.86956835336234861 0.571283299838105 0 0.86907294890112186 0.52008116128001669 0 0.90900154012161016 0.53607784105648792 0 0.17933913398461551 0.2350063570234002 0 0.224700362040408 0.22206622194729711 0 0.21049769590865089 0.26857363548218488 0 0.43249999999999988 0.43937499999999979 0 0.3908716102680424 0.47010282357248828 0 0.38707855792647411 0.42299362914874578 0 0.27474541102162192 0.11822029332053539 0 0.22985637510995899 0.1298347970200906 0 0.24218496799700481 0.089025544070598317 0 0.64753070846764316 0.77332939069435502 0 0.66427993341343905 0.73232764502436276 0 0.6916490518212759 0.75387992374886192 0 0 0.40000000000166441 0 0.050583896093752537 0.38543522283434112 0 0.035463093262830522 0.42673416072819947 0 0.73483647259922602 0.44789725365921768 0 0.73947346780852752 0.49062440112282169 0 0.69385896817107129 0.48377516041410151 0 0.57484956128872922 0.66573805030881994 0 0.52584555706968406 0.66664215091846768 0 0.5498280205245758 0.6290146943450976 0 0.60000000000138687 1 0 0.55000000000173355 1 0 0.57382506491224949 0.9629411906298494 0 0.068743045408989428 0.48853989837882689 0 0.085622222639554768 0.53333248912060549 0 0.044576108720083309 0.53509043209532614 0 0.083105206071467416 0.20007701332709979 0 0.044081577119474857 0.2271058242433576 0 0.038512288486115001 0.1844147282893184 0 0.083105206071452636 0.79992298667296435 0 0.038512288486097702 0.8155852717111195 0 0.04408157711937423 0.7728941757575627 0 0.28307294598219601 0.50789252727458634 0 0.23975172658309729 0.49475499200540818 0 0.25982634974572738 0.46097799597715272 0 0.43698630808430822 0.080423614171545449 0 0.39591832466117061 0.056982757562006353 0 0.4320097814748517 0.037406712692169303 0 0.4367309254023824 0.92065556789053882 0 0.4308986359464303 0.96395712492906194 0 0.39641108128798319 0.94356127926187128 0 0.80185942888539485 0.77452061303608133 0 0.75841349681148107 0.75422312624214749 0 0.78578450296893509 0.73292684821144505 0 0.80185942888501827 0.074520613036224564 0 0.7527966693318906 0.053051678021508272 0 0.78393852574753176 0.032039079577822822 0 0.6499999999999998 0.69999999999999996 0 0.62460753523532009 0.66851202781000296 0 0.675261390228442 0.65996937624687813 0 0.33123028043633618 0.77629643437932982 0 0.38586766253264881 0.78219501014812498 0 0.35642984951668422 0.80994399665655703 0 0.6405463747586706 0.63290524857395714 0 0.675261390228442 0.65996937624687813 0 0.62460753523532009 0.66851202781000296 0 0.22278230690790279 0.44824268025881547 0 0.191953871957803 0.42546416763755879 0 0.24049127783545701 0.41270748208749802 0 0.077693244765132896 0.56932317963405099 0 0.050069554451969707 0.61308520079857043 0 0.034381862692950467 0.57372682250960894 0 0.25195515620380449 0.25883339815888678 0 0.24432083401701241 0.3006253385567515 0 0.21049769590865089 0.26857363548218488 0 0.46666084890304671 0.57634471035397938 0 0.5166924242153631 0.59825134841919447 0 0.47095389620662098 0.61892551373708504 0 0.50715858906372158 0.63295939104129484 0 0.47095389620662098 0.61892551373708504 0 0.5166924242153631 0.59825134841919447 0 0.72525833953073282 0.1032114801687094 0 0.7527966693318906 0.053051678021508272 0 0.76878382444651716 0.097147941686331368 0 0.80185942888501827 0.074520613036224564 0 0.76878382444651716 0.097147941686331368 0 0.7527966693318906 0.053051678021508272 0 0.72500000000000064 0.7952620967744265 0 0.75841349681148107 0.75422312624214749 0 0.77094201086366854 0.79647480515688507 0 0.80185942888539485 0.77452061303608133 0 0.77094201086366854 0.79647480515688507 0 0.75841349681148107 0.75422312624214749 0 0.72500000000000064 0.7952620967744265 0 0.68024162096458085 0.79868546898116533 0 0.6916490518212759 0.75387992374886192 0 0.64753070846764316 0.77332939069435502 0 0.6916490518212759 0.75387992374886192 0 0.68024162096458085 0.79868546898116533 0 0 0.50000000000205869 0 0 0.45000000000187229 0 0.033550201249889847 0.46247875832467239 0 0.69999999999999984 0.69999999999999996 0 0.675261390228442 0.65996937624687813 0 0.72500000000000064 0.67022701834392062 0 0.71406021706547751 0.63292083137662503 0 0.72500000000000064 0.67022701834392062 0 0.675261390228442 0.65996937624687813 0 0.65408113592120842 0.073941773121567966 0 0.61940220174112337 0.047251958781050582 0 0.66369801598854572 0.036327466368102787 0 0.59999999999894682 0 0 0.61940220174112337 0.047251958781050582 0 0.57396793757665954 0.037011367187645222 0 0.60000000000138687 1 0 0.57382506491224949 0.9629411906298494 0 0.62065498684670595 0.95224934003983619 0 0.33122374654748771 0.57588941099433744 0 0.35765792684946668 0.6000687869219653 0 0.31502927232353312 0.6134992213375432 0 0.35864735590330371 0.63903383440414463 0 0.31502927232353312 0.6134992213375432 0 0.35765792684946668 0.6000687869219653 0 0.15801167086041079 0.46008690540259539 0 0.19604738184454831 0.47787523520405789 0 0.16618607197337229 0.50652878253548905 0 0.078358742472063481 0.43365249433908948 0 0.035463093262830522 0.42673416072819947 0 0.050583896093752537 0.38543522283434112 0 0.19901705110390991 0.9175543425573498 0 0.22850979588452081 0.95594428570238643 0 0.18474005699953849 0.96231585248064622 0 0.19922788606653311 0.085920220746880993 0 0.184418230509967 0.038773194583122873 0 0.22668068146512929 0.045875643423131329 0 0.19922788606653311 0.085920220746880993 0 0.24218496799700481 0.089025544070598317 0 0.22985637510995899 0.1298347970200906 0 0.74999999999999989 0.69999999999999996 0 0.78578450296893509 0.73292684821144505 0 0.75841349681148107 0.75422312624214749 0 0.74999999999934175 0 0 0.78393852574753176 0.032039079577822822 0 0.7527966693318906 0.053051678021508272 0 0 0.60000000000138687 0 0.034381862692950467 0.57372682250960894 0 0.050069554451969707 0.61308520079857043 0 0.2236846579037573 0.67380363126050236 0 0.26439878998046262 0.7048065392091396 0 0.2248999640082178 0.72584299459689172 0 0.6236733212988993 0.14864538214901801 0 0.58516465772821369 0.11653801664834119 0 0.61956000905586006 0.1043312481793135 0 0.26104540868854792 0.81401944968719064 0 0.2792923945214143 0.77665808831789485 0 0.30857225866488791 0.81101973481716805 0 0.42377727103934271 0.25099357235810238 0 0.42905200079338551 0.19982395548231649 0 0.46429753744194407 0.22870891180733599 0 0.27820712747429932 0.65530134213254643 0 0.31502927232353312 0.6134992213375432 0 0.32263089806001177 0.66003674931826484 0 0.61343887413683884 0.856862479058357 0 0.61885627562261258 0.90282959257498208 0 0.5832743223239254 0.88483152652961872 0 0.43698630808430822 0.080423614171545449 0 0.47040171442036788 0.044141676406503738 0 0.47881186583059909 0.093591717165689425 0 0.4367309254023824 0.92065556789053882 0 0.47401147028110507 0.91529957330468115 0 0.47135117303824892 0.95556877749289892 0 0.91696753777131557 0.497780560203536 0 0.95631871884947484 0.51827533208233789 0 0.90900154012161016 0.53607784105648792 0 0.93732437411268477 0.55911392101136159 0 0.90900154012161016 0.53607784105648792 0 0.95631871884947484 0.51827533208233789 0 0.27474541102162192 0.11822029332053539 0 0.25557216766470708 0.15874861286892261 0 0.22985637510995899 0.1298347970200906 0 0.2185883431182947 0.18019736283949719 0 0.22985637510995899 0.1298347970200906 0 0.25557216766470708 0.15874861286892261 0 0.29348325746214782 0.31350119524708198 0 0.33402499257867951 0.28911035184473982 0 0.32752639306529541 0.32610012995269699 0 0.27499999999933927 0.060310814194988557 0 0.32541448401678508 0.046215317981507749 0 0.3096713403101819 0.085471541595262421 0 0.27270076654418179 0.87751467830216623 0 0.24536017905392571 0.90704567837671446 0 0.2401283238295133 0.85648409884788523 0 1 0.44999999999963131 0 1 0.49999999999950101 0 0.96228564064454991 0.48206450662049471 0 0.61343887413683884 0.856862479058357 0 0.66412543161245952 0.88015090885499059 0 0.61885627562261258 0.90282959257498208 0 0 0.45000000000187229 0 0 0.40000000000166441 0 0.035463093262830522 0.42673416072819947 0 0.69999999999999984 0.69999999999999996 0 0.6916490518212759 0.75387992374886192 0 0.66427993341343905 0.73232764502436276 0 0.43846182030517877 0.64845797726506715 0 0.43323420005758778 0.6913544522562407 0 0.3977710372045391 0.65868194622830212 0 0.4367309254023824 0.92065556789053882 0 0.44003836461056539 0.88093474584252718 0 0.47401147028110507 0.91529957330468115 0 0.43846182030517877 0.64845797726506715 0 0.39743091024207589 0.6239520004230239 0 0.43545892161006339 0.61093128915313821 0 0.43846182030517877 0.64845797726506715 0 0.3977710372045391 0.65868194622830212 0 0.39743091024207589 0.6239520004230239 0 0.26429849586623999 0.19346700179430079 0 0.29336099386129338 0.15892013001050981 0 0.31255190597181792 0.19850845631528771 0 0.19670163708476801 0.31472518408333222 0 0.21049769590865089 0.26857363548218488 0 0.24432083401701241 0.3006253385567515 0 0.57724883562309992 0.92155686857100794 0 0.62065498684670595 0.95224934003983619 0 0.57382506491224949 0.9629411906298494 0 0.4409427642593301 0.35743108089689513 0 0.46655310992796922 0.39650496622958609 0 0.42161023666869668 0.39493916313643851 0 0.46666084890304671 0.57634471035397938 0 0.47095389620662098 0.61892551373708504 0 0.43545892161006339 0.61093128915313821 0 0.6879972333610942 0.43038561374960838 0 0.65178832218679827 0.45929119821019959 0 0.63912439215427275 0.41063340167983359 0 0.43698630808430822 0.080423614171545449 0 0.4320097814748517 0.037406712692169303 0 0.47040171442036788 0.044141676406503738 0 0.4367309254023824 0.92065556789053882 0 0.47135117303824892 0.95556877749289892 0 0.4308986359464303 0.96395712492906194 0 0.79680861578988083 0.92656778056766709 0 0.81486180804382891 0.96321394949790495 0 0.770759834363826 0.95919399014344442 0 0.79680861578956375 0.22656778056752541 0 0.81486180804364938 0.26321394949780091 0 0.77075983436335049 0.25919399014334171 0 0.71508799138962864 0.36622814920737751 0 0.68128176404677243 0.38629093627004979 0 0.68887083591306764 0.33632058575757479 0 0.35864735590330371 0.63903383440414463 0 0.32263089806001177 0.66003674931826484 0 0.31502927232353312 0.6134992213375432 0 0.21858834311891909 0.81980263716112767 0 0.2401283238295133 0.85648409884788523 0 0.19741632902693801 0.86755867406447229 0 0.35312867752657662 0.084946736076730367 0 0.32215584939770009 0.1218492143506909 0 0.3096713403101819 0.085471541595262421 0 0.35752321586431363 0.9185439911803448 0 0.35864759629805099 0.87963482415279515 0 0.39767323751400468 0.89584229130535065 0 0.41914690343363781 0.30688979866601612 0 0.4604742573284204 0.27846934318264788 0 0.46226845272279993 0.31901800744800313 0 0.33084213324567391 0.16272720141332131 0 0.32215584939770009 0.1218492143506909 0 0.36246644853392812 0.1399454205365751 0 0.46666084890304671 0.57634471035397938 0 0.42644501560315817 0.54603747078095544 0 0.47793794143994173 0.52940715638744962 0 0 0.60000000000138687 0 0 0.55000000000173355 0 0.034381862692950467 0.57372682250960894 0 0.77354604466818633 0.40378688774472771 0 0.74764719760526988 0.3719647154012321 0 0.78145581580700685 0.34881365920033602 0 0.34999999999912063 0 0 0.3615861437013822 0.03582617922508851 0 0.32541448401678508 0.046215317981507749 0 0.35000000000145642 1 0 0.32544832635163229 0.95485394099568932 0 0.36184234618600131 0.96443954459096326 0 0.57667858002728545 0.078486105337742612 0 0.57396793757665954 0.037011367187645222 0 0.61940220174112337 0.047251958781050582 0 0.47357141910802508 0.1873585799078378 0 0.50760557329222289 0.20700468884612061 0 0.46429753744194407 0.22870891180733599 0 0.49695729691142171 0.25014895411178018 0 0.46429753744194407 0.22870891180733599 0 0.50760557329222289 0.20700468884612061 0 0.33084213324567391 0.16272720141332131 0 0.3572130504031617 0.1874703368446563 0 0.31255190597181792 0.19850845631528771 0 0.6879972333610942 0.43038561374960838 0 0.63912439215427275 0.41063340167983359 0 0.68128176404677243 0.38629093627004979 0 0.65408113592120842 0.073941773121567966 0 0.65290632656860115 0.11434202593454081 0 0.61956000905586006 0.1043312481793135 0 0.33084213324567391 0.16272720141332131 0 0.31255190597181792 0.19850845631528771 0 0.29336099386129338 0.15892013001050981 0 0.61209567303293111 0.44669033081290321 0 0.63912439215427275 0.41063340167983359 0 0.65178832218679827 0.45929119821019959 0 0.086179601630648681 0.64647209519980475 0 0.1024350934457823 0.60772393977513839 0 0.1241190223511371 0.64391885572885044 0 0.44999999999882923 0 0 0.47040171442036788 0.044141676406503738 0 0.4320097814748517 0.037406712692169303 0 0.45000000000187229 1 0 0.4308986359464303 0.96395712492906194 0 0.47135117303824892 0.95556877749289892 0 0.74999999999934175 0 0 0.7527966693318906 0.053051678021508272 0 0.72683645290270404 0.027797073151180601 0 0.74999999999999989 0.69999999999999996 0 0.75841349681148107 0.75422312624214749 0 0.72501250972655151 0.74067302935308721 0 0.69999999999999984 0.69999999999999996 0 0.72501250972655151 0.74067302935308721 0 0.6916490518212759 0.75387992374886192 0 0.74999999999934175 0 0 0.79999999999947335 0 0 0.78393852574753176 0.032039079577822822 0 0.74999999999999989 0.69999999999999996 0 0.79999999999999982 0.69999999999999996 0 0.78578450296893509 0.73292684821144505 0 0.6405463747586706 0.63290524857395714 0 0.5991018319127801 0.62925360607495295 0 0.63065402604362242 0.59661356661633302 0 0.65481233915350323 0.35652751921065562 0 0.68887083591306764 0.33632058575757479 0 0.68128176404677243 0.38629093627004979 0 0.89999999999999991 0.29999999999999999 0 0.94999999999999996 0.29999999999999999 0 0.92012390126144183 0.33123581297173937 0 0.89999999999999991 0.69999999999999996 0 0.92057473616084773 0.66770436535372446 0 0.94999999999999996 0.69999999999999996 0 0.4367309254023824 0.92065556789053882 0 0.39767323751400468 0.89584229130535065 0 0.44003836461056539 0.88093474584252718 0 0.2185883431182947 0.18019736283949719 0 0.18124454140915969 0.18790916706335251 0 0.18652628422869419 0.14162325200928061 0 0.20050006573841939 0.53248514016039872 0 0.19604738184454831 0.47787523520405789 0 0.23975172658309729 0.49475499200540818 0 0.65507451745379841 0.92229208810758578 0 0.61885627562261258 0.90282959257498208 0 0.66412543161245952 0.88015090885499059 0 0.65394964615507722 0.22666784374016369 0 0.67933712972090698 0.25920070958121938 0 0.62657463266645097 0.26524202571255862 0 0.077693244765132896 0.56932317963405099 0 0.034381862692950467 0.57372682250960894 0 0.044576108720083309 0.53509043209532614 0 0.39801143831225599 0.16651381068160659 0 0.38831533174504851 0.2189834941785925 0 0.3572130504031617 0.1874703368446563 0 0.6499999999999998 0.69999999999999996 0 0.69999999999999984 0.69999999999999996 0 0.66427993341343905 0.73232764502436276 0 0.1215415378367805 0.72939333680004137 0 0.15332765547575641 0.71200081858233666 0 0.14335651144331049 0.75565258250209677 0 0.6405463747586706 0.63290524857395714 0 0.63065402604362242 0.59661356661633302 0 0.67529834988829951 0.61613270668143583 0 0.67323294229744413 0.57556450033612505 0 0.67529834988829951 0.61613270668143583 0 0.63065402604362242 0.59661356661633302 0 0.91750694127107502 0.36982372220068471 0 0.87430060258887643 0.34056085888204451 0 0.92012390126144183 0.33123581297173937 0 0.89999999999999991 0.29999999999999999 0 0.92012390126144183 0.33123581297173937 0 0.87430060258887643 0.34056085888204451 0 0.89999999999999991 0.69999999999999996 0 0.87712158428786946 0.65709029563313581 0 0.92057473616084773 0.66770436535372446 0 0.91750694127105259 0.63017627779935648 0 0.92057473616084773 0.66770436535372446 0 0.87712158428786946 0.65709029563313581 0 0.33122374654748771 0.57588941099433744 0 0.29110487519241501 0.56588143995431495 0 0.33190227185843768 0.52715113583864037 0 0.57484956128872922 0.66573805030881994 0 0.5498280205245758 0.6290146943450976 0 0.5991018319127801 0.62925360607495295 0 0.57412547362576272 0.58273804879550706 0 0.5991018319127801 0.62925360607495295 0 0.5498280205245758 0.6290146943450976 0 0.65408113592120842 0.073941773121567966 0 0.66369801598854572 0.036327466368102787 0 0.7010294155333181 0.056779085686491267 0 0.27474541102162192 0.11822029332053539 0 0.32215584939770009 0.1218492143506909 0 0.29336099386129338 0.15892013001050981 0 0.33084213324567391 0.16272720141332131 0 0.29336099386129338 0.15892013001050981 0 0.32215584939770009 0.1218492143506909 0 0.5 0.29999999999999999 0 0.54999999999999993 0.29999999999999999 0 0.52752007115234678 0.33170632466418198 0 0.83573492347052902 0.36590755630746369 0 0.87430060258887643 0.34056085888204451 0 0.86844634540301924 0.38530937474099819 0 0.83758014339878906 0.63222013025741819 0 0.87159648282691515 0.61285406320581504 0 0.87712158428786946 0.65709029563313581 0 0.22278230690790279 0.44824268025881547 0 0.23975172658309729 0.49475499200540818 0 0.19604738184454831 0.47787523520405789 0 1 0.49999999999950101 0 0.95631871884947484 0.51827533208233789 0 0.96228564064454991 0.48206450662049471 0 0.1650278706801647 0.38791388161335733 0 0.13773355295499351 0.42497777642586831 0 0.1117088112799664 0.38831403004970022 0 0.61209567303293111 0.44669033081290321 0 0.57975577671020095 0.46172033326338591 0 0.57744073070774993 0.41535148636609359 0 0.077693244765132896 0.56932317963405099 0 0.1154888278694548 0.56733818459978413 0 0.1024350934457823 0.60772393977513839 0 0.68697391633157634 0.84450604838764298 0 0.65005442820240822 0.82644988530054031 0 0.68024162096458085 0.79868546898116533 0 0.76901770135486491 0.84293557325473656 0 0.77094201086366854 0.79647480515688507 0 0.80041942726660109 0.81543261647703358 0 0.77144070960558853 0.14311854477243749 0 0.76878382444651716 0.097147941686331368 0 0.80076557130237269 0.1154587552654202 0 0.5 0.69999999999999996 0 0.52584555706968406 0.66664215091846768 0 0.54999999999999993 0.69999999999999996 0 0.077693244765132896 0.56932317963405099 0 0.044576108720083309 0.53509043209532614 0 0.085622222639554768 0.53333248912060549 0 0.69999999999921003 0 0 0.72683645290270404 0.027797073151180601 0 0.7010294155333181 0.056779085686491267 0 1 0 0 0.97166519676946894 0.033371144900598393 0 0.94999999999986839 0 0 1 0.69999999999999996 0 0.97166519676947294 0.73337114490064459 0 0.94999999999999996 0.69999999999999996 0 1 0.69999999999999996 0 1 0.74999999999993494 0 0.97166519676947294 0.73337114490064459 0 1 0.29999999999999999 0 0.97166519676951801 0.26662885509932011 0 1 0.24999999999987299 0 1 1 0 0.94999999999979179 1 0 0.97166519676946206 0.96662885509935492 0 1 0 0 1 0.049999999999896842 0 0.97166519676946894 0.033371144900598393 0 1 0.29999999999999999 0 0.94999999999999996 0.29999999999999999 0 0.97166519676951801 0.26662885509932011 0 1 1 0 0.97166519676946206 0.96662885509935492 0 1 0.94999999999997109 0 0 0.55000000000173355 0 0.044576108720083309 0.53509043209532614 0 0.034381862692950467 0.57372682250960894 0 0.6879972333610942 0.43038561374960838 0 0.69385896817107129 0.48377516041410151 0 0.65178832218679827 0.45929119821019959 0 0.33084213324567391 0.16272720141332131 0 0.36246644853392812 0.1399454205365751 0 0.3572130504031617 0.1874703368446563 0 0.65408113592120842 0.073941773121567966 0 0.68330259535470161 0.10038702501083881 0 0.65290632656860115 0.11434202593454081 0 0.16500388252850301 0.66612077714085194 0 0.19068556247388771 0.71028988922845504 0 0.15332765547575641 0.71200081858233666 0 0.82709327591091286 0.84937141670920724 0 0.85600844944837662 0.88483418979512773 0 0.81159157511211755 0.88795995483179491 0 0.82709327591102189 0.14937141670914489 0 0.85600844944842547 0.1848341897950983 0 0.81283102246527783 0.1881007222486438 0 0.79999999999999982 0.29999999999999999 0 0.84999999999999987 0.29999999999999999 0 0.82500000000000062 0.33010209762754811 0 0.79999999999999982 0.69999999999999996 0 0.82457059160610424 0.66831947184359608 0 0.84999999999999987 0.69999999999999996 0 0.59999999999999976 0.69999999999999996 0 0.62460753523532009 0.66851202781000296 0 0.6499999999999998 0.69999999999999996 0 0.39801143831225599 0.16651381068160659 0 0.3572130504031617 0.1874703368446563 0 0.36246644853392812 0.1399454205365751 0 0.69999999999999984 0.29999999999999999 0 0.74999999999999989 0.29999999999999999 0 0.73090396928863699 0.33699297293167962 0 0.69999999999999984 0.69999999999999996 0 0.72500000000000064 0.67022701834392062 0 0.74999999999999989 0.69999999999999996 0 0.6236733212988993 0.14864538214901801 0 0.64011864159029941 0.18789607982138171 0 0.59443395090188023 0.18455690917515069 0 0.20050006573841939 0.53248514016039872 0 0.16618607197337229 0.50652878253548905 0 0.19604738184454831 0.47787523520405789 0 0.79680861578956375 0.22656778056752541 0 0.76587607630038135 0.18880039518954719 0 0.81283102246527783 0.1881007222486438 0 0.79680861578988083 0.92656778056766709 0 0.76891166905518427 0.88835469571185499 0 0.81159157511211755 0.88795995483179491 0 0.71406021706547751 0.63292083137662503 0 0.675261390228442 0.65996937624687813 0 0.67529834988829951 0.61613270668143583 0 0.6405463747586706 0.63290524857395714 0 0.67529834988829951 0.61613270668143583 0 0.675261390228442 0.65996937624687813 0 0.19670163708476801 0.31472518408333222 0 0.168349569971391 0.28054490850913671 0 0.21049769590865089 0.26857363548218488 0 0.47357141910802508 0.1873585799078378 0 0.46429753744194407 0.22870891180733599 0 0.42905200079338551 0.19982395548231649 0 0.59814117807200873 0.23398510860739519 0 0.5794309697024993 0.27124795968204829 0 0.54248833945060504 0.2520322959927106 0 0.6541250972820879 0.49999999999999989 0 0.65178832218679827 0.45929119821019959 0 0.69385896817107129 0.48377516041410151 0 0.54999999999999993 0.29999999999999999 0 0.5794309697024993 0.27124795968204829 0 0.59999999999999976 0.29999999999999999 0 0.7750489929959945 0.66593931409600093 0 0.74994237037456724 0.62775548192980357 0 0.79884539758237771 0.62875045078114233 0 0.77293540622714185 0.59448302402785813 0 0.79884539758237771 0.62875045078114233 0 0.74994237037456724 0.62775548192980357 0 0.14332333627550789 0.14578431753966009 0 0.16141998738593399 0.10404039647458049 0 0.18652628422869419 0.14162325200928061 0 0.38083244760691543 0.38531983672244652 0 0.42161023666869668 0.39493916313643851 0 0.38707855792647411 0.42299362914874578 0 0.43249999999999988 0.43937499999999979 0 0.38707855792647411 0.42299362914874578 0 0.42161023666869668 0.39493916313643851 0 0.43846182030517877 0.64845797726506715 0 0.47095389620662098 0.61892551373708504 0 0.47913475093885149 0.66010775372412711 0 0.50715858906372158 0.63295939104129484 0 0.47913475093885149 0.66010775372412711 0 0.47095389620662098 0.61892551373708504 0 0.69999999999999984 0.69999999999999996 0 0.74999999999999989 0.69999999999999996 0 0.72501250972655151 0.74067302935308721 0 0.4089290844030305 0.58728915500154233 0 0.35765792684946668 0.6000687869219653 0 0.37272913873093971 0.56192925302619479 0 0.69999999999921003 0 0 0.74999999999934175 0 0 0.72683645290270404 0.027797073151180601 0 0.17933913398461551 0.2350063570234002 0 0.21049769590865089 0.26857363548218488 0 0.168349569971391 0.28054490850913671 0 0.14474682429600511 0.85524784522713515 0 0.10562472963403439 0.87143394428979881 0 0.1074251789111534 0.83564394292147814 0 0.14332333627550789 0.14578431753966009 0 0.106902708054812 0.16453234188234539 0 0.1053400320299198 0.12877248826361379 0 0.2236846579037573 0.67380363126050236 0 0.19914261668318661 0.62286739485272158 0 0.2459498854893499 0.63248470766216769 0 0.049999999999899652 0 0 0.053064897599215843 0.048131547304697528 0 0.02576622439977887 0.024532886826226379 0 0 0.050000000000207989 0 0.02576622439977887 0.024532886826226379 0 0.053064897599215843 0.048131547304697528 0 0.050000000000207989 1 0 0.025766224399875661 0.97546711317377799 0 0.053064897599294662 0.95186845269532028 0 0 0.94999999999979179 0 0.053064897599294662 0.95186845269532028 0 0.025766224399875661 0.97546711317377799 0 0.47357141910802508 0.1873585799078378 0 0.48466639505193998 0.1421439844745814 0 0.51729576145820033 0.1683240575987815 0 0.077693244765132896 0.56932317963405099 0 0.085622222639554768 0.53333248912060549 0 0.1154888278694548 0.56733818459978413 0 0.64753070846764316 0.77332939069435502 0 0.63221990677827677 0.73442891067859706 0 0.66427993341343905 0.73232764502436276 0 0.4656888918609538 0.78493261229743638 0 0.42609163930740518 0.80361684430568059 0 0.42676259796334498 0.76772545931379299 0 0.4089290844030305 0.58728915500154233 0 0.39743091024207589 0.6239520004230239 0 0.35765792684946668 0.6000687869219653 0 0.55306006949600994 0.20198184231352201 0 0.50760557329222289 0.20700468884612061 0 0.51729576145820033 0.1683240575987815 0 1 0.8999999999998336 0 1 0.94999999999997109 0 0.97435614836744289 0.92499999999990257 0 1 0.19999999999974799 0 1 0.24999999999987299 0 0.97435614836740092 0.22499999999981049 0 1 0.74999999999993494 0 1 0.7999999999998193 0 0.97435614836745565 0.77499999999987745 0 1 0.049999999999896842 0 1 0.099999999999753911 0 0.97435614836748241 0.074999999999825387 0 0.86411095495256451 0.42388805655111889 0 0.86844634540301924 0.38530937474099819 0 0.90594285160987287 0.4141265964174129 0 0.86956835336234861 0.571283299838105 0 0.91143117093204207 0.58709913730335972 0 0.87159648282691515 0.61285406320581504 0 0 0 0 0.02576622439977887 0.024532886826226379 0 0 0.050000000000207989 0 0 1 0 0 0.94999999999979179 0 0.025766224399875661 0.97546711317377799 0 0 1 0 0.025766224399875661 0.97546711317377799 0 0.050000000000207989 1 0 0 0 0 0.049999999999899652 0 0 0.02576622439977887 0.024532886826226379 0 0.65394964615507722 0.22666784374016369 0 0.64011864159029941 0.18789607982138171 0 0.6865991819015953 0.189116534044597 0 0.25195515620380449 0.25883339815888678 0 0.28040350263641872 0.23054717217092141 0 0.29132859388405002 0.27203693976649962 0 0.61209567303293111 0.44669033081290321 0 0.65178832218679827 0.45929119821019959 0 0.61547661924074692 0.48539576058873962 0 0.6541250972820879 0.49999999999999989 0 0.61547661924074692 0.48539576058873962 0 0.65178832218679827 0.45929119821019959 0 0.19670163708476801 0.31472518408333222 0 0.24432083401701241 0.3006253385567515 0 0.22615676742807109 0.33458786033114157 0 0.15801167086041079 0.46008690540259539 0 0.13773355295499351 0.42497777642586831 0 0.191953871957803 0.42546416763755879 0 0.1650278706801647 0.38791388161335733 0 0.191953871957803 0.42546416763755879 0 0.13773355295499351 0.42497777642586831 0 0.50715858906372158 0.63295939104129484 0 0.52584555706968406 0.66664215091846768 0 0.47913475093885149 0.66010775372412711 0 0.5 0.69999999999999996 0 0.47913475093885149 0.66010775372412711 0 0.52584555706968406 0.66664215091846768 0 0.51076801031701946 0.1202837388510348 0 0.51729576145820033 0.1683240575987815 0 0.48466639505193998 0.1421439844745814 0 0.71406021706547751 0.63292083137662503 0 0.74994237037456724 0.62775548192980357 0 0.72500000000000064 0.67022701834392062 0 0.71508799138962864 0.36622814920737751 0 0.73090396928863699 0.33699297293167962 0 0.74764719760526988 0.3719647154012321 0 0.22278230690790279 0.44824268025881547 0 0.25982634974572738 0.46097799597715272 0 0.23975172658309729 0.49475499200540818 0 0.80185942888539485 0.77452061303608133 0 0.78578450296893509 0.73292684821144505 0 0.81864958914779962 0.73589050177899629 0 0.80185942888501827 0.074520613036224564 0 0.78393852574753176 0.032039079577822822 0 0.81864958914740749 0.035890501779055867 0 0.5 0.29999999999999999 0 0.46226845272279993 0.31901800744800313 0 0.4604742573284204 0.27846934318264788 0 0.6405463747586706 0.63290524857395714 0 0.62460753523532009 0.66851202781000296 0 0.5991018319127801 0.62925360607495295 0 0.79680861578988083 0.92656778056766709 0 0.770759834363826 0.95919399014344442 0 0.75729602384198635 0.92353652857884294 0 0.79680861578956375 0.22656778056752541 0 0.77075983436335049 0.25919399014334171 0 0.75668890529066124 0.2244279804069782 0 0.65394964615507722 0.22666784374016369 0 0.69397719155551807 0.2245125647000914 0 0.67933712972090698 0.25920070958121938 0 0.81973119833356312 0.43505687159469048 0 0.84925632466077294 0.45359738909549091 0 0.81400510706333218 0.47357325943904899 0 0.83758014339878906 0.63222013025741819 0 0.82457059160610424 0.66831947184359608 0 0.79884539758237771 0.62875045078114233 0 0.25676291524611189 0.7436741304886243 0 0.2248999640082178 0.72584299459689172 0 0.26439878998046262 0.7048065392091396 0 0.91696753777131557 0.497780560203536 0 0.90900154012161016 0.53607784105648792 0 0.86907294890112186 0.52008116128001669 0 0.17933913398461551 0.2350063570234002 0 0.168349569971391 0.28054490850913671 0 0.14377654328998779 0.2442024734791064 0 0.1247745017231483 0.27198077544791172 0 0.14377654328998779 0.2442024734791064 0 0.168349569971391 0.28054490850913671 0 0.34258405725730701 0.4444034294386992 0 0.35221190152536241 0.40457127605439203 0 0.38707855792647411 0.42299362914874578 0 0.47357141910802508 0.1873585799078378 0 0.51729576145820033 0.1683240575987815 0 0.50760557329222289 0.20700468884612061 0 0.19670163708476801 0.31472518408333222 0 0.22615676742807109 0.33458786033114157 0 0.18434624290945251 0.35208838264196463 0 0.22033343844674469 0.36963382230740238 0 0.18434624290945251 0.35208838264196463 0 0.22615676742807109 0.33458786033114157 0 0.24432083401701241 0.3006253385567515 0 0.25966125648670141 0.34351016742083729 0 0.22615676742807109 0.33458786033114157 0 0.93814194660195893 0.44426664081746747 0 0.90594285160987287 0.4141265964174129 0 0.95871855522754235 0.40006508612975411 0 0.91750694127107502 0.36982372220068471 0 0.95871855522754235 0.40006508612975411 0 0.90594285160987287 0.4141265964174129 0 0.91750694127105259 0.63017627779935648 0 0.91143117093204207 0.58709913730335972 0 0.95867599106212187 0.60011091146651041 0 0.93732437411268477 0.55911392101136159 0 0.95867599106212187 0.60011091146651041 0 0.91143117093204207 0.58709913730335972 0 0.50715858906372158 0.63295939104129484 0 0.5498280205245758 0.6290146943450976 0 0.52584555706968406 0.66664215091846768 0 0.94399509803918602 0.75600490196082126 0 0.97435614836745565 0.77499999999987745 0 0.95386563387742829 0.80414874155775029 0 0.94399509803922566 0.056004901960802607 0 0.97435614836748241 0.074999999999825387 0 0.95386563387744361 0.1041487415577465 0 0.94399509803921056 0.24399509803922639 0 0.95391631417672862 0.19584263333809451 0 0.97435614836740092 0.22499999999981049 0 0.94399509803919068 0.9439950980391687 0 0.95391631417670719 0.89584263333814784 0 0.97435614836744289 0.92499999999990257 0 0.79680861578988083 0.92656778056766709 0 0.75729602384198635 0.92353652857884294 0 0.76891166905518427 0.88835469571185499 0 0.79680861578956375 0.22656778056752541 0 0.75668890529066124 0.2244279804069782 0 0.76587607630038135 0.18880039518954719 0 0.65394964615507722 0.22666784374016369 0 0.6865991819015953 0.189116534044597 0 0.69397719155551807 0.2245125647000914 0 0.38083244760691543 0.38531983672244652 0 0.38707855792647411 0.42299362914874578 0 0.35221190152536241 0.40457127605439203 0 1 0.7999999999998193 0 0.95386563387742829 0.80414874155775029 0 0.97435614836745565 0.77499999999987745 0 1 0.099999999999753911 0 0.95386563387744361 0.1041487415577465 0 0.97435614836748241 0.074999999999825387 0 1 0.8999999999998336 0 0.97435614836744289 0.92499999999990257 0 0.95391631417670719 0.89584263333814784 0 1 0.19999999999974799 0 0.97435614836740092 0.22499999999981049 0 0.95391631417672862 0.19584263333809451 0 0.84723782639812573 0.48638347960178252 0 0.81400510706333218 0.47357325943904899 0 0.84925632466077294 0.45359738909549091 0 0.54999999999999993 0.29999999999999999 0 0.54248833945060504 0.2520322959927106 0 0.5794309697024993 0.27124795968204829 0 0.94999999999999996 0.29999999999999999 0 0.95780851984364423 0.34215720972155339 0 0.92012390126144183 0.33123581297173937 0 0.94999999999999996 0.69999999999999996 0 0.92057473616084773 0.66770436535372446 0 0.9578014258160763 0.65787212321113708 0 0.15801167086041079 0.46008690540259539 0 0.113541300460994 0.46208784312094731 0 0.13773355295499351 0.42497777642586831 0 0.7250000000005199 0.94981617647078953 0 0.68015064798562208 0.95924320340003011 0 0.68987011941058407 0.92105047536677087 0 0.65507451745379841 0.92229208810758578 0 0.68987011941058407 0.92105047536677087 0 0.68015064798562208 0.95924320340003011 0 0.77846603114747959 0.49850927265137401 0 0.77972660463949339 0.45529290596363098 0 0.81400510706333218 0.47357325943904899 0 0.27866744612395528 0.38416094670951489 0 0.25966125648670141 0.34351016742083729 0 0.29644548887253103 0.34914008784168082 0 0.61209567303293111 0.44669033081290321 0 0.61547661924074692 0.48539576058873962 0 0.57975577671020095 0.46172033326338591 0 0.57611405284611883 0.50165903596042916 0 0.57975577671020095 0.46172033326338591 0 0.61547661924074692 0.48539576058873962 0 0.7250000000005199 0.89375000000045834 0 0.76891166905518427 0.88835469571185499 0 0.75729602384198635 0.92353652857884294 0 0.72500000000001008 0.19776155966387679 0 0.76587607630038135 0.18880039518954719 0 0.75668890529066124 0.2244279804069782 0 0.72500000000001008 0.19776155966387679 0 0.69397719155551807 0.2245125647000914 0 0.6865991819015953 0.189116534044597 0 0.083411279318303222 0.089699755330707398 0 0.12372429750337779 0.095814237875728972 0 0.1053400320299198 0.12877248826361379 0 0.083411279318375747 0.91030024466934134 0 0.10562472963403439 0.87143394428979881 0 0.1241151115713819 0.9045666525468371 0 0.14617343800780541 0.93808063414349496 0 0.1241151115713819 0.9045666525468371 0 0.16206583317966519 0.89685560785156404 0 0.14618258501891079 0.062070108745602003 0 0.16141998738593399 0.10404039647458049 0 0.12372429750337779 0.095814237875728972 0 0.33277555741076909 0.36432196682010132 0 0.35221190152536241 0.40457127605439203 0 0.31778888742534622 0.40581751814196781 0 0.7250000000005199 0.94981617647078953 0 0.75729602384198635 0.92353652857884294 0 0.770759834363826 0.95919399014344442 0 0.72500000000000064 0.2498161764706 0 0.75668890529066124 0.2244279804069782 0 0.77075983436335049 0.25919399014334171 0 0.72500000000000064 0.2498161764706 0 0.67933712972090698 0.25920070958121938 0 0.69397719155551807 0.2245125647000914 0 0.6236733212988993 0.14864538214901801 0 0.61956000905586006 0.1043312481793135 0 0.65290632656860115 0.11434202593454081 0 0.81973119833356312 0.43505687159469048 0 0.81400510706333218 0.47357325943904899 0 0.77972660463949339 0.45529290596363098 0 0.25676291524611189 0.7436741304886243 0 0.29904318922293632 0.74132814928635593 0 0.2792923945214143 0.77665808831789485 0 0.36575549820117997 0.31677992835137742 0 0.32752639306529541 0.32610012995269699 0 0.33402499257867951 0.28911035184473982 0 0.14332333627550789 0.14578431753966009 0 0.18652628422869419 0.14162325200928061 0 0.18124454140915969 0.18790916706335251 0 0.57724883562309992 0.92155686857100794 0 0.5832743223239254 0.88483152652961872 0 0.61885627562261258 0.90282959257498208 0 0.57667858002728545 0.078486105337742612 0 0.61956000905586006 0.1043312481793135 0 0.58516465772821369 0.11653801664834119 0 0.80185942888539485 0.77452061303608133 0 0.80041942726660109 0.81543261647703358 0 0.77094201086366854 0.79647480515688507 0 0.80185942888501827 0.074520613036224564 0 0.80076557130237269 0.1154587552654202 0 0.76878382444651716 0.097147941686331368 0 0.64753070846764316 0.77332939069435502 0 0.68024162096458085 0.79868546898116533 0 0.65005442820240822 0.82644988530054031 0 0.26429849586623999 0.19346700179430079 0 0.25557216766470708 0.15874861286892261 0 0.29336099386129338 0.15892013001050981 0 0.29348325746214782 0.31350119524708198 0 0.29644548887253103 0.34914008784168082 0 0.25966125648670141 0.34351016742083729 0 0.68391457121233579 0.14440470121196541 0 0.65290632656860115 0.11434202593454081 0 0.68330259535470161 0.10038702501083881 0 0.91750694127107502 0.36982372220068471 0 0.92012390126144183 0.33123581297173937 0 0.95780851984364423 0.34215720972155339 0 0.91750694127105259 0.63017627779935648 0 0.9578014258160763 0.65787212321113708 0 0.92057473616084773 0.66770436535372446 0 0.22033343844674469 0.36963382230740238 0 0.22615676742807109 0.33458786033114157 0 0.25966125648670141 0.34351016742083729 0 1 0.94999999999997109 0 0.97166519676946206 0.96662885509935492 0 0.97435614836744289 0.92499999999990257 0 0.94399509803919068 0.9439950980391687 0 0.97435614836744289 0.92499999999990257 0 0.97166519676946206 0.96662885509935492 0 0.94399509803921056 0.24399509803922639 0 0.97435614836740092 0.22499999999981049 0 0.97166519676951801 0.26662885509932011 0 1 0.24999999999987299 0 0.97166519676951801 0.26662885509932011 0 0.97435614836740092 0.22499999999981049 0 1 0.74999999999993494 0 0.97435614836745565 0.77499999999987745 0 0.97166519676947294 0.73337114490064459 0 1 0.049999999999896842 0 0.97435614836748241 0.074999999999825387 0 0.97166519676946894 0.033371144900598393 0 0.94399509803918602 0.75600490196082126 0 0.97166519676947294 0.73337114490064459 0 0.97435614836745565 0.77499999999987745 0 0.94399509803922566 0.056004901960802607 0 0.97166519676946894 0.033371144900598393 0 0.97435614836748241 0.074999999999825387 0 0.77846603114747959 0.49850927265137401 0 0.81400510706333218 0.47357325943904899 0 0.81441713509985358 0.51161854125224959 0 0.77354604466818633 0.40378688774472771 0 0.72622533758026719 0.40265885511101601 0 0.74764719760526988 0.3719647154012321 0 0.71508799138962864 0.36622814920737751 0 0.74764719760526988 0.3719647154012321 0 0.72622533758026719 0.40265885511101601 0 0.84723782639812573 0.48638347960178252 0 0.84925632466077294 0.45359738909549091 0 0.88594198078881503 0.46167788676578442 0 0.86411095495256451 0.42388805655111889 0 0.88594198078881503 0.46167788676578442 0 0.84925632466077294 0.45359738909549091 0 0.43846182030517877 0.64845797726506715 0 0.43545892161006339 0.61093128915313821 0 0.47095389620662098 0.61892551373708504 0 0.33123028043633618 0.77629643437932982 0 0.35642984951668422 0.80994399665655703 0 0.30857225866488791 0.81101973481716805 0 0.33403534827021109 0.84402799729020661 0 0.30857225866488791 0.81101973481716805 0 0.35642984951668422 0.80994399665655703 0 0.26429849586623999 0.19346700179430079 0 0.31255190597181792 0.19850845631528771 0 0.28040350263641872 0.23054717217092141 0 0.57724883562309992 0.92155686857100794 0 0.54783390826260769 0.89287767010860219 0 0.5832743223239254 0.88483152652961872 0 0.55899371797446828 0.85003102233514438 0 0.5832743223239254 0.88483152652961872 0 0.54783390826260769 0.89287767010860219 0 0.4089290844030305 0.58728915500154233 0 0.43545892161006339 0.61093128915313821 0 0.39743091024207589 0.6239520004230239 0 0.77293540622714185 0.59448302402785813 0 0.81723410853263523 0.59419663659258926 0 0.79884539758237771 0.62875045078114233 0 0.83758014339878906 0.63222013025741819 0 0.79884539758237771 0.62875045078114233 0 0.81723410853263523 0.59419663659258926 0 0.35864735590330371 0.63903383440414463 0 0.39743091024207589 0.6239520004230239 0 0.3977710372045391 0.65868194622830212 0 0.56202748619534593 0.15054058349222879 0 0.54979595918804436 0.1060565713905809 0 0.58516465772821369 0.11653801664834119 0 0.57667858002728545 0.078486105337742612 0 0.58516465772821369 0.11653801664834119 0 0.54979595918804436 0.1060565713905809 0 0.33122374654748771 0.57588941099433744 0 0.37272913873093971 0.56192925302619479 0 0.35765792684946668 0.6000687869219653 0 0.35864735590330371 0.63903383440414463 0 0.35765792684946668 0.6000687869219653 0 0.39743091024207589 0.6239520004230239 0 0.71508799138962864 0.36622814920737751 0 0.68887083591306764 0.33632058575757479 0 0.73090396928863699 0.33699297293167962 0 0.29348325746214782 0.31350119524708198 0 0.32752639306529541 0.32610012995269699 0 0.29644548887253103 0.34914008784168082 0 0.33277555741076909 0.36432196682010132 0 0.29644548887253103 0.34914008784168082 0 0.32752639306529541 0.32610012995269699 0 0.34258405725730701 0.4444034294386992 0 0.31778888742534622 0.40581751814196781 0 0.35221190152536241 0.40457127605439203 0 0.79999999999999982 0.69999999999999996 0 0.81864958914779962 0.73589050177899629 0 0.78578450296893509 0.73292684821144505 0 0.79999999999947335 0 0 0.81864958914740749 0.035890501779055867 0 0.78393852574753176 0.032039079577822822 0 0.27474541102162192 0.11822029332053539 0 0.29336099386129338 0.15892013001050981 0 0.25557216766470708 0.15874861286892261 0 0 0.45000000000187229 0 0.035463093262830522 0.42673416072819947 0 0.033550201249889847 0.46247875832467239 0 0.6499999999999998 0.69999999999999996 0 0.66427993341343905 0.73232764502436276 0 0.63221990677827677 0.73442891067859706 0 0.84723782639812573 0.48638347960178252 0 0.81441713509985358 0.51161854125224959 0 0.81400510706333218 0.47357325943904899 0 0.26104540868854792 0.81401944968719064 0 0.30857225866488791 0.81101973481716805 0 0.29209212897034281 0.84715728365233667 0 0.33403534827021109 0.84402799729020661 0 0.29209212897034281 0.84715728365233667 0 0.30857225866488791 0.81101973481716805 0 0.69999999999999984 0.29999999999999999 0 0.73090396928863699 0.33699297293167962 0 0.68887083591306764 0.33632058575757479 0 
</DataArray>
</Points>
<Cells>
<DataArray type="UInt32" Name="connectivity" format="ascii">
0 1 2 3 4 5 6 7 8 9 10 11 12 13 14 15 16 17 18 19 20 21 22 23 24 25 26 27 28 29 30 31 32 33 34 35 36 37 38 39 40 41 42 43 44 45 46 47 48 49 50 51 52 53 54 55 56 57 58 59 60 61 62 63 64 65 66 67 68 69 70 71 72 73 74 75 76 77 78 79 80 81 82 83 84 85 86 87 88 89 90 91 92 93 94 95 96 97 98 99 100 101 102 103 104 105 106 107 108 109 110 111 112 113 114 115 116 117 118 119 120 121 122 123 124 125 126 127 128 129 130 131 132 133 134 135 136 137 138 139 140 141 142 143 144 145 146 147 148 149 150 151 152 153 154 155 156 157 158 159 160 161 162 163 164 165 166 167 168 169 170 171 172 173 174 175 176 177 178 179 180 181 182 183 184 185 186 187 188 189 190 191 192 193 194 195 196 197 198 199 200 201 202 203 204 205 206 207 208 209 210 211 212 213 214 215 216 217 218 219 220 221 222 223 224 225 226 227 228 229 230 231 232 233 234 235 236 237 238 239 240 241 242 243 244 245 246 247 248 249 250 251 252 253 254 255 256 257 258 259 260 261 262 263 264 265 266 267 268 269 270 271 272 273 274 275 276 277 278 279 280 281 282 283 284 285 286 287 288 289 290 291 292 293 294 295 296 297 298 299 300 301 302 303 304 305 306 307 308 309 310 311 312 313 314 315 316 317 318 319 320 321 322 323 324 325 326 327 328 329 330 331 332 333 334 335 336 337 338 339 340 341 342 343 344 345 346 347 348 349 350 351 352 353 354 355 356 357 358 359 360 361 362 363 364 365 366 367 368 369 370 371 372 373 374 375 376 377 378 379 380 381 382 383 384 385 386 387 388 389 390 391 392 393 394 395 396 397 398 399 400 401 402 403 404 405 406 407 408 409 410 411 412 413 414 415 416 417 418 419 420 421 422 423 424 425 426 427 428 429 430 431 432 433 434 435 436 437 438 439 440 441 442 443 444 445 446 447 448 449 450 451 452 453 454 455 456 457 458 459 460 461 462 463 464 465 466 467 468 469 470 471 472 473 474 475 476 477 478 479 480 481 482 483 484 485 486 487 488 489 490 491 492 493 494 495 496 497 498 499 500 501 502 503 504 505 506 507 508 509 510 511 512 513 514 515 516 517 518 519 520 521 522 523 524 525 526 527 528 529 530 531 532 533 534 535 536 537 538 539 540 541 542 543 544 545 546 547 548 549 550 551 552 553 554 555 556 557 558 559 560 561 562 563 564 565 566 567 568 569 570 571 572 573 574 575 576 577 578 579 580 581 582 583 584 585 586 587 588 589 590 591 592 593 594 595 596 597 598 599 600 601 602 603 604 605 606 607 608 609 610 611 612 613 614 615 616 617 618 619 620 621 622 623 624 625 626 627 628 629 630 631 632 633 634 635 636 637 638 639 640 641 642 643 644 645 646 647 648 649 650 651 652 653 654 655 656 657 658 659 660 661 662 663 664 665 666 667 668 669 670 671 672 673 674 675 676 677 678 679 680 681 682 683 684 685 686 687 688 689 690 691 692 693 694 695 696 697 698 699 700 701 702 703 704 705 706 707 708 709 710 711 712 713 714 715 716 717 718 719 720 721 722 723 724 725 726 727 728 729 730 731 732 733 734 735 736 737 738 739 740 741 742 743 744 745 746 747 748 749 750 751 752 753 754 755 756 757 758 759 760 761 762 763 764 765 766 767 768 769 770 771 772 773 774 775 776 777 778 779 780 781 782 783 784 785 786 787 788 789 790 791 792 793 794 795 796 797 798 799 800 801 802 803 804 805 806 807 808 809 810 811 812 813 814 815 816 817 818 819 820 821 822 823 824 825 826 827 828 829 830 831 832 833 834 835 836 837 838 839 840 841 842 843 844 845 846 847 848 849 850 851 852 853 854 855 856 857 858 859 860 861 862 863 864 865 866 867 868 869 870 871 872 873 874 875 876 877 878 879 880 881 882 883 884 885 886 887 888 889 890 891 892 893 894 895 896 897 898 899 900 901 902 903 904 905 906 907 908 909 910 911 912 913 914 915 916 917 918 919 920 921 922 923 924 925 926 927 928 929 930 931 932 933 934 935 936 937 938 939 940 941 942 943 944 945 946 947 948 949 950 951 952 953 954 955 956 957 958 959 960 961 962 963 964 965 966 967 968 969 970 971 972 973 974 975 976 977 978 979 980 981 982 983 984 985 986 987 988 989 990 991 992 993 994 995 996 997 998 999 1000 1001 1002 1003 1004 1005 1006 1007 1008 1009 1010 1011 1012 1013 1014 1015 1016 1017 1018 1019 1020 1021 1022 1023 1024 1025 1026 1027 1028 1029 1030 1031 1032 1033 1034 1035 1036 1037 1038 1039 1040 1041 1042 1043 1044 1045 1046 1047 1048 1049 1050 1051 1052 1053 1054 1055 1056 1057 1058 1059 1060 1061 1062 1063 1064 1065 1066 1067 1068 1069 1070 1071 1072 1073 1074 1075 1076 1077 1078 1079 1080 1081 1082 1083 1084 1085 1086 1087 1088 1089 1090 1091 1092 1093 1094 1095 1096 1097 1098 1099 1100 1101 1102 1103 1104 1105 1106 1107 1108 1109 1110 1111 1112 1113 1114 1115 1116 1117 1118 1119 1120 1121 1122 1123 1124 1125 1126 1127 1128 1129 1130 1131 1132 1133 1134 1135 1136 1137 1138 1139 1140 1141 1142 1143 1144 1145 1146 1147 1148 1149 1150 1151 1152 1153 1154 1155 1156 1157 1158 1159 1160 1161 1162 1163 1164 1165 1166 1167 1168 1169 1170 1171 1172 1173 1174 1175 1176 1177 1178 1179 1180 1181 1182 1183 1184 1185 1186 1187 1188 1189 1190 1191 1192 1193 1194 1195 1196 1197 1198 1199 1200 1201 1202 1203 1204 1205 1206 1207 1208 1209 1210 1211 1212 1213 1214 1215 1216 1217 1218 1219 1220 1221 1222 1223 1224 1225 1226 1227 1228 1229 1230 1231 1232 1233 1234 1235 1236 1237 1238 1239 1240 1241 1242 1243 1244 1245 1246 1247 1248 1249 1250 1251 1252 1253 1254 1255 1256 1257 1258 1259 1260 1261 1262 1263 1264 1265 1266 1267 1268 1269 1270 1271 1272 1273 1274 1275 1276 1277 1278 1279 1280 1281 1282 1283 1284 1285 1286 1287 1288 1289 1290 1291 1292 1293 1294 1295 1296 1297 1298 1299 1300 1301 1302 1303 1304 1305 1306 1307 1308 1309 1310 1311 1312 1313 1314 1315 1316 1317 1318 1319 1320 1321 1322 1323 1324 1325 1326 1327 1328 1329 1330 1331 1332 1333 1334 1335 1336 1337 1338 1339 1340 1341 1342 1343 1344 1345 1346 1347 1348 1349 1350 1351 1352 1353 1354 1355 1356 1357 1358 1359 1360 1361 1362 1363 1364 1365 1366 1367 1368 1369 1370 1371 1372 1373 1374 1375 1376 1377 1378 1379 1380 1381 1382 1383 1384 1385 1386 1387 1388 1389 1390 1391 1392 1393 1394 1395 1396 1397 1398 1399 1400 1401 1402 1403 1404 1405 1406 1407 1408 1409 1410 1411 1412 1413 1414 1415 1416 1417 1418 1419 1420 1421 1422 1423 1424 1425 1426 1427 1428 1429 1430 1431 1432 1433 1434 1435 1436 1437 1438 1439 1440 1441 1442 1443 1444 1445 1446 1447 1448 1449 1450 1451 1452 1453 1454 1455 1456 1457 1458 1459 1460 1461 1462 1463 1464 1465 1466 1467 1468 1469 1470 1471 1472 1473 1474 1475 1476 1477 1478 1479 1480 1481 1482 1483 1484 1485 1486 1487 1488 1489 1490 1491 1492 1493 1494 1495 1496 1497 1498 1499 1500 1501 1502 1503 1504 1505 1506 1507 1508 1509 1510 1511 1512 1513 1514 1515 1516 1517 1518 1519 1520 1521 1522 1523 1524 1525 1526 1527 1528 1529 1530 1531 1532 1533 1534 1535 1536 1537 1538 1539 1540 1541 1542 1543 1544 1545 1546 1547 1548 1549 1550 1551 1552 1553 1554 1555 1556 1557 1558 1559 1560 1561 1562 1563 1564 1565 1566 1567 1568 1569 1570 1571 1572 1573 1574 1575 1576 1577 1578 1579 1580 1581 1582 1583 1584 1585 1586 1587 1588 1589 1590 1591 1592 1593 1594 1595 1596 1597 1598 1599 1600 1601 1602 1603 1604 1605 1606 1607 1608 1609 1610 1611 1612 1613 1614 1615 1616 1617 1618 1619 1620 1621 1622 1623 1624 1625 1626 1627 1628 1629 1630 1631 1632 1633 1634 1635 1636 1637 1638 1639 1640 1641 1642 1643 1644 1645 1646 1647 1648 1649 1650 1651 1652 1653 1654 1655 1656 1657 1658 1659 1660 1661 1662 1663 1664 1665 1666 1667 1668 1669 1670 1671 1672 1673 1674 1675 1676 1677 1678 1679 1680 1681 1682 1683 1684 1685 1686 1687 1688 1689 1690 1691 1692 1693 1694 1695 1696 1697 1698 1699 1700 1701 1702 1703 1704 1705 1706 1707 1708 1709 1710 1711 1712 1713 1714 1715 1716 1717 1718 1719 1720 1721 1722 1723 1724 1725 1726 1727 1728 1729 1730 1731 1732 1733 1734 1735 1736 1737 1738 1739 1740 1741 1742 1743 1744 1745 1746 1747 1748 1749 1750 1751 1752 1753 1754 1755 1756 1757 1758 1759 1760 1761 1762 1763 1764 1765 1766 1767 1768 1769 1770 1771 1772 1773 1774 1775 1776 1777 1778 1779 1780 1781 1782 1783 1784 1785 1786 1787 1788 1789 1790 1791 1792 1793 1794 1795 1796 1797 1798 1799 1800 1801 1802 1803 1804 1805 1806 1807 1808 1809 1810 1811 1812 1813 1814 1815 1816 1817 1818 1819 1820 1821 1822 1823 1824 1825 1826 1827 1828 1829 1830 1831 1832 1833 1834 1835 1836 1837 1838 1839 1840 1841 1842 1843 1844 1845 1846 1847 1848 1849 1850 1851 1852 1853 1854 1855 1856 1857 1858 1859 1860 1861 1862 1863 1864 1865 1866 1867 1868 1869 1870 1871 1872 1873 1874 1875 1876 1877 1878 1879 1880 1881 1882 1883 1884 1885 1886 1887 1888 1889 1890 1891 1892 1893 1894 1895 1896 1897 1898 1899 1900 1901 1902 1903 1904 1905 1906 1907 1908 1909 1910 1911 1912 1913 1914 1915 1916 1917 1918 1919 1920 1921 1922 1923 1924 1925 1926 1927 1928 1929 1930 1931 1932 1933 1934 1935 1936 1937 1938 1939 1940 1941 1942 1943 1944 1945 1946 1947 1948 1949 1950 1951 1952 1953 1954 1955 1956 1957 1958 1959 1960 1961 1962 1963 1964 1965 1966 1967 1968 1969 1970 1971 1972 1973 1974 1975 1976 1977 1978 1979 1980 1981 1982 1983 1984 1985 1986 1987 1988 1989 1990 1991 1992 1993 1994 1995 1996 1997 1998 1999 2000 2001 2002 2003 2004 2005 2006 2007 2008 2009 2010 2011 2012 2013 2014 2015 2016 2017 2018 2019 2020 2021 2022 2023 2024 2025 2026 2027 2028 2029 2030 2031 2032 2033 2034 2035 2036 2037 2038 2039 2040 2041 2042 2043 2044 2045 2046 2047 2048 2049 2050 2051 2052 2053 2054 2055 2056 2057 2058 2059 2060 2061 2062 2063 2064 2065 2066 2067 2068 2069 2070 2071 2072 2073 2074 2075 2076 2077 2078 2079 2080 2081 2082 2083 2084 2085 2086 2087 2088 2089 2090 2091 2092 2093 2094 2095 2096 2097 2098 2099 2100 2101 2102 2103 2104 2105 2106 2107 2108 2109 2110 2111 2112 2113 2114 2115 2116 2117 2118 2119 2120 2121 2122 2123 2124 2125 2126 2127 2128 2129 2130 2131 2132 2133 2134 2135 2136 2137 2138 2139 2140 2141 2142 2143 2144 2145 2146 2147 2148 2149 2150 2151 2152 2153 2154 2155 2156 2157 2158 2159 2160 2161 2162 2163 2164 2165 2166 2167 2168 2169 2170 2171 2172 2173 2174 2175 2176 2177 2178 2179 2180 2181 2182 2183 2184 2185 2186 2187 2188 2189 2190 2191 2192 2193 2194 2195 2196 2197 2198 2199 2200 2201 2202 2203 2204 2205 2206 2207 2208 2209 2210 2211 2212 2213 2214 2215 2216 2217 2218 2219 2220 2221 2222 2223 2224 2225 2226 2227 2228 2229 2230 2231 2232 2233 2234 2235 2236 2237 2238 2239 2240 2241 2242 2243 2244 2245 2246 2247 2248 2249 2250 2251 2252 2253 2254 2255 2256 2257 2258 2259 2260 2261 2262 2263 2264 2265 2266 2267 2268 2269 2270 2271 2272 2273 2274 2275 2276 2277 2278 2279 2280 2281 2282 2283 2284 2285 2286 2287 2288 2289 2290 2291 2292 2293 2294 2295 2296 2297 2298 2299 2300 2301 2302 2303 2304 2305 2306 2307 2308 2309 2310 2311 2312 2313 2314 2315 2316 2317 2318 2319 2320 2321 2322 2323 2324 2325 2326 2327 2328 2329 2330 2331 2332 2333 2334 2335 2336 2337 2338 2339 2340 2341 2342 2343 2344 2345 2346 2347 2348 2349 2350 2351 2352 2353 2354 2355 2356 2357 2358 2359 2360 2361 2362 2363 2364 2365 2366 2367 2368 2369 2370 2371 2372 2373 2374 2375 2376 2377 2378 2379 2380 2381 2382 2383 2384 2385 2386 2387 2388 2389 2390 2391 2392 2393 2394 2395 2396 2397 2398 2399 2400 2401 2402 2403 2404 2405 2406 2407 2408 2409 2410 2411 2412 2413 2414 2415 2416 2417 2418 2419 2420 2421 2422 2423 2424 2425 2426 2427 2428 2429 2430 2431 2432 2433 2434 2435 2436 2437 2438 2439 2440 2441 2442 2443 2444 2445 2446 2447 2448 2449 2450 2451 2452 2453 2454 2455 2456 2457 2458 2459 2460 2461 2462 2463 2464 2465 2466 2467 2468 2469 2470 2471 2472 2473 2474 2475 2476 2477 2478 2479 2480 2481 2482 2483 2484 2485 2486 2487 2488 2489 2490 2491 2492 2493 2494 2495 2496 2497 2498 2499 2500 2501 2502 2503 2504 2505 2506 2507 2508 2509 2510 2511 2512 2513 2514 2515 2516 2517 2518 2519 2520 2521 2522 2523 2524 2525 2526 2527 2528 2529 2530 2531 2532 2533 2534 2535 2536 2537 2538 2539 2540 2541 2542 2543 2544 2545 2546 2547 2548 2549 2550 2551 2552 2553 2554 2555 2556 2557 2558 2559 2560 2561 2562 2563 2564 2565 2566 2567 2568 2569 2570 2571 2572 2573 2574 2575 2576 2577 2578 2579 2580 2581 2582 2583 2584 2585 2586 2587 2588 2589 2590 2591 2592 2593 2594 2595 2596 2597 2598 2599 2600 2601 2602 2603 2604 2605 2606 2607 2608 2609 2610 2611 2612 2613 2614 2615 2616 2617 2618 2619 2620 2621 2622 2623 2624 2625 2626 2627 2628 2629 2630 2631 2632 2633 2634 2635 2636 2637 2638 2639 2640 2641 2642 2643 2644 2645 2646 2647 2648 2649 2650 2651 2652 2653 2654 2655 2656 2657 2658 2659 2660 2661 2662 2663 2664 2665 2666 2667 2668 2669 2670 2671 2672 2673 2674 2675 2676 2677 2678 2679 2680 2681 2682 2683 2684 2685 2686 2687 2688 2689 2690 2691 2692 2693 2694 2695 2696 2697 2698 2699 2700 2701 2702 2703 2704 2705 2706 2707 2708 2709 2710 2711 2712 2713 2714 2715 2716 2717 2718 2719 2720 2721 2722 2723 2724 2725 2726 2727 2728 2729 2730 2731 2732 2733 2734 2735 2736 2737 2738 2739 2740 2741 2742 2743 2744 2745 2746 2747 2748 2749 2750 2751 2752 2753 2754 2755 2756 2757 2758 2759 2760 2761 2762 2763 2764 2765 2766 2767 2768 2769 2770 2771 2772 2773 2774 2775 2776 2777 2778 2779 2780 2781 2782 2783 2784 2785 2786 2787 2788 2789 2790 2791 2792 2793 2794 2795 2796 2797 2798 2799 2800 2801 2802 2803 2804 2805 2806 2807 2808 2809 2810 2811 2812 2813 2814 2815 2816 2817 2818 2819 2820 2821 2822 2823 2824 2825 2826 2827 2828 2829 2830 2831 2832 2833 2834 2835 2836 2837 2838 2839 2840 2841 2842 2843 2844 2845 2846 2847 2848 2849 2850 2851 2852 2853 2854 2855 2856 2857 2858 2859 2860 2861 2862 2863 2864 2865 2866 2867 2868 2869 2870 2871 2872 2873 2874 2875 2876 2877 2878 2879 2880 2881 2882 2883 2884 2885 2886 2887 2888 2889 2890 2891 2892 2893 2894 2895 2896 2897 2898 2899 2900 2901 2902 2903 2904 2905 2906 2907 2908 2909 2910 2911 2912 2913 2914 2915 2916 2917 2918 2919 2920 2921 2922 2923 2924 2925 2926 2927 2928 2929 2930 2931 2932 2933 2934 2935 2936 2937 2938 2939 2940 2941 2942 2943 2944 2945 2946 2947 2948 2949 2950 2951 2952 2953 2954 2955 2956 2957 2958 2959 2960 2961 2962 2963 2964 2965 2966 2967 2968 2969 2970 2971 2972 2973 2974 2975 2976 2977 2978 2979 2980 2981 2982 2983 2984 2985 2986 2987 2988 2989 2990 2991 2992 2993 2994 2995 2996 2997 2998 2999 3000 3001 3002 3003 3004 3005 3006 3007 3008 3009 3010 3011 3012 3013 3014 3015 3016 3017 3018 3019 3020 3021 3022 3023 3024 3025 3026 3027 3028 3029 3030 3031 3032 3033 3034 3035 3036 3037 3038 3039 3040 3041 3042 3043 3044 3045 3046 3047 3048 3049 3050 3051 3052 3053 3054 3055 3056 3057 3058 3059 3060 3061 3062 3063 3064 3065 3066 3067 3068 3069 3070 3071 3072 3073 3074 3075 3076 3077 3078 3079 3080 3081 3082 3083 3084 3085 3086 3087 3088 3089 3090 3091 3092 3093 3094 3095 3096 3097 3098 3099 3100 3101 3102 3103 3104 3105 3106 3107 3108 3109 3110 3111 3112 3113 3114 3115 3116 3117 3118 3119 3120 3121 3122 3123 3124 3125 3126 3127 3128 3129 3130 3131 3132 3133 3134 3135 3136 3137 3138 3139 3140 3141 
</DataArray>
<DataArray type="UInt32" Name="offsets" format="ascii">
2 4 6 8 10 12 14 16 18 20 22 24 26 28 30 32 34 36 38 40 43 46 49 52 55 58 61 64 67 70 73 76 79 82 85 88 91 94 97 100 103 106 109 112 115 118 121 124 127 130 133 136 139 142 145 148 151 154 157 160 163 166 169 172 175 178 181 184 187 190 193 196 199 202 205 208 211 214 217 220 223 226 229 232 235 238 241 244 247 250 253 256 259 262 265 268 271 274 277 280 283 286 289 292 295 298 301 304 307 310 313 316 319 322 325 328 331 334 337 340 343 346 349 352 355 358 361 364 367 370 373 376 379 382 385 388 391 394 397 400 403 406 409 412 415 418 421 424 427 430 433 436 439 442 445 448 451 454 457 460 463 466 469 472 475 478 481 484 487 490 493 496 499 502 505 508 511 514 517 520 523 526 529 532 535 538 541 544 547 550 553 556 559 562 565 568 571 574 577 580 583 586 589 592 595 598 601 604 607 610 613 616 619 622 625 628 631 634 637 640 643 646 649 652 655 658 661 664 667 670 673 676 679 682 685 688 691 694 697 700 703 706 709 712 715 718 721 724 727 730 733 736 739 742 745 748 751 754 757 760 763 766 769 772 775 778 781 784 787 790 793 796 799 802 805 808 811 814 817 820 823 826 829 832 835 838 841 844 847 850 853 856 859 862 865 868 871 874 877 880 883 886 889 892 895 898 901 904 907 910 913 916 919 922 925 928 931 934 937 940 943 946 949 952 955 958 961 964 967 970 973 976 979 982 985 988 991 994 997 1000 1003 1006 1009 1012 1015 1018 1021 1024 1027 1030 1033 1036 1039 1042 1045 1048 1051 1054 1057 1060 1063 1066 1069 1072 1075 1078 1081 1084 1087 1090 1093 1096 1099 1102 1105 1108 1111 1114 1117 1120 1123 1126 1129 1132 1135 1138 1141 1144 1147 1150 1153 1156 1159 1162 1165 1168 1171 1174 1177 1180 1183 1186 1189 1192 1195 1198 1201 1204 1207 1210 1213 1216 1219 1222 1225 1228 1231 1234 1237 1240 1243 1246 1249 1252 1255 1258 1261 1264 1267 1270 1273 1276 1279 1282 1285 1288 1291 1294 1297 1300 1303 1306 1309 1312 1315 1318 1321 1324 1327 1330 1333 1336 1339 1342 1345 1348 1351 1354 1357 1360 1363 1366 1369 1372 1375 1378 1381 1384 1387 1390 1393 1396 1399 1402 1405 1408 1411 1414 1417 1420 1423 1426 1429 1432 1435 1438 1441 1444 1447 1450 1453 1456 1459 1462 1465 1468 1471 1474 1477 1480 1483 1486 1489 1492 1495 1498 1501 1504 1507 1510 1513 1516 1519 1522 1525 1528 1531 1534 1537 1540 1543 1546 1549 1552 1555 1558 1561 1564 1567 1570 1573 1576 1579 1582 1585 1588 1591 1594 1597 1600 1603 1606 1609 1612 1615 1618 1621 1624 1627 1630 1633 1636 1639 1642 1645 1648 1651 1654 1657 1660 1663 1666 1669 1672 1675 1678 1681 1684 1687 1690 1693 1696 1699 1702 1705 1708 1711 1714 1717 1720 1723 1726 1729 1732 1735 1738 1741 1744 1747 1750 1753 1756 1759 1762 1765 1768 1771 1774 1777 1780 1783 1786 1789 1792 1795 1798 1801 1804 1807 1810 1813 1816 1819 1822 1825 1828 1831 1834 1837 1840 1843 1846 1849 1852 1855 1858 1861 1864 1867 1870 1873 1876 1879 1882 1885 1888 1891 1894 1897 1900 1903 1906 1909 1912 1915 1918 1921 1924 1927 1930 1933 1936 1939 1942 1945 1948 1951 1954 1957 1960 1963 1966 1969 1972 1975 1978 1981 1984 1987 1990 1993 1996 1999 2002 2005 2008 2011 2014 2017 2020 2023 2026 2029 2032 2035 2038 2041 2044 2047 2050 2053 2056 2059 2062 2065 2068 2071 2074 2077 2080 2083 2086 2089 2092 2095 2098 2101 2104 2107 2110 2113 2116 2119 2122 2125 2128 2131 2134 2137 2140 2143 2146 2149 2152 2155 2158 2161 2164 2167 2170 2173 2176 2179 2182 2185 2188 2191 2194 2197 2200 2203 2206 2209 2212 2215 2218 2221 2224 2227 2230 2233 2236 2239 2242 2245 2248 2251 2254 2257 2260 2263 2266 2269 2272 2275 2278 2281 2284 2287 2290 2293 2296 2299 2302 2305 2308 2311 2314 2317 2320 2323 2326 2329 2332 2335 2338 2341 2344 2347 2350 2353 2356 2359 2362 2365 2368 2371 2374 2377 2380 2383 2386 2389 2392 2395 2398 2401 2404 2407 2410 2413 2416 2419 2422 2425 2428 2431 2434 2437 2440 2443 2446 2449 2452 2455 2458 2461 2464 2467 2470 2473 2476 2479 2482 2485 2488 2491 2494 2497 2500 2503 2506 2509 2512 2515 2518 2521 2524 2527 2530 2533 2536 2539 2542 2545 2548 2551 2554 2557 2560 2563 2566 2569 2572 2575 2578 2581 2584 2587 2590 2593 2596 2599 2602 2605 2608 2611 2614 2617 2620 2623 2626 2629 2632 2635 2638 2641 2644 2647 2650 2653 2656 2659 2662 2665 2668 2671 2674 2677 2680 2683 2686 2689 2692 2695 2698 2701 2704 2707 2710 2713 2716 2719 2722 2725 2728 2731 2734 2737 2740 2743 2746 2749 2752 2755 2758 2761 2764 2767 2770 2773 2776 2779 2782 2785 2788 2791 2794 2797 2800 2803 2806 2809 2812 2815 2818 2821 2824 2827 2830 2833 2836 2839 2842 2845 2848 2851 2854 2857 2860 2863 2866 2869 2872 2875 2878 2881 2884 2887 2890 2893 2896 2899 2902 2905 2908 2911 2914 2917 2920 2923 2926 2929 2932 2935 2938 2941 2944 2947 2950 2953 2956 2959 2962 2965 2968 2971 2974 2977 2980 2983 2986 2989 2992 2995 2998 3001 3004 3007 3010 3013 3016 3019 3022 3025 3028 3031 3034 3037 3040 3043 3046 3049 3052 3055 3058 3061 3064 3067 3070 3073 3076 3079 3082 3085 3088 3091 3094 3097 3100 3103 3106 3109 3112 3115 3118 3121 3124 3127 3130 3133 3136 3139 3142 
</DataArray>
<DataArray type="UInt32" Name="types" format="ascii">
3 3 3 3 3 3 3 3 3 3 3 3 3 3 3 3 3 3 3 3 5 5 5 5 5 5 5 5 5 5 5 5 5 5 5 5 5 5 5 5 5 5 5 5 5 5 5 5 5 5 5 5 5 5 5 5 5 5 5 5 5 5 5 5 5 5 5 5 5 5 5 5 5 5 5 5 5 5 5 5 5 5 5 5 5 5 5 5 5 5 5 5 5 5 5 5 5 5 5 5 5 5 5 5 5 5 5 5 5 5 5 5 5 5 5 5 5 5 5 5 5 5 5 5 5 5 5 5 5 5 5 5 5 5 5 5 5 5 5 5 5 5 5 5 5 5 5 5 5 5 5 5 5 5 5 5 5 5 5 5 5 5 5 5 5 5 5 5 5 5 5 5 5 5 5 5 5 5 5 5 5 5 5 5 5 5 5 5 5 5 5 5 5 5 5 5 5 5 5 5 5 5 5 5 5 5 5 5 5 5 5 5 5 5 5 5 5 5 5 5 5 5 5 5 5 5 5 5 5 5 5 5 5 5 5 5 5 5 5 5 5 5 5 5 5 5 5 5 5 5 5 5 5 5 5 5 5 5 5 5 5 5 5 5 5 5 5 5 5 5 5 5 5 5 5 5 5 5 5 5 5 5 5 5 5 5 5 5 5 5 5 5 5 5 5 5 5 5 5 5 5 5 5 5 5 5 5 5 5 5 5 5 5 5 5 5 5 5 5 5 5 5 5 5 5 5 5 5 5 5 5 5 5 5 5 5 5 5 5 5 5 5 5 5 5 5 5 5 5 5 5 5 5 5 5 5 5 5 5 5 5 5 5 5 5 5 5 5 5 5 5 5 5 5 5 5 5 5 5 5 5 5 5 5 5 5 5 5 5 5 5 5 5 5 5 5 5 5 5 5 5 5 5 5 5 5 5 5 5 5 5 5 5 5 5 5 5 5 5 5 5 5 5 5 5 5 5 5 5 5 5 5 5 5 5 5 5 5 5 5 5 5 5 5 5 5 5 5 5 5 5 5 5 5 5 5 5 5 5 5 5 5 5 5 5 5 5 5 5 5 5 5 5 5 5 5 5 5 5 5 5 5 5 5 5 5 5 5 5 5 5 5 5 5 5 5 5 5 5 5 5 5 5 5 5 5 5 5 5 5 5 5 5 5 5 5 5 5 5 5 5 5 5 5 5 5 5 5 5 5 5 5 5 5 5 5 5 5 5 5 5 5 5 5 5 5 5 5 5 5 5 5 5 5 5 5 5 5 5 5 5 5 5 5 5 5 5 5 5 5 5 5 5 5 5 5 5 5 5 5 5 5 5 5 5 5 5 5 5 5 5 5 5 5 5 5 5 5 5 5 5 5 5 5 5 5 5 5 5 5 5 5 5 5 5 5 5 5 5 5 5 5 5 5 5 5 5 5 5 5 5 5 5 5 5 5 5 5 5 5 5 5 5 5 5 5 5 5 5 5 5 5 5 5 5 5 5 5 5 5 5 5 5 5 5 5 5 5 5 5 5 5 5 5 5 5 5 5 5 5 5 5 5 5 5 5 5 5 5 5 5 5 5 5 5 5 5 5 5 5 5 5 5 5 5 5 5 5 5 5 5 5 5 5 5 5 5 5 5 5 5 5 5 5 5 5 5 5 5 5 5 5 5 5 5 5 5 5 5 5 5 5 5 5 5 5 5 5 5 5 5 5 5 5 5 5 5 5 5 5 5 5 5 5 5 5 5 5 5 5 5 5 5 5 5 5 5 5 5 5 5 5 5 5 5 5 5 5 5 5 5 5 5 5 5 5 5 5 5 5 5 5 5 5 5 5 5 5 5 5 5 5 5 5 5 5 5 5 5 5 5 5 5 5 5 5 5 5 5 5 5 5 5 5 5 5 5 5 5 5 5 5 5 5 5 5 5 5 5 5 5 5 5 5 5 5 5 5 5 5 5 5 5 5 5 5 5 5 5 5 5 5 5 5 5 5 5 5 5 5 5 5 5 5 5 5 5 5 5 5 5 5 5 5 5 5 5 5 5 5 5 5 5 5 5 5 5 5 5 5 5 5 5 5 5 5 5 5 5 5 5 5 5 5 5 5 5 5 5 5 5 5 5 5 5 5 5 5 5 5 5 5 5 5 5 5 5 5 5 5 5 5 5 5 5 5 5 5 5 5 5 5 5 5 5 5 5 5 5 5 5 5 5 5 5 5 5 5 5 5 5 5 5 5 5 5 5 5 5 5 5 5 5 5 5 5 5 5 5 5 5 5 5 5 5 5 5 5 5 5 5 5 5 5 5 5 5 5 5 5 5 5 5 5 5 5 5 5 5 5 5 5 5 5 5 5 5 5 5 5 5 5 5 5 5 5 5 5 5 5 5 5 5 5 
</DataArray>
</Cells>
<PointData Scalars="" Vectors="displacement," Tensors="">
<DataArray type="Float64" Name="displacement" NumberOfComponents="3" format="ascii">
-3.0133856879112829e-05 -2.7286182528309767e-05 0 -3.2470713127340924e-05 -3.5698693499910895e-05 0 -3.2470713127340924e-05 -3.5698693499910895e-05 0 -3.5156259477240042e-05 -4.5108499221991514e-05 0 -3.5156259477240042e-05 -4.5108499221991514e-05 0 -3.8110260785015252e-05 -5.583232834047537e-05 0 -3.8110260785015252e-05 -5.583232834047537e-05 0 -4.0819095949282167e-05 -6.678651005982724e-05 0 -4.0819095949282167e-05 -6.678651005982724e-05 0 -4.3199450184359061e-05 -7.7593233552062442e-05 0 -4.3199450184359061e-05 -7.7593233552062442e-05 0 -4.5444856830439832e-05 -8.8095689829774347e-05 0 -4.5444856830439832e-05 -8.8095689829774347e-05 0 -4.7678959432989707e-05 -9.8031907446303427e-05 0 -4.7678959432989707e-05 -9.8031907446303427e-05 0 -4.9928222406748658e-05 -0.00010736577189211667 0 -4.9928222406748658e-05 -0.00010736577189211667 0 -5.1376746477545898e-05 -0.00011542592274512666 0 -5.1376746477545898e-05 -0.00011542592274512666 0 -5.5706167344607476e-05 -0.00012348375842613675 0 -5.2853336180441751e-06 2.9937742798501193e-05 0 -8.4589815786332701e-07 4.5870311882852524e-05 0 -8.4589815786332701e-07 4.5870311882852524e-05 0 -2.8308018507093048e-06 5.3873706033364115e-05 0 -2.8308018507093048e-06 5.3873706033364115e-05 0 -5.1121609593005064e-06 6.855125375841985e-05 0 -5.1121609593005064e-06 6.855125375841985e-05 0 -7.771028037832695e-06 8.1763136232844473e-05 0 -7.771028037832695e-06 8.1763136232844473e-05 0 -1.0736331722666114e-05 9.6079330024667411e-05 0 -1.0736331722666114e-05 9.6079330024667411e-05 0 -1.3992752240605253e-05 0.00011024857822370799 0 -1.3992752240605253e-05 0.00011024857822370799 0 -1.7264184820745282e-05 0.00012370585842993629 0 -1.7264184820745282e-05 0.00012370585842993629 0 -2.214134310925313e-05 0.0001381149286299798 0 -2.214134310925313e-05 0.0001381149286299798 0 -2.1185659227643527e-05 0.00014951325260688768 0 -2.1185659227643527e-05 0.00014951325260688768 0 -4.2941329526468003e-05 0.00016358832872522677 0 -2.4954519207600591e-05 -1.3051392705192706e-05 0 -1.9260559729094744e-05 -6.8525219774540703e-06 0 -2.2990718709853413e-05 -1.1829620651914128e-05 0 -2.2648462072832637e-05 -8.870490703021534e-06 0 -1.9260559729094744e-05 -6.8525219774540703e-06 0 -2.4954519207600591e-05 -1.3051392705192706e-05 0 -4.1438406534517169e-05 -2.1411058705018405e-05 0 -3.6918708764084682e-05 -1.6817418871853755e-05 0 -3.7648616600403232e-05 -2.1259279104759152e-05 0 -3.7648616600403232e-05 -2.1259279104759152e-05 0 -3.6918708764084682e-05 -1.6817418871853755e-05 0 -3.3915759197554781e-05 -1.9505177737139158e-05 0 -1.8911343026659516e-05 6.6859451489389797e-06 0 -8.2391433116062567e-06 1.9840420251249025e-06 0 -1.7095013289086009e-05 4.1282503238874765e-06 0 -1.4923076831329091e-05 -7.2022243013208267e-06 0 -1.3174818986587377e-05 -5.3969486862228931e-06 0 -6.4164155974438044e-06 -2.6951357262130508e-06 0 -9.8178661394673527e-06 4.7122454044513181e-06 0 -8.2391433116062567e-06 1.9840420251249025e-06 0 -1.8911343026659516e-05 6.6859451489389797e-06 0 -8.0449664930278517e-06 -4.7066925059539908e-06 0 -1.4923076831329091e-05 -7.2022243013208267e-06 0 -6.4164155974438044e-06 -2.6951357262130508e-06 0 -3.6189725250612782e-05 -1.5115175582470435e-05 0 -4.370325332413604e-05 -1.8940114665732223e-05 0 -3.4814048838330863e-05 -1.4031444730321551e-05 0 -6.2900657168645142e-05 2.1287779537058339e-05 0 -5.0444085460985328e-05 1.5367601296154853e-05 0 -4.9556026357953002e-05 1.4318873399204164e-05 0 -5.828162227471505e-06 6.3395689608987254e-07 0 -7.4780603743091222e-06 1.7327232135904205e-06 0 -7.279833101855537e-06 5.4803857567500378e-07 0 -9.690694916025948e-06 2.7225727544215984e-06 0 -7.279833101855537e-06 5.4803857567500378e-07 0 -7.4780603743091222e-06 1.7327232135904205e-06 0 -8.2138918483059461e-06 -8.8807587619791038e-07 0 -1.093633600884438e-05 -1.9119717569586136e-06 0 -7.8772377722607912e-06 -5.5683461555362815e-07 0 -3.4961109792428233e-09 -6.7669459892070062e-10 0 -2.8491927158090492e-09 -4.8402731624125602e-10 0 -3.0871655888590646e-06 -1.0095396889326153e-06 0 -2.9089127614144002e-09 2.0481275182948264e-10 0 -3.3249298705637241e-09 1.9588819312638789e-10 0 -3.1500180832163229e-06 1.5745790529027002e-07 0 -4.6294229632971493e-05 -2.7266533232492229e-05 0 -4.6438238102631211e-05 -2.7067513123214234e-05 0 -4.1438406534517169e-05 -2.1411058705018405e-05 0 -7.1386419249497168e-06 3.3643320783204371e-05 0 -1.2793759267491637e-05 2.2207212212587505e-05 0 -1.5693951463783724e-05 2.2048977633664279e-05 0 -6.9980902522393521e-05 -0.00018908901281167143 0 -6.0060040965549005e-05 -0.00017740930422866205 0 -6.9740660594413447e-05 -0.00017366008306758166 0 -8.5509525315972062e-05 0.00038746799842436782 0 -0.00011024539583176613 0.0003623857649995128 0 -8.4996529794754275e-05 0.00035192707012561542 0 -8.5509525315972062e-05 0.00038746799842436782 0 -8.4996529794754275e-05 0.00035192707012561542 0 -6.1087074605358112e-05 0.00036025576374235541 0 -6.9980902522393521e-05 -0.00018908901281167143 0 -6.9740660594413447e-05 -0.00017366008306758166 0 -8.0346985555464041e-05 -0.0001782096129968178 0 -0.00011445643601607737 0.00033279617309308566 0 -8.2209479201110771e-05 0.00031768254591285638 0 -8.4996529794754275e-05 0.00035192707012561542 0 -5.752678909281832e-05 -0.00016382195922680769 0 -6.9714994667435063e-05 -0.00015786983452278078 0 -6.9740660594413447e-05 -0.00017366008306758166 0 -8.2138918483059461e-06 -8.8807587619791038e-07 0 -7.8772377722607912e-06 -5.5683461555362815e-07 0 -5.5438156069436339e-06 -7.4149835905840522e-08 0 -7.1386419249497168e-06 3.3643320783204371e-05 0 -1.8820458665886514e-05 3.1121284846480254e-05 0 -1.2793759267491637e-05 2.2207212212587505e-05 0 -0.00013524472392692581 0.00010525026552443138 0 -0.00012214977075381746 7.963182677917828e-05 0 -0.00010025943733175852 8.4919009515761786e-05 0 -7.6655613099057258e-05 -4.7896623584268021e-05 0 -8.401628102901373e-05 -5.956998311096442e-05 0 -6.7477700993215289e-05 -5.0363432852873525e-05 0 -3.9784121759932104e-05 -2.3108876634549589e-05 0 -4.6294229632971493e-05 -2.7266533232492229e-05 0 -4.1438406534517169e-05 -2.1411058705018405e-05 0 -7.1971418555611685e-05 6.9732384381545923e-05 0 -6.2810849456184284e-05 4.3856912267472923e-05 0 -5.2625839833482189e-05 4.6236155954438927e-05 0 -3.7805301481773107e-05 1.5733178519578931e-05 0 -4.9583267604920736e-05 2.2198222194235145e-05 0 -4.6185540630840835e-05 1.4998341215434887e-05 0 -3.1409725386860283e-05 -6.3530406353802739e-06 0 -2.7564260886112554e-05 -1.3758998499930534e-06 0 -3.3531380627725019e-05 -9.8829941848545192e-06 0 -6.7761672849780358e-05 -0.00014132198627733679 0 -5.841483576952283e-05 -0.00013598319209844517 0 -6.7234722041455746e-05 -0.00012349104660554181 0 -8.2043486221204209e-05 0.00028291190316810546 0 -0.00010288288948351449 0.00027325585692018815 0 -7.6197065603699613e-05 0.00024369146346648864 0 -6.7234722041455746e-05 -0.00012349104660554181 0 -5.841483576952283e-05 -0.00013598319209844517 0 -5.6425332690727631e-05 -0.00012058139667936341 0 -7.6197065603699613e-05 0.00024369146346648864 0 -0.00010288288948351449 0.00027325585692018815 0 -0.00010115435027406339 0.00024442843547591839 0 -3.7805301481773107e-05 1.5733178519578931e-05 0 -4.6185540630840835e-05 1.4998341215434887e-05 0 -3.3416028903738757e-05 1.0502387547660637e-05 0 -3.2195288321955652e-05 -1.1995544581739693e-05 0 -2.7292458924733538e-05 1.3701314726851294e-06 0 -3.1409725386860283e-05 -6.3530406353802739e-06 0 -7.1971418555611685e-05 6.9732384381545923e-05 0 -8.0861388376453919e-05 6.0597907737618405e-05 0 -6.2810849456184284e-05 4.3856912267472923e-05 0 -7.1386419249497168e-06 3.3643320783204371e-05 0 5.5218202416620006e-06 8.5897100320884854e-05 0 -2.1929699617736194e-05 8.9473052202978962e-05 0 -6.2138575944474872e-05 -6.1135550873443924e-05 0 -5.6972954477024879e-05 -5.6577192782885593e-05 0 -6.2314555292071832e-05 -5.8347821025947582e-05 0 -4.4286966258002494e-05 -5.4854485007938041e-05 0 -4.2744177967915777e-05 -5.2241775692266804e-05 0 -4.4249157705289924e-05 -5.6847710222772073e-05 0 -2.3641398446313503e-05 5.6736363768776007e-06 0 -2.7564260886112554e-05 -1.3758998499930534e-06 0 -3.1409725386860283e-05 -6.3530406353802739e-06 0 -3.8297870401880646e-05 -0.00017020981426737837 0 -4.6518242238419987e-05 -0.00015998469488831635 0 -5.0069926180240931e-05 -0.00017311572056432929 0 -0.00017074349891149103 0.00036032117050998274 0 -0.00014324548616352102 0.00032976067437659825 0 -0.00013771867815192605 0.00035671448591906616 0 -2.4331176037225928e-09 -3.8066876378623613e-10 0 -2.0784340130078892e-06 -3.9986488718696392e-07 0 -2.2887226015581171e-06 -6.9655069092171234e-07 0 -2.6066853929920605e-09 2.2963715566911626e-10 0 -2.5597978021323763e-06 2.6434158666921324e-07 0 -2.4327608568966357e-06 3.4034531531018082e-07 0 -7.1971418555611685e-05 6.9732384381545923e-05 0 -5.31647175663082e-05 6.648069225764399e-05 0 -6.7889395688776937e-05 9.9839579842053662e-05 0 -4.3815690589934806e-05 8.8394692838775305e-05 0 -6.7889395688776937e-05 9.9839579842053662e-05 0 -5.31647175663082e-05 6.6480692257644004e-05 0 -2.7175317105634784e-05 5.5831323998835629e-05 0 -7.1386419249497168e-06 3.3643320783204371e-05 0 -2.1929699617736194e-05 8.9473052202978962e-05 0 -0.00017058240517041785 0.0002992931134644046 0 -0.00013155278790406483 0.00030001311126333786 0 -0.00014324548616352102 0.00032976067437659825 0 -3.2912135259704607e-05 -0.00014137355146409434 0 -4.8940052998864773e-05 -0.00014664679096689125 0 -4.6518242238419987e-05 -0.00015998469488831635 0 -4.3615602317766635e-05 -5.0575787065222962e-05 0 -4.3776296715194423e-05 -4.7015684876422965e-05 0 -4.6608932127632362e-05 -5.0784362333063137e-05 0 -3.0554979078374872e-05 -6.511271193675495e-06 0 -3.3531380627725019e-05 -9.8829941848545192e-06 0 -2.7564260886112554e-05 -1.3758998499930534e-06 0 -3.6939700938932818e-05 -1.6103183776751753e-05 0 -3.9864215332316929e-05 -2.2104456394934039e-05 0 -3.697585328625983e-05 -2.1580652609168654e-05 0 -3.2131154295070469e-05 -3.2269123532260741e-05 0 -3.2089644149179604e-05 -2.8436114999236415e-05 0 -3.7243109998981497e-05 -3.4726000352613086e-05 0 -0.00015605323117349885 0.0001667580124928823 0 -0.00012325025976181114 0.00014518526295658716 0 -0.00013495318183603927 0.00018521774589265534 0 -0.00010667622466204272 -0.00014948124285643313 0 -9.4764216379715147e-05 -0.00016377322818903812 0 -9.0225834775680761e-05 -0.00015066137562310596 0 6.5447414349011757e-07 0.00028566499207813197 0 -2.8315622665425581e-05 0.00032359357006108065 0 -3.4204739279588542e-05 0.00029673965367491082 0 -3.5603970656113684e-05 -0.00015573903516984204 0 -4.6518242238419987e-05 -0.00015998469488831635 0 -3.8297870401880646e-05 -0.00017020981426737837 0 -0.00017074349891149103 0.00036032117050998274 0 -0.00017086847789732582 0.00033028098014707349 0 -0.00014324548616352102 0.00032976067437659825 0 -5.3592778610464254e-05 -5.0036357847011348e-05 0 -5.4114867696543669e-05 -4.6319341922364657e-05 0 -5.6799498629399837e-05 -5.1033659017566054e-05 0 -3.0399269578328459e-05 -2.7545567240174687e-05 0 -3.4398722379243688e-05 -3.2847960659766246e-05 0 -3.5984952031895944e-05 -4.5722801442454949e-05 0 -5.3592778610464254e-05 -5.0036357847011348e-05 0 -5.1494801817883247e-05 -4.6318824606800072e-05 0 -5.4114867696543669e-05 -4.6319341922364657e-05 0 -3.606411833997756e-05 -2.9007962394873296e-05 0 -3.7243109998981497e-05 -3.4726000352613086e-05 0 -3.2089644149179604e-05 -2.8436114999236415e-05 0 -5.8517325708209578e-05 -7.5051942646776944e-05 0 -6.2812023088464715e-05 -9.4570146983810239e-05 0 -5.1215333915949914e-05 -7.9200143569905436e-05 0 -4.7964703239932684e-09 3.1126230754288209e-10 0 -6.4164155974438044e-06 -2.6951357262130508e-06 0 -4.4609420991739554e-06 -1.1554474815203276e-06 0 -6.265086720764579e-09 -7.5174719174719913e-10 0 -5.6302530306672081e-06 1.6594696287364476e-07 0 -8.2391433116062567e-06 1.9840420251249025e-06 0 -6.2138575944474872e-05 -6.1135550873443924e-05 0 -5.7127267808420389e-05 -6.024598292269265e-05 0 -5.6972954477024879e-05 -5.6577192782885593e-05 0 -4.4930160121930755e-05 -5.7980486406494642e-05 0 -4.4286966258002494e-05 -5.4854485007938041e-05 0 -4.4249157705289924e-05 -5.6847710222772073e-05 0 -4.8436183941425324e-09 -1.0438676783116996e-09 0 -7.3670718684407563e-06 -4.5387839667935228e-07 0 -5.6302530306672072e-06 1.6594696287364428e-07 0 -4.0380364226274491e-09 3.1484305339330644e-10 0 -4.4609420991739554e-06 -1.1554474815203276e-06 0 -6.0662608470622999e-06 -1.0951908620152352e-06 0 -7.279833101855537e-06 5.4803857567500378e-07 0 -5.3280100404745397e-06 -8.3158850618973022e-07 0 -5.2304641462449216e-06 -1.1373660650186444e-07 0 -2.1731264147200318e-05 -9.5048865608692148e-06 0 -1.8029145818749714e-05 -6.6308398610356514e-06 0 -1.3174818986587377e-05 -5.3969486862228931e-06 0 -2.8504723858577042e-05 8.6655546744827793e-06 0 -1.7095013289086013e-05 4.1282503238874765e-06 0 -2.3678514709003232e-05 4.7683052780254394e-06 0 -4.1732480607424917e-05 -3.4895747366261079e-05 0 -3.9464983040048771e-05 -2.9768560002884837e-05 0 -4.3546410815646576e-05 -3.2421947714581047e-05 0 -4.0902331308894567e-05 -2.7059222651424752e-05 0 -3.697585328625983e-05 -2.1580652609168654e-05 0 -3.9864215332316929e-05 -2.2104456394934039e-05 0 -6.8684573166859012e-06 0.00034616021571970087 0 -3.6057805548549669e-05 0.00035106273758080467 0 -2.8315622665425581e-05 0.00032359357006108065 0 -0.00010691072461740787 -0.00017727725494828944 0 -9.2239295973616583e-05 -0.00017564769400025317 0 -9.4764216379715147e-05 -0.00016377322818903812 0 -4.0902331308894567e-05 -2.7059222651424752e-05 0 -4.3546410815646576e-05 -3.2421947714581047e-05 0 -3.9464983040048771e-05 -2.9768560002884837e-05 0 -4.3776296715194423e-05 -4.7015684876422965e-05 0 -4.0437569933075573e-05 -4.5066790735958033e-05 0 -4.2247786083265088e-05 -4.1372019104089814e-05 0 -0.00010160700975372871 0.00021436738101808799 0 -9.0245043044435069e-05 0.00017183206000320552 0 -7.3373679166195563e-05 0.0001868153226993369 0 -6.265086720764579e-09 -7.5174719174719913e-10 0 -6.7409626157182906e-09 5.4001062088847599e-10 0 -5.6302530306672072e-06 1.6594696287364428e-07 0 -5.3326744133405713e-09 -8.063273654926941e-10 0 -4.7964703239932684e-09 3.1126230754288209e-10 0 -4.4609420991739554e-06 -1.1554474815203276e-06 0 -7.279833101855537e-06 5.4803857567500378e-07 0 -8.436853975358539e-06 1.0638050277033424e-07 0 -5.3280100404745397e-06 -8.3158850618973022e-07 0 -5.5385272260041781e-05 0.00032983625200955864 0 -8.4996529794754275e-05 0.00035192707012561542 0 -8.2209479201110771e-05 0.00031768254591285638 0 -8.2056662573565771e-05 -0.00016455682041876545 0 -6.9740660594413447e-05 -0.00017366008306758166 0 -6.9714994667435063e-05 -0.00015786983452278078 0 -6.2812023088464715e-05 -9.4570146983810239e-05 0 -5.2992625545795098e-05 -9.4397059534131339e-05 0 -5.1215333915949914e-05 -7.9200143569905436e-05 0 -3.1906329953513069e-06 1.7000226971752154e-07 0 -4.5486940096369526e-06 4.2695228795842268e-07 0 -4.2093896102783368e-06 2.1895557963158792e-07 0 -2.1627783271468378e-05 3.7582720132930659e-06 0 -1.7541006456178023e-05 3.2865958185212792e-06 0 -2.4854617402281474e-05 6.5233475282927129e-06 0 -4.0437569933075573e-05 -4.5066790735958033e-05 0 -3.854509716577976e-05 -4.0424657641642686e-05 0 -4.2247786083265088e-05 -4.1372019104089814e-05 0 -4.2093896102783368e-06 2.1895557963158792e-07 0 -4.5486940096369526e-06 4.2695228795842268e-07 0 -5.3952493927290261e-06 6.3622025305029272e-07 0 -4.5486940096369526e-06 4.2695228795842268e-07 0 -2.6603592597694567e-06 2.5989526862392201e-07 0 -4.6143667256199228e-06 3.6909872725962468e-07 0 -3.3579316421504427e-06 3.5749796127258079e-07 0 -4.6143667256199228e-06 3.6909872725962468e-07 0 -2.6603592597694567e-06 2.5989526862392201e-07 0 -5.7211910797965319e-05 -4.9243783275169439e-05 0 -5.4114867696543669e-05 -4.6319341922364657e-05 0 -5.6250835493716134e-05 -4.5293754643066801e-05 0 -3.6939700938932818e-05 -1.6103183776751753e-05 0 -3.6975853286259824e-05 -2.158065260916865e-05 0 -3.4582536347763554e-05 -1.3991224564766639e-05 0 -4.3615602317766635e-05 -5.0575787065222962e-05 0 -4.0437569933075573e-05 -4.5066790735958033e-05 0 -4.3776296715194423e-05 -4.7015684876422965e-05 0 -2.3641398446313503e-05 5.6736363768776007e-06 0 -3.1409725386860283e-05 -6.3530406353802722e-06 0 -2.7292458924733538e-05 1.3701314726851294e-06 0 -3.0339666717699292e-06 0.00031571798738715449 0 -6.8684573166859012e-06 0.00034616021571970087 0 -2.8315622665425581e-05 0.00032359357006108065 0 -0.00010696404759331778 -0.00016372372439423527 0 -0.00010691072461740787 -0.00017727725494828944 0 -9.4764216379715147e-05 -0.00016377322818903812 0 -0.00010667622466204272 -0.00014948124285643313 0 -0.00010696404759331778 -0.00016372372439423527 0 -9.4764216379715147e-05 -0.00016377322818903812 0 6.5447414349011757e-07 0.00028566499207813197 0 -3.0339666717699292e-06 0.00031571798738715449 0 -2.8315622665425581e-05 0.00032359357006108065 0 -1.7933034241851836e-05 1.1616670847869416e-05 0 -1.7409431306401993e-05 8.8011002114756712e-06 0 -2.3641398446313503e-05 5.6736363768776007e-06 0 -8.0741479893049241e-06 -3.9017598257368218e-07 0 -5.3237263151944434e-06 1.8365994337298505e-07 0 -7.8772377722607912e-06 -5.5683461555362815e-07 0 -4.5787639424466836e-06 1.9727698691940284e-07 0 -7.8772377722607912e-06 -5.5683461555362815e-07 0 -5.3237263151944434e-06 1.8365994337298505e-07 0 -2.412259256507117e-05 0.00018746631924499558 0 -1.7183358152571766e-05 0.00020914423844475125 0 -4.8414802291527478e-05 0.00021210823691937694 0 -1.7183358152571766e-05 0.00020914423844475125 0 -2.633619403054965e-05 0.00023255025578912281 0 -4.8414802291527478e-05 0.00021210823691937694 0 -3.2195288321955652e-05 -1.1995544581739693e-05 0 -3.1409725386860283e-05 -6.3530406353802756e-06 0 -3.4582536347763554e-05 -1.3991224564766639e-05 0 -4.5894600266649102e-05 -5.9797618322721905e-05 0 -4.4249157705289931e-05 -5.6847710222772073e-05 0 -4.5408204850667323e-05 -5.6240897861476239e-05 0 -5.219134972530174e-05 -5.9940242784573511e-05 0 -5.2806941558622399e-05 -5.520874756416845e-05 0 -5.6972954477024879e-05 -5.6577192782885593e-05 0 -1.7409431306401993e-05 8.8011002114756712e-06 0 -2.1354198631260151e-05 3.72007936682737e-06 0 -2.3641398446313503e-05 5.6736363768776007e-06 0 -0.00017086847789732582 0.00033028098014707349 0 -0.00017058240517041785 0.0002992931134644046 0 -0.00014324548616352102 0.00032976067437659825 0 -3.2912135259704607e-05 -0.00014137355146409434 0 -4.6518242238419987e-05 -0.00015998469488831635 0 -3.5603970656113684e-05 -0.00015573903516984204 0 -4.370325332413604e-05 -1.8940114665732223e-05 0 -4.304630185276357e-05 -1.8887482842376247e-05 0 -3.4814048838330863e-05 -1.4031444730321551e-05 0 -6.2900657168645142e-05 2.1287779537058339e-05 0 -4.9556026357953002e-05 1.4318873399204164e-05 0 -6.105828111866014e-05 2.1461437248273402e-05 0 -3.2195288321955652e-05 -1.1995544581739693e-05 0 -3.697585328625983e-05 -2.1580652609168654e-05 0 -3.2592813847566937e-05 -2.240309606287685e-05 0 -3.0399269578328459e-05 -2.7545567240174687e-05 0 -3.5984952031895944e-05 -4.5722801442454949e-05 0 -2.5426953039654207e-05 -4.7793233414254262e-05 0 -3.606411833997756e-05 -2.9007962394873296e-05 0 -3.697585328625983e-05 -2.1580652609168654e-05 0 -3.9464983040048771e-05 -2.9768560002884837e-05 0 -4.0902331308894567e-05 -2.7059222651424752e-05 0 -3.9464983040048771e-05 -2.9768560002884837e-05 0 -3.697585328625983e-05 -2.1580652609168654e-05 0 -6.9980902522393521e-05 -0.00018908901281167143 0 -5.9586431947759226e-05 -0.00018784950631894743 0 -6.0060040965549005e-05 -0.00017740930422866205 0 -8.5509525315972062e-05 0.00038746799842436782 0 -0.00011291101946546784 0.00038851490415928776 0 -0.00011024539583176611 0.0003623857649995128 0 -5.9745179394225913e-05 0.0003849445823125045 0 -8.5509525315972062e-05 0.00038746799842436782 0 -6.1087074605358112e-05 0.00036025576374235541 0 -8.1530577278906874e-05 -0.00018958765564313404 0 -6.9980902522393521e-05 -0.00018908901281167143 0 -8.0346985555464041e-05 -0.0001782096129968178 0 -3.4193897855815774e-05 4.2418010162364453e-05 0 -5.31647175663082e-05 6.6480692257644004e-05 0 -5.2625839833482189e-05 4.6236155954438927e-05 0 -4.6299951049322667e-05 -3.2266903024864905e-05 0 -4.9876806142056329e-05 -3.7390469089999252e-05 0 -4.7424108046065495e-05 -3.7580285349581945e-05 0 -3.606411833997756e-05 -2.9007962394873296e-05 0 -3.9464983040048771e-05 -2.9768560002884837e-05 0 -3.7243109998981497e-05 -3.4726000352613086e-05 0 -4.1732480607424917e-05 -3.4895747366261079e-05 0 -3.7243109998981497e-05 -3.4726000352613086e-05 0 -3.9464983040048771e-05 -2.9768560002884837e-05 0 -4.3275230902150225e-05 -8.2630583106339608e-05 0 -4.016990466167107e-05 -6.4347633160968817e-05 0 -5.1215333915949914e-05 -7.9200143569905436e-05 0 -0.00013524472392692581 0.00010525026552443138 0 -0.00010025943733175852 8.4919009515761786e-05 0 -0.00012116679688624318 0.00011641890650861299 0 -3.7155688981024806e-05 -2.1821400780497765e-05 0 -4.4796658459760284e-05 -2.9761605348786304e-05 0 -3.5792389651421899e-05 -2.448805413334191e-05 0 -4.1114986735581616e-05 -3.2820491985317063e-05 0 -3.5792389651421899e-05 -2.448805413334191e-05 0 -4.4796658459760284e-05 -2.9761605348786304e-05 0 -5.5155942552472408e-05 -5.2963505479384865e-05 0 -5.098359589854612e-05 -5.1654485610467884e-05 0 -5.3592778610464254e-05 -5.0036357847011348e-05 0 -0.00011152859942433904 0.0001669319158650223 0 -0.00013495318183603927 0.00018521774589265534 0 -0.00012325025976181114 0.00014518526295658716 0 -4.2262092852892987e-05 -1.9950419476234828e-05 0 -5.1377453143400325e-05 -2.658464153464504e-05 0 -4.4203350247883109e-05 -2.4341711152844254e-05 0 -5.3209673739753039e-05 -3.1702364848739818e-05 0 -4.4203350247883109e-05 -2.4341711152844254e-05 0 -5.1377453143400325e-05 -2.658464153464504e-05 0 -7.5523446538047046e-05 4.6280988539690607e-05 0 -7.4308150097909586e-05 3.5863930717904363e-05 0 -6.0444919976956512e-05 3.2399578057036367e-05 0 -5.9370134734950182e-05 2.4560192411071812e-05 0 -6.0444919976956512e-05 3.2399578057036367e-05 0 -7.4308150097909586e-05 3.5863930717904363e-05 0 -5.2001066592833223e-05 -4.2432293405047962e-05 0 -4.8709534208367271e-05 -4.2400886699110452e-05 0 -4.7424108046065495e-05 -3.7580285349581945e-05 0 -8.401628102901373e-05 -5.956998311096442e-05 0 -7.831964436948112e-05 -6.4314481441638978e-05 0 -6.7477700993215289e-05 -5.0363432852873525e-05 0 -3.4879482995663581e-05 0.00015784098317834209 0 -5.2345175952821711e-05 0.00012742063910209823 0 -2.830602344212146e-05 0.00012128276242811029 0 -3.0554979078374872e-05 -6.511271193675495e-06 0 -3.2193798519853154e-05 -1.0866377964534342e-05 0 -3.6091197108261547e-05 -1.3782098855184886e-05 0 -1.1778581555769138e-05 1.5369494050045086e-06 0 -1.08988954277673e-05 4.0494677947221631e-06 0 -9.346146353305685e-06 2.3603433844220421e-06 0 -0.00012434539807524057 0.00026392957995426499 0 -0.00010288288948351449 0.00027325585692018815 0 -0.00013155278790406483 0.00030001311126333786 0 -4.8847857532824388e-05 -0.00012943423782053686 0 -5.841483576952283e-05 -0.00013598319209844517 0 -4.8940052998864766e-05 -0.00014664679096689125 0 -3.2195288321955652e-05 -1.1995544581739693e-05 0 -3.4582536347763547e-05 -1.3991224564766639e-05 0 -3.697585328625983e-05 -2.1580652609168654e-05 0 -5.2806941558622399e-05 -5.520874756416845e-05 0 -5.098359589854612e-05 -5.1654485610467884e-05 0 -5.5155942552472408e-05 -5.2963505479384865e-05 0 -4.1732480607424917e-05 -3.4895747366261079e-05 0 -4.4880984766871073e-05 -3.7878649199688479e-05 0 -4.2247786083265088e-05 -4.1372019104089814e-05 0 -2.8491927158090492e-09 -4.8402731624125602e-10 0 -2.2887226015581171e-06 -6.9655069092171234e-07 0 -3.0871655888590646e-06 -1.0095396889326153e-06 0 -2.9089127614144002e-09 2.0481275182948264e-10 0 -3.1500180832163229e-06 1.5745790529027002e-07 0 -2.5597978021323763e-06 2.6434158666921324e-07 0 -4.016990466167107e-05 -6.4347633160968817e-05 0 -4.9784203947428346e-05 -6.4880337812964629e-05 0 -5.1215333915949914e-05 -7.9200143569905436e-05 0 -2.1627783271468378e-05 3.7582720132930659e-06 0 -2.4854617402281474e-05 6.5233475282927129e-06 0 -2.8846704315245941e-05 6.2355970376755209e-06 0 -4.4100564027049148e-05 2.7047895085645099e-05 0 -5.2625839833482182e-05 4.6236155954438927e-05 0 -6.2810849456184284e-05 4.3856912267472923e-05 0 -3.7796691956438041e-06 -5.6681742299602679e-07 0 -2.0784340130078892e-06 -3.9986488718696392e-07 0 -3.9734777500723079e-06 -1.670186138112809e-07 0 -2.9160530718850046e-06 -5.0137797829777192e-08 0 -3.9734777500723079e-06 -1.670186138112809e-07 0 -2.0784340130078892e-06 -3.9986488718696392e-07 0 -3.3579316421504427e-06 3.5749796127258079e-07 0 -2.4327608568966357e-06 3.4034531531018076e-07 0 -5.3237263151944434e-06 1.8365994337298505e-07 0 -4.5787639424466836e-06 1.9727698691940284e-07 0 -5.3237263151944434e-06 1.8365994337298505e-07 0 -2.4327608568966357e-06 3.4034531531018082e-07 0 -3.7805301481773107e-05 1.5733178519578931e-05 0 -3.2246267521921251e-05 1.757298891966175e-05 0 -4.4100564027049148e-05 2.7047895085645099e-05 0 -1.1778581555769138e-05 1.5369494050045086e-06 0 -1.4257431674400526e-05 2.9151741388725677e-06 0 -1.08988954277673e-05 4.0494677947221631e-06 0 -9.690694916025948e-06 2.7225727544215984e-06 0 -1.0180857819690604e-05 1.3722577562264676e-06 0 -7.279833101855537e-06 5.4803857567500378e-07 0 -2.4854617402281474e-05 6.5233475282927129e-06 0 -1.7541006456178023e-05 3.2865958185212792e-06 0 -2.0950411315411368e-05 7.2030588802064444e-06 0 -1.8707138822082186e-05 1.8054358579073996e-06 0 -1.5843232009112396e-05 5.8405950290107854e-06 0 -1.4257431674400526e-05 2.9151741388725672e-06 0 -1.7855015214058008e-05 -5.8738103647703573e-06 0 -1.9976861136949298e-05 -7.833333045047862e-06 0 -1.5392803543630459e-05 -4.3739212780059767e-06 0 -1.8201736218171629e-05 -6.6668471082500031e-06 0 -1.5392803543630459e-05 -4.3739212780059767e-06 0 -1.9976861136949298e-05 -7.833333045047862e-06 0 -6.7409626157181855e-09 5.4001062088847309e-10 0 -4.8436183941425324e-09 -1.0438676783116996e-09 0 -5.6302530306672072e-06 1.6594696287364428e-07 0 -4.0380364226274491e-09 3.1484305339330644e-10 0 -5.3326744133405713e-09 -8.063273654926941e-10 0 -4.4609420991739554e-06 -1.1554474815203276e-06 0 8.4344789460226488e-06 0.00012270015809027365 0 -2.830602344212146e-05 0.00012128276242811029 0 -2.1929699617736194e-05 8.9473052202978962e-05 0 -8.0741479893049241e-06 -3.9017598257368218e-07 0 -1.1589538090120674e-05 -1.8728147928800388e-06 0 -8.7006935412692512e-06 -2.5717073952563355e-07 0 -3.6918708764084682e-05 -1.6817418871853755e-05 0 -3.0826514055539387e-05 -1.3563258677758757e-05 0 -3.3915759197554781e-05 -1.9505177737139158e-05 0 -4.8648326205095643e-05 -5.4374956531509881e-05 0 -5.098359589854612e-05 -5.1654485610467884e-05 0 -5.2806941558622399e-05 -5.520874756416845e-05 0 -3.6189725250612782e-05 -1.5115175582470435e-05 0 -3.4814048838330863e-05 -1.4031444730321551e-05 0 -2.9485380333685478e-05 -1.1455187991943143e-05 0 -5.0444085460985328e-05 1.5367601296154853e-05 0 -4.0667152528008407e-05 1.0346723669832464e-05 0 -4.9556026357953002e-05 1.4318873399204164e-05 0 -4.5671460290233205e-05 -4.2176116508277815e-05 0 -4.2247786083265088e-05 -4.1372019104089814e-05 0 -4.4880984766871073e-05 -3.7878649199688479e-05 0 -3.4814048838330863e-05 -1.4031444730321551e-05 0 -2.970670712742079e-05 -1.1638173637536737e-05 0 -2.8288272214680119e-05 -1.0601730012220909e-05 0 -3.6532630426468125e-05 9.8831304066886063e-06 0 -3.3416028903738757e-05 1.0502387547660637e-05 0 -4.6185540630840835e-05 1.4998341215434887e-05 0 -3.6850194840439784e-05 -1.5728999808715123e-05 0 -2.970670712742079e-05 -1.1638173637536737e-05 0 -3.4814048838330863e-05 -1.4031444730321551e-05 0 -1.3399333008086943e-05 -3.0684262543592863e-06 0 -1.5635612309779755e-05 -4.1705221134307664e-06 0 -1.7648460459846827e-05 -5.3210938366230849e-06 0 -1.2855969334065023e-05 1.0269448678760136e-06 0 -1.7541006456178023e-05 3.2865958185212792e-06 0 -1.7428853064364421e-05 1.5121505439551291e-06 0 -4.9583267604920736e-05 2.2198222194235145e-05 0 -3.7805301481773107e-05 1.5733178519578931e-05 0 -4.4100564027049148e-05 2.7047895085645099e-05 0 -5.2001066592833223e-05 -4.2432293405047962e-05 0 -4.7424108046065495e-05 -3.7580285349581945e-05 0 -4.9876806142056329e-05 -3.7390469089999252e-05 0 -3.9837851503689788e-05 0.00026308961171231957 0 -3.4204739279588542e-05 0.00029673965367491082 0 -6.0064125303870395e-05 0.00029483735812386921 0 -8.5082603059074218e-05 -0.0001342493907215793 0 -9.0225834775680761e-05 -0.00015066137562310596 0 -7.8124000670515658e-05 -0.00014805651874914841 0 -3.7796691956438041e-06 -5.6681742299602679e-07 0 -2.2887226015581171e-06 -6.9655069092171234e-07 0 -2.0784340130078892e-06 -3.9986488718696392e-07 0 -4.5787639424466836e-06 1.9727698691940284e-07 0 -2.4327608568966353e-06 3.4034531531018082e-07 0 -2.5597978021323763e-06 2.6434158666921324e-07 0 -3.4961109792428233e-09 -6.7669459892070062e-10 0 -3.0871655888590646e-06 -1.0095396889326153e-06 0 -3.4050241377555714e-06 -9.9830569769629693e-07 0 -3.3249298705637241e-09 1.9588819312638789e-10 0 -3.193683066499396e-06 -2.0121014831457672e-08 0 -3.1500180832163229e-06 1.5745790529027002e-07 0 -3.6918708764084682e-05 -1.6817418871853755e-05 0 -4.1438406534517169e-05 -2.1411058705018405e-05 0 -4.0591626244354603e-05 -1.9608144455032486e-05 0 -4.3867330916403775e-05 -2.4091655903586873e-05 0 -4.0591626244354603e-05 -1.9608144455032486e-05 0 -4.1438406534517169e-05 -2.1411058705018405e-05 0 -7.5067511699386657e-05 0.00013642421253562507 0 -6.7889395688776937e-05 9.9839579842053662e-05 0 -5.2345175952821711e-05 0.00012742063910209823 0 -4.3815690589934806e-05 8.8394692838775305e-05 0 -5.2345175952821711e-05 0.00012742063910209823 0 -6.7889395688776937e-05 9.9839579842053662e-05 0 -1.8337037072713996e-05 2.1005925394879547e-05 0 -1.3700172694368387e-05 1.3828419660711874e-05 0 -1.2793759267491637e-05 2.2207212212587505e-05 0 -3.6918708764084682e-05 -1.6817418871853755e-05 0 -3.2193798519853154e-05 -1.0866377964534342e-05 0 -3.0826514055539387e-05 -1.3563258677758757e-05 0 -5.828162227471505e-06 6.3395689608987254e-07 0 -4.2093896102783368e-06 2.1895557963158792e-07 0 -5.3952493927290261e-06 6.3622025305029272e-07 0 -4.6299951049322667e-05 -3.2266903024864905e-05 0 -4.7424108046065495e-05 -3.7580285349581945e-05 0 -4.3546410815646576e-05 -3.2421947714581047e-05 0 -0.00010160700975372871 0.00021436738101808799 0 -0.00011415817936979499 0.00019068549609990547 0 -9.0245043044435069e-05 0.00017183206000320552 0 -5.7211910797965319e-05 -4.9243783275169439e-05 0 -5.6250835493716134e-05 -4.5293754643066801e-05 0 -5.9395685932587365e-05 -5.0399943372892936e-05 0 -4.3776296715194423e-05 -4.7015684876422965e-05 0 -4.58861805331722e-05 -4.5787461149500788e-05 0 -4.6608932127632362e-05 -5.0784362333063137e-05 0 -1.1754664810996047e-05 -2.2286767687413427e-06 0 -7.8772377722607912e-06 -5.5683461555362815e-07 0 -1.093633600884438e-05 -1.9119717569586136e-06 0 -7.1971418555611685e-05 6.9732384381545923e-05 0 -5.2625839833482189e-05 4.6236155954438927e-05 0 -5.31647175663082e-05 6.6480692257644004e-05 0 -1.4923076831329091e-05 -7.2022243013208267e-06 0 -2.1731264147200318e-05 -9.5048865608692148e-06 0 -1.3174818986587377e-05 -5.3969486862228931e-06 0 -2.8504723858577042e-05 8.6655546744827793e-06 0 -1.8911343026659516e-05 6.6859451489389797e-06 0 -1.7095013289086009e-05 4.1282503238874765e-06 0 -3.606411833997756e-05 -2.9007962394873296e-05 0 -3.2592813847566937e-05 -2.240309606287685e-05 0 -3.697585328625983e-05 -2.1580652609168654e-05 0 -6.6744178512049833e-06 -8.0016931316892192e-07 0 -1.1109240992328764e-05 -2.1752252991037496e-06 0 -6.6808625177363572e-06 -5.2977108941788724e-07 0 -7.4242098960346397e-06 -9.6294608182449118e-07 0 -6.4372588094763554e-06 -1.11719768648933e-06 0 -1.2079267408716078e-05 -1.4532784354086064e-07 0 -0.00012214977075381746 7.963182677917828e-05 0 -9.5616149113899519e-05 6.2659380553794258e-05 0 -0.00010025943733175852 8.4919009515761786e-05 0 -7.6655613099057258e-05 -4.7896623584268021e-05 0 -6.7477700993215289e-05 -5.0363432852873525e-05 0 -6.3553892659456396e-05 -3.9482527260930445e-05 0 -3.4193897855815774e-05 4.2418010162364453e-05 0 -1.8820458665886514e-05 3.1121284846480254e-05 0 -2.7175317105634784e-05 5.5831323998835629e-05 0 -7.1386419249497168e-06 3.3643320783204371e-05 0 -2.7175317105634784e-05 5.5831323998835629e-05 0 -1.8820458665886514e-05 3.1121284846480254e-05 0 -4.4439367073721692e-05 -5.1439839086623994e-05 0 -5.403447516235457e-05 -5.6401445477855787e-05 0 -4.9784203947428346e-05 -6.4880337812964629e-05 0 -5.8517325708209578e-05 -7.5051942646776944e-05 0 -4.9784203947428346e-05 -6.4880337812964629e-05 0 -5.403447516235457e-05 -5.6401445477855787e-05 0 -3.2195288321955652e-05 -1.1995544581739693e-05 0 -2.6946896308682764e-05 -3.1209109765397883e-06 0 -2.7292458924733538e-05 1.3701314726851294e-06 0 -4.8648326205095643e-05 -5.4374956531509881e-05 0 -5.2806941558622406e-05 -5.5208747564168457e-05 0 -4.9832340590731508e-05 -5.7419543794496493e-05 0 -5.828162227471505e-06 6.3395689608987254e-07 0 -7.279833101855537e-06 5.4803857567500378e-07 0 -5.2304641462449216e-06 -1.1373660650186444e-07 0 -4.4796658459760284e-05 -2.9761605348786304e-05 0 -5.598696032989202e-05 -3.8836608971794289e-05 0 -4.8787761545655888e-05 -3.7692817542169973e-05 0 -4.5894600266649102e-05 -5.9797618322721905e-05 0 -4.5408204850667323e-05 -5.6240897861476239e-05 0 -4.7455609338837876e-05 -5.7384786326901356e-05 0 -0.00010132891143808606 0.00011578895547879091 0 -0.00012116679688624318 0.00011641890650861299 0 -0.00010025943733175852 8.4919009515761786e-05 0 -0.00013155278790406483 0.00030001311126333786 0 -0.00010288288948351449 0.00027325585692018815 0 -0.000102598535218688 0.00030234600629932884 0 -4.8940052998864766e-05 -0.00014664679096689125 0 -5.841483576952283e-05 -0.00013598319209844517 0 -6.0593227898746052e-05 -0.00014964215869637393 0 -1.4843623485052015e-05 -3.3252577314994134e-06 0 -1.4348094643132684e-05 -1.7587099541505447e-06 0 -1.1687518399395293e-05 -1.3089048256062997e-06 0 -4.3867330916403775e-05 -2.4091655903586873e-05 0 -4.1438406534517169e-05 -2.1411058705018405e-05 0 -4.6438238102631211e-05 -2.7067513123214234e-05 0 -7.3874750809661768e-06 1.2372855967276289e-06 0 -9.346146353305685e-06 2.3603433844220421e-06 0 -8.0512968670525585e-06 2.3716819376022261e-06 0 -9.5395653025324371e-06 3.9588219310987921e-06 0 -8.0512968670525585e-06 2.3716819376022261e-06 0 -9.346146353305685e-06 2.3603433844220421e-06 0 -2.4854617402281474e-05 6.5233475282927129e-06 0 -3.3416028903738757e-05 1.0502387547660637e-05 0 -2.8846704315245941e-05 6.2355970376755209e-06 0 -5.8517325708209578e-05 -7.5051942646776944e-05 0 -6.7661487913588995e-05 -8.5303744214363563e-05 0 -6.2812023088464715e-05 -9.4570146983810239e-05 0 -3.0750416501924226e-05 6.2129508632337767e-06 0 -2.4771611502382405e-05 3.783228263684471e-06 0 -3.7017246173008893e-05 8.690581684806479e-06 0 -4.8414802291527478e-05 0.00021210823691937694 0 -7.6197065603699613e-05 0.00024369146346648864 0 -8.0391533361137858e-05 0.00021613008223294005 0 -4.8414802291527478e-05 0.00021210823691937694 0 -8.0391533361137858e-05 0.00021613008223294005 0 -7.3373679166195563e-05 0.0001868153226993369 0 -0.00010160700975372871 0.00021436738101808799 0 -7.3373679166195563e-05 0.00018681532269933693 0 -8.0391533361137858e-05 0.00021613008223294005 0 -7.4528581710139898e-05 -0.00010903152923758683 0 -6.7234722041455746e-05 -0.00012349104660554181 0 -6.1085777047023706e-05 -0.00010822308604644426 0 -7.4528581710139898e-05 -0.00010903152923758683 0 -6.1085777047023706e-05 -0.00010822308604644426 0 -6.2812023088464715e-05 -9.4570146983810239e-05 0 -1.3700172694368387e-05 1.3828419660711874e-05 0 -1.3185114713365197e-05 1.546107010174443e-05 0 -1.2793759267491637e-05 2.2207212212587505e-05 0 -2.4331176037225928e-09 -3.8066876378623613e-10 0 -2.024046915598927e-09 -3.6087175137741514e-11 0 -2.0784340130078892e-06 -3.9986488718696392e-07 0 -2.2965835596764509e-09 1.6680848784039914e-10 0 -2.6066853929920605e-09 2.2963715566911626e-10 0 -2.4327608568966357e-06 3.4034531531018082e-07 0 -1.1589538090120674e-05 -1.8728147928800388e-06 0 -1.1687518399395295e-05 -1.3089048256062999e-06 0 -8.7006935412692512e-06 -2.5717073952563355e-07 0 -3.0399269578328459e-05 -2.7545567240174687e-05 0 -3.0011502979306745e-05 -2.4147284229062477e-05 0 -3.4398722379243688e-05 -3.2847960659766246e-05 0 -2.4771611502382405e-05 3.7832282636844714e-06 0 -2.8846704315245941e-05 6.2355970376755209e-06 0 -3.7017246173008893e-05 8.690581684806479e-06 0 -2.0063580177592194e-09 1.2782245448902337e-10 0 -2.6603592597694567e-06 2.5989526862392201e-07 0 -1.704177408740355e-06 3.8357200127294158e-08 0 -2.8504723858577042e-05 8.6655546744827793e-06 0 -2.3678514709003232e-05 4.7683052780254394e-06 0 -3.2702782533071416e-05 8.0064003320949372e-06 0 -2.1731264147200318e-05 -9.5048865608692148e-06 0 -2.4317974021244808e-05 -9.4568117386934954e-06 0 -1.8029145818749714e-05 -6.6308398610356505e-06 0 -6.935957678158324e-05 -6.3405623591785624e-05 0 -6.7477700993215289e-05 -5.0363432852873525e-05 0 -7.831964436948112e-05 -6.4314481441638978e-05 0 -4.6143667256199228e-06 3.6909872725962468e-07 0 -3.3579316421504427e-06 3.5749796127258079e-07 0 -6.0883603474119243e-06 2.0728010010674461e-07 0 -5.2001066592833223e-05 -4.2432293405047962e-05 0 -5.6250835493716134e-05 -4.5293754643066801e-05 0 -5.4114867696543669e-05 -4.6319341922364657e-05 0 -1.8707138822082186e-05 1.8054358579073996e-06 0 -1.4257431674400526e-05 2.9151741388725672e-06 0 -1.7102648113012246e-05 -3.6122461495972329e-08 0 -3.4879482995663581e-05 0.00015784098317834209 0 -6.2485968802599744e-05 0.00016074755959091455 0 -5.2345175952821711e-05 0.00012742063910209823 0 -5.828162227471505e-06 6.3395689608987254e-07 0 -3.9734777500723079e-06 -1.670186138112809e-07 0 -4.2093896102783368e-06 2.1895557963158792e-07 0 -0.00011445643601607737 0.00033279617309308566 0 -0.000102598535218688 0.00030234600629932884 0 -8.2209479201110771e-05 0.00031768254591285638 0 -5.752678909281832e-05 -0.00016382195922680769 0 -6.0593227898746052e-05 -0.00014964215869637393 0 -6.9714994667435063e-05 -0.00015786983452278078 0 -3.3579316421504427e-06 3.5749796127258079e-07 0 -5.3237263151944434e-06 1.8365994337298505e-07 0 -6.0883603474119243e-06 2.0728010010674461e-07 0 -1.8707138822082186e-05 1.8054358579073996e-06 0 -2.1270489256834277e-05 -2.5961746242502738e-06 0 -2.4650057877821384e-05 -1.9114171608878108e-06 0 -5.5385272260041781e-05 0.00032983625200955864 0 -6.1087074605358112e-05 0.00036025576374235541 0 -8.4996529794754275e-05 0.00035192707012561542 0 -0.00011445643601607737 0.00033279617309308566 0 -8.4996529794754275e-05 0.00035192707012561536 0 -0.00011024539583176611 0.0003623857649995128 0 -8.2056662573565771e-05 -0.00016455682041876545 0 -8.0346985555464041e-05 -0.0001782096129968178 0 -6.9740660594413447e-05 -0.00017366008306758166 0 -5.752678909281832e-05 -0.00016382195922680769 0 -6.9740660594413447e-05 -0.00017366008306758166 0 -6.0060040965549005e-05 -0.00017740930422866205 0 -4.4100564027049148e-05 2.7047895085645099e-05 0 -6.2810849456184284e-05 4.3856912267472923e-05 0 -6.0444919976956512e-05 3.2399578057036367e-05 0 -5.4839169151554357e-05 -4.4509398087376272e-05 0 -6.7477700993215289e-05 -5.0363432852873525e-05 0 -6.1207416546814726e-05 -5.5134322596652297e-05 0 -6.935957678158324e-05 -6.3405623591785624e-05 0 -6.1207416546814726e-05 -5.5134322596652297e-05 0 -6.7477700993215289e-05 -5.0363432852873525e-05 0 -0.00010132891143808606 0.00011578895547879091 0 -0.00010025943733175852 8.4919009515761786e-05 0 -8.4247449253660838e-05 9.6622015350833517e-05 0 -7.1971418555611685e-05 6.9732384381545923e-05 0 -8.4247449253660838e-05 9.6622015350833517e-05 0 -0.00010025943733175852 8.4919009515761786e-05 0 -4.5787639424466836e-06 1.9727698691940284e-07 0 -5.5438156069436339e-06 -7.4149835905840522e-08 0 -7.8772377722607912e-06 -5.5683461555362815e-07 0 5.5218202416620006e-06 8.5897100320884854e-05 0 8.4344789460226488e-06 0.00012270015809027365 0 -2.1929699617736194e-05 8.9473052202978962e-05 0 -7.4242098960346397e-06 -9.6294608182449118e-07 0 -1.1368807394864867e-05 -2.398972110611414e-07 0 -7.3670718684407555e-06 -4.5387839667935212e-07 0 -6.6744178512049833e-06 -8.0016931316892192e-07 0 -6.0662608470622999e-06 -1.0951908620152352e-06 0 -9.6109417810090823e-06 -1.9510659930673582e-06 0 -3.6918708764084682e-05 -1.6817418871853755e-05 0 -3.6091197108261547e-05 -1.3782098855184886e-05 0 -3.2193798519853154e-05 -1.0866377964534342e-05 0 -1.1109240992328764e-05 -2.1752252991037496e-06 0 -1.0374440289413212e-05 -1.7540875034674666e-06 0 -6.6808625177363572e-06 -5.2977108941788724e-07 0 -1.2079267408716078e-05 -1.4532784354086064e-07 0 -6.4372588094763562e-06 -1.11719768648933e-06 0 -1.0106500408904597e-05 -1.0386517171866612e-07 0 -3.6532630426468125e-05 9.8831304066886063e-06 0 -4.6185540630840835e-05 1.4998341215434887e-05 0 -3.7017246173008893e-05 8.690581684806479e-06 0 -4.9556026357953002e-05 1.4318873399204164e-05 0 -3.7017246173008893e-05 8.690581684806479e-06 0 -4.6185540630840835e-05 1.4998341215434887e-05 0 -5.5385272260041781e-05 0.00032983625200955864 0 -6.0064125303870395e-05 0.00029483735812386921 0 -3.4204739279588542e-05 0.00029673965367491082 0 -8.2056662573565771e-05 -0.00016455682041876545 0 -7.8124000670515658e-05 -0.00014805651874914841 0 -9.0225834775680761e-05 -0.00015066137562310596 0 -4.5894600266649102e-05 -5.9797618322721905e-05 0 -4.4930160121930755e-05 -5.7980486406494642e-05 0 -4.4249157705289924e-05 -5.6847710222772073e-05 0 -5.7127267808420389e-05 -6.024598292269265e-05 0 -5.219134972530174e-05 -5.9940242784573511e-05 0 -5.6972954477024879e-05 -5.6577192782885593e-05 0 -2.1630097686018384e-05 -8.336600559849441e-06 0 -1.7855015214058008e-05 -5.8738103647703573e-06 0 -1.7648460459846827e-05 -5.3210938366230849e-06 0 -6.2102428843020159e-05 -5.4866483965898715e-05 0 -6.0353988817097047e-05 -5.3378766772140766e-05 0 -5.9395685932587365e-05 -5.0399943372892936e-05 0 -3.4107445951233742e-05 -3.7424438994811212e-05 0 -3.5190271610968065e-05 -4.0009372632753676e-05 0 -3.8989815877771534e-05 -4.6119714389187228e-05 0 -4.3615602317766635e-05 -5.0575787065222962e-05 0 -4.140691445361687e-05 -4.9275379961381787e-05 0 -4.0437569933075573e-05 -4.5066790735958033e-05 0 -5.3209673739753039e-05 -3.1702364848739818e-05 0 -5.598696032989202e-05 -3.8836608971794289e-05 0 -4.4796658459760284e-05 -2.9761605348786304e-05 0 -5.219134972530174e-05 -5.9940242784573511e-05 0 -4.9832340590731508e-05 -5.7419543794496493e-05 0 -5.2806941558622399e-05 -5.520874756416845e-05 0 -5.9370134734950182e-05 2.4560192411071812e-05 0 -4.6185540630840835e-05 1.4998341215434887e-05 0 -4.9583267604920736e-05 2.2198222194235145e-05 0 -1.4348094643132684e-05 -1.758709954150545e-06 0 -1.1617255691208565e-05 -1.2944076269655221e-07 0 -1.1687518399395293e-05 -1.3089048256062997e-06 0 -5.4839169151554357e-05 -4.4509398087376272e-05 0 -5.403447516235457e-05 -5.6401445477855787e-05 0 -4.7517649513870306e-05 -4.3624018008993047e-05 0 -4.4439367073721692e-05 -5.1439839086623994e-05 0 -4.7517649513870306e-05 -4.3624018008993047e-05 0 -5.403447516235457e-05 -5.6401445477855787e-05 0 -2.2759827952528752e-05 -8.389589767806759e-06 0 -2.1630097686018384e-05 -8.336600559849441e-06 0 -1.7648460459846827e-05 -5.3210938366230849e-06 0 -5.4839169151554357e-05 -4.4509398087376272e-05 0 -4.8787761545655888e-05 -3.7692817542169973e-05 0 -5.598696032989202e-05 -3.8836608971794289e-05 0 -1.9478940647557989e-05 -6.1431305732217155e-06 0 -2.2759827952528752e-05 -8.389589767806759e-06 0 -1.7648460459846827e-05 -5.3210938366230849e-06 0 -1.2855969334065023e-05 1.0269448678760136e-06 0 -1.2684529021702093e-05 2.886200645794852e-06 0 -1.7541006456178023e-05 3.2865958185212792e-06 0 -5.4839169151554357e-05 -4.4509398087376272e-05 0 -5.598696032989202e-05 -3.8836608971794289e-05 0 -6.7477700993215289e-05 -5.0363432852873525e-05 0 -7.1971418555611685e-05 6.9732384381545923e-05 0 -0.00010025943733175852 8.4919009515761786e-05 0 -8.0861388376453919e-05 6.0597907737618405e-05 0 -4.8436183941425324e-09 -1.0438676783116996e-09 0 -3.6091189172790425e-06 -7.3516190743289859e-07 0 -7.3670718684407555e-06 -4.5387839667935212e-07 0 -4.0380364226274491e-09 3.1484305339330644e-10 0 -6.0662608470622999e-06 -1.0951908620152352e-06 0 -3.1385557193988957e-06 -2.5309302159067959e-07 0 -1.9478940647557989e-05 -6.1431305732217155e-06 0 -1.7648460459846827e-05 -5.3210938366230849e-06 0 -1.5635612309779755e-05 -4.1705221134307664e-06 0 -2.1627783271468378e-05 3.7582720132930659e-06 0 -1.7428853064364421e-05 1.5121505439551291e-06 0 -1.7541006456178023e-05 3.2865958185212792e-06 0 -7.4751926637499225e-06 -6.4468554323558402e-07 0 -5.3280100404745397e-06 -8.3158850618973022e-07 0 -8.436853975358539e-06 1.0638050277033424e-07 0 -3.4398722379243688e-05 -3.2847960659766246e-05 0 -4.1005266059021228e-05 -3.885371153547035e-05 0 -3.5984952031895944e-05 -4.5722801442454949e-05 0 -5.828162227471505e-06 6.3395689608987254e-07 0 -5.3952493927290261e-06 6.3622025305029283e-07 0 -6.5877298781321878e-06 1.2230020495056521e-06 0 -0.00011445643601607737 0.00033279617309308566 0 -0.00013155278790406483 0.00030001311126333786 0 -0.000102598535218688 0.00030234600629932884 0 -5.752678909281832e-05 -0.00016382195922680769 0 -4.8940052998864766e-05 -0.00014664679096689125 0 -6.0593227898746052e-05 -0.00014964215869637393 0 -1.3399333008086943e-05 -3.0684262543592863e-06 0 -1.1109240992328764e-05 -2.1752252991037496e-06 0 -1.5635612309779755e-05 -4.1705221134307664e-06 0 -1.2855969334065023e-05 1.0269448678760136e-06 0 -1.7428853064364421e-05 1.5121505439551291e-06 0 -1.2079267408716078e-05 -1.4532784354086064e-07 0 -4.5486940096369526e-06 4.2695228795842268e-07 0 -6.4915155019287537e-06 3.5906656628154929e-07 0 -6.2881188517629927e-06 6.6545311776927416e-07 0 -4.1005266059021228e-05 -3.885371153547035e-05 0 -4.4439367073721692e-05 -5.1439839086623994e-05 0 -3.5984952031895944e-05 -4.5722801442454949e-05 0 -0.00016702443951661052 0.00023376949525267399 0 -0.00016268669157299662 0.00020021159759072126 0 -0.00013349105988156362 0.00021563046326897244 0 -2.5953172128325713e-05 -9.4123061915137358e-05 0 -4.0231438936034785e-05 -0.00010494136078618981 0 -2.7824770119691376e-05 -0.00010986566759529235 0 -7.4528581710139898e-05 -0.00010903152923758683 0 -6.2812023088464701e-05 -9.4570146983810239e-05 0 -7.2798217375861862e-05 -9.5415414684552356e-05 0 -2.6360255447633269e-05 -7.3907755942161008e-06 0 -3.082651405553938e-05 -1.3563258677758755e-05 0 -3.2193798519853154e-05 -1.0866377964534342e-05 0 -3.0750416501924226e-05 6.2129508632337767e-06 0 -2.3678514709003228e-05 4.7683052780254385e-06 0 -2.2755075532169127e-05 3.3837077290899831e-06 0 -2.328208449982856e-05 -8.238207517873043e-06 0 -1.7786485776132816e-05 -5.764727070868491e-06 0 -1.8029145818749714e-05 -6.6308398610356505e-06 0 -1.3826742890574822e-05 9.0084796971637922e-06 0 -1.272953260628917e-05 5.2103087993757812e-06 0 -1.0598109902932381e-05 5.6444552897275605e-06 0 -4.5486940096369526e-06 4.2695228795842268e-07 0 -4.6143667256199228e-06 3.6909872725962468e-07 0 -6.4915155019287537e-06 3.5906656628154929e-07 0 -4.3867330916403775e-05 -2.4091655903586873e-05 0 -4.8186269874112277e-05 -3.0414397238094717e-05 0 -4.4586249198135763e-05 -2.6686942758867258e-05 0 -3.0750416501924226e-05 6.2129508632337767e-06 0 -3.2702782533071416e-05 8.0064003320949372e-06 0 -2.3678514709003232e-05 4.7683052780254394e-06 0 -2.328208449982856e-05 -8.238207517873043e-06 0 -1.8029145818749714e-05 -6.6308398610356497e-06 0 -2.4317974021244812e-05 -9.456811738693497e-06 0 -1.8707138822082186e-05 1.8054358579073996e-06 0 -1.7102648113012246e-05 -3.6122461495972329e-08 0 -2.1270489256834277e-05 -2.5961746242502738e-06 0 -6.7761672849780358e-05 -0.00014132198627733679 0 -6.7234722041455733e-05 -0.00012349104660554179 0 -7.4893527643127828e-05 -0.00013341052121006359 0 -8.2043486221204209e-05 0.00028291190316810546 0 -7.6197065603699613e-05 0.00024369146346648864 0 -6.2434795271686211e-05 0.00026406688531279245 0 -5.3209673739753039e-05 -3.1702364848739818e-05 0 -4.4796658459760284e-05 -2.9761605348786304e-05 0 -4.4203350247883109e-05 -2.4341711152844254e-05 0 -3.7155688981024806e-05 -2.1821400780497765e-05 0 -4.4203350247883109e-05 -2.4341711152844254e-05 0 -4.4796658459760284e-05 -2.9761605348786304e-05 0 -2.2990718709853413e-05 -1.1829620651914128e-05 0 -2.5986268192270151e-05 -1.509133525463753e-05 0 -2.6647700481186037e-05 -1.7395351960635575e-05 0 -3.0122030655294601e-05 -2.099375903096167e-05 0 -2.6647700481186037e-05 -1.7395351960635575e-05 0 -2.5986268192270151e-05 -1.509133525463753e-05 0 -3.0871655888590646e-06 -1.0095396889326153e-06 0 -5.3280100404745397e-06 -8.3158850618973022e-07 0 -6.4372588094763562e-06 -1.11719768648933e-06 0 -7.4751926637499225e-06 -6.4468554323558402e-07 0 -6.4372588094763562e-06 -1.11719768648933e-06 0 -5.3280100404745397e-06 -8.3158850618973022e-07 0 -8.2138918483059461e-06 -8.8807587619791038e-07 0 -5.5438156069436339e-06 -7.4149835905840522e-08 0 -6.6808625177363572e-06 -5.2977108941788724e-07 0 -3.1500180832163229e-06 1.5745790529027002e-07 0 -6.6808625177363572e-06 -5.2977108941788724e-07 0 -5.5438156069436339e-06 -7.4149835905840522e-08 0 -5.2001066592833223e-05 -4.2432293405047962e-05 0 -5.1494801817883247e-05 -4.6318824606800072e-05 0 -4.8709534208367271e-05 -4.2400886699110452e-05 0 -2.6360255447633269e-05 -7.3907755942161008e-06 0 -2.4650057877821384e-05 -1.9114171608878108e-06 0 -2.1270489256834277e-05 -2.5961746242502738e-06 0 -9.5395653025324371e-06 3.9588219310987921e-06 0 -9.1741808359783334e-06 3.6667924671601706e-06 0 -8.0512968670525585e-06 2.3716819376022261e-06 0 -4.8414802291527478e-05 0.00021210823691937694 0 -5.0845697824677856e-05 0.00024347430964503794 0 -7.6197065603699613e-05 0.00024369146346648864 0 -7.4528581710139898e-05 -0.00010903152923758683 0 -7.8080512559909363e-05 -0.00012340102047960877 0 -6.7234722041455746e-05 -0.00012349104660554181 0 -4.8414802291527478e-05 0.00021210823691937694 0 -7.3373679166195563e-05 0.0001868153226993369 0 -4.8927986040121787e-05 0.00018110443634577081 0 -1.3826742890574822e-05 9.0084796971637922e-06 0 -1.7310971045381032e-05 8.3500811326263212e-06 0 -1.272953260628917e-05 5.2103087993757812e-06 0 -1.3826742890574822e-05 9.0084796971637922e-06 0 -1.8331552571644638e-05 1.4158328274941766e-05 0 -1.7310971045381032e-05 8.3500811326263212e-06 0 -7.5067511699386657e-05 0.00013642421253562507 0 -6.2485968802599744e-05 0.00016074755959091458 0 -9.0245043044435069e-05 0.00017183206000320552 0 -7.3373679166195563e-05 0.0001868153226993369 0 -9.0245043044435069e-05 0.00017183206000320552 0 -6.2485968802599744e-05 0.00016074755959091458 0 -1.1608390378776547e-05 1.3005505462449328e-06 0 -7.3670718684407563e-06 -4.5387839667935207e-07 0 -1.3037290317240289e-05 5.6524932030238799e-07 0 -9.1026899435586468e-06 -2.8589660593269906e-06 0 -1.0525729188689861e-05 -2.676251406469262e-06 0 -6.0662608470622999e-06 -1.0951908620152352e-06 0 -4.4439367073721692e-05 -5.1439839086623994e-05 0 -4.9784203947428346e-05 -6.4880337812964629e-05 0 -4.016990466167107e-05 -6.4347633160968817e-05 0 -6.2102428843020159e-05 -5.4866483965898715e-05 0 -6.3412156218046862e-05 -5.8518868042827753e-05 0 -6.0353988817097047e-05 -5.3378766772140766e-05 0 -3.4107445951233742e-05 -3.7424438994811212e-05 0 -3.8989815877771534e-05 -4.6119714389187228e-05 0 -3.7062783480750152e-05 -4.1152723461057624e-05 0 -1.7804019378463739e-05 -2.7338622223805484e-06 0 -2.1270489256834277e-05 -2.5961746242502738e-06 0 -1.7102648113012246e-05 -3.6122461495972329e-08 0 -9.5395653025324371e-06 3.9588219310987921e-06 0 -1.1257290117689122e-05 6.8454987704756229e-06 0 -1.0598109902932381e-05 5.6444552897275605e-06 0 -4.8648326205095643e-05 -5.4374956531509881e-05 0 -4.6608932127632362e-05 -5.0784362333063137e-05 0 -5.098359589854612e-05 -5.1654485610467884e-05 0 -4.8512630670570427e-05 -4.8704517268476926e-05 0 -5.098359589854612e-05 -5.1654485610467884e-05 0 -4.6608932127632362e-05 -5.0784362333063137e-05 0 -4.1732480607424917e-05 -3.4895747366261079e-05 0 -4.2247786083265088e-05 -4.1372019104089814e-05 0 -3.7243109998981497e-05 -3.4726000352613086e-05 0 -0.00011445643601607737 0.00033279617309308566 0 -0.00014324548616352102 0.00032976067437659825 0 -0.00013155278790406483 0.00030001311126333786 0 -5.752678909281832e-05 -0.00016382195922680769 0 -4.6518242238419987e-05 -0.00015998469488831635 0 -4.8940052998864766e-05 -0.00014664679096689125 0 -5.9206152307012856e-05 -5.4580580414011154e-05 0 -6.2314555292071832e-05 -5.8347821025947582e-05 0 -5.6972954477024879e-05 -5.6577192782885593e-05 0 -4.219420495265011e-05 -5.2140947332172111e-05 0 -4.4249157705289924e-05 -5.6847710222772073e-05 0 -4.2744177967915777e-05 -5.2241775692266804e-05 0 -5.5385272260041781e-05 0.00032983625200955864 0 -8.2209479201110771e-05 0.00031768254591285638 0 -6.0064125303870395e-05 0.00029483735812386921 0 -8.2056662573565771e-05 -0.00016455682041876545 0 -6.9714994667435063e-05 -0.00015786983452278078 0 -7.8124000670515658e-05 -0.00014805651874914841 0 -4.5486940096369526e-06 4.2695228795842268e-07 0 -6.2881188517629927e-06 6.6545311776927416e-07 0 -5.3952493927290261e-06 6.3622025305029272e-07 0 -7.3874750809661768e-06 1.2372855967276289e-06 0 -5.3952493927290261e-06 6.3622025305029272e-07 0 -6.2881188517629927e-06 6.6545311776927416e-07 0 -3.9837851503689788e-05 0.00026308961171231957 0 -6.0064125303870395e-05 0.00029483735812386921 0 -6.2434795271686211e-05 0.00026406688531279245 0 -8.5082603059074218e-05 -0.0001342493907215793 0 -7.8124000670515658e-05 -0.00014805651874914841 0 -7.4893527643127828e-05 -0.00013341052121006359 0 -7.4242098960346397e-06 -9.6294608182449118e-07 0 -7.3670718684407555e-06 -4.5387839667935207e-07 0 -3.6091189172790425e-06 -7.3516190743289859e-07 0 -6.6744178512049833e-06 -8.0016931316892192e-07 0 -3.1385557193988957e-06 -2.5309302159067959e-07 0 -6.0662608470622999e-06 -1.0951908620152352e-06 0 -4.3815690589934806e-05 8.8394692838775305e-05 0 -2.830602344212146e-05 0.00012128276242811029 0 -5.2345175952821711e-05 0.00012742063910209823 0 -1.1608390378776547e-05 1.3005505462449328e-06 0 -5.6302530306672072e-06 1.6594696287364428e-07 0 -7.3670718684407555e-06 -4.5387839667935212e-07 0 -9.1026899435586468e-06 -2.8589660593269906e-06 0 -6.0662608470622999e-06 -1.0951908620152352e-06 0 -4.4609420991739554e-06 -1.1554474815203276e-06 0 -0.00017058240517041785 0.0002992931134644046 0 -0.00014702336564025086 0.00027628203261172439 0 -0.00013155278790406483 0.00030001311126333786 0 -3.2912135259704607e-05 -0.00014137355146409434 0 -4.0588954990888417e-05 -0.00013330163102165981 0 -4.8940052998864766e-05 -0.00014664679096689125 0 -3.4193897855815774e-05 4.2418010162364453e-05 0 -5.2625839833482189e-05 4.6236155954438927e-05 0 -3.6584113859519253e-05 3.2003485731997604e-05 0 -4.4100564027049148e-05 2.7047895085645099e-05 0 -3.6584113859519253e-05 3.2003485731997611e-05 0 -5.2625839833482189e-05 4.6236155954438927e-05 0 -5.8517325708209578e-05 -7.5051942646776944e-05 0 -5.403447516235457e-05 -5.6401445477855787e-05 0 -6.2275353251815016e-05 -6.4502818925885519e-05 0 -3.2195288321955652e-05 -1.1995544581739693e-05 0 -3.2592813847566937e-05 -2.240309606287685e-05 0 -2.791194090550481e-05 -1.5886065277562168e-05 0 -7.5067511699386657e-05 0.00013642421253562507 0 -8.5290524376575085e-05 0.00011761143753166873 0 -6.7889395688776937e-05 9.9839579842053662e-05 0 -7.1971418555611685e-05 6.9732384381545923e-05 0 -6.7889395688776937e-05 9.9839579842053662e-05 0 -8.4247449253660838e-05 9.6622015350833517e-05 0 -5.4839169151554357e-05 -4.4509398087376272e-05 0 -6.1207416546814726e-05 -5.5134322596652297e-05 0 -5.403447516235457e-05 -5.6401445477855787e-05 0 -4.4439367073721692e-05 -5.1439839086623994e-05 0 -4.016990466167107e-05 -6.4347633160968817e-05 0 -3.5984952031895944e-05 -4.5722801442454949e-05 0 -5.7211910797965319e-05 -4.9243783275169439e-05 0 -5.9395685932587365e-05 -5.0399943372892936e-05 0 -6.0353988817097047e-05 -5.3378766772140766e-05 0 -3.8729099115730449e-05 -4.4848405106273351e-05 0 -3.8989815877771534e-05 -4.6119714389187228e-05 0 -3.5190271610968065e-05 -4.0009372632753676e-05 0 -3.0554979078374872e-05 -6.511271193675495e-06 0 -3.6091197108261547e-05 -1.3782098855184886e-05 0 -3.3531380627725019e-05 -9.8829941848545192e-06 0 -3.6918708764084682e-05 -1.6817418871853755e-05 0 -4.0591626244354603e-05 -1.9608144455032486e-05 0 -3.6091197108261547e-05 -1.3782098855184886e-05 0 -1.7409431306401993e-05 8.8011002114756712e-06 0 -1.5843232009112396e-05 5.8405950290107854e-06 0 -2.1354198631260155e-05 3.7200793668273696e-06 0 -3.4398722379243688e-05 -3.2847960659766246e-05 0 -3.0011502979306745e-05 -2.4147284229062477e-05 0 -3.4951331869088672e-05 -2.8310625944711328e-05 0 -5.5385272260041781e-05 0.00032983625200955864 0 -3.4204739279588542e-05 0.00029673965367491082 0 -2.8315622665425581e-05 0.00032359357006108065 0 -8.2056662573565771e-05 -0.00016455682041876545 0 -9.0225834775680761e-05 -0.00015066137562310596 0 -9.4764216379715147e-05 -0.00016377322818903812 0 -1.8707138822082186e-05 1.8054358579073996e-06 0 -2.1354198631260155e-05 3.7200793668273696e-06 0 -1.5843232009112396e-05 5.8405950290107854e-06 0 -3.2131154295070469e-05 -3.2269123532260741e-05 0 -3.7243109998981497e-05 -3.4726000352613086e-05 0 -3.4508886706263511e-05 -3.650904537373719e-05 0 -4.8512630670570427e-05 -4.8704517268476926e-05 0 -4.6608932127632362e-05 -5.0784362333063137e-05 0 -4.58861805331722e-05 -4.5787461149500788e-05 0 -1.2764210927318709e-05 5.7653561485013517e-06 0 -1.4257431674400524e-05 2.9151741388725672e-06 0 -1.5843232009112396e-05 5.8405950290107854e-06 0 -3.7796691956438041e-06 -5.6681742299602679e-07 0 -5.2304641462449216e-06 -1.1373660650186444e-07 0 -5.3280100404745397e-06 -8.3158850618973022e-07 0 -9.0873968344371928e-05 -7.3083824841042248e-05 0 -9.6376143725448101e-05 -8.7667388186994186e-05 0 -8.0570153761946856e-05 -7.6950497315953487e-05 0 -1.2855969334065023e-05 1.0269448678760136e-06 0 -1.0106500408904597e-05 -1.0386517171866612e-07 0 -8.436853975358539e-06 1.0638050277033424e-07 0 -8.0512968670525585e-06 2.3716819376022261e-06 0 -9.1741808359783334e-06 3.6667924671601706e-06 0 -7.4780603743091222e-06 1.7327232135904205e-06 0 -1.8707138822082186e-05 1.8054358579073996e-06 0 -2.4650057877821384e-05 -1.9114171608878108e-06 0 -2.1354198631260155e-05 3.7200793668273696e-06 0 -0.00015605323117349885 0.0001667580124928823 0 -0.00014711516058994633 0.00013496439112482895 0 -0.00012325025976181114 0.00014518526295658716 0 -3.3579316421504427e-06 3.5749796127258079e-07 0 -2.6603592597694567e-06 2.5989526862392201e-07 0 -1.3755265607774117e-06 2.0584049972634505e-07 0 -9.690694916025948e-06 2.7225727544215984e-06 0 -1.0598109902932381e-05 5.6444552897275605e-06 0 -1.272953260628917e-05 5.2103087993757812e-06 0 -4.6299951049322667e-05 -3.2266903024864905e-05 0 -4.8331166479899014e-05 -3.2515282351508123e-05 0 -4.9876806142056329e-05 -3.7390469089999252e-05 0 -7.4528581710139898e-05 -0.00010903152923758683 0 -8.4706579232339568e-05 -0.00010213300772676207 0 -8.8636421794166065e-05 -0.00011886250455567338 0 -1.2855969334065023e-05 1.0269448678760136e-06 0 -8.436853975358539e-06 1.0638050277033424e-07 0 -1.0180857819690602e-05 1.3722577562264674e-06 0 -4.5486940096369526e-06 4.2695228795842268e-07 0 -3.1906329953513069e-06 1.7000226971752154e-07 0 -2.6603592597694567e-06 2.5989526862392201e-07 0 -1.5832080982218483e-05 5.0351693047853725e-06 0 -1.272953260628917e-05 5.2103087993757812e-06 0 -1.7310971045381032e-05 8.3500811326263212e-06 0 -4.8186269874112277e-05 -3.041439723809472e-05 0 -4.8331166479899014e-05 -3.2515282351508123e-05 0 -4.4586249198135763e-05 -2.6686942758867258e-05 0 -5.7211910797965319e-05 -4.9243783275169439e-05 0 -5.6799498629399837e-05 -5.1033659017566054e-05 0 -5.4114867696543669e-05 -4.6319341922364657e-05 0 -3.6532630426468125e-05 9.8831304066886063e-06 0 -2.8846704315245941e-05 6.2355970376755209e-06 0 -3.3416028903738757e-05 1.0502387547660637e-05 0 6.5447414349011757e-07 0.00028566499207813197 0 -3.4204739279588542e-05 0.00029673965367491082 0 -1.8395968691211137e-05 0.00027066071267783606 0 -0.00010667622466204272 -0.00014948124285643313 0 -9.0225834775680761e-05 -0.00015066137562310596 0 -9.5964854116171376e-05 -0.00013978352376431383 0 -6.5877298781321878e-06 1.2230020495056521e-06 0 -7.4780603743091222e-06 1.7327232135904205e-06 0 -5.828162227471505e-06 6.3395689608987254e-07 0 -8.0512968670525585e-06 2.3716819376022261e-06 0 -7.4780603743091222e-06 1.7327232135904205e-06 0 -6.5877298781321878e-06 1.2230020495056521e-06 0 -0.00012434539807524057 0.00026392957995426499 0 -0.00013155278790406483 0.00030001311126333786 0 -0.00014702336564025086 0.00027628203261172439 0 -4.8847857532824388e-05 -0.00012943423782053686 0 -4.8940052998864773e-05 -0.00014664679096689125 0 -4.0588954990888417e-05 -0.00013330163102165981 0 -7.3874750809661768e-06 1.2372855967276289e-06 0 -9.762442607296924e-06 9.240460504557351e-07 0 -9.346146353305685e-06 2.3603433844220421e-06 0 -1.1778581555769138e-05 1.5369494050045086e-06 0 -9.346146353305685e-06 2.3603433844220421e-06 0 -9.762442607296924e-06 9.240460504557351e-07 0 -7.3874750809661768e-06 1.2372855967276289e-06 0 -6.5877298781321878e-06 1.2230020495056521e-06 0 -5.3952493927290261e-06 6.3622025305029272e-07 0 -2.328208449982856e-05 -8.238207517873043e-06 0 -2.3892455226483487e-05 -8.3366542774073934e-06 0 -1.8527175599738774e-05 -5.6961042279180335e-06 0 -2.5386811803921219e-05 -1.24560761899981e-05 0 -3.0665008107570894e-05 -1.8293422801136843e-05 0 -2.5986268192270151e-05 -1.509133525463753e-05 0 -3.0122030655294601e-05 -2.099375903096167e-05 0 -2.5986268192270151e-05 -1.509133525463753e-05 0 -3.0665008107570894e-05 -1.8293422801136843e-05 0 -2.328208449982856e-05 -8.238207517873043e-06 0 -1.8527175599738774e-05 -5.6961042279180335e-06 0 -1.7786485776132816e-05 -5.764727070868491e-06 0 -4.3815690589934806e-05 8.8394692838775305e-05 0 -2.1929699617736194e-05 8.9473052202978962e-05 0 -2.830602344212146e-05 0.00012128276242811029 0 -8.2043486221204209e-05 0.00028291190316810546 0 -8.2209479201110771e-05 0.00031768254591285638 0 -0.000102598535218688 0.00030234600629932884 0 -6.7761672849780358e-05 -0.00014132198627733679 0 -6.9714994667435063e-05 -0.00015786983452278078 0 -6.0593227898746052e-05 -0.00014964215869637393 0 -1.4843623485052015e-05 -3.3252577314994134e-06 0 -1.1589538090120674e-05 -1.872814792880039e-06 0 -1.4816679686381328e-05 -3.9291769630718606e-06 0 -2.0063580177592194e-09 1.2782245448902337e-10 0 -1.3755265607774117e-06 2.0584049972634505e-07 0 -2.6603592597694567e-06 2.5989526862392201e-07 0 -1.3826742890574822e-05 9.0084796971637922e-06 0 -1.3700172694368387e-05 1.3828419660711874e-05 0 -1.8331552571644638e-05 1.4158328274941766e-05 0 -3.854509716577976e-05 -4.0424657641642686e-05 0 -3.7243109998981497e-05 -3.4726000352613086e-05 0 -4.2247786083265088e-05 -4.1372019104089814e-05 0 -4.1732480607424917e-05 -3.4895747366261079e-05 0 -4.3546410815646576e-05 -3.2421947714581047e-05 0 -4.4880984766871073e-05 -3.7878649199688479e-05 0 -6.4915155019287537e-06 3.5906656628154929e-07 0 -8.7006935412692512e-06 -2.5717073952563355e-07 0 -7.9641341144617884e-06 4.6237220170761865e-07 0 -6.935957678158324e-05 -6.3405623591785624e-05 0 -8.0570153761946856e-05 -7.6950497315953487e-05 0 -6.7457456122734988e-05 -7.5178097884414798e-05 0 -7.7138398089174234e-05 -8.6751343955914149e-05 0 -6.7457456122734988e-05 -7.5178097884414798e-05 0 -8.0570153761946856e-05 -7.6950497315953487e-05 0 -1.9901936950438387e-09 -1.0957147557770578e-10 0 -2.0063580177593124e-09 1.2782245448902547e-10 0 -1.704177408740355e-06 3.8357200127294158e-08 0 -0.00011152859942433904 0.0001669319158650223 0 -0.00012325025976181114 0.00014518526295658716 0 -9.7563777849278289e-05 0.00014173039567915783 0 -0.00010132891143808606 0.00011578895547879091 0 -9.7563777849278289e-05 0.00014173039567915783 0 -0.00012325025976181114 0.00014518526295658716 0 -5.9206152307012856e-05 -5.4580580414011154e-05 0 -5.6799498629399837e-05 -5.1033659017566054e-05 0 -6.0353988817097047e-05 -5.3378766772140766e-05 0 -4.219420495265011e-05 -5.2140947332172111e-05 0 -3.8989815877771534e-05 -4.6119714389187228e-05 0 -4.140691445361687e-05 -4.9275379961381787e-05 0 -2.3851636779944688e-05 1.2592841844708612e-05 0 -1.7310971045381032e-05 8.3500811326263212e-06 0 -1.8331552571644638e-05 1.4158328274941766e-05 0 -5.3592778610464254e-05 -5.0036357847011348e-05 0 -5.0887911799268117e-05 -4.8740973515403224e-05 0 -5.1494801817883247e-05 -4.6318824606800072e-05 0 -1.4849352163272384e-05 1.7082962310140455e-05 0 -1.5693951463783724e-05 2.2048977633664279e-05 0 -1.2793759267491637e-05 2.2207212212587505e-05 0 -1.2855969334065023e-05 1.0269448678760136e-06 0 -1.0180857819690602e-05 1.3722577562264674e-06 0 -1.2684529021702093e-05 2.886200645794852e-06 0 -4.4100564027049148e-05 2.7047895085645099e-05 0 -2.7675866074519408e-05 2.0953640144135478e-05 0 -3.6584113859519253e-05 3.2003485731997604e-05 0 8.4344789460226488e-06 0.00012270015809027365 0 -1.2187002106804034e-05 0.00014613058586504922 0 -2.830602344212146e-05 0.00012128276242811029 0 -1.4843623485052015e-05 -3.3252577314994134e-06 0 -1.1687518399395293e-05 -1.3089048256062999e-06 0 -1.1589538090120674e-05 -1.8728147928800388e-06 0 -8.2043486221204209e-05 0.00028291190316810546 0 -6.0064125303870395e-05 0.00029483735812386921 0 -8.2209479201110771e-05 0.00031768254591285638 0 -6.7761672849780358e-05 -0.00014132198627733679 0 -7.8124000670515658e-05 -0.00014805651874914841 0 -6.9714994667435063e-05 -0.00015786983452278078 0 -8.0741479893049241e-06 -3.9017598257368218e-07 0 -9.9467380572250375e-06 -1.3052983422085784e-06 0 -1.1589538090120674e-05 -1.8728147928800388e-06 0 -2.8347136481037732e-05 -1.5722733057512712e-05 0 -3.3915759197554781e-05 -1.9505177737139158e-05 0 -3.0826514055539387e-05 -1.3563258677758757e-05 0 -3.9837851503689788e-05 0.00026308961171231957 0 -1.8395968691211137e-05 0.00027066071267783606 0 -3.4204739279588542e-05 0.00029673965367491082 0 -8.5082603059074218e-05 -0.0001342493907215793 0 -9.5964854116171376e-05 -0.00013978352376431381 0 -9.0225834775680761e-05 -0.00015066137562310596 0 -4.370325332413604e-05 -1.8940114665732223e-05 0 -5.17133308217799e-05 -2.3796414521176316e-05 0 -4.304630185276357e-05 -1.8887482842376247e-05 0 -7.6639189576079182e-05 2.9940041661293418e-05 0 -6.2900657168645142e-05 2.1287779537058339e-05 0 -6.105828111866014e-05 2.1461437248273402e-05 0 -3.4193897855815774e-05 4.2418010162364453e-05 0 -3.9468569608055644e-05 6.1876306122267863e-05 0 -5.31647175663082e-05 6.6480692257644004e-05 0 -1.9478940647557989e-05 -6.1431305732217155e-06 0 -2.446397776700445e-05 -8.9440047570205554e-06 0 -2.2759827952528752e-05 -8.389589767806759e-06 0 -6.5869031134920558e-05 -6.4514220456521866e-05 0 -6.2138575944474872e-05 -6.1135550873443924e-05 0 -6.2314555292071832e-05 -5.8347821025947582e-05 0 -6.5869031134920558e-05 -6.4514220456521866e-05 0 -6.2314555292071832e-05 -5.8347821025947582e-05 0 -6.473257379512253e-05 -6.1605259433414534e-05 0 -4.2791939580390173e-05 -4.7648141500535669e-05 0 -4.0154653425055453e-05 -4.4579153347825833e-05 0 -4.2744177967915777e-05 -5.2241775692266804e-05 0 -4.2791939580390173e-05 -4.7648141500535669e-05 0 -4.2744177967915777e-05 -5.2241775692266804e-05 0 -4.4286966258002494e-05 -5.4854485007938041e-05 0 -5.9206152307012856e-05 -5.4580580414011154e-05 0 -5.5155942552472408e-05 -5.2963505479384865e-05 0 -5.6799498629399837e-05 -5.1033659017566054e-05 0 -4.219420495265011e-05 -5.2140947332172111e-05 0 -4.140691445361687e-05 -4.9275379961381787e-05 0 -4.3794107341843701e-05 -5.3776986522965797e-05 0 -2.7492865290902004e-05 -2.9233641728621898e-05 0 -3.2434113551742948e-05 -3.579885079752151e-05 0 -3.0832308065082937e-05 -3.3337924531929674e-05 0 -5.8374654460409898e-05 -4.5305907465821177e-05 0 -6.0446155723952217e-05 -5.05405312132584e-05 0 -5.6250835493716134e-05 -4.5293754643066801e-05 0 -9.416256207371241e-06 -1.6521896053932542e-07 0 -2.0969380241953608e-05 -9.3553274700952649e-06 0 -1.4803898029600588e-05 -1.2433193561979287e-05 0 -5.5385272260041781e-05 0.00032983625200955864 0 -3.6057805548549669e-05 0.00035106273758080472 0 -6.1087074605358112e-05 0.00036025576374235541 0 -0.00011445643601607737 0.00033279617309308566 0 -0.00011024539583176611 0.0003623857649995128 0 -0.00013771867815192605 0.00035671448591906616 0 -8.2056662573565771e-05 -0.00016455682041876545 0 -9.2239295973616583e-05 -0.00017564769400025317 0 -8.0346985555464041e-05 -0.0001782096129968178 0 -5.752678909281832e-05 -0.00016382195922680769 0 -6.0060040965549005e-05 -0.00017740930422866205 0 -5.0069926180240931e-05 -0.00017311572056432929 0 -9.8427539484830826e-06 -1.6214593478206563e-07 0 -7.9641341144617884e-06 4.6237220170761865e-07 0 -8.7006935412692512e-06 -2.5717073952563355e-07 0 -5.5385272260041781e-05 0.00032983625200955864 0 -2.8315622665425577e-05 0.00032359357006108065 0 -3.6057805548549669e-05 0.00035106273758080472 0 -8.2056662573565771e-05 -0.00016455682041876545 0 -9.4764216379715147e-05 -0.00016377322818903812 0 -9.2239295973616583e-05 -0.00017564769400025317 0 -3.0554979078374872e-05 -6.511271193675495e-06 0 -2.7564260886112554e-05 -1.3758998499930534e-06 0 -2.4650057877821384e-05 -1.9114171608878108e-06 0 -0.00011445643601607737 0.00033279617309308566 0 -0.00013771867815192605 0.00035671448591906616 0 -0.00014324548616352102 0.00032976067437659825 0 -5.752678909281832e-05 -0.00016382195922680769 0 -5.0069926180240931e-05 -0.00017311572056432929 0 -4.6518242238419987e-05 -0.00015998469488831635 0 -4.3275230902150225e-05 -8.2630583106339608e-05 0 -3.3371836265255194e-05 -7.2593928305471881e-05 0 -4.016990466167107e-05 -6.4347633160968817e-05 0 -4.3867330916403775e-05 -2.4091655903586873e-05 0 -4.4586249198135763e-05 -2.6686942758867258e-05 0 -4.0591626244354603e-05 -1.9608144455032486e-05 0 -4.1449497369284785e-05 -2.2613777738292786e-05 0 -4.0591626244354603e-05 -1.9608144455032486e-05 0 -4.4586249198135763e-05 -2.6686942758867258e-05 0 -1.5832080982218483e-05 5.0351693047853725e-06 0 -1.7541006456178023e-05 3.2865958185212792e-06 0 -1.2684529021702093e-05 2.886200645794852e-06 0 -7.5067511699386657e-05 0.00013642421253562507 0 -5.2345175952821711e-05 0.00012742063910209823 0 -6.2485968802599744e-05 0.00016074755959091458 0 -9.6376143725448101e-05 -8.7667388186994186e-05 0 -8.7469497194397129e-05 -9.0821635484115556e-05 0 -8.0570153761946856e-05 -7.6950497315953487e-05 0 -1.8337037072713996e-05 2.1005925394879547e-05 0 -2.7675866074519408e-05 2.0953640144135475e-05 0 -1.8331552571644638e-05 1.4158328274941766e-05 0 -2.3851636779944688e-05 1.2592841844708612e-05 0 -1.8331552571644638e-05 1.4158328274941766e-05 0 -2.7675866074519408e-05 2.0953640144135475e-05 0 -9.5395653025324371e-06 3.9588219310987921e-06 0 -1.08988954277673e-05 4.0494677947221631e-06 0 -1.1257290117689122e-05 6.8454987704756229e-06 0 -4.5671460290233205e-05 -4.2176116508277815e-05 0 -4.58861805331722e-05 -4.5787461149500788e-05 0 -4.2247786083265088e-05 -4.1372019104089814e-05 0 -4.3776296715194423e-05 -4.7015684876422965e-05 0 -4.2247786083265088e-05 -4.1372019104089814e-05 0 -4.58861805331722e-05 -4.5787461149500788e-05 0 -0.00012214977075381746 7.963182677917828e-05 0 -0.00010724785260520783 5.8318195659276453e-05 0 -9.5616149113899519e-05 6.2659380553794258e-05 0 -6.8501658822667808e-05 -3.7996571202079221e-05 0 -7.6655613099057258e-05 -4.7896623584268021e-05 0 -6.3553892659456396e-05 -3.9482527260930445e-05 0 -2.8491927158090492e-09 -4.8402731624125602e-10 0 -2.4331176037225928e-09 -3.8066876378623613e-10 0 -2.2887226015581171e-06 -6.9655069092171234e-07 0 -2.6066853929920605e-09 2.2963715566911626e-10 0 -2.9089127614144002e-09 2.0481275182948264e-10 0 -2.5597978021323763e-06 2.6434158666921324e-07 0 -1.3826742890574822e-05 9.0084796971637922e-06 0 -1.0598109902932379e-05 5.6444552897275605e-06 0 -1.1957704259187344e-05 8.8508345734127481e-06 0 -1.2764210927318709e-05 5.7653561485013517e-06 0 -1.1257290117689122e-05 6.8454987704756229e-06 0 -1.08988954277673e-05 4.0494677947221631e-06 0 -9.5395653025324371e-06 3.9588219310987921e-06 0 -1.0598109902932381e-05 5.6444552897275596e-06 0 -9.1741808359783334e-06 3.6667924671601706e-06 0 -1.6938213129332656e-05 1.1871592599444963e-06 0 -2.2755075532169127e-05 3.3837077290899831e-06 0 -1.7681426769243912e-05 2.2919605873982852e-06 0 -1.3860228104871545e-05 -3.6771750639676953e-06 0 -1.3766056824551495e-05 -4.3909324424915005e-06 0 -1.7786485776132816e-05 -5.764727070868491e-06 0 -3.4879482995663581e-05 0.00015784098317834209 0 -2.830602344212146e-05 0.00012128276242811029 0 -1.2187002106804034e-05 0.00014613058586504922 0 -1.6938213129332656e-05 1.1871592599444963e-06 0 -1.7681426769243909e-05 2.2919605873982847e-06 0 -1.3037290317240289e-05 5.6524932030238799e-07 0 -1.3860228104871545e-05 -3.6771750639676953e-06 0 -1.0525729188689861e-05 -2.676251406469262e-06 0 -1.3766056824551495e-05 -4.3909324424915005e-06 0 -5.2001066592833223e-05 -4.2432293405047962e-05 0 -5.4114867696543669e-05 -4.6319341922364657e-05 0 -5.1494801817883247e-05 -4.6318824606800072e-05 0 -4.3815690589934806e-05 8.8394692838775305e-05 0 -2.7175317105634784e-05 5.5831323998835629e-05 0 -2.1929699617736194e-05 8.9473052202978962e-05 0 -9.690694916025948e-06 2.7225727544215984e-06 0 -9.1741808359783334e-06 3.6667924671601706e-06 0 -1.0598109902932381e-05 5.6444552897275605e-06 0 -3.854509716577976e-05 -4.0424657641642686e-05 0 -3.4508886706263511e-05 -3.650904537373719e-05 0 -3.7243109998981497e-05 -3.4726000352613086e-05 0 -4.3920040719153407e-09 -4.1265935607576268e-10 0 -3.4961109792428233e-09 -6.7669459892070062e-10 0 -3.4050241377555714e-06 -9.9830569769629693e-07 0 -3.3249298705637241e-09 1.9588819312638789e-10 0 -3.8784973878270436e-09 -6.6633288754987202e-11 0 -3.193683066499396e-06 -2.0121014831457672e-08 0 -2.8820618925235077e-05 -1.2045958600012681e-05 0 -3.6189725250612782e-05 -1.5115175582470435e-05 0 -2.9485380333685478e-05 -1.1455187991943143e-05 0 -5.0444085460985328e-05 1.5367601296154853e-05 0 -3.896421012464086e-05 1.1417365462444491e-05 0 -4.0667152528008407e-05 1.0346723669832464e-05 0 -4.1114986735581616e-05 -3.2820491985317063e-05 0 -4.4796658459760284e-05 -2.9761605348786304e-05 0 -4.8787761545655888e-05 -3.7692817542169973e-05 0 -2.4025302591534929e-05 -6.3066043243899044e-05 0 -3.1500980790795219e-05 -5.7380400162900675e-05 0 -3.3371836265255187e-05 -7.2593928305471868e-05 0 -2.6360255447633269e-05 -7.3907755942161008e-06 0 -2.6156159064654723e-05 -1.0803075805488505e-05 0 -3.0826514055539387e-05 -1.3563258677758757e-05 0 -1.4453473571125674e-05 -7.2659835707011943e-08 0 -1.4257431674400526e-05 2.9151741388725672e-06 0 -1.1778581555769138e-05 1.5369494050045086e-06 0 -1.7102648113012246e-05 -3.6122461495972329e-08 0 -1.4257431674400526e-05 2.9151741388725672e-06 0 -1.4453473571125674e-05 -7.2659835707011943e-08 0 -1.2499597646384288e-05 1.080269402331288e-05 0 -1.3700172694368387e-05 1.3828419660711874e-05 0 -1.1957704259187344e-05 8.8508345734127481e-06 0 -1.3826742890574822e-05 9.0084796971637922e-06 0 -1.1957704259187344e-05 8.8508345734127481e-06 0 -1.3700172694368387e-05 1.3828419660711874e-05 0 -4.3615602317766635e-05 -5.0575787065222962e-05 0 -4.6256675571841157e-05 -5.4145133017054136e-05 0 -4.3794107341843701e-05 -5.3776986522965797e-05 0 -5.1603320094167603e-05 -3.3062561256608398e-05 0 -4.8186269874112277e-05 -3.041439723809472e-05 0 -4.6438238102631211e-05 -2.7067513123214234e-05 0 -2.8347136481037732e-05 -1.5722733057512712e-05 0 -2.924463308423427e-05 -2.1307465007711035e-05 0 -3.3915759197554781e-05 -1.9505177737139158e-05 0 -3.0399269578328459e-05 -2.7545567240174687e-05 0 -3.3915759197554781e-05 -1.9505177737139158e-05 0 -2.924463308423427e-05 -2.1307465007711035e-05 0 -2.1731264147200318e-05 -9.5048865608692148e-06 0 -2.882061892523508e-05 -1.2045958600012683e-05 0 -2.4317974021244812e-05 -9.456811738693497e-06 0 -3.896421012464086e-05 1.1417365462444491e-05 0 -2.8504723858577042e-05 8.6655546744827793e-06 0 -3.2702782533071416e-05 8.0064003320949372e-06 0 -4.8537642364212034e-05 -6.0026426505604743e-05 0 -4.5894600266649102e-05 -5.9797618322721905e-05 0 -4.7455609338837876e-05 -5.7384786326901356e-05 0 -2.7675866074519408e-05 2.0953640144135475e-05 0 -2.6067963405057265e-05 2.8187394927272213e-05 0 -3.6584113859519253e-05 3.2003485731997604e-05 0 -7.3874750809661768e-06 1.2372855967276289e-06 0 -8.0512968670525585e-06 2.3716819376022261e-06 0 -6.5877298781321878e-06 1.2230020495056521e-06 0 -7.3670718684407555e-06 -4.5387839667935212e-07 0 -1.1368807394864865e-05 -2.3989721106114156e-07 0 -1.3037290317240289e-05 5.6524932030238799e-07 0 -6.0662608470622999e-06 -1.0951908620152352e-06 0 -1.0525729188689861e-05 -2.676251406469262e-06 0 -9.6109417810090823e-06 -1.9510659930673582e-06 0 -8.0741479893049241e-06 -3.9017598257368218e-07 0 -7.8772377722607912e-06 -5.5683461555362815e-07 0 -9.9467380572250375e-06 -1.3052983422085784e-06 0 -2.6360255447633269e-05 -7.3907755942161008e-06 0 -2.8455154450913316e-05 -6.5973824427728847e-06 0 -2.4650057877821384e-05 -1.9114171608878108e-06 0 -3.8729099115730449e-05 -4.4848405106273351e-05 0 -4.0437569933075573e-05 -4.5066790735958033e-05 0 -4.140691445361687e-05 -4.9275379961381787e-05 0 -1.1754664810996047e-05 -2.2286767687413427e-06 0 -9.9467380572250358e-06 -1.3052983422085782e-06 0 -7.8772377722607912e-06 -5.5683461555362815e-07 0 -0.00016702443951661052 0.00023376949525267399 0 -0.00013349105988156362 0.00021563046326897244 0 -0.00014247513218586594 0.00024696152482204143 0 -2.7824770119691376e-05 -0.00010986566759529235 0 -4.0231438936034785e-05 -0.00010494136078618981 0 -3.9679682494112329e-05 -0.00011932438197050819 0 -2.5953172128325713e-05 -9.4123061915137358e-05 0 -3.617387655851686e-05 -8.9685253139244585e-05 0 -4.0231438936034785e-05 -0.00010494136078618981 0 -3.6939700938932818e-05 -1.6103183776751753e-05 0 -3.3531380627725019e-05 -9.8829941848545192e-06 0 -3.6091197108261547e-05 -1.3782098855184886e-05 0 -5.1603320094167603e-05 -3.3062561256608398e-05 0 -5.1882335654180417e-05 -3.5606199758647955e-05 0 -4.8186269874112277e-05 -3.041439723809472e-05 0 -1.4843623485052015e-05 -3.3252577314994134e-06 0 -1.9260559729094744e-05 -6.8525219774540703e-06 0 -1.7011413394477287e-05 -4.0455939701829411e-06 0 -3.0554979078374872e-05 -6.511271193675495e-06 0 -2.4650057877821384e-05 -1.9114171608878108e-06 0 -2.8455154450913316e-05 -6.5973824427728839e-06 0 -6.8684573166859012e-06 0.00034616021571970087 0 -2.5542771987100859e-05 0.00036382176346184595 0 -3.6057805548549669e-05 0.00035106273758080472 0 -0.00010691072461740787 -0.00017727725494828944 0 -9.8173654173821595e-05 -0.00018287750117789684 0 -9.2239295973616583e-05 -0.00017564769400025317 0 -3.8297870401880646e-05 -0.00017020981426737837 0 -5.0069926180240924e-05 -0.00017311572056432929 0 -4.6075096074648883e-05 -0.00017857752771474578 0 -0.00017074349891149103 0.00036032117050998274 0 -0.00013771867815192605 0.00035671448591906616 0 -0.00015106612915063731 0.00037297353057685336 0 -1.7804019378463739e-05 -2.7338622223805484e-06 0 -1.4348094643132684e-05 -1.758709954150545e-06 0 -1.7011413394477287e-05 -4.0455939701829411e-06 0 -1.4843623485052015e-05 -3.3252577314994134e-06 0 -1.7011413394477287e-05 -4.0455939701829411e-06 0 -1.4348094643132684e-05 -1.758709954150545e-06 0 -2.2990718709853413e-05 -1.1829620651914128e-05 0 -1.9260559729094744e-05 -6.8525219774540694e-06 0 -2.0046186044205301e-05 -8.3667700476356376e-06 0 -5.9370134734950182e-05 2.4560192411071812e-05 0 -6.105828111866014e-05 2.1461437248273402e-05 0 -4.6185540630840835e-05 1.4998341215434887e-05 0 -4.9556026357953002e-05 1.4318873399204164e-05 0 -4.6185540630840835e-05 1.4998341215434887e-05 0 -6.105828111866014e-05 2.1461437248273402e-05 0 -2.3851636779944688e-05 1.2592841844708612e-05 0 -2.8517276695375889e-05 1.0979836451045054e-05 0 -2.0950411315411368e-05 7.2030588802064444e-06 0 -2.5386811803921219e-05 -1.24560761899981e-05 0 -1.9976861136949298e-05 -7.833333045047862e-06 0 -2.1630097686018384e-05 -8.336600559849441e-06 0 -2.8347136481037732e-05 -1.5722733057512712e-05 0 -2.6647700481186037e-05 -1.7395351960635575e-05 0 -2.924463308423427e-05 -2.1307465007711035e-05 0 -1.3860228104871545e-05 -3.6771750639676953e-06 0 -1.1109240992328762e-05 -2.1752252991037492e-06 0 -9.6109417810090823e-06 -1.9510659930673582e-06 0 -6.6744178512049833e-06 -8.0016931316892192e-07 0 -9.6109417810090823e-06 -1.9510659930673582e-06 0 -1.1109240992328764e-05 -2.1752252991037496e-06 0 -7.4242098960346397e-06 -9.6294608182449118e-07 0 -1.2079267408716078e-05 -1.4532784354086064e-07 0 -1.1368807394864867e-05 -2.398972110611414e-07 0 -1.6938213129332656e-05 1.1871592599444963e-06 0 -1.1368807394864865e-05 -2.3989721106114161e-07 0 -1.2079267408716078e-05 -1.4532784354086064e-07 0 -7.7138398089174234e-05 -8.6751343955914149e-05 0 -8.4706579232339568e-05 -0.00010213300772676207 0 -7.2798217375861862e-05 -9.5415414684552356e-05 0 -7.4528581710139898e-05 -0.00010903152923758683 0 -7.2798217375861862e-05 -9.5415414684552356e-05 0 -8.4706579232339568e-05 -0.00010213300772676207 0 -3.0871655888590646e-06 -1.0095396889326153e-06 0 -2.2887226015581171e-06 -6.9655069092171234e-07 0 -5.3280100404745397e-06 -8.3158850618973022e-07 0 -3.7796691956438041e-06 -5.6681742299602679e-07 0 -5.3280100404745397e-06 -8.3158850618973022e-07 0 -2.2887226015581171e-06 -6.9655069092171234e-07 0 -4.5787639424466836e-06 1.9727698691940284e-07 0 -2.5597978021323763e-06 2.6434158666921324e-07 0 -5.5438156069436339e-06 -7.4149835905840522e-08 0 -3.1500180832163229e-06 1.5745790529027002e-07 0 -5.5438156069436339e-06 -7.4149835905840522e-08 0 -2.5597978021323763e-06 2.6434158666921324e-07 0 -8.2043486221204209e-05 0.00028291190316810546 0 -6.2434795271686211e-05 0.00026406688531279245 0 -6.0064125303870395e-05 0.00029483735812386921 0 -6.7761672849780358e-05 -0.00014132198627733679 0 -7.4893527643127828e-05 -0.00013341052121006359 0 -7.8124000670515658e-05 -0.00014805651874914841 0 -1.3399333008086943e-05 -3.0684262543592863e-06 0 -1.0374440289413211e-05 -1.7540875034674666e-06 0 -1.1109240992328764e-05 -2.1752252991037496e-06 0 -1.2855969334065023e-05 1.0269448678760136e-06 0 -1.2079267408716078e-05 -1.4532784354086064e-07 0 -1.0106500408904597e-05 -1.0386517171866612e-07 0 -2.5386811803921219e-05 -1.24560761899981e-05 0 -2.5986268192270151e-05 -1.509133525463753e-05 0 -2.2047128725566157e-05 -1.0353124511259187e-05 0 -1.3860228104871545e-05 -3.6771750639676953e-06 0 -1.5635612309779755e-05 -4.1705221134307664e-06 0 -1.1109240992328764e-05 -2.1752252991037496e-06 0 -1.6938213129332656e-05 1.1871592599444963e-06 0 -1.2079267408716078e-05 -1.4532784354086064e-07 0 -1.7428853064364421e-05 1.5121505439551291e-06 0 -3.0399269578328459e-05 -2.7545567240174687e-05 0 -3.7648616600403232e-05 -2.1259279104759152e-05 0 -3.3915759197554781e-05 -1.9505177737139158e-05 0 -1.4843623485052015e-05 -3.3252577314994134e-06 0 -1.7146018004915885e-05 -5.5842299150960129e-06 0 -1.9260559729094744e-05 -6.8525219774540703e-06 0 -4.8436183941425324e-09 -1.0438676783116996e-09 0 -4.3920040719153407e-09 -4.1265935607576268e-10 0 -3.6091189172790425e-06 -7.3516190743289859e-07 0 -3.8784973878270436e-09 -6.6633288754987202e-11 0 -4.0380364226274491e-09 3.1484305339330644e-10 0 -3.1385557193988957e-06 -2.5309302159067959e-07 0 -1.8337037072713996e-05 2.1005925394879547e-05 0 -1.8331552571644638e-05 1.4158328274941766e-05 0 -1.3700172694368387e-05 1.3828419660711874e-05 0 -4.8648326205095643e-05 -5.4374956531509881e-05 0 -4.9832340590731508e-05 -5.7419543794496493e-05 0 -4.7455609338837876e-05 -5.7384786326901356e-05 0 -2.5386811803921219e-05 -1.24560761899981e-05 0 -2.6566860633840262e-05 -1.1751344397895562e-05 0 -3.128584759478125e-05 -1.6218766901221296e-05 0 -4.016990466167107e-05 -6.4347633160968817e-05 0 -3.3371836265255187e-05 -7.2593928305471868e-05 0 -3.1500980790795219e-05 -5.7380400162900675e-05 0 -1.7804019378463739e-05 -2.7338622223805484e-06 0 -1.4453473571125674e-05 -7.2659835707011943e-08 0 -1.4348094643132684e-05 -1.758709954150545e-06 0 -2.2648462072832637e-05 -8.870490703021534e-06 0 -1.9735260493733026e-05 -5.7704017535199552e-06 0 -1.9260559729094744e-05 -6.8525219774540703e-06 0 -1.1608390378776547e-05 1.3005505462449328e-06 0 -1.7095013289086009e-05 4.1282503238874765e-06 0 -8.2391433116062567e-06 1.9840420251249025e-06 0 -9.1026899435586468e-06 -2.8589660593269906e-06 0 -6.4164155974438044e-06 -2.6951357262130508e-06 0 -1.3174818986587377e-05 -5.3969486862228931e-06 0 -3.0122030655294601e-05 -2.099375903096167e-05 0 -3.0011502979306745e-05 -2.4147284229062481e-05 0 -2.6647700481186037e-05 -1.7395351960635575e-05 0 -1.1778581555769138e-05 1.5369494050045086e-06 0 -1.1617255691208565e-05 -1.2944076269655221e-07 0 -1.4453473571125674e-05 -7.2659835707011943e-08 0 -1.8201736218171629e-05 -6.6668471082500031e-06 0 -1.9976861136949298e-05 -7.833333045047862e-06 0 -2.2047128725566157e-05 -1.0353124511259187e-05 0 -4.2262092852892987e-05 -1.9950419476234828e-05 0 -4.4203350247883109e-05 -2.4341711152844254e-05 0 -3.687518969210379e-05 -1.8692070632814464e-05 0 -0.00016268669157299664 0.00020021159759072126 0 -0.00013495318183603927 0.00018521774589265534 0 -0.00013349105988156362 0.00021563046326897244 0 -3.0122030655294601e-05 -2.099375903096167e-05 0 -3.0665008107570894e-05 -1.8293422801136843e-05 0 -3.5792389651421899e-05 -2.448805413334191e-05 0 -3.6091197108261547e-05 -1.3782098855184886e-05 0 -4.0591626244354603e-05 -1.9608144455032486e-05 0 -3.8789850958388523e-05 -1.8171811257767733e-05 0 -2.5386811803921219e-05 -1.24560761899981e-05 0 -3.128584759478125e-05 -1.6218766901221296e-05 0 -3.0665008107570894e-05 -1.8293422801136843e-05 0 -1.4348094643132684e-05 -1.758709954150545e-06 0 -1.4453473571125674e-05 -7.2659835707011943e-08 0 -1.1617255691208565e-05 -1.2944076269655221e-07 0 -4.3867330916403775e-05 -2.4091655903586873e-05 0 -4.6438238102631211e-05 -2.7067513123214234e-05 0 -4.8186269874112277e-05 -3.041439723809472e-05 0 -1.8337037072713996e-05 2.1005925394879547e-05 0 -1.2793759267491637e-05 2.2207212212587505e-05 0 -1.8820458665886514e-05 3.1121284846480254e-05 0 -2.5386811803921219e-05 -1.24560761899981e-05 0 -2.1630097686018384e-05 -8.336600559849441e-06 0 -2.6566860633840262e-05 -1.1751344397895562e-05 0 -0.00016957223704973671 0.00026693554389877779 0 -0.00016702443951661052 0.00023376949525267399 0 -0.00014247513218586594 0.00024696152482204143 0 -2.7824770119691376e-05 -0.00010986566759529235 0 -3.9679682494112329e-05 -0.00011932438197050819 0 -3.0133080285766162e-05 -0.00012563638927709148 0 -2.4573184797608307e-05 -7.8535886826890968e-05 0 -3.617387655851686e-05 -8.9685253139244585e-05 0 -2.5953172128325713e-05 -9.4123061915137358e-05 0 -4.4100564027049148e-05 2.7047895085645099e-05 0 -6.0444919976956512e-05 3.2399578057036367e-05 0 -4.9583267604920736e-05 2.2198222194235145e-05 0 -9.416256207371241e-06 -1.6521896053932542e-07 0 -2.060902398264578e-05 9.6708018070356246e-06 0 -2.0969380241953608e-05 -9.3553274700952649e-06 0 -4.2262092852892987e-05 -1.9950419476234828e-05 0 -4.304630185276357e-05 -1.8887482842376247e-05 0 -4.9358016462053499e-05 -2.3241034955013957e-05 0 -5.9370134734950182e-05 2.4560192411071812e-05 0 -7.1789991156190081e-05 2.9170126478974602e-05 0 -6.105828111866014e-05 2.1461437248273402e-05 0 -4.2262092852892987e-05 -1.9950419476234828e-05 0 -4.9358016462053499e-05 -2.3241034955013957e-05 0 -5.1377453143400325e-05 -2.658464153464504e-05 0 -5.9370134734950182e-05 2.4560192411071812e-05 0 -7.4308150097909586e-05 3.5863930717904363e-05 0 -7.1789991156190081e-05 2.9170126478974602e-05 0 -9.1026899435586468e-06 -2.8589660593269906e-06 0 -4.4609420991739554e-06 -1.1554474815203276e-06 0 -6.4164155974438044e-06 -2.6951357262130508e-06 0 -1.1608390378776547e-05 1.3005505462449328e-06 0 -8.2391433116062567e-06 1.9840420251249025e-06 0 -5.6302530306672072e-06 1.6594696287364428e-07 0 -2.2648462072832637e-05 -8.870490703021534e-06 0 -2.4954519207600591e-05 -1.3051392705192706e-05 0 -2.6156159064654723e-05 -1.0803075805488505e-05 0 -2.8347136481037732e-05 -1.5722733057512712e-05 0 -2.6156159064654723e-05 -1.0803075805488505e-05 0 -2.4954519207600591e-05 -1.3051392705192706e-05 0 -6.0446155723952217e-05 -5.05405312132584e-05 0 -5.9395685932587365e-05 -5.0399943372892936e-05 0 -5.6250835493716134e-05 -4.5293754643066801e-05 0 -3.0832308065082937e-05 -3.3337924531929674e-05 0 -3.2434113551742948e-05 -3.579885079752151e-05 0 -3.5190271610968065e-05 -4.0009372632753676e-05 0 -1.4803898029600588e-05 -1.2433193561979287e-05 0 -2.0969380241953608e-05 -9.3553274700952649e-06 0 -2.2633141526294554e-05 -1.8989350945290929e-05 0 -2.7492865290902004e-05 -2.9233641728621898e-05 0 -2.8897357850198477e-05 -3.0612688611318131e-05 0 -3.2434113551742948e-05 -3.579885079752151e-05 0 -5.8374654460409898e-05 -4.5305907465821177e-05 0 -5.6250835493716134e-05 -4.5293754643066801e-05 0 -5.4482323703208482e-05 -4.060998005882729e-05 0 -2.5386811803921219e-05 -1.24560761899981e-05 0 -2.2047128725566157e-05 -1.0353124511259187e-05 0 -1.9976861136949298e-05 -7.833333045047862e-06 0 -2.2990718709853413e-05 -1.1829620651914128e-05 0 -2.6647700481186037e-05 -1.7395351960635575e-05 0 -2.4954519207600591e-05 -1.3051392705192706e-05 0 -2.8347136481037732e-05 -1.5722733057512712e-05 0 -2.4954519207600591e-05 -1.3051392705192706e-05 0 -2.6647700481186037e-05 -1.7395351960635575e-05 0 -1.7804019378463739e-05 -2.7338622223805484e-06 0 -2.2299673975287361e-05 -6.31291508392414e-06 0 -2.1270489256834277e-05 -2.5961746242502738e-06 0 -0.00016268669157299664 0.00020021159759072126 0 -0.00015605323117349885 0.0001667580124928823 0 -0.00013495318183603927 0.00018521774589265534 0 -3.0554979078374872e-05 -6.511271193675495e-06 0 -2.8455154450913316e-05 -6.597382442772883e-06 0 -3.2193798519853154e-05 -1.0866377964534342e-05 0 -3.4193897855815774e-05 4.2418010162364453e-05 0 -2.6067963405057265e-05 2.8187394927272213e-05 0 -1.8820458665886514e-05 3.1121284846480254e-05 0 -1.8337037072713996e-05 2.1005925394879547e-05 0 -1.8820458665886514e-05 3.1121284846480254e-05 0 -2.6067963405057265e-05 2.8187394927272213e-05 0 -2.4025302591534929e-05 -6.3066043243899044e-05 0 -3.3371836265255187e-05 -7.2593928305471868e-05 0 -2.4573184797608307e-05 -7.8535886826890968e-05 0 -9.1647315284072719e-05 4.1710052415259001e-05 0 -7.1789991156190081e-05 2.9170126478974602e-05 0 -7.4308150097909586e-05 3.5863930717904363e-05 0 -6.0058040749996571e-05 -2.9961595460780869e-05 0 -5.1377453143400325e-05 -2.658464153464504e-05 0 -4.9358016462053499e-05 -2.3241034955013957e-05 0 -2.6360255447633269e-05 -7.3907755942161008e-06 0 -3.2193798519853147e-05 -1.0866377964534341e-05 0 -2.8455154450913316e-05 -6.5973824427728839e-06 0 -0.00010160700975372871 0.00021436738101808799 0 -0.00013349105988156362 0.00021563046326897244 0 -0.00011415817936979499 0.00019068549609990547 0 -0.00010160700975372871 0.00021436738101808799 0 -0.00012052415705287011 0.00023709551704351168 0 -0.00013349105988156362 0.00021563046326897244 0 -5.2665040114604866e-05 -0.00010683651440915255 0 -4.7659281676571247e-05 -0.00011635121846429647 0 -4.0231438936034785e-05 -0.00010494136078618981 0 -5.2665040114604866e-05 -0.00010683651440915255 0 -4.0231438936034785e-05 -0.00010494136078618981 0 -4.516326023490049e-05 -9.5788262030496895e-05 0 -3.0133080285766162e-05 -0.00012563638927709148 0 -4.0588954990888417e-05 -0.00013330163102165981 0 -3.2912135259704607e-05 -0.00014137355146409434 0 -0.00017058240517041785 0.0002992931134644046 0 -0.00016957223704973671 0.00026693554389877779 0 -0.00014702336564025086 0.00027628203261172439 0 -8.2138918483059461e-06 -8.8807587619791038e-07 0 -6.6808625177363572e-06 -5.2977108941788724e-07 0 -1.0374440289413212e-05 -1.7540875034674666e-06 0 -7.4751926637499225e-06 -6.4468554323558402e-07 0 -1.0106500408904597e-05 -1.0386517171866612e-07 0 -6.4372588094763562e-06 -1.11719768648933e-06 0 -5.2665040114604866e-05 -0.00010683651440915255 0 -6.1085777047023706e-05 -0.00010822308604644426 0 -5.6425332690727631e-05 -0.00012058139667936341 0 -5.2665040114604866e-05 -0.00010683651440915255 0 -5.2992625545795098e-05 -9.4397059534131339e-05 0 -6.1085777047023706e-05 -0.00010822308604644426 0 -6.7234722041455746e-05 -0.00012349104660554181 0 -5.6425332690727631e-05 -0.00012058139667936341 0 -6.1085777047023706e-05 -0.00010822308604644426 0 -6.2812023088464715e-05 -9.4570146983810239e-05 0 -6.1085777047023706e-05 -0.00010822308604644426 0 -5.2992625545795098e-05 -9.4397059534131339e-05 0 -0.00010160700975372871 0.00021436738101808799 0 -8.0391533361137858e-05 0.00021613008223294005 0 -0.00010115435027406339 0.00024442843547591839 0 -7.6197065603699613e-05 0.00024369146346648864 0 -0.00010115435027406339 0.00024442843547591839 0 -8.0391533361137858e-05 0.00021613008223294005 0 -3.8784973878270436e-09 -6.6633288754987202e-11 0 -3.1385557193988957e-06 -2.5309302159067959e-07 0 -3.193683066499396e-06 -2.0121014831457672e-08 0 -4.3920040719153407e-09 -4.1265935607576268e-10 0 -3.4050241377555714e-06 -9.9830569769629693e-07 0 -3.6091189172790425e-06 -7.3516190743289859e-07 0 -6.7477700993215289e-05 -5.0363432852873525e-05 0 -5.598696032989202e-05 -3.8836608971794289e-05 0 -6.3553892659456396e-05 -3.9482527260930445e-05 0 -0.00010025943733175852 8.4919009515761786e-05 0 -9.5616149113899519e-05 6.2659380553794258e-05 0 -8.0861388376453919e-05 6.0597907737618405e-05 0 -2.970670712742079e-05 -1.1638173637536737e-05 0 -3.6850194840439784e-05 -1.5728999808715123e-05 0 -3.4576771100494182e-05 -1.5329253679166891e-05 0 -9.8427539484830826e-06 -1.6214593478206563e-07 0 -1.1687518399395293e-05 -1.3089048256062997e-06 0 -1.1617255691208565e-05 -1.2944076269655221e-07 0 -4.5408204850667323e-05 -5.6240897861476239e-05 0 -4.3794107341843701e-05 -5.3776986522965797e-05 0 -4.6256675571841157e-05 -5.4145133017054136e-05 0 -3.0750416501924226e-05 6.2129508632337767e-06 0 -3.7017246173008893e-05 8.690581684806479e-06 0 -4.0667152528008407e-05 1.0346723669832464e-05 0 -4.9556026357953002e-05 1.4318873399204164e-05 0 -4.0667152528008407e-05 1.0346723669832464e-05 0 -3.7017246173008893e-05 8.690581684806479e-06 0 -5.828162227471505e-06 6.3395689608987254e-07 0 -5.2304641462449216e-06 -1.1373660650186444e-07 0 -3.9734777500723079e-06 -1.670186138112809e-07 0 -1.9721202103709551e-05 -1.9610594979672383e-05 0 -2.6897983951429794e-05 -2.6291770149886894e-05 0 -2.3718984323464702e-05 -2.4771974171179353e-05 0 -6.0058040749996571e-05 -2.9961595460780869e-05 0 -5.9342594172217113e-05 -3.2972577902415553e-05 0 -5.1377453143400325e-05 -2.658464153464504e-05 0 -9.1647315284072719e-05 4.1710052415259001e-05 0 -7.4308150097909573e-05 3.5863930717904356e-05 0 -8.8900986347837884e-05 4.8061120857745496e-05 0 -3.9784121759932104e-05 -2.3108876634549589e-05 0 -4.1438406534517162e-05 -2.1411058705018401e-05 0 -3.7648616600403232e-05 -2.1259279104759152e-05 0 -1.6938213129332656e-05 1.1871592599444963e-06 0 -1.7428853064364421e-05 1.5121505439551291e-06 0 -2.4771611502382405e-05 3.7832282636844714e-06 0 -2.1627783271468378e-05 3.7582720132930659e-06 0 -2.4771611502382405e-05 3.7832282636844718e-06 0 -1.7428853064364421e-05 1.5121505439551291e-06 0 -4.3815690589934806e-05 8.8394692838775305e-05 0 -3.9468569608055644e-05 6.1876306122267877e-05 0 -2.7175317105634784e-05 5.5831323998835629e-05 0 -3.896421012464086e-05 1.1417365462444491e-05 0 -3.2702782533071416e-05 8.0064003320949372e-06 0 -4.0667152528008407e-05 1.0346723669832464e-05 0 -2.8820618925235077e-05 -1.2045958600012681e-05 0 -2.9485380333685478e-05 -1.1455187991943143e-05 0 -2.4317974021244812e-05 -9.456811738693497e-06 0 -4.5671460290233205e-05 -4.2176116508277815e-05 0 -4.4880984766871073e-05 -3.7878649199688479e-05 0 -4.8709534208367271e-05 -4.2400886699110452e-05 0 -4.7424108046065495e-05 -3.7580285349581945e-05 0 -4.8709534208367271e-05 -4.2400886699110452e-05 0 -4.4880984766871073e-05 -3.7878649199688479e-05 0 -1.7804019378463739e-05 -2.7338622223805484e-06 0 -1.7102648113012246e-05 -3.6122461495972329e-08 0 -1.4453473571125674e-05 -7.2659835707011943e-08 0 -2.3851636779944688e-05 1.2592841844708612e-05 0 -2.0950411315411368e-05 7.2030588802064436e-06 0 -1.7310971045381032e-05 8.3500811326263212e-06 0 -9.5395653025324371e-06 3.9588219310987921e-06 0 -9.346146353305685e-06 2.3603433844220421e-06 0 -1.08988954277673e-05 4.0494677947221631e-06 0 -3.4193897855815774e-05 4.2418010162364453e-05 0 -2.7175317105634784e-05 5.5831323998835629e-05 0 -3.9468569608055644e-05 6.1876306122267877e-05 0 -4.2262092852892987e-05 -1.9950419476234828e-05 0 -3.687518969210379e-05 -1.8692070632814464e-05 0 -3.4576771100494182e-05 -1.5329253679166891e-05 0 -1.8201736218171629e-05 -6.6668471082500031e-06 0 -1.4816679686381328e-05 -3.9291769630718606e-06 0 -1.5392803543630459e-05 -4.3739212780059767e-06 0 8.4344789460226488e-06 0.00012270015809027365 0 9.1910698416810079e-06 0.00015575983172956784 0 -1.2187002106804034e-05 0.00014613058586504922 0 -0.00010064697639517307 -0.00010315795752419888 0 -8.4706579232339568e-05 -0.00010213300772676207 0 -8.7469497194397129e-05 -9.0821635484115556e-05 0 -9.1647315284072719e-05 4.1710052415259001e-05 0 -7.6639189576079182e-05 2.9940041661293418e-05 0 -7.1789991156190081e-05 2.9170126478974602e-05 0 -5.17133308217799e-05 -2.3796414521176316e-05 0 -6.0058040749996571e-05 -2.9961595460780869e-05 0 -4.9358016462053499e-05 -2.3241034955013957e-05 0 -2.4650057877821384e-05 -1.9114171608878108e-06 0 -2.7564260886112554e-05 -1.3758998499930534e-06 0 -2.1354198631260155e-05 3.7200793668273696e-06 0 -1.6938213129332656e-05 1.1871592599444963e-06 0 -2.4771611502382405e-05 3.7832282636844714e-06 0 -2.2755075532169127e-05 3.3837077290899831e-06 0 -3.0750416501924226e-05 6.2129508632337767e-06 0 -2.2755075532169127e-05 3.3837077290899831e-06 0 -2.4771611502382405e-05 3.7832282636844714e-06 0 -1.2499597646384288e-05 1.080269402331288e-05 0 -1.3185114713365197e-05 1.5461070101744433e-05 0 -1.3700172694368387e-05 1.3828419660711874e-05 0 -8.8636421794166065e-05 -0.00011886250455567338 0 -8.4706579232339568e-05 -0.00010213300772676207 0 -9.4459440408752664e-05 -0.00011096475193070646 0 -5.1598410376100401e-05 -3.7309474827817376e-05 0 -4.9876806142056329e-05 -3.7390469089999252e-05 0 -4.8331166479899014e-05 -3.2515282351508123e-05 0 4.0378621462382971e-06 0.00025349771468611605 0 6.5447414349011757e-07 0.00028566499207813197 0 -1.8395968691211137e-05 0.00027066071267783606 0 -0.00010577095434561326 -0.0001344330851645964 0 -0.00010667622466204272 -0.00014948124285643313 0 -9.5964854116171376e-05 -0.00013978352376431383 0 -4.4100564027049148e-05 2.7047895085645099e-05 0 -3.2246267521921251e-05 1.757298891966175e-05 0 -2.7675866074519408e-05 2.0953640144135475e-05 0 -3.0122030655294601e-05 -2.099375903096167e-05 0 -3.4951331869088672e-05 -2.8310625944711328e-05 0 -3.0011502979306745e-05 -2.4147284229062477e-05 0 -3.7155688981024806e-05 -2.1821400780497765e-05 0 -3.5792389651421899e-05 -2.448805413334191e-05 0 -3.0665008107570894e-05 -1.8293422801136843e-05 0 -0.00016957223704973671 0.00026693554389877779 0 -0.00014247513218586594 0.00024696152482204143 0 -0.00014702336564025086 0.00027628203261172439 0 -3.0133080285766162e-05 -0.00012563638927709148 0 -3.9679682494112329e-05 -0.00011932438197050819 0 -4.0588954990888417e-05 -0.00013330163102165981 0 -1.7855015214058008e-05 -5.8738103647703573e-06 0 -1.4347773316490194e-05 -3.6322584646424186e-06 0 -1.7648460459846827e-05 -5.3210938366230849e-06 0 -1.8337037072713996e-05 2.1005925394879547e-05 0 -2.6067963405057265e-05 2.8187394927272213e-05 0 -2.7675866074519408e-05 2.0953640144135475e-05 0 -4.2262092852892987e-05 -1.9950419476234828e-05 0 -3.6850194840439784e-05 -1.5728999808715123e-05 0 -4.304630185276357e-05 -1.8887482842376247e-05 0 -4.6294229632971493e-05 -2.7266533232492229e-05 0 -5.1603320094167603e-05 -3.3062561256608398e-05 0 -4.6438238102631211e-05 -2.7067513123214234e-05 0 -1.9478940647557989e-05 -6.1431305732217155e-06 0 -1.8527175599738774e-05 -5.6961042279180335e-06 0 -2.3892455226483487e-05 -8.3366542774073934e-06 0 -9.6376143725448101e-05 -8.7667388186994186e-05 0 -0.00010064697639517307 -0.00010315795752419888 0 -8.7469497194397129e-05 -9.0821635484115556e-05 0 -3.4814048838330863e-05 -1.4031444730321551e-05 0 -2.8288272214680119e-05 -1.0601730012220909e-05 0 -2.9485380333685478e-05 -1.1455187991943143e-05 0 -2.328208449982856e-05 -8.238207517873043e-06 0 -2.9485380333685478e-05 -1.1455187991943143e-05 0 -2.8288272214680119e-05 -1.0601730012220909e-05 0 -0.00011152859942433904 0.0001669319158650223 0 -9.0245043044435069e-05 0.00017183206000320552 0 -0.00011415817936979499 0.00019068549609990547 0 -3.0871655888590646e-06 -1.0095396889326153e-06 0 -6.4372588094763562e-06 -1.11719768648933e-06 0 -3.4050241377555714e-06 -9.9830569769629693e-07 0 -7.4242098960346397e-06 -9.6294608182449118e-07 0 -3.4050241377555714e-06 -9.9830569769629693e-07 0 -6.4372588094763562e-06 -1.11719768648933e-06 0 -6.6744178512049833e-06 -8.0016931316892192e-07 0 -6.6808625177363572e-06 -5.2977108941788724e-07 0 -3.193683066499396e-06 -2.0121014831457672e-08 0 -3.1500180832163229e-06 1.5745790529027002e-07 0 -3.193683066499396e-06 -2.0121014831457672e-08 0 -6.6808625177363572e-06 -5.2977108941788724e-07 0 -2.2990718709853413e-05 -1.1829620651914128e-05 0 -2.2047128725566157e-05 -1.0353124511259185e-05 0 -2.5986268192270151e-05 -1.509133525463753e-05 0 -3.1409725386860283e-05 -6.3530406353802739e-06 0 -3.3531380627725019e-05 -9.8829941848545192e-06 0 -3.4582536347763554e-05 -1.3991224564766639e-05 0 -3.6939700938932818e-05 -1.6103183776751753e-05 0 -3.4582536347763554e-05 -1.3991224564766639e-05 0 -3.3531380627725019e-05 -9.8829941848545192e-06 0 -5.1603320094167603e-05 -3.3062561256608398e-05 0 -5.5553064214268466e-05 -3.9436889008122624e-05 0 -5.1882335654180417e-05 -3.5606199758647955e-05 0 -3.6939700938932818e-05 -1.6103183776751753e-05 0 -3.6091197108261547e-05 -1.3782098855184886e-05 0 -3.8789850958388523e-05 -1.8171811257767733e-05 0 -3.2434113551742948e-05 -3.579885079752151e-05 0 -2.8897357850198477e-05 -3.0612688611318131e-05 0 -3.4508886706263511e-05 -3.650904537373719e-05 0 -5.6250835493716134e-05 -4.5293754643066801e-05 0 -5.3003234406910922e-05 -4.0700900308461795e-05 0 -5.4482323703208482e-05 -4.060998005882729e-05 0 -6.0058040749996571e-05 -2.9961595460780869e-05 0 -6.8501658822667808e-05 -3.7996571202079221e-05 0 -5.9342594172217113e-05 -3.2972577902415553e-05 0 -0.00010724785260520783 5.8318195659276453e-05 0 -9.1647315284072719e-05 4.1710052415259001e-05 0 -8.8900986347837884e-05 4.8061120857745496e-05 0 -2.0969380241953608e-05 -9.3553274700952649e-06 0 -2.791194090550481e-05 -1.5886065277562168e-05 0 -2.2633141526294554e-05 -1.8989350945290929e-05 0 -3.2434113551742948e-05 -3.579885079752151e-05 0 -3.7005581612357711e-05 -4.1383590963585982e-05 0 -3.5190271610968065e-05 -4.0009372632753676e-05 0 -3.7155688981024806e-05 -2.1821400780497765e-05 0 -3.687518969210379e-05 -1.8692070632814464e-05 0 -4.4203350247883109e-05 -2.4341711152844254e-05 0 -3.3579316421504427e-06 3.5749796127258079e-07 0 -1.3755265607774117e-06 2.0584049972634505e-07 0 -1.5555153002000112e-06 2.4973596542089098e-07 0 -1.5832080982218483e-05 5.0351693047853725e-06 0 -2.0950411315411368e-05 7.2030588802064444e-06 0 -1.7541006456178023e-05 3.2865958185212792e-06 0 -9.690694916025948e-06 2.7225727544215984e-06 0 -1.2684529021702093e-05 2.886200645794852e-06 0 -1.0180857819690602e-05 1.3722577562264674e-06 0 -2.3174870956240379e-05 8.6906512181191415e-06 0 -2.7292458924733538e-05 1.3701314726851294e-06 0 -2.6946896308682764e-05 -3.1209109765397904e-06 0 -1.8029145818749714e-05 -6.6308398610356505e-06 0 -1.3766056824551495e-05 -4.3909324424915005e-06 0 -1.3174818986587377e-05 -5.3969486862228931e-06 0 -9.1026899435586468e-06 -2.8589660593269906e-06 0 -1.3174818986587377e-05 -5.3969486862228931e-06 0 -1.3766056824551495e-05 -4.3909324424915005e-06 0 -1.1608390378776547e-05 1.3005505462449328e-06 0 -1.7681426769243912e-05 2.2919605873982852e-06 0 -1.7095013289086009e-05 4.1282503238874765e-06 0 -2.3678514709003232e-05 4.7683052780254394e-06 0 -1.7095013289086009e-05 4.1282503238874765e-06 0 -1.7681426769243912e-05 2.2919605873982852e-06 0 -8.401628102901373e-05 -5.956998311096442e-05 0 -9.0873968344371928e-05 -7.3083824841042248e-05 0 -7.831964436948112e-05 -6.4314481441638978e-05 0 -4.3815690589934806e-05 8.8394692838775305e-05 0 -5.31647175663082e-05 6.6480692257644004e-05 0 -3.9468569608055644e-05 6.1876306122267877e-05 0 -2.4573184797608307e-05 -7.8535886826890968e-05 0 -3.3371836265255187e-05 -7.2593928305471868e-05 0 -3.617387655851686e-05 -8.9685253139244585e-05 0 -4.3615602317766635e-05 -5.0575787065222962e-05 0 -4.6608932127632362e-05 -5.0784362333063137e-05 0 -4.6256675571841157e-05 -5.4145133017054136e-05 0 -1.3399333008086943e-05 -3.0684262543592863e-06 0 -1.7648460459846827e-05 -5.3210938366230849e-06 0 -1.4347773316490194e-05 -3.6322584646424186e-06 0 -2.6360255447633269e-05 -7.3907755942161008e-06 0 -2.1270489256834277e-05 -2.5961746242502738e-06 0 -2.2299673975287361e-05 -6.31291508392414e-06 0 -2.970670712742079e-05 -1.1638173637536737e-05 0 -2.3892455226483487e-05 -8.3366542774073934e-06 0 -2.8288272214680119e-05 -1.0601730012220909e-05 0 -3.4879482995663581e-05 0.00015784098317834209 0 -1.0876755908347009e-05 0.00016771617690203655 0 -2.412259256507117e-05 0.00018746631924499558 0 -2.2965835596764509e-09 1.6680848784039914e-10 0 -2.4327608568966357e-06 3.4034531531018082e-07 0 -1.5555153002000112e-06 2.4973596542089098e-07 0 -4.7424108046065495e-05 -3.7580285349581945e-05 0 -4.4880984766871073e-05 -3.7878649199688479e-05 0 -4.3546410815646576e-05 -3.2421947714581047e-05 0 -2.0969380241953608e-05 -9.3553274700952649e-06 0 -2.060902398264578e-05 9.6708018070356246e-06 0 -2.6946896308682764e-05 -3.1209109765397904e-06 0 -0.00014711516058994633 0.00013496439112482895 0 -0.00013524472392692581 0.00010525026552443138 0 -0.00012116679688624318 0.00011641890650861299 0 -2.6603592597694567e-06 2.5989526862392201e-07 0 -3.1906329953513069e-06 1.7000226971752154e-07 0 -1.704177408740355e-06 3.8357200127294158e-08 0 -6.6744178512049833e-06 -8.0016931316892192e-07 0 -3.193683066499396e-06 -2.0121014831457672e-08 0 -3.1385557193988957e-06 -2.5309302159067959e-07 0 -7.4242098960346397e-06 -9.6294608182449118e-07 0 -3.6091189172790425e-06 -7.3516190743289859e-07 0 -3.4050241377555714e-06 -9.9830569769629693e-07 0 -1.1778581555769138e-05 1.5369494050045086e-06 0 -9.762442607296924e-06 9.240460504557351e-07 0 -1.1617255691208565e-05 -1.2944076269655221e-07 0 -5.3209673739753039e-05 -3.1702364848739818e-05 0 -5.1377453143400325e-05 -2.658464153464504e-05 0 -5.9342594172217113e-05 -3.2972577902415553e-05 0 -7.5523446538047046e-05 4.6280988539690607e-05 0 -8.8900986347837884e-05 4.8061120857745496e-05 0 -7.4308150097909586e-05 3.5863930717904363e-05 0 -3.9837851503689788e-05 0.00026308961171231957 0 -2.633619403054965e-05 0.00023255025578912281 0 -1.4952444272809014e-05 0.00024876040359297588 0 -8.5082603059074218e-05 -0.0001342493907215793 0 -8.8636421794166051e-05 -0.00011886250455567338 0 -9.5897081702828646e-05 -0.00012908625630200481 0 -1.9721202103709551e-05 -1.9610594979672383e-05 0 -2.2633141526294554e-05 -1.8989350945290929e-05 0 -2.6897983951429794e-05 -2.6291770149886894e-05 0 -2.3851636779944688e-05 1.2592841844708612e-05 0 -2.7675866074519408e-05 2.0953640144135475e-05 0 -3.2246267521921251e-05 1.757298891966175e-05 0 -2.8698736380039179e-05 -2.3041841010196209e-05 0 -2.6897983951429794e-05 -2.6291770149886894e-05 0 -2.2633141526294554e-05 -1.8989350945290929e-05 0 -9.8427539484830826e-06 -1.6214593478206563e-07 0 -8.7006935412692512e-06 -2.5717073952563355e-07 0 -1.1687518399395293e-05 -1.3089048256062997e-06 0 -2.9160530718850046e-06 -5.0137797829777192e-08 0 -2.0784340130078892e-06 -3.9986488718696392e-07 0 -1.3599715435287541e-06 -1.3780169108801127e-07 0 -1.7855015214058008e-05 -5.8738103647703573e-06 0 -1.5392803543630459e-05 -4.3739212780059767e-06 0 -1.4347773316490194e-05 -3.6322584646424186e-06 0 -2.3641398446313503e-05 5.6736363768776007e-06 0 -2.7292458924733538e-05 1.3701314726851294e-06 0 -2.0453446675564648e-05 1.2432673979759153e-05 0 -2.3174870956240379e-05 8.6906512181191415e-06 0 -2.0453446675564648e-05 1.2432673979759153e-05 0 -2.7292458924733538e-05 1.3701314726851294e-06 0 -7.4528581710139898e-05 -0.00010903152923758683 0 -8.8636421794166065e-05 -0.00011886250455567338 0 -7.8080512559909363e-05 -0.00012340102047960877 0 -8.5082603059074218e-05 -0.0001342493907215793 0 -7.8080512559909363e-05 -0.00012340102047960877 0 -8.8636421794166065e-05 -0.00011886250455567338 0 -4.8414802291527478e-05 0.00021210823691937694 0 -2.633619403054965e-05 0.00023255025578912281 0 -5.0845697824677856e-05 0.00024347430964503794 0 -3.9837851503689788e-05 0.00026308961171231957 0 -5.0845697824677856e-05 0.00024347430964503794 0 -2.633619403054965e-05 0.00023255025578912281 0 -4.8414802291527478e-05 0.00021210823691937694 0 -4.8927986040121787e-05 0.00018110443634577081 0 -2.412259256507117e-05 0.00018746631924499558 0 -3.4879482995663581e-05 0.00015784098317834209 0 -2.412259256507117e-05 0.00018746631924499558 0 -4.8927986040121787e-05 0.00018110443634577081 0 -2.0063580177592194e-09 1.2782245448902337e-10 0 -2.0945644473864977e-09 1.3721172716015815e-10 0 -1.3755265607774117e-06 2.0584049972634505e-07 0 -2.3718984323464702e-05 -2.4771974171179353e-05 0 -2.6897983951429794e-05 -2.6291770149886894e-05 0 -2.8897357850198477e-05 -3.0612688611318131e-05 0 -3.2131154295070469e-05 -3.2269123532260741e-05 0 -2.8897357850198477e-05 -3.0612688611318131e-05 0 -2.6897983951429794e-05 -2.6291770149886894e-05 0 -7.7138398089174234e-05 -8.6751343955914149e-05 0 -8.0570153761946856e-05 -7.6950497315953487e-05 0 -8.7469497194397129e-05 -9.0821635484115556e-05 0 -9.0873968344371928e-05 -7.3083824841042248e-05 0 -8.0570153761946856e-05 -7.6950497315953487e-05 0 -7.831964436948112e-05 -6.4314481441638978e-05 0 -0.00014711516058994633 0.00013496439112482895 0 -0.00012116679688624318 0.00011641890650861299 0 -0.00012325025976181114 0.00014518526295658716 0 -1.2764210927318709e-05 5.7653561485013517e-06 0 -1.3434406252812544e-05 8.3708252880485339e-06 0 -1.1257290117689122e-05 6.8454987704756229e-06 0 -1.2499597646384288e-05 1.080269402331288e-05 0 -1.1257290117689122e-05 6.8454987704756229e-06 0 -1.3434406252812544e-05 8.3708252880485339e-06 0 -6.4915155019287537e-06 3.5906656628154929e-07 0 -7.9641341144617884e-06 4.6237220170761865e-07 0 -6.2881188517629927e-06 6.6545311776927416e-07 0 -3.3579316421504427e-06 3.5749796127258079e-07 0 -1.5555153002000109e-06 2.4973596542089092e-07 0 -2.4327608568966357e-06 3.4034531531018082e-07 0 -3.0750416501924226e-05 6.2129508632337767e-06 0 -4.0667152528008407e-05 1.0346723669832464e-05 0 -3.2702782533071416e-05 8.0064003320949372e-06 0 -2.328208449982856e-05 -8.238207517873043e-06 0 -2.4317974021244812e-05 -9.456811738693497e-06 0 -2.9485380333685478e-05 -1.1455187991943143e-05 0 -2.328208449982856e-05 -8.238207517873043e-06 0 -2.8288272214680119e-05 -1.0601730012220909e-05 0 -2.3892455226483487e-05 -8.3366542774073934e-06 0 6.5851689069560628e-06 0.00022136760452497244 0 -1.4952444272809014e-05 0.00024876040359297588 0 -2.633619403054965e-05 0.00023255025578912281 0 -0.00010380417560569453 -0.00011880317405553029 0 -9.5897081702828659e-05 -0.00012908625630200481 0 -8.8636421794166065e-05 -0.00011886250455567338 0 -2.024046915598927e-09 -3.6087175137741514e-11 0 -1.3599715435287541e-06 -1.378016910880113e-07 0 -2.0784340130078892e-06 -3.9986488718696392e-07 0 -9.690694916025948e-06 2.7225727544215984e-06 0 -1.272953260628917e-05 5.2103087993757821e-06 0 -1.2684529021702093e-05 2.886200645794852e-06 0 -5.8517325708209578e-05 -7.5051942646776944e-05 0 -6.2275353251815016e-05 -6.4502818925885519e-05 0 -6.7457456122734988e-05 -7.5178097884414798e-05 0 -2.4854617402281474e-05 6.5233475282927129e-06 0 -2.0950411315411365e-05 7.2030588802064436e-06 0 -2.8517276695375889e-05 1.0979836451045054e-05 0 -3.0122030655294601e-05 -2.099375903096167e-05 0 -3.5792389651421899e-05 -2.448805413334191e-05 0 -3.4951331869088672e-05 -2.8310625944711328e-05 0 -1.0598109902932381e-05 5.6444552897275605e-06 0 -1.1257290117689122e-05 6.8454987704756229e-06 0 -1.1957704259187344e-05 8.8508345734127481e-06 0 -7.5067511699386657e-05 0.00013642421253562507 0 -9.7563777849278289e-05 0.00014173039567915783 0 -8.5290524376575085e-05 0.00011761143753166873 0 -5.3209673739753039e-05 -3.1702364848739818e-05 0 -6.3553892659456396e-05 -3.9482527260930445e-05 0 -5.598696032989202e-05 -3.8836608971794289e-05 0 -7.5523446538047046e-05 4.6280988539690607e-05 0 -8.0861388376453919e-05 6.0597907737618405e-05 0 -9.5616149113899519e-05 6.2659380553794258e-05 0 -4.8648326205095643e-05 -5.4374956531509881e-05 0 -4.7455609338837876e-05 -5.7384786326901356e-05 0 -4.6256675571841157e-05 -5.4145133017054136e-05 0 -4.5408204850667323e-05 -5.6240897861476239e-05 0 -4.6256675571841157e-05 -5.4145133017054136e-05 0 -4.7455609338837876e-05 -5.7384786326901356e-05 0 -2.970670712742079e-05 -1.1638173637536737e-05 0 -2.446397776700445e-05 -8.9440047570205554e-06 0 -2.3892455226483487e-05 -8.3366542774073934e-06 0 -1.9478940647557989e-05 -6.1431305732217155e-06 0 -2.3892455226483487e-05 -8.3366542774073934e-06 0 -2.446397776700445e-05 -8.9440047570205554e-06 0 -1.8201736218171629e-05 -6.6668471082500031e-06 0 -2.2047128725566157e-05 -1.0353124511259187e-05 0 -2.0046186044205301e-05 -8.3667700476356376e-06 0 -3.4814048838330863e-05 -1.4031444730321551e-05 0 -4.304630185276357e-05 -1.8887482842376247e-05 0 -3.6850194840439784e-05 -1.5728999808715123e-05 0 -3.6532630426468125e-05 9.8831304066886063e-06 0 -3.7017246173008893e-05 8.690581684806479e-06 0 -2.8846704315245941e-05 6.2355970376755209e-06 0 -5.219134972530174e-05 -5.9940242784573511e-05 0 -4.8537642364212034e-05 -6.0026426505604743e-05 0 -4.9832340590731508e-05 -5.7419543794496493e-05 0 -7.5067511699386657e-05 0.00013642421253562507 0 -9.0245043044435069e-05 0.00017183206000320552 0 -9.7563777849278289e-05 0.00014173039567915783 0 -2.0945644473864977e-09 1.3721172716015815e-10 0 -2.2965835596764509e-09 1.6680848784039914e-10 0 -1.5555153002000112e-06 2.4973596542089098e-07 0 8.343537004790251e-06 0.00018869302456673488 0 -2.412259256507117e-05 0.00018746631924499558 0 -1.0876755908347009e-05 0.00016771617690203655 0 -1.4849352163272384e-05 1.7082962310140455e-05 0 -1.2793759267491637e-05 2.2207212212587505e-05 0 -1.3185114713365197e-05 1.546107010174443e-05 0 -7.5523446538047046e-05 4.6280988539690607e-05 0 -6.2810849456184284e-05 4.3856912267472923e-05 0 -8.0861388376453919e-05 6.0597907737618405e-05 0 -1.4849352163272384e-05 1.7082962310140455e-05 0 -1.4497817594821315e-05 1.220912027150203e-05 0 -1.7933034241851836e-05 1.1616670847869416e-05 0 -1.4849352163272384e-05 1.7082962310140455e-05 0 -1.3185114713365197e-05 1.546107010174443e-05 0 -1.4497817594821315e-05 1.220912027150203e-05 0 -2.2759827952528752e-05 -8.389589767806759e-06 0 -2.8140544002192619e-05 -1.1574795420345459e-05 0 -2.6566860633840262e-05 -1.1751344397895562e-05 0 -1.1754664810996047e-05 -2.2286767687413427e-06 0 -1.4347773316490194e-05 -3.6322584646424186e-06 0 -1.5392803543630459e-05 -4.3739212780059767e-06 0 -0.00010132891143808606 0.00011578895547879091 0 -0.00012325025976181114 0.00014518526295658716 0 -0.00012116679688624318 0.00011641890650861299 0 -2.8347136481037732e-05 -1.5722733057512712e-05 0 -3.0826514055539387e-05 -1.3563258677758757e-05 0 -2.6156159064654723e-05 -1.0803075805488505e-05 0 -2.3641398446313503e-05 5.6736363768776007e-06 0 -2.0453446675564648e-05 1.2432673979759153e-05 0 -1.7933034241851836e-05 1.1616670847869416e-05 0 -4.6299951049322667e-05 -3.2266903024864905e-05 0 -4.3003592737324136e-05 -2.7294350143508246e-05 0 -4.4586249198135763e-05 -2.6686942758867258e-05 0 -5.3209673739753039e-05 -3.1702364848739818e-05 0 -5.9342594172217113e-05 -3.2972577902415553e-05 0 -6.3553892659456396e-05 -3.9482527260930445e-05 0 -7.5523446538047046e-05 4.6280988539690607e-05 0 -9.5616149113899519e-05 6.2659380553794258e-05 0 -8.8900986347837884e-05 4.8061120857745496e-05 0 -0.00012434539807524057 0.00026392957995426499 0 -0.00014702336564025086 0.00027628203261172439 0 -0.00014247513218586594 0.00024696152482204143 0 -4.8847857532824388e-05 -0.00012943423782053686 0 -4.0588954990888417e-05 -0.00013330163102165981 0 -3.9679682494112329e-05 -0.00011932438197050819 0 -5.1598410376100401e-05 -3.7309474827817376e-05 0 -4.8331166479899014e-05 -3.2515282351508123e-05 0 -5.1882335654180417e-05 -3.5606199758647955e-05 0 -1.2499597646384288e-05 1.080269402331288e-05 0 -1.1957704259187344e-05 8.8508345734127481e-06 0 -1.1257290117689122e-05 6.8454987704756229e-06 0 -2.1627783271468378e-05 3.7582720132930659e-06 0 -2.8846704315245941e-05 6.2355970376755209e-06 0 -2.4771611502382405e-05 3.7832282636844714e-06 0 -4.2262092852892987e-05 -1.9950419476234828e-05 0 -3.4576771100494182e-05 -1.5329253679166891e-05 0 -3.6850194840439784e-05 -1.5728999808715123e-05 0 -5.9370134734950182e-05 2.4560192411071812e-05 0 -4.9583267604920736e-05 2.2198222194235145e-05 0 -6.0444919976956512e-05 3.2399578057036367e-05 0 -2.6647700481186037e-05 -1.7395351960635575e-05 0 -3.0011502979306745e-05 -2.4147284229062477e-05 0 -2.924463308423427e-05 -2.1307465007711035e-05 0 -3.1389649591788414e-05 -1.4613972340494513e-05 0 -3.4576771100494182e-05 -1.5329253679166891e-05 0 -3.687518969210379e-05 -1.8692070632814464e-05 0 -2.3641398446313503e-05 5.6736363768776007e-06 0 -2.1354198631260155e-05 3.7200793668273696e-06 0 -2.7564260886112554e-05 -1.3758998499930534e-06 0 -2.024046915598927e-09 -3.6087175137741514e-11 0 -1.9901936950435897e-09 -1.0957147557768052e-10 0 -1.3599715435287541e-06 -1.3780169108801127e-07 0 -5.2001066592833223e-05 -4.2432293405047962e-05 0 -5.3003234406910922e-05 -4.0700900308461795e-05 0 -5.6250835493716134e-05 -4.5293754643066801e-05 0 -5.17133308217799e-05 -2.3796414521176316e-05 0 -4.9358016462053499e-05 -2.3241034955013957e-05 0 -4.304630185276357e-05 -1.8887482842376247e-05 0 -7.6639189576079182e-05 2.9940041661293418e-05 0 -6.105828111866014e-05 2.1461437248273402e-05 0 -7.1789991156190081e-05 2.9170126478974602e-05 0 -6.935957678158324e-05 -6.3405623591785624e-05 0 -7.831964436948112e-05 -6.4314481441638978e-05 0 -8.0570153761946856e-05 -7.6950497315953487e-05 0 -4.1114986735581616e-05 -3.2820491985317063e-05 0 -4.1005266059021228e-05 -3.885371153547035e-05 0 -3.4951331869088672e-05 -2.8310625944711328e-05 0 -3.4398722379243688e-05 -3.2847960659766246e-05 0 -3.4951331869088672e-05 -2.8310625944711328e-05 0 -4.1005266059021228e-05 -3.885371153547035e-05 0 -3.1389649591788414e-05 -1.4613972340494513e-05 0 -3.128584759478125e-05 -1.6218766901221296e-05 0 -2.6566860633840262e-05 -1.1751344397895562e-05 0 -4.6299951049322667e-05 -3.2266903024864905e-05 0 -4.4586249198135763e-05 -2.6686942758867258e-05 0 -4.8331166479899014e-05 -3.2515282351508123e-05 0 -7.7138398089174234e-05 -8.6751343955914149e-05 0 -6.7661487913588995e-05 -8.5303744214363563e-05 0 -6.7457456122734988e-05 -7.5178097884414798e-05 0 -3.1389649591788414e-05 -1.4613972340494513e-05 0 -2.6566860633840262e-05 -1.1751344397895562e-05 0 -2.8140544002192619e-05 -1.1574795420345459e-05 0 -4.1449497369284785e-05 -2.2613777738292786e-05 0 -4.4586249198135763e-05 -2.6686942758867258e-05 0 -4.3003592737324136e-05 -2.7294350143508246e-05 0 -3.7796691956438041e-06 -5.6681742299602679e-07 0 -3.9734777500723088e-06 -1.6701861381128085e-07 0 -5.2304641462449216e-06 -1.1373660650186444e-07 0 -6.8501658822667808e-05 -3.7996571202079221e-05 0 -6.3553892659456396e-05 -3.9482527260930445e-05 0 -5.9342594172217113e-05 -3.2972577902415553e-05 0 -0.00010724785260520783 5.8318195659276453e-05 0 -8.8900986347837884e-05 4.8061120857745496e-05 0 -9.5616149113899519e-05 6.2659380553794258e-05 0 -0.00010380417560569453 -0.00011880317405553029 0 -8.8636421794166065e-05 -0.00011886250455567338 0 -9.4459440408752664e-05 -0.00011096475193070646 0 6.5851689069560628e-06 0.00022136760452497244 0 -2.633619403054965e-05 0.00023255025578912281 0 -1.7183358152571766e-05 0.00020914423844475125 0 8.343537004790251e-06 0.00018869302456673488 0 -1.7183358152571766e-05 0.00020914423844475125 0 -2.412259256507117e-05 0.00018746631924499558 0 -0.00010380417560569453 -0.00011880317405553029 0 -0.00010577095434561325 -0.0001344330851645964 0 -9.5897081702828646e-05 -0.00012908625630200481 0 6.5851689069560628e-06 0.00022136760452497244 0 4.0378621462382971e-06 0.00025349771468611605 0 -1.4952444272809014e-05 0.00024876040359297588 0 -2.8698736380039179e-05 -2.3041841010196209e-05 0 -2.791194090550481e-05 -1.5886065277562168e-05 0 -3.2592813847566937e-05 -2.240309606287685e-05 0 -4.8186269874112277e-05 -3.041439723809472e-05 0 -5.1882335654180417e-05 -3.5606199758647955e-05 0 -4.8331166479899014e-05 -3.2515282351508123e-05 0 -6.3412156218046862e-05 -5.8518868042827753e-05 0 -6.473257379512253e-05 -6.1605259433414534e-05 0 -6.2220768411589374e-05 -5.6915429366052789e-05 0 -3.7062783480750152e-05 -4.1152723461057624e-05 0 -4.0528519764976673e-05 -4.8201026075449852e-05 0 -4.0154653425055453e-05 -4.4579153347825833e-05 0 -7.5523446538047046e-05 4.6280988539690607e-05 0 -6.0444919976956512e-05 3.2399578057036367e-05 0 -6.2810849456184284e-05 4.3856912267472923e-05 0 -1.9478940647557989e-05 -6.1431305732217155e-06 0 -1.5635612309779755e-05 -4.1705221134307664e-06 0 -1.8527175599738774e-05 -5.6961042279180335e-06 0 -7.3874750809661768e-06 1.2372855967276289e-06 0 -7.9641341144617884e-06 4.6237220170761865e-07 0 -9.762442607296924e-06 9.240460504557351e-07 0 -0.00011152859942433904 0.0001669319158650223 0 -9.7563777849278289e-05 0.00014173039567915783 0 -9.0245043044435069e-05 0.00017183206000320552 0 -4.3275230902150225e-05 -8.2630583106339608e-05 0 -3.617387655851686e-05 -8.9685253139244585e-05 0 -3.3371836265255187e-05 -7.2593928305471868e-05 0 -2.9160530718850046e-06 -5.0137797829777192e-08 0 -1.3599715435287541e-06 -1.3780169108801127e-07 0 -1.704177408740355e-06 3.8357200127294158e-08 0 -3.7155688981024806e-05 -2.1821400780497765e-05 0 -3.0665008107570894e-05 -1.8293422801136843e-05 0 -3.128584759478125e-05 -1.6218766901221296e-05 0 9.1910698416810079e-06 0.00015575983172956784 0 8.3435370047902544e-06 0.00018869302456673488 0 -1.0876755908347009e-05 0.00016771617690203655 0 -7.4751926637499225e-06 -6.4468554323558402e-07 0 -8.436853975358539e-06 1.0638050277033424e-07 0 -1.0106500408904597e-05 -1.0386517171866612e-07 0 -2.8698736380039179e-05 -2.3041841010196209e-05 0 -3.2592813847566937e-05 -2.240309606287685e-05 0 -3.2089644149179604e-05 -2.8436114999236415e-05 0 -3.606411833997756e-05 -2.9007962394873296e-05 0 -3.2089644149179604e-05 -2.8436114999236415e-05 0 -3.2592813847566937e-05 -2.240309606287685e-05 0 -5.9206152307012856e-05 -5.4580580414011154e-05 0 -6.0353988817097047e-05 -5.3378766772140766e-05 0 -6.2220768411589374e-05 -5.6915429366052789e-05 0 -6.3412156218046862e-05 -5.8518868042827753e-05 0 -6.2220768411589374e-05 -5.6915429366052789e-05 0 -6.0353988817097047e-05 -5.3378766772140766e-05 0 -3.7062783480750152e-05 -4.1152723461057624e-05 0 -3.8989815877771534e-05 -4.6119714389187228e-05 0 -4.0528519764976673e-05 -4.8201026075449852e-05 0 -4.219420495265011e-05 -5.2140947332172111e-05 0 -4.0528519764976673e-05 -4.8201026075449852e-05 0 -3.8989815877771534e-05 -4.6119714389187228e-05 0 -1.2764210927318709e-05 5.7653561485013517e-06 0 -1.08988954277673e-05 4.0494677947221631e-06 0 -1.4257431674400526e-05 2.9151741388725672e-06 0 -2.0969380241953608e-05 -9.3553274700952649e-06 0 -2.6946896308682764e-05 -3.1209109765397904e-06 0 -2.791194090550481e-05 -1.5886065277562168e-05 0 -3.2195288321955652e-05 -1.1995544581739693e-05 0 -2.791194090550481e-05 -1.5886065277562168e-05 0 -2.6946896308682764e-05 -3.1209109765397904e-06 0 -7.7138398089174234e-05 -8.6751343955914149e-05 0 -8.7469497194397129e-05 -9.0821635484115556e-05 0 -8.4706579232339568e-05 -0.00010213300772676207 0 -2.970670712742079e-05 -1.1638173637536737e-05 0 -3.4576771100494182e-05 -1.5329253679166891e-05 0 -2.8140544002192619e-05 -1.1574795420345459e-05 0 -3.1389649591788414e-05 -1.4613972340494513e-05 0 -2.8140544002192619e-05 -1.1574795420345459e-05 0 -3.4576771100494182e-05 -1.5329253679166891e-05 0 -3.0399269578328459e-05 -2.7545567240174687e-05 0 -3.9784121759932104e-05 -2.3108876634549589e-05 0 -3.7648616600403232e-05 -2.1259279104759152e-05 0 -5.7211910797965319e-05 -4.9243783275169439e-05 0 -6.0353988817097047e-05 -5.3378766772140766e-05 0 -5.6799498629399837e-05 -5.1033659017566054e-05 0 -3.8729099115730449e-05 -4.4848405106273351e-05 0 -4.140691445361687e-05 -4.9275379961381787e-05 0 -3.8989815877771534e-05 -4.6119714389187228e-05 0 -9.8427539484830826e-06 -1.6214593478206563e-07 0 -9.7624426072969223e-06 9.240460504557351e-07 0 -7.9641341144617884e-06 4.6237220170761865e-07 0 -4.8537642364212034e-05 -6.0026426505604743e-05 0 -4.7455609338837876e-05 -5.7384786326901356e-05 0 -4.9832340590731508e-05 -5.7419543794496493e-05 0 -8.0741479893049241e-06 -3.9017598257368218e-07 0 -6.0883603474119243e-06 2.0728010010674461e-07 0 -5.3237263151944434e-06 1.8365994337298505e-07 0 -4.1449497369284785e-05 -2.2613777738292786e-05 0 -3.8789850958388523e-05 -1.8171811257767733e-05 0 -4.0591626244354603e-05 -1.9608144455032486e-05 0 -2.9160530718850046e-06 -5.0137797829777192e-08 0 -4.2093896102783368e-06 2.1895557963158792e-07 0 -3.9734777500723079e-06 -1.670186138112809e-07 0 -7.3373679166195563e-05 0.0001868153226993369 0 -6.2485968802599744e-05 0.00016074755959091458 0 -4.8927986040121787e-05 0.00018110443634577081 0 -7.6197065603699613e-05 0.00024369146346648864 0 -5.0845697824677856e-05 0.00024347430964503794 0 -6.2434795271686211e-05 0.00026406688531279245 0 -6.7234722041455746e-05 -0.00012349104660554181 0 -7.8080512559909363e-05 -0.00012340102047960877 0 -7.4893527643127828e-05 -0.00013341052121006359 0 -7.1386419249497168e-06 3.3643320783204371e-05 0 -2.060902398264578e-05 9.6708018070356246e-06 0 -9.416256207371241e-06 -1.6521896053932542e-07 0 -2.9160530718850046e-06 -5.0137797829777192e-08 0 -1.704177408740355e-06 3.8357200127294158e-08 0 -3.1906329953513069e-06 1.7000226971752154e-07 0 -0.00010064697639517307 -0.00010315795752419888 0 -9.445944040875265e-05 -0.00011096475193070646 0 -8.4706579232339568e-05 -0.00010213300772676207 0 -0.00010681093141121897 -0.00019017742313153012 0 -9.8173654173821595e-05 -0.00018287750117789684 0 -0.00010691072461740787 -0.00017727725494828944 0 -1.0598321207884368e-05 0.00037236620591123403 0 -2.5542771987100856e-05 0.00036382176346184595 0 -6.8684573166859012e-06 0.00034616021571970087 0 -1.0598321207884368e-05 0.00037236620591123403 0 -3.5012477845395701e-05 0.00038050558634564711 0 -2.5542771987100859e-05 0.00036382176346184595 0 -4.0490322862236356e-05 -0.00018141024581242707 0 -4.6075096074648883e-05 -0.00017857752771474578 0 -4.9922214046950738e-05 -0.00018564531530208218 0 -0.00017059044040297562 0.0003894992257389955 0 -0.00017074349891149103 0.00036032117050998274 0 -0.00015106612915063731 0.00037297353057685336 0 -0.00010681093141121897 -0.00019017742313153012 0 -9.3920864957660883e-05 -0.00019005619087282422 0 -9.8173654173821595e-05 -0.00018287750117789684 0 -4.0490322862236356e-05 -0.00018141024581242707 0 -3.8297870401880646e-05 -0.00017020981426737837 0 -4.6075096074648883e-05 -0.00017857752771474578 0 -0.00017059044040297562 0.0003894992257389955 0 -0.00015106612915063731 0.00037297353057685336 0 -0.00014140777471127617 0.00038931276323036552 0 -1.9901936950438387e-09 -1.0957147557770578e-10 0 -1.704177408740355e-06 3.8357200127294158e-08 0 -1.3599715435287541e-06 -1.3780169108801127e-07 0 -4.6299951049322667e-05 -3.2266903024864905e-05 0 -4.3546410815646576e-05 -3.2421947714581047e-05 0 -4.3003592737324136e-05 -2.7294350143508246e-05 0 -3.1389649591788414e-05 -1.4613972340494513e-05 0 -3.687518969210379e-05 -1.8692070632814464e-05 0 -3.128584759478125e-05 -1.6218766901221296e-05 0 -7.7138398089174234e-05 -8.6751343955914149e-05 0 -7.2798217375861862e-05 -9.5415414684552356e-05 0 -6.7661487913588995e-05 -8.5303744214363563e-05 0 -7.279833101855537e-06 5.4803857567500378e-07 0 -1.0180857819690602e-05 1.3722577562264674e-06 0 -8.436853975358539e-06 1.0638050277033424e-07 0 -8.2043486221204209e-05 0.00028291190316810546 0 -0.000102598535218688 0.00030234600629932884 0 -0.00010288288948351449 0.00027325585692018815 0 -6.7761672849780358e-05 -0.00014132198627733679 0 -6.0593227898746052e-05 -0.00014964215869637393 0 -5.841483576952283e-05 -0.00013598319209844517 0 -6.0446155723952217e-05 -5.05405312132584e-05 0 -6.2102428843020159e-05 -5.4866483965898715e-05 0 -5.9395685932587365e-05 -5.0399943372892936e-05 0 -3.0832308065082937e-05 -3.3337924531929674e-05 0 -3.5190271610968065e-05 -4.0009372632753676e-05 0 -3.4107445951233742e-05 -3.7424438994811212e-05 0 -1.4803898029600588e-05 -1.2433193561979287e-05 0 -2.2633141526294554e-05 -1.8989350945290929e-05 0 -1.9721202103709551e-05 -1.9610594979672383e-05 0 -3.7155688981024806e-05 -2.1821400780497765e-05 0 -3.128584759478125e-05 -1.6218766901221296e-05 0 -3.687518969210379e-05 -1.8692070632814464e-05 0 -5.5553064214268466e-05 -3.9436889008122624e-05 0 -5.8374654460409898e-05 -4.5305907465821177e-05 0 -5.4482323703208482e-05 -4.060998005882729e-05 0 -2.3718984323464702e-05 -2.4771974171179353e-05 0 -2.8897357850198477e-05 -3.0612688611318131e-05 0 -2.7492865290902004e-05 -2.9233641728621898e-05 0 -5.8517325708209578e-05 -7.5051942646776944e-05 0 -5.1215333915949921e-05 -7.9200143569905436e-05 0 -4.9784203947428346e-05 -6.4880337812964629e-05 0 -7.3874750809661768e-06 1.2372855967276289e-06 0 -6.2881188517629927e-06 6.6545311776927405e-07 0 -7.9641341144617884e-06 4.6237220170761865e-07 0 -4.8847857532824388e-05 -0.00012943423782053686 0 -5.6425332690727631e-05 -0.00012058139667936341 0 -5.841483576952283e-05 -0.00013598319209844517 0 -0.00012434539807524057 0.00026392957995426499 0 -0.00010115435027406339 0.00024442843547591839 0 -0.00010288288948351449 0.00027325585692018815 0 -3.2131154295070469e-05 -3.2269123532260741e-05 0 -2.6897983951429794e-05 -2.6291770149886894e-05 0 -3.2089644149179604e-05 -2.8436114999236415e-05 0 -2.8698736380039179e-05 -2.3041841010196209e-05 0 -3.2089644149179604e-05 -2.8436114999236411e-05 0 -2.6897983951429794e-05 -2.6291770149886894e-05 0 -1.1754664810996047e-05 -2.2286767687413427e-06 0 -1.093633600884438e-05 -1.9119717569586136e-06 0 -1.4347773316490194e-05 -3.6322584646424186e-06 0 -4.1114986735581616e-05 -3.2820491985317063e-05 0 -3.4951331869088672e-05 -2.8310625944711324e-05 0 -3.5792389651421899e-05 -2.448805413334191e-05 0 -4.016990466167107e-05 -6.4347633160968817e-05 0 -3.1500980790795219e-05 -5.7380400162900675e-05 0 -3.5984952031895944e-05 -4.5722801442454949e-05 0 -4.0902331308894567e-05 -2.7059222651424752e-05 0 -4.3003592737324136e-05 -2.7294350143508246e-05 0 -4.3546410815646576e-05 -3.2421947714581047e-05 0 -2.5426953039654207e-05 -4.7793233414254262e-05 0 -3.1500980790795219e-05 -5.7380400162900675e-05 0 -2.4025302591534929e-05 -6.3066043243899044e-05 0 -3.2434113551742948e-05 -3.579885079752151e-05 0 -3.4508886706263511e-05 -3.650904537373719e-05 0 -3.7005581612357711e-05 -4.1383590963585982e-05 0 -3.854509716577976e-05 -4.0424657641642686e-05 0 -3.7005581612357711e-05 -4.1383590963585982e-05 0 -3.4508886706263511e-05 -3.650904537373719e-05 0 -1.3860228104871545e-05 -3.6771750639676953e-06 0 -1.7786485776132816e-05 -5.764727070868491e-06 0 -1.8527175599738774e-05 -5.6961042279180335e-06 0 -2.2648462072832637e-05 -8.870490703021534e-06 0 -2.6156159064654723e-05 -1.0803075805488505e-05 0 -2.2299673975287361e-05 -6.31291508392414e-06 0 -2.6360255447633269e-05 -7.3907755942161008e-06 0 -2.2299673975287361e-05 -6.31291508392414e-06 0 -2.6156159064654723e-05 -1.0803075805488505e-05 0 -1.4849352163272384e-05 1.7082962310140455e-05 0 -2.0453446675564648e-05 1.2432673979759153e-05 0 -1.5693951463783724e-05 2.2048977633664279e-05 0 -2.3174870956240379e-05 8.6906512181191415e-06 0 -1.5693951463783724e-05 2.2048977633664279e-05 0 -2.0453446675564648e-05 1.2432673979759153e-05 0 8.343537004790251e-06 0.00018869302456673488 0 6.5851689069560628e-06 0.00022136760452497244 0 -1.7183358152571766e-05 0.00020914423844475125 0 -1.7409431306401993e-05 8.8011002114756712e-06 0 -1.3434406252812544e-05 8.3708252880485339e-06 0 -1.5843232009112396e-05 5.8405950290107854e-06 0 -0.00010064697639517307 -0.00010315795752419888 0 -0.00010380417560569453 -0.00011880317405553029 0 -9.4459440408752664e-05 -0.00011096475193070646 0 -1.3399333008086943e-05 -3.0684262543592863e-06 0 -1.4347773316490194e-05 -3.6322584646424186e-06 0 -1.093633600884438e-05 -1.9119717569586136e-06 0 -1.6938213129332656e-05 1.1871592599444963e-06 0 -1.3037290317240289e-05 5.6524932030238799e-07 0 -1.1368807394864867e-05 -2.398972110611414e-07 0 -1.3860228104871545e-05 -3.6771750639676953e-06 0 -9.6109417810090823e-06 -1.9510659930673582e-06 0 -1.0525729188689861e-05 -2.676251406469262e-06 0 -9.690694916025948e-06 2.7225727544215984e-06 0 -7.4780603743091222e-06 1.7327232135904205e-06 0 -9.1741808359783334e-06 3.6667924671601706e-06 0 -8.0449664930278517e-06 -4.7066925059539908e-06 0 -6.4164155974438044e-06 -2.6951357262130508e-06 0 -3.3219020270713661e-06 -1.6166917663940873e-06 0 -4.7964703239932684e-09 3.1126230754288209e-10 0 -3.3219020270713661e-06 -1.6166917663940871e-06 0 -6.4164155974438044e-06 -2.6951357262130508e-06 0 -9.8178661394673527e-06 4.7122454044513181e-06 0 -4.1310458644330509e-06 1.439439470329442e-06 0 -8.2391433116062567e-06 1.9840420251249025e-06 0 -6.265086720764579e-09 -7.5174719174719913e-10 0 -8.2391433116062567e-06 1.9840420251249025e-06 0 -4.1310458644330509e-06 1.439439470329442e-06 0 -4.1114986735581616e-05 -3.2820491985317063e-05 0 -4.8787761545655888e-05 -3.7692817542169973e-05 0 -4.7517649513870306e-05 -4.3624018008993047e-05 0 -2.9160530718850046e-06 -5.0137797829777192e-08 0 -3.1906329953513069e-06 1.7000226971752154e-07 0 -4.2093896102783368e-06 2.1895557963158792e-07 0 -3.4879482995663581e-05 0.00015784098317834209 0 -1.2187002106804035e-05 0.00014613058586504922 0 -1.0876755908347009e-05 0.00016771617690203655 0 -3.4193897855815774e-05 4.2418010162364453e-05 0 -3.6584113859519253e-05 3.2003485731997598e-05 0 -2.6067963405057265e-05 2.8187394927272213e-05 0 -1.7409431306401993e-05 8.8011002114756712e-06 0 -1.4497817594821315e-05 1.220912027150203e-05 0 -1.3434406252812544e-05 8.3708252880485339e-06 0 -4.4439367073721692e-05 -5.1439839086623994e-05 0 -4.1005266059021228e-05 -3.885371153547035e-05 0 -4.7517649513870306e-05 -4.3624018008993047e-05 0 -0.00011291101946546784 0.00038851490415928776 0 -0.00014140777471127617 0.00038931276323036552 0 -0.00012692385886971458 0.00037431795464034783 0 -5.9586431947759226e-05 -0.00018784950631894743 0 -4.9922214046950738e-05 -0.00018564531530208218 0 -5.4406139152255942e-05 -0.00018139074050487348 0 -3.5012477845395701e-05 0.00038050558634564711 0 -5.9745179394225913e-05 0.0003849445823125045 0 -4.6661997167151347e-05 0.00036967312050019998 0 -9.3920864957660883e-05 -0.00019005619087282422 0 -8.1530577278906874e-05 -0.00018958765564313404 0 -8.7568468775994245e-05 -0.00018344433042623087 0 -5.3592778610464254e-05 -5.0036357847011348e-05 0 -5.6799498629399837e-05 -5.1033659017566054e-05 0 -5.5155942552472408e-05 -5.2963505479384865e-05 0 -4.3615602317766635e-05 -5.0575787065222962e-05 0 -4.3794107341843701e-05 -5.3776986522965797e-05 0 -4.140691445361687e-05 -4.9275379961381787e-05 0 -9.5601779473980841e-09 -4.0917610816841428e-09 0 -3.3219020270713669e-06 -1.6166917663940877e-06 0 -4.7964703239932684e-09 3.1126230754288209e-10 0 -1.1097196311754395e-08 4.7378418772442498e-09 0 -6.265086720764579e-09 -7.5174719174719913e-10 0 -4.1310458644330509e-06 1.439439470329442e-06 0 -1.1097196311754395e-08 4.7378418772442498e-09 0 -4.1310458644330509e-06 1.439439470329442e-06 0 -9.8178661394673527e-06 4.7122454044513181e-06 0 -9.5601779473980841e-09 -4.0917610816841428e-09 0 -8.0449664930278517e-06 -4.7066925059539908e-06 0 -3.3219020270713661e-06 -1.6166917663940873e-06 0 -4.3275230902150225e-05 -8.2630583106339608e-05 0 -5.1215333915949914e-05 -7.9200143569905422e-05 0 -5.2992625545795098e-05 -9.4397059534131339e-05 0 -1.7855015214058008e-05 -5.8738103647703573e-06 0 -2.1630097686018384e-05 -8.336600559849441e-06 0 -1.9976861136949298e-05 -7.833333045047862e-06 0 -4.1449497369284785e-05 -2.2613777738292786e-05 0 -4.3003592737324129e-05 -2.7294350143508246e-05 0 -3.9864215332316929e-05 -2.2104456394934039e-05 0 -4.0902331308894567e-05 -2.7059222651424752e-05 0 -3.9864215332316929e-05 -2.2104456394934039e-05 0 -4.3003592737324136e-05 -2.7294350143508246e-05 0 -1.1754664810996047e-05 -2.2286767687413427e-06 0 -1.5392803543630459e-05 -4.3739212780059767e-06 0 -1.2999348962948963e-05 -2.8548275339195868e-06 0 -6.4915155019287537e-06 3.5906656628154929e-07 0 -6.0883603474119243e-06 2.0728010010674461e-07 0 -8.7006935412692512e-06 -2.5717073952563355e-07 0 -8.0741479893049241e-06 -3.9017598257368218e-07 0 -8.7006935412692512e-06 -2.5717073952563355e-07 0 -6.0883603474119243e-06 2.0728010010674461e-07 0 -2.3174870956240379e-05 8.6906512181191415e-06 0 -2.060902398264578e-05 9.6708018070356246e-06 0 -1.5693951463783724e-05 2.2048977633664279e-05 0 -7.1386419249497168e-06 3.3643320783204371e-05 0 -1.5693951463783724e-05 2.2048977633664283e-05 0 -2.060902398264578e-05 9.6708018070356246e-06 0 -5.4839169151554357e-05 -4.4509398087376272e-05 0 -4.7517649513870306e-05 -4.3624018008993047e-05 0 -4.8787761545655888e-05 -3.7692817542169973e-05 0 -3.2131154295070469e-05 -3.2269123532260741e-05 0 -3.4508886706263511e-05 -3.650904537373719e-05 0 -2.8897357850198477e-05 -3.0612688611318131e-05 0 -5.1598410376100401e-05 -3.7309474827817376e-05 0 -5.4482323703208482e-05 -4.060998005882729e-05 0 -5.3003234406910922e-05 -4.0700900308461795e-05 0 -9.8427539484830826e-06 -1.6214593478206563e-07 0 -1.1617255691208565e-05 -1.2944076269655221e-07 0 -9.762442607296924e-06 9.240460504557351e-07 0 -3.9837851503689788e-05 0.00026308961171231957 0 -1.4952444272809014e-05 0.00024876040359297588 0 -1.8395968691211137e-05 0.00027066071267783606 0 -8.5082603059074218e-05 -0.0001342493907215793 0 -9.5897081702828646e-05 -0.00012908625630200481 0 -9.5964854116171376e-05 -0.00013978352376431383 0 -3.0399269578328459e-05 -2.7545567240174687e-05 0 -2.924463308423427e-05 -2.1307465007711035e-05 0 -3.0011502979306745e-05 -2.4147284229062477e-05 0 -2.8698736380039179e-05 -2.3041841010196209e-05 0 -2.2633141526294554e-05 -1.8989350945290929e-05 0 -2.791194090550481e-05 -1.5886065277562168e-05 0 -0.00012434539807524057 0.00026392957995426499 0 -0.00014247513218586594 0.00024696152482204143 0 -0.00012052415705287011 0.00023709551704351168 0 -4.8847857532824388e-05 -0.00012943423782053686 0 -3.9679682494112329e-05 -0.00011932438197050819 0 -4.7659281676571247e-05 -0.00011635121846429647 0 -4.3275230902150225e-05 -8.2630583106339608e-05 0 -4.516326023490049e-05 -9.5788262030496895e-05 0 -3.617387655851686e-05 -8.9685253139244585e-05 0 -5.1494801817883247e-05 -4.6318824606800072e-05 0 -5.0887911799268117e-05 -4.8740973515403224e-05 0 -4.8532497731298968e-05 -4.5694999703960957e-05 0 -3.8729099115730449e-05 -4.4848405106273351e-05 0 -3.5190271610968065e-05 -4.0009372632753676e-05 0 -3.7005581612357711e-05 -4.1383590963585982e-05 0 -1.5832080982218483e-05 5.0351693047853725e-06 0 -1.2684529021702093e-05 2.886200645794852e-06 0 -1.272953260628917e-05 5.2103087993757812e-06 0 -4.8648326205095643e-05 -5.4374956531509881e-05 0 -4.6256675571841157e-05 -5.4145133017054136e-05 0 -4.6608932127632362e-05 -5.0784362333063137e-05 0 -1.3399333008086943e-05 -3.0684262543592863e-06 0 -1.093633600884438e-05 -1.9119717569586136e-06 0 -1.0374440289413212e-05 -1.7540875034674666e-06 0 -8.2138918483059461e-06 -8.8807587619791038e-07 0 -1.0374440289413212e-05 -1.7540875034674666e-06 0 -1.093633600884438e-05 -1.9119717569586136e-06 0 -1.7804019378463739e-05 -2.7338622223805484e-06 0 -1.9735260493733026e-05 -5.7704017535199543e-06 0 -2.2299673975287361e-05 -6.31291508392414e-06 0 -4.1114986735581616e-05 -3.2820491985317063e-05 0 -4.7517649513870306e-05 -4.3624018008993047e-05 0 -4.1005266059021228e-05 -3.885371153547035e-05 0 -1.1754664810996047e-05 -2.2286767687413427e-06 0 -1.2999348962948963e-05 -2.8548275339195868e-06 0 -9.9467380572250375e-06 -1.3052983422085784e-06 0 -1.1589538090120674e-05 -1.8728147928800388e-06 0 -9.9467380572250375e-06 -1.3052983422085784e-06 0 -1.2999348962948963e-05 -2.8548275339195868e-06 0 -1.5392803543630459e-05 -4.3739212780059767e-06 0 -1.4816679686381328e-05 -3.9291769630718606e-06 0 -1.2999348962948963e-05 -2.8548275339195868e-06 0 -5.2806941558622399e-05 -5.520874756416845e-05 0 -5.5155942552472408e-05 -5.2963505479384865e-05 0 -5.6972954477024879e-05 -5.6577192782885593e-05 0 -5.9206152307012856e-05 -5.4580580414011154e-05 0 -5.6972954477024872e-05 -5.6577192782885593e-05 0 -5.5155942552472408e-05 -5.2963505479384865e-05 0 -4.219420495265011e-05 -5.2140947332172111e-05 0 -4.3794107341843701e-05 -5.3776986522965797e-05 0 -4.4249157705289924e-05 -5.6847710222772073e-05 0 -4.5408204850667323e-05 -5.6240897861476239e-05 0 -4.4249157705289924e-05 -5.6847710222772073e-05 0 -4.3794107341843701e-05 -5.3776986522965797e-05 0 -2.3174870956240379e-05 8.6906512181191415e-06 0 -2.6946896308682764e-05 -3.1209109765397904e-06 0 -2.060902398264578e-05 9.6708018070356246e-06 0 -3.6057805548549669e-05 0.00035106273758080472 0 -4.6661997167151347e-05 0.00036967312050019998 0 -6.1087074605358112e-05 0.00036025576374235541 0 -9.2239295973616583e-05 -0.00017564769400025317 0 -8.7568468775994245e-05 -0.00018344433042623087 0 -8.0346985555464041e-05 -0.0001782096129968178 0 -5.0069926180240931e-05 -0.00017311572056432929 0 -6.0060040965549005e-05 -0.00017740930422866205 0 -5.4406139152255942e-05 -0.00018139074050487348 0 -0.00013771867815192605 0.00035671448591906616 0 -0.00011024539583176611 0.0003623857649995128 0 -0.00012692385886971458 0.00037431795464034783 0 -0.00012434539807524057 0.00026392957995426499 0 -0.0001205241570528701 0.00023709551704351168 0 -0.00010115435027406339 0.00024442843547591839 0 -4.8847857532824388e-05 -0.00012943423782053686 0 -4.7659281676571247e-05 -0.00011635121846429647 0 -5.6425332690727631e-05 -0.00012058139667936341 0 -4.3275230902150225e-05 -8.2630583106339608e-05 0 -5.2992625545795098e-05 -9.4397059534131339e-05 0 -4.516326023490049e-05 -9.5788262030496895e-05 0 -2.2648462072832637e-05 -8.870490703021534e-06 0 -2.2299673975287361e-05 -6.31291508392414e-06 0 -1.9735260493733026e-05 -5.7704017535199543e-06 0 -5.9745179394225913e-05 0.0003849445823125045 0 -6.1087074605358112e-05 0.00036025576374235541 0 -4.6661997167151347e-05 0.00036967312050019998 0 -8.1530577278906874e-05 -0.00018958765564313404 0 -8.0346985555464041e-05 -0.0001782096129968178 0 -8.7568468775994245e-05 -0.00018344433042623087 0 -0.00011291101946546784 0.00038851490415928776 0 -0.00012692385886971458 0.00037431795464034783 0 -0.00011024539583176611 0.0003623857649995128 0 -5.9586431947759226e-05 -0.00018784950631894743 0 -5.4406139152255942e-05 -0.00018139074050487348 0 -6.0060040965549005e-05 -0.00017740930422866205 0 -4.8512630670570427e-05 -4.8704517268476926e-05 0 -4.8532497731298968e-05 -4.5694999703960957e-05 0 -5.0887911799268117e-05 -4.8740973515403224e-05 0 -2.5426953039654207e-05 -4.7793233414254262e-05 0 -3.5984952031895944e-05 -4.5722801442454949e-05 0 -3.1500980790795219e-05 -5.7380400162900675e-05 0 -6.473257379512253e-05 -6.1605259433414534e-05 0 -6.2314555292071832e-05 -5.8347821025947582e-05 0 -6.2220768411589374e-05 -5.6915429366052789e-05 0 -4.0154653425055453e-05 -4.4579153347825833e-05 0 -4.0528519764976673e-05 -4.8201026075449852e-05 0 -4.2744177967915777e-05 -5.2241775692266804e-05 0 -6.4915155019287537e-06 3.5906656628154929e-07 0 -4.6143667256199228e-06 3.6909872725962468e-07 0 -6.0883603474119243e-06 2.0728010010674461e-07 0 -0.00013349105988156362 0.00021563046326897244 0 -0.00013495318183603927 0.00018521774589265534 0 -0.00011415817936979499 0.00019068549609990547 0 -0.00011152859942433904 0.0001669319158650223 0 -0.00011415817936979499 0.00019068549609990547 0 -0.00013495318183603927 0.00018521774589265534 0 -4.5671460290233205e-05 -4.2176116508277815e-05 0 -4.8709534208367271e-05 -4.2400886699110452e-05 0 -4.8532497731298968e-05 -4.5694999703960957e-05 0 -1.4843623485052015e-05 -3.3252577314994134e-06 0 -1.4816679686381328e-05 -3.9291769630718606e-06 0 -1.7146018004915885e-05 -5.5842299150960129e-06 0 -4.1449497369284785e-05 -2.2613777738292786e-05 0 -3.9864215332316929e-05 -2.2104456394934039e-05 0 -3.8789850958388523e-05 -1.8171811257767733e-05 0 -3.6939700938932818e-05 -1.6103183776751753e-05 0 -3.8789850958388523e-05 -1.8171811257767733e-05 0 -3.9864215332316929e-05 -2.2104456394934039e-05 0 -0.00010160700975372871 0.00021436738101808799 0 -0.00010115435027406339 0.00024442843547591839 0 -0.00012052415705287011 0.00023709551704351168 0 -5.2665040114604866e-05 -0.00010683651440915255 0 -5.6425332690727631e-05 -0.00012058139667936341 0 -4.7659281676571247e-05 -0.00011635121846429647 0 -5.2665040114604866e-05 -0.00010683651440915255 0 -4.516326023490049e-05 -9.5788262030496895e-05 0 -5.2992625545795098e-05 -9.4397059534131339e-05 0 -9.1026899435586468e-06 -2.8589660593269906e-06 0 -1.3766056824551497e-05 -4.3909324424915005e-06 0 -1.0525729188689861e-05 -2.676251406469262e-06 0 -1.1608390378776547e-05 1.3005505462449328e-06 0 -1.3037290317240289e-05 5.6524932030238799e-07 0 -1.7681426769243912e-05 2.2919605873982852e-06 0 -2.3678514709003232e-05 4.7683052780254394e-06 0 -1.7681426769243912e-05 2.2919605873982852e-06 0 -2.2755075532169127e-05 3.3837077290899831e-06 0 -1.8029145818749714e-05 -6.6308398610356505e-06 0 -1.7786485776132816e-05 -5.764727070868491e-06 0 -1.3766056824551495e-05 -4.3909324424915005e-06 0 -1.9260559729094744e-05 -6.8525219774540703e-06 0 -1.9735260493733026e-05 -5.7704017535199543e-06 0 -1.7011413394477287e-05 -4.0455939701829411e-06 0 -0.00013349105988156362 0.00021563046326897244 0 -0.00012052415705287011 0.00023709551704351168 0 -0.00014247513218586594 0.00024696152482204143 0 -4.0231438936034785e-05 -0.00010494136078618981 0 -4.7659281676571247e-05 -0.00011635121846429647 0 -3.9679682494112329e-05 -0.00011932438197050819 0 -4.0231438936034785e-05 -0.00010494136078618981 0 -3.617387655851686e-05 -8.9685253139244585e-05 0 -4.516326023490049e-05 -9.5788262030496895e-05 0 -5.8517325708209578e-05 -7.5051942646776944e-05 0 -6.7457456122734988e-05 -7.5178097884414798e-05 0 -6.7661487913588995e-05 -8.5303744214363563e-05 0 -5.1494801817883247e-05 -4.6318824606800072e-05 0 -4.8532497731298968e-05 -4.5694999703960957e-05 0 -4.8709534208367271e-05 -4.2400886699110452e-05 0 -1.5832080982218483e-05 5.0351693047853725e-06 0 -1.7310971045381032e-05 8.3500811326263212e-06 0 -2.0950411315411368e-05 7.2030588802064444e-06 0 -2.2990718709853413e-05 -1.1829620651914128e-05 0 -2.0046186044205301e-05 -8.3667700476356376e-06 0 -2.2047128725566157e-05 -1.0353124511259187e-05 0 -1.3860228104871545e-05 -3.6771750639676953e-06 0 -1.8527175599738777e-05 -5.6961042279180327e-06 0 -1.5635612309779755e-05 -4.1705221134307664e-06 0 -0.00010132891143808606 0.00011578895547879091 0 -8.5290524376575085e-05 0.00011761143753166873 0 -9.7563777849278289e-05 0.00014173039567915783 0 -6.935957678158324e-05 -6.3405623591785624e-05 0 -6.7457456122734988e-05 -7.5178097884414798e-05 0 -6.2275353251815016e-05 -6.4502818925885519e-05 0 -3.9837851503689788e-05 0.00026308961171231957 0 -6.2434795271686211e-05 0.00026406688531279245 0 -5.0845697824677856e-05 0.00024347430964503794 0 -8.5082603059074218e-05 -0.0001342493907215793 0 -7.4893527643127828e-05 -0.00013341052121006359 0 -7.8080512559909363e-05 -0.00012340102047960877 0 -3.4879482995663581e-05 0.00015784098317834209 0 -4.8927986040121787e-05 0.00018110443634577081 0 -6.2485968802599744e-05 0.00016074755959091458 0 -2.2759827952528752e-05 -8.389589767806759e-06 0 -2.446397776700445e-05 -8.9440047570205537e-06 0 -2.8140544002192619e-05 -1.1574795420345459e-05 0 -1.8201736218171629e-05 -6.6668471082500031e-06 0 -1.7146018004915885e-05 -5.5842299150960129e-06 0 -1.4816679686381328e-05 -3.9291769630718606e-06 0 -6.2812023088464715e-05 -9.4570146983810239e-05 0 -6.7661487913588995e-05 -8.5303744214363563e-05 0 -7.2798217375861862e-05 -9.5415414684552356e-05 0 -5.9206152307012856e-05 -5.4580580414011154e-05 0 -6.2220768411589374e-05 -5.6915429366052789e-05 0 -6.2314555292071832e-05 -5.8347821025947582e-05 0 -4.219420495265011e-05 -5.2140947332172111e-05 0 -4.2744177967915771e-05 -5.2241775692266804e-05 0 -4.0528519764976673e-05 -4.8201026075449852e-05 0 -1.1589538090120674e-05 -1.8728147928800388e-06 0 -1.2999348962948963e-05 -2.8548275339195868e-06 0 -1.4816679686381328e-05 -3.9291769630718606e-06 0 -0.00014140777471127617 0.00038931276323036552 0 -0.00015106612915063731 0.00037297353057685336 0 -0.00012692385886971458 0.00037431795464034783 0 -0.00013771867815192605 0.00035671448591906616 0 -0.00012692385886971458 0.00037431795464034783 0 -0.00015106612915063731 0.00037297353057685336 0 -5.0069926180240931e-05 -0.00017311572056432929 0 -5.4406139152255942e-05 -0.00018139074050487348 0 -4.6075096074648883e-05 -0.00017857752771474578 0 -4.9922214046950738e-05 -0.00018564531530208218 0 -4.6075096074648883e-05 -0.00017857752771474578 0 -5.4406139152255942e-05 -0.00018139074050487348 0 -3.5012477845395701e-05 0.00038050558634564711 0 -4.6661997167151347e-05 0.00036967312050019998 0 -2.5542771987100859e-05 0.00036382176346184595 0 -9.3920864957660883e-05 -0.00019005619087282422 0 -8.7568468775994245e-05 -0.00018344433042623087 0 -9.8173654173821595e-05 -0.00018287750117789684 0 -3.6057805548549669e-05 0.00035106273758080472 0 -2.5542771987100859e-05 0.00036382176346184595 0 -4.6661997167151347e-05 0.00036967312050019998 0 -9.2239295973616583e-05 -0.00017564769400025317 0 -9.8173654173821595e-05 -0.00018287750117789684 0 -8.7568468775994245e-05 -0.00018344433042623087 0 -4.5671460290233205e-05 -4.2176116508277815e-05 0 -4.8532497731298968e-05 -4.5694999703960957e-05 0 -4.58861805331722e-05 -4.5787461149500788e-05 0 -5.2001066592833223e-05 -4.2432293405047962e-05 0 -4.9876806142056329e-05 -3.7390469089999252e-05 0 -5.3003234406910922e-05 -4.0700900308461795e-05 0 -5.1598410376100401e-05 -3.7309474827817376e-05 0 -5.3003234406910922e-05 -4.0700900308461795e-05 0 -4.9876806142056329e-05 -3.7390469089999252e-05 0 -4.8512630670570427e-05 -4.8704517268476926e-05 0 -5.0887911799268117e-05 -4.8740973515403224e-05 0 -5.098359589854612e-05 -5.1654485610467884e-05 0 -5.3592778610464254e-05 -5.0036357847011348e-05 0 -5.098359589854612e-05 -5.1654485610467884e-05 0 -5.0887911799268117e-05 -4.8740973515403224e-05 0 -1.4849352163272384e-05 1.7082962310140455e-05 0 -1.7933034241851836e-05 1.1616670847869416e-05 0 -2.0453446675564648e-05 1.2432673979759153e-05 0 -2.3851636779944688e-05 1.2592841844708612e-05 0 -3.2246267521921251e-05 1.757298891966175e-05 0 -2.8517276695375889e-05 1.0979836451045054e-05 0 -3.7805301481773107e-05 1.5733178519578931e-05 0 -2.8517276695375889e-05 1.0979836451045054e-05 0 -3.2246267521921251e-05 1.757298891966175e-05 0 -2.2759827952528752e-05 -8.389589767806759e-06 0 -2.6566860633840262e-05 -1.1751344397895562e-05 0 -2.1630097686018384e-05 -8.336600559849441e-06 0 -0.00010132891143808606 0.00011578895547879091 0 -8.4247449253660838e-05 9.6622015350833517e-05 0 -8.5290524376575085e-05 0.00011761143753166873 0 -6.7889395688776937e-05 9.9839579842053662e-05 0 -8.5290524376575085e-05 0.00011761143753166873 0 -8.4247449253660838e-05 9.6622015350833517e-05 0 -1.7409431306401993e-05 8.8011002114756712e-06 0 -1.7933034241851836e-05 1.1616670847869416e-05 0 -1.4497817594821315e-05 1.220912027150203e-05 0 -3.854509716577976e-05 -4.0424657641642686e-05 0 -4.0437569933075573e-05 -4.5066790735958033e-05 0 -3.7005581612357711e-05 -4.1383590963585982e-05 0 -3.8729099115730449e-05 -4.4848405106273351e-05 0 -3.7005581612357711e-05 -4.1383590963585982e-05 0 -4.0437569933075573e-05 -4.5066790735958033e-05 0 -1.2499597646384288e-05 1.080269402331288e-05 0 -1.4497817594821315e-05 1.220912027150203e-05 0 -1.3185114713365197e-05 1.546107010174443e-05 0 -5.403447516235457e-05 -5.6401445477855787e-05 0 -6.1207416546814726e-05 -5.5134322596652297e-05 0 -6.2275353251815016e-05 -6.4502818925885519e-05 0 -6.935957678158324e-05 -6.3405623591785624e-05 0 -6.2275353251815016e-05 -6.4502818925885519e-05 0 -6.1207416546814726e-05 -5.5134322596652297e-05 0 -1.2764210927318709e-05 5.7653561485013517e-06 0 -1.5843232009112396e-05 5.8405950290107854e-06 0 -1.3434406252812544e-05 8.3708252880485339e-06 0 -1.2499597646384288e-05 1.080269402331288e-05 0 -1.3434406252812544e-05 8.3708252880485339e-06 0 -1.4497817594821315e-05 1.220912027150203e-05 0 -5.1598410376100401e-05 -3.7309474827817376e-05 0 -5.1882335654180417e-05 -3.5606199758647955e-05 0 -5.4482323703208482e-05 -4.060998005882729e-05 0 -1.8201736218171629e-05 -6.6668471082500031e-06 0 -2.0046186044205301e-05 -8.3667700476356376e-06 0 -1.7146018004915885e-05 -5.5842299150960129e-06 0 -1.9260559729094744e-05 -6.8525219774540703e-06 0 -1.7146018004915885e-05 -5.5842299150960129e-06 0 -2.0046186044205301e-05 -8.3667700476356376e-06 0 -1.7804019378463739e-05 -2.7338622223805484e-06 0 -1.7011413394477287e-05 -4.0455939701829411e-06 0 -1.9735260493733026e-05 -5.7704017535199543e-06 0 4.0378621462382971e-06 0.00025349771468611605 0 -1.8395968691211137e-05 0.00027066071267783606 0 -1.4952444272809014e-05 0.00024876040359297588 0 -0.00010577095434561326 -0.0001344330851645964 0 -9.5964854116171376e-05 -0.00013978352376431383 0 -9.5897081702828646e-05 -0.00012908625630200481 0 -2.970670712742079e-05 -1.1638173637536737e-05 0 -2.8140544002192619e-05 -1.1574795420345459e-05 0 -2.446397776700445e-05 -8.9440047570205554e-06 0 -2.0945644473864977e-09 1.3721172716015815e-10 0 -1.5555153002000114e-06 2.4973596542089098e-07 0 -1.3755265607774117e-06 2.0584049972634505e-07 0 9.1910698416810079e-06 0.00015575983172956784 0 -1.0876755908347009e-05 0.00016771617690203655 0 -1.2187002106804034e-05 0.00014613058586504922 0 -4.8512630670570427e-05 -4.8704517268476926e-05 0 -4.58861805331722e-05 -4.5787461149500788e-05 0 -4.8532497731298968e-05 -4.5694999703960957e-05 0 -2.4854617402281474e-05 6.5233475282927129e-06 0 -2.8517276695375889e-05 1.0979836451045054e-05 0 -3.3416028903738757e-05 1.0502387547660637e-05 0 -3.7805301481773107e-05 1.5733178519578931e-05 0 -3.3416028903738757e-05 1.0502387547660637e-05 0 -2.8517276695375889e-05 1.0979836451045054e-05 0 -5.5553064214268466e-05 -3.9436889008122624e-05 0 -5.4482323703208482e-05 -4.060998005882729e-05 0 -5.1882335654180417e-05 -3.5606199758647955e-05 0 
</DataArray>
</PointData>
<CellData Scalars="region_id,cross_section_updated,displacement_divergence," Vectors="" Tensors="stress,">
<DataArray type="Float64" Name="region_id" format="ascii">
2 2 2 2 2 2 2 2 2 2 3 3 3 3 3 3 3 3 3 3 1 1 1 1 1 1 1 1 1 1 1 1 1 1 1 1 1 1 1 1 1 1 1 1 1 1 1 1 1 1 1 1 1 1 1 1 1 1 1 1 1 1 1 1 1 1 1 1 1 1 1 1 1 1 1 1 1 1 1 1 1 1 1 1 1 1 1 1 1 1 1 1 1 1 1 1 1 1 1 1 1 1 1 1 1 1 1 1 1 1 1 1 1 1 1 1 1 1 1 1 1 1 1 1 1 1 1 1 1 1 1 1 1 1 1 1 1 1 1 1 1 1 1 1 1 1 1 1 1 1 1 1 1 1 1 1 1 1 1 1 1 1 1 1 1 1 1 1 1 1 1 1 1 1 1 1 1 1 1 1 1 1 1 1 1 1 1 1 1 1 1 1 1 1 1 1 1 1 1 1 1 1 1 1 1 1 1 1 1 1 1 1 1 1 1 1 1 1 1 1 1 1 1 1 1 1 1 1 1 1 1 1 1 1 1 1 1 1 1 1 1 1 1 1 1 1 1 1 1 1 1 1 1 1 1 1 1 1 1 1 1 1 1 1 1 1 1 1 1 1 1 1 1 1 1 1 1 1 1 1 1 1 1 1 1 1 1 1 1 1 1 1 1 1 1 1 1 1 1 1 1 1 1 1 1 1 1 1 1 1 1 1 1 1 1 1 1 1 1 1 1 1 1 1 1 1 1 1 1 1 1 1 1 1 1 1 1 1 1 1 1 1 1 1 1 1 1 1 1 1 1 1 1 1 1 1 1 1 1 1 1 1 1 1 1 1 1 1 1 1 1 1 1 1 1 1 1 1 1 1 1 1 1 1 1 1 1 1 1 1 1 1 1 1 1 1 1 1 1 1 1 1 1 1 1 1 1 1 1 1 1 1 1 1 1 1 1 1 1 1 1 1 1 1 1 1 1 1 1 1 1 1 1 1 1 1 1 1 1 1 1 1 1 1 1 1 1 1 1 1 1 1 1 1 1 1 1 1 1 1 1 1 1 1 1 1 1 1 1 1 1 1 1 1 1 1 1 1 1 1 1 1 1 1 1 1 1 1 1 1 1 1 1 1 1 1 1 1 1 1 1 1 1 1 1 1 1 1 1 1 1 1 1 1 1 1 1 1 1 1 1 1 1 1 1 1 1 1 1 1 1 1 1 1 1 1 1 1 1 1 1 1 1 1 1 1 1 1 1 1 1 1 1 1 1 1 1 1 1 1 1 1 1 1 1 1 1 1 1 1 1 1 1 1 1 1 1 1 1 1 1 1 1 1 1 1 1 1 1 1 1 1 1 1 1 1 1 1 1 1 1 1 1 1 1 1 1 1 1 1 1 1 1 1 1 1 1 1 1 1 1 1 1 1 1 1 1 1 1 1 1 1 1 1 1 1 1 1 1 1 1 1 1 1 1 1 1 1 1 1 1 1 1 1 1 1 1 1 1 1 1 1 1 1 1 1 1 1 1 1 1 1 1 1 1 1 1 1 1 1 1 1 1 1 1 1 1 1 1 1 1 1 1 1 1 1 1 1 1 1 1 1 1 1 1 1 1 1 1 1 1 1 1 1 1 1 1 1 1 1 1 1 1 1 1 1 1 1 1 1 1 1 1 1 1 1 1 1 1 1 1 1 1 1 1 1 1 1 1 1 1 1 1 1 1 1 1 1 1 1 1 1 1 1 1 1 1 1 1 1 1 1 1 1 1 1 1 1 1 1 1 1 1 1 1 1 1 1 1 1 1 1 1 1 1 1 1 1 1 1 1 1 1 1 1 1 1 1 1 1 1 1 1 1 1 1 1 1 1 1 1 1 1 1 1 1 1 1 1 1 1 1 1 1 1 1 1 1 1 1 1 1 1 1 1 1 1 1 1 1 1 1 1 1 1 1 1 1 1 1 1 1 1 1 1 1 1 1 1 1 1 1 1 1 1 1 1 1 1 1 1 1 1 1 1 1 1 1 1 1 1 1 1 1 1 1 1 1 1 1 1 1 1 1 1 1 1 1 1 1 1 1 1 1 1 1 1 1 1 1 1 1 1 1 1 1 1 1 1 1 1 1 1 1 1 1 1 1 1 1 1 1 1 1 1 1 1 1 1 1 1 1 1 1 1 1 1 1 1 1 1 1 1 1 1 1 1 1 1 1 1 1 1 1 1 1 1 1 1 1 1 1 1 1 1 1 1 1 1 1 1 1 1 1 1 1 1 1 1 1 1 1 1 1 1 1 1 1 1 1 1 1 1 1 1 1 1 1 1 1 1 1 1 1 1 1 1 1 1 1 1 1 1 1 1 1 1 1 1 1 1 1 1 1 1 1 1 1 1 1 1 1 1 1 
</DataArray>
<DataArray type="Float64" Name="stress" NumberOfComponents="9" format="ascii">
0.0048807868059834612 -0.0029387338318283881 0 -0.0029387338318283881 0.014791919217836982 0 0 0 0.0049181765059551109 0.012032320245824712 -0.0074004975981195381 0 -0.0074004975981195381 0.036268835703867693 0 0 0 0.012075288987423102 0.016183671084951279 -0.0099456031005470437 0 -0.0099456031005470437 0.04874006933855142 0 0 0 0.016230935105875675 0.019966887651517055 -0.011413638930255224 0 -0.011413638930255224 0.060074028405064248 0 0 0 0.020010229014145325 0.02379205810565534 -0.012116409073270142 0 -0.012116409073270142 0.071528516988010951 0 0 0 0.023830143773416572 0.027877233879154906 -0.012256611606002618 0 -0.012256611606002618 0.083775407662813911 0 0 0 0.027913160385492207 0.03226696664994453 -0.011980163545232561 0 -0.011980163545232561 0.096943882516396809 0 0 0 0.032302712291585337 0.03669146461367178 -0.011474366744616242 0 -0.011474366744616242 0.11021834667133586 0 0 0 0.036727452821251901 0.04113017981449648 -0.010913058997859092 0 -0.010913058997859092 0.1234832449840205 0 0 0 0.041153356199629246 0.044996209937164328 -0.010427145018633302 0 -0.010427145018633302 0.13526571274698496 0 0 0 0.045065480671037321 0.0087127783791867575 0.0016212681975781374 0 0.0016212681975781374 0.025854211268108697 0 0 0 0.0086417474118238649 0.022071929404739406 0.0038816724956697406 0 0.0038816724956697406 0.066342822050560357 0 0 0 0.022103687863824942 0.030995625217543128 0.0053324852739018262 0 0.0053324852739018262 0.093132882635579214 0 0 0 0.031032126963280587 0.038819729734830673 0.0062031743871599453 0 0.0062031743871599453 0.11662935669751809 0 0 0 0.038862271608087189 0.046335457210714852 0.0067285851029458815 0 0.0067285851029458815 0.13919615106797389 0 0 0 0.046382902069672188 0.053665534454733467 0.007008174426510254 0 0.007008174426510254 0.16120501427734851 0 0 0 0.053717637183020493 0.060913992647175522 0.007070867272254343 0 0.007070867272254343 0.18295134962665555 0 0 0 0.060966335568457763 0.067878962393191342 0.006994346251970757 0 0.006994346251970757 0.2039490253100385 0 0 0 0.067956996925807464 0.074783944404732516 0.0068226878835502391 0 0.0068226878835502391 0.22429066944577453 0 0 0 0.074768653462626761 0.080553235560757844 0.0066605820570342584 0 0.0066605820570342584 0.24305206958139833 0 0 0 0.080901326285539032 -0.071923986877016885 -0.020903741891867153 0 -0.020903741891867153 0.030465510637230464 0 0 0 -0.010364619059946581 -0.066622533231490144 -0.021452023196742918 0 -0.021452023196742918 0.051891583655165829 0 0 0 -0.0036827373940810926 -0.086467546414480984 -0.013580447971995147 0 -0.013580447971995147 0.045089530162581437 0 0 0 -0.010344504062974907 -0.090298452920478806 -0.0012732451042350434 0 -0.0012732451042350434 0.046304156345392908 0 0 0 -0.010998574143771443 -0.18584387067198735 -0.0049621122135062104 0 -0.0049621122135062104 0.0018202546906799233 0 0 0 -0.046005903995326836 -0.14191890552110356 -0.0016235507277033712 0 -0.0016235507277033712 -0.00077216554686226381 0 0 0 -0.035672767766991464 -0.19456511130045193 -0.0019628696630825601 0 -0.0019628696630825601 -0.0017128131234786896 0 0 0 -0.049069481105982637 -0.14708621525894708 -0.0029262401069133134 0 -0.0029262401069133134 -0.0010595841248136478 0 0 0 -0.037036449845940178 -0.16045294473093136 0.0034404220788528672 0 0.0034404220788528672 -0.00049303748590462382 0 0 0 -0.040236495554209002 -0.26590190478439069 -0.01166046522161817 0 -0.01166046522161817 -0.00048512506626119389 0 0 0 -0.06659675746266297 -0.039857970088096627 0.0031625129575390157 0 0.0031625129575390157 -0.018771838268983154 0 0 0 -0.014657452089269944 -0.044662508588405987 0.0046401639390937013 0 0.0046401639390937013 -0.013090582757231316 0 0 0 -0.014438272836409322 -0.075654402311593483 -0.00067602733248573442 0 -0.00067602733248573442 -0.011762187268465091 0 0 0 -0.02185414739501464 -0.074453815628576947 -0.0081244449366415575 0 -0.0081244449366415575 -0.024822048778222836 0 0 0 -0.024818966101699948 -0.075970876223672199 0.0012688053567794465 0 0.0012688053567794465 -0.025323435017305062 0 0 0 -0.025323577810244313 -0.082225363011763128 -0.022066661416868 0 -0.022066661416868 0.030294759229387236 0 0 0 -0.012982650945593963 0.15954247178096265 0.13035267031605496 0 0.13035267031605496 0.28321583418659269 0 0 0 0.11068957649188876 -0.00077513201835710532 -0.012576819199519473 0 -0.012576819199519473 0.0098340120092350602 0 0 0 0.0022647199977194887 -0.0025544364641865158 0.0057594260337818781 0 0.0057594260337818781 0.018301025531506809 0 0 0 0.0039366472668298513 0.0014158343852166411 0.015062446416267581 0 0.015062446416267581 0.030211838079509334 0 0 0 0.0079069181161814939 -0.0012540357254937629 -0.0056518237352116522 0 -0.0056518237352116522 0.0083973008874993482 0 0 0 0.0017858162905015629 -0.015041895641528358 0.022957356059970735 0 0.022957356059970735 0.011151981140348877 0 0 0 -0.00097247862529470375 -0.011293762205996316 -0.026240167814606918 0 -0.026240167814606918 0.0081265714090836827 0 0 0 -0.00079179769922821386 -0.069942863110376244 0.0028003819830346287 0 0.0028003819830346287 -0.012941249356425205 0 0 0 -0.020721028116700357 0.17440728779410092 -0.0084026321297996642 0 -0.0084026321297996642 0.17855615410821268 0 0 0 0.088240860475578387 -0.27647157907854081 0.019173524863863589 0 0.019173524863863589 0.0086622658487613968 0 0 0 -0.066952328307444908 -0.15588610741866299 -0.0079128174398168261 0 -0.0079128174398168261 0.0034244252600881264 0 0 0 -0.038115420539643674 -0.13157898914628491 -0.027623454248867627 0 -0.027623454248867627 0.021909936435668076 0 0 0 -0.027417263177654194 -0.14163388169826113 0.034792046544784377 0 0.034792046544784377 0.082622063837967552 0 0 0 -0.014752954465073242 -0.15999218883405619 -0.021841000323790521 0 -0.021841000323790521 0.015650781306947664 0 0 0 -0.036085351881777167 -0.075050234102021038 -0.029904804075319598 0 -0.029904804075319598 0.060956195238728167 0 0 0 -0.0035235097158232143 -0.034527991164382432 -0.037655887058574367 0 -0.037655887058574367 0.0088340731065434941 0 0 0 -0.0064234795144596513 -0.038833257710455871 0.046943324711081758 0 0.046943324711081758 0.0085651382186300307 0 0 0 -0.0075670298729567653 -0.037185885729948742 -0.038309973645933582 0 -0.038309973645933582 0.012970966309438836 0 0 0 -0.00605372985512731 -0.047578549537016457 0.05040114658138739 0 0.05040114658138739 0.0031305980833069569 0 0 0 -0.011111987863427153 -0.12586855076470932 -0.031826709875764372 0 -0.031826709875764372 0.0068531713494930369 0 0 0 -0.029753844853804071 -0.044113812407902568 -0.057291971851431193 0 -0.057291971851431193 0.085389210958175005 0 0 0 0.010318849637568114 -0.16273328772309156 0.020940420995267051 0 0.020940420995267051 0.022743915928956859 0 0 0 -0.034997342948533711 0.30177387810489431 0.15705675704808733 0 0.15705675704808733 0.095052055651532186 0 0 0 0.099206483439106652 -0.0029334047322479018 0.0081921248922664502 0 0.0081921248922664502 0.032843661124594137 0 0 0 0.007477564098086531 -0.0065365980131127377 -0.0086393466833312171 0 -0.0086393466833312171 0.08211630610773013 0 0 0 0.018894927023654418 -0.066407590676076503 -0.030542972148761748 0 -0.030542972148761748 0.10289261109470679 0 0 0 0.0091212551046575673 -0.005672212357906492 -0.024084679110900842 0 -0.024084679110900842 0.084771456443793802 0 0 0 0.019774811021471494 -0.0084021283139148473 0.0039828754388433474 0 0.0039828754388433474 -0.0026009856874882331 0 0 0 -0.002750778500350215 -0.057670219714244804 -0.0074326040493038151 0 -0.0074326040493038151 -0.025418633318195796 0 0 0 -0.020772213258110149 -0.062256881741904489 0.004804433790807648 0 0.004804433790807648 -0.019838718855067564 0 0 0 -0.020523900149243015 -0.093928888292778942 0.086631142165314534 0 0.086631142165314534 0.085127915665403758 0 0 0 -0.002200243156843848 -0.087448346459518586 0.078756985586258543 0 0.078756985586258543 0.059686163243778345 0 0 0 -0.0069405458039350915 0.1340070830849566 0.1833015607366042 0 0.1833015607366042 0.32426679174117684 0 0 0 0.11456846870653331 -0.013683342181153677 0.0079305470734341021 0 0.0079305470734341021 0.0012817541579341618 0 0 0 -0.0031003970058047087 -0.023779467545799932 -0.024996222255397438 0 -0.024996222255397438 0.070737587066240518 0 0 0 0.011739529880110205 -0.029297783441480207 -0.012301063970337089 0 -0.012301063970337089 -0.0044974593974889121 0 0 0 -0.0084488107097422938 -0.069843572171874022 -0.028029946838658684 0 -0.028029946838658684 0.077183436571524627 0 0 0 0.0018349660999126393 -0.053489826783181205 -0.035587748190150405 0 -0.035587748190150405 0.0050558134080512795 0 0 0 -0.012108503343782467 -0.035957468457767316 -0.0076235453917406493 0 -0.0076235453917406493 0.029584974312132695 0 0 0 -0.0015931235364086693 -0.13347036995187089 0.023141825135913674 0 0.023141825135913674 -0.00048699808218888307 0 0 0 -0.033489342008514944 -0.011230441316268713 -0.0058807627006594032 0 -0.0058807627006594032 0.00054903804066697148 0 0 0 -0.0026703508189003244 -0.016565153051970594 0.025262794509426367 0 0.025262794509426367 0.13546935158177309 0 0 0 0.029726049632450291 -0.025248586543796015 -0.020550176745326887 0 -0.020550176745326887 0.096663824097696832 0 0 0 0.01785380938847515 0.0022211668543281604 0.00051837043535508779 0 0.00051837043535508779 -0.0013351545304072232 0 0 0 0.00022150308098067839 -0.030378016717403811 -0.00072313534848134076 0 -0.00072313534848134076 0.0076840158251898494 0 0 0 -0.0056735002230534626 0.0036704632363813092 -0.082133688545812156 0 -0.082133688545812156 0.1334227363708809 0 0 0 0.034273299901815484 -0.02841847000065939 -0.0021166130041403719 0 -0.0021166130041403719 0.0057050395630371398 0 0 0 -0.0056783576094056598 -0.040065809211085046 -0.012142207031309381 0 -0.012142207031309381 0.0087606999366391936 0 0 0 -0.0078262773186114631 -0.05615248681044549 -0.044890294405453189 0 -0.044890294405453189 0.012433640773099608 0 0 0 -0.010929711509336304 -0.13600665641320775 -0.013248208693821241 0 -0.013248208693821241 -0.023286262863814529 0 0 0 -0.039823229819255575 -0.17392320542135484 0.0051209571850113107 0 0.0051209571850113107 -0.027958327135023109 0 0 0 -0.050470383139094487 0.002820473083594914 0.0045526374827871141 0 0.0045526374827871141 0.019917607310616526 0 0 0 0.0056845200985530409 0.0052739432910031692 -0.0057521526236942178 0 -0.0057521526236942178 0.068446010932701418 0 0 0 0.018429988555926147 -0.12961770219798621 -0.0087308350071526111 0 -0.0087308350071526111 -0.032003244822858871 0 0 0 -0.040405236755211266 -0.10689032276379817 -0.0033321897988419901 0 -0.0033321897988419901 -0.025861941340041428 0 0 0 -0.033188066025959903 -0.049760316213587723 -6.9187501350745275e-05 0 -6.9187501350745275e-05 -0.022835467301139729 0 0 0 -0.018148945878681867 -0.14140724807583191 0.002244393777614262 0 0.002244393777614262 -0.0007563924504738178 0 0 0 -0.035540910131576432 -0.18950740912606875 -0.011204773560513838 0 -0.011204773560513838 0.0014017298270492251 0 0 0 -0.047026419824754834 -0.043749927713910619 -0.02471487063920895 0 -0.02471487063920895 -0.0076556493449564389 0 0 0 -0.01285139426471682 -0.048510045147153902 -0.032724621649435071 0 -0.032724621649435071 0.0060243015717462156 0 0 0 -0.010621435893851894 0.002881557214585273 0.024510446253886542 0 0.024510446253886542 0.16153603498697666 0 0 0 0.041104398050390456 -0.0074364484226041305 -0.0034380265121169984 0 -0.0034380265121169984 -0.002309552829155348 0 0 0 -0.0024365003129400431 -0.045885809518161069 -0.027009440465174062 0 -0.027009440465174062 -0.010382798276312166 0 0 0 -0.014067151948618239 -0.033298320632451708 -0.013341812769087358 0 -0.013341812769087358 0.0084143404961727619 0 0 0 -0.0062209950340696568 -0.075290899719097748 0.069867998703996237 0 0.069867998703996237 0.00060363924533657354 0 0 0 -0.018671815118440183 -0.15230348684846165 0.0014966373817105387 0 0.0014966373817105387 -0.050795386449490006 0 0 0 -0.050774718324487926 -0.12067341407684826 -0.010427168413330764 0 -0.010427168413330764 -0.040248313271974083 0 0 0 -0.04023043183720558 -0.058481370555341756 -0.006919643342357981 0 -0.006919643342357981 -0.024350141892944693 0 0 0 -0.020707878112071608 -0.011961173596324537 0.031289094242244353 0 0.031289094242244353 0.02439915562180861 0 0 0 0.0031094955063706298 -0.013635386622816714 -0.019074023809425578 0 -0.019074023809425578 0.0044096643533815261 0 0 0 -0.002306430567358797 -0.043472251491199369 -0.042123536855497634 0 -0.042123536855497634 0.010617858532026694 0 0 0 -0.008213598239793278 -0.044722658750269935 0.002751177756678316 0 0.002751177756678316 -0.0180157584198718 0 0 0 -0.015684604292535431 -0.10069705029690768 -0.018324403109993101 0 -0.018324403109993101 -0.0091705236705377016 0 0 0 -0.027466893491861349 -0.04193031957505039 -0.011825874689117218 0 -0.011825874689117218 0.0093620190227298172 0 0 0 -0.0081420751380801848 -0.041649235894928326 0.0053349032815673738 0 0.0053349032815673738 -0.016324841228195212 0 0 0 -0.014493519280780878 -0.045997097818237319 0.004564714494228868 0 0.004564714494228868 -0.014501927430159638 0 0 0 -0.015124756312099242 -0.048939220038713642 0.0028800994995411113 0 0.0028800994995411113 -0.01792062417745191 0 0 0 -0.01671496105404139 -0.034360182503685166 -0.0054435898326288257 0 -0.0054435898326288257 0.023645079494658661 0 0 0 -0.002678775752256557 -0.044979071453808486 -0.043906600855153674 0 -0.043906600855153674 0.03238561705348747 0 0 0 -0.0031483636000802229 -0.029334913318178002 -0.011460396602732431 0 -0.011460396602732431 0.010825732280261846 0 0 0 -0.0046272952594790251 -0.069399002047287203 -0.033089348879841843 0 -0.033089348879841843 0.10178180254248186 0 0 0 0.0080957001237986857 -0.022425029890748238 0.020242101209383634 0 0.020242101209383634 0.17813231160237919 0 0 0 0.038926820427907405 0.00082257307452904271 -0.00067805320038050155 0 -0.00067805320038050155 -0.00094495123463822495 0 0 0 -3.0594540026962491e-05 -0.007365943095590799 -0.006190163366786355 0 -0.006190163366786355 -0.0036771616852160349 0 0 0 -0.002760776195201764 -0.018920407077960721 0.017128452062054045 0 0.017128452062054045 0.17929899094276003 0 0 0 0.040094645966199938 -0.051637598850734101 0.022227248100435332 0 0.022227248100435332 0.14100276808724424 0 0 0 0.022341292309127514 -0.058679694424106851 0.0029829989248149132 0 0.0029829989248149132 -0.011405781089540429 0 0 0 -0.017521368878411818 -0.063541279566722439 0.0017636756197351685 0 0.0017636756197351685 -0.01353979749443119 0 0 0 -0.019270269265288409 -0.00040233046340887313 0.039672499473955125 0 0.039672499473955125 0.057946311701122077 0 0 0 0.014385995309428301 -0.028532797352509798 0.042615808643845177 0 0.042615808643845177 0.048571289368313231 0 0 0 0.0050096230039511358 -0.057588236882344518 -0.045452660971444722 0 -0.045452660971444722 0.032878969367655886 0 0 0 -0.0061773168786721511 0.0014149277192633258 -0.009886142866912917 0 -0.009886142866912917 0.015100834510293426 0 0 0 0.0041289405573891602 -0.00038344709838994406 0.0074865855957820596 0 0.0074865855957820596 -0.0048806527643860953 0 0 0 -0.001316024965693996 -0.073642544198934679 0.0082518667824907771 0 0.0082518667824907771 0.09165307491785557 0 0 0 0.0045026326797302646 -0.0078111102371014596 0.0081722323439654097 0 0.0081722323439654097 -0.0051246761891690085 0 0 0 -0.003233946606567617 -0.025217601364694309 -0.019708177470093124 0 -0.019708177470093124 0.096624661276096813 0 0 0 0.017851764977850682 -0.14694430909837672 0.0027761620689586292 0 0.0027761620689586292 0.0010423809338334644 0 0 0 -0.03647548204113582 -0.23068536115909877 -0.010250749768605488 0 -0.010250749768605488 0.0015990191436374701 0 0 0 -0.057271585503865248 -0.025805908816828288 -0.040837217120150093 0 -0.040837217120150093 0.0135046686226728 0 0 0 -0.0030753100485388651 0.12743638017514441 -0.080168016742962811 0 -0.080168016742962811 0.064080882050280064 0 0 0 0.047879315556356217 -0.0359799451681454 -0.025961567175041306 0 -0.025961567175041306 -0.0014887886011843987 0 0 0 -0.0093671834423324496 -0.038031801701013682 -0.033247124060713562 0 -0.033247124060713562 0.00093415271854524473 0 0 0 -0.0092744122456171058 -0.00025666277614815394 -0.0083583021391484547 0 -0.0083583021391484547 0.0263572509193277 0 0 0 0.0065251470357948309 -0.0017089076331147091 0.0068297904235077311 0 0.0068297904235077311 0.02176435313391778 0 0 0 0.0050138613752008787 -0.00051473185144956801 0.0097607344575867394 0 0.0097607344575867394 0.05366129976926004 0 0 0 0.013286641979452618 -0.0018700750074781402 -0.0058952093410171713 0 -0.0058952093410171713 0.010014355402071675 0 0 0 0.0020360700986482728 -0.091017260487900764 0.045881680160797189 0 0.045881680160797189 0.1151940655804462 0 0 0 0.0060442012731363182 -0.04970265208164093 -0.022860629782706032 0 -0.022860629782706032 0.0034112221796503972 0 0 0 -0.011572857475497633 -0.040886177128896625 -0.018974213015383545 0 -0.018974213015383545 -0.0019758139013193038 0 0 0 -0.010715497757554024 -0.038255057096800604 -0.019189177858514761 0 -0.019189177858514761 -0.003020576876777252 0 0 0 -0.010318908493394506 -0.022158683663291101 -0.043777327943575139 0 -0.043777327943575139 0.021540475372690882 0 0 0 -0.00015455207264991611 -0.19890938673886138 0.028264104295291359 0 0.028264104295291359 0.0039483906649782075 0 0 0 -0.048740249018470516 -0.093452462444197554 -0.0059146430928199989 0 -0.0059146430928199989 0.028130080454026762 0 0 0 -0.016330595497542677 -0.078791730926761255 -0.015714184286693814 0 -0.015714184286693814 0.026000182514822612 0 0 0 -0.013197887102984585 -0.023321741437809462 0.0037595443382039129 0 0.0037595443382039129 -0.010025496367561004 0 0 0 -0.008336809451342686 -0.14270622838435754 0.049659480700489977 0 0.049659480700489977 -0.0032434867886719232 0 0 0 -0.036487428793256949 -0.13010853256439853 0.0046644034381155414 0 0.0046644034381155414 0.0060183217384687238 0 0 0 -0.031022552706482465 -0.12797700176114116 -0.0061232085186299634 0 -0.0061232085186299634 0.0079437497603208618 0 0 0 -0.030008313000205095 -0.20553712912656139 0.0033660809776234479 0 0.0033660809776234479 0.01750830467409159 0 0 0 -0.047007206113117511 -0.20114422555241113 -0.022303444534477718 0 -0.022303444534477718 0.01715890974262313 0 0 0 -0.045996328952447041 -0.042436725256966935 -0.016381956788556362 0 -0.016381956788556362 0.0005403079276207895 0 0 0 -0.010474104332336455 -0.12142793335004809 -0.012754573303512373 0 -0.012754573303512373 0.0023879337627962238 0 0 0 -0.029759999896812994 0.018373007021047716 0.086550702937244317 0 0.086550702937244317 0.03860210370958761 0 0 0 0.01424377768265872 -0.075349225188745747 -0.022699573670212067 0 -0.022699573670212067 0.069598996329746032 0 0 0 -0.0014375572147499035 -0.042948447838106092 0.01820549194111919 0 0.01820549194111919 0.028422566434432639 0 0 0 -0.0036314703509183598 -0.040032446117674869 0.034308710868473646 0 0.034308710868473646 -0.0032202729586345846 0 0 0 -0.010813179769077141 -0.033456102417842026 -0.035097244183452947 0 -0.035097244183452947 0.028412491754069347 0 0 0 -0.0012609026659432532 -0.04323030874411455 -0.042296122021726529 0 -0.042296122021726529 0.03771274689346555 0 0 0 -0.0013793904626622847 -0.0084215467599575433 0.0065812249677988655 0 0.0065812249677988655 -0.0041855639839245562 0 0 0 -0.0031517776859705249 -0.039691031512290531 -0.018875923715216431 0 -0.018875923715216431 -0.0082833655763142611 0 0 0 -0.011993599272151156 -0.069380213027216031 -0.01184734926742111 0 -0.01184734926742111 -0.028285214879609888 0 0 0 -0.02441635697670648 -0.070468542146663191 0.0047882995152971819 0 0.0047882995152971819 -0.020975709075236888 0 0 0 -0.022861062805475021 -0.041162983578462743 -0.047209387911514189 0 -0.047209387911514189 0.023053087929573723 0 0 0 -0.0045274739122223365 -0.10338429073429281 -0.028831751266934432 0 -0.028831751266934432 -0.0055298758475064436 0 0 0 -0.027228541645449814 -0.12569113395729375 -0.0045261909732659446 0 -0.0045261909732659446 0.036264940181041094 0 0 0 -0.022356548444063207 -0.048266056405168352 -0.0028378211542748515 0 -0.0028378211542748515 -0.025509281519409246 0 0 0 -0.018443834481144405 -0.046130077761037579 -3.1888143360140047e-05 0 -3.1888143360140047e-05 -0.021289236167725149 0 0 0 -0.016854828482190685 -0.05646989129355301 0.002251695038243504 0 0.002251695038243504 -0.016814315126555915 0 0 0 -0.018321051605027235 -0.056843053351810786 0.0033762010109364138 0 0.0033762010109364138 -0.017513941273904904 0 0 0 -0.018589248656428921 -0.11088291878472831 -0.020317503189500347 0 -0.020317503189500347 0.037422385922836199 0 0 0 -0.018365133215472979 -0.055355171138408758 0.014105783644022197 0 0.014105783644022197 0.026023916030011765 0 0 0 -0.0073328137770992396 -0.043443689868982609 -0.0031077841644167369 0 -0.0031077841644167369 -0.01781315638995979 0 0 0 -0.0153142115647356 -0.074345587657817652 -0.025672421510675864 0 -0.025672421510675864 -0.0059216094872263925 0 0 0 -0.020066799286261004 -0.058707363454741757 0.01715643069193824 0 0.01715643069193824 0.074459857049750222 0 0 0 0.0039381233987521198 -0.07317485807540719 -0.0047985595205619919 0 -0.0047985595205619919 0.0025431051815026501 0 0 0 -0.017657938223476111 -0.070758403989329158 -0.0033365266725850912 0 -0.0033365266725850912 0.0094565619539416224 0 0 0 -0.015325460508846867 -0.15228229742533989 0.0014783849695347324 0 0.0014783849695347324 -0.050726976404730305 0 0 0 -0.050752318457517549 -0.1206569047078621 -0.010413092608430504 0 -0.010413092608430504 -0.040195049933684564 0 0 0 -0.04021298866038666 0.10329051127699992 0.049024407905513767 0 0.049024407905513767 0.057021109561121525 0 0 0 0.040077905209530335 -0.059649942042896975 0.0010528467093324574 0 0.0010528467093324574 -0.00025299043366129158 0 0 0 -0.014975733119139571 -0.086531577826095829 -0.016243381895700848 0 -0.016243381895700848 0.084379937436519004 0 0 0 -0.00053791009739417861 -0.017690655300030333 0.00045962077753491926 0 0.00045962077753491926 -0.019857585218499452 0 0 0 -0.009387060129632363 -0.14208004925073334 0.0044912072232239225 0 0.0044912072232239225 0.0014225058705495397 0 0 0 -0.035164385845045963 -0.21527204787458717 -0.012396095469969448 0 -0.012396095469969448 0.0018302177289135912 0 0 0 -0.05336045753641841 -0.040862737157773853 -0.016368598778031929 0 -0.016368598778031929 -0.012775261259963144 0 0 0 -0.013409499604434126 -0.13018193466626374 0.0076165880943670494 0 0.0076165880943670494 0.00036723096803948545 0 0 0 -0.032453675924556072 -0.15922240476748317 -0.034610995468496428 0 -0.034610995468496428 0.0013059708026799677 0 0 0 -0.039479108491200898 -0.13041454173717992 0.0035823625014032578 0 0.0035823625014032578 0.00024240357492544273 0 0 0 -0.032543034540563662 -0.088619741229756396 0.00028621320846172749 0 0.00028621320846172749 -0.0064560692866531197 0 0 0 -0.023768952629102412 -0.081355917916778445 -0.014344966235225357 0 -0.014344966235225357 -0.014201377236249601 0 0 0 -0.023889323788257026 -0.11868337832234693 -0.025234069230986117 0 -0.025234069230986117 0.015992177292147025 0 0 0 -0.025672800257550005 -0.049209025042506294 -0.017553123406768845 0 -0.017553123406768845 0.00083264342204780739 0 0 0 -0.012094095405114524 -0.026271887982456832 0.041367237908958798 0 0.041367237908958798 0.060268914446882427 0 0 0 0.0084992566161066208 -0.032826909994251308 -0.023668929868583932 0 -0.023668929868583932 -0.0054308742645461372 0 0 0 -0.0095644460646995277 -0.05185543568427075 -0.0023899084431562353 0 -0.0023899084431562353 -0.022705574890345762 0 0 0 -0.018640252643654123 -0.062511630948700769 0.0013638036146148298 0 0.0013638036146148298 -0.019266236219386362 0 0 0 -0.020444466792021776 -0.084325812833955613 -0.014472718565926527 0 -0.014472718565926527 -0.030534294847652164 0 0 0 -0.028715026920401947 -0.079932652946773347 0.0040816062900925071 0 0.0040816062900925071 -0.022879096345980662 0 0 0 -0.025702937323188502 -0.07747793587225682 -0.016838465856321524 0 -0.016838465856321524 0.014909072345747509 0 0 0 -0.015642215881627342 -0.076047074027759273 -0.028592395038611218 0 -0.028592395038611218 0.019901637865425092 0 0 0 -0.014036359040583521 -0.073318758252733041 0.085222942551794995 0 0.085222942551794995 0.019768866439648036 0 0 0 -0.013387472953271251 -0.015819864982343668 0.11111609042495818 0 0.11111609042495818 0.064189694264178865 0 0 0 0.012092457320458716 0.041246009580772292 0.001274479398123779 0 0.001274479398123779 0.077959442010854363 0 0 0 0.029801362897906664 -0.092415308354694914 -0.011881774336750986 0 -0.011881774336750986 0.064517923254800019 0 0 0 -0.0069743462749737167 -0.044257995100578068 0.0035503287209335357 0 0.0035503287209335357 -0.016508884314828779 0 0 0 -0.015191719853851711 -0.050178243582798321 -0.024252888818855858 0 -0.024252888818855858 -0.0061026975522019411 0 0 0 -0.014070235283750121 -0.06839874115833755 0.059840938173077118 0 0.059840938173077118 0.0034409695727117828 0 0 0 -0.016239442896406109 -0.025014806549522595 -0.0073512905065462597 0 -0.0073512905065462597 0.055394694782336718 0 0 0 0.0075949720582035862 -0.02677788443242643 -0.011545366481588992 0 -0.011545366481588992 -0.0068727673776546316 0 0 0 -0.0084126629525202723 -0.068815412133973158 0.00034010116765609104 0 0.00034010116765609104 -0.0096140421889584007 0 0 0 -0.019607363580732881 -0.11824927460099544 0.028863733673784697 0 0.028863733673784697 0.064667035424138541 0 0 0 -0.013395559794214196 -0.14607176345738129 0.00055172436760341143 0 0.00055172436760341143 -0.0024913021554172632 0 0 0 -0.037140766403199632 -0.20631079657646773 -0.0050833993435303567 0 -0.0050833993435303567 -0.0049560164892371444 0 0 0 -0.052816703266426221 -0.039917606485392748 -0.023933973089084321 0 -0.023933973089084321 0.00056705562063552595 0 0 0 -0.009837637716189257 -0.094388068728319688 -0.0015639192466630147 0 -0.0015639192466630147 -0.017644880027067138 0 0 0 -0.028008237188846714 -0.10158719395080035 -0.0092599407143282679 0 -0.0092599407143282679 -0.027149495927922016 0 0 0 -0.032184172469680597 -0.23943085197413308 0.0072496673435537007 0 0.0072496673435537007 0.004643024756002756 0 0 0 -0.05869695680453263 -0.14109539335263147 -0.0035756847047825335 0 -0.0035756847047825335 0.0012322601947789003 0 0 0 -0.03496578328946312 -0.010671639495273527 0.037283782098691431 0 0.037283782098691431 0.1636800327773531 0 0 0 0.038252098320519984 0.076497753680218827 0.0010137440557797528 0 0.0010137440557797528 0.39143201094410951 0 0 0 0.11698244115608203 -0.048375352165090466 -0.051901464171497658 0 -0.051901464171497658 0.029717448284771852 0 0 0 -0.0046644759700796151 -0.065159316994970184 -0.045071870490295818 0 -0.045071870490295818 0.018660250821975533 0 0 0 -0.011624766543248732 -0.044097893264117741 -0.052355150795930908 0 -0.052355150795930908 0.071791657750112536 0 0 0 0.0069234411214986876 -0.0039561228908993606 0.0025933947452747574 0 0.0025933947452747574 -0.014920632256465338 0 0 0 -0.0047191887868411331 -0.049173035798992036 -0.0003725936690625526 0 -0.0003725936690625526 -0.020489514214190711 0 0 0 -0.017415637503295688 -0.10051647600997418 -0.012268429253651292 0 -0.012268429253651292 0.016179386448436861 0 0 0 -0.021084272390384323 8.7977923634019461e-05 -0.0026386307011580096 0 -0.0026386307011580096 0.0018781258841276127 0 0 0 0.00049152595194046356 -0.20297345682061685 0.031005016673245622 0 0.031005016673245622 -0.00089200444120762779 0 0 0 -0.050966365315456286 -0.036816132830916448 0.03338888707402532 0 0.03338888707402532 -0.0020930300388632972 0 0 0 -0.0097272907174450474 -0.027053289108742051 -0.035039902199417661 0 -0.035039902199417661 0.025502213501186866 0 0 0 -0.00038776890188874091 -0.06046394239277153 0.00074295404810107747 0 0.00074295404810107747 0.020459048369093638 0 0 0 -0.010001223505919463 -0.086389137862317528 -0.023819353456133591 0 -0.023819353456133591 0.01953616542094061 0 0 0 -0.01671324311034425 -0.04357380394291209 0.01006682001305983 0 0.01006682001305983 -0.00070420581691056638 0 0 0 -0.011069502439955654 -0.038580709951504394 0.01574181214848373 0 0.01574181214848373 0.010816890967097578 0 0 0 -0.0069409547461017004 -0.12319118841275017 -0.024760595685844496 0 -0.024760595685844496 -0.0016663088263074999 0 0 0 -0.031214374309764419 -0.057375194553646591 -0.041339612988305463 0 -0.041339612988305463 0.0066865372567221915 0 0 0 -0.012672164324231239 -0.17478889916984444 -0.020163215035839621 0 -0.020163215035839621 -0.0086107197689234572 0 0 0 -0.045849904734691936 -0.041900149619261251 0.058791003730174429 0 0.058791003730174429 0.013567070958614202 0 0 0 -0.0070832696651617066 -0.045170207473680363 0.062193744289073871 0 0.062193744289073871 0.011924723260480996 0 0 0 -0.0083113710532997931 -0.048981503324726283 0.064966666066882617 0 0.064966666066882617 0.004565729083108927 0 0 0 -0.011103943560404339 -0.044174799327611369 -0.03895465853498814 0 -0.03895465853498814 0.0068210019475980488 0 0 0 -0.0093384493450032746 -0.05305467354030452 -0.038548494379840426 0 -0.038548494379840426 0.0038434408453645458 0 0 0 -0.01230280817373491 0.044756073943860553 0.048742266998280145 0 0.048742266998280145 0.090928254300494782 0 0 0 0.03392108206108882 -0.049764803070968609 -0.0031967391421626047 0 -0.0031967391421626047 -0.016595618764214094 0 0 0 -0.016590105458795679 -0.057656178757186788 0.0026923503690476332 0 0.0026923503690476332 -0.019220066597309265 0 0 0 -0.01921906133862401 -0.058119812252428293 0.0029548655263534679 0 0.0029548655263534679 0.002693696434350874 0 0 0 -0.013856528954519354 -0.020243338974394398 -0.026103531633498489 0 -0.026103531633498489 0.11639981629976159 0 0 0 0.024039119331341813 -0.14386450441415757 -0.031832998633038768 0 -0.031832998633038768 -0.0036884069569943223 0 0 0 -0.036888227842787988 -0.047528228231008711 0.001510750133465355 0 0.001510750133465355 -0.019109232974832756 0 0 0 -0.016659365301460369 -0.20695054179020433 -0.0079377656474495933 0 -0.0079377656474495933 -0.0048924380673549053 0 0 0 -0.052960744964389801 -0.14239419520712776 0.0015923703245393495 0 0.0015923703245393495 -0.0011891220779504802 0 0 0 -0.03589582932126964 -0.12430476151776371 -0.01476090264197763 0 -0.01476090264197763 0.00010390184762454346 0 0 0 -0.031050214917534791 -0.052097396108255242 0.0034696044647250877 0 0.0034696044647250877 -0.014169428952176131 0 0 0 -0.016566706265107842 -0.035158921217810571 -0.0083871585946991845 0 -0.0083871585946991845 0.02965215821810796 0 0 0 -0.0013766907499255937 -0.069469038625817547 0.010433971960186408 0 0.010433971960186408 0.050817606589348127 0 0 0 -0.0046628580091173551 -0.012649807810416809 0.072132858835164626 0 0.072132858835164626 0.018715429053501986 0 0 0 0.0015164053107711226 -0.042702369860307003 0.0037574075895379631 0 0.0037574075895379631 -0.019418716679244139 0 0 0 -0.015530271634887793 -0.026507104804676995 0.03098886164452419 0 0.03098886164452419 -8.376030341050722e-05 0 0 0 -0.0066477162770222087 -0.023359557080579574 -0.031714186222396301 0 -0.031714186222396301 0.012230555629141104 0 0 0 -0.0027822503628596174 -0.052426948378031302 0.003388918478677702 0 0.003388918478677702 -0.015117453024689779 0 0 0 -0.016886100350680274 -0.083762582812125813 -0.00030872311201074303 0 -0.00030872311201074303 0.065843921069015751 0 0 0 -0.0044796654357775172 -0.012490407936159187 0.024543149386795193 0 0.024543149386795193 0.037258113881163624 0 0 0 0.0061919264862511092 -0.0063151077067056249 0.019018391370816623 0 0.019018391370816623 0.0036710718403059062 0 0 0 -0.00066100896659970765 -0.0060778012603697196 -0.015497621442956688 0 -0.015497621442956688 -0.0028474743681039527 0 0 0 -0.0022313189071185846 -0.0099482360028632089 -0.021302620314271881 0 -0.021302620314271881 0.017097690066964155 0 0 0 0.0017873635160252643 -0.15558343740613287 0.0041616724565305963 0 0.0041616724565305963 0.038233874997595563 0 0 0 -0.029337390602134333 -0.097487603452164256 -0.028058167900947617 0 -0.028058167900947617 0.011465238213406947 0 0 0 -0.021505591309689487 -0.10886187906636691 -0.027817246045620581 0 -0.027817246045620581 0.010774411001215678 0 0 0 -0.024521867016287835 -0.16865491194733062 0.060759362487490698 0 0.060759362487490698 0.02508143327968515 0 0 0 -0.035893369666911479 -0.14297961561636252 0.061357704767305399 0 0.061357704767305399 0.026816722561357142 0 0 0 -0.029040723263751289 -0.065644839789797349 0.00039733150686556071 0 0.00039733150686556071 -0.017352097180952514 0 0 0 -0.020749234242687452 0.078166462507794021 0.039974367226271089 0 0.039974367226271089 0.048089230444299691 0 0 0 0.031563923238023373 -0.12837080973325804 -0.0094827287325206285 0 -0.0094827287325206285 -0.029183140200795148 0 0 0 -0.039388487483513292 -0.10776121430345344 -0.0031764263938904858 0 -0.0031764263938904858 -0.02086769059222441 0 0 0 -0.03215722622391947 -0.083512115834431397 -0.020013499734908527 0 -0.020013499734908527 0.042602117578080329 0 0 0 -0.010227499564087791 -0.084840454678966351 0.0019120073700413113 0 0.0019120073700413113 -0.013201473229056283 0 0 0 -0.024510481977005654 -0.084502480640499117 -0.015099448362152042 0 -0.015099448362152042 -0.026681407732672514 0 0 0 -0.027795972093292893 -0.17613909193980865 -0.025342048277945825 0 -0.025342048277945825 0.0039622439074368521 0 0 0 -0.043044212008092886 -0.17808167252366347 -0.026549816648127653 0 -0.026549816648127653 -0.00084555508666797619 0 0 0 -0.044731806902582869 -0.017341913833362366 0.037737302263497918 0 0.037737302263497918 0.061473922526860569 0 0 0 0.011033002173374662 -0.016026347420235343 -0.01739347341771813 0 -0.01739347341771813 0.0024888024871021486 0 0 0 -0.0033843862332834096 -0.00517631957263662 -0.0032102858722365957 0 -0.0032102858722365957 0.037040041021885205 0 0 0 0.0079659303623122162 -0.0018530021355303017 0.0039421531517408459 0 0.0039421531517408459 0.0059047889013845722 0 0 0 0.0010129466914635676 -0.08421514202839403 -0.0020190760048430512 0 -0.0020190760048430512 0.0021036106427395063 0 0 0 -0.020527882846413617 -0.0058975544812596148 -0.0061636236898611196 0 -0.0061636236898611196 0.087089564439199463 0 0 0 0.02029800248948499 -0.006852722796733407 -0.0022617890878811608 0 -0.0022617890878811608 0.15698511877163657 0 0 0 0.037533098993725728 -0.029753787180806374 -0.013893691496560445 0 -0.013893691496560445 0.028114906847032918 0 0 0 -0.00040972008344333788 -0.11615652026289428 -0.014717968431378972 0 -0.014717968431378972 0.014665890079115229 0 0 0 -0.025372657545944699 -0.00070537109983043189 0.00054103049670967129 0 0.00054103049670967129 -0.011155402762011768 0 0 0 -0.0029651934654605916 -0.17484613500101157 -0.034757839349967137 0 -0.034757839349967137 0.011693692825833102 0 0 0 -0.040788110543794609 -0.062624609417429505 0.0017464910536585604 0 0.0017464910536585604 0.014783450135863997 0 0 0 -0.011960289820391386 -0.075159417804139705 -0.040272121553444062 0 -0.040272121553444062 0.03287734883161586 0 0 0 -0.010570517243130961 -0.072177847343172785 -0.037035329798039696 0 -0.037035329798039696 0.029414245922183557 0 0 0 -0.010690900355247279 -0.087126824313620607 0.0030668143948303084 0 0.0030668143948303084 -0.00055403881706553304 0 0 0 -0.021920215782671518 -0.097339227216661883 -0.023685101783851026 0 -0.023685101783851026 0.02088613792245364 0 0 0 -0.019113272323552144 -0.094649006930504376 -0.00027073088197522577 0 -0.00027073088197522577 -0.0016891417077358195 0 0 0 -0.024084537159560014 -0.07881684294893046 -0.016813470378493244 0 -0.016813470378493244 -0.018807105581897757 0 0 0 -0.02440598713270704 -0.12004416727819572 -0.01452014694647219 0 -0.01452014694647219 0.012681778552997902 0 0 0 -0.02684059718129933 -0.19450788915614436 0.025518218570592666 0 0.025518218570592666 0.044761099863594445 0 0 0 -0.037436697323137369 -0.12830758044927962 -0.010993611580581607 0 -0.010993611580581607 -0.029448809486256333 0 0 0 -0.039439097483883995 -0.10599282412057565 -0.001707531530049969 0 -0.001707531530049969 -0.024159502042774707 0 0 0 -0.032538081540837586 -0.098751963349505825 0.003873179973570548 0 0.003873179973570548 -0.0046032011922205393 0 0 0 -0.025838791135431562 -0.11023292682683844 -0.02438775946334662 0 -0.02438775946334662 -0.014853952971400644 0 0 0 -0.031271719949559774 -0.060636607604537839 -0.0052253432124639426 0 -0.0052253432124639426 -0.02648103019517585 0 0 0 -0.021779409449928431 -0.021423292248150372 -0.057017938033150362 0 -0.057017938033150362 0.066150184974105242 0 0 0 0.01118172318148869 -0.039535851433552108 0.0063811204154559063 0 0.0063811204154559063 -0.016078397947900315 0 0 0 -0.013903562345363109 -0.017614826303315567 0.023454023194219964 0 0.023454023194219964 0.0019407367539843179 0 0 0 -0.0039185223873330344 -0.019689924075704468 -0.032337937867795374 0 -0.032337937867795374 0.028520224209527267 0 0 0 0.0022075750334555888 -0.09675856661066537 0.0024149584681085953 0 0.0024149584681085953 -0.0089273781107308964 0 0 0 -0.02642148618034907 -0.10203366175006026 -0.019489857693545189 0 -0.019489857693545189 -0.022108661566689228 0 0 0 -0.031035580829187379 -0.044609956076043768 0.0066341043367858857 0 0.0066341043367858857 -0.0088337284403542434 0 0 0 -0.013360921129099503 -0.047064082978816424 -0.045589226266566744 0 -0.045589226266566744 0.045188109945489385 0 0 0 -0.00046899325833177352 -0.09326514134217434 0.018466242383623349 0 0.018466242383623349 -0.0021795556333081834 0 0 0 -0.023861174243870797 -0.021428742403023171 -0.019592091012756829 0 -0.019592091012756829 0.055496044238332987 0 0 0 0.0085168254588273706 -0.05838706603226318 -0.039391545160077479 0 -0.039391545160077479 0.0058572502969100881 0 0 0 -0.013132453933838439 -0.087173059872361014 -0.016374340897539967 0 -0.016374340897539967 0.071635958687019274 0 0 0 -0.0038842752963354488 -0.18039648938098196 -0.015810053161754396 0 -0.015810053161754396 -0.0047759998475624815 0 0 0 -0.046293122307136114 -0.13061891711151 0.0010294728179981068 0 0.0010294728179981068 -0.0032097804689460441 0 0 0 -0.033457174395114017 -0.025436371448640343 0.011034869784910237 0 0.011034869784910237 0.0053007407703994924 0 0 0 -0.0050339076695602378 -0.049627510253995817 0.0035736350185972508 0 0.0035736350185972508 -0.015116797011499121 0 0 0 -0.01618607681637373 -0.070049432638451453 -0.029110215365484166 0 -0.029110215365484166 0.013310621101789377 0 0 0 -0.014184702884165484 -0.18423415970876411 -0.019815255587106072 0 -0.019815255587106072 -0.0020134472118185226 0 0 0 -0.046561901730145704 -0.13570764119806483 0.0051956271010125885 0 0.0051956271010125885 -0.0013091396456125781 0 0 0 -0.034254195210919353 -0.067943140422276241 0.0051579978290844826 0 0.0051579978290844826 0.073324001743466746 0 0 0 0.0013452153302976368 -0.036742321889755791 -0.03353934507905118 0 -0.03353934507905118 0.0058044266022445612 0 0 0 -0.007734473821877863 -0.037433797444297756 0.050456455154672952 0 0.050456455154672952 0.016139962101656025 0 0 0 -0.0053234588356603219 -0.11568044841793609 -0.0011483370481601418 0 -0.0011483370481601418 0.011295310430849206 0 0 0 -0.026096284496771781 -0.099357963889738346 -0.0092963768526120871 0 -0.0092963768526120871 0.015240695527264259 0 0 0 -0.021029317090618543 -0.053780618916604038 -0.019025138790702195 0 -0.019025138790702195 0.029078703646474496 0 0 0 -0.0061754788175323802 -0.057843289855290692 -0.019875459033800252 0 -0.019875459033800252 0.039992854989578892 0 0 0 -0.0044626087164279776 -0.073289689186504706 -0.010950907421630712 0 -0.010950907421630712 -0.029126413777211445 0 0 0 -0.025604025740929036 -0.071277490852582337 -0.0057748474158839814 0 -0.0057748474158839814 -0.026050494333366554 0 0 0 -0.024331996296487218 -0.078170215701317283 -0.0005330922134107012 0 -0.0005330922134107012 -0.018477679791962718 0 0 0 -0.024161973873320013 -0.076490100126980529 0.0027741312147352955 0 0.0027741312147352955 -0.017702812199267868 0 0 0 -0.023548228081562098 -0.037533843794837152 -0.0095666478733624216 0 -0.0095666478733624216 -7.9814082764251282e-05 0 0 0 -0.0094034144694002952 -0.07777206666135883 -0.0038119455074080953 0 -0.0038119455074080953 0.077581749570198755 0 0 0 -4.7579272790010917e-05 -0.035946619166882181 0.010570379886228061 0 0.010570379886228061 0.00073155062027908252 0 0 0 -0.0088037671366507572 -0.03299419535498016 0.053847473038750593 0 0.053847473038750593 0.024111567619200081 0 0 0 -0.002220656933945353 -0.051224903235796315 -0.035620115343536263 0 -0.035620115343536263 0.0010428218159037606 0 0 0 -0.012545520354973361 -0.025774354854979142 0.066070256005051897 0 0.066070256005051897 0.015521946359132066 0 0 0 -0.0025631021239616025 -0.02948247929220189 -0.0082210655677162139 0 -0.0082210655677162139 0.003242388405019489 0 0 0 -0.0065600227217956185 -0.021474472002540768 0.0039769537300889876 0 0.0039769537300889876 0.017526148416495219 0 0 0 -0.00098708089651142195 -0.073867625524266955 0.075155439074166108 0 0.075155439074166108 0.0037172656351085465 0 0 0 -0.01753758997228938 -0.048119509227763979 0.075918654650011463 0 0.075918654650011463 0.010146024495140793 0 0 0 -0.00949337118315563 -0.14092084226007379 -0.0084765271425131204 0 -0.0084765271425131204 -0.018059994630351447 0 0 0 -0.039745209222606312 -0.11479180410544887 -0.00374160156471663 0 -0.00374160156471663 -0.014884881680547623 0 0 0 -0.032419171446499112 -0.041353962641213715 -0.045024271095057411 0 -0.045024271095057411 0.022552527364581021 0 0 0 -0.0047003588191582013 0.00074357240945588376 -0.0056990251562319761 0 -0.0056990251562319761 0.08605326923007639 0 0 0 0.021699210409882985 -0.0087236566104764435 0.00074304425772347971 0 0.00074304425772347971 0.16297063205762019 0 0 0 0.038561743861785985 -0.079025965261844952 -0.00067280195108007429 0 -0.00067280195108007429 0.048638903907976254 0 0 0 -0.007596765338467198 -0.030281405076345802 0.016511264343212324 0 0.016511264343212324 0.0090691324615821689 0 0 0 -0.0053030681536909083 -0.013803262140416217 -0.0025077235613208682 0 -0.0025077235613208682 -0.012926270218841962 0 0 0 -0.0066823830898145586 -0.027073342171196169 -0.005023844508433184 0 -0.005023844508433184 -0.018330842026322847 0 0 0 -0.011351046049379754 -0.042262550172515373 -0.015644946447073677 0 -0.015644946447073677 -0.0048095512030350562 0 0 0 -0.011768025343887656 -0.026270080369195481 0.0185987221133459 0 0.0185987221133459 -0.0041149200845003175 0 0 0 -0.0075962501134240745 -0.020940529905565011 -0.03278971021872934 0 -0.03278971021872934 0.041978110535113133 0 0 0 0.0052593951573868675 -0.0037076083145740069 0.0082982301159932326 0 0.0082982301159932326 0.032581316290354101 0 0 0 0.0072184269939450374 -0.0059261130596601763 -0.012455405681981779 0 -0.012455405681981779 0.082165587222974956 0 0 0 0.019059868540828639 -0.025578365987858565 0.038623744607764632 0 0.038623744607764632 0.031300168372055737 0 0 0 0.0014304505960494041 -0.022439626769579224 -0.024956289653102814 0 -0.024956289653102814 -0.0042003038596791775 0 0 0 -0.0066599826573147114 -0.046294806130506419 0.004284464501608261 0 0.004284464501608261 -0.013955090138087461 0 0 0 -0.015062474067148475 -0.042335424497959795 0.0078193610798887384 0 0.0078193610798887384 -0.0093780331445670988 0 0 0 -0.012928364410631731 -0.028672537802601816 0.044399360286937473 0 0.044399360286937473 0.040878620927300879 0 0 0 0.0030515207811747658 -0.029467699540515868 -0.025971288229264644 0 -0.025971288229264644 0.0031122902120088725 0 0 0 -0.0065888523321266934 -0.11181215186448362 -0.012768900354775129 0 -0.012768900354775129 -0.02815286585301302 0 0 0 -0.034991254429374161 -0.097830347178614691 0.0001395183111483852 0 0.0001395183111483852 -0.021443292659828635 0 0 0 -0.029818409959610839 -0.002667599835151413 0.084583368267545755 0 0.084583368267545755 0.032630940967270039 0 0 0 0.0074908352830296288 -0.16286661094551524 -0.0032756885640292874 0 -0.0032756885640292874 -0.027914664946898062 0 0 0 -0.047695318973103328 -0.1281345454154382 -0.0078808782708237012 0 -0.0078808782708237012 -0.021759466505047429 0 0 0 -0.037473502980121413 -0.038500616351969663 0.016272476969556804 0 0.016272476969556804 -0.0063834693975799439 0 0 0 -0.011221021437387568 -0.020043104805892997 -0.023547942224746432 0 -0.023547942224746432 0.07208340361914356 0 0 0 0.013010074703312613 -0.07114776548760339 -0.0070547785335223212 0 -0.0070547785335223212 0.099375450441117147 0 0 0 0.007056921238378408 -0.10651543547023232 -0.00051622688947144946 0 -0.00051622688947144946 0.094895549493601461 0 0 0 -0.0029049714941576377 -0.066762214035313572 -0.041810487599558181 0 -0.041810487599558181 0.013034996998124715 0 0 0 -0.013431804259297242 -0.033949337984097022 -0.031200686190526752 0 -0.031200686190526752 0.0073813064866728451 0 0 0 -0.0066420078743560373 -0.072530749814132545 0.087604701989211886 0 0.087604701989211886 0.024746372237715253 0 0 0 -0.011946094394104212 -0.13986840072832996 0.058666060159499989 0 0.058666060159499989 0.030263639933600928 0 0 0 -0.027401190198682368 -0.096997683627717213 -0.027815401768388065 0 -0.027815401768388065 0.012623783531546584 0 0 0 -0.021093475024042629 -0.0076107726931070596 -0.062086723914933917 0 -0.062086723914933917 0.047318368656670162 0 0 0 0.0099268989908907757 -0.019959226084802328 -0.00019393185424004811 0 -0.00019393185424004811 0.050764411847132707 0 0 0 0.0077012964405826501 -0.026834418568443374 -0.0067853683134650455 0 -0.0067853683134650455 0.09754287177795784 0 0 0 0.017677113302378644 -0.07803181588052889 -0.025693456082627651 0 -0.025693456082627651 0.046554786868428677 0 0 0 -0.0078692572530250499 -0.070302384626450248 -0.018364929210554146 0 -0.018364929210554146 0.045300275251520972 0 0 0 -0.00625052734373234 -0.053295826956514705 0.022428477902748399 0 0.022428477902748399 0.1120445297324817 0 0 0 0.014687175693991757 -0.027322952994704747 -0.035520459800637311 0 -0.035520459800637311 0.065013407227425879 0 0 0 0.0094226135581803316 -0.018729446889464985 0.035619741828246676 0 0.035619741828246676 0.086263764210672278 0 0 0 0.01688357933030149 -0.020524815531543172 -0.014722030046089518 0 -0.014722030046089518 -0.0049516142918362149 0 0 0 -0.0063691074558449579 -0.073173772823302508 0.011936412398502107 0 0.011936412398502107 0.067210583932498999 0 0 0 -0.0014907972227009084 -0.047250391545179633 -0.006623200099158566 0 -0.006623200099158566 0.02609423725140074 0 0 0 -0.0052890385734446835 -0.030407793568226427 -0.007472211497552117 0 -0.007472211497552117 -0.013076311808097096 0 0 0 -0.010871026344080881 -0.05350330739917334 0.020530851251194512 0 0.020530851251194512 0.044864030930667681 0 0 0 -0.002159819117126436 -0.051244545021948688 -0.0033009459205470028 0 -0.0033009459205470028 -0.027154246865734057 0 0 0 -0.019599697971920692 -0.1168791468261926 -0.011370007076773991 0 -0.011370007076773991 0.0015017839093707241 0 0 0 -0.028844340729205498 -0.077668100575109547 -0.0098267691095699997 0 -0.0098267691095699997 -0.024059049235518205 0 0 0 -0.025431787452656941 -0.037220468384055808 0.012194171801257279 0 0.012194171801257279 -0.0014399667248444145 0 0 0 -0.0096651087772250451 -0.06911873661919829 0.0082774097840484159 0 0.0082774097840484159 0.093827964377893716 0 0 0 0.00617730693967386 -0.19011139428392099 0.023506377711528439 0 0.023506377711528439 0.0017023344995656942 0 0 0 -0.047102264946089045 -0.049310276667359355 0.0032453916073110984 0 0.0032453916073110984 -0.017861664050097741 0 0 0 -0.016792985179364273 -0.038695774957132979 0.0012891066343450538 0 0.0012891066343450538 -0.0056196289721579251 0 0 0 -0.011078850982322731 -0.05562432039532595 -0.025080044927530021 0 -0.025080044927530021 0.006476020184260689 0 0 0 -0.012287075052766334 -0.061809932074205542 -0.028933790416192262 0 -0.028933790416192262 2.0228766732355297e-05 0 0 0 -0.015447425826868422 -0.060097742778308878 -0.011666196997208085 0 -0.011666196997208085 -0.021675493919272114 0 0 0 -0.020443309174395248 -0.045079530619896536 0.0025012038377683543 0 0.0025012038377683543 -0.018933945921672468 0 0 0 -0.016003369135392249 -0.043403199114759122 -0.0034544821628283845 0 -0.0034544821628283845 -0.0027162224997955217 0 0 0 -0.011529855403638652 -0.058820322437632536 -0.027717585876240625 0 -0.027717585876240625 0.017298143413300104 0 0 0 -0.010380544756083132 -0.023328920449545709 -0.00073877990922346926 0 -0.00073877990922346926 0.03209365011209897 0 0 0 0.0021911824156384263 -0.12967890243493149 -0.036316937829463547 0 -0.036316937829463547 -0.004611394589548512 0 0 0 -0.033572574256120008 -0.0093322941010274274 0.021769539417700212 0 0.021769539417700212 0.13860070785325052 0 0 0 0.032317103438055605 -0.028699244601749913 -0.010949131032524262 0 -0.010949131032524262 -0.0040620615704649032 0 0 0 -0.0081903265430539884 -0.042700667501630096 0.0071188573736240407 0 0.0071188573736240407 -0.011287893303915386 0 0 0 -0.013497140201386371 -0.039708645689068851 0.0075872646019268814 0 0.0075872646019268814 -0.011050620891822668 0 0 0 -0.012689816645222871 -0.031312668580713687 0.020493921837095863 0 0.020493921837095863 0.005004477658520301 0 0 0 -0.0065770477305489017 -0.029859995457064636 -0.030400603591454745 0 -0.030400603591454745 0.046880222735193655 0 0 0 0.0042550568195323102 -0.042845133099946031 0.013049792484444211 0 0.013049792484444211 0.01141487020411748 0 0 0 -0.0078575657239571359 -0.052470273385468405 0.010234614085632933 0 0.010234614085632933 0.010275865923925414 0 0 0 -0.010548601865385749 -0.043289980184499519 0.0068705815460012171 0 0.0068705815460012171 -0.0095103932058372507 0 0 0 -0.013200093347584194 -0.11516795855160306 0.0036687051023683512 0 0.0036687051023683512 -0.00229309434616283 0 0 0 -0.029365263224441492 -0.072543776313642769 -0.0088990409969396667 0 -0.0088990409969396667 0.022065606435084539 0 0 0 -0.012619542469639547 -0.051658319512771778 -0.013275032357427649 0 -0.013275032357427649 0.026163971146950959 0 0 0 -0.0063735870914551906 -0.12691586125890389 0.003892233644499421 0 0.003892233644499421 -0.0055182098388356152 0 0 0 -0.033108517774434833 0.044868048933881854 0.11030376776306183 0 0.11030376776306183 0.082709454092698698 0 0 0 0.03189437575664511 -0.028131235088434181 0.036930077168291803 0 0.036930077168291803 0.012157715997945573 0 0 0 -0.0039933797726225961 -0.024288458438708638 -0.033589826855263183 0 -0.033589826855263183 0.0085227977296371549 0 0 0 -0.0039414151772678707 -0.063541780171466597 -0.0014394920730496728 0 -0.0014394920730496728 0.010808159319162139 0 0 0 -0.013183405213076108 -0.046917065734029824 0.0023001258337080593 0 0.0023001258337080593 -0.018276031837294666 0 0 0 -0.016298274392831127 -0.0095271054444459047 -0.0024784033534174452 0 -0.0024784033534174452 0.031765912682325426 0 0 0 0.0055597018094698802 -0.040429942308036482 -0.013568488338364104 0 -0.013568488338364104 0.0099932610351677331 0 0 0 -0.0076091703182172288 -0.046118412349617638 -0.021477382839063142 0 -0.021477382839063142 -0.01288166846532357 0 0 0 -0.014750020203735364 -0.050795791431981749 0.0055519282926695737 0 0.0055519282926695737 -0.0019675039104327403 0 0 0 -0.013190823835603622 -0.10036536889386649 -0.025500687717117998 0 -0.025500687717117998 0.0005327566468908973 0 0 0 -0.024958153061743871 -0.080854760782168689 -0.030889973344363664 0 -0.030889973344363664 0.0070758929632503964 0 0 0 -0.018444716954729712 -0.045825075122394678 0.00034467246908237599 0 0.00034467246908237599 -0.015280089444639683 0 0 0 -0.01527629114175859 -0.11188076272179326 0.062228870055138441 0 0.062228870055138441 0.011210274623156824 0 0 0 -0.025167622024658831 -0.15078334885725608 0.051906157967684163 0 0.051906157967684163 -0.0007090846576729426 0 0 0 -0.037873108378732478 -0.012099203370469769 0.007201352961814067 0 0.007201352961814067 0.043751473598944823 0 0 0 0.0079130675571187359 -0.014340272753497918 -0.013663724820438206 0 -0.013663724820438206 0.083802359183137609 0 0 0 0.017365521607409895 -0.027059158998336046 -0.020897450245142196 0 -0.020897450245142196 0.015293262694237253 0 0 0 -0.0029414740760246721 -0.032654179768778741 -0.0024643271417369994 0 -0.0024643271417369994 -0.0087874020051154078 0 0 0 -0.010360395443473475 0.011928519596520859 0.051510098852916852 0 0.051510098852916852 0.14243450046612627 0 0 0 0.038590755015661782 -0.053810543492458528 -0.0072149244062437445 0 -0.0072149244062437445 -0.017768536994911946 0 0 0 -0.017894770121842631 -0.068403838216166912 -0.011206883864078698 0 -0.011206883864078698 0.046775952483190553 0 0 0 -0.0054069714332440899 0.031646748841391625 0.035571922227302766 0 0.035571922227302766 0.031181427936365136 0 0 0 0.015707044194439135 -0.06379835223587782 -0.001959484675560421 0 -0.001959484675560421 0.0086092824708740717 0 0 0 -0.013797267441250944 -0.024614095294832605 0.041865623125757256 0 0.041865623125757256 0.020835816407546393 0 0 0 -0.00094456972182155319 -0.024424918375776539 -0.027886050731636303 0 -0.027886050731636303 0.0058678904137372534 0 0 0 -0.0046392569905098213 -0.0621933705716608 -0.00018050310718771556 0 -0.00018050310718771556 -0.0063387375874122201 0 0 0 -0.01713302703976826 -0.093605778247651081 -0.022641417240831414 0 -0.022641417240831414 0.073730339537015854 0 0 0 -0.0049688596776588101 -0.025428515283484554 0.032638284783504723 0 0.032638284783504723 0.087973128863819916 0 0 0 0.015636153395083507 -0.023366117920918472 -0.013937475173178671 0 -0.013937475173178671 0.0028594528687768683 0 0 0 -0.0051266662630357063 -0.1704219176852049 0.002074484149764382 0 0.002074484149764382 0.001379206795087351 0 0 0 -0.042260677722529338 -0.29224594408753313 -0.0090596474687223601 0 -0.0090596474687223601 0.0025282418095206038 0 0 0 -0.072429425569503172 -0.046042986494017835 0.03078188512658582 0 0.03078188512658582 0.1318158585678586 0 0 0 0.021443218018460164 -0.099135142152597069 0.0057577202138705194 0 0.0057577202138705194 -0.00045769064331863119 0 0 0 -0.024898208198978936 0.015392006045468212 -0.0016100431957053463 0 -0.0016100431957053463 0.077208953120912679 0 0 0 0.023150239791595265 0.0079430283517795131 0.0013551741144181007 0 0.0013551741144181007 0.096562354802412154 0 0 0 0.026126345788548 0.0049143393238108568 -0.0038717013951811707 0 -0.0038717013951811707 0.18352933191285392 0 0 0 0.047110917809166264 0.020472024431591684 -0.0020509219257628941 0 -0.0020509219257628941 0.16055933630138108 0 0 0 0.045257840183243137 -0.01872936529438618 0.0077771081361318051 0 0.0077771081361318051 0.014249897035530812 0 0 0 -0.0011198670647138975 -0.019730858018504938 -0.015710924115381913 0 -0.015710924115381913 0.046129501327626832 0 0 0 0.0065996608272804735 -0.027193540929211085 0.0055472862814286428 0 0.0055472862814286428 0.13214371475994646 0 0 0 0.026237543457683865 -0.022630660489852628 -0.013794405992681558 0 -0.013794405992681558 0.064684099397150696 0 0 0 0.010513359726824545 -0.09319299200861654 0.0054756807875960406 0 0.0054756807875960406 0.065230100596829599 0 0 0 -0.0069907228529467597 -0.0028483923724804683 0.028644525238267882 0 0.028644525238267882 0.074539462486081121 0 0 0 0.017922767528400385 -0.011470735833532864 0.0090958521108426282 0 0.0090958521108426282 0.0014432010212814816 0 0 0 -0.0025068837030617352 -0.0088607321324121191 -0.0080228178681547302 0 -0.0080228178681547302 -0.00094963901675582107 0 0 0 -0.0024525927872920406 -0.0065147943642738237 -0.025361609398158985 0 -0.025361609398158985 0.03416878323024708 0 0 0 0.0069134972164930364 -0.05467550187909543 0.0041963004895390482 0 0.0041963004895390482 -0.0029567388883637033 0 0 0 -0.014408060191864802 -0.019612471730334591 0.027147742444808998 0 0.027147742444808998 0.087323128114932924 0 0 0 0.016927664096149708 -0.0047507321417553233 -0.0069334089145489664 0 -0.0069334089145489664 -0.00098559497958583542 0 0 0 -0.0014340817803351752 -0.077148899054087172 -0.010860545620349417 0 -0.010860545620349417 0.091879363588128121 0 0 0 0.003682616133510226 -0.0053357954064194857 0.0079966046865727058 0 0.0079966046865727058 -0.00029474970876375295 0 0 0 -0.0014076362787953656 -0.017858210671497732 -0.025252722262970373 0 -0.025252722262970373 0.045076650996687118 0 0 0 0.0068046100812972909 -0.016865866394526974 -0.03362412457256525 0 -0.03362412457256525 0.026957501792416627 0 0 0 0.0025229088494723717 -0.063019464903682113 -0.029726777712877933 0 -0.029726777712877933 0.0087972498645199626 0 0 0 -0.013555553759790576 -0.062536736760611694 -0.028714189116917921 0 -0.028714189116917921 0.0096377518458045097 0 0 0 -0.013224746228701817 -0.054128741031328115 -0.011290672287539058 0 -0.011290672287539058 -0.010766483284717451 0 0 0 -0.016223806079011402 -0.033286859675066283 0.092986260803610721 0 0.092986260803610721 0.02684148986481627 0 0 0 -0.0016113424525624476 -0.093181358715589718 -0.011218425969406809 0 -0.011218425969406809 -0.0005625917418643489 0 0 0 -0.02343598761436369 0.0013882820565912918 -0.021525344644192493 0 -0.021525344644192493 0.053900424126754193 0 0 0 0.013822176545836382 -0.042992971160873375 -0.0095408586366050041 0 -0.0095408586366050041 0.035640907264105376 0 0 0 -0.0018380159741919894 -0.032319306355492475 0.023866814861745658 0 0.023866814861745658 0.026213359706676695 0 0 0 -0.0015264866622039519 -0.036875867785270799 -0.012544090504865879 0 -0.012544090504865879 -0.0099695802630257457 0 0 0 -0.011711362012074122 -0.038662644547131586 -0.01299391132264955 0 -0.01299391132264955 -0.0078663972193828702 0 0 0 -0.011632260441628628 -0.31479116587380607 0.0085043042301955699 0 0.0085043042301955699 0.0093492638860435129 0 0 0 -0.076360475496940583 -0.17255482297910901 -0.0042158714109127582 0 -0.0042158714109127582 0.0041886047530050874 0 0 0 -0.042091554556525967 -0.05882686930265156 -0.0059742136858710821 0 -0.0059742136858710821 -0.019611161416669572 0 0 0 -0.019609507679830281 -0.066145904626693897 0.0022798782339504241 0 0.0022798782339504241 -0.022048105288282722 0 0 0 -0.022048502478744153 -0.02278517320997326 0.0079221329479106511 0 0.0079221329479106511 0.012397925696749357 0 0 0 -0.002596811878305974 -0.044186976879432599 0.020101861222872122 0 0.020101861222872122 0.030672768154047847 0 0 0 -0.0033785521813461984 -0.036383750648910786 0.014902305625139591 0 0.014902305625139591 0.0082527274800806849 0 0 0 -0.0070327557922075564 -0.16429343289558204 -0.016471105161102405 0 -0.016471105161102405 -0.014620969043337154 0 0 0 -0.044728600484729819 -0.1269249261138215 0.0001687342499243627 0 0.0001687342499243627 -0.0089721041163534354 0 0 0 -0.033974257557543734 0.050092195110170268 0.044654857602052511 0 0.044654857602052511 0.040350847772195664 0 0 0 0.022610760720591649 -0.13969281890424881 -0.015294065353039749 0 -0.015294065353039749 -0.0090902608613314187 0 0 0 -0.03719576994139507 -0.11462038955914153 -9.7791942247019842e-05 0 -9.7791942247019842e-05 -0.0063502300582680693 0 0 0 -0.030242654904352385 -0.042760323737936368 -0.0073862181897433321 0 -0.0073862181897433321 0.0038469259857374372 0 0 0 -0.0097283494380497881 0.03398247272625976 0.13321646103465845 0 0.13321646103465845 0.086503132162874641 0 0 0 0.030121401222283573 -0.027720884836528282 0.011927822210388184 0 0.011927822210388184 -0.0013742627626306264 0 0 0 -0.0072737868997897366 -0.037668708014284402 -0.0090091235182266638 0 -0.0090091235182266638 0.029662316366322161 0 0 0 -0.0020015979119905047 -0.092583989242170969 -0.0090608350548577743 0 -0.0090608350548577743 -0.030855696995542928 0 0 0 -0.030859921559428471 -0.086839747392953442 -0.00017883803139058247 0 -0.00017883803139058247 -0.028940982006037699 0 0 0 -0.028945182349747783 -0.15742735516631617 0.0039362768687211331 0 0.0039362768687211331 -0.00065926067340021932 0 0 0 -0.039521653959929098 -0.24534566533556135 -0.012368215515853209 0 -0.012368215515853209 -0.0013249744836956734 0 0 0 -0.061667659954814283 -0.094398439991085242 -0.018335139017660262 0 -0.018335139017660262 0.033417811125567076 0 0 0 -0.015245157216379618 0.0049243749001279813 -0.02181320906747386 0 -0.02181320906747386 0.034012947962531292 0 0 0 0.0097343307156647629 -0.088527934886327334 -0.017435685378979618 0 -0.017435685378979618 0.069299678192964245 0 0 0 -0.0048070641733407686 -0.052775612247150369 0.014340004176761704 0 0.014340004176761704 0.041167316729529904 0 0 0 -0.0029020738794051032 -0.066348096706417226 0.0071973386134126646 0 0.0071973386134126646 0.047065401644330443 0 0 0 -0.0048206737655216957 -0.012981036126644949 0.024792002123236734 0 0.024792002123236734 0.045213363545623712 0 0 0 0.0080580818547446829 0.0013391724198861775 0.020152141879959437 0 0.020152141879959437 0.026504799709925433 0 0 0 0.0069609930324528967 -0.023070863436942257 -0.012515686009304972 0 -0.012515686009304972 0.0041026618032085072 0 0 0 -0.0047420504084335069 -0.07853244762869091 -0.02283126239026223 0 -0.02283126239026223 0.035119486490925972 0 0 0 -0.010853240284441325 -0.095351639872232913 -0.042254972215558101 0 -0.042254972215558101 0.085026441829374855 0 0 0 -0.0025812995107145076 -0.030243136436929753 -0.070450281178793595 0 -0.070450281178793595 0.13577230135553833 0 0 0 0.026382291229652154 -0.15160326311814742 0.0033305633477455493 0 0.0033305633477455493 -0.0010910835588954226 0 0 0 -0.038173586669260684 -0.2237364534234052 -0.010563714438739069 0 -0.010563714438739069 -0.0018022392449172364 0 0 0 -0.056384673167080575 -0.0013558032951147955 -0.0022799694744862764 0 -0.0022799694744862764 0.0044293068031163617 0 0 0 0.0007683758770004193 -0.033592417461599688 -0.031310448267811264 0 -0.031310448267811264 0.10651987476565938 0 0 0 0.018231864326014868 -0.039298778307451737 0.012204010965770987 0 0.012204010965770987 -0.0031937893737974642 0 0 0 -0.010623141920312308 -0.13411593386333387 -0.014703907880544442 0 -0.014703907880544442 -0.019857460429173683 0 0 0 -0.03849334857312689 -0.11076400980215732 -0.00036338104469779697 0 -0.00036338104469779697 -0.013852608435261995 0 0 0 -0.03115415455935483 -0.064470670289168919 -0.00093037655579754006 0 -0.00093037655579754006 -0.0076400771671460907 0 0 0 -0.018027686864078754 -0.088354624418410022 -0.012871410019373392 0 -0.012871410019373392 0.075152790890552851 0 0 0 -0.0033004583819643291 -0.025766927722377153 -0.012208042588108092 0 -0.012208042588108092 0.053042785666271297 0 0 0 0.0068189644859735776 -0.066735175038370065 0.0013544004418987498 0 0.0013544004418987498 -0.0046284983212142418 0 0 0 -0.017840918339896053 -0.070300822709495447 0.017910724996081484 0 0.017910724996081484 0.00075702172800351519 0 0 0 -0.017385950245372817 -0.025555218661832413 -0.023605245052382262 0 -0.023605245052382262 0.060925004217180723 0 0 0 0.008842446388837244 -0.018726115065664517 -0.022079092669040845 0 -0.022079092669040845 0.052145149012185588 0 0 0 0.0083547584866301983 -0.061198527132153249 -0.036313244389290796 0 -0.036313244389290796 0.049186555818800881 0 0 0 -0.0030029928283381441 -0.060216372780477534 -0.020925174621810677 0 -0.020925174621810677 0.040672792725160889 0 0 0 -0.004885895013829189 -0.065089070924580938 -0.0072235388777012535 0 -0.0072235388777012535 0.032523714955836197 0 0 0 -0.0081413389921861992 -0.084755050672234336 -0.01364909623615475 0 -0.01364909623615475 0.070766749782899124 0 0 0 -0.0034970752223338203 -0.00086114808273229926 0.022917832378262837 0 0.022917832378262837 0.15986974413112254 0 0 0 0.039752149012096893 0.00023343242324824764 0.00065162528522733076 0 0.00065162528522733076 0.0013422167481720315 0 0 0 0.0003939122928551253 -0.0042279159654825538 -0.019781229678322632 0 -0.019781229678322632 0.084002885380605075 0 0 0 0.019943742353780713 0.00057226784330877134 -0.0013288190439109115 0 -0.0013288190439109115 0.0018229940927434463 0 0 0 0.00059881548401274909 -0.066141265944748437 -0.0016720407645383888 0 -0.0016720407645383888 0.03514960535495458 0 0 0 -0.0077479151474484712 -0.068219390187611612 -0.0054988294460157315 0 -0.0054988294460157315 0.022685313853260336 0 0 0 -0.011383519083587833 -0.063466727991296434 -0.019270991390580056 0 -0.019270991390580056 0.032573261340078902 0 0 0 -0.0077233666628043762 -0.19708790080739133 -0.016312987643613733 0 -0.016312987643613733 0.0033074399449220526 0 0 0 -0.048445115215617313 -0.22557785288130883 -0.026083220336687307 0 -0.026083220336687307 0.0042728535893414299 0 0 0 -0.055326249822991835 -0.05992148521051132 -0.027069453839840042 0 -0.027069453839840042 0.0028095574408074642 0 0 0 -0.014277981942426 -0.075664068590943837 -0.0068690046999325891 0 -0.0068690046999325891 0.0091913176665247842 0 0 0 -0.016618187731104794 -0.036453904058162609 -0.049019318604521522 0 -0.049019318604521522 0.075514627317512684 0 0 0 0.009765180814837543 -0.10762037637430789 0.00082095370899570169 0 0.00082095370899570169 -0.011906362593543857 0 0 0 -0.029881684741962952 -0.093948211657300745 0.0002828281875306999 0 0.0002828281875306999 -0.015472864601045709 0 0 0 -0.027355269064586619 -0.10113566068791445 -0.014165454190465176 0 -0.014165454190465176 -0.023321748192932017 0 0 0 -0.031114352220211618 -0.12689008344774874 -0.016962806189489216 0 -0.016962806189489216 -0.021384337622334864 0 0 0 -0.037068605267520899 -0.076703040056445904 -0.02995928022706229 0 -0.02995928022706229 0.00056935026044824255 0 0 0 -0.019033422448999415 -0.061033104988167275 -0.030599785390379122 0 -0.030599785390379122 0.0026220201933000453 0 0 0 -0.014602771198717002 -0.062365950263820386 -0.004873559370833426 0 -0.004873559370833426 -0.027039849519982253 0 0 0 -0.022351449945950664 -0.060061835868102355 -0.0067454951126322627 0 -0.0067454951126322627 -0.025943277609986683 0 0 0 -0.021501278369522266 -0.06628404366088575 0.0034159645106412481 0 0.0034159645106412481 -0.016428804827522701 0 0 0 -0.020678212122102104 -0.070752351933552754 0.00049291435353817042 0 0.00049291435353817042 -0.021808782721563086 0 0 0 -0.02314028366377896 -0.03256111693186603 0.046090753613554192 0 0.046090753613554192 0.025917292493343957 0 0 0 -0.0016609561096305736 -0.033050982351587543 -0.031650592959470814 0 -0.031650592959470814 -0.00033309664862990473 0 0 0 -0.0083460197500545563 -0.086615056771403201 -0.0012088171956628506 0 -0.0012088171956628506 -0.012445416487422027 0 0 0 -0.024765118314706309 -0.077007560175507098 -0.011140228647636731 0 -0.011140228647636731 -0.02296654074314242 0 0 0 -0.024993525229662365 -0.061782612573739362 -0.012200406144306578 0 -0.012200406144306578 0.016735186035211708 0 0 0 -0.011261856634631903 -0.098794779319497456 0.00036074434155468176 0 0.00036074434155468176 -0.0091771624607564148 0 0 0 -0.026992985445063455 -0.10698122865412484 -0.016339003081795631 0 -0.016339003081795631 -0.015147797823838363 0 0 0 -0.030532256619490813 -0.12096730014453859 -0.020739301776820346 0 -0.020739301776820346 0.13168297198176698 0 0 0 0.0026789179593071505 -0.069381372907455552 -0.0084705172709765852 0 -0.0084705172709765852 0.018040255279447234 0 0 0 -0.012835279407002083 -0.11231993774818061 -0.0076328920448254884 0 -0.0076328920448254884 -0.037453445026934665 0 0 0 -0.037443345693778822 -0.097674551980053453 -0.0026279654856175643 0 -0.0026279654856175643 -0.032566322155316949 0 0 0 -0.032560218533842604 0.0080090793013040951 0.016380325248485733 0 0.016380325248485733 0.049918043058516604 0 0 0 0.014481780589955168 -0.0085715998372152269 -0.0023414077656899457 0 -0.0023414077656899457 -0.014295570018245218 0 0 0 -0.0057167924638651391 -0.08652746753249313 -0.0029215663743820813 0 -0.0029215663743820813 0.01283890530383433 0 0 0 -0.018422140557164735 -0.0022216083601229175 -0.036823143995406149 0 -0.036823143995406149 0.027680340641232926 0 0 0 0.0063646830702775437 -0.067284570902913926 0.00043685316042866608 0 0.00043685316042866608 0.0354480042899682 0 0 0 -0.0079591416532364262 -0.075472704896762055 -0.015964061186470771 0 -0.015964061186470771 0.038602822489079716 0 0 0 -0.0092174706019205743 -0.19191835384174127 -0.0027547254670268022 0 -0.0027547254670268022 -0.015358092639385371 0 0 0 -0.051819111620281688 -0.1470003462813898 -0.0075626763564934571 0 -0.0075626763564934571 -0.012718786494124806 0 0 0 -0.039929783193878653 -0.027615418885653303 -0.027015576729134502 0 -0.027015576729134502 0.048303116264039325 0 0 0 0.0051719243445964846 -0.060227739818058811 0.0070873588463457645 0 0.0070873588463457645 0.023326093223104461 0 0 0 -0.0092254116487386021 -0.067655004696481127 -0.010185817656661558 0 -0.010185817656661558 0.011433545198896547 0 0 0 -0.014055364874396124 -0.11729701883308857 -0.0025161203679842509 0 -0.0025161203679842509 0.0076377433054859445 0 0 0 -0.027414818881900671 -0.10655244470640779 0.021442842704793907 0 0.021442842704793907 0.00089770368294539438 0 0 0 -0.026413685255865516 -0.070888347107731203 -0.0092934188476532786 0 -0.0092934188476532786 0.035350711249009792 0 0 0 -0.0088844089646803182 -0.067088089581439567 -0.026436481723424637 0 -0.026436481723424637 0.016448599869249625 0 0 0 -0.012659872428047503 -0.070235198203224686 -0.0051811352013929335 0 -0.0051811352013929335 0.013559767899527786 0 0 0 -0.014168857575924204 -0.057823274323887591 0.0059900768480096083 0 0.0059900768480096083 0.029297388269496159 0 0 0 -0.0071314715135978556 -0.069799399114212707 -0.029331075077867086 0 -0.029331075077867086 0.01994809069575279 0 0 0 -0.012462827104615021 0.045501629208420422 0.021309713556297544 0 0.021309713556297544 0.12283024234241002 0 0 0 0.042082967887707642 -0.07950177378430337 0.00054279725850279667 0 0.00054279725850279667 0.0056647192748320307 0 0 0 -0.018459263627367828 -0.05547734891483902 0.014314928003006868 0 0.014314928003006868 -0.0033730046233104716 0 0 0 -0.014712588384537373 -0.026866754929966485 -0.019352981137195413 0 -0.019352981137195413 0.067131585838887231 0 0 0 0.010066207727230325 -0.013475170350039867 -0.018901497851229521 0 -0.018901497851229521 0.047893678115794147 0 0 0 0.0086046269414384868 -0.15453781737267486 -0.025894794105213392 0 -0.025894794105213392 0.041941391699402163 0 0 0 -0.028149106418318096 -0.0067957037803323683 -0.020855667473190787 0 -0.020855667473190787 -0.016714182827542029 0 0 0 -0.0058774716519685577 -0.14843599297647017 0.0055960424101788586 0 0.0055960424101788586 0.0024410138994907515 0 0 0 -0.03649874476924489 -0.24211804541573836 -0.023586464321091627 0 -0.023586464321091627 0.0073549601036822093 0 0 0 -0.058690771328014098 -0.14222949956623615 -0.0015694164481574457 0 -0.0015694164481574457 0.001021875685969259 0 0 0 -0.035301905970066758 -0.23717248806653041 -0.0035782072619546523 0 -0.0035782072619546523 0.0039284087793696187 0 0 0 -0.058311019821790211 -0.12680800488455138 -0.007452813001440582 0 -0.007452813001440582 -0.017880499190534388 0 0 0 -0.036172126018771456 -0.16210431531378228 -0.0021238169832973513 0 -0.0021238169832973513 -0.021101792390438429 0 0 0 -0.045801526926055165 -0.077683126308734585 -0.020516156892400911 0 -0.020516156892400911 0.052331041548107304 0 0 0 -0.0063380211901568131 -0.072038724892123721 -0.031101937762908455 0 -0.031101937762908455 0.066014295864597561 0 0 0 -0.0015061072568815365 -0.020523451921870189 -0.0060078395355593894 0 -0.0060078395355593894 0.073389433961939865 0 0 0 0.013216495510017467 -0.016257521924629537 -0.00028949282822110511 0 -0.00028949282822110511 0.14332191252436222 0 0 0 0.0317660976499331 -0.032578636185431858 0.0066258339501059638 0 0.0066258339501059638 0.047301149203858694 0 0 0 0.0036806282546066882 -0.02483169277412739 0.0025587584204683766 0 0.0025587584204683766 0.1243959337589331 0 0 0 0.024891060246201413 -0.035566765129826372 -0.01255523489436311 0 -0.01255523489436311 0.063442646922790891 0 0 0 0.0069689704482411852 -0.072805001156877325 -0.0051253630477192808 0 -0.0051253630477192808 0.014435889386136058 0 0 0 -0.014592277942685312 -0.052202009050971679 -0.031765970748392797 0 -0.031765970748392797 0.055344913324406331 0 0 0 0.00078572606835866643 -0.074227573935263302 -0.033419393719121372 0 -0.033419393719121372 0.050455029978805799 0 0 0 -0.005943135989114362 -0.071704312406177875 -0.0048107674008685888 0 -0.0048107674008685888 0.063766452541978588 0 0 0 -0.0019844649660498183 -0.14238904941797625 0.021288300579079912 0 0.021288300579079912 -0.0026256826831279056 0 0 0 -0.036253683025275985 -0.084824572366635223 -0.012782041490064733 0 -0.012782041490064733 0.065209475253097865 0 0 0 -0.0049037742783843846 -0.0068164538754091897 -0.014456008326068942 0 -0.014456008326068942 0.19488285914191061 0 0 0 0.047016601316625328 0.052105329382589549 -0.021042287615407641 0 -0.021042287615407641 0.10654332667966537 0 0 0 0.039662164015563772 0.0018779035836702929 -0.019548552391658314 0 -0.019548552391658314 0.040698171939706818 0 0 0 0.010644018880844375 -0.26344845182322724 -0.017869959217420128 0 -0.017869959217420128 0.0059380032129712212 0 0 0 -0.064377612152564045 -0.15545786287786939 0.0054453717455147932 0 0.0054453717455147932 0.0015954259015508385 0 0 0 -0.038465609244079671 -0.087511017035449917 -0.012091078596335637 0 -0.012091078596335637 0.070785572614298908 0 0 0 -0.0041813611052877453 -0.092585178346724417 0.049178076082735167 0 0.049178076082735167 -0.0068314137401683794 0 0 0 -0.024854148021722811 -0.064482456906751029 0.045712076279871283 0 0.045712076279871283 0.0025361600731557132 0 0 0 -0.015486574208398718 -0.037077920945762344 -0.036813355300054473 0 -0.036813355300054473 0.026474850713051001 0 0 0 -0.0026507675581779466 -0.028455323266470343 -0.03435302123986661 0 -0.03435302123986661 0.029349049939482719 0 0 0 0.00022343166825303847 -0.034211221712155793 -0.021185441318495313 0 -0.021185441318495313 0.075225853195592718 0 0 0 0.010253657870859356 -0.021293448612853094 0.010406269190715137 0 0.010406269190715137 0.00077041388548160228 0 0 0 -0.005130758681842984 -0.084949088301474907 0.0004989650283227353 0 0.0004989650283227353 -0.01321416677519139 0 0 0 -0.024540813769166583 -0.082986862904375222 -0.0088438321095452022 0 -0.0088438321095452022 -0.022889240924621589 0 0 0 -0.026469025957249197 -0.040167286200588466 -0.041074607662983986 0 -0.041074607662983986 0.013960964601649445 0 0 0 -0.0065515803997345315 -0.041066753435625714 -0.04071818506419389 0 -0.04071818506419389 0.013697159096907718 0 0 0 -0.0068423985846797208 -0.04374362077034355 -0.039189930009482898 0 -0.039189930009482898 0.010584718136541049 0 0 0 -0.0082897256584507639 -0.046497703673376578 -0.043463304870794028 0 -0.043463304870794028 0.0098338541594538142 0 0 0 -0.0091659623784806632 -0.059501133057614813 0.059723007613366352 0 0.059723007613366352 -0.000142689226061532 0 0 0 -0.014910955570919121 -0.047380426777436514 0.055116900334064134 0 0.055116900334064134 0.0032259956118049268 0 0 0 -0.011038607791408007 -0.090971749415603487 0.0018865689370146203 0 0.0018865689370146203 -0.023926456581604749 0 0 0 -0.028724551499302059 -0.10308543863173318 -0.014652080644313368 0 -0.014652080644313368 -0.030638350734984658 0 0 0 -0.033430947341679458 -0.12755005233078848 -0.017701298220475087 0 -0.017701298220475087 0.010999647538342705 0 0 0 -0.02913760119811154 -0.21292454109624148 0.036245936405829238 0 0.036245936405829238 0.016788639299405661 0 0 0 -0.049033975449209066 -0.11699619645253592 0.007826912567960545 0 0.007826912567960545 0.0023076941190260936 0 0 0 -0.02867212558337745 -0.056188724046508251 0.0060888076927176809 0 0.0060888076927176809 0.011058678932527509 0 0 0 -0.011282511278495166 -0.0071397788927058392 -0.013742394605385844 0 -0.013742394605385844 0.00953678006053571 0 0 0 0.00059925029195745383 -0.17536956414640623 -0.026077061442474764 0 -0.026077061442474764 0.0020496697968011568 0 0 0 -0.043329973587401233 -0.22003978718405526 -0.021435595799337126 0 -0.021435595799337126 -0.0034899984685420327 0 0 0 -0.055882446413149295 -0.04385397484585063 8.4501809035000298e-05 0 8.4501809035000298e-05 -0.022303936745371275 0 0 0 -0.01653947789780548 -0.05524290697551798 0.010239426202904772 0 0.010239426202904772 0.090129341137775376 0 0 0 0.0087216085405643351 -0.15298859573445919 -0.0034625388699387749 0 -0.0034625388699387749 0.00070278895384201512 0 0 0 -0.038071451695154385 -0.26734902537042055 0.0050275198418617828 0 0.0050275198418617828 0.00076382967845675664 0 0 0 -0.066646298922990871 -0.095623208494670334 -0.0092998505385846197 0 -0.0092998505385846197 0.011891060534578668 0 0 0 -0.020933036990022927 -0.13902080847102585 -0.022627379282179613 0 -0.022627379282179613 -0.01521022665062409 0 0 0 -0.038557758780412489 -0.10887387715001372 -0.022213959891791958 0 -0.022213959891791958 -0.010129672423056398 0 0 0 -0.029750887393267512 -0.013865503592802031 0.11288085137809253 0 0.11288085137809253 0.22222833670739472 0 0 0 0.052090708278648146 -0.20759518481261535 -0.0097555465759617543 0 -0.0097555465759617543 0.00016625132162961798 0 0 0 -0.051857233372746385 -0.14147780440959409 0.0031790111058213333 0 0.0031790111058213333 0.000576157208350081 0 0 0 -0.035225411800311059 -0.040353068557313687 -0.016525083399256998 0 -0.016525083399256998 -0.011344761323538233 0 0 0 -0.012924457470212924 -0.045066334995236046 -0.017760959577290028 0 -0.017760959577290028 -0.0099487758473699728 0 0 0 -0.01375377771065156 -0.063705042815140459 0.0049439940264631825 0 0.0049439940264631825 0.050536328967590187 0 0 0 -0.0032921784618875657 -0.057898592292416007 -0.012325170410767621 0 -0.012325170410767621 0.008057562208056368 0 0 0 -0.012460257521089924 -0.042498093859549682 0.016133281623815356 0 0.016133281623815356 0.0094963644136792646 0 0 0 -0.0082504323614675957 -0.02327926146470416 0.034801385781617955 0 0.034801385781617955 0.20630265467593167 0 0 0 0.04575584830280699 -0.11514387437536273 0.0060329632971522773 0 0.0060329632971522773 0.0043915927047423337 0 0 0 -0.0276880704176551 -0.068368582722463878 -0.0068336443941312552 0 -0.0068336443941312552 0.0090514484227674774 0 0 0 -0.014829283574924107 0.042868062549705765 0.019229701641077283 0 0.019229701641077283 0.080182370326983055 0 0 0 0.030762608219171872 -0.087198762733079554 -0.013528727083803815 0 -0.013528727083803815 -0.0036996736275325612 0 0 0 -0.022724609090153249 -0.32017746400604297 -0.00036993871118751187 0 -0.00036993871118751187 -1.2346710537736172e-05 0 0 0 -0.080047452679145176 -0.17812171703266233 -0.0014349620458342289 0 -0.0014349620458342289 -0.00030371569056397707 0 0 0 -0.044606358180806521 -0.084507914498938408 -0.0067391595112061865 0 -0.0067391595112061865 0.082006872268524253 0 0 0 -0.00062526055760354568 -0.13996814482220077 -0.018143172048624989 0 -0.018143172048624989 -0.0085187357701206473 0 0 0 -0.037121720148080371 -0.16374291109598124 -0.0257884930972586 0 -0.0257884930972586 -0.0044583461720048428 0 0 0 -0.04205031431699649 0.010022736251535005 0.029872475552340398 0 0.029872475552340398 0.050450351532188131 0 0 0 0.015118271945930795 -0.059017267392517114 -0.013808941654276569 0 -0.013808941654276569 -0.0003340655881336474 0 0 0 -0.014837833245162635 -0.055753315431165615 -0.022457643902181357 0 -0.022457643902181357 0.018551245566130969 0 0 0 -0.0093005174662587481 -0.023638808468367412 0.021377685129187748 0 0.021377685129187748 0.14562040677078159 0 0 0 0.030495399575603432 -0.018802030649014645 -0.0073329706383485791 0 -0.0073329706383485791 0.0015312083042902103 0 0 0 -0.0043177055861811642 -0.084189350284721312 -0.032238083462603789 0 -0.032238083462603789 0.05107015589766245 0 0 0 -0.0082797985967646703 -0.051773832045216073 -0.018561883587213682 0 -0.018561883587213682 0.060473166078543805 0 0 0 0.0021748335083319748 -0.071808685403361494 -0.0087602709983410076 0 -0.0087602709983410076 0.02178427999991972 0 0 0 -0.012506101350860457 -0.049091762272585937 0.012868219682333759 0 0.012868219682333759 -0.0014255009226546989 0 0 0 -0.012629315798809992 -0.022856709463829672 -0.023154760060728252 0 -0.023154760060728252 0.075024805863564747 0 0 0 0.013042024099933602 -0.079276459964933738 -0.00017280779384812144 0 -0.00017280779384812144 -0.0036713308692830904 0 0 0 -0.020736947708554207 -0.010711015857932382 -0.00049996782350347768 0 -0.00049996782350347768 0.072197510447529534 0 0 0 0.015371623647399274 -0.13118761406407614 0.0047137925953855929 0 0.0047137925953855929 0.0007548078761799859 0 0 0 -0.03260820154697408 -0.10163587184094849 -0.026157875001354948 0 -0.026157875001354948 0.03487417399370496 0 0 0 -0.016690424461810904 -0.11501036910735077 0.0046170458540995413 0 0.0046170458540995413 -0.0043535845994347455 0 0 0 -0.029840988426696358 -0.09050295657700036 -0.012970654274898963 0 -0.012970654274898963 0.0018244211306774893 0 0 0 -0.022169633861580662 -0.14194416319257225 0.0036483818935350992 0 0.0036483818935350992 -0.00078819047485015337 0 0 0 -0.035683088416855607 -0.1298059956728938 0.005407104851931438 0 0.005407104851931438 4.1313342128396213e-05 0 0 0 -0.032441170582691359 -0.10095058339296492 0.063376299120706747 0 0.063376299120706747 -0.0010377591987176249 0 0 0 -0.025497085647920636 -0.083878618148181414 -0.0069334174221431181 0 -0.0069334174221431181 -0.028029691196678707 0 0 0 -0.027977077336215031 -0.091767396492786743 -0.015232548982878595 0 -0.015232548982878595 -0.027070266243661319 0 0 0 -0.02970941568411202 -0.086517980331277861 0.0026850531429106349 0 0.0026850531429106349 -0.018659970411286218 0 0 0 -0.026294487685641028 -0.083628147883450313 -0.0010067046090632484 0 -0.0010067046090632484 -0.022472385559710806 0 0 0 -0.026525133360790275 -0.064873899965821075 -0.016578845870536346 0 -0.016578845870536346 0.02805074030645982 0 0 0 -0.0092057899148403066 -0.047694307850625457 -0.047309037995762193 0 -0.047309037995762193 0.069138060275126034 0 0 0 0.0053609381061251356 -0.067212798517776826 -0.033532469583313143 0 -0.033532469583313143 0.026197997070428802 0 0 0 -0.010253700361837082 -0.068231837270068929 -0.020250827620241718 0 -0.020250827620241718 0.04808811187624773 0 0 0 -0.0050359313484553136 -0.064707767725699555 -0.02744200499103791 0 -0.02744200499103791 0.023102573948611094 0 0 0 -0.01040129844427215 -0.042145895870903172 -0.00046487944409909568 0 -0.00046487944409909568 0.073532772576459848 0 0 0 0.007846719176389183 -0.041827570716419182 -0.014864930626760309 0 -0.014864930626760309 0.036215774612522456 0 0 0 -0.001402949025974265 -0.17983837229242777 0.0011738362069343743 0 0.0011738362069343743 0.00087643977525031502 0 0 0 -0.044740483129294295 -0.33099448376069907 -0.0046048574971925488 0 -0.0046048574971925488 0.0054509372663984479 0 0 0 -0.081385886623575154 -0.031565939060621079 -0.013706160191807842 0 -0.013706160191807842 0.041211338994734226 0 0 0 0.0024113499835282659 -0.034508430576151827 -0.0019127370367448826 0 -0.0019127370367448826 0.087601048313901253 0 0 0 0.013273154434437329 -0.10615825226329029 0.0024214096031679178 0 0.0024214096031679178 0.013100070732795621 0 0 0 -0.023264545382623708 -0.05139077936245029 0.00217998839930516 0 0.00217998839930516 -0.018286773281317635 0 0 0 -0.017419388160941983 -0.074098367394422049 -0.014424101310713866 0 -0.014424101310713866 -0.0080608744555943773 0 0 0 -0.020539810462504138 -0.056180846081362319 -0.0052565607100326043 0 -0.0052565607100326043 -0.016451114978496412 0 0 0 -0.018157990264964678 -0.039983809681812928 -0.06688420786424551 0 -0.06688420786424551 0.13429230184458885 0 0 0 0.023577123040693947 -0.13876491778001226 -0.0009592572185781259 0 -0.0009592572185781259 -0.0063055938446589105 0 0 0 -0.036267627906167804 -0.13077440950043409 -0.0021409012285215981 0 -0.0021409012285215981 -0.0035396401401802877 0 0 0 -0.033578512410153596 -0.16856537752812067 -0.0093092445456331545 0 -0.0093092445456331545 -0.0036578687677227828 0 0 0 -0.043055811573960871 -0.191408744520215 -0.011106140450410905 0 -0.011106140450410905 -0.0095883891939720842 0 0 0 -0.050249283428546745 -0.14584992722879597 -0.011017005375419098 0 -0.011017005375419098 0.0013422064953796387 0 0 0 -0.036126930183353889 -0.040137043551639384 0.10789344144126456 0 0.10789344144126456 0.13956920551074692 0 0 0 0.024858040489776911 -0.0092851195292741329 -0.020264762688916416 0 -0.020264762688916416 0.043805215563118116 0 0 0 0.0086300240084610236 -0.015624437572292595 -0.011013032757740571 0 -0.011013032757740571 2.5950886540608564e-05 0 0 0 -0.0038996216714379823 -0.087255026776730971 0.0013422233665915384 0 0.0013422233665915384 -0.0043748617324899791 0 0 0 -0.022907472127305241 -0.086934050050956793 -0.0095326580441257303 0 -0.0095326580441257303 0.059793857171830986 0 0 0 -0.0067850482197814796 -0.11788639322933532 0.0040783227286361502 0 0.0040783227286361502 -0.00078121986707807567 0 0 0 -0.029666903274103387 -0.0045423528978231209 0.038790614800884526 0 0.038790614800884526 0.042013846699876733 0 0 0 0.0093678734505132644 -0.056128318691128845 0.0043563582375852235 0 0.0043563582375852235 -0.0183895827285066 0 0 0 -0.018629475354908859 -0.044153575149353537 -0.022723350081434224 0 -0.022723350081434224 -0.0082123301328450721 0 0 0 -0.01309147632054964 0.032282507596783243 -0.088332343197692995 0 -0.088332343197692995 0.1105964545751567 0 0 0 0.035719740542985011 -0.25261552569428214 0.024708800337649106 0 0.024708800337649106 0.0018613693557334443 0 0 0 -0.062688539084637229 -0.044631440347845885 0.0019404777103242939 0 0.0019404777103242939 -0.018252494083087205 0 0 0 -0.015720983607733274 -0.096190530618858253 -0.0021514455187702564 0 -0.0021514455187702564 -0.024173887459651554 0 0 0 -0.030091104519627446 -0.10740153337848207 -0.0079166729954034312 0 -0.0079166729954034312 -0.02965489313855459 0 0 0 -0.034264106629259161 -0.050830175551183104 0.010826073626154484 0 0.010826073626154484 0.018844241341488356 0 0 0 -0.0079964835524236923 -0.14305736162032934 0.0026815838183880669 0 0.0026815838183880669 0.0025026891211233915 0 0 0 -0.035138668124801486 -0.23434785725641991 -0.013550234166822717 0 -0.013550234166822717 0.0095622668652030618 0 0 0 -0.056196397597804232 -0.010208731166994944 0.031136780852559331 0 0.031136780852559331 0.091412852046531157 0 0 0 0.020301030219883831 -0.052057504002661625 -0.017866471132794826 0 -0.017866471132794826 -0.0032752446674750857 0 0 0 -0.013833187167534122 -0.038476308443088414 0.0045367413852725469 0 0.0045367413852725469 0.077809437168901985 0 0 0 0.0098332821814533511 -0.041677830985705183 -0.026121141897921623 0 -0.026121141897921623 0.024874682174183871 0 0 0 -0.0042007872028802795 -0.050673689480124059 0.0033278158604245905 0 0.0033278158604245905 0.039966262830532728 0 0 0 -0.0026768566623978085 -0.056249367090752136 0.0037099068774901506 0 0.0037099068774901506 0.0076063231810423841 0 0 0 -0.012160760977427434 -0.046444380775473436 -0.00099450369169859889 0 -0.00099450369169859889 -0.023134141747237973 0 0 0 -0.017394630630677851 -0.077843811593272055 -0.00090889810630254142 0 -0.00090889810630254142 0.0030429285438644017 0 0 0 -0.018700220762351914 -0.062713884297837655 -0.030671141744416611 0 -0.030671141744416611 0.16590934734563423 0 0 0 0.025798865761949133 -0.065409460154811264 -0.031497093449237151 0 -0.031497093449237151 0.15415609147240386 0 0 0 0.022186657829398132 -0.048739188995372773 -0.028751197255978855 0 -0.028751197255978855 0.00078121654760643366 0 0 0 -0.01198949311194164 -0.040965987705503415 -0.026365615036648804 0 -0.026365615036648804 1.0385273575774789e-05 0 0 0 -0.010238900607981938 -0.022857878217023453 0.044957137614318299 0 0.044957137614318299 0.052695816639381832 0 0 0 0.0074594846055899833 -0.032115558430576119 0.04374083312154875 0 0.04374083312154875 0.05134610467474765 0 0 0 0.0048076365610427718 -0.023769200091903198 0.053493040291304778 0 0.053493040291304778 0.029466213111509099 0 0 0 0.0014242532549013642 0.012724125591055513 0.052876547360187098 0 0.052876547360187098 0.03905374123825478 0 0 0 0.012944466707327518 -0.049124812109989098 0.0024532170959595712 0 0.0024532170959595712 -0.016375137674480015 0 0 0 -0.016374987446117276 -0.035790922503799394 0.0043796887489730985 0 0.0043796887489730985 0.10011189669321385 0 0 0 0.016080243547353545 -0.04442543223156277 0.001039187639831185 0 0.001039187639831185 0.064523421926568625 0 0 0 0.0050244974237514256 -0.10071283502146355 -0.022039142713630278 0 -0.022039142713630278 -0.0015252329035915224 0 0 0 -0.025559516981263797 -0.11622966912332322 -0.0093766898551189692 0 -0.0093766898551189692 -0.00069743522702114813 0 0 0 -0.029231776087586092 -0.18824090010033745 0.020583757962503224 0 0.020583757962503224 -0.0016014192525539706 0 0 0 -0.047460579838222716 -0.032958188580298656 0.029111827419451709 0 0.029111827419451709 0.043470352201611176 0 0 0 0.002628040905328137 -0.027395438671781423 0.032036773954193701 0 0.032036773954193701 0.0559506616733077 0 0 0 0.0071388057503815744 -0.050638725487083827 0.0047183792449692549 0 0.0047183792449692549 -0.0097669970329812006 0 0 0 -0.015101430630016264 -0.051973980091557452 0.0032946857844716858 0 0.0032946857844716858 -0.018608021447805261 0 0 0 -0.017645500384840675 -0.21301392084614182 -0.017766164126266484 0 -0.017766164126266484 -0.0071087639839534367 0 0 0 -0.055030671207523814 -0.14239099450154058 0.0036949238230832709 0 0.0036949238230832709 -0.0016310149814961761 0 0 0 -0.036005502370759175 -0.13078221848963878 0.0052753722282833683 0 0.0052753722282833683 -0.0030062125204054768 0 0 0 -0.033447107752511057 -0.019677204156176131 0.028917090704948523 0 0.028917090704948523 0.10226529155913866 0 0 0 0.020647021850740632 -0.04037283937357794 -0.011918032670786727 0 -0.011918032670786727 0.0032165895516369503 0 0 0 -0.0092890624554851087 -0.050712644973851535 -0.0035587762444213009 0 -0.0035587762444213009 -0.021042472368118875 0 0 0 -0.017938779335492604 -0.036966985467615066 0.0011895902657076442 0 0.0011895902657076442 -0.010457326270247355 0 0 0 -0.011856077934465612 -0.079593218075443506 -0.036257701370616235 0 -0.036257701370616235 0.0061583506780542585 0 0 0 -0.018358716849347312 -0.092193616565140329 -0.020436729214439273 0 -0.020436729214439273 -0.00035203948959677822 0 0 0 -0.023136414013684291 -0.053021996303808286 -0.018864510461894579 0 -0.018864510461894579 0.038496469075325959 0 0 0 -0.0036313818071206511 -0.022675344958143717 0.023420773601720533 0 0.023420773601720533 0.026420958886459456 0 0 0 0.00093640348207893465 -0.10914473954399156 0.072610742743264511 0 0.072610742743264511 0.0039399575650154728 0 0 0 -0.026301195494744134 -0.12749155053412728 -0.0043821790981311004 0 -0.0043821790981311004 0.0049182022427537442 0 0 0 -0.030643337072843418 -0.20632101120840451 0.0062692674209756799 0 0.0062692674209756799 0.013675551812895703 0 0 0 -0.048161364848877342 -0.0059744875938185782 -0.0039185717865779512 0 -0.0039185717865779512 -0.011527462510630526 0 0 0 -0.0043754875261123871 -0.011278493911919873 -0.0094928796819723216 0 -0.0094928796819723216 -0.0087170857058198603 0 0 0 -0.0049988949044348918 -0.1169023529083075 0.0053487519234881736 0 0.0053487519234881736 -0.00046016360982728544 0 0 0 -0.029340629129533669 -0.10355141065067701 0.0032194708171400382 0 0.0032194708171400382 -0.001900462680651735 0 0 0 -0.026362968332832182 -0.066729722702553826 -0.0094767412846240712 0 -0.0094767412846240712 0.022753553729855602 0 0 0 -0.010994042243174518 -0.14220688518063895 0.0083458202577573956 0 0.0083458202577573956 0.0028504841361206568 0 0 0 -0.034839100261129546 -0.15341745013011338 -0.024237998970769739 0 -0.024237998970769739 -0.0088846957884021194 0 0 0 -0.040575536479628874 -0.001196098779453177 0.001908842054319293 0 0.001908842054319293 -0.0022372856418224393 0 0 0 -0.00085834610531890395 -0.080618898896266833 0.080950736857126171 0 0.080950736857126171 0.010461486364209183 0 0 0 -0.017539353133014579 -0.052561700198261979 0.0028167680063976232 0 0.0028167680063976232 -0.01752119813031517 0 0 0 -0.017520724582144289 0.021627045345872231 0.022093139938124118 0 0.022093139938124118 0.091890171377227547 0 0 0 0.028379304180774945 0.015571123724723992 0.046548978247899331 0 0.046548978247899331 0.141980110313571 0 0 0 0.039387808509573741 -0.19209220068346264 0.024625991488860577 0 0.024625991488860577 0.036375832277972614 0 0 0 -0.038929092101372499 -0.015449950583863475 0.04815944150102075 0 0.04815944150102075 0.14737580978110554 0 0 0 0.032981464799310495 -0.00038422400570400916 0.040533762725965518 0 0.040533762725965518 0.09908908107625275 0 0 0 0.024676214267637164 -0.092625764199169291 0.0037054629208295442 0 0.0037054629208295442 0.0020601766043760183 0 0 0 -0.022641396898698332 -0.071244496021221196 -0.0011833804752551871 0 -0.0011833804752551871 -0.0039175294411842032 0 0 0 -0.018790506365601319 -0.1613509918193492 0.0549214446440357 0 0.0549214446440357 0.018016761611035825 0 0 0 -0.035833557552078066 -0.085799442355249889 -0.024021867707946246 0 -0.024021867707946246 0.075669345712725711 0 0 0 -0.0025325241606310722 -0.043873018442434859 0.028350250610585964 0 0.028350250610585964 0.15609658609319829 0 0 0 0.028055891912690832 -0.056949795785526197 -0.030162977960217024 0 -0.030162977960217024 0.0015582625263437233 0 0 0 -0.013847883314795667 -0.14492669767165478 -0.0079556669911970967 0 -0.0079556669911970967 0.0051982186617018922 0 0 0 -0.034932119752488222 -0.24709082402496113 0.015678202817914821 0 0.015678202817914821 0.016083300357055963 0 0 0 -0.057751880916976306 -0.054701823985016773 0.027674334005468371 0 0.027674334005468371 -0.0075653224493081872 0 0 0 -0.015566786608581573 -0.03052383708443418 -0.030064018545648441 0 -0.030064018545648441 0.046333665265832602 0 0 0 0.0039524570453494112 -0.054116126730489211 -0.021417317135183245 0 -0.021417317135183245 0.029226714569523859 0 0 0 -0.0062223530402413241 -0.013596355810150951 0.024370209679854787 0 0.024370209679854787 0.028812762687824234 0 0 0 0.0038041017194183346 -0.14076296655515258 -0.022858513843112559 0 -0.022858513843112559 -0.015612894492540851 0 0 0 -0.03909396526192338 -0.13026429065119907 0.0032772993229571445 0 0.0032772993229571445 0.0036646972092768682 0 0 0 -0.031649898360480572 -0.17917734287788514 -0.0092424509080624717 0 -0.0092424509080624717 0.012219940905641803 0 0 0 -0.041739350493060802 -0.049649543484422631 -0.035985262599362244 0 -0.035985262599362244 0.06343127203285559 0 0 0 0.0034454321371082675 -0.10649067829132637 -0.00052852181060314418 0 -0.00052852181060314418 0.0060382286802891927 0 0 0 -0.025113112402759333 -0.066960605218584282 0.0017962457324813188 0 0.0017962457324813188 0.12386298314785671 0 0 0 0.014225594482318102 -0.047395283514206257 -0.0016025922802067106 0 -0.0016025922802067106 -0.015796860172992692 0 0 0 -0.015798035921799739 -0.042978276042633823 -0.016293455519493405 0 -0.016293455519493405 0.024135947545415926 0 0 0 -0.0047105821243044188 -0.15094234112280441 0.0022941621451334493 0 0.0022941621451334493 0.0028058958375788146 0 0 0 -0.037034111321306358 -0.25179064926788086 -0.010464146479812864 0 -0.010464146479812864 0.006474606314689102 0 0 0 -0.061329010738298023 -0.10335839601442821 -0.025894059264343183 0 -0.025894059264343183 0.0089494766378974133 0 0 0 -0.023602229844132752 -0.063447217008152507 -0.032030976118587434 0 -0.032030976118587434 0.044305090667848157 0 0 0 -0.0047855315850760249 -0.050220779174100671 -0.025130637397233618 0 -0.025130637397233618 0.079564168555582571 0 0 0 0.0073358473453704609 -0.086155184707437382 0.00023721828636223685 0 0.00023721828636223685 0.0065315549066377598 0 0 0 -0.019905907450199878 -0.058830947727951111 -0.027724272777997966 0 -0.027724272777997966 0.0065560233450777661 0 0 0 -0.013068731095718378 -0.080345568055793848 -0.031727168081664647 0 -0.031727168081664647 0.0017704922808606804 0 0 0 -0.019643768943733209 -0.099846156205699144 0.00048001336885238055 0 0.00048001336885238055 0.0058136791781409902 0 0 0 -0.02350811925688949 -0.056783623080343265 -0.031062924412943366 0 -0.031062924412943366 0.0022424448611677583 0 0 0 -0.013635294554793814 -0.048990086524630966 8.5361121675336634e-05 0 8.5361121675336634e-05 -0.022156302890582926 0 0 0 -0.017786597353803477 -0.14946193260582219 -0.00038020202399940972 0 -0.00038020202399940972 0.0020752617628262415 0 0 0 -0.036846667710748959 -0.25996476585346551 -0.00042153107357256747 0 -0.00042153107357256747 0.0030404155597336668 0 0 0 -0.064231087573432877 -0.061795907892624041 -0.0122508545227904 0 -0.0122508545227904 -0.0038246349421083847 0 0 0 -0.016405135708683211 0.0061191327708137733 0.022396473234045811 0 0.022396473234045811 0.11302741454942478 0 0 0 0.029786636830059554 -0.0058245667411493951 0.03000491185648424 0 0.03000491185648424 0.086626971247137696 0 0 0 0.020200601126497242 -0.04313215377333357 -0.0096541349569271104 0 -0.0096541349569271104 -0.0035226219655353219 0 0 0 -0.011663693934717223 -0.0077127134729844116 0.01754597517082095 0 0.01754597517082095 0.13988949226698644 0 0 0 0.03304419469849984 -0.022890620151680086 -0.024030796945637645 0 -0.024030796945637645 0.024570248858331034 0 0 0 0.00041990717666273714 -0.07050028328209984 -0.026884393922274097 0 -0.026884393922274097 0.02187257284171773 0 0 0 -0.012156927610095569 0.0047507570896173634 -0.0026289313424753568 0 -0.0026289313424753568 0.098758996201695037 0 0 0 0.025877438322828183 -0.0043707371978398135 -0.00024432327436413326 0 -0.00024432327436413326 0.18476746484201967 0 0 0 0.045099181911045005 -0.1738334461274037 -0.013508453827301314 0 -0.013508453827301314 0.033862088887461006 0 0 0 -0.034992839309985702 -0.099593805993231949 0.0019300127930796818 0 0.0019300127930796818 -0.0037768688044700349 0 0 0 -0.025842668699425503 -0.050530441683842027 0.0078461316869067495 0 0.0078461316869067495 -0.0021639584801246324 0 0 0 -0.013173600040991653 -0.11093926174115509 0.061122746235528602 0 0.061122746235528602 -0.0052622005163431851 0 0 0 -0.02905036556437457 -0.017773653806014866 -0.032692277657200397 0 -0.032692277657200397 0.029262546880456153 0 0 0 0.0028722232686101967 -0.044839410501812497 0.00040681010742986434 0 0.00040681010742986434 -0.019358548460664395 0 0 0 -0.016049489740619222 -0.088008612369452038 -0.0025062542886479522 0 -0.0025062542886479522 0.019999081548906159 0 0 0 -0.017002382705136466 0.011219434187694777 0.01815510965395388 0 0.01815510965395388 0.087900404124092724 0 0 0 0.024779959577946542 -0.06992741003549921 -0.011047483339819281 0 -0.011047483339819281 -0.022600928255831224 0 0 0 -0.023132084572832605 -0.039822684233498315 -0.010541378530823931 0 -0.010541378530823931 0.010018727723854953 0 0 0 -0.0074509891274109202 -0.030156900465225636 -0.017960500189236422 0 -0.017960500189236422 0.01283142463587069 0 0 0 -0.0043313689573387226 -0.0078071929759884195 0.0042560593843640748 0 0.0042560593843640748 0.05718056972245722 0 0 0 0.0123433441866172 0.0007521756448873318 -0.00082970157176853743 0 -0.00082970157176853743 0.095550837576856229 0 0 0 0.024075753305436043 0.00098945514484216623 -0.005695087500941165 0 -0.005695087500941165 0.17360895107969898 0 0 0 0.043649601556135231 -0.012185551242298136 -0.010719017828163535 0 -0.010719017828163535 0.1144664132619059 0 0 0 0.025570215504901912 -0.041192024953192075 0.023188355899630361 0 0.023188355899630361 0.049064336417769208 0 0 0 0.0019680778661442938 -0.021822405451702012 -0.03295949738783191 0 -0.03295949738783191 -5.2491985970848365e-05 0 0 0 -0.0054687243594181839 -0.0018569302023842514 -0.062586818963126137 0 -0.062586818963126137 0.058698386615310051 0 0 0 0.01421036410323143 -0.069691320918054467 -0.024103920643349652 0 -0.024103920643349652 0.005533533390476908 0 0 0 -0.016039446881894459 -0.11599443989110717 0.0031052372404639823 0 0.0031052372404639823 0.0024177524699167119 0 0 0 -0.028394171855297606 -0.10183357710019775 0.0055289853809397278 0 0.0055289853809397278 0.0039158956262542732 0 0 0 -0.024479420368485855 -0.17673726674580315 0.0092033628876405371 0 0.0092033628876405371 0.070418739385224582 0 0 0 -0.026579631840144641 -0.021629107132212666 -0.0017514823122776746 0 -0.0017514823122776746 0.03757937105230913 0 0 0 0.0039875659800240326 -0.020632582862357585 -0.0093572111580214057 0 -0.0093572111580214057 0.080350779117652982 0 0 0 0.014929549063823822 -0.049328104611454947 0.0085126253818834634 0 0.0085126253818834634 0.0077674659845378023 0 0 0 -0.010390159656729278 -0.00040238753930954552 0.00063597795998654449 0 0.00063597795998654449 -0.010451199725745042 0 0 0 -0.0027133968162637023 -0.058464006721522223 0.0019905299989196748 0 0.0019905299989196748 -0.010699024531369023 0 0 0 -0.017290757813222809 -0.060480748063424239 -0.031271522323755879 0 -0.031271522323755879 0.019280657872048967 0 0 0 -0.010300022547843846 -0.044350189379758147 0.00056913003040285823 0 0.00056913003040285823 -0.022656689155123928 0 0 0 -0.016751719633720512 -0.034930024416683247 0.066772298106292149 0 0.066772298106292149 0.012369960033207228 0 0 0 -0.0056400160958689494 -0.036263430332705848 0.0520720195600064 0 0.0520720195600064 0.022830603325522336 0 0 0 -0.003358206751795656 -0.037296213261880207 -0.033792052633978553 0 -0.033792052633978553 0.0053622593806348928 0 0 0 -0.0079834884703112174 0.023238060627977716 -0.12306003836611155 0 -0.12306003836611155 0.21548149595891106 0 0 0 0.05967988914672219 -0.045659864603533475 0.001048388068115388 0 0.001048388068115388 -0.021045595617742351 0 0 0 -0.01667636505531896 -0.064149090128399866 -0.013467438629571338 0 -0.013467438629571338 0.003973851709298426 0 0 0 -0.015043809604775249 0.0022685493660781209 0.0010064026414655647 0 0.0010064026414655647 0.00041888290216141044 0 0 0 0.00067185806705993834 -0.013925810989761978 0.0051820571613712119 0 0.0051820571613712119 0.19693385606741831 0 0 0 0.045752011269413639 0.0079366095034754478 0.0019967647352814311 0 0.0019967647352814311 0.17628565243552863 0 0 0 0.046055565484751239 0.0037993756790648536 -0.0044367321841172203 0 -0.0044367321841172203 0.091614607672100945 0 0 0 0.023853495837791616 0.0035608050221105358 -0.0016414987011021524 0 -0.0016414987011021524 0.00088667052138369229 0 0 0 0.0011118688858742232 -0.0004764930809629619 0.0012104006923663313 0 0.0012104006923663313 0.0024274571587440965 0 0 0 0.00048774101944517261 -0.010492376528533853 -0.0077695516793167153 0 -0.0077695516793167153 0.10883982787716384 0 0 0 0.024586862837157497 -0.00050437285669957532 -0.0019263375426477047 0 -0.0019263375426477047 0.0038097425652043881 0 0 0 0.00082634242712620321 -0.048237256048908224 -0.00080225608790912551 0 -0.00080225608790912551 -0.021146814768801703 0 0 0 -0.017346017704427483 -0.050539251282532387 -0.028714526476969926 0 -0.028714526476969926 -0.0049076097897845644 0 0 0 -0.013861715268079215 -0.099273035520984682 0.0030294710663004848 0 0.0030294710663004848 0.010703205633792234 0 0 0 -0.02214245747179816 -0.063948067550461452 -0.035088406964379204 0 -0.035088406964379204 0.0069632774665988606 0 0 0 -0.014246197520965675 -0.058489173781033098 -0.0014791945756040133 0 -0.0014791945756040133 -0.020578639687788617 0 0 0 -0.019766953367205436 -0.033729465960016691 0.041104243001599983 0 0.041104243001599983 0.0028819539798332627 0 0 0 -0.0077118779950458016 -0.030953856538416757 -0.034216441350449545 0 -0.034216441350449545 0.01311170245472093 0 0 0 -0.0044605385209240955 -0.0091405389685377259 -0.0096444932167081832 0 -0.0096444932167081832 0.078579862714735604 0 0 0 0.01735983093654947 -0.019724410297201261 0.0020108668132755581 0 0.0020108668132755581 0.15043559382204785 0 0 0 0.032677795881211641 -0.079603243812258709 0.011295138362866303 0 0.011295138362866303 0.075897729306197093 0 0 0 -0.00092637862651541447 -0.090552712716743172 -0.0037692204154017722 0 -0.0037692204154017722 0.011502611105743521 0 0 0 -0.019762525402749836 -0.041178765819150254 -0.016517099551280751 0 -0.016517099551280751 0.057045478295599805 0 0 0 0.0039666781191124434 -0.042074397568942878 0.0085270615282194429 0 0.0085270615282194429 0.11530518920915833 0 0 0 0.018307697910053849 -0.045029816262214806 -0.043972280250555995 0 -0.043972280250555995 0.013208308993616691 0 0 0 -0.0079553768171496397 -0.045718243350547826 0.0081433602183247963 0 0.0081433602183247963 -0.00065316294859177337 0 0 0 -0.011592851574784893 -0.033153666705806439 -0.038003016382821331 0 -0.038003016382821331 0.025038174595370943 0 0 0 -0.0020288730276086797 -0.048116614054293683 0.040856919374566925 0 0.040856919374566925 0.0022224039862042133 0 0 0 -0.011473552517022201 -0.043288695615808448 -0.00065629587051382887 0 -0.00065629587051382887 0.037640293998986385 0 0 0 -0.0014121004042055296 -0.028995561838217776 -0.0053075633005135181 0 -0.0053075633005135181 0.04239420532874727 0 0 0 0.0033496608726323318 -0.07725102973223745 -8.1112968081890197e-05 0 -8.1112968081890197e-05 -0.0045223174846715231 0 0 0 -0.020443336804227257 -0.071008126206202893 -0.014673635549188324 0 -0.014673635549188324 0.052686513488387793 0 0 0 -0.0045804031794538028 0.0093982368335674971 -0.037814618363272878 0 -0.037814618363272878 0.027261267444503634 0 0 0 0.0091648760695178244 -0.048026139404734429 -0.030161391268900106 0 -0.030161391268900106 -0.0019143414507971426 0 0 0 -0.012485120213882921 0.04194920791283907 -0.026202279495946945 0 -0.026202279495946945 0.036141995058883714 0 0 0 0.019522800742930557 -0.029327968580633496 -0.0049262082052508038 0 -0.0049262082052508038 0.081189687084166184 0 0 0 0.012965429625883179 -0.044086401928139257 -0.0063291371318384693 0 -0.0063291371318384693 0.0366368192127422 0 0 0 -0.001862395678849188 -0.11151410161218255 0.0022169732661844604 0 0.0022169732661844604 -0.0040555618705859359 0 0 0 -0.028892415870692138 -0.078621440779746005 -0.016604502327368278 0 -0.016604502327368278 0.057875940237953089 0 0 0 -0.0051863751354482707 -0.079251397718420505 -0.014966787071637476 0 -0.014966787071637476 0.070240098881262258 0 0 0 -0.0022528247092895859 0.020208520801995478 0.074185356102065003 0 0.074185356102065003 0.24340396900472688 0 0 0 0.065903122451680646 -0.045876891726425131 -0.027461285874586364 0 -0.027461285874586364 0.27828784411315499 0 0 0 0.058102738096682413 -0.0018227364980103467 0.019002389064131393 0 0.019002389064131393 0.10706734876735613 0 0 0 0.026311153067336779 -0.051337785817006355 0.025490657225165581 0 0.025490657225165581 0.065306867158012871 0 0 0 0.0034922703352516515 -0.067276232909712963 -0.01173832969351902 0 -0.01173832969351902 0.00023205074370302725 0 0 0 -0.016761045541502595 -0.077807774215730138 0.00040840387364201973 0 0.00040840387364201973 -0.0081340249999507785 0 0 0 -0.021485449803920219 -0.13631779658475046 -0.01079696783229489 0 -0.01079696783229489 -0.020061902238856601 0 0 0 -0.03909492470590175 -0.11272899218731111 -0.0024546862962419366 0 -0.0024546862962419366 -0.014260407619468465 0 0 0 -0.031747349951694891 -0.036585217892700396 0.0050375064293800773 0 0.0050375064293800773 -0.012758087211721454 0 0 0 -0.012335826276105461 -0.1623414709840115 -0.014637751162928266 0 -0.014637751162928266 -0.0040982257039109691 0 0 0 -0.04160992417198061 -0.13962087385894587 -0.016820903020287228 0 -0.016820903020287228 -0.033154762219197907 0 0 0 -0.043193909019535945 -0.2025802376391185 0.011245674960829299 0 0.011245674960829299 -0.0021096586725150232 0 0 0 -0.051172474077908356 -0.17819807940847365 0.01261603756485293 0 0.01261603756485293 -0.038706368421207907 0 0 0 -0.054226111957420386 -0.076376935841190971 -0.029739654250522995 0 -0.029739654250522995 0.030825145931820785 0 0 0 -0.011387947477342494 -0.042897854691610331 0.0027878323549636874 0 0.0027878323549636874 -0.019207344707635868 0 0 0 -0.015526299849811544 0.017134623265266824 0.036492455399746326 0 0.036492455399746326 0.043183830478007224 0 0 0 0.015079613435818096 -0.049408427679748679 0.0085997810318826085 0 0.0085997810318826085 0.10324258349785198 0 0 0 0.013458538954525867 -0.033679196402868525 0.037604855812973903 0 0.037604855812973903 0.099379994119145804 0 0 0 0.016425199429069285 -0.048082640062533877 -0.046828796756667915 0 -0.046828796756667915 0.043166631727193483 0 0 0 -0.0012290020838351401 -0.0046391012923824538 -0.00030342113058168252 0 -0.00030342113058168252 0.015474626418819956 0 0 0 0.0027088812816092648 0.0013403199185384105 -0.0062411046751846833 0 -0.0062411046751846833 0.047469514999186953 0 0 0 0.012202458729431339 0.0019679527594416968 0.0057265851371033349 0 0.0057265851371033349 0.095354564879657905 0 0 0 0.024330629409774564 -0.0036103167634781888 -0.00035718274609664036 0 -0.00035718274609664036 0.0087919793122600617 0 0 0 0.0012954156371956346 -0.014757605847689099 0.0061535800665515339 0 0.0061535800665515339 0.014784216759115593 0 0 0 6.6527278564307291e-06 -0.015484754665113509 -0.014241813235648604 0 -0.014241813235648604 0.032886363955359377 0 0 0 0.0043504023225613975 -0.15433799624415928 -0.025029752168490342 0 -0.025029752168490342 -0.051352067582416637 0 0 0 -0.051422515956643988 -0.19194321416545457 0.022275751559553095 0 0.022275751559553095 -0.063863960155013513 0 0 0 -0.063951793580117003 -0.219201416547608 0.022436095656620737 0 0.022436095656620737 -0.029971037283476706 0 0 0 -0.062293113457771179 -0.1796305112579169 -0.024112411257556098 0 -0.024112411257556098 -0.02462552960756946 0 0 0 -0.05106401021637158 -0.041463684895435449 -0.04288077894213671 0 -0.04288077894213671 0.016495264837217749 0 0 0 -0.006242105014554411 -0.077448033055249471 8.8606040429747845e-05 0 8.8606040429747845e-05 0.0037080832071337277 0 0 0 -0.018434987462028922 -0.054720494967166633 -0.031974732995277866 0 -0.031974732995277866 0.0074968285354438668 0 0 0 -0.01180591660793065 -0.051501306698079841 -0.031574727127178612 0 -0.031574727127178612 -0.0028459601283635783 0 0 0 -0.013586816706610882 -0.06937255142780735 -0.0010426230474695677 0 -0.0010426230474695677 0.0030274098972953856 0 0 0 -0.016586285382627998 -0.05426520103419933 0.0031120454357206622 0 0.0031120454357206622 -0.0081480757912071426 0 0 0 -0.015603319206351602 -0.054110641160727571 0.0037299536590436437 0 0.0037299536590436437 -0.0076399416556691413 0 0 0 -0.015437645704099168 -0.074381650016852013 -0.058332217391510843 0 -0.058332217391510843 0.17887124749169514 0 0 0 0.026122399368710761 0.010173054050822722 -0.015604732959382778 0 -0.015604732959382778 0.4973981149671251 0 0 0 0.12689279225448694 -0.092902954559800355 -0.022199324552453992 0 -0.022199324552453992 0.020666643908820087 0 0 0 -0.01805907766274506 -0.031590094608304808 -0.0021709154305541226 0 -0.0021709154305541226 0.070376140643346186 0 0 0 0.0096965115087603304 -0.045662225146825053 -0.017802826836271102 0 -0.017802826836271102 0.039844607606597138 0 0 0 -0.001454404385057062 -0.056007939444238444 0.0055147949470592122 0 0.0055147949470592122 0.0094198836442441827 0 0 0 -0.011647013949998571 -0.027149119074120653 0.03211989953101746 0 0.03211989953101746 0.087066731288722554 0 0 0 0.014979403053650531 -0.034464253854451399 -0.016492897088731251 0 -0.016492897088731251 -0.0020119481238287662 0 0 0 -0.009119050494570291 0.0055340330058121501 -0.042947048533483037 0 -0.042947048533483037 0.082551685874654335 0 0 0 0.022021429720116587 -0.025189247425305206 -0.0080179880474301746 0 -0.0080179880474301746 0.029084340349260079 0 0 0 0.00097377323098879476 -0.052805143211239081 0.032464358827070772 0 0.032464358827070772 0.0046521479658272469 0 0 0 -0.012038248811353292 -0.032353814996757602 -0.032716165425721311 0 -0.032716165425721311 0.039870218600284613 0 0 0 0.001879100900881836 -0.025555840828500154 -0.032744463612608271 0 -0.032744463612608271 0.03209016320215996 0 0 0 0.0016335805934151182 -0.028983665724895136 -0.0044784735238810325 0 -0.0044784735238810325 -0.0057586424797138047 0 0 0 -0.0086855770511520825 -0.022481417401339271 -0.007541442341762683 0 -0.007541442341762683 0.097709121472811189 0 0 0 0.018806926017868014 -0.055352728013919154 -0.010546395049988569 0 -0.010546395049988569 -0.010047899680204836 0 0 0 -0.016350156923530999 -0.022190062264079116 -0.0082298116385486342 0 -0.0082298116385486342 -0.018726245029235589 0 0 0 -0.010229076823328812 -0.083934031326884859 0.001351444632805978 0 0.001351444632805978 -0.0092338057947148125 0 0 0 -0.02329195928039994 -0.076932199468092682 0.0019095335606767651 0 0.0019095335606767651 -0.011444082554697345 0 0 0 -0.022094070505697512 -0.079817465227699419 -0.0089143000845835832 0 -0.0089143000845835832 0.041943572311859197 0 0 0 -0.0094684732289600695 -0.070931750497067569 -0.027708377355747021 0 -0.027708377355747021 0.049898430351417167 0 0 0 -0.0052583300364126284 -0.067694995608922476 -0.0011476235789915573 0 -0.0011476235789915573 -0.0071414195726992521 0 0 0 -0.018709103795405455 -0.063047110618211014 0.0011880980976664516 0 0.0011880980976664516 0.0040475588981954275 0 0 0 -0.014749887930003897 -0.067031760760750264 -0.0008800501937593283 0 -0.0008800501937593283 0.0034060816275506903 0 0 0 -0.015906419783299854 -0.01318170465132823 0.008219147270910887 0 0.008219147270910887 -0.0055092915789582975 0 0 0 -0.0046727490575717012 -0.0049803733879594803 0.01018288937865669 0 0.01018288937865669 0.019694354656411894 0 0 0 0.0036784953171131174 -0.005175180219091538 -0.015380257051673119 0 -0.015380257051673119 0.050597087620798648 0 0 0 0.011355476850426857 -0.015506174623503621 -0.012903516393345638 0 -0.012903516393345638 0.018552907525141715 0 0 0 0.00076168322540953737 -0.023362287019082148 -0.056655819840648214 0 -0.056655819840648214 0.17755943437844657 0 0 0 0.038549286839841074 -0.0030964430859996561 0.020752382651588963 0 0.020752382651588963 0.078842323910192746 0 0 0 0.018936470206048828 -0.00122357416974328 -0.0036843792883707316 0 -0.0036843792883707316 -0.0010989634711178198 0 0 0 -0.000580634410215497 -0.0027793998545567744 -0.017782637474732965 0 -0.017782637474732965 0.039494849115739417 0 0 0 0.0091788623152958548 -0.0011683603624699224 0.0040530450479572266 0 0.0040530450479572266 0.0016725332676910121 0 0 0 0.00012604322630505038 -0.057591542057709333 0.043936884970361884 0 0.043936884970361884 -0.0027688854745022695 0 0 0 -0.015090106883052901 -0.036933322879940889 -0.03709974573117357 0 -0.03709974573117357 0.024140081778548872 0 0 0 -0.0031983102753478931 -0.030284195097509903 -0.039479610796395614 0 -0.039479610796395614 0.020721149994708199 0 0 0 -0.0023907612757002594 -0.072273318644475393 -0.013141995162786316 0 -0.013141995162786316 0.058290442987616063 0 0 0 -0.003495718914214874 0.0029303381704650633 0.013520831987570758 0 0.013520831987570758 0.061452587550082427 0 0 0 0.016095731430137761 -0.0016708099672664289 -0.00032768032810465142 0 -0.00032768032810465142 0.006520387361776514 0 0 0 0.0012123943486272992 -0.0029707505237426268 -0.00059418048133963453 0 -0.00059418048133963453 0.012402588749957033 0 0 0 0.0023579595565537126 0.00026321944913920703 -0.011753166148086525 0 -0.011753166148086525 0.02544017766337614 0 0 0 0.0064258492781292809 -0.033778126056937863 -0.0072295724105006787 0 -0.0072295724105006787 -0.015909944614551419 0 0 0 -0.01242201766787232 0.011722288769137446 -0.040067377112740332 0 -0.040067377112740332 0.011168811957772529 0 0 0 0.0057227751817275352 0.011402003376130884 -0.0010927166202050476 0 -0.0010927166202050476 0.098831715927141628 0 0 0 0.027558429825818284 0.013432779569217901 -0.0042299719055693408 0 -0.0042299719055693408 0.18592717385261803 0 0 0 0.049839988355459053 -0.048238433248993837 0.0050160909132512949 0 0.0050160909132512949 -0.011449328170104033 0 0 0 -0.014921940354774468 -0.091336308636549735 0.0472631748494593 0 0.0472631748494593 0.0026938564423453215 0 0 0 -0.022160613048551436 -0.10270767415945881 0.045955125251441076 0 0.045955125251441076 -0.0013348058119371231 0 0 0 -0.026010619992848927 -0.037251503121716108 -0.011194808088120345 0 -0.011194808088120345 -0.0098985263150193348 0 0 0 -0.011787507359183999 -0.066251242165547383 -0.0078940817518544787 0 -0.0078940817518544787 0.019152900917668469 0 0 0 -0.011774585311969721 -0.063217289282947717 -0.031941506892199711 0 -0.031941506892199711 0.0047145796792578895 0 0 0 -0.014625677400922393 -0.053028955729118449 -0.03803753807209373 0 -0.03803753807209373 0.024325450705235244 0 0 0 -0.0071758762559707943 -0.064380047677072394 0.046615670473765858 0 0.046615670473765858 -0.001901749847043277 0 0 0 -0.016570449381029029 -0.034821801050179957 -0.03726795556232132 0 -0.03726795556232132 0.024597997280134898 0 0 0 -0.0025559509425114868 -0.040113958497536961 -0.040153736130458029 0 -0.040153736130458029 0.018209985898510972 0 0 0 -0.0054759931497564418 -0.13311567546835568 -0.0044635316363068481 0 -0.0044635316363068481 -0.01405348246084194 0 0 0 -0.036792289482299415 -0.17367238877575109 -0.0093474469616514171 0 -0.0093474469616514171 -0.019795099197651468 0 0 0 -0.048366871993350651 -0.1605991763178494 -0.016642096825942448 0 -0.016642096825942448 -0.0018283635572459087 0 0 0 -0.040606884968773814 -0.12592997456224256 0.0015444737084732638 0 0.0015444737084732638 -0.0027429147857741115 0 0 0 -0.032168222337004157 -0.073744846553825932 -0.0089301789297531603 0 -0.0089301789297531603 0.028969292832112178 0 0 0 -0.011193888430428369 -0.083394692909858126 0.037504895331277543 0 0.037504895331277543 -0.006802850541833827 0 0 0 -0.022549385862922655 -0.027586056563428496 -0.031468785866050397 0 -0.031468785866050397 0.039301119039064414 0 0 0 0.0029287656189089795 -0.031476907590494152 -0.033418106878056492 0 -0.033418106878056492 0.030307134933996505 0 0 0 -0.00029244316412424531 -0.069545278986292258 -0.042049072177491542 0 -0.042049072177491542 0.010868124295031756 0 0 0 -0.014669288672815139 -0.039152868914001271 -0.01002807724928706 0 -0.01002807724928706 -0.011163544540676446 0 0 0 -0.012579103363669408 -0.04570483194238778 -0.018974680950477135 0 -0.018974680950477135 -0.0027248317380572096 0 0 0 -0.012107415920111247 -0.064239237476916705 -0.01543177033043458 0 -0.01543177033043458 0.020695760141395569 0 0 0 -0.010885869333880305 -0.11259478651638841 0.0026645975924352088 0 0.0026645975924352088 -0.0077348862929007695 0 0 0 -0.030082418202322291 -0.11468501662968086 0.077430020990766124 0 0.077430020990766124 0.022431634650268317 0 0 0 -0.023063345494853199 -0.079096064219057238 -0.037374178706165495 0 -0.037374178706165495 0.013550031496950332 0 0 0 -0.016386508180526782 -0.02554910073427169 0.045786449841534793 0 0.045786449841534793 0.042046571757403339 0 0 0 0.0041243677557828984 -0.045865703641010822 -0.028821188073774318 0 -0.028821188073774318 -0.0025464136221168832 0 0 0 -0.012103029315781985 -0.024485082830455696 0.070383111249187613 0 0.070383111249187613 0.015015946092932442 0 0 0 -0.0023672841843807024 -0.10374973587963804 0.0015410769987535544 0 0.0015410769987535544 0.0011558462563718425 0 0 0 -0.025648472405816535 -0.068656362764525705 -0.0059787980037905517 0 -0.0059787980037905517 0.013975122016189471 0 0 0 -0.013670310187084046 -0.067839674126523364 -0.037611193443785385 0 -0.037611193443785385 0.0026419951443390488 0 0 0 -0.016299419745546162 -0.0068492107923039738 0.0087907948057887042 0 0.0087907948057887042 0.058317333291453055 0 0 0 0.0128670306247873 -0.011560898396353436 -0.012359280612254109 0 -0.012359280612254109 0.11502927296912491 0 0 0 0.02586709364319284 -0.065949616930088203 -0.0031843783349065694 0 -0.0031843783349065694 0.0011965101292962486 0 0 0 -0.016188276700197974 0.0027133860476857841 -8.7768225316420256e-05 0 -8.7768225316420256e-05 0.0064258845606133264 0 0 0 0.0022848176520748886 -0.0069508067796277828 0.0011010842869958459 0 0.0011010842869958459 0.0034456492358803104 0 0 0 -0.0008762893859373122 -0.0012016638748899577 -0.016415718739538843 0 -0.016415718739538843 0.055136307919714689 0 0 0 0.013483661011206127 -0.0014640381490411691 -0.0076621001959069623 0 -0.0076621001959069623 0.056560855733850168 0 0 0 0.013774204396202139 -0.002880421982506931 0.0085655800669686144 0 0.0085655800669686144 0.11268282147406516 0 0 0 0.027450599872890002 0.0018739813459942578 -0.00012799463896118191 0 -0.00012799463896118191 0.0036856564341523068 0 0 0 0.0013899094450364746 0.0022222960197129105 0.016792923476351085 0 0.016792923476351085 0.11294456271537534 0 0 0 0.028791714683772174 -0.0056878216628373224 -0.0014454295220216462 0 -0.0014454295220216462 0.0014205936381070927 0 0 0 -0.0010668070061823354 -0.038291326196261244 -0.01202494842757984 0 -0.01202494842757984 -0.01420136260465088 0 0 0 -0.013123172200228017 -0.04267559898066875 -0.015183068529050207 0 -0.015183068529050207 0.020915424804200056 0 0 0 -0.0054400435441170902 -0.052761209333450687 -0.018315577258484123 0 -0.018315577258484123 0.015806710442018534 0 0 0 -0.0092386247228579688 -0.023471670877369989 -0.00291090877395217 0 -0.00291090877395217 -0.011799313564779645 0 0 0 -0.0088177461105374069 -0.023093810032756845 0.00025872772253043852 0 0.00025872772253043852 -0.003957469498197197 0 0 0 -0.0067628198827384689 -0.050803441280578038 0.031787968105360345 0 0.031787968105360345 0.13929390957627219 0 0 0 0.022122617073923542 -0.080936242126141797 -0.019684140251295751 0 -0.019684140251295751 0.020050781495768027 0 0 0 -0.015221365157593453 -0.08453441303952397 -0.031562438482360372 0 -0.031562438482360372 0.011380938919572814 0 0 0 -0.018288368529987789 -0.089900007635276641 -0.0021301347073625458 0 -0.0021301347073625458 0.0054408340843548064 0 0 0 -0.021114793387730479 -0.14051189493646365 0.057933325961640358 0 0.057933325961640358 0.0058388769964166087 0 0 0 -0.033668254485011762 -0.11443289723710648 0.078969358134463152 0 0.078969358134463152 0.051600944219453604 0 0 0 -0.015707988254412886 -0.04541981143473714 0.030173747224768524 0 0.030173747224768524 0.090102281857520866 0 0 0 0.011170617605695904 -0.030268249047379348 -0.011043780677639692 0 -0.011043780677639692 0.044311675983238707 0 0 0 0.0035108567339648955 -0.038633055784592363 -0.0089166541161234056 0 -0.0089166541161234056 0.047182073147672421 0 0 0 0.0021372543407700562 -0.0068506281035992933 0.044222635916434244 0 0.044222635916434244 0.096837822879887236 0 0 0 0.022496798694072007 -0.082564370460965431 -0.037839146437658067 0 -0.037839146437658067 0.023979637164435186 0 0 0 -0.014646183324132589 -0.096737793445046932 -0.027167355655485892 0 -0.027167355655485892 0.0022901790648909848 0 0 0 -0.023611903595038924 -0.042332041946564106 0.026742439465616281 0 0.026742439465616281 0.068381644189909108 0 0 0 0.0065124005608362262 -0.025780676738555157 0.033997415896894312 0 0.033997415896894312 0.05635519859395749 0 0 0 0.0076436304638505901 -0.056236381102120536 -0.02207604078059483 0 -0.02207604078059483 0.032537010977657821 0 0 0 -0.0059248425311156372 -0.066402772298786217 -0.011163693845821058 0 -0.011163693845821058 0.015864321262227976 0 0 0 -0.01263461275913956 -0.066185355739804469 -0.0097253909951610304 0 -0.0097253909951610304 0.028194969040181372 0 0 0 -0.0094975966749057672 -0.06779237997218257 -0.0072587386138940752 0 -0.0072587386138940752 0.046403344420090156 0 0 0 -0.0053472588880230792 -0.005578538599393168 0.022086594793193193 0 0.022086594793193193 0.14579769185432401 0 0 0 0.035054788313732876 -0.036395894511991322 -0.0073866976792200667 0 -0.0073866976792200667 0.00038872239814580212 0 0 0 -0.0090017930284613801 -0.10381613706665811 0.0053534496090697492 0 0.0053534496090697492 0.0010950700639484612 0 0 0 -0.025680266750677375 -0.050721774964553136 0.0036994164428750635 0 0.0036994164428750635 -0.017848434568021248 0 0 0 -0.017142552383143599 0.028374253297213992 0.022823612685058059 0 0.022823612685058059 0.084554611432854809 0 0 0 0.028232216182517034 -0.032171337083855944 -0.0080622559210468681 0 -0.0080622559210468681 -0.01227645067888794 0 0 0 -0.011111946940685957 -0.093619985152894394 -0.032029622817909831 0 -0.032029622817909831 0.0012472464262771599 0 0 0 -0.023093184681654347 -0.12448500747168356 -0.024661702001377926 0 -0.024661702001377926 0.006717314312663869 0 0 0 -0.029441923289754882 -0.048333110096212328 -0.015372516316163543 0 -0.015372516316163543 0.057121543247962592 0 0 0 0.0021971082879376214 
</DataArray>
<DataArray type="Float64" Name="cross_section_updated" format="ascii">
0.0010123421783898524 0.0010302419333955558 0.0010406364177908446 0.0010500797492386488 0.0010596229665182429 0.0010698278090966521 0.0010808014627810144 0.0010918636173126049 0.0011029123609804892 0.0011127502900949346 0.0020430311596407119 0.0021105978354668386 0.0021552518891807468 0.0021944177127235774 0.0022320331224957544 0.0022687184427358201 0.0023049625351454946 0.0023399800709605779 0.0023738050399578696 0.0024053768582396485 1 1 1 1 1 1 1 1 1 1 1 1 1 1 1 1 1 1 1 1 1 1 1 1 1 1 1 1 1 1 1 1 1 1 1 1 1 1 1 1 1 1 1 1 1 1 1 1 1 1 1 1 1 1 1 1 1 1 1 1 1 1 1 1 1 1 1 1 1 1 1 1 1 1 1 1 1 1 1 1 1 1 1 1 1 1 1 1 1 1 1 1 1 1 1 1 1 1 1 1 1 1 1 1 1 1 1 1 1 1 1 1 1 1 1 1 1 1 1 1 1 1 1 1 1 1 1 1 1 1 1 1 1 1 1 1 1 1 1 1 1 1 1 1 1 1 1 1 1 1 1 1 1 1 1 1 1 1 1 1 1 1 1 1 1 1 1 1 1 1 1 1 1 1 1 1 1 1 1 1 1 1 1 1 1 1 1 1 1 1 1 1 1 1 1 1 1 1 1 1 1 1 1 1 1 1 1 1 1 1 1 1 1 1 1 1 1 1 1 1 1 1 1 1 1 1 1 1 1 1 1 1 1 1 1 1 1 1 1 1 1 1 1 1 1 1 1 1 1 1 1 1 1 1 1 1 1 1 1 1 1 1 1 1 1 1 1 1 1 1 1 1 1 1 1 1 1 1 1 1 1 1 1 1 1 1 1 1 1 1 1 1 1 1 1 1 1 1 1 1 1 1 1 1 1 1 1 1 1 1 1 1 1 1 1 1 1 1 1 1 1 1 1 1 1 1 1 1 1 1 1 1 1 1 1 1 1 1 1 1 1 1 1 1 1 1 1 1 1 1 1 1 1 1 1 1 1 1 1 1 1 1 1 1 1 1 1 1 1 1 1 1 1 1 1 1 1 1 1 1 1 1 1 1 1 1 1 1 1 1 1 1 1 1 1 1 1 1 1 1 1 1 1 1 1 1 1 1 1 1 1 1 1 1 1 1 1 1 1 1 1 1 1 1 1 1 1 1 1 1 1 1 1 1 1 1 1 1 1 1 1 1 1 1 1 1 1 1 1 1 1 1 1 1 1 1 1 1 1 1 1 1 1 1 1 1 1 1 1 1 1 1 1 1 1 1 1 1 1 1 1 1 1 1 1 1 1 1 1 1 1 1 1 1 1 1 1 1 1 1 1 1 1 1 1 1 1 1 1 1 1 1 1 1 1 1 1 1 1 1 1 1 1 1 1 1 1 1 1 1 1 1 1 1 1 1 1 1 1 1 1 1 1 1 1 1 1 1 1 1 1 1 1 1 1 1 1 1 1 1 1 1 1 1 1 1 1 1 1 1 1 1 1 1 1 1 1 1 1 1 1 1 1 1 1 1 1 1 1 1 1 1 1 1 1 1 1 1 1 1 1 1 1 1 1 1 1 1 1 1 1 1 1 1 1 1 1 1 1 1 1 1 1 1 1 1 1 1 1 1 1 1 1 1 1 1 1 1 1 1 1 1 1 1 1 1 1 1 1 1 1 1 1 1 1 1 1 1 1 1 1 1 1 1 1 1 1 1 1 1 1 1 1 1 1 1 1 1 1 1 1 1 1 1 1 1 1 1 1 1 1 1 1 1 1 1 1 1 1 1 1 1 1 1 1 1 1 1 1 1 1 1 1 1 1 1 1 1 1 1 1 1 1 1 1 1 1 1 1 1 1 1 1 1 1 1 1 1 1 1 1 1 1 1 1 1 1 1 1 1 1 1 1 1 1 1 1 1 1 1 1 1 1 1 1 1 1 1 1 1 1 1 1 1 1 1 1 1 1 1 1 1 1 1 1 1 1 1 1 1 1 1 1 1 1 1 1 1 1 1 1 1 1 1 1 1 1 1 1 1 1 1 1 1 1 1 1 1 1 1 1 1 1 1 1 1 1 1 1 1 1 1 1 1 1 1 1 1 1 1 1 1 1 1 1 1 1 1 1 1 1 1 1 1 1 1 1 1 1 1 1 1 1 1 1 1 1 1 1 1 1 1 1 1 1 1 1 1 1 1 1 1 1 1 1 1 1 1 1 1 1 1 1 1 1 1 1 1 1 1 1 1 1 1 1 1 1 1 1 1 1 1 1 1 1 1 1 1 1 1 1 1 1 1 1 1 1 1 1 1 1 1 1 1 1 1 1 1 1 1 1 1 1 1 1 1 1 1 1 1 1 1 1 1 1 1 1 1 1 1 1 1 1 1 1 1 1 1 1 1 1 1 1 1 1 1 1 1 1 1 1 1 1 1 1 1 1 1 1 1 1 1 1 1 1 1 1 1 1 1 1 1 1 1 1 1 1 1 1 1 1 1 1 1 1 1 1 1 1 1 1 1 1 1 1 1 1 1 1 1 1 1 1 1 
</DataArray>
<DataArray type="Float64" Name="displacement_divergence" format="ascii">
0.012295441264887776 0.030188222468557756 0.040577337764689192 0.050025572535363307 0.059575359433541419 0.069782900963730507 0.080756780728963362 0.091818632053129803 0.10288339049907311 0.11266370167759328 0.021604368529559662 0.055259219659562361 0.077580317408201468 0.097155679020217961 0.11595725517418047 0.13429409295755124 0.15241583892114441 0.16989249231451864 0.18692163365656689 0.20225331571384761 -2.5911547649866472e-05 -9.2068434852027379e-06 -2.5861260157437384e-05 -2.7496435359428848e-05 -0.00011501475998831706 -8.918191941747866e-05 -0.00012267370276495664 -9.2591124614850457e-05 -0.00010059123888552261 -0.00016649189365665736 -3.6643630223174857e-05 -3.6095682091023297e-05 -5.4635368487536607e-05 -6.2047415254249861e-05 -6.3308944525610798e-05 -3.2456627363985105e-05 0.00027672394122972197 5.6617999942987912e-06 9.8416181670739691e-06 1.9767295290452208e-05 4.4645407262537337e-06 -2.4311965632359614e-06 -1.9794942480702484e-06 -5.1802570291750858e-05 0.00022060215118894594 -0.00016738082076861211 -9.5288551349109176e-05 -6.8543157944135429e-05 -3.6882386162683228e-05 -9.0213379704442976e-05 -8.80877428955813e-06 -1.6058698786149172e-05 -1.8917574682392841e-05 -1.5134324637818778e-05 -2.7779969658570797e-05 -7.4384612134510233e-05 2.5797124093920263e-05 -8.7493357371334251e-05 0.00024801620859776644 1.8693910245216189e-05 4.7237317559135992e-05 2.2803137761643881e-05 4.9437027553678788e-05 -6.8769462508765436e-06 -5.193053314527537e-05 -5.1309750373107528e-05 -5.5006078921091797e-06 -1.7351364509837438e-05 0.0002864211717663335 -7.7509925145108436e-06 2.9348824700275577e-05 -2.1122026774355674e-05 4.5874152497816175e-06 -3.0271258359456179e-05 -3.982808841021643e-06 -8.3723355021287499e-05 -6.675877047251054e-06 7.431512408112486e-05 4.4634523471188183e-05 5.5375770245148781e-07 -1.4183750557633917e-05 8.5683249754538719e-05 -1.4195894023513907e-05 -1.9565693296528727e-05 -2.7324278773341228e-05 -9.95580745481389e-05 -0.0001261759578477362 1.4211300246382212e-05 4.6074971389815488e-05 -0.00010101309188802817 -8.2970165064899751e-05 -4.5372364696704651e-05 -8.8852275328941093e-05 -0.00011756604956188704 -3.2128485661792115e-05 -2.6553589734629797e-05 0.00010276099512597655 -6.0912507823499711e-06 -3.516787987154575e-05 -1.5552487585174224e-05 -4.6679537796101046e-05 -0.00012693679581121978 -0.00010057607959301396 -5.1769695280179044e-05 7.7737387659268867e-06 -5.766076418396715e-06 -2.0533995599483201e-05 -3.921151073133857e-05 -6.8667233729653292e-05 -2.0355187845200553e-05 -3.6233798201952197e-05 -3.7811890780248101e-05 -4.1787402635103479e-05 -6.6969393806412449e-06 -7.8709090002004054e-06 -1.1568238148697372e-05 2.0239250309496648e-05 9.7317051069769483e-05 -7.6486350067319492e-08 -6.9019404880044447e-06 0.0001002366149154988 5.5853230772818859e-05 -4.3803422196029548e-05 -4.8175673163221006e-05 3.596498827357136e-05 1.2524057509878238e-05 -1.5443292196680501e-05 1.0322351393472697e-05 -3.2900624142352154e-06 1.1256581699325598e-05 -8.0848665164187303e-06 4.4629412444626652e-05 -9.1188705102839582e-05 -0.00014317896375966332 -7.6882751213470891e-06 0.00011969828889089049 -2.3417958605831185e-05 -2.318603061404284e-05 1.6312867589486817e-05 1.2534653438000566e-05 3.3216604948631961e-05 5.0901752466201791e-06 1.5110503182840917e-05 -2.8932143688744348e-05 -2.6788744393885245e-05 -2.5797271233486277e-05 -3.8638018162468618e-07 -0.00012185062254617646 -4.0826488743856467e-05 -3.2994717757461271e-05 -2.0842023628356516e-05 -9.1218571983142172e-05 -7.7556381766205997e-05 -7.5020782500512706e-05 -0.00011751801528279353 -0.00011499082238111778 -2.6185260830841254e-05 -7.439999974203249e-05 3.5609444206646974e-05 -3.5938930368747836e-06 -9.078675877295964e-06 -2.7032949422693426e-05 -3.1522566648583931e-06 -3.4484761566555772e-06 -7.8794442149260433e-06 -2.99839981803779e-05 -6.1040892441766197e-05 -5.7152657013687539e-05 -1.1318684780555925e-05 -6.8071354113624524e-05 -5.5891371110157982e-05 -4.6109586202861021e-05 -4.2137071205476702e-05 -4.5802629012568072e-05 -4.6473121641072303e-05 -4.5912833038682472e-05 -1.8332034442748092e-05 -3.8285528911839012e-05 -5.0166998215652505e-05 9.8453084968803136e-06 -4.4144845558690234e-05 -3.8313651272117233e-05 -0.00012688079614379388 -0.00010053247165096666 0.00010019476302382591 -3.7439332797848936e-05 -1.3447752434853663e-06 -2.3467650324081259e-05 -8.7910964612614926e-05 -0.00013340114384104591 -3.3523749011085316e-05 -8.1134189811390034e-05 -9.8697771228002028e-05 -8.1357586351409159e-05 -5.9422381572755964e-05 -5.972330947064255e-05 -6.4182000643874958e-05 -3.023523851278622e-05 2.1248141540267974e-05 -2.3911115161747917e-05 -4.6600631609135308e-05 -5.1111166980054464e-05 -7.178756730100486e-05 -6.4257343307971276e-05 -3.9105539704068219e-05 -3.50908976014587e-05 -3.3468682383178214e-05 3.0231143301146695e-05 7.4503407244766679e-05 -1.743586568743436e-05 -3.7979299634629279e-05 -3.5175588209375224e-05 -4.0598607241015914e-05 1.8987430145508662e-05 -2.103165738130046e-05 -4.90184089518322e-05 -3.3488899485535455e-05 -9.2851916007999103e-05 -0.00013204175816606558 -2.4594094290473069e-05 -7.0020592972116786e-05 -8.0460431174201485e-05 -0.00014674239201133165 -8.7414458223657654e-05 9.56302458013e-05 0.00029245610289020527 -1.166118992519899e-05 -2.9061916358121692e-05 1.7308602803746824e-05 -1.1797971967102854e-05 -4.3539093758239187e-05 -5.2710680975960925e-05 1.2288148798511329e-06 -0.00012741591328864003 -2.4318226793612271e-05 -9.694222547220431e-07 -2.5003058764798672e-05 -4.17831077758606e-05 -2.767375609988911e-05 -1.7352386865254274e-05 -7.8035935774411051e-05 -3.1680410810578123e-05 -0.00011462476183672995 -1.7708174162902809e-05 -2.0778427633250259e-05 -2.7759858901010674e-05 -2.3346123362507753e-05 -3.075702043433683e-05 8.4802705152721999e-05 -4.1475263646989194e-05 -4.8047653346560036e-05 -3.4641322386298371e-05 6.0097798328354545e-05 -9.2220569606969808e-05 -4.1648413253650909e-05 -0.00013240186241097448 -8.9739573303173953e-05 -7.7625537293837029e-05 -4.1416765662769607e-05 -3.4417268748139973e-06 -1.1657145022793425e-05 3.7910132769277934e-06 -3.8825679087219476e-05 -1.6619290692554932e-05 -6.9556259071493556e-06 -4.2215250876700668e-05 -1.1199163589443779e-05 1.5479816215628606e-05 -1.6525224164993732e-06 -5.5782972677971901e-06 4.4684087900630914e-06 -7.3343476505335968e-05 -5.376397827422326e-05 -6.1304667540719622e-05 -8.9733424167278385e-05 -7.2601808159378223e-05 -5.1873085606718637e-05 7.8909808095059021e-05 -9.8471218708783248e-05 -8.0393065559798653e-05 -2.5568748910219378e-05 -6.1276204942514118e-05 -6.9489930233232252e-05 -0.0001076105300202323 -0.00011182951725645718 2.758250543343551e-05 -8.4609655832085066e-06 1.9914825905780167e-05 2.5323667286589104e-06 -5.1319707116034063e-05 5.0745006223712344e-05 9.3832747484314319e-05 -1.0243002086086529e-06 -6.3431643864861678e-05 -7.4129836636515527e-06 -0.00010197027635948662 -2.9900724550978421e-05 -2.6426293107827473e-05 -2.6727250888118051e-05 -5.4800539456678713e-05 -4.7783180808880265e-05 -6.0211342898900026e-05 -6.1014967831767646e-05 -6.7101492953248174e-05 -9.3591743307843193e-05 -9.8597743709709978e-05 -8.1345203852093979e-05 -6.4596977838578964e-05 -7.8179299873899459e-05 -5.4448523624821052e-05 2.795430795372167e-05 -3.4758905863407745e-05 -9.7963059683316839e-06 5.5189375836391281e-06 -6.6053715450872685e-05 -7.7588952072968426e-05 -3.3402302822748746e-05 -1.1724831458294642e-06 -5.9652935609675987e-05 2.1292063647068314e-05 -3.2831134834595838e-05 -9.7106882408386013e-06 -0.00011573280576784018 -8.3642935987785036e-05 -1.2584769173900598e-05 -4.0465192040934343e-05 -3.5461757210413923e-05 -0.00011640475432536428 -8.563548802729829e-05 3.3630383257441505e-06 -1.9336184554695317e-05 -1.3308647089149694e-05 -6.5240711241929154e-05 -5.2573292726546642e-05 -1.5438697043830896e-05 -1.115652179106998e-05 -6.4010064352322576e-05 -6.0829990741217984e-05 -6.0404934683299962e-05 -5.8870570203905235e-05 -2.3508536173500448e-05 -1.1894818197489004e-07 -2.200941784162685e-05 -5.551642334861856e-06 -3.1363800887432725e-05 -6.4077553099044053e-06 -1.6400056804488968e-05 -2.4677022412784757e-06 -4.3843974930723832e-05 -2.3733427957888919e-05 -9.9363023056515807e-05 -8.1047928616247806e-05 -1.1750897047895425e-05 5.4248026024707576e-05 9.6404359654464868e-05 -1.8991913346167979e-05 -1.3257670384227269e-05 -1.6705957724536284e-05 -2.8377615123449359e-05 -2.9420063359719109e-05 -1.8990625283559393e-05 1.3148487893467858e-05 1.8046067484862502e-05 4.7649671352071785e-05 3.5761264901221224e-06 -1.664995664328638e-05 -3.7656185167871189e-05 -3.2320911026579319e-05 7.6288019529380593e-06 -1.6472130830316647e-05 -8.7478136073435361e-05 -7.4546024899027055e-05 1.8727088207574124e-05 -0.00011923829743275826 -9.3683757450303533e-05 -2.8052553593467706e-05 3.2525186758281845e-05 1.7642303095945889e-05 -7.2624287353941505e-06 -3.3579510648242819e-05 -1.6605019685890065e-05 -2.9865235985260209e-05 -6.8502975496706215e-05 -5.2733687560106842e-05 2.4817247477227082e-05 1.9253241101456616e-05 4.4192783255946402e-05 -1.9673143132562605e-05 -1.5626318359330789e-05 3.6717939234979323e-05 2.3556533895450842e-05 4.2208948325752303e-05 -1.5922768639612707e-05 -3.7269930567522113e-06 -1.3222596433611921e-05 -2.7177565860202419e-05 -5.3995477928161098e-06 -4.8999244929801697e-05 -7.2110851823013397e-05 -6.3579468631642317e-05 -2.4162771943062667e-05 1.5443267349184641e-05 -0.0001177556623652219 -4.1982462948410691e-05 -2.7697127455806789e-05 -3.0717687631915666e-05 -3.8618564567170603e-05 -5.1108272935988154e-05 -4.0008422838480627e-05 -2.8824638509096623e-05 -2.5951361890207982e-05 5.4779560390958056e-06 -8.3931435640300018e-05 8.0792758595139608e-05 -2.0475816357634158e-05 -3.3742850503465903e-05 -3.1724541613057175e-05 -1.644261932637163e-05 1.0637642048830741e-05 -1.9643914309892833e-05 -2.637150466346431e-05 -3.3000233368960504e-05 -7.3413158061103685e-05 -3.1548856174098798e-05 -1.5933967728637985e-05 -8.2771294436087095e-05 7.9735939391612995e-05 -9.983449431556074e-06 -9.8535379431698156e-06 -3.2958513032690242e-05 -4.0745685982077806e-05 1.3899254523674649e-05 -1.9022925795543033e-05 -3.6875050509338535e-05 -3.2977059589009081e-05 -6.2395382654359616e-05 -4.6111792386824063e-05 -3.8190727854396476e-05 -6.2919055061647338e-05 -9.4682770946830693e-05 1.978266889279671e-05 4.3413804018524677e-05 -7.3536851900616533e-06 -2.590098860868399e-05 9.6476887539154437e-05 -4.4736925304606455e-05 -1.3517428583110298e-05 3.9267610486098036e-05 -3.4493168603127367e-05 -2.361424304553935e-06 -1.1598142476274952e-05 -4.2832567599420656e-05 -1.2422149194147051e-05 3.9090383487707606e-05 -1.2816665657588858e-05 -0.00010565169430632354 -0.00018107356392375775 5.3608045046150531e-05 -6.2245520497447414e-05 5.7875599478988034e-05 6.5315864471369956e-05 0.00011777729452291572 0.00011314460045810807 -2.7996676617847438e-06 1.6499152068201245e-05 6.5593858644209736e-05 2.6283399317061072e-05 -1.7476807132366931e-05 4.480691882100072e-05 -6.2672092576562463e-06 -6.1314819682300147e-06 1.7283743041233892e-05 -3.6020150479661925e-05 4.2319160240374761e-05 -3.5852044508381093e-06 9.206540333775581e-06 -3.5190906969894201e-06 1.7011525203243678e-05 6.3072721236812198e-06 -3.3888884399476435e-05 -3.3061865571754436e-05 -4.0559515197528508e-05 -4.0283561314061536e-06 -5.8589969035909408e-05 3.4555441364590882e-05 -4.5950399354800862e-06 -3.8162166555097816e-06 -2.9278405030185375e-05 -2.9080651104071388e-05 -0.00019090118874235144 -0.00010522888639131491 -4.9023769199575713e-05 -5.5121256196860381e-05 -6.4920296957649221e-06 -8.4463804533654738e-06 -1.7581889480518852e-05 -0.00011182150121182466 -8.4935643893859386e-05 5.652690180147843e-05 -9.2989424853487677e-05 -7.5606637260881022e-05 -2.4320873595124175e-05 7.5303503055709157e-05 -1.8184467249474329e-05 -5.0039947799764982e-06 -7.7149803898571168e-05 -7.2362955874369467e-05 -9.8804134899822783e-05 -0.00015416914988703557 -3.8112893040949218e-05 2.4335826789161985e-05 -1.2017660433351931e-05 -7.2551846985128393e-06 -1.2051684413804238e-05 2.0145204636861666e-05 1.7402482581132214e-05 -1.1855126021083611e-05 -2.7133100711103302e-05 -6.4532487767863221e-06 6.5955728074130419e-05 -9.5433966673151756e-05 -0.0001409616829177015 1.9209396925011001e-06 4.5579660815037149e-05 -2.6557854800780746e-05 -9.6233371432817227e-05 -7.7885386398387113e-05 -4.506921716019686e-05 -8.2511459549109205e-06 1.7047411214933918e-05 -4.4602295849740157e-05 -4.3464875613432891e-05 2.2106115972092858e-05 2.088689621657547e-05 -7.5074820708450696e-06 -1.2214737534572777e-05 -2.0353347480465503e-05 -8.7426880558345898e-06 9.938037253024324e-05 9.8478073213767447e-07 4.9859355884452087e-05 1.4970387100330523e-06 -1.936978786862113e-05 -2.8458797708969563e-05 -1.9308416657011002e-05 -0.00012111278803904327 -0.00013831562455747986 -3.5694954856064904e-05 -4.1545469327761939e-05 2.4412952037093796e-05 -7.4704211854907296e-05 -6.8388172661466542e-05 -7.7785880550529059e-05 -9.2671513168802205e-05 -4.7583556122498226e-05 -3.6506927996792643e-05 -5.5878624864876648e-05 -5.3753195923805661e-05 -5.1695530305255274e-05 -5.7850709159447382e-05 -4.1523902740772667e-06 -2.0865049375136044e-05 -6.1912795786765734e-05 -6.2483813074155927e-05 -2.8154641586579723e-05 -6.7482463612658655e-05 -7.6330641548726981e-05 6.697294898267976e-06 -3.2088198517505191e-05 -9.3608364234447049e-05 -8.1400546334606529e-05 3.6204451474887932e-05 -1.4291981159662674e-05 -4.6055351392911654e-05 1.5911707675693833e-05 -1.9897854133091047e-05 -2.304367650480144e-05 -0.00012954777905070414 -9.9824457984696593e-05 1.292981086149119e-05 -2.3063529121846455e-05 -3.5138412185990365e-05 -6.8537047204751689e-05 -6.6034213139663442e-05 -2.2211022411700921e-05 -3.1649681070118998e-05 -3.542214393981066e-05 -1.7828678783994598e-05 -3.1157067761537321e-05 0.00010520741971926912 -4.6148159068419494e-05 -3.6781470961343328e-05 2.5165519318075908e-05 2.1511567353596061e-05 -7.0372766045795289e-05 -1.4693679129921492e-05 -9.1246861923111999e-05 -0.00014672692832003558 -8.8254764925167124e-05 -0.00014577754955447553 -9.0430315046928649e-05 -0.00011450381731513793 -1.5845052975391904e-05 -3.7652681422039181e-06 3.3041238775043829e-05 7.9415244124832977e-05 9.2015706365166858e-06 6.2227650615503407e-05 1.7422426120602573e-05 -3.6480694856713234e-05 1.9643151708966747e-06 -1.4857839972785998e-05 -4.961162415124517e-06 -9.0634207563189753e-05 -1.2259435695961086e-05 0.00011754150329156346 9.915541003890937e-05 2.6610047202110538e-05 -0.00016094403038140995 -9.616402311019904e-05 -1.0453402763219345e-05 -6.2135370054306697e-05 -3.8716435520996708e-05 -6.6269188954450053e-06 5.5857917063254416e-07 2.563414467714859e-05 -1.2826896704606905e-05 -6.1352034422916426e-05 -6.6172564893123004e-05 -1.6378950999336664e-05 -1.7105996461699944e-05 -2.0724314146126281e-05 -2.2914905946201485e-05 -3.7277388927297759e-05 -2.7596519478519952e-05 -7.1811378748255151e-05 -8.3577368354198641e-05 -7.284400299527869e-05 -0.00012258493862302242 -7.1680313958443734e-05 -2.8206278196237962e-05 1.4981257298936779e-06 -0.00010832493396850312 -0.00013970611603287333 -4.1348694744513693e-05 2.180402135141087e-05 -9.5178629237885825e-05 -0.00016661574730747719 -5.2332592475057526e-05 -9.6394396951031221e-05 -7.4377218483168741e-05 0.00013022677069662045 -0.00012964308343186605 -8.806352950077748e-05 -3.2311143675532337e-05 -3.4384444276628658e-05 -8.2304461547189035e-06 -3.1150643802724753e-05 -2.0626080903668979e-05 0.00011438962075701752 -6.9220176044137768e-05 -3.7073208937310259e-05 7.6906520547930998e-05 -5.681152272538254e-05 -0.00020011863169786253 -0.00011151589545201621 -1.5631513940087916e-06 -9.2804300370200827e-05 -0.00010512578579249126 3.7795679864826952e-05 -3.7094583112906587e-05 -2.3251293665646499e-05 7.6238498939010073e-05 -1.0794263965452095e-05 -2.0699496491911711e-05 5.4370837708299629e-06 -3.1265253377151176e-05 -3.1573289497023593e-05 3.2605060249833555e-05 -5.184236927138552e-05 3.8429059118498218e-05 -8.1520503867435045e-05 -4.1726061154527148e-05 -7.4602471066740982e-05 -5.5424084653951915e-05 -8.9207721042138921e-05 -8.1102926456728334e-05 -6.3742714119801366e-05 -6.9942693340537573e-05 -7.4273539210280049e-05 -6.5736219214102554e-05 -6.6312833401975711e-05 -2.3014474787100769e-05 1.3402345265312893e-05 -2.5634250904592573e-05 -1.2589828371138527e-05 -2.6003246110680258e-05 1.9616797940972814e-05 -3.507372564935207e-06 -0.00011185120782323578 -0.00020346471655893804 6.0283749588206019e-06 3.3182886086093153e-05 -5.8161363456559433e-05 -4.3548470402354944e-05 -5.134952615626025e-05 -4.5394975662411627e-05 5.8942807601734903e-05 -9.066906976541947e-05 -8.3946281025383939e-05 -0.00010763952893490216 -0.00012562320857136686 -9.0317325458384983e-05 6.2145101224442235e-05 2.1575060021152351e-05 -9.749054178594922e-06 -5.726868031826309e-05 -1.6962620549453787e-05 -7.416725818525842e-05 2.3419683626283404e-05 -4.6573688387272156e-05 -3.2728690801373911e-05 8.9299351357462507e-05 -0.00015672134771159332 -3.9302459019333195e-05 -7.5227761299068629e-05 -8.5660266573147931e-05 -1.9991208881059217e-05 -8.7846670312003968e-05 -0.00014049099399451084 5.0752575549710584e-05 -3.4582967918836242e-05 2.4583205453633441e-05 -1.0501968007200764e-05 -6.6921416559945885e-06 -3.0401902443568606e-05 -4.3486576576694622e-05 -4.6750551905879814e-05 6.4497164404872802e-05 5.5466644573495301e-05 -2.9973732779853919e-05 -2.5597251519954636e-05 1.8648711513974056e-05 1.2019091402607103e-05 3.5606331372541045e-06 3.2361166768319488e-05 -4.0937468615293181e-05 4.0200608868383989e-05 1.2561243559378656e-05 -6.3898792453159249e-05 -7.3079440218965321e-05 -0.00011865144959555696 6.5701022633203024e-06 1.7847014375953885e-05 -3.7753576575040671e-05 -4.411375096210171e-05 -0.00013757667801880954 -9.0013755926897894e-05 -8.3617769381277678e-05 5.1617554626851719e-05 -2.3222656138713067e-05 -4.4846948338731508e-05 -2.9640194836164056e-05 -4.5896792123368332e-05 -5.7841035034210671e-05 -9.0784545178015528e-06 2.3410087051973941e-06 -6.5752988736860645e-05 -7.6608342682108529e-05 -0.00012040341212219297 -1.0938718815280786e-05 -1.2497237261087498e-05 -7.3351572823834207e-05 -6.590742083208041e-05 -2.7485105607936213e-05 -8.7097750652823818e-05 -0.00010143884119907226 -2.1458652632972772e-06 -4.3848382832536916e-05 -4.3801811455360719e-05 7.0948260451937184e-05 9.8469521273934521e-05 -9.7322730253431754e-05 8.2453661998276202e-05 6.1690535669092891e-05 -5.6603492246745792e-05 -4.6976265914003326e-05 -8.9583893880195841e-05 -6.331310401577506e-06 7.0139729781727088e-05 -3.4619708286989011e-05 -8.7330299381220951e-05 -0.00014437970229244038 -3.89169665214531e-05 9.8811426133737969e-06 -1.5555882600603275e-05 9.5102542985458529e-06 -9.7734913154808479e-05 -7.9124745901201343e-05 -0.00010434837623265187 8.6135803427707814e-06 -6.278278100689827e-05 3.556398620579533e-05 -3.9495089804499348e-05 -1.1776455310761116e-05 -9.2585278303265967e-05 -0.00015332252684574461 -5.900557461033175e-05 -1.1963828962690409e-05 1.8339618363426248e-05 -4.9764768625499639e-05 -3.2671827739295901e-05 -4.9109422359332655e-05 -5.8770298142223618e-05 -3.4088236386984629e-05 -4.4466493384508654e-05 -9.2116669276872309e-05 -0.00016057771893358277 -4.1012839271707788e-05 7.4466592075149137e-05 5.0501502816243174e-05 -2.9159234836793196e-05 8.2610486746250399e-05 1.0497679416569166e-06 -3.0392319025238698e-05 6.4693595807070563e-05 0.00011274795477761229 -8.7482098274964176e-05 -6.4606671748563795e-05 -3.2934000102479142e-05 -7.2625913910937152e-05 7.180558171525353e-06 -4.0123724351548057e-05 -4.2505956762841046e-05 6.1949898944866841e-05 -5.7830211432081526e-05 -1.8627472818527044e-05 -1.0828422393346796e-05 3.0858360466542393e-05 6.0189383263590016e-05 0.00010912400389033808 6.3925538762255046e-05 4.9201946653607288e-06 -1.367181089854548e-05 3.5525910258078659e-05 -4.0098617204736451e-05 -7.0985429638244007e-05 -6.1198550921214403e-05 -6.6449079600361676e-05 9.9689149500605499e-06 3.7323872659559654e-05 -2.5975399141823205e-05 -6.7834920406595247e-06 -4.3226894533057025e-05 -2.5750056369609612e-05 -4.1879299084301281e-05 -1.4100040239672235e-05 -8.3955168794890966e-06 -1.9958721175778371e-05 0.00014919972286680543 -4.1690912638297395e-05 -3.7609524011938738e-05 1.6796451676489958e-06 0.00011438002817353455 0.00011513891371187838 5.9633739594478451e-05 2.7796722146845865e-06 1.2193525486132438e-06 6.1467157092894194e-05 2.065856067814606e-06 -4.3365044261068703e-05 -3.4654288170197988e-05 -5.535614367949528e-05 -3.5615493802414015e-05 -4.9417383418013605e-05 -1.9279694987615718e-05 -1.1151346302310655e-05 4.3399577341373665e-05 8.1694489703029206e-05 -2.3159465662884798e-06 -4.9406313506874643e-05 9.9166952977809437e-06 4.5769244775134598e-05 -1.9888442042874334e-05 -2.8982128936962217e-05 -5.0721825690220289e-06 -2.8683881292556994e-05 -3.5302510105137677e-06 8.3741521815808252e-06 -5.1108342010568181e-05 -1.1451007948634341e-05 2.2912190173794613e-05 -3.1212800534707275e-05 4.8807001857326679e-05 3.241357406470833e-05 -4.6559891971233039e-06 -7.2231039676730251e-05 -1.2965937838620709e-05 -5.6320617732240038e-06 0.0001647578061292015 0.00014525684524170618 6.5777882668342433e-05 8.730675838129092e-06 -4.19026138537568e-05 -5.3713624509800677e-05 -9.7737311764754437e-05 -7.9368374879237221e-05 -3.0839565690263648e-05 -0.00010402481042995151 -0.00010798477254883983 -0.00012793118519477097 -0.00013556527989355097 -2.8469868693356385e-05 -3.8815749624528873e-05 3.7699033589544753e-05 3.3646347386314399e-05 4.1062998572673335e-05 -3.072505209587937e-06 6.7722032040230227e-06 3.0506146823578715e-05 6.0826573524436659e-05 3.2385390929883756e-06 1.6631819640939129e-08 1.0876005806403693e-05 -0.00012855628989160998 -0.00015987948395029255 -0.00015573278364442795 -0.00012766002554092897 -1.5605262536386318e-05 -4.6087468655072372e-05 -2.9514791519826694e-05 -3.3967041766527176e-05 -4.1465713456570017e-05 -3.9008298015879027e-05 -3.8594114260247948e-05 6.5305998421776799e-05 0.00031723198063621742 -4.514769415686306e-05 2.4241278771900679e-05 -3.6360109626426898e-06 -2.9117534874996395e-05 3.7448507634125962e-05 -2.2797626236425528e-05 5.5053574300291354e-05 2.4344330774719663e-06 -3.0095622028384478e-05 4.6977522522050931e-06 4.08395148353757e-06 -2.171394262788051e-05 4.7017315044670148e-05 -4.0875392308827477e-05 -2.557269205832191e-05 -5.8229898200999832e-05 -5.5235176264243824e-05 -2.36711830724002e-05 -1.3145825091031302e-05 -4.677275948851361e-05 -3.6874719825009711e-05 -3.9766049458249655e-05 -1.1681872643929379e-05 9.1962382927828022e-06 2.8388692126067057e-05 1.9042080635233881e-06 9.6373217099602639e-05 4.7341175515122624e-05 -1.4515860255375282e-06 2.2947155788239455e-05 3.1510806576410047e-07 -3.7725267207632494e-05 -7.9957756883692298e-06 -5.9769031892512384e-06 -8.7392972855371253e-06 4.0239328575344957e-05 3.0309858715677623e-06 5.8948988913842815e-06 1.6064623195322265e-05 -3.1055044169680818e-05 1.4306937954318985e-05 6.8896074564545116e-05 0.00012459997088864745 -3.7304850886936147e-05 -5.5401532621377619e-05 -6.502654998212249e-05 -2.9468768397959745e-05 -2.94364632799244e-05 -3.6564193502306264e-05 -1.7939690639926974e-05 -4.1426123452573474e-05 -6.3898773562786476e-06 -1.3689982874392007e-05 -9.1980723705748524e-05 -0.00012091717998337653 -0.00010151721242193452 -8.0420555842510466e-05 -2.7984721076070945e-05 -5.6373464657306742e-05 7.3219140472717027e-06 -7.3110791031123779e-07 -3.667322168203794e-05 -3.1447758409173366e-05 -3.026853980027806e-05 -2.7214673334700727e-05 -7.5206045505805732e-05 -5.765836373713344e-05 -4.0966270451317293e-05 1.0310919389456305e-05 -3.025757328945442e-05 -5.9182104609513397e-06 -6.4121181014541292e-05 -3.4175775467710198e-05 -4.0748549363865336e-05 3.216757656196857e-05 6.4667734107982542e-05 -4.047069175049497e-05 5.7120441301870828e-06 -2.1907234648427254e-06 3.3709152528016081e-05 3.4435510990505312e-05 6.8626499682226602e-05 3.47477361259136e-06 7.1979286709430296e-05 -2.667017515456567e-06 -3.2807930500569757e-05 -1.3600108860292639e-05 -2.3096561807144653e-05 -2.2044365276343116e-05 -1.6907049706846419e-05 5.5306542684808755e-05 -3.8053412893983567e-05 -4.5720921324969647e-05 -5.2786983469326246e-05 -8.4170636212529005e-05 -3.9269970636033116e-05 2.7926544014239747e-05 8.7771418349120479e-06 5.3431358519248628e-06 5.6241996735180021e-05 -3.6615458310331676e-05 -5.9029758987597428e-05 1.6281001402090563e-05 1.910907615962646e-05 -1.4812106327789136e-05 -3.1586531897848851e-05 -2.3743991687264404e-05 -1.3368147220057717e-05 8.7636970784330838e-05 -2.250448257115319e-05 -6.4200666876693585e-05 -4.2856380957858999e-05 7.0580540456292341e-05 -2.7779867351715101e-05 -5.7732961704135769e-05 -7.3604808224387165e-05 5.4927707198439103e-06 
</DataArray>
</CellData>
</Piece>
</UnstructuredGrid>
</VTKFile>
