<?xml version="1.0"?>
<VTKFile type="UnstructuredGrid" version="0.1" byte_order="LittleEndian">
<UnstructuredGrid>
<Piece NumberOfPoints="3142" NumberOfCells="1054">
<Points>
<DataArray type="Float64" NumberOfComponents="3" format="ascii">
0.5 0.29999999999999999 0 0.54999999999999993 0.29999999999999999 0 0.54999999999999993 0.29999999999999999 0 0.59999999999999976 0.29999999999999999 0 0.59999999999999976 0.29999999999999999 0 0.6499999999999998 0.29999999999999999 0 0.6499999999999998 0.29999999999999999 0 0.69999999999999984 0.29999999999999999 0 0.69999999999999984 0.29999999999999999 0 0.74999999999999989 0.29999999999999999 0 0.74999999999999989 0.29999999999999999 0 0.79999999999999982 0.29999999999999999 0 0.79999999999999982 0.29999999999999999 0 0.84999999999999987 0.29999999999999999 0 0.84999999999999987 0.29999999999999999 0 0.89999999999999991 0.29999999999999999 0 0.89999999999999991 0.29999999999999999 0 0.94999999999999996 0.29999999999999999 0 0.94999999999999996 0.29999999999999999 0 1 0.29999999999999999 0 0.5 0.69999999999999996 0 0.54999999999999993 0.69999999999999996 0 0.54999999999999993 0.69999999999999996 0 0.59999999999999976 0.69999999999999996 0 0.59999999999999976 0.69999999999999996 0 0.6499999999999998 0.69999999999999996 0 0.6499999999999998 0.69999999999999996 0 0.69999999999999984 0.69999999999999996 0 0.69999999999999984 0.69999999999999996 0 0.74999999999999989 0.69999999999999996 0 0.74999999999999989 0.69999999999999996 0 0.79999999999999982 0.69999999999999996 0 0.79999999999999982 0.69999999999999996 0 0.84999999999999987 0.69999999999999996 0 0.84999999999999987 0.69999999999999996 0 0.89999999999999991 0.69999999999999996 0 0.89999999999999991 0.69999999999999996 0 0.94999999999999996 0.69999999999999996 0 0.94999999999999996 0.69999999999999996 0 1 0.69999999999999996 0 0.40076539126862748 0.34589349467022118 0 0.33277555741076909 0.36432196682010132 0 0.36575549820117997 0.31677992835137742 0 0.38083244760691543 0.38531983672244652 0 0.33277555741076909 0.36432196682010132 0 0.40076539126862748 0.34589349467022118 0 0.56836770495988642 0.3523062350852913 0 0.52289427570932567 0.3932284363388488 0 0.52752007115234678 0.33170632466418198 0 0.52752007115234678 0.33170632466418198 0 0.52289427570932567 0.3932284363388488 0 0.49077833859261139 0.35229981449445641 0 0.10000000000041601 1 0 0.053064897599294662 0.95186845269532028 0 0.10266856499240549 0.95548163909968886 0 0.099999999999814668 0 0 0.10266856499169109 0.044518360900210059 0 0.053064897599215843 0.048131547304697528 0 0.050000000000207989 1 0 0.053064897599294662 0.95186845269532028 0 0.10000000000041601 1 0 0.049999999999899652 0 0 0.099999999999814668 0 0 0.053064897599215843 0.048131547304697528 0 0.24999999999941211 0 0 0.29999999999926641 0 0 0.27499999999933927 0.060310814194988557 0 0.30000000000124832 1 0 0.25000000000104028 1 0 0.27609987656793722 0.94991445621608572 0 0.15720202157091859 0.60665697304410315 0 0.19914261668318661 0.62286739485272158 0 0.16500388252850301 0.66612077714085194 0 0.2236846579037573 0.67380363126050236 0 0.16500388252850301 0.66612077714085194 0 0.19914261668318661 0.62286739485272158 0 0.1247745017231483 0.27198077544791172 0 0.168349569971391 0.28054490850913671 0 0.14223753364722069 0.3341983344262433 0 0 0.75000000000034661 0 0 0.7000000000006934 0 0.049706944316475897 0.72477277076253799 0 0 0.30000000000124832 0 0 0.25000000000104028 0 0.049706944316556423 0.27522722923869108 0 0.59999999999999976 0.29999999999999999 0 0.61959173890754571 0.33832250091341232 0 0.56836770495988642 0.3523062350852913 0 0.5 0.69999999999999996 0 0.43323420005758778 0.6913544522562407 0 0.47913475093885149 0.66010775372412711 0 1 0.14999999999961891 0 0.95391631417672862 0.19584263333809451 0 0.93677536231883773 0.14999999999999089 0 1 0.84999999999982645 0 0.95391631417670719 0.89584263333814784 0 0.93677536231884972 0.85000000000000286 0 1 0.84999999999982645 0 0.93677536231884972 0.85000000000000286 0 0.95386563387742829 0.80414874155775029 0 1 0.14999999999961891 0 0.93677536231883773 0.14999999999999089 0 0.95386563387744361 0.1041487415577465 0 0.90416666666660628 0.9041666666666166 0 0.88088768115933802 0.84674609810493673 0 0.93677536231884972 0.85000000000000286 0 0.90416666666668166 0.20416666666667119 0 0.88088768115941807 0.14674609810479519 0 0.93677536231883773 0.14999999999999089 0 0.1247745017231483 0.27198077544791172 0 0.14223753364722069 0.3341983344262433 0 0.093851963071650835 0.30582068233324772 0 0.5 0.69999999999999996 0 0.45582236402875981 0.73896743678908217 0 0.43323420005758778 0.6913544522562407 0 0.55000000000173355 1 0 0.50000000000205869 1 0 0.52122150208832174 0.94089974453840242 0 0.49999999999869432 0 0 0.5499999999988151 0 0 0.52375890611712683 0.059318771819432882 0 0.54999999999999993 0.29999999999999999 0 0.59999999999999976 0.29999999999999999 0 0.56836770495988642 0.3523062350852913 0 0.50202631463681879 0.87892870825713787 0 0.44003836461056539 0.88093474584252718 0 0.45677673713123867 0.84253684404072415 0 0.33403534827021109 0.84402799729020661 0 0.35864759629805099 0.87963482415279515 0 0.30864387279288652 0.89906554525974958 0 0.53245488764484505 0.55078124999999989 0 0.47793794143994173 0.52940715638744962 0 0.53330375813596242 0.50827942741749099 0 0.82709327591102189 0.14937141670914489 0 0.81283102246527783 0.1881007222486438 0 0.77144070960558853 0.14311854477243749 0 0.82709327591091286 0.84937141670920724 0 0.81159157511211755 0.88795995483179491 0 0.76901770135486491 0.84293557325473656 0 0.77144070960558853 0.14311854477243749 0 0.81283102246527783 0.1881007222486438 0 0.76587607630038135 0.18880039518954719 0 0.76901770135486491 0.84293557325473656 0 0.81159157511211755 0.88795995483179491 0 0.76891166905518427 0.88835469571185499 0 0.33403534827021109 0.84402799729020661 0 0.30864387279288652 0.89906554525974958 0 0.29209212897034281 0.84715728365233667 0 0.57412547362576272 0.58273804879550706 0 0.5166924242153631 0.59825134841919447 0 0.53245488764484505 0.55078124999999989 0 0.50202631463681879 0.87892870825713787 0 0.47401147028110507 0.91529957330468115 0 0.44003836461056539 0.88093474584252718 0 0.5 0.69999999999999996 0 0.54999999999999993 0.69999999999999996 0 0.55363780716230748 0.74348740161571747 0 1 0.34999999999993492 0 0.95871855522754235 0.40006508612975411 0 0.95780851984364423 0.34215720972155339 0 1 0.64999999999986979 0 0.9578014258160763 0.65787212321113708 0 0.95867599106212187 0.60011091146651041 0 0.46666084890304671 0.57634471035397938 0 0.47793794143994173 0.52940715638744962 0 0.53245488764484505 0.55078124999999989 0 0.94999999999999996 0.29999999999999999 0 0.89898474358614167 0.25391965591104898 0 0.94399509803921056 0.24399509803922639 0 0.94999999999979179 1 0 0.89898474358632463 0.95391965591118966 0 0.94399509803919068 0.9439950980391687 0 0 0.65000000000104008 0 0.050069554451969707 0.61308520079857043 0 0.046634677244967337 0.671418230738282 0 0 0.35000000000145642 0 0.046389130980076937 0.32668781832131749 0 0.050583896093752537 0.38543522283434112 0 0.50202631463681879 0.87892870825713787 0 0.50627822638148745 0.8263979829520941 0 0.55899371797446828 0.85003102233514438 0 0.54782696902220018 0.79245182748204157 0 0.55899371797446828 0.85003102233514438 0 0.50627822638148745 0.8263979829520941 0 0.50945740445113552 0.75476055527778108 0 0.5 0.69999999999999996 0 0.55363780716230748 0.74348740161571747 0 0.84999999999965292 1 0 0.85170973911348691 0.93569607295217616 0 0.89898474358632463 0.95391965591118966 0 0.84999999999999987 0.29999999999999999 0 0.8517097391133297 0.2356960729520409 0 0.89898474358614167 0.25391965591104898 0 0.86956835336234861 0.571283299838105 0 0.82862096804812391 0.55037090955459045 0 0.86907294890112186 0.52008116128001669 0 0.49102375406324739 0.49123754822244059 0 0.53330375813596242 0.50827942741749099 0 0.47793794143994173 0.52940715638744962 0 0.57611405284611883 0.50165903596042916 0 0.61547661924074692 0.48539576058873962 0 0.62042975506801734 0.54295974692364424 0 0.71406021706547751 0.63292083137662503 0 0.67529834988829951 0.61613270668143583 0 0.71809016091162536 0.58185040402320831 0 0.65000000000104008 1 0 0.62065498684670595 0.95224934003983619 0 0.68015064798562208 0.95924320340003011 0 0.84999999999960507 0 0 0.899991664607802 0.045289349238254978 0 0.85491058998398861 0.060047533455626502 0 0.84999999999999987 0.69999999999999996 0 0.89999166460796554 0.74528934923809909 0 0.85491058998424563 0.76004753345552634 0 0.89999999999999991 0.29999999999999999 0 0.89898474358614167 0.25391965591104898 0 0.94999999999999996 0.29999999999999999 0 0.94999999999979179 1 0 0.89999999999958358 1 0 0.89898474358632463 0.95391965591118966 0 0.86411095495256451 0.42388805655111889 0 0.81308179852519835 0.39754945808726527 0 0.86844634540301924 0.38530937474099819 0 0.5 0.29999999999999999 0 0.49695729691142171 0.25014895411178018 0 0.54248833945060504 0.2520322959927106 0 0.86411095495256451 0.42388805655111889 0 0.81973119833356312 0.43505687159469048 0 0.81308179852519835 0.39754945808726527 0 0.67323294229744413 0.57556450033612505 0 0.71809016091162536 0.58185040402320831 0 0.67529834988829951 0.61613270668143583 0 0.6236733212988993 0.14864538214901801 0 0.68391457121233579 0.14440470121196541 0 0.64011864159029941 0.18789607982138171 0 0 0.050000000000207989 0 0.053064897599215843 0.048131547304697528 0 0.044310582753132287 0.101412518374475 0 0 0.94999999999979179 0 0.0443105827531413 0.89858748162559932 0 0.053064897599294662 0.95186845269532028 0 1 0.34999999999993492 0 1 0.39999999999978308 0 0.95871855522754235 0.40006508612975411 0 1 0.59999999999973963 0 1 0.64999999999986979 0 0.95867599106212187 0.60011091146651041 0 0 0.84999999999965292 0 0.065374659239661639 0.8551091961254178 0 0.0443105827531413 0.89858748162559932 0 0 0.15000000000062411 0 0.044310582753132287 0.101412518374475 0 0.065374659239632718 0.1448908038746782 0 0.16500388252850301 0.66612077714085194 0 0.1020579365089687 0.69352219419301997 0 0.1241190223511371 0.64391885572885044 0 0.14999999999970359 0 0 0.14618258501891079 0.062070108745602003 0 0.10266856499169109 0.044518360900210059 0 0.15000000000062411 1 0 0.10266856499240549 0.95548163909968886 0 0.14617343800780541 0.93808063414349496 0 0.7152569930854884 0.5237994455134295 0 0.67569444444444449 0.53500863336860327 0 0.69385896817107129 0.48377516041410151 0 0.6541250972820879 0.49999999999999989 0 0.62042975506801734 0.54295974692364424 0 0.61547661924074692 0.48539576058873962 0 0.94999999999999996 0.69999999999999996 0 0.94399509803918602 0.75600490196082126 0 0.89999166460796554 0.74528934923809909 0 0.94999999999986839 0 0 0.94399509803922566 0.056004901960802607 0 0.899991664607802 0.045289349238254978 0 0.6541250972820879 0.49999999999999989 0 0.69385896817107129 0.48377516041410151 0 0.67569444444444449 0.53500863336860327 0 0.82862096804812391 0.55037090955459045 0 0.81723410853263523 0.59419663659258926 0 0.77151014687832564 0.54436834383023036 0 0.7250000000005199 0.89375000000045834 0 0.66412543161245952 0.88015090885499059 0 0.68697391633157634 0.84450604838764298 0 0 0.94999999999979179 0 0 0.89999999999958358 0 0.0443105827531413 0.89858748162559932 0 0 0.10000000000041601 0 0 0.050000000000207989 0 0.044310582753132287 0.101412518374475 0 0.16500388252850301 0.66612077714085194 0 0.15332765547575641 0.71200081858233666 0 0.1020579365089687 0.69352219419301997 0 0.90299850604011456 0.79563452813489832 0 0.93677536231884972 0.85000000000000286 0 0.88088768115933802 0.84674609810493673 0 0.90299850604006393 0.09563452813493091 0 0.93677536231883773 0.14999999999999089 0 0.88088768115941807 0.14674609810479519 0 0.68391457121233579 0.14440470121196541 0 0.6865991819015953 0.189116534044597 0 0.64011864159029941 0.18789607982138171 0 0.085622222639554768 0.53333248912060549 0 0.1216098864341134 0.50637075089503902 0 0.1154888278694548 0.56733818459978413 0 0.21858834311891909 0.81980263716112767 0 0.22556077506376701 0.77837424984191617 0 0.26104540868854792 0.81401944968719064 0 0.81723410853263523 0.59419663659258926 0 0.77293540622714185 0.59448302402785813 0 0.77151014687832564 0.54436834383023036 0 0.1154888278694548 0.56733818459978413 0 0.1216098864341134 0.50637075089503902 0 0.14934928745814749 0.55042914607228977 0 0.1216098864341134 0.50637075089503902 0 0.068743045408989428 0.48853989837882689 0 0.113541300460994 0.46208784312094731 0 0.078358742472063481 0.43365249433908948 0 0.113541300460994 0.46208784312094731 0 0.068743045408989428 0.48853989837882689 0 0.83573492347052902 0.36590755630746369 0 0.81308179852519835 0.39754945808726527 0 0.78145581580700685 0.34881365920033602 0 0.57611405284611883 0.50165903596042916 0 0.62042975506801734 0.54295974692364424 0 0.57435499076887508 0.54267261987897775 0 0.86956835336234861 0.571283299838105 0 0.81723410853263523 0.59419663659258926 0 0.82862096804812391 0.55037090955459045 0 0.46666084890304671 0.57634471035397938 0 0.53245488764484505 0.55078124999999989 0 0.5166924242153631 0.59825134841919447 0 0.89999999999999991 0.69999999999999996 0 0.94999999999999996 0.69999999999999996 0 0.89999166460796554 0.74528934923809909 0 0.89999999999973679 0 0 0.94999999999986839 0 0 0.899991664607802 0.045289349238254978 0 0.84999999999960507 0 0 0.89999999999973679 0 0 0.899991664607802 0.045289349238254978 0 0.84999999999999987 0.69999999999999996 0 0.89999999999999991 0.69999999999999996 0 0.89999166460796554 0.74528934923809909 0 0.43545892161006339 0.61093128915313821 0 0.4089290844030305 0.58728915500154233 0 0.46666084890304671 0.57634471035397938 0 0.1650278706801647 0.38791388161335733 0 0.1117088112799664 0.38831403004970022 0 0.14223753364722069 0.3341983344262433 0 0.087545339447545459 0.35122518864182262 0 0.14223753364722069 0.3341983344262433 0 0.1117088112799664 0.38831403004970022 0 0.6916490518212759 0.75387992374886192 0 0.72501250972655151 0.74067302935308721 0 0.72500000000000064 0.7952620967744265 0 0.72501250972655151 0.74067302935308721 0 0.75841349681148107 0.75422312624214749 0 0.72500000000000064 0.7952620967744265 0 0.57412547362576272 0.58273804879550706 0 0.53245488764484505 0.55078124999999989 0 0.57435499076887508 0.54267261987897775 0 1 0.54999999999963112 0 0.95867599106212187 0.60011091146651041 0 0.93732437411268477 0.55911392101136159 0 1 0.44999999999963131 0 0.93814194660195893 0.44426664081746747 0 0.95871855522754235 0.40006508612975411 0 0.4089290844030305 0.58728915500154233 0 0.42644501560315817 0.54603747078095544 0 0.46666084890304671 0.57634471035397938 0 0.89999999999958358 1 0 0.84999999999965292 1 0 0.89898474358632463 0.95391965591118966 0 0.84999999999999987 0.29999999999999999 0 0.89898474358614167 0.25391965591104898 0 0.89999999999999991 0.29999999999999999 0 0.29999999999926641 0 0 0.32541448401678508 0.046215317981507749 0 0.27499999999933927 0.060310814194988557 0 0.30000000000124832 1 0 0.27609987656793722 0.94991445621608572 0 0.32544832635163229 0.95485394099568932 0 0.57412547362576272 0.58273804879550706 0 0.62042975506801734 0.54295974692364424 0 0.63065402604362242 0.59661356661633302 0 0.5 0.29999999999999999 0 0.54248833945060504 0.2520322959927106 0 0.54999999999999993 0.29999999999999999 0 0.67323294229744413 0.57556450033612505 0 0.62042975506801734 0.54295974692364424 0 0.67569444444444449 0.53500863336860327 0 0.6541250972820879 0.49999999999999989 0 0.67569444444444449 0.53500863336860327 0 0.62042975506801734 0.54295974692364424 0 1 0.14999999999961891 0 1 0.19999999999974799 0 0.95391631417672862 0.19584263333809451 0 1 0.84999999999982645 0 1 0.8999999999998336 0 0.95391631417670719 0.89584263333814784 0 1 0.7999999999998193 0 1 0.84999999999982645 0 0.95386563387742829 0.80414874155775029 0 1 0.099999999999753911 0 1 0.14999999999961891 0 0.95386563387744361 0.1041487415577465 0 0.4656888918609538 0.78493261229743638 0 0.50627822638148745 0.8263979829520941 0 0.45677673713123867 0.84253684404072415 0 0.6879972333610942 0.43038561374960838 0 0.72622533758026719 0.40265885511101601 0 0.73483647259922602 0.44789725365921768 0 0.67323294229744413 0.57556450033612505 0 0.67569444444444449 0.53500863336860327 0 0.71809016091162536 0.58185040402320831 0 0.7152569930854884 0.5237994455134295 0 0.71809016091162536 0.58185040402320831 0 0.67569444444444449 0.53500863336860327 0 0.65394964615507722 0.22666784374016369 0 0.59814117807200873 0.23398510860739519 0 0.64011864159029941 0.18789607982138171 0 0.55000000000173355 1 0 0.52122150208832174 0.94089974453840242 0 0.57382506491224949 0.9629411906298494 0 0.39801143831225599 0.16651381068160659 0 0.44288491854585582 0.14116182884956319 0 0.42905200079338551 0.19982395548231649 0 0.47357141910802508 0.1873585799078378 0 0.42905200079338551 0.19982395548231649 0 0.44288491854585582 0.14116182884956319 0 0.90594285160987287 0.4141265964174129 0 0.88594198078881503 0.46167788676578442 0 0.86411095495256451 0.42388805655111889 0 0.65507451745379841 0.92229208810758578 0 0.68015064798562208 0.95924320340003011 0 0.62065498684670595 0.95224934003983619 0 0.35312867752657662 0.084946736076730367 0 0.39591832466117061 0.056982757562006353 0 0.39823268594401579 0.1116623613130045 0 0.43698630808430822 0.080423614171545449 0 0.39823268594401579 0.1116623613130045 0 0.39591832466117061 0.056982757562006353 0 0.4367309254023824 0.92065556789053882 0 0.39641108128798319 0.94356127926187128 0 0.39767323751400468 0.89584229130535065 0 0.35752321586431363 0.9185439911803448 0 0.39767323751400468 0.89584229130535065 0 0.39641108128798319 0.94356127926187128 0 0.77354604466818633 0.40378688774472771 0 0.77972660463949339 0.45529290596363098 0 0.73483647259922602 0.44789725365921768 0 0.5499999999988151 0 0 0.57396793757665954 0.037011367187645222 0 0.52375890611712683 0.059318771819432882 0 0.64753070846764316 0.77332939069435502 0 0.60294066490120068 0.80851322453934582 0 0.59636844454254345 0.75937156204589151 0 0.49102375406324739 0.49123754822244059 0 0.48858720058566618 0.43964267759203868 0 0.53823865529665704 0.45873898050322898 0 0.28307294598219601 0.50789252727458634 0 0.29110487519241501 0.56588143995431495 0 0.25115337790845271 0.54719303014923271 0 0.79680861578988083 0.92656778056766709 0 0.81159157511211755 0.88795995483179491 0 0.85170973911348691 0.93569607295217616 0 0.79680861578956375 0.22656778056752541 0 0.81283102246527783 0.1881007222486438 0 0.8517097391133297 0.2356960729520409 0 0.57412547362576272 0.58273804879550706 0 0.57435499076887508 0.54267261987897775 0 0.62042975506801734 0.54295974692364424 0 0.93814194660195893 0.44426664081746747 0 0.88594198078881503 0.46167788676578442 0 0.90594285160987287 0.4141265964174129 0 0.7152569930854884 0.5237994455134295 0 0.73947346780852752 0.49062440112282169 0 0.77151014687832564 0.54436834383023036 0 0 0.7000000000006934 0 0.046634677244967337 0.671418230738282 0 0.049706944316475897 0.72477277076253799 0 0 0.30000000000124832 0 0.049706944316556423 0.27522722923869108 0 0.046389130980076937 0.32668781832131749 0 0.59814117807200873 0.23398510860739519 0 0.59443395090188023 0.18455690917515069 0 0.64011864159029941 0.18789607982138171 0 0.21858834311891909 0.81980263716112767 0 0.26104540868854792 0.81401944968719064 0 0.2401283238295133 0.85648409884788523 0 0.39536230704883951 0.84069429572832477 0 0.45677673713123867 0.84253684404072415 0 0.44003836461056539 0.88093474584252718 0 0.086179601630648681 0.64647209519980475 0 0.050069554451969707 0.61308520079857043 0 0.1024350934457823 0.60772393977513839 0 0.077693244765132896 0.56932317963405099 0 0.1024350934457823 0.60772393977513839 0 0.050069554451969707 0.61308520079857043 0 0.078358742472063481 0.43365249433908948 0 0.050583896093752537 0.38543522283434112 0 0.1117088112799664 0.38831403004970022 0 0.087545339447545459 0.35122518864182262 0 0.1117088112799664 0.38831403004970022 0 0.050583896093752537 0.38543522283434112 0 0.33403534827021109 0.84402799729020661 0 0.35642984951668422 0.80994399665655703 0 0.39536230704883951 0.84069429572832477 0 0.28307294598219601 0.50789252727458634 0 0.33190227185843768 0.52715113583864037 0 0.29110487519241501 0.56588143995431495 0 0.2236846579037573 0.67380363126050236 0 0.19068556247388771 0.71028988922845504 0 0.16500388252850301 0.66612077714085194 0 0.26104540868854792 0.81401944968719064 0 0.22556077506376701 0.77837424984191617 0 0.2792923945214143 0.77665808831789485 0 0.38244435121258652 0.51653317813019495 0 0.37272913873093971 0.56192925302619479 0 0.33190227185843768 0.52715113583864037 0 0.25195515620380449 0.25883339815888678 0 0.29132859388405002 0.27203693976649962 0 0.24432083401701241 0.3006253385567515 0 0.29348325746214782 0.31350119524708198 0 0.24432083401701241 0.3006253385567515 0 0.29132859388405002 0.27203693976649962 0 0 0.89999999999958358 0 0 0.84999999999965292 0 0.0443105827531413 0.89858748162559932 0 0 0.15000000000062411 0 0 0.10000000000041601 0 0.044310582753132287 0.101412518374475 0 0.59999999999999976 0.69999999999999996 0 0.59636844454254345 0.75937156204589151 0 0.55363780716230748 0.74348740161571747 0 0.1650278706801647 0.38791388161335733 0 0.22033343844674469 0.36963382230740238 0 0.191953871957803 0.42546416763755879 0 0.52289427570932567 0.3932284363388488 0 0.46655310992796922 0.39650496622958609 0 0.49077833859261139 0.35229981449445641 0 0.91696753777131557 0.497780560203536 0 0.88594198078881503 0.46167788676578442 0 0.93814194660195893 0.44426664081746747 0 0.24999999999941211 0 0 0.27499999999933927 0.060310814194988557 0 0.22668068146512929 0.045875643423131329 0 0.25000000000104028 1 0 0.22850979588452081 0.95594428570238643 0 0.27609987656793722 0.94991445621608572 0 0.77846603114747959 0.49850927265137401 0 0.77151014687832564 0.54436834383023036 0 0.73947346780852752 0.49062440112282169 0 0.27499999999933927 0.060310814194988557 0 0.27474541102162192 0.11822029332053539 0 0.24218496799700481 0.089025544070598317 0 0.27270076654418179 0.87751467830216623 0 0.29209212897034281 0.84715728365233667 0 0.30864387279288652 0.89906554525974958 0 0.3096713403101819 0.085471541595262421 0 0.27474541102162192 0.11822029332053539 0 0.27499999999933927 0.060310814194988557 0 0.17933913398461551 0.2350063570234002 0 0.18124454140915969 0.18790916706335251 0 0.224700362040408 0.22206622194729711 0 0.18269480424590959 0.75905448272264375 0 0.22556077506376701 0.77837424984191617 0 0.17777405986036951 0.81832336108265358 0 0.35864759629805099 0.87963482415279515 0 0.33403534827021109 0.84402799729020661 0 0.39536230704883951 0.84069429572832477 0 0.77354604466818633 0.40378688774472771 0 0.73483647259922602 0.44789725365921768 0 0.72622533758026719 0.40265885511101601 0 0.80185942888539485 0.77452061303608133 0 0.85491058998424563 0.76004753345552634 0 0.84725310900444062 0.80779732082917555 0 0.80185942888501827 0.074520613036224564 0 0.85491058998398861 0.060047533455626502 0 0.84725310900442086 0.10779732082922661 0 0.086179601630648681 0.64647209519980475 0 0.046634677244967337 0.671418230738282 0 0.050069554451969707 0.61308520079857043 0 0.087545339447545459 0.35122518864182262 0 0.050583896093752537 0.38543522283434112 0 0.046389130980076937 0.32668781832131749 0 0 0.75000000000034661 0 0.049706944316475897 0.72477277076253799 0 0.04408157711937423 0.7728941757575627 0 0 0.25000000000104028 0 0.044081577119474857 0.2271058242433576 0 0.049706944316556423 0.27522722923869108 0 0.52289427570932567 0.3932284363388488 0 0.56836770495988642 0.3523062350852913 0 0.57744073070774993 0.41535148636609359 0 0.6084546825910605 0.37989672713932537 0 0.57744073070774993 0.41535148636609359 0 0.56836770495988642 0.3523062350852913 0 0.61343887413683884 0.856862479058357 0 0.55899371797446828 0.85003102233514438 0 0.60294066490120068 0.80851322453934582 0 0.54782696902220018 0.79245182748204157 0 0.60294066490120068 0.80851322453934582 0 0.55899371797446828 0.85003102233514438 0 0.40326160981139969 0.73346192995102844 0 0.36622285152418499 0.69092437780804039 0 0.43323420005758778 0.6913544522562407 0 0.52289427570932567 0.3932284363388488 0 0.48858720058566618 0.43964267759203868 0 0.46655310992796922 0.39650496622958609 0 0.15720202157091859 0.60665697304410315 0 0.1154888278694548 0.56733818459978413 0 0.14934928745814749 0.55042914607228977 0 0.6879972333610942 0.43038561374960838 0 0.73483647259922602 0.44789725365921768 0 0.69385896817107129 0.48377516041410151 0 0.7250000000005199 0.89375000000045834 0 0.68987011941058407 0.92105047536677087 0 0.66412543161245952 0.88015090885499059 0 0.83573492347052902 0.36590755630746369 0 0.78145581580700685 0.34881365920033602 0 0.82500000000000062 0.33010209762754811 0 0.82862096804812391 0.55037090955459045 0 0.81441713509985358 0.51161854125224959 0 0.86907294890112186 0.52008116128001669 0 0.19670163708476801 0.31472518408333222 0 0.14223753364722069 0.3341983344262433 0 0.168349569971391 0.28054490850913671 0 0.50202631463681879 0.87892870825713787 0 0.45677673713123867 0.84253684404072415 0 0.50627822638148745 0.8263979829520941 0 0.099999999999814668 0 0 0.14999999999970359 0 0 0.10266856499169109 0.044518360900210059 0 0.15000000000062411 1 0 0.10000000000041601 1 0 0.10266856499240549 0.95548163909968886 0 0.67323294229744413 0.57556450033612505 0 0.63065402604362242 0.59661356661633302 0 0.62042975506801734 0.54295974692364424 0 0.083105206071467416 0.20007701332709979 0 0.13737030665753211 0.20313708640667491 0 0.095326043202144745 0.24554465089224409 0 0.083105206071452636 0.79992298667296435 0 0.090953281884486245 0.7564451946902494 0 0.1382744753146134 0.79650574229207483 0 0.50000000000205869 1 0 0.47135117303824892 0.95556877749289892 0 0.52122150208832174 0.94089974453840242 0 0.49999999999869432 0 0 0.52375890611712683 0.059318771819432882 0 0.47040171442036788 0.044141676406503738 0 0.4656888918609538 0.78493261229743638 0 0.45582236402875981 0.73896743678908217 0 0.50945740445113552 0.75476055527778108 0 0.5 0.69999999999999996 0 0.50945740445113552 0.75476055527778108 0 0.45582236402875981 0.73896743678908217 0 0.55306006949600994 0.20198184231352201 0 0.56202748619534593 0.15054058349222879 0 0.59443395090188023 0.18455690917515069 0 0.6236733212988993 0.14864538214901801 0 0.59443395090188023 0.18455690917515069 0 0.56202748619534593 0.15054058349222879 0 0.57412547362576272 0.58273804879550706 0 0.5498280205245758 0.6290146943450976 0 0.5166924242153631 0.59825134841919447 0 0.91696753777131557 0.497780560203536 0 0.93814194660195893 0.44426664081746747 0 0.96228564064454991 0.48206450662049471 0 0.15720202157091859 0.60665697304410315 0 0.16500388252850301 0.66612077714085194 0 0.1241190223511371 0.64391885572885044 0 0.44288491854585582 0.14116182884956319 0 0.47881186583059909 0.093591717165689425 0 0.48466639505193998 0.1421439844745814 0 1 0.54999999999963112 0 0.93732437411268477 0.55911392101136159 0 0.95631871884947484 0.51827533208233789 0 0.57724883562309992 0.92155686857100794 0 0.57382506491224949 0.9629411906298494 0 0.52122150208832174 0.94089974453840242 0 0.85170973911348691 0.93569607295217616 0 0.81159157511211755 0.88795995483179491 0 0.85600844944837662 0.88483418979512773 0 0.8517097391133297 0.2356960729520409 0 0.81283102246527783 0.1881007222486438 0 0.85600844944842547 0.1848341897950983 0 0.27866744612395528 0.38416094670951489 0 0.29124338931648802 0.43334555462578611 0 0.24049127783545701 0.41270748208749802 0 0.6084546825910605 0.37989672713932537 0 0.56836770495988642 0.3523062350852913 0 0.61959173890754571 0.33832250091341232 0 0.20050006573841939 0.53248514016039872 0 0.25115337790845271 0.54719303014923271 0 0.22549374774072969 0.58452645269293457 0 0.26573297623774761 0.59828298563722948 0 0.22549374774072969 0.58452645269293457 0 0.25115337790845271 0.54719303014923271 0 0.26104540868854792 0.81401944968719064 0 0.29209212897034281 0.84715728365233667 0 0.2401283238295133 0.85648409884788523 0 0.6236733212988993 0.14864538214901801 0 0.65290632656860115 0.11434202593454081 0 0.68391457121233579 0.14440470121196541 0 0.19901705110390991 0.9175543425573498 0 0.19741632902693801 0.86755867406447229 0 0.24536017905392571 0.90704567837671446 0 0.72500000000000064 0.7952620967744265 0 0.76901770135486491 0.84293557325473656 0 0.72863726579783861 0.85390518901155588 0 0.72500000000000064 0.7952620967744265 0 0.72863726579783861 0.85390518901155588 0 0.68697391633157634 0.84450604838764298 0 0.7250000000005199 0.89375000000045834 0 0.68697391633157634 0.84450604838764298 0 0.72863726579783861 0.85390518901155588 0 0.72525833953073282 0.1032114801687094 0 0.77144070960558853 0.14311854477243749 0 0.72634814642510737 0.16106886917518889 0 0.72525833953073282 0.1032114801687094 0 0.72634814642510737 0.16106886917518889 0 0.68391457121233579 0.14440470121196541 0 0.36622285152418499 0.69092437780804039 0 0.3977710372045391 0.65868194622830212 0 0.43323420005758778 0.6913544522562407 0 0 0.65000000000104008 0 0 0.60000000000138687 0 0.050069554451969707 0.61308520079857043 0 0 0.40000000000166441 0 0 0.35000000000145642 0 0.050583896093752537 0.38543522283434112 0 0.22033343844674469 0.36963382230740238 0 0.24049127783545701 0.41270748208749802 0 0.191953871957803 0.42546416763755879 0 0.5 0.29999999999999999 0 0.4604742573284204 0.27846934318264788 0 0.49695729691142171 0.25014895411178018 0 0.19741632902693801 0.86755867406447229 0 0.2401283238295133 0.85648409884788523 0 0.24536017905392571 0.90704567837671446 0 0 0.50000000000205869 0 0.068743045408989428 0.48853989837882689 0 0.044576108720083309 0.53509043209532614 0 0.15000000000062411 1 0 0.14617343800780541 0.93808063414349496 0 0.18474005699953849 0.96231585248064622 0 0.14999999999970359 0 0 0.184418230509967 0.038773194583122873 0 0.14618258501891079 0.062070108745602003 0 0.57667858002728545 0.078486105337742612 0 0.52375890611712683 0.059318771819432882 0 0.57396793757665954 0.037011367187645222 0 0.113541300460994 0.46208784312094731 0 0.078358742472063481 0.43365249433908948 0 0.13773355295499351 0.42497777642586831 0 0.77354604466818633 0.40378688774472771 0 0.78145581580700685 0.34881365920033602 0 0.81308179852519835 0.39754945808726527 0 0.38244435121258652 0.51653317813019495 0 0.33190227185843768 0.52715113583864037 0 0.35024835142131061 0.48654922671676981 0 0.64753070846764316 0.77332939069435502 0 0.65005442820240822 0.82644988530054031 0 0.60294066490120068 0.80851322453934582 0 0.15720202157091859 0.60665697304410315 0 0.1024350934457823 0.60772393977513839 0 0.1154888278694548 0.56733818459978413 0 0.90416666666660628 0.9041666666666166 0 0.85600844944837662 0.88483418979512773 0 0.88088768115933802 0.84674609810493673 0 0.90416666666668166 0.20416666666667119 0 0.85600844944842547 0.1848341897950983 0 0.88088768115941807 0.14674609810479519 0 0.078358742472063481 0.43365249433908948 0 0.1117088112799664 0.38831403004970022 0 0.13773355295499351 0.42497777642586831 0 0.38244435121258652 0.51653317813019495 0 0.3908716102680424 0.47010282357248828 0 0.43507373378304309 0.49699695397193322 0 0.90299850604011456 0.79563452813489832 0 0.95386563387742829 0.80414874155775029 0 0.93677536231884972 0.85000000000000286 0 0.90416666666660628 0.9041666666666166 0 0.93677536231884972 0.85000000000000286 0 0.95391631417670719 0.89584263333814784 0 0.90299850604006393 0.09563452813493091 0 0.95386563387744361 0.1041487415577465 0 0.93677536231883773 0.14999999999999089 0 0.90416666666668166 0.20416666666667119 0 0.93677536231883773 0.14999999999999089 0 0.95391631417672862 0.19584263333809451 0 0.39536230704883951 0.84069429572832477 0 0.44003836461056539 0.88093474584252718 0 0.39767323751400468 0.89584229130535065 0 0.51076801031701946 0.1202837388510348 0 0.52375890611712683 0.059318771819432882 0 0.54979595918804436 0.1060565713905809 0 0.57667858002728545 0.078486105337742612 0 0.54979595918804436 0.1060565713905809 0 0.52375890611712683 0.059318771819432882 0 0.57724883562309992 0.92155686857100794 0 0.52122150208832174 0.94089974453840242 0 0.54783390826260769 0.89287767010860219 0 0.50202631463681879 0.87892870825713787 0 0.54783390826260769 0.89287767010860219 0 0.52122150208832174 0.94089974453840242 0 0.087545339447545459 0.35122518864182262 0 0.093851963071650835 0.30582068233324772 0 0.14223753364722069 0.3341983344262433 0 0.54999999999999993 0.69999999999999996 0 0.59999999999999976 0.69999999999999996 0 0.55363780716230748 0.74348740161571747 0 0.083105206071452636 0.79992298667296435 0 0.1074251789111534 0.83564394292147814 0 0.065374659239661639 0.8551091961254178 0 0.083105206071467416 0.20007701332709979 0 0.065374659239632718 0.1448908038746782 0 0.106902708054812 0.16453234188234539 0 0.52289427570932567 0.3932284363388488 0 0.53823865529665704 0.45873898050322898 0 0.48858720058566618 0.43964267759203868 0 0.13737030665753211 0.20313708640667491 0 0.14377654328998779 0.2442024734791064 0 0.095326043202144745 0.24554465089224409 0 0.1382744753146134 0.79650574229207483 0 0.090953281884486245 0.7564451946902494 0 0.14335651144331049 0.75565258250209677 0 0.27270076654418179 0.87751467830216623 0 0.30864387279288652 0.89906554525974958 0 0.24536017905392571 0.90704567837671446 0 0.27609987656793722 0.94991445621608572 0 0.24536017905392571 0.90704567837671446 0 0.30864387279288652 0.89906554525974958 0 0.90299850604011456 0.79563452813489832 0 0.84725310900444062 0.80779732082917555 0 0.85491058998424563 0.76004753345552634 0 0.90299850604006393 0.09563452813493091 0 0.84725310900442086 0.10779732082922661 0 0.85491058998398861 0.060047533455626502 0 1 0.54999999999963112 0 1 0.59999999999973963 0 0.95867599106212187 0.60011091146651041 0 1 0.39999999999978308 0 1 0.44999999999963131 0 0.95871855522754235 0.40006508612975411 0 0.28040350263641872 0.23054717217092141 0 0.25195515620380449 0.25883339815888678 0 0.224700362040408 0.22206622194729711 0 0.84999999999999987 0.29999999999999999 0 0.87430060258887643 0.34056085888204451 0 0.82500000000000062 0.33010209762754811 0 0.84999999999999987 0.69999999999999996 0 0.82457059160610424 0.66831947184359608 0 0.87712158428786946 0.65709029563313581 0 0.86956835336234861 0.571283299838105 0 0.87159648282691515 0.61285406320581504 0 0.81723410853263523 0.59419663659258926 0 0.43698630808430822 0.080423614171545449 0 0.47881186583059909 0.093591717165689425 0 0.44288491854585582 0.14116182884956319 0 1 0.44999999999963131 0 0.96228564064454991 0.48206450662049471 0 0.93814194660195893 0.44426664081746747 0 0.35752321586431363 0.9185439911803448 0 0.30864387279288652 0.89906554525974958 0 0.35864759629805099 0.87963482415279515 0 0.29124338931648802 0.43334555462578611 0 0.25982634974572738 0.46097799597715272 0 0.24049127783545701 0.41270748208749802 0 0.51076801031701946 0.1202837388510348 0 0.56202748619534593 0.15054058349222879 0 0.51729576145820033 0.1683240575987815 0 0.55306006949600994 0.20198184231352201 0 0.51729576145820033 0.1683240575987815 0 0.56202748619534593 0.15054058349222879 0 0.26429849586623999 0.19346700179430079 0 0.28040350263641872 0.23054717217092141 0 0.224700362040408 0.22206622194729711 0 0.51076801031701946 0.1202837388510348 0 0.48466639505193998 0.1421439844745814 0 0.47881186583059909 0.093591717165689425 0 0.2185883431182947 0.18019736283949719 0 0.26429849586623999 0.19346700179430079 0 0.224700362040408 0.22206622194729711 0 0.18269480424590959 0.75905448272264375 0 0.2248999640082178 0.72584299459689172 0 0.22556077506376701 0.77837424984191617 0 0.51076801031701946 0.1202837388510348 0 0.47881186583059909 0.093591717165689425 0 0.52375890611712683 0.059318771819432882 0 0.50202631463681879 0.87892870825713787 0 0.52122150208832174 0.94089974453840242 0 0.47401147028110507 0.91529957330468115 0 0 0.84999999999965292 0 0.038512288486097702 0.8155852717111195 0 0.065374659239661639 0.8551091961254178 0 0 0.15000000000062411 0 0.065374659239632718 0.1448908038746782 0 0.038512288486115001 0.1844147282893184 0 0.2185883431182947 0.18019736283949719 0 0.224700362040408 0.22206622194729711 0 0.18124454140915969 0.18790916706335251 0 0.21858834311891909 0.81980263716112767 0 0.17777405986036951 0.81832336108265358 0 0.22556077506376701 0.77837424984191617 0 0.1215415378367805 0.72939333680004137 0 0.1020579365089687 0.69352219419301997 0 0.15332765547575641 0.71200081858233666 0 0.49695729691142171 0.25014895411178018 0 0.50760557329222289 0.20700468884612061 0 0.54248833945060504 0.2520322959927106 0 0.15720202157091859 0.60665697304410315 0 0.14934928745814749 0.55042914607228977 0 0.18381867841758909 0.57774125163628387 0 0.90416666666660628 0.9041666666666166 0 0.85170973911348691 0.93569607295217616 0 0.85600844944837662 0.88483418979512773 0 0.90416666666668166 0.20416666666667119 0 0.8517097391133297 0.2356960729520409 0 0.85600844944842547 0.1848341897950983 0 0.17933913398461551 0.2350063570234002 0 0.13737030665753211 0.20313708640667491 0 0.18124454140915969 0.18790916706335251 0 0.18269480424590959 0.75905448272264375 0 0.17777405986036951 0.81832336108265358 0 0.1382744753146134 0.79650574229207483 0 0.1216098864341134 0.50637075089503902 0 0.15801167086041079 0.46008690540259539 0 0.16618607197337229 0.50652878253548905 0 0.50760557329222289 0.20700468884612061 0 0.55306006949600994 0.20198184231352201 0 0.54248833945060504 0.2520322959927106 0 0.75000000000034661 1 0 0.7000000000006934 1 0 0.7250000000005199 0.94981617647078953 0 0.69999999999999984 0.29999999999999999 0 0.72500000000000064 0.2498161764706 0 0.74999999999999989 0.29999999999999999 0 0.72525833953073282 0.1032114801687094 0 0.68391457121233579 0.14440470121196541 0 0.68330259535470161 0.10038702501083881 0 0.43249999999999988 0.43937499999999979 0 0.46655310992796922 0.39650496622958609 0 0.48858720058566618 0.43964267759203868 0 0.19901705110390991 0.9175543425573498 0 0.14617343800780541 0.93808063414349496 0 0.16206583317966519 0.89685560785156404 0 0.19922788606653311 0.085920220746880993 0 0.16141998738593399 0.10404039647458049 0 0.14618258501891079 0.062070108745602003 0 0.31378396441836959 0.70157213313026345 0 0.26439878998046262 0.7048065392091396 0 0.27820712747429932 0.65530134213254643 0 0.1216098864341134 0.50637075089503902 0 0.113541300460994 0.46208784312094731 0 0.15801167086041079 0.46008690540259539 0 0.6084546825910605 0.37989672713932537 0 0.65481233915350323 0.35652751921065562 0 0.63912439215427275 0.41063340167983359 0 0.19901705110390991 0.9175543425573498 0 0.18474005699953849 0.96231585248064622 0 0.14617343800780541 0.93808063414349496 0 0.19922788606653311 0.085920220746880993 0 0.14618258501891079 0.062070108745602003 0 0.184418230509967 0.038773194583122873 0 0.38244435121258652 0.51653317813019495 0 0.35024835142131061 0.48654922671676981 0 0.3908716102680424 0.47010282357248828 0 0.82709327591102189 0.14937141670914489 0 0.77144070960558853 0.14311854477243749 0 0.80076557130237269 0.1154587552654202 0 0.82709327591091286 0.84937141670920724 0 0.76901770135486491 0.84293557325473656 0 0.80041942726660109 0.81543261647703358 0 0.43698630808430822 0.080423614171545449 0 0.44288491854585582 0.14116182884956319 0 0.39823268594401579 0.1116623613130045 0 0.39801143831225599 0.16651381068160659 0 0.39823268594401579 0.1116623613130045 0 0.44288491854585582 0.14116182884956319 0 0.36575549820117997 0.31677992835137742 0 0.3786248352540974 0.27082301512024259 0 0.41914690343363781 0.30688979866601612 0 0.42377727103934271 0.25099357235810238 0 0.41914690343363781 0.30688979866601612 0 0.3786248352540974 0.27082301512024259 0 0.049706944316475897 0.72477277076253799 0 0.1020579365089687 0.69352219419301997 0 0.090953281884486245 0.7564451946902494 0 0.1215415378367805 0.72939333680004137 0 0.090953281884486245 0.7564451946902494 0 0.1020579365089687 0.69352219419301997 0 0.1247745017231483 0.27198077544791172 0 0.093851963071650835 0.30582068233324772 0 0.095326043202144745 0.24554465089224409 0 0.049706944316556423 0.27522722923869108 0 0.095326043202144745 0.24554465089224409 0 0.093851963071650835 0.30582068233324772 0 0.77354604466818633 0.40378688774472771 0 0.81973119833356312 0.43505687159469048 0 0.77972660463949339 0.45529290596363098 0 0.43249999999999988 0.43937499999999979 0 0.43507373378304309 0.49699695397193322 0 0.3908716102680424 0.47010282357248828 0 0.26573297623774761 0.59828298563722948 0 0.2459498854893499 0.63248470766216769 0 0.22549374774072969 0.58452645269293457 0 0.72500000000000064 0.7952620967744265 0 0.77094201086366854 0.79647480515688507 0 0.76901770135486491 0.84293557325473656 0 0.72525833953073282 0.1032114801687094 0 0.76878382444651716 0.097147941686331368 0 0.77144070960558853 0.14311854477243749 0 0.72500000000000064 0.7952620967744265 0 0.68697391633157634 0.84450604838764298 0 0.68024162096458085 0.79868546898116533 0 0.31378396441836959 0.70157213313026345 0 0.29904318922293632 0.74132814928635593 0 0.26439878998046262 0.7048065392091396 0 0.31378396441836959 0.70157213313026345 0 0.35415581127540569 0.73730480045900215 0 0.29904318922293632 0.74132814928635593 0 0.61343887413683884 0.856862479058357 0 0.65005442820240822 0.82644988530054031 0 0.66412543161245952 0.88015090885499059 0 0.68697391633157634 0.84450604838764298 0 0.66412543161245952 0.88015090885499059 0 0.65005442820240822 0.82644988530054031 0 0.083411279318375747 0.91030024466934134 0 0.065374659239661639 0.8551091961254178 0 0.10562472963403439 0.87143394428979881 0 0.083411279318303222 0.089699755330707398 0 0.1053400320299198 0.12877248826361379 0 0.065374659239632718 0.1448908038746782 0 0.55306006949600994 0.20198184231352201 0 0.59443395090188023 0.18455690917515069 0 0.59814117807200873 0.23398510860739519 0 0.84999999999999987 0.29999999999999999 0 0.89999999999999991 0.29999999999999999 0 0.87430060258887643 0.34056085888204451 0 0.84999999999999987 0.69999999999999996 0 0.87712158428786946 0.65709029563313581 0 0.89999999999999991 0.69999999999999996 0 0.34258405725730701 0.4444034294386992 0 0.3908716102680424 0.47010282357248828 0 0.35024835142131061 0.48654922671676981 0 0.26573297623774761 0.59828298563722948 0 0.31502927232353312 0.6134992213375432 0 0.27820712747429932 0.65530134213254643 0 0.91696753777131557 0.497780560203536 0 0.86907294890112186 0.52008116128001669 0 0.88594198078881503 0.46167788676578442 0 0.84723782639812573 0.48638347960178252 0 0.88594198078881503 0.46167788676578442 0 0.86907294890112186 0.52008116128001669 0 0.7152569930854884 0.5237994455134295 0 0.77151014687832564 0.54436834383023036 0 0.71809016091162536 0.58185040402320831 0 0.90416666666660628 0.9041666666666166 0 0.89898474358632463 0.95391965591118966 0 0.85170973911348691 0.93569607295217616 0 0.90416666666668166 0.20416666666667119 0 0.89898474358614167 0.25391965591104898 0 0.8517097391133297 0.2356960729520409 0 0.91750694127107502 0.36982372220068471 0 0.95780851984364423 0.34215720972155339 0 0.95871855522754235 0.40006508612975411 0 0.91750694127105259 0.63017627779935648 0 0.95867599106212187 0.60011091146651041 0 0.9578014258160763 0.65787212321113708 0 0.90299850604011456 0.79563452813489832 0 0.88088768115933802 0.84674609810493673 0 0.84725310900444062 0.80779732082917555 0 0.90299850604006393 0.09563452813493091 0 0.88088768115941807 0.14674609810479519 0 0.84725310900442086 0.10779732082922661 0 0.1216098864341134 0.50637075089503902 0 0.16618607197337229 0.50652878253548905 0 0.14934928745814749 0.55042914607228977 0 0.20050006573841939 0.53248514016039872 0 0.14934928745814749 0.55042914607228977 0 0.16618607197337229 0.50652878253548905 0 0.80185942888539485 0.77452061303608133 0 0.84725310900444062 0.80779732082917555 0 0.80041942726660109 0.81543261647703358 0 0.80185942888501827 0.074520613036224564 0 0.84725310900442086 0.10779732082922661 0 0.80076557130237269 0.1154587552654202 0 0.083105206071452636 0.79992298667296435 0 0.065374659239661639 0.8551091961254178 0 0.038512288486097702 0.8155852717111195 0 0.083105206071467416 0.20007701332709979 0 0.038512288486115001 0.1844147282893184 0 0.065374659239632718 0.1448908038746782 0 0.54782696902220018 0.79245182748204157 0 0.59636844454254345 0.75937156204589151 0 0.60294066490120068 0.80851322453934582 0 0.083411279318375747 0.91030024466934134 0 0.0443105827531413 0.89858748162559932 0 0.065374659239661639 0.8551091961254178 0 0.083411279318303222 0.089699755330707398 0 0.065374659239632718 0.1448908038746782 0 0.044310582753132287 0.101412518374475 0 0.84999999999965292 1 0 0.81486180804382891 0.96321394949790495 0 0.85170973911348691 0.93569607295217616 0 0.84999999999999987 0.29999999999999999 0 0.81486180804364938 0.26321394949780091 0 0.8517097391133297 0.2356960729520409 0 0.4656888918609538 0.78493261229743638 0 0.45677673713123867 0.84253684404072415 0 0.42609163930740518 0.80361684430568059 0 0.39536230704883951 0.84069429572832477 0 0.42609163930740518 0.80361684430568059 0 0.45677673713123867 0.84253684404072415 0 0.6236733212988993 0.14864538214901801 0 0.56202748619534593 0.15054058349222879 0 0.58516465772821369 0.11653801664834119 0 0.57412547362576272 0.58273804879550706 0 0.63065402604362242 0.59661356661633302 0 0.5991018319127801 0.62925360607495295 0 0.61343887413683884 0.856862479058357 0 0.5832743223239254 0.88483152652961872 0 0.55899371797446828 0.85003102233514438 0 0.50202631463681879 0.87892870825713787 0 0.55899371797446828 0.85003102233514438 0 0.54783390826260769 0.89287767010860219 0 0.51076801031701946 0.1202837388510348 0 0.54979595918804436 0.1060565713905809 0 0.56202748619534593 0.15054058349222879 0 0.55306006949600994 0.20198184231352201 0 0.59814117807200873 0.23398510860739519 0 0.54248833945060504 0.2520322959927106 0 0.83573492347052902 0.36590755630746369 0 0.82500000000000062 0.33010209762754811 0 0.87430060258887643 0.34056085888204451 0 0.83758014339878906 0.63222013025741819 0 0.87712158428786946 0.65709029563313581 0 0.82457059160610424 0.66831947184359608 0 0.49102375406324739 0.49123754822244059 0 0.53823865529665704 0.45873898050322898 0 0.53330375813596242 0.50827942741749099 0 0.52289427570932567 0.3932284363388488 0 0.57744073070774993 0.41535148636609359 0 0.53823865529665704 0.45873898050322898 0 0.4089290844030305 0.58728915500154233 0 0.37272913873093971 0.56192925302619479 0 0.42644501560315817 0.54603747078095544 0 0.49695729691142171 0.25014895411178018 0 0.4604742573284204 0.27846934318264788 0 0.46429753744194407 0.22870891180733599 0 0.90299850604011456 0.79563452813489832 0 0.85491058998424563 0.76004753345552634 0 0.89999166460796554 0.74528934923809909 0 0.90299850604006393 0.09563452813493091 0 0.85491058998398861 0.060047533455626502 0 0.899991664607802 0.045289349238254978 0 0.38244435121258652 0.51653317813019495 0 0.42644501560315817 0.54603747078095544 0 0.37272913873093971 0.56192925302619479 0 0.71406021706547751 0.63292083137662503 0 0.71809016091162536 0.58185040402320831 0 0.74994237037456724 0.62775548192980357 0 0.84723782639812573 0.48638347960178252 0 0.86907294890112186 0.52008116128001669 0 0.81441713509985358 0.51161854125224959 0 0.33122374654748771 0.57588941099433744 0 0.33190227185843768 0.52715113583864037 0 0.37272913873093971 0.56192925302619479 0 0.086179601630648681 0.64647209519980475 0 0.1241190223511371 0.64391885572885044 0 0.1020579365089687 0.69352219419301997 0 0.59999999999894682 0 0 0.64999999999907843 0 0 0.61940220174112337 0.047251958781050582 0 0.18269480424590959 0.75905448272264375 0 0.14335651144331049 0.75565258250209677 0 0.15332765547575641 0.71200081858233666 0 0.22549374774072969 0.58452645269293457 0 0.2459498854893499 0.63248470766216769 0 0.19914261668318661 0.62286739485272158 0 0.38244435121258652 0.51653317813019495 0 0.43507373378304309 0.49699695397193322 0 0.42644501560315817 0.54603747078095544 0 0.65000000000104008 1 0 0.60000000000138687 1 0 0.62065498684670595 0.95224934003983619 0 0.078358742472063481 0.43365249433908948 0 0.068743045408989428 0.48853989837882689 0 0.033550201249889847 0.46247875832467239 0 0.2236846579037573 0.67380363126050236 0 0.27820712747429932 0.65530134213254643 0 0.26439878998046262 0.7048065392091396 0 0.6879972333610942 0.43038561374960838 0 0.68128176404677243 0.38629093627004979 0 0.72622533758026719 0.40265885511101601 0 0.72525833953073282 0.1032114801687094 0 0.7010294155333181 0.056779085686491267 0 0.7527966693318906 0.053051678021508272 0 0.18269480424590959 0.75905448272264375 0 0.15332765547575641 0.71200081858233666 0 0.19068556247388771 0.71028988922845504 0 0.1216098864341134 0.50637075089503902 0 0.085622222639554768 0.53333248912060549 0 0.068743045408989428 0.48853989837882689 0 0.25676291524611189 0.7436741304886243 0 0.26439878998046262 0.7048065392091396 0 0.29904318922293632 0.74132814928635593 0 0.65481233915350323 0.35652751921065562 0 0.68128176404677243 0.38629093627004979 0 0.63912439215427275 0.41063340167983359 0 0.83573492347052902 0.36590755630746369 0 0.86844634540301924 0.38530937474099819 0 0.81308179852519835 0.39754945808726527 0 0.27270076654418179 0.87751467830216623 0 0.2401283238295133 0.85648409884788523 0 0.29209212897034281 0.84715728365233667 0 0.84999999999999987 0.69999999999999996 0 0.85491058998424563 0.76004753345552634 0 0.81864958914779962 0.73589050177899629 0 0.84999999999960507 0 0 0.85491058998398861 0.060047533455626502 0 0.81864958914740749 0.035890501779055867 0 0.18381867841758909 0.57774125163628387 0 0.19914261668318661 0.62286739485272158 0 0.15720202157091859 0.60665697304410315 0 0.22549374774072969 0.58452645269293457 0 0.19914261668318661 0.62286739485272158 0 0.18381867841758909 0.57774125163628387 0 0.79680861578988083 0.92656778056766709 0 0.85170973911348691 0.93569607295217616 0 0.81486180804382891 0.96321394949790495 0 0.79680861578956375 0.22656778056752541 0 0.8517097391133297 0.2356960729520409 0 0.81486180804364938 0.26321394949780091 0 0.20050006573841939 0.53248514016039872 0 0.23975172658309729 0.49475499200540818 0 0.25115337790845271 0.54719303014923271 0 0.28307294598219601 0.50789252727458634 0 0.25115337790845271 0.54719303014923271 0 0.23975172658309729 0.49475499200540818 0 0.20050006573841939 0.53248514016039872 0 0.18381867841758909 0.57774125163628387 0 0.14934928745814749 0.55042914607228977 0 0.19922788606653311 0.085920220746880993 0 0.22985637510995899 0.1298347970200906 0 0.18652628422869419 0.14162325200928061 0 0.33758650185219202 0.23837101504325639 0 0.38831533174504851 0.2189834941785925 0 0.3786248352540974 0.27082301512024259 0 0.42377727103934271 0.25099357235810238 0 0.3786248352540974 0.27082301512024259 0 0.38831533174504851 0.2189834941785925 0 0.19922788606653311 0.085920220746880993 0 0.18652628422869419 0.14162325200928061 0 0.16141998738593399 0.10404039647458049 0 0.54782696902220018 0.79245182748204157 0 0.55363780716230748 0.74348740161571747 0 0.59636844454254345 0.75937156204589151 0 0.82709327591091286 0.84937141670920724 0 0.88088768115933802 0.84674609810493673 0 0.85600844944837662 0.88483418979512773 0 0.82709327591102189 0.14937141670914489 0 0.88088768115941807 0.14674609810479519 0 0.85600844944842547 0.1848341897950983 0 0.27866744612395528 0.38416094670951489 0 0.22033343844674469 0.36963382230740238 0 0.25966125648670141 0.34351016742083729 0 0 0.50000000000205869 0 0.033550201249889847 0.46247875832467239 0 0.068743045408989428 0.48853989837882689 0 0.31378396441836959 0.70157213313026345 0 0.36622285152418499 0.69092437780804039 0 0.35415581127540569 0.73730480045900215 0 0.77293540622714185 0.59448302402785813 0 0.71809016091162536 0.58185040402320831 0 0.77151014687832564 0.54436834383023036 0 0.7152569930854884 0.5237994455134295 0 0.69385896817107129 0.48377516041410151 0 0.73947346780852752 0.49062440112282169 0 0.15801167086041079 0.46008690540259539 0 0.191953871957803 0.42546416763755879 0 0.19604738184454831 0.47787523520405789 0 0.57667858002728545 0.078486105337742612 0 0.61940220174112337 0.047251958781050582 0 0.61956000905586006 0.1043312481793135 0 0.65408113592120842 0.073941773121567966 0 0.61956000905586006 0.1043312481793135 0 0.61940220174112337 0.047251958781050582 0 0 0.55000000000173355 0 0 0.50000000000205869 0 0.044576108720083309 0.53509043209532614 0 0.65507451745379841 0.92229208810758578 0 0.62065498684670595 0.95224934003983619 0 0.61885627562261258 0.90282959257498208 0 0.57724883562309992 0.92155686857100794 0 0.61885627562261258 0.90282959257498208 0 0.62065498684670595 0.95224934003983619 0 0.91750694127107502 0.36982372220068471 0 0.86844634540301924 0.38530937474099819 0 0.87430060258887643 0.34056085888204451 0 0.91750694127105259 0.63017627779935648 0 0.87712158428786946 0.65709029563313581 0 0.87159648282691515 0.61285406320581504 0 0.33123028043633618 0.77629643437932982 0 0.29904318922293632 0.74132814928635593 0 0.35415581127540569 0.73730480045900215 0 0.86411095495256451 0.42388805655111889 0 0.84925632466077294 0.45359738909549091 0 0.81973119833356312 0.43505687159469048 0 0.43846182030517877 0.64845797726506715 0 0.47913475093885149 0.66010775372412711 0 0.43323420005758778 0.6913544522562407 0 0.18269480424590959 0.75905448272264375 0 0.19068556247388771 0.71028988922845504 0 0.2248999640082178 0.72584299459689172 0 0.39536230704883951 0.84069429572832477 0 0.38586766253264881 0.78219501014812498 0 0.42609163930740518 0.80361684430568059 0 0.59999999999999976 0.69999999999999996 0 0.63221990677827677 0.73442891067859706 0 0.59636844454254345 0.75937156204589151 0 0.27866744612395528 0.38416094670951489 0 0.24049127783545701 0.41270748208749802 0 0.22033343844674469 0.36963382230740238 0 0.82709327591091286 0.84937141670920724 0 0.84725310900444062 0.80779732082917555 0 0.88088768115933802 0.84674609810493673 0 0.82709327591102189 0.14937141670914489 0 0.84725310900442086 0.10779732082922661 0 0.88088768115941807 0.14674609810479519 0 0.1650278706801647 0.38791388161335733 0 0.18434624290945251 0.35208838264196463 0 0.22033343844674469 0.36963382230740238 0 0.4409427642593301 0.35743108089689513 0 0.49077833859261139 0.35229981449445641 0 0.46655310992796922 0.39650496622958609 0 0.80185942888539485 0.77452061303608133 0 0.81864958914779962 0.73589050177899629 0 0.85491058998424563 0.76004753345552634 0 0.80185942888501827 0.074520613036224564 0 0.81864958914740749 0.035890501779055867 0 0.85491058998398861 0.060047533455626502 0 0.29999999999926641 0 0 0.34999999999912063 0 0 0.32541448401678508 0.046215317981507749 0 0.35000000000145642 1 0 0.30000000000124832 1 0 0.32544832635163229 0.95485394099568932 0 0.4656888918609538 0.78493261229743638 0 0.50731287292894423 0.78963574450233831 0 0.50627822638148745 0.8263979829520941 0 0.2185883431182947 0.18019736283949719 0 0.25557216766470708 0.15874861286892261 0 0.26429849586623999 0.19346700179430079 0 1 0.29999999999999999 0 1 0.34999999999993492 0 0.95780851984364423 0.34215720972155339 0 1 0.29999999999999999 0 0.95780851984364423 0.34215720972155339 0 0.94999999999999996 0.29999999999999999 0 1 0.69999999999999996 0 0.94999999999999996 0.69999999999999996 0 0.9578014258160763 0.65787212321113708 0 1 0.69999999999999996 0 0.9578014258160763 0.65787212321113708 0 1 0.64999999999986979 0 0.91750694127107502 0.36982372220068471 0 0.90594285160987287 0.4141265964174129 0 0.86844634540301924 0.38530937474099819 0 0.91750694127105259 0.63017627779935648 0 0.87159648282691515 0.61285406320581504 0 0.91143117093204207 0.58709913730335972 0 0.74999999999999989 0.69999999999999996 0 0.7750489929959945 0.66593931409600093 0 0.79999999999999982 0.69999999999999996 0 0.74999999999999989 0.29999999999999999 0 0.79999999999999982 0.29999999999999999 0 0.78145581580700685 0.34881365920033602 0 0.54999999999999993 0.69999999999999996 0 0.57484956128872922 0.66573805030881994 0 0.59999999999999976 0.69999999999999996 0 0.90299850604011456 0.79563452813489832 0 0.94399509803918602 0.75600490196082126 0 0.95386563387742829 0.80414874155775029 0 0.90416666666660628 0.9041666666666166 0 0.95391631417670719 0.89584263333814784 0 0.94399509803919068 0.9439950980391687 0 0.90299850604006393 0.09563452813493091 0 0.94399509803922566 0.056004901960802607 0 0.95386563387744361 0.1041487415577465 0 0.90416666666668166 0.20416666666667119 0 0.95391631417672862 0.19584263333809451 0 0.94399509803921056 0.24399509803922639 0 0.22278230690790279 0.44824268025881547 0 0.19604738184454831 0.47787523520405789 0 0.191953871957803 0.42546416763755879 0 0.90299850604011456 0.79563452813489832 0 0.89999166460796554 0.74528934923809909 0 0.94399509803918602 0.75600490196082126 0 0.90299850604006393 0.09563452813493091 0 0.899991664607802 0.045289349238254978 0 0.94399509803922566 0.056004901960802607 0 0.49102375406324739 0.49123754822244059 0 0.47793794143994173 0.52940715638744962 0 0.43507373378304309 0.49699695397193322 0 0.90416666666660628 0.9041666666666166 0 0.94399509803919068 0.9439950980391687 0 0.89898474358632463 0.95391965591118966 0 0.90416666666668166 0.20416666666667119 0 0.94399509803921056 0.24399509803922639 0 0.89898474358614167 0.25391965591104898 0 0.65394964615507722 0.22666784374016369 0 0.62657463266645097 0.26524202571255862 0 0.59814117807200873 0.23398510860739519 0 0.6084546825910605 0.37989672713932537 0 0.63912439215427275 0.41063340167983359 0 0.57744073070774993 0.41535148636609359 0 0.61209567303293111 0.44669033081290321 0 0.57744073070774993 0.41535148636609359 0 0.63912439215427275 0.41063340167983359 0 0.25676291524611189 0.7436741304886243 0 0.22556077506376701 0.77837424984191617 0 0.2248999640082178 0.72584299459689172 0 0.61343887413683884 0.856862479058357 0 0.60294066490120068 0.80851322453934582 0 0.65005442820240822 0.82644988530054031 0 0.64999999999907843 0 0 0.66369801598854572 0.036327466368102787 0 0.61940220174112337 0.047251958781050582 0 0.40326160981139969 0.73346192995102844 0 0.38586766253264881 0.78219501014812498 0 0.35415581127540569 0.73730480045900215 0 0.33123028043633618 0.77629643437932982 0 0.35415581127540569 0.73730480045900215 0 0.38586766253264881 0.78219501014812498 0 0.26573297623774761 0.59828298563722948 0 0.29110487519241501 0.56588143995431495 0 0.31502927232353312 0.6134992213375432 0 0.77846603114747959 0.49850927265137401 0 0.81441713509985358 0.51161854125224959 0 0.77151014687832564 0.54436834383023036 0 0.82862096804812391 0.55037090955459045 0 0.77151014687832564 0.54436834383023036 0 0.81441713509985358 0.51161854125224959 0 0.50000000000205869 1 0 0.45000000000187229 1 0 0.47135117303824892 0.95556877749289892 0 0.44999999999882923 0 0 0.49999999999869432 0 0 0.47040171442036788 0.044141676406503738 0 0 0.7000000000006934 0 0 0.65000000000104008 0 0.046634677244967337 0.671418230738282 0 0 0.35000000000145642 0 0 0.30000000000124832 0 0.046389130980076937 0.32668781832131749 0 0.31378396441836959 0.70157213313026345 0 0.27820712747429932 0.65530134213254643 0 0.32263089806001177 0.66003674931826484 0 0.33122374654748771 0.57588941099433744 0 0.31502927232353312 0.6134992213375432 0 0.29110487519241501 0.56588143995431495 0 0.26573297623774761 0.59828298563722948 0 0.27820712747429932 0.65530134213254643 0 0.2459498854893499 0.63248470766216769 0 0.14474682429600511 0.85524784522713515 0 0.16206583317966519 0.89685560785156404 0 0.1241151115713819 0.9045666525468371 0 0.14332333627550789 0.14578431753966009 0 0.12372429750337779 0.095814237875728972 0 0.16141998738593399 0.10404039647458049 0 0.64753070846764316 0.77332939069435502 0 0.59636844454254345 0.75937156204589151 0 0.63221990677827677 0.73442891067859706 0 0.14474682429600511 0.85524784522713515 0 0.1241151115713819 0.9045666525468371 0 0.10562472963403439 0.87143394428979881 0 0.14332333627550789 0.14578431753966009 0 0.1053400320299198 0.12877248826361379 0 0.12372429750337779 0.095814237875728972 0 0.77354604466818633 0.40378688774472771 0 0.81308179852519835 0.39754945808726527 0 0.81973119833356312 0.43505687159469048 0 0.54782696902220018 0.79245182748204157 0 0.50945740445113552 0.75476055527778108 0 0.55363780716230748 0.74348740161571747 0 0.2236846579037573 0.67380363126050236 0 0.2459498854893499 0.63248470766216769 0 0.27820712747429932 0.65530134213254643 0 0.77293540622714185 0.59448302402785813 0 0.74994237037456724 0.62775548192980357 0 0.71809016091162536 0.58185040402320831 0 0 0.79999999999999982 0 0 0.75000000000034661 0 0.04408157711937423 0.7728941757575627 0 0 0.25000000000104028 0 0 0.20000000000083221 0 0.044081577119474857 0.2271058242433576 0 0.19999999999955789 0 0 0.24999999999941211 0 0 0.22668068146512929 0.045875643423131329 0 0.25000000000104028 1 0 0.20000000000083221 1 0 0.22850979588452081 0.95594428570238643 0 0.47357141910802508 0.1873585799078378 0 0.44288491854585582 0.14116182884956319 0 0.48466639505193998 0.1421439844745814 0 0.59999999999999976 0.29999999999999999 0 0.5794309697024993 0.27124795968204829 0 0.62657463266645097 0.26524202571255862 0 0.43249999999999988 0.43937499999999979 0 0.42161023666869668 0.39493916313643851 0 0.46655310992796922 0.39650496622958609 0 0.31068898841644388 0.47541502461811092 0 0.33190227185843768 0.52715113583864037 0 0.28307294598219601 0.50789252727458634 0 0.35024835142131061 0.48654922671676981 0 0.33190227185843768 0.52715113583864037 0 0.31068898841644388 0.47541502461811092 0 0.35864735590330371 0.63903383440414463 0 0.36622285152418499 0.69092437780804039 0 0.32263089806001177 0.66003674931826484 0 0.31378396441836959 0.70157213313026345 0 0.32263089806001177 0.66003674931826484 0 0.36622285152418499 0.69092437780804039 0 0.86956835336234861 0.571283299838105 0 0.90900154012161016 0.53607784105648792 0 0.91143117093204207 0.58709913730335972 0 0.6499999999999998 0.29999999999999999 0 0.65481233915350323 0.35652751921065562 0 0.61959173890754571 0.33832250091341232 0 0.4409427642593301 0.35743108089689513 0 0.46226845272279993 0.31901800744800313 0 0.49077833859261139 0.35229981449445641 0 0.5 0.29999999999999999 0 0.49077833859261139 0.35229981449445641 0 0.46226845272279993 0.31901800744800313 0 0.14999999999970359 0 0 0.19999999999955789 0 0 0.184418230509967 0.038773194583122873 0 0.20000000000083221 1 0 0.15000000000062411 1 0 0.18474005699953849 0.96231585248064622 0 1 0.49999999999950101 0 1 0.54999999999963112 0 0.95631871884947484 0.51827533208233789 0 0.38586766253264881 0.78219501014812498 0 0.42676259796334498 0.76772545931379299 0 0.42609163930740518 0.80361684430568059 0 0.20050006573841939 0.53248514016039872 0 0.22549374774072969 0.58452645269293457 0 0.18381867841758909 0.57774125163628387 0 0.065374659239661639 0.8551091961254178 0 0.1074251789111534 0.83564394292147814 0 0.10562472963403439 0.87143394428979881 0 0.065374659239632718 0.1448908038746782 0 0.1053400320299198 0.12877248826361379 0 0.106902708054812 0.16453234188234539 0 0.1650278706801647 0.38791388161335733 0 0.14223753364722069 0.3341983344262433 0 0.18434624290945251 0.35208838264196463 0 0.43249999999999988 0.43937499999999979 0 0.46111841286828259 0.46690301029591341 0 0.43507373378304309 0.49699695397193322 0 0.83758014339878906 0.63222013025741819 0 0.81723410853263523 0.59419663659258926 0 0.87159648282691515 0.61285406320581504 0 0.19670163708476801 0.31472518408333222 0 0.18434624290945251 0.35208838264196463 0 0.14223753364722069 0.3341983344262433 0 0.75000000000034661 1 0 0.7250000000005199 0.94981617647078953 0 0.770759834363826 0.95919399014344442 0 0.74999999999999989 0.29999999999999999 0 0.72500000000000064 0.2498161764706 0 0.77075983436335049 0.25919399014334171 0 0.69999999999999984 0.29999999999999999 0 0.67933712972090698 0.25920070958121938 0 0.72500000000000064 0.2498161764706 0 0.57611405284611883 0.50165903596042916 0 0.53330375813596242 0.50827942741749099 0 0.53823865529665704 0.45873898050322898 0 0.6499999999999998 0.29999999999999999 0 0.68887083591306764 0.33632058575757479 0 0.65481233915350323 0.35652751921065562 0 0.27866744612395528 0.38416094670951489 0 0.33277555741076909 0.36432196682010132 0 0.31778888742534622 0.40581751814196781 0 0.49102375406324739 0.49123754822244059 0 0.43507373378304309 0.49699695397193322 0 0.46111841286828259 0.46690301029591341 0 0.94999999999999996 0.69999999999999996 0 0.97166519676947294 0.73337114490064459 0 0.94399509803918602 0.75600490196082126 0 0.94999999999986839 0 0 0.97166519676946894 0.033371144900598393 0 0.94399509803922566 0.056004901960802607 0 0.94999999999999996 0.29999999999999999 0 0.94399509803921056 0.24399509803922639 0 0.97166519676951801 0.26662885509932011 0 0.94999999999979179 1 0 0.94399509803919068 0.9439950980391687 0 0.97166519676946206 0.96662885509935492 0 0.34258405725730701 0.4444034294386992 0 0.29124338931648802 0.43334555462578611 0 0.31778888742534622 0.40581751814196781 0 0.27866744612395528 0.38416094670951489 0 0.31778888742534622 0.40581751814196781 0 0.29124338931648802 0.43334555462578611 0 0.36575549820117997 0.31677992835137742 0 0.33277555741076909 0.36432196682010132 0 0.32752639306529541 0.32610012995269699 0 0.35752321586431363 0.9185439911803448 0 0.32544832635163229 0.95485394099568932 0 0.30864387279288652 0.89906554525974958 0 0.27609987656793722 0.94991445621608572 0 0.30864387279288652 0.89906554525974958 0 0.32544832635163229 0.95485394099568932 0 0.33123028043633618 0.77629643437932982 0 0.30857225866488791 0.81101973481716805 0 0.2792923945214143 0.77665808831789485 0 0.33758650185219202 0.23837101504325639 0 0.29132859388405002 0.27203693976649962 0 0.28040350263641872 0.23054717217092141 0 0.4409427642593301 0.35743108089689513 0 0.41914690343363781 0.30688979866601612 0 0.46226845272279993 0.31901800744800313 0 0.14332333627550789 0.14578431753966009 0 0.13737030665753211 0.20313708640667491 0 0.106902708054812 0.16453234188234539 0 0.083105206071467416 0.20007701332709979 0 0.106902708054812 0.16453234188234539 0 0.13737030665753211 0.20313708640667491 0 0.083105206071452636 0.79992298667296435 0 0.1382744753146134 0.79650574229207483 0 0.1074251789111534 0.83564394292147814 0 0.14474682429600511 0.85524784522713515 0 0.1074251789111534 0.83564394292147814 0 0.1382744753146134 0.79650574229207483 0 0.65408113592120842 0.073941773121567966 0 0.7010294155333181 0.056779085686491267 0 0.68330259535470161 0.10038702501083881 0 0.72525833953073282 0.1032114801687094 0 0.68330259535470161 0.10038702501083881 0 0.7010294155333181 0.056779085686491267 0 0.049706944316475897 0.72477277076253799 0 0.046634677244967337 0.671418230738282 0 0.1020579365089687 0.69352219419301997 0 0.086179601630648681 0.64647209519980475 0 0.1020579365089687 0.69352219419301997 0 0.046634677244967337 0.671418230738282 0 0.087545339447545459 0.35122518864182262 0 0.046389130980076937 0.32668781832131749 0 0.093851963071650835 0.30582068233324772 0 0.049706944316556423 0.27522722923869108 0 0.093851963071650835 0.30582068233324772 0 0.046389130980076937 0.32668781832131749 0 0.82709327591091286 0.84937141670920724 0 0.80041942726660109 0.81543261647703358 0 0.84725310900444062 0.80779732082917555 0 0.82709327591102189 0.14937141670914489 0 0.80076557130237269 0.1154587552654202 0 0.84725310900442086 0.10779732082922661 0 0.17933913398461551 0.2350063570234002 0 0.14377654328998779 0.2442024734791064 0 0.13737030665753211 0.20313708640667491 0 0.18269480424590959 0.75905448272264375 0 0.1382744753146134 0.79650574229207483 0 0.14335651144331049 0.75565258250209677 0 0.33758650185219202 0.23837101504325639 0 0.3786248352540974 0.27082301512024259 0 0.33402499257867951 0.28911035184473982 0 0.14332333627550789 0.14578431753966009 0 0.18124454140915969 0.18790916706335251 0 0.13737030665753211 0.20313708640667491 0 0.14474682429600511 0.85524784522713515 0 0.1382744753146134 0.79650574229207483 0 0.17777405986036951 0.81832336108265358 0 0.5 0.29999999999999999 0 0.52752007115234678 0.33170632466418198 0 0.49077833859261139 0.35229981449445641 0 0.27866744612395528 0.38416094670951489 0 0.29644548887253103 0.34914008784168082 0 0.33277555741076909 0.36432196682010132 0 0 0.84999999999965292 0 0 0.79999999999999982 0 0.038512288486097702 0.8155852717111195 0 0 0.20000000000083221 0 0 0.15000000000062411 0 0.038512288486115001 0.1844147282893184 0 0.40326160981139969 0.73346192995102844 0 0.35415581127540569 0.73730480045900215 0 0.36622285152418499 0.69092437780804039 0 0.91696753777131557 0.497780560203536 0 0.96228564064454991 0.48206450662049471 0 0.95631871884947484 0.51827533208233789 0 0.33758650185219202 0.23837101504325639 0 0.31255190597181792 0.19850845631528771 0 0.3572130504031617 0.1874703368446563 0 0.59814117807200873 0.23398510860739519 0 0.62657463266645097 0.26524202571255862 0 0.5794309697024993 0.27124795968204829 0 0.34258405725730701 0.4444034294386992 0 0.31068898841644388 0.47541502461811092 0 0.29124338931648802 0.43334555462578611 0 0.38083244760691543 0.38531983672244652 0 0.35221190152536241 0.40457127605439203 0 0.33277555741076909 0.36432196682010132 0 0.083411279318375747 0.91030024466934134 0 0.10266856499240549 0.95548163909968886 0 0.053064897599294662 0.95186845269532028 0 0.083411279318303222 0.089699755330707398 0 0.053064897599215843 0.048131547304697528 0 0.10266856499169109 0.044518360900210059 0 0.42377727103934271 0.25099357235810238 0 0.4604742573284204 0.27846934318264788 0 0.41914690343363781 0.30688979866601612 0 0.28307294598219601 0.50789252727458634 0 0.25982634974572738 0.46097799597715272 0 0.31068898841644388 0.47541502461811092 0 0.29348325746214782 0.31350119524708198 0 0.29132859388405002 0.27203693976649962 0 0.33402499257867951 0.28911035184473982 0 0.35312867752657662 0.084946736076730367 0 0.39823268594401579 0.1116623613130045 0 0.36246644853392812 0.1399454205365751 0 0.7000000000006934 1 0 0.68015064798562208 0.95924320340003011 0 0.7250000000005199 0.94981617647078953 0 0.42377727103934271 0.25099357235810238 0 0.38831533174504851 0.2189834941785925 0 0.42905200079338551 0.19982395548231649 0 0.53823865529665704 0.45873898050322898 0 0.57744073070774993 0.41535148636609359 0 0.57975577671020095 0.46172033326338591 0 0.33758650185219202 0.23837101504325639 0 0.3572130504031617 0.1874703368446563 0 0.38831533174504851 0.2189834941785925 0 0.29124338931648802 0.43334555462578611 0 0.31068898841644388 0.47541502461811092 0 0.25982634974572738 0.46097799597715272 0 0.6084546825910605 0.37989672713932537 0 0.61959173890754571 0.33832250091341232 0 0.65481233915350323 0.35652751921065562 0 0.40326160981139969 0.73346192995102844 0 0.43323420005758778 0.6913544522562407 0 0.45582236402875981 0.73896743678908217 0 0.33758650185219202 0.23837101504325639 0 0.28040350263641872 0.23054717217092141 0 0.31255190597181792 0.19850845631528771 0 0.79999999999999982 1 0 0.75000000000034661 1 0 0.770759834363826 0.95919399014344442 0 0.74999999999999989 0.29999999999999999 0 0.77075983436335049 0.25919399014334171 0 0.79999999999999982 0.29999999999999999 0 0.6499999999999998 0.29999999999999999 0 0.67933712972090698 0.25920070958121938 0 0.69999999999999984 0.29999999999999999 0 0.39536230704883951 0.84069429572832477 0 0.39767323751400468 0.89584229130535065 0 0.35864759629805099 0.87963482415279515 0 0.54999999999999993 0.69999999999999996 0 0.52584555706968406 0.66664215091846768 0 0.57484956128872922 0.66573805030881994 0 0.35312867752657662 0.084946736076730367 0 0.32541448401678508 0.046215317981507749 0 0.3615861437013822 0.03582617922508851 0 0.35752321586431363 0.9185439911803448 0 0.36184234618600131 0.96443954459096326 0 0.32544832635163229 0.95485394099568932 0 0.35312867752657662 0.084946736076730367 0 0.3615861437013822 0.03582617922508851 0 0.39591832466117061 0.056982757562006353 0 0.35752321586431363 0.9185439911803448 0 0.39641108128798319 0.94356127926187128 0 0.36184234618600131 0.96443954459096326 0 0.083411279318303222 0.089699755330707398 0 0.044310582753132287 0.101412518374475 0 0.053064897599215843 0.048131547304697528 0 0.083411279318375747 0.91030024466934134 0 0.053064897599294662 0.95186845269532028 0 0.0443105827531413 0.89858748162559932 0 0.38083244760691543 0.38531983672244652 0 0.40076539126862748 0.34589349467022118 0 0.42161023666869668 0.39493916313643851 0 0.4409427642593301 0.35743108089689513 0 0.42161023666869668 0.39493916313643851 0 0.40076539126862748 0.34589349467022118 0 0.79999999999999982 0.29999999999999999 0 0.82500000000000062 0.33010209762754811 0 0.78145581580700685 0.34881365920033602 0 0.79999999999999982 0.69999999999999996 0 0.7750489929959945 0.66593931409600093 0 0.82457059160610424 0.66831947184359608 0 0.59999999999999976 0.69999999999999996 0 0.57484956128872922 0.66573805030881994 0 0.62460753523532009 0.66851202781000296 0 0.74999999999999989 0.69999999999999996 0 0.72500000000000064 0.67022701834392062 0 0.7750489929959945 0.66593931409600093 0 0.74999999999999989 0.29999999999999999 0 0.78145581580700685 0.34881365920033602 0 0.73090396928863699 0.33699297293167962 0 0.33758650185219202 0.23837101504325639 0 0.33402499257867951 0.28911035184473982 0 0.29132859388405002 0.27203693976649962 0 0.36575549820117997 0.31677992835137742 0 0.41914690343363781 0.30688979866601612 0 0.40076539126862748 0.34589349467022118 0 0.4409427642593301 0.35743108089689513 0 0.40076539126862748 0.34589349467022118 0 0.41914690343363781 0.30688979866601612 0 0.34258405725730701 0.4444034294386992 0 0.38707855792647411 0.42299362914874578 0 0.3908716102680424 0.47010282357248828 0 0.7000000000006934 1 0 0.65000000000104008 1 0 0.68015064798562208 0.95924320340003011 0 0.49102375406324739 0.49123754822244059 0 0.46111841286828259 0.46690301029591341 0 0.48858720058566618 0.43964267759203868 0 0.4656888918609538 0.78493261229743638 0 0.42676259796334498 0.76772545931379299 0 0.45582236402875981 0.73896743678908217 0 0.40326160981139969 0.73346192995102844 0 0.45582236402875981 0.73896743678908217 0 0.42676259796334498 0.76772545931379299 0 0.59999999999999976 0.29999999999999999 0 0.62657463266645097 0.26524202571255862 0 0.6499999999999998 0.29999999999999999 0 0.40000000000166441 1 0 0.36184234618600131 0.96443954459096326 0 0.39641108128798319 0.94356127926187128 0 0.3999999999989749 0 0 0.39591832466117061 0.056982757562006353 0 0.3615861437013822 0.03582617922508851 0 0.43249999999999988 0.43937499999999979 0 0.48858720058566618 0.43964267759203868 0 0.46111841286828259 0.46690301029591341 0 0.7250000000005199 0.89375000000045834 0 0.7250000000005199 0.94981617647078953 0 0.68987011941058407 0.92105047536677087 0 0.7250000000005199 0.89375000000045834 0 0.75729602384198635 0.92353652857884294 0 0.7250000000005199 0.94981617647078953 0 0.72500000000001008 0.19776155966387679 0 0.75668890529066124 0.2244279804069782 0 0.72500000000000064 0.2498161764706 0 0.72500000000001008 0.19776155966387679 0 0.72500000000000064 0.2498161764706 0 0.69397719155551807 0.2245125647000914 0 0.79999999999999982 0.29999999999999999 0 0.81486180804364938 0.26321394949780091 0 0.84999999999999987 0.29999999999999999 0 0.84999999999965292 1 0 0.79999999999999982 1 0 0.81486180804382891 0.96321394949790495 0 0.1247745017231483 0.27198077544791172 0 0.095326043202144745 0.24554465089224409 0 0.14377654328998779 0.2442024734791064 0 0.1215415378367805 0.72939333680004137 0 0.14335651144331049 0.75565258250209677 0 0.090953281884486245 0.7564451946902494 0 0.72500000000001008 0.19776155966387679 0 0.72634814642510737 0.16106886917518889 0 0.76587607630038135 0.18880039518954719 0 0.72500000000001008 0.19776155966387679 0 0.6865991819015953 0.189116534044597 0 0.72634814642510737 0.16106886917518889 0 0.77144070960558853 0.14311854477243749 0 0.76587607630038135 0.18880039518954719 0 0.72634814642510737 0.16106886917518889 0 0.68391457121233579 0.14440470121196541 0 0.72634814642510737 0.16106886917518889 0 0.6865991819015953 0.189116534044597 0 0.7250000000005199 0.89375000000045834 0 0.72863726579783861 0.85390518901155588 0 0.76891166905518427 0.88835469571185499 0 0.76901770135486491 0.84293557325473656 0 0.76891166905518427 0.88835469571185499 0 0.72863726579783861 0.85390518901155588 0 0 0.20000000000083221 0 0.038512288486115001 0.1844147282893184 0 0.044081577119474857 0.2271058242433576 0 0 0.79999999999999982 0 0.04408157711937423 0.7728941757575627 0 0.038512288486097702 0.8155852717111195 0 0.52375890611712683 0.059318771819432882 0 0.47881186583059909 0.093591717165689425 0 0.47040171442036788 0.044141676406503738 0 0.52122150208832174 0.94089974453840242 0 0.47135117303824892 0.95556877749289892 0 0.47401147028110507 0.91529957330468115 0 0.27474541102162192 0.11822029332053539 0 0.3096713403101819 0.085471541595262421 0 0.32215584939770009 0.1218492143506909 0 0.22278230690790279 0.44824268025881547 0 0.24049127783545701 0.41270748208749802 0 0.25982634974572738 0.46097799597715272 0 0.93732437411268477 0.55911392101136159 0 0.91143117093204207 0.58709913730335972 0 0.90900154012161016 0.53607784105648792 0 0.19901705110390991 0.9175543425573498 0 0.24536017905392571 0.90704567837671446 0 0.22850979588452081 0.95594428570238643 0 0.27609987656793722 0.94991445621608572 0 0.22850979588452081 0.95594428570238643 0 0.24536017905392571 0.90704567837671446 0 0.15720202157091859 0.60665697304410315 0 0.1241190223511371 0.64391885572885044 0 0.1024350934457823 0.60772393977513839 0 0.6499999999999998 0.69999999999999996 0 0.675261390228442 0.65996937624687813 0 0.69999999999999984 0.69999999999999996 0 0.3999999999989749 0 0 0.4320097814748517 0.037406712692169303 0 0.39591832466117061 0.056982757562006353 0 0.40000000000166441 1 0 0.39641108128798319 0.94356127926187128 0 0.4308986359464303 0.96395712492906194 0 0.54999999999999993 0.29999999999999999 0 0.56836770495988642 0.3523062350852913 0 0.52752007115234678 0.33170632466418198 0 0.14474682429600511 0.85524784522713515 0 0.17777405986036951 0.81832336108265358 0 0.19741632902693801 0.86755867406447229 0 0.21858834311891909 0.81980263716112767 0 0.19741632902693801 0.86755867406447229 0 0.17777405986036951 0.81832336108265358 0 0.54782696902220018 0.79245182748204157 0 0.50731287292894423 0.78963574450233831 0 0.50945740445113552 0.75476055527778108 0 0.20000000000083221 1 0 0.18474005699953849 0.96231585248064622 0 0.22850979588452081 0.95594428570238643 0 0.19999999999955789 0 0 0.22668068146512929 0.045875643423131329 0 0.184418230509967 0.038773194583122873 0 0.77846603114747959 0.49850927265137401 0 0.73947346780852752 0.49062440112282169 0 0.77972660463949339 0.45529290596363098 0 0.73483647259922602 0.44789725365921768 0 0.77972660463949339 0.45529290596363098 0 0.73947346780852752 0.49062440112282169 0 0.34258405725730701 0.4444034294386992 0 0.35024835142131061 0.48654922671676981 0 0.31068898841644388 0.47541502461811092 0 0.33123028043633618 0.77629643437932982 0 0.2792923945214143 0.77665808831789485 0 0.29904318922293632 0.74132814928635593 0 0.26573297623774761 0.59828298563722948 0 0.25115337790845271 0.54719303014923271 0 0.29110487519241501 0.56588143995431495 0 0.4656888918609538 0.78493261229743638 0 0.50945740445113552 0.75476055527778108 0 0.50731287292894423 0.78963574450233831 0 0.35312867752657662 0.084946736076730367 0 0.36246644853392812 0.1399454205365751 0 0.32215584939770009 0.1218492143506909 0 0.29348325746214782 0.31350119524708198 0 0.25966125648670141 0.34351016742083729 0 0.24432083401701241 0.3006253385567515 0 0.59999999999999976 0.69999999999999996 0 0.6499999999999998 0.69999999999999996 0 0.63221990677827677 0.73442891067859706 0 0.69999999999921003 0 0 0.7010294155333181 0.056779085686491267 0 0.66369801598854572 0.036327466368102787 0 0.40000000000166441 1 0 0.35000000000145642 1 0 0.36184234618600131 0.96443954459096326 0 0.34999999999912063 0 0 0.3999999999989749 0 0 0.3615861437013822 0.03582617922508851 0 0.43507373378304309 0.49699695397193322 0 0.47793794143994173 0.52940715638744962 0 0.42644501560315817 0.54603747078095544 0 0.14474682429600511 0.85524784522713515 0 0.19741632902693801 0.86755867406447229 0 0.16206583317966519 0.89685560785156404 0 0.19901705110390991 0.9175543425573498 0 0.16206583317966519 0.89685560785156404 0 0.19741632902693801 0.86755867406447229 0 0.35864735590330371 0.63903383440414463 0 0.3977710372045391 0.65868194622830212 0 0.36622285152418499 0.69092437780804039 0 0.7527966693318906 0.053051678021508272 0 0.7010294155333181 0.056779085686491267 0 0.72683645290270404 0.027797073151180601 0 0.71508799138962864 0.36622814920737751 0 0.72622533758026719 0.40265885511101601 0 0.68128176404677243 0.38629093627004979 0 0.79999999999999982 0.69999999999999996 0 0.84999999999999987 0.69999999999999996 0 0.81864958914779962 0.73589050177899629 0 0.79999999999947335 0 0 0.84999999999960507 0 0 0.81864958914740749 0.035890501779055867 0 0.39536230704883951 0.84069429572832477 0 0.35642984951668422 0.80994399665655703 0 0.38586766253264881 0.78219501014812498 0 0.42377727103934271 0.25099357235810238 0 0.46429753744194407 0.22870891180733599 0 0.4604742573284204 0.27846934318264788 0 0.39801143831225599 0.16651381068160659 0 0.42905200079338551 0.19982395548231649 0 0.38831533174504851 0.2189834941785925 0 0.79999999999999982 1 0 0.770759834363826 0.95919399014344442 0 0.81486180804382891 0.96321394949790495 0 0.79999999999999982 0.29999999999999999 0 0.77075983436335049 0.25919399014334171 0 0.81486180804364938 0.26321394949780091 0 0.25195515620380449 0.25883339815888678 0 0.21049769590865089 0.26857363548218488 0 0.224700362040408 0.22206622194729711 0 0.40326160981139969 0.73346192995102844 0 0.42676259796334498 0.76772545931379299 0 0.38586766253264881 0.78219501014812498 0 0.35312867752657662 0.084946736076730367 0 0.3096713403101819 0.085471541595262421 0 0.32541448401678508 0.046215317981507749 0 0.59999999999999976 0.29999999999999999 0 0.6499999999999998 0.29999999999999999 0 0.61959173890754571 0.33832250091341232 0 0.2185883431182947 0.18019736283949719 0 0.18652628422869419 0.14162325200928061 0 0.22985637510995899 0.1298347970200906 0 0.64999999999907843 0 0 0.69999999999921003 0 0 0.66369801598854572 0.036327466368102787 0 0.27499999999933927 0.060310814194988557 0 0.24218496799700481 0.089025544070598317 0 0.22668068146512929 0.045875643423131329 0 0.19922788606653311 0.085920220746880993 0 0.22668068146512929 0.045875643423131329 0 0.24218496799700481 0.089025544070598317 0 0.65507451745379841 0.92229208810758578 0 0.66412543161245952 0.88015090885499059 0 0.68987011941058407 0.92105047536677087 0 0.049706944316475897 0.72477277076253799 0 0.090953281884486245 0.7564451946902494 0 0.04408157711937423 0.7728941757575627 0 0.083105206071452636 0.79992298667296435 0 0.04408157711937423 0.7728941757575627 0 0.090953281884486245 0.7564451946902494 0 0.083105206071467416 0.20007701332709979 0 0.095326043202144745 0.24554465089224409 0 0.044081577119474857 0.2271058242433576 0 0.049706944316556423 0.27522722923869108 0 0.044081577119474857 0.2271058242433576 0 0.095326043202144745 0.24554465089224409 0 0.36575549820117997 0.31677992835137742 0 0.33402499257867951 0.28911035184473982 0 0.3786248352540974 0.27082301512024259 0 0.53245488764484505 0.55078124999999989 0 0.53330375813596242 0.50827942741749099 0 0.57435499076887508 0.54267261987897775 0 0.57611405284611883 0.50165903596042916 0 0.57435499076887508 0.54267261987897775 0 0.53330375813596242 0.50827942741749099 0 0.6499999999999998 0.29999999999999999 0 0.69999999999999984 0.29999999999999999 0 0.68887083591306764 0.33632058575757479 0 0.57611405284611883 0.50165903596042916 0 0.53823865529665704 0.45873898050322898 0 0.57975577671020095 0.46172033326338591 0 0.7750489929959945 0.66593931409600093 0 0.72500000000000064 0.67022701834392062 0 0.74994237037456724 0.62775548192980357 0 0.78145581580700685 0.34881365920033602 0 0.74764719760526988 0.3719647154012321 0 0.73090396928863699 0.33699297293167962 0 0.3999999999989749 0 0 0.44999999999882923 0 0 0.4320097814748517 0.037406712692169303 0 0.45000000000187229 1 0 0.40000000000166441 1 0 0.4308986359464303 0.96395712492906194 0 0.57484956128872922 0.66573805030881994 0 0.5991018319127801 0.62925360607495295 0 0.62460753523532009 0.66851202781000296 0 0.7750489929959945 0.66593931409600093 0 0.79884539758237771 0.62875045078114233 0 0.82457059160610424 0.66831947184359608 0 0.39801143831225599 0.16651381068160659 0 0.36246644853392812 0.1399454205365751 0 0.39823268594401579 0.1116623613130045 0 0.078358742472063481 0.43365249433908948 0 0.033550201249889847 0.46247875832467239 0 0.035463093262830522 0.42673416072819947 0 0.25676291524611189 0.7436741304886243 0 0.2792923945214143 0.77665808831789485 0 0.22556077506376701 0.77837424984191617 0 0.2236846579037573 0.67380363126050236 0 0.2248999640082178 0.72584299459689172 0 0.19068556247388771 0.71028988922845504 0 0.50715858906372158 0.63295939104129484 0 0.5166924242153631 0.59825134841919447 0 0.5498280205245758 0.6290146943450976 0 0.14618258501891079 0.062070108745602003 0 0.12372429750337779 0.095814237875728972 0 0.10266856499169109 0.044518360900210059 0 0.083411279318303222 0.089699755330707398 0 0.10266856499169109 0.044518360900210059 0 0.12372429750337779 0.095814237875728972 0 0.083411279318375747 0.91030024466934134 0 0.1241151115713819 0.9045666525468371 0 0.10266856499240549 0.95548163909968886 0 0.14617343800780541 0.93808063414349496 0 0.10266856499240549 0.95548163909968886 0 0.1241151115713819 0.9045666525468371 0 0.5499999999988151 0 0 0.59999999999894682 0 0 0.57396793757665954 0.037011367187645222 0 0.54782696902220018 0.79245182748204157 0 0.50627822638148745 0.8263979829520941 0 0.50731287292894423 0.78963574450233831 0 0.6499999999999998 0.29999999999999999 0 0.62657463266645097 0.26524202571255862 0 0.67933712972090698 0.25920070958121938 0 0.86956835336234861 0.571283299838105 0 0.86907294890112186 0.52008116128001669 0 0.90900154012161016 0.53607784105648792 0 0.17933913398461551 0.2350063570234002 0 0.224700362040408 0.22206622194729711 0 0.21049769590865089 0.26857363548218488 0 0.43249999999999988 0.43937499999999979 0 0.3908716102680424 0.47010282357248828 0 0.38707855792647411 0.42299362914874578 0 0.27474541102162192 0.11822029332053539 0 0.22985637510995899 0.1298347970200906 0 0.24218496799700481 0.089025544070598317 0 0.64753070846764316 0.77332939069435502 0 0.66427993341343905 0.73232764502436276 0 0.6916490518212759 0.75387992374886192 0 0 0.40000000000166441 0 0.050583896093752537 0.38543522283434112 0 0.035463093262830522 0.42673416072819947 0 0.73483647259922602 0.44789725365921768 0 0.73947346780852752 0.49062440112282169 0 0.69385896817107129 0.48377516041410151 0 0.57484956128872922 0.66573805030881994 0 0.52584555706968406 0.66664215091846768 0 0.5498280205245758 0.6290146943450976 0 0.60000000000138687 1 0 0.55000000000173355 1 0 0.57382506491224949 0.9629411906298494 0 0.068743045408989428 0.48853989837882689 0 0.085622222639554768 0.53333248912060549 0 0.044576108720083309 0.53509043209532614 0 0.083105206071467416 0.20007701332709979 0 0.044081577119474857 0.2271058242433576 0 0.038512288486115001 0.1844147282893184 0 0.083105206071452636 0.79992298667296435 0 0.038512288486097702 0.8155852717111195 0 0.04408157711937423 0.7728941757575627 0 0.28307294598219601 0.50789252727458634 0 0.23975172658309729 0.49475499200540818 0 0.25982634974572738 0.46097799597715272 0 0.43698630808430822 0.080423614171545449 0 0.39591832466117061 0.056982757562006353 0 0.4320097814748517 0.037406712692169303 0 0.4367309254023824 0.92065556789053882 0 0.4308986359464303 0.96395712492906194 0 0.39641108128798319 0.94356127926187128 0 0.80185942888539485 0.77452061303608133 0 0.75841349681148107 0.75422312624214749 0 0.78578450296893509 0.73292684821144505 0 0.80185942888501827 0.074520613036224564 0 0.7527966693318906 0.053051678021508272 0 0.78393852574753176 0.032039079577822822 0 0.6499999999999998 0.69999999999999996 0 0.62460753523532009 0.66851202781000296 0 0.675261390228442 0.65996937624687813 0 0.33123028043633618 0.77629643437932982 0 0.38586766253264881 0.78219501014812498 0 0.35642984951668422 0.80994399665655703 0 0.6405463747586706 0.63290524857395714 0 0.675261390228442 0.65996937624687813 0 0.62460753523532009 0.66851202781000296 0 0.22278230690790279 0.44824268025881547 0 0.191953871957803 0.42546416763755879 0 0.24049127783545701 0.41270748208749802 0 0.077693244765132896 0.56932317963405099 0 0.050069554451969707 0.61308520079857043 0 0.034381862692950467 0.57372682250960894 0 0.25195515620380449 0.25883339815888678 0 0.24432083401701241 0.3006253385567515 0 0.21049769590865089 0.26857363548218488 0 0.46666084890304671 0.57634471035397938 0 0.5166924242153631 0.59825134841919447 0 0.47095389620662098 0.61892551373708504 0 0.50715858906372158 0.63295939104129484 0 0.47095389620662098 0.61892551373708504 0 0.5166924242153631 0.59825134841919447 0 0.72525833953073282 0.1032114801687094 0 0.7527966693318906 0.053051678021508272 0 0.76878382444651716 0.097147941686331368 0 0.80185942888501827 0.074520613036224564 0 0.76878382444651716 0.097147941686331368 0 0.7527966693318906 0.053051678021508272 0 0.72500000000000064 0.7952620967744265 0 0.75841349681148107 0.75422312624214749 0 0.77094201086366854 0.79647480515688507 0 0.80185942888539485 0.77452061303608133 0 0.77094201086366854 0.79647480515688507 0 0.75841349681148107 0.75422312624214749 0 0.72500000000000064 0.7952620967744265 0 0.68024162096458085 0.79868546898116533 0 0.6916490518212759 0.75387992374886192 0 0.64753070846764316 0.77332939069435502 0 0.6916490518212759 0.75387992374886192 0 0.68024162096458085 0.79868546898116533 0 0 0.50000000000205869 0 0 0.45000000000187229 0 0.033550201249889847 0.46247875832467239 0 0.69999999999999984 0.69999999999999996 0 0.675261390228442 0.65996937624687813 0 0.72500000000000064 0.67022701834392062 0 0.71406021706547751 0.63292083137662503 0 0.72500000000000064 0.67022701834392062 0 0.675261390228442 0.65996937624687813 0 0.65408113592120842 0.073941773121567966 0 0.61940220174112337 0.047251958781050582 0 0.66369801598854572 0.036327466368102787 0 0.59999999999894682 0 0 0.61940220174112337 0.047251958781050582 0 0.57396793757665954 0.037011367187645222 0 0.60000000000138687 1 0 0.57382506491224949 0.9629411906298494 0 0.62065498684670595 0.95224934003983619 0 0.33122374654748771 0.57588941099433744 0 0.35765792684946668 0.6000687869219653 0 0.31502927232353312 0.6134992213375432 0 0.35864735590330371 0.63903383440414463 0 0.31502927232353312 0.6134992213375432 0 0.35765792684946668 0.6000687869219653 0 0.15801167086041079 0.46008690540259539 0 0.19604738184454831 0.47787523520405789 0 0.16618607197337229 0.50652878253548905 0 0.078358742472063481 0.43365249433908948 0 0.035463093262830522 0.42673416072819947 0 0.050583896093752537 0.38543522283434112 0 0.19901705110390991 0.9175543425573498 0 0.22850979588452081 0.95594428570238643 0 0.18474005699953849 0.96231585248064622 0 0.19922788606653311 0.085920220746880993 0 0.184418230509967 0.038773194583122873 0 0.22668068146512929 0.045875643423131329 0 0.19922788606653311 0.085920220746880993 0 0.24218496799700481 0.089025544070598317 0 0.22985637510995899 0.1298347970200906 0 0.74999999999999989 0.69999999999999996 0 0.78578450296893509 0.73292684821144505 0 0.75841349681148107 0.75422312624214749 0 0.74999999999934175 0 0 0.78393852574753176 0.032039079577822822 0 0.7527966693318906 0.053051678021508272 0 0 0.60000000000138687 0 0.034381862692950467 0.57372682250960894 0 0.050069554451969707 0.61308520079857043 0 0.2236846579037573 0.67380363126050236 0 0.26439878998046262 0.7048065392091396 0 0.2248999640082178 0.72584299459689172 0 0.6236733212988993 0.14864538214901801 0 0.58516465772821369 0.11653801664834119 0 0.61956000905586006 0.1043312481793135 0 0.26104540868854792 0.81401944968719064 0 0.2792923945214143 0.77665808831789485 0 0.30857225866488791 0.81101973481716805 0 0.42377727103934271 0.25099357235810238 0 0.42905200079338551 0.19982395548231649 0 0.46429753744194407 0.22870891180733599 0 0.27820712747429932 0.65530134213254643 0 0.31502927232353312 0.6134992213375432 0 0.32263089806001177 0.66003674931826484 0 0.61343887413683884 0.856862479058357 0 0.61885627562261258 0.90282959257498208 0 0.5832743223239254 0.88483152652961872 0 0.43698630808430822 0.080423614171545449 0 0.47040171442036788 0.044141676406503738 0 0.47881186583059909 0.093591717165689425 0 0.4367309254023824 0.92065556789053882 0 0.47401147028110507 0.91529957330468115 0 0.47135117303824892 0.95556877749289892 0 0.91696753777131557 0.497780560203536 0 0.95631871884947484 0.51827533208233789 0 0.90900154012161016 0.53607784105648792 0 0.93732437411268477 0.55911392101136159 0 0.90900154012161016 0.53607784105648792 0 0.95631871884947484 0.51827533208233789 0 0.27474541102162192 0.11822029332053539 0 0.25557216766470708 0.15874861286892261 0 0.22985637510995899 0.1298347970200906 0 0.2185883431182947 0.18019736283949719 0 0.22985637510995899 0.1298347970200906 0 0.25557216766470708 0.15874861286892261 0 0.29348325746214782 0.31350119524708198 0 0.33402499257867951 0.28911035184473982 0 0.32752639306529541 0.32610012995269699 0 0.27499999999933927 0.060310814194988557 0 0.32541448401678508 0.046215317981507749 0 0.3096713403101819 0.085471541595262421 0 0.27270076654418179 0.87751467830216623 0 0.24536017905392571 0.90704567837671446 0 0.2401283238295133 0.85648409884788523 0 1 0.44999999999963131 0 1 0.49999999999950101 0 0.96228564064454991 0.48206450662049471 0 0.61343887413683884 0.856862479058357 0 0.66412543161245952 0.88015090885499059 0 0.61885627562261258 0.90282959257498208 0 0 0.45000000000187229 0 0 0.40000000000166441 0 0.035463093262830522 0.42673416072819947 0 0.69999999999999984 0.69999999999999996 0 0.6916490518212759 0.75387992374886192 0 0.66427993341343905 0.73232764502436276 0 0.43846182030517877 0.64845797726506715 0 0.43323420005758778 0.6913544522562407 0 0.3977710372045391 0.65868194622830212 0 0.4367309254023824 0.92065556789053882 0 0.44003836461056539 0.88093474584252718 0 0.47401147028110507 0.91529957330468115 0 0.43846182030517877 0.64845797726506715 0 0.39743091024207589 0.6239520004230239 0 0.43545892161006339 0.61093128915313821 0 0.43846182030517877 0.64845797726506715 0 0.3977710372045391 0.65868194622830212 0 0.39743091024207589 0.6239520004230239 0 0.26429849586623999 0.19346700179430079 0 0.29336099386129338 0.15892013001050981 0 0.31255190597181792 0.19850845631528771 0 0.19670163708476801 0.31472518408333222 0 0.21049769590865089 0.26857363548218488 0 0.24432083401701241 0.3006253385567515 0 0.57724883562309992 0.92155686857100794 0 0.62065498684670595 0.95224934003983619 0 0.57382506491224949 0.9629411906298494 0 0.4409427642593301 0.35743108089689513 0 0.46655310992796922 0.39650496622958609 0 0.42161023666869668 0.39493916313643851 0 0.46666084890304671 0.57634471035397938 0 0.47095389620662098 0.61892551373708504 0 0.43545892161006339 0.61093128915313821 0 0.6879972333610942 0.43038561374960838 0 0.65178832218679827 0.45929119821019959 0 0.63912439215427275 0.41063340167983359 0 0.43698630808430822 0.080423614171545449 0 0.4320097814748517 0.037406712692169303 0 0.47040171442036788 0.044141676406503738 0 0.4367309254023824 0.92065556789053882 0 0.47135117303824892 0.95556877749289892 0 0.4308986359464303 0.96395712492906194 0 0.79680861578988083 0.92656778056766709 0 0.81486180804382891 0.96321394949790495 0 0.770759834363826 0.95919399014344442 0 0.79680861578956375 0.22656778056752541 0 0.81486180804364938 0.26321394949780091 0 0.77075983436335049 0.25919399014334171 0 0.71508799138962864 0.36622814920737751 0 0.68128176404677243 0.38629093627004979 0 0.68887083591306764 0.33632058575757479 0 0.35864735590330371 0.63903383440414463 0 0.32263089806001177 0.66003674931826484 0 0.31502927232353312 0.6134992213375432 0 0.21858834311891909 0.81980263716112767 0 0.2401283238295133 0.85648409884788523 0 0.19741632902693801 0.86755867406447229 0 0.35312867752657662 0.084946736076730367 0 0.32215584939770009 0.1218492143506909 0 0.3096713403101819 0.085471541595262421 0 0.35752321586431363 0.9185439911803448 0 0.35864759629805099 0.87963482415279515 0 0.39767323751400468 0.89584229130535065 0 0.41914690343363781 0.30688979866601612 0 0.4604742573284204 0.27846934318264788 0 0.46226845272279993 0.31901800744800313 0 0.33084213324567391 0.16272720141332131 0 0.32215584939770009 0.1218492143506909 0 0.36246644853392812 0.1399454205365751 0 0.46666084890304671 0.57634471035397938 0 0.42644501560315817 0.54603747078095544 0 0.47793794143994173 0.52940715638744962 0 0 0.60000000000138687 0 0 0.55000000000173355 0 0.034381862692950467 0.57372682250960894 0 0.77354604466818633 0.40378688774472771 0 0.74764719760526988 0.3719647154012321 0 0.78145581580700685 0.34881365920033602 0 0.34999999999912063 0 0 0.3615861437013822 0.03582617922508851 0 0.32541448401678508 0.046215317981507749 0 0.35000000000145642 1 0 0.32544832635163229 0.95485394099568932 0 0.36184234618600131 0.96443954459096326 0 0.57667858002728545 0.078486105337742612 0 0.57396793757665954 0.037011367187645222 0 0.61940220174112337 0.047251958781050582 0 0.47357141910802508 0.1873585799078378 0 0.50760557329222289 0.20700468884612061 0 0.46429753744194407 0.22870891180733599 0 0.49695729691142171 0.25014895411178018 0 0.46429753744194407 0.22870891180733599 0 0.50760557329222289 0.20700468884612061 0 0.33084213324567391 0.16272720141332131 0 0.3572130504031617 0.1874703368446563 0 0.31255190597181792 0.19850845631528771 0 0.6879972333610942 0.43038561374960838 0 0.63912439215427275 0.41063340167983359 0 0.68128176404677243 0.38629093627004979 0 0.65408113592120842 0.073941773121567966 0 0.65290632656860115 0.11434202593454081 0 0.61956000905586006 0.1043312481793135 0 0.33084213324567391 0.16272720141332131 0 0.31255190597181792 0.19850845631528771 0 0.29336099386129338 0.15892013001050981 0 0.61209567303293111 0.44669033081290321 0 0.63912439215427275 0.41063340167983359 0 0.65178832218679827 0.45929119821019959 0 0.086179601630648681 0.64647209519980475 0 0.1024350934457823 0.60772393977513839 0 0.1241190223511371 0.64391885572885044 0 0.44999999999882923 0 0 0.47040171442036788 0.044141676406503738 0 0.4320097814748517 0.037406712692169303 0 0.45000000000187229 1 0 0.4308986359464303 0.96395712492906194 0 0.47135117303824892 0.95556877749289892 0 0.74999999999934175 0 0 0.7527966693318906 0.053051678021508272 0 0.72683645290270404 0.027797073151180601 0 0.74999999999999989 0.69999999999999996 0 0.75841349681148107 0.75422312624214749 0 0.72501250972655151 0.74067302935308721 0 0.69999999999999984 0.69999999999999996 0 0.72501250972655151 0.74067302935308721 0 0.6916490518212759 0.75387992374886192 0 0.74999999999934175 0 0 0.79999999999947335 0 0 0.78393852574753176 0.032039079577822822 0 0.74999999999999989 0.69999999999999996 0 0.79999999999999982 0.69999999999999996 0 0.78578450296893509 0.73292684821144505 0 0.6405463747586706 0.63290524857395714 0 0.5991018319127801 0.62925360607495295 0 0.63065402604362242 0.59661356661633302 0 0.65481233915350323 0.35652751921065562 0 0.68887083591306764 0.33632058575757479 0 0.68128176404677243 0.38629093627004979 0 0.89999999999999991 0.29999999999999999 0 0.94999999999999996 0.29999999999999999 0 0.92012390126144183 0.33123581297173937 0 0.89999999999999991 0.69999999999999996 0 0.92057473616084773 0.66770436535372446 0 0.94999999999999996 0.69999999999999996 0 0.4367309254023824 0.92065556789053882 0 0.39767323751400468 0.89584229130535065 0 0.44003836461056539 0.88093474584252718 0 0.2185883431182947 0.18019736283949719 0 0.18124454140915969 0.18790916706335251 0 0.18652628422869419 0.14162325200928061 0 0.20050006573841939 0.53248514016039872 0 0.19604738184454831 0.47787523520405789 0 0.23975172658309729 0.49475499200540818 0 0.65507451745379841 0.92229208810758578 0 0.61885627562261258 0.90282959257498208 0 0.66412543161245952 0.88015090885499059 0 0.65394964615507722 0.22666784374016369 0 0.67933712972090698 0.25920070958121938 0 0.62657463266645097 0.26524202571255862 0 0.077693244765132896 0.56932317963405099 0 0.034381862692950467 0.57372682250960894 0 0.044576108720083309 0.53509043209532614 0 0.39801143831225599 0.16651381068160659 0 0.38831533174504851 0.2189834941785925 0 0.3572130504031617 0.1874703368446563 0 0.6499999999999998 0.69999999999999996 0 0.69999999999999984 0.69999999999999996 0 0.66427993341343905 0.73232764502436276 0 0.1215415378367805 0.72939333680004137 0 0.15332765547575641 0.71200081858233666 0 0.14335651144331049 0.75565258250209677 0 0.6405463747586706 0.63290524857395714 0 0.63065402604362242 0.59661356661633302 0 0.67529834988829951 0.61613270668143583 0 0.67323294229744413 0.57556450033612505 0 0.67529834988829951 0.61613270668143583 0 0.63065402604362242 0.59661356661633302 0 0.91750694127107502 0.36982372220068471 0 0.87430060258887643 0.34056085888204451 0 0.92012390126144183 0.33123581297173937 0 0.89999999999999991 0.29999999999999999 0 0.92012390126144183 0.33123581297173937 0 0.87430060258887643 0.34056085888204451 0 0.89999999999999991 0.69999999999999996 0 0.87712158428786946 0.65709029563313581 0 0.92057473616084773 0.66770436535372446 0 0.91750694127105259 0.63017627779935648 0 0.92057473616084773 0.66770436535372446 0 0.87712158428786946 0.65709029563313581 0 0.33122374654748771 0.57588941099433744 0 0.29110487519241501 0.56588143995431495 0 0.33190227185843768 0.52715113583864037 0 0.57484956128872922 0.66573805030881994 0 0.5498280205245758 0.6290146943450976 0 0.5991018319127801 0.62925360607495295 0 0.57412547362576272 0.58273804879550706 0 0.5991018319127801 0.62925360607495295 0 0.5498280205245758 0.6290146943450976 0 0.65408113592120842 0.073941773121567966 0 0.66369801598854572 0.036327466368102787 0 0.7010294155333181 0.056779085686491267 0 0.27474541102162192 0.11822029332053539 0 0.32215584939770009 0.1218492143506909 0 0.29336099386129338 0.15892013001050981 0 0.33084213324567391 0.16272720141332131 0 0.29336099386129338 0.15892013001050981 0 0.32215584939770009 0.1218492143506909 0 0.5 0.29999999999999999 0 0.54999999999999993 0.29999999999999999 0 0.52752007115234678 0.33170632466418198 0 0.83573492347052902 0.36590755630746369 0 0.87430060258887643 0.34056085888204451 0 0.86844634540301924 0.38530937474099819 0 0.83758014339878906 0.63222013025741819 0 0.87159648282691515 0.61285406320581504 0 0.87712158428786946 0.65709029563313581 0 0.22278230690790279 0.44824268025881547 0 0.23975172658309729 0.49475499200540818 0 0.19604738184454831 0.47787523520405789 0 1 0.49999999999950101 0 0.95631871884947484 0.51827533208233789 0 0.96228564064454991 0.48206450662049471 0 0.1650278706801647 0.38791388161335733 0 0.13773355295499351 0.42497777642586831 0 0.1117088112799664 0.38831403004970022 0 0.61209567303293111 0.44669033081290321 0 0.57975577671020095 0.46172033326338591 0 0.57744073070774993 0.41535148636609359 0 0.077693244765132896 0.56932317963405099 0 0.1154888278694548 0.56733818459978413 0 0.1024350934457823 0.60772393977513839 0 0.68697391633157634 0.84450604838764298 0 0.65005442820240822 0.82644988530054031 0 0.68024162096458085 0.79868546898116533 0 0.76901770135486491 0.84293557325473656 0 0.77094201086366854 0.79647480515688507 0 0.80041942726660109 0.81543261647703358 0 0.77144070960558853 0.14311854477243749 0 0.76878382444651716 0.097147941686331368 0 0.80076557130237269 0.1154587552654202 0 0.5 0.69999999999999996 0 0.52584555706968406 0.66664215091846768 0 0.54999999999999993 0.69999999999999996 0 0.077693244765132896 0.56932317963405099 0 0.044576108720083309 0.53509043209532614 0 0.085622222639554768 0.53333248912060549 0 0.69999999999921003 0 0 0.72683645290270404 0.027797073151180601 0 0.7010294155333181 0.056779085686491267 0 1 0 0 0.97166519676946894 0.033371144900598393 0 0.94999999999986839 0 0 1 0.69999999999999996 0 0.97166519676947294 0.73337114490064459 0 0.94999999999999996 0.69999999999999996 0 1 0.69999999999999996 0 1 0.74999999999993494 0 0.97166519676947294 0.73337114490064459 0 1 0.29999999999999999 0 0.97166519676951801 0.26662885509932011 0 1 0.24999999999987299 0 1 1 0 0.94999999999979179 1 0 0.97166519676946206 0.96662885509935492 0 1 0 0 1 0.049999999999896842 0 0.97166519676946894 0.033371144900598393 0 1 0.29999999999999999 0 0.94999999999999996 0.29999999999999999 0 0.97166519676951801 0.26662885509932011 0 1 1 0 0.97166519676946206 0.96662885509935492 0 1 0.94999999999997109 0 0 0.55000000000173355 0 0.044576108720083309 0.53509043209532614 0 0.034381862692950467 0.57372682250960894 0 0.6879972333610942 0.43038561374960838 0 0.69385896817107129 0.48377516041410151 0 0.65178832218679827 0.45929119821019959 0 0.33084213324567391 0.16272720141332131 0 0.36246644853392812 0.1399454205365751 0 0.3572130504031617 0.1874703368446563 0 0.65408113592120842 0.073941773121567966 0 0.68330259535470161 0.10038702501083881 0 0.65290632656860115 0.11434202593454081 0 0.16500388252850301 0.66612077714085194 0 0.19068556247388771 0.71028988922845504 0 0.15332765547575641 0.71200081858233666 0 0.82709327591091286 0.84937141670920724 0 0.85600844944837662 0.88483418979512773 0 0.81159157511211755 0.88795995483179491 0 0.82709327591102189 0.14937141670914489 0 0.85600844944842547 0.1848341897950983 0 0.81283102246527783 0.1881007222486438 0 0.79999999999999982 0.29999999999999999 0 0.84999999999999987 0.29999999999999999 0 0.82500000000000062 0.33010209762754811 0 0.79999999999999982 0.69999999999999996 0 0.82457059160610424 0.66831947184359608 0 0.84999999999999987 0.69999999999999996 0 0.59999999999999976 0.69999999999999996 0 0.62460753523532009 0.66851202781000296 0 0.6499999999999998 0.69999999999999996 0 0.39801143831225599 0.16651381068160659 0 0.3572130504031617 0.1874703368446563 0 0.36246644853392812 0.1399454205365751 0 0.69999999999999984 0.29999999999999999 0 0.74999999999999989 0.29999999999999999 0 0.73090396928863699 0.33699297293167962 0 0.69999999999999984 0.69999999999999996 0 0.72500000000000064 0.67022701834392062 0 0.74999999999999989 0.69999999999999996 0 0.6236733212988993 0.14864538214901801 0 0.64011864159029941 0.18789607982138171 0 0.59443395090188023 0.18455690917515069 0 0.20050006573841939 0.53248514016039872 0 0.16618607197337229 0.50652878253548905 0 0.19604738184454831 0.47787523520405789 0 0.79680861578956375 0.22656778056752541 0 0.76587607630038135 0.18880039518954719 0 0.81283102246527783 0.1881007222486438 0 0.79680861578988083 0.92656778056766709 0 0.76891166905518427 0.88835469571185499 0 0.81159157511211755 0.88795995483179491 0 0.71406021706547751 0.63292083137662503 0 0.675261390228442 0.65996937624687813 0 0.67529834988829951 0.61613270668143583 0 0.6405463747586706 0.63290524857395714 0 0.67529834988829951 0.61613270668143583 0 0.675261390228442 0.65996937624687813 0 0.19670163708476801 0.31472518408333222 0 0.168349569971391 0.28054490850913671 0 0.21049769590865089 0.26857363548218488 0 0.47357141910802508 0.1873585799078378 0 0.46429753744194407 0.22870891180733599 0 0.42905200079338551 0.19982395548231649 0 0.59814117807200873 0.23398510860739519 0 0.5794309697024993 0.27124795968204829 0 0.54248833945060504 0.2520322959927106 0 0.6541250972820879 0.49999999999999989 0 0.65178832218679827 0.45929119821019959 0 0.69385896817107129 0.48377516041410151 0 0.54999999999999993 0.29999999999999999 0 0.5794309697024993 0.27124795968204829 0 0.59999999999999976 0.29999999999999999 0 0.7750489929959945 0.66593931409600093 0 0.74994237037456724 0.62775548192980357 0 0.79884539758237771 0.62875045078114233 0 0.77293540622714185 0.59448302402785813 0 0.79884539758237771 0.62875045078114233 0 0.74994237037456724 0.62775548192980357 0 0.14332333627550789 0.14578431753966009 0 0.16141998738593399 0.10404039647458049 0 0.18652628422869419 0.14162325200928061 0 0.38083244760691543 0.38531983672244652 0 0.42161023666869668 0.39493916313643851 0 0.38707855792647411 0.42299362914874578 0 0.43249999999999988 0.43937499999999979 0 0.38707855792647411 0.42299362914874578 0 0.42161023666869668 0.39493916313643851 0 0.43846182030517877 0.64845797726506715 0 0.47095389620662098 0.61892551373708504 0 0.47913475093885149 0.66010775372412711 0 0.50715858906372158 0.63295939104129484 0 0.47913475093885149 0.66010775372412711 0 0.47095389620662098 0.61892551373708504 0 0.69999999999999984 0.69999999999999996 0 0.74999999999999989 0.69999999999999996 0 0.72501250972655151 0.74067302935308721 0 0.4089290844030305 0.58728915500154233 0 0.35765792684946668 0.6000687869219653 0 0.37272913873093971 0.56192925302619479 0 0.69999999999921003 0 0 0.74999999999934175 0 0 0.72683645290270404 0.027797073151180601 0 0.17933913398461551 0.2350063570234002 0 0.21049769590865089 0.26857363548218488 0 0.168349569971391 0.28054490850913671 0 0.14474682429600511 0.85524784522713515 0 0.10562472963403439 0.87143394428979881 0 0.1074251789111534 0.83564394292147814 0 0.14332333627550789 0.14578431753966009 0 0.106902708054812 0.16453234188234539 0 0.1053400320299198 0.12877248826361379 0 0.2236846579037573 0.67380363126050236 0 0.19914261668318661 0.62286739485272158 0 0.2459498854893499 0.63248470766216769 0 0.049999999999899652 0 0 0.053064897599215843 0.048131547304697528 0 0.02576622439977887 0.024532886826226379 0 0 0.050000000000207989 0 0.02576622439977887 0.024532886826226379 0 0.053064897599215843 0.048131547304697528 0 0.050000000000207989 1 0 0.025766224399875661 0.97546711317377799 0 0.053064897599294662 0.95186845269532028 0 0 0.94999999999979179 0 0.053064897599294662 0.95186845269532028 0 0.025766224399875661 0.97546711317377799 0 0.47357141910802508 0.1873585799078378 0 0.48466639505193998 0.1421439844745814 0 0.51729576145820033 0.1683240575987815 0 0.077693244765132896 0.56932317963405099 0 0.085622222639554768 0.53333248912060549 0 0.1154888278694548 0.56733818459978413 0 0.64753070846764316 0.77332939069435502 0 0.63221990677827677 0.73442891067859706 0 0.66427993341343905 0.73232764502436276 0 0.4656888918609538 0.78493261229743638 0 0.42609163930740518 0.80361684430568059 0 0.42676259796334498 0.76772545931379299 0 0.4089290844030305 0.58728915500154233 0 0.39743091024207589 0.6239520004230239 0 0.35765792684946668 0.6000687869219653 0 0.55306006949600994 0.20198184231352201 0 0.50760557329222289 0.20700468884612061 0 0.51729576145820033 0.1683240575987815 0 1 0.8999999999998336 0 1 0.94999999999997109 0 0.97435614836744289 0.92499999999990257 0 1 0.19999999999974799 0 1 0.24999999999987299 0 0.97435614836740092 0.22499999999981049 0 1 0.74999999999993494 0 1 0.7999999999998193 0 0.97435614836745565 0.77499999999987745 0 1 0.049999999999896842 0 1 0.099999999999753911 0 0.97435614836748241 0.074999999999825387 0 0.86411095495256451 0.42388805655111889 0 0.86844634540301924 0.38530937474099819 0 0.90594285160987287 0.4141265964174129 0 0.86956835336234861 0.571283299838105 0 0.91143117093204207 0.58709913730335972 0 0.87159648282691515 0.61285406320581504 0 0 0 0 0.02576622439977887 0.024532886826226379 0 0 0.050000000000207989 0 0 1 0 0 0.94999999999979179 0 0.025766224399875661 0.97546711317377799 0 0 1 0 0.025766224399875661 0.97546711317377799 0 0.050000000000207989 1 0 0 0 0 0.049999999999899652 0 0 0.02576622439977887 0.024532886826226379 0 0.65394964615507722 0.22666784374016369 0 0.64011864159029941 0.18789607982138171 0 0.6865991819015953 0.189116534044597 0 0.25195515620380449 0.25883339815888678 0 0.28040350263641872 0.23054717217092141 0 0.29132859388405002 0.27203693976649962 0 0.61209567303293111 0.44669033081290321 0 0.65178832218679827 0.45929119821019959 0 0.61547661924074692 0.48539576058873962 0 0.6541250972820879 0.49999999999999989 0 0.61547661924074692 0.48539576058873962 0 0.65178832218679827 0.45929119821019959 0 0.19670163708476801 0.31472518408333222 0 0.24432083401701241 0.3006253385567515 0 0.22615676742807109 0.33458786033114157 0 0.15801167086041079 0.46008690540259539 0 0.13773355295499351 0.42497777642586831 0 0.191953871957803 0.42546416763755879 0 0.1650278706801647 0.38791388161335733 0 0.191953871957803 0.42546416763755879 0 0.13773355295499351 0.42497777642586831 0 0.50715858906372158 0.63295939104129484 0 0.52584555706968406 0.66664215091846768 0 0.47913475093885149 0.66010775372412711 0 0.5 0.69999999999999996 0 0.47913475093885149 0.66010775372412711 0 0.52584555706968406 0.66664215091846768 0 0.51076801031701946 0.1202837388510348 0 0.51729576145820033 0.1683240575987815 0 0.48466639505193998 0.1421439844745814 0 0.71406021706547751 0.63292083137662503 0 0.74994237037456724 0.62775548192980357 0 0.72500000000000064 0.67022701834392062 0 0.71508799138962864 0.36622814920737751 0 0.73090396928863699 0.33699297293167962 0 0.74764719760526988 0.3719647154012321 0 0.22278230690790279 0.44824268025881547 0 0.25982634974572738 0.46097799597715272 0 0.23975172658309729 0.49475499200540818 0 0.80185942888539485 0.77452061303608133 0 0.78578450296893509 0.73292684821144505 0 0.81864958914779962 0.73589050177899629 0 0.80185942888501827 0.074520613036224564 0 0.78393852574753176 0.032039079577822822 0 0.81864958914740749 0.035890501779055867 0 0.5 0.29999999999999999 0 0.46226845272279993 0.31901800744800313 0 0.4604742573284204 0.27846934318264788 0 0.6405463747586706 0.63290524857395714 0 0.62460753523532009 0.66851202781000296 0 0.5991018319127801 0.62925360607495295 0 0.79680861578988083 0.92656778056766709 0 0.770759834363826 0.95919399014344442 0 0.75729602384198635 0.92353652857884294 0 0.79680861578956375 0.22656778056752541 0 0.77075983436335049 0.25919399014334171 0 0.75668890529066124 0.2244279804069782 0 0.65394964615507722 0.22666784374016369 0 0.69397719155551807 0.2245125647000914 0 0.67933712972090698 0.25920070958121938 0 0.81973119833356312 0.43505687159469048 0 0.84925632466077294 0.45359738909549091 0 0.81400510706333218 0.47357325943904899 0 0.83758014339878906 0.63222013025741819 0 0.82457059160610424 0.66831947184359608 0 0.79884539758237771 0.62875045078114233 0 0.25676291524611189 0.7436741304886243 0 0.2248999640082178 0.72584299459689172 0 0.26439878998046262 0.7048065392091396 0 0.91696753777131557 0.497780560203536 0 0.90900154012161016 0.53607784105648792 0 0.86907294890112186 0.52008116128001669 0 0.17933913398461551 0.2350063570234002 0 0.168349569971391 0.28054490850913671 0 0.14377654328998779 0.2442024734791064 0 0.1247745017231483 0.27198077544791172 0 0.14377654328998779 0.2442024734791064 0 0.168349569971391 0.28054490850913671 0 0.34258405725730701 0.4444034294386992 0 0.35221190152536241 0.40457127605439203 0 0.38707855792647411 0.42299362914874578 0 0.47357141910802508 0.1873585799078378 0 0.51729576145820033 0.1683240575987815 0 0.50760557329222289 0.20700468884612061 0 0.19670163708476801 0.31472518408333222 0 0.22615676742807109 0.33458786033114157 0 0.18434624290945251 0.35208838264196463 0 0.22033343844674469 0.36963382230740238 0 0.18434624290945251 0.35208838264196463 0 0.22615676742807109 0.33458786033114157 0 0.24432083401701241 0.3006253385567515 0 0.25966125648670141 0.34351016742083729 0 0.22615676742807109 0.33458786033114157 0 0.93814194660195893 0.44426664081746747 0 0.90594285160987287 0.4141265964174129 0 0.95871855522754235 0.40006508612975411 0 0.91750694127107502 0.36982372220068471 0 0.95871855522754235 0.40006508612975411 0 0.90594285160987287 0.4141265964174129 0 0.91750694127105259 0.63017627779935648 0 0.91143117093204207 0.58709913730335972 0 0.95867599106212187 0.60011091146651041 0 0.93732437411268477 0.55911392101136159 0 0.95867599106212187 0.60011091146651041 0 0.91143117093204207 0.58709913730335972 0 0.50715858906372158 0.63295939104129484 0 0.5498280205245758 0.6290146943450976 0 0.52584555706968406 0.66664215091846768 0 0.94399509803918602 0.75600490196082126 0 0.97435614836745565 0.77499999999987745 0 0.95386563387742829 0.80414874155775029 0 0.94399509803922566 0.056004901960802607 0 0.97435614836748241 0.074999999999825387 0 0.95386563387744361 0.1041487415577465 0 0.94399509803921056 0.24399509803922639 0 0.95391631417672862 0.19584263333809451 0 0.97435614836740092 0.22499999999981049 0 0.94399509803919068 0.9439950980391687 0 0.95391631417670719 0.89584263333814784 0 0.97435614836744289 0.92499999999990257 0 0.79680861578988083 0.92656778056766709 0 0.75729602384198635 0.92353652857884294 0 0.76891166905518427 0.88835469571185499 0 0.79680861578956375 0.22656778056752541 0 0.75668890529066124 0.2244279804069782 0 0.76587607630038135 0.18880039518954719 0 0.65394964615507722 0.22666784374016369 0 0.6865991819015953 0.189116534044597 0 0.69397719155551807 0.2245125647000914 0 0.38083244760691543 0.38531983672244652 0 0.38707855792647411 0.42299362914874578 0 0.35221190152536241 0.40457127605439203 0 1 0.7999999999998193 0 0.95386563387742829 0.80414874155775029 0 0.97435614836745565 0.77499999999987745 0 1 0.099999999999753911 0 0.95386563387744361 0.1041487415577465 0 0.97435614836748241 0.074999999999825387 0 1 0.8999999999998336 0 0.97435614836744289 0.92499999999990257 0 0.95391631417670719 0.89584263333814784 0 1 0.19999999999974799 0 0.97435614836740092 0.22499999999981049 0 0.95391631417672862 0.19584263333809451 0 0.84723782639812573 0.48638347960178252 0 0.81400510706333218 0.47357325943904899 0 0.84925632466077294 0.45359738909549091 0 0.54999999999999993 0.29999999999999999 0 0.54248833945060504 0.2520322959927106 0 0.5794309697024993 0.27124795968204829 0 0.94999999999999996 0.29999999999999999 0 0.95780851984364423 0.34215720972155339 0 0.92012390126144183 0.33123581297173937 0 0.94999999999999996 0.69999999999999996 0 0.92057473616084773 0.66770436535372446 0 0.9578014258160763 0.65787212321113708 0 0.15801167086041079 0.46008690540259539 0 0.113541300460994 0.46208784312094731 0 0.13773355295499351 0.42497777642586831 0 0.7250000000005199 0.94981617647078953 0 0.68015064798562208 0.95924320340003011 0 0.68987011941058407 0.92105047536677087 0 0.65507451745379841 0.92229208810758578 0 0.68987011941058407 0.92105047536677087 0 0.68015064798562208 0.95924320340003011 0 0.77846603114747959 0.49850927265137401 0 0.77972660463949339 0.45529290596363098 0 0.81400510706333218 0.47357325943904899 0 0.27866744612395528 0.38416094670951489 0 0.25966125648670141 0.34351016742083729 0 0.29644548887253103 0.34914008784168082 0 0.61209567303293111 0.44669033081290321 0 0.61547661924074692 0.48539576058873962 0 0.57975577671020095 0.46172033326338591 0 0.57611405284611883 0.50165903596042916 0 0.57975577671020095 0.46172033326338591 0 0.61547661924074692 0.48539576058873962 0 0.7250000000005199 0.89375000000045834 0 0.76891166905518427 0.88835469571185499 0 0.75729602384198635 0.92353652857884294 0 0.72500000000001008 0.19776155966387679 0 0.76587607630038135 0.18880039518954719 0 0.75668890529066124 0.2244279804069782 0 0.72500000000001008 0.19776155966387679 0 0.69397719155551807 0.2245125647000914 0 0.6865991819015953 0.189116534044597 0 0.083411279318303222 0.089699755330707398 0 0.12372429750337779 0.095814237875728972 0 0.1053400320299198 0.12877248826361379 0 0.083411279318375747 0.91030024466934134 0 0.10562472963403439 0.87143394428979881 0 0.1241151115713819 0.9045666525468371 0 0.14617343800780541 0.93808063414349496 0 0.1241151115713819 0.9045666525468371 0 0.16206583317966519 0.89685560785156404 0 0.14618258501891079 0.062070108745602003 0 0.16141998738593399 0.10404039647458049 0 0.12372429750337779 0.095814237875728972 0 0.33277555741076909 0.36432196682010132 0 0.35221190152536241 0.40457127605439203 0 0.31778888742534622 0.40581751814196781 0 0.7250000000005199 0.94981617647078953 0 0.75729602384198635 0.92353652857884294 0 0.770759834363826 0.95919399014344442 0 0.72500000000000064 0.2498161764706 0 0.75668890529066124 0.2244279804069782 0 0.77075983436335049 0.25919399014334171 0 0.72500000000000064 0.2498161764706 0 0.67933712972090698 0.25920070958121938 0 0.69397719155551807 0.2245125647000914 0 0.6236733212988993 0.14864538214901801 0 0.61956000905586006 0.1043312481793135 0 0.65290632656860115 0.11434202593454081 0 0.81973119833356312 0.43505687159469048 0 0.81400510706333218 0.47357325943904899 0 0.77972660463949339 0.45529290596363098 0 0.25676291524611189 0.7436741304886243 0 0.29904318922293632 0.74132814928635593 0 0.2792923945214143 0.77665808831789485 0 0.36575549820117997 0.31677992835137742 0 0.32752639306529541 0.32610012995269699 0 0.33402499257867951 0.28911035184473982 0 0.14332333627550789 0.14578431753966009 0 0.18652628422869419 0.14162325200928061 0 0.18124454140915969 0.18790916706335251 0 0.57724883562309992 0.92155686857100794 0 0.5832743223239254 0.88483152652961872 0 0.61885627562261258 0.90282959257498208 0 0.57667858002728545 0.078486105337742612 0 0.61956000905586006 0.1043312481793135 0 0.58516465772821369 0.11653801664834119 0 0.80185942888539485 0.77452061303608133 0 0.80041942726660109 0.81543261647703358 0 0.77094201086366854 0.79647480515688507 0 0.80185942888501827 0.074520613036224564 0 0.80076557130237269 0.1154587552654202 0 0.76878382444651716 0.097147941686331368 0 0.64753070846764316 0.77332939069435502 0 0.68024162096458085 0.79868546898116533 0 0.65005442820240822 0.82644988530054031 0 0.26429849586623999 0.19346700179430079 0 0.25557216766470708 0.15874861286892261 0 0.29336099386129338 0.15892013001050981 0 0.29348325746214782 0.31350119524708198 0 0.29644548887253103 0.34914008784168082 0 0.25966125648670141 0.34351016742083729 0 0.68391457121233579 0.14440470121196541 0 0.65290632656860115 0.11434202593454081 0 0.68330259535470161 0.10038702501083881 0 0.91750694127107502 0.36982372220068471 0 0.92012390126144183 0.33123581297173937 0 0.95780851984364423 0.34215720972155339 0 0.91750694127105259 0.63017627779935648 0 0.9578014258160763 0.65787212321113708 0 0.92057473616084773 0.66770436535372446 0 0.22033343844674469 0.36963382230740238 0 0.22615676742807109 0.33458786033114157 0 0.25966125648670141 0.34351016742083729 0 1 0.94999999999997109 0 0.97166519676946206 0.96662885509935492 0 0.97435614836744289 0.92499999999990257 0 0.94399509803919068 0.9439950980391687 0 0.97435614836744289 0.92499999999990257 0 0.97166519676946206 0.96662885509935492 0 0.94399509803921056 0.24399509803922639 0 0.97435614836740092 0.22499999999981049 0 0.97166519676951801 0.26662885509932011 0 1 0.24999999999987299 0 0.97166519676951801 0.26662885509932011 0 0.97435614836740092 0.22499999999981049 0 1 0.74999999999993494 0 0.97435614836745565 0.77499999999987745 0 0.97166519676947294 0.73337114490064459 0 1 0.049999999999896842 0 0.97435614836748241 0.074999999999825387 0 0.97166519676946894 0.033371144900598393 0 0.94399509803918602 0.75600490196082126 0 0.97166519676947294 0.73337114490064459 0 0.97435614836745565 0.77499999999987745 0 0.94399509803922566 0.056004901960802607 0 0.97166519676946894 0.033371144900598393 0 0.97435614836748241 0.074999999999825387 0 0.77846603114747959 0.49850927265137401 0 0.81400510706333218 0.47357325943904899 0 0.81441713509985358 0.51161854125224959 0 0.77354604466818633 0.40378688774472771 0 0.72622533758026719 0.40265885511101601 0 0.74764719760526988 0.3719647154012321 0 0.71508799138962864 0.36622814920737751 0 0.74764719760526988 0.3719647154012321 0 0.72622533758026719 0.40265885511101601 0 0.84723782639812573 0.48638347960178252 0 0.84925632466077294 0.45359738909549091 0 0.88594198078881503 0.46167788676578442 0 0.86411095495256451 0.42388805655111889 0 0.88594198078881503 0.46167788676578442 0 0.84925632466077294 0.45359738909549091 0 0.43846182030517877 0.64845797726506715 0 0.43545892161006339 0.61093128915313821 0 0.47095389620662098 0.61892551373708504 0 0.33123028043633618 0.77629643437932982 0 0.35642984951668422 0.80994399665655703 0 0.30857225866488791 0.81101973481716805 0 0.33403534827021109 0.84402799729020661 0 0.30857225866488791 0.81101973481716805 0 0.35642984951668422 0.80994399665655703 0 0.26429849586623999 0.19346700179430079 0 0.31255190597181792 0.19850845631528771 0 0.28040350263641872 0.23054717217092141 0 0.57724883562309992 0.92155686857100794 0 0.54783390826260769 0.89287767010860219 0 0.5832743223239254 0.88483152652961872 0 0.55899371797446828 0.85003102233514438 0 0.5832743223239254 0.88483152652961872 0 0.54783390826260769 0.89287767010860219 0 0.4089290844030305 0.58728915500154233 0 0.43545892161006339 0.61093128915313821 0 0.39743091024207589 0.6239520004230239 0 0.77293540622714185 0.59448302402785813 0 0.81723410853263523 0.59419663659258926 0 0.79884539758237771 0.62875045078114233 0 0.83758014339878906 0.63222013025741819 0 0.79884539758237771 0.62875045078114233 0 0.81723410853263523 0.59419663659258926 0 0.35864735590330371 0.63903383440414463 0 0.39743091024207589 0.6239520004230239 0 0.3977710372045391 0.65868194622830212 0 0.56202748619534593 0.15054058349222879 0 0.54979595918804436 0.1060565713905809 0 0.58516465772821369 0.11653801664834119 0 0.57667858002728545 0.078486105337742612 0 0.58516465772821369 0.11653801664834119 0 0.54979595918804436 0.1060565713905809 0 0.33122374654748771 0.57588941099433744 0 0.37272913873093971 0.56192925302619479 0 0.35765792684946668 0.6000687869219653 0 0.35864735590330371 0.63903383440414463 0 0.35765792684946668 0.6000687869219653 0 0.39743091024207589 0.6239520004230239 0 0.71508799138962864 0.36622814920737751 0 0.68887083591306764 0.33632058575757479 0 0.73090396928863699 0.33699297293167962 0 0.29348325746214782 0.31350119524708198 0 0.32752639306529541 0.32610012995269699 0 0.29644548887253103 0.34914008784168082 0 0.33277555741076909 0.36432196682010132 0 0.29644548887253103 0.34914008784168082 0 0.32752639306529541 0.32610012995269699 0 0.34258405725730701 0.4444034294386992 0 0.31778888742534622 0.40581751814196781 0 0.35221190152536241 0.40457127605439203 0 0.79999999999999982 0.69999999999999996 0 0.81864958914779962 0.73589050177899629 0 0.78578450296893509 0.73292684821144505 0 0.79999999999947335 0 0 0.81864958914740749 0.035890501779055867 0 0.78393852574753176 0.032039079577822822 0 0.27474541102162192 0.11822029332053539 0 0.29336099386129338 0.15892013001050981 0 0.25557216766470708 0.15874861286892261 0 0 0.45000000000187229 0 0.035463093262830522 0.42673416072819947 0 0.033550201249889847 0.46247875832467239 0 0.6499999999999998 0.69999999999999996 0 0.66427993341343905 0.73232764502436276 0 0.63221990677827677 0.73442891067859706 0 0.84723782639812573 0.48638347960178252 0 0.81441713509985358 0.51161854125224959 0 0.81400510706333218 0.47357325943904899 0 0.26104540868854792 0.81401944968719064 0 0.30857225866488791 0.81101973481716805 0 0.29209212897034281 0.84715728365233667 0 0.33403534827021109 0.84402799729020661 0 0.29209212897034281 0.84715728365233667 0 0.30857225866488791 0.81101973481716805 0 0.69999999999999984 0.29999999999999999 0 0.73090396928863699 0.33699297293167962 0 0.68887083591306764 0.33632058575757479 0 
</DataArray>
</Points>
<Cells>
<DataArray type="UInt32" Name="connectivity" format="ascii">
0 1 2 3 4 5 6 7 8 9 10 11 12 13 14 15 16 17 18 19 20 21 22 23 24 25 26 27 28 29 30 31 32 33 34 35 36 37 38 39 40 41 42 43 44 45 46 47 48 49 50 51 52 53 54 55 56 57 58 59 60 61 62 63 64 65 66 67 68 69 70 71 72 73 74 75 76 77 78 79 80 81 82 83 84 85 86 87 88 89 90 91 92 93 94 95 96 97 98 99 100 101 102 103 104 105 106 107 108 109 110 111 112 113 114 115 116 117 118 119 120 121 122 123 124 125 126 127 128 129 130 131 132 133 134 135 136 137 138 139 140 141 142 143 144 145 146 147 148 149 150 151 152 153 154 155 156 157 158 159 160 161 162 163 164 165 166 167 168 169 170 171 172 173 174 175 176 177 178 179 180 181 182 183 184 185 186 187 188 189 190 191 192 193 194 195 196 197 198 199 200 201 202 203 204 205 206 207 208 209 210 211 212 213 214 215 216 217 218 219 220 221 222 223 224 225 226 227 228 229 230 231 232 233 234 235 236 237 238 239 240 241 242 243 244 245 246 247 248 249 250 251 252 253 254 255 256 257 258 259 260 261 262 263 264 265 266 267 268 269 270 271 272 273 274 275 276 277 278 279 280 281 282 283 284 285 286 287 288 289 290 291 292 293 294 295 296 297 298 299 300 301 302 303 304 305 306 307 308 309 310 311 312 313 314 315 316 317 318 319 320 321 322 323 324 325 326 327 328 329 330 331 332 333 334 335 336 337 338 339 340 341 342 343 344 345 346 347 348 349 350 351 352 353 354 355 356 357 358 359 360 361 362 363 364 365 366 367 368 369 370 371 372 373 374 375 376 377 378 379 380 381 382 383 384 385 386 387 388 389 390 391 392 393 394 395 396 397 398 399 400 401 402 403 404 405 406 407 408 409 410 411 412 413 414 415 416 417 418 419 420 421 422 423 424 425 426 427 428 429 430 431 432 433 434 435 436 437 438 439 440 441 442 443 444 445 446 447 448 449 450 451 452 453 454 455 456 457 458 459 460 461 462 463 464 465 466 467 468 469 470 471 472 473 474 475 476 477 478 479 480 481 482 483 484 485 486 487 488 489 490 491 492 493 494 495 496 497 498 499 500 501 502 503 504 505 506 507 508 509 510 511 512 513 514 515 516 517 518 519 520 521 522 523 524 525 526 527 528 529 530 531 532 533 534 535 536 537 538 539 540 541 542 543 544 545 546 547 548 549 550 551 552 553 554 555 556 557 558 559 560 561 562 563 564 565 566 567 568 569 570 571 572 573 574 575 576 577 578 579 580 581 582 583 584 585 586 587 588 589 590 591 592 593 594 595 596 597 598 599 600 601 602 603 604 605 606 607 608 609 610 611 612 613 614 615 616 617 618 619 620 621 622 623 624 625 626 627 628 629 630 631 632 633 634 635 636 637 638 639 640 641 642 643 644 645 646 647 648 649 650 651 652 653 654 655 656 657 658 659 660 661 662 663 664 665 666 667 668 669 670 671 672 673 674 675 676 677 678 679 680 681 682 683 684 685 686 687 688 689 690 691 692 693 694 695 696 697 698 699 700 701 702 703 704 705 706 707 708 709 710 711 712 713 714 715 716 717 718 719 720 721 722 723 724 725 726 727 728 729 730 731 732 733 734 735 736 737 738 739 740 741 742 743 744 745 746 747 748 749 750 751 752 753 754 755 756 757 758 759 760 761 762 763 764 765 766 767 768 769 770 771 772 773 774 775 776 777 778 779 780 781 782 783 784 785 786 787 788 789 790 791 792 793 794 795 796 797 798 799 800 801 802 803 804 805 806 807 808 809 810 811 812 813 814 815 816 817 818 819 820 821 822 823 824 825 826 827 828 829 830 831 832 833 834 835 836 837 838 839 840 841 842 843 844 845 846 847 848 849 850 851 852 853 854 855 856 857 858 859 860 861 862 863 864 865 866 867 868 869 870 871 872 873 874 875 876 877 878 879 880 881 882 883 884 885 886 887 888 889 890 891 892 893 894 895 896 897 898 899 900 901 902 903 904 905 906 907 908 909 910 911 912 913 914 915 916 917 918 919 920 921 922 923 924 925 926 927 928 929 930 931 932 933 934 935 936 937 938 939 940 941 942 943 944 945 946 947 948 949 950 951 952 953 954 955 956 957 958 959 960 961 962 963 964 965 966 967 968 969 970 971 972 973 974 975 976 977 978 979 980 981 982 983 984 985 986 987 988 989 990 991 992 993 994 995 996 997 998 999 1000 1001 1002 1003 1004 1005 1006 1007 1008 1009 1010 1011 1012 1013 1014 1015 1016 1017 1018 1019 1020 1021 1022 1023 1024 1025 1026 1027 1028 1029 1030 1031 1032 1033 1034 1035 1036 1037 1038 1039 1040 1041 1042 1043 1044 1045 1046 1047 1048 1049 1050 1051 1052 1053 1054 1055 1056 1057 1058 1059 1060 1061 1062 1063 1064 1065 1066 1067 1068 1069 1070 1071 1072 1073 1074 1075 1076 1077 1078 1079 1080 1081 1082 1083 1084 1085 1086 1087 1088 1089 1090 1091 1092 1093 1094 1095 1096 1097 1098 1099 1100 1101 1102 1103 1104 1105 1106 1107 1108 1109 1110 1111 1112 1113 1114 1115 1116 1117 1118 1119 1120 1121 1122 1123 1124 1125 1126 1127 1128 1129 1130 1131 1132 1133 1134 1135 1136 1137 1138 1139 1140 1141 1142 1143 1144 1145 1146 1147 1148 1149 1150 1151 1152 1153 1154 1155 1156 1157 1158 1159 1160 1161 1162 1163 1164 1165 1166 1167 1168 1169 1170 1171 1172 1173 1174 1175 1176 1177 1178 1179 1180 1181 1182 1183 1184 1185 1186 1187 1188 1189 1190 1191 1192 1193 1194 1195 1196 1197 1198 1199 1200 1201 1202 1203 1204 1205 1206 1207 1208 1209 1210 1211 1212 1213 1214 1215 1216 1217 1218 1219 1220 1221 1222 1223 1224 1225 1226 1227 1228 1229 1230 1231 1232 1233 1234 1235 1236 1237 1238 1239 1240 1241 1242 1243 1244 1245 1246 1247 1248 1249 1250 1251 1252 1253 1254 1255 1256 1257 1258 1259 1260 1261 1262 1263 1264 1265 1266 1267 1268 1269 1270 1271 1272 1273 1274 1275 1276 1277 1278 1279 1280 1281 1282 1283 1284 1285 1286 1287 1288 1289 1290 1291 1292 1293 1294 1295 1296 1297 1298 1299 1300 1301 1302 1303 1304 1305 1306 1307 1308 1309 1310 1311 1312 1313 1314 1315 1316 1317 1318 1319 1320 1321 1322 1323 1324 1325 1326 1327 1328 1329 1330 1331 1332 1333 1334 1335 1336 1337 1338 1339 1340 1341 1342 1343 1344 1345 1346 1347 1348 1349 1350 1351 1352 1353 1354 1355 1356 1357 1358 1359 1360 1361 1362 1363 1364 1365 1366 1367 1368 1369 1370 1371 1372 1373 1374 1375 1376 1377 1378 1379 1380 1381 1382 1383 1384 1385 1386 1387 1388 1389 1390 1391 1392 1393 1394 1395 1396 1397 1398 1399 1400 1401 1402 1403 1404 1405 1406 1407 1408 1409 1410 1411 1412 1413 1414 1415 1416 1417 1418 1419 1420 1421 1422 1423 1424 1425 1426 1427 1428 1429 1430 1431 1432 1433 1434 1435 1436 1437 1438 1439 1440 1441 1442 1443 1444 1445 1446 1447 1448 1449 1450 1451 1452 1453 1454 1455 1456 1457 1458 1459 1460 1461 1462 1463 1464 1465 1466 1467 1468 1469 1470 1471 1472 1473 1474 1475 1476 1477 1478 1479 1480 1481 1482 1483 1484 1485 1486 1487 1488 1489 1490 1491 1492 1493 1494 1495 1496 1497 1498 1499 1500 1501 1502 1503 1504 1505 1506 1507 1508 1509 1510 1511 1512 1513 1514 1515 1516 1517 1518 1519 1520 1521 1522 1523 1524 1525 1526 1527 1528 1529 1530 1531 1532 1533 1534 1535 1536 1537 1538 1539 1540 1541 1542 1543 1544 1545 1546 1547 1548 1549 1550 1551 1552 1553 1554 1555 1556 1557 1558 1559 1560 1561 1562 1563 1564 1565 1566 1567 1568 1569 1570 1571 1572 1573 1574 1575 1576 1577 1578 1579 1580 1581 1582 1583 1584 1585 1586 1587 1588 1589 1590 1591 1592 1593 1594 1595 1596 1597 1598 1599 1600 1601 1602 1603 1604 1605 1606 1607 1608 1609 1610 1611 1612 1613 1614 1615 1616 1617 1618 1619 1620 1621 1622 1623 1624 1625 1626 1627 1628 1629 1630 1631 1632 1633 1634 1635 1636 1637 1638 1639 1640 1641 1642 1643 1644 1645 1646 1647 1648 1649 1650 1651 1652 1653 1654 1655 1656 1657 1658 1659 1660 1661 1662 1663 1664 1665 1666 1667 1668 1669 1670 1671 1672 1673 1674 1675 1676 1677 1678 1679 1680 1681 1682 1683 1684 1685 1686 1687 1688 1689 1690 1691 1692 1693 1694 1695 1696 1697 1698 1699 1700 1701 1702 1703 1704 1705 1706 1707 1708 1709 1710 1711 1712 1713 1714 1715 1716 1717 1718 1719 1720 1721 1722 1723 1724 1725 1726 1727 1728 1729 1730 1731 1732 1733 1734 1735 1736 1737 1738 1739 1740 1741 1742 1743 1744 1745 1746 1747 1748 1749 1750 1751 1752 1753 1754 1755 1756 1757 1758 1759 1760 1761 1762 1763 1764 1765 1766 1767 1768 1769 1770 1771 1772 1773 1774 1775 1776 1777 1778 1779 1780 1781 1782 1783 1784 1785 1786 1787 1788 1789 1790 1791 1792 1793 1794 1795 1796 1797 1798 1799 1800 1801 1802 1803 1804 1805 1806 1807 1808 1809 1810 1811 1812 1813 1814 1815 1816 1817 1818 1819 1820 1821 1822 1823 1824 1825 1826 1827 1828 1829 1830 1831 1832 1833 1834 1835 1836 1837 1838 1839 1840 1841 1842 1843 1844 1845 1846 1847 1848 1849 1850 1851 1852 1853 1854 1855 1856 1857 1858 1859 1860 1861 1862 1863 1864 1865 1866 1867 1868 1869 1870 1871 1872 1873 1874 1875 1876 1877 1878 1879 1880 1881 1882 1883 1884 1885 1886 1887 1888 1889 1890 1891 1892 1893 1894 1895 1896 1897 1898 1899 1900 1901 1902 1903 1904 1905 1906 1907 1908 1909 1910 1911 1912 1913 1914 1915 1916 1917 1918 1919 1920 1921 1922 1923 1924 1925 1926 1927 1928 1929 1930 1931 1932 1933 1934 1935 1936 1937 1938 1939 1940 1941 1942 1943 1944 1945 1946 1947 1948 1949 1950 1951 1952 1953 1954 1955 1956 1957 1958 1959 1960 1961 1962 1963 1964 1965 1966 1967 1968 1969 1970 1971 1972 1973 1974 1975 1976 1977 1978 1979 1980 1981 1982 1983 1984 1985 1986 1987 1988 1989 1990 1991 1992 1993 1994 1995 1996 1997 1998 1999 2000 2001 2002 2003 2004 2005 2006 2007 2008 2009 2010 2011 2012 2013 2014 2015 2016 2017 2018 2019 2020 2021 2022 2023 2024 2025 2026 2027 2028 2029 2030 2031 2032 2033 2034 2035 2036 2037 2038 2039 2040 2041 2042 2043 2044 2045 2046 2047 2048 2049 2050 2051 2052 2053 2054 2055 2056 2057 2058 2059 2060 2061 2062 2063 2064 2065 2066 2067 2068 2069 2070 2071 2072 2073 2074 2075 2076 2077 2078 2079 2080 2081 2082 2083 2084 2085 2086 2087 2088 2089 2090 2091 2092 2093 2094 2095 2096 2097 2098 2099 2100 2101 2102 2103 2104 2105 2106 2107 2108 2109 2110 2111 2112 2113 2114 2115 2116 2117 2118 2119 2120 2121 2122 2123 2124 2125 2126 2127 2128 2129 2130 2131 2132 2133 2134 2135 2136 2137 2138 2139 2140 2141 2142 2143 2144 2145 2146 2147 2148 2149 2150 2151 2152 2153 2154 2155 2156 2157 2158 2159 2160 2161 2162 2163 2164 2165 2166 2167 2168 2169 2170 2171 2172 2173 2174 2175 2176 2177 2178 2179 2180 2181 2182 2183 2184 2185 2186 2187 2188 2189 2190 2191 2192 2193 2194 2195 2196 2197 2198 2199 2200 2201 2202 2203 2204 2205 2206 2207 2208 2209 2210 2211 2212 2213 2214 2215 2216 2217 2218 2219 2220 2221 2222 2223 2224 2225 2226 2227 2228 2229 2230 2231 2232 2233 2234 2235 2236 2237 2238 2239 2240 2241 2242 2243 2244 2245 2246 2247 2248 2249 2250 2251 2252 2253 2254 2255 2256 2257 2258 2259 2260 2261 2262 2263 2264 2265 2266 2267 2268 2269 2270 2271 2272 2273 2274 2275 2276 2277 2278 2279 2280 2281 2282 2283 2284 2285 2286 2287 2288 2289 2290 2291 2292 2293 2294 2295 2296 2297 2298 2299 2300 2301 2302 2303 2304 2305 2306 2307 2308 2309 2310 2311 2312 2313 2314 2315 2316 2317 2318 2319 2320 2321 2322 2323 2324 2325 2326 2327 2328 2329 2330 2331 2332 2333 2334 2335 2336 2337 2338 2339 2340 2341 2342 2343 2344 2345 2346 2347 2348 2349 2350 2351 2352 2353 2354 2355 2356 2357 2358 2359 2360 2361 2362 2363 2364 2365 2366 2367 2368 2369 2370 2371 2372 2373 2374 2375 2376 2377 2378 2379 2380 2381 2382 2383 2384 2385 2386 2387 2388 2389 2390 2391 2392 2393 2394 2395 2396 2397 2398 2399 2400 2401 2402 2403 2404 2405 2406 2407 2408 2409 2410 2411 2412 2413 2414 2415 2416 2417 2418 2419 2420 2421 2422 2423 2424 2425 2426 2427 2428 2429 2430 2431 2432 2433 2434 2435 2436 2437 2438 2439 2440 2441 2442 2443 2444 2445 2446 2447 2448 2449 2450 2451 2452 2453 2454 2455 2456 2457 2458 2459 2460 2461 2462 2463 2464 2465 2466 2467 2468 2469 2470 2471 2472 2473 2474 2475 2476 2477 2478 2479 2480 2481 2482 2483 2484 2485 2486 2487 2488 2489 2490 2491 2492 2493 2494 2495 2496 2497 2498 2499 2500 2501 2502 2503 2504 2505 2506 2507 2508 2509 2510 2511 2512 2513 2514 2515 2516 2517 2518 2519 2520 2521 2522 2523 2524 2525 2526 2527 2528 2529 2530 2531 2532 2533 2534 2535 2536 2537 2538 2539 2540 2541 2542 2543 2544 2545 2546 2547 2548 2549 2550 2551 2552 2553 2554 2555 2556 2557 2558 2559 2560 2561 2562 2563 2564 2565 2566 2567 2568 2569 2570 2571 2572 2573 2574 2575 2576 2577 2578 2579 2580 2581 2582 2583 2584 2585 2586 2587 2588 2589 2590 2591 2592 2593 2594 2595 2596 2597 2598 2599 2600 2601 2602 2603 2604 2605 2606 2607 2608 2609 2610 2611 2612 2613 2614 2615 2616 2617 2618 2619 2620 2621 2622 2623 2624 2625 2626 2627 2628 2629 2630 2631 2632 2633 2634 2635 2636 2637 2638 2639 2640 2641 2642 2643 2644 2645 2646 2647 2648 2649 2650 2651 2652 2653 2654 2655 2656 2657 2658 2659 2660 2661 2662 2663 2664 2665 2666 2667 2668 2669 2670 2671 2672 2673 2674 2675 2676 2677 2678 2679 2680 2681 2682 2683 2684 2685 2686 2687 2688 2689 2690 2691 2692 2693 2694 2695 2696 2697 2698 2699 2700 2701 2702 2703 2704 2705 2706 2707 2708 2709 2710 2711 2712 2713 2714 2715 2716 2717 2718 2719 2720 2721 2722 2723 2724 2725 2726 2727 2728 2729 2730 2731 2732 2733 2734 2735 2736 2737 2738 2739 2740 2741 2742 2743 2744 2745 2746 2747 2748 2749 2750 2751 2752 2753 2754 2755 2756 2757 2758 2759 2760 2761 2762 2763 2764 2765 2766 2767 2768 2769 2770 2771 2772 2773 2774 2775 2776 2777 2778 2779 2780 2781 2782 2783 2784 2785 2786 2787 2788 2789 2790 2791 2792 2793 2794 2795 2796 2797 2798 2799 2800 2801 2802 2803 2804 2805 2806 2807 2808 2809 2810 2811 2812 2813 2814 2815 2816 2817 2818 2819 2820 2821 2822 2823 2824 2825 2826 2827 2828 2829 2830 2831 2832 2833 2834 2835 2836 2837 2838 2839 2840 2841 2842 2843 2844 2845 2846 2847 2848 2849 2850 2851 2852 2853 2854 2855 2856 2857 2858 2859 2860 2861 2862 2863 2864 2865 2866 2867 2868 2869 2870 2871 2872 2873 2874 2875 2876 2877 2878 2879 2880 2881 2882 2883 2884 2885 2886 2887 2888 2889 2890 2891 2892 2893 2894 2895 2896 2897 2898 2899 2900 2901 2902 2903 2904 2905 2906 2907 2908 2909 2910 2911 2912 2913 2914 2915 2916 2917 2918 2919 2920 2921 2922 2923 2924 2925 2926 2927 2928 2929 2930 2931 2932 2933 2934 2935 2936 2937 2938 2939 2940 2941 2942 2943 2944 2945 2946 2947 2948 2949 2950 2951 2952 2953 2954 2955 2956 2957 2958 2959 2960 2961 2962 2963 2964 2965 2966 2967 2968 2969 2970 2971 2972 2973 2974 2975 2976 2977 2978 2979 2980 2981 2982 2983 2984 2985 2986 2987 2988 2989 2990 2991 2992 2993 2994 2995 2996 2997 2998 2999 3000 3001 3002 3003 3004 3005 3006 3007 3008 3009 3010 3011 3012 3013 3014 3015 3016 3017 3018 3019 3020 3021 3022 3023 3024 3025 3026 3027 3028 3029 3030 3031 3032 3033 3034 3035 3036 3037 3038 3039 3040 3041 3042 3043 3044 3045 3046 3047 3048 3049 3050 3051 3052 3053 3054 3055 3056 3057 3058 3059 3060 3061 3062 3063 3064 3065 3066 3067 3068 3069 3070 3071 3072 3073 3074 3075 3076 3077 3078 3079 3080 3081 3082 3083 3084 3085 3086 3087 3088 3089 3090 3091 3092 3093 3094 3095 3096 3097 3098 3099 3100 3101 3102 3103 3104 3105 3106 3107 3108 3109 3110 3111 3112 3113 3114 3115 3116 3117 3118 3119 3120 3121 3122 3123 3124 3125 3126 3127 3128 3129 3130 3131 3132 3133 3134 3135 3136 3137 3138 3139 3140 3141 
</DataArray>
<DataArray type="UInt32" Name="offsets" format="ascii">
2 4 6 8 10 12 14 16 18 20 22 24 26 28 30 32 34 36 38 40 43 46 49 52 55 58 61 64 67 70 73 76 79 82 85 88 91 94 97 100 103 106 109 112 115 118 121 124 127 130 133 136 139 142 145 148 151 154 157 160 163 166 169 172 175 178 181 184 187 190 193 196 199 202 205 208 211 214 217 220 223 226 229 232 235 238 241 244 247 250 253 256 259 262 265 268 271 274 277 280 283 286 289 292 295 298 301 304 307 310 313 316 319 322 325 328 331 334 337 340 343 346 349 352 355 358 361 364 367 370 373 376 379 382 385 388 391 394 397 400 403 406 409 412 415 418 421 424 427 430 433 436 439 442 445 448 451 454 457 460 463 466 469 472 475 478 481 484 487 490 493 496 499 502 505 508 511 514 517 520 523 526 529 532 535 538 541 544 547 550 553 556 559 562 565 568 571 574 577 580 583 586 589 592 595 598 601 604 607 610 613 616 619 622 625 628 631 634 637 640 643 646 649 652 655 658 661 664 667 670 673 676 679 682 685 688 691 694 697 700 703 706 709 712 715 718 721 724 727 730 733 736 739 742 745 748 751 754 757 760 763 766 769 772 775 778 781 784 787 790 793 796 799 802 805 808 811 814 817 820 823 826 829 832 835 838 841 844 847 850 853 856 859 862 865 868 871 874 877 880 883 886 889 892 895 898 901 904 907 910 913 916 919 922 925 928 931 934 937 940 943 946 949 952 955 958 961 964 967 970 973 976 979 982 985 988 991 994 997 1000 1003 1006 1009 1012 1015 1018 1021 1024 1027 1030 1033 1036 1039 1042 1045 1048 1051 1054 1057 1060 1063 1066 1069 1072 1075 1078 1081 1084 1087 1090 1093 1096 1099 1102 1105 1108 1111 1114 1117 1120 1123 1126 1129 1132 1135 1138 1141 1144 1147 1150 1153 1156 1159 1162 1165 1168 1171 1174 1177 1180 1183 1186 1189 1192 1195 1198 1201 1204 1207 1210 1213 1216 1219 1222 1225 1228 1231 1234 1237 1240 1243 1246 1249 1252 1255 1258 1261 1264 1267 1270 1273 1276 1279 1282 1285 1288 1291 1294 1297 1300 1303 1306 1309 1312 1315 1318 1321 1324 1327 1330 1333 1336 1339 1342 1345 1348 1351 1354 1357 1360 1363 1366 1369 1372 1375 1378 1381 1384 1387 1390 1393 1396 1399 1402 1405 1408 1411 1414 1417 1420 1423 1426 1429 1432 1435 1438 1441 1444 1447 1450 1453 1456 1459 1462 1465 1468 1471 1474 1477 1480 1483 1486 1489 1492 1495 1498 1501 1504 1507 1510 1513 1516 1519 1522 1525 1528 1531 1534 1537 1540 1543 1546 1549 1552 1555 1558 1561 1564 1567 1570 1573 1576 1579 1582 1585 1588 1591 1594 1597 1600 1603 1606 1609 1612 1615 1618 1621 1624 1627 1630 1633 1636 1639 1642 1645 1648 1651 1654 1657 1660 1663 1666 1669 1672 1675 1678 1681 1684 1687 1690 1693 1696 1699 1702 1705 1708 1711 1714 1717 1720 1723 1726 1729 1732 1735 1738 1741 1744 1747 1750 1753 1756 1759 1762 1765 1768 1771 1774 1777 1780 1783 1786 1789 1792 1795 1798 1801 1804 1807 1810 1813 1816 1819 1822 1825 1828 1831 1834 1837 1840 1843 1846 1849 1852 1855 1858 1861 1864 1867 1870 1873 1876 1879 1882 1885 1888 1891 1894 1897 1900 1903 1906 1909 1912 1915 1918 1921 1924 1927 1930 1933 1936 1939 1942 1945 1948 1951 1954 1957 1960 1963 1966 1969 1972 1975 1978 1981 1984 1987 1990 1993 1996 1999 2002 2005 2008 2011 2014 2017 2020 2023 2026 2029 2032 2035 2038 2041 2044 2047 2050 2053 2056 2059 2062 2065 2068 2071 2074 2077 2080 2083 2086 2089 2092 2095 2098 2101 2104 2107 2110 2113 2116 2119 2122 2125 2128 2131 2134 2137 2140 2143 2146 2149 2152 2155 2158 2161 2164 2167 2170 2173 2176 2179 2182 2185 2188 2191 2194 2197 2200 2203 2206 2209 2212 2215 2218 2221 2224 2227 2230 2233 2236 2239 2242 2245 2248 2251 2254 2257 2260 2263 2266 2269 2272 2275 2278 2281 2284 2287 2290 2293 2296 2299 2302 2305 2308 2311 2314 2317 2320 2323 2326 2329 2332 2335 2338 2341 2344 2347 2350 2353 2356 2359 2362 2365 2368 2371 2374 2377 2380 2383 2386 2389 2392 2395 2398 2401 2404 2407 2410 2413 2416 2419 2422 2425 2428 2431 2434 2437 2440 2443 2446 2449 2452 2455 2458 2461 2464 2467 2470 2473 2476 2479 2482 2485 2488 2491 2494 2497 2500 2503 2506 2509 2512 2515 2518 2521 2524 2527 2530 2533 2536 2539 2542 2545 2548 2551 2554 2557 2560 2563 2566 2569 2572 2575 2578 2581 2584 2587 2590 2593 2596 2599 2602 2605 2608 2611 2614 2617 2620 2623 2626 2629 2632 2635 2638 2641 2644 2647 2650 2653 2656 2659 2662 2665 2668 2671 2674 2677 2680 2683 2686 2689 2692 2695 2698 2701 2704 2707 2710 2713 2716 2719 2722 2725 2728 2731 2734 2737 2740 2743 2746 2749 2752 2755 2758 2761 2764 2767 2770 2773 2776 2779 2782 2785 2788 2791 2794 2797 2800 2803 2806 2809 2812 2815 2818 2821 2824 2827 2830 2833 2836 2839 2842 2845 2848 2851 2854 2857 2860 2863 2866 2869 2872 2875 2878 2881 2884 2887 2890 2893 2896 2899 2902 2905 2908 2911 2914 2917 2920 2923 2926 2929 2932 2935 2938 2941 2944 2947 2950 2953 2956 2959 2962 2965 2968 2971 2974 2977 2980 2983 2986 2989 2992 2995 2998 3001 3004 3007 3010 3013 3016 3019 3022 3025 3028 3031 3034 3037 3040 3043 3046 3049 3052 3055 3058 3061 3064 3067 3070 3073 3076 3079 3082 3085 3088 3091 3094 3097 3100 3103 3106 3109 3112 3115 3118 3121 3124 3127 3130 3133 3136 3139 3142 
</DataArray>
<DataArray type="UInt32" Name="types" format="ascii">
3 3 3 3 3 3 3 3 3 3 3 3 3 3 3 3 3 3 3 3 5 5 5 5 5 5 5 5 5 5 5 5 5 5 5 5 5 5 5 5 5 5 5 5 5 5 5 5 5 5 5 5 5 5 5 5 5 5 5 5 5 5 5 5 5 5 5 5 5 5 5 5 5 5 5 5 5 5 5 5 5 5 5 5 5 5 5 5 5 5 5 5 5 5 5 5 5 5 5 5 5 5 5 5 5 5 5 5 5 5 5 5 5 5 5 5 5 5 5 5 5 5 5 5 5 5 5 5 5 5 5 5 5 5 5 5 5 5 5 5 5 5 5 5 5 5 5 5 5 5 5 5 5 5 5 5 5 5 5 5 5 5 5 5 5 5 5 5 5 5 5 5 5 5 5 5 5 5 5 5 5 5 5 5 5 5 5 5 5 5 5 5 5 5 5 5 5 5 5 5 5 5 5 5 5 5 5 5 5 5 5 5 5 5 5 5 5 5 5 5 5 5 5 5 5 5 5 5 5 5 5 5 5 5 5 5 5 5 5 5 5 5 5 5 5 5 5 5 5 5 5 5 5 5 5 5 5 5 5 5 5 5 5 5 5 5 5 5 5 5 5 5 5 5 5 5 5 5 5 5 5 5 5 5 5 5 5 5 5 5 5 5 5 5 5 5 5 5 5 5 5 5 5 5 5 5 5 5 5 5 5 5 5 5 5 5 5 5 5 5 5 5 5 5 5 5 5 5 5 5 5 5 5 5 5 5 5 5 5 5 5 5 5 5 5 5 5 5 5 5 5 5 5 5 5 5 5 5 5 5 5 5 5 5 5 5 5 5 5 5 5 5 5 5 5 5 5 5 5 5 5 5 5 5 5 5 5 5 5 5 5 5 5 5 5 5 5 5 5 5 5 5 5 5 5 5 5 5 5 5 5 5 5 5 5 5 5 5 5 5 5 5 5 5 5 5 5 5 5 5 5 5 5 5 5 5 5 5 5 5 5 5 5 5 5 5 5 5 5 5 5 5 5 5 5 5 5 5 5 5 5 5 5 5 5 5 5 5 5 5 5 5 5 5 5 5 5 5 5 5 5 5 5 5 5 5 5 5 5 5 5 5 5 5 5 5 5 5 5 5 5 5 5 5 5 5 5 5 5 5 5 5 5 5 5 5 5 5 5 5 5 5 5 5 5 5 5 5 5 5 5 5 5 5 5 5 5 5 5 5 5 5 5 5 5 5 5 5 5 5 5 5 5 5 5 5 5 5 5 5 5 5 5 5 5 5 5 5 5 5 5 5 5 5 5 5 5 5 5 5 5 5 5 5 5 5 5 5 5 5 5 5 5 5 5 5 5 5 5 5 5 5 5 5 5 5 5 5 5 5 5 5 5 5 5 5 5 5 5 5 5 5 5 5 5 5 5 5 5 5 5 5 5 5 5 5 5 5 5 5 5 5 5 5 5 5 5 5 5 5 5 5 5 5 5 5 5 5 5 5 5 5 5 5 5 5 5 5 5 5 5 5 5 5 5 5 5 5 5 5 5 5 5 5 5 5 5 5 5 5 5 5 5 5 5 5 5 5 5 5 5 5 5 5 5 5 5 5 5 5 5 5 5 5 5 5 5 5 5 5 5 5 5 5 5 5 5 5 5 5 5 5 5 5 5 5 5 5 5 5 5 5 5 5 5 5 5 5 5 5 5 5 5 5 5 5 5 5 5 5 5 5 5 5 5 5 5 5 5 5 5 5 5 5 5 5 5 5 5 5 5 5 5 5 5 5 5 5 5 5 5 5 5 5 5 5 5 5 5 5 5 5 5 5 5 5 5 5 5 5 5 5 5 5 5 5 5 5 5 5 5 5 5 5 5 5 5 5 5 5 5 5 5 5 5 5 5 5 5 5 5 5 5 5 5 5 5 5 5 5 5 5 5 5 5 5 5 5 5 5 5 5 5 5 5 5 5 5 5 5 5 5 5 5 5 5 5 5 5 5 5 5 5 5 5 5 5 5 5 5 5 5 5 5 5 5 5 5 5 5 5 5 5 5 5 5 5 5 5 5 5 5 5 5 5 5 5 5 5 5 5 5 5 5 5 5 5 5 5 5 5 5 5 5 5 5 5 5 5 5 5 5 5 5 5 5 5 5 5 5 5 5 5 5 5 5 5 5 5 5 5 5 5 5 5 5 5 5 5 5 5 5 5 5 5 5 5 5 5 5 5 5 5 5 5 5 5 5 5 5 5 5 5 5 5 5 5 5 5 5 5 5 5 5 5 5 5 5 5 5 5 5 5 5 5 5 5 5 5 5 5 5 5 5 5 5 5 5 5 5 5 5 5 5 5 5 5 5 5 5 5 5 5 5 5 5 5 5 5 5 5 5 5 5 
</DataArray>
</Cells>
<PointData Scalars="" Vectors="displacement," Tensors="">
<DataArray type="Float64" Name="displacement" NumberOfComponents="3" format="ascii">
-1.8793370120244238e-05 -1.8007556725975733e-05 0 -2.0262274290580666e-05 -2.4390082072071583e-05 0 -2.0262274290580666e-05 -2.4390082072071583e-05 0 -2.1998338222916957e-05 -3.1687379271112824e-05 0 -2.1998338222916957e-05 -3.1687379271112824e-05 0 -2.3973250468595828e-05 -4.0083356066688702e-05 0 -2.3973250468595828e-05 -4.0083356066688702e-05 0 -2.5805755130634178e-05 -4.8764465759541465e-05 0 -2.5805755130634178e-05 -4.8764465759541465e-05 0 -2.7445706123196721e-05 -5.7426039415067749e-05 0 -2.7445706123196721e-05 -5.7426039415067749e-05 0 -2.9031609135755315e-05 -6.5965706722649026e-05 0 -2.9031609135755315e-05 -6.5965706722649026e-05 0 -3.06967753082603e-05 -7.3996514413644237e-05 0 -3.06967753082603e-05 -7.3996514413644237e-05 0 -3.2424462325684457e-05 -8.1911788967476063e-05 0 -3.2424462325684457e-05 -8.1911788967476063e-05 0 -3.3545534146288654e-05 -8.8318908757718874e-05 0 -3.3545534146288654e-05 -8.8318908757718874e-05 0 -3.7059511714037265e-05 -9.5310365436960078e-05 0 1.4794121880672751e-06 2.4451433557899184e-05 0 5.4177650265254078e-06 3.7587397092987803e-05 0 5.4177650265254078e-06 3.7587397092987803e-05 0 4.4669700905660928e-06 4.4076450275999506e-05 0 4.4669700905660928e-06 4.4076450275999506e-05 0 3.2485905433731034e-06 5.6468365367502619e-05 0 3.2485905433731034e-06 5.6468365367502619e-05 0 1.6552621403784246e-06 6.738944315799629e-05 0 1.6552621403784246e-06 6.738944315799629e-05 0 -2.5586200892093397e-07 7.947925619217536e-05 0 -2.5586200892093397e-07 7.947925619217536e-05 0 -2.4824132535312115e-06 9.1690432552466459e-05 0 -2.4824132535312115e-06 9.1690432552466459e-05 0 -4.8529077691150214e-06 0.00010270018349942867 0 -4.8529077691150214e-06 0.00010270018349942867 0 -8.6222367344622554e-06 0.00011575136717559109 0 -8.6222367344622554e-06 0.00011575136717559109 0 -7.6738522451567441e-06 0.00012454527974488933 0 -7.6738522451567441e-06 0.00012454527974488933 0 -2.5542608590428189e-05 0.00013734816398817468 0 -1.5437958848746368e-05 -7.5027194501509068e-06 0 -1.1669571733836979e-05 -3.1255036906923792e-06 0 -1.4341656003501263e-05 -6.6052474695410491e-06 0 -1.3753886508741121e-05 -4.5293428746143745e-06 0 -1.1669571733836979e-05 -3.1255036906923792e-06 0 -1.5437958848746368e-05 -7.5027194501509068e-06 0 -2.6880252060232638e-05 -1.368916775339318e-05 0 -2.3552965658282443e-05 -1.0283336909983708e-05 0 -2.4214788310528656e-05 -1.3554853418929546e-05 0 -2.4214788310528656e-05 -1.3554853418929546e-05 0 -2.3552965658282447e-05 -1.0283336909983708e-05 0 -2.1537906843892907e-05 -1.226481970536666e-05 0 -1.3839994795383826e-05 4.5615006153140388e-06 0 -6.017528029413327e-06 1.2355101493429598e-06 0 -1.2523239899608285e-05 2.6547860780327006e-06 0 -1.0036339815597407e-05 -4.2399703291111192e-06 0 -9.0140299941339182e-06 -2.9578258399596334e-06 0 -4.3777453979338029e-06 -1.4742164328562092e-06 0 -7.1292914162272647e-06 3.2589397043148365e-06 0 -6.017528029413327e-06 1.2355101493429598e-06 0 -1.3839994795383826e-05 4.5615006153140388e-06 0 -5.3220808023447872e-06 -2.872003701203326e-06 0 -1.0036339815597407e-05 -4.2399703291111192e-06 0 -4.3777453979338029e-06 -1.4742164328562092e-06 0 -2.5269691228311011e-05 -9.0056155770697539e-06 0 -3.0801167061164509e-05 -1.1613149303635597e-05 0 -2.4387686368952826e-05 -8.1065677113054137e-06 0 -4.7100057362182278e-05 1.5648953031592818e-05 0 -3.7582918337574679e-05 1.1029056520972217e-05 0 -3.6713783270276051e-05 1.0285222293300333e-05 0 -2.9729163383289941e-06 8.4583241032330353e-07 0 -3.789780096959338e-06 1.7600063100409868e-06 0 -4.0576678566826954e-06 5.7584068789433916e-07 0 -5.2701373519366391e-06 2.3568472054593143e-06 0 -4.0576678566826963e-06 5.7584068789433916e-07 0 -3.789780096959338e-06 1.7600063100409868e-06 0 -5.2945390473010175e-06 3.2553837053481883e-07 0 -6.995728481035755e-06 -1.3763370923665998e-07 0 -4.83669580912262e-06 6.0262624103891011e-07 0 -2.3303864091619504e-09 -5.6723140761886444e-10 0 -1.8085297404728235e-09 -3.8655380003818079e-10 0 -1.9851682219370267e-06 -8.4129278008622294e-07 0 -1.8446603727502131e-09 2.8877682643332572e-10 0 -2.1746429642127252e-09 2.935759971933403e-10 0 -2.0282364929352346e-06 5.2488252759442409e-07 0 -3.0492801401537412e-05 -1.8022927885766233e-05 0 -3.0523070270098218e-05 -1.7904991076311005e-05 0 -2.6880252060232638e-05 -1.368916775339318e-05 0 4.9028571468193419e-08 2.7433316624341573e-05 0 -5.0857086636678356e-06 1.8225171143442946e-05 0 -6.8565746508578706e-06 1.8669857259185304e-05 0 -4.9552544735255516e-05 -0.00014894507124088699 0 -4.1404705317603908e-05 -0.0001395822566469896 0 -4.9529979444076631e-05 -0.00013593197820405061 0 -6.1627033552228024e-05 0.00032005432118657154 0 -8.2898034514863154e-05 0.00029810019103081772 0 -6.1505681643623641e-05 0.00028965761398453397 0 -6.1627033552228024e-05 0.00032005432118657154 0 -6.1505681643623641e-05 0.00028965761398453397 0 -4.1105990261121577e-05 0.00029764097373280088 0 -4.9552544735255516e-05 -0.00014894507124088699 0 -4.9529979444076631e-05 -0.00013593197820405061 0 -5.8356404318078287e-05 -0.00013948414952352073 0 -8.6606765386427391e-05 0.00027271737614687684 0 -5.9394494420955201e-05 0.00026034546661097153 0 -6.1505681643623641e-05 0.00028965761398453397 0 -3.9473199400224034e-05 -0.00012809560441640928 0 -4.9641381828482326e-05 -0.00012255370972410207 0 -4.9529979444076631e-05 -0.00013593197820405061 0 -5.2945390473010175e-06 3.2553837053481883e-07 0 -4.83669580912262e-06 6.0262624103891011e-07 0 -3.490537074616573e-06 6.6757254437225955e-07 0 4.9028571468193419e-08 2.7433316624341573e-05 0 -9.7049275261628634e-06 2.4816839847181648e-05 0 -5.0857086636678356e-06 1.8225171143442946e-05 0 -0.00010411383385677293 8.2687098755582667e-05 0 -9.355636581216891e-05 6.2031878004727099e-05 0 -7.5717243765323987e-05 6.6300664538512149e-05 0 -5.5923578157731983e-05 -3.318204411661031e-05 0 -6.1700256822305131e-05 -4.2254250051781031e-05 0 -4.8722680100930283e-05 -3.5075436564828943e-05 0 -2.5773884375104058e-05 -1.4899690731752161e-05 0 -3.0492801401537412e-05 -1.8022927885766233e-05 0 -2.6880252060232638e-05 -1.368916775339318e-05 0 -5.2611166039433581e-05 5.4299486378850996e-05 0 -4.5732918329731915e-05 3.3725399122746443e-05 0 -3.7181925773693263e-05 3.5806566278890671e-05 0 -2.6630068792778783e-05 1.1726007150929094e-05 0 -3.588445153968868e-05 1.6640840016519522e-05 0 -3.3703654263950714e-05 1.0932047336278407e-05 0 -1.8887416159187766e-05 -2.4376700589899418e-06 0 -1.6328355508654921e-05 1.2183029865099741e-06 0 -2.0640729888996419e-05 -5.0667059795778576e-06 0 -4.8136531137419963e-05 -0.00010864827221239512 0 -4.0463682668647667e-05 -0.00010438887073393488 0 -4.7827974622743311e-05 -9.3763050641502307e-05 0 -5.9469858221323925e-05 0.00023058414005025323 0 -7.7035473082340443e-05 0.000222079359240911 0 -5.4769258474411373e-05 0.00019732156647489537 0 -4.7827974622743311e-05 -9.3763050641502307e-05 0 -4.0463682668647667e-05 -0.00010438887073393488 0 -3.8951729617216972e-05 -9.1547614661214785e-05 0 -5.4769258474411373e-05 0.00019732156647489537 0 -7.7035473082340443e-05 0.000222079359240911 0 -7.5676714806806423e-05 0.00019768481745022622 0 -2.6630068792778783e-05 1.1726007150929094e-05 0 -3.3703654263950714e-05 1.0932047336278407e-05 0 -2.3586938963140758e-05 7.6200870764758981e-06 0 -1.9213861462405155e-05 -6.7502594809644351e-06 0 -1.56718647397708e-05 3.2712813520952032e-06 0 -1.8887416159187766e-05 -2.4376700589899418e-06 0 -5.2611166039433581e-05 5.4299486378850996e-05 0 -6.0171343281877144e-05 4.6903624318346107e-05 0 -4.5732918329731915e-05 3.3725399122746443e-05 0 4.9028571468193419e-08 2.7433316624341573e-05 0 1.0786272255544779e-05 6.8441194550360987e-05 0 -1.1028391653127571e-05 7.088399902805045e-05 0 -4.1861466927343928e-05 -4.2905027638475157e-05 0 -3.7833081774432402e-05 -4.0023680905238185e-05 0 -4.2214492911687994e-05 -4.063432637180376e-05 0 -2.688922578883095e-05 -4.3628204244368857e-05 0 -2.5964313859246228e-05 -4.1458570861751582e-05 0 -2.7251382240518209e-05 -4.3879082506234461e-05 0 -1.3258125297124083e-05 6.4394680120561214e-06 0 -1.6328355508654921e-05 1.2183029865099741e-06 0 -1.8887416159187766e-05 -2.4376700589899418e-06 0 -2.3109550656280321e-05 -0.00013463115305569485 0 -3.0296395555862458e-05 -0.00012538435560107564 0 -3.3113036354122918e-05 -0.00013655467611174842 0 -0.0001344829450435125 0.00029607494564237778 0 -0.00011103825929187396 0.0002699866271064617 0 -0.00010632433469850587 0.00029302147835423261 0 -1.4722572796355075e-09 -2.9586037733712299e-10 0 -1.1649619212855101e-06 -2.3025558798082755e-07 0 -1.3694812375473813e-06 -5.3025844033008889e-07 0 -1.6090985024927031e-09 3.0511684843444851e-10 0 -1.5904262963445837e-06 5.4999728738437776e-07 0 -1.4468100832181202e-06 5.984915182557525e-07 0 -5.2611166039433581e-05 5.4299486378850996e-05 0 -3.7042622152590082e-05 5.1981126555820032e-05 0 -4.8750792798779092e-05 7.8509348886516834e-05 0 -2.8923450531410539e-05 6.964862203865734e-05 0 -4.8750792798779092e-05 7.8509348886516834e-05 0 -3.7042622152590082e-05 5.1981126555820032e-05 0 -1.5726581807940609e-05 4.421906342927416e-05 0 4.9028571468193479e-08 2.7433316624341573e-05 0 -1.1028391653127571e-05 7.088399902805045e-05 0 -0.00013420394846788442 0.00024400868002738972 0 -0.00010113207545678331 0.00024464837187184683 0 -0.00011103825929187396 0.0002699866271064617 0 -1.8970427009585991e-05 -0.00010981676279023193 0 -3.2502881605499e-05 -0.00011378449349545112 0 -3.0296395555862458e-05 -0.00012538435560107561 0 -2.7311500493547028e-05 -3.7657155978425267e-05 0 -2.762971787654506e-05 -3.4298183899635377e-05 0 -2.9761572804339349e-05 -3.7079382669021791e-05 0 -1.8644418370048931e-05 -2.5948059519613746e-06 0 -2.0640729888996419e-05 -5.0667059795778576e-06 0 -1.6328355508654921e-05 1.2183029865099741e-06 0 -2.3088120546444053e-05 -9.7339330892065898e-06 0 -2.5253971849219207e-05 -1.427536592144139e-05 0 -2.2863303184354099e-05 -1.3942910328083344e-05 0 -1.8641138547603477e-05 -2.2882268739931373e-05 0 -1.8768316565623657e-05 -1.961725599350143e-05 0 -2.2759604374516714e-05 -2.4416970907538711e-05 0 -0.00012136781308151469 0.00013289068238295026 0 -9.4284437821925951e-05 0.0001151317722592187 0 -0.00010396572410204965 0.0001480972854190114 0 -8.0387885658193025e-05 -0.00011521219432733539 0 -7.0459411343872847e-05 -0.00012720233445057144 0 -6.6687714405255744e-05 -0.00011621409722583004 0 1.0750786605893372e-05 0.00023533085626457442 0 -1.3660534557850894e-05 0.00026736380512611726 0 -1.8996548513136281e-05 0.00024383736774421231 0 -2.0997596158211415e-05 -0.0001220912423315063 0 -3.0296395555862458e-05 -0.00012538435560107561 0 -2.3109550656280321e-05 -0.00013463115305569485 0 -0.0001344829450435125 0.00029607494564237778 0 -0.00013453794597739297 0.00027044679728499365 0 -0.00011103825929187396 0.0002699866271064617 0 -3.5466203843681168e-05 -3.5397983542755378e-05 0 -3.6031561736003031e-05 -3.2421049558567923e-05 0 -3.8036689697599101e-05 -3.5784617153837503e-05 0 -1.8993201613160292e-05 -1.8179143761801217e-05 0 -2.2319411956412536e-05 -2.201866889914244e-05 0 -2.3259028266894432e-05 -3.182553437805596e-05 0 -3.5466203843681168e-05 -3.5397983542755378e-05 0 -3.3913307654250429e-05 -3.2682797728405234e-05 0 -3.6031561736003031e-05 -3.2421049558567923e-05 0 -2.1948438460475708e-05 -1.9824744881274715e-05 0 -2.2759604374516714e-05 -2.4416970907538711e-05 0 -1.8768316565623657e-05 -1.961725599350143e-05 0 -4.1133388894661876e-05 -5.4486345938703525e-05 0 -4.4425243761727399e-05 -7.0109071440228193e-05 0 -3.5125307384260006e-05 -5.7867725246941766e-05 0 -3.2822792138651763e-09 2.7226212968946453e-10 0 -4.3777453979338029e-06 -1.4742164328562092e-06 0 -3.0501784521164935e-06 -4.5458219562428632e-07 0 -4.5943931675814345e-09 -6.2167565732753885e-10 0 -4.0745295904698692e-06 -7.5166803930565392e-08 0 -6.017528029413327e-06 1.2355101493429598e-06 0 -4.1861466927343928e-05 -4.2905027638475157e-05 0 -3.7729133449099194e-05 -4.2995086727880273e-05 0 -3.7833081774432402e-05 -4.0023680905238185e-05 0 -2.74701312961881e-05 -4.4941034584821337e-05 0 -2.688922578883095e-05 -4.3628204244368857e-05 0 -2.7251382240518209e-05 -4.3879082506234461e-05 0 -3.4325544771376244e-09 -8.80571262494112e-10 0 -5.2531929279171514e-06 -5.9570947502698597e-07 0 -4.0745295904698683e-06 -7.5166803930565723e-08 0 -2.7283930628055095e-09 3.6698006036570644e-10 0 -3.0501784521164935e-06 -4.5458219562428632e-07 0 -4.1371393549411722e-06 -2.2663878860342976e-07 0 -4.0576678566826954e-06 5.7584068789433916e-07 0 -3.2227358110103008e-06 -6.5596997809641002e-07 0 -2.8882491902050494e-06 6.9110591894731531e-08 0 -1.4825020823179394e-05 -5.5089761108229866e-06 0 -1.2437641750295232e-05 -3.5148051014965798e-06 0 -9.0140299941339182e-06 -2.9578258399596334e-06 0 -2.1002694026817353e-05 5.9407406400604703e-06 0 -1.2523239899608285e-05 2.6547860780327011e-06 0 -1.7355723022939861e-05 3.0547526631730347e-06 0 -2.6374198439071383e-05 -2.4234299806933618e-05 0 -2.4677353477776689e-05 -2.0252222847033309e-05 0 -2.7912845049228296e-05 -2.2176374835435554e-05 0 -2.5919060040138087e-05 -1.8079102983021485e-05 0 -2.2863303184354099e-05 -1.3942910328083344e-05 0 -2.5253971849219207e-05 -1.427536592144139e-05 0 5.0597383750971191e-06 0.0002877730314259711 0 -1.9930555446309448e-05 0.00029087632208096761 0 -1.3660534557850894e-05 0.00026736380512611726 0 -8.064982767076975e-05 -0.00013855072301905997 0 -6.8337517010926943e-05 -0.00013719556297147521 0 -7.0459411343872847e-05 -0.00012720233445057144 0 -2.5919060040138087e-05 -1.8079102983021485e-05 0 -2.7912845049228296e-05 -2.2176374835435554e-05 0 -2.4677353477776689e-05 -2.0252222847033309e-05 0 -2.762971787654506e-05 -3.4298183899635377e-05 0 -2.4971728623694632e-05 -3.3227316589878247e-05 0 -2.6624896380954578e-05 -2.9539809613629538e-05 0 -7.6147057372399909e-05 0.00017241074715509196 0 -6.6827259866020428e-05 0.00013709606411212811 0 -5.2711849854362262e-05 0.00014964033500875637 0 -4.5943931675814345e-09 -6.2167565732753885e-10 0 -4.881194013127261e-09 3.3126534760573146e-10 0 -4.0745295904698683e-06 -7.5166803930565723e-08 0 -3.6536092800915129e-09 -4.149560488895134e-10 0 -3.2822792138651763e-09 2.7226212968946453e-10 0 -3.0501784521164935e-06 -4.5458219562428632e-07 0 -4.0576678566826954e-06 5.7584068789433916e-07 0 -5.1334234140113141e-06 6.0742072968165301e-08 0 -3.2227358110103008e-06 -6.5596997809641002e-07 0 -3.6606869770550777e-05 0.00027163512625570825 0 -6.1505681643623641e-05 0.00028965761398453397 0 -5.9394494420955201e-05 0.00026034546661097153 0 -5.9863695505134685e-05 -0.0001279383749458133 0 -4.9529979444076631e-05 -0.00013593197820405061 0 -4.9641381828482326e-05 -0.00012255370972410207 0 -4.4425243761727399e-05 -7.0109071440228193e-05 0 -3.6402683142986978e-05 -7.0082774613672234e-05 0 -3.5125307384260006e-05 -5.7867725246941766e-05 0 -1.6761700617163864e-06 4.4363061160810809e-07 0 -2.3645676078050139e-06 8.5600821459166202e-07 0 -2.1587967477870801e-06 5.149110575919148e-07 0 -1.4974751488720506e-05 2.4954948006479673e-06 0 -1.1598905402814111e-05 2.2921487839442949e-06 0 -1.7059742165040294e-05 4.6629017868972444e-06 0 -2.4971728623694632e-05 -3.3227316589878247e-05 0 -2.3598358361472377e-05 -2.927169647266539e-05 0 -2.6624896380954578e-05 -2.9539809613629538e-05 0 -2.1587967477870801e-06 5.149110575919148e-07 0 -2.3645676078050139e-06 8.5600821459166202e-07 0 -2.7180687388578912e-06 1.0061159771876534e-06 0 -2.3645676078050139e-06 8.5600821459166202e-07 0 -1.4322902812433297e-06 5.1742649482040846e-07 0 -2.5130043775969651e-06 8.7224749856243879e-07 0 -1.8940230252042524e-06 7.2314753274394412e-07 0 -2.5130043775969651e-06 8.7224749856243879e-07 0 -1.4322902812433297e-06 5.1742649482040846e-07 0 -3.8428241288208596e-05 -3.438191410045382e-05 0 -3.6031561736003031e-05 -3.2421049558567923e-05 0 -3.774350156557915e-05 -3.1486343522495304e-05 0 -2.3088120546444053e-05 -9.7339330892065898e-06 0 -2.2863303184354095e-05 -1.3942910328083342e-05 0 -2.1169648888594038e-05 -8.1774640315693033e-06 0 -2.7311500493547028e-05 -3.7657155978425267e-05 0 -2.4971728623694632e-05 -3.3227316589878247e-05 0 -2.762971787654506e-05 -3.4298183899635377e-05 0 -1.3258125297124083e-05 6.4394680120561214e-06 0 -1.8887416159187766e-05 -2.4376700589899409e-06 0 -1.56718647397708e-05 3.2712813520952032e-06 0 8.022419826481707e-06 0.00026127908615518016 0 5.0597383750971191e-06 0.0002877730314259711 0 -1.3660534557850894e-05 0.00026736380512611726 0 -8.0669643992455699e-05 -0.00012716856294044864 0 -8.064982767076975e-05 -0.00013855072301905997 0 -7.0459411343872847e-05 -0.00012720233445057144 0 -8.0387885658193025e-05 -0.00011521219432733539 0 -8.0669643992455699e-05 -0.00012716856294044864 0 -7.0459411343872847e-05 -0.00012720233445057144 0 1.0750786605893372e-05 0.00023533085626457442 0 8.022419826481707e-06 0.00026127908615518016 0 -1.3660534557850894e-05 0.00026736380512611726 0 -9.0648695298646116e-06 1.0652011117231329e-05 0 -8.9708499289230622e-06 8.4458533129584956e-06 0 -1.3258125297124083e-05 6.4394680120561214e-06 0 -4.722188552257378e-06 7.6112135144195146e-07 0 -3.1153379808846372e-06 8.65224873804474e-07 0 -4.83669580912262e-06 6.0262624103891011e-07 0 -2.7839476985400332e-06 7.7181424442981857e-07 0 -4.83669580912262e-06 6.0262624103891011e-07 0 -3.1153379808846372e-06 8.65224873804474e-07 0 -1.1737829689400706e-05 0.00015092544629744745 0 -5.6403616111548673e-06 0.00016930533334524989 0 -3.1752535902291439e-05 0.00017111781147704841 0 -5.6403616111548673e-06 0.00016930533334524989 0 -1.3036421148779337e-05 0.00018893470227226901 0 -3.1752535902291439e-05 0.00017111781147704841 0 -1.9213861462405155e-05 -6.7502594809644351e-06 0 -1.8887416159187762e-05 -2.4376700589899422e-06 0 -2.1169648888594038e-05 -8.1774640315693033e-06 0 -2.836114859100496e-05 -4.5263840684093273e-05 0 -2.7251382240518209e-05 -4.3879082506234461e-05 0 -2.8396117515238165e-05 -4.2376571788534295e-05 0 -3.3679910723544681e-05 -4.3566602547056577e-05 0 -3.4513771927153803e-05 -3.963441122327629e-05 0 -3.7833081774432402e-05 -4.0023680905238185e-05 0 -8.9708499289230622e-06 8.4458533129584956e-06 0 -1.1926475445377957e-05 4.8241704348735404e-06 0 -1.3258125297124083e-05 6.4394680120561214e-06 0 -0.00013453794597739297 0.00027044679728499365 0 -0.00013420394846788442 0.00024400868002738972 0 -0.00011103825929187396 0.0002699866271064617 0 -1.8970427009585991e-05 -0.00010981676279023193 0 -3.0296395555862458e-05 -0.00012538435560107561 0 -2.0997596158211415e-05 -0.0001220912423315063 0 -3.0801167061164509e-05 -1.1613149303635597e-05 0 -3.0398867198480627e-05 -1.1477238675911002e-05 0 -2.4387686368952826e-05 -8.1065677113054137e-06 0 -4.7100057362182278e-05 1.5648953031592818e-05 0 -3.6713783270276051e-05 1.0285222293300333e-05 0 -4.5466516052526058e-05 1.5858911375219798e-05 0 -1.9213861462405155e-05 -6.7502594809644351e-06 0 -2.2863303184354099e-05 -1.3942910328083344e-05 0 -1.9315408956806998e-05 -1.4772926034842941e-05 0 -1.8993201613160292e-05 -1.8179143761801217e-05 0 -2.3259028266894432e-05 -3.182553437805596e-05 0 -1.4956230613693889e-05 -3.3536526314019668e-05 0 -2.1948438460475708e-05 -1.9824744881274715e-05 0 -2.2863303184354099e-05 -1.3942910328083344e-05 0 -2.4677353477776689e-05 -2.0252222847033309e-05 0 -2.5919060040138087e-05 -1.8079102983021485e-05 0 -2.4677353477776689e-05 -2.0252222847033309e-05 0 -2.2863303184354099e-05 -1.3942910328083344e-05 0 -4.9552544735255516e-05 -0.00014894507124088699 0 -4.0816214056130592e-05 -0.00014847739754457294 0 -4.1404705317603908e-05 -0.0001395822566469896 0 -6.1627033552228024e-05 0.00032005432118657154 0 -8.5047041255373562e-05 0.00032044857844264717 0 -8.2898034514863154e-05 0.00029810019103081772 0 -3.9627904711265416e-05 0.00031889738799183745 0 -6.1627033552228024e-05 0.00032005432118657154 0 -4.1105990261121577e-05 0.00029764097373280088 0 -5.9277715818159299e-05 -0.00014907510603942022 0 -4.9552544735255516e-05 -0.00014894507124088699 0 -5.8356404318078287e-05 -0.00013948414952352073 0 -2.1991291637341961e-05 3.3231791262383476e-05 0 -3.7042622152590082e-05 5.1981126555820032e-05 0 -3.7181925773693263e-05 3.5806566278890671e-05 0 -3.0148284368463361e-05 -2.1950128182283694e-05 0 -3.2872884648718707e-05 -2.5763857120495066e-05 0 -3.0900118613363664e-05 -2.6051806630130056e-05 0 -2.1948438460475708e-05 -1.9824744881274715e-05 0 -2.4677353477776689e-05 -2.0252222847033309e-05 0 -2.2759604374516714e-05 -2.4416970907538711e-05 0 -2.6374198439071383e-05 -2.4234299806933618e-05 0 -2.2759604374516714e-05 -2.4416970907538711e-05 0 -2.4677353477776689e-05 -2.0252222847033309e-05 0 -2.8622293750740849e-05 -6.072104576485663e-05 0 -2.6362421543200234e-05 -4.6227166231817675e-05 0 -3.5125307384260006e-05 -5.7867725246941766e-05 0 -0.00010411383385677293 8.2687098755582667e-05 0 -7.5717243765323987e-05 6.6300664538512149e-05 0 -9.2636610716966621e-05 9.1709329557734318e-05 0 -2.5448791500252419e-05 -1.3583831485782337e-05 0 -3.1156078456156784e-05 -1.943443013909272e-05 0 -2.4076143235838109e-05 -1.5599593276449904e-05 0 -2.7955816519317612e-05 -2.181408301514342e-05 0 -2.4076143235838109e-05 -1.5599593276449904e-05 0 -3.1156078456156784e-05 -1.943443013909272e-05 0 -3.6582771860153215e-05 -3.7474389716817337e-05 0 -3.3261396093580433e-05 -3.7067487468850078e-05 0 -3.5466203843681168e-05 -3.5397983542755378e-05 0 -8.4534521582078337e-05 0.00013301588874237611 0 -0.00010396572410204965 0.0001480972854190114 0 -9.4284437821925951e-05 0.0001151317722592187 0 -2.9734851582038549e-05 -1.2195534302498378e-05 0 -3.6560304374126769e-05 -1.7045022070958813e-05 0 -3.0991318960674498e-05 -1.5393247686897153e-05 0 -3.7819463501965241e-05 -2.0849829778208106e-05 0 -3.0991318960674498e-05 -1.5393247686897153e-05 0 -3.6560304374126769e-05 -1.7045022070958813e-05 0 -5.6144249708644072e-05 3.5520036684190156e-05 0 -5.5520089309861641e-05 2.7228915025574097e-05 0 -4.4270223669299846e-05 2.4623592030611805e-05 0 -4.3818523316483727e-05 1.8367493127941017e-05 0 -4.4270223669299846e-05 2.4623592030611805e-05 0 -5.5520089309861641e-05 2.7228915025574097e-05 0 -3.4444673794063314e-05 -2.9558236277989945e-05 0 -3.1794997998189834e-05 -2.9802161992314575e-05 0 -3.0900118613363664e-05 -2.6051806630130056e-05 0 -6.1700256822305131e-05 -4.2254250051781031e-05 0 -5.7217463038186696e-05 -4.5951688042695769e-05 0 -4.8722680100930283e-05 -3.5075436564828943e-05 0 -2.0958352621706342e-05 0.00012612363599872047 0 -3.5620606797973109e-05 0.00010100366633680918 0 -1.5874494965226738e-05 9.6365573919656242e-05 0 -1.8644418370048931e-05 -2.5948059519613746e-06 0 -2.0041002046855412e-05 -5.8658202504680545e-06 0 -2.2705939775111572e-05 -7.9980055962569075e-06 0 -6.1658863948595979e-06 2.5053404659582519e-06 0 -5.3334023543233933e-06 4.2196547571741243e-06 0 -4.6197040688283194e-06 2.8027418396515023e-06 0 -9.5105021206938852e-05 0.0002140450999254765 0 -7.7035473082340443e-05 0.000222079359240911 0 -0.00010113207545678331 0.00024464837187184683 0 -3.2601316457409433e-05 -9.9160913887326769e-05 0 -4.0463682668647667e-05 -0.00010438887073393488 0 -3.2502881605499e-05 -0.00011378449349545112 0 -1.9213861462405155e-05 -6.7502594809644351e-06 0 -2.1169648888594034e-05 -8.1774640315693033e-06 0 -2.2863303184354099e-05 -1.3942910328083344e-05 0 -3.4513771927153803e-05 -3.963441122327629e-05 0 -3.3261396093580433e-05 -3.7067487468850078e-05 0 -3.6582771860153215e-05 -3.7474389716817337e-05 0 -2.6374198439071383e-05 -2.4234299806933618e-05 0 -2.8839897532846882e-05 -2.6445228654653417e-05 0 -2.6624896380954578e-05 -2.9539809613629538e-05 0 -1.8085297404728235e-09 -3.8655380003818079e-10 0 -1.3694812375473813e-06 -5.3025844033008889e-07 0 -1.9851682219370267e-06 -8.4129278008622294e-07 0 -1.8446603727502131e-09 2.8877682643332572e-10 0 -2.0282364929352346e-06 5.2488252759442409e-07 0 -1.5904262963445837e-06 5.4999728738437776e-07 0 -2.6362421543200234e-05 -4.6227166231817675e-05 0 -3.4165890714064038e-05 -4.6536764702054855e-05 0 -3.5125307384260006e-05 -5.7867725246941766e-05 0 -1.4974751488720506e-05 2.4954948006479673e-06 0 -1.7059742165040294e-05 4.6629017868972444e-06 0 -2.052634182518963e-05 4.2737631510067114e-06 0 -3.0974554366265822e-05 2.0645914058172786e-05 0 -3.7181925773693256e-05 3.5806566278890671e-05 0 -4.5732918329731915e-05 3.3725399122746443e-05 0 -2.1477072314450081e-06 -3.5822567170809659e-07 0 -1.1649619212855101e-06 -2.3025558798082755e-07 0 -2.1156192106570754e-06 7.219288635767074e-08 0 -1.5412799609427082e-06 1.7973330449736499e-07 0 -2.1156192106570754e-06 7.219288635767074e-08 0 -1.1649619212855101e-06 -2.3025558798082755e-07 0 -1.8940230252042524e-06 7.2314753274394412e-07 0 -1.4468100832181202e-06 5.984915182557525e-07 0 -3.1153379808846372e-06 8.65224873804474e-07 0 -2.7839476985400332e-06 7.7181424442981857e-07 0 -3.1153379808846372e-06 8.65224873804474e-07 0 -1.4468100832181202e-06 5.984915182557525e-07 0 -2.6630068792778783e-05 1.1726007150929094e-05 0 -2.1837662400105349e-05 1.3367160023988238e-05 0 -3.0974554366265822e-05 2.0645914058172786e-05 0 -6.1658863948595979e-06 2.5053404659582519e-06 0 -7.4927122390551252e-06 3.7512479869088507e-06 0 -5.3334023543233933e-06 4.2196547571741243e-06 0 -5.2701373519366391e-06 2.3568472054593143e-06 0 -6.0869885241917697e-06 1.0815921562602497e-06 0 -4.0576678566826954e-06 5.7584068789433916e-07 0 -1.7059742165040294e-05 4.6629017868972444e-06 0 -1.1598905402814111e-05 2.2921487839442949e-06 0 -1.3669678875221618e-05 5.3875520886619907e-06 0 -1.0391479205807179e-05 3.2209154909414797e-06 0 -8.1992752826768593e-06 6.0751648441999132e-06 0 -7.4927122390551252e-06 3.7512479869088502e-06 0 -1.1583610308133204e-05 -2.5111576151514964e-06 0 -1.2832086558599818e-05 -3.7917155839018529e-06 0 -9.6965171952226333e-06 -1.5343846578482554e-06 0 -1.136014505032491e-05 -3.022322535771749e-06 0 -9.6965171952226333e-06 -1.5343846578482554e-06 0 -1.2832086558599818e-05 -3.7917155839018529e-06 0 -4.8811940131271849e-09 3.3126534760573296e-10 0 -3.4325544771376244e-09 -8.80571262494112e-10 0 -4.0745295904698683e-06 -7.5166803930565723e-08 0 -2.7283930628055095e-09 3.6698006036570644e-10 0 -3.6536092800915129e-09 -4.149560488895134e-10 0 -3.0501784521164935e-06 -4.5458219562428632e-07 0 1.3965166238408401e-05 9.7942163703328012e-05 0 -1.5874494965226738e-05 9.6365573919656242e-05 0 -1.1028391653127571e-05 7.088399902805045e-05 0 -4.722188552257378e-06 7.6112135144195146e-07 0 -6.8961176866102431e-06 2.3194627223783193e-08 0 -4.8912443728243446e-06 9.2268934512259168e-07 0 -2.3552965658282443e-05 -1.0283336909983708e-05 0 -1.9247428933686618e-05 -7.885862853504143e-06 0 -2.1537906843892907e-05 -1.226481970536666e-05 0 -3.1200634820756922e-05 -3.9745971515536435e-05 0 -3.3261396093580433e-05 -3.7067487468850078e-05 0 -3.4513771927153803e-05 -3.963441122327629e-05 0 -2.5269691228311011e-05 -9.0056155770697539e-06 0 -2.4387686368952826e-05 -8.1065677113054137e-06 0 -2.0523790697510583e-05 -6.4644497928261837e-06 0 -3.7582918337574679e-05 1.1029056520972217e-05 0 -3.0054904771195719e-05 7.2110271282092724e-06 0 -3.6713783270276051e-05 1.0285222293300333e-05 0 -2.9347608819116505e-05 -2.9875758602897264e-05 0 -2.6624896380954578e-05 -2.9539809613629538e-05 0 -2.8839897532846882e-05 -2.6445228654653417e-05 0 -2.4387686368952826e-05 -8.1065677113054137e-06 0 -2.0586852557888303e-05 -6.3948473771579847e-06 0 -1.9666239077974013e-05 -5.7791489835971673e-06 0 -2.6331833582474981e-05 7.0221135345993108e-06 0 -2.3586938963140758e-05 7.6200870764758981e-06 0 -3.3703654263950714e-05 1.0932047336278407e-05 0 -2.5804599008758975e-05 -9.2253407150238389e-06 0 -2.0586852557888303e-05 -6.3948473771579847e-06 0 -2.4387686368952826e-05 -8.1065677113054137e-06 0 -8.8279869937251751e-06 -8.4340687544145028e-07 0 -1.0545813442113201e-05 -1.574389194859141e-06 0 -1.1709511170094055e-05 -2.1850802414565824e-06 0 -8.3468180975489953e-06 6.0682683071956632e-07 0 -1.1598905402814111e-05 2.2921487839442949e-06 0 -1.2085365831247886e-05 7.7399061327058199e-07 0 -3.588445153968868e-05 1.6640840016519522e-05 0 -2.6630068792778783e-05 1.1726007150929094e-05 0 -3.0974554366265822e-05 2.0645914058172786e-05 0 -3.4444673794063314e-05 -2.9558236277989945e-05 0 -3.0900118613363664e-05 -2.6051806630130056e-05 0 -3.2872884648718707e-05 -2.5763857120495066e-05 0 -2.4096302721096038e-05 0.0002146618870756981 0 -1.8996548513136281e-05 0.00024383736774421231 0 -4.0868867288976797e-05 0.00024132134358039085 0 -6.2470980437057594e-05 -0.00010253918389075057 0 -6.6687714405255731e-05 -0.00011621409722583004 0 -5.6673031222711724e-05 -0.00011412665379448648 0 -2.1477072314450081e-06 -3.5822567170809659e-07 0 -1.3694812375473813e-06 -5.3025844033008889e-07 0 -1.1649619212855101e-06 -2.3025558798082755e-07 0 -2.7839476985400332e-06 7.7181424442981857e-07 0 -1.44681008321812e-06 5.984915182557525e-07 0 -1.5904262963445837e-06 5.4999728738437776e-07 0 -2.3303864091619504e-09 -5.6723140761886444e-10 0 -1.9851682219370267e-06 -8.4129278008622294e-07 0 -2.2989445756467098e-06 -8.7474156839216533e-07 0 -2.1746429642127252e-09 2.935759971933403e-10 0 -2.1121917025247899e-06 3.6472330102001577e-07 0 -2.0282364929352346e-06 5.2488252759442409e-07 0 -2.3552965658282443e-05 -1.0283336909983708e-05 0 -2.6880252060232638e-05 -1.368916775339318e-05 0 -2.6084731384501885e-05 -1.2373512317297055e-05 0 -2.8550904291330557e-05 -1.5722969218908411e-05 0 -2.6084731384501885e-05 -1.2373512317297055e-05 0 -2.6880252060232638e-05 -1.368916775339318e-05 0 -5.4406145663460664e-05 0.00010812002130082025 0 -4.8750792798779092e-05 7.8509348886516834e-05 0 -3.5620606797973109e-05 0.00010100366633680918 0 -2.8923450531410539e-05 6.964862203865734e-05 0 -3.5620606797973116e-05 0.00010100366633680918 0 -4.8750792798779092e-05 7.8509348886516834e-05 0 -9.9356090898280929e-06 1.6752135031676089e-05 0 -6.629016695400094e-06 1.1362319381509667e-05 0 -5.0857086636678356e-06 1.8225171143442946e-05 0 -2.3552965658282443e-05 -1.0283336909983708e-05 0 -2.0041002046855412e-05 -5.8658202504680545e-06 0 -1.9247428933686618e-05 -7.885862853504143e-06 0 -2.9729163383289941e-06 8.4583241032330353e-07 0 -2.1587967477870801e-06 5.149110575919148e-07 0 -2.7180687388578912e-06 1.0061159771876534e-06 0 -3.0148284368463361e-05 -2.1950128182283694e-05 0 -3.0900118613363664e-05 -2.6051806630130056e-05 0 -2.7912845049228296e-05 -2.2176374835435554e-05 0 -7.6147057372399909e-05 0.00017241074715509196 0 -8.667162316063545e-05 0.00015265527395063065 0 -6.6827259866020428e-05 0.00013709606411212811 0 -3.8428241288208596e-05 -3.438191410045382e-05 0 -3.774350156557915e-05 -3.1486343522495304e-05 0 -4.0106446072920062e-05 -3.5172826307029651e-05 0 -2.762971787654506e-05 -3.4298183899635377e-05 0 -2.940350413696815e-05 -3.2875841255732447e-05 0 -2.9761572804339349e-05 -3.7079382669021791e-05 0 -7.3286480614527884e-06 -2.5432880797631769e-07 0 -4.83669580912262e-06 6.0262624103891011e-07 0 -6.995728481035755e-06 -1.3763370923665998e-07 0 -5.2611166039433581e-05 5.4299486378850996e-05 0 -3.7181925773693263e-05 3.5806566278890671e-05 0 -3.7042622152590082e-05 5.1981126555820032e-05 0 -1.0036339815597407e-05 -4.2399703291111192e-06 0 -1.4825020823179394e-05 -5.5089761108229866e-06 0 -9.0140299941339182e-06 -2.9578258399596334e-06 0 -2.1002694026817353e-05 5.9407406400604703e-06 0 -1.3839994795383826e-05 4.5615006153140388e-06 0 -1.2523239899608285e-05 2.6547860780327006e-06 0 -2.1948438460475708e-05 -1.9824744881274715e-05 0 -1.9315408956806998e-05 -1.4772926034842941e-05 0 -2.2863303184354099e-05 -1.3942910328083344e-05 0 -4.4756016607131311e-06 1.2533054482261994e-07 0 -7.4381389704694829e-06 -4.5054044866026964e-07 0 -4.3759136941502567e-06 3.9485764653212861e-07 0 -5.1166815902609471e-06 -9.5929221232950194e-07 0 -4.2399476501010355e-06 -1.0091929141186254e-06 0 -8.2487934546456719e-06 -4.0476801778292319e-07 0 -9.355636581216891e-05 6.2031878004727099e-05 0 -7.2202195846197181e-05 4.8480134878499669e-05 0 -7.5717243765323987e-05 6.6300664538512149e-05 0 -5.5923578157731983e-05 -3.318204411661031e-05 0 -4.8722680100930283e-05 -3.5075436564828943e-05 0 -4.5769928409891068e-05 -2.6723306245506755e-05 0 -2.1991291637341961e-05 3.3231791262383476e-05 0 -9.7049275261628634e-06 2.4816839847181648e-05 0 -1.5726581807940609e-05 4.421906342927416e-05 0 4.9028571468193419e-08 2.7433316624341573e-05 0 -1.5726581807940609e-05 4.421906342927416e-05 0 -9.7049275261628634e-06 2.4816839847181648e-05 0 -3.0052094288946401e-05 -3.6098386237085384e-05 0 -3.7777893623945262e-05 -3.9837278697742664e-05 0 -3.4165890714064038e-05 -4.6536764702054855e-05 0 -4.1133388894661876e-05 -5.4486345938703525e-05 0 -3.4165890714064038e-05 -4.6536764702054855e-05 0 -3.7777893623945262e-05 -3.9837278697742664e-05 0 -1.9213861462405155e-05 -6.7502594809644351e-06 0 -1.5159405172518829e-05 -2.1606429588458333e-07 0 -1.56718647397708e-05 3.2712813520952032e-06 0 -3.1200634820756922e-05 -3.9745971515536435e-05 0 -3.4513771927153803e-05 -3.963441122327629e-05 0 -3.1937570208491416e-05 -4.201884132685324e-05 0 -2.9729163383289941e-06 8.4583241032330353e-07 0 -4.0576678566826954e-06 5.7584068789433916e-07 0 -2.8882491902050494e-06 6.9110591894731531e-08 0 -3.1156078456156784e-05 -1.943443013909272e-05 0 -3.97995293994409e-05 -2.6243670814087718e-05 0 -3.4040240415131724e-05 -2.5435036412671028e-05 0 -2.836114859100496e-05 -4.5263840684093273e-05 0 -2.8396117515238165e-05 -4.2376571788534295e-05 0 -2.9990411593624745e-05 -4.2577360287426252e-05 0 -7.6319060419121541e-05 9.1224922848704036e-05 0 -9.2636610716966621e-05 9.1709329557734318e-05 0 -7.5717243765323987e-05 6.6300664538512149e-05 0 -0.00010113207545678331 0.00024464837187184683 0 -7.7035473082340443e-05 0.000222079359240911 0 -7.6705361332699782e-05 0.00024687233008044689 0 -3.2502881605499e-05 -0.00011378449349545112 0 -4.0463682668647667e-05 -0.00010438887073393488 0 -4.2143939148953828e-05 -0.00011587677944521815 0 -8.7817291068780856e-06 -7.8782571163821157e-07 0 -8.1766748659316005e-06 3.0974585013119943e-07 0 -6.7026610154281514e-06 4.3874495935618732e-07 0 -2.8550904291330557e-05 -1.5722969218908411e-05 0 -2.6880252060232638e-05 -1.368916775339318e-05 0 -3.0523070270098218e-05 -1.7904991076311005e-05 0 -3.6969735286343549e-06 1.753746980375359e-06 0 -4.6197040688283194e-06 2.8027418396515023e-06 0 -3.9106393421401341e-06 2.5253563691818834e-06 0 -4.578656023474264e-06 3.8592736217455325e-06 0 -3.9106393421401341e-06 2.5253563691818834e-06 0 -4.6197040688283194e-06 2.8027418396515023e-06 0 -1.7059742165040294e-05 4.6629017868972444e-06 0 -2.3586938963140758e-05 7.6200870764758981e-06 0 -2.052634182518963e-05 4.2737631510067114e-06 0 -4.1133388894661876e-05 -5.4486345938703525e-05 0 -4.8471479459722878e-05 -6.2633384739435198e-05 0 -4.4425243761727399e-05 -7.0109071440228193e-05 0 -2.2476504067249051e-05 4.1183734336534545e-06 0 -1.7742083349857236e-05 2.3631602594763625e-06 0 -2.7009883979976097e-05 6.0188499883265299e-06 0 -3.1752535902291439e-05 0.00017111781147704841 0 -5.4769258474411373e-05 0.00019732156647489537 0 -5.8416337266011517e-05 0.00017406325022236926 0 -3.1752535902291439e-05 0.00017111781147704841 0 -5.8416337266011517e-05 0.00017406325022236926 0 -5.2711849854362262e-05 0.00014964033500875637 0 -7.6147057372399909e-05 0.00017241074715509196 0 -5.2711849854362262e-05 0.00014964033500875634 0 -5.8416337266011517e-05 0.00017406325022236926 0 -5.3902033287050748e-05 -8.1794275122073381e-05 0 -4.7827974622743311e-05 -9.3763050641502307e-05 0 -4.2893559936103795e-05 -8.1256919559762872e-05 0 -5.3902033287050748e-05 -8.1794275122073381e-05 0 -4.2893559936103795e-05 -8.1256919559762872e-05 0 -4.4425243761727399e-05 -7.0109071440228193e-05 0 -6.629016695400094e-06 1.1362319381509667e-05 0 -5.7842181754302631e-06 1.3063138211901525e-05 0 -5.0857086636678356e-06 1.8225171143442946e-05 0 -1.4722572796355075e-09 -2.9586037733712299e-10 0 -1.1320249963164435e-09 2.1763056408393306e-11 0 -1.1649619212855101e-06 -2.3025558798082755e-07 0 -1.3498910256409364e-09 2.293418806111495e-10 0 -1.6090985024927031e-09 3.0511684843444851e-10 0 -1.4468100832181202e-06 5.984915182557525e-07 0 -6.8961176866102431e-06 2.3194627223783193e-08 0 -6.7026610154281514e-06 4.3874495935618721e-07 0 -4.8912443728243446e-06 9.2268934512259168e-07 0 -1.8993201613160292e-05 -1.8179143761801217e-05 0 -1.9067259775373144e-05 -1.5543068277101343e-05 0 -2.2319411956412536e-05 -2.201866889914244e-05 0 -1.7742083349857236e-05 2.3631602594763625e-06 0 -2.0526341825189627e-05 4.2737631510067114e-06 0 -2.7009883979976097e-05 6.0188499883265299e-06 0 -1.12742372079601e-09 1.7584034809949613e-10 0 -1.4322902812433297e-06 5.1742649482040846e-07 0 -9.2129076041417065e-07 1.9102367478152579e-07 0 -2.1002694026817353e-05 5.9407406400604703e-06 0 -1.7355723022939861e-05 3.0547526631730347e-06 0 -2.4110667574564734e-05 5.4360591809280517e-06 0 -1.4825020823179394e-05 -5.5089761108229866e-06 0 -1.6815386535790162e-05 -5.2645578008946986e-06 0 -1.243764175029523e-05 -3.5148051014965798e-06 0 -5.0063509179826569e-05 -4.5246652708064694e-05 0 -4.8722680100930283e-05 -3.5075436564828937e-05 0 -5.7217463038186696e-05 -4.5951688042695769e-05 0 -2.5130043775969651e-06 8.7224749856243879e-07 0 -1.8940230252042524e-06 7.2314753274394412e-07 0 -3.4295859332031696e-06 9.6482111389814429e-07 0 -3.4444673794063314e-05 -2.9558236277989945e-05 0 -3.774350156557915e-05 -3.1486343522495304e-05 0 -3.6031561736003031e-05 -3.2421049558567923e-05 0 -1.0391479205807179e-05 3.2209154909414797e-06 0 -7.4927122390551252e-06 3.7512479869088502e-06 0 -9.5580930756356139e-06 1.7478629697490745e-06 0 -2.0958352621706342e-05 0.00012612363599872047 0 -4.3802471437512684e-05 0.00012817597711739813 0 -3.5620606797973109e-05 0.00010100366633680918 0 -2.9729163383289941e-06 8.4583241032330353e-07 0 -2.1156192106570754e-06 7.219288635767074e-08 0 -2.1587967477870801e-06 5.149110575919148e-07 0 -8.6606765386427391e-05 0.00027271737614687684 0 -7.6705361332699782e-05 0.00024687233008044689 0 -5.9394494420955201e-05 0.00026034546661097153 0 -3.9473199400224034e-05 -0.00012809560441640928 0 -4.2143939148953828e-05 -0.00011587677944521815 0 -4.9641381828482326e-05 -0.00012255370972410207 0 -1.8940230252042524e-06 7.2314753274394412e-07 0 -3.1153379808846372e-06 8.65224873804474e-07 0 -3.4295859332031696e-06 9.6482111389814429e-07 0 -1.0391479205807179e-05 3.2209154909414797e-06 0 -1.2387486691426086e-05 4.234484357635343e-08 0 -1.4513339077710864e-05 6.9508944507580517e-07 0 -3.6606869770550777e-05 0.00027163512625570825 0 -4.1105990261121577e-05 0.00029764097373280088 0 -6.1505681643623641e-05 0.00028965761398453397 0 -8.6606765386427391e-05 0.00027271737614687684 0 -6.1505681643623627e-05 0.00028965761398453392 0 -8.2898034514863154e-05 0.00029810019103081772 0 -5.9863695505134685e-05 -0.0001279383749458133 0 -5.8356404318078287e-05 -0.00013948414952352073 0 -4.9529979444076631e-05 -0.00013593197820405061 0 -3.9473199400224034e-05 -0.00012809560441640928 0 -4.9529979444076631e-05 -0.00013593197820405061 0 -4.1404705317603908e-05 -0.0001395822566469896 0 -3.0974554366265822e-05 2.0645914058172786e-05 0 -4.5732918329731915e-05 3.3725399122746443e-05 0 -4.4270223669299846e-05 2.4623592030611805e-05 0 -3.8719535997626057e-05 -3.0611940906192114e-05 0 -4.8722680100930283e-05 -3.5075436564828943e-05 0 -4.3627735086345568e-05 -3.8807323534272035e-05 0 -5.0063509179826569e-05 -4.5246652708064694e-05 0 -4.3627735086345568e-05 -3.8807323534272035e-05 0 -4.8722680100930283e-05 -3.5075436564828943e-05 0 -7.6319060419121541e-05 9.1224922848704036e-05 0 -7.5717243765323987e-05 6.6300664538512149e-05 0 -6.2381921398328076e-05 7.5796301521358883e-05 0 -5.2611166039433581e-05 5.4299486378850996e-05 0 -6.2381921398328076e-05 7.5796301521358883e-05 0 -7.5717243765323987e-05 6.6300664538512149e-05 0 -2.7839476985400332e-06 7.7181424442981857e-07 0 -3.490537074616573e-06 6.6757254437225955e-07 0 -4.83669580912262e-06 6.0262624103891011e-07 0 1.0786272255544779e-05 6.8441194550360987e-05 0 1.3965166238408401e-05 9.7942163703328012e-05 0 -1.1028391653127571e-05 7.088399902805045e-05 0 -5.1166815902609471e-06 -9.5929221232950194e-07 0 -8.0164292513884463e-06 -5.1690517590701252e-07 0 -5.2531929279171514e-06 -5.9570947502698587e-07 0 -4.4756016607131311e-06 1.2533054482261994e-07 0 -4.1371393549411722e-06 -2.2663878860342976e-07 0 -6.5278197459625288e-06 -5.0063684096699318e-07 0 -2.3552965658282443e-05 -1.0283336909983708e-05 0 -2.2705939775111572e-05 -7.9980055962569075e-06 0 -2.0041002046855412e-05 -5.8658202504680545e-06 0 -7.4381389704694829e-06 -4.5054044866026964e-07 0 -6.8042162637199986e-06 -1.4114759089846654e-07 0 -4.3759136941502567e-06 3.9485764653212861e-07 0 -8.2487934546456719e-06 -4.0476801778292319e-07 0 -4.2399476501010355e-06 -1.0091929141186254e-06 0 -6.5955114842172245e-06 -2.5182675727437588e-07 0 -2.6331833582474981e-05 7.0221135345993108e-06 0 -3.3703654263950714e-05 1.0932047336278407e-05 0 -2.7009883979976097e-05 6.0188499883265299e-06 0 -3.6713783270276051e-05 1.0285222293300333e-05 0 -2.7009883979976097e-05 6.0188499883265299e-06 0 -3.3703654263950714e-05 1.0932047336278407e-05 0 -3.6606869770550777e-05 0.00027163512625570825 0 -4.0868867288976797e-05 0.00024132134358039085 0 -1.8996548513136281e-05 0.00024383736774421231 0 -5.9863695505134685e-05 -0.0001279383749458133 0 -5.6673031222711724e-05 -0.00011412665379448648 0 -6.6687714405255744e-05 -0.00011621409722583004 0 -2.836114859100496e-05 -4.5263840684093273e-05 0 -2.74701312961881e-05 -4.4941034584821337e-05 0 -2.7251382240518209e-05 -4.3879082506234461e-05 0 -3.7729133449099194e-05 -4.2995086727880273e-05 0 -3.3679910723544681e-05 -4.3566602547056577e-05 0 -3.7833081774432402e-05 -4.0023680905238185e-05 0 -1.427731999799629e-05 -4.1187221598847467e-06 0 -1.1583610308133204e-05 -2.5111576151514964e-06 0 -1.1709511170094055e-05 -2.1850802414565824e-06 0 -4.2090935380369113e-05 -3.8495400066042221e-05 0 -4.0833365700538123e-05 -3.7217257046381026e-05 0 -4.0106446072920062e-05 -3.5172826307029651e-05 0 -1.9243057796590968e-05 -2.8609471934639195e-05 0 -2.0489033963784625e-05 -3.0214258329258334e-05 0 -2.3372974931033422e-05 -3.5602798820019669e-05 0 -2.7311500493547028e-05 -3.7657155978425267e-05 0 -2.5478892643405724e-05 -3.7336082131554612e-05 0 -2.4971728623694632e-05 -3.3227316589878247e-05 0 -3.7819463501965241e-05 -2.0849829778208106e-05 0 -3.97995293994409e-05 -2.6243670814087718e-05 0 -3.1156078456156784e-05 -1.943443013909272e-05 0 -3.3679910723544681e-05 -4.3566602547056577e-05 0 -3.1937570208491416e-05 -4.201884132685324e-05 0 -3.4513771927153803e-05 -3.963441122327629e-05 0 -4.3818523316483727e-05 1.8367493127941017e-05 0 -3.3703654263950714e-05 1.0932047336278407e-05 0 -3.588445153968868e-05 1.6640840016519522e-05 0 -8.1766748659316005e-06 3.0974585013119938e-07 0 -6.3679486769191676e-06 1.2834025805545517e-06 0 -6.7026610154281514e-06 4.3874495935618732e-07 0 -3.8719535997626057e-05 -3.0611940906192114e-05 0 -3.7777893623945262e-05 -3.9837278697742664e-05 0 -3.2784129846484954e-05 -3.0002899033467499e-05 0 -3.0052094288946401e-05 -3.6098386237085384e-05 0 -3.2784129846484954e-05 -3.0002899033467499e-05 0 -3.7777893623945262e-05 -3.9837278697742664e-05 0 -1.532577751275405e-05 -4.1694936991313695e-06 0 -1.427731999799629e-05 -4.1187221598847467e-06 0 -1.1709511170094055e-05 -2.1850802414565824e-06 0 -3.8719535997626057e-05 -3.0611940906192114e-05 0 -3.4040240415131724e-05 -2.5435036412671028e-05 0 -3.97995293994409e-05 -2.6243670814087718e-05 0 -1.3187481395934596e-05 -2.7635240446403724e-06 0 -1.532577751275405e-05 -4.1694936991313695e-06 0 -1.1709511170094055e-05 -2.1850802414565824e-06 0 -8.3468180975489953e-06 6.0682683071956632e-07 0 -7.6791453316120881e-06 2.224898152764455e-06 0 -1.1598905402814111e-05 2.2921487839442949e-06 0 -3.8719535997626057e-05 -3.0611940906192114e-05 0 -3.97995293994409e-05 -2.6243670814087718e-05 0 -4.8722680100930283e-05 -3.5075436564828943e-05 0 -5.2611166039433581e-05 5.4299486378850996e-05 0 -7.5717243765323987e-05 6.6300664538512149e-05 0 -6.0171343281877144e-05 4.6903624318346107e-05 0 -3.4325544771376244e-09 -8.80571262494112e-10 0 -2.518492054595885e-06 -6.9236105878370412e-07 0 -5.2531929279171514e-06 -5.9570947502698587e-07 0 -2.7283930628055095e-09 3.6698006036570644e-10 0 -4.1371393549411722e-06 -2.2663878860342976e-07 0 -2.1118545946796638e-06 1.5226823447380982e-07 0 -1.3187481395934596e-05 -2.7635240446403724e-06 0 -1.1709511170094055e-05 -2.1850802414565824e-06 0 -1.0545813442113201e-05 -1.574389194859141e-06 0 -1.4974751488720506e-05 2.4954948006479673e-06 0 -1.2085365831247886e-05 7.7399061327058199e-07 0 -1.1598905402814111e-05 2.2921487839442949e-06 0 -4.7329770914190961e-06 -5.9517093724557493e-07 0 -3.2227358110103008e-06 -6.5596997809641002e-07 0 -5.1334234140113141e-06 6.0742072968165301e-08 0 -2.2319411956412536e-05 -2.201866889914244e-05 0 -2.757633463469563e-05 -2.6444070279230629e-05 0 -2.3259028266894432e-05 -3.182553437805596e-05 0 -2.9729163383289941e-06 8.4583241032330353e-07 0 -2.7180687388578912e-06 1.0061159771876536e-06 0 -3.2586215598246895e-06 1.4990933460714377e-06 0 -8.6606765386427391e-05 0.00027271737614687684 0 -0.00010113207545678331 0.00024464837187184683 0 -7.6705361332699782e-05 0.00024687233008044689 0 -3.9473199400224034e-05 -0.00012809560441640928 0 -3.2502881605499e-05 -0.00011378449349545112 0 -4.2143939148953828e-05 -0.00011587677944521815 0 -8.8279869937251751e-06 -8.4340687544145028e-07 0 -7.4381389704694829e-06 -4.5054044866026964e-07 0 -1.0545813442113201e-05 -1.574389194859141e-06 0 -8.3468180975489953e-06 6.0682683071956632e-07 0 -1.2085365831247886e-05 7.7399061327058199e-07 0 -8.2487934546456719e-06 -4.0476801778292319e-07 0 -2.3645676078050139e-06 8.5600821459166202e-07 0 -3.511081963049424e-06 1.1057029373285167e-06 0 -3.2374040349871722e-06 1.245075588864843e-06 0 -2.757633463469563e-05 -2.6444070279230629e-05 0 -3.0052094288946401e-05 -3.6098386237085384e-05 0 -2.3259028266894432e-05 -3.182553437805596e-05 0 -0.00013088042180971809 0.00018862978652334285 0 -0.00012706902319806711 0.00016058142434529968 0 -0.00010277354147032931 0.0001733996002758704 0 -1.4245396162030543e-05 -7.0335463539038923e-05 0 -2.5799812959367035e-05 -7.8948727979891636e-05 0 -1.5391326776768197e-05 -8.3287052805012605e-05 0 -5.3902033287050748e-05 -8.1794275122073381e-05 0 -4.4425243761727399e-05 -7.010907144022818e-05 0 -5.2572810372362331e-05 -7.0745019401412064e-05 0 -1.5993956884632834e-05 -3.3648403991977454e-06 0 -1.9247428933686618e-05 -7.885862853504143e-06 0 -2.0041002046855412e-05 -5.8658202504680545e-06 0 -2.2476504067249051e-05 4.1183734336534545e-06 0 -1.7355723022939858e-05 3.0547526631730343e-06 0 -1.6499432535450693e-05 2.0358131037880069e-06 0 -1.613168767764598e-05 -4.3157590376479419e-06 0 -1.2263856572274859e-05 -2.8003454888917431e-06 0 -1.243764175029523e-05 -3.5148051014965798e-06 0 -7.4333384479474401e-06 7.3333249994729471e-06 0 -7.2014976574068755e-06 4.2222214983838904e-06 0 -5.2817687105325925e-06 4.8930361982384472e-06 0 -2.3645676078050139e-06 8.5600821459166202e-07 0 -2.5130043775969651e-06 8.7224749856243879e-07 0 -3.511081963049424e-06 1.1057029373285167e-06 0 -2.8550904291330557e-05 -1.5722969218908411e-05 0 -3.1754313759387586e-05 -2.0434873325128964e-05 0 -2.8971651948140046e-05 -1.770046739896972e-05 0 -2.2476504067249051e-05 4.1183734336534545e-06 0 -2.4110667574564734e-05 5.4360591809280517e-06 0 -1.7355723022939861e-05 3.0547526631730347e-06 0 -1.613168767764598e-05 -4.3157590376479419e-06 0 -1.2437641750295228e-05 -3.5148051014965794e-06 0 -1.6815386535790162e-05 -5.2645578008946995e-06 0 -1.0391479205807179e-05 3.2209154909414797e-06 0 -9.5580930756356139e-06 1.7478629697490745e-06 0 -1.2387486691426086e-05 4.234484357635343e-08 0 -4.8136531137419963e-05 -0.00010864827221239512 0 -4.7827974622743311e-05 -9.3763050641502307e-05 0 -5.4074137789492148e-05 -0.00010192629819414433 0 -5.9469858221323925e-05 0.00023058414005025323 0 -5.4769258474411379e-05 0.00019732156647489537 0 -4.3098088848630601e-05 0.00021490846889413078 0 -3.7819463501965241e-05 -2.0849829778208106e-05 0 -3.1156078456156784e-05 -1.943443013909272e-05 0 -3.0991318960674498e-05 -1.5393247686897153e-05 0 -2.5448791500252419e-05 -1.3583831485782337e-05 0 -3.0991318960674498e-05 -1.5393247686897149e-05 0 -3.1156078456156784e-05 -1.943443013909272e-05 0 -1.4341656003501263e-05 -6.6052474695410491e-06 0 -1.6670248666473692e-05 -8.8662871124448668e-06 0 -1.6702097039556519e-05 -1.0609041506514408e-05 0 -1.9547219926220563e-05 -1.312406960735514e-05 0 -1.6702097039556519e-05 -1.0609041506514408e-05 0 -1.6670248666473692e-05 -8.8662871124448668e-06 0 -1.9851682219370267e-06 -8.4129278008622294e-07 0 -3.2227358110103008e-06 -6.5596997809641002e-07 0 -4.2399476501010355e-06 -1.0091929141186254e-06 0 -4.7329770914190961e-06 -5.9517093724557493e-07 0 -4.2399476501010355e-06 -1.0091929141186254e-06 0 -3.2227358110103008e-06 -6.5596997809641002e-07 0 -5.2945390473010175e-06 3.2553837053481883e-07 0 -3.490537074616573e-06 6.6757254437225955e-07 0 -4.3759136941502567e-06 3.9485764653212861e-07 0 -2.0282364929352346e-06 5.2488252759442409e-07 0 -4.3759136941502567e-06 3.9485764653212861e-07 0 -3.490537074616573e-06 6.6757254437225955e-07 0 -3.4444673794063314e-05 -2.9558236277989945e-05 0 -3.3913307654250429e-05 -3.2682797728405234e-05 0 -3.1794997998189834e-05 -2.9802161992314575e-05 0 -1.5993956884632834e-05 -3.3648403991977454e-06 0 -1.4513339077710864e-05 6.9508944507580517e-07 0 -1.2387486691426086e-05 4.234484357635343e-08 0 -4.578656023474264e-06 3.8592736217455325e-06 0 -4.5550884806635982e-06 3.3756350614618671e-06 0 -3.9106393421401341e-06 2.5253563691818834e-06 0 -3.1752535902291439e-05 0.00017111781147704841 0 -3.3526588036746545e-05 0.00019764121918037359 0 -5.4769258474411373e-05 0.00019732156647489537 0 -5.3902033287050748e-05 -8.1794275122073381e-05 0 -5.6744398897810519e-05 -9.3596385004850391e-05 0 -4.7827974622743311e-05 -9.3763050641502307e-05 0 -3.1752535902291439e-05 0.00017111781147704841 0 -5.2711849854362262e-05 0.00014964033500875637 0 -3.2411517281861604e-05 0.00014520640372233846 0 -7.4333384479474401e-06 7.3333249994729471e-06 0 -1.0460966117197282e-05 6.5183045283844253e-06 0 -7.2014976574068755e-06 4.2222214983838904e-06 0 -7.4333384479474401e-06 7.3333249994729471e-06 0 -1.0559536746115683e-05 1.1208333648681256e-05 0 -1.0460966117197282e-05 6.5183045283844253e-06 0 -5.4406145663460664e-05 0.00010812002130082025 0 -4.3802471437512677e-05 0.00012817597711739813 0 -6.6827259866020428e-05 0.00013709606411212811 0 -5.2711849854362262e-05 0.00014964033500875637 0 -6.6827259866020428e-05 0.00013709606411212811 0 -4.3802471437512677e-05 0.00012817597711739813 0 -8.4336127981612159e-06 6.2672221436530951e-07 0 -5.2531929279171514e-06 -5.9570947502698587e-07 0 -9.3577002282984527e-06 4.4771069843447036e-08 0 -6.248154245465147e-06 -1.3371234980202201e-06 0 -7.2092561799894058e-06 -1.0248462752336548e-06 0 -4.1371393549411722e-06 -2.2663878860342976e-07 0 -3.0052094288946401e-05 -3.6098386237085384e-05 0 -3.4165890714064038e-05 -4.6536764702054855e-05 0 -2.6362421543200234e-05 -4.6227166231817675e-05 0 -4.2090935380369113e-05 -3.8495400066042221e-05 0 -4.3069817219609486e-05 -4.1039972741260538e-05 0 -4.0833365700538123e-05 -3.7217257046381026e-05 0 -1.9243057796590968e-05 -2.8609471934639195e-05 0 -2.3372974931033422e-05 -3.5602798820019669e-05 0 -2.1357806579588793e-05 -3.2175676467789807e-05 0 -1.0268756332439112e-05 -2.0759720217642968e-07 0 -1.2387486691426086e-05 4.234484357635343e-08 0 -9.5580930756356139e-06 1.7478629697490745e-06 0 -4.578656023474264e-06 3.8592736217455325e-06 0 -5.30018502599226e-06 6.2417945451344192e-06 0 -5.2817687105325925e-06 4.8930361982384472e-06 0 -3.1200634820756922e-05 -3.9745971515536435e-05 0 -2.9761572804339349e-05 -3.7079382669021791e-05 0 -3.3261396093580433e-05 -3.7067487468850078e-05 0 -3.1413404910131837e-05 -3.5002392100452755e-05 0 -3.3261396093580433e-05 -3.7067487468850078e-05 0 -2.9761572804339349e-05 -3.7079382669021791e-05 0 -2.6374198439071383e-05 -2.4234299806933618e-05 0 -2.6624896380954578e-05 -2.9539809613629538e-05 0 -2.2759604374516714e-05 -2.4416970907538711e-05 0 -8.6606765386427391e-05 0.00027271737614687684 0 -0.00011103825929187396 0.0002699866271064617 0 -0.00010113207545678331 0.00024464837187184683 0 -3.9473199400224034e-05 -0.00012809560441640928 0 -3.0296395555862458e-05 -0.00012538435560107561 0 -3.2502881605499e-05 -0.00011378449349545112 0 -3.9838911325165017e-05 -3.8148226602448463e-05 0 -4.2214492911687994e-05 -4.063432637180376e-05 0 -3.7833081774432402e-05 -4.0023680905238185e-05 0 -2.5837638897033125e-05 -4.0433355879244799e-05 0 -2.7251382240518209e-05 -4.3879082506234461e-05 0 -2.5964313859246228e-05 -4.1458570861751582e-05 0 -3.6606869770550777e-05 0.00027163512625570825 0 -5.9394494420955201e-05 0.00026034546661097153 0 -4.0868867288976797e-05 0.00024132134358039085 0 -5.9863695505134685e-05 -0.0001279383749458133 0 -4.9641381828482326e-05 -0.00012255370972410207 0 -5.6673031222711724e-05 -0.00011412665379448648 0 -2.3645676078050139e-06 8.5600821459166202e-07 0 -3.2374040349871722e-06 1.245075588864843e-06 0 -2.7180687388578912e-06 1.0061159771876534e-06 0 -3.6969735286343549e-06 1.753746980375359e-06 0 -2.7180687388578912e-06 1.0061159771876534e-06 0 -3.2374040349871722e-06 1.245075588864843e-06 0 -2.4096302721096038e-05 0.0002146618870756981 0 -4.0868867288976797e-05 0.00024132134358039085 0 -4.3098088848630601e-05 0.00021490846889413078 0 -6.2470980437057594e-05 -0.00010253918389075057 0 -5.6673031222711724e-05 -0.00011412665379448648 0 -5.4074137789492148e-05 -0.00010192629819414433 0 -5.1166815902609471e-06 -9.5929221232950194e-07 0 -5.2531929279171523e-06 -5.9570947502698576e-07 0 -2.518492054595885e-06 -6.9236105878370412e-07 0 -4.4756016607131311e-06 1.2533054482261994e-07 0 -2.1118545946796638e-06 1.5226823447380982e-07 0 -4.1371393549411722e-06 -2.2663878860342976e-07 0 -2.8923450531410539e-05 6.964862203865734e-05 0 -1.5874494965226738e-05 9.6365573919656242e-05 0 -3.5620606797973109e-05 0.00010100366633680918 0 -8.4336127981612159e-06 6.2672221436530951e-07 0 -4.0745295904698683e-06 -7.5166803930565723e-08 0 -5.2531929279171514e-06 -5.9570947502698587e-07 0 -6.248154245465147e-06 -1.3371234980202201e-06 0 -4.1371393549411722e-06 -2.2663878860342976e-07 0 -3.0501784521164935e-06 -4.5458219562428632e-07 0 -0.00013420394846788442 0.00024400868002738972 0 -0.00011420794455404992 0.00022446502675272821 0 -0.00010113207545678331 0.00024464837187184683 0 -1.8970427009585991e-05 -0.00010981676279023193 0 -2.5643029838904061e-05 -0.0001027037009875429 0 -3.2502881605499e-05 -0.00011378449349545112 0 -2.1991291637341961e-05 3.3231791262383476e-05 0 -3.7181925773693263e-05 3.5806566278890671e-05 0 -2.4455787714797591e-05 2.4819479070304271e-05 0 -3.0974554366265822e-05 2.0645914058172786e-05 0 -2.4455787714797591e-05 2.4819479070304271e-05 0 -3.7181925773693263e-05 3.5806566278890671e-05 0 -4.1133388894661876e-05 -5.4486345938703525e-05 0 -3.7777893623945262e-05 -3.9837278697742664e-05 0 -4.4335965819545266e-05 -4.6142484320776504e-05 0 -1.9213861462405155e-05 -6.7502594809644351e-06 0 -1.9315408956806998e-05 -1.4772926034842941e-05 0 -1.572535278050189e-05 -9.9245289021227465e-06 0 -5.4406145663460664e-05 0.00010812002130082025 0 -6.3029685558860761e-05 9.2773594019744527e-05 0 -4.8750792798779092e-05 7.8509348886516834e-05 0 -5.2611166039433581e-05 5.4299486378850996e-05 0 -4.8750792798779092e-05 7.8509348886516834e-05 0 -6.2381921398328076e-05 7.5796301521358883e-05 0 -3.8719535997626057e-05 -3.0611940906192114e-05 0 -4.3627735086345568e-05 -3.8807323534272035e-05 0 -3.7777893623945262e-05 -3.9837278697742664e-05 0 -3.0052094288946401e-05 -3.6098386237085384e-05 0 -2.6362421543200234e-05 -4.6227166231817675e-05 0 -2.3259028266894432e-05 -3.182553437805596e-05 0 -3.8428241288208596e-05 -3.438191410045382e-05 0 -4.0106446072920062e-05 -3.5172826307029651e-05 0 -4.0833365700538123e-05 -3.7217257046381026e-05 0 -2.3441152777891363e-05 -3.3785414992180915e-05 0 -2.3372974931033422e-05 -3.5602798820019669e-05 0 -2.0489033963784625e-05 -3.0214258329258334e-05 0 -1.8644418370048931e-05 -2.5948059519613746e-06 0 -2.2705939775111572e-05 -7.9980055962569075e-06 0 -2.0640729888996419e-05 -5.0667059795778576e-06 0 -2.3552965658282443e-05 -1.0283336909983708e-05 0 -2.6084731384501885e-05 -1.2373512317297055e-05 0 -2.2705939775111572e-05 -7.9980055962569075e-06 0 -8.9708499289230622e-06 8.4458533129584956e-06 0 -8.1992752826768593e-06 6.0751648441999132e-06 0 -1.1926475445377959e-05 4.8241704348735404e-06 0 -2.2319411956412536e-05 -2.201866889914244e-05 0 -1.9067259775373144e-05 -1.5543068277101343e-05 0 -2.3064349582436459e-05 -1.8517171983319e-05 0 -3.6606869770550777e-05 0.00027163512625570825 0 -1.8996548513136281e-05 0.00024383736774421231 0 -1.3660534557850894e-05 0.00026736380512611726 0 -5.9863695505134685e-05 -0.0001279383749458133 0 -6.6687714405255744e-05 -0.00011621409722583004 0 -7.0459411343872847e-05 -0.00012720233445057144 0 -1.0391479205807179e-05 3.2209154909414797e-06 0 -1.1926475445377959e-05 4.8241704348735404e-06 0 -8.1992752826768593e-06 6.0751648441999132e-06 0 -1.8641138547603477e-05 -2.2882268739931373e-05 0 -2.2759604374516714e-05 -2.4416970907538711e-05 0 -2.041561017302557e-05 -2.6375070672904826e-05 0 -3.1413404910131837e-05 -3.5002392100452755e-05 0 -2.9761572804339349e-05 -3.7079382669021791e-05 0 -2.940350413696815e-05 -3.2875841255732447e-05 0 -6.2849376480453763e-06 5.7056687729244544e-06 0 -7.4927122390551244e-06 3.7512479869088502e-06 0 -8.1992752826768593e-06 6.0751648441999132e-06 0 -2.1477072314450081e-06 -3.5822567170809659e-07 0 -2.8882491902050494e-06 6.9110591894731531e-08 0 -3.2227358110103008e-06 -6.5596997809641002e-07 0 -6.7188200042010037e-05 -5.2875678131952499e-05 0 -7.1653002043166051e-05 -6.450022054390296e-05 0 -5.8969454696349993e-05 -5.5927855863509582e-05 0 -8.3468180975489953e-06 6.0682683071956632e-07 0 -6.5955114842172245e-06 -2.5182675727437588e-07 0 -5.1334234140113141e-06 6.0742072968165301e-08 0 -3.9106393421401341e-06 2.5253563691818834e-06 0 -4.5550884806635982e-06 3.3756350614618671e-06 0 -3.789780096959338e-06 1.7600063100409868e-06 0 -1.0391479205807179e-05 3.2209154909414797e-06 0 -1.4513339077710864e-05 6.9508944507580517e-07 0 -1.1926475445377959e-05 4.8241704348735404e-06 0 -0.00012136781308151469 0.00013289068238295026 0 -0.00011388054659710535 0.00010680815173305208 0 -9.4284437821925951e-05 0.0001151317722592187 0 -1.8940230252042524e-06 7.2314753274394412e-07 0 -1.4322902812433297e-06 5.1742649482040846e-07 0 -7.7140051411344238e-07 3.3510055770698001e-07 0 -5.2701373519366391e-06 2.3568472054593143e-06 0 -5.2817687105325925e-06 4.8930361982384472e-06 0 -7.2014976574068755e-06 4.2222214983838904e-06 0 -3.0148284368463361e-05 -2.1950128182283694e-05 0 -3.1780349593249664e-05 -2.205988045931085e-05 0 -3.2872884648718707e-05 -2.5763857120495066e-05 0 -5.3902033287050748e-05 -8.1794275122073381e-05 0 -6.2244677963765323e-05 -7.6149636348384175e-05 0 -6.5421992890476254e-05 -8.9810729095727906e-05 0 -8.3468180975489953e-06 6.0682683071956632e-07 0 -5.1334234140113141e-06 6.0742072968165301e-08 0 -6.0869885241917689e-06 1.0815921562602495e-06 0 -2.3645676078050139e-06 8.5600821459166202e-07 0 -1.6761700617163864e-06 4.4363061160810809e-07 0 -1.4322902812433297e-06 5.1742649482040846e-07 0 -9.8172792195888828e-06 3.8531982036408873e-06 0 -7.2014976574068755e-06 4.2222214983838904e-06 0 -1.0460966117197282e-05 6.5183045283844253e-06 0 -3.1754313759387586e-05 -2.0434873325128964e-05 0 -3.1780349593249664e-05 -2.205988045931085e-05 0 -2.8971651948140046e-05 -1.770046739896972e-05 0 -3.8428241288208596e-05 -3.438191410045382e-05 0 -3.8036689697599101e-05 -3.5784617153837503e-05 0 -3.6031561736003031e-05 -3.2421049558567923e-05 0 -2.6331833582474981e-05 7.0221135345993108e-06 0 -2.052634182518963e-05 4.2737631510067114e-06 0 -2.3586938963140758e-05 7.6200870764758981e-06 0 1.0750786605893372e-05 0.00023533085626457442 0 -1.8996548513136281e-05 0.00024383736774421231 0 -5.8202077890052448e-06 0.00022183091805632387 0 -8.0387885658193025e-05 -0.00011521219432733539 0 -6.6687714405255744e-05 -0.00011621409722583004 0 -7.1459770993386045e-05 -0.0001071207155466178 0 -3.2586215598246895e-06 1.4990933460714377e-06 0 -3.789780096959338e-06 1.7600063100409868e-06 0 -2.9729163383289941e-06 8.4583241032330353e-07 0 -3.9106393421401341e-06 2.5253563691818834e-06 0 -3.789780096959338e-06 1.7600063100409868e-06 0 -3.2586215598246895e-06 1.4990933460714377e-06 0 -9.5105021206938852e-05 0.0002140450999254765 0 -0.00010113207545678331 0.00024464837187184683 0 -0.00011420794455404992 0.00022446502675272821 0 -3.2601316457409433e-05 -9.9160913887326769e-05 0 -3.2502881605499e-05 -0.00011378449349545114 0 -2.5643029838904061e-05 -0.0001027037009875429 0 -3.6969735286343549e-06 1.753746980375359e-06 0 -5.1171685751534103e-06 1.8557164662304356e-06 0 -4.6197040688283194e-06 2.8027418396515023e-06 0 -6.1658863948595979e-06 2.5053404659582519e-06 0 -4.6197040688283194e-06 2.8027418396515023e-06 0 -5.1171685751534103e-06 1.8557164662304356e-06 0 -3.6969735286343549e-06 1.753746980375359e-06 0 -3.2586215598246895e-06 1.4990933460714377e-06 0 -2.7180687388578912e-06 1.0061159771876534e-06 0 -1.613168767764598e-05 -4.3157590376479419e-06 0 -1.6460707453859985e-05 -4.2332559390964594e-06 0 -1.2698732232689952e-05 -2.6022901519706036e-06 0 -1.6656673160412433e-05 -6.941682246285568e-06 0 -2.0357684899036175e-05 -1.1086468962598777e-05 0 -1.6670248666473692e-05 -8.8662871124448668e-06 0 -1.9547219926220563e-05 -1.312406960735514e-05 0 -1.6670248666473692e-05 -8.8662871124448668e-06 0 -2.0357684899036175e-05 -1.1086468962598777e-05 0 -1.613168767764598e-05 -4.3157590376479419e-06 0 -1.2698732232689952e-05 -2.6022901519706036e-06 0 -1.2263856572274859e-05 -2.8003454888917431e-06 0 -2.8923450531410539e-05 6.964862203865734e-05 0 -1.1028391653127571e-05 7.088399902805045e-05 0 -1.5874494965226738e-05 9.6365573919656242e-05 0 -5.9469858221323925e-05 0.00023058414005025323 0 -5.9394494420955194e-05 0.00026034546661097153 0 -7.6705361332699782e-05 0.00024687233008044689 0 -4.8136531137419963e-05 -0.00010864827221239512 0 -4.9641381828482326e-05 -0.00012255370972410207 0 -4.2143939148953828e-05 -0.00011587677944521815 0 -8.7817291068780856e-06 -7.8782571163821157e-07 0 -6.8961176866102431e-06 2.3194627223783025e-08 0 -9.0292473603931306e-06 -1.2304971770147402e-06 0 -1.12742372079601e-09 1.7584034809949613e-10 0 -7.7140051411344238e-07 3.3510055770698001e-07 0 -1.4322902812433297e-06 5.1742649482040846e-07 0 -7.4333384479474401e-06 7.3333249994729471e-06 0 -6.629016695400094e-06 1.1362319381509667e-05 0 -1.0559536746115683e-05 1.1208333648681256e-05 0 -2.3598358361472377e-05 -2.927169647266539e-05 0 -2.2759604374516714e-05 -2.4416970907538711e-05 0 -2.6624896380954578e-05 -2.9539809613629538e-05 0 -2.6374198439071383e-05 -2.4234299806933618e-05 0 -2.7912845049228296e-05 -2.2176374835435554e-05 0 -2.8839897532846882e-05 -2.6445228654653417e-05 0 -3.511081963049424e-06 1.1057029373285167e-06 0 -4.8912443728243446e-06 9.2268934512259168e-07 0 -4.2276215870735865e-06 1.3322408699036993e-06 0 -5.0063509179826569e-05 -4.5246652708064694e-05 0 -5.8969454696349993e-05 -5.5927855863509582e-05 0 -4.8406892710168717e-05 -5.4549587945227323e-05 0 -5.615056074992033e-05 -6.3754098307303663e-05 0 -4.8406892710168717e-05 -5.4549587945227323e-05 0 -5.8969454696349993e-05 -5.5927855863509582e-05 0 -1.1083784770467879e-09 -4.5153258752280805e-11 0 -1.1274237207960603e-09 1.7584034809950655e-10 0 -9.2129076041417065e-07 1.9102367478152579e-07 0 -8.4534521582078337e-05 0.00013301588874237611 0 -9.4284437821925951e-05 0.0001151317722592187 0 -7.3053693723787596e-05 0.00011235815701213651 0 -7.6319060419121541e-05 9.1224922848704036e-05 0 -7.3053693723787596e-05 0.00011235815701213651 0 -9.4284437821925951e-05 0.0001151317722592187 0 -3.9838911325165017e-05 -3.8148226602448463e-05 0 -3.8036689697599101e-05 -3.5784617153837503e-05 0 -4.0833365700538123e-05 -3.7217257046381026e-05 0 -2.5837638897033125e-05 -4.0433355879244799e-05 0 -2.3372974931033422e-05 -3.5602798820019669e-05 0 -2.5478892643405724e-05 -3.7336082131554612e-05 0 -1.5345192206386454e-05 9.6586457115469432e-06 0 -1.0460966117197282e-05 6.5183045283844253e-06 0 -1.0559536746115683e-05 1.1208333648681256e-05 0 -3.5466203843681168e-05 -3.5397983542755378e-05 0 -3.3326080400506828e-05 -3.470038143577226e-05 0 -3.3913307654250429e-05 -3.2682797728405234e-05 0 -6.6054633474247326e-06 1.4644123691793992e-05 0 -6.8565746508578706e-06 1.8669857259185304e-05 0 -5.0857086636678356e-06 1.8225171143442946e-05 0 -8.3468180975489953e-06 6.0682683071956632e-07 0 -6.0869885241917689e-06 1.0815921562602495e-06 0 -7.6791453316120881e-06 2.224898152764455e-06 0 -3.0974554366265822e-05 2.0645914058172786e-05 0 -1.7735295899381043e-05 1.6251102226348704e-05 0 -2.4455787714797591e-05 2.4819479070304271e-05 0 1.3965166238408401e-05 9.7942163703328012e-05 0 -2.4279086715744703e-06 0.0001168389632629009 0 -1.5874494965226738e-05 9.6365573919656242e-05 0 -8.7817291068780856e-06 -7.8782571163821157e-07 0 -6.7026610154281514e-06 4.3874495935618727e-07 0 -6.8961176866102431e-06 2.3194627223783193e-08 0 -5.9469858221323925e-05 0.00023058414005025323 0 -4.0868867288976797e-05 0.00024132134358039085 0 -5.9394494420955201e-05 0.00026034546661097153 0 -4.8136531137419963e-05 -0.00010864827221239512 0 -5.6673031222711724e-05 -0.00011412665379448648 0 -4.9641381828482326e-05 -0.00012255370972410207 0 -4.722188552257378e-06 7.6112135144195146e-07 0 -6.0100184353642709e-06 2.7660166202057376e-07 0 -6.8961176866102431e-06 2.3194627223783193e-08 0 -1.765064603396023e-05 -9.465956102538612e-06 0 -2.1537906843892907e-05 -1.226481970536666e-05 0 -1.9247428933686618e-05 -7.885862853504143e-06 0 -2.4096302721096038e-05 0.0002146618870756981 0 -5.8202077890052448e-06 0.00022183091805632387 0 -1.8996548513136281e-05 0.00024383736774421231 0 -6.2470980437057594e-05 -0.00010253918389075057 0 -7.1459770993386045e-05 -0.0001071207155466178 0 -6.6687714405255744e-05 -0.00011621409722583004 0 -3.0801167061164509e-05 -1.1613149303635597e-05 0 -3.6790989444801277e-05 -1.5066578808846868e-05 0 -3.0398867198480627e-05 -1.1477238675911002e-05 0 -5.7695287136416236e-05 2.2466042998856809e-05 0 -4.7100057362182278e-05 1.5648953031592818e-05 0 -4.5466516052526058e-05 1.5858911375219798e-05 0 -2.1991291637341961e-05 3.3231791262383476e-05 0 -2.5809603013556548e-05 4.8651512114882936e-05 0 -3.7042622152590082e-05 5.1981126555820032e-05 0 -1.3187481395934596e-05 -2.7635240446403724e-06 0 -1.6716475412566448e-05 -4.5705862051682544e-06 0 -1.532577751275405e-05 -4.1694936991313695e-06 0 -4.48704349053935e-05 -4.5201599034030424e-05 0 -4.1861466927343928e-05 -4.2905027638475157e-05 0 -4.2214492911687994e-05 -4.063432637180376e-05 0 -4.48704349053935e-05 -4.5201599034030424e-05 0 -4.2214492911687994e-05 -4.063432637180376e-05 0 -4.4093562296229191e-05 -4.3138718989940263e-05 0 -2.5521760201015847e-05 -3.8532985868257368e-05 0 -2.3660030133591308e-05 -3.5547415223789248e-05 0 -2.5964313859246228e-05 -4.1458570861751582e-05 0 -2.5521760201015847e-05 -3.8532985868257368e-05 0 -2.5964313859246228e-05 -4.1458570861751582e-05 0 -2.688922578883095e-05 -4.3628204244368857e-05 0 -3.9838911325165017e-05 -3.8148226602448463e-05 0 -3.6582771860153215e-05 -3.7474389716817337e-05 0 -3.8036689697599101e-05 -3.5784617153837503e-05 0 -2.5837638897033125e-05 -4.0433355879244799e-05 0 -2.5478892643405724e-05 -3.7336082131554612e-05 0 -2.7212715931351102e-05 -4.0798318382264778e-05 0 -1.4536284529989545e-05 -2.1119518916115175e-05 0 -1.8535395100159706e-05 -2.635571803083546e-05 0 -1.6883826052306982e-05 -2.4790331930704431e-05 0 -3.9324914612518708e-05 -3.1553767592362455e-05 0 -4.0843928417003956e-05 -3.5416210830616909e-05 0 -3.774350156557915e-05 -3.1486343522495304e-05 0 -1.640941438311047e-06 1.7723363559412654e-06 0 -1.0413382732106401e-05 -5.1180358233339876e-06 0 -5.5507823600147484e-06 -7.5686730171315526e-06 0 -3.6606869770550777e-05 0.00027163512625570825 0 -1.9930555446309451e-05 0.00029087632208096766 0 -4.1105990261121577e-05 0.00029764097373280088 0 -8.6606765386427391e-05 0.00027271737614687684 0 -8.2898034514863154e-05 0.00029810019103081772 0 -0.00010632433469850587 0.00029302147835423261 0 -5.9863695505134685e-05 -0.0001279383749458133 0 -6.8337517010926943e-05 -0.00013719556297147521 0 -5.8356404318078287e-05 -0.00013948414952352073 0 -3.9473199400224034e-05 -0.00012809560441640928 0 -4.1404705317603908e-05 -0.00013958225664698957 0 -3.3113036354122918e-05 -0.00013655467611174842 0 -5.4198201616901285e-06 1.0986691449051498e-06 0 -4.2276215870735865e-06 1.3322408699036993e-06 0 -4.8912443728243446e-06 9.2268934512259168e-07 0 -3.6606869770550777e-05 0.00027163512625570825 0 -1.366053455785089e-05 0.00026736380512611726 0 -1.9930555446309448e-05 0.00029087632208096766 0 -5.9863695505134685e-05 -0.0001279383749458133 0 -7.0459411343872847e-05 -0.00012720233445057144 0 -6.8337517010926943e-05 -0.00013719556297147521 0 -1.8644418370048931e-05 -2.5948059519613746e-06 0 -1.6328355508654921e-05 1.2183029865099741e-06 0 -1.4513339077710864e-05 6.9508944507580517e-07 0 -8.6606765386427391e-05 0.00027271737614687684 0 -0.00010632433469850587 0.00029302147835423261 0 -0.00011103825929187396 0.0002699866271064617 0 -3.9473199400224034e-05 -0.00012809560441640928 0 -3.3113036354122918e-05 -0.00013655467611174842 0 -3.0296395555862458e-05 -0.00012538435560107561 0 -2.8622293750740849e-05 -6.072104576485663e-05 0 -2.0773744312257332e-05 -5.2846526704056355e-05 0 -2.6362421543200234e-05 -4.6227166231817675e-05 0 -2.8550904291330557e-05 -1.5722969218908411e-05 0 -2.8971651948140046e-05 -1.770046739896972e-05 0 -2.6084731384501885e-05 -1.2373512317297055e-05 0 -2.6570750338226432e-05 -1.4646134907696508e-05 0 -2.6084731384501885e-05 -1.2373512317297055e-05 0 -2.8971651948140046e-05 -1.770046739896972e-05 0 -9.8172792195888828e-06 3.8531982036408873e-06 0 -1.1598905402814111e-05 2.2921487839442949e-06 0 -7.6791453316120881e-06 2.224898152764455e-06 0 -5.4406145663460664e-05 0.00010812002130082025 0 -3.5620606797973109e-05 0.00010100366633680918 0 -4.3802471437512677e-05 0.00012817597711739813 0 -7.1653002043166051e-05 -6.450022054390296e-05 0 -6.4499478263269842e-05 -6.7017685882106507e-05 0 -5.8969454696349993e-05 -5.5927855863509582e-05 0 -9.9356090898280929e-06 1.6752135031676089e-05 0 -1.7735295899381043e-05 1.6251102226348704e-05 0 -1.0559536746115683e-05 1.1208333648681256e-05 0 -1.5345192206386454e-05 9.6586457115469432e-06 0 -1.0559536746115683e-05 1.1208333648681256e-05 0 -1.7735295899381043e-05 1.6251102226348704e-05 0 -4.578656023474264e-06 3.8592736217455325e-06 0 -5.3334023543233933e-06 4.2196547571741243e-06 0 -5.30018502599226e-06 6.2417945451344192e-06 0 -2.9347608819116505e-05 -2.9875758602897264e-05 0 -2.940350413696815e-05 -3.2875841255732447e-05 0 -2.6624896380954578e-05 -2.9539809613629538e-05 0 -2.762971787654506e-05 -3.4298183899635377e-05 0 -2.6624896380954578e-05 -2.9539809613629538e-05 0 -2.940350413696815e-05 -3.2875841255732447e-05 0 -9.355636581216891e-05 6.2031878004727099e-05 0 -8.1681137533193648e-05 4.4978504167111002e-05 0 -7.2202195846197181e-05 4.8480134878499669e-05 0 -4.9590956729823543e-05 -2.5612586606688437e-05 0 -5.5923578157731983e-05 -3.318204411661031e-05 0 -4.5769928409891068e-05 -2.6723306245506755e-05 0 -1.8085297404728235e-09 -3.8655380003818079e-10 0 -1.4722572796355075e-09 -2.9586037733712299e-10 0 -1.3694812375473813e-06 -5.3025844033008889e-07 0 -1.6090985024927031e-09 3.0511684843444851e-10 0 -1.8446603727502131e-09 2.8877682643332572e-10 0 -1.5904262963445837e-06 5.4999728738437776e-07 0 -7.4333384479474401e-06 7.3333249994729471e-06 0 -5.2817687105325916e-06 4.8930361982384472e-06 0 -5.7799326794138247e-06 7.5345942879620566e-06 0 -6.2849376480453763e-06 5.7056687729244544e-06 0 -5.30018502599226e-06 6.2417945451344192e-06 0 -5.3334023543233933e-06 4.2196547571741243e-06 0 -4.578656023474264e-06 3.8592736217455325e-06 0 -5.2817687105325925e-06 4.8930361982384464e-06 0 -4.5550884806635982e-06 3.3756350614618671e-06 0 -1.2060600583029177e-05 4.65224107959397e-07 0 -1.6499432535450693e-05 2.0358131037880069e-06 0 -1.2849097621389583e-05 1.2620354068845026e-06 0 -9.4761842923641642e-06 -1.4516591192406493e-06 0 -9.4782383626594306e-06 -2.0920697639565615e-06 0 -1.2263856572274859e-05 -2.8003454888917431e-06 0 -2.0958352621706342e-05 0.00012612363599872047 0 -1.5874494965226738e-05 9.6365573919656242e-05 0 -2.4279086715744703e-06 0.0001168389632629009 0 -1.2060600583029177e-05 4.65224107959397e-07 0 -1.2849097621389581e-05 1.2620354068845024e-06 0 -9.3577002282984527e-06 4.4771069843447036e-08 0 -9.4761842923641642e-06 -1.4516591192406493e-06 0 -7.2092561799894058e-06 -1.0248462752336548e-06 0 -9.4782383626594306e-06 -2.0920697639565615e-06 0 -3.4444673794063314e-05 -2.9558236277989945e-05 0 -3.6031561736003031e-05 -3.2421049558567923e-05 0 -3.3913307654250429e-05 -3.2682797728405234e-05 0 -2.8923450531410539e-05 6.964862203865734e-05 0 -1.5726581807940609e-05 4.421906342927416e-05 0 -1.1028391653127571e-05 7.088399902805045e-05 0 -5.2701373519366391e-06 2.3568472054593143e-06 0 -4.5550884806635982e-06 3.3756350614618671e-06 0 -5.2817687105325925e-06 4.8930361982384472e-06 0 -2.3598358361472377e-05 -2.927169647266539e-05 0 -2.041561017302557e-05 -2.6375070672904826e-05 0 -2.2759604374516714e-05 -2.4416970907538711e-05 0 -3.0416700451472605e-09 -3.7561079228321486e-10 0 -2.3303864091619504e-09 -5.6723140761886444e-10 0 -2.2989445756467098e-06 -8.7474156839216533e-07 0 -2.1746429642127252e-09 2.935759971933403e-10 0 -2.5944016238697319e-09 1.0391840236737117e-10 0 -2.1121917025247899e-06 3.6472330102001577e-07 0 -1.9903180874720138e-05 -7.0288032670297516e-06 0 -2.5269691228311011e-05 -9.0056155770697539e-06 0 -2.0523790697510583e-05 -6.4644497928261837e-06 0 -3.7582918337574679e-05 1.1029056520972217e-05 0 -2.8875839575078229e-05 7.9962598433112568e-06 0 -3.0054904771195719e-05 7.2110271282092724e-06 0 -2.7955816519317612e-05 -2.181408301514342e-05 0 -3.1156078456156784e-05 -1.943443013909272e-05 0 -3.4040240415131724e-05 -2.5435036412671028e-05 0 -1.3513001346467314e-05 -4.5438659152341536e-05 0 -1.9553227247883147e-05 -4.089781171389308e-05 0 -2.0773744312257328e-05 -5.2846526704056355e-05 0 -1.5993956884632834e-05 -3.3648403991977454e-06 0 -1.6041778493930322e-05 -5.8854723451749112e-06 0 -1.9247428933686618e-05 -7.885862853504143e-06 0 -7.9690400758963058e-06 1.5510663242251938e-06 0 -7.4927122390551252e-06 3.7512479869088502e-06 0 -6.1658863948595979e-06 2.5053404659582519e-06 0 -9.5580930756356139e-06 1.7478629697490745e-06 0 -7.4927122390551252e-06 3.7512479869088502e-06 0 -7.9690400758963058e-06 1.5510663242251938e-06 0 -5.7211626071884097e-06 9.3681356113704887e-06 0 -6.629016695400094e-06 1.1362319381509667e-05 0 -5.7799326794138247e-06 7.5345942879620566e-06 0 -7.4333384479474401e-06 7.3333249994729471e-06 0 -5.7799326794138247e-06 7.5345942879620557e-06 0 -6.629016695400094e-06 1.1362319381509667e-05 0 -2.7311500493547028e-05 -3.7657155978425267e-05 0 -2.9274284075979802e-05 -4.0145061712392096e-05 0 -2.7212715931351102e-05 -4.0798318382264778e-05 0 -3.4367113269428814e-05 -2.2376903268005386e-05 0 -3.1754313759387579e-05 -2.0434873325128964e-05 0 -3.0523070270098218e-05 -1.7904991076311005e-05 0 -1.765064603396023e-05 -9.465956102538612e-06 0 -1.8300910874554586e-05 -1.3543188737509068e-05 0 -2.1537906843892907e-05 -1.226481970536666e-05 0 -1.8993201613160292e-05 -1.8179143761801217e-05 0 -2.1537906843892907e-05 -1.226481970536666e-05 0 -1.8300910874554586e-05 -1.3543188737509068e-05 0 -1.4825020823179394e-05 -5.5089761108229866e-06 0 -1.9903180874720138e-05 -7.0288032670297516e-06 0 -1.6815386535790162e-05 -5.2645578008946995e-06 0 -2.8875839575078229e-05 7.9962598433112568e-06 0 -2.1002694026817353e-05 5.9407406400604703e-06 0 -2.4110667574564734e-05 5.4360591809280517e-06 0 -3.0648277370401111e-05 -4.4495660763197332e-05 0 -2.836114859100496e-05 -4.5263840684093273e-05 0 -2.9990411593624745e-05 -4.2577360287426252e-05 0 -1.7735295899381043e-05 1.6251102226348704e-05 0 -1.5915524845103937e-05 2.2131559454203645e-05 0 -2.4455787714797591e-05 2.4819479070304271e-05 0 -3.6969735286343549e-06 1.753746980375359e-06 0 -3.9106393421401341e-06 2.5253563691818834e-06 0 -3.2586215598246895e-06 1.4990933460714377e-06 0 -5.2531929279171514e-06 -5.9570947502698587e-07 0 -8.0164292513884463e-06 -5.1690517590701263e-07 0 -9.3577002282984527e-06 4.4771069843447036e-08 0 -4.1371393549411722e-06 -2.2663878860342976e-07 0 -7.2092561799894066e-06 -1.0248462752336551e-06 0 -6.5278197459625288e-06 -5.0063684096699318e-07 0 -4.722188552257378e-06 7.6112135144195146e-07 0 -4.83669580912262e-06 6.0262624103891011e-07 0 -6.0100184353642717e-06 2.7660166202057376e-07 0 -1.5993956884632834e-05 -3.3648403991977454e-06 0 -1.7299884552629194e-05 -2.7296364233890001e-06 0 -1.4513339077710864e-05 6.9508944507580517e-07 0 -2.3441152777891363e-05 -3.3785414992180915e-05 0 -2.4971728623694632e-05 -3.3227316589878247e-05 0 -2.5478892643405724e-05 -3.7336082131554612e-05 0 -7.3286480614527884e-06 -2.5432880797631769e-07 0 -6.0100184353642717e-06 2.7660166202057376e-07 0 -4.83669580912262e-06 6.0262624103891011e-07 0 -0.00013088042180971809 0.00018862978652334285 0 -0.00010277354147032931 0.0001733996002758704 0 -0.00011033641905711042 0.0001996907126868021 0 -1.5391326776768197e-05 -8.3287052805012605e-05 0 -2.5799812959367035e-05 -7.8948727979891636e-05 0 -2.5105410209794316e-05 -9.0926474374504132e-05 0 -1.4245396162030543e-05 -7.0335463539038923e-05 0 -2.2731705601733095e-05 -6.6533330432715052e-05 0 -2.5799812959367035e-05 -7.8948727979891636e-05 0 -2.3088120546444053e-05 -9.7339330892065898e-06 0 -2.0640729888996419e-05 -5.0667059795778576e-06 0 -2.2705939775111572e-05 -7.9980055962569075e-06 0 -3.4367113269428814e-05 -2.2376903268005386e-05 0 -3.4504927216412028e-05 -2.4301464015640032e-05 0 -3.1754313759387586e-05 -2.0434873325128964e-05 0 -8.7817291068780856e-06 -7.8782571163821157e-07 0 -1.1669571733836979e-05 -3.1255036906923792e-06 0 -1.0002225187197923e-05 -1.2026528517832907e-06 0 -1.8644418370048931e-05 -2.5948059519613746e-06 0 -1.4513339077710864e-05 6.9508944507580517e-07 0 -1.7299884552629194e-05 -2.7296364233890001e-06 0 5.0597383750971191e-06 0.0002877730314259711 0 -1.0755116876255039e-05 0.00030244587562647214 0 -1.9930555446309448e-05 0.00029087632208096766 0 -8.064982767076975e-05 -0.00013855072301905997 0 -7.3314826184385021e-05 -0.00014327056244253688 0 -6.8337517010926943e-05 -0.00013719556297147521 0 -2.3109550656280321e-05 -0.00013463115305569485 0 -3.3113036354122918e-05 -0.0001365546761117484 0 -2.9630490921963223e-05 -0.00014154927325719886 0 -0.0001344829450435125 0.00029607494564237778 0 -0.00010632433469850587 0.00029302147835423261 0 -0.00011770088006343355 0.00030689814216457406 0 -1.0268756332439112e-05 -2.0759720217642968e-07 0 -8.1766748659316005e-06 3.0974585013119938e-07 0 -1.0002225187197923e-05 -1.2026528517832907e-06 0 -8.7817291068780856e-06 -7.8782571163821157e-07 0 -1.0002225187197923e-05 -1.2026528517832907e-06 0 -8.1766748659316005e-06 3.0974585013119938e-07 0 -1.4341656003501263e-05 -6.6052474695410491e-06 0 -1.1669571733836977e-05 -3.1255036906923787e-06 0 -1.2419850823504851e-05 -4.1770744029564174e-06 0 -4.3818523316483727e-05 1.8367493127941017e-05 0 -4.5466516052526058e-05 1.5858911375219798e-05 0 -3.3703654263950714e-05 1.0932047336278407e-05 0 -3.6713783270276051e-05 1.0285222293300333e-05 0 -3.3703654263950714e-05 1.0932047336278407e-05 0 -4.5466516052526058e-05 1.5858911375219798e-05 0 -1.5345192206386454e-05 9.6586457115469432e-06 0 -1.9423800647963239e-05 8.168353642003094e-06 0 -1.3669678875221618e-05 5.3875520886619907e-06 0 -1.6656673160412433e-05 -6.941682246285568e-06 0 -1.2832086558599818e-05 -3.7917155839018529e-06 0 -1.427731999799629e-05 -4.1187221598847467e-06 0 -1.765064603396023e-05 -9.465956102538612e-06 0 -1.6702097039556519e-05 -1.0609041506514408e-05 0 -1.8300910874554586e-05 -1.3543188737509068e-05 0 -9.4761842923641642e-06 -1.4516591192406493e-06 0 -7.4381389704694821e-06 -4.5054044866026959e-07 0 -6.5278197459625288e-06 -5.0063684096699318e-07 0 -4.4756016607131311e-06 1.2533054482261994e-07 0 -6.5278197459625288e-06 -5.0063684096699318e-07 0 -7.4381389704694829e-06 -4.5054044866026964e-07 0 -5.1166815902609471e-06 -9.5929221232950194e-07 0 -8.2487934546456719e-06 -4.0476801778292319e-07 0 -8.0164292513884463e-06 -5.1690517590701252e-07 0 -1.2060600583029177e-05 4.65224107959397e-07 0 -8.0164292513884463e-06 -5.1690517590701273e-07 0 -8.2487934546456719e-06 -4.0476801778292319e-07 0 -5.615056074992033e-05 -6.3754098307303663e-05 0 -6.2244677963765323e-05 -7.6149636348384175e-05 0 -5.2572810372362331e-05 -7.0745019401412064e-05 0 -5.3902033287050748e-05 -8.1794275122073381e-05 0 -5.2572810372362331e-05 -7.0745019401412064e-05 0 -6.2244677963765323e-05 -7.6149636348384175e-05 0 -1.9851682219370267e-06 -8.4129278008622294e-07 0 -1.3694812375473813e-06 -5.3025844033008889e-07 0 -3.2227358110103008e-06 -6.5596997809641002e-07 0 -2.1477072314450081e-06 -3.5822567170809659e-07 0 -3.2227358110103008e-06 -6.5596997809641002e-07 0 -1.3694812375473813e-06 -5.3025844033008889e-07 0 -2.7839476985400332e-06 7.7181424442981857e-07 0 -1.5904262963445837e-06 5.4999728738437776e-07 0 -3.490537074616573e-06 6.6757254437225955e-07 0 -2.0282364929352346e-06 5.2488252759442409e-07 0 -3.490537074616573e-06 6.6757254437225955e-07 0 -1.5904262963445837e-06 5.4999728738437776e-07 0 -5.9469858221323925e-05 0.00023058414005025323 0 -4.3098088848630608e-05 0.00021490846889413078 0 -4.0868867288976797e-05 0.00024132134358039085 0 -4.8136531137419963e-05 -0.00010864827221239512 0 -5.4074137789492155e-05 -0.00010192629819414433 0 -5.6673031222711724e-05 -0.00011412665379448648 0 -8.8279869937251751e-06 -8.4340687544145028e-07 0 -6.8042162637199986e-06 -1.4114759089846644e-07 0 -7.4381389704694829e-06 -4.5054044866026964e-07 0 -8.3468180975489953e-06 6.0682683071956632e-07 0 -8.2487934546456719e-06 -4.0476801778292319e-07 0 -6.5955114842172245e-06 -2.5182675727437588e-07 0 -1.6656673160412433e-05 -6.941682246285568e-06 0 -1.6670248666473692e-05 -8.8662871124448668e-06 0 -1.3990547665220477e-05 -5.529732060694365e-06 0 -9.4761842923641642e-06 -1.4516591192406493e-06 0 -1.0545813442113201e-05 -1.574389194859141e-06 0 -7.4381389704694829e-06 -4.5054044866026964e-07 0 -1.2060600583029177e-05 4.65224107959397e-07 0 -8.2487934546456719e-06 -4.0476801778292319e-07 0 -1.2085365831247886e-05 7.7399061327058199e-07 0 -1.8993201613160292e-05 -1.8179143761801217e-05 0 -2.4214788310528656e-05 -1.3554853418929546e-05 0 -2.1537906843892907e-05 -1.226481970536666e-05 0 -8.7817291068780856e-06 -7.8782571163821157e-07 0 -1.0442675841241333e-05 -2.2981542740480045e-06 0 -1.1669571733836979e-05 -3.1255036906923792e-06 0 -3.4325544771376244e-09 -8.80571262494112e-10 0 -3.0416700451472605e-09 -3.7561079228321486e-10 0 -2.518492054595885e-06 -6.9236105878370412e-07 0 -2.5944016238697319e-09 1.0391840236737117e-10 0 -2.7283930628055095e-09 3.6698006036570644e-10 0 -2.1118545946796638e-06 1.5226823447380982e-07 0 -9.9356090898280929e-06 1.6752135031676089e-05 0 -1.0559536746115683e-05 1.1208333648681256e-05 0 -6.629016695400094e-06 1.1362319381509667e-05 0 -3.1200634820756922e-05 -3.9745971515536435e-05 0 -3.1937570208491416e-05 -4.201884132685324e-05 0 -2.9990411593624745e-05 -4.2577360287426252e-05 0 -1.6656673160412433e-05 -6.941682246285568e-06 0 -1.7856890911157198e-05 -6.4293478249932235e-06 0 -2.1161240298214581e-05 -9.5551665796646291e-06 0 -2.6362421543200234e-05 -4.6227166231817675e-05 0 -2.0773744312257328e-05 -5.2846526704056355e-05 0 -1.9553227247883147e-05 -4.089781171389308e-05 0 -1.0268756332439112e-05 -2.0759720217642968e-07 0 -7.9690400758963058e-06 1.5510663242251938e-06 0 -8.1766748659316005e-06 3.0974585013119938e-07 0 -1.3753886508741121e-05 -4.5293428746143745e-06 0 -1.1748496072719556e-05 -2.350099906117514e-06 0 -1.1669571733836979e-05 -3.1255036906923792e-06 0 -8.4336127981612159e-06 6.2672221436530951e-07 0 -1.2523239899608285e-05 2.6547860780327006e-06 0 -6.017528029413327e-06 1.2355101493429598e-06 0 -6.248154245465147e-06 -1.3371234980202201e-06 0 -4.3777453979338029e-06 -1.4742164328562092e-06 0 -9.0140299941339182e-06 -2.9578258399596334e-06 0 -1.9547219926220563e-05 -1.312406960735514e-05 0 -1.9067259775373148e-05 -1.5543068277101343e-05 0 -1.6702097039556519e-05 -1.0609041506514408e-05 0 -6.1658863948595979e-06 2.5053404659582519e-06 0 -6.3679486769191676e-06 1.2834025805545517e-06 0 -7.9690400758963058e-06 1.5510663242251938e-06 0 -1.136014505032491e-05 -3.022322535771749e-06 0 -1.283208655859982e-05 -3.7917155839018533e-06 0 -1.3990547665220477e-05 -5.529732060694365e-06 0 -2.9734851582038549e-05 -1.2195534302498378e-05 0 -3.0991318960674498e-05 -1.5393247686897153e-05 0 -2.5513693641367717e-05 -1.1295660486189929e-05 0 -0.00012706902319806711 0.00016058142434529968 0 -0.00010396572410204965 0.0001480972854190114 0 -0.00010277354147032931 0.0001733996002758704 0 -1.9547219926220563e-05 -1.312406960735514e-05 0 -2.0357684899036175e-05 -1.1086468962598777e-05 0 -2.4076143235838109e-05 -1.5599593276449904e-05 0 -2.2705939775111572e-05 -7.9980055962569075e-06 0 -2.6084731384501881e-05 -1.2373512317297055e-05 0 -2.4602237507184539e-05 -1.1292741498442355e-05 0 -1.6656673160412433e-05 -6.941682246285568e-06 0 -2.1161240298214581e-05 -9.5551665796646291e-06 0 -2.0357684899036175e-05 -1.1086468962598777e-05 0 -8.1766748659316005e-06 3.0974585013119938e-07 0 -7.9690400758963058e-06 1.5510663242251938e-06 0 -6.3679486769191676e-06 1.2834025805545517e-06 0 -2.8550904291330557e-05 -1.5722969218908411e-05 0 -3.0523070270098218e-05 -1.7904991076311005e-05 0 -3.1754313759387586e-05 -2.0434873325128964e-05 0 -9.9356090898280929e-06 1.6752135031676089e-05 0 -5.0857086636678356e-06 1.8225171143442946e-05 0 -9.7049275261628634e-06 2.4816839847181648e-05 0 -1.6656673160412433e-05 -6.941682246285568e-06 0 -1.427731999799629e-05 -4.1187221598847467e-06 0 -1.7856890911157198e-05 -6.4293478249932235e-06 0 -0.00013320874853587684 0.00021657165637921293 0 -0.00013088042180971809 0.00018862978652334285 0 -0.00011033641905711042 0.0001996907126868021 0 -1.5391326776768197e-05 -8.3287052805012605e-05 0 -2.5105410209794316e-05 -9.0926474374504132e-05 0 -1.6937890888675935e-05 -9.646350242508499e-05 0 -1.3544288694339906e-05 -5.7727222885017847e-05 0 -2.2731705601733095e-05 -6.6533330432715052e-05 0 -1.4245396162030543e-05 -7.0335463539038923e-05 0 -3.0974554366265822e-05 2.0645914058172786e-05 0 -4.4270223669299846e-05 2.4623592030611805e-05 0 -3.588445153968868e-05 1.6640840016519522e-05 0 -1.640941438311047e-06 1.7723363559412654e-06 0 -1.031547214513147e-05 9.3060939517714288e-06 0 -1.0413382732106401e-05 -5.1180358233339876e-06 0 -2.9734851582038549e-05 -1.2195534302498378e-05 0 -3.0398867198480627e-05 -1.1477238675911002e-05 0 -3.5079761054137605e-05 -1.4612910176375374e-05 0 -4.3818523316483727e-05 1.8367493127941017e-05 0 -5.3762681873345918e-05 2.1905608102808957e-05 0 -4.5466516052526058e-05 1.5858911375219798e-05 0 -2.9734851582038549e-05 -1.2195534302498378e-05 0 -3.5079761054137605e-05 -1.4612910176375374e-05 0 -3.6560304374126769e-05 -1.7045022070958813e-05 0 -4.3818523316483727e-05 1.8367493127941017e-05 0 -5.5520089309861641e-05 2.7228915025574097e-05 0 -5.3762681873345918e-05 2.1905608102808957e-05 0 -6.248154245465147e-06 -1.3371234980202201e-06 0 -3.0501784521164935e-06 -4.5458219562428632e-07 0 -4.3777453979338029e-06 -1.4742164328562092e-06 0 -8.4336127981612159e-06 6.2672221436530951e-07 0 -6.017528029413327e-06 1.2355101493429598e-06 0 -4.0745295904698683e-06 -7.5166803930565723e-08 0 -1.3753886508741121e-05 -4.5293428746143745e-06 0 -1.5437958848746368e-05 -7.5027194501509068e-06 0 -1.6041778493930322e-05 -5.8854723451749112e-06 0 -1.765064603396023e-05 -9.465956102538612e-06 0 -1.6041778493930322e-05 -5.8854723451749112e-06 0 -1.5437958848746368e-05 -7.5027194501509068e-06 0 -4.0843928417003956e-05 -3.5416210830616909e-05 0 -4.0106446072920062e-05 -3.5172826307029651e-05 0 -3.774350156557915e-05 -3.1486343522495304e-05 0 -1.6883826052306982e-05 -2.4790331930704431e-05 0 -1.8535395100159706e-05 -2.635571803083546e-05 0 -2.0489033963784625e-05 -3.0214258329258334e-05 0 -5.5507823600147484e-06 -7.5686730171315526e-06 0 -1.0413382732106401e-05 -5.1180358233339868e-06 0 -1.1501276691608184e-05 -1.2523201245234177e-05 0 -1.4536284529989545e-05 -2.1119518916115175e-05 0 -1.5946222096973004e-05 -2.1923066116329327e-05 0 -1.8535395100159706e-05 -2.635571803083546e-05 0 -3.9324914612518708e-05 -3.1553767592362455e-05 0 -3.774350156557915e-05 -3.1486343522495304e-05 0 -3.64238989909701e-05 -2.803462861278971e-05 0 -1.6656673160412433e-05 -6.941682246285568e-06 0 -1.3990547665220477e-05 -5.529732060694365e-06 0 -1.2832086558599818e-05 -3.7917155839018529e-06 0 -1.4341656003501263e-05 -6.6052474695410491e-06 0 -1.6702097039556519e-05 -1.0609041506514408e-05 0 -1.5437958848746368e-05 -7.5027194501509068e-06 0 -1.765064603396023e-05 -9.465956102538612e-06 0 -1.5437958848746368e-05 -7.5027194501509068e-06 0 -1.6702097039556519e-05 -1.0609041506514408e-05 0 -1.0268756332439112e-05 -2.0759720217642968e-07 0 -1.3330941192718478e-05 -2.6712343800808511e-06 0 -1.2387486691426086e-05 4.234484357635343e-08 0 -0.00012706902319806711 0.00016058142434529968 0 -0.00012136781308151469 0.00013289068238295026 0 -0.00010396572410204965 0.0001480972854190114 0 -1.8644418370048931e-05 -2.5948059519613746e-06 0 -1.7299884552629194e-05 -2.7296364233889996e-06 0 -2.0041002046855412e-05 -5.8658202504680545e-06 0 -2.1991291637341961e-05 3.3231791262383476e-05 0 -1.5915524845103934e-05 2.2131559454203645e-05 0 -9.7049275261628634e-06 2.4816839847181648e-05 0 -9.9356090898280929e-06 1.6752135031676089e-05 0 -9.7049275261628634e-06 2.4816839847181648e-05 0 -1.5915524845103937e-05 2.2131559454203645e-05 0 -1.3513001346467314e-05 -4.5438659152341536e-05 0 -2.0773744312257328e-05 -5.2846526704056355e-05 0 -1.3544288694339906e-05 -5.7727222885017847e-05 0 -6.9396515996920347e-05 3.1769896374560291e-05 0 -5.3762681873345918e-05 2.1905608102808957e-05 0 -5.5520089309861641e-05 2.7228915025574097e-05 0 -4.3117866320239017e-05 -1.9575591938362477e-05 0 -3.6560304374126762e-05 -1.704502207095881e-05 0 -3.5079761054137605e-05 -1.4612910176375374e-05 0 -1.5993956884632834e-05 -3.3648403991977454e-06 0 -2.0041002046855408e-05 -5.8658202504680537e-06 0 -1.7299884552629194e-05 -2.7296364233890001e-06 0 -7.6147057372399909e-05 0.00017241074715509196 0 -0.00010277354147032931 0.0001733996002758704 0 -8.6671623160635436e-05 0.00015265527395063062 0 -7.6147057372399909e-05 0.00017241074715509196 0 -9.1925417166266007e-05 0.00019141994283157455 0 -0.00010277354147032931 0.0001733996002758704 0 -3.5997736024776542e-05 -8.0255422904124111e-05 0 -3.1766352457193436e-05 -8.8236814328223668e-05 0 -2.5799812959367035e-05 -7.8948727979891636e-05 0 -3.5997736024776542e-05 -8.0255422904124111e-05 0 -2.5799812959367035e-05 -7.8948727979891623e-05 0 -2.9983416290500492e-05 -7.1343618706218946e-05 0 -1.6937890888675935e-05 -9.646350242508499e-05 0 -2.5643029838904061e-05 -0.0001027037009875429 0 -1.8970427009585991e-05 -0.00010981676279023193 0 -0.00013420394846788442 0.00024400868002738972 0 -0.00013320874853587684 0.00021657165637921293 0 -0.00011420794455404992 0.00022446502675272821 0 -5.2945390473010175e-06 3.2553837053481883e-07 0 -4.3759136941502567e-06 3.9485764653212861e-07 0 -6.8042162637199986e-06 -1.4114759089846654e-07 0 -4.7329770914190961e-06 -5.9517093724557493e-07 0 -6.5955114842172245e-06 -2.5182675727437588e-07 0 -4.2399476501010355e-06 -1.0091929141186254e-06 0 -3.5997736024776542e-05 -8.0255422904124111e-05 0 -4.2893559936103795e-05 -8.1256919559762872e-05 0 -3.8951729617216972e-05 -9.1547614661214785e-05 0 -3.5997736024776542e-05 -8.0255422904124111e-05 0 -3.6402683142986978e-05 -7.0082774613672234e-05 0 -4.2893559936103795e-05 -8.1256919559762872e-05 0 -4.7827974622743311e-05 -9.3763050641502307e-05 0 -3.8951729617216972e-05 -9.1547614661214785e-05 0 -4.2893559936103795e-05 -8.1256919559762872e-05 0 -4.4425243761727399e-05 -7.0109071440228193e-05 0 -4.2893559936103795e-05 -8.1256919559762872e-05 0 -3.6402683142986978e-05 -7.0082774613672234e-05 0 -7.6147057372399909e-05 0.00017241074715509196 0 -5.8416337266011517e-05 0.00017406325022236926 0 -7.5676714806806423e-05 0.00019768481745022622 0 -5.4769258474411373e-05 0.00019732156647489537 0 -7.5676714806806423e-05 0.00019768481745022622 0 -5.8416337266011517e-05 0.00017406325022236926 0 -2.5944016238697319e-09 1.0391840236737117e-10 0 -2.1118545946796638e-06 1.5226823447380982e-07 0 -2.1121917025247899e-06 3.6472330102001577e-07 0 -3.0416700451472605e-09 -3.7561079228321486e-10 0 -2.2989445756467098e-06 -8.7474156839216533e-07 0 -2.518492054595885e-06 -6.9236105878370412e-07 0 -4.8722680100930283e-05 -3.5075436564828943e-05 0 -3.97995293994409e-05 -2.6243670814087718e-05 0 -4.5769928409891068e-05 -2.6723306245506755e-05 0 -7.5717243765323987e-05 6.6300664538512149e-05 0 -7.2202195846197181e-05 4.8480134878499669e-05 0 -6.0171343281877144e-05 4.6903624318346107e-05 0 -2.0586852557888303e-05 -6.3948473771579847e-06 0 -2.5804599008758979e-05 -9.2253407150238389e-06 0 -2.4008828389724256e-05 -8.9135424747924315e-06 0 -5.4198201616901285e-06 1.0986691449051498e-06 0 -6.7026610154281514e-06 4.3874495935618732e-07 0 -6.3679486769191676e-06 1.2834025805545517e-06 0 -2.8396117515238165e-05 -4.2376571788534295e-05 0 -2.7212715931351102e-05 -4.0798318382264778e-05 0 -2.9274284075979802e-05 -4.0145061712392096e-05 0 -2.2476504067249051e-05 4.1183734336534545e-06 0 -2.7009883979976097e-05 6.0188499883265299e-06 0 -3.0054904771195719e-05 7.2110271282092724e-06 0 -3.6713783270276051e-05 1.0285222293300333e-05 0 -3.0054904771195719e-05 7.2110271282092724e-06 0 -2.7009883979976097e-05 6.0188499883265299e-06 0 -2.9729163383289941e-06 8.4583241032330353e-07 0 -2.8882491902050494e-06 6.9110591894731531e-08 0 -2.1156192106570754e-06 7.219288635767074e-08 0 -9.0677125920720956e-06 -1.3143161547328077e-05 0 -1.4626978084115063e-05 -1.824469568490037e-05 0 -1.1877503893154385e-05 -1.732179988218834e-05 0 -4.3117866320239017e-05 -1.9575591938362477e-05 0 -4.2584429759782853e-05 -2.1804946413429681e-05 0 -3.6560304374126769e-05 -1.7045022070958813e-05 0 -6.9396515996920347e-05 3.1769896374560291e-05 0 -5.5520089309861641e-05 2.7228915025574097e-05 0 -6.7026677416954323e-05 3.6854385560951333e-05 0 -2.5773884375104058e-05 -1.4899690731752161e-05 0 -2.6880252060232638e-05 -1.368916775339318e-05 0 -2.4214788310528656e-05 -1.3554853418929546e-05 0 -1.2060600583029177e-05 4.65224107959397e-07 0 -1.2085365831247886e-05 7.7399061327058199e-07 0 -1.7742083349857236e-05 2.3631602594763625e-06 0 -1.4974751488720506e-05 2.4954948006479673e-06 0 -1.7742083349857236e-05 2.3631602594763625e-06 0 -1.2085365831247886e-05 7.7399061327058199e-07 0 -2.8923450531410539e-05 6.964862203865734e-05 0 -2.5809603013556551e-05 4.8651512114882943e-05 0 -1.5726581807940609e-05 4.421906342927416e-05 0 -2.8875839575078229e-05 7.9962598433112568e-06 0 -2.4110667574564734e-05 5.4360591809280517e-06 0 -3.0054904771195719e-05 7.2110271282092724e-06 0 -1.9903180874720138e-05 -7.0288032670297516e-06 0 -2.0523790697510583e-05 -6.4644497928261837e-06 0 -1.6815386535790162e-05 -5.2645578008946995e-06 0 -2.9347608819116505e-05 -2.9875758602897264e-05 0 -2.8839897532846882e-05 -2.6445228654653417e-05 0 -3.1794997998189834e-05 -2.9802161992314575e-05 0 -3.0900118613363664e-05 -2.6051806630130056e-05 0 -3.1794997998189834e-05 -2.9802161992314575e-05 0 -2.8839897532846882e-05 -2.6445228654653417e-05 0 -1.0268756332439112e-05 -2.0759720217642968e-07 0 -9.5580930756356139e-06 1.7478629697490745e-06 0 -7.9690400758963058e-06 1.5510663242251938e-06 0 -1.5345192206386454e-05 9.6586457115469432e-06 0 -1.366967887522162e-05 5.3875520886619899e-06 0 -1.0460966117197282e-05 6.5183045283844253e-06 0 -4.578656023474264e-06 3.8592736217455325e-06 0 -4.6197040688283194e-06 2.8027418396515023e-06 0 -5.3334023543233933e-06 4.2196547571741243e-06 0 -2.1991291637341961e-05 3.3231791262383476e-05 0 -1.5726581807940609e-05 4.421906342927416e-05 0 -2.5809603013556548e-05 4.8651512114882936e-05 0 -2.9734851582038549e-05 -1.2195534302498378e-05 0 -2.5513693641367717e-05 -1.1295660486189929e-05 0 -2.4008828389724256e-05 -8.9135424747924315e-06 0 -1.136014505032491e-05 -3.022322535771749e-06 0 -9.0292473603931306e-06 -1.2304971770147402e-06 0 -9.6965171952226333e-06 -1.5343846578482554e-06 0 1.3965166238408401e-05 9.7942163703328012e-05 0 1.5392880623514727e-05 0.00012510326726616463 0 -2.4279086715744703e-06 0.0001168389632629009 0 -7.5195725028476168e-05 -7.6989570999941385e-05 0 -6.2244677963765323e-05 -7.6149636348384175e-05 0 -6.4499478263269842e-05 -6.7017685882106507e-05 0 -6.9396515996920347e-05 3.1769896374560291e-05 0 -5.7695287136416236e-05 2.2466042998856809e-05 0 -5.3762681873345918e-05 2.1905608102808957e-05 0 -3.6790989444801277e-05 -1.5066578808846868e-05 0 -4.3117866320239017e-05 -1.9575591938362477e-05 0 -3.5079761054137605e-05 -1.4612910176375374e-05 0 -1.4513339077710864e-05 6.9508944507580517e-07 0 -1.6328355508654921e-05 1.2183029865099741e-06 0 -1.1926475445377959e-05 4.8241704348735404e-06 0 -1.2060600583029177e-05 4.65224107959397e-07 0 -1.7742083349857236e-05 2.3631602594763625e-06 0 -1.6499432535450693e-05 2.0358131037880069e-06 0 -2.2476504067249051e-05 4.1183734336534545e-06 0 -1.6499432535450693e-05 2.0358131037880069e-06 0 -1.7742083349857236e-05 2.3631602594763625e-06 0 -5.7211626071884097e-06 9.3681356113704887e-06 0 -5.7842181754302631e-06 1.3063138211901525e-05 0 -6.629016695400094e-06 1.1362319381509667e-05 0 -6.5421992890476254e-05 -8.9810729095727906e-05 0 -6.2244677963765323e-05 -7.6149636348384175e-05 0 -7.0187620122279113e-05 -8.3344886075591596e-05 0 -3.4238851565340297e-05 -2.5616796349593222e-05 0 -3.2872884648718707e-05 -2.5763857120495066e-05 0 -3.1780349593249664e-05 -2.205988045931085e-05 0 1.3128953983362106e-05 0.00020758696455362149 0 1.0750786605893372e-05 0.00023533085626457442 0 -5.8202077890052448e-06 0.00022183091805632387 0 -7.9574135253285494e-05 -0.00010268163526659564 0 -8.0387885658193025e-05 -0.00011521219432733539 0 -7.1459770993386045e-05 -0.0001071207155466178 0 -3.0974554366265822e-05 2.0645914058172786e-05 0 -2.1837662400105349e-05 1.3367160023988238e-05 0 -1.7735295899381043e-05 1.6251102226348704e-05 0 -1.9547219926220563e-05 -1.312406960735514e-05 0 -2.3064349582436459e-05 -1.8517171983319e-05 0 -1.9067259775373144e-05 -1.5543068277101343e-05 0 -2.5448791500252419e-05 -1.3583831485782337e-05 0 -2.4076143235838109e-05 -1.5599593276449904e-05 0 -2.0357684899036175e-05 -1.1086468962598777e-05 0 -0.00013320874853587684 0.00021657165637921293 0 -0.00011033641905711042 0.0001996907126868021 0 -0.00011420794455404992 0.00022446502675272821 0 -1.6937890888675935e-05 -9.646350242508499e-05 0 -2.5105410209794316e-05 -9.0926474374504132e-05 0 -2.5643029838904061e-05 -0.0001027037009875429 0 -1.1583610308133204e-05 -2.5111576151514964e-06 0 -9.2504837183452178e-06 -1.1146380499367582e-06 0 -1.1709511170094055e-05 -2.1850802414565824e-06 0 -9.9356090898280929e-06 1.6752135031676089e-05 0 -1.5915524845103937e-05 2.2131559454203645e-05 0 -1.7735295899381043e-05 1.6251102226348704e-05 0 -2.9734851582038549e-05 -1.2195534302498378e-05 0 -2.5804599008758975e-05 -9.2253407150238389e-06 0 -3.0398867198480627e-05 -1.1477238675911002e-05 0 -3.0492801401537412e-05 -1.8022927885766233e-05 0 -3.4367113269428814e-05 -2.2376903268005386e-05 0 -3.0523070270098218e-05 -1.7904991076311005e-05 0 -1.3187481395934596e-05 -2.7635240446403724e-06 0 -1.2698732232689952e-05 -2.6022901519706036e-06 0 -1.6460707453859985e-05 -4.2332559390964594e-06 0 -7.1653002043166051e-05 -6.450022054390296e-05 0 -7.5195725028476168e-05 -7.6989570999941385e-05 0 -6.4499478263269842e-05 -6.7017685882106507e-05 0 -2.4387686368952826e-05 -8.1065677113054137e-06 0 -1.9666239077974013e-05 -5.7791489835971673e-06 0 -2.0523790697510583e-05 -6.4644497928261837e-06 0 -1.613168767764598e-05 -4.3157590376479419e-06 0 -2.0523790697510583e-05 -6.4644497928261837e-06 0 -1.9666239077974013e-05 -5.7791489835971673e-06 0 -8.4534521582078337e-05 0.00013301588874237611 0 -6.6827259866020428e-05 0.00013709606411212811 0 -8.6671623160635436e-05 0.00015265527395063062 0 -1.9851682219370267e-06 -8.4129278008622294e-07 0 -4.2399476501010355e-06 -1.0091929141186254e-06 0 -2.2989445756467098e-06 -8.7474156839216533e-07 0 -5.1166815902609471e-06 -9.5929221232950194e-07 0 -2.2989445756467098e-06 -8.7474156839216533e-07 0 -4.2399476501010355e-06 -1.0091929141186254e-06 0 -4.4756016607131311e-06 1.2533054482261994e-07 0 -4.3759136941502567e-06 3.9485764653212861e-07 0 -2.1121917025247899e-06 3.6472330102001577e-07 0 -2.0282364929352346e-06 5.2488252759442409e-07 0 -2.1121917025247899e-06 3.6472330102001577e-07 0 -4.3759136941502567e-06 3.9485764653212861e-07 0 -1.4341656003501263e-05 -6.6052474695410491e-06 0 -1.3990547665220476e-05 -5.5297320606943642e-06 0 -1.6670248666473692e-05 -8.8662871124448668e-06 0 -1.8887416159187766e-05 -2.4376700589899418e-06 0 -2.0640729888996419e-05 -5.0667059795778576e-06 0 -2.1169648888594038e-05 -8.1774640315693033e-06 0 -2.3088120546444053e-05 -9.7339330892065898e-06 0 -2.1169648888594038e-05 -8.1774640315693033e-06 0 -2.0640729888996419e-05 -5.0667059795778576e-06 0 -3.4367113269428814e-05 -2.2376903268005386e-05 0 -3.7255836957674459e-05 -2.7175206664214049e-05 0 -3.4504927216412028e-05 -2.4301464015640032e-05 0 -2.3088120546444053e-05 -9.7339330892065898e-06 0 -2.2705939775111572e-05 -7.9980055962569075e-06 0 -2.4602237507184539e-05 -1.1292741498442355e-05 0 -1.8535395100159706e-05 -2.635571803083546e-05 0 -1.5946222096973004e-05 -2.1923066116329327e-05 0 -2.041561017302557e-05 -2.6375070672904826e-05 0 -3.774350156557915e-05 -3.1486343522495304e-05 0 -3.5276606283669718e-05 -2.8151014749052937e-05 0 -3.64238989909701e-05 -2.803462861278971e-05 0 -4.3117866320239017e-05 -1.9575591938362477e-05 0 -4.9590956729823543e-05 -2.5612586606688437e-05 0 -4.2584429759782853e-05 -2.1804946413429681e-05 0 -8.1681137533193648e-05 4.4978504167111002e-05 0 -6.9396515996920347e-05 3.1769896374560291e-05 0 -6.7026677416954323e-05 3.6854385560951333e-05 0 -1.0413382732106401e-05 -5.1180358233339876e-06 0 -1.5725352780501886e-05 -9.9245289021227465e-06 0 -1.1501276691608184e-05 -1.2523201245234177e-05 0 -1.8535395100159706e-05 -2.635571803083546e-05 0 -2.2225102693272676e-05 -3.0605202487940365e-05 0 -2.0489033963784625e-05 -3.0214258329258334e-05 0 -2.5448791500252419e-05 -1.3583831485782337e-05 0 -2.5513693641367717e-05 -1.1295660486189929e-05 0 -3.0991318960674498e-05 -1.5393247686897153e-05 0 -1.8940230252042524e-06 7.2314753274394412e-07 0 -7.7140051411344238e-07 3.3510055770698001e-07 0 -8.9385978951790777e-07 4.0531221802663264e-07 0 -9.8172792195888828e-06 3.8531982036408873e-06 0 -1.3669678875221618e-05 5.3875520886619907e-06 0 -1.1598905402814111e-05 2.2921487839442949e-06 0 -5.2701373519366391e-06 2.3568472054593143e-06 0 -7.6791453316120881e-06 2.224898152764455e-06 0 -6.0869885241917689e-06 1.0815921562602495e-06 0 -1.2478721841548963e-05 8.6805909339485892e-06 0 -1.56718647397708e-05 3.2712813520952032e-06 0 -1.5159405172518829e-05 -2.1606429588458489e-07 0 -1.243764175029523e-05 -3.5148051014965798e-06 0 -9.4782383626594306e-06 -2.0920697639565615e-06 0 -9.0140299941339182e-06 -2.9578258399596334e-06 0 -6.248154245465147e-06 -1.3371234980202201e-06 0 -9.0140299941339182e-06 -2.9578258399596334e-06 0 -9.4782383626594306e-06 -2.0920697639565615e-06 0 -8.4336127981612159e-06 6.2672221436530951e-07 0 -1.2849097621389583e-05 1.2620354068845026e-06 0 -1.2523239899608285e-05 2.6547860780327006e-06 0 -1.7355723022939861e-05 3.0547526631730347e-06 0 -1.2523239899608285e-05 2.6547860780327006e-06 0 -1.2849097621389583e-05 1.2620354068845026e-06 0 -6.1700256822305131e-05 -4.2254250051781031e-05 0 -6.7188200042010037e-05 -5.2875678131952499e-05 0 -5.7217463038186696e-05 -4.5951688042695769e-05 0 -2.8923450531410539e-05 6.964862203865734e-05 0 -3.7042622152590082e-05 5.1981126555820039e-05 0 -2.5809603013556548e-05 4.8651512114882936e-05 0 -1.3544288694339906e-05 -5.7727222885017847e-05 0 -2.0773744312257328e-05 -5.2846526704056355e-05 0 -2.2731705601733095e-05 -6.6533330432715052e-05 0 -2.7311500493547028e-05 -3.7657155978425267e-05 0 -2.9761572804339349e-05 -3.7079382669021791e-05 0 -2.9274284075979802e-05 -4.0145061712392096e-05 0 -8.8279869937251751e-06 -8.4340687544145028e-07 0 -1.1709511170094055e-05 -2.1850802414565824e-06 0 -9.2504837183452178e-06 -1.1146380499367582e-06 0 -1.5993956884632834e-05 -3.3648403991977454e-06 0 -1.2387486691426086e-05 4.234484357635343e-08 0 -1.3330941192718478e-05 -2.6712343800808511e-06 0 -2.0586852557888303e-05 -6.3948473771579847e-06 0 -1.6460707453859985e-05 -4.2332559390964594e-06 0 -1.9666239077974013e-05 -5.7791489835971673e-06 0 -2.0958352621706342e-05 0.00012612363599872047 0 -1.0137663844591369e-06 0.00013471046369898014 0 -1.1737829689400706e-05 0.00015092544629744745 0 -1.3498910256409364e-09 2.293418806111495e-10 0 -1.4468100832181202e-06 5.984915182557525e-07 0 -8.9385978951790777e-07 4.0531221802663264e-07 0 -3.0900118613363664e-05 -2.6051806630130056e-05 0 -2.8839897532846882e-05 -2.6445228654653417e-05 0 -2.7912845049228296e-05 -2.2176374835435554e-05 0 -1.0413382732106401e-05 -5.1180358233339876e-06 0 -1.031547214513147e-05 9.3060939517714288e-06 0 -1.5159405172518829e-05 -2.1606429588458489e-07 0 -0.00011388054659710535 0.00010680815173305208 0 -0.00010411383385677293 8.2687098755582667e-05 0 -9.2636610716966621e-05 9.1709329557734318e-05 0 -1.4322902812433297e-06 5.1742649482040846e-07 0 -1.6761700617163864e-06 4.4363061160810809e-07 0 -9.2129076041417065e-07 1.9102367478152579e-07 0 -4.4756016607131311e-06 1.2533054482261994e-07 0 -2.1121917025247899e-06 3.6472330102001577e-07 0 -2.1118545946796638e-06 1.5226823447380982e-07 0 -5.1166815902609471e-06 -9.5929221232950194e-07 0 -2.518492054595885e-06 -6.9236105878370412e-07 0 -2.2989445756467098e-06 -8.7474156839216533e-07 0 -6.1658863948595979e-06 2.5053404659582519e-06 0 -5.1171685751534103e-06 1.8557164662304356e-06 0 -6.3679486769191676e-06 1.2834025805545517e-06 0 -3.7819463501965241e-05 -2.0849829778208106e-05 0 -3.6560304374126769e-05 -1.7045022070958813e-05 0 -4.2584429759782853e-05 -2.1804946413429681e-05 0 -5.6144249708644072e-05 3.5520036684190156e-05 0 -6.7026677416954323e-05 3.6854385560951333e-05 0 -5.5520089309861641e-05 2.7228915025574097e-05 0 -2.4096302721096038e-05 0.0002146618870756981 0 -1.3036421148779337e-05 0.00018893470227226901 0 -3.1793143976611213e-06 0.00020308284066656624 0 -6.2470980437057594e-05 -0.00010253918389075057 0 -6.5421992890476254e-05 -8.9810729095727893e-05 0 -7.139651753739367e-05 -9.8245189825363414e-05 0 -9.0677125920720956e-06 -1.3143161547328077e-05 0 -1.1501276691608184e-05 -1.2523201245234175e-05 0 -1.4626978084115063e-05 -1.824469568490037e-05 0 -1.5345192206386454e-05 9.6586457115469432e-06 0 -1.7735295899381039e-05 1.6251102226348704e-05 0 -2.1837662400105349e-05 1.3367160023988238e-05 0 -1.6202545029650222e-05 -1.5479517083386527e-05 0 -1.4626978084115063e-05 -1.824469568490037e-05 0 -1.1501276691608184e-05 -1.2523201245234177e-05 0 -5.4198201616901285e-06 1.0986691449051498e-06 0 -4.8912443728243446e-06 9.2268934512259168e-07 0 -6.7026610154281514e-06 4.3874495935618732e-07 0 -1.5412799609427082e-06 1.7973330449736499e-07 0 -1.1649619212855101e-06 -2.3025558798082755e-07 0 -7.4793308882173115e-07 -1.8213104777148606e-08 0 -1.1583610308133204e-05 -2.5111576151514964e-06 0 -9.6965171952226333e-06 -1.5343846578482557e-06 0 -9.2504837183452178e-06 -1.1146380499367582e-06 0 -1.3258125297124083e-05 6.4394680120561214e-06 0 -1.56718647397708e-05 3.2712813520952032e-06 0 -1.0671696555972203e-05 1.1463400701349189e-05 0 -1.2478721841548963e-05 8.6805909339485892e-06 0 -1.0671696555972203e-05 1.1463400701349189e-05 0 -1.56718647397708e-05 3.2712813520952032e-06 0 -5.3902033287050748e-05 -8.1794275122073381e-05 0 -6.5421992890476254e-05 -8.9810729095727906e-05 0 -5.6744398897810519e-05 -9.3596385004850391e-05 0 -6.2470980437057594e-05 -0.00010253918389075057 0 -5.6744398897810519e-05 -9.3596385004850391e-05 0 -6.5421992890476254e-05 -8.9810729095727906e-05 0 -3.1752535902291439e-05 0.00017111781147704841 0 -1.3036421148779337e-05 0.00018893470227226901 0 -3.3526588036746545e-05 0.00019764121918037359 0 -2.4096302721096038e-05 0.0002146618870756981 0 -3.3526588036746545e-05 0.00019764121918037359 0 -1.3036421148779337e-05 0.00018893470227226901 0 -3.1752535902291439e-05 0.00017111781147704841 0 -3.2411517281861604e-05 0.00014520640372233846 0 -1.1737829689400706e-05 0.00015092544629744745 0 -2.0958352621706342e-05 0.00012612363599872047 0 -1.1737829689400706e-05 0.00015092544629744745 0 -3.2411517281861604e-05 0.00014520640372233846 0 -1.12742372079601e-09 1.7584034809949613e-10 0 -1.1923974636972058e-09 1.9905805595865593e-10 0 -7.7140051411344238e-07 3.3510055770698001e-07 0 -1.1877503893154385e-05 -1.732179988218834e-05 0 -1.4626978084115063e-05 -1.8244695684900373e-05 0 -1.5946222096973004e-05 -2.1923066116329327e-05 0 -1.8641138547603477e-05 -2.2882268739931373e-05 0 -1.5946222096973004e-05 -2.1923066116329327e-05 0 -1.4626978084115063e-05 -1.824469568490037e-05 0 -5.615056074992033e-05 -6.3754098307303663e-05 0 -5.8969454696349993e-05 -5.5927855863509582e-05 0 -6.4499478263269842e-05 -6.7017685882106507e-05 0 -6.7188200042010037e-05 -5.2875678131952499e-05 0 -5.8969454696349993e-05 -5.5927855863509582e-05 0 -5.7217463038186696e-05 -4.5951688042695769e-05 0 -0.00011388054659710535 0.00010680815173305208 0 -9.2636610716966621e-05 9.1709329557734318e-05 0 -9.4284437821925951e-05 0.0001151317722592187 0 -6.2849376480453763e-06 5.7056687729244544e-06 0 -6.4652966497633374e-06 7.7310050067505558e-06 0 -5.30018502599226e-06 6.2417945451344192e-06 0 -5.7211626071884097e-06 9.3681356113704887e-06 0 -5.30018502599226e-06 6.2417945451344192e-06 0 -6.4652966497633374e-06 7.7310050067505558e-06 0 -3.511081963049424e-06 1.1057029373285167e-06 0 -4.2276215870735865e-06 1.3322408699036993e-06 0 -3.2374040349871722e-06 1.245075588864843e-06 0 -1.8940230252042524e-06 7.2314753274394412e-07 0 -8.9385978951790756e-07 4.0531221802663264e-07 0 -1.4468100832181202e-06 5.984915182557525e-07 0 -2.2476504067249051e-05 4.1183734336534545e-06 0 -3.0054904771195719e-05 7.2110271282092724e-06 0 -2.4110667574564734e-05 5.4360591809280517e-06 0 -1.613168767764598e-05 -4.3157590376479419e-06 0 -1.6815386535790162e-05 -5.2645578008946995e-06 0 -2.0523790697510583e-05 -6.4644497928261837e-06 0 -1.613168767764598e-05 -4.3157590376479419e-06 0 -1.9666239077974013e-05 -5.7791489835971673e-06 0 -1.6460707453859985e-05 -4.2332559390964594e-06 0 1.4650839344263819e-05 0.00018015551491953977 0 -3.1793143976611213e-06 0.00020308284066656624 0 -1.3036421148779337e-05 0.00018893470227226901 0 -7.7869141090258735e-05 -8.9771610020302275e-05 0 -7.139651753739367e-05 -9.8245189825363428e-05 0 -6.5421992890476254e-05 -8.9810729095727906e-05 0 -1.1320249963164435e-09 2.1763056408393306e-11 0 -7.4793308882173115e-07 -1.8213104777148632e-08 0 -1.1649619212855101e-06 -2.3025558798082755e-07 0 -5.2701373519366391e-06 2.3568472054593143e-06 0 -7.2014976574068755e-06 4.2222214983838913e-06 0 -7.6791453316120881e-06 2.224898152764455e-06 0 -4.1133388894661876e-05 -5.4486345938703525e-05 0 -4.4335965819545266e-05 -4.6142484320776504e-05 0 -4.8406892710168717e-05 -5.4549587945227323e-05 0 -1.7059742165040294e-05 4.6629017868972444e-06 0 -1.3669678875221618e-05 5.3875520886619899e-06 0 -1.9423800647963239e-05 8.168353642003094e-06 0 -1.9547219926220563e-05 -1.312406960735514e-05 0 -2.4076143235838109e-05 -1.5599593276449904e-05 0 -2.3064349582436459e-05 -1.8517171983319e-05 0 -5.2817687105325925e-06 4.8930361982384472e-06 0 -5.30018502599226e-06 6.2417945451344192e-06 0 -5.7799326794138247e-06 7.5345942879620566e-06 0 -5.4406145663460664e-05 0.00010812002130082025 0 -7.3053693723787596e-05 0.00011235815701213651 0 -6.3029685558860761e-05 9.2773594019744527e-05 0 -3.7819463501965241e-05 -2.0849829778208106e-05 0 -4.5769928409891068e-05 -2.6723306245506755e-05 0 -3.97995293994409e-05 -2.6243670814087718e-05 0 -5.6144249708644072e-05 3.5520036684190156e-05 0 -6.0171343281877144e-05 4.6903624318346107e-05 0 -7.2202195846197181e-05 4.8480134878499669e-05 0 -3.1200634820756922e-05 -3.9745971515536435e-05 0 -2.9990411593624745e-05 -4.2577360287426252e-05 0 -2.9274284075979802e-05 -4.0145061712392096e-05 0 -2.8396117515238165e-05 -4.2376571788534295e-05 0 -2.9274284075979802e-05 -4.0145061712392096e-05 0 -2.9990411593624745e-05 -4.2577360287426252e-05 0 -2.0586852557888303e-05 -6.3948473771579847e-06 0 -1.6716475412566448e-05 -4.5705862051682544e-06 0 -1.6460707453859985e-05 -4.2332559390964594e-06 0 -1.3187481395934596e-05 -2.7635240446403724e-06 0 -1.6460707453859985e-05 -4.2332559390964594e-06 0 -1.6716475412566448e-05 -4.5705862051682544e-06 0 -1.136014505032491e-05 -3.022322535771749e-06 0 -1.3990547665220477e-05 -5.529732060694365e-06 0 -1.2419850823504851e-05 -4.1770744029564174e-06 0 -2.4387686368952826e-05 -8.1065677113054137e-06 0 -3.0398867198480627e-05 -1.1477238675911002e-05 0 -2.5804599008758975e-05 -9.2253407150238389e-06 0 -2.6331833582474981e-05 7.0221135345993108e-06 0 -2.7009883979976097e-05 6.0188499883265299e-06 0 -2.052634182518963e-05 4.2737631510067114e-06 0 -3.3679910723544681e-05 -4.3566602547056577e-05 0 -3.0648277370401111e-05 -4.4495660763197332e-05 0 -3.1937570208491416e-05 -4.201884132685324e-05 0 -5.4406145663460664e-05 0.00010812002130082025 0 -6.6827259866020428e-05 0.00013709606411212811 0 -7.3053693723787596e-05 0.00011235815701213651 0 -1.1923974636972058e-09 1.9905805595865593e-10 0 -1.3498910256409364e-09 2.293418806111495e-10 0 -8.9385978951790777e-07 4.0531221802663264e-07 0 1.5435521236248374e-05 0.00015255840709700236 0 -1.1737829689400706e-05 0.00015092544629744745 0 -1.0137663844591369e-06 0.00013471046369898014 0 -6.6054633474247326e-06 1.4644123691793992e-05 0 -5.0857086636678356e-06 1.8225171143442946e-05 0 -5.7842181754302631e-06 1.3063138211901525e-05 0 -5.6144249708644072e-05 3.5520036684190156e-05 0 -4.5732918329731915e-05 3.3725399122746443e-05 0 -6.0171343281877144e-05 4.6903624318346107e-05 0 -6.6054633474247326e-06 1.4644123691793992e-05 0 -6.8023564333565569e-06 1.0790307083929332e-05 0 -9.0648695298646116e-06 1.0652011117231329e-05 0 -6.6054633474247326e-06 1.4644123691793992e-05 0 -5.7842181754302631e-06 1.3063138211901524e-05 0 -6.8023564333565569e-06 1.0790307083929332e-05 0 -1.532577751275405e-05 -4.1694936991313695e-06 0 -1.9254854501096575e-05 -6.314539433741848e-06 0 -1.7856890911157198e-05 -6.4293478249932235e-06 0 -7.3286480614527884e-06 -2.5432880797631769e-07 0 -9.2504837183452178e-06 -1.1146380499367582e-06 0 -9.6965171952226333e-06 -1.5343846578482554e-06 0 -7.6319060419121541e-05 9.1224922848704036e-05 0 -9.4284437821925951e-05 0.0001151317722592187 0 -9.2636610716966621e-05 9.1709329557734318e-05 0 -1.765064603396023e-05 -9.465956102538612e-06 0 -1.9247428933686618e-05 -7.885862853504143e-06 0 -1.6041778493930322e-05 -5.8854723451749112e-06 0 -1.3258125297124083e-05 6.4394680120561214e-06 0 -1.0671696555972203e-05 1.1463400701349189e-05 0 -9.0648695298646116e-06 1.0652011117231329e-05 0 -3.0148284368463361e-05 -2.1950128182283694e-05 0 -2.7635258064629289e-05 -1.820676366979798e-05 0 -2.8971651948140046e-05 -1.770046739896972e-05 0 -3.7819463501965241e-05 -2.0849829778208106e-05 0 -4.2584429759782853e-05 -2.1804946413429681e-05 0 -4.5769928409891068e-05 -2.6723306245506755e-05 0 -5.6144249708644072e-05 3.5520036684190156e-05 0 -7.2202195846197181e-05 4.8480134878499669e-05 0 -6.7026677416954323e-05 3.6854385560951333e-05 0 -9.5105021206938852e-05 0.0002140450999254765 0 -0.00011420794455404992 0.00022446502675272821 0 -0.00011033641905711042 0.0001996907126868021 0 -3.2601316457409433e-05 -9.9160913887326769e-05 0 -2.5643029838904061e-05 -0.0001027037009875429 0 -2.5105410209794316e-05 -9.0926474374504132e-05 0 -3.4238851565340297e-05 -2.5616796349593222e-05 0 -3.1780349593249664e-05 -2.205988045931085e-05 0 -3.4504927216412028e-05 -2.4301464015640032e-05 0 -5.7211626071884097e-06 9.3681356113704887e-06 0 -5.7799326794138247e-06 7.5345942879620566e-06 0 -5.30018502599226e-06 6.2417945451344192e-06 0 -1.4974751488720506e-05 2.4954948006479673e-06 0 -2.052634182518963e-05 4.2737631510067114e-06 0 -1.7742083349857236e-05 2.3631602594763625e-06 0 -2.9734851582038549e-05 -1.2195534302498378e-05 0 -2.4008828389724256e-05 -8.9135424747924315e-06 0 -2.5804599008758975e-05 -9.2253407150238389e-06 0 -4.3818523316483727e-05 1.8367493127941017e-05 0 -3.588445153968868e-05 1.6640840016519519e-05 0 -4.4270223669299846e-05 2.4623592030611805e-05 0 -1.6702097039556519e-05 -1.0609041506514408e-05 0 -1.9067259775373144e-05 -1.5543068277101343e-05 0 -1.8300910874554586e-05 -1.3543188737509068e-05 0 -2.1476104626566399e-05 -8.4107735140717075e-06 0 -2.4008828389724256e-05 -8.9135424747924298e-06 0 -2.5513693641367717e-05 -1.1295660486189929e-05 0 -1.3258125297124083e-05 6.4394680120561214e-06 0 -1.1926475445377959e-05 4.8241704348735404e-06 0 -1.6328355508654921e-05 1.2183029865099741e-06 0 -1.1320249963164435e-09 2.1763056408393306e-11 0 -1.108378477046651e-09 -4.5153258752277477e-11 0 -7.4793308882173115e-07 -1.8213104777148606e-08 0 -3.4444673794063314e-05 -2.9558236277989945e-05 0 -3.5276606283669718e-05 -2.8151014749052937e-05 0 -3.774350156557915e-05 -3.1486343522495304e-05 0 -3.6790989444801277e-05 -1.5066578808846868e-05 0 -3.5079761054137605e-05 -1.4612910176375374e-05 0 -3.0398867198480627e-05 -1.1477238675911002e-05 0 -5.7695287136416236e-05 2.2466042998856809e-05 0 -4.5466516052526058e-05 1.5858911375219798e-05 0 -5.3762681873345918e-05 2.1905608102808957e-05 0 -5.0063509179826569e-05 -4.5246652708064694e-05 0 -5.7217463038186696e-05 -4.5951688042695769e-05 0 -5.8969454696349993e-05 -5.5927855863509582e-05 0 -2.7955816519317612e-05 -2.181408301514342e-05 0 -2.757633463469563e-05 -2.6444070279230629e-05 0 -2.3064349582436459e-05 -1.8517171983319e-05 0 -2.2319411956412536e-05 -2.201866889914244e-05 0 -2.3064349582436459e-05 -1.8517171983319e-05 0 -2.757633463469563e-05 -2.6444070279230629e-05 0 -2.1476104626566399e-05 -8.4107735140717075e-06 0 -2.1161240298214581e-05 -9.5551665796646291e-06 0 -1.7856890911157198e-05 -6.4293478249932235e-06 0 -3.0148284368463361e-05 -2.1950128182283694e-05 0 -2.8971651948140046e-05 -1.770046739896972e-05 0 -3.1780349593249664e-05 -2.205988045931085e-05 0 -5.615056074992033e-05 -6.3754098307303663e-05 0 -4.8471479459722878e-05 -6.2633384739435198e-05 0 -4.8406892710168717e-05 -5.4549587945227323e-05 0 -2.1476104626566399e-05 -8.4107735140717075e-06 0 -1.7856890911157198e-05 -6.4293478249932235e-06 0 -1.9254854501096575e-05 -6.314539433741848e-06 0 -2.6570750338226432e-05 -1.4646134907696508e-05 0 -2.8971651948140046e-05 -1.770046739896972e-05 0 -2.7635258064629289e-05 -1.820676366979798e-05 0 -2.1477072314450081e-06 -3.5822567170809659e-07 0 -2.1156192106570758e-06 7.2192886357670779e-08 0 -2.8882491902050494e-06 6.9110591894731531e-08 0 -4.9590956729823543e-05 -2.5612586606688437e-05 0 -4.5769928409891068e-05 -2.6723306245506755e-05 0 -4.2584429759782853e-05 -2.1804946413429681e-05 0 -8.1681137533193648e-05 4.4978504167111002e-05 0 -6.7026677416954323e-05 3.6854385560951333e-05 0 -7.2202195846197181e-05 4.8480134878499669e-05 0 -7.7869141090258735e-05 -8.9771610020302275e-05 0 -6.5421992890476254e-05 -8.9810729095727906e-05 0 -7.0187620122279113e-05 -8.3344886075591596e-05 0 1.4650839344263819e-05 0.00018015551491953977 0 -1.3036421148779337e-05 0.00018893470227226901 0 -5.6403616111548673e-06 0.00016930533334524989 0 1.5435521236248374e-05 0.00015255840709700236 0 -5.6403616111548673e-06 0.00016930533334524989 0 -1.1737829689400706e-05 0.00015092544629744745 0 -7.7869141090258735e-05 -8.9771610020302275e-05 0 -7.9574135253285494e-05 -0.00010268163526659564 0 -7.139651753739367e-05 -9.8245189825363414e-05 0 1.4650839344263819e-05 0.00018015551491953977 0 1.3128953983362106e-05 0.00020758696455362149 0 -3.1793143976611213e-06 0.00020308284066656624 0 -1.6202545029650222e-05 -1.5479517083386527e-05 0 -1.572535278050189e-05 -9.9245289021227465e-06 0 -1.9315408956806998e-05 -1.4772926034842941e-05 0 -3.1754313759387586e-05 -2.0434873325128964e-05 0 -3.4504927216412028e-05 -2.4301464015640032e-05 0 -3.1780349593249664e-05 -2.205988045931085e-05 0 -4.3069817219609486e-05 -4.1039972741260538e-05 0 -4.4093562296229191e-05 -4.3138718989940263e-05 0 -4.2219829183399246e-05 -3.9648122472433722e-05 0 -2.1357806579588793e-05 -3.2175676467789807e-05 0 -2.4334921269258723e-05 -3.7928716711648614e-05 0 -2.3660030133591308e-05 -3.5547415223789248e-05 0 -5.6144249708644072e-05 3.5520036684190156e-05 0 -4.4270223669299846e-05 2.4623592030611805e-05 0 -4.5732918329731915e-05 3.3725399122746443e-05 0 -1.3187481395934596e-05 -2.7635240446403724e-06 0 -1.0545813442113201e-05 -1.574389194859141e-06 0 -1.2698732232689952e-05 -2.6022901519706036e-06 0 -3.6969735286343549e-06 1.753746980375359e-06 0 -4.2276215870735865e-06 1.3322408699036993e-06 0 -5.1171685751534103e-06 1.8557164662304356e-06 0 -8.4534521582078337e-05 0.00013301588874237611 0 -7.3053693723787596e-05 0.00011235815701213651 0 -6.6827259866020428e-05 0.00013709606411212811 0 -2.8622293750740849e-05 -6.072104576485663e-05 0 -2.2731705601733095e-05 -6.6533330432715052e-05 0 -2.0773744312257328e-05 -5.2846526704056355e-05 0 -1.5412799609427082e-06 1.7973330449736499e-07 0 -7.4793308882173115e-07 -1.8213104777148606e-08 0 -9.2129076041417065e-07 1.9102367478152579e-07 0 -2.5448791500252419e-05 -1.3583831485782337e-05 0 -2.0357684899036175e-05 -1.1086468962598777e-05 0 -2.1161240298214581e-05 -9.5551665796646291e-06 0 1.5392880623514727e-05 0.00012510326726616463 0 1.5435521236248374e-05 0.00015255840709700233 0 -1.0137663844591369e-06 0.00013471046369898014 0 -4.7329770914190961e-06 -5.9517093724557493e-07 0 -5.1334234140113141e-06 6.0742072968165301e-08 0 -6.5955114842172245e-06 -2.5182675727437588e-07 0 -1.6202545029650222e-05 -1.5479517083386527e-05 0 -1.9315408956806998e-05 -1.4772926034842941e-05 0 -1.8768316565623657e-05 -1.961725599350143e-05 0 -2.1948438460475708e-05 -1.9824744881274715e-05 0 -1.8768316565623657e-05 -1.961725599350143e-05 0 -1.9315408956806998e-05 -1.4772926034842941e-05 0 -3.9838911325165017e-05 -3.8148226602448463e-05 0 -4.0833365700538123e-05 -3.7217257046381026e-05 0 -4.2219829183399246e-05 -3.9648122472433722e-05 0 -4.3069817219609486e-05 -4.1039972741260538e-05 0 -4.2219829183399246e-05 -3.9648122472433722e-05 0 -4.0833365700538123e-05 -3.7217257046381026e-05 0 -2.1357806579588793e-05 -3.2175676467789807e-05 0 -2.3372974931033422e-05 -3.5602798820019662e-05 0 -2.4334921269258723e-05 -3.7928716711648614e-05 0 -2.5837638897033125e-05 -4.0433355879244799e-05 0 -2.4334921269258723e-05 -3.7928716711648614e-05 0 -2.3372974931033422e-05 -3.5602798820019669e-05 0 -6.2849376480453763e-06 5.7056687729244544e-06 0 -5.3334023543233933e-06 4.2196547571741243e-06 0 -7.4927122390551252e-06 3.7512479869088502e-06 0 -1.0413382732106401e-05 -5.1180358233339876e-06 0 -1.5159405172518829e-05 -2.1606429588458489e-07 0 -1.572535278050189e-05 -9.9245289021227465e-06 0 -1.9213861462405155e-05 -6.7502594809644351e-06 0 -1.572535278050189e-05 -9.9245289021227465e-06 0 -1.5159405172518829e-05 -2.1606429588458489e-07 0 -5.615056074992033e-05 -6.3754098307303663e-05 0 -6.4499478263269842e-05 -6.7017685882106507e-05 0 -6.2244677963765323e-05 -7.6149636348384175e-05 0 -2.0586852557888303e-05 -6.3948473771579847e-06 0 -2.4008828389724256e-05 -8.9135424747924315e-06 0 -1.9254854501096575e-05 -6.314539433741848e-06 0 -2.1476104626566399e-05 -8.4107735140717075e-06 0 -1.9254854501096575e-05 -6.314539433741848e-06 0 -2.4008828389724256e-05 -8.9135424747924315e-06 0 -1.8993201613160292e-05 -1.8179143761801217e-05 0 -2.5773884375104058e-05 -1.4899690731752161e-05 0 -2.4214788310528656e-05 -1.3554853418929546e-05 0 -3.8428241288208596e-05 -3.438191410045382e-05 0 -4.0833365700538123e-05 -3.7217257046381026e-05 0 -3.8036689697599101e-05 -3.5784617153837503e-05 0 -2.3441152777891363e-05 -3.3785414992180915e-05 0 -2.5478892643405724e-05 -3.7336082131554612e-05 0 -2.3372974931033422e-05 -3.5602798820019669e-05 0 -5.4198201616901285e-06 1.0986691449051498e-06 0 -5.1171685751534095e-06 1.8557164662304358e-06 0 -4.2276215870735865e-06 1.3322408699036993e-06 0 -3.0648277370401111e-05 -4.4495660763197332e-05 0 -2.9990411593624745e-05 -4.2577360287426252e-05 0 -3.1937570208491416e-05 -4.201884132685324e-05 0 -4.722188552257378e-06 7.6112135144195146e-07 0 -3.4295859332031696e-06 9.6482111389814429e-07 0 -3.1153379808846372e-06 8.65224873804474e-07 0 -2.6570750338226432e-05 -1.4646134907696508e-05 0 -2.4602237507184539e-05 -1.1292741498442354e-05 0 -2.6084731384501885e-05 -1.2373512317297055e-05 0 -1.5412799609427082e-06 1.7973330449736499e-07 0 -2.1587967477870801e-06 5.149110575919148e-07 0 -2.1156192106570754e-06 7.219288635767074e-08 0 -5.2711849854362262e-05 0.00014964033500875637 0 -4.3802471437512677e-05 0.00012817597711739813 0 -3.2411517281861604e-05 0.00014520640372233846 0 -5.4769258474411373e-05 0.00019732156647489537 0 -3.3526588036746538e-05 0.00019764121918037359 0 -4.3098088848630601e-05 0.00021490846889413078 0 -4.7827974622743311e-05 -9.3763050641502307e-05 0 -5.6744398897810519e-05 -9.3596385004850391e-05 0 -5.4074137789492148e-05 -0.00010192629819414433 0 4.9028571468193419e-08 2.7433316624341573e-05 0 -1.031547214513147e-05 9.3060939517714288e-06 0 -1.640941438311047e-06 1.7723363559412654e-06 0 -1.5412799609427082e-06 1.7973330449736499e-07 0 -9.2129076041417065e-07 1.9102367478152579e-07 0 -1.6761700617163864e-06 4.4363061160810809e-07 0 -7.5195725028476168e-05 -7.6989570999941385e-05 0 -7.0187620122279113e-05 -8.3344886075591596e-05 0 -6.2244677963765323e-05 -7.6149636348384175e-05 0 -8.058133435081073e-05 -0.00014941442220950759 0 -7.3314826184385035e-05 -0.00014327056244253688 0 -8.064982767076975e-05 -0.00013855072301905997 0 2.1723124829605075e-06 0.00031031552402724307 0 -1.0755116876255037e-05 0.00030244587562647214 0 5.0597383750971191e-06 0.0002877730314259711 0 2.1723124829605075e-06 0.00031031552402724307 0 -1.8580830667596362e-05 0.00031632853012201643 0 -1.0755116876255039e-05 0.00030244587562647214 0 -2.4804056945542193e-05 -0.00014422634755883594 0 -2.9630490921963223e-05 -0.00014154927325719886 0 -3.2734328349519092e-05 -0.00014732573828492792 0 -0.00013437956626998051 0.00032101934717838378 0 -0.0001344829450435125 0.00029607494564237778 0 -0.00011770088006343355 0.00030689814216457406 0 -8.058133435081073e-05 -0.00014941442220950759 0 -6.9729814565176171e-05 -0.00014933415629969347 0 -7.3314826184385035e-05 -0.00014327056244253688 0 -2.4804056945542193e-05 -0.00014422634755883594 0 -2.3109550656280321e-05 -0.00013463115305569485 0 -2.9630490921963223e-05 -0.00014154927325719886 0 -0.00013437956626998051 0.00032101934717838378 0 -0.00011770088006343355 0.00030689814216457406 0 -0.00010943780005914466 0.00032089773895684141 0 -1.1083784770467879e-09 -4.5153258752280805e-11 0 -9.2129076041417065e-07 1.9102367478152579e-07 0 -7.4793308882173115e-07 -1.8213104777148606e-08 0 -3.0148284368463361e-05 -2.1950128182283694e-05 0 -2.7912845049228296e-05 -2.2176374835435554e-05 0 -2.7635258064629289e-05 -1.820676366979798e-05 0 -2.1476104626566399e-05 -8.4107735140717075e-06 0 -2.5513693641367717e-05 -1.1295660486189929e-05 0 -2.1161240298214581e-05 -9.5551665796646291e-06 0 -5.615056074992033e-05 -6.3754098307303663e-05 0 -5.2572810372362331e-05 -7.0745019401412064e-05 0 -4.8471479459722878e-05 -6.2633384739435198e-05 0 -4.0576678566826954e-06 5.7584068789433916e-07 0 -6.0869885241917689e-06 1.0815921562602495e-06 0 -5.1334234140113141e-06 6.0742072968165301e-08 0 -5.9469858221323925e-05 0.00023058414005025323 0 -7.6705361332699782e-05 0.00024687233008044689 0 -7.7035473082340443e-05 0.000222079359240911 0 -4.8136531137419963e-05 -0.00010864827221239512 0 -4.2143939148953828e-05 -0.00011587677944521815 0 -4.0463682668647667e-05 -0.00010438887073393488 0 -4.0843928417003956e-05 -3.5416210830616909e-05 0 -4.2090935380369113e-05 -3.8495400066042221e-05 0 -4.0106446072920062e-05 -3.5172826307029651e-05 0 -1.6883826052306982e-05 -2.4790331930704431e-05 0 -2.0489033963784625e-05 -3.0214258329258334e-05 0 -1.9243057796590968e-05 -2.8609471934639195e-05 0 -5.5507823600147484e-06 -7.5686730171315526e-06 0 -1.1501276691608184e-05 -1.2523201245234177e-05 0 -9.0677125920720956e-06 -1.3143161547328077e-05 0 -2.5448791500252419e-05 -1.3583831485782337e-05 0 -2.1161240298214581e-05 -9.5551665796646291e-06 0 -2.5513693641367717e-05 -1.1295660486189929e-05 0 -3.7255836957674459e-05 -2.7175206664214049e-05 0 -3.9324914612518708e-05 -3.1553767592362455e-05 0 -3.64238989909701e-05 -2.803462861278971e-05 0 -1.1877503893154385e-05 -1.732179988218834e-05 0 -1.5946222096973004e-05 -2.1923066116329327e-05 0 -1.4536284529989545e-05 -2.1119518916115175e-05 0 -4.1133388894661876e-05 -5.4486345938703525e-05 0 -3.5125307384260006e-05 -5.7867725246941773e-05 0 -3.4165890714064038e-05 -4.6536764702054855e-05 0 -3.6969735286343549e-06 1.753746980375359e-06 0 -3.2374040349871722e-06 1.2450755888648428e-06 0 -4.2276215870735865e-06 1.3322408699036993e-06 0 -3.2601316457409433e-05 -9.9160913887326769e-05 0 -3.8951729617216972e-05 -9.1547614661214785e-05 0 -4.0463682668647667e-05 -0.00010438887073393488 0 -9.5105021206938852e-05 0.0002140450999254765 0 -7.5676714806806423e-05 0.00019768481745022622 0 -7.7035473082340443e-05 0.000222079359240911 0 -1.8641138547603477e-05 -2.2882268739931373e-05 0 -1.4626978084115063e-05 -1.824469568490037e-05 0 -1.8768316565623657e-05 -1.961725599350143e-05 0 -1.6202545029650222e-05 -1.5479517083386527e-05 0 -1.8768316565623657e-05 -1.961725599350143e-05 0 -1.4626978084115063e-05 -1.824469568490037e-05 0 -7.3286480614527884e-06 -2.5432880797631769e-07 0 -6.995728481035755e-06 -1.3763370923665998e-07 0 -9.2504837183452178e-06 -1.1146380499367582e-06 0 -2.7955816519317612e-05 -2.181408301514342e-05 0 -2.3064349582436456e-05 -1.8517171983319e-05 0 -2.4076143235838109e-05 -1.5599593276449904e-05 0 -2.6362421543200234e-05 -4.6227166231817675e-05 0 -1.9553227247883147e-05 -4.089781171389308e-05 0 -2.3259028266894432e-05 -3.182553437805596e-05 0 -2.5919060040138087e-05 -1.8079102983021485e-05 0 -2.7635258064629289e-05 -1.820676366979798e-05 0 -2.7912845049228296e-05 -2.2176374835435554e-05 0 -1.4956230613693889e-05 -3.3536526314019668e-05 0 -1.9553227247883147e-05 -4.089781171389308e-05 0 -1.3513001346467314e-05 -4.5438659152341536e-05 0 -1.8535395100159706e-05 -2.635571803083546e-05 0 -2.041561017302557e-05 -2.6375070672904826e-05 0 -2.2225102693272676e-05 -3.0605202487940365e-05 0 -2.3598358361472377e-05 -2.927169647266539e-05 0 -2.2225102693272676e-05 -3.0605202487940365e-05 0 -2.041561017302557e-05 -2.6375070672904826e-05 0 -9.4761842923641642e-06 -1.4516591192406493e-06 0 -1.2263856572274859e-05 -2.8003454888917431e-06 0 -1.2698732232689952e-05 -2.6022901519706036e-06 0 -1.3753886508741121e-05 -4.5293428746143745e-06 0 -1.6041778493930322e-05 -5.8854723451749112e-06 0 -1.3330941192718478e-05 -2.6712343800808511e-06 0 -1.5993956884632834e-05 -3.3648403991977454e-06 0 -1.3330941192718478e-05 -2.6712343800808511e-06 0 -1.6041778493930322e-05 -5.8854723451749112e-06 0 -6.6054633474247326e-06 1.4644123691793992e-05 0 -1.0671696555972203e-05 1.1463400701349189e-05 0 -6.8565746508578706e-06 1.8669857259185304e-05 0 -1.2478721841548963e-05 8.6805909339485892e-06 0 -6.8565746508578706e-06 1.8669857259185304e-05 0 -1.0671696555972203e-05 1.1463400701349189e-05 0 1.5435521236248374e-05 0.00015255840709700236 0 1.4650839344263819e-05 0.00018015551491953977 0 -5.6403616111548673e-06 0.00016930533334524989 0 -8.9708499289230622e-06 8.4458533129584956e-06 0 -6.4652966497633374e-06 7.7310050067505558e-06 0 -8.1992752826768593e-06 6.0751648441999132e-06 0 -7.5195725028476168e-05 -7.6989570999941385e-05 0 -7.7869141090258735e-05 -8.9771610020302275e-05 0 -7.0187620122279113e-05 -8.3344886075591596e-05 0 -8.8279869937251751e-06 -8.4340687544145028e-07 0 -9.2504837183452178e-06 -1.1146380499367582e-06 0 -6.995728481035755e-06 -1.3763370923665998e-07 0 -1.2060600583029177e-05 4.65224107959397e-07 0 -9.3577002282984527e-06 4.4771069843447036e-08 0 -8.0164292513884463e-06 -5.1690517590701252e-07 0 -9.4761842923641642e-06 -1.4516591192406493e-06 0 -6.5278197459625288e-06 -5.0063684096699318e-07 0 -7.2092561799894058e-06 -1.0248462752336548e-06 0 -5.2701373519366391e-06 2.3568472054593143e-06 0 -3.789780096959338e-06 1.7600063100409868e-06 0 -4.5550884806635982e-06 3.3756350614618671e-06 0 -5.3220808023447872e-06 -2.872003701203326e-06 0 -4.3777453979338029e-06 -1.4742164328562092e-06 0 -2.2246788933336277e-06 -9.4828662264508669e-07 0 -3.2822792138651763e-09 2.7226212968946453e-10 0 -2.2246788933336277e-06 -9.4828662264508669e-07 0 -4.3777453979338029e-06 -1.4742164328562092e-06 0 -7.1292914162272647e-06 3.2589397043148365e-06 0 -3.0044149656829203e-06 9.5762346164989686e-07 0 -6.017528029413327e-06 1.2355101493429598e-06 0 -4.5943931675814345e-09 -6.2167565732753885e-10 0 -6.017528029413327e-06 1.2355101493429598e-06 0 -3.0044149656829203e-06 9.5762346164989686e-07 0 -2.7955816519317612e-05 -2.181408301514342e-05 0 -3.4040240415131724e-05 -2.5435036412671028e-05 0 -3.2784129846484954e-05 -3.0002899033467499e-05 0 -1.5412799609427082e-06 1.7973330449736499e-07 0 -1.6761700617163864e-06 4.4363061160810809e-07 0 -2.1587967477870801e-06 5.149110575919148e-07 0 -2.0958352621706342e-05 0.00012612363599872047 0 -2.4279086715744703e-06 0.0001168389632629009 0 -1.0137663844591369e-06 0.00013471046369898014 0 -2.1991291637341961e-05 3.3231791262383476e-05 0 -2.4455787714797587e-05 2.4819479070304268e-05 0 -1.5915524845103937e-05 2.2131559454203645e-05 0 -8.9708499289230622e-06 8.4458533129584956e-06 0 -6.8023564333565569e-06 1.0790307083929332e-05 0 -6.4652966497633374e-06 7.7310050067505558e-06 0 -3.0052094288946401e-05 -3.6098386237085384e-05 0 -2.757633463469563e-05 -2.6444070279230629e-05 0 -3.2784129846484954e-05 -3.0002899033467499e-05 0 -8.5047041255373562e-05 0.00032044857844264717 0 -0.00010943780005914466 0.00032089773895684141 0 -9.7079930828277084e-05 0.00030814416875456473 0 -4.0816214056130592e-05 -0.00014847739754457294 0 -3.2734328349519092e-05 -0.00014732573828492792 0 -3.6607111569638419e-05 -0.0001433665096974209 0 -1.8580830667596362e-05 0.00031632853012201643 0 -3.9627904711265416e-05 0.00031889738799183745 0 -2.8704341227045695e-05 0.00030643054250963027 0 -6.9729814565176171e-05 -0.00014933415629969347 0 -5.9277715818159299e-05 -0.00014907510603942022 0 -6.439414437808488e-05 -0.00014380348549642926 0 -3.5466203843681168e-05 -3.5397983542755378e-05 0 -3.8036689697599101e-05 -3.5784617153837503e-05 0 -3.6582771860153215e-05 -3.7474389716817337e-05 0 -2.7311500493547028e-05 -3.7657155978425267e-05 0 -2.7212715931351102e-05 -4.0798318382264778e-05 0 -2.5478892643405724e-05 -3.7336082131554612e-05 0 -6.2060839143217635e-09 -2.653053058865124e-09 0 -2.2246788933336281e-06 -9.482866226450869e-07 0 -3.2822792138651763e-09 2.7226212968946453e-10 0 -7.9598692607155742e-09 3.3943379650012755e-09 0 -4.5943931675814345e-09 -6.2167565732753885e-10 0 -3.0044149656829203e-06 9.5762346164989686e-07 0 -7.9598692607155742e-09 3.3943379650012755e-09 0 -3.0044149656829203e-06 9.5762346164989686e-07 0 -7.1292914162272647e-06 3.2589397043148365e-06 0 -6.2060839143217635e-09 -2.653053058865124e-09 0 -5.3220808023447872e-06 -2.872003701203326e-06 0 -2.2246788933336277e-06 -9.4828662264508669e-07 0 -2.8622293750740849e-05 -6.072104576485663e-05 0 -3.5125307384260006e-05 -5.7867725246941766e-05 0 -3.6402683142986978e-05 -7.0082774613672234e-05 0 -1.1583610308133204e-05 -2.5111576151514964e-06 0 -1.427731999799629e-05 -4.1187221598847467e-06 0 -1.2832086558599818e-05 -3.7917155839018529e-06 0 -2.6570750338226432e-05 -1.4646134907696508e-05 0 -2.7635258064629289e-05 -1.820676366979798e-05 0 -2.5253971849219207e-05 -1.427536592144139e-05 0 -2.5919060040138087e-05 -1.8079102983021485e-05 0 -2.5253971849219207e-05 -1.427536592144139e-05 0 -2.7635258064629289e-05 -1.820676366979798e-05 0 -7.3286480614527884e-06 -2.5432880797631769e-07 0 -9.6965171952226333e-06 -1.5343846578482554e-06 0 -7.975804501110853e-06 -5.9030726213292749e-07 0 -3.511081963049424e-06 1.1057029373285167e-06 0 -3.4295859332031696e-06 9.6482111389814429e-07 0 -4.8912443728243446e-06 9.2268934512259168e-07 0 -4.722188552257378e-06 7.6112135144195146e-07 0 -4.8912443728243446e-06 9.2268934512259168e-07 0 -3.4295859332031696e-06 9.6482111389814429e-07 0 -1.2478721841548963e-05 8.6805909339485892e-06 0 -1.031547214513147e-05 9.3060939517714288e-06 0 -6.8565746508578706e-06 1.8669857259185304e-05 0 4.9028571468193419e-08 2.7433316624341573e-05 0 -6.8565746508578698e-06 1.8669857259185307e-05 0 -1.031547214513147e-05 9.3060939517714288e-06 0 -3.8719535997626057e-05 -3.0611940906192114e-05 0 -3.2784129846484954e-05 -3.0002899033467499e-05 0 -3.4040240415131724e-05 -2.5435036412671028e-05 0 -1.8641138547603477e-05 -2.2882268739931373e-05 0 -2.041561017302557e-05 -2.6375070672904826e-05 0 -1.5946222096973004e-05 -2.1923066116329327e-05 0 -3.4238851565340297e-05 -2.5616796349593222e-05 0 -3.64238989909701e-05 -2.803462861278971e-05 0 -3.5276606283669718e-05 -2.8151014749052937e-05 0 -5.4198201616901285e-06 1.0986691449051498e-06 0 -6.3679486769191676e-06 1.2834025805545517e-06 0 -5.1171685751534103e-06 1.8557164662304356e-06 0 -2.4096302721096038e-05 0.0002146618870756981 0 -3.1793143976611213e-06 0.00020308284066656624 0 -5.8202077890052448e-06 0.00022183091805632387 0 -6.2470980437057594e-05 -0.00010253918389075057 0 -7.139651753739367e-05 -9.8245189825363414e-05 0 -7.1459770993386045e-05 -0.0001071207155466178 0 -1.8993201613160292e-05 -1.8179143761801217e-05 0 -1.8300910874554586e-05 -1.3543188737509068e-05 0 -1.9067259775373144e-05 -1.5543068277101343e-05 0 -1.6202545029650222e-05 -1.5479517083386527e-05 0 -1.1501276691608184e-05 -1.2523201245234177e-05 0 -1.572535278050189e-05 -9.9245289021227465e-06 0 -9.5105021206938852e-05 0.0002140450999254765 0 -0.00011033641905711042 0.0001996907126868021 0 -9.1925417166266007e-05 0.00019141994283157455 0 -3.2601316457409433e-05 -9.9160913887326769e-05 0 -2.5105410209794316e-05 -9.0926474374504132e-05 0 -3.1766352457193436e-05 -8.8236814328223668e-05 0 -2.8622293750740849e-05 -6.072104576485663e-05 0 -2.9983416290500492e-05 -7.1343618706218946e-05 0 -2.2731705601733095e-05 -6.6533330432715052e-05 0 -3.3913307654250429e-05 -3.2682797728405234e-05 0 -3.3326080400506828e-05 -3.470038143577226e-05 0 -3.154675490787416e-05 -3.2492814943217774e-05 0 -2.3441152777891363e-05 -3.3785414992180915e-05 0 -2.0489033963784625e-05 -3.0214258329258334e-05 0 -2.2225102693272676e-05 -3.0605202487940365e-05 0 -9.8172792195888828e-06 3.8531982036408873e-06 0 -7.6791453316120881e-06 2.224898152764455e-06 0 -7.2014976574068755e-06 4.2222214983838904e-06 0 -3.1200634820756922e-05 -3.9745971515536435e-05 0 -2.9274284075979802e-05 -4.0145061712392096e-05 0 -2.9761572804339349e-05 -3.7079382669021791e-05 0 -8.8279869937251751e-06 -8.4340687544145028e-07 0 -6.995728481035755e-06 -1.3763370923665998e-07 0 -6.8042162637199986e-06 -1.4114759089846654e-07 0 -5.2945390473010175e-06 3.2553837053481883e-07 0 -6.8042162637199986e-06 -1.4114759089846654e-07 0 -6.995728481035755e-06 -1.3763370923665998e-07 0 -1.0268756332439112e-05 -2.0759720217642968e-07 0 -1.1748496072719556e-05 -2.3500999061175136e-06 0 -1.3330941192718478e-05 -2.6712343800808511e-06 0 -2.7955816519317612e-05 -2.181408301514342e-05 0 -3.2784129846484954e-05 -3.0002899033467499e-05 0 -2.757633463469563e-05 -2.6444070279230629e-05 0 -7.3286480614527884e-06 -2.5432880797631769e-07 0 -7.975804501110853e-06 -5.9030726213292749e-07 0 -6.0100184353642717e-06 2.7660166202057376e-07 0 -6.8961176866102431e-06 2.3194627223783193e-08 0 -6.0100184353642717e-06 2.7660166202057376e-07 0 -7.975804501110853e-06 -5.9030726213292749e-07 0 -9.6965171952226333e-06 -1.5343846578482554e-06 0 -9.0292473603931306e-06 -1.2304971770147402e-06 0 -7.975804501110853e-06 -5.9030726213292749e-07 0 -3.4513771927153803e-05 -3.963441122327629e-05 0 -3.6582771860153215e-05 -3.7474389716817337e-05 0 -3.7833081774432402e-05 -4.0023680905238185e-05 0 -3.9838911325165017e-05 -3.8148226602448463e-05 0 -3.7833081774432402e-05 -4.0023680905238185e-05 0 -3.6582771860153215e-05 -3.7474389716817337e-05 0 -2.5837638897033125e-05 -4.0433355879244799e-05 0 -2.7212715931351102e-05 -4.0798318382264778e-05 0 -2.7251382240518209e-05 -4.3879082506234461e-05 0 -2.8396117515238165e-05 -4.2376571788534295e-05 0 -2.7251382240518209e-05 -4.3879082506234461e-05 0 -2.7212715931351102e-05 -4.0798318382264778e-05 0 -1.2478721841548963e-05 8.6805909339485892e-06 0 -1.5159405172518829e-05 -2.1606429588458494e-07 0 -1.031547214513147e-05 9.3060939517714288e-06 0 -1.9930555446309448e-05 0.00029087632208096766 0 -2.8704341227045695e-05 0.00030643054250963027 0 -4.1105990261121577e-05 0.00029764097373280088 0 -6.8337517010926943e-05 -0.00013719556297147521 0 -6.439414437808488e-05 -0.00014380348549642926 0 -5.8356404318078287e-05 -0.00013948414952352073 0 -3.3113036354122918e-05 -0.00013655467611174842 0 -4.1404705317603908e-05 -0.0001395822566469896 0 -3.6607111569638419e-05 -0.0001433665096974209 0 -0.00010632433469850587 0.00029302147835423261 0 -8.2898034514863154e-05 0.00029810019103081772 0 -9.7079930828277084e-05 0.00030814416875456473 0 -9.5105021206938852e-05 0.0002140450999254765 0 -9.1925417166266007e-05 0.00019141994283157455 0 -7.5676714806806423e-05 0.00019768481745022622 0 -3.2601316457409433e-05 -9.9160913887326769e-05 0 -3.1766352457193436e-05 -8.8236814328223668e-05 0 -3.8951729617216972e-05 -9.1547614661214785e-05 0 -2.8622293750740849e-05 -6.072104576485663e-05 0 -3.6402683142986978e-05 -7.0082774613672234e-05 0 -2.9983416290500492e-05 -7.1343618706218946e-05 0 -1.3753886508741121e-05 -4.5293428746143745e-06 0 -1.3330941192718478e-05 -2.6712343800808511e-06 0 -1.1748496072719556e-05 -2.3500999061175136e-06 0 -3.9627904711265416e-05 0.00031889738799183745 0 -4.1105990261121577e-05 0.00029764097373280088 0 -2.8704341227045695e-05 0.00030643054250963027 0 -5.9277715818159299e-05 -0.00014907510603942022 0 -5.8356404318078287e-05 -0.00013948414952352073 0 -6.439414437808488e-05 -0.00014380348549642926 0 -8.5047041255373562e-05 0.00032044857844264717 0 -9.7079930828277084e-05 0.00030814416875456473 0 -8.2898034514863154e-05 0.00029810019103081772 0 -4.0816214056130592e-05 -0.00014847739754457294 0 -3.6607111569638419e-05 -0.0001433665096974209 0 -4.1404705317603908e-05 -0.0001395822566469896 0 -3.1413404910131837e-05 -3.5002392100452755e-05 0 -3.154675490787416e-05 -3.2492814943217774e-05 0 -3.3326080400506828e-05 -3.470038143577226e-05 0 -1.4956230613693889e-05 -3.3536526314019668e-05 0 -2.3259028266894432e-05 -3.182553437805596e-05 0 -1.9553227247883147e-05 -4.089781171389308e-05 0 -4.4093562296229191e-05 -4.3138718989940263e-05 0 -4.2214492911687994e-05 -4.063432637180376e-05 0 -4.2219829183399246e-05 -3.9648122472433722e-05 0 -2.3660030133591308e-05 -3.5547415223789248e-05 0 -2.4334921269258723e-05 -3.7928716711648614e-05 0 -2.5964313859246228e-05 -4.1458570861751582e-05 0 -3.511081963049424e-06 1.1057029373285167e-06 0 -2.5130043775969651e-06 8.7224749856243879e-07 0 -3.4295859332031696e-06 9.6482111389814429e-07 0 -0.00010277354147032931 0.0001733996002758704 0 -0.00010396572410204965 0.0001480972854190114 0 -8.6671623160635436e-05 0.00015265527395063062 0 -8.4534521582078337e-05 0.00013301588874237611 0 -8.6671623160635436e-05 0.00015265527395063062 0 -0.00010396572410204965 0.0001480972854190114 0 -2.9347608819116505e-05 -2.9875758602897264e-05 0 -3.1794997998189834e-05 -2.9802161992314575e-05 0 -3.154675490787416e-05 -3.2492814943217774e-05 0 -8.7817291068780856e-06 -7.8782571163821157e-07 0 -9.0292473603931306e-06 -1.2304971770147402e-06 0 -1.0442675841241333e-05 -2.2981542740480045e-06 0 -2.6570750338226432e-05 -1.4646134907696508e-05 0 -2.5253971849219207e-05 -1.427536592144139e-05 0 -2.4602237507184539e-05 -1.1292741498442355e-05 0 -2.3088120546444053e-05 -9.7339330892065898e-06 0 -2.4602237507184539e-05 -1.1292741498442355e-05 0 -2.5253971849219207e-05 -1.427536592144139e-05 0 -7.6147057372399909e-05 0.00017241074715509196 0 -7.5676714806806423e-05 0.00019768481745022622 0 -9.1925417166266007e-05 0.00019141994283157455 0 -3.5997736024776542e-05 -8.0255422904124111e-05 0 -3.8951729617216972e-05 -9.1547614661214785e-05 0 -3.1766352457193436e-05 -8.8236814328223668e-05 0 -3.5997736024776542e-05 -8.0255422904124111e-05 0 -2.9983416290500492e-05 -7.1343618706218946e-05 0 -3.6402683142986978e-05 -7.0082774613672234e-05 0 -6.248154245465147e-06 -1.3371234980202201e-06 0 -9.4782383626594306e-06 -2.0920697639565619e-06 0 -7.2092561799894058e-06 -1.0248462752336548e-06 0 -8.4336127981612159e-06 6.2672221436530951e-07 0 -9.3577002282984527e-06 4.4771069843447036e-08 0 -1.2849097621389583e-05 1.2620354068845026e-06 0 -1.7355723022939861e-05 3.0547526631730347e-06 0 -1.2849097621389583e-05 1.2620354068845026e-06 0 -1.6499432535450693e-05 2.0358131037880069e-06 0 -1.243764175029523e-05 -3.5148051014965798e-06 0 -1.2263856572274859e-05 -2.8003454888917431e-06 0 -9.4782383626594306e-06 -2.0920697639565615e-06 0 -1.1669571733836979e-05 -3.1255036906923792e-06 0 -1.1748496072719556e-05 -2.3500999061175136e-06 0 -1.0002225187197923e-05 -1.2026528517832907e-06 0 -0.00010277354147032931 0.0001733996002758704 0 -9.1925417166266007e-05 0.00019141994283157455 0 -0.00011033641905711042 0.0001996907126868021 0 -2.5799812959367035e-05 -7.8948727979891636e-05 0 -3.1766352457193436e-05 -8.8236814328223668e-05 0 -2.5105410209794316e-05 -9.0926474374504132e-05 0 -2.5799812959367035e-05 -7.8948727979891636e-05 0 -2.2731705601733095e-05 -6.6533330432715052e-05 0 -2.9983416290500492e-05 -7.1343618706218946e-05 0 -4.1133388894661876e-05 -5.4486345938703525e-05 0 -4.8406892710168717e-05 -5.4549587945227323e-05 0 -4.8471479459722878e-05 -6.2633384739435198e-05 0 -3.3913307654250429e-05 -3.2682797728405234e-05 0 -3.154675490787416e-05 -3.2492814943217774e-05 0 -3.1794997998189834e-05 -2.9802161992314575e-05 0 -9.8172792195888828e-06 3.8531982036408873e-06 0 -1.0460966117197282e-05 6.5183045283844253e-06 0 -1.3669678875221618e-05 5.3875520886619907e-06 0 -1.4341656003501263e-05 -6.6052474695410491e-06 0 -1.2419850823504851e-05 -4.1770744029564174e-06 0 -1.3990547665220477e-05 -5.529732060694365e-06 0 -9.4761842923641642e-06 -1.4516591192406493e-06 0 -1.2698732232689952e-05 -2.6022901519706041e-06 0 -1.0545813442113201e-05 -1.574389194859141e-06 0 -7.6319060419121541e-05 9.1224922848704036e-05 0 -6.3029685558860761e-05 9.2773594019744527e-05 0 -7.3053693723787596e-05 0.00011235815701213651 0 -5.0063509179826569e-05 -4.5246652708064694e-05 0 -4.8406892710168717e-05 -5.4549587945227323e-05 0 -4.4335965819545266e-05 -4.6142484320776504e-05 0 -2.4096302721096038e-05 0.0002146618870756981 0 -4.3098088848630601e-05 0.00021490846889413078 0 -3.3526588036746545e-05 0.00019764121918037359 0 -6.2470980437057594e-05 -0.00010253918389075057 0 -5.4074137789492148e-05 -0.00010192629819414433 0 -5.6744398897810519e-05 -9.3596385004850391e-05 0 -2.0958352621706342e-05 0.00012612363599872047 0 -3.2411517281861604e-05 0.00014520640372233846 0 -4.3802471437512677e-05 0.00012817597711739813 0 -1.532577751275405e-05 -4.1694936991313695e-06 0 -1.6716475412566448e-05 -4.5705862051682535e-06 0 -1.9254854501096575e-05 -6.314539433741848e-06 0 -1.136014505032491e-05 -3.022322535771749e-06 0 -1.0442675841241333e-05 -2.2981542740480045e-06 0 -9.0292473603931306e-06 -1.2304971770147402e-06 0 -4.4425243761727399e-05 -7.0109071440228193e-05 0 -4.8471479459722878e-05 -6.2633384739435198e-05 0 -5.2572810372362331e-05 -7.0745019401412064e-05 0 -3.9838911325165017e-05 -3.8148226602448463e-05 0 -4.2219829183399246e-05 -3.9648122472433722e-05 0 -4.2214492911687994e-05 -4.063432637180376e-05 0 -2.5837638897033125e-05 -4.0433355879244799e-05 0 -2.5964313859246228e-05 -4.1458570861751582e-05 0 -2.4334921269258723e-05 -3.7928716711648614e-05 0 -6.8961176866102431e-06 2.3194627223783193e-08 0 -7.975804501110853e-06 -5.9030726213292749e-07 0 -9.0292473603931306e-06 -1.2304971770147402e-06 0 -0.00010943780005914466 0.00032089773895684141 0 -0.00011770088006343355 0.00030689814216457406 0 -9.7079930828277084e-05 0.00030814416875456473 0 -0.00010632433469850587 0.00029302147835423261 0 -9.7079930828277084e-05 0.00030814416875456473 0 -0.00011770088006343355 0.00030689814216457406 0 -3.3113036354122918e-05 -0.00013655467611174842 0 -3.6607111569638419e-05 -0.0001433665096974209 0 -2.9630490921963223e-05 -0.00014154927325719886 0 -3.2734328349519092e-05 -0.00014732573828492792 0 -2.9630490921963223e-05 -0.00014154927325719886 0 -3.6607111569638419e-05 -0.0001433665096974209 0 -1.8580830667596362e-05 0.00031632853012201643 0 -2.8704341227045695e-05 0.00030643054250963027 0 -1.0755116876255039e-05 0.00030244587562647214 0 -6.9729814565176171e-05 -0.00014933415629969347 0 -6.439414437808488e-05 -0.00014380348549642926 0 -7.3314826184385035e-05 -0.00014327056244253688 0 -1.9930555446309448e-05 0.00029087632208096766 0 -1.0755116876255039e-05 0.00030244587562647214 0 -2.8704341227045695e-05 0.00030643054250963027 0 -6.8337517010926943e-05 -0.00013719556297147521 0 -7.3314826184385035e-05 -0.00014327056244253688 0 -6.439414437808488e-05 -0.00014380348549642926 0 -2.9347608819116505e-05 -2.9875758602897264e-05 0 -3.154675490787416e-05 -3.2492814943217774e-05 0 -2.940350413696815e-05 -3.2875841255732447e-05 0 -3.4444673794063314e-05 -2.9558236277989945e-05 0 -3.2872884648718707e-05 -2.5763857120495066e-05 0 -3.5276606283669718e-05 -2.8151014749052937e-05 0 -3.4238851565340297e-05 -2.5616796349593222e-05 0 -3.5276606283669718e-05 -2.8151014749052937e-05 0 -3.2872884648718707e-05 -2.5763857120495066e-05 0 -3.1413404910131837e-05 -3.5002392100452755e-05 0 -3.3326080400506828e-05 -3.470038143577226e-05 0 -3.3261396093580433e-05 -3.7067487468850078e-05 0 -3.5466203843681168e-05 -3.5397983542755378e-05 0 -3.3261396093580433e-05 -3.7067487468850078e-05 0 -3.3326080400506828e-05 -3.470038143577226e-05 0 -6.6054633474247326e-06 1.4644123691793992e-05 0 -9.0648695298646116e-06 1.0652011117231329e-05 0 -1.0671696555972203e-05 1.1463400701349189e-05 0 -1.5345192206386454e-05 9.6586457115469432e-06 0 -2.1837662400105349e-05 1.3367160023988238e-05 0 -1.9423800647963239e-05 8.168353642003094e-06 0 -2.6630068792778783e-05 1.1726007150929094e-05 0 -1.9423800647963239e-05 8.168353642003094e-06 0 -2.1837662400105349e-05 1.3367160023988238e-05 0 -1.532577751275405e-05 -4.1694936991313695e-06 0 -1.7856890911157198e-05 -6.4293478249932235e-06 0 -1.427731999799629e-05 -4.1187221598847467e-06 0 -7.6319060419121541e-05 9.1224922848704036e-05 0 -6.2381921398328076e-05 7.5796301521358883e-05 0 -6.3029685558860761e-05 9.2773594019744527e-05 0 -4.8750792798779092e-05 7.8509348886516834e-05 0 -6.3029685558860761e-05 9.2773594019744527e-05 0 -6.2381921398328076e-05 7.5796301521358883e-05 0 -8.9708499289230622e-06 8.4458533129584956e-06 0 -9.0648695298646116e-06 1.0652011117231329e-05 0 -6.8023564333565569e-06 1.0790307083929332e-05 0 -2.3598358361472377e-05 -2.927169647266539e-05 0 -2.4971728623694632e-05 -3.3227316589878247e-05 0 -2.2225102693272676e-05 -3.0605202487940365e-05 0 -2.3441152777891363e-05 -3.3785414992180915e-05 0 -2.2225102693272676e-05 -3.0605202487940365e-05 0 -2.4971728623694632e-05 -3.3227316589878247e-05 0 -5.7211626071884097e-06 9.3681356113704887e-06 0 -6.8023564333565569e-06 1.0790307083929332e-05 0 -5.7842181754302631e-06 1.3063138211901525e-05 0 -3.7777893623945262e-05 -3.9837278697742664e-05 0 -4.3627735086345568e-05 -3.8807323534272035e-05 0 -4.4335965819545266e-05 -4.6142484320776504e-05 0 -5.0063509179826569e-05 -4.5246652708064694e-05 0 -4.4335965819545266e-05 -4.6142484320776504e-05 0 -4.3627735086345568e-05 -3.8807323534272035e-05 0 -6.2849376480453763e-06 5.7056687729244544e-06 0 -8.1992752826768593e-06 6.0751648441999132e-06 0 -6.4652966497633374e-06 7.7310050067505558e-06 0 -5.7211626071884097e-06 9.3681356113704887e-06 0 -6.4652966497633374e-06 7.7310050067505558e-06 0 -6.8023564333565569e-06 1.0790307083929332e-05 0 -3.4238851565340297e-05 -2.5616796349593222e-05 0 -3.4504927216412028e-05 -2.4301464015640032e-05 0 -3.64238989909701e-05 -2.803462861278971e-05 0 -1.136014505032491e-05 -3.022322535771749e-06 0 -1.2419850823504851e-05 -4.1770744029564174e-06 0 -1.0442675841241333e-05 -2.2981542740480045e-06 0 -1.1669571733836979e-05 -3.1255036906923792e-06 0 -1.0442675841241333e-05 -2.2981542740480045e-06 0 -1.2419850823504851e-05 -4.1770744029564174e-06 0 -1.0268756332439112e-05 -2.0759720217642968e-07 0 -1.0002225187197923e-05 -1.2026528517832907e-06 0 -1.1748496072719556e-05 -2.3500999061175136e-06 0 1.3128953983362106e-05 0.00020758696455362149 0 -5.8202077890052448e-06 0.00022183091805632387 0 -3.1793143976611213e-06 0.00020308284066656624 0 -7.9574135253285494e-05 -0.00010268163526659564 0 -7.1459770993386032e-05 -0.0001071207155466178 0 -7.139651753739367e-05 -9.8245189825363414e-05 0 -2.0586852557888303e-05 -6.3948473771579847e-06 0 -1.9254854501096575e-05 -6.314539433741848e-06 0 -1.6716475412566448e-05 -4.5705862051682544e-06 0 -1.1923974636972058e-09 1.9905805595865593e-10 0 -8.9385978951790788e-07 4.0531221802663269e-07 0 -7.7140051411344238e-07 3.3510055770698001e-07 0 1.5392880623514727e-05 0.00012510326726616463 0 -1.0137663844591369e-06 0.00013471046369898014 0 -2.4279086715744703e-06 0.0001168389632629009 0 -3.1413404910131837e-05 -3.5002392100452755e-05 0 -2.940350413696815e-05 -3.2875841255732447e-05 0 -3.154675490787416e-05 -3.2492814943217774e-05 0 -1.7059742165040294e-05 4.6629017868972444e-06 0 -1.9423800647963239e-05 8.168353642003094e-06 0 -2.3586938963140758e-05 7.6200870764758981e-06 0 -2.6630068792778783e-05 1.1726007150929094e-05 0 -2.3586938963140758e-05 7.6200870764758981e-06 0 -1.9423800647963239e-05 8.168353642003094e-06 0 -3.7255836957674459e-05 -2.7175206664214049e-05 0 -3.64238989909701e-05 -2.803462861278971e-05 0 -3.4504927216412028e-05 -2.4301464015640032e-05 0 
</DataArray>
</PointData>
<CellData Scalars="region_id,cross_section_updated,displacement_divergence," Vectors="" Tensors="stress,">
<DataArray type="Float64" Name="region_id" format="ascii">
2 2 2 2 2 2 2 2 2 2 3 3 3 3 3 3 3 3 3 3 1 1 1 1 1 1 1 1 1 1 1 1 1 1 1 1 1 1 1 1 1 1 1 1 1 1 1 1 1 1 1 1 1 1 1 1 1 1 1 1 1 1 1 1 1 1 1 1 1 1 1 1 1 1 1 1 1 1 1 1 1 1 1 1 1 1 1 1 1 1 1 1 1 1 1 1 1 1 1 1 1 1 1 1 1 1 1 1 1 1 1 1 1 1 1 1 1 1 1 1 1 1 1 1 1 1 1 1 1 1 1 1 1 1 1 1 1 1 1 1 1 1 1 1 1 1 1 1 1 1 1 1 1 1 1 1 1 1 1 1 1 1 1 1 1 1 1 1 1 1 1 1 1 1 1 1 1 1 1 1 1 1 1 1 1 1 1 1 1 1 1 1 1 1 1 1 1 1 1 1 1 1 1 1 1 1 1 1 1 1 1 1 1 1 1 1 1 1 1 1 1 1 1 1 1 1 1 1 1 1 1 1 1 1 1 1 1 1 1 1 1 1 1 1 1 1 1 1 1 1 1 1 1 1 1 1 1 1 1 1 1 1 1 1 1 1 1 1 1 1 1 1 1 1 1 1 1 1 1 1 1 1 1 1 1 1 1 1 1 1 1 1 1 1 1 1 1 1 1 1 1 1 1 1 1 1 1 1 1 1 1 1 1 1 1 1 1 1 1 1 1 1 1 1 1 1 1 1 1 1 1 1 1 1 1 1 1 1 1 1 1 1 1 1 1 1 1 1 1 1 1 1 1 1 1 1 1 1 1 1 1 1 1 1 1 1 1 1 1 1 1 1 1 1 1 1 1 1 1 1 1 1 1 1 1 1 1 1 1 1 1 1 1 1 1 1 1 1 1 1 1 1 1 1 1 1 1 1 1 1 1 1 1 1 1 1 1 1 1 1 1 1 1 1 1 1 1 1 1 1 1 1 1 1 1 1 1 1 1 1 1 1 1 1 1 1 1 1 1 1 1 1 1 1 1 1 1 1 1 1 1 1 1 1 1 1 1 1 1 1 1 1 1 1 1 1 1 1 1 1 1 1 1 1 1 1 1 1 1 1 1 1 1 1 1 1 1 1 1 1 1 1 1 1 1 1 1 1 1 1 1 1 1 1 1 1 1 1 1 1 1 1 1 1 1 1 1 1 1 1 1 1 1 1 1 1 1 1 1 1 1 1 1 1 1 1 1 1 1 1 1 1 1 1 1 1 1 1 1 1 1 1 1 1 1 1 1 1 1 1 1 1 1 1 1 1 1 1 1 1 1 1 1 1 1 1 1 1 1 1 1 1 1 1 1 1 1 1 1 1 1 1 1 1 1 1 1 1 1 1 1 1 1 1 1 1 1 1 1 1 1 1 1 1 1 1 1 1 1 1 1 1 1 1 1 1 1 1 1 1 1 1 1 1 1 1 1 1 1 1 1 1 1 1 1 1 1 1 1 1 1 1 1 1 1 1 1 1 1 1 1 1 1 1 1 1 1 1 1 1 1 1 1 1 1 1 1 1 1 1 1 1 1 1 1 1 1 1 1 1 1 1 1 1 1 1 1 1 1 1 1 1 1 1 1 1 1 1 1 1 1 1 1 1 1 1 1 1 1 1 1 1 1 1 1 1 1 1 1 1 1 1 1 1 1 1 1 1 1 1 1 1 1 1 1 1 1 1 1 1 1 1 1 1 1 1 1 1 1 1 1 1 1 1 1 1 1 1 1 1 1 1 1 1 1 1 1 1 1 1 1 1 1 1 1 1 1 1 1 1 1 1 1 1 1 1 1 1 1 1 1 1 1 1 1 1 1 1 1 1 1 1 1 1 1 1 1 1 1 1 1 1 1 1 1 1 1 1 1 1 1 1 1 1 1 1 1 1 1 1 1 1 1 1 1 1 1 1 1 1 1 1 1 1 1 1 1 1 1 1 1 1 1 1 1 1 1 1 1 1 1 1 1 1 1 1 1 1 1 1 1 1 1 1 1 1 1 1 1 1 1 1 1 1 1 1 1 1 1 1 1 1 1 1 1 1 1 1 1 1 1 1 1 1 1 1 1 1 1 1 1 1 1 1 1 1 1 1 1 1 1 1 1 1 1 1 1 1 1 1 1 1 1 1 1 1 1 1 1 1 1 1 1 1 1 1 1 1 1 1 1 1 1 1 1 1 1 1 1 1 1 1 1 1 1 1 1 1 1 1 1 1 1 1 1 1 1 1 1 1 1 1 1 1 1 1 1 1 1 1 1 1 1 1 1 1 1 1 1 1 1 1 1 1 1 1 1 1 1 1 1 1 1 1 1 1 1 1 1 1 1 1 1 1 1 1 1 1 1 1 1 1 1 1 
</DataArray>
<DataArray type="Float64" Name="stress" NumberOfComponents="9" format="ascii">
0.0036921134163654269 -0.0022145909550508021 0 -0.0022145909550508021 0.011170350115997811 0 0 0 0.0037156158830908095 0.0091688478353924886 -0.0056178691408883845 0 -0.0056178691408883845 0.027617651597846991 0 0 0 0.0091966248583098716 0.012505812282821259 -0.0076276927403964093 0 -0.0076276927403964093 0.037643831232187223 0 0 0 0.012537410878752125 0.015658135186478548 -0.0088361019516893877 0 -0.0088361019516893877 0.047091685857806098 0 0 0 0.015687455261071161 0.0189393495936735 -0.0094580983155230988 0 -0.0094580983155230988 0.0569230056445445 0 0 0 0.018965588809554509 0.022518053689122235 -0.0096362424112763616 0 -0.0096362424112763616 0.06765565886017047 0 0 0 0.022543428137323178 0.026433766875591441 -0.0094695556413501962 0 -0.0094695556413501962 0.079407871261814644 0 0 0 0.026460409534351519 0.03043306197446894 -0.0091018680828668878 0 -0.0091018680828668878 0.091409757892521884 0 0 0 0.030460704966747704 0.034481835007505575 -0.0086625034985913316 0 -0.0086625034985913316 0.10351725361903537 0 0 0 0.034499772156635244 0.038019101056486052 -0.0082660095733939672 0 -0.0082660095733939672 0.11428219773379407 0 0 0 0.03807532469757003 0.0067614062875649668 0.0013478090776662935 0 0.0013478090776662935 0.020032164281033583 0 0 0 0.0066983926421496365 0.017195150413024902 0.0032462286546919906 0 0.0032462286546919906 0.05164630211497611 0 0 0 0.01721036313200025 0.024346485444262597 0.0044967895021330228 0 0.0044967895021330228 0.073117432623808126 0 0 0 0.024365979517017685 0.030774423697596465 0.0052647304568229046 0 0.0052647304568229046 0.092425244110581062 0 0 0 0.030799916952044381 0.037069657101901382 0.0057467334046390432 0 0.0057467334046390432 0.11133128325125931 0 0 0 0.037100235088290169 0.043311795802127441 0.0060176798018745743 0 0.0060176798018745743 0.1300778866860374 0 0 0 0.043347420622041208 0.049574870599979948 0.0060887404513910465 0 0.0060887404513910465 0.1488763234489372 0 0 0 0.049612798512229286 0.055649045187050029 0.0060418165502647836 0 0.0060418165502647836 0.16718837261493227 0 0 0 0.055709354450495588 0.06170028215501637 0.0058803507920302785 0 0.0058803507920302785 0.18504014985773357 0 0 0 0.06168510800318748 0.06678804550223956 0.005743807193212767 0 0.005743807193212767 0.20150773691281607 0 0 0 0.067073945603763896 -0.04534262434534217 -0.013195433928474484 0 -0.013195433928474484 0.022367748102303492 0 0 0 -0.0057437190607596833 -0.041103597062820747 -0.013556310661610305 0 -0.013556310661610305 0.039284340346844443 0 0 0 -0.00045481417899410209 -0.061317994513147955 -0.0093473444504125619 0 -0.0093473444504125619 0.033955716566461597 0 0 0 -0.0068405694866715966 -0.062616994425029868 -1.1057144876841507e-05 0 -1.1057144876841507e-05 0.035404757796452586 0 0 0 -0.0068030591571442804 -0.13638575742501871 -0.0047580276237285217 0 -0.0047580276237285217 0.0018461372420722211 0 0 0 -0.033634905045736616 -0.09748968138032349 0.00030069870020105367 0 0.00030069870020105367 -5.6745519021049635e-06 0 0 0 -0.024373838983056409 -0.14357750228059044 -0.0022374540881694507 0 -0.0022374540881694507 -0.0012474905775382962 0 0 0 -0.036206248214532187 -0.1008289548172767 -0.00069424057086140442 0 -0.00069424057086140442 -0.0007742876031495427 0 0 0 -0.025400810605106565 -0.11814567042107077 0.0033326901033012696 0 0.0033326901033012696 -0.00042255795955670195 0 0 0 -0.029642057095156837 -0.20321118051381043 -0.0096575376684551323 0 -0.0096575376684551323 -0.00053664396907984746 0 0 0 -0.050936956120722576 -0.018825874918380114 0.0033140562635107151 0 0.0033140562635107151 -0.014590587602813763 0 0 0 -0.0083541156302984684 -0.022831141014674927 0.0041451269787062539 0 0.0041451269787062539 -0.01091900159705974 0 0 0 -0.0084375356529336597 -0.048272129590936443 0.0028838501070828143 0 0.0028838501070828143 -0.0076948407258014152 0 0 0 -0.013991742579184454 -0.047876473654935837 -0.006770365937104398 0 -0.006770365937104398 -0.015962679007273689 0 0 0 -0.015959788165552383 -0.048916221886682341 0.0042241133808258837 0 0.0042241133808258837 -0.016305509677870332 0 0 0 -0.016305432891138172 -0.05926494469939337 -0.016109628345663984 0 -0.016109628345663984 0.022509507527388256 0 0 0 -0.0091888592930012628 0.13344408280899253 0.10398344514302404 0 0.10398344514302404 0.21329298557303555 0 0 0 0.086684267095507 -0.0014951901832516157 -0.011378775584097611 0 -0.011378775584097611 -0.0033434693972673735 0 0 0 -0.0012096648951296363 -0.00054359853825358684 0.0059372991953570153 0 0.0059372991953570153 0.004511210445524938 0 0 0 0.00099190297681817086 -0.00026899038085748117 0.014059017943042635 0 0.014059017943042635 0.005335034917534287 0 0 0 0.0012665111341689794 -0.0001264591276626259 -0.0053819629963952646 0 -0.0053819629963952646 0.00076272376921737717 0 0 0 0.00015906616038874333 -0.011356294230493225 0.021852457489863752 0 0.021852457489863752 -0.00069429299209344819 0 0 0 -0.0030126468056468347 -0.010003279893342321 -0.023549480239117848 0 -0.023549480239117848 -0.0027526861319953078 0 0 0 -0.0031889915063342822 -0.043851208115829862 0.0053691976868868643 0 0.0053691976868868643 -0.0084495082261344633 0 0 0 -0.013075179085491079 0.14550728474522845 -0.0057582742015914457 0 -0.0057582742015914457 0.13148064642474616 0 0 0 0.06924698279249368 -0.22293665960932885 0.01417623524004169 0 0.01417623524004169 0.0068679760310641491 0 0 0 -0.054017170894566258 -0.12233839052547486 -0.0055105179834370405 0 -0.0055105179834370405 0.0026922629553637334 0 0 0 -0.029911531892527821 -0.095222835518553789 -0.020189942583241065 0 -0.020189942583241065 0.016342183136074329 0 0 0 -0.019720163095619886 -0.10711912550276959 0.023972717647926127 0 0.023972717647926127 0.062190383974787933 0 0 0 -0.011232185381995385 -0.11814863787524627 -0.019534804914543083 0 -0.019534804914543083 0.010322817234017373 0 0 0 -0.026956455160307209 -0.051129740310632256 -0.020240681689272802 0 -0.020240681689272802 0.047007344446720833 0 0 0 -0.0010305989659778678 -0.027628108730865575 -0.032169220502078266 0 -0.032169220502078266 0.0025522881169390832 0 0 0 -0.0062689551534816368 -0.031324561005960705 0.041915100720653076 0 0.041915100720653076 -0.00055030863322302892 0 0 0 -0.007968717409796211 -0.029145125962187879 -0.033009667125313835 0 -0.033009667125313835 0.0065103204917482671 0 0 0 -0.0056587013676098197 -0.039580194687459214 0.044499597873691954 0 0.044499597873691954 -0.0032389424945185041 0 0 0 -0.010704784295494596 -0.089351650224510221 -0.027001096868640606 0 -0.027001096868640606 0.0041706219899572683 0 0 0 -0.02129525705863821 -0.02979211937944851 -0.041632356575681706 0 -0.041632356575681706 0.063098708612459142 0 0 0 0.0083266473082526729 -0.1233787007235663 0.013123994138906275 0 0.013123994138906275 0.01609252239248915 0 0 0 -0.026821544582769336 0.25271980496778085 0.12022476672966896 0 0.12022476672966896 0.070975819122440775 0 0 0 0.080923906022555392 -0.0022869603498295588 0.0079235930820047429 0 0.0079235930820047429 0.011423567156217951 0 0 0 0.0022841517015971258 -0.0048765078303679155 -0.0086832034410316908 0 -0.0086832034410316908 0.042367570201467641 0 0 0 0.0093727655927750009 -0.044830422063102254 -0.020668988762562904 0 -0.020668988762562904 0.077787701178943902 0 0 0 0.0082393197789604068 -0.0033702453317721037 -0.021597998771678117 0 -0.021597998771678117 0.062393494256950621 0 0 0 0.01475581223129474 -0.0073261606927723655 0.0038185156743324455 0 0.0038185156743324455 -0.0028076318931216093 0 0 0 -0.0025334481464733827 -0.034656779237328197 -0.0055442607399066608 0 -0.0055442607399066608 -0.017588583731666569 0 0 0 -0.013061340742248691 -0.038260853938316741 0.0066241503767057626 0 0.0066241503767057626 -0.012774862031562036 0 0 0 -0.012758928992469694 -0.070574130654585857 0.065271832079626835 0 0.065271832079626835 0.063829074534001329 0 0 0 -0.0016862640301461701 -0.064347930622186925 0.058252180374037565 0 0.058252180374037565 0.044313023469316148 0 0 0 -0.0050087267882176351 0.11523925459489585 0.14378852251239366 0 0.14378852251239366 0.24508633061036517 0 0 0 0.090081396301315272 -0.011705821526375927 0.0078924614359965339 0 0.0078924614359965339 0.00064114757707101067 0 0 0 -0.0027661684873259498 -0.019071900478298022 -0.022754336822726318 0 -0.022754336822726318 0.051902937773113278 0 0 0 0.0082077593237037325 -0.024316477276128567 -0.011453659659077381 0 -0.011453659659077381 -0.019350896720730204 0 0 0 -0.010916843499214679 -0.047502590200748561 -0.019062140584526582 0 -0.019062140584526582 0.059003303914875904 0 0 0 0.0028751784285318462 -0.037811494061652198 -0.025772968550411168 0 -0.025772968550411168 0.0035708834986969973 0 0 0 -0.0085601526407387829 -0.027668220742051358 -0.0063223494898773519 0 -0.0063223494898773519 0.014916476141656698 0 0 0 -0.0031879361500986581 -0.11069550555566776 0.018617406756678001 0 0.018617406756678001 -0.00079770754031938118 0 0 0 -0.027873303273996841 -0.009222228881377692 -0.0055352983564557201 0 -0.0055352983564557201 0.00029993509503123406 0 0 0 -0.0022305734465866145 -0.012643023106831963 0.024608986780293662 0 0.024608986780293662 0.098617023537206805 0 0 0 0.021493500107593322 -0.019890803145410481 -0.019228893876146014 0 -0.019228893876146014 0.075492678440178679 0 0 0 0.013900468823691996 0.00079734696655764381 0.0010266798918372154 0 0.0010266798918372154 -0.001128018868661762 0 0 0 -8.2667975526362625e-05 -0.025129953391344773 0.0016499115740069847 0 0.0016499115740069847 -0.004882210739381776 0 0 0 -0.0075030410326816788 0.0080106761837985263 -0.060389197302058106 0 -0.060389197302058106 0.099091134193679431 0 0 0 0.026775452594369448 -0.022387889285126528 -9.8821465618126325e-05 0 -9.8821465618126325e-05 -0.0035132986286535717 0 0 0 -0.006475296978445011 -0.030972046517501073 -0.0095806867066162843 0 -0.0095806867066162843 0.00077022453092345788 0 0 0 -0.0075504554966444037 -0.042389314906084219 -0.034749469490513683 0 -0.034749469490513683 0.0091917218971138137 0 0 0 -0.0082993982522427956 -0.092577529126499969 -0.0063330341147970559 0 -0.0063330341147970559 -0.015225826747610541 0 0 0 -0.026950838968527627 -0.12685971311576108 0.0018424052388714722 0 0.0018424052388714722 -0.020000935832274174 0 0 0 -0.036715162237008811 0.0024575403939242893 0.0042658475071666868 0 0.0042658475071666868 -0.001102080442673655 0 0 0 0.00033886498781268633 0.0041878495671217042 -0.0056038419033646036 0 -0.0056038419033646036 0.029402997118620711 0 0 0 0.0083977116714355482 -0.092382014004706442 -0.0084133376285575184 0 -0.0084133376285575184 -0.023019708281751289 0 0 0 -0.028850430571614426 -0.072711682095246324 0.00099290027572702597 0 0.00099290027572702597 -0.017120066218503163 0 0 0 -0.022457937078437372 -0.027040535135413688 0.00027954328002319353 0 0.00027954328002319353 -0.016836478928594363 0 0 0 -0.010969253516002019 -0.098062250087377081 0.0030697630840398372 0 0.0030697630840398372 -6.6779436876684452e-05 0 0 0 -0.02453225738106344 -0.13969549831974437 -0.0094457200347714543 0 -0.0094457200347714543 0.0013602299633129755 0 0 0 -0.034583817089107821 -0.032514859624914377 -0.018705585332999229 0 -0.018705585332999229 -0.0086200145116605009 0 0 0 -0.010283718534143699 -0.034920215364818902 -0.023810098901336063 0 -0.023810098901336063 0.0040640626994864482 0 0 0 -0.0077140381663331203 0.0043728290611147469 0.023134421368928848 0 0.023134421368928848 0.11861499668859754 0 0 0 0.030746956437428363 -0.0062745297027564928 -0.0031106804353298045 0 -0.0031106804353298045 -0.0022503918894360431 0 0 0 -0.002131230398048134 -0.033757982228030364 -0.01984068221435796 0 -0.01984068221435796 -0.010009525859796753 0 0 0 -0.010941877021956731 -0.026912762492169486 -0.011606540104808771 0 -0.011606540104808771 -0.0060773418375167088 0 0 0 -0.008247526082421526 -0.060869289693131323 0.057593675065754746 0 0.057593675065754746 -0.0016877277287408177 0 0 0 -0.01563925435546798 -0.11021985838578896 -0.00067948394521539048 0 -0.00067948394521539048 -0.036760282203368147 0 0 0 -0.03674503514728928 -0.082509879227350383 -0.0041026488410130426 0 -0.0041026488410130426 -0.027517953730259753 0 0 0 -0.027506958239402531 -0.034484547543165496 -0.0054613670974016171 0 -0.0054613670974016171 -0.018988243173367395 0 0 0 -0.013368197679133224 -0.011488566793719901 0.029325747342428654 0 0.029325747342428654 0.0024219169043089295 0 0 0 -0.0022666624723530759 -0.010595826309039436 -0.01742091766111753 0 -0.01742091766111753 -0.0016626865011444281 0 0 0 -0.0030646282025460492 -0.032135655847986486 -0.032746201560990285 0 -0.032746201560990285 0.0067740979428197456 0 0 0 -0.0063403894762917683 -0.023462664366238707 0.0037725253540197281 0 0.0037725253540197281 -0.012947041404864532 0 0 0 -0.0091024264427758128 -0.068417653773010831 -0.015570259556550822 0 -0.015570259556550822 -0.0080679937461925304 0 0 0 -0.019121411879800834 -0.033572496481081848 -0.01119223212310852 0 -0.01119223212310852 -0.00277689420744065 0 0 0 -0.0090873476721306523 -0.020479942454491376 0.0056554158480260144 0 0.0056554158480260144 -0.011473809718841377 0 0 0 -0.00798843804333319 -0.024646059527488995 0.0055802111930685766 0 0.0055802111930685766 -0.0099583473526648637 0 0 0 -0.0086511017200384642 -0.026693616479898492 0.004413954456318871 0 0.004413954456318871 -0.011706226777080251 0 0 0 -0.009599960814244685 -0.027949488877037909 -0.0020073019888915689 0 -0.0020073019888915689 0.011381196763415702 0 0 0 -0.0041420730284054685 -0.031418719229002065 -0.032059026790761364 0 -0.032059026790761364 0.024273208921689632 0 0 0 -0.0017863775768281048 -0.023479465390007559 -0.01124480226403346 0 -0.01124480226403346 -0.0048872694878461242 0 0 0 -0.007091683719463393 -0.046962019523483292 -0.022442389923155157 0 -0.022442389923155157 0.076762801586310908 0 0 0 0.0074501955157069144 -0.017324507502396003 0.020441207954224438 0 0.020441207954224438 0.13763809038142583 0 0 0 0.030078395719757456 0.0001605595459734932 -0.00087946951985595745 0 -0.00087946951985595745 -0.00078656594997683627 0 0 0 -0.00015650160100078025 -0.0070780776499801412 -0.0054735818283740759 0 -0.0054735818283740759 -0.0032016995571773066 0 0 0 -0.0025699443017892509 -0.011701758875508173 0.016075829913001716 0 0.016075829913001716 0.13951019725582192 0 0 0 0.031952109595078326 -0.030587051688959137 0.020546119326470547 0 0.020546119326470547 0.10618150229141315 0 0 0 0.018898612650613496 -0.034523082976894368 0.0051785831345163447 0 0.0051785831345163447 -0.0074895282888434653 0 0 0 -0.010503152816434453 -0.038711904315855472 0.0043924067799183935 0 0.0043924067799183935 -0.0088832528233619285 0 0 0 -0.01189878928480435 0.0054216390625545507 0.034300297185335782 0 0.034300297185335782 0.037360798952172924 0 0 0 0.010695609503681647 -0.019518611976718336 0.03832737895794136 0 0.03832737895794136 0.029049844045018869 0 0 0 0.0023828080170753552 -0.040135617916380109 -0.032672673051491262 0 -0.032672673051491262 0.023822280387510358 0 0 0 -0.004078334382217455 0.00044527946576633504 -0.0088365173595687518 0 -0.0088365173595687518 -0.012402140918087778 0 0 0 -0.0029892153630804441 -0.00046984149053141966 0.0065133393914607596 0 0.0065133393914607596 -0.021410585704434659 0 0 0 -0.0054701067987415475 -0.047416734323160341 0.0095730502803532402 0 0.0095730502803532402 0.068921805479455922 0 0 0 0.0053762677890739075 -0.0086813795602362909 0.0075749953682450822 0 0.0075749953682450822 -0.0046682980721319822 0 0 0 -0.0033374194080919573 -0.01790273925505792 -0.01712038854947473 0 -0.01712038854947473 0.076030607746853551 0 0 0 0.014531967122948908 -0.10771690693874951 0.0028557763576782108 0 0.0028557763576782108 0.00080489004443921874 0 0 0 -0.026728004223577535 -0.17501227135839675 -0.0086145772200876547 0 -0.0086145772200876547 0.0012503932749938218 0 0 0 -0.04344046952085074 -0.017837536827061254 -0.03006935827092426 0 -0.03006935827092426 0.007006552627972118 0 0 0 -0.0027077460497722666 0.10185895705722603 -0.058679957443662445 0 -0.058679957443662445 0.047210727205827863 0 0 0 0.037267421065763529 -0.026560019069712004 -0.019108188414346 0 -0.019108188414346 -0.0049673445951887718 0 0 0 -0.0078818409162251524 -0.02752057675044238 -0.024766147433097255 0 -0.024766147433097255 -0.0010752039789745926 0 0 0 -0.0071489451823542188 0.00015023575702059145 -0.0076554671113604478 0 -0.0076554671113604478 0.010027117440346784 0 0 0 0.0025443382993418995 -0.0020980102808554335 0.0063363024890317199 0 0.0063363024890317199 0.0077114847026615863 0 0 0 0.0014033686054513161 0.00022215315635776278 0.0091393327585933548 0 0.0091393327585933548 0.024755292539775375 0 0 0 0.0062443614240335066 -0.0019345210357547668 -0.0052618027259441202 0 -0.0052618027259441202 0.0021292353567979516 0 0 0 4.8678580260796156e-05 -0.064971120715413361 0.032878466615474666 0 0.032878466615474666 0.085340168195139676 0 0 0 0.0050922618699315858 -0.037363589798605296 -0.016591098393884507 0 -0.016591098393884507 -0.00062187392146462184 0 0 0 -0.0094963659300174863 -0.031020286992331683 -0.014937392663897986 0 -0.014937392663897986 -0.005763600422028517 0 0 0 -0.0091959718535900709 -0.029188348898840998 -0.014671178216554559 0 -0.014671178216554559 -0.0078718280936774382 0 0 0 -0.0092650442481296506 -0.013930151474418451 -0.033316101198379161 0 -0.033316101198379161 0.014771129501984781 0 0 0 0.00021024450689155483 -0.16024629360084641 0.021600577249296538 0 0.021600577249296538 0.0029496629104399652 0 0 0 -0.039324157672601445 -0.065702756713915927 -0.0012683525241265203 0 -0.0012683525241265203 0.020711682459225833 0 0 0 -0.011247768563672517 -0.054649270244155418 -0.0090563721108588499 0 -0.0090563721108588499 0.01884979739445497 0 0 0 -0.0089498682124250772 -0.019293305053569659 0.0048705062267243582 0 0.0048705062267243582 -0.021003820453201261 0 0 0 -0.010074281376692834 -0.11761937791234434 0.039412176706550395 0 0.039412176706550395 -0.0019662736807370962 0 0 0 -0.029896412898270275 -0.094915066882946389 0.0058414604024257383 0 0.0058414604024257383 0.0046954579375390604 0 0 0 -0.022554902236351787 -0.095199806963078851 -0.0027642082909459381 0 -0.0027642082909459381 0.0055728915389790523 0 0 0 -0.022406728856024974 -0.15764782144209949 0.0001984250999549908 0 0.0001984250999549908 0.012466230824525915 0 0 0 -0.036295397654393435 -0.15224935668259804 -0.020044345890354198 0 -0.020044345890354198 0.01283425052083953 0 0 0 -0.03485377654043964 -0.032621533117500066 -0.011804915376200986 0 -0.011804915376200986 -0.0051181440729722999 0 0 0 -0.0094349192976181037 -0.09497422744700737 -0.0094186024545099278 0 -0.0094186024545099278 0.0017895058207442194 0 0 0 -0.023296180406565753 0.019660909471176491 0.069479547444830425 0 0.069479547444830425 0.024923364054585395 0 0 0 0.011146068381440499 -0.051668300295683346 -0.01536851669821622 0 -0.01536851669821622 0.053855995571517254 0 0 0 0.00054692381895848517 -0.020995513420061999 0.016452902822496167 0 0.016452902822496167 0.021116983008499679 0 0 0 3.0367397109417292e-05 -0.034051041009913074 0.030822682060807072 0 0.030822682060807072 -0.0059960631766473593 0 0 0 -0.010011776046640053 -0.026789223391960826 -0.031356489346980765 0 -0.031356489346980765 0.015971328046835653 0 0 0 -0.002704473836281196 -0.030512539130056322 -0.030698957636049601 0 -0.030698957636049601 0.027059843719952376 0 0 0 -0.00086317385252597978 -0.0066110365758328404 0.0062515910591916524 0 0.0062515910591916524 -0.017249644338598769 0 0 0 -0.0059651702286078745 -0.030657593170903039 -0.015032660484460281 0 -0.015032660484460281 -0.012073000292692537 0 0 0 -0.010682648365898897 -0.044190359784966521 -0.0095763831499535504 0 -0.0095763831499535504 -0.020062279418044865 0 0 0 -0.01606315980075285 -0.044804353910474604 0.0068919654527399444 0 0.0068919654527399444 -0.013647040867998155 0 0 0 -0.014612848694618191 -0.029262198221488754 -0.035809588105644052 0 -0.035809588105644052 0.016915940469217614 0 0 0 -0.0030865644380678389 -0.070618935875114364 -0.024021033158087957 0 -0.024021033158087957 -0.0052662321008161983 0 0 0 -0.01897129199398264 -0.090720184022112516 -0.0072136065339231011 0 -0.0072136065339231011 0.025995262475405623 0 0 0 -0.016181230386676793 -0.026499036485463152 -0.0015905869565397308 0 -0.0015905869565397308 -0.018512871680218389 0 0 0 -0.011252977041420387 -0.024608071787046173 0.00083659123311949032 0 0.00083659123311949032 -0.014728789374916536 0 0 0 -0.0098342152904906787 -0.033101614998854223 0.0043956819082886459 0 0.0043956819082886459 -0.010955336831523972 0 0 0 -0.011014237957594548 -0.033406247110859974 0.0054034629905761475 0 0.0054034629905761475 -0.011492422784655574 0 0 0 -0.011224667473878886 -0.078001489843414998 -0.018384752671024518 0 -0.018384752671024518 0.026448738233428998 0 0 0 -0.012888187902496448 -0.030665487249897944 0.01352922276724098 0 0.01352922276724098 0.019146445477253818 0 0 0 -0.0028797604431610273 -0.021707375712923263 -0.0021989751290227219 0 -0.0021989751290227219 -0.014390359911280346 0 0 0 -0.0090244339060509028 -0.046961363399924204 -0.021361322320321986 0 -0.021361322320321986 -0.006183546617969618 0 0 0 -0.013286227504473454 -0.033923979873546013 0.01622223610437876 0 0.01622223610437876 0.056407148511935221 0 0 0 0.005620792159597301 -0.046405733524957492 -0.00037652148086381176 0 -0.00037652148086381176 0.0020513388031261764 0 0 0 -0.011088598680457827 -0.044315932718423448 0.00086454515475917898 0 0.00086454515475917898 0.0069944590062357842 0 0 0 -0.0093303684280469229 -0.11020386788819268 -0.00069281540364260214 0 -0.00069281540364260214 -0.036708770115048729 0 0 0 -0.036728159500810355 -0.082499117934205543 -0.0040926511365330489 0 -0.0040926511365330489 -0.027483024674404471 0 0 0 -0.027495535652152504 0.090021627541014351 0.037809382858741358 0 0.037809382858741358 0.040354195562388284 0 0 0 0.032593955775850628 -0.035089996205444916 0.0038038287978309718 0 0.0038038287978309718 0.00026361995502477767 0 0 0 -0.0087065940626050338 -0.059693233193393452 -0.011096130304870496 0 -0.011096130304870496 0.063551297993126588 0 0 0 0.00096451619993324911 -0.014546250075854583 0.001174350441577876 0 0.001174350441577876 -0.031320862473688593 0 0 0 -0.011466778137385836 -0.10226857682399111 0.0042611376424432287 0 0.0042611376424432287 0.0012088521273581759 0 0 0 -0.02526493117415822 -0.16182350589451072 -0.010187809621878596 0 -0.010187809621878596 0.0014646408996447924 0 0 0 -0.040089716248716503 -0.03147398089348491 -0.012443970857502928 0 -0.012443970857502928 -0.016720477726351476 0 0 0 -0.012048614654959156 -0.092393952004213006 0.0080073146371839043 0 0.0080073146371839043 0.0005190156892929651 0 0 0 -0.022968734078729999 -0.11651842065651508 -0.029164887149941601 0 -0.029164887149941601 -0.00043912969073378605 0 0 0 -0.029239387586812195 -0.094129537202815722 0.0046794805331212413 0 0.0046794805331212413 -9.8497131122837756e-05 0 0 0 -0.023557008583484675 -0.058690554776058619 0.0035425367842865339 0 0.0035425367842865339 -0.00410607792303142 0 0 0 -0.015699158174772503 -0.052525294158561012 -0.012080589661650213 0 -0.012080589661650213 -0.011252277578728022 0 0 0 -0.015944392934322253 -0.083816843966176044 -0.022354409218758559 0 -0.022354409218758559 0.010605721565196569 0 0 0 -0.018302780600244831 -0.037718222011240504 -0.012095592125457827 0 -0.012095592125457827 -0.0030383411668858384 0 0 0 -0.01018914079453162 -0.021336301928019274 0.038872553262841225 0 0.038872553262841225 0.032489123740522707 0 0 0 0.0027882054531258582 -0.026947110102937599 -0.020436557428842428 0 -0.020436557428842428 -0.0063289034519966592 0 0 0 -0.0083190033887335924 -0.029313092266893308 -0.0014784699248692351 0 -0.0014784699248692351 -0.015184678803606848 0 0 0 -0.011124442767625038 -0.037989743833569609 0.0039325361382662669 0 0.0039325361382662669 -0.012172342426433058 0 0 0 -0.012540521565000665 -0.056245718138602595 -0.012097793567987285 0 -0.012097793567987285 -0.021778792144763446 0 0 0 -0.019506127570841511 -0.052235986343841911 0.0065374532344002565 0 0.0065374532344002565 -0.015036933383612462 0 0 0 -0.01681822993186359 -0.054464914218537788 -0.011675517870300911 0 -0.011675517870300911 0.011731374006297646 0 0 0 -0.01068338505306006 -0.054569692142699702 -0.020636812506502886 0 -0.020636812506502886 0.015161353465565713 0 0 0 -0.0098520846692834591 -0.056033338846661063 0.06554991049410186 0 0.06554991049410186 0.013227279697326288 0 0 0 -0.01070151478733361 -0.0084531225054069736 0.086185627620659427 0 0.086185627620659427 0.046422551182062399 0 0 0 0.0094923571691637454 0.043491501420454701 0.0015338434796676459 0 0.0015338434796676459 0.054757179234960429 0 0 0 0.024562170163853772 -0.063670089515698025 -0.0074553837926264396 0 -0.0074553837926264396 0.049800839970222568 0 0 0 -0.0034673123863688815 -0.022890601993180441 0.0040598776079596947 0 0.0040598776079596947 -0.012492789649341149 0 0 0 -0.0088458479106303962 -0.03743218395804096 -0.01766606591452155 0 -0.01766606591452155 -0.0064967229384416125 0 0 0 -0.010982226724120692 -0.055324549702098325 0.049481679693791469 0 0.049481679693791469 0.00049984287856741361 0 0 0 -0.0137061767058827 -0.019454625059981079 -0.0042625136155391707 0 -0.0042625136155391707 0.038372275265873501 0 0 0 0.0047294125514730778 -0.020961343860015608 -0.0097759072336144892 0 -0.0097759072336144892 -0.016615053807624791 0 0 0 -0.0093940994169101344 -0.042595988447958526 0.0034729140511790772 0 0.0034729140511790772 -0.0062702597595822775 0 0 0 -0.012216562051885201 -0.086626596190027771 0.018485913688871758 0 0.018485913688871758 0.048451387897924469 0 0 0 -0.0095438020730258533 -0.10279965884945665 0.0013298495349476577 0 0.0013298495349476577 -0.0019233920624420475 0 0 0 -0.026180762727974687 -0.15411143669422944 -0.0042320278716508394 0 -0.0042320278716508394 -0.0039215592728504556 0 0 0 -0.039508248991769954 -0.029357808008682831 -0.017687351619584707 0 -0.017687351619584707 -0.0028262608702787628 0 0 0 -0.0080460172197403951 -0.063105291880966238 0.002404369153699864 0 0.002404369153699864 -0.011525368992667127 0 0 0 -0.01865766521840834 -0.06921523027523574 -0.008208013714188462 0 -0.008208013714188462 -0.01987647655058709 0 0 0 -0.022272926706455705 -0.18861189284266464 0.0039971015886045569 0 0.0039971015886045569 0.0040143324919638124 0 0 0 -0.046149390087675296 -0.10781497885692422 -0.0017583315650332443 0 -0.0017583315650332443 0.0011113326212081054 0 0 0 -0.026675911558929025 0.0020202468291641296 0.027600785586242349 0 0.027600785586242349 0.12071156029967861 0 0 0 0.030682951782210699 0.068156045845571209 0.0011767265699376139 0 0.0011767265699376139 0.29699159960366434 0 0 0 0.091286911362308917 -0.034462258628231351 -0.038346995646632687 0 -0.038346995646632687 0.021553878870992915 0 0 0 -0.0032270949393094772 -0.048213786298862471 -0.033284131772643832 0 -0.033284131772643832 0.014435087222572029 0 0 0 -0.0084446747690726243 -0.030034148006004721 -0.037809710251076524 0 -0.037809710251076524 0.051616814090891784 0 0 0 0.0053956665212217675 -0.0029216532163676145 0.0021329786728294664 0 0.0021329786728294664 -0.028085645540306237 0 0 0 -0.0077518246891683518 -0.026812879512729263 0.00015946511531526213 0 0.00015946511531526213 -0.016019916934510402 0 0 0 -0.010708199111809914 -0.072798944529375298 -0.0068458832613222387 0 -0.0068458832613222387 0.012074313686030069 0 0 0 -0.015181157710836335 0.00094161113526958218 -0.0025970439124600869 0 -0.0025970439124600869 -0.018573592271018402 0 0 0 -0.0044079952839372605 -0.16144845641408231 0.022119074418111173 0 0.022119074418111173 -0.00055215805889843872 0 0 0 -0.040500153618245077 -0.030438703631718855 0.030373995609222604 0 0.030373995609222604 -0.0064430076988752916 0 0 0 -0.0092204278326488698 -0.022171550583387489 -0.030871802232530388 0 -0.030871802232530388 0.012630512353180023 0 0 0 -0.0023852595575517554 -0.035343728452639979 0.0036211469431874773 0 0.0036211469431874773 0.015557550109603045 0 0 0 -0.004946544585759236 -0.062169942986744692 -0.01708422493372809 0 -0.01708422493372809 0.014305194253754261 0 0 0 -0.011966187183247601 -0.021471174275719478 0.0097831767870879445 0 0.0097831767870879445 -0.0011071038089651153 0 0 0 -0.0056445695211711534 -0.017467095076191385 0.01401568882994883 0 0.01401568882994883 0.0074393017486058532 0 0 0 -0.0025069483318963838 -0.086923537217005659 -0.0210158776396129 0 -0.0210158776396129 -0.0025804903160123044 0 0 0 -0.02237600688325448 -0.043515042045620955 -0.032028262894183757 0 -0.032028262894183757 0.0042136389785589756 0 0 0 -0.0098253507667656059 -0.12870217160428482 -0.016915178679458548 0 -0.016915178679458548 -0.0071132748118617238 0 0 0 -0.033953861604036656 -0.03347362411208521 0.050879921824619867 0 0.050879921824619867 0.0040546951942714848 0 0 0 -0.0073547322294535977 -0.036171756227004401 0.052201849257892396 0 0.052201849257892396 0.002945632759301986 0 0 0 -0.0083065308669255516 -0.038232310503736988 0.054109579087272319 0 0.054109579087272319 -0.00016272088977409283 0 0 0 -0.0095987578483778258 -0.034361804603588175 -0.032284347160806082 0 -0.032284347160806082 0.0039099618574058859 0 0 0 -0.0076129606865456001 -0.040958422276522306 -0.030937274110325763 0 -0.030937274110325763 0.0016454990600291292 0 0 0 -0.0098282308041232665 0.04652912082573063 0.039386673364673011 0 0.039386673364673011 0.065814774589083525 0 0 0 0.028085973853703552 -0.02789352269574074 -0.0018417174732955439 0 -0.0018417174732955439 -0.0093046168651668669 0 0 0 -0.0092995348902269025 -0.03428941661950427 0.0047327500185985168 0 0.0047327500185985168 -0.011431422072481646 0 0 0 -0.01143020967299648 -0.033519351719181321 0.0051724201218670829 0 0.0051724201218670829 0.0024224140820064679 0 0 0 -0.0077742344092937166 -0.0092372815872569236 -0.017393780956590804 0 -0.017393780956590804 0.086392264446222999 0 0 0 0.019288745714741512 -0.10339390371040746 -0.026413030252821542 0 -0.026413030252821542 -0.0034197661235687571 0 0 0 -0.026703417458494069 -0.026305689799181971 0.0028570682649580424 0 0.0028570682649580424 -0.012394909682141996 0 0 0 -0.0096751498703309905 -0.15465450522033955 -0.0064997102187280414 0 -0.0064997102187280414 -0.0040613726684372159 0 0 0 -0.039678969472194223 -0.10134261589348387 0.0021751422519738772 0 0.0021751422519738772 -0.0012960986050728554 0 0 0 -0.025659678624639186 -0.095818519228124732 -0.0099199046215574516 0 -0.0099199046215574516 0.0003564477221662532 0 0 0 -0.023865517876489606 -0.029445311613897761 0.0051042015848032423 0 0.0051042015848032423 -0.0096277857447551705 0 0 0 -0.009768274339663232 -0.027568841050749006 -0.0051753313391441624 0 -0.0051753313391441624 0.017719701842598912 0 0 0 -0.0024622848020374524 -0.042162187663167816 0.010972225459369055 0 0.010972225459369055 0.038509911165803407 0 0 0 -0.00091306912434110932 -0.0075711727712209562 0.057127883929778633 0 0.057127883929778633 0.0096811609045565072 0 0 0 0.00052749703333391379 -0.021452894728325431 0.0039939331220228483 0 0.0039939331220228483 -0.014016953874399541 0 0 0 -0.0088674621506812448 -0.023017704197599631 0.028482292357109973 0 0.028482292357109973 -0.010361932679120223 0 0 0 -0.0083449092191796304 -0.01936880635187932 -0.028846166054950995 0 -0.028846166054950995 0.0016311950204892511 0 0 0 -0.0044344028328477947 -0.029542668140931913 0.0051657479426016348 0 0.0051657479426016348 -0.010014475308870788 0 0 0 -0.0098892858624506762 -0.054613318506114436 0.0026564579311072474 0 0.0026564579311072474 0.050130899146859649 0 0 0 -0.0011206048398137015 -0.0095975215247539047 0.023537989574076823 0 0.023537989574076823 0.013312643015132686 0 0 0 0.00092878037259458424 -0.0064751022152518267 0.017506139575143909 0 0.017506139575143909 -0.008791811080916645 0 0 0 -0.003816728324042451 -0.0056094637209902487 -0.013705100131904818 0 -0.013705100131904818 -0.0090294866179534417 0 0 0 -0.0036597375847360336 -0.0078303122570523298 -0.019745675794675455 0 -0.019745675794675455 0.00412092899165728 0 0 0 -0.00092734581634867919 -0.11626954739132003 0.00022799005305332298 0 0.00022799005305332298 0.027597932776976197 0 0 0 -0.022167903653585952 -0.073455836806407257 -0.019956680984940911 0 -0.019956680984940911 0.0084383817349539259 0 0 0 -0.016254363767863364 -0.083804071454173956 -0.020121858807905763 0 -0.020121858807905763 0.008446760161230138 0 0 0 -0.018839327823235913 -0.13406683794044749 0.04597567050778778 0 0.04597567050778778 0.01966989619588988 0 0 0 -0.028599235436139514 -0.11084976776663785 0.04572456056735269 0 0.04572456056735269 0.019934888010490592 0 0 0 -0.022728719939036746 -0.040218166137379725 0.0033321446948533133 0 0.0033321446948533133 -0.011325509217449976 0 0 0 -0.012885918838707428 0.079020017572957291 0.033227663767337628 0 0.033227663767337628 0.033610837815599259 0 0 0 0.028157713847139165 -0.090866704510761023 -0.0087690972545479418 0 -0.0087690972545479418 -0.021279192822818059 0 0 0 -0.028036474333394762 -0.073347163717750033 0.001296257772236787 0 0.001296257772236787 -0.013760691988913352 0 0 0 -0.021776963926665845 -0.057585102162701851 -0.013565569094851876 0 -0.013565569094851876 0.033490818975993597 0 0 0 -0.0060235707966770653 -0.055685296786832018 0.004939184389670578 0 0.004939184389670578 -0.0087269540819950794 0 0 0 -0.016103062717206774 -0.055558265800928208 -0.012689722678850672 0 -0.012689722678850672 -0.020598860562977106 0 0 0 -0.019039281590976325 -0.1304733915827137 -0.02152745458024044 0 -0.02152745458024044 0.0022860759130605701 0 0 0 -0.032046828917413291 -0.1317306998230009 -0.022130356336258566 0 -0.022130356336258566 -0.0010151256123068497 0 0 0 -0.033186456358826957 -0.014900419306384638 0.035851654206667083 0 0.035851654206667083 0.033182979295522941 0 0 0 0.0045706399972846867 -0.012619438541843664 -0.015615335698429711 0 -0.015615335698429711 0.00019622215972470158 0 0 0 -0.0031058040955300736 -0.0037123685928084835 -0.0031442049876759248 0 -0.0031442049876759248 0.0056490739201837323 0 0 0 0.00048417633184378434 -0.0013972583093350144 0.00359488879987091 0 0.00359488879987091 -0.012658090245576625 0 0 0 -0.0035138371387278822 -0.055456865941811817 0.0019085396619896947 0 0.0019085396619896947 0.0017906532247332838 0 0 0 -0.013416553179269625 -0.0034871422523437834 -0.0038104692807502949 0 -0.0038104692807502949 0.067703642625704274 0 0 0 0.016054125093340171 -0.0022067220368906237 -0.0028460257391802468 0 -0.0028460257391802468 0.12032602720831476 0 0 0 0.029529826292855971 -0.025208730737407994 -0.013706544901038009 0 -0.013706544901038009 0.0039760466052005325 0 0 0 -0.0053081710330519366 -0.086572549491430381 -0.0090746170330610332 0 -0.0090746170330610332 0.010563588824310133 0 0 0 -0.019002240166780038 -0.00042095765367955451 0.00077623872169257924 0 0.00077623872169257924 -0.025626998426025893 0 0 0 -0.0065119890199264452 -0.12980760130118424 -0.029839691945573191 0 -0.029839691945573191 0.0081623830194874625 0 0 0 -0.030411304570424236 -0.036827784861015962 0.0042575871921717665 0 0.0042575871921717665 0.011318139352032346 0 0 0 -0.0063774113772459085 -0.055030110826912532 -0.028876990070544034 0 -0.028876990070544034 0.024718587312527851 0 0 0 -0.0075778808785962326 -0.05219008856512336 -0.025886479823477637 0 -0.025886479823477637 0.021980070624126768 0 0 0 -0.0075525044852491896 -0.057722269669647275 0.0057289951578358249 0 0.0057289951578358249 -0.00045587807531024052 0 0 0 -0.014544536936239362 -0.072375118567185315 -0.01604034311178576 0 -0.01604034311178576 0.015180980380612219 0 0 0 -0.014298534546643205 -0.063814474764638168 0.0030742080475307668 0 0.0030742080475307668 -0.00088129775517685471 0 0 0 -0.016173943129953745 -0.050656260513602863 -0.014049345432400271 0 -0.014049345432400271 -0.016042636621285203 0 0 0 -0.01667472428372202 -0.090214920359589473 -0.0090213681005024693 0 -0.0090213681005024693 0.0098481489601723871 0 0 0 -0.020091692849854265 -0.1514027176562473 0.016824909062102378 0 0.016824909062102378 0.034649215445454351 0 0 0 -0.029188375552698098 -0.091270472994824381 -0.010097679897417305 0 -0.010097679897417305 -0.020702500177037297 0 0 0 -0.02799324329296541 -0.072019205115188098 0.0023388976273982088 0 0.0023388976273982088 -0.015865420317089599 0 0 0 -0.02197115635806942 -0.066741650292561586 0.006459911300468385 0 0.006459911300468385 -0.003128594909582014 0 0 0 -0.017467561300535898 -0.076140812536700533 -0.020435283065256805 0 -0.020435283065256805 -0.01265031857459166 0 0 0 -0.022197782777823066 -0.035898446687750434 -0.0042233940608798629 0 -0.0042233940608798629 -0.019788692015849752 0 0 0 -0.013921784675900052 -0.010935378251536468 -0.040735899029996497 0 -0.040735899029996497 0.048529355432771676 0 0 0 0.0093984942953087708 -0.018494821153761987 0.0063950050528644997 0 0.0063950050528644997 -0.011979589972689634 0 0 0 -0.0076186027816129058 -0.014235137083451921 0.021893123589160401 0 0.021893123589160401 -0.0030609258664267003 0 0 0 -0.0043240157374695443 -0.016332244465321444 -0.029400670656890782 0 -0.029400670656890782 0.01487213691237077 0 0 0 -0.00036502688823769613 -0.064924243868563894 0.0054282911873495352 0 0.0054282911873495352 -0.0059713440244232377 0 0 0 -0.017723896973246764 -0.069442342593279791 -0.016391281548366929 0 -0.016391281548366929 -0.017743976953577923 0 0 0 -0.021796579886714431 -0.022950429348295557 0.007227270117898906 0 0.007227270117898906 -0.0060867776636377262 0 0 0 -0.0072593017529833208 -0.031903894289579682 -0.032249378275799753 0 -0.032249378275799753 0.03360702880093025 0 0 0 0.00042578362783762813 -0.081860866223117279 0.015545249333365676 0 0.015545249333365676 -0.0016530875219959995 0 0 0 -0.020878488436278486 -0.010465212768660415 -0.016082902984290492 0 -0.016082902984290492 0.041943921037228327 0 0 0 0.007869677067141978 -0.045770002609081151 -0.031545344205427428 0 -0.031545344205427428 0.004077665327815394 0 0 0 -0.010423084320316356 -0.058783856686190183 -0.010567492603660907 0 -0.010567492603660907 0.054831219249367416 0 0 0 -0.00098815935920570919 -0.13287379007104791 -0.013360514657037725 0 -0.013360514657037725 -0.0035495983079846249 0 0 0 -0.034105847094758113 -0.091781369015129621 0.0031885426622856403 0 0.0031885426622856403 -0.0019057077759121466 0 0 0 -0.023421769197760428 -0.0072042924531539321 0.0089725013454168313 0 0.0089725013454168313 0.0019675499015514714 0 0 0 -0.0013091856379006186 -0.027058854740381159 0.0050285942617670828 0 0.0050285942617670828 -0.010419594507010931 0 0 0 -0.0093696123118480207 -0.0508111020180297 -0.020974542078774208 0 -0.020974542078774208 0.0093811707926366172 0 0 0 -0.010357482806348267 -0.1357820677494731 -0.016369780231201076 0 -0.016369780231201076 -0.0016035194927582902 0 0 0 -0.034346396810557879 -0.094838888409256639 0.0056959119360555852 0 0.0056959119360555852 -0.00072562108718032814 0 0 0 -0.023891127374109249 -0.04140112132047815 0.0069419394399820172 0 0.0069419394399820172 0.0562410158536433 0 0 0 0.0037099736332912871 -0.029018257283977889 -0.028838218390629389 0 -0.028838218390629389 0.0013478281967680417 0 0 0 -0.0069176072718022397 -0.030981681129484961 0.045036091774625475 0 0.045036091774625475 0.0033860505851155409 0 0 0 -0.0068989076360921331 -0.0839500878057058 0.0017807285755885305 0 0.0017807285755885305 0.0085955682569122394 0 0 0 -0.018838629887198428 -0.071296089657702941 -0.0044941989350263944 0 -0.0044941989350263944 0.010939510877238719 0 0 0 -0.015089144695116062 -0.032178404445462376 -0.011638548157025572 0 -0.011638548157025572 0.020999299521931275 0 0 0 -0.002794776230882777 -0.036075060572403603 -0.012003055785475072 0 -0.012003055785475072 0.029134307510751294 0 0 0 -0.0017351882654130903 -0.046882522946982912 -0.0090086097841329711 0 -0.0090086097841329711 -0.021575548177265022 0 0 0 -0.017114517781061982 -0.044776856039025328 -0.0049482111621258398 0 -0.0049482111621258398 -0.019001640684327283 0 0 0 -0.015944624180838148 -0.050364178319056693 0.0029395800128334962 0 0.0029395800128334962 -0.012125756722318278 0 0 0 -0.015622483760343754 -0.049288673254803163 0.0054969904213560128 0 0.0054969904213560128 -0.011601013024469229 0 0 0 -0.015222421569818101 -0.028993103729549802 -0.0062619777609969063 0 -0.0062619777609969063 -0.0057375808760395941 0 0 0 -0.0086826711513973698 -0.049910446360390166 -0.00010622898791910605 0 -0.00010622898791910605 0.059894701980489885 0 0 0 0.0024960639050249276 -0.015187311666583988 0.0097084249167006982 0 0.0097084249167006982 -0.00057952957234744251 0 0 0 -0.003941710309732855 -0.025015359569463325 0.047423549225147896 0 0.047423549225147896 0.0098086410676412328 0 0 0 -0.0038016796254554119 -0.040792780054059397 -0.029334050434717762 0 -0.029334050434717762 -0.00085121062499471378 0 0 0 -0.010410997669763611 -0.018108807396006288 0.055819083965784833 0 0.055819083965784833 0.0063139520315491637 0 0 0 -0.00294871384111417 -0.010736402262852971 -0.0066584100346091038 0 -0.0066584100346091038 -0.00045502293511893305 0 0 0 -0.0027978562994929838 -0.0045189486716630464 0.0027891165159847284 0 0.0027891165159847284 0.010611046249286687 0 0 0 0.0015230243944059155 -0.058146436050589112 0.059482814556230057 0 0.059482814556230057 0.00040165546580572808 0 0 0 -0.014436195146195652 -0.037212831119853629 0.061761952286749411 0 0.061761952286749411 0.0044422476512231412 0 0 0 -0.0081926458671577329 -0.10092093192400033 -0.0080099170378713433 0 -0.0080099170378713433 -0.012799154430653213 0 0 0 -0.028430021588663375 -0.078662333357427866 0.00058529754530115192 0 0.00058529754530115192 -0.0095196187249195138 0 0 0 -0.022045488020586847 -0.028551130271021519 -0.032696644266709873 0 -0.032696644266709873 0.016525623618335095 0 0 0 -0.003006376663171606 0.0013074547381666801 -0.003263076986481153 0 -0.003263076986481153 0.066570801925883716 0 0 0 0.01696956416601253 -0.0035953653123485807 -0.00072417425012788472 0 -0.00072417425012788472 0.12455782617481465 0 0 0 0.030240615215616495 -0.050087069223577502 0.0023577247292281989 0 0.0023577247292281989 0.036986558030799616 0 0 0 -0.0032751277981944611 -0.010695870646455705 0.014415510712081556 0 0.014415510712081556 0.0050790920751926788 0 0 0 -0.0014041946428157565 -0.01049905082207081 -0.0020909900209820365 0 -0.0020909900209820365 -0.023569528437700771 0 0 0 -0.008517144814942923 -0.021627744188020936 -0.0036054503009441963 0 -0.0036054503009441963 -0.027630066347242188 0 0 0 -0.012314452633815753 -0.032669340697245364 -0.012495345279988954 0 -0.012495345279988954 -0.0093081841839433022 0 0 0 -0.010494381220297194 -0.023003252676046887 0.017017886860322795 0 0.017017886860322795 -0.0067065034554589786 0 0 0 -0.0074274390328765982 -0.017052923955025001 -0.029637237585257603 0 -0.029637237585257603 0.023991627402224602 0 0 0 0.0017346758617998725 -0.0037588049705480908 0.0087613865421242998 0 0.0087613865421242998 0.010898162892015728 0 0 0 0.0017848394803669509 -0.0054860161226686355 -0.012672608869979979 0 -0.012672608869979979 0.042003435937122968 0 0 0 0.0091293549536136109 -0.021246342511538341 0.036585178362350534 0 0.036585178362350534 0.0098321342812366375 0 0 0 -0.0028535520575752038 -0.018829117467438983 -0.021880738750042039 0 -0.021880738750042039 -0.0084335319327260017 0 0 0 -0.0068156623500412739 -0.024352464477694645 0.0052199555040036393 0 0.0052199555040036393 -0.010349956882560633 0 0 0 -0.0086756053400638185 -0.020706036233957947 0.0079480930528423518 0 0.0079480930528423518 -0.0067018248984855797 0 0 0 -0.0068519652831108844 -0.023529715357560654 0.041105753989085558 0 0.041105753989085558 0.019918778582371566 0 0 0 -0.00090273419379682807 -0.023441812325003974 -0.022643526942340064 0 -0.022643526942340064 0.00071277101207378735 0 0 0 -0.0056822603282327133 -0.077882737645851713 -0.011211207742205919 0 -0.011211207742205919 -0.020351868821601657 0 0 0 -0.024558651616863336 -0.065822702310142159 0.0036310284735570596 0 0.0036310284735570596 -0.014039172871623954 0 0 0 -0.019965468795441525 0.0021011680024074497 0.06486484806466658 0 0.06486484806466658 0.021006636477157947 0 0 0 0.0057769511198914048 -0.11811571989337223 -0.0043793129624161067 0 -0.0043793129624161067 -0.020118906775916934 0 0 0 -0.034558656667322295 -0.087904218601356138 -0.0022273139376603754 0 -0.0022273139376603754 -0.014232097031259994 0 0 0 -0.025534078908154036 -0.033891745750205482 0.014466234505994047 0 0.014466234505994047 -0.0062740093986821677 0 0 0 -0.010041438787221857 -0.013595410497558968 -0.020055052614504132 0 -0.020055052614504132 0.053916423131360691 0 0 0 0.010080253158450403 -0.047038926296480967 -0.0088629903334850324 0 -0.0088629903334850324 0.073573200751279655 0 0 0 0.0066335686136996461 -0.076250664831667536 -0.0036485027198641384 0 -0.0036485027198641384 0.070366291146277571 0 0 0 -0.0014710934213474636 -0.049749485164095275 -0.031090512889028643 0 -0.031090512889028643 0.0092752976176710966 0 0 0 -0.010118546886606072 -0.02425778406688904 -0.022672512884260278 0 -0.022672512884260278 0.0016981954300083757 0 0 0 -0.0056398971592201697 -0.055559907557044097 0.067772243017377609 0 0.067772243017377609 0.017051504175591203 0 0 0 -0.0096271008453630014 -0.10760914793996545 0.042572682669819228 0 0.042572682669819228 0.022349747789115249 0 0 0 -0.021314850037712607 -0.072305523670624039 -0.019029971434614448 0 -0.019029971434614448 0.0094286936480004746 0 0 0 -0.015719207505655919 -0.0019494420160686698 -0.04600989700999128 0 -0.04600989700999128 0.034518283116981685 0 0 0 0.0081422102752282677 -0.016890858966064654 0.0021939332087602681 0 0.0021939332087602681 0.033694321194649268 0 0 0 0.0042008655571461329 -0.021773122151464042 -0.0084075976557383691 0 -0.0084075976557383691 0.064361476429611431 0 0 0 0.010647088569536889 -0.053343158938565789 -0.017432357571090188 0 -0.017432357571090188 0.036924751250246524 0 0 0 -0.0041046019220798355 -0.049112074761455286 -0.012670309383719925 0 -0.012670309383719925 0.035324660196321689 0 0 0 -0.003446853641283408 -0.030496825995566527 0.020526954984672979 0 0.020526954984672979 0.084872908819928761 0 0 0 0.013594020706090552 -0.014560479962059059 -0.024510963442538017 0 -0.024510963442538017 0.04747358976921473 0 0 0 0.0082282774517889179 -0.015245615441982441 0.034051939822729249 0 0.034051939822729249 0.051070702664472556 0 0 0 0.0089562718056224178 -0.017403928216839004 -0.012975030958609968 0 -0.012975030958609968 -0.0058665863317819422 0 0 0 -0.0058176286371551811 -0.045868762015640586 0.012278718332666215 0 0.012278718332666215 0.050633951726971466 0 0 0 0.0011912974278326938 -0.036883905129468798 -0.0065845778963313228 0 -0.0065845778963313228 0.011840400646254801 0 0 0 -0.0062608761208035671 -0.024108628210906591 -0.0062697030025304912 0 -0.0062697030025304912 -0.022027679748546025 0 0 0 -0.011534076989863196 -0.029393172400454626 0.018699017469304691 0 0.018699017469304691 0.033310011654629053 0 0 0 0.00097920981354359836 -0.028668744270706731 -0.0021212566854937149 0 -0.0021212566854937149 -0.020121066892236562 0 0 0 -0.012197452790735828 -0.094807344179217712 -0.0087561478986603759 0 -0.0087561478986603759 0.0013252955355789187 0 0 0 -0.02337051216090974 -0.049832577295969467 -0.0083223957180281541 0 -0.0083223957180281541 -0.01888548343714825 0 0 0 -0.017179515183279426 -0.016555214413103529 0.010701959792768192 0 0.010701959792768192 -0.002003042740075428 0 0 0 -0.0046395642882947393 -0.04299212042039257 0.009513764952266638 0 0.009513764952266638 0.072118805639113118 0 0 0 0.0072816713046801387 -0.1591621891589009 0.018597141494951928 0 0.018597141494951928 0.0016984875288201806 0 0 0 -0.039365925407520153 -0.027569862444798119 0.0046307456932007315 0 0.0046307456932007315 -0.011871830991703209 0 0 0 -0.009860423359125332 -0.017979507782596126 0.0013609023225865293 0 0.0013609023225865293 -0.0066714614006970208 0 0 0 -0.0061627422958232883 -0.041639756561506369 -0.018042932407985046 0 -0.018042932407985046 0.0031052230404807341 0 0 0 -0.00963363338025644 -0.049802244301173082 -0.023496240449867645 0 -0.023496240449867645 -1.2111147850601967e-05 0 0 0 -0.012453588862255782 -0.035546988390005224 -0.0095290836167242019 0 -0.0095290836167242019 -0.017500024886916661 0 0 0 -0.013261753319230473 -0.023578838971084946 0.0037395331059829483 0 0.0037395331059829483 -0.012821908405131798 0 0 0 -0.0091001868440541873 -0.021832499881196656 -0.0031476274494784268 0 -0.0031476274494784268 -0.0041616591612166423 0 0 0 -0.0064985397606033089 -0.043348502064954247 -0.02023311830150383 0 -0.02023311830150383 0.011884745922416728 0 0 0 -0.0078659390356344006 -0.018979028767665718 0.0013129670957907902 0 0.0013129670957907902 0.017087274589291934 0 0 0 -0.00047293854459345974 -0.09214258384023935 -0.030351954954521122 0 -0.030351954954521122 -0.004886771604377449 0 0 0 -0.0242573388611542 -0.0033823031908523649 0.019813188491748512 0 0.019813188491748512 0.10269693928450163 0 0 0 0.024828659023412192 -0.024265472584043962 -0.0094200141158515827 0 -0.0094200141158515827 -0.0037757984600269023 0 0 0 -0.0070103177610175427 -0.021364845429530582 0.0066327539972526293 0 0.0066327539972526293 -0.0091105904671014704 0 0 0 -0.0076188589741580165 -0.018531391722575567 0.0072937697078693572 0 0.0072937697078693572 -0.0090906590667205397 0 0 0 -0.0069055126973240222 -0.025963691229297758 0.018712829833735067 0 0.018712829833735067 0.0026517869757061163 0 0 0 -0.0058279760633976885 -0.023870821600632697 -0.026704884460229034 0 -0.026704884460229034 0.032177186332317476 0 0 0 0.0020765911829208061 -0.02107302971479233 0.012344530600551301 0 0.012344530600551301 0.0084110067020831542 0 0 0 -0.0031655057531772869 -0.028458585250383542 0.01039286836652702 0 0.01039286836652702 0.0074142123200266613 0 0 0 -0.0052610932325892184 -0.021802658474344039 0.0070170112845453752 0 0.0070170112845453752 -0.0075608500581901047 0 0 0 -0.0073408771331335363 -0.080167258352785264 0.0053565566620183865 0 0.0053565566620183865 -0.0015014063994310684 0 0 0 -0.02041716618805409 -0.047282041962989269 -0.0033785807406041084 0 -0.0033785807406041084 0.015892343552316418 0 0 0 -0.0078474246026682265 -0.031477696524034773 -0.0070893314733350976 0 -0.0070893314733350976 0.018792211556462823 0 0 0 -0.0031713712418929979 -0.08832176348844098 0.005821419532165549 0 0.005821419532165549 -0.0035483952321952519 0 0 0 -0.02296753968015906 0.043242118447132702 0.086879145771920574 0 0.086879145771920574 0.060936873541330927 0 0 0 0.026044747997115911 -0.022598926441991463 0.034044602400247148 0 0.034044602400247148 0.00088780370442620438 0 0 0 -0.0054277806843914256 -0.020099966857037854 -0.029485946241937976 0 -0.029485946241937976 0.00041156443742051962 0 0 0 -0.0049221006049042781 -0.038087633539921242 0.002076665974709123 0 0.002076665974709123 0.00829781482174579 0 0 0 -0.0074474546795438596 -0.025566320047351335 0.0037369050654478811 0 0.0037369050654478811 -0.01127760842094051 0 0 0 -0.0092109821170729585 0.0046715235467142263 -0.0019411716543915707 0 -0.0019411716543915707 0.020330017893868457 0 0 0 0.0062503853601456744 -0.032107411453163287 -0.011645040138555975 0 -0.011645040138555975 -0.0022552359854625115 0 0 0 -0.0085906618596564566 -0.034650304498660744 -0.015898950102519793 0 -0.015898950102519793 -0.01315485712135156 0 0 0 -0.01195129040500309 -0.027787680680448776 0.0068230960550326354 0 0.0068230960550326354 -0.0011263960197333903 0 0 0 -0.0072285191750455433 -0.077710644468421797 -0.018653112766948532 0 -0.018653112766948532 0.00053660578577097162 0 0 0 -0.019293509670662679 -0.063588349724999826 -0.023824689005994826 0 -0.023824689005994826 0.0052820691800619102 0 0 0 -0.014576570136234313 -0.024773155023172008 0.00171410124749243 0 0.00171410124749243 -0.0082624328713368726 0 0 0 -0.0082588969736272205 -0.090998550921129961 0.049833097452892439 0 0.049833097452892439 0.0081414086325022339 0 0 0 -0.020714285572156821 -0.12082233702073908 0.039640095622277216 0 0.039640095622277216 -0.00077497411729066101 0 0 0 -0.030399327784507379 -0.010560239538883853 0.0081859873484455559 0 0.0081859873484455559 0.025087961061782238 0 0 0 0.0036319303807244574 -0.01247575039523835 -0.014131937807004141 0 -0.014131937807004141 0.049135420798992135 0 0 0 0.0091649176009384048 -0.0091757620674669249 -0.017381846983440946 0 -0.017381846983440946 0.008410456492942836 0 0 0 -0.00019132639363100834 -0.026400591074260904 -0.00033472973027559583 0 -0.00033472973027559583 -0.017475120655833787 0 0 0 -0.010968927932523742 0.018003047472781614 0.042416656303213306 0 0.042416656303213306 0.1044764577663374 0 0 0 0.030619876309779775 -0.030029793450821754 -0.0060029768928445172 0 -0.0060029768928445172 -0.014239112981466394 0 0 0 -0.011067226608072037 -0.043388981548090594 -0.011467365572870314 0 -0.011467365572870314 0.032885728257542268 0 0 0 -0.0026258133226370883 0.035333259442496989 0.030471263772882007 0 0.030471263772882007 0.021108419076528939 0 0 0 0.014110419629756676 -0.038111589145039482 0.0015000451352576911 0 0.0015000451352576911 0.0067999719167279038 0 0 0 -0.0078279043070778927 -0.021015375233071065 0.038470175356539515 0 0.038470175356539515 0.0039285689976469307 0 0 0 -0.0042717015588558116 -0.01943283612895913 -0.024702243861257522 0 -0.024702243861257522 0.00054465336754128124 0 0 0 -0.0047220456903544483 -0.036968328818140855 0.0028615120739167257 0 0.0028615120739167257 -0.004106896249254163 0 0 0 -0.010268806266848753 -0.063468452316520402 -0.015640113478432065 0 -0.015640113478432065 0.056033604333087433 0 0 0 -0.001858711995858256 -0.020590796164091318 0.030857903773110706 0 0.030857903773110706 0.057817584629683338 0 0 0 0.0093066971163976442 -0.018809174358211223 -0.012375871946096129 0 -0.012375871946096129 0.0016734897106494007 0 0 0 -0.0042839211618905249 -0.12738667785986491 0.0022056575555183698 0 0.0022056575555183698 0.0011885989742758118 0 0 0 -0.031549519721397301 -0.22540403670019921 -0.0077159664600673977 0 -0.0077159664600673977 0.0018825954475547024 0 0 0 -0.055880360313161098 -0.028161076119961215 0.020765422988387239 0 0.020765422988387239 0.098002369623920726 0 0 0 0.017460323375989906 -0.067285452180417551 0.0076382189236317288 0 0.0076382189236317288 -0.00024018640037964945 0 0 0 -0.016881409645199311 0.014989477383259535 -0.00087103432144802762 0 -0.00087103432144802762 0.053990015566329014 0 0 0 0.017244873237397235 0.0081742271684984713 0.0024772849719060241 0 0.0024772849719060241 0.07424252849201074 0 0 0 0.020604188915127275 0.0070212642328409403 -0.0047637273738050934 0 -0.0047637273738050934 0.14021451701369281 0 0 0 0.036808945311633479 0.020582445937519234 -0.0020221316840113857 0 -0.0020221316840113857 0.11555880733593549 0 0 0 0.03403531331836368 -0.016552874041782989 0.0089502866287434757 0 0.0089502866287434757 -0.0024553383173190613 0 0 0 -0.0047520530897755819 -0.017569645300818837 -0.015900826901280501 0 -0.015900826901280501 0.014408668918444612 0 0 0 -0.00079024409559358411 -0.016445197203164341 0.0037865516393591481 0 0.0037865516393591481 0.10090706581882303 0 0 0 0.021115467153914713 -0.015991976271537617 -0.010109877953702551 0 -0.010109877953702551 0.049240954672443271 0 0 0 0.0083122446002263928 -0.067591645528640582 0.0050021764820141409 0 0.0050021764820141409 0.047454882403115961 0 0 0 -0.0050341907813811551 -0.0036418537785465332 0.027350147688923521 0 0.027350147688923521 0.038210086619193007 0 0 0 0.0086420582101620624 -0.0086617278056229097 0.008874194842377392 0 0.008874194842377392 -0.0032726716238027365 0 0 0 -0.0029835998573561895 -0.0067139372355885518 -0.0073643130507849985 0 -0.0073643130507849985 -0.0033434100069515971 0 0 0 -0.002514336810635176 -0.006104741940122782 -0.023271105523195446 0 -0.023271105523195446 0.014871159957429381 0 0 0 0.0021916045043264276 -0.030621394171439373 0.0059156364910342525 0 0.0059156364910342525 -0.0018661821200190061 0 0 0 -0.008121894072864606 -0.016873596516355061 0.026953411871271538 0 0.026953411871271538 0.051665105811988743 0 0 0 0.0086978773239086427 -0.0041180415883069893 -0.0064780284950691769 0 -0.0064780284950691769 -0.0025161122526720647 0 0 0 -0.0016585384602446768 -0.051010967397606133 -0.0054532991062484137 0 -0.0054532991062484137 0.071164144938777749 0 0 0 0.0050382943852928953 -0.0050031662742231475 0.0079906389885882056 0 0.0079906389885882056 -0.0033970097400519705 0 0 0 -0.0021000440035683354 -0.015179578226940826 -0.023838211687219224 0 -0.023838211687219224 0.026214420900317226 0 0 0 0.0027587106683439888 -0.0095333728231114523 -0.025673947159179145 0 -0.025673947159179145 0.020147198870055227 0 0 0 0.0026534565117359854 -0.045232884852193275 -0.021654859303525398 0 -0.021654859303525398 0.006560851146993979 0 0 0 -0.0096680084262998206 -0.044620032908181201 -0.020527792578849013 0 -0.020527792578849013 0.007726622188167831 0 0 0 -0.0092233526800033494 -0.030374750910675777 -0.009421013604041243 0 -0.009421013604041243 -0.0094402520857052169 0 0 0 -0.0099537507490952554 -0.024099012398628661 0.074072071717892207 0 0.074072071717892207 0.017499083552312777 0 0 0 -0.0016499822115788598 -0.074558599162338979 -0.0085844841499196356 0 -0.0085844841499196356 -0.00035402646926108172 0 0 0 -0.018728156407900043 0.012573654955659055 -0.017868566153068879 0 -0.017868566153068879 0.037125695328611874 0 0 0 0.012424837571067757 -0.02267482096437537 -0.008841427071131211 0 -0.008841427071131211 0.023733547832971824 0 0 0 0.00026468171714912059 -0.012485101558068007 0.020486773236443215 0 0.020486773236443215 0.01879411006924997 0 0 0 0.0015772521277954907 -0.028406412587547919 -0.010228192384728288 0 -0.010228192384728288 -0.014858010946240396 0 0 0 -0.010816105883447086 -0.030528109411659177 -0.011332354080938432 0 -0.011332354080938432 -0.017015392359814641 0 0 0 -0.011885875442868454 -0.25097031343460641 0.0054385376028747582 0 0.0054385376028747582 0.00710366954776398 0 0 0 -0.060966660971710662 -0.1340599106049819 -0.0025156804539902353 0 -0.0025156804539902353 0.0031080395722872245 0 0 0 -0.032737967758173725 -0.035198522908157143 -0.004548009340499511 0 -0.004548009340499511 -0.01173477576240335 0 0 0 -0.011733324667640122 -0.041096755599218375 0.0047417860827133557 0 0.0047417860827133557 -0.013698569945936769 0 0 0 -0.013698831386288784 -0.0051205998241780903 0.0069555000380205484 0 0.0069555000380205484 0.0064489500163296964 0 0 0 0.00033208754803790153 -0.021868768946155095 0.017863204974536827 0 0.017863204974536827 0.021803214258157802 0 0 0 -1.6388671999330306e-05 -0.015889577402038849 0.012689003618343443 0 0.012689003618343443 0.0045959720035610302 0 0 0 -0.0028234013496194598 -0.11961445518128951 -0.014231210395034929 0 -0.014231210395034929 -0.011093949745057678 0 0 0 -0.032677101231586791 -0.088159341433839661 0.0032540399582607418 0 0.0032540399582607418 -0.0058400517742987143 0 0 0 -0.023499848302034613 0.045492221782869269 0.035527101631179614 0 0.035527101631179614 0.026815298449201386 0 0 0 0.018076880058017553 -0.099868360408212647 -0.013282191507329212 0 -0.013282191507329212 -0.0066496015525707641 0 0 0 -0.026629490490195844 -0.078549899587504662 0.0031407644214204705 0 0.0031407644214204705 -0.0038970449642811503 0 0 0 -0.020611736137946465 -0.034174422851369624 -0.0038601753628132729 0 -0.0038601753628132729 -0.0053123612960159772 0 0 0 -0.0098716960368462336 0.035332418806811927 0.10075428723791424 0 0.10075428723791424 0.062811513663620033 0 0 0 0.024535983117607962 -0.0087372394107268596 0.010146928627572084 0 0.010146928627572084 -0.0023781705386015789 0 0 0 -0.0027788524873321001 -0.029707447767215109 -0.0081024067950938028 0 -0.0081024067950938028 0.01391954262897821 0 0 0 -0.0039469762845592143 -0.062508621732155004 -0.0079388191091740497 0 -0.0079388191091740497 -0.020832119337591149 0 0 0 -0.020835185267436537 -0.057432676255640136 0.0033110125583266049 0 0.0033110125583266049 -0.019140179389857105 0 0 0 -0.019143213911374309 -0.11467801628652005 0.0037430102660193829 0 0.0037430102660193829 -0.00057738622874312084 0 0 0 -0.028813850628815797 -0.18613951707803639 -0.010109336396319432 0 -0.010109336396319432 -0.0011655104366548596 0 0 0 -0.046826256878672812 -0.068300833500143321 -0.011085052495625802 0 -0.011085052495625802 0.024790040529192592 0 0 0 -0.010877698242737655 0.0095349620253007417 -0.016486332251599845 0 -0.016486332251599845 0.026041355305012615 0 0 0 0.0088940793325782974 -0.059088950452773029 -0.011268116703784581 0 -0.011268116703784581 0.053066864388003031 0 0 0 -0.0015055215161925255 -0.028795577151700731 0.013881292713138253 0 0.013881292713138253 0.031202245165713263 0 0 0 0.00060166700350313546 -0.039698708917766286 0.0084479296953415359 0 0.0084479296953415359 0.035587590278507997 0 0 0 -0.0010277796598145827 0.0019486065635973791 0.020489772785027588 0 0.020489772785027588 0.031120462460330504 0 0 0 0.0082672672559819908 0.01391606771282668 0.016434002631249015 0 0.016434002631249015 0.017481418278814949 0 0 0 0.0078493714979104047 -0.019530443910927398 -0.012180651668656561 0 -0.012180651668656561 -0.016536354538562725 0 0 0 -0.0090166996123725585 -0.056936482719318532 -0.016899510831208747 0 -0.016899510831208747 0.026176752612486587 0 0 0 -0.0076899325267080487 -0.06525563187678908 -0.030380194821006901 0 -0.030380194821006901 0.063055928747012463 0 0 0 -0.0005499257824441578 -0.016329548149494905 -0.05169829988290689 0 -0.05169829988290689 0.10158410317430271 0 0 0 0.021313638756201941 -0.10856134856507049 0.0033702548798556914 0 0.0033702548798556914 -0.00068180239565701628 0 0 0 -0.027310787740181884 -0.16843908323948761 -0.0086305487078566466 0 -0.0086305487078566466 -0.0014359346318640609 0 0 0 -0.042468754467837933 -0.0012528635710899209 -0.00184043167921355 0 -0.00184043167921355 -0.016805459502767219 0 0 0 -0.0045145807684643128 -0.016710105389461216 -0.026907333245807713 0 -0.026907333245807713 0.077731348762017149 0 0 0 0.015255310843138969 -0.018194831652791812 0.011117102264020512 0 0.011117102264020512 -0.0025933371324475853 0 0 0 -0.0051970421963098519 -0.095582705276860816 -0.012959051055336223 0 -0.012959051055336223 -0.014618924858609356 0 0 0 -0.027550407533867536 -0.075477888113945069 0.003284003799116841 0 0.003284003799116841 -0.0088788221075750719 0 0 0 -0.021089177555380034 -0.039072615565349439 0.0024192138098194762 0 0.0024192138098194762 -0.0049103323646415026 0 0 0 -0.01099573698249773 -0.059174231239239518 -0.0074581348982657985 0 -0.0074581348982657985 0.05769947318910254 0 0 0 -0.00036868951253425392 -0.02139681027216947 -0.012395662480118363 0 -0.012395662480118363 0.026532892874567726 0 0 0 0.0012840206505995988 -0.041008541008468159 0.0043133580269412008 0 0.0043133580269412008 -0.0027739287579217377 0 0 0 -0.010945617441597477 -0.059789011428454941 0.015416112916790681 0 0.015416112916790681 0.00058312373129520978 0 0 0 -0.014801471924290377 -0.016947103256029494 -0.019685089432949443 0 -0.019685089432949443 0.046559014585735303 0 0 0 0.0074029778324264384 -0.010440485485305295 -0.017757680599460923 0 -0.017757680599460923 0.039520712246173484 0 0 0 0.0072700566902169639 -0.04219186241860011 -0.025951054079201258 0 -0.025951054079201258 0.038272783837832253 0 0 0 -0.00097976964519200238 -0.044166677567321774 -0.015248845506616621 0 -0.015248845506616621 0.029975246023256519 0 0 0 -0.0035478578860163312 -0.0392735075488359 -0.0024473232360240089 0 -0.0024473232360240089 0.02469689499887575 0 0 0 -0.0036441531374900391 -0.05708491097257519 -0.0080761012975384405 0 -0.0080761012975384405 0.054641329319140869 0 0 0 -0.00061089541335859754 2.2150664348963289e-05 0.023145445829864109 0 0.023145445829864109 0.11721256531843149 0 0 0 0.029308678995695114 0.00022013664839204417 0.00035005155988576675 0 0.00035005155988576675 0.00084118101751418095 0 0 0 0.00026532941647650077 -0.0030880785150067536 -0.019062350437272002 0 -0.019062350437272002 0.061756866968966428 0 0 0 0.014667197113489905 0.00049237902902199426 -0.00078846583068692411 0 -0.00078846583068692411 0.0010406509693066113 0 0 0 0.00038325749958201261 -0.039703292848322899 0.0016930128060672267 0 0.0016930128060672267 0.026707924413203701 0 0 0 -0.0032488421087797925 -0.041467845968934366 -0.0012478988983672611 0 -0.0012478988983672611 0.017273845769610153 0 0 0 -0.0060485000498310699 -0.038789237601211113 -0.011717826540339878 0 -0.011717826540339878 0.024469024224079219 0 0 0 -0.003580053344282963 -0.14829904351472439 -0.014359568557277484 0 -0.014359568557277484 0.0020753290940160318 0 0 0 -0.036555928605177028 -0.17095086631294176 -0.02198943813104895 0 -0.02198943813104895 0.0027283924516012525 0 0 0 -0.042055618465335162 -0.035558356921798664 -0.022733329901977507 0 -0.022733329901977507 -0.00034282695127042795 0 0 0 -0.0089752959682672835 -0.049065830787332759 -0.0019317556356110953 0 -0.0019317556356110953 0.0067502040083425585 0 0 0 -0.01057890669474755 -0.019771944579586455 -0.035134841067282749 0 -0.035134841067282749 0.056484456336920702 0 0 0 0.0091781279393335635 -0.073206503286598459 0.0042282527190573328 0 0.0042282527190573328 -0.0077862649954932375 0 0 0 -0.020248192070522922 -0.062844558083575364 0.0036925766307734751 0 0.0036925766307734751 -0.010149724901326016 0 0 0 -0.018248570746225354 -0.06903345620388561 -0.012169444324614127 0 -0.012169444324614127 -0.017339650165908861 0 0 0 -0.021593276592448616 -0.089548229336262539 -0.014611798115580299 0 -0.014611798115580299 -0.016363990263145292 0 0 0 -0.026478054899851975 -0.060873004716340717 -0.023346724321595624 0 -0.023346724321595624 0.00051755070739822884 0 0 0 -0.015088863502235594 -0.047872333102591536 -0.024445297903186641 0 -0.024445297903186641 0.0015698996550908006 0 0 0 -0.011575608361875211 -0.037749704054478764 -0.0039127977102643499 0 -0.0039127977102643499 -0.018805016440234891 0 0 0 -0.014138680123678414 -0.036301948200850115 -0.0052268282276725008 0 -0.0052268282276725008 -0.018957102392636149 0 0 0 -0.013814762648371571 -0.041295950559254287 0.005746122046890235 0 0.005746122046890235 -0.010766252253191647 0 0 0 -0.013015550703111486 -0.044555746879749655 0.0035479150347923431 0 0.0035479150347923431 -0.014140824430323313 0 0 0 -0.014674142827518243 -0.026416698951876594 0.042360848042545474 0 0.042360848042545474 0.0088120025134692526 0 0 0 -0.0044011741096015022 -0.026816662472953667 -0.027172926018226407 0 -0.027172926018226407 -0.0037085979613418196 0 0 0 -0.007631315108573733 -0.056955091577731778 0.0025051868563591168 0 0.0025051868563591168 -0.008101696082982458 0 0 0 -0.016264196915178566 -0.04910644121899875 -0.0094407564811573932 0 -0.0094407564811573932 -0.017454101567930244 0 0 0 -0.016640135696732242 -0.038317722373908888 -0.0062077035088768731 0 -0.0062077035088768731 0.012022523723234452 0 0 0 -0.0065737996626686196 -0.066680935575361158 0.0035795203311118863 0 0.0035795203311118863 -0.0058540048853874442 0 0 0 -0.01813373511518715 -0.07340286860900383 -0.013853855341481619 0 -0.013853855341481619 -0.01138074364998435 0 0 0 -0.021195903064747033 -0.085883794249775824 -0.014749639575334456 0 -0.014749639575334456 0.097896633736836713 0 0 0 0.0030032098717652361 -0.042636884931942967 -0.0034686778787464297 0 -0.0034686778787464297 0.013565383379500598 0 0 0 -0.007267875388110594 -0.078378874604011925 -0.0071886574738224459 0 -0.0071886574738224459 -0.026137064024701884 0 0 0 -0.026128984657178451 -0.065723000657300024 0.0015806437959872857 0 0.0015806437959872857 -0.021913278867803952 0 0 0 -0.021909069881275996 0.018077703557673727 0.012737632633204762 0 0.012737632633204762 0.034392737791079264 0 0 0 0.013117610337188237 -0.0070120756404337126 -0.0018706746696692256 0 -0.0018706746696692256 -0.02913661135413137 0 0 0 -0.0090371717486412706 -0.05835586446243797 0.0011801386131354424 0 0.0011801386131354424 0.0092665267835589649 0 0 0 -0.012272334419719741 0.0033884148949809845 -0.027989722879585843 0 -0.027989722879585843 0.01908678290836241 0 0 0 0.0056187994508359873 -0.040545284291064521 0.0032601364027559023 0 0.0032601364027559023 0.026955744934662147 0 0 0 -0.0033973848391005909 -0.047743086299631629 -0.0094531057361246715 0 -0.0094531057361246715 0.029201090333019625 0 0 0 -0.0046354989916529976 -0.14076620597474221 -0.0038278178869407559 0 -0.0038278178869407559 -0.010933323246099797 0 0 0 -0.037924882305210496 -0.10068565119726129 -0.0024425168589998283 0 -0.0024425168589998283 -0.0081070288890743372 0 0 0 -0.027198170021583902 -0.013392822578404434 -0.017936713907927712 0 -0.017936713907927712 0.035242611559062026 0 0 0 0.0054624472451643979 -0.03475421375809197 0.008273446132869261 0 0.008273446132869261 0.017508078442275712 0 0 0 -0.0043115338289540766 -0.042202030468205524 -0.0045821823085509944 0 -0.0045821823085509944 0.0084494564832523437 0 0 0 -0.0084381434962382991 -0.085187888687646152 0.00039674258275979035 0 0.00039674258275979035 0.0052827915305391215 0 0 0 -0.019976274289276744 -0.089317824715348326 0.017686543447195557 0 0.017686543447195557 0.00075573488469649064 0 0 0 -0.022140522457662959 -0.047082541668122035 -0.0037562551045349918 0 -0.0037562551045349918 0.025736824373444045 0 0 0 -0.0053364293236694699 -0.046824956470838203 -0.018779358189678477 0 -0.018779358189678477 0.013584596050333075 0 0 0 -0.008310090105126261 -0.04577057120814302 -0.00080488655331360792 0 -0.00080488655331360792 0.0095641889048784096 0 0 0 -0.0090515955758161751 -0.032948867819908606 0.0075382480039479262 0 0.0075382480039479262 0.022257047462085944 0 0 0 -0.0026729550894556628 -0.05101254272971923 -0.021392239843342015 0 -0.021392239843342015 0.014142299305235029 0 0 0 -0.0092175608561210834 0.046007603215390894 0.016767850611628221 0 0.016767850611628221 0.089025285120849007 0 0 0 0.033758222084059972 -0.052090268081944405 0.0037773593344634909 0 0.0037773593344634909 0.0038178491421706207 0 0 0 -0.012068104734943449 -0.050582135146243434 0.012676642911100124 0 0.012676642911100124 -0.0027334949635369199 0 0 0 -0.013328907527444978 -0.015859852919257234 -0.016483959399508419 0 -0.016483959399508419 0.051400544404323956 0 0 0 0.0088851728712666111 -0.0030193222762015526 -0.014824749488634659 0 -0.014824749488634659 0.035812911103596079 0 0 0 0.0081983972068487287 -0.11426970030486108 -0.023403139829178604 0 -0.023403139829178604 0.030903618806276713 0 0 0 -0.020841520374646007 -0.0017018429966029966 -0.014613287435676824 0 -0.014613287435676824 -0.013946424317381842 0 0 0 -0.0039120668284962148 -0.10948544972779668 0.0058817398073786054 0 0.0058817398073786054 0.0019806614203450867 0 0 0 -0.026876197076862909 -0.18506944494719868 -0.020252448374202481 0 -0.020252448374202481 0.005528295092799354 0 0 0 -0.044885287463599891 -0.10614455573471518 7.9483666931529084e-05 0 7.9483666931529084e-05 0.00031473766921463753 0 0 0 -0.026457454516375184 -0.18261904752642835 -0.0042894732210889408 0 -0.0042894732210889408 0.0023079106476515676 0 0 0 -0.045077784219694217 -0.08731543953131024 -0.0022551085851571675 0 -0.0022551085851571675 -0.011796264535549779 0 0 0 -0.024777926016715017 -0.1178100274661724 -0.0031838122255738489 0 -0.0031838122255738489 -0.014981292834704271 0 0 0 -0.033197830075219162 -0.05001331982104016 -0.013115214905185968 0 -0.013115214905185968 0.039177376297174812 0 0 0 -0.0027089858809663456 -0.045957249877183921 -0.021522011232018273 0 -0.021522011232018273 0.049974763119494822 0 0 0 0.0010043783105777235 -0.015569979570792425 -0.003425260368835753 0 -0.003425260368835753 0.056438908978164837 0 0 0 0.010217232351843131 -0.0092481353829348967 -0.0011348000357220278 0 -0.0011348000357220278 0.11083313539701828 0 0 0 0.025396250003520859 -0.021524122328656317 0.0054792008820048477 0 0.0054792008820048477 0.034776219555524096 0 0 0 0.0033130243067169551 -0.015549483548407628 0.0016947067148510853 0 0.0016947067148510853 0.095675699706479878 0 0 0 0.020031554039518062 -0.026212368633320188 -0.0091297848948231897 0 -0.0091297848948231897 0.048258000453981431 0 0 0 0.0055114079551652762 -0.046480546947200316 -0.00046417573261268996 0 -0.00046417573261268996 0.010414228755103259 0 0 0 -0.0090165795480242582 -0.030817649133189906 -0.021326243900745903 0 -0.021326243900745903 0.041501628692382941 0 0 0 0.002670994889798245 -0.048101245244717317 -0.022998860199945428 0 -0.022998860199945428 0.03715532697568491 0 0 0 -0.00273647956725806 -0.044475020912270007 -0.00080268074238182383 0 -0.00080268074238182383 0.048903363629971386 0 0 0 0.0011070856794253431 -0.12219321903153113 0.016995704630007442 0 0.016995704630007442 -0.0017022096327110603 0 0 0 -0.030973857166060492 -0.05731100611265208 -0.0074412030849409332 0 -0.0074412030849409332 0.050987238067435159 0 0 0 -0.0015809420113042302 0.0035717918953250549 -0.013063250281177885 0 -0.013063250281177885 0.14480360895096511 0 0 0 0.037093850211572604 0.051616685825474851 -0.017474108905003845 0 -0.017474108905003845 0.076691473750322814 0 0 0 0.032077039893949416 0.0093369896778172645 -0.014942155880637853 0 -0.014942155880637853 0.030013359297297759 0 0 0 0.0098375872437787559 -0.20313153124316613 -0.015426846647392439 0 -0.015426846647392439 0.0048790354567227467 0 0 0 -0.049563123946610804 -0.11599375894725295 0.0052804050823710424 0 0.0052804050823710424 0.0015191018104645793 0 0 0 -0.028618664284197126 -0.058834982472642142 -0.0068847750856972428 0 -0.0068847750856972428 0.054818449086450644 0 0 0 -0.001004133346547878 -0.076318563111324345 0.040459990670165036 0 0.040459990670165036 -0.0066264553249877345 0 0 0 -0.020736254609078131 -0.053598574852303127 0.038965578584867711 0 0.038965578584867711 0.00094687409468541262 0 0 0 -0.013162925189404318 -0.027553981634846569 -0.030833096544503613 0 -0.030833096544503613 0.017591214577784564 0 0 0 -0.0024906917642656401 -0.019882068516556411 -0.027884897453013591 0 -0.027884897453013591 0.020148518950549171 0 0 0 6.6612608498245977e-05 -0.024085345796650892 -0.018738390915980507 0 -0.018738390915980507 0.057826274348291351 0 0 0 0.008435232137910087 -0.021036923176195987 0.0096708545772915405 0 0.0096708545772915405 0.00058202612033930734 0 0 0 -0.0051137242639645031 -0.055698882916702323 0.0038592164690888003 0 0.0038592164690888003 -0.0085279053272688012 0 0 0 -0.016056697060992775 -0.054120789140960919 -0.0074801199772442824 0 -0.0074801199772442824 -0.016914603397279696 0 0 0 -0.017758848134560152 -0.030669305715761513 -0.034272587626431816 0 -0.034272587626431816 0.0082124980783683105 0 0 0 -0.0056142019093482209 -0.030836933941194578 -0.032820411601198973 0 -0.032820411601198973 0.0082991678302239968 0 0 0 -0.0056344415277428395 -0.034272525427305606 -0.032395710139872524 0 -0.032395710139872524 0.0050695775769010187 0 0 0 -0.0073007369626012231 -0.035534061421550134 -0.03510087658904909 0 -0.03510087658904909 0.0060296680382778689 0 0 0 -0.007376098345818094 -0.048878148890682621 0.05115525175831781 0 0.05115525175831781 -0.0043534298178120046 0 0 0 -0.013307894677123205 -0.037965276485681106 0.047246182308481099 0 0.047246182308481099 -0.0026835455969620153 0 0 0 -0.010162205520661003 -0.060735179955891012 0.0049779757519050789 0 0.0049779757519050789 -0.015725143139467445 0 0 0 -0.019115080773839617 -0.071343551619834772 -0.012674941331319982 0 -0.012674941331319982 -0.021827691979775559 0 0 0 -0.023292810899902584 -0.097821942484848073 -0.012250054018163981 0 -0.012250054018163981 0.0081050727735890726 0 0 0 -0.022429217427814757 -0.16820076621508845 0.02669303647542437 0 0.02669303647542437 0.012199354522857142 0 0 0 -0.039000352923057813 -0.082595795926714774 0.0083612487058695728 0 0.0083612487058695728 0.0018295514501787957 0 0 0 -0.020191561119133991 -0.031745382673903623 0.0074950356627040875 0 0.0074950356627040875 0.0085929952925467932 0 0 0 -0.0057880968453392105 -0.0060862757103050114 -0.012252617352646933 0 -0.012252617352646933 -0.012072939413568684 0 0 0 -0.0045398037809684655 -0.12900708721958337 -0.021454096241721156 0 -0.021454096241721156 0.0015593506814854941 0 0 0 -0.031861934134524469 -0.16596398128952194 -0.017902616112091822 0 -0.017902616112091822 -0.0032998350193429726 0 0 0 -0.042315954077216243 -0.022440552938635609 0.00085239549200363752 0 0.00085239549200363752 -0.016492746365388975 0 0 0 -0.009733324826006147 -0.037554169143301952 0.0079360324429152973 0 0.0079360324429152973 0.067164135839360539 0 0 0 0.007402491674014619 -0.11591046348006769 -0.0019449963518546609 0 -0.0019449963518546609 0.00016397378002491747 0 0 0 -0.028936622425010675 -0.20864973185904756 0.0028537323591010244 0 0.0028537323591010244 -4.4569386190768112e-05 0 0 0 -0.052173575311309492 -0.067790164956840621 -0.0064147392020935667 0 -0.0064147392020935667 0.008898316877596596 0 0 0 -0.014722962019811027 -0.099320292844295485 -0.01913046460661165 0 -0.01913046460661165 -0.012048665173417947 0 0 0 -0.027842239504428358 -0.074857682869135161 -0.01852365095165065 0 -0.01852365095165065 -0.0082309159593195857 0 0 0 -0.020772149707113691 -0.0045098931973299727 0.0858686308461033 0 0.0858686308461033 0.16733629708839226 0 0 0 0.040706600972765572 -0.15529613979275184 -0.0079376795287058946 0 -0.0079376795287058946 0.00012712099652019415 0 0 0 -0.038792254699057928 -0.10090506001583772 0.0031235353851239017 0 0.0031235353851239017 0.00042922159683560224 0 0 0 -0.025118959604750569 -0.030892309340428525 -0.012479766675391593 0 -0.012479766675391593 -0.014824581444353502 0 0 0 -0.011429222696195507 -0.034121034102495174 -0.012889131146176451 0 -0.012889131146176451 -0.01152678490279746 0 0 0 -0.011411954751323117 -0.03762637585333356 0.0067800980640250301 0 0.0067800980640250301 0.038601266498641762 0 0 0 0.00024372266132705999 -0.034016507557966875 -0.01077960788225794 0 -0.01077960788225794 0.0036173330688981653 0 0 0 -0.0075997936222671619 -0.020385665318560155 0.014630471426586862 0 0.014630471426586862 0.0062027125591163912 0 0 0 -0.0035457381898609443 -0.010853825575055431 0.024364363704422631 0 0.024364363704422631 0.15514495101015746 0 0 0 0.036072781358775674 -0.081822062789967828 0.0072091605709343753 0 0.0072091605709343753 0.003203400001318385 0 0 0 -0.019654665697162326 -0.042294881684164148 -0.0019672203303261488 0 -0.0019672203303261488 0.006983512102577201 0 0 0 -0.0088278423953967299 0.050463567281447741 0.016142860691073929 0 0.016142860691073929 0.060016981197539288 0 0 0 0.027620137119746646 -0.070480986152149649 -0.010392167734110669 0 -0.010392167734110669 -0.0027780300230511451 0 0 0 -0.018314754043800167 -0.24973850785051849 -0.00097884078390461648 0 -0.00097884078390461648 -0.00033687648240743329 0 0 0 -0.062518846083231411 -0.13511414993515747 -0.00059737060795275222 0 -0.00059737060795275222 -0.00042232977627715274 0 0 0 -0.033884119927858641 -0.056604954036858661 -0.0021737193735730208 0 -0.0021737193735730208 0.062418736805492335 0 0 0 0.0014534456921584116 -0.10016787820079794 -0.015318558868465018 0 -0.015318558868465018 -0.0065093470370701373 0 0 0 -0.026669306309467015 -0.1192701111297568 -0.021515383964970831 0 -0.021515383964970831 -0.003584955815840167 0 0 0 -0.030713766736399237 0.019927705968898202 0.024985387625911445 0 0.024985387625911445 0.035007751042001878 0 0 0 0.01373386425272502 -0.047719142828375194 -0.011371947805625615 0 -0.011371947805625615 -0.00076928555822375344 0 0 0 -0.012122107096649737 -0.041741117592787313 -0.016211897271563386 0 -0.016211897271563386 0.011482709141464625 0 0 0 -0.0075646021128307206 -0.013658291764856667 0.020648571875598303 0 0.020648571875598303 0.11122783686342874 0 0 0 0.024392386274642686 -0.016914105521740774 -0.006427043839718892 0 -0.006427043839718892 0.0013377093487227931 0 0 0 -0.0038940990432545508 -0.056443553211408259 -0.027805827577336392 0 -0.027805827577336392 0.035976678052347777 0 0 0 -0.0051167187897651206 -0.032712489269689504 -0.011096242845251555 0 -0.011096242845251555 0.044272321316044749 0 0 0 0.0028899580115887835 -0.048105483897901105 -0.0036099871945585033 0 -0.0036099871945585033 0.015650293391329784 0 0 0 -0.0081137976266428408 -0.042335440294248183 0.011312026525759578 0 0.011312026525759578 -0.0013797216435653681 0 0 0 -0.010928790484453721 -0.015252397461023026 -0.019594579320091343 0 -0.019594579320091343 0.058439831120419949 0 0 0 0.010796858414849009 -0.051208501417669666 0.0031929213736816685 0 0.0031929213736816685 -0.0024418339965151109 0 0 0 -0.013412583853546194 0.0021294797735479931 -0.0018358297289740866 0 -0.0018358297289740866 0.050816047676496057 0 0 0 0.013236381862510971 -0.095311047725953932 0.0052690673397675991 0 0.0052690673397675991 0.00033648576538153341 0 0 0 -0.023743640490143089 -0.07394531410509099 -0.01930232322523158 0 -0.01930232322523158 0.026120017229776638 0 0 0 -0.011956324218828585 -0.079501727767652616 0.0067582079212522642 0 0.0067582079212522642 -0.0029196942176960006 0 0 0 -0.020605355496337154 -0.075070117252135415 -0.01046084372082412 0 -0.01046084372082412 0.0015239193028442344 0 0 0 -0.018386549487322879 -0.10289109563741305 0.0044259539911214174 0 0.0044259539911214174 -0.00072776153158304879 0 0 0 -0.025904714292248998 -0.091591275197306699 0.005841298462241469 0 0.005841298462241469 0.00026663815679894842 0 0 0 -0.022831159260126931 -0.08256654975530231 0.051428655379553767 0 0.051428655379553767 -0.001291699578133354 0 0 0 -0.020964562333358749 -0.055112219781840999 -0.0060372191911403127 0 -0.0060372191911403127 -0.019516871108770172 0 0 0 -0.018657272722652794 -0.061851265267556702 -0.012856759338915311 0 -0.012856759338915311 -0.019899705667236058 0 0 0 -0.020437742733698187 -0.057178619762133974 0.0055446232668688988 0 0.0055446232668688988 -0.012246104675005528 0 0 0 -0.017356181109284875 -0.054762952687782702 0.0026303048616362207 0 0.0026303048616362207 -0.014624863259725803 0 0 0 -0.017346953986877123 -0.04052158324197936 -0.0093964382290457615 0 -0.0093964382290457615 0.020534632739304809 0 0 0 -0.0049967376256686083 -0.032258382801948204 -0.034072510713299343 0 -0.034072510713299343 0.052554320991650319 0 0 0 0.0050739845474255252 -0.046922982199897698 -0.023688233553469273 0 -0.023688233553469273 0.02008846562581253 0 0 0 -0.0067086291435212893 -0.049442899242089666 -0.015171733918121794 0 -0.015171733918121794 0.036549618321452648 0 0 0 -0.0032233202301592545 -0.045064339495781328 -0.019240020022891921 0 -0.019240020022891921 0.018671419996544092 0 0 0 -0.0065982298748093055 -0.031733246755129063 -0.0019942215115061473 0 -0.0019942215115061473 0.048737955929592292 0 0 0 0.0042511772936158487 -0.032413988175578584 -0.0099988040875316486 0 -0.0099988040875316486 0.024463494059047908 0 0 0 -0.0019876235291326483 -0.13786529674520343 0.0017215974022986703 0 0.0017215974022986703 0.00068189597900658594 0 0 0 -0.034295850191549265 -0.26067082195014224 -0.0048816920395014247 0 -0.0048816920395014247 0.0042033124677953726 0 0 0 -0.064116877370586689 -0.022034736633258611 -0.0096835974144668935 0 -0.0096835974144668935 0.026405377984667966 0 0 0 0.0010926603378523386 -0.026483862866067215 -0.0036619321388858539 0 -0.0036619321388858539 0.057826732547378412 0 0 0 0.0078357174203277646 -0.07512454937358351 0.0047946412147423512 0 0.0047946412147423512 0.0097633262592969339 0 0 0 -0.016340305778571679 -0.029019114676652927 0.0039278876026706414 0 0.0039278876026706414 -0.011330979861151738 0 0 0 -0.010087523634451164 -0.04683419075224541 -0.012283167457827079 0 -0.012283167457827079 -0.0081277228035870758 0 0 0 -0.013740478388958139 -0.032258476932709071 -0.0043003497847312316 0 -0.0043003497847312316 -0.014327784838511775 0 0 0 -0.011646565442805212 -0.026422421364245358 -0.048984167650560184 0 -0.048984167650560184 0.099083358205454719 0 0 0 0.018165234210302361 -0.097289085712776585 0.0017440430573813087 0 0.0017440430573813087 -0.0041382745307623342 0 0 0 -0.025356840060884733 -0.090299020845274622 0.0010889048323135808 0 0.0010889048323135808 -0.0021576587777664483 0 0 0 -0.023114169905760269 -0.12280726353493804 -0.0084332316502428468 0 -0.0084332316502428468 -0.0024620698583850964 0 0 0 -0.031317333348330791 -0.14158684165153612 -0.0097432282582326779 0 -0.0097432282582326779 -0.0071379057730282733 0 0 0 -0.037181186856141052 -0.1166446008706572 -0.0080924770631303541 0 -0.0080924770631303541 0.0012945634482168789 0 0 0 -0.028837509355610025 -0.024631940346042325 0.081540288362392688 0 0.081540288362392688 0.10373870609680602 0 0 0 0.019776691437690896 -0.0020324280576856646 -0.015773985233769716 0 -0.015773985233769716 0.033394671206421367 0 0 0 0.0078405607871838701 -0.012625421039664025 -0.0098483139961575983 0 -0.0098483139961575983 -0.015496272051363074 0 0 0 -0.0070304232727567192 -0.057548652593925602 0.0045845937035221968 0 0.0045845937035221968 -0.0028430866187936048 0 0 0 -0.015097934803179809 -0.057149142768264952 -0.0046540185732533088 0 -0.0046540185732533088 0.045580560441992948 0 0 0 -0.0028921455815679939 -0.083074309408792985 0.0053924422282103646 0 0.0053924422282103646 -0.00069199785154461235 0 0 0 -0.020941576815084434 0.0018911936278245278 0.033556011772239547 0 0.033556011772239547 0.026934126992359975 0 0 0 0.0072063301550460146 -0.033315533456418724 0.0059947324798277826 0 0.0059947324798277826 -0.011519302002476141 0 0 0 -0.011208708864723717 -0.033238766957760804 -0.016988497225483679 0 -0.016988497225483679 -0.010050928309469881 0 0 0 -0.010822423816807657 0.026952615237313474 -0.065658684528952155 0 -0.065658684528952155 0.079636866587830799 0 0 0 0.026647370456286075 -0.20772477916443433 0.018855172866547698 0 0.018855172866547698 0.0018952778923062574 0 0 0 -0.05145737531803185 -0.023555504544101359 0.0029796291831888149 0 0.0029796291831888149 -0.01201567006888613 0 0 0 -0.0088927936532468728 -0.064540418509935971 0.0019095756480827239 0 0.0019095756480827239 -0.015862133949962876 0 0 0 -0.0201006381149747 -0.074083039820824578 -0.0072225817078853628 0 -0.0072225817078853628 -0.020791580353971096 0 0 0 -0.023718655043698911 -0.02726818475524824 0.011014820019177446 0 0.011014820019177446 0.014278741688648719 0 0 0 -0.0032473607666498802 -0.10652857321900913 0.0038531774196800539 0 0.0038531774196800539 0.002089333166183982 0 0 0 -0.026109810013206308 -0.18029521563443893 -0.013107921128532263 0 -0.013107921128532263 0.0074858659462073152 0 0 0 -0.043202337422057778 -0.0045595868897132519 0.028118235020216487 0 0.028118235020216487 0.062949734135284707 0 0 0 0.014597536811392864 -0.042681385802734173 -0.014947792398123938 0 -0.014947792398123938 -0.0032874299115630556 0 0 0 -0.011492203928574085 -0.026274927753164964 0.0037936408096993779 0 0.0037936408096993779 0.058282376466608804 0 0 0 0.0080018621783609356 -0.021275768616134727 -0.022383324807263426 0 -0.022383324807263426 0.015946404396649072 0 0 0 -0.0013323410548713999 -0.037146249065742043 0.0023624181625218621 0 0.0023624181625218621 0.025075151781789762 0 0 0 -0.0030177743209880703 -0.032171226659523378 0.0057132922520617656 0 0.0057132922520617656 0.0059720117482552158 0 0 0 -0.0065498037278170478 -0.025138408628577941 0.00027980882303653843 0 0.00027980882303653843 -0.015769723430794108 0 0 0 -0.010227033014843012 -0.050063673300771404 0.0027916519289239976 0 0.0027916519289239976 0.0025024272355328968 0 0 0 -0.011890311516309614 -0.04191058282777696 -0.020663756951875768 0 -0.020663756951875768 0.12481823079502447 0 0 0 0.020726911991811883 -0.044096933884429416 -0.021323672701083679 0 -0.021323672701083679 0.11519183556002488 0 0 0 0.017773725418898871 -0.038537420203594408 -0.023855294487226675 0 -0.023855294487226675 -0.00019676561523862546 0 0 0 -0.0096835464547082584 -0.033127885525665146 -0.022290231287795448 0 -0.022290231287795448 -0.00063703341194010221 0 0 0 -0.0084412297344014231 -0.017161181741821574 0.039662177673929877 0 0.039662177673929877 0.031772629369666738 0 0 0 0.0036528619069615686 -0.024854375240662474 0.04012880008651698 0 0.04012880008651698 0.029447540390723503 0 0 0 0.0011482912875151463 -0.017114893522843788 0.045483339816950227 0 0.045483339816950227 0.01578030113043738 0 0 0 -0.00033364809810154661 0.014525297914803836 0.044018999874931852 0 0.044018999874931852 0.023447581293400965 0 0 0 0.0094932198020512004 -0.027549027910887376 0.003993429301511928 0 0.003993429301511928 -0.0091835046147301144 0 0 0 -0.0091831331314043696 -0.024437471768517474 0.0029187894774897749 0 0.0029187894774897749 0.075908413621177395 0 0 0 0.012867735463164956 -0.03272528711657724 0.000323174451767827 0 0.000323174451767827 0.042903925638942492 0 0 0 0.0025446596305913338 -0.080068640006078273 -0.016614652993477197 0 -0.016614652993477197 -0.00078386056092494272 0 0 0 -0.020213125141750776 -0.091565695697635952 -0.0067206161042596135 0 -0.0067206161042596135 -0.0004704600719734886 0 0 0 -0.02300903894240236 -0.15295136973219758 0.015426257308292946 0 0.015426257308292946 -0.0012338012288062306 0 0 0 -0.038546292740250787 -0.012934625962365318 0.024916243587702308 0 0.024916243587702308 0.03184395170896738 0 0 0 0.0047273314366505226 -0.0090540977404563044 0.026969522890764513 0 0.026969522890764513 0.040503951060400833 0 0 0 0.0078624633299861219 -0.027386805881725526 0.0059982342000999165 0 0.0059982342000999165 -0.0068592324814962038 0 0 0 -0.008561509590805429 -0.029608238212928524 0.004916144824017493 0 0.004916144824017493 -0.011848282882854781 0 0 0 -0.010364130273945827 -0.15981727383601158 -0.014676282748981598 0 -0.014676282748981598 -0.0058744949645695294 0 0 0 -0.041422942200145293 -0.10198773082449041 0.0043457103760565219 0 0.0043457103760565219 -0.0012907990394817395 0 0 0 -0.025819632465993014 -0.09249533432634538 0.006610480428445531 0 0.006610480428445531 -0.00203202422874528 0 0 0 -0.023631839638772648 -0.010628754162275156 0.027261032825003584 0 0.027261032825003584 0.074219656239557175 0 0 0 0.015897725519320893 -0.033635004302467575 -0.01027491858534646 0 -0.01027491858534646 0.0027351423797679075 0 0 0 -0.0077249654806749168 -0.029014266855321401 -0.0020191388711510352 0 -0.0020191388711510352 -0.013903547919124791 0 0 0 -0.010729453693611548 -0.0163571904538545 0.0010437413947187654 0 0.0010437413947187654 -0.0093679366810123718 0 0 0 -0.006431281783716724 -0.060488570409337972 -0.026641546436888763 0 -0.026641546436888763 0.004739601986572417 0 0 0 -0.013937242105691361 -0.061817063284299922 -0.017539625988346963 0 -0.017539625988346963 -0.002306404599411907 0 0 0 -0.016030866970927926 -0.033800409907936847 -0.011419115914598627 0 -0.011419115914598627 0.027924378752364289 0 0 0 -0.0014690077888931466 -0.0049983180497879739 0.019550161591168819 0 0.019550161591168819 0.017946693311617606 0 0 0 0.0032370938154573994 -0.08601825924352266 0.05584965971627831 0 0.05584965971627831 0.0023291638003996029 0 0 0 -0.02092227386078091 -0.094849226231209643 -0.0013636829986856946 0 -0.0013636829986856946 0.0040334403716999478 0 0 0 -0.022703946464877472 -0.15891176735112661 0.0020502337920118435 0 0.0020502337920118435 0.010912013229491313 0 0 0 -0.036999938530408782 -0.0042279924999015228 -0.0035467582724786617 0 -0.0035467582724786617 -0.02584208531852461 0 0 0 -0.0075175194546066026 -0.0098578075407425025 -0.0085112422517159836 0 -0.0085112422517159836 -0.027840757822414686 0 0 0 -0.0094246413407893526 -0.081768056009525414 0.0070670975377485623 0 0.0070670975377485623 -0.00023535113311934364 0 0 0 -0.020500851785661193 -0.071212486479798415 0.0053814603162361321 0 0.0053814603162361321 -0.0013670720441579867 0 0 0 -0.018144889630989071 -0.041284111643848161 -0.003928413470368982 0 -0.003928413470368982 0.016895066751512977 0 0 0 -0.0060972612230837872 -0.10316332361358982 0.0082870712482925532 0 0.0082870712482925532 0.0023155761086118831 0 0 0 -0.02521193687624447 -0.11167620924068328 -0.020444093974711516 0 -0.020444093974711516 -0.007754352885470342 0 0 0 -0.029857640531538387 -0.0010110588312229843 0.001518414843407534 0 0.001518414843407534 -0.020156928221462242 0 0 0 -0.0052919967631713206 -0.063932840234235622 0.064500120611677036 0 0.064500120611677036 0.0066857438968752625 0 0 0 -0.014311774084340367 -0.030203837914357181 0.0045705068034880411 0 0.0045705068034880411 -0.010068592026378312 0 0 0 -0.010068107485183874 0.027613588852922866 0.018273423986160831 0 0.018273423986160831 0.067686336689936843 0 0 0 0.023824981385714872 0.022436441277387736 0.038291689750868746 0 0.038291689750868746 0.10454825468147433 0 0 0 0.031746173989715507 -0.14834589252022584 0.016490488484399268 0 0.016490488484399268 0.02677720411330578 0 0 0 -0.030392172101729904 -0.001750641860367344 0.040134844169039979 0 0.040134844169039979 0.11016514869843436 0 0 0 0.027103626709516729 0.010618841664370937 0.033840878174928216 0 0.033840878174928216 0.072769224720618197 0 0 0 0.02084701659624727 -0.062623388247835615 0.0059874320609274584 0 0.0059874320609274584 0.0013754417853978074 0 0 0 -0.015311986615609459 -0.04457762293189263 0.0023767593441888137 0 0.0023767593441888137 -0.0024482531367389926 0 0 0 -0.011756469017157904 -0.13150169167104808 0.043064642055731683 0 0.043064642055731683 0.013878985730363169 0 0 0 -0.029405676485171117 -0.057349055020224173 -0.016387802096503465 0 -0.016387802096503465 0.056871339878398638 0 0 0 -0.00011942878545640606 -0.025035365601364417 0.02520926938552559 0 0.02520926938552559 0.11791511653328807 0 0 0 0.023219937732980912 -0.041707510410717311 -0.02191160775863718 0 -0.02191160775863718 0.00067122054496165928 0 0 0 -0.010259072466438909 -0.11031530507267352 -0.0047506717664146936 0 -0.0047506717664146936 0.0035385268326591085 0 0 0 -0.026694194560003673 -0.19366453329832994 0.010383085611567977 0 0.010383085611567977 0.01173500733893762 0 0 0 -0.045482381489848234 -0.047413185195933294 0.024206549168259484 0 0.024206549168259484 -0.0073158944421649608 0 0 0 -0.013682269909525036 -0.02245369774878142 -0.026112661372619805 0 -0.026112661372619805 0.031470469236092091 0 0 0 0.0022541928718276538 -0.04054073702111366 -0.015436826513223728 0 -0.015436826513223728 0.020342276079432953 0 0 0 -0.0050496152354202462 0.002309853233480666 0.020646446681259905 0 0.020646446681259905 0.019726060203494905 0 0 0 0.0055089783592439032 -0.10104501034689668 -0.01935857723629596 0 -0.01935857723629596 -0.013120382252512053 0 0 0 -0.028541348149852156 -0.09460877136983159 0.0048434518121551751 0 0.0048434518121551751 0.0024852715565424899 0 0 0 -0.023030874953322275 -0.13450235424902932 -0.0094862985484940043 0 -0.0094862985484940043 0.0081698242596335117 0 0 0 -0.031583132497348933 -0.030315785117831145 -0.024859486790251989 0 -0.024859486790251989 0.04641819579390366 0 0 0 0.0040256026690181079 -0.07542783561729749 0.0023326819928459058 0 0.0023326819928459058 0.004166691247430479 0 0 0 -0.017815286092466798 -0.042786990936632449 0.0046709651665058178 0 0.0046709651665058178 0.094915409103102671 0 0 0 0.013032104541617552 -0.026064840913186244 -0.00021192529490683432 0 -0.00021192529490683432 -0.0086868527563386446 0 0 0 -0.0086879234173812218 -0.033166171087684854 -0.011149209738539778 0 -0.011149209738539778 0.013649594985538083 0 0 0 -0.0048791440255367136 -0.11213197955236517 0.0024022601907679186 0 0.0024022601907679186 0.0023443426469943046 0 0 0 -0.027446909226342714 -0.19320925011226606 -0.0090127469979699448 0 -0.0090127469979699448 0.0053112372860727453 0 0 0 -0.046974503206548363 -0.081588833765082497 -0.019647636984821804 0 -0.019647636984821804 0.0067433757264623029 0 0 0 -0.018711364509655021 -0.043270981644240938 -0.021698830699804675 0 -0.021698830699804675 0.032060582305340868 0 0 0 -0.002802599834725028 -0.032847321690553849 -0.016203481003055339 0 -0.016203481003055339 0.058917034287773618 0 0 0 0.0065174281493049768 -0.058312850115786838 0.0032164121966019171 0 0.0032164121966019171 0.0044917938451946304 0 0 0 -0.013455264067648007 -0.043207957002068753 -0.020152419622796139 0 -0.020152419622796139 0.0034784623978655338 0 0 0 -0.009932373651050791 -0.061980890411799702 -0.024081185012237771 0 -0.024081185012237771 0.0012189770882315917 0 0 0 -0.015190478330892081 -0.069139651986664996 0.0035373326585491777 0 0.0035373326585491777 0.0041165952167704634 0 0 0 -0.016255764192473605 -0.040843359583025249 -0.022654436397311739 0 -0.022654436397311739 0.0014334998937761134 0 0 0 -0.0098524649223122179 -0.026799497760101793 0.00061718856382227279 0 0.00061718856382227279 -0.015939306346774939 0 0 0 -0.010684701026719182 -0.11336254577864617 0.00052971997162248874 0 0.00052971997162248874 0.0017346041949247715 0 0 0 -0.027906985395930381 -0.20313942012040889 -0.0016752048537868047 0 -0.0016752048537868047 0.0025344219951314306 0 0 0 -0.050151249531319469 -0.05127874860635892 -0.0098677490848004812 0 -0.0098677490848004812 -0.003159773069787597 0 0 0 -0.013609630419036595 0.011894313980054194 0.019527828382167822 0 0.019527828382167822 0.084467100412801255 0 0 0 0.02409035359821371 0.0018905324512484833 0.026802873184907705 0 0.026802873184907705 0.063219467382607863 0 0 0 0.01627749995846417 -0.037307213315304288 -0.0080224927044026534 0 -0.0080224927044026534 -0.0028020135124884327 0 0 0 -0.010027306706948291 0.0035017822695642131 0.016080106304890839 0 0.016080106304890839 0.10790600990640353 0 0 0 0.027851948043991825 -0.016454842230289562 -0.017789988406094408 0 -0.017789988406094408 0.013165793317222396 0 0 0 -0.00082226222826681239 -0.051707325668826382 -0.019630829353568413 0 -0.019630829353568413 0.015139101069478356 0 0 0 -0.0091420561498369024 0.0040709544534353048 -0.00062873949253749919 0 -0.00062873949253749919 0.077732548263966805 0 0 0 0.020450875679350555 -0.0011830541160642305 -0.0018341427975482882 0 -0.0018341427975482882 0.14379314510796792 0 0 0 0.035652522747975923 -0.13071220312426912 -0.014112333573025576 0 -0.014112333573025576 0.025735205500441616 0 0 0 -0.026244249405956876 -0.067521998556818286 0.004581773451845089 0 0.004581773451845089 -0.0022169155837953036 0 0 0 -0.017434728535153404 -0.027084241226994616 0.008414259204152964 0 0.008414259204152964 -0.0016029134068910929 0 0 0 -0.0071717886584714259 -0.088900963442082093 0.048099095970085326 0 0.048099095970085326 -0.0050761211105139203 0 0 0 -0.023494271138148948 -0.009311933908114689 -0.025643221680056394 0 -0.025643221680056394 0.020171757107457 0 0 0 0.0027149557998354945 -0.023754415887473259 0.0015099303837901421 0 0.0015099303837901421 -0.012532219595621275 0 0 0 -0.009071658870773637 -0.060283949691621284 0.0014636853237439268 0 0.0014636853237439268 0.014493753006522669 0 0 0 -0.011447549171274683 0.022875199156959347 0.016485892241422908 0 0.016485892241422908 0.065896598255925198 0 0 0 0.022192949353220914 -0.043529936602728692 -0.0089849872214234211 0 -0.0089849872214234211 -0.017492846143784227 0 0 0 -0.015255695686628226 -0.029805340585204877 -0.0079760656937999108 0 -0.0079760656937999108 0.0023050613817880983 0 0 0 -0.0068750698008541791 -0.022671316901869795 -0.013492322191074685 0 -0.013492322191074685 0.0040495162638779884 0 0 0 -0.0046554501594979446 -0.0072316960977853451 0.0058854112058758234 0 0.0058854112058758234 0.035739321175773275 0 0 0 0.0071269062694970242 0.0016193502761961964 0.00096339902888364914 0 0.00096339902888364914 0.074790562060834009 0 0 0 0.019102478084257524 0.0034863223424642653 -0.0065626114638732136 0 -0.0065626114638732136 0.13411164251617458 0 0 0 0.034399491214659739 -0.010056606781351403 -0.011418887952445445 0 -0.011418887952445445 0.074050472813597973 0 0 0 0.015998466508061686 -0.019565258859151953 0.020523745663030328 0 0.020523745663030328 0.036652036680688366 0 0 0 0.0042716944553841084 -0.014276557372653861 -0.023806924613342696 0 -0.023806924613342696 -0.003941534579726208 0 0 0 -0.0045545229880950139 0.00080441504058936981 -0.046335113885420678 0 -0.046335113885420678 0.040430306182486629 0 0 0 0.010308680305768996 -0.05591814744694501 -0.019208668765168246 0 -0.019208668765168246 0.004023829574913762 0 0 0 -0.012973579468007923 -0.08198057420033128 0.0051665361001969022 0 0.0051665361001969022 0.001713314779231867 0 0 0 -0.020066814855274819 -0.070516289782359381 0.0071029696744829632 0 0.0071029696744829632 0.0028593507645152116 0 0 0 -0.016914234754461022 -0.1271690380281883 0.0074445562532873127 0 0.0074445562532873127 0.052456582679836661 0 0 0 -0.018678113837087895 -0.018148133083189188 0.00081421401010289829 0 0.00081421401010289829 0.020088228422608267 0 0 0 0.00048502383485476974 -0.017247797010905175 -0.010077696769561301 0 -0.010077696769561301 0.046253866814810363 0 0 0 0.0072515174509762415 -0.02639734476834063 0.0091371285412851656 0 0.0091371285412851656 0.005984129564094158 0 0 0 -0.0051033038010616233 -0.00015043248698948242 0.00039616980537757196 0 0.00039616980537757196 -0.026011327704693388 0 0 0 -0.0065404400479207592 -0.034416713658382586 0.0043322850950672691 0 0.0043322850950672691 -0.0071195534869206434 0 0 0 -0.010384066786325807 -0.042824942638761604 -0.022614814406844645 0 -0.022614814406844645 0.015420133381670476 0 0 0 -0.0068512023142728029 -0.023170271832410664 0.0016604247550521286 0 0.0016604247550521286 -0.01650807937164166 0 0 0 -0.0099195878010130811 -0.026970345738674739 0.05450619669375778 0 0.05450619669375778 0.0040495083417688704 0 0 0 -0.0057302093492266337 -0.02906044845483613 0.046574458517365969 0 0.046574458517365969 0.008372615852026033 0 0 0 -0.0051719581507027046 -0.029471361629991963 -0.028647500881680665 0 -0.028647500881680665 0.0027830134920066585 0 0 0 -0.006672087034496274 0.017751146925815999 -0.091480307773795053 0 -0.091480307773795053 0.16141152140331974 0 0 0 0.044790667082283908 -0.024498361855789682 0.0022356742221360647 0 0.0022356742221360647 -0.014601844111409742 0 0 0 -0.0097750514917998577 -0.052932662769090755 -0.011180789426142757 0 -0.011180789426142757 0.0031044150591130748 0 0 0 -0.012457061927494295 0.0014933406608844679 0.00065495462815579053 0 0.00065495462815579053 9.6449505288198623e-05 0 0 0 0.00039744754154302786 -0.010503793380883364 0.0057732929770937247 0 0.0057732929770937247 0.1532838769540934 0 0 0 0.035695020893302454 0.0089849381277555748 0.0017242654073177377 0 0.0017242654073177377 0.13127244273124969 0 0 0 0.035064345214751429 0.0050422836696994988 -0.0035521693115165842 0 -0.0035521693115165842 0.067801096713027587 0 0 0 0.018210845095681494 0.0023050202417249643 -0.0010644619913009507 0 -0.0010644619913009507 0.00029881921915375642 0 0 0 0.00065095986522001326 -0.00037240102662762042 0.0008360756383352097 0 0.0008360756383352097 0.0015882057338293121 0 0 0 0.00030395117680047845 -0.0075798685873000871 -0.0073997880759072328 0 -0.0073997880759072328 0.085708796750859406 0 0 0 0.019532232040889941 -0.00038152459910945069 -0.0013320700084706871 0 -0.0013320700084706871 0.0024671338598674097 0 0 0 0.0005214023151891567 -0.027073763949168515 0.00066475899946409471 0 0.00066475899946409471 -0.01403717311449507 0 0 0 -0.010277734265915895 -0.037079079544258375 -0.021063837068965613 0 -0.021063837068965613 -0.0053840137573406624 0 0 0 -0.010615773325399813 -0.068910155671547041 0.0054884308143007959 0 0.0054884308143007959 0.0077873834835235356 0 0 0 -0.015280693047005883 -0.049871564420008729 -0.027558219396979111 0 -0.027558219396979111 0.0049766130154238475 0 0 0 -0.011223737851146165 -0.034024401119055983 -0.0012672150619496049 0 -0.0012672150619496049 -0.015952758122366056 0 0 0 -0.012494289810355511 -0.028801667720404156 0.037237003329169127 0 0.037237003329169127 -0.0053881182361781299 0 0 0 -0.008547446489145516 -0.024597800042279294 -0.030431181573980171 0 -0.030431181573980171 0.0049673946990083095 0 0 0 -0.0049076013358178017 -0.0062357432457143536 -0.0065485838216385872 0 -0.0065485838216385872 0.061101215918226481 0 0 0 0.01371636816812799 -0.011834987667113134 0.00032835398364569612 0 0.00032835398364569612 0.11548586863283572 0 0 0 0.025912720241430653 -0.056318905315733872 0.0090072214108813248 0 0.0090072214108813248 0.056126818904468412 0 0 0 -4.8021602816347708e-05 -0.062949927444866216 1.3475150665860636e-05 0 1.3475150665860636e-05 0.0080886558580763324 0 0 0 -0.013715317896697443 -0.029687840718934821 -0.012204777456000201 0 -0.012204777456000201 0.043357447753226808 0 0 0 0.0034174017585730243 -0.027503901814770276 0.006421117082339306 0 0.006421117082339306 0.08765025531313908 0 0 0 0.01503658837459218 -0.03251453393004558 -0.032953253586754661 0 -0.032953253586754661 0.0087150659462730262 0 0 0 -0.0059498669959431594 -0.023753194012664524 0.008438270125473964 0 0.008438270125473964 -0.0005175250568308469 0 0 0 -0.0060676797673738419 -0.026350252472944424 -0.032391078799010709 0 -0.032391078799010709 0.014826119271726501 0 0 0 -0.0028810333003042032 -0.039234588815177718 0.035897881631353545 0 0.035897881631353545 -0.0015652757311563903 0 0 0 -0.010199966136583027 -0.032655009020142484 -0.0013270378288814944 0 -0.0013270378288814944 0.022425245515734993 0 0 0 -0.0025574408761018519 -0.021407026506866156 -0.0038189106052904237 0 -0.0038189106052904237 0.026168963370968745 0 0 0 0.0011904842160256335 -0.049522181665223951 0.0033940197701185608 0 0.0033940197701185608 -0.0028558353394527412 0 0 0 -0.013094504251169184 -0.048504601644060251 -0.007903214230813721 0 -0.007903214230813721 0.038945457652262164 0 0 0 -0.0023897859979494993 0.011260243734486003 -0.027551175565469321 0 -0.027551175565469321 0.020425825302187617 0 0 0 0.0079215172591684258 -0.035111516658863515 -0.022199288521316918 0 -0.022199288521316918 -0.0022662344248941327 0 0 0 -0.0093444377709393893 0.039582670502340156 -0.019444918389724453 0 -0.019444918389724453 0.026381338404519283 0 0 0 0.016491002226714846 -0.022958302166094763 -0.0052462943479945623 0 -0.0052462943479945623 0.054385215994737501 0 0 0 0.0078567284571607054 -0.035328166591593935 -0.0071729981988460645 0 -0.0071729981988460645 0.016920615942686679 0 0 0 -0.0046018876622267446 -0.076687763564249611 0.0045594079939797229 0 0.0045594079939797229 -0.0024507289396239612 0 0 0 -0.0197846231259684 -0.05054861857654315 -0.010141671163146956 0 -0.010141671163146956 0.044021539580880245 0 0 0 -0.0016317697489157297 -0.051154896801023572 -0.0089003769730712778 0 -0.0089003769730712778 0.053700381703931294 0 0 0 0.00063637122572691995 0.024261316028939772 0.060533525623919116 0 0.060533525623919116 0.18376550316181006 0 0 0 0.052006704797687472 -0.029124534926055795 -0.018261704756272687 0 -0.018261704756272687 0.21016465108554161 0 0 0 0.045260029039871447 0.010095577637813102 0.017365944758186747 0 0.017365944758186747 0.080506374000451686 0 0 0 0.02265048790956592 -0.028257051122589832 0.022592093038940043 0 0.022592093038940043 0.048469232315088734 0 0 0 0.0050530452981247392 -0.056892490810350305 -0.009541443142832777 0 -0.009541443142832777 0.0004211555225825947 0 0 0 -0.014117833821942094 -0.049943082317579768 0.0036704498410632443 0 0.0036704498410632443 -0.0053055718828748256 0 0 0 -0.013812163550113658 -0.09703871236486955 -0.0096862124425067617 0 -0.0096862124425067617 -0.014661563324653071 0 0 0 -0.027925068922380662 -0.077313385299096815 0.0015754843561879787 0 0.0015754843561879787 -0.0092883143653081923 0 0 0 -0.021650424916101245 -0.016004215743297932 0.0048496985713180965 0 0.0048496985713180965 -0.011151486262340041 0 0 0 -0.0067889255014094933 -0.10888427395821543 -0.0083510608191154721 0 -0.0083510608191154721 -0.0021283817203748699 0 0 0 -0.027753163919647578 -0.094967492283038968 -0.009396034025662154 0 -0.009396034025662154 -0.021553484933118268 0 0 0 -0.029130244304039307 -0.14745398243337818 0.0069396896414331936 0 0.0069396896414331936 -0.00096520994801496673 0 0 0 -0.037104798095348293 -0.13000634766289329 0.0078067513472583651 0 0.0078067513472583651 -0.027785822396523066 0 0 0 -0.039448042514854093 -0.054370946655153282 -0.020130010359743156 0 -0.020130010359743156 0.022632608970121593 0 0 0 -0.0079345844212578703 -0.021773180753232656 0.0034930395078908261 0 0.0034930395078908261 -0.013062125243523241 0 0 0 -0.0087088264991889743 0.022593252886333182 0.030948046882181668 0 0.030948046882181668 0.027574907080114563 0 0 0 0.012542039991611742 -0.028754532934250066 0.0044393495593575555 0 0.0044393495593575555 0.075283128489003426 0 0 0 0.011632148888688298 -0.01477886230379746 0.031980883160288229 0 0.031980883160288229 0.074126963313353611 0 0 0 0.014837025252389033 -0.032899059775538975 -0.033420163324130656 0 -0.033420163324130656 0.031594977226448995 0 0 0 -0.00032602063727243946 -0.0040104018526863133 0.00030463358010290875 0 0.00030463358010290875 0.0082452903518892371 0 0 0 0.0010587221248003979 0.0013442705157846917 -0.006084026120392938 0 -0.006084026120392938 0.025016821044294091 0 0 0 0.0065902728900195844 0.0018316876279800189 0.0060498816063807581 0 0.0060498816063807581 0.055412863765634118 0 0 0 0.014311137848403979 -0.0030572866316749448 -0.00063179717858652396 0 -0.00063179717858652396 0.0045073100086205379 0 0 0 0.00036250584423623176 -0.011907223568220181 0.006708658217816299 0 0.006708658217816299 0.00089869066548207976 0 0 0 -0.0027521332256845374 -0.012837262272833827 -0.013848739652635667 0 -0.013848739652635667 0.0080921879888791182 0 0 0 -0.0011862685709887466 -0.10336345132432173 -0.014679095784993811 0 -0.014679095784993811 -0.034392077050751667 0 0 0 -0.034438882093768351 -0.1395974744331239 0.014817309432401306 0 0.014817309432401306 -0.046446816520431963 0 0 0 -0.046511072738388955 -0.1591166371464211 0.015065770127760964 0 0.015065770127760964 -0.02158469243530009 0 0 0 -0.045175332395430305 -0.11889040435548141 -0.014461265687793412 0 -0.014461265687793412 -0.016455231086211622 0 0 0 -0.033836408860423259 -0.030486602140756103 -0.033650296977094318 0 -0.033650296977094318 0.011540066823069517 0 0 0 -0.0047366338294216326 -0.049895221596250483 0.0035172050280862961 0 0.0035172050280862961 0.0026093533817458936 0 0 0 -0.011821467053626144 -0.039265570699168043 -0.023196398893711806 0 -0.023196398893711806 0.006017336542439744 0 0 0 -0.0083120585391820712 -0.037056436449816099 -0.023083937702513782 0 -0.023083937702513782 -0.0027732738761890863 0 0 0 -0.0099574275815013102 -0.043129729207300148 0.0025761147926196162 0 0.0025761147926196162 0.0026326239235633306 0 0 0 -0.01012427632093421 -0.030698789143637883 0.0050002417664127431 0 0.0050002417664127431 -0.0054492259721155151 0 0 0 -0.0090370037789383531 -0.030553424265249738 0.0056413713534087494 0 0.0056413713534087494 -0.0049670158555889746 0 0 0 -0.0088801100302096751 -0.05174169428824188 -0.042391650704274919 0 -0.042391650704274919 0.13283902759862021 0 0 0 0.020274333327594596 0.01283201769171783 -0.0083537305157955488 0 -0.0083537305157955488 0.37776847474716335 0 0 0 0.097650123109720349 -0.067432615403327539 -0.014296538934971736 0 -0.014296538934971736 0.015473308971669958 0 0 0 -0.012989826607914388 -0.024143056410577901 -0.0026482803116779433 0 -0.0026482803116779433 0.047481504207905978 0 0 0 0.005834611949332047 -0.034520994289993889 -0.012748114209589156 0 -0.012748114209589156 0.02802640015704827 0 0 0 -0.0016236485332364881 -0.031575633192449798 0.0069684493518226975 0 0.0069684493518226975 0.0071070228165518792 0 0 0 -0.0061171525939744779 -0.019521720444590329 0.030469846243468268 0 0.030469846243468268 0.057502359588170293 0 0 0 0.009495159785894991 -0.028794540843512961 -0.014103866857483549 0 -0.014103866857483549 -0.0020029354488395601 0 0 0 -0.0076993690730881026 0.011069789108660383 -0.030635255508838707 0 -0.030635255508838707 0.060823269482621123 0 0 0 0.017973264647820369 -0.017860973383062188 -0.0055686774661092425 0 -0.0055686774661092425 0.017677873067498864 0 0 0 -4.5775078890801513e-05 -0.044010006291923309 0.028368569641519015 0 0.028368569641519015 0.0026220051701741909 0 0 0 -0.010347000280437557 -0.024632790312177688 -0.02785921933223634 0 -0.02785921933223634 0.027590109307504163 0 0 0 0.00073932974883161862 -0.017017016425524112 -0.025872731072175928 0 -0.025872731072175928 0.023435694195861334 0 0 0 0.0016046694425844166 -0.022429864578552672 -0.0025727358321866733 0 -0.0025727358321866733 -0.012575557278211358 0 0 0 -0.0087513554641910352 -0.018142751767397186 -0.0079435473434097403 0 -0.0079435473434097403 0.065599669423651807 0 0 0 0.011864229414063704 -0.031634087873613055 -0.0086730686613875584 0 -0.0086730686613875584 -0.010020652957467555 0 0 0 -0.010413685207770147 -0.018548134585223475 -0.0072981037414295291 0 -0.0072981037414295291 -0.032167913535875919 0 0 0 -0.012679012030274883 -0.054938655951635537 0.0045916534362956335 0 0.0045916534362956335 -0.0061024797208434978 0 0 0 -0.015260283918119765 -0.049235016984851381 0.0048341374213540953 0 0.0048341374213540953 -0.0074516978001227044 0 0 0 -0.014171678696243525 -0.050892536936518441 -0.0040616943821600998 0 -0.0040616943821600998 0.031806717125510739 0 0 0 -0.0047714549527519351 -0.049546607483601957 -0.018074366014893734 0 -0.018074366014893734 0.037465105350088068 0 0 0 -0.0030203755333785276 -0.041495348090597559 0.002301901313433094 0 0.002301901313433094 -0.0047279375669596639 0 0 0 -0.011555821414389319 -0.037961806667340732 0.0041220531957430334 0 0.0041220531957430334 0.0034648740754973824 0 0 0 -0.00862423314796084 -0.041043814528302025 0.0025696071033341266 0 0.0025696071033341266 0.0027314122408193132 0 0 0 -0.0095781005718706715 -0.011291834690583757 0.008269010755546008 0 0.008269010755546008 -0.020421838150210592 0 0 0 -0.0079284182101986844 -0.0041804087248307753 0.0099141207910789786 0 0.0099141207910789786 0.0015885709774803303 0 0 0 -0.00064795943683765289 -0.0046444860610333483 -0.014776046686108935 0 -0.014776046686108935 0.01806110055144855 0 0 0 0.0033541536226038282 -0.013175374422215724 -0.01249934781243478 0 -0.01249934781243478 -0.0077392370545130706 0 0 0 -0.0052286528691822265 -0.013855487189710483 -0.040980619663651116 0 -0.040980619663651116 0.13159095911711099 0 0 0 0.029433867981850145 -0.0027215026644276108 0.020102937801414367 0 0.020102937801414367 0.04250052810529148 0 0 0 0.0099447563602161893 -0.0010954272686349853 -0.0033102887359907074 0 -0.0033102887359907074 -0.0039314155931546857 0 0 0 -0.0012567107154475288 -0.002482268869230031 -0.016778602925801245 0 -0.016778602925801245 0.019558396672840761 0 0 0 0.0042690319509027241 -0.0011595350662193527 0.0038296892813587391 0 0.0038296892813587391 -0.0038704996720659857 0 0 0 -0.0012575086845710848 -0.048428405586047774 0.038173026521457654 0 0.038173026521457654 -0.0047195340249182038 0 0 0 -0.013286984902741494 -0.028405896803140873 -0.031932996545769525 0 -0.031932996545769525 0.014431011678284644 0 0 0 -0.0034937212812140572 -0.020973876381686907 -0.031192328427386173 0 -0.031192328427386173 0.013784103915244428 0 0 0 -0.0017974431166105642 -0.0452012354704052 -0.007241862041482694 0 -0.007241862041482694 0.044378220426732215 0 0 0 -0.00020575376091828447 0.001572685280534003 0.013106292484490689 0 0.013106292484490689 0.025971569501532343 0 0 0 0.0068860636955170307 -0.00084840700384214429 -0.00062721716552024964 0 -0.00062721716552024964 0.002042481202688684 0 0 0 0.00029851854971196801 -0.001599717426397973 7.4653125891721572e-05 0 7.4653125891721572e-05 0.0046074434126266439 0 0 0 0.0007519314965565016 -0.00029764798243281376 -0.01098407389911471 0 -0.01098407389911471 0.0061911754451795531 0 0 0 0.0014733818656866848 -0.027071759410728369 -0.0052277051058513546 0 -0.0052277051058513546 -0.023465929421083276 0 0 0 -0.012634422207952911 0.014642476453721756 -0.030326749057816293 0 -0.030326749057816293 0.0081176480412428198 0 0 0 0.0056900311237411266 0.010958259043289786 0.0004904287824321063 0 0.0004904287824321063 0.076077376462468038 0 0 0 0.021758908876439442 0.014630200838997076 -0.0046973345640754505 0 -0.0046973345640754505 0.14254937029174253 0 0 0 0.039294892782684887 -0.025990049299045942 0.0062659159021563864 0 0.0062659159021563864 -0.0076438681686025189 0 0 0 -0.0084084793669121152 -0.076727741831554841 0.039315355232355298 0 0.039315355232355298 0.0017288996793363154 0 0 0 -0.01874971053805452 -0.084137756128987551 0.037024819552180323 0 0.037024819552180323 -0.0018938373664205699 0 0 0 -0.021507898373851919 -0.028701112636835974 -0.0081702662586712882 0 -0.0081702662586712882 -0.013760536166025211 0 0 0 -0.010615412200715352 -0.040330063315318361 -0.0028594995716619588 0 -0.0028594995716619588 0.01465839724574337 0 0 0 -0.0064179165173937434 -0.044796780519332446 -0.023026289643292064 0 -0.023026289643292064 0.0041714847278567085 0 0 0 -0.010156323947868921 -0.037230144657307687 -0.027580944281830305 0 -0.027580944281830305 0.019190991489988464 0 0 0 -0.0045097882918298145 -0.052592355998862583 0.039762680192951372 0 0.039762680192951372 -0.0042364964483843082 0 0 0 -0.014207213111812056 -0.026484567865928899 -0.030880533495342422 0 -0.030880533495342422 0.015695442286350669 0 0 0 -0.0026972813948946683 -0.029903711185087389 -0.032623000417546733 0 -0.032623000417546733 0.011964351813114504 0 0 0 -0.0044848398429933045 -0.0921131902068969 0.00018863062597863803 0 0.00018863062597863803 -0.0091321787305802642 0 0 0 -0.025311342234369299 -0.12680638192143828 -0.0089204775360259229 0 -0.0089204775360259229 -0.014550579026045372 0 0 0 -0.03533924023687092 -0.11658959122660253 -0.014078856996377551 0 -0.014078856996377551 -0.001161750168090267 0 0 0 -0.029437835348673187 -0.087126334305889952 0.0036774216462814383 0 0.0036774216462814383 -0.001419537630282755 0 0 0 -0.022136467984043173 -0.046011743864593148 -0.0039705057289432348 0 -0.0039705057289432348 0.021733935841507211 0 0 0 -0.006069452005771467 -0.070827806286356987 0.031686431685886918 0 0.031686431685886918 -0.0062564833782916551 0 0 0 -0.019271072416161994 -0.01905798261364966 -0.026365197391555073 0 -0.026365197391555073 0.026884154395935056 0 0 0 0.001956542945571127 -0.021355264554031472 -0.02746030910614386 0 -0.02746030910614386 0.020820314396829964 0 0 0 -0.00013373753930046028 -0.053369097966464676 -0.0323136613973245 0 -0.0323136613973245 0.0084661086860316204 0 0 0 -0.01122574732010824 -0.030876558441947193 -0.0068953106122953689 0 -0.0068953106122953689 -0.016950322862307854 0 0 0 -0.011956720326063923 -0.023760147915074317 -0.015717092517867657 0 -0.015717092517867657 -0.004361032658354913 0 0 0 -0.007030295143357318 -0.039426931683836229 -0.0087633120442291036 0 -0.0087633120442291036 0.015173960571317757 0 0 0 -0.0060632427781296336 -0.077315553769894921 0.0054630694899225124 0 0.0054630694899225124 -0.0050982393068839116 0 0 0 -0.020603448269194701 -0.091563871306419936 0.060446702343180725 0 0.060446702343180725 0.016888914264554966 0 0 0 -0.018668739260466388 -0.060732061248559843 -0.02812085883611376 0 -0.02812085883611376 0.010365622626841375 0 0 0 -0.012591609655429714 -0.020088725878252722 0.041468814023593037 0 0.041468814023593037 0.021096075167798878 0 0 0 0.00025183732238631684 -0.036958641639282613 -0.024303576269279148 0 -0.024303576269279148 -0.0039025698547764665 0 0 0 -0.01021530287351477 -0.016373320074117181 0.058148958436842535 0 0.058148958436842535 0.0066353262976108773 0 0 0 -0.002434498444126465 -0.071646257919798464 0.0042999915202494715 0 0.0042999915202494715 0.00084195984908126686 0 0 0 -0.01770107451767931 -0.042283004906602438 -0.001295499825254013 0 -0.001295499825254013 0.010465668383789723 0 0 0 -0.0079543341307031709 -0.052342804958926847 -0.029116717312332341 0 -0.029116717312332341 0.0017978145364716536 0 0 0 -0.012636247605613993 -0.0063257939989420434 0.0095232253697772329 0 0.0095232253697772329 0.036696482164158953 0 0 0 0.0075926720413042256 -0.0098234806873222502 -0.013145260843623219 0 -0.013145260843623219 0.074503967605822563 0 0 0 0.016170121729625064 -0.040069863417227104 0.00069481844964135175 0 0.00069481844964135175 0.0012816905536955107 0 0 0 -0.0096970432158828938 0.0019759179107334823 4.3003382512729615e-06 0 4.3003382512729615e-06 0.002882888709788034 0 0 0 0.0012147016551304901 -0.0058461534282097105 0.0015417314273085125 0 0.0015417314273085125 0.0005700131041486145 0 0 0 -0.001319035081015496 -0.0006449245673441073 -0.015381214062376136 0 -0.015381214062376136 0.032189135551043968 0 0 0 0.0078860527459247987 -0.0012834372264354243 -0.0073740587080109998 0 -0.0073740587080109998 0.033360850117897911 0 0 0 0.0080193532228656217 -0.0022397512699665612 0.0085052816938007147 0 0.0085052816938007147 0.070264893784159455 0 0 0 0.017006285628548223 0.0013796922605269213 -0.0001550580490887743 0 -0.0001550580490887743 0.0016034245101290701 0 0 0 0.00074577919266438641 0.0020570494079272805 0.016645308425496275 0 0.016645308425496275 0.070276065874576688 0 0 0 0.018083278820625548 -0.00470717074273308 -0.0015592195895663963 0 -0.0015592195895663963 -0.0001605069827101957 0 0 0 -0.0012169194313609299 -0.030301085335720679 -0.0094078903300919003 0 -0.0094078903300919003 -0.019913938184562774 0 0 0 -0.012553755880070905 -0.032828536934474295 -0.010587014270732656 0 -0.010587014270732656 0.011941164130486293 0 0 0 -0.0052218432009970561 -0.040450350001662361 -0.012634134509491426 0 -0.012634134509491426 0.0087917795157901324 0 0 0 -0.0079146426214680154 -0.018328866575596358 -0.0015977284133204539 0 -0.0015977284133204539 -0.019984419552789651 0 0 0 -0.0095783215320965447 -0.01840922268193998 0.0011605812178216435 0 0.0011605812178216435 -0.014573630865457043 0 0 0 -0.0082457133868492349 -0.030769474622391692 0.027723672956043666 0 0.027723672956043666 0.10331178153216178 0 0 0 0.01813557672744253 -0.053289723634757549 -0.017337041656124569 0 -0.017337041656124569 0.012511028997842621 0 0 0 -0.010194673659228728 -0.055853900000018011 -0.026875844059422116 0 -0.026875844059422116 0.0065260215876926098 0 0 0 -0.012331969603081347 -0.060554300119532979 0.0017103719086750645 0 0.0017103719086750645 0.0040735833996142778 0 0 0 -0.014120179179979674 -0.11004628558479634 0.043461572069393828 0 0.043461572069393828 0.0036757860105502971 0 0 0 -0.026592624893561512 -0.089307389297488271 0.060269420949999986 0 0.060269420949999986 0.039896971012895799 0 0 0 -0.012352604571147952 -0.024613809326531552 0.026325371416206278 0 0.026325371416206278 0.066847515947537628 0 0 0 0.010558426655251515 -0.025327599924567068 -0.010361288817707089 0 -0.010361288817707089 0.021917571355987153 0 0 0 -0.00085250714214502032 -0.031823548898125553 -0.0099721017349296767 0 -0.0099721017349296767 0.022167924951178364 0 0 0 -0.0024139059867367418 0.0062367643310373144 0.036543731079724522 0 0.036543731079724522 0.071238316078261088 0 0 0 0.019368770102324601 -0.062324080288378603 -0.027661848843357872 0 -0.027661848843357872 0.01856055679972507 0 0 0 -0.010940880872163328 -0.073318484860386682 -0.019457844351340625 0 -0.019457844351340625 0.001497198607310013 0 0 0 -0.017955321563269136 -0.021017324584156505 0.023408504789902425 0 0.023408504789902425 0.050729955106588315 0 0 0 0.0074281576306079455 -0.0080284310159943889 0.028840575129552723 0 0.028840575129552723 0.040718528399812493 0 0 0 0.0081725243459545294 -0.041993918610631481 -0.015900683811003735 0 -0.015900683811003735 0.022649997114466469 0 0 0 -0.0048359803740412322 -0.040785807893320841 -0.0054102153730978611 0 -0.0054102153730978611 0.011869641526668376 0 0 0 -0.007229041591663099 -0.040433055477103123 -0.0042446821205466764 0 -0.0042446821205466764 0.021194654555707709 0 0 0 -0.0048096002303488622 -0.041330976680619184 -0.0026225127626654937 0 -0.0026225127626654937 0.035433551814176345 0 0 0 -0.0014743562166107012 0.00092934842653846772 0.020332953760019201 0 0.020332953760019201 0.11272353735327245 0 0 0 0.028413221444952619 -0.030367525082420133 -0.0063417073531331081 0 -0.0063417073531331081 0.000271588693694369 0 0 0 -0.0075239840971815797 -0.071701764675695348 0.0069313413280744987 0 0.0069313413280744987 0.00077098238041144185 0 0 0 -0.017732695573820973 -0.029070751510427737 0.0050632552177753672 0 0.0050632552177753672 -0.0111858795262156 0 0 0 -0.010064157759160837 0.032454655837446555 0.019406559529235867 0 0.019406559529235867 0.063633020020302355 0 0 0 0.024021918964437283 -0.025047540681033043 -0.0061632193129371737 0 -0.0061632193129371737 -0.0182570135905189 0 0 0 -0.010826138567888055 -0.062838103710393486 -0.026806349570053178 0 -0.026806349570053178 -0.00066681964750570089 0 0 0 -0.0158762308394748 -0.08860452212550049 -0.021337752352699645 0 -0.021337752352699645 0.0030082043784421253 0 0 0 -0.02139907943676457 -0.035302430496182369 -0.011276643448110968 0 -0.011276643448110968 0.04333037629564318 0 0 0 0.002006986449865189 
</DataArray>
<DataArray type="Float64" Name="cross_section_updated" format="ascii">
0.0010093184177911339 0.0010230262834244213 0.0010313830254417939 0.0010392552882459187 0.0010474467710437376 0.0010563902884035592 0.0010661843271593289 0.0010761863161572178 0.0010862718518280003 0.0010952585912952801 0.0020333344290972099 0.0020860898474574399 0.0021218786327669762 0.0021540633178963415 0.0021855776204074227 0.0022168261651599906 0.0022481588123417699 0.0022786975454110918 0.0023083876046363651 0.0023360844782726303 1 1 1 1 1 1 1 1 1 1 1 1 1 1 1 1 1 1 1 1 1 1 1 1 1 1 1 1 1 1 1 1 1 1 1 1 1 1 1 1 1 1 1 1 1 1 1 1 1 1 1 1 1 1 1 1 1 1 1 1 1 1 1 1 1 1 1 1 1 1 1 1 1 1 1 1 1 1 1 1 1 1 1 1 1 1 1 1 1 1 1 1 1 1 1 1 1 1 1 1 1 1 1 1 1 1 1 1 1 1 1 1 1 1 1 1 1 1 1 1 1 1 1 1 1 1 1 1 1 1 1 1 1 1 1 1 1 1 1 1 1 1 1 1 1 1 1 1 1 1 1 1 1 1 1 1 1 1 1 1 1 1 1 1 1 1 1 1 1 1 1 1 1 1 1 1 1 1 1 1 1 1 1 1 1 1 1 1 1 1 1 1 1 1 1 1 1 1 1 1 1 1 1 1 1 1 1 1 1 1 1 1 1 1 1 1 1 1 1 1 1 1 1 1 1 1 1 1 1 1 1 1 1 1 1 1 1 1 1 1 1 1 1 1 1 1 1 1 1 1 1 1 1 1 1 1 1 1 1 1 1 1 1 1 1 1 1 1 1 1 1 1 1 1 1 1 1 1 1 1 1 1 1 1 1 1 1 1 1 1 1 1 1 1 1 1 1 1 1 1 1 1 1 1 1 1 1 1 1 1 1 1 1 1 1 1 1 1 1 1 1 1 1 1 1 1 1 1 1 1 1 1 1 1 1 1 1 1 1 1 1 1 1 1 1 1 1 1 1 1 1 1 1 1 1 1 1 1 1 1 1 1 1 1 1 1 1 1 1 1 1 1 1 1 1 1 1 1 1 1 1 1 1 1 1 1 1 1 1 1 1 1 1 1 1 1 1 1 1 1 1 1 1 1 1 1 1 1 1 1 1 1 1 1 1 1 1 1 1 1 1 1 1 1 1 1 1 1 1 1 1 1 1 1 1 1 1 1 1 1 1 1 1 1 1 1 1 1 1 1 1 1 1 1 1 1 1 1 1 1 1 1 1 1 1 1 1 1 1 1 1 1 1 1 1 1 1 1 1 1 1 1 1 1 1 1 1 1 1 1 1 1 1 1 1 1 1 1 1 1 1 1 1 1 1 1 1 1 1 1 1 1 1 1 1 1 1 1 1 1 1 1 1 1 1 1 1 1 1 1 1 1 1 1 1 1 1 1 1 1 1 1 1 1 1 1 1 1 1 1 1 1 1 1 1 1 1 1 1 1 1 1 1 1 1 1 1 1 1 1 1 1 1 1 1 1 1 1 1 1 1 1 1 1 1 1 1 1 1 1 1 1 1 1 1 1 1 1 1 1 1 1 1 1 1 1 1 1 1 1 1 1 1 1 1 1 1 1 1 1 1 1 1 1 1 1 1 1 1 1 1 1 1 1 1 1 1 1 1 1 1 1 1 1 1 1 1 1 1 1 1 1 1 1 1 1 1 1 1 1 1 1 1 1 1 1 1 1 1 1 1 1 1 1 1 1 1 1 1 1 1 1 1 1 1 1 1 1 1 1 1 1 1 1 1 1 1 1 1 1 1 1 1 1 1 1 1 1 1 1 1 1 1 1 1 1 1 1 1 1 1 1 1 1 1 1 1 1 1 1 1 1 1 1 1 1 1 1 1 1 1 1 1 1 1 1 1 1 1 1 1 1 1 1 1 1 1 1 1 1 1 1 1 1 1 1 1 1 1 1 1 1 1 1 1 1 1 1 1 1 1 1 1 1 1 1 1 1 1 1 1 1 1 1 1 1 1 1 1 1 1 1 1 1 1 1 1 1 1 1 1 1 1 1 1 1 1 1 1 1 1 1 1 1 1 1 1 1 1 1 1 1 1 1 1 1 1 1 1 1 1 1 1 1 1 1 1 1 1 1 1 1 1 1 1 1 1 1 1 1 1 1 1 1 1 1 1 1 1 1 1 1 1 1 1 1 1 1 1 1 1 1 1 1 1 1 1 1 1 1 1 1 1 1 1 1 1 1 1 1 1 1 1 1 1 1 1 1 1 1 1 1 1 1 1 1 1 1 1 1 1 1 1 1 1 1 1 1 1 1 1 1 1 1 1 1 1 1 1 1 1 1 1 1 1 1 1 1 1 1 1 1 1 1 1 1 1 1 1 1 1 1 1 1 1 1 1 1 1 1 1 1 1 1 1 1 1 1 1 1 1 1 1 1 1 1 1 1 1 1 1 1 1 1 1 1 1 1 1 1 1 1 1 1 1 1 1 1 1 1 1 1 1 1 1 1 1 1 1 1 1 1 1 1 1 1 1 1 1 1 1 1 1 1 
</DataArray>
<DataArray type="Float64" Name="displacement_divergence" format="ascii">
0.0092890397077270252 0.022991562145774677 0.031343527196880307 0.039218638152677905 0.047413972023886253 0.056358570343307948 0.0661510238358788 0.076151762416869245 0.086249430391588083 0.095188311743925072 0.016745981605374095 0.04302590783000064 0.060914948792544207 0.076999792380110954 0.092750587720725433 0.10836855155510301 0.12403199628057321 0.13927338612623896 0.15421277000796871 0.1676848640094098 -1.4359297651899143e-05 -1.1370354474852379e-06 -1.7101423716679037e-05 -1.7007647892860724e-05 -8.4087262614341524e-05 -6.0934597457641008e-05 -9.0515620536330433e-05 -6.3502026512766405e-05 -7.4105142737892113e-05 -0.00012734239030180651 -2.088528907574617e-05 -2.1093839132334164e-05 -3.4979356447961166e-05 -3.9899470413880957e-05 -4.076358222784542e-05 -2.2972148232503213e-05 0.00021671066773876755 -3.0241622378242121e-06 2.4797574420445251e-06 3.1662778354228302e-06 3.9766540097180628e-07 -7.5316170141167399e-06 -7.9724787658355407e-06 -3.2687947713727693e-05 0.00017311745698123408 -0.0001350429272364154 -7.4778829731319196e-05 -4.9300407739049778e-05 -2.8080463454988459e-05 -6.7391137900768054e-05 -2.5764974149446662e-06 -1.5672387883703992e-05 -1.9921793524489825e-05 -1.4146753419024905e-05 -2.6761960738736108e-05 -5.3238142646595566e-05 2.0816618270631623e-05 -6.7053861456923397e-05 0.00020230976505638838 5.7103792539927103e-06 2.3431913981937415e-05 2.0598299447401074e-05 3.6889530578236313e-05 -6.3336203661827628e-06 -3.2653351855621727e-05 -3.1897322481174227e-05 -4.2156600753654594e-06 -1.2521816970544069e-05 0.0002252034907532881 -6.9154212183149722e-06 2.0519398309259515e-05 -2.7292108748036776e-05 7.1879460713296324e-06 -2.1400381601847078e-05 -7.9698403752465822e-06 -6.968325818499212e-05 -5.5764336164667097e-06 5.3733750268983478e-05 3.4751172059230666e-05 -2.0666993881621881e-07 -1.8757602581704366e-05 6.6938631485923748e-05 -1.6188242446112653e-05 -1.8876138741611055e-05 -2.0748495630606555e-05 -6.7377097421319061e-05 -9.178790559252204e-05 8.4716246953157282e-07 2.0994279178589083e-05 -7.2126076429036067e-05 -5.6144842696093431e-05 -2.7423133790005033e-05 -6.1330643452658611e-05 -8.645954272276951e-05 -2.5709296335359308e-05 -1.928509541583283e-05 7.68673910935705e-05 -5.328075995121031e-06 -2.7354692554891849e-05 -2.0618815206053837e-05 -3.9098135888669672e-05 -9.1862587868223186e-05 -6.8767395598506333e-05 -3.3420494197833062e-05 -5.6666561808831582e-06 -7.6615705063649755e-06 -1.5850973690729491e-05 -2.2756066106939527e-05 -4.7803529699502064e-05 -2.2718369180326631e-05 -1.9971095108332982e-05 -2.1627754300096157e-05 -2.3999902035611707e-05 -1.0355182571013569e-05 -4.4659439420700897e-06 -1.7729209298658448e-05 1.8625488789267286e-05 7.5195989299393397e-05 -3.9125400250195064e-07 -6.4248607544734396e-06 7.9880273987695434e-05 4.7246531626533758e-05 -2.6257882041086135e-05 -2.9746973212010877e-05 2.6739023759204689e-05 5.95702004268844e-06 -1.0195835955543645e-05 -7.4730384077010929e-06 -1.3675266996853873e-05 1.3440669472684829e-05 -8.3435485202301707e-06 3.6329917807372079e-05 -6.6820010558943951e-05 -0.00010860117380212681 -6.7693651244306655e-06 9.316855266440873e-05 -1.9704602290562909e-05 -1.7872362955885745e-05 6.3608457483546795e-06 3.5084215136279781e-06 1.5610903560083628e-05 1.2169645065179958e-07 1.2730654674828965e-05 -2.3740914825043802e-05 -2.298992963397516e-05 -2.3162610620324089e-05 5.2561126722902585e-07 -9.8310394181502976e-05 -2.8119421409181157e-05 -2.2374670531062559e-05 -2.518570344173189e-05 -7.4741032245675661e-05 -5.6387255590879435e-05 -5.6016822140062558e-05 -9.0738494135983254e-05 -8.7134441351099327e-05 -2.3587298244045105e-05 -5.8240451016414467e-05 2.7865170953601283e-05 1.3673095473961662e-06 7.5918492773515718e-08 -2.5029440116600479e-05 -6.7611845907027341e-06 -2.1579346313149506e-06 -1.4912925571519773e-05 -2.6706620914747174e-05 -4.015789950188212e-05 -3.6532121736545474e-05 -7.7164110951693994e-06 -4.7428229984956623e-05 -4.0453075966691895e-05 -2.8132442603550975e-05 -2.4585538226226692e-05 -2.753559489398636e-05 -2.8061668684697211e-05 -3.2220469756241216e-05 -7.1994011079025584e-06 -2.2561084765127266e-05 -3.3215568761183563e-05 1.4051980398993283e-05 -2.7721496701144564e-05 -2.3325921070117324e-05 -9.182039875202589e-05 -6.8738839130381261e-05 8.1484889439626776e-05 -2.1766485156512601e-05 2.411290499833242e-06 -2.8666945343464425e-05 -6.3162327935395611e-05 -0.00010022429062179132 -3.0121536637397664e-05 -5.7421835196825062e-05 -7.3098468967030422e-05 -5.8892521458711638e-05 -3.9247895436931253e-05 -3.9860982335805677e-05 -4.5756951500612174e-05 -2.5472851986329105e-05 6.9705136328153394e-06 -2.0797508471833998e-05 -2.7811106919062595e-05 -3.1351303912501656e-05 -4.876531892710378e-05 -4.2045574829658985e-05 -2.6708462632650195e-05 -2.4630211673208732e-05 -2.6753786968333835e-05 2.3730892922909242e-05 6.1405425409634466e-05 -8.6682809659222189e-06 -2.2114619776576007e-05 -2.7455566810301562e-05 -3.4265441764707184e-05 1.1823531378682807e-05 -2.3485248542275258e-05 -3.0541405129712998e-05 -2.3859505182564607e-05 -6.5451906819936667e-05 -9.8770622479424862e-05 -2.0115043049350942e-05 -4.6644163046020854e-05 -5.5682316766139265e-05 -0.000115373475219188 -6.6689778897322465e-05 7.6707379455526729e-05 0.0002282172784057723 -8.0677373482738578e-06 -2.111168692268137e-05 1.3489166303054477e-05 -1.9379561722920869e-05 -2.6770497779524793e-05 -3.7952894277090807e-05 -1.1019988209843299e-05 -0.00010125038404561305 -2.3051069581622209e-05 -5.9631488938793192e-06 -1.2366361464398082e-05 -2.9915467958119128e-05 -1.4111423802927852e-05 -6.2673708297409441e-06 -5.5940017208136239e-05 -2.4563376916913928e-05 -8.4884654010091684e-05 -1.8386830573633751e-05 -2.0766327167314586e-05 -2.3996894620944252e-05 -1.9032401716363723e-05 -2.4570577010308088e-05 7.0214934634258797e-05 -2.3248837225567257e-05 -2.8575524182491202e-05 -1.9435586023234279e-05 4.8221864286853767e-05 -6.6758543646235112e-05 -2.4187874675827482e-05 -9.9197423680485571e-05 -6.4149196561597957e-05 -5.9663794691224015e-05 -2.4420685849158079e-05 -6.1557120050934993e-06 -2.2826728108527763e-06 1.3187425833353342e-06 -2.2168655376703111e-05 -2.0862273047949666e-05 -1.1086007082119608e-05 -2.4723214656126682e-05 -2.8015120995342924e-06 2.3219509314876402e-06 -9.5418208101065785e-06 -9.1493439618407432e-06 -2.3183645408723832e-06 -5.5419759133964693e-05 -4.0635909419658523e-05 -4.7098319558089709e-05 -7.1498088590348516e-05 -5.682179984759189e-05 -3.2214797096768568e-05 7.0394284617847618e-05 -7.0091185833486935e-05 -5.4442409816664618e-05 -1.5058926991692646e-05 -4.025765679301691e-05 -4.7598203977440814e-05 -8.0117072293533212e-05 -8.2966140897067401e-05 1.1426599993210641e-05 -7.7645102388246637e-06 1.2104408296093784e-06 -8.7845928468197748e-06 -3.3541382948174022e-05 4.0135312733350563e-05 7.3824565732140011e-05 -1.3270427582630025e-05 -4.7505600416949923e-05 -1.6279972549815974e-05 -7.6028261426060444e-05 -1.594352844311478e-05 -1.8944702196490529e-05 -1.8881261213122636e-05 -3.6361342340598394e-05 -3.5746336366608198e-05 -4.0434857824884327e-05 -4.168681070930502e-05 -5.0229232124635319e-05 -7.2970938881745245e-05 -6.9983108232413521e-05 -5.4927890895173562e-05 -4.3668903251339774e-05 -5.5494456944557666e-05 -3.4804461689750125e-05 2.3496235738271887e-05 -1.9046506954032248e-05 -1.0810039343673271e-05 -9.1256722059389339e-07 -4.4309742433116916e-05 -5.449144971678612e-05 -1.8148254382458291e-05 1.0644590695941354e-06 -5.2196221090696545e-05 1.9674192667854993e-05 -2.6057710800790959e-05 -2.4703983980142399e-06 -8.5264617736895316e-05 -5.8554422994401084e-05 -3.2729640947515743e-06 -2.3424030779620055e-05 -2.5893707015870685e-05 -8.5865992026394698e-05 -5.9727818435273145e-05 9.2749340832282644e-06 -1.7294018179506675e-05 -1.7247269090230749e-05 -4.7096574717995922e-05 -3.7722861737790076e-05 -6.9869405772069514e-06 -4.3379706635327725e-06 -4.2786294452654974e-05 -3.9861560452095333e-05 -3.9056209400859357e-05 -3.8056053924545238e-05 -2.1706677878493273e-05 6.2401597625623599e-06 -9.854275774332143e-06 -9.5041990636384258e-06 -2.6027494174408073e-05 -7.3717846027863271e-06 -6.9946407487323937e-06 3.8075609860148022e-06 -3.6090487865489233e-05 -2.0481614667893768e-05 -7.1075053971658475e-05 -5.5113720051467127e-05 -7.5159416579289717e-06 4.2423910415031541e-05 7.5601538039041173e-05 -8.187819495486229e-06 -3.5104866070393971e-06 -2.1292862037357307e-05 -3.0786131584539258e-05 -2.6235953050743029e-05 -1.8568597582191253e-05 4.3366896544998429e-06 4.4620987009173383e-06 2.2823387384034079e-05 -7.1338801439389463e-06 -1.7039155875103349e-05 -2.1689013350159562e-05 -1.7129913207777205e-05 -2.256835484492313e-06 -1.4205650820581662e-05 -6.1396629042158375e-05 -4.9913671988603835e-05 1.4442377799728061e-05 -8.6396641668305679e-05 -6.3835197270385128e-05 -2.5103596968054694e-05 2.5200632896126094e-05 1.6583921534249233e-05 -3.677733553368763e-06 -2.5296367216515181e-05 -1.4099742898050397e-05 -2.4067752113407807e-05 -5.3287125094281674e-05 -3.9298018764139984e-05 2.0355525688070444e-05 1.0502163892865386e-05 2.6617721423842044e-05 -1.0261504805199556e-05 -8.6171341032085342e-06 3.3985051765226377e-05 2.0570693629472355e-05 2.2390679514055871e-05 -1.454407159288745e-05 2.9782435695817512e-06 -1.5652190302008904e-05 -2.8835192474657961e-05 2.4480245338590156e-06 -3.0493631976839554e-05 -5.8426280402273977e-05 -4.294878795819855e-05 -1.1598910720736854e-05 1.820417826170034e-05 -9.8414813518800728e-05 -2.4651058397813324e-05 -1.5406855739558242e-05 -2.4084083450641114e-05 -3.1133972155639872e-05 -3.3154383298076169e-05 -2.2750467110135464e-05 -1.6246349401508289e-05 -1.9664847589086014e-05 -1.1823463614834022e-06 -6.0643347152885467e-05 6.2071647558531234e-05 -1.7525794402543644e-05 -1.9047147435395024e-05 -1.726378174331007e-05 -1.4569940158495193e-05 5.1914779573020847e-06 -7.913764382943223e-06 -1.3152733081473057e-05 -1.8352192832833844e-05 -5.1042915470135236e-05 -1.9618561506670507e-05 -7.928428104732446e-06 -5.7418849200397635e-05 6.511186999278969e-05 -1.3569451710978252e-05 -1.230525151226132e-05 -1.8618636698859627e-05 -2.3027455292682402e-05 1.5625963400364218e-05 -2.1476654649141193e-05 -2.9878226012507809e-05 -1.8071297937613854e-05 -4.8233774176656766e-05 -3.644142534058579e-05 -2.0647242434068047e-05 -5.178571393039174e-05 -7.5998319461268501e-05 9.0798259518112302e-06 2.2912294002345947e-05 -4.783159840775176e-07 -2.742231983130926e-05 7.6549690774449443e-05 -2.7668066520180077e-05 -6.5645333065928027e-06 3.5276049074391353e-05 -1.956976076769475e-05 -1.0679253897139408e-05 -1.1805114225886277e-05 -2.5672015667121881e-05 -4.6467799896456486e-06 2.3266742790994596e-05 -1.0709802904726668e-05 -7.8873799303493214e-05 -0.00013970090078290276 4.3650808439974799e-05 -4.2203524112998284e-05 4.3112183093492973e-05 5.1510472287818175e-05 9.2022363279083879e-05 8.5088283295908849e-05 -1.1880132724439188e-05 -1.9756102389838909e-06 5.2788667884786657e-05 2.0780611500566086e-05 -1.2585476953452877e-05 2.1605145525404289e-05 -7.4589996433916186e-06 -6.2858420265877492e-06 5.4790112608165721e-06 -2.0304735182161494e-05 2.1744693309771058e-05 -4.146346150611847e-06 1.2595735963232228e-05 -5.2501100089204222e-06 6.8967766708597292e-06 6.6336412793396643e-06 -2.417002106574963e-05 -2.305838170000836e-05 -2.4884376872738093e-05 -4.1249555289474054e-06 -4.6820391019750151e-05 3.1062093927669321e-05 6.6170429287280039e-07 3.9431303194887337e-06 -2.7040264708617641e-05 -2.9714688607171197e-05 -0.00015241665242927635 -8.1844919395434429e-05 -2.933331166910031e-05 -3.4247078465721963e-05 8.302188700947408e-07 -4.0971679998316822e-08 -7.058503374048657e-06 -8.1692753078967028e-05 -5.874962075508653e-05 4.519220014504409e-05 -6.6573726225489631e-05 -5.1529340344866135e-05 -2.4679240092115892e-05 6.1339957794019975e-05 -6.9471312183302619e-06 -9.8674407113980857e-06 -5.2087963168591329e-05 -4.7858034778435775e-05 -7.2034626572039501e-05 -0.00011706564219668195 -2.7194245606844295e-05 2.2235198331445783e-05 -3.7638037904812746e-06 1.5041675087578118e-06 -2.5694491495364537e-06 2.0668168139954941e-05 1.9623428744775995e-05 -2.2541749030931518e-05 -1.9224831316770093e-05 -1.3748144561104682e-06 5.3284096890504842e-05 -6.8276969350454731e-05 -0.00010617188616959481 -1.1286451921160618e-05 3.8138277107847363e-05 -1.2992605490774619e-05 -6.8876018834668833e-05 -5.2722943888450094e-05 -2.7489342456244329e-05 -9.2172378133569247e-07 3.2100516264989385e-06 -2.7364043603993681e-05 -3.7003679810724936e-05 1.8507444581066261e-05 1.81751417255427e-05 -2.449424112979968e-06 -8.8696447150408476e-06 -9.110382843725071e-06 -1.5272385333965134e-06 7.3271697489237127e-05 6.6332354119093967e-07 3.6667992783725014e-05 9.5814374895491876e-07 -8.122105271949484e-06 -1.5121250124577645e-05 -8.9501333607074063e-06 -9.138982151294292e-05 -0.0001051390461633378 -2.2438239920668203e-05 -2.6447266736868947e-05 2.2945319848333899e-05 -5.0620480176307238e-05 -4.562142686556338e-05 -5.3983191481121528e-05 -6.6195137249629927e-05 -3.7722158755588986e-05 -2.8939020904688315e-05 -3.5346700309196026e-05 -3.4536906620928921e-05 -3.2538876757778709e-05 -3.6685357068795605e-05 -1.100293527400405e-05 -1.9078287771435e-05 -4.066049228794639e-05 -4.1600339241830592e-05 -1.6434499156671534e-05 -4.5334337787967922e-05 -5.2989757661867629e-05 7.5080246794131998e-06 -1.8169688470276484e-05 -6.5322461642946115e-05 -5.4772674703189982e-05 3.2794025842970665e-05 -2.2592929371602994e-05 -3.0680836049299314e-05 1.404699862708953e-05 -8.4934620977514903e-06 -1.1588747479132496e-05 -9.4812205763026246e-05 -6.7995425053959737e-05 1.3656118112911019e-05 -1.0778834572385139e-05 -2.1095358740595756e-05 -4.9940685723192014e-05 -5.5351306144156825e-05 -1.334107330917372e-05 -2.0775225262815701e-05 -2.2628988939540462e-05 -6.6823877236391713e-06 -2.3043902140302744e-05 8.4395555210149957e-05 -3.0170261837358616e-05 -3.332226881861116e-05 2.2212932178166875e-05 2.0495993017121805e-05 -5.2103800936614956e-05 -9.7801670712405545e-06 -6.7190492692157294e-05 -0.00011221321865899981 -6.6143636290938009e-05 -0.00011269446054923524 -6.1944815041787535e-05 -8.2994575188047879e-05 -6.7724647024158119e-06 2.5109457764442501e-06 2.5543080879607803e-05 6.3490625008802231e-05 8.2825607667923488e-06 5.0078885098795041e-05 1.3778519887913036e-05 -2.2541448870060641e-05 6.6774872244956839e-06 -6.8411989181451911e-06 2.7677141985634029e-06 -7.7434642915150727e-05 -3.9523550282605664e-06 9.2734625528931519e-05 8.0192599734873614e-05 2.4593968109447046e-05 -0.00012390780986652712 -7.1546660710492999e-05 -2.5103333663696668e-06 -5.1840636522694841e-05 -3.2907312973510811e-05 -6.2267294106640482e-06 1.6653152124548485e-07 2.1088080344775265e-05 -1.278431065991105e-05 -4.0141742652481958e-05 -4.4397120336400392e-05 -1.4035504773370695e-05 -1.4086103819356717e-05 -1.8251842406502979e-05 -1.8440245864545513e-05 -3.3269736692809887e-05 -2.5405513801653026e-05 -4.7787701934599036e-05 -5.8232027249756461e-05 -5.6073043569536776e-05 -9.7500882307644844e-05 -5.0478902797835038e-05 -1.4470242113348046e-05 -1.1349509452421129e-05 -7.9654835336311048e-05 -0.00010578988519304067 -2.4333312065015358e-05 1.8506229185036511e-05 -7.2341556062526771e-05 -0.00013043393827827382 -3.6807405049527639e-05 -6.9605598761070844e-05 -5.1930374267784156e-05 0.00010176650243191409 -9.6980636747644855e-05 -6.2797399011876371e-05 -2.857305674048888e-05 -2.8529886878307675e-05 6.0930665331764808e-07 -1.8999484055667903e-05 -8.8643454746523665e-06 9.0181953396939246e-05 -4.913666424290591e-05 -2.2069605988491864e-05 6.9050342799367205e-05 -4.5786885109500265e-05 -0.0001562971152080786 -8.4710299819646588e-05 3.6336142303960213e-06 -6.6673265773667536e-05 -7.6784416840998095e-05 3.4334660631812588e-05 -3.0305267741624013e-05 -1.8911505282076497e-05 6.0980965686607477e-05 -9.7352476081365505e-06 -1.2791796974412741e-05 7.2248950289720087e-06 -2.028449406660715e-05 -2.7321976211133487e-05 2.699214603712227e-05 -3.3531459633865509e-05 3.3090954656277448e-05 -5.9359101225357779e-05 -2.9890810547071275e-05 -5.1513388740842962e-05 -4.5966373718306884e-05 -6.4761785730622532e-05 -5.7077898150317393e-05 -5.2411405833397199e-05 -4.6643181806631985e-05 -5.109435683424547e-05 -4.3390452773212189e-05 -4.3367384967192815e-05 -1.2491844064171584e-05 1.2684961368563834e-05 -1.6771572858803199e-05 -8.0583005753981449e-06 -1.6495574687023227e-05 1.0627943234039518e-05 -4.9690588228317638e-06 -8.5739625478873163e-05 -0.00016029219342646682 2.7316508446307783e-06 1.9589293550819481e-05 -4.0850764446429271e-05 -2.521880908612791e-05 -3.4351195972395291e-05 -2.9116413607013019e-05 4.541308552575581e-05 -6.3392100152211833e-05 -5.7785424764400604e-05 -7.829333337082696e-05 -9.2952967140352599e-05 -7.2093773389025201e-05 4.9441728594227597e-05 1.9601401967959519e-05 -1.7576058181891836e-05 -3.7744837007949532e-05 -7.2303639539199907e-06 -5.2353942037711122e-05 1.8015825387615375e-05 -2.8021772161809293e-05 -2.7056059542019135e-05 6.6618426140715181e-05 -0.00012864343829507982 -2.223198413311717e-05 -5.025159528743678e-05 -5.9296637609247325e-05 -8.1184019166246858e-06 -6.5274525033015584e-05 -0.00010800584355514488 3.6493842028482819e-05 -2.8730509821435751e-05 2.000465544590234e-05 -3.3308526371785907e-06 -7.5444358024701823e-06 -1.6374509319542612e-05 -2.5567582537107525e-05 -2.9725778790774048e-05 5.1817279979529695e-05 4.4434313547247101e-05 -2.4208866136770551e-05 -2.1103074336002812e-05 9.132154767403991e-06 2.8707282187876576e-06 -8.3412024525332876e-07 2.3733049505128469e-05 -2.2957832828510928e-05 3.2169338657912392e-05 6.3616490764783855e-06 -5.0532812854377175e-05 -5.7522597356005978e-05 -9.6365731850626924e-05 1.1818328591626267e-05 1.9656158324965337e-05 -2.1403773977013581e-05 -2.5910325684864569e-05 -0.00010355735550036318 -6.4549081164982485e-05 -5.9079599096931659e-05 3.9744313798301123e-05 -1.9312413701686902e-05 -2.6823634234028869e-05 -1.6078204459291834e-05 -3.4843105264228871e-05 -4.0077167427319881e-05 -3.6725194722329378e-06 8.0927345386435224e-06 -5.2305684651951121e-05 -5.6759866162193811e-05 -9.2499846326021861e-05 -1.8793798636516533e-05 -2.3561603351973052e-05 -5.1252129464153072e-05 -4.5362224077472781e-05 -1.5243153057709454e-05 -6.3029842190611232e-05 -7.464410132884611e-05 -1.3229991907928059e-05 -3.5779435210850537e-05 -2.5170268712959684e-05 5.9562453464287153e-05 7.9365434974288816e-05 -7.5980430254324994e-05 6.7759066773791763e-05 5.2117541490618148e-05 -3.8279966539023639e-05 -2.9391172542894743e-05 -7.3514191212927654e-05 -2.9857196364094902e-07 5.8049844332452302e-05 -2.5647681166097113e-05 -6.6735486400009141e-05 -0.00011370595372462041 -3.4205674773812172e-05 5.6354821795689871e-06 -1.2624038088550468e-05 1.377244589810978e-05 -7.1353370374630507e-05 -5.7577187383305766e-05 -7.8957831243372145e-05 1.0064006672545278e-05 -4.4538215231166859e-05 3.2580261354043919e-05 -2.1719808543453056e-05 -1.2197860063841738e-05 -6.8617273065856897e-05 -0.00011743625801637108 -4.6778411274137527e-05 -7.0064995868126135e-06 1.6293570373262524e-05 -3.3638160169119957e-05 -2.4830934127627129e-05 -3.7976195827230215e-05 -4.0639410481184011e-05 -2.463116230578058e-05 -2.6711752566797954e-05 -6.9767463489825822e-05 -0.00012537812382829895 -3.4024076047590871e-05 6.022588399553358e-05 4.0693749896160425e-05 -2.5068266767370399e-05 6.9629870109979598e-05 -2.0556555706670266e-06 -2.2855140374592278e-05 5.1127189198376354e-05 8.9131306869939505e-05 -6.5610623514892187e-05 -4.3586821337883542e-05 -1.7929471646178565e-05 -5.8735677845373011e-05 6.7873894995885758e-06 -2.2679147176934086e-05 -2.861887292818662e-05 5.5482373383051835e-05 -3.8139239216570545e-05 -1.7187674502135565e-05 -1.1638625398744987e-05 1.7817265673742495e-05 4.7756195210643801e-05 8.5998728036649249e-05 3.9996166270154073e-05 1.0679236138460277e-05 -1.1386307470237505e-05 2.5771700764422518e-05 -3.2433948670019662e-05 -5.0167037138187093e-05 -4.2285586886152529e-05 -4.6695284592719805e-05 1.2125595871368289e-06 1.8128793627440742e-05 -1.2758259502654044e-05 -1.6351100119801941e-05 -2.5960166965814539e-05 -1.7128005785681927e-05 -2.47989695025327e-05 -1.4325523373067035e-05 -1.2929895376756473e-05 -1.6680217586240485e-05 0.0001119766677057098 -2.4437628729499639e-05 -3.1142654818736189e-05 9.9361885385739618e-07 8.9237552233256343e-05 8.7660863036878437e-05 4.5527112739204758e-05 1.6273996630497556e-06 7.5987794200138696e-07 4.8830580102224644e-05 1.3035057879725101e-06 -2.5694335664789738e-05 -2.6539433313499534e-05 -3.8201732617514718e-05 -2.8059344627865291e-05 -3.1235724525888783e-05 -2.1368616222863877e-05 -1.2269003339544868e-05 3.4290920420320227e-05 6.4781800603576519e-05 -1.2005400704085626e-07 -3.4288294741743647e-05 8.5435043964322442e-06 3.7591470936480364e-05 -1.4874667489858261e-05 -1.516919941843459e-05 -7.2025832507610459e-06 -2.5499915341458887e-05 -6.3936021902545213e-06 2.9762105400641357e-06 -3.2736260627922936e-05 -5.9744649948737492e-06 1.980379314792108e-05 -2.3361094427348477e-05 4.1227505566787453e-05 1.9641821142901922e-05 -1.1504719155566929e-05 -4.9461557814920969e-05 -4.0794243722893432e-06 1.5909280643173075e-06 0.0001300167619942187 0.00011315007259967853 5.6626219773914938e-05 1.2632613245311869e-05 -3.5294584554855426e-05 -3.4530408875284165e-05 -6.9812672305951675e-05 -5.4126062290253091e-05 -1.6972313753523734e-05 -6.9382909799118984e-05 -7.2825610760098253e-05 -9.2761995238370735e-05 -9.8620106287135236e-05 -1.9836461053144655e-05 -2.1772066247972434e-05 3.1355099979029667e-05 2.908037222172069e-05 3.7092563130972636e-05 -8.1505159318126345e-07 2.6468053120007174e-06 1.6475682225049552e-05 3.5777844621009498e-05 9.0626461058976401e-07 -6.8803330642115207e-06 -2.9656714274718448e-06 -8.6097205234420888e-05 -0.0001162776818459724 -0.00011293833098857578 -8.4591022151058159e-05 -1.1841584573554016e-05 -2.9553667634065389e-05 -2.0780146347954996e-05 -2.4893568953753312e-05 -2.5310690802335514e-05 -2.2592509447345864e-05 -2.2200275075524185e-05 5.0685833318986481e-05 0.00024412530777430066 -3.2474566519785877e-05 1.4586529873330026e-05 -4.0591213330913025e-06 -1.5292881484936186e-05 2.3737899464737304e-05 -1.924842268272056e-05 4.4933161619550843e-05 -1.1443769722700649e-07 -2.5867500701093598e-05 1.8483243720791506e-06 4.0116736064604863e-06 -2.1878388660477523e-05 2.9660573535159182e-05 -2.603421301942537e-05 -3.1697530075687301e-05 -3.8150709795299419e-05 -3.5429196740608826e-05 -1.1928637381879828e-05 -7.5509388334461455e-06 -2.8889553535973277e-05 -2.1560582869902121e-05 -2.3945251429676662e-05 -1.982104552549662e-05 -1.6198985920939761e-06 8.3853840565094361e-06 -1.307163217295561e-05 7.3584669954625324e-05 2.4861890900539259e-05 -3.1417767886185791e-06 1.0672579877256221e-05 -3.1437717114271221e-06 -3.3217462256854638e-05 -8.7343032030349869e-06 -4.4936077915269049e-06 -5.1438440229564294e-07 1.7215159238791536e-05 7.4629637427867102e-07 1.8798287413929887e-06 3.6834546642159835e-06 -3.1586055519882425e-05 1.4225077809352853e-05 5.4397272191098492e-05 9.8237231956712235e-05 -2.1021198417280274e-05 -4.6874276345136578e-05 -5.3769745934630422e-05 -2.6538530501788321e-05 -1.6044791293484375e-05 -2.5390809869672209e-05 -1.1274470729574516e-05 -3.5518032779529966e-05 -6.7432034872366362e-06 -1.1212099607483096e-05 -6.3278355585923214e-05 -8.834810059217729e-05 -7.3594588371682986e-05 -5.5341169960107949e-05 -1.5173630014428632e-05 -4.8177681040405436e-05 4.8913573639278694e-06 -3.3434384825135888e-07 -2.8064368300270768e-05 -2.9891800815159413e-05 -1.7575737858393288e-05 -1.5158106945324049e-05 -5.1508620672986743e-05 -4.6671848151165593e-05 -3.1479024138574008e-05 6.2959330596618892e-07 -2.5538257183787123e-05 -6.0862461103163533e-06 -4.4252686294198326e-05 -1.988583532675799e-05 -3.1590619014034652e-05 1.8981680103260845e-05 4.0425304324062661e-05 -2.4242608039707233e-05 3.0367541378265028e-06 -3.2975877025404748e-06 1.9715131864812482e-05 2.0048383057164054e-05 4.2515714071371391e-05 1.8644479816603068e-06 4.5208197051564009e-05 -3.0422985784019953e-06 -3.1384389700177045e-05 -1.3054608002492727e-05 -1.9786606553669965e-05 -2.3945803830241263e-05 -2.0614283467123001e-05 4.5338941818606277e-05 -2.5486684148071846e-05 -3.0829924007703372e-05 -3.5300447949949206e-05 -6.6481562233904577e-05 -3.088151142787007e-05 2.6396066638128781e-05 -2.131267855362399e-06 -6.034764966841963e-06 4.8421925255811519e-05 -2.7352202180408881e-05 -4.4888303908172751e-05 1.8570394076519823e-05 2.0431310864886328e-05 -1.2089950935103189e-05 -1.807260397915777e-05 -1.202400057587216e-05 -3.6858905415267952e-06 7.1033053612381322e-05 -1.8809960242953568e-05 -4.4331738934552442e-05 -2.5160394397902083e-05 6.005479741109346e-05 -2.7065346419720112e-05 -3.9690577098687029e-05 -5.3497698591911349e-05 5.0174661246630203e-06 
</DataArray>
</CellData>
</Piece>
</UnstructuredGrid>
</VTKFile>
