<?xml version="1.0"?>
<VTKFile type="UnstructuredGrid" version="0.1" byte_order="LittleEndian">
<UnstructuredGrid>
<Piece NumberOfPoints="3142" NumberOfCells="1054">
<Points>
<DataArray type="Float64" NumberOfComponents="3" format="ascii">
0.02576622439977887 0.024532886826226379 0 0 0 0 0.049999999999899652 0 0 0.02576622439977887 0.024532886826226379 0 0 0 0 0 0.050000000000207989 0 0.02576622439977887 0.024532886826226379 0 0.049999999999899652 0 0 0.053064897599215843 0.048131547304697528 0 0.02576622439977887 0.024532886826226379 0 0.053064897599215843 0.048131547304697528 0 0 0.050000000000207989 0 0 0.050000000000207989 0 0 0.10000000000041601 0 0.044310582753132287 0.101412518374475 0 0 0.10000000000041601 0 0.044310582753132287 0.101412518374475 0 0 0.15000000000062411 0 0.053064897599215843 0.048131547304697528 0 0.044310582753132287 0.101412518374475 0 0.083411279318303222 0.089699755330707398 0 0.053064897599215843 0.048131547304697528 0 0 0.050000000000207989 0 0.044310582753132287 0.101412518374475 0 0.044310582753132287 0.101412518374475 0 0.083411279318303222 0.089699755330707398 0 0.065374659239632718 0.1448908038746782 0 0.083411279318303222 0.089699755330707398 0 0.065374659239632718 0.1448908038746782 0 0.1053400320299198 0.12877248826361379 0 0.083411279318303222 0.089699755330707398 0 0.12372429750337779 0.095814237875728972 0 0.1053400320299198 0.12877248826361379 0 0.12372429750337779 0.095814237875728972 0 0.1053400320299198 0.12877248826361379 0 0.14332333627550789 0.14578431753966009 0 0.12372429750337779 0.095814237875728972 0 0.10266856499169109 0.044518360900210059 0 0.14618258501891079 0.062070108745602003 0 0.083411279318303222 0.089699755330707398 0 0.12372429750337779 0.095814237875728972 0 0.10266856499169109 0.044518360900210059 0 0.10266856499169109 0.044518360900210059 0 0.099999999999814668 0 0 0.14999999999970359 0 0 0.049999999999899652 0 0 0.053064897599215843 0.048131547304697528 0 0.099999999999814668 0 0 0.053064897599215843 0.048131547304697528 0 0.10266856499169109 0.044518360900210059 0 0.099999999999814668 0 0 0.053064897599215843 0.048131547304697528 0 0.083411279318303222 0.089699755330707398 0 0.10266856499169109 0.044518360900210059 0 0.044081577119474857 0.2271058242433576 0 0 0.20000000000083221 0 0 0.25000000000104028 0 0.044081577119474857 0.2271058242433576 0 0 0.20000000000083221 0 0.038512288486115001 0.1844147282893184 0 0.044081577119474857 0.2271058242433576 0 0.038512288486115001 0.1844147282893184 0 0.083105206071467416 0.20007701332709979 0 0.038512288486115001 0.1844147282893184 0 0 0.15000000000062411 0 0.065374659239632718 0.1448908038746782 0 0.044310582753132287 0.101412518374475 0 0 0.15000000000062411 0 0.065374659239632718 0.1448908038746782 0 0.038512288486115001 0.1844147282893184 0 0.065374659239632718 0.1448908038746782 0 0.083105206071467416 0.20007701332709979 0 0 0.20000000000083221 0 0.038512288486115001 0.1844147282893184 0 0 0.15000000000062411 0 0.065374659239632718 0.1448908038746782 0 0.1053400320299198 0.12877248826361379 0 0.106902708054812 0.16453234188234539 0 0.1053400320299198 0.12877248826361379 0 0.106902708054812 0.16453234188234539 0 0.14332333627550789 0.14578431753966009 0 0.065374659239632718 0.1448908038746782 0 0.106902708054812 0.16453234188234539 0 0.083105206071467416 0.20007701332709979 0 0.083105206071467416 0.20007701332709979 0 0.095326043202144745 0.24554465089224409 0 0.13737030665753211 0.20313708640667491 0 0.106902708054812 0.16453234188234539 0 0.083105206071467416 0.20007701332709979 0 0.13737030665753211 0.20313708640667491 0 0.044081577119474857 0.2271058242433576 0 0.083105206071467416 0.20007701332709979 0 0.095326043202144745 0.24554465089224409 0 0.044081577119474857 0.2271058242433576 0 0.095326043202144745 0.24554465089224409 0 0.049706944316556423 0.27522722923869108 0 0.095326043202144745 0.24554465089224409 0 0.14377654328998779 0.2442024734791064 0 0.13737030665753211 0.20313708640667491 0 0.17933913398461551 0.2350063570234002 0 0.14377654328998779 0.2442024734791064 0 0.13737030665753211 0.20313708640667491 0 0.17933913398461551 0.2350063570234002 0 0.13737030665753211 0.20313708640667491 0 0.18124454140915969 0.18790916706335251 0 0.18124454140915969 0.18790916706335251 0 0.14332333627550789 0.14578431753966009 0 0.18652628422869419 0.14162325200928061 0 0.106902708054812 0.16453234188234539 0 0.13737030665753211 0.20313708640667491 0 0.14332333627550789 0.14578431753966009 0 0.13737030665753211 0.20313708640667491 0 0.18124454140915969 0.18790916706335251 0 0.14332333627550789 0.14578431753966009 0 0.14332333627550789 0.14578431753966009 0 0.18652628422869419 0.14162325200928061 0 0.16141998738593399 0.10404039647458049 0 0.18652628422869419 0.14162325200928061 0 0.22985637510995899 0.1298347970200906 0 0.2185883431182947 0.18019736283949719 0 0.22985637510995899 0.1298347970200906 0 0.2185883431182947 0.18019736283949719 0 0.25557216766470708 0.15874861286892261 0 0.2185883431182947 0.18019736283949719 0 0.25557216766470708 0.15874861286892261 0 0.26429849586623999 0.19346700179430079 0 0.18124454140915969 0.18790916706335251 0 0.18652628422869419 0.14162325200928061 0 0.2185883431182947 0.18019736283949719 0 0.17933913398461551 0.2350063570234002 0 0.18124454140915969 0.18790916706335251 0 0.224700362040408 0.22206622194729711 0 0.18124454140915969 0.18790916706335251 0 0.2185883431182947 0.18019736283949719 0 0.224700362040408 0.22206622194729711 0 0.2185883431182947 0.18019736283949719 0 0.224700362040408 0.22206622194729711 0 0.26429849586623999 0.19346700179430079 0 0.224700362040408 0.22206622194729711 0 0.25195515620380449 0.25883339815888678 0 0.21049769590865089 0.26857363548218488 0 0.17933913398461551 0.2350063570234002 0 0.224700362040408 0.22206622194729711 0 0.21049769590865089 0.26857363548218488 0 0.184418230509967 0.038773194583122873 0 0.14999999999970359 0 0 0.14618258501891079 0.062070108745602003 0 0.184418230509967 0.038773194583122873 0 0.14618258501891079 0.062070108745602003 0 0.19922788606653311 0.085920220746880993 0 0.184418230509967 0.038773194583122873 0 0.14999999999970359 0 0 0.19999999999955789 0 0 0.10266856499169109 0.044518360900210059 0 0.14999999999970359 0 0 0.14618258501891079 0.062070108745602003 0 0.12372429750337779 0.095814237875728972 0 0.14618258501891079 0.062070108745602003 0 0.16141998738593399 0.10404039647458049 0 0.12372429750337779 0.095814237875728972 0 0.14332333627550789 0.14578431753966009 0 0.16141998738593399 0.10404039647458049 0 0.18652628422869419 0.14162325200928061 0 0.16141998738593399 0.10404039647458049 0 0.19922788606653311 0.085920220746880993 0 0.14618258501891079 0.062070108745602003 0 0.16141998738593399 0.10404039647458049 0 0.19922788606653311 0.085920220746880993 0 0.18652628422869419 0.14162325200928061 0 0.22985637510995899 0.1298347970200906 0 0.19922788606653311 0.085920220746880993 0 0.22985637510995899 0.1298347970200906 0 0.19922788606653311 0.085920220746880993 0 0.24218496799700481 0.089025544070598317 0 0.22985637510995899 0.1298347970200906 0 0.24218496799700481 0.089025544070598317 0 0.27474541102162192 0.11822029332053539 0 0.19922788606653311 0.085920220746880993 0 0.24218496799700481 0.089025544070598317 0 0.22668068146512929 0.045875643423131329 0 0.24218496799700481 0.089025544070598317 0 0.22668068146512929 0.045875643423131329 0 0.27499999999933927 0.060310814194988557 0 0.184418230509967 0.038773194583122873 0 0.19922788606653311 0.085920220746880993 0 0.22668068146512929 0.045875643423131329 0 0.184418230509967 0.038773194583122873 0 0.22668068146512929 0.045875643423131329 0 0.19999999999955789 0 0 0.22668068146512929 0.045875643423131329 0 0.19999999999955789 0 0 0.24999999999941211 0 0 0.24999999999941211 0 0 0.27499999999933927 0.060310814194988557 0 0.29999999999926641 0 0 0.22668068146512929 0.045875643423131329 0 0.24999999999941211 0 0 0.27499999999933927 0.060310814194988557 0 0.27499999999933927 0.060310814194988557 0 0.29999999999926641 0 0 0.32541448401678508 0.046215317981507749 0 0.29999999999926641 0 0 0.32541448401678508 0.046215317981507749 0 0.34999999999912063 0 0 0.32541448401678508 0.046215317981507749 0 0.3615861437013822 0.03582617922508851 0 0.35312867752657662 0.084946736076730367 0 0.3615861437013822 0.03582617922508851 0 0.35312867752657662 0.084946736076730367 0 0.39591832466117061 0.056982757562006353 0 0.32541448401678508 0.046215317981507749 0 0.3615861437013822 0.03582617922508851 0 0.34999999999912063 0 0 0.3615861437013822 0.03582617922508851 0 0.34999999999912063 0 0 0.3999999999989749 0 0 0.35312867752657662 0.084946736076730367 0 0.36246644853392812 0.1399454205365751 0 0.39823268594401579 0.1116623613130045 0 0.35312867752657662 0.084946736076730367 0 0.32215584939770009 0.1218492143506909 0 0.36246644853392812 0.1399454205365751 0 0.32541448401678508 0.046215317981507749 0 0.35312867752657662 0.084946736076730367 0 0.3096713403101819 0.085471541595262421 0 0.35312867752657662 0.084946736076730367 0 0.32215584939770009 0.1218492143506909 0 0.3096713403101819 0.085471541595262421 0 0.32215584939770009 0.1218492143506909 0 0.3096713403101819 0.085471541595262421 0 0.27474541102162192 0.11822029332053539 0 0.27499999999933927 0.060310814194988557 0 0.32541448401678508 0.046215317981507749 0 0.3096713403101819 0.085471541595262421 0 0.27499999999933927 0.060310814194988557 0 0.3096713403101819 0.085471541595262421 0 0.27474541102162192 0.11822029332053539 0 0.24218496799700481 0.089025544070598317 0 0.27499999999933927 0.060310814194988557 0 0.27474541102162192 0.11822029332053539 0 0.22985637510995899 0.1298347970200906 0 0.27474541102162192 0.11822029332053539 0 0.25557216766470708 0.15874861286892261 0 0.27474541102162192 0.11822029332053539 0 0.25557216766470708 0.15874861286892261 0 0.29336099386129338 0.15892013001050981 0 0.25557216766470708 0.15874861286892261 0 0.29336099386129338 0.15892013001050981 0 0.26429849586623999 0.19346700179430079 0 0.29336099386129338 0.15892013001050981 0 0.31255190597181792 0.19850845631528771 0 0.33084213324567391 0.16272720141332131 0 0.29336099386129338 0.15892013001050981 0 0.26429849586623999 0.19346700179430079 0 0.31255190597181792 0.19850845631528771 0 0.32215584939770009 0.1218492143506909 0 0.27474541102162192 0.11822029332053539 0 0.29336099386129338 0.15892013001050981 0 0.224700362040408 0.22206622194729711 0 0.28040350263641872 0.23054717217092141 0 0.25195515620380449 0.25883339815888678 0 0.224700362040408 0.22206622194729711 0 0.28040350263641872 0.23054717217092141 0 0.26429849586623999 0.19346700179430079 0 0.28040350263641872 0.23054717217092141 0 0.26429849586623999 0.19346700179430079 0 0.31255190597181792 0.19850845631528771 0 0.28040350263641872 0.23054717217092141 0 0.33758650185219202 0.23837101504325639 0 0.29132859388405002 0.27203693976649962 0 0.28040350263641872 0.23054717217092141 0 0.33758650185219202 0.23837101504325639 0 0.31255190597181792 0.19850845631528771 0 0.33758650185219202 0.23837101504325639 0 0.31255190597181792 0.19850845631528771 0 0.3572130504031617 0.1874703368446563 0 0.33758650185219202 0.23837101504325639 0 0.3572130504031617 0.1874703368446563 0 0.38831533174504851 0.2189834941785925 0 0.33758650185219202 0.23837101504325639 0 0.38831533174504851 0.2189834941785925 0 0.3786248352540974 0.27082301512024259 0 0.32215584939770009 0.1218492143506909 0 0.29336099386129338 0.15892013001050981 0 0.33084213324567391 0.16272720141332131 0 0.32215584939770009 0.1218492143506909 0 0.33084213324567391 0.16272720141332131 0 0.36246644853392812 0.1399454205365751 0 0.31255190597181792 0.19850845631528771 0 0.33084213324567391 0.16272720141332131 0 0.3572130504031617 0.1874703368446563 0 0.3572130504031617 0.1874703368446563 0 0.36246644853392812 0.1399454205365751 0 0.39801143831225599 0.16651381068160659 0 0.33084213324567391 0.16272720141332131 0 0.3572130504031617 0.1874703368446563 0 0.36246644853392812 0.1399454205365751 0 0.36246644853392812 0.1399454205365751 0 0.39801143831225599 0.16651381068160659 0 0.39823268594401579 0.1116623613130045 0 0.39801143831225599 0.16651381068160659 0 0.42905200079338551 0.19982395548231649 0 0.44288491854585582 0.14116182884956319 0 0.39801143831225599 0.16651381068160659 0 0.44288491854585582 0.14116182884956319 0 0.39823268594401579 0.1116623613130045 0 0.38831533174504851 0.2189834941785925 0 0.42377727103934271 0.25099357235810238 0 0.3786248352540974 0.27082301512024259 0 0.3572130504031617 0.1874703368446563 0 0.39801143831225599 0.16651381068160659 0 0.38831533174504851 0.2189834941785925 0 0.39801143831225599 0.16651381068160659 0 0.38831533174504851 0.2189834941785925 0 0.42905200079338551 0.19982395548231649 0 0.38831533174504851 0.2189834941785925 0 0.42905200079338551 0.19982395548231649 0 0.42377727103934271 0.25099357235810238 0 0.42905200079338551 0.19982395548231649 0 0.46429753744194407 0.22870891180733599 0 0.42377727103934271 0.25099357235810238 0 0.42905200079338551 0.19982395548231649 0 0.46429753744194407 0.22870891180733599 0 0.47357141910802508 0.1873585799078378 0 0.47357141910802508 0.1873585799078378 0 0.51729576145820033 0.1683240575987815 0 0.50760557329222289 0.20700468884612061 0 0.46429753744194407 0.22870891180733599 0 0.47357141910802508 0.1873585799078378 0 0.50760557329222289 0.20700468884612061 0 0.46429753744194407 0.22870891180733599 0 0.49695729691142171 0.25014895411178018 0 0.50760557329222289 0.20700468884612061 0 0.44288491854585582 0.14116182884956319 0 0.47357141910802508 0.1873585799078378 0 0.48466639505193998 0.1421439844745814 0 0.42905200079338551 0.19982395548231649 0 0.44288491854585582 0.14116182884956319 0 0.47357141910802508 0.1873585799078378 0 0.47357141910802508 0.1873585799078378 0 0.48466639505193998 0.1421439844745814 0 0.51729576145820033 0.1683240575987815 0 0.44288491854585582 0.14116182884956319 0 0.48466639505193998 0.1421439844745814 0 0.47881186583059909 0.093591717165689425 0 0.48466639505193998 0.1421439844745814 0 0.47881186583059909 0.093591717165689425 0 0.51076801031701946 0.1202837388510348 0 0.44288491854585582 0.14116182884956319 0 0.47881186583059909 0.093591717165689425 0 0.43698630808430822 0.080423614171545449 0 0.47881186583059909 0.093591717165689425 0 0.47040171442036788 0.044141676406503738 0 0.43698630808430822 0.080423614171545449 0 0.47881186583059909 0.093591717165689425 0 0.47040171442036788 0.044141676406503738 0 0.52375890611712683 0.059318771819432882 0 0.47040171442036788 0.044141676406503738 0 0.49999999999869432 0 0 0.52375890611712683 0.059318771819432882 0 0.47040171442036788 0.044141676406503738 0 0.49999999999869432 0 0 0.44999999999882923 0 0 0.47040171442036788 0.044141676406503738 0 0.44999999999882923 0 0 0.4320097814748517 0.037406712692169303 0 0.47040171442036788 0.044141676406503738 0 0.4320097814748517 0.037406712692169303 0 0.43698630808430822 0.080423614171545449 0 0.4320097814748517 0.037406712692169303 0 0.3999999999989749 0 0 0.39591832466117061 0.056982757562006353 0 0.4320097814748517 0.037406712692169303 0 0.39591832466117061 0.056982757562006353 0 0.43698630808430822 0.080423614171545449 0 0.44999999999882923 0 0 0.4320097814748517 0.037406712692169303 0 0.3999999999989749 0 0 0.3615861437013822 0.03582617922508851 0 0.3999999999989749 0 0 0.39591832466117061 0.056982757562006353 0 0.35312867752657662 0.084946736076730367 0 0.39591832466117061 0.056982757562006353 0 0.39823268594401579 0.1116623613130045 0 0.44288491854585582 0.14116182884956319 0 0.39823268594401579 0.1116623613130045 0 0.43698630808430822 0.080423614171545449 0 0.39591832466117061 0.056982757562006353 0 0.39823268594401579 0.1116623613130045 0 0.43698630808430822 0.080423614171545449 0 0.42161023666869668 0.39493916313643851 0 0.38707855792647411 0.42299362914874578 0 0.43249999999999988 0.43937499999999979 0 0.42161023666869668 0.39493916313643851 0 0.38083244760691543 0.38531983672244652 0 0.38707855792647411 0.42299362914874578 0 0.42161023666869668 0.39493916313643851 0 0.38083244760691543 0.38531983672244652 0 0.40076539126862748 0.34589349467022118 0 0.38707855792647411 0.42299362914874578 0 0.3908716102680424 0.47010282357248828 0 0.43249999999999988 0.43937499999999979 0 0.3908716102680424 0.47010282357248828 0 0.43507373378304309 0.49699695397193322 0 0.38244435121258652 0.51653317813019495 0 0.3908716102680424 0.47010282357248828 0 0.43507373378304309 0.49699695397193322 0 0.43249999999999988 0.43937499999999979 0 0.43507373378304309 0.49699695397193322 0 0.43249999999999988 0.43937499999999979 0 0.46111841286828259 0.46690301029591341 0 0.43249999999999988 0.43937499999999979 0 0.46111841286828259 0.46690301029591341 0 0.48858720058566618 0.43964267759203868 0 0.43507373378304309 0.49699695397193322 0 0.46111841286828259 0.46690301029591341 0 0.49102375406324739 0.49123754822244059 0 0.46111841286828259 0.46690301029591341 0 0.49102375406324739 0.49123754822244059 0 0.48858720058566618 0.43964267759203868 0 0.48858720058566618 0.43964267759203868 0 0.46655310992796922 0.39650496622958609 0 0.52289427570932567 0.3932284363388488 0 0.43249999999999988 0.43937499999999979 0 0.48858720058566618 0.43964267759203868 0 0.46655310992796922 0.39650496622958609 0 0.42161023666869668 0.39493916313643851 0 0.43249999999999988 0.43937499999999979 0 0.46655310992796922 0.39650496622958609 0 0.42161023666869668 0.39493916313643851 0 0.46655310992796922 0.39650496622958609 0 0.4409427642593301 0.35743108089689513 0 0.46655310992796922 0.39650496622958609 0 0.49077833859261139 0.35229981449445641 0 0.52289427570932567 0.3932284363388488 0 0.49077833859261139 0.35229981449445641 0 0.46226845272279993 0.31901800744800313 0 0.5 0.29999999999999999 0 0.49077833859261139 0.35229981449445641 0 0.46226845272279993 0.31901800744800313 0 0.4409427642593301 0.35743108089689513 0 0.46226845272279993 0.31901800744800313 0 0.4409427642593301 0.35743108089689513 0 0.41914690343363781 0.30688979866601612 0 0.46655310992796922 0.39650496622958609 0 0.49077833859261139 0.35229981449445641 0 0.4409427642593301 0.35743108089689513 0 0.49695729691142171 0.25014895411178018 0 0.4604742573284204 0.27846934318264788 0 0.5 0.29999999999999999 0 0.46429753744194407 0.22870891180733599 0 0.49695729691142171 0.25014895411178018 0 0.4604742573284204 0.27846934318264788 0 0.46226845272279993 0.31901800744800313 0 0.4604742573284204 0.27846934318264788 0 0.5 0.29999999999999999 0 0.46226845272279993 0.31901800744800313 0 0.4604742573284204 0.27846934318264788 0 0.41914690343363781 0.30688979866601612 0 0.46429753744194407 0.22870891180733599 0 0.4604742573284204 0.27846934318264788 0 0.42377727103934271 0.25099357235810238 0 0.4604742573284204 0.27846934318264788 0 0.42377727103934271 0.25099357235810238 0 0.41914690343363781 0.30688979866601612 0 0.42377727103934271 0.25099357235810238 0 0.41914690343363781 0.30688979866601612 0 0.3786248352540974 0.27082301512024259 0 0.41914690343363781 0.30688979866601612 0 0.3786248352540974 0.27082301512024259 0 0.36575549820117997 0.31677992835137742 0 0.42161023666869668 0.39493916313643851 0 0.4409427642593301 0.35743108089689513 0 0.40076539126862748 0.34589349467022118 0 0.4409427642593301 0.35743108089689513 0 0.41914690343363781 0.30688979866601612 0 0.40076539126862748 0.34589349467022118 0 0.41914690343363781 0.30688979866601612 0 0.40076539126862748 0.34589349467022118 0 0.36575549820117997 0.31677992835137742 0 0.40076539126862748 0.34589349467022118 0 0.36575549820117997 0.31677992835137742 0 0.33277555741076909 0.36432196682010132 0 0.38083244760691543 0.38531983672244652 0 0.40076539126862748 0.34589349467022118 0 0.33277555741076909 0.36432196682010132 0 0.36575549820117997 0.31677992835137742 0 0.32752639306529541 0.32610012995269699 0 0.33277555741076909 0.36432196682010132 0 0.32752639306529541 0.32610012995269699 0 0.33277555741076909 0.36432196682010132 0 0.29644548887253103 0.34914008784168082 0 0.33758650185219202 0.23837101504325639 0 0.3786248352540974 0.27082301512024259 0 0.33402499257867951 0.28911035184473982 0 0.3786248352540974 0.27082301512024259 0 0.36575549820117997 0.31677992835137742 0 0.33402499257867951 0.28911035184473982 0 0.36575549820117997 0.31677992835137742 0 0.32752639306529541 0.32610012995269699 0 0.33402499257867951 0.28911035184473982 0 0.32752639306529541 0.32610012995269699 0 0.33402499257867951 0.28911035184473982 0 0.29348325746214782 0.31350119524708198 0 0.33758650185219202 0.23837101504325639 0 0.33402499257867951 0.28911035184473982 0 0.29132859388405002 0.27203693976649962 0 0.33402499257867951 0.28911035184473982 0 0.29132859388405002 0.27203693976649962 0 0.29348325746214782 0.31350119524708198 0 0.29132859388405002 0.27203693976649962 0 0.29348325746214782 0.31350119524708198 0 0.24432083401701241 0.3006253385567515 0 0.29132859388405002 0.27203693976649962 0 0.25195515620380449 0.25883339815888678 0 0.24432083401701241 0.3006253385567515 0 0.28040350263641872 0.23054717217092141 0 0.29132859388405002 0.27203693976649962 0 0.25195515620380449 0.25883339815888678 0 0.33277555741076909 0.36432196682010132 0 0.29644548887253103 0.34914008784168082 0 0.27866744612395528 0.38416094670951489 0 0.32752639306529541 0.32610012995269699 0 0.29644548887253103 0.34914008784168082 0 0.29348325746214782 0.31350119524708198 0 0.29644548887253103 0.34914008784168082 0 0.29348325746214782 0.31350119524708198 0 0.25966125648670141 0.34351016742083729 0 0.29348325746214782 0.31350119524708198 0 0.25966125648670141 0.34351016742083729 0 0.24432083401701241 0.3006253385567515 0 0.29644548887253103 0.34914008784168082 0 0.25966125648670141 0.34351016742083729 0 0.27866744612395528 0.38416094670951489 0 0.25966125648670141 0.34351016742083729 0 0.27866744612395528 0.38416094670951489 0 0.22033343844674469 0.36963382230740238 0 0.27866744612395528 0.38416094670951489 0 0.29124338931648802 0.43334555462578611 0 0.24049127783545701 0.41270748208749802 0 0.29124338931648802 0.43334555462578611 0 0.25982634974572738 0.46097799597715272 0 0.24049127783545701 0.41270748208749802 0 0.27866744612395528 0.38416094670951489 0 0.29124338931648802 0.43334555462578611 0 0.31778888742534622 0.40581751814196781 0 0.33277555741076909 0.36432196682010132 0 0.27866744612395528 0.38416094670951489 0 0.31778888742534622 0.40581751814196781 0 0.33277555741076909 0.36432196682010132 0 0.31778888742534622 0.40581751814196781 0 0.35221190152536241 0.40457127605439203 0 0.31778888742534622 0.40581751814196781 0 0.35221190152536241 0.40457127605439203 0 0.34258405725730701 0.4444034294386992 0 0.29124338931648802 0.43334555462578611 0 0.31778888742534622 0.40581751814196781 0 0.34258405725730701 0.4444034294386992 0 0.38707855792647411 0.42299362914874578 0 0.35221190152536241 0.40457127605439203 0 0.34258405725730701 0.4444034294386992 0 0.38083244760691543 0.38531983672244652 0 0.38707855792647411 0.42299362914874578 0 0.35221190152536241 0.40457127605439203 0 0.38083244760691543 0.38531983672244652 0 0.33277555741076909 0.36432196682010132 0 0.35221190152536241 0.40457127605439203 0 0.3908716102680424 0.47010282357248828 0 0.35024835142131061 0.48654922671676981 0 0.38244435121258652 0.51653317813019495 0 0.3908716102680424 0.47010282357248828 0 0.35024835142131061 0.48654922671676981 0 0.34258405725730701 0.4444034294386992 0 0.38707855792647411 0.42299362914874578 0 0.3908716102680424 0.47010282357248828 0 0.34258405725730701 0.4444034294386992 0 0.29124338931648802 0.43334555462578611 0 0.34258405725730701 0.4444034294386992 0 0.31068898841644388 0.47541502461811092 0 0.35024835142131061 0.48654922671676981 0 0.31068898841644388 0.47541502461811092 0 0.33190227185843768 0.52715113583864037 0 0.35024835142131061 0.48654922671676981 0 0.34258405725730701 0.4444034294386992 0 0.31068898841644388 0.47541502461811092 0 0.31068898841644388 0.47541502461811092 0 0.25982634974572738 0.46097799597715272 0 0.28307294598219601 0.50789252727458634 0 0.29124338931648802 0.43334555462578611 0 0.31068898841644388 0.47541502461811092 0 0.25982634974572738 0.46097799597715272 0 0.25982634974572738 0.46097799597715272 0 0.23975172658309729 0.49475499200540818 0 0.28307294598219601 0.50789252727458634 0 0.23975172658309729 0.49475499200540818 0 0.19604738184454831 0.47787523520405789 0 0.22278230690790279 0.44824268025881547 0 0.19604738184454831 0.47787523520405789 0 0.22278230690790279 0.44824268025881547 0 0.191953871957803 0.42546416763755879 0 0.25982634974572738 0.46097799597715272 0 0.22278230690790279 0.44824268025881547 0 0.24049127783545701 0.41270748208749802 0 0.25982634974572738 0.46097799597715272 0 0.23975172658309729 0.49475499200540818 0 0.22278230690790279 0.44824268025881547 0 0.27866744612395528 0.38416094670951489 0 0.24049127783545701 0.41270748208749802 0 0.22033343844674469 0.36963382230740238 0 0.191953871957803 0.42546416763755879 0 0.1650278706801647 0.38791388161335733 0 0.22033343844674469 0.36963382230740238 0 0.24049127783545701 0.41270748208749802 0 0.191953871957803 0.42546416763755879 0 0.22033343844674469 0.36963382230740238 0 0.22278230690790279 0.44824268025881547 0 0.24049127783545701 0.41270748208749802 0 0.191953871957803 0.42546416763755879 0 0.191953871957803 0.42546416763755879 0 0.13773355295499351 0.42497777642586831 0 0.15801167086041079 0.46008690540259539 0 0.191953871957803 0.42546416763755879 0 0.1650278706801647 0.38791388161335733 0 0.13773355295499351 0.42497777642586831 0 0.1650278706801647 0.38791388161335733 0 0.13773355295499351 0.42497777642586831 0 0.1117088112799664 0.38831403004970022 0 0.13773355295499351 0.42497777642586831 0 0.15801167086041079 0.46008690540259539 0 0.113541300460994 0.46208784312094731 0 0.15801167086041079 0.46008690540259539 0 0.113541300460994 0.46208784312094731 0 0.1216098864341134 0.50637075089503902 0 0.15801167086041079 0.46008690540259539 0 0.1216098864341134 0.50637075089503902 0 0.16618607197337229 0.50652878253548905 0 0.19604738184454831 0.47787523520405789 0 0.15801167086041079 0.46008690540259539 0 0.16618607197337229 0.50652878253548905 0 0.19604738184454831 0.47787523520405789 0 0.191953871957803 0.42546416763755879 0 0.15801167086041079 0.46008690540259539 0 0.25195515620380449 0.25883339815888678 0 0.21049769590865089 0.26857363548218488 0 0.24432083401701241 0.3006253385567515 0 0.21049769590865089 0.26857363548218488 0 0.24432083401701241 0.3006253385567515 0 0.19670163708476801 0.31472518408333222 0 0.21049769590865089 0.26857363548218488 0 0.19670163708476801 0.31472518408333222 0 0.168349569971391 0.28054490850913671 0 0.19670163708476801 0.31472518408333222 0 0.22615676742807109 0.33458786033114157 0 0.18434624290945251 0.35208838264196463 0 0.24432083401701241 0.3006253385567515 0 0.19670163708476801 0.31472518408333222 0 0.22615676742807109 0.33458786033114157 0 0.25966125648670141 0.34351016742083729 0 0.24432083401701241 0.3006253385567515 0 0.22615676742807109 0.33458786033114157 0 0.25966125648670141 0.34351016742083729 0 0.22615676742807109 0.33458786033114157 0 0.22033343844674469 0.36963382230740238 0 0.22615676742807109 0.33458786033114157 0 0.22033343844674469 0.36963382230740238 0 0.18434624290945251 0.35208838264196463 0 0.1650278706801647 0.38791388161335733 0 0.22033343844674469 0.36963382230740238 0 0.18434624290945251 0.35208838264196463 0 0.1650278706801647 0.38791388161335733 0 0.18434624290945251 0.35208838264196463 0 0.14223753364722069 0.3341983344262433 0 0.1650278706801647 0.38791388161335733 0 0.14223753364722069 0.3341983344262433 0 0.1117088112799664 0.38831403004970022 0 0.19670163708476801 0.31472518408333222 0 0.18434624290945251 0.35208838264196463 0 0.14223753364722069 0.3341983344262433 0 0.19670163708476801 0.31472518408333222 0 0.14223753364722069 0.3341983344262433 0 0.168349569971391 0.28054490850913671 0 0.14223753364722069 0.3341983344262433 0 0.168349569971391 0.28054490850913671 0 0.1247745017231483 0.27198077544791172 0 0.14377654328998779 0.2442024734791064 0 0.168349569971391 0.28054490850913671 0 0.1247745017231483 0.27198077544791172 0 0.17933913398461551 0.2350063570234002 0 0.21049769590865089 0.26857363548218488 0 0.168349569971391 0.28054490850913671 0 0.17933913398461551 0.2350063570234002 0 0.14377654328998779 0.2442024734791064 0 0.168349569971391 0.28054490850913671 0 0.095326043202144745 0.24554465089224409 0 0.093851963071650835 0.30582068233324772 0 0.049706944316556423 0.27522722923869108 0 0.095326043202144745 0.24554465089224409 0 0.14377654328998779 0.2442024734791064 0 0.1247745017231483 0.27198077544791172 0 0.095326043202144745 0.24554465089224409 0 0.1247745017231483 0.27198077544791172 0 0.093851963071650835 0.30582068233324772 0 0.14223753364722069 0.3341983344262433 0 0.1247745017231483 0.27198077544791172 0 0.093851963071650835 0.30582068233324772 0 0.093851963071650835 0.30582068233324772 0 0.046389130980076937 0.32668781832131749 0 0.049706944316556423 0.27522722923869108 0 0.093851963071650835 0.30582068233324772 0 0.087545339447545459 0.35122518864182262 0 0.046389130980076937 0.32668781832131749 0 0.14223753364722069 0.3341983344262433 0 0.093851963071650835 0.30582068233324772 0 0.087545339447545459 0.35122518864182262 0 0.14223753364722069 0.3341983344262433 0 0.087545339447545459 0.35122518864182262 0 0.1117088112799664 0.38831403004970022 0 0.087545339447545459 0.35122518864182262 0 0.1117088112799664 0.38831403004970022 0 0.050583896093752537 0.38543522283434112 0 0.087545339447545459 0.35122518864182262 0 0.046389130980076937 0.32668781832131749 0 0.050583896093752537 0.38543522283434112 0 0 0.35000000000145642 0 0.046389130980076937 0.32668781832131749 0 0.050583896093752537 0.38543522283434112 0 0 0.35000000000145642 0 0.046389130980076937 0.32668781832131749 0 0 0.30000000000124832 0 0.046389130980076937 0.32668781832131749 0 0 0.30000000000124832 0 0.049706944316556423 0.27522722923869108 0 0 0.30000000000124832 0 0 0.25000000000104028 0 0.049706944316556423 0.27522722923869108 0 0.044081577119474857 0.2271058242433576 0 0 0.25000000000104028 0 0.049706944316556423 0.27522722923869108 0 0.068743045408989428 0.48853989837882689 0 0.113541300460994 0.46208784312094731 0 0.078358742472063481 0.43365249433908948 0 0.068743045408989428 0.48853989837882689 0 0.113541300460994 0.46208784312094731 0 0.1216098864341134 0.50637075089503902 0 0.13773355295499351 0.42497777642586831 0 0.113541300460994 0.46208784312094731 0 0.078358742472063481 0.43365249433908948 0 0.13773355295499351 0.42497777642586831 0 0.1117088112799664 0.38831403004970022 0 0.078358742472063481 0.43365249433908948 0 0.1117088112799664 0.38831403004970022 0 0.078358742472063481 0.43365249433908948 0 0.050583896093752537 0.38543522283434112 0 0.078358742472063481 0.43365249433908948 0 0.035463093262830522 0.42673416072819947 0 0.050583896093752537 0.38543522283434112 0 0 0.35000000000145642 0 0.050583896093752537 0.38543522283434112 0 0 0.40000000000166441 0 0.035463093262830522 0.42673416072819947 0 0.050583896093752537 0.38543522283434112 0 0 0.40000000000166441 0 0.035463093262830522 0.42673416072819947 0 0 0.40000000000166441 0 0 0.45000000000187229 0 0.035463093262830522 0.42673416072819947 0 0 0.45000000000187229 0 0.033550201249889847 0.46247875832467239 0 0.068743045408989428 0.48853989837882689 0 0.033550201249889847 0.46247875832467239 0 0 0.50000000000205869 0 0.068743045408989428 0.48853989837882689 0 0.078358742472063481 0.43365249433908948 0 0.033550201249889847 0.46247875832467239 0 0.078358742472063481 0.43365249433908948 0 0.035463093262830522 0.42673416072819947 0 0.033550201249889847 0.46247875832467239 0 0 0.45000000000187229 0 0.033550201249889847 0.46247875832467239 0 0 0.50000000000205869 0 0.068743045408989428 0.48853989837882689 0 0 0.50000000000205869 0 0.044576108720083309 0.53509043209532614 0 0 0.50000000000205869 0 0 0.55000000000173355 0 0.044576108720083309 0.53509043209532614 0 0 0.55000000000173355 0 0.044576108720083309 0.53509043209532614 0 0.034381862692950467 0.57372682250960894 0 0.044576108720083309 0.53509043209532614 0 0.077693244765132896 0.56932317963405099 0 0.034381862692950467 0.57372682250960894 0 0.068743045408989428 0.48853989837882689 0 0.044576108720083309 0.53509043209532614 0 0.085622222639554768 0.53333248912060549 0 0.068743045408989428 0.48853989837882689 0 0.085622222639554768 0.53333248912060549 0 0.1216098864341134 0.50637075089503902 0 0.044576108720083309 0.53509043209532614 0 0.085622222639554768 0.53333248912060549 0 0.077693244765132896 0.56932317963405099 0 0.085622222639554768 0.53333248912060549 0 0.1154888278694548 0.56733818459978413 0 0.077693244765132896 0.56932317963405099 0 0.085622222639554768 0.53333248912060549 0 0.1216098864341134 0.50637075089503902 0 0.1154888278694548 0.56733818459978413 0 0.1024350934457823 0.60772393977513839 0 0.1154888278694548 0.56733818459978413 0 0.077693244765132896 0.56932317963405099 0 0.1024350934457823 0.60772393977513839 0 0.050069554451969707 0.61308520079857043 0 0.086179601630648681 0.64647209519980475 0 0.1024350934457823 0.60772393977513839 0 0.077693244765132896 0.56932317963405099 0 0.050069554451969707 0.61308520079857043 0 0.077693244765132896 0.56932317963405099 0 0.050069554451969707 0.61308520079857043 0 0.034381862692950467 0.57372682250960894 0 0 0.55000000000173355 0 0.034381862692950467 0.57372682250960894 0 0 0.60000000000138687 0 0.050069554451969707 0.61308520079857043 0 0 0.60000000000138687 0 0 0.65000000000104008 0 0.050069554451969707 0.61308520079857043 0 0.034381862692950467 0.57372682250960894 0 0 0.60000000000138687 0 0 0.65000000000104008 0 0.046634677244967337 0.671418230738282 0 0 0.7000000000006934 0 0.050069554451969707 0.61308520079857043 0 0.046634677244967337 0.671418230738282 0 0.086179601630648681 0.64647209519980475 0 0.050069554451969707 0.61308520079857043 0 0 0.65000000000104008 0 0.046634677244967337 0.671418230738282 0 0 0.7000000000006934 0 0.049706944316475897 0.72477277076253799 0 0 0.75000000000034661 0 0.046634677244967337 0.671418230738282 0 0 0.7000000000006934 0 0.049706944316475897 0.72477277076253799 0 0.049706944316475897 0.72477277076253799 0 0 0.75000000000034661 0 0.04408157711937423 0.7728941757575627 0 0.049706944316475897 0.72477277076253799 0 0.1020579365089687 0.69352219419301997 0 0.090953281884486245 0.7564451946902494 0 0.1020579365089687 0.69352219419301997 0 0.1215415378367805 0.72939333680004137 0 0.090953281884486245 0.7564451946902494 0 0.046634677244967337 0.671418230738282 0 0.049706944316475897 0.72477277076253799 0 0.1020579365089687 0.69352219419301997 0 0.1215415378367805 0.72939333680004137 0 0.090953281884486245 0.7564451946902494 0 0.14335651144331049 0.75565258250209677 0 0.046634677244967337 0.671418230738282 0 0.1020579365089687 0.69352219419301997 0 0.086179601630648681 0.64647209519980475 0 0.1020579365089687 0.69352219419301997 0 0.086179601630648681 0.64647209519980475 0 0.1241190223511371 0.64391885572885044 0 0.1024350934457823 0.60772393977513839 0 0.086179601630648681 0.64647209519980475 0 0.1241190223511371 0.64391885572885044 0 0.1020579365089687 0.69352219419301997 0 0.1241190223511371 0.64391885572885044 0 0.16500388252850301 0.66612077714085194 0 0.1241190223511371 0.64391885572885044 0 0.16500388252850301 0.66612077714085194 0 0.15720202157091859 0.60665697304410315 0 0.16500388252850301 0.66612077714085194 0 0.19914261668318661 0.62286739485272158 0 0.15720202157091859 0.60665697304410315 0 0.1020579365089687 0.69352219419301997 0 0.16500388252850301 0.66612077714085194 0 0.15332765547575641 0.71200081858233666 0 0.1215415378367805 0.72939333680004137 0 0.15332765547575641 0.71200081858233666 0 0.14335651144331049 0.75565258250209677 0 0.1020579365089687 0.69352219419301997 0 0.1215415378367805 0.72939333680004137 0 0.15332765547575641 0.71200081858233666 0 0.16500388252850301 0.66612077714085194 0 0.15332765547575641 0.71200081858233666 0 0.19068556247388771 0.71028988922845504 0 0.15332765547575641 0.71200081858233666 0 0.14335651144331049 0.75565258250209677 0 0.18269480424590959 0.75905448272264375 0 0.15332765547575641 0.71200081858233666 0 0.19068556247388771 0.71028988922845504 0 0.18269480424590959 0.75905448272264375 0 0.19068556247388771 0.71028988922845504 0 0.2248999640082178 0.72584299459689172 0 0.18269480424590959 0.75905448272264375 0 0.19068556247388771 0.71028988922845504 0 0.2248999640082178 0.72584299459689172 0 0.2236846579037573 0.67380363126050236 0 0.2248999640082178 0.72584299459689172 0 0.2236846579037573 0.67380363126050236 0 0.26439878998046262 0.7048065392091396 0 0.2248999640082178 0.72584299459689172 0 0.22556077506376701 0.77837424984191617 0 0.25676291524611189 0.7436741304886243 0 0.2248999640082178 0.72584299459689172 0 0.25676291524611189 0.7436741304886243 0 0.26439878998046262 0.7048065392091396 0 0.16500388252850301 0.66612077714085194 0 0.2236846579037573 0.67380363126050236 0 0.19914261668318661 0.62286739485272158 0 0.16500388252850301 0.66612077714085194 0 0.19068556247388771 0.71028988922845504 0 0.2236846579037573 0.67380363126050236 0 0.2236846579037573 0.67380363126050236 0 0.2459498854893499 0.63248470766216769 0 0.19914261668318661 0.62286739485272158 0 0.2236846579037573 0.67380363126050236 0 0.2459498854893499 0.63248470766216769 0 0.27820712747429932 0.65530134213254643 0 0.2459498854893499 0.63248470766216769 0 0.19914261668318661 0.62286739485272158 0 0.22549374774072969 0.58452645269293457 0 0.2459498854893499 0.63248470766216769 0 0.22549374774072969 0.58452645269293457 0 0.26573297623774761 0.59828298563722948 0 0.19914261668318661 0.62286739485272158 0 0.22549374774072969 0.58452645269293457 0 0.18381867841758909 0.57774125163628387 0 0.22549374774072969 0.58452645269293457 0 0.20050006573841939 0.53248514016039872 0 0.18381867841758909 0.57774125163628387 0 0.22549374774072969 0.58452645269293457 0 0.25115337790845271 0.54719303014923271 0 0.26573297623774761 0.59828298563722948 0 0.22549374774072969 0.58452645269293457 0 0.20050006573841939 0.53248514016039872 0 0.25115337790845271 0.54719303014923271 0 0.23975172658309729 0.49475499200540818 0 0.20050006573841939 0.53248514016039872 0 0.25115337790845271 0.54719303014923271 0 0.19604738184454831 0.47787523520405789 0 0.20050006573841939 0.53248514016039872 0 0.16618607197337229 0.50652878253548905 0 0.23975172658309729 0.49475499200540818 0 0.19604738184454831 0.47787523520405789 0 0.20050006573841939 0.53248514016039872 0 0.20050006573841939 0.53248514016039872 0 0.14934928745814749 0.55042914607228977 0 0.18381867841758909 0.57774125163628387 0 0.20050006573841939 0.53248514016039872 0 0.16618607197337229 0.50652878253548905 0 0.14934928745814749 0.55042914607228977 0 0.1216098864341134 0.50637075089503902 0 0.16618607197337229 0.50652878253548905 0 0.14934928745814749 0.55042914607228977 0 0.1216098864341134 0.50637075089503902 0 0.1154888278694548 0.56733818459978413 0 0.14934928745814749 0.55042914607228977 0 0.1154888278694548 0.56733818459978413 0 0.14934928745814749 0.55042914607228977 0 0.15720202157091859 0.60665697304410315 0 0.1024350934457823 0.60772393977513839 0 0.1154888278694548 0.56733818459978413 0 0.15720202157091859 0.60665697304410315 0 0.1024350934457823 0.60772393977513839 0 0.1241190223511371 0.64391885572885044 0 0.15720202157091859 0.60665697304410315 0 0.19914261668318661 0.62286739485272158 0 0.15720202157091859 0.60665697304410315 0 0.18381867841758909 0.57774125163628387 0 0.14934928745814749 0.55042914607228977 0 0.15720202157091859 0.60665697304410315 0 0.18381867841758909 0.57774125163628387 0 0.10000000000041601 1 0 0.10266856499240549 0.95548163909968886 0 0.15000000000062411 1 0 0.10266856499240549 0.95548163909968886 0 0.053064897599294662 0.95186845269532028 0 0.083411279318375747 0.91030024466934134 0 0.10000000000041601 1 0 0.050000000000207989 1 0 0.053064897599294662 0.95186845269532028 0 0.10000000000041601 1 0 0.10266856499240549 0.95548163909968886 0 0.053064897599294662 0.95186845269532028 0 0.050000000000207989 1 0 0.025766224399875661 0.97546711317377799 0 0.053064897599294662 0.95186845269532028 0 0.050000000000207989 1 0 0 1 0 0.025766224399875661 0.97546711317377799 0 0 1 0 0.025766224399875661 0.97546711317377799 0 0 0.94999999999979179 0 0.025766224399875661 0.97546711317377799 0 0 0.94999999999979179 0 0.053064897599294662 0.95186845269532028 0 0 0.94999999999979179 0 0.053064897599294662 0.95186845269532028 0 0.0443105827531413 0.89858748162559932 0 0.053064897599294662 0.95186845269532028 0 0.0443105827531413 0.89858748162559932 0 0.083411279318375747 0.91030024466934134 0 0 0.94999999999979179 0 0 0.89999999999958358 0 0.0443105827531413 0.89858748162559932 0 0 0.89999999999958358 0 0.0443105827531413 0.89858748162559932 0 0 0.84999999999965292 0 0.0443105827531413 0.89858748162559932 0 0.083411279318375747 0.91030024466934134 0 0.065374659239661639 0.8551091961254178 0 0.083411279318375747 0.91030024466934134 0 0.10562472963403439 0.87143394428979881 0 0.065374659239661639 0.8551091961254178 0 0.10266856499240549 0.95548163909968886 0 0.083411279318375747 0.91030024466934134 0 0.1241151115713819 0.9045666525468371 0 0.10266856499240549 0.95548163909968886 0 0.1241151115713819 0.9045666525468371 0 0.14617343800780541 0.93808063414349496 0 0.1241151115713819 0.9045666525468371 0 0.10562472963403439 0.87143394428979881 0 0.14474682429600511 0.85524784522713515 0 0.083411279318375747 0.91030024466934134 0 0.1241151115713819 0.9045666525468371 0 0.10562472963403439 0.87143394428979881 0 0.10562472963403439 0.87143394428979881 0 0.1074251789111534 0.83564394292147814 0 0.14474682429600511 0.85524784522713515 0 0.1074251789111534 0.83564394292147814 0 0.065374659239661639 0.8551091961254178 0 0.083105206071452636 0.79992298667296435 0 0.10562472963403439 0.87143394428979881 0 0.1074251789111534 0.83564394292147814 0 0.065374659239661639 0.8551091961254178 0 0.065374659239661639 0.8551091961254178 0 0 0.84999999999965292 0 0.038512288486097702 0.8155852717111195 0 0.0443105827531413 0.89858748162559932 0 0.065374659239661639 0.8551091961254178 0 0 0.84999999999965292 0 0 0.84999999999965292 0 0.038512288486097702 0.8155852717111195 0 0 0.79999999999999982 0 0.065374659239661639 0.8551091961254178 0 0.038512288486097702 0.8155852717111195 0 0.083105206071452636 0.79992298667296435 0 0.038512288486097702 0.8155852717111195 0 0.04408157711937423 0.7728941757575627 0 0.083105206071452636 0.79992298667296435 0 0.038512288486097702 0.8155852717111195 0 0 0.79999999999999982 0 0.04408157711937423 0.7728941757575627 0 0 0.79999999999999982 0 0 0.75000000000034661 0 0.04408157711937423 0.7728941757575627 0 0.049706944316475897 0.72477277076253799 0 0.04408157711937423 0.7728941757575627 0 0.090953281884486245 0.7564451946902494 0 0.04408157711937423 0.7728941757575627 0 0.090953281884486245 0.7564451946902494 0 0.083105206071452636 0.79992298667296435 0 0.1074251789111534 0.83564394292147814 0 0.083105206071452636 0.79992298667296435 0 0.1382744753146134 0.79650574229207483 0 0.090953281884486245 0.7564451946902494 0 0.083105206071452636 0.79992298667296435 0 0.1382744753146134 0.79650574229207483 0 0.090953281884486245 0.7564451946902494 0 0.14335651144331049 0.75565258250209677 0 0.1382744753146134 0.79650574229207483 0 0.14335651144331049 0.75565258250209677 0 0.1382744753146134 0.79650574229207483 0 0.18269480424590959 0.75905448272264375 0 0.1382744753146134 0.79650574229207483 0 0.18269480424590959 0.75905448272264375 0 0.17777405986036951 0.81832336108265358 0 0.2248999640082178 0.72584299459689172 0 0.18269480424590959 0.75905448272264375 0 0.22556077506376701 0.77837424984191617 0 0.22556077506376701 0.77837424984191617 0 0.21858834311891909 0.81980263716112767 0 0.26104540868854792 0.81401944968719064 0 0.22556077506376701 0.77837424984191617 0 0.21858834311891909 0.81980263716112767 0 0.17777405986036951 0.81832336108265358 0 0.18269480424590959 0.75905448272264375 0 0.22556077506376701 0.77837424984191617 0 0.17777405986036951 0.81832336108265358 0 0.21858834311891909 0.81980263716112767 0 0.19741632902693801 0.86755867406447229 0 0.17777405986036951 0.81832336108265358 0 0.21858834311891909 0.81980263716112767 0 0.2401283238295133 0.85648409884788523 0 0.26104540868854792 0.81401944968719064 0 0.21858834311891909 0.81980263716112767 0 0.2401283238295133 0.85648409884788523 0 0.19741632902693801 0.86755867406447229 0 0.19741632902693801 0.86755867406447229 0 0.17777405986036951 0.81832336108265358 0 0.14474682429600511 0.85524784522713515 0 0.19741632902693801 0.86755867406447229 0 0.14474682429600511 0.85524784522713515 0 0.16206583317966519 0.89685560785156404 0 0.1382744753146134 0.79650574229207483 0 0.17777405986036951 0.81832336108265358 0 0.14474682429600511 0.85524784522713515 0 0.1074251789111534 0.83564394292147814 0 0.1382744753146134 0.79650574229207483 0 0.14474682429600511 0.85524784522713515 0 0.1241151115713819 0.9045666525468371 0 0.14474682429600511 0.85524784522713515 0 0.16206583317966519 0.89685560785156404 0 0.1241151115713819 0.9045666525468371 0 0.16206583317966519 0.89685560785156404 0 0.14617343800780541 0.93808063414349496 0 0.16206583317966519 0.89685560785156404 0 0.19901705110390991 0.9175543425573498 0 0.14617343800780541 0.93808063414349496 0 0.19741632902693801 0.86755867406447229 0 0.16206583317966519 0.89685560785156404 0 0.19901705110390991 0.9175543425573498 0 0.19741632902693801 0.86755867406447229 0 0.24536017905392571 0.90704567837671446 0 0.19901705110390991 0.9175543425573498 0 0.2401283238295133 0.85648409884788523 0 0.19741632902693801 0.86755867406447229 0 0.24536017905392571 0.90704567837671446 0 0.24536017905392571 0.90704567837671446 0 0.19901705110390991 0.9175543425573498 0 0.22850979588452081 0.95594428570238643 0 0.19901705110390991 0.9175543425573498 0 0.22850979588452081 0.95594428570238643 0 0.18474005699953849 0.96231585248064622 0 0.24536017905392571 0.90704567837671446 0 0.22850979588452081 0.95594428570238643 0 0.27609987656793722 0.94991445621608572 0 0.22850979588452081 0.95594428570238643 0 0.20000000000083221 1 0 0.25000000000104028 1 0 0.22850979588452081 0.95594428570238643 0 0.20000000000083221 1 0 0.18474005699953849 0.96231585248064622 0 0.20000000000083221 1 0 0.18474005699953849 0.96231585248064622 0 0.15000000000062411 1 0 0.19901705110390991 0.9175543425573498 0 0.18474005699953849 0.96231585248064622 0 0.14617343800780541 0.93808063414349496 0 0.18474005699953849 0.96231585248064622 0 0.14617343800780541 0.93808063414349496 0 0.15000000000062411 1 0 0.10266856499240549 0.95548163909968886 0 0.14617343800780541 0.93808063414349496 0 0.15000000000062411 1 0 0.35000000000145642 1 0 0.36184234618600131 0.96443954459096326 0 0.32544832635163229 0.95485394099568932 0 0.35000000000145642 1 0 0.36184234618600131 0.96443954459096326 0 0.40000000000166441 1 0 0.36184234618600131 0.96443954459096326 0 0.32544832635163229 0.95485394099568932 0 0.35752321586431363 0.9185439911803448 0 0.36184234618600131 0.96443954459096326 0 0.35752321586431363 0.9185439911803448 0 0.39641108128798319 0.94356127926187128 0 0.35000000000145642 1 0 0.32544832635163229 0.95485394099568932 0 0.30000000000124832 1 0 0.30000000000124832 1 0 0.25000000000104028 1 0 0.27609987656793722 0.94991445621608572 0 0.22850979588452081 0.95594428570238643 0 0.25000000000104028 1 0 0.27609987656793722 0.94991445621608572 0 0.32544832635163229 0.95485394099568932 0 0.30000000000124832 1 0 0.27609987656793722 0.94991445621608572 0 0.32544832635163229 0.95485394099568932 0 0.27609987656793722 0.94991445621608572 0 0.30864387279288652 0.89906554525974958 0 0.24536017905392571 0.90704567837671446 0 0.27270076654418179 0.87751467830216623 0 0.30864387279288652 0.89906554525974958 0 0.24536017905392571 0.90704567837671446 0 0.27609987656793722 0.94991445621608572 0 0.30864387279288652 0.89906554525974958 0 0.2401283238295133 0.85648409884788523 0 0.24536017905392571 0.90704567837671446 0 0.27270076654418179 0.87751467830216623 0 0.30864387279288652 0.89906554525974958 0 0.35752321586431363 0.9185439911803448 0 0.35864759629805099 0.87963482415279515 0 0.32544832635163229 0.95485394099568932 0 0.30864387279288652 0.89906554525974958 0 0.35752321586431363 0.9185439911803448 0 0.35752321586431363 0.9185439911803448 0 0.35864759629805099 0.87963482415279515 0 0.39767323751400468 0.89584229130535065 0 0.35864759629805099 0.87963482415279515 0 0.33403534827021109 0.84402799729020661 0 0.39536230704883951 0.84069429572832477 0 0.33403534827021109 0.84402799729020661 0 0.35642984951668422 0.80994399665655703 0 0.39536230704883951 0.84069429572832477 0 0.33403534827021109 0.84402799729020661 0 0.30857225866488791 0.81101973481716805 0 0.35642984951668422 0.80994399665655703 0 0.30864387279288652 0.89906554525974958 0 0.35864759629805099 0.87963482415279515 0 0.33403534827021109 0.84402799729020661 0 0.30864387279288652 0.89906554525974958 0 0.33403534827021109 0.84402799729020661 0 0.29209212897034281 0.84715728365233667 0 0.27270076654418179 0.87751467830216623 0 0.30864387279288652 0.89906554525974958 0 0.29209212897034281 0.84715728365233667 0 0.2401283238295133 0.85648409884788523 0 0.27270076654418179 0.87751467830216623 0 0.29209212897034281 0.84715728365233667 0 0.2401283238295133 0.85648409884788523 0 0.29209212897034281 0.84715728365233667 0 0.26104540868854792 0.81401944968719064 0 0.29209212897034281 0.84715728365233667 0 0.26104540868854792 0.81401944968719064 0 0.30857225866488791 0.81101973481716805 0 0.33403534827021109 0.84402799729020661 0 0.29209212897034281 0.84715728365233667 0 0.30857225866488791 0.81101973481716805 0 0.26104540868854792 0.81401944968719064 0 0.30857225866488791 0.81101973481716805 0 0.2792923945214143 0.77665808831789485 0 0.30857225866488791 0.81101973481716805 0 0.2792923945214143 0.77665808831789485 0 0.33123028043633618 0.77629643437932982 0 0.22556077506376701 0.77837424984191617 0 0.26104540868854792 0.81401944968719064 0 0.2792923945214143 0.77665808831789485 0 0.2792923945214143 0.77665808831789485 0 0.25676291524611189 0.7436741304886243 0 0.29904318922293632 0.74132814928635593 0 0.22556077506376701 0.77837424984191617 0 0.2792923945214143 0.77665808831789485 0 0.25676291524611189 0.7436741304886243 0 0.2792923945214143 0.77665808831789485 0 0.33123028043633618 0.77629643437932982 0 0.29904318922293632 0.74132814928635593 0 0.33123028043633618 0.77629643437932982 0 0.29904318922293632 0.74132814928635593 0 0.35415581127540569 0.73730480045900215 0 0.30857225866488791 0.81101973481716805 0 0.33123028043633618 0.77629643437932982 0 0.35642984951668422 0.80994399665655703 0 0.33123028043633618 0.77629643437932982 0 0.35642984951668422 0.80994399665655703 0 0.38586766253264881 0.78219501014812498 0 0.33123028043633618 0.77629643437932982 0 0.38586766253264881 0.78219501014812498 0 0.35415581127540569 0.73730480045900215 0 0.38586766253264881 0.78219501014812498 0 0.42676259796334498 0.76772545931379299 0 0.40326160981139969 0.73346192995102844 0 0.38586766253264881 0.78219501014812498 0 0.35415581127540569 0.73730480045900215 0 0.40326160981139969 0.73346192995102844 0 0.38586766253264881 0.78219501014812498 0 0.42609163930740518 0.80361684430568059 0 0.39536230704883951 0.84069429572832477 0 0.35642984951668422 0.80994399665655703 0 0.38586766253264881 0.78219501014812498 0 0.39536230704883951 0.84069429572832477 0 0.38586766253264881 0.78219501014812498 0 0.42609163930740518 0.80361684430568059 0 0.42676259796334498 0.76772545931379299 0 0.42676259796334498 0.76772545931379299 0 0.4656888918609538 0.78493261229743638 0 0.45582236402875981 0.73896743678908217 0 0.4656888918609538 0.78493261229743638 0 0.45582236402875981 0.73896743678908217 0 0.50945740445113552 0.75476055527778108 0 0.4656888918609538 0.78493261229743638 0 0.50731287292894423 0.78963574450233831 0 0.50945740445113552 0.75476055527778108 0 0.4656888918609538 0.78493261229743638 0 0.50627822638148745 0.8263979829520941 0 0.50731287292894423 0.78963574450233831 0 0.42609163930740518 0.80361684430568059 0 0.4656888918609538 0.78493261229743638 0 0.45677673713123867 0.84253684404072415 0 0.42609163930740518 0.80361684430568059 0 0.42676259796334498 0.76772545931379299 0 0.4656888918609538 0.78493261229743638 0 0.4656888918609538 0.78493261229743638 0 0.45677673713123867 0.84253684404072415 0 0.50627822638148745 0.8263979829520941 0 0.45677673713123867 0.84253684404072415 0 0.50202631463681879 0.87892870825713787 0 0.50627822638148745 0.8263979829520941 0 0.45677673713123867 0.84253684404072415 0 0.44003836461056539 0.88093474584252718 0 0.50202631463681879 0.87892870825713787 0 0.45677673713123867 0.84253684404072415 0 0.39536230704883951 0.84069429572832477 0 0.44003836461056539 0.88093474584252718 0 0.39536230704883951 0.84069429572832477 0 0.39767323751400468 0.89584229130535065 0 0.44003836461056539 0.88093474584252718 0 0.42609163930740518 0.80361684430568059 0 0.45677673713123867 0.84253684404072415 0 0.39536230704883951 0.84069429572832477 0 0.35864759629805099 0.87963482415279515 0 0.39536230704883951 0.84069429572832477 0 0.39767323751400468 0.89584229130535065 0 0.35752321586431363 0.9185439911803448 0 0.39767323751400468 0.89584229130535065 0 0.39641108128798319 0.94356127926187128 0 0.39767323751400468 0.89584229130535065 0 0.4367309254023824 0.92065556789053882 0 0.39641108128798319 0.94356127926187128 0 0.39767323751400468 0.89584229130535065 0 0.4367309254023824 0.92065556789053882 0 0.44003836461056539 0.88093474584252718 0 0.4367309254023824 0.92065556789053882 0 0.44003836461056539 0.88093474584252718 0 0.47401147028110507 0.91529957330468115 0 0.44003836461056539 0.88093474584252718 0 0.47401147028110507 0.91529957330468115 0 0.50202631463681879 0.87892870825713787 0 0.47401147028110507 0.91529957330468115 0 0.47135117303824892 0.95556877749289892 0 0.52122150208832174 0.94089974453840242 0 0.47401147028110507 0.91529957330468115 0 0.52122150208832174 0.94089974453840242 0 0.50202631463681879 0.87892870825713787 0 0.4367309254023824 0.92065556789053882 0 0.47401147028110507 0.91529957330468115 0 0.47135117303824892 0.95556877749289892 0 0.4367309254023824 0.92065556789053882 0 0.47135117303824892 0.95556877749289892 0 0.4308986359464303 0.96395712492906194 0 0.47135117303824892 0.95556877749289892 0 0.50000000000205869 1 0 0.52122150208832174 0.94089974453840242 0 0.47135117303824892 0.95556877749289892 0 0.45000000000187229 1 0 0.50000000000205869 1 0 0.47135117303824892 0.95556877749289892 0 0.45000000000187229 1 0 0.4308986359464303 0.96395712492906194 0 0.45000000000187229 1 0 0.4308986359464303 0.96395712492906194 0 0.40000000000166441 1 0 0.4308986359464303 0.96395712492906194 0 0.39641108128798319 0.94356127926187128 0 0.40000000000166441 1 0 0.4367309254023824 0.92065556789053882 0 0.4308986359464303 0.96395712492906194 0 0.39641108128798319 0.94356127926187128 0 0.36184234618600131 0.96443954459096326 0 0.39641108128798319 0.94356127926187128 0 0.40000000000166441 1 0 0.33122374654748771 0.57588941099433744 0 0.31502927232353312 0.6134992213375432 0 0.35765792684946668 0.6000687869219653 0 0.31502927232353312 0.6134992213375432 0 0.35765792684946668 0.6000687869219653 0 0.35864735590330371 0.63903383440414463 0 0.35765792684946668 0.6000687869219653 0 0.35864735590330371 0.63903383440414463 0 0.39743091024207589 0.6239520004230239 0 0.33122374654748771 0.57588941099433744 0 0.35765792684946668 0.6000687869219653 0 0.37272913873093971 0.56192925302619479 0 0.37272913873093971 0.56192925302619479 0 0.33190227185843768 0.52715113583864037 0 0.38244435121258652 0.51653317813019495 0 0.33122374654748771 0.57588941099433744 0 0.37272913873093971 0.56192925302619479 0 0.33190227185843768 0.52715113583864037 0 0.35024835142131061 0.48654922671676981 0 0.33190227185843768 0.52715113583864037 0 0.38244435121258652 0.51653317813019495 0 0.33122374654748771 0.57588941099433744 0 0.33190227185843768 0.52715113583864037 0 0.29110487519241501 0.56588143995431495 0 0.33190227185843768 0.52715113583864037 0 0.28307294598219601 0.50789252727458634 0 0.29110487519241501 0.56588143995431495 0 0.31068898841644388 0.47541502461811092 0 0.33190227185843768 0.52715113583864037 0 0.28307294598219601 0.50789252727458634 0 0.23975172658309729 0.49475499200540818 0 0.28307294598219601 0.50789252727458634 0 0.25115337790845271 0.54719303014923271 0 0.28307294598219601 0.50789252727458634 0 0.25115337790845271 0.54719303014923271 0 0.29110487519241501 0.56588143995431495 0 0.25115337790845271 0.54719303014923271 0 0.29110487519241501 0.56588143995431495 0 0.26573297623774761 0.59828298563722948 0 0.33122374654748771 0.57588941099433744 0 0.31502927232353312 0.6134992213375432 0 0.29110487519241501 0.56588143995431495 0 0.31502927232353312 0.6134992213375432 0 0.29110487519241501 0.56588143995431495 0 0.26573297623774761 0.59828298563722948 0 0.31502927232353312 0.6134992213375432 0 0.26573297623774761 0.59828298563722948 0 0.27820712747429932 0.65530134213254643 0 0.2459498854893499 0.63248470766216769 0 0.26573297623774761 0.59828298563722948 0 0.27820712747429932 0.65530134213254643 0 0.2236846579037573 0.67380363126050236 0 0.27820712747429932 0.65530134213254643 0 0.26439878998046262 0.7048065392091396 0 0.27820712747429932 0.65530134213254643 0 0.31378396441836959 0.70157213313026345 0 0.32263089806001177 0.66003674931826484 0 0.27820712747429932 0.65530134213254643 0 0.26439878998046262 0.7048065392091396 0 0.31378396441836959 0.70157213313026345 0 0.31502927232353312 0.6134992213375432 0 0.27820712747429932 0.65530134213254643 0 0.32263089806001177 0.66003674931826484 0 0.25676291524611189 0.7436741304886243 0 0.26439878998046262 0.7048065392091396 0 0.29904318922293632 0.74132814928635593 0 0.26439878998046262 0.7048065392091396 0 0.29904318922293632 0.74132814928635593 0 0.31378396441836959 0.70157213313026345 0 0.29904318922293632 0.74132814928635593 0 0.31378396441836959 0.70157213313026345 0 0.35415581127540569 0.73730480045900215 0 0.31378396441836959 0.70157213313026345 0 0.36622285152418499 0.69092437780804039 0 0.35415581127540569 0.73730480045900215 0 0.36622285152418499 0.69092437780804039 0 0.35415581127540569 0.73730480045900215 0 0.40326160981139969 0.73346192995102844 0 0.31502927232353312 0.6134992213375432 0 0.32263089806001177 0.66003674931826484 0 0.35864735590330371 0.63903383440414463 0 0.31378396441836959 0.70157213313026345 0 0.36622285152418499 0.69092437780804039 0 0.32263089806001177 0.66003674931826484 0 0.36622285152418499 0.69092437780804039 0 0.32263089806001177 0.66003674931826484 0 0.35864735590330371 0.63903383440414463 0 0.36622285152418499 0.69092437780804039 0 0.35864735590330371 0.63903383440414463 0 0.3977710372045391 0.65868194622830212 0 0.35864735590330371 0.63903383440414463 0 0.3977710372045391 0.65868194622830212 0 0.39743091024207589 0.6239520004230239 0 0.36622285152418499 0.69092437780804039 0 0.3977710372045391 0.65868194622830212 0 0.43323420005758778 0.6913544522562407 0 0.3977710372045391 0.65868194622830212 0 0.43323420005758778 0.6913544522562407 0 0.43846182030517877 0.64845797726506715 0 0.43846182030517877 0.64845797726506715 0 0.43545892161006339 0.61093128915313821 0 0.39743091024207589 0.6239520004230239 0 0.3977710372045391 0.65868194622830212 0 0.43846182030517877 0.64845797726506715 0 0.39743091024207589 0.6239520004230239 0 0.36622285152418499 0.69092437780804039 0 0.40326160981139969 0.73346192995102844 0 0.43323420005758778 0.6913544522562407 0 0.40326160981139969 0.73346192995102844 0 0.43323420005758778 0.6913544522562407 0 0.45582236402875981 0.73896743678908217 0 0.42676259796334498 0.76772545931379299 0 0.40326160981139969 0.73346192995102844 0 0.45582236402875981 0.73896743678908217 0 0.43323420005758778 0.6913544522562407 0 0.45582236402875981 0.73896743678908217 0 0.5 0.69999999999999996 0 0.45582236402875981 0.73896743678908217 0 0.5 0.69999999999999996 0 0.50945740445113552 0.75476055527778108 0 0.43323420005758778 0.6913544522562407 0 0.47913475093885149 0.66010775372412711 0 0.5 0.69999999999999996 0 0.43846182030517877 0.64845797726506715 0 0.47913475093885149 0.66010775372412711 0 0.47095389620662098 0.61892551373708504 0 0.43846182030517877 0.64845797726506715 0 0.47095389620662098 0.61892551373708504 0 0.43545892161006339 0.61093128915313821 0 0.43323420005758778 0.6913544522562407 0 0.43846182030517877 0.64845797726506715 0 0.47913475093885149 0.66010775372412711 0 0.47913475093885149 0.66010775372412711 0 0.47095389620662098 0.61892551373708504 0 0.50715858906372158 0.63295939104129484 0 0.47095389620662098 0.61892551373708504 0 0.5166924242153631 0.59825134841919447 0 0.50715858906372158 0.63295939104129484 0 0.47095389620662098 0.61892551373708504 0 0.46666084890304671 0.57634471035397938 0 0.5166924242153631 0.59825134841919447 0 0.47095389620662098 0.61892551373708504 0 0.46666084890304671 0.57634471035397938 0 0.43545892161006339 0.61093128915313821 0 0.43545892161006339 0.61093128915313821 0 0.4089290844030305 0.58728915500154233 0 0.39743091024207589 0.6239520004230239 0 0.46666084890304671 0.57634471035397938 0 0.43545892161006339 0.61093128915313821 0 0.4089290844030305 0.58728915500154233 0 0.46666084890304671 0.57634471035397938 0 0.4089290844030305 0.58728915500154233 0 0.42644501560315817 0.54603747078095544 0 0.37272913873093971 0.56192925302619479 0 0.4089290844030305 0.58728915500154233 0 0.42644501560315817 0.54603747078095544 0 0.35765792684946668 0.6000687869219653 0 0.37272913873093971 0.56192925302619479 0 0.4089290844030305 0.58728915500154233 0 0.35765792684946668 0.6000687869219653 0 0.4089290844030305 0.58728915500154233 0 0.39743091024207589 0.6239520004230239 0 0.37272913873093971 0.56192925302619479 0 0.38244435121258652 0.51653317813019495 0 0.42644501560315817 0.54603747078095544 0 0.43507373378304309 0.49699695397193322 0 0.38244435121258652 0.51653317813019495 0 0.42644501560315817 0.54603747078095544 0 0.46666084890304671 0.57634471035397938 0 0.47793794143994173 0.52940715638744962 0 0.53245488764484505 0.55078124999999989 0 0.43507373378304309 0.49699695397193322 0 0.49102375406324739 0.49123754822244059 0 0.47793794143994173 0.52940715638744962 0 0.43507373378304309 0.49699695397193322 0 0.42644501560315817 0.54603747078095544 0 0.47793794143994173 0.52940715638744962 0 0.46666084890304671 0.57634471035397938 0 0.42644501560315817 0.54603747078095544 0 0.47793794143994173 0.52940715638744962 0 0.49102375406324739 0.49123754822244059 0 0.47793794143994173 0.52940715638744962 0 0.53330375813596242 0.50827942741749099 0 0.47793794143994173 0.52940715638744962 0 0.53245488764484505 0.55078124999999989 0 0.53330375813596242 0.50827942741749099 0 0.53245488764484505 0.55078124999999989 0 0.53330375813596242 0.50827942741749099 0 0.57435499076887508 0.54267261987897775 0 0.53245488764484505 0.55078124999999989 0 0.57435499076887508 0.54267261987897775 0 0.57412547362576272 0.58273804879550706 0 0.53330375813596242 0.50827942741749099 0 0.57611405284611883 0.50165903596042916 0 0.57435499076887508 0.54267261987897775 0 0.57611405284611883 0.50165903596042916 0 0.57435499076887508 0.54267261987897775 0 0.62042975506801734 0.54295974692364424 0 0.57435499076887508 0.54267261987897775 0 0.62042975506801734 0.54295974692364424 0 0.57412547362576272 0.58273804879550706 0 0.57611405284611883 0.50165903596042916 0 0.62042975506801734 0.54295974692364424 0 0.61547661924074692 0.48539576058873962 0 0.5991018319127801 0.62925360607495295 0 0.6405463747586706 0.63290524857395714 0 0.63065402604362242 0.59661356661633302 0 0.57412547362576272 0.58273804879550706 0 0.5991018319127801 0.62925360607495295 0 0.63065402604362242 0.59661356661633302 0 0.62042975506801734 0.54295974692364424 0 0.57412547362576272 0.58273804879550706 0 0.63065402604362242 0.59661356661633302 0 0.57412547362576272 0.58273804879550706 0 0.5498280205245758 0.6290146943450976 0 0.5991018319127801 0.62925360607495295 0 0.46666084890304671 0.57634471035397938 0 0.53245488764484505 0.55078124999999989 0 0.5166924242153631 0.59825134841919447 0 0.57412547362576272 0.58273804879550706 0 0.5166924242153631 0.59825134841919447 0 0.5498280205245758 0.6290146943450976 0 0.53245488764484505 0.55078124999999989 0 0.57412547362576272 0.58273804879550706 0 0.5166924242153631 0.59825134841919447 0 0.5166924242153631 0.59825134841919447 0 0.50715858906372158 0.63295939104129484 0 0.5498280205245758 0.6290146943450976 0 0.47913475093885149 0.66010775372412711 0 0.50715858906372158 0.63295939104129484 0 0.52584555706968406 0.66664215091846768 0 0.50715858906372158 0.63295939104129484 0 0.52584555706968406 0.66664215091846768 0 0.5498280205245758 0.6290146943450976 0 0.47913475093885149 0.66010775372412711 0 0.52584555706968406 0.66664215091846768 0 0.5 0.69999999999999996 0 0.52584555706968406 0.66664215091846768 0 0.54999999999999993 0.69999999999999996 0 0.57484956128872922 0.66573805030881994 0 0.52584555706968406 0.66664215091846768 0 0.5498280205245758 0.6290146943450976 0 0.57484956128872922 0.66573805030881994 0 0.5 0.69999999999999996 0 0.55363780716230748 0.74348740161571747 0 0.50945740445113552 0.75476055527778108 0 0.52584555706968406 0.66664215091846768 0 0.5 0.69999999999999996 0 0.54999999999999993 0.69999999999999996 0 0.5 0.69999999999999996 0 0.54999999999999993 0.69999999999999996 0 0.5 0.69999999999999996 0 0.54999999999999993 0.69999999999999996 0 0.55363780716230748 0.74348740161571747 0 0.55363780716230748 0.74348740161571747 0 0.59999999999999976 0.69999999999999996 0 0.59636844454254345 0.75937156204589151 0 0.54999999999999993 0.69999999999999996 0 0.59999999999999976 0.69999999999999996 0 0.54999999999999993 0.69999999999999996 0 0.59999999999999976 0.69999999999999996 0 0.57484956128872922 0.66573805030881994 0 0.54999999999999993 0.69999999999999996 0 0.55363780716230748 0.74348740161571747 0 0.59999999999999976 0.69999999999999996 0 0.59999999999999976 0.69999999999999996 0 0.6499999999999998 0.69999999999999996 0 0.59999999999999976 0.69999999999999996 0 0.62460753523532009 0.66851202781000296 0 0.6499999999999998 0.69999999999999996 0 0.59999999999999976 0.69999999999999996 0 0.63221990677827677 0.73442891067859706 0 0.59636844454254345 0.75937156204589151 0 0.5498280205245758 0.6290146943450976 0 0.57484956128872922 0.66573805030881994 0 0.5991018319127801 0.62925360607495295 0 0.59999999999999976 0.69999999999999996 0 0.57484956128872922 0.66573805030881994 0 0.62460753523532009 0.66851202781000296 0 0.57484956128872922 0.66573805030881994 0 0.62460753523532009 0.66851202781000296 0 0.5991018319127801 0.62925360607495295 0 0.62460753523532009 0.66851202781000296 0 0.5991018319127801 0.62925360607495295 0 0.6405463747586706 0.63290524857395714 0 0.62460753523532009 0.66851202781000296 0 0.6405463747586706 0.63290524857395714 0 0.675261390228442 0.65996937624687813 0 0.62460753523532009 0.66851202781000296 0 0.675261390228442 0.65996937624687813 0 0.6499999999999998 0.69999999999999996 0 0.675261390228442 0.65996937624687813 0 0.6499999999999998 0.69999999999999996 0 0.69999999999999984 0.69999999999999996 0 0.6405463747586706 0.63290524857395714 0 0.675261390228442 0.65996937624687813 0 0.67529834988829951 0.61613270668143583 0 0.63221990677827677 0.73442891067859706 0 0.66427993341343905 0.73232764502436276 0 0.64753070846764316 0.77332939069435502 0 0.63221990677827677 0.73442891067859706 0 0.6499999999999998 0.69999999999999996 0 0.66427993341343905 0.73232764502436276 0 0.59999999999999976 0.69999999999999996 0 0.63221990677827677 0.73442891067859706 0 0.6499999999999998 0.69999999999999996 0 0.6499999999999998 0.69999999999999996 0 0.69999999999999984 0.69999999999999996 0 0.6499999999999998 0.69999999999999996 0 0.66427993341343905 0.73232764502436276 0 0.69999999999999984 0.69999999999999996 0 0.66427993341343905 0.73232764502436276 0 0.69999999999999984 0.69999999999999996 0 0.6916490518212759 0.75387992374886192 0 0.69999999999999984 0.69999999999999996 0 0.72501250972655151 0.74067302935308721 0 0.6916490518212759 0.75387992374886192 0 0.69999999999999984 0.69999999999999996 0 0.74999999999999989 0.69999999999999996 0 0.72501250972655151 0.74067302935308721 0 0.69999999999999984 0.69999999999999996 0 0.74999999999999989 0.69999999999999996 0 0.72500000000000064 0.67022701834392062 0 0.69999999999999984 0.69999999999999996 0 0.74999999999999989 0.69999999999999996 0 0.74999999999999989 0.69999999999999996 0 0.72501250972655151 0.74067302935308721 0 0.75841349681148107 0.75422312624214749 0 0.675261390228442 0.65996937624687813 0 0.71406021706547751 0.63292083137662503 0 0.72500000000000064 0.67022701834392062 0 0.675261390228442 0.65996937624687813 0 0.71406021706547751 0.63292083137662503 0 0.67529834988829951 0.61613270668143583 0 0.675261390228442 0.65996937624687813 0 0.69999999999999984 0.69999999999999996 0 0.72500000000000064 0.67022701834392062 0 0.71406021706547751 0.63292083137662503 0 0.72500000000000064 0.67022701834392062 0 0.74994237037456724 0.62775548192980357 0 0.72500000000000064 0.67022701834392062 0 0.74994237037456724 0.62775548192980357 0 0.7750489929959945 0.66593931409600093 0 0.71406021706547751 0.63292083137662503 0 0.74994237037456724 0.62775548192980357 0 0.71809016091162536 0.58185040402320831 0 0.74994237037456724 0.62775548192980357 0 0.71809016091162536 0.58185040402320831 0 0.77293540622714185 0.59448302402785813 0 0.71406021706547751 0.63292083137662503 0 0.71809016091162536 0.58185040402320831 0 0.67529834988829951 0.61613270668143583 0 0.71809016091162536 0.58185040402320831 0 0.67569444444444449 0.53500863336860327 0 0.67323294229744413 0.57556450033612505 0 0.71809016091162536 0.58185040402320831 0 0.67529834988829951 0.61613270668143583 0 0.67323294229744413 0.57556450033612505 0 0.71809016091162536 0.58185040402320831 0 0.7152569930854884 0.5237994455134295 0 0.77151014687832564 0.54436834383023036 0 0.7152569930854884 0.5237994455134295 0 0.77151014687832564 0.54436834383023036 0 0.73947346780852752 0.49062440112282169 0 0.7152569930854884 0.5237994455134295 0 0.67569444444444449 0.53500863336860327 0 0.69385896817107129 0.48377516041410151 0 0.71809016091162536 0.58185040402320831 0 0.7152569930854884 0.5237994455134295 0 0.67569444444444449 0.53500863336860327 0 0.62042975506801734 0.54295974692364424 0 0.67569444444444449 0.53500863336860327 0 0.67323294229744413 0.57556450033612505 0 0.67569444444444449 0.53500863336860327 0 0.6541250972820879 0.49999999999999989 0 0.69385896817107129 0.48377516041410151 0 0.62042975506801734 0.54295974692364424 0 0.67569444444444449 0.53500863336860327 0 0.6541250972820879 0.49999999999999989 0 0.62042975506801734 0.54295974692364424 0 0.61547661924074692 0.48539576058873962 0 0.6541250972820879 0.49999999999999989 0 0.62042975506801734 0.54295974692364424 0 0.63065402604362242 0.59661356661633302 0 0.67323294229744413 0.57556450033612505 0 0.6405463747586706 0.63290524857395714 0 0.63065402604362242 0.59661356661633302 0 0.67529834988829951 0.61613270668143583 0 0.63065402604362242 0.59661356661633302 0 0.67529834988829951 0.61613270668143583 0 0.67323294229744413 0.57556450033612505 0 0.60000000000138687 1 0 0.62065498684670595 0.95224934003983619 0 0.57382506491224949 0.9629411906298494 0 0.60000000000138687 1 0 0.62065498684670595 0.95224934003983619 0 0.65000000000104008 1 0 0.62065498684670595 0.95224934003983619 0 0.57382506491224949 0.9629411906298494 0 0.57724883562309992 0.92155686857100794 0 0.60000000000138687 1 0 0.57382506491224949 0.9629411906298494 0 0.55000000000173355 1 0 0.55000000000173355 1 0 0.50000000000205869 1 0 0.52122150208832174 0.94089974453840242 0 0.57382506491224949 0.9629411906298494 0 0.52122150208832174 0.94089974453840242 0 0.57724883562309992 0.92155686857100794 0 0.57382506491224949 0.9629411906298494 0 0.55000000000173355 1 0 0.52122150208832174 0.94089974453840242 0 0.52122150208832174 0.94089974453840242 0 0.54783390826260769 0.89287767010860219 0 0.57724883562309992 0.92155686857100794 0 0.52122150208832174 0.94089974453840242 0 0.50202631463681879 0.87892870825713787 0 0.54783390826260769 0.89287767010860219 0 0.54783390826260769 0.89287767010860219 0 0.5832743223239254 0.88483152652961872 0 0.55899371797446828 0.85003102233514438 0 0.54783390826260769 0.89287767010860219 0 0.5832743223239254 0.88483152652961872 0 0.57724883562309992 0.92155686857100794 0 0.5832743223239254 0.88483152652961872 0 0.57724883562309992 0.92155686857100794 0 0.61885627562261258 0.90282959257498208 0 0.62065498684670595 0.95224934003983619 0 0.57724883562309992 0.92155686857100794 0 0.61885627562261258 0.90282959257498208 0 0.5832743223239254 0.88483152652961872 0 0.61885627562261258 0.90282959257498208 0 0.61343887413683884 0.856862479058357 0 0.61343887413683884 0.856862479058357 0 0.60294066490120068 0.80851322453934582 0 0.65005442820240822 0.82644988530054031 0 0.61343887413683884 0.856862479058357 0 0.55899371797446828 0.85003102233514438 0 0.60294066490120068 0.80851322453934582 0 0.55899371797446828 0.85003102233514438 0 0.54782696902220018 0.79245182748204157 0 0.60294066490120068 0.80851322453934582 0 0.5832743223239254 0.88483152652961872 0 0.61343887413683884 0.856862479058357 0 0.55899371797446828 0.85003102233514438 0 0.50202631463681879 0.87892870825713787 0 0.54783390826260769 0.89287767010860219 0 0.55899371797446828 0.85003102233514438 0 0.50202631463681879 0.87892870825713787 0 0.55899371797446828 0.85003102233514438 0 0.50627822638148745 0.8263979829520941 0 0.55899371797446828 0.85003102233514438 0 0.50627822638148745 0.8263979829520941 0 0.54782696902220018 0.79245182748204157 0 0.50627822638148745 0.8263979829520941 0 0.54782696902220018 0.79245182748204157 0 0.50731287292894423 0.78963574450233831 0 0.54782696902220018 0.79245182748204157 0 0.50731287292894423 0.78963574450233831 0 0.50945740445113552 0.75476055527778108 0 0.55363780716230748 0.74348740161571747 0 0.54782696902220018 0.79245182748204157 0 0.50945740445113552 0.75476055527778108 0 0.55363780716230748 0.74348740161571747 0 0.54782696902220018 0.79245182748204157 0 0.59636844454254345 0.75937156204589151 0 0.54782696902220018 0.79245182748204157 0 0.60294066490120068 0.80851322453934582 0 0.59636844454254345 0.75937156204589151 0 0.60294066490120068 0.80851322453934582 0 0.59636844454254345 0.75937156204589151 0 0.64753070846764316 0.77332939069435502 0 0.63221990677827677 0.73442891067859706 0 0.59636844454254345 0.75937156204589151 0 0.64753070846764316 0.77332939069435502 0 0.60294066490120068 0.80851322453934582 0 0.64753070846764316 0.77332939069435502 0 0.65005442820240822 0.82644988530054031 0 0.64753070846764316 0.77332939069435502 0 0.68024162096458085 0.79868546898116533 0 0.65005442820240822 0.82644988530054031 0 0.64753070846764316 0.77332939069435502 0 0.68024162096458085 0.79868546898116533 0 0.6916490518212759 0.75387992374886192 0 0.66427993341343905 0.73232764502436276 0 0.64753070846764316 0.77332939069435502 0 0.6916490518212759 0.75387992374886192 0 0.72501250972655151 0.74067302935308721 0 0.6916490518212759 0.75387992374886192 0 0.72500000000000064 0.7952620967744265 0 0.72501250972655151 0.74067302935308721 0 0.72500000000000064 0.7952620967744265 0 0.75841349681148107 0.75422312624214749 0 0.68024162096458085 0.79868546898116533 0 0.6916490518212759 0.75387992374886192 0 0.72500000000000064 0.7952620967744265 0 0.68024162096458085 0.79868546898116533 0 0.72500000000000064 0.7952620967744265 0 0.68697391633157634 0.84450604838764298 0 0.72500000000000064 0.7952620967744265 0 0.72863726579783861 0.85390518901155588 0 0.68697391633157634 0.84450604838764298 0 0.72500000000000064 0.7952620967744265 0 0.72863726579783861 0.85390518901155588 0 0.76901770135486491 0.84293557325473656 0 0.72863726579783861 0.85390518901155588 0 0.68697391633157634 0.84450604838764298 0 0.7250000000005199 0.89375000000045834 0 0.68697391633157634 0.84450604838764298 0 0.66412543161245952 0.88015090885499059 0 0.7250000000005199 0.89375000000045834 0 0.68697391633157634 0.84450604838764298 0 0.65005442820240822 0.82644988530054031 0 0.66412543161245952 0.88015090885499059 0 0.68024162096458085 0.79868546898116533 0 0.68697391633157634 0.84450604838764298 0 0.65005442820240822 0.82644988530054031 0 0.61343887413683884 0.856862479058357 0 0.65005442820240822 0.82644988530054031 0 0.66412543161245952 0.88015090885499059 0 0.61885627562261258 0.90282959257498208 0 0.61343887413683884 0.856862479058357 0 0.66412543161245952 0.88015090885499059 0 0.61885627562261258 0.90282959257498208 0 0.65507451745379841 0.92229208810758578 0 0.66412543161245952 0.88015090885499059 0 0.62065498684670595 0.95224934003983619 0 0.61885627562261258 0.90282959257498208 0 0.65507451745379841 0.92229208810758578 0 0.65507451745379841 0.92229208810758578 0 0.68987011941058407 0.92105047536677087 0 0.68015064798562208 0.95924320340003011 0 0.65507451745379841 0.92229208810758578 0 0.66412543161245952 0.88015090885499059 0 0.68987011941058407 0.92105047536677087 0 0.66412543161245952 0.88015090885499059 0 0.7250000000005199 0.89375000000045834 0 0.68987011941058407 0.92105047536677087 0 0.72863726579783861 0.85390518901155588 0 0.7250000000005199 0.89375000000045834 0 0.76891166905518427 0.88835469571185499 0 0.7250000000005199 0.89375000000045834 0 0.7250000000005199 0.94981617647078953 0 0.75729602384198635 0.92353652857884294 0 0.7250000000005199 0.89375000000045834 0 0.68987011941058407 0.92105047536677087 0 0.7250000000005199 0.94981617647078953 0 0.68987011941058407 0.92105047536677087 0 0.7250000000005199 0.94981617647078953 0 0.68015064798562208 0.95924320340003011 0 0.7250000000005199 0.94981617647078953 0 0.7000000000006934 1 0 0.75000000000034661 1 0 0.7250000000005199 0.94981617647078953 0 0.75000000000034661 1 0 0.770759834363826 0.95919399014344442 0 0.7250000000005199 0.94981617647078953 0 0.7000000000006934 1 0 0.68015064798562208 0.95924320340003011 0 0.7000000000006934 1 0 0.68015064798562208 0.95924320340003011 0 0.65000000000104008 1 0 0.62065498684670595 0.95224934003983619 0 0.65507451745379841 0.92229208810758578 0 0.68015064798562208 0.95924320340003011 0 0.62065498684670595 0.95224934003983619 0 0.68015064798562208 0.95924320340003011 0 0.65000000000104008 1 0 0.84999999999965292 1 0 0.85170973911348691 0.93569607295217616 0 0.89898474358632463 0.95391965591118966 0 0.84999999999965292 1 0 0.81486180804382891 0.96321394949790495 0 0.85170973911348691 0.93569607295217616 0 0.81486180804382891 0.96321394949790495 0 0.79680861578988083 0.92656778056766709 0 0.85170973911348691 0.93569607295217616 0 0.84999999999965292 1 0 0.81486180804382891 0.96321394949790495 0 0.79999999999999982 1 0 0.81486180804382891 0.96321394949790495 0 0.79999999999999982 1 0 0.770759834363826 0.95919399014344442 0 0.79999999999999982 1 0 0.75000000000034661 1 0 0.770759834363826 0.95919399014344442 0 0.7250000000005199 0.94981617647078953 0 0.770759834363826 0.95919399014344442 0 0.75729602384198635 0.92353652857884294 0 0.81486180804382891 0.96321394949790495 0 0.770759834363826 0.95919399014344442 0 0.79680861578988083 0.92656778056766709 0 0.79680861578988083 0.92656778056766709 0 0.75729602384198635 0.92353652857884294 0 0.76891166905518427 0.88835469571185499 0 0.770759834363826 0.95919399014344442 0 0.79680861578988083 0.92656778056766709 0 0.75729602384198635 0.92353652857884294 0 0.7250000000005199 0.89375000000045834 0 0.75729602384198635 0.92353652857884294 0 0.76891166905518427 0.88835469571185499 0 0.79680861578988083 0.92656778056766709 0 0.76891166905518427 0.88835469571185499 0 0.81159157511211755 0.88795995483179491 0 0.81159157511211755 0.88795995483179491 0 0.85170973911348691 0.93569607295217616 0 0.85600844944837662 0.88483418979512773 0 0.79680861578988083 0.92656778056766709 0 0.81159157511211755 0.88795995483179491 0 0.85170973911348691 0.93569607295217616 0 0.85170973911348691 0.93569607295217616 0 0.85600844944837662 0.88483418979512773 0 0.90416666666660628 0.9041666666666166 0 0.85600844944837662 0.88483418979512773 0 0.82709327591091286 0.84937141670920724 0 0.88088768115933802 0.84674609810493673 0 0.82709327591091286 0.84937141670920724 0 0.84725310900444062 0.80779732082917555 0 0.88088768115933802 0.84674609810493673 0 0.82709327591091286 0.84937141670920724 0 0.80041942726660109 0.81543261647703358 0 0.84725310900444062 0.80779732082917555 0 0.81159157511211755 0.88795995483179491 0 0.85600844944837662 0.88483418979512773 0 0.82709327591091286 0.84937141670920724 0 0.76891166905518427 0.88835469571185499 0 0.81159157511211755 0.88795995483179491 0 0.76901770135486491 0.84293557325473656 0 0.81159157511211755 0.88795995483179491 0 0.82709327591091286 0.84937141670920724 0 0.76901770135486491 0.84293557325473656 0 0.72863726579783861 0.85390518901155588 0 0.76891166905518427 0.88835469571185499 0 0.76901770135486491 0.84293557325473656 0 0.76901770135486491 0.84293557325473656 0 0.80041942726660109 0.81543261647703358 0 0.77094201086366854 0.79647480515688507 0 0.82709327591091286 0.84937141670920724 0 0.76901770135486491 0.84293557325473656 0 0.80041942726660109 0.81543261647703358 0 0.80041942726660109 0.81543261647703358 0 0.77094201086366854 0.79647480515688507 0 0.80185942888539485 0.77452061303608133 0 0.72500000000000064 0.7952620967744265 0 0.77094201086366854 0.79647480515688507 0 0.75841349681148107 0.75422312624214749 0 0.72500000000000064 0.7952620967744265 0 0.76901770135486491 0.84293557325473656 0 0.77094201086366854 0.79647480515688507 0 0.77094201086366854 0.79647480515688507 0 0.75841349681148107 0.75422312624214749 0 0.80185942888539485 0.77452061303608133 0 0.75841349681148107 0.75422312624214749 0 0.80185942888539485 0.77452061303608133 0 0.78578450296893509 0.73292684821144505 0 0.80185942888539485 0.77452061303608133 0 0.84725310900444062 0.80779732082917555 0 0.85491058998424563 0.76004753345552634 0 0.80185942888539485 0.77452061303608133 0 0.85491058998424563 0.76004753345552634 0 0.81864958914779962 0.73589050177899629 0 0.80041942726660109 0.81543261647703358 0 0.80185942888539485 0.77452061303608133 0 0.84725310900444062 0.80779732082917555 0 0.84725310900444062 0.80779732082917555 0 0.85491058998424563 0.76004753345552634 0 0.90299850604011456 0.79563452813489832 0 0.85491058998424563 0.76004753345552634 0 0.90299850604011456 0.79563452813489832 0 0.89999166460796554 0.74528934923809909 0 0.90299850604011456 0.79563452813489832 0 0.94399509803918602 0.75600490196082126 0 0.95386563387742829 0.80414874155775029 0 0.90299850604011456 0.79563452813489832 0 0.94399509803918602 0.75600490196082126 0 0.89999166460796554 0.74528934923809909 0 0.94399509803918602 0.75600490196082126 0 0.97435614836745565 0.77499999999987745 0 0.95386563387742829 0.80414874155775029 0 0.94399509803918602 0.75600490196082126 0 0.97435614836745565 0.77499999999987745 0 0.97166519676947294 0.73337114490064459 0 0.97435614836745565 0.77499999999987745 0 0.97166519676947294 0.73337114490064459 0 1 0.74999999999993494 0 0.97435614836745565 0.77499999999987745 0 1 0.7999999999998193 0 1 0.74999999999993494 0 0.97435614836745565 0.77499999999987745 0 1 0.7999999999998193 0 0.95386563387742829 0.80414874155775029 0 1 0.84999999999982645 0 0.93677536231884972 0.85000000000000286 0 0.95391631417670719 0.89584263333814784 0 0.95386563387742829 0.80414874155775029 0 1 0.84999999999982645 0 0.93677536231884972 0.85000000000000286 0 1 0.7999999999998193 0 0.95386563387742829 0.80414874155775029 0 1 0.84999999999982645 0 0.93677536231884972 0.85000000000000286 0 0.88088768115933802 0.84674609810493673 0 0.90416666666660628 0.9041666666666166 0 0.90299850604011456 0.79563452813489832 0 0.95386563387742829 0.80414874155775029 0 0.93677536231884972 0.85000000000000286 0 0.90299850604011456 0.79563452813489832 0 0.93677536231884972 0.85000000000000286 0 0.88088768115933802 0.84674609810493673 0 0.84725310900444062 0.80779732082917555 0 0.90299850604011456 0.79563452813489832 0 0.88088768115933802 0.84674609810493673 0 0.85600844944837662 0.88483418979512773 0 0.88088768115933802 0.84674609810493673 0 0.90416666666660628 0.9041666666666166 0 0.85170973911348691 0.93569607295217616 0 0.90416666666660628 0.9041666666666166 0 0.89898474358632463 0.95391965591118966 0 0.90416666666660628 0.9041666666666166 0 0.95391631417670719 0.89584263333814784 0 0.94399509803919068 0.9439950980391687 0 0.90416666666660628 0.9041666666666166 0 0.94399509803919068 0.9439950980391687 0 0.89898474358632463 0.95391965591118966 0 0.93677536231884972 0.85000000000000286 0 0.90416666666660628 0.9041666666666166 0 0.95391631417670719 0.89584263333814784 0 1 0.84999999999982645 0 0.95391631417670719 0.89584263333814784 0 1 0.8999999999998336 0 1 0.8999999999998336 0 0.97435614836744289 0.92499999999990257 0 1 0.94999999999997109 0 0.95391631417670719 0.89584263333814784 0 1 0.8999999999998336 0 0.97435614836744289 0.92499999999990257 0 0.95391631417670719 0.89584263333814784 0 0.97435614836744289 0.92499999999990257 0 0.94399509803919068 0.9439950980391687 0 0.97435614836744289 0.92499999999990257 0 0.94399509803919068 0.9439950980391687 0 0.97166519676946206 0.96662885509935492 0 0.97435614836744289 0.92499999999990257 0 0.97166519676946206 0.96662885509935492 0 1 0.94999999999997109 0 0.97166519676946206 0.96662885509935492 0 1 0.94999999999997109 0 1 1 0 0.97166519676946206 0.96662885509935492 0 1 1 0 0.94999999999979179 1 0 0.94399509803919068 0.9439950980391687 0 0.97166519676946206 0.96662885509935492 0 0.94999999999979179 1 0 0.94999999999979179 1 0 0.89898474358632463 0.95391965591118966 0 0.89999999999958358 1 0 0.94399509803919068 0.9439950980391687 0 0.94999999999979179 1 0 0.89898474358632463 0.95391965591118966 0 0.84999999999965292 1 0 0.89898474358632463 0.95391965591118966 0 0.89999999999958358 1 0 0.81723410853263523 0.59419663659258926 0 0.86956835336234861 0.571283299838105 0 0.82862096804812391 0.55037090955459045 0 0.81723410853263523 0.59419663659258926 0 0.87159648282691515 0.61285406320581504 0 0.83758014339878906 0.63222013025741819 0 0.81723410853263523 0.59419663659258926 0 0.79884539758237771 0.62875045078114233 0 0.83758014339878906 0.63222013025741819 0 0.81723410853263523 0.59419663659258926 0 0.87159648282691515 0.61285406320581504 0 0.86956835336234861 0.571283299838105 0 0.86956835336234861 0.571283299838105 0 0.86907294890112186 0.52008116128001669 0 0.82862096804812391 0.55037090955459045 0 0.86907294890112186 0.52008116128001669 0 0.81441713509985358 0.51161854125224959 0 0.82862096804812391 0.55037090955459045 0 0.86907294890112186 0.52008116128001669 0 0.81441713509985358 0.51161854125224959 0 0.84723782639812573 0.48638347960178252 0 0.81441713509985358 0.51161854125224959 0 0.82862096804812391 0.55037090955459045 0 0.77151014687832564 0.54436834383023036 0 0.81441713509985358 0.51161854125224959 0 0.77151014687832564 0.54436834383023036 0 0.77846603114747959 0.49850927265137401 0 0.77151014687832564 0.54436834383023036 0 0.77846603114747959 0.49850927265137401 0 0.73947346780852752 0.49062440112282169 0 0.71809016091162536 0.58185040402320831 0 0.77151014687832564 0.54436834383023036 0 0.77293540622714185 0.59448302402785813 0 0.81723410853263523 0.59419663659258926 0 0.77151014687832564 0.54436834383023036 0 0.77293540622714185 0.59448302402785813 0 0.81723410853263523 0.59419663659258926 0 0.82862096804812391 0.55037090955459045 0 0.77151014687832564 0.54436834383023036 0 0.81723410853263523 0.59419663659258926 0 0.77293540622714185 0.59448302402785813 0 0.79884539758237771 0.62875045078114233 0 0.74994237037456724 0.62775548192980357 0 0.77293540622714185 0.59448302402785813 0 0.79884539758237771 0.62875045078114233 0 0.74994237037456724 0.62775548192980357 0 0.7750489929959945 0.66593931409600093 0 0.79884539758237771 0.62875045078114233 0 0.74999999999999989 0.69999999999999996 0 0.72500000000000064 0.67022701834392062 0 0.7750489929959945 0.66593931409600093 0 0.7750489929959945 0.66593931409600093 0 0.79999999999999982 0.69999999999999996 0 0.82457059160610424 0.66831947184359608 0 0.7750489929959945 0.66593931409600093 0 0.79884539758237771 0.62875045078114233 0 0.82457059160610424 0.66831947184359608 0 0.74999999999999989 0.69999999999999996 0 0.75841349681148107 0.75422312624214749 0 0.78578450296893509 0.73292684821144505 0 0.74999999999999989 0.69999999999999996 0 0.79999999999999982 0.69999999999999996 0 0.78578450296893509 0.73292684821144505 0 0.74999999999999989 0.69999999999999996 0 0.7750489929959945 0.66593931409600093 0 0.79999999999999982 0.69999999999999996 0 0.74999999999999989 0.69999999999999996 0 0.79999999999999982 0.69999999999999996 0 0.80185942888539485 0.77452061303608133 0 0.78578450296893509 0.73292684821144505 0 0.81864958914779962 0.73589050177899629 0 0.79999999999999982 0.69999999999999996 0 0.78578450296893509 0.73292684821144505 0 0.81864958914779962 0.73589050177899629 0 0.85491058998424563 0.76004753345552634 0 0.81864958914779962 0.73589050177899629 0 0.84999999999999987 0.69999999999999996 0 0.79999999999999982 0.69999999999999996 0 0.84999999999999987 0.69999999999999996 0 0.79999999999999982 0.69999999999999996 0 0.84999999999999987 0.69999999999999996 0 0.82457059160610424 0.66831947184359608 0 0.79999999999999982 0.69999999999999996 0 0.81864958914779962 0.73589050177899629 0 0.84999999999999987 0.69999999999999996 0 0.84999999999999987 0.69999999999999996 0 0.89999999999999991 0.69999999999999996 0 0.85491058998424563 0.76004753345552634 0 0.84999999999999987 0.69999999999999996 0 0.89999166460796554 0.74528934923809909 0 0.79884539758237771 0.62875045078114233 0 0.83758014339878906 0.63222013025741819 0 0.82457059160610424 0.66831947184359608 0 0.84999999999999987 0.69999999999999996 0 0.82457059160610424 0.66831947184359608 0 0.87712158428786946 0.65709029563313581 0 0.87159648282691515 0.61285406320581504 0 0.83758014339878906 0.63222013025741819 0 0.87712158428786946 0.65709029563313581 0 0.83758014339878906 0.63222013025741819 0 0.82457059160610424 0.66831947184359608 0 0.87712158428786946 0.65709029563313581 0 0.87712158428786946 0.65709029563313581 0 0.92057473616084773 0.66770436535372446 0 0.91750694127105259 0.63017627779935648 0 0.87159648282691515 0.61285406320581504 0 0.87712158428786946 0.65709029563313581 0 0.91750694127105259 0.63017627779935648 0 0.84999999999999987 0.69999999999999996 0 0.87712158428786946 0.65709029563313581 0 0.89999999999999991 0.69999999999999996 0 0.87712158428786946 0.65709029563313581 0 0.92057473616084773 0.66770436535372446 0 0.89999999999999991 0.69999999999999996 0 0.92057473616084773 0.66770436535372446 0 0.91750694127105259 0.63017627779935648 0 0.9578014258160763 0.65787212321113708 0 0.84999999999999987 0.69999999999999996 0 0.89999166460796554 0.74528934923809909 0 0.89999999999999991 0.69999999999999996 0 0.89999999999999991 0.69999999999999996 0 0.94999999999999996 0.69999999999999996 0 0.92057473616084773 0.66770436535372446 0 0.89999999999999991 0.69999999999999996 0 0.94999999999999996 0.69999999999999996 0 0.89999166460796554 0.74528934923809909 0 0.89999999999999991 0.69999999999999996 0 0.94999999999999996 0.69999999999999996 0 0.94399509803918602 0.75600490196082126 0 0.89999166460796554 0.74528934923809909 0 0.94999999999999996 0.69999999999999996 0 0.94399509803918602 0.75600490196082126 0 0.94999999999999996 0.69999999999999996 0 0.97166519676947294 0.73337114490064459 0 0.94999999999999996 0.69999999999999996 0 1 0.69999999999999996 0 0.94999999999999996 0.69999999999999996 0 1 0.69999999999999996 0 0.97166519676947294 0.73337114490064459 0 1 0.69999999999999996 0 0.97166519676947294 0.73337114490064459 0 1 0.74999999999993494 0 0.91750694127105259 0.63017627779935648 0 0.9578014258160763 0.65787212321113708 0 0.95867599106212187 0.60011091146651041 0 0.92057473616084773 0.66770436535372446 0 0.94999999999999996 0.69999999999999996 0 0.9578014258160763 0.65787212321113708 0 0.94999999999999996 0.69999999999999996 0 1 0.69999999999999996 0 0.9578014258160763 0.65787212321113708 0 1 0.69999999999999996 0 0.9578014258160763 0.65787212321113708 0 1 0.64999999999986979 0 0.9578014258160763 0.65787212321113708 0 1 0.64999999999986979 0 0.95867599106212187 0.60011091146651041 0 0.95867599106212187 0.60011091146651041 0 0.93732437411268477 0.55911392101136159 0 1 0.54999999999963112 0 1 0.64999999999986979 0 1 0.59999999999973963 0 0.95867599106212187 0.60011091146651041 0 1 0.59999999999973963 0 0.95867599106212187 0.60011091146651041 0 1 0.54999999999963112 0 0.91750694127105259 0.63017627779935648 0 0.95867599106212187 0.60011091146651041 0 0.91143117093204207 0.58709913730335972 0 0.95867599106212187 0.60011091146651041 0 0.91143117093204207 0.58709913730335972 0 0.93732437411268477 0.55911392101136159 0 0.86956835336234861 0.571283299838105 0 0.91143117093204207 0.58709913730335972 0 0.90900154012161016 0.53607784105648792 0 0.87159648282691515 0.61285406320581504 0 0.86956835336234861 0.571283299838105 0 0.91143117093204207 0.58709913730335972 0 0.87159648282691515 0.61285406320581504 0 0.91750694127105259 0.63017627779935648 0 0.91143117093204207 0.58709913730335972 0 0.86907294890112186 0.52008116128001669 0 0.90900154012161016 0.53607784105648792 0 0.91696753777131557 0.497780560203536 0 0.86956835336234861 0.571283299838105 0 0.86907294890112186 0.52008116128001669 0 0.90900154012161016 0.53607784105648792 0 0.90900154012161016 0.53607784105648792 0 0.93732437411268477 0.55911392101136159 0 0.95631871884947484 0.51827533208233789 0 0.91143117093204207 0.58709913730335972 0 0.90900154012161016 0.53607784105648792 0 0.93732437411268477 0.55911392101136159 0 0.90900154012161016 0.53607784105648792 0 0.95631871884947484 0.51827533208233789 0 0.91696753777131557 0.497780560203536 0 0.93732437411268477 0.55911392101136159 0 0.95631871884947484 0.51827533208233789 0 1 0.54999999999963112 0 0.95631871884947484 0.51827533208233789 0 1 0.54999999999963112 0 1 0.49999999999950101 0 0.95631871884947484 0.51827533208233789 0 1 0.49999999999950101 0 0.96228564064454991 0.48206450662049471 0 1 0.49999999999950101 0 1 0.44999999999963131 0 0.96228564064454991 0.48206450662049471 0 1 0.44999999999963131 0 0.93814194660195893 0.44426664081746747 0 0.96228564064454991 0.48206450662049471 0 0.93814194660195893 0.44426664081746747 0 0.96228564064454991 0.48206450662049471 0 0.91696753777131557 0.497780560203536 0 0.95631871884947484 0.51827533208233789 0 0.96228564064454991 0.48206450662049471 0 0.91696753777131557 0.497780560203536 0 1 0.39999999999978308 0 0.95871855522754235 0.40006508612975411 0 1 0.34999999999993492 0 1 0.44999999999963131 0 1 0.39999999999978308 0 0.95871855522754235 0.40006508612975411 0 1 0.44999999999963131 0 0.93814194660195893 0.44426664081746747 0 0.95871855522754235 0.40006508612975411 0 0.95871855522754235 0.40006508612975411 0 0.90594285160987287 0.4141265964174129 0 0.91750694127107502 0.36982372220068471 0 0.93814194660195893 0.44426664081746747 0 0.95871855522754235 0.40006508612975411 0 0.90594285160987287 0.4141265964174129 0 0.90594285160987287 0.4141265964174129 0 0.88594198078881503 0.46167788676578442 0 0.86411095495256451 0.42388805655111889 0 0.90594285160987287 0.4141265964174129 0 0.86411095495256451 0.42388805655111889 0 0.86844634540301924 0.38530937474099819 0 0.90594285160987287 0.4141265964174129 0 0.86844634540301924 0.38530937474099819 0 0.91750694127107502 0.36982372220068471 0 0.93814194660195893 0.44426664081746747 0 0.91696753777131557 0.497780560203536 0 0.88594198078881503 0.46167788676578442 0 0.93814194660195893 0.44426664081746747 0 0.90594285160987287 0.4141265964174129 0 0.88594198078881503 0.46167788676578442 0 0.86907294890112186 0.52008116128001669 0 0.91696753777131557 0.497780560203536 0 0.88594198078881503 0.46167788676578442 0 0.86907294890112186 0.52008116128001669 0 0.88594198078881503 0.46167788676578442 0 0.84723782639812573 0.48638347960178252 0 0.81441713509985358 0.51161854125224959 0 0.84723782639812573 0.48638347960178252 0 0.81400510706333218 0.47357325943904899 0 0.84723782639812573 0.48638347960178252 0 0.81400510706333218 0.47357325943904899 0 0.84925632466077294 0.45359738909549091 0 0.81400510706333218 0.47357325943904899 0 0.84925632466077294 0.45359738909549091 0 0.81973119833356312 0.43505687159469048 0 0.88594198078881503 0.46167788676578442 0 0.84723782639812573 0.48638347960178252 0 0.84925632466077294 0.45359738909549091 0 0.84925632466077294 0.45359738909549091 0 0.86411095495256451 0.42388805655111889 0 0.81973119833356312 0.43505687159469048 0 0.88594198078881503 0.46167788676578442 0 0.84925632466077294 0.45359738909549091 0 0.86411095495256451 0.42388805655111889 0 0.86411095495256451 0.42388805655111889 0 0.86844634540301924 0.38530937474099819 0 0.81308179852519835 0.39754945808726527 0 0.86844634540301924 0.38530937474099819 0 0.81308179852519835 0.39754945808726527 0 0.83573492347052902 0.36590755630746369 0 0.86411095495256451 0.42388805655111889 0 0.81308179852519835 0.39754945808726527 0 0.81973119833356312 0.43505687159469048 0 0.81973119833356312 0.43505687159469048 0 0.77354604466818633 0.40378688774472771 0 0.77972660463949339 0.45529290596363098 0 0.81308179852519835 0.39754945808726527 0 0.81973119833356312 0.43505687159469048 0 0.77354604466818633 0.40378688774472771 0 0.81308179852519835 0.39754945808726527 0 0.77354604466818633 0.40378688774472771 0 0.78145581580700685 0.34881365920033602 0 0.77354604466818633 0.40378688774472771 0 0.77972660463949339 0.45529290596363098 0 0.73483647259922602 0.44789725365921768 0 0.77972660463949339 0.45529290596363098 0 0.73483647259922602 0.44789725365921768 0 0.73947346780852752 0.49062440112282169 0 0.77972660463949339 0.45529290596363098 0 0.77846603114747959 0.49850927265137401 0 0.73947346780852752 0.49062440112282169 0 0.81400510706333218 0.47357325943904899 0 0.77972660463949339 0.45529290596363098 0 0.77846603114747959 0.49850927265137401 0 0.81441713509985358 0.51161854125224959 0 0.81400510706333218 0.47357325943904899 0 0.77846603114747959 0.49850927265137401 0 0.81400510706333218 0.47357325943904899 0 0.81973119833356312 0.43505687159469048 0 0.77972660463949339 0.45529290596363098 0 0.79999999999999982 0.29999999999999999 0 0.77075983436335049 0.25919399014334171 0 0.81486180804364938 0.26321394949780091 0 0.79999999999999982 0.29999999999999999 0 0.74999999999999989 0.29999999999999999 0 0.79999999999999982 0.29999999999999999 0 0.77075983436335049 0.25919399014334171 0 0.74999999999999989 0.29999999999999999 0 0.79999999999999982 0.29999999999999999 0 0.78145581580700685 0.34881365920033602 0 0.74999999999999989 0.29999999999999999 0 0.78145581580700685 0.34881365920033602 0 0.73090396928863699 0.33699297293167962 0 0.74999999999999989 0.29999999999999999 0 0.77354604466818633 0.40378688774472771 0 0.78145581580700685 0.34881365920033602 0 0.74764719760526988 0.3719647154012321 0 0.78145581580700685 0.34881365920033602 0 0.74764719760526988 0.3719647154012321 0 0.73090396928863699 0.33699297293167962 0 0.81308179852519835 0.39754945808726527 0 0.78145581580700685 0.34881365920033602 0 0.83573492347052902 0.36590755630746369 0 0.79999999999999982 0.29999999999999999 0 0.78145581580700685 0.34881365920033602 0 0.82500000000000062 0.33010209762754811 0 0.78145581580700685 0.34881365920033602 0 0.82500000000000062 0.33010209762754811 0 0.83573492347052902 0.36590755630746369 0 0.82500000000000062 0.33010209762754811 0 0.83573492347052902 0.36590755630746369 0 0.87430060258887643 0.34056085888204451 0 0.86844634540301924 0.38530937474099819 0 0.83573492347052902 0.36590755630746369 0 0.87430060258887643 0.34056085888204451 0 0.82500000000000062 0.33010209762754811 0 0.87430060258887643 0.34056085888204451 0 0.84999999999999987 0.29999999999999999 0 0.87430060258887643 0.34056085888204451 0 0.84999999999999987 0.29999999999999999 0 0.89999999999999991 0.29999999999999999 0 0.84999999999999987 0.29999999999999999 0 0.81486180804364938 0.26321394949780091 0 0.8517097391133297 0.2356960729520409 0 0.84999999999999987 0.29999999999999999 0 0.89898474358614167 0.25391965591104898 0 0.8517097391133297 0.2356960729520409 0 0.84999999999999987 0.29999999999999999 0 0.89999999999999991 0.29999999999999999 0 0.79999999999999982 0.29999999999999999 0 0.82500000000000062 0.33010209762754811 0 0.84999999999999987 0.29999999999999999 0 0.79999999999999982 0.29999999999999999 0 0.84999999999999987 0.29999999999999999 0 0.81486180804364938 0.26321394949780091 0 0.79999999999999982 0.29999999999999999 0 0.84999999999999987 0.29999999999999999 0 0.84999999999999987 0.29999999999999999 0 0.89898474358614167 0.25391965591104898 0 0.89999999999999991 0.29999999999999999 0 0.89999999999999991 0.29999999999999999 0 0.94999999999999996 0.29999999999999999 0 0.89999999999999991 0.29999999999999999 0 0.92012390126144183 0.33123581297173937 0 0.94999999999999996 0.29999999999999999 0 0.89898474358614167 0.25391965591104898 0 0.89999999999999991 0.29999999999999999 0 0.94999999999999996 0.29999999999999999 0 0.89898474358614167 0.25391965591104898 0 0.94999999999999996 0.29999999999999999 0 0.94399509803921056 0.24399509803922639 0 0.86844634540301924 0.38530937474099819 0 0.87430060258887643 0.34056085888204451 0 0.91750694127107502 0.36982372220068471 0 0.87430060258887643 0.34056085888204451 0 0.92012390126144183 0.33123581297173937 0 0.91750694127107502 0.36982372220068471 0 0.87430060258887643 0.34056085888204451 0 0.89999999999999991 0.29999999999999999 0 0.92012390126144183 0.33123581297173937 0 0.92012390126144183 0.33123581297173937 0 0.91750694127107502 0.36982372220068471 0 0.95780851984364423 0.34215720972155339 0 0.95871855522754235 0.40006508612975411 0 0.91750694127107502 0.36982372220068471 0 0.95780851984364423 0.34215720972155339 0 0.92012390126144183 0.33123581297173937 0 0.95780851984364423 0.34215720972155339 0 0.94999999999999996 0.29999999999999999 0 0.95780851984364423 0.34215720972155339 0 0.94999999999999996 0.29999999999999999 0 1 0.29999999999999999 0 0.95780851984364423 0.34215720972155339 0 1 0.34999999999993492 0 1 0.29999999999999999 0 0.95871855522754235 0.40006508612975411 0 0.95780851984364423 0.34215720972155339 0 1 0.34999999999993492 0 0.94999999999999996 0.29999999999999999 0 0.97166519676951801 0.26662885509932011 0 0.94399509803921056 0.24399509803922639 0 0.94999999999999996 0.29999999999999999 0 1 0.29999999999999999 0 0.94999999999999996 0.29999999999999999 0 1 0.29999999999999999 0 0.97166519676951801 0.26662885509932011 0 1 0.29999999999999999 0 0.97166519676951801 0.26662885509932011 0 1 0.24999999999987299 0 0.97166519676951801 0.26662885509932011 0 0.97435614836740092 0.22499999999981049 0 1 0.24999999999987299 0 0.97435614836740092 0.22499999999981049 0 1 0.24999999999987299 0 1 0.19999999999974799 0 0.97435614836740092 0.22499999999981049 0 0.94399509803921056 0.24399509803922639 0 0.95391631417672862 0.19584263333809451 0 0.97166519676951801 0.26662885509932011 0 0.97435614836740092 0.22499999999981049 0 0.94399509803921056 0.24399509803922639 0 0.97435614836740092 0.22499999999981049 0 0.95391631417672862 0.19584263333809451 0 1 0.19999999999974799 0 0.95391631417672862 0.19584263333809451 0 1 0.14999999999961891 0 0.93677536231883773 0.14999999999999089 0 1 0.14999999999961891 0 0.93677536231883773 0.14999999999999089 0 0.95386563387744361 0.1041487415577465 0 0.95391631417672862 0.19584263333809451 0 1 0.19999999999974799 0 1 0.14999999999961891 0 0.95391631417672862 0.19584263333809451 0 0.93677536231883773 0.14999999999999089 0 0.90416666666668166 0.20416666666667119 0 0.93677536231883773 0.14999999999999089 0 0.88088768115941807 0.14674609810479519 0 0.90416666666668166 0.20416666666667119 0 0.93677536231883773 0.14999999999999089 0 0.88088768115941807 0.14674609810479519 0 0.90299850604006393 0.09563452813493091 0 0.88088768115941807 0.14674609810479519 0 0.90416666666668166 0.20416666666667119 0 0.85600844944842547 0.1848341897950983 0 0.89898474358614167 0.25391965591104898 0 0.90416666666668166 0.20416666666667119 0 0.8517097391133297 0.2356960729520409 0 0.89898474358614167 0.25391965591104898 0 0.94399509803921056 0.24399509803922639 0 0.90416666666668166 0.20416666666667119 0 0.94399509803921056 0.24399509803922639 0 0.95391631417672862 0.19584263333809451 0 0.90416666666668166 0.20416666666667119 0 0.94999999999986839 0 0 0.97166519676946894 0.033371144900598393 0 0.94399509803922566 0.056004901960802607 0 0.94999999999986839 0 0 1 0 0 0.97166519676946894 0.033371144900598393 0 1 0 0 1 0.049999999999896842 0 0.97166519676946894 0.033371144900598393 0 1 0.049999999999896842 0 0.97166519676946894 0.033371144900598393 0 0.97435614836748241 0.074999999999825387 0 0.97166519676946894 0.033371144900598393 0 0.94399509803922566 0.056004901960802607 0 0.97435614836748241 0.074999999999825387 0 0.94399509803922566 0.056004901960802607 0 0.97435614836748241 0.074999999999825387 0 0.95386563387744361 0.1041487415577465 0 0.97435614836748241 0.074999999999825387 0 1 0.099999999999753911 0 0.95386563387744361 0.1041487415577465 0 1 0.049999999999896842 0 0.97435614836748241 0.074999999999825387 0 1 0.099999999999753911 0 1 0.14999999999961891 0 1 0.099999999999753911 0 0.95386563387744361 0.1041487415577465 0 0.93677536231883773 0.14999999999999089 0 0.95386563387744361 0.1041487415577465 0 0.90299850604006393 0.09563452813493091 0 0.88088768115941807 0.14674609810479519 0 0.90299850604006393 0.09563452813493091 0 0.84725310900442086 0.10779732082922661 0 0.90299850604006393 0.09563452813493091 0 0.899991664607802 0.045289349238254978 0 0.85491058998398861 0.060047533455626502 0 0.94399509803922566 0.056004901960802607 0 0.95386563387744361 0.1041487415577465 0 0.90299850604006393 0.09563452813493091 0 0.94399509803922566 0.056004901960802607 0 0.90299850604006393 0.09563452813493091 0 0.899991664607802 0.045289349238254978 0 0.94999999999986839 0 0 0.94399509803922566 0.056004901960802607 0 0.899991664607802 0.045289349238254978 0 0.899991664607802 0.045289349238254978 0 0.89999999999973679 0 0 0.84999999999960507 0 0 0.94999999999986839 0 0 0.899991664607802 0.045289349238254978 0 0.89999999999973679 0 0 0.84999999999960507 0 0 0.81864958914740749 0.035890501779055867 0 0.79999999999947335 0 0 0.899991664607802 0.045289349238254978 0 0.84999999999960507 0 0 0.85491058998398861 0.060047533455626502 0 0.85491058998398861 0.060047533455626502 0 0.81864958914740749 0.035890501779055867 0 0.80185942888501827 0.074520613036224564 0 0.84999999999960507 0 0 0.85491058998398861 0.060047533455626502 0 0.81864958914740749 0.035890501779055867 0 0.85491058998398861 0.060047533455626502 0 0.84725310900442086 0.10779732082922661 0 0.80185942888501827 0.074520613036224564 0 0.90299850604006393 0.09563452813493091 0 0.85491058998398861 0.060047533455626502 0 0.84725310900442086 0.10779732082922661 0 0.84725310900442086 0.10779732082922661 0 0.80076557130237269 0.1154587552654202 0 0.80185942888501827 0.074520613036224564 0 0.84725310900442086 0.10779732082922661 0 0.80076557130237269 0.1154587552654202 0 0.82709327591102189 0.14937141670914489 0 0.80076557130237269 0.1154587552654202 0 0.76878382444651716 0.097147941686331368 0 0.80185942888501827 0.074520613036224564 0 0.76878382444651716 0.097147941686331368 0 0.77144070960558853 0.14311854477243749 0 0.72525833953073282 0.1032114801687094 0 0.80076557130237269 0.1154587552654202 0 0.76878382444651716 0.097147941686331368 0 0.77144070960558853 0.14311854477243749 0 0.76878382444651716 0.097147941686331368 0 0.80185942888501827 0.074520613036224564 0 0.7527966693318906 0.053051678021508272 0 0.81864958914740749 0.035890501779055867 0 0.80185942888501827 0.074520613036224564 0 0.78393852574753176 0.032039079577822822 0 0.80185942888501827 0.074520613036224564 0 0.78393852574753176 0.032039079577822822 0 0.7527966693318906 0.053051678021508272 0 0.78393852574753176 0.032039079577822822 0 0.7527966693318906 0.053051678021508272 0 0.74999999999934175 0 0 0.78393852574753176 0.032039079577822822 0 0.79999999999947335 0 0 0.74999999999934175 0 0 0.81864958914740749 0.035890501779055867 0 0.78393852574753176 0.032039079577822822 0 0.79999999999947335 0 0 0.81283102246527783 0.1881007222486438 0 0.8517097391133297 0.2356960729520409 0 0.79680861578956375 0.22656778056752541 0 0.81283102246527783 0.1881007222486438 0 0.8517097391133297 0.2356960729520409 0 0.85600844944842547 0.1848341897950983 0 0.81486180804364938 0.26321394949780091 0 0.8517097391133297 0.2356960729520409 0 0.79680861578956375 0.22656778056752541 0 0.90416666666668166 0.20416666666667119 0 0.8517097391133297 0.2356960729520409 0 0.85600844944842547 0.1848341897950983 0 0.88088768115941807 0.14674609810479519 0 0.85600844944842547 0.1848341897950983 0 0.82709327591102189 0.14937141670914489 0 0.88088768115941807 0.14674609810479519 0 0.84725310900442086 0.10779732082922661 0 0.82709327591102189 0.14937141670914489 0 0.81283102246527783 0.1881007222486438 0 0.85600844944842547 0.1848341897950983 0 0.82709327591102189 0.14937141670914489 0 0.81283102246527783 0.1881007222486438 0 0.77144070960558853 0.14311854477243749 0 0.76587607630038135 0.18880039518954719 0 0.81283102246527783 0.1881007222486438 0 0.82709327591102189 0.14937141670914489 0 0.77144070960558853 0.14311854477243749 0 0.80076557130237269 0.1154587552654202 0 0.82709327591102189 0.14937141670914489 0 0.77144070960558853 0.14311854477243749 0 0.77144070960558853 0.14311854477243749 0 0.76587607630038135 0.18880039518954719 0 0.72634814642510737 0.16106886917518889 0 0.76587607630038135 0.18880039518954719 0 0.79680861578956375 0.22656778056752541 0 0.75668890529066124 0.2244279804069782 0 0.81283102246527783 0.1881007222486438 0 0.76587607630038135 0.18880039518954719 0 0.79680861578956375 0.22656778056752541 0 0.77075983436335049 0.25919399014334171 0 0.81486180804364938 0.26321394949780091 0 0.79680861578956375 0.22656778056752541 0 0.77075983436335049 0.25919399014334171 0 0.79680861578956375 0.22656778056752541 0 0.75668890529066124 0.2244279804069782 0 0.77075983436335049 0.25919399014334171 0 0.75668890529066124 0.2244279804069782 0 0.72500000000000064 0.2498161764706 0 0.75668890529066124 0.2244279804069782 0 0.72500000000000064 0.2498161764706 0 0.72500000000001008 0.19776155966387679 0 0.72500000000000064 0.2498161764706 0 0.69397719155551807 0.2245125647000914 0 0.72500000000001008 0.19776155966387679 0 0.72500000000000064 0.2498161764706 0 0.69397719155551807 0.2245125647000914 0 0.67933712972090698 0.25920070958121938 0 0.69397719155551807 0.2245125647000914 0 0.72500000000001008 0.19776155966387679 0 0.6865991819015953 0.189116534044597 0 0.76587607630038135 0.18880039518954719 0 0.75668890529066124 0.2244279804069782 0 0.72500000000001008 0.19776155966387679 0 0.76587607630038135 0.18880039518954719 0 0.72500000000001008 0.19776155966387679 0 0.72634814642510737 0.16106886917518889 0 0.77144070960558853 0.14311854477243749 0 0.72634814642510737 0.16106886917518889 0 0.72525833953073282 0.1032114801687094 0 0.72634814642510737 0.16106886917518889 0 0.68391457121233579 0.14440470121196541 0 0.72525833953073282 0.1032114801687094 0 0.72500000000001008 0.19776155966387679 0 0.72634814642510737 0.16106886917518889 0 0.6865991819015953 0.189116534044597 0 0.72634814642510737 0.16106886917518889 0 0.68391457121233579 0.14440470121196541 0 0.6865991819015953 0.189116534044597 0 0.68391457121233579 0.14440470121196541 0 0.64011864159029941 0.18789607982138171 0 0.6865991819015953 0.189116534044597 0 0.68391457121233579 0.14440470121196541 0 0.65290632656860115 0.11434202593454081 0 0.6236733212988993 0.14864538214901801 0 0.68391457121233579 0.14440470121196541 0 0.64011864159029941 0.18789607982138171 0 0.6236733212988993 0.14864538214901801 0 0.64011864159029941 0.18789607982138171 0 0.65394964615507722 0.22666784374016369 0 0.59814117807200873 0.23398510860739519 0 0.65394964615507722 0.22666784374016369 0 0.59814117807200873 0.23398510860739519 0 0.62657463266645097 0.26524202571255862 0 0.69397719155551807 0.2245125647000914 0 0.65394964615507722 0.22666784374016369 0 0.67933712972090698 0.25920070958121938 0 0.64011864159029941 0.18789607982138171 0 0.65394964615507722 0.22666784374016369 0 0.6865991819015953 0.189116534044597 0 0.69397719155551807 0.2245125647000914 0 0.65394964615507722 0.22666784374016369 0 0.6865991819015953 0.189116534044597 0 0.69999999999921003 0 0 0.72683645290270404 0.027797073151180601 0 0.7010294155333181 0.056779085686491267 0 0.69999999999921003 0 0 0.7010294155333181 0.056779085686491267 0 0.66369801598854572 0.036327466368102787 0 0.7527966693318906 0.053051678021508272 0 0.74999999999934175 0 0 0.72683645290270404 0.027797073151180601 0 0.69999999999921003 0 0 0.74999999999934175 0 0 0.72683645290270404 0.027797073151180601 0 0.7527966693318906 0.053051678021508272 0 0.72683645290270404 0.027797073151180601 0 0.7010294155333181 0.056779085686491267 0 0.7010294155333181 0.056779085686491267 0 0.72525833953073282 0.1032114801687094 0 0.68330259535470161 0.10038702501083881 0 0.7527966693318906 0.053051678021508272 0 0.7010294155333181 0.056779085686491267 0 0.72525833953073282 0.1032114801687094 0 0.76878382444651716 0.097147941686331368 0 0.7527966693318906 0.053051678021508272 0 0.72525833953073282 0.1032114801687094 0 0.68391457121233579 0.14440470121196541 0 0.72525833953073282 0.1032114801687094 0 0.68330259535470161 0.10038702501083881 0 0.68330259535470161 0.10038702501083881 0 0.65290632656860115 0.11434202593454081 0 0.65408113592120842 0.073941773121567966 0 0.68391457121233579 0.14440470121196541 0 0.68330259535470161 0.10038702501083881 0 0.65290632656860115 0.11434202593454081 0 0.65290632656860115 0.11434202593454081 0 0.61956000905586006 0.1043312481793135 0 0.6236733212988993 0.14864538214901801 0 0.65290632656860115 0.11434202593454081 0 0.65408113592120842 0.073941773121567966 0 0.61956000905586006 0.1043312481793135 0 0.65408113592120842 0.073941773121567966 0 0.61940220174112337 0.047251958781050582 0 0.61956000905586006 0.1043312481793135 0 0.7010294155333181 0.056779085686491267 0 0.68330259535470161 0.10038702501083881 0 0.65408113592120842 0.073941773121567966 0 0.7010294155333181 0.056779085686491267 0 0.65408113592120842 0.073941773121567966 0 0.66369801598854572 0.036327466368102787 0 0.65408113592120842 0.073941773121567966 0 0.66369801598854572 0.036327466368102787 0 0.61940220174112337 0.047251958781050582 0 0.66369801598854572 0.036327466368102787 0 0.64999999999907843 0 0 0.61940220174112337 0.047251958781050582 0 0.69999999999921003 0 0 0.66369801598854572 0.036327466368102787 0 0.64999999999907843 0 0 0.59999999999894682 0 0 0.57396793757665954 0.037011367187645222 0 0.5499999999988151 0 0 0.64999999999907843 0 0 0.59999999999894682 0 0 0.61940220174112337 0.047251958781050582 0 0.59999999999894682 0 0 0.61940220174112337 0.047251958781050582 0 0.57396793757665954 0.037011367187645222 0 0.61940220174112337 0.047251958781050582 0 0.57396793757665954 0.037011367187645222 0 0.57667858002728545 0.078486105337742612 0 0.61940220174112337 0.047251958781050582 0 0.57667858002728545 0.078486105337742612 0 0.61956000905586006 0.1043312481793135 0 0.61956000905586006 0.1043312481793135 0 0.58516465772821369 0.11653801664834119 0 0.6236733212988993 0.14864538214901801 0 0.57667858002728545 0.078486105337742612 0 0.61956000905586006 0.1043312481793135 0 0.58516465772821369 0.11653801664834119 0 0.58516465772821369 0.11653801664834119 0 0.54979595918804436 0.1060565713905809 0 0.56202748619534593 0.15054058349222879 0 0.57667858002728545 0.078486105337742612 0 0.58516465772821369 0.11653801664834119 0 0.54979595918804436 0.1060565713905809 0 0.54979595918804436 0.1060565713905809 0 0.51076801031701946 0.1202837388510348 0 0.52375890611712683 0.059318771819432882 0 0.47881186583059909 0.093591717165689425 0 0.51076801031701946 0.1202837388510348 0 0.52375890611712683 0.059318771819432882 0 0.57667858002728545 0.078486105337742612 0 0.54979595918804436 0.1060565713905809 0 0.52375890611712683 0.059318771819432882 0 0.57396793757665954 0.037011367187645222 0 0.52375890611712683 0.059318771819432882 0 0.5499999999988151 0 0 0.57396793757665954 0.037011367187645222 0 0.57667858002728545 0.078486105337742612 0 0.52375890611712683 0.059318771819432882 0 0.49999999999869432 0 0 0.52375890611712683 0.059318771819432882 0 0.5499999999988151 0 0 0.59814117807200873 0.23398510860739519 0 0.59443395090188023 0.18455690917515069 0 0.55306006949600994 0.20198184231352201 0 0.59814117807200873 0.23398510860739519 0 0.55306006949600994 0.20198184231352201 0 0.54248833945060504 0.2520322959927106 0 0.64011864159029941 0.18789607982138171 0 0.59814117807200873 0.23398510860739519 0 0.59443395090188023 0.18455690917515069 0 0.64011864159029941 0.18789607982138171 0 0.59443395090188023 0.18455690917515069 0 0.6236733212988993 0.14864538214901801 0 0.58516465772821369 0.11653801664834119 0 0.6236733212988993 0.14864538214901801 0 0.56202748619534593 0.15054058349222879 0 0.59443395090188023 0.18455690917515069 0 0.6236733212988993 0.14864538214901801 0 0.56202748619534593 0.15054058349222879 0 0.59443395090188023 0.18455690917515069 0 0.56202748619534593 0.15054058349222879 0 0.55306006949600994 0.20198184231352201 0 0.56202748619534593 0.15054058349222879 0 0.51729576145820033 0.1683240575987815 0 0.55306006949600994 0.20198184231352201 0 0.54979595918804436 0.1060565713905809 0 0.51076801031701946 0.1202837388510348 0 0.56202748619534593 0.15054058349222879 0 0.48466639505193998 0.1421439844745814 0 0.51076801031701946 0.1202837388510348 0 0.51729576145820033 0.1683240575987815 0 0.51076801031701946 0.1202837388510348 0 0.56202748619534593 0.15054058349222879 0 0.51729576145820033 0.1683240575987815 0 0.51729576145820033 0.1683240575987815 0 0.50760557329222289 0.20700468884612061 0 0.55306006949600994 0.20198184231352201 0 0.50760557329222289 0.20700468884612061 0 0.55306006949600994 0.20198184231352201 0 0.54248833945060504 0.2520322959927106 0 0.49695729691142171 0.25014895411178018 0 0.50760557329222289 0.20700468884612061 0 0.54248833945060504 0.2520322959927106 0 0.49695729691142171 0.25014895411178018 0 0.5 0.29999999999999999 0 0.54248833945060504 0.2520322959927106 0 0.5 0.29999999999999999 0 0.54999999999999993 0.29999999999999999 0 0.52752007115234678 0.33170632466418198 0 0.5 0.29999999999999999 0 0.54999999999999993 0.29999999999999999 0 0.54248833945060504 0.2520322959927106 0 0.5 0.29999999999999999 0 0.54999999999999993 0.29999999999999999 0 0.54999999999999993 0.29999999999999999 0 0.54248833945060504 0.2520322959927106 0 0.5794309697024993 0.27124795968204829 0 0.59814117807200873 0.23398510860739519 0 0.54248833945060504 0.2520322959927106 0 0.5794309697024993 0.27124795968204829 0 0.54999999999999993 0.29999999999999999 0 0.59999999999999976 0.29999999999999999 0 0.54999999999999993 0.29999999999999999 0 0.5794309697024993 0.27124795968204829 0 0.59999999999999976 0.29999999999999999 0 0.59999999999999976 0.29999999999999999 0 0.6499999999999998 0.29999999999999999 0 0.5794309697024993 0.27124795968204829 0 0.59999999999999976 0.29999999999999999 0 0.62657463266645097 0.26524202571255862 0 0.59814117807200873 0.23398510860739519 0 0.5794309697024993 0.27124795968204829 0 0.62657463266645097 0.26524202571255862 0 0.61959173890754571 0.33832250091341232 0 0.56836770495988642 0.3523062350852913 0 0.6084546825910605 0.37989672713932537 0 0.59999999999999976 0.29999999999999999 0 0.61959173890754571 0.33832250091341232 0 0.6499999999999998 0.29999999999999999 0 0.59999999999999976 0.29999999999999999 0 0.61959173890754571 0.33832250091341232 0 0.56836770495988642 0.3523062350852913 0 0.54999999999999993 0.29999999999999999 0 0.59999999999999976 0.29999999999999999 0 0.56836770495988642 0.3523062350852913 0 0.56836770495988642 0.3523062350852913 0 0.52752007115234678 0.33170632466418198 0 0.52289427570932567 0.3932284363388488 0 0.54999999999999993 0.29999999999999999 0 0.56836770495988642 0.3523062350852913 0 0.52752007115234678 0.33170632466418198 0 0.49077833859261139 0.35229981449445641 0 0.5 0.29999999999999999 0 0.52752007115234678 0.33170632466418198 0 0.49077833859261139 0.35229981449445641 0 0.52752007115234678 0.33170632466418198 0 0.52289427570932567 0.3932284363388488 0 0.56836770495988642 0.3523062350852913 0 0.52289427570932567 0.3932284363388488 0 0.57744073070774993 0.41535148636609359 0 0.52289427570932567 0.3932284363388488 0 0.53823865529665704 0.45873898050322898 0 0.57744073070774993 0.41535148636609359 0 0.48858720058566618 0.43964267759203868 0 0.52289427570932567 0.3932284363388488 0 0.53823865529665704 0.45873898050322898 0 0.49102375406324739 0.49123754822244059 0 0.53330375813596242 0.50827942741749099 0 0.53823865529665704 0.45873898050322898 0 0.49102375406324739 0.49123754822244059 0 0.48858720058566618 0.43964267759203868 0 0.53823865529665704 0.45873898050322898 0 0.53330375813596242 0.50827942741749099 0 0.57611405284611883 0.50165903596042916 0 0.53823865529665704 0.45873898050322898 0 0.57611405284611883 0.50165903596042916 0 0.57975577671020095 0.46172033326338591 0 0.61547661924074692 0.48539576058873962 0 0.57611405284611883 0.50165903596042916 0 0.53823865529665704 0.45873898050322898 0 0.57975577671020095 0.46172033326338591 0 0.57975577671020095 0.46172033326338591 0 0.61209567303293111 0.44669033081290321 0 0.57744073070774993 0.41535148636609359 0 0.53823865529665704 0.45873898050322898 0 0.57975577671020095 0.46172033326338591 0 0.57744073070774993 0.41535148636609359 0 0.57975577671020095 0.46172033326338591 0 0.61209567303293111 0.44669033081290321 0 0.61547661924074692 0.48539576058873962 0 0.56836770495988642 0.3523062350852913 0 0.57744073070774993 0.41535148636609359 0 0.6084546825910605 0.37989672713932537 0 0.61209567303293111 0.44669033081290321 0 0.57744073070774993 0.41535148636609359 0 0.63912439215427275 0.41063340167983359 0 0.57744073070774993 0.41535148636609359 0 0.6084546825910605 0.37989672713932537 0 0.63912439215427275 0.41063340167983359 0 0.6084546825910605 0.37989672713932537 0 0.63912439215427275 0.41063340167983359 0 0.65481233915350323 0.35652751921065562 0 0.63912439215427275 0.41063340167983359 0 0.65178832218679827 0.45929119821019959 0 0.6879972333610942 0.43038561374960838 0 0.63912439215427275 0.41063340167983359 0 0.68128176404677243 0.38629093627004979 0 0.6879972333610942 0.43038561374960838 0 0.63912439215427275 0.41063340167983359 0 0.68128176404677243 0.38629093627004979 0 0.65481233915350323 0.35652751921065562 0 0.61547661924074692 0.48539576058873962 0 0.6541250972820879 0.49999999999999989 0 0.65178832218679827 0.45929119821019959 0 0.61209567303293111 0.44669033081290321 0 0.61547661924074692 0.48539576058873962 0 0.65178832218679827 0.45929119821019959 0 0.61209567303293111 0.44669033081290321 0 0.63912439215427275 0.41063340167983359 0 0.65178832218679827 0.45929119821019959 0 0.65178832218679827 0.45929119821019959 0 0.69385896817107129 0.48377516041410151 0 0.6879972333610942 0.43038561374960838 0 0.6541250972820879 0.49999999999999989 0 0.65178832218679827 0.45929119821019959 0 0.69385896817107129 0.48377516041410151 0 0.7152569930854884 0.5237994455134295 0 0.69385896817107129 0.48377516041410151 0 0.73947346780852752 0.49062440112282169 0 0.69385896817107129 0.48377516041410151 0 0.73483647259922602 0.44789725365921768 0 0.6879972333610942 0.43038561374960838 0 0.69385896817107129 0.48377516041410151 0 0.73483647259922602 0.44789725365921768 0 0.73947346780852752 0.49062440112282169 0 0.68128176404677243 0.38629093627004979 0 0.72622533758026719 0.40265885511101601 0 0.71508799138962864 0.36622814920737751 0 0.73483647259922602 0.44789725365921768 0 0.6879972333610942 0.43038561374960838 0 0.72622533758026719 0.40265885511101601 0 0.68128176404677243 0.38629093627004979 0 0.6879972333610942 0.43038561374960838 0 0.72622533758026719 0.40265885511101601 0 0.77354604466818633 0.40378688774472771 0 0.73483647259922602 0.44789725365921768 0 0.72622533758026719 0.40265885511101601 0 0.72622533758026719 0.40265885511101601 0 0.74764719760526988 0.3719647154012321 0 0.71508799138962864 0.36622814920737751 0 0.77354604466818633 0.40378688774472771 0 0.72622533758026719 0.40265885511101601 0 0.74764719760526988 0.3719647154012321 0 0.74764719760526988 0.3719647154012321 0 0.71508799138962864 0.36622814920737751 0 0.73090396928863699 0.33699297293167962 0 0.71508799138962864 0.36622814920737751 0 0.68887083591306764 0.33632058575757479 0 0.73090396928863699 0.33699297293167962 0 0.68128176404677243 0.38629093627004979 0 0.71508799138962864 0.36622814920737751 0 0.68887083591306764 0.33632058575757479 0 0.68887083591306764 0.33632058575757479 0 0.73090396928863699 0.33699297293167962 0 0.69999999999999984 0.29999999999999999 0 0.72500000000000064 0.2498161764706 0 0.74999999999999989 0.29999999999999999 0 0.69999999999999984 0.29999999999999999 0 0.74999999999999989 0.29999999999999999 0 0.69999999999999984 0.29999999999999999 0 0.73090396928863699 0.33699297293167962 0 0.74999999999999989 0.29999999999999999 0 0.69999999999999984 0.29999999999999999 0 0.77075983436335049 0.25919399014334171 0 0.72500000000000064 0.2498161764706 0 0.74999999999999989 0.29999999999999999 0 0.72500000000000064 0.2498161764706 0 0.69999999999999984 0.29999999999999999 0 0.67933712972090698 0.25920070958121938 0 0.69999999999999984 0.29999999999999999 0 0.67933712972090698 0.25920070958121938 0 0.6499999999999998 0.29999999999999999 0 0.68887083591306764 0.33632058575757479 0 0.69999999999999984 0.29999999999999999 0 0.6499999999999998 0.29999999999999999 0 0.69999999999999984 0.29999999999999999 0 0.6499999999999998 0.29999999999999999 0 0.67933712972090698 0.25920070958121938 0 0.62657463266645097 0.26524202571255862 0 0.6499999999999998 0.29999999999999999 0 0.65394964615507722 0.22666784374016369 0 0.67933712972090698 0.25920070958121938 0 0.62657463266645097 0.26524202571255862 0 0.59999999999999976 0.29999999999999999 0 0.62657463266645097 0.26524202571255862 0 0.6499999999999998 0.29999999999999999 0 0.61959173890754571 0.33832250091341232 0 0.6499999999999998 0.29999999999999999 0 0.65481233915350323 0.35652751921065562 0 0.61959173890754571 0.33832250091341232 0 0.6084546825910605 0.37989672713932537 0 0.65481233915350323 0.35652751921065562 0 0.68128176404677243 0.38629093627004979 0 0.68887083591306764 0.33632058575757479 0 0.65481233915350323 0.35652751921065562 0 0.68887083591306764 0.33632058575757479 0 0.6499999999999998 0.29999999999999999 0 0.65481233915350323 0.35652751921065562 0 
</DataArray>
</Points>
<Cells>
<DataArray type="UInt32" Name="connectivity" format="ascii">
0 1 2 3 4 5 6 7 8 9 10 11 12 13 14 15 16 17 18 19 20 21 22 23 24 25 26 27 28 29 30 31 32 33 34 35 36 37 38 39 40 41 42 43 44 45 46 47 48 49 50 51 52 53 54 55 56 57 58 59 60 61 62 63 64 65 66 67 68 69 70 71 72 73 74 75 76 77 78 79 80 81 82 83 84 85 86 87 88 89 90 91 92 93 94 95 96 97 98 99 100 101 102 103 104 105 106 107 108 109 110 111 112 113 114 115 116 117 118 119 120 121 122 123 124 125 126 127 128 129 130 131 132 133 134 135 136 137 138 139 140 141 142 143 144 145 146 147 148 149 150 151 152 153 154 155 156 157 158 159 160 161 162 163 164 165 166 167 168 169 170 171 172 173 174 175 176 177 178 179 180 181 182 183 184 185 186 187 188 189 190 191 192 193 194 195 196 197 198 199 200 201 202 203 204 205 206 207 208 209 210 211 212 213 214 215 216 217 218 219 220 221 222 223 224 225 226 227 228 229 230 231 232 233 234 235 236 237 238 239 240 241 242 243 244 245 246 247 248 249 250 251 252 253 254 255 256 257 258 259 260 261 262 263 264 265 266 267 268 269 270 271 272 273 274 275 276 277 278 279 280 281 282 283 284 285 286 287 288 289 290 291 292 293 294 295 296 297 298 299 300 301 302 303 304 305 306 307 308 309 310 311 312 313 314 315 316 317 318 319 320 321 322 323 324 325 326 327 328 329 330 331 332 333 334 335 336 337 338 339 340 341 342 343 344 345 346 347 348 349 350 351 352 353 354 355 356 357 358 359 360 361 362 363 364 365 366 367 368 369 370 371 372 373 374 375 376 377 378 379 380 381 382 383 384 385 386 387 388 389 390 391 392 393 394 395 396 397 398 399 400 401 402 403 404 405 406 407 408 409 410 411 412 413 414 415 416 417 418 419 420 421 422 423 424 425 426 427 428 429 430 431 432 433 434 435 436 437 438 439 440 441 442 443 444 445 446 447 448 449 450 451 452 453 454 455 456 457 458 459 460 461 462 463 464 465 466 467 468 469 470 471 472 473 474 475 476 477 478 479 480 481 482 483 484 485 486 487 488 489 490 491 492 493 494 495 496 497 498 499 500 501 502 503 504 505 506 507 508 509 510 511 512 513 514 515 516 517 518 519 520 521 522 523 524 525 526 527 528 529 530 531 532 533 534 535 536 537 538 539 540 541 542 543 544 545 546 547 548 549 550 551 552 553 554 555 556 557 558 559 560 561 562 563 564 565 566 567 568 569 570 571 572 573 574 575 576 577 578 579 580 581 582 583 584 585 586 587 588 589 590 591 592 593 594 595 596 597 598 599 600 601 602 603 604 605 606 607 608 609 610 611 612 613 614 615 616 617 618 619 620 621 622 623 624 625 626 627 628 629 630 631 632 633 634 635 636 637 638 639 640 641 642 643 644 645 646 647 648 649 650 651 652 653 654 655 656 657 658 659 660 661 662 663 664 665 666 667 668 669 670 671 672 673 674 675 676 677 678 679 680 681 682 683 684 685 686 687 688 689 690 691 692 693 694 695 696 697 698 699 700 701 702 703 704 705 706 707 708 709 710 711 712 713 714 715 716 717 718 719 720 721 722 723 724 725 726 727 728 729 730 731 732 733 734 735 736 737 738 739 740 741 742 743 744 745 746 747 748 749 750 751 752 753 754 755 756 757 758 759 760 761 762 763 764 765 766 767 768 769 770 771 772 773 774 775 776 777 778 779 780 781 782 783 784 785 786 787 788 789 790 791 792 793 794 795 796 797 798 799 800 801 802 803 804 805 806 807 808 809 810 811 812 813 814 815 816 817 818 819 820 821 822 823 824 825 826 827 828 829 830 831 832 833 834 835 836 837 838 839 840 841 842 843 844 845 846 847 848 849 850 851 852 853 854 855 856 857 858 859 860 861 862 863 864 865 866 867 868 869 870 871 872 873 874 875 876 877 878 879 880 881 882 883 884 885 886 887 888 889 890 891 892 893 894 895 896 897 898 899 900 901 902 903 904 905 906 907 908 909 910 911 912 913 914 915 916 917 918 919 920 921 922 923 924 925 926 927 928 929 930 931 932 933 934 935 936 937 938 939 940 941 942 943 944 945 946 947 948 949 950 951 952 953 954 955 956 957 958 959 960 961 962 963 964 965 966 967 968 969 970 971 972 973 974 975 976 977 978 979 980 981 982 983 984 985 986 987 988 989 990 991 992 993 994 995 996 997 998 999 1000 1001 1002 1003 1004 1005 1006 1007 1008 1009 1010 1011 1012 1013 1014 1015 1016 1017 1018 1019 1020 1021 1022 1023 1024 1025 1026 1027 1028 1029 1030 1031 1032 1033 1034 1035 1036 1037 1038 1039 1040 1041 1042 1043 1044 1045 1046 1047 1048 1049 1050 1051 1052 1053 1054 1055 1056 1057 1058 1059 1060 1061 1062 1063 1064 1065 1066 1067 1068 1069 1070 1071 1072 1073 1074 1075 1076 1077 1078 1079 1080 1081 1082 1083 1084 1085 1086 1087 1088 1089 1090 1091 1092 1093 1094 1095 1096 1097 1098 1099 1100 1101 1102 1103 1104 1105 1106 1107 1108 1109 1110 1111 1112 1113 1114 1115 1116 1117 1118 1119 1120 1121 1122 1123 1124 1125 1126 1127 1128 1129 1130 1131 1132 1133 1134 1135 1136 1137 1138 1139 1140 1141 1142 1143 1144 1145 1146 1147 1148 1149 1150 1151 1152 1153 1154 1155 1156 1157 1158 1159 1160 1161 1162 1163 1164 1165 1166 1167 1168 1169 1170 1171 1172 1173 1174 1175 1176 1177 1178 1179 1180 1181 1182 1183 1184 1185 1186 1187 1188 1189 1190 1191 1192 1193 1194 1195 1196 1197 1198 1199 1200 1201 1202 1203 1204 1205 1206 1207 1208 1209 1210 1211 1212 1213 1214 1215 1216 1217 1218 1219 1220 1221 1222 1223 1224 1225 1226 1227 1228 1229 1230 1231 1232 1233 1234 1235 1236 1237 1238 1239 1240 1241 1242 1243 1244 1245 1246 1247 1248 1249 1250 1251 1252 1253 1254 1255 1256 1257 1258 1259 1260 1261 1262 1263 1264 1265 1266 1267 1268 1269 1270 1271 1272 1273 1274 1275 1276 1277 1278 1279 1280 1281 1282 1283 1284 1285 1286 1287 1288 1289 1290 1291 1292 1293 1294 1295 1296 1297 1298 1299 1300 1301 1302 1303 1304 1305 1306 1307 1308 1309 1310 1311 1312 1313 1314 1315 1316 1317 1318 1319 1320 1321 1322 1323 1324 1325 1326 1327 1328 1329 1330 1331 1332 1333 1334 1335 1336 1337 1338 1339 1340 1341 1342 1343 1344 1345 1346 1347 1348 1349 1350 1351 1352 1353 1354 1355 1356 1357 1358 1359 1360 1361 1362 1363 1364 1365 1366 1367 1368 1369 1370 1371 1372 1373 1374 1375 1376 1377 1378 1379 1380 1381 1382 1383 1384 1385 1386 1387 1388 1389 1390 1391 1392 1393 1394 1395 1396 1397 1398 1399 1400 1401 1402 1403 1404 1405 1406 1407 1408 1409 1410 1411 1412 1413 1414 1415 1416 1417 1418 1419 1420 1421 1422 1423 1424 1425 1426 1427 1428 1429 1430 1431 1432 1433 1434 1435 1436 1437 1438 1439 1440 1441 1442 1443 1444 1445 1446 1447 1448 1449 1450 1451 1452 1453 1454 1455 1456 1457 1458 1459 1460 1461 1462 1463 1464 1465 1466 1467 1468 1469 1470 1471 1472 1473 1474 1475 1476 1477 1478 1479 1480 1481 1482 1483 1484 1485 1486 1487 1488 1489 1490 1491 1492 1493 1494 1495 1496 1497 1498 1499 1500 1501 1502 1503 1504 1505 1506 1507 1508 1509 1510 1511 1512 1513 1514 1515 1516 1517 1518 1519 1520 1521 1522 1523 1524 1525 1526 1527 1528 1529 1530 1531 1532 1533 1534 1535 1536 1537 1538 1539 1540 1541 1542 1543 1544 1545 1546 1547 1548 1549 1550 1551 1552 1553 1554 1555 1556 1557 1558 1559 1560 1561 1562 1563 1564 1565 1566 1567 1568 1569 1570 1571 1572 1573 1574 1575 1576 1577 1578 1579 1580 1581 1582 1583 1584 1585 1586 1587 1588 1589 1590 1591 1592 1593 1594 1595 1596 1597 1598 1599 1600 1601 1602 1603 1604 1605 1606 1607 1608 1609 1610 1611 1612 1613 1614 1615 1616 1617 1618 1619 1620 1621 1622 1623 1624 1625 1626 1627 1628 1629 1630 1631 1632 1633 1634 1635 1636 1637 1638 1639 1640 1641 1642 1643 1644 1645 1646 1647 1648 1649 1650 1651 1652 1653 1654 1655 1656 1657 1658 1659 1660 1661 1662 1663 1664 1665 1666 1667 1668 1669 1670 1671 1672 1673 1674 1675 1676 1677 1678 1679 1680 1681 1682 1683 1684 1685 1686 1687 1688 1689 1690 1691 1692 1693 1694 1695 1696 1697 1698 1699 1700 1701 1702 1703 1704 1705 1706 1707 1708 1709 1710 1711 1712 1713 1714 1715 1716 1717 1718 1719 1720 1721 1722 1723 1724 1725 1726 1727 1728 1729 1730 1731 1732 1733 1734 1735 1736 1737 1738 1739 1740 1741 1742 1743 1744 1745 1746 1747 1748 1749 1750 1751 1752 1753 1754 1755 1756 1757 1758 1759 1760 1761 1762 1763 1764 1765 1766 1767 1768 1769 1770 1771 1772 1773 1774 1775 1776 1777 1778 1779 1780 1781 1782 1783 1784 1785 1786 1787 1788 1789 1790 1791 1792 1793 1794 1795 1796 1797 1798 1799 1800 1801 1802 1803 1804 1805 1806 1807 1808 1809 1810 1811 1812 1813 1814 1815 1816 1817 1818 1819 1820 1821 1822 1823 1824 1825 1826 1827 1828 1829 1830 1831 1832 1833 1834 1835 1836 1837 1838 1839 1840 1841 1842 1843 1844 1845 1846 1847 1848 1849 1850 1851 1852 1853 1854 1855 1856 1857 1858 1859 1860 1861 1862 1863 1864 1865 1866 1867 1868 1869 1870 1871 1872 1873 1874 1875 1876 1877 1878 1879 1880 1881 1882 1883 1884 1885 1886 1887 1888 1889 1890 1891 1892 1893 1894 1895 1896 1897 1898 1899 1900 1901 1902 1903 1904 1905 1906 1907 1908 1909 1910 1911 1912 1913 1914 1915 1916 1917 1918 1919 1920 1921 1922 1923 1924 1925 1926 1927 1928 1929 1930 1931 1932 1933 1934 1935 1936 1937 1938 1939 1940 1941 1942 1943 1944 1945 1946 1947 1948 1949 1950 1951 1952 1953 1954 1955 1956 1957 1958 1959 1960 1961 1962 1963 1964 1965 1966 1967 1968 1969 1970 1971 1972 1973 1974 1975 1976 1977 1978 1979 1980 1981 1982 1983 1984 1985 1986 1987 1988 1989 1990 1991 1992 1993 1994 1995 1996 1997 1998 1999 2000 2001 2002 2003 2004 2005 2006 2007 2008 2009 2010 2011 2012 2013 2014 2015 2016 2017 2018 2019 2020 2021 2022 2023 2024 2025 2026 2027 2028 2029 2030 2031 2032 2033 2034 2035 2036 2037 2038 2039 2040 2041 2042 2043 2044 2045 2046 2047 2048 2049 2050 2051 2052 2053 2054 2055 2056 2057 2058 2059 2060 2061 2062 2063 2064 2065 2066 2067 2068 2069 2070 2071 2072 2073 2074 2075 2076 2077 2078 2079 2080 2081 2082 2083 2084 2085 2086 2087 2088 2089 2090 2091 2092 2093 2094 2095 2096 2097 2098 2099 2100 2101 2102 2103 2104 2105 2106 2107 2108 2109 2110 2111 2112 2113 2114 2115 2116 2117 2118 2119 2120 2121 2122 2123 2124 2125 2126 2127 2128 2129 2130 2131 2132 2133 2134 2135 2136 2137 2138 2139 2140 2141 2142 2143 2144 2145 2146 2147 2148 2149 2150 2151 2152 2153 2154 2155 2156 2157 2158 2159 2160 2161 2162 2163 2164 2165 2166 2167 2168 2169 2170 2171 2172 2173 2174 2175 2176 2177 2178 2179 2180 2181 2182 2183 2184 2185 2186 2187 2188 2189 2190 2191 2192 2193 2194 2195 2196 2197 2198 2199 2200 2201 2202 2203 2204 2205 2206 2207 2208 2209 2210 2211 2212 2213 2214 2215 2216 2217 2218 2219 2220 2221 2222 2223 2224 2225 2226 2227 2228 2229 2230 2231 2232 2233 2234 2235 2236 2237 2238 2239 2240 2241 2242 2243 2244 2245 2246 2247 2248 2249 2250 2251 2252 2253 2254 2255 2256 2257 2258 2259 2260 2261 2262 2263 2264 2265 2266 2267 2268 2269 2270 2271 2272 2273 2274 2275 2276 2277 2278 2279 2280 2281 2282 2283 2284 2285 2286 2287 2288 2289 2290 2291 2292 2293 2294 2295 2296 2297 2298 2299 2300 2301 2302 2303 2304 2305 2306 2307 2308 2309 2310 2311 2312 2313 2314 2315 2316 2317 2318 2319 2320 2321 2322 2323 2324 2325 2326 2327 2328 2329 2330 2331 2332 2333 2334 2335 2336 2337 2338 2339 2340 2341 2342 2343 2344 2345 2346 2347 2348 2349 2350 2351 2352 2353 2354 2355 2356 2357 2358 2359 2360 2361 2362 2363 2364 2365 2366 2367 2368 2369 2370 2371 2372 2373 2374 2375 2376 2377 2378 2379 2380 2381 2382 2383 2384 2385 2386 2387 2388 2389 2390 2391 2392 2393 2394 2395 2396 2397 2398 2399 2400 2401 2402 2403 2404 2405 2406 2407 2408 2409 2410 2411 2412 2413 2414 2415 2416 2417 2418 2419 2420 2421 2422 2423 2424 2425 2426 2427 2428 2429 2430 2431 2432 2433 2434 2435 2436 2437 2438 2439 2440 2441 2442 2443 2444 2445 2446 2447 2448 2449 2450 2451 2452 2453 2454 2455 2456 2457 2458 2459 2460 2461 2462 2463 2464 2465 2466 2467 2468 2469 2470 2471 2472 2473 2474 2475 2476 2477 2478 2479 2480 2481 2482 2483 2484 2485 2486 2487 2488 2489 2490 2491 2492 2493 2494 2495 2496 2497 2498 2499 2500 2501 2502 2503 2504 2505 2506 2507 2508 2509 2510 2511 2512 2513 2514 2515 2516 2517 2518 2519 2520 2521 2522 2523 2524 2525 2526 2527 2528 2529 2530 2531 2532 2533 2534 2535 2536 2537 2538 2539 2540 2541 2542 2543 2544 2545 2546 2547 2548 2549 2550 2551 2552 2553 2554 2555 2556 2557 2558 2559 2560 2561 2562 2563 2564 2565 2566 2567 2568 2569 2570 2571 2572 2573 2574 2575 2576 2577 2578 2579 2580 2581 2582 2583 2584 2585 2586 2587 2588 2589 2590 2591 2592 2593 2594 2595 2596 2597 2598 2599 2600 2601 2602 2603 2604 2605 2606 2607 2608 2609 2610 2611 2612 2613 2614 2615 2616 2617 2618 2619 2620 2621 2622 2623 2624 2625 2626 2627 2628 2629 2630 2631 2632 2633 2634 2635 2636 2637 2638 2639 2640 2641 2642 2643 2644 2645 2646 2647 2648 2649 2650 2651 2652 2653 2654 2655 2656 2657 2658 2659 2660 2661 2662 2663 2664 2665 2666 2667 2668 2669 2670 2671 2672 2673 2674 2675 2676 2677 2678 2679 2680 2681 2682 2683 2684 2685 2686 2687 2688 2689 2690 2691 2692 2693 2694 2695 2696 2697 2698 2699 2700 2701 2702 2703 2704 2705 2706 2707 2708 2709 2710 2711 2712 2713 2714 2715 2716 2717 2718 2719 2720 2721 2722 2723 2724 2725 2726 2727 2728 2729 2730 2731 2732 2733 2734 2735 2736 2737 2738 2739 2740 2741 2742 2743 2744 2745 2746 2747 2748 2749 2750 2751 2752 2753 2754 2755 2756 2757 2758 2759 2760 2761 2762 2763 2764 2765 2766 2767 2768 2769 2770 2771 2772 2773 2774 2775 2776 2777 2778 2779 2780 2781 2782 2783 2784 2785 2786 2787 2788 2789 2790 2791 2792 2793 2794 2795 2796 2797 2798 2799 2800 2801 2802 2803 2804 2805 2806 2807 2808 2809 2810 2811 2812 2813 2814 2815 2816 2817 2818 2819 2820 2821 2822 2823 2824 2825 2826 2827 2828 2829 2830 2831 2832 2833 2834 2835 2836 2837 2838 2839 2840 2841 2842 2843 2844 2845 2846 2847 2848 2849 2850 2851 2852 2853 2854 2855 2856 2857 2858 2859 2860 2861 2862 2863 2864 2865 2866 2867 2868 2869 2870 2871 2872 2873 2874 2875 2876 2877 2878 2879 2880 2881 2882 2883 2884 2885 2886 2887 2888 2889 2890 2891 2892 2893 2894 2895 2896 2897 2898 2899 2900 2901 2902 2903 2904 2905 2906 2907 2908 2909 2910 2911 2912 2913 2914 2915 2916 2917 2918 2919 2920 2921 2922 2923 2924 2925 2926 2927 2928 2929 2930 2931 2932 2933 2934 2935 2936 2937 2938 2939 2940 2941 2942 2943 2944 2945 2946 2947 2948 2949 2950 2951 2952 2953 2954 2955 2956 2957 2958 2959 2960 2961 2962 2963 2964 2965 2966 2967 2968 2969 2970 2971 2972 2973 2974 2975 2976 2977 2978 2979 2980 2981 2982 2983 2984 2985 2986 2987 2988 2989 2990 2991 2992 2993 2994 2995 2996 2997 2998 2999 3000 3001 3002 3003 3004 3005 3006 3007 3008 3009 3010 3011 3012 3013 3014 3015 3016 3017 3018 3019 3020 3021 3022 3023 3024 3025 3026 3027 3028 3029 3030 3031 3032 3033 3034 3035 3036 3037 3038 3039 3040 3041 3042 3043 3044 3045 3046 3047 3048 3049 3050 3051 3052 3053 3054 3055 3056 3057 3058 3059 3060 3061 3062 3063 3064 3065 3066 3067 3068 3069 3070 3071 3072 3073 3074 3075 3076 3077 3078 3079 3080 3081 3082 3083 3084 3085 3086 3087 3088 3089 3090 3091 3092 3093 3094 3095 3096 3097 3098 3099 3100 3101 3102 3103 3104 3105 3106 3107 3108 3109 3110 3111 3112 3113 3114 3115 3116 3117 3118 3119 3120 3121 3122 3123 3124 3125 3126 3127 3128 3129 3130 3131 3132 3133 3134 3135 3136 3137 3138 3139 3140 3141 
</DataArray>
<DataArray type="UInt32" Name="offsets" format="ascii">
3 6 9 12 15 18 21 24 27 30 33 36 39 42 45 48 51 54 57 60 63 66 69 72 75 78 81 84 87 90 93 96 99 102 105 108 111 114 117 120 123 126 129 132 135 138 141 144 147 150 153 156 159 162 165 168 171 174 177 180 183 186 189 192 195 198 201 204 207 210 213 216 219 222 225 228 231 234 237 240 243 246 249 252 255 258 261 264 267 270 273 276 279 282 285 288 291 294 297 300 303 306 309 312 315 318 321 324 327 330 333 336 339 342 345 348 351 354 357 360 363 366 369 372 375 378 381 384 387 390 393 396 399 402 405 408 411 414 417 420 423 426 429 432 435 438 441 444 447 450 453 456 459 462 465 468 471 474 477 480 483 486 489 492 495 498 501 504 507 510 513 516 519 522 525 528 531 534 537 540 543 546 549 552 555 558 561 564 567 570 573 576 579 582 585 588 591 594 597 600 603 606 609 612 615 618 621 624 627 630 633 636 639 642 645 648 651 654 657 660 663 666 669 672 675 678 681 684 687 690 693 696 699 702 705 708 711 714 717 720 723 726 729 732 735 738 741 744 747 750 753 756 759 762 765 768 771 774 777 780 783 786 789 792 795 798 801 804 807 810 813 816 819 822 825 828 831 834 837 840 843 846 849 852 855 858 861 864 867 870 873 876 879 882 885 888 891 894 897 900 903 906 909 912 915 918 921 924 927 930 933 936 939 942 945 948 951 954 957 960 963 966 969 972 975 978 981 984 987 990 993 996 999 1002 1005 1008 1011 1014 1017 1020 1023 1026 1029 1032 1035 1038 1041 1044 1047 1050 1053 1056 1059 1062 1065 1068 1071 1074 1077 1080 1083 1086 1089 1092 1095 1098 1101 1104 1107 1110 1113 1116 1119 1122 1125 1128 1131 1134 1137 1140 1143 1146 1149 1152 1155 1158 1161 1164 1167 1170 1173 1176 1179 1182 1185 1188 1191 1194 1197 1200 1203 1206 1209 1212 1215 1218 1221 1224 1227 1230 1233 1236 1239 1242 1245 1248 1251 1254 1257 1260 1263 1266 1269 1272 1275 1278 1281 1284 1287 1290 1293 1296 1299 1302 1305 1308 1311 1314 1317 1320 1323 1326 1329 1332 1335 1338 1341 1344 1347 1350 1353 1356 1359 1362 1365 1368 1371 1374 1377 1380 1383 1386 1389 1392 1395 1398 1401 1404 1407 1410 1413 1416 1419 1422 1425 1428 1431 1434 1437 1440 1443 1446 1449 1452 1455 1458 1461 1464 1467 1470 1473 1476 1479 1482 1485 1488 1491 1494 1497 1500 1503 1506 1509 1512 1515 1518 1521 1524 1527 1530 1533 1536 1539 1542 1545 1548 1551 1554 1557 1560 1563 1566 1569 1572 1575 1578 1581 1584 1587 1590 1593 1596 1599 1602 1605 1608 1611 1614 1616 1619 1622 1624 1627 1630 1632 1635 1638 1641 1644 1647 1650 1653 1656 1659 1662 1665 1668 1671 1673 1676 1679 1682 1685 1688 1690 1693 1696 1699 1702 1705 1708 1711 1714 1717 1720 1723 1726 1729 1732 1735 1738 1741 1744 1747 1750 1753 1756 1759 1762 1765 1768 1771 1774 1777 1780 1783 1786 1789 1792 1795 1798 1801 1804 1807 1810 1813 1816 1819 1822 1825 1828 1831 1834 1837 1840 1843 1846 1849 1852 1855 1858 1861 1864 1867 1870 1873 1876 1879 1882 1885 1888 1891 1894 1897 1900 1903 1906 1909 1912 1915 1918 1921 1924 1927 1930 1933 1936 1939 1942 1945 1948 1951 1954 1957 1960 1963 1966 1969 1972 1975 1978 1981 1984 1987 1990 1993 1996 1999 2002 2005 2008 2011 2014 2017 2020 2023 2026 2029 2032 2035 2038 2041 2044 2047 2050 2053 2056 2059 2062 2065 2068 2071 2074 2077 2080 2083 2086 2089 2092 2095 2098 2101 2104 2107 2110 2113 2116 2119 2122 2125 2128 2131 2134 2137 2140 2143 2146 2149 2152 2155 2158 2161 2164 2167 2170 2173 2176 2179 2182 2185 2188 2191 2194 2196 2199 2202 2205 2207 2210 2213 2215 2218 2221 2224 2227 2230 2233 2236 2239 2242 2245 2248 2250 2253 2256 2259 2262 2264 2267 2270 2273 2276 2279 2282 2285 2288 2291 2294 2297 2300 2303 2306 2309 2312 2315 2318 2321 2324 2327 2330 2333 2336 2339 2342 2345 2348 2351 2354 2357 2360 2363 2366 2369 2372 2375 2378 2381 2384 2387 2390 2393 2396 2399 2402 2405 2408 2411 2414 2417 2420 2423 2426 2429 2432 2435 2438 2440 2443 2446 2449 2452 2455 2458 2461 2464 2467 2470 2473 2476 2479 2482 2484 2487 2490 2492 2495 2497 2500 2503 2506 2509 2512 2515 2518 2521 2524 2527 2530 2533 2536 2538 2541 2544 2547 2550 2553 2556 2559 2562 2565 2568 2571 2574 2577 2580 2583 2586 2589 2592 2595 2598 2601 2604 2607 2610 2613 2616 2619 2622 2625 2628 2631 2634 2637 2640 2643 2646 2649 2652 2655 2658 2661 2664 2667 2670 2673 2676 2679 2682 2685 2688 2691 2694 2697 2700 2703 2706 2709 2712 2715 2718 2721 2724 2727 2730 2733 2736 2739 2742 2745 2748 2751 2754 2757 2760 2763 2766 2769 2772 2775 2778 2781 2784 2787 2790 2793 2796 2799 2802 2805 2808 2811 2814 2817 2820 2823 2826 2829 2832 2835 2838 2841 2844 2847 2850 2853 2856 2859 2862 2865 2868 2871 2874 2877 2880 2883 2886 2889 2892 2895 2898 2901 2904 2907 2910 2913 2916 2919 2922 2925 2928 2931 2934 2937 2940 2943 2946 2948 2951 2954 2956 2959 2961 2964 2967 2970 2973 2976 2979 2982 2985 2988 2991 2994 2997 3000 3003 3006 3009 3012 3015 3018 3021 3024 3027 3030 3033 3036 3039 3042 3045 3048 3051 3054 3057 3060 3063 3066 3069 3072 3075 3078 3081 3084 3087 3090 3093 3096 3099 3102 3104 3107 3110 3113 3116 3119 3121 3124 3127 3130 3133 3136 3139 3142 
</DataArray>
<DataArray type="UInt32" Name="types" format="ascii">
5 5 5 5 5 5 5 5 5 5 5 5 5 5 5 5 5 5 5 5 5 5 5 5 5 5 5 5 5 5 5 5 5 5 5 5 5 5 5 5 5 5 5 5 5 5 5 5 5 5 5 5 5 5 5 5 5 5 5 5 5 5 5 5 5 5 5 5 5 5 5 5 5 5 5 5 5 5 5 5 5 5 5 5 5 5 5 5 5 5 5 5 5 5 5 5 5 5 5 5 5 5 5 5 5 5 5 5 5 5 5 5 5 5 5 5 5 5 5 5 5 5 5 5 5 5 5 5 5 5 5 5 5 5 5 5 5 5 5 5 5 5 5 5 5 5 5 5 5 5 5 5 5 5 5 5 5 5 5 5 5 5 5 5 5 5 5 5 5 5 5 5 5 5 5 5 5 5 5 5 5 5 5 5 5 5 5 5 5 5 5 5 5 5 5 5 5 5 5 5 5 5 5 5 5 5 5 5 5 5 5 5 5 5 5 5 5 5 5 5 5 5 5 5 5 5 5 5 5 5 5 5 5 5 5 5 5 5 5 5 5 5 5 5 5 5 5 5 5 5 5 5 5 5 5 5 5 5 5 5 5 5 5 5 5 5 5 5 5 5 5 5 5 5 5 5 5 5 5 5 5 5 5 5 5 5 5 5 5 5 5 5 5 5 5 5 5 5 5 5 5 5 5 5 5 5 5 5 5 5 5 5 5 5 5 5 5 5 5 5 5 5 5 5 5 5 5 5 5 5 5 5 5 5 5 5 5 5 5 5 5 5 5 5 5 5 5 5 5 5 5 5 5 5 5 5 5 5 5 5 5 5 5 5 5 5 5 5 5 5 5 5 5 5 5 5 5 5 5 5 5 5 5 5 5 5 5 5 5 5 5 5 5 5 5 5 5 5 5 5 5 5 5 5 5 5 5 5 5 5 5 5 5 5 5 5 5 5 5 5 5 5 5 5 5 5 5 5 5 5 5 5 5 5 5 5 5 5 5 5 5 5 5 5 5 5 5 5 5 5 5 5 5 5 5 5 5 5 5 5 5 5 5 5 5 5 5 5 5 5 5 5 5 5 5 5 5 5 5 5 5 5 5 5 5 5 5 5 5 5 5 5 5 5 5 5 5 5 5 5 5 5 5 5 5 5 5 5 5 5 5 5 5 5 5 5 5 5 5 5 5 5 5 5 5 5 5 5 5 5 5 5 5 5 5 5 5 5 3 5 5 3 5 5 3 5 5 5 5 5 5 5 5 5 5 5 5 5 3 5 5 5 5 5 3 5 5 5 5 5 5 5 5 5 5 5 5 5 5 5 5 5 5 5 5 5 5 5 5 5 5 5 5 5 5 5 5 5 5 5 5 5 5 5 5 5 5 5 5 5 5 5 5 5 5 5 5 5 5 5 5 5 5 5 5 5 5 5 5 5 5 5 5 5 5 5 5 5 5 5 5 5 5 5 5 5 5 5 5 5 5 5 5 5 5 5 5 5 5 5 5 5 5 5 5 5 5 5 5 5 5 5 5 5 5 5 5 5 5 5 5 5 5 5 5 5 5 5 5 5 5 5 5 5 5 5 5 5 5 5 5 5 5 5 5 5 5 5 5 5 5 5 5 5 5 5 5 5 5 5 5 5 5 5 5 5 5 5 5 5 5 5 5 3 5 5 5 3 5 5 3 5 5 5 5 5 5 5 5 5 5 5 3 5 5 5 5 3 5 5 5 5 5 5 5 5 5 5 5 5 5 5 5 5 5 5 5 5 5 5 5 5 5 5 5 5 5 5 5 5 5 5 5 5 5 5 5 5 5 5 5 5 5 5 5 5 5 5 5 5 5 5 5 5 5 5 3 5 5 5 5 5 5 5 5 5 5 5 5 5 5 3 5 5 3 5 3 5 5 5 5 5 5 5 5 5 5 5 5 5 3 5 5 5 5 5 5 5 5 5 5 5 5 5 5 5 5 5 5 5 5 5 5 5 5 5 5 5 5 5 5 5 5 5 5 5 5 5 5 5 5 5 5 5 5 5 5 5 5 5 5 5 5 5 5 5 5 5 5 5 5 5 5 5 5 5 5 5 5 5 5 5 5 5 5 5 5 5 5 5 5 5 5 5 5 5 5 5 5 5 5 5 5 5 5 5 5 5 5 5 5 5 5 5 5 5 5 5 5 5 5 5 5 5 5 5 5 5 5 5 5 5 5 5 5 5 5 5 5 5 5 5 5 5 5 5 5 3 5 5 3 5 3 5 5 5 5 5 5 5 5 5 5 5 5 5 5 5 5 5 5 5 5 5 5 5 5 5 5 5 5 5 5 5 5 5 5 5 5 5 5 5 5 5 5 5 5 5 5 5 3 5 5 5 5 5 3 5 5 5 5 5 5 5 
</DataArray>
</Cells>
<PointData Scalars="" Vectors="displacement," Tensors="">
<DataArray type="Float64" Name="displacement" NumberOfComponents="3" format="ascii">
-4.1001595577687205e-07 1.380991247681223e-07 0 -7.1816332488262416e-10 -2.9470297900927592e-10 0 -8.748050566032431e-07 9.6543470124534957e-08 0 -4.1001595577687205e-07 1.380991247681223e-07 0 -7.1816332488262282e-10 -2.9470297900927577e-10 0 -7.4997451059437174e-10 2.4418313499187764e-10 0 -4.1001595577687205e-07 1.380991247681223e-07 0 -8.748050566032431e-07 9.6543470124534957e-08 0 -9.5423699146582253e-07 4.8128294668906673e-07 0 -4.1001595577687205e-07 1.380991247681223e-07 0 -9.5423699146582253e-07 4.8128294668906673e-07 0 -7.4997451059437174e-10 2.4418313499187764e-10 0 -7.4997451059437174e-10 2.4418313499187764e-10 0 -7.6234068343054734e-10 1.8621954713455469e-10 0 -6.2231117316843498e-07 6.4508894845882442e-07 0 -7.6234068343054734e-10 1.8621954713455469e-10 0 -6.2231117316843498e-07 6.4508894845882442e-07 0 -4.0914406882173869e-10 4.6760594908427865e-10 0 -9.5423699146582253e-07 4.8128294668906673e-07 0 -6.2231117316843498e-07 6.4508894845882442e-07 0 -1.3581683509541398e-06 1.0098011485284808e-06 0 -9.5423699146582253e-07 4.8128294668906673e-07 0 -7.4997451059437174e-10 2.4418313499187764e-10 0 -6.2231117316843498e-07 6.4508894845882442e-07 0 -6.2231117316843498e-07 6.4508894845882442e-07 0 -1.3581683509541398e-06 1.0098011485284808e-06 0 -7.3583272808824595e-07 1.0716663324787082e-06 0 -1.3581683509541398e-06 1.0098011485284808e-06 0 -7.3583272808824595e-07 1.0716663324787082e-06 0 -1.4084505865695626e-06 1.414486656777017e-06 0 -1.3581683509541398e-06 1.0098011485284808e-06 0 -2.1066712928137951e-06 1.3521926107287984e-06 0 -1.4084505865695626e-06 1.414486656777017e-06 0 -2.1066712928137951e-06 1.3521926107287984e-06 0 -1.4084505865695626e-06 1.414486656777017e-06 0 -1.7220039554158379e-06 1.7179053330840306e-06 0 -2.1066712928137951e-06 1.3521926107287984e-06 0 -2.0494193818073606e-06 8.4540112520369537e-07 0 -2.9752474429328491e-06 1.1837146415460434e-06 0 -1.3581683509541398e-06 1.0098011485284808e-06 0 -2.1066712928137951e-06 1.3521926107287984e-06 0 -2.0494193818073606e-06 8.4540112520369537e-07 0 -2.0494193818073606e-06 8.4540112520369537e-07 0 -2.028239718962128e-06 4.4344930980057531e-07 0 -3.4743429123259211e-06 6.4973492949195077e-07 0 -8.748050566032431e-07 9.6543470124534957e-08 0 -9.5423699146582253e-07 4.8128294668906673e-07 0 -2.028239718962128e-06 4.4344930980057531e-07 0 -9.5423699146582253e-07 4.8128294668906673e-07 0 -2.0494193818073606e-06 8.4540112520369537e-07 0 -2.028239718962128e-06 4.4344930980057531e-07 0 -9.5423699146582253e-07 4.8128294668906673e-07 0 -1.3581683509541398e-06 1.0098011485284808e-06 0 -2.0494193818073606e-06 8.4540112520369537e-07 0 -1.1492557088218337e-07 8.8241628937074327e-07 0 -2.6527935782435672e-10 3.50099052346714e-10 0 -2.8151847673456548e-11 4.2413983900466195e-10 0 -1.1492557088218337e-07 8.8241628937074327e-07 0 -2.6527935782435672e-10 3.50099052346714e-10 0 -2.6363910944356463e-07 7.386438312617393e-07 0 -1.1492557088218337e-07 8.8241628937074327e-07 0 -2.6363910944356468e-07 7.386438312617393e-07 0 -4.7451119917107724e-07 1.4028409833665212e-06 0 -2.6363910944356463e-07 7.386438312617393e-07 0 -4.0914406882173869e-10 4.6760594908427865e-10 0 -7.3583272808824595e-07 1.0716663324787082e-06 0 -6.2231117316843498e-07 6.4508894845882442e-07 0 -4.0914406882173869e-10 4.6760594908427865e-10 0 -7.3583272808824595e-07 1.0716663324787082e-06 0 -2.6363910944356463e-07 7.386438312617393e-07 0 -7.3583272808824595e-07 1.0716663324787082e-06 0 -4.7451119917107724e-07 1.4028409833665212e-06 0 -2.6527935782435672e-10 3.50099052346714e-10 0 -2.6363910944356463e-07 7.386438312617393e-07 0 -4.0914406882173869e-10 4.6760594908427865e-10 0 -7.3583272808824595e-07 1.0716663324787082e-06 0 -1.4084505865695626e-06 1.414486656777017e-06 0 -1.0254145655726637e-06 1.5667900830716074e-06 0 -1.4084505865695626e-06 1.414486656777017e-06 0 -1.0254145655726637e-06 1.5667900830716074e-06 0 -1.7220039554158379e-06 1.7179053330840306e-06 0 -7.3583272808824595e-07 1.0716663324787082e-06 0 -1.0254145655726637e-06 1.5667900830716074e-06 0 -4.7451119917107724e-07 1.4028409833665212e-06 0 -4.7451119917107724e-07 1.4028409833665212e-06 0 -6.0281576339401437e-08 1.5683372832894264e-06 0 -7.2552624302346788e-07 1.859815535287255e-06 0 -1.0254145655726637e-06 1.5667900830716074e-06 0 -4.7451119917107724e-07 1.4028409833665212e-06 0 -7.2552624302346788e-07 1.859815535287255e-06 0 -1.1492557088218337e-07 8.8241628937074327e-07 0 -4.7451119917107724e-07 1.4028409833665212e-06 0 -6.0281576339401437e-08 1.5683372832894264e-06 0 -1.1492557088218337e-07 8.8241628937074327e-07 0 -6.0281576339401437e-08 1.5683372832894264e-06 0 1.0404766335178188e-07 9.6476243270496556e-07 0 -6.0281576339401437e-08 1.5683372832894264e-06 0 -1.1868730747975169e-07 1.882976635186756e-06 0 -7.2552624302346788e-07 1.859815535287255e-06 0 -2.9870804514148627e-07 1.9613260626006121e-06 0 -1.186873074797516e-07 1.882976635186756e-06 0 -7.2552624302346788e-07 1.859815535287255e-06 0 -2.9870804514148627e-07 1.9613260626006121e-06 0 -7.2552624302346788e-07 1.859815535287255e-06 0 -1.3106003547421631e-06 1.9034797816148776e-06 0 -1.3106003547421631e-06 1.9034797816148776e-06 0 -1.7220039554158379e-06 1.7179053330840306e-06 0 -2.3921847725916787e-06 1.7214487987322085e-06 0 -1.0254145655726637e-06 1.5667900830716074e-06 0 -7.2552624302346778e-07 1.859815535287255e-06 0 -1.7220039554158379e-06 1.7179053330840306e-06 0 -7.2552624302346788e-07 1.859815535287255e-06 0 -1.3106003547421631e-06 1.9034797816148776e-06 0 -1.7220039554158379e-06 1.7179053330840306e-06 0 -1.7220039554158379e-06 1.7179053330840306e-06 0 -2.3921847725916787e-06 1.7214487987322087e-06 0 -2.7096876525937961e-06 1.5181791219585144e-06 0 -2.3921847725916787e-06 1.7214487987322085e-06 0 -3.3760196485517755e-06 1.4406516487765797e-06 0 -1.800396038349609e-06 1.7324961127557154e-06 0 -3.3760196485517755e-06 1.4406516487765797e-06 0 -1.800396038349609e-06 1.7324961127557152e-06 0 -2.8364661335551341e-06 1.2860326697901308e-06 0 -1.800396038349609e-06 1.7324961127557154e-06 0 -2.8364661335551341e-06 1.2860326697901306e-06 0 -1.7299597474941401e-06 1.2969202456479871e-06 0 -1.3106003547421631e-06 1.9034797816148776e-06 0 -2.3921847725916787e-06 1.7214487987322085e-06 0 -1.800396038349609e-06 1.7324961127557154e-06 0 -2.9870804514148627e-07 1.9613260626006121e-06 0 -1.3106003547421631e-06 1.9034797816148776e-06 0 -6.9100021484182154e-07 1.7890735559933836e-06 0 -1.3106003547421631e-06 1.9034797816148776e-06 0 -1.800396038349609e-06 1.7324961127557154e-06 0 -6.9100021484182154e-07 1.7890735559933836e-06 0 -1.800396038349609e-06 1.7324961127557154e-06 0 -6.9100021484182154e-07 1.7890735559933836e-06 0 -1.7299597474941401e-06 1.2969202456479871e-06 0 -6.9100021484182154e-07 1.7890735559933836e-06 0 3.2971297891940033e-07 1.5173270472684828e-06 0 4.6878998740053553e-07 1.8655331872448175e-06 0 -2.9870804514148627e-07 1.9613260626006121e-06 0 -6.9100021484182154e-07 1.7890735559933836e-06 0 4.6878998740053553e-07 1.8655331872448175e-06 0 -4.2366229580161545e-06 9.8659747717006988e-07 0 -3.4743429123259211e-06 6.4973492949195077e-07 0 -2.9752474429328491e-06 1.1837146415460434e-06 0 -4.2366229580161545e-06 9.8659747717006988e-07 0 -2.9752474429328491e-06 1.1837146415460434e-06 0 -3.8487043741035897e-06 1.3531850926556953e-06 0 -4.2366229580161545e-06 9.8659747717006988e-07 0 -3.4743429123259211e-06 6.4973492949195077e-07 0 -5.2066499081237748e-06 4.9433860491787395e-07 0 -2.0494193818073606e-06 8.4540112520369537e-07 0 -3.4743429123259211e-06 6.4973492949195077e-07 0 -2.9752474429328491e-06 1.1837146415460434e-06 0 -2.1066712928137951e-06 1.3521926107287984e-06 0 -2.9752474429328491e-06 1.1837146415460434e-06 0 -2.7096876525937961e-06 1.5181791219585144e-06 0 -2.1066712928137951e-06 1.3521926107287984e-06 0 -1.7220039554158379e-06 1.7179053330840306e-06 0 -2.7096876525937961e-06 1.5181791219585144e-06 0 -2.3921847725916787e-06 1.7214487987322085e-06 0 -2.7096876525937961e-06 1.5181791219585144e-06 0 -3.8487043741035897e-06 1.3531850926556953e-06 0 -2.9752474429328491e-06 1.1837146415460434e-06 0 -2.7096876525937961e-06 1.5181791219585144e-06 0 -3.8487043741035897e-06 1.3531850926556953e-06 0 -2.3921847725916787e-06 1.7214487987322085e-06 0 -3.3760196485517755e-06 1.4406516487765797e-06 0 -3.8487043741035897e-06 1.3531850926556953e-06 0 -3.3760196485517755e-06 1.4406516487765797e-06 0 -3.8487043741035897e-06 1.3531850926556953e-06 0 -4.7934572080831597e-06 1.0323372209797947e-06 0 -3.3760196485517755e-06 1.4406516487765797e-06 0 -4.7934572080831597e-06 1.0323372209797947e-06 0 -4.5812236074866942e-06 7.9222039464254721e-07 0 -3.8487043741035897e-06 1.3531850926556953e-06 0 -4.7934572080831597e-06 1.0323372209797947e-06 0 -5.4024416075877934e-06 7.9538356700908648e-07 0 -4.7934572080831597e-06 1.0323372209797947e-06 0 -5.4024416075877934e-06 7.9538356700908648e-07 0 -6.6105208532869322e-06 2.7733309645417866e-07 0 -4.2366229580161545e-06 9.8659747717006988e-07 0 -3.8487043741035897e-06 1.3531850926556953e-06 0 -5.4024416075877934e-06 7.9538356700908648e-07 0 -4.2366229580161545e-06 9.8659747717006988e-07 0 -5.4024416075877934e-06 7.9538356700908648e-07 0 -5.2066499081237748e-06 4.9433860491787395e-07 0 -5.4024416075877934e-06 7.9538356700908648e-07 0 -5.2066499081237748e-06 4.9433860491787405e-07 0 -7.2013934497752262e-06 -5.7417522603021626e-08 0 -7.2013934497752262e-06 -5.7417522603021626e-08 0 -6.6105208532869322e-06 2.7733309645417866e-07 0 -9.3501069309250726e-06 -1.0822102450342881e-06 0 -5.4024416075877934e-06 7.9538356700908648e-07 0 -7.2013934497752262e-06 -5.741752260302164e-08 0 -6.6105208532869322e-06 2.7733309645417866e-07 0 -6.6105208532869322e-06 2.7733309645417866e-07 0 -9.3501069309250726e-06 -1.0822102450342881e-06 0 -8.9016167558252171e-06 -1.089309222095476e-06 0 -9.3501069309250726e-06 -1.0822102450342881e-06 0 -8.9016167558252171e-06 -1.089309222095476e-06 0 -1.187057262733226e-05 -2.6880891996243129e-06 0 -8.9016167558252171e-06 -1.089309222095476e-06 0 -1.0848029433025626e-05 -2.5585713877533427e-06 0 -7.9904411934710558e-06 -1.5646675742857632e-06 0 -1.0848029433025626e-05 -2.5585713877533427e-06 0 -7.9904411934710558e-06 -1.5646675742857632e-06 0 -1.1092381322077758e-05 -3.8702127705030048e-06 0 -8.9016167558252171e-06 -1.089309222095476e-06 0 -1.0848029433025626e-05 -2.5585713877533427e-06 0 -1.187057262733226e-05 -2.6880891996243129e-06 0 -1.0848029433025626e-05 -2.5585713877533427e-06 0 -1.187057262733226e-05 -2.6880891996243129e-06 0 -1.4703657182169774e-05 -4.9680437529802543e-06 0 -7.9904411934710558e-06 -1.5646675742857632e-06 0 -5.1869377258713265e-06 -1.4537017473028334e-06 0 -7.6359524480255564e-06 -3.312543293512274e-06 0 -7.9904411934710558e-06 -1.5646675742857632e-06 0 -5.3589507081240575e-06 -2.4265920808177999e-07 0 -5.1869377258713265e-06 -1.4537017473028334e-06 0 -8.9016167558252171e-06 -1.089309222095476e-06 0 -7.9904411934710558e-06 -1.5646675742857632e-06 0 -6.6947090069926823e-06 -2.3324761288736026e-07 0 -7.9904411934710558e-06 -1.5646675742857632e-06 0 -5.3589507081240575e-06 -2.4265920808177999e-07 0 -6.6947090069926823e-06 -2.3324761288736026e-07 0 -5.3589507081240575e-06 -2.4265920808177999e-07 0 -6.6947090069926823e-06 -2.3324761288736018e-07 0 -4.5812236074866942e-06 7.9222039464254721e-07 0 -6.6105208532869322e-06 2.7733309645417866e-07 0 -8.9016167558252171e-06 -1.089309222095476e-06 0 -6.6947090069926823e-06 -2.3324761288736026e-07 0 -6.6105208532869322e-06 2.7733309645417866e-07 0 -6.6947090069926823e-06 -2.3324761288736015e-07 0 -4.5812236074866942e-06 7.9222039464254721e-07 0 -4.7934572080831597e-06 1.0323372209797947e-06 0 -6.6105208532869322e-06 2.7733309645417866e-07 0 -4.5812236074866942e-06 7.9222039464254721e-07 0 -3.3760196485517755e-06 1.4406516487765797e-06 0 -4.5812236074866942e-06 7.9222039464254721e-07 0 -2.8364661335551341e-06 1.2860326697901308e-06 0 -4.5812236074866942e-06 7.9222039464254721e-07 0 -2.8364661335551341e-06 1.2860326697901308e-06 0 -3.2907645732922832e-06 6.6015460239128752e-07 0 -2.8364661335551341e-06 1.2860326697901308e-06 0 -3.2907645732922832e-06 6.6015460239128752e-07 0 -1.7299597474941401e-06 1.2969202456479871e-06 0 -3.2907645732922832e-06 6.6015460239128752e-07 0 -1.8187571022448013e-06 3.7986726423486757e-07 0 -3.5666323604035811e-06 -2.5737493842012337e-07 0 -3.2907645732922832e-06 6.6015460239128752e-07 0 -1.7299597474941401e-06 1.2969202456479871e-06 0 -1.8187571022448013e-06 3.7986726423486757e-07 0 -5.3589507081240575e-06 -2.4265920808177999e-07 0 -4.5812236074866942e-06 7.9222039464254721e-07 0 -3.2907645732922832e-06 6.6015460239128752e-07 0 -6.9100021484182154e-07 1.7890735559933836e-06 0 -5.1519981596222204e-07 1.1179670039249354e-06 0 3.2971297891940033e-07 1.5173270472684828e-06 0 -6.9100021484182154e-07 1.7890735559933836e-06 0 -5.1519981596222183e-07 1.1179670039249354e-06 0 -1.7299597474941401e-06 1.2969202456479871e-06 0 -5.1519981596222183e-07 1.1179670039249354e-06 0 -1.7299597474941401e-06 1.2969202456479871e-06 0 -1.8187571022448013e-06 3.7986726423486757e-07 0 -5.1519981596222183e-07 1.1179670039249354e-06 0 -1.4317884520698135e-07 -1.6448831554583244e-07 0 8.8911826016024047e-07 9.4874253019011721e-07 0 -5.1519981596222183e-07 1.1179670039249354e-06 0 -1.4317884520698167e-07 -1.6448831554583239e-07 0 -1.8187571022448013e-06 3.7986726423486757e-07 0 -1.4317884520698143e-07 -1.6448831554583241e-07 0 -1.8187571022448013e-06 3.7986726423486757e-07 0 -2.5438736468352192e-06 -9.7139106944538838e-07 0 -1.4317884520698143e-07 -1.6448831554583241e-07 0 -2.5438736468352192e-06 -9.7139106944538838e-07 0 -9.4562726400822385e-07 -2.0261741760947666e-06 0 -1.4317884520698143e-07 -1.6448831554583241e-07 0 -9.4562726400822385e-07 -2.0261741760947666e-06 0 1.3946347987492586e-06 -1.4517767295552242e-06 0 -5.3589507081240575e-06 -2.4265920808177999e-07 0 -3.2907645732922832e-06 6.601546023912873e-07 0 -3.5666323604035811e-06 -2.5737493842012337e-07 0 -5.3589507081240575e-06 -2.4265920808177999e-07 0 -3.5666323604035811e-06 -2.5737493842012337e-07 0 -5.1869377258713265e-06 -1.4537017473028334e-06 0 -1.8187571022448013e-06 3.7986726423486757e-07 0 -3.5666323604035811e-06 -2.5737493842012337e-07 0 -2.5438736468352192e-06 -9.7139106944538838e-07 0 -2.5438736468352192e-06 -9.7139106944538838e-07 0 -5.1869377258713265e-06 -1.4537017473028334e-06 0 -4.0816651286238719e-06 -2.7985486331528845e-06 0 -3.5666323604035811e-06 -2.5737493842012337e-07 0 -2.5438736468352192e-06 -9.7139106944538838e-07 0 -5.1869377258713265e-06 -1.4537017473028334e-06 0 -5.1869377258713265e-06 -1.4537017473028334e-06 0 -4.0816651286238719e-06 -2.7985486331528845e-06 0 -7.6359524480255564e-06 -3.312543293512274e-06 0 -4.0816651286238719e-06 -2.7985486331528845e-06 0 -2.1191459759355959e-06 -4.1774043332936726e-06 0 -6.4895170013708738e-06 -5.636857799441455e-06 0 -4.0816651286238719e-06 -2.7985486331528845e-06 0 -6.4895170013708738e-06 -5.636857799441455e-06 0 -7.6359524480255564e-06 -3.312543293512274e-06 0 -9.4562726400822385e-07 -2.0261741760947666e-06 0 9.1391292994212197e-07 -3.465141690799059e-06 0 1.3946347987492586e-06 -1.4517767295552242e-06 0 -2.5438736468352192e-06 -9.7139106944538838e-07 0 -4.0816651286238719e-06 -2.7985486331528845e-06 0 -9.4562726400822385e-07 -2.0261741760947666e-06 0 -4.0816651286238719e-06 -2.7985486331528845e-06 0 -9.4562726400822385e-07 -2.026174176094767e-06 0 -2.1191459759355959e-06 -4.1774043332936726e-06 0 -9.4562726400822385e-07 -2.0261741760947666e-06 0 -2.1191459759355959e-06 -4.1774043332936726e-06 0 9.1391292994212176e-07 -3.4651416907990594e-06 0 -2.1191459759355959e-06 -4.1774043332936726e-06 0 -1.6521260374554191e-07 -6.0942770278802392e-06 0 9.1391292994212176e-07 -3.4651416907990594e-06 0 -2.1191459759355959e-06 -4.1774043332936726e-06 0 -1.6521260374554191e-07 -6.0942770278802392e-06 0 -3.2964432291114118e-06 -7.378851815647732e-06 0 -3.2964432291114118e-06 -7.378851815647732e-06 0 -5.2750710948012661e-06 -1.1701009987393433e-05 0 -1.8274285026851028e-06 -1.0153757378720523e-05 0 -1.6521260374554191e-07 -6.0942770278802392e-06 0 -3.2964432291114118e-06 -7.3788518156477329e-06 0 -1.8274285026851028e-06 -1.0153757378720523e-05 0 -1.6521260374554191e-07 -6.0942770278802392e-06 0 1.5657652169716632e-06 -8.3479998306449563e-06 0 -1.8274285026851028e-06 -1.0153757378720523e-05 0 -6.4895170013708738e-06 -5.636857799441455e-06 0 -3.2964432291114118e-06 -7.378851815647732e-06 0 -7.1787669511557955e-06 -8.9343551311878502e-06 0 -2.1191459759355959e-06 -4.1774043332936726e-06 0 -6.489517001370873e-06 -5.636857799441455e-06 0 -3.2964432291114118e-06 -7.378851815647732e-06 0 -3.2964432291114118e-06 -7.378851815647732e-06 0 -7.1787669511557955e-06 -8.9343551311878502e-06 0 -5.2750710948012661e-06 -1.1701009987393433e-05 0 -6.4895170013708738e-06 -5.636857799441455e-06 0 -7.1787669511557955e-06 -8.9343551311878502e-06 0 -1.1208847592797047e-05 -8.994988282720858e-06 0 -7.1787669511557955e-06 -8.9343551311878502e-06 0 -1.1208847592797047e-05 -8.994988282720858e-06 0 -9.650138424446204e-06 -1.1639345676768661e-05 0 -6.4895170013708738e-06 -5.636857799441455e-06 0 -1.1208847592797047e-05 -8.994988282720858e-06 0 -1.0955898048863209e-05 -5.9883274210461601e-06 0 -1.1208847592797047e-05 -8.994988282720858e-06 0 -1.5186391586702525e-05 -9.0146362499776731e-06 0 -1.0955898048863209e-05 -5.9883274210461601e-06 0 -1.1208847592797047e-05 -8.994988282720858e-06 0 -1.5186391586702525e-05 -9.0146362499776748e-06 0 -1.6065711564403248e-05 -1.3817007104371719e-05 0 -1.5186391586702525e-05 -9.0146362499776731e-06 0 -2.0865535323906962e-05 -1.2506399419161984e-05 0 -1.6065711564403248e-05 -1.3817007104371719e-05 0 -1.5186391586702525e-05 -9.0146362499776731e-06 0 -2.0865535323906962e-05 -1.2506399419161984e-05 0 -1.7736846846281035e-05 -8.2381512738069724e-06 0 -1.5186391586702525e-05 -9.0146362499776731e-06 0 -1.7736846846281035e-05 -8.2381512738069724e-06 0 -1.3951724877906834e-05 -6.2979484557396381e-06 0 -1.5186391586702525e-05 -9.0146362499776731e-06 0 -1.3951724877906834e-05 -6.2979484557396381e-06 0 -1.0955898048863209e-05 -5.9883274210461601e-06 0 -1.3951724877906834e-05 -6.2979484557396381e-06 0 -1.4703657182169774e-05 -4.9680437529802543e-06 0 -1.1092381322077758e-05 -3.8702127705030048e-06 0 -1.3951724877906834e-05 -6.2979484557396381e-06 0 -1.1092381322077756e-05 -3.8702127705030048e-06 0 -1.0955898048863209e-05 -5.9883274210461601e-06 0 -1.7736846846281035e-05 -8.2381512738069724e-06 0 -1.3951724877906832e-05 -6.2979484557396372e-06 0 -1.4703657182169774e-05 -4.9680437529802543e-06 0 -1.0848029433025626e-05 -2.5585713877533427e-06 0 -1.4703657182169774e-05 -4.9680437529802543e-06 0 -1.1092381322077758e-05 -3.8702127705030048e-06 0 -7.9904411934710558e-06 -1.5646675742857632e-06 0 -1.1092381322077758e-05 -3.8702127705030048e-06 0 -7.6359524480255564e-06 -3.312543293512274e-06 0 -6.4895170013708738e-06 -5.636857799441455e-06 0 -7.6359524480255564e-06 -3.312543293512274e-06 0 -1.0955898048863209e-05 -5.9883274210461601e-06 0 -1.1092381322077758e-05 -3.8702127705030048e-06 0 -7.6359524480255564e-06 -3.3125432935122744e-06 0 -1.0955898048863209e-05 -5.9883274210461601e-06 0 4.7716581312512201e-06 -1.5411174596063749e-06 0 5.3218170093689817e-06 -1.5304709162159443e-07 0 5.767982039428111e-06 -8.4135838366964796e-07 0 4.7716581312512201e-06 -1.5411174596063749e-06 0 4.4387324643307575e-06 -6.1845752342278893e-07 0 5.3218170093689817e-06 -1.5304709162159438e-07 0 4.7716581312512201e-06 -1.5411174596063749e-06 0 4.4387324643307575e-06 -6.1845752342278893e-07 0 3.7359053390190787e-06 -1.6839038435695985e-06 0 5.3218170093689817e-06 -1.5304709162159438e-07 0 6.4762284448026901e-06 6.1488341574451402e-07 0 5.767982039428111e-06 -8.4135838366964796e-07 0 6.4762284448026901e-06 6.1488341574451402e-07 0 7.3411794048982966e-06 4.9179784312596683e-07 0 7.6484846279918137e-06 1.6058178774725763e-06 0 6.4762284448026901e-06 6.1488341574451402e-07 0 7.3411794048982957e-06 4.9179784312596672e-07 0 5.767982039428111e-06 -8.4135838366964796e-07 0 7.3411794048982957e-06 4.9179784312596672e-07 0 5.767982039428111e-06 -8.4135838366964796e-07 0 6.4834086580530636e-06 -9.7848466199931738e-07 0 5.767982039428111e-06 -8.4135838366964796e-07 0 6.4834086580530636e-06 -9.7848466199931738e-07 0 5.643112779518297e-06 -2.4274267126976165e-06 0 7.3411794048982957e-06 4.9179784312596672e-07 0 6.4834086580530636e-06 -9.7848466199931738e-07 0 7.1986116287338137e-06 -1.3038174416041155e-06 0 6.4834086580530636e-06 -9.7848466199931738e-07 0 7.1986116287338137e-06 -1.3038174416041155e-06 0 5.643112779518297e-06 -2.4274267126976165e-06 0 5.643112779518297e-06 -2.4274267126976165e-06 0 4.6736312030522893e-06 -2.8250624875995463e-06 0 4.2480078137419671e-06 -4.5119682411753355e-06 0 5.767982039428111e-06 -8.4135838366964796e-07 0 5.643112779518297e-06 -2.4274267126976165e-06 0 4.6736312030522884e-06 -2.8250624875995467e-06 0 4.7716581312512201e-06 -1.5411174596063749e-06 0 5.767982039428111e-06 -8.4135838366964796e-07 0 4.6736312030522884e-06 -2.8250624875995467e-06 0 4.7716581312512201e-06 -1.5411174596063749e-06 0 4.6736312030522884e-06 -2.8250624875995471e-06 0 4.0751322314723978e-06 -2.9892737172747412e-06 0 4.6736312030522884e-06 -2.8250624875995467e-06 0 3.6285700937405686e-06 -4.7383631290996583e-06 0 4.2480078137419671e-06 -4.5119682411753355e-06 0 3.6285700937405686e-06 -4.7383631290996583e-06 0 3.8091889382495903e-06 -4.7126905916626644e-06 0 4.2652590231322368e-06 -7.1116568856161167e-06 0 3.6285700937405686e-06 -4.7383631290996583e-06 0 3.8091889382495903e-06 -4.7126905916626653e-06 0 4.0751322314723978e-06 -2.9892737172747412e-06 0 3.8091889382495903e-06 -4.7126905916626653e-06 0 4.0751322314723978e-06 -2.9892737172747412e-06 0 3.106446277941758e-06 -2.8405187775132998e-06 0 4.6736312030522884e-06 -2.8250624875995467e-06 0 3.6285700937405686e-06 -4.7383631290996583e-06 0 4.0751322314723978e-06 -2.9892737172747412e-06 0 1.5657652169716634e-06 -8.3479998306449563e-06 0 2.678901048658947e-06 -5.1883989511163691e-06 0 4.2652590231322368e-06 -7.1116568856161167e-06 0 -1.6521260374554191e-07 -6.0942770278802392e-06 0 1.5657652169716634e-06 -8.3479998306449563e-06 0 2.678901048658947e-06 -5.1883989511163691e-06 0 3.8091889382495903e-06 -4.7126905916626653e-06 0 2.678901048658947e-06 -5.1883989511163691e-06 0 4.2652590231322368e-06 -7.1116568856161167e-06 0 3.8091889382495903e-06 -4.7126905916626653e-06 0 2.678901048658947e-06 -5.1883989511163691e-06 0 3.106446277941758e-06 -2.8405187775132998e-06 0 -1.6521260374554191e-07 -6.0942770278802392e-06 0 2.678901048658947e-06 -5.1883989511163691e-06 0 9.1391292994212176e-07 -3.4651416907990594e-06 0 2.678901048658947e-06 -5.1883989511163691e-06 0 9.1391292994212176e-07 -3.4651416907990594e-06 0 3.106446277941758e-06 -2.8405187775132998e-06 0 9.1391292994212176e-07 -3.4651416907990594e-06 0 3.106446277941758e-06 -2.8405187775132998e-06 0 1.3946347987492586e-06 -1.4517767295552242e-06 0 3.106446277941758e-06 -2.8405187775132998e-06 0 1.3946347987492586e-06 -1.4517767295552242e-06 0 2.8101106821963918e-06 -8.2817566088815182e-07 0 4.7716581312512201e-06 -1.5411174596063749e-06 0 4.0751322314723978e-06 -2.9892737172747412e-06 0 3.7359053390190787e-06 -1.6839038435695985e-06 0 4.0751322314723978e-06 -2.9892737172747412e-06 0 3.106446277941758e-06 -2.8405187775132994e-06 0 3.7359053390190787e-06 -1.6839038435695985e-06 0 3.106446277941758e-06 -2.8405187775132998e-06 0 3.7359053390190787e-06 -1.6839038435695987e-06 0 2.8101106821963918e-06 -8.2817566088815182e-07 0 3.7359053390190787e-06 -1.6839038435695985e-06 0 2.8101106821963918e-06 -8.2817566088815182e-07 0 3.6798127404662802e-06 3.9304728608224927e-07 0 4.4387324643307575e-06 -6.1845752342278893e-07 0 3.7359053390190787e-06 -1.6839038435695985e-06 0 3.6798127404662802e-06 3.9304728608224927e-07 0 2.8101106821963918e-06 -8.2817566088815182e-07 0 2.7144409521587709e-06 2.801685355651483e-07 0 3.6798127404662802e-06 3.9304728608224927e-07 0 2.7144409521587709e-06 2.801685355651483e-07 0 3.6798127404662802e-06 3.9304728608224927e-07 0 2.9909400616922144e-06 9.2920444886577373e-07 0 -1.4317884520698143e-07 -1.6448831554583241e-07 0 1.3946347987492586e-06 -1.4517767295552242e-06 0 1.6971081377494238e-06 1.2271421801430498e-08 0 1.3946347987492586e-06 -1.4517767295552242e-06 0 2.8101106821963918e-06 -8.2817566088815182e-07 0 1.6971081377494238e-06 1.2271421801430498e-08 0 2.8101106821963918e-06 -8.2817566088815182e-07 0 2.7144409521587705e-06 2.8016853556514836e-07 0 1.6971081377494238e-06 1.2271421801430498e-08 0 2.7144409521587709e-06 2.801685355651483e-07 0 1.6971081377494238e-06 1.2271421801430498e-08 0 2.0930452113717533e-06 9.3164213096776844e-07 0 -1.4317884520698143e-07 -1.6448831554583241e-07 0 1.6971081377494238e-06 1.2271421801430624e-08 0 8.8911826016024047e-07 9.4874253019011721e-07 0 1.6971081377494238e-06 1.2271421801430498e-08 0 8.8911826016024058e-07 9.4874253019011732e-07 0 2.0930452113717533e-06 9.3164213096776844e-07 0 8.8911826016024047e-07 9.4874253019011721e-07 0 2.0930452113717533e-06 9.3164213096776844e-07 0 1.3889316020263853e-06 1.6071911995475949e-06 0 8.8911826016024047e-07 9.4874253019011721e-07 0 3.2971297891940033e-07 1.5173270472684828e-06 0 1.3889316020263853e-06 1.6071911995475949e-06 0 -5.1519981596222183e-07 1.1179670039249354e-06 0 8.8911826016024047e-07 9.4874253019011721e-07 0 3.2971297891940033e-07 1.5173270472684828e-06 0 3.6798127404662802e-06 3.9304728608224927e-07 0 2.9909400616922144e-06 9.2920444886577373e-07 0 3.5754178470665888e-06 1.2775411702151945e-06 0 2.7144409521587709e-06 2.801685355651483e-07 0 2.9909400616922144e-06 9.2920444886577373e-07 0 2.0930452113717533e-06 9.3164213096776844e-07 0 2.9909400616922144e-06 9.2920444886577373e-07 0 2.0930452113717533e-06 9.3164213096776844e-07 0 2.5205129969482834e-06 1.4149274434609794e-06 0 2.0930452113717533e-06 9.3164213096776844e-07 0 2.5205129969482834e-06 1.4149274434609794e-06 0 1.3889316020263853e-06 1.6071911995475949e-06 0 2.9909400616922144e-06 9.2920444886577373e-07 0 2.5205129969482834e-06 1.4149274434609794e-06 0 3.5754178470665888e-06 1.2775411702151945e-06 0 2.5205129969482834e-06 1.4149274434609794e-06 0 3.5754178470665888e-06 1.2775411702151945e-06 0 2.5890245152365079e-06 1.6570124623918722e-06 0 3.5754178470665888e-06 1.2775411702151945e-06 0 4.706007912581623e-06 1.2885565343439887e-06 0 3.5981595478346595e-06 1.5034615197975816e-06 0 4.706007912581623e-06 1.2885565343439887e-06 0 4.738200412608323e-06 1.4271183799084142e-06 0 3.5981595478346595e-06 1.5034615197975816e-06 0 3.5754178470665888e-06 1.2775411702151945e-06 0 4.706007912581623e-06 1.2885565343439887e-06 0 4.4437382387797552e-06 8.6791440834122939e-07 0 3.6798127404662802e-06 3.9304728608224927e-07 0 3.5754178470665888e-06 1.2775411702151945e-06 0 4.4437382387797552e-06 8.6791440834122939e-07 0 3.6798127404662802e-06 3.9304728608224927e-07 0 4.4437382387797552e-06 8.6791440834122939e-07 0 4.7141070494094294e-06 2.8974711968668277e-07 0 4.4437382387797552e-06 8.6791440834122939e-07 0 4.7141070494094294e-06 2.8974711968668277e-07 0 5.5400577408140293e-06 8.9417180600286854e-07 0 4.706007912581623e-06 1.2885565343439887e-06 0 4.4437382387797552e-06 8.6791440834122939e-07 0 5.5400577408140293e-06 8.9417180600286854e-07 0 5.3218170093689817e-06 -1.5304709162159438e-07 0 4.7141070494094294e-06 2.8974711968668277e-07 0 5.5400577408140293e-06 8.9417180600286854e-07 0 4.4387324643307575e-06 -6.1845752342278893e-07 0 5.3218170093689817e-06 -1.5304709162159449e-07 0 4.7141070494094294e-06 2.8974711968668277e-07 0 4.4387324643307575e-06 -6.1845752342278893e-07 0 3.6798127404662802e-06 3.9304728608224927e-07 0 4.7141070494094294e-06 2.8974711968668277e-07 0 6.4762284448026901e-06 6.1488341574451402e-07 0 6.5774211162034411e-06 1.3195027836336821e-06 0 7.6484846279918137e-06 1.6058178774725763e-06 0 6.4762284448026901e-06 6.1488341574451402e-07 0 6.5774211162034411e-06 1.3195027836336821e-06 0 5.5400577408140293e-06 8.9417180600286854e-07 0 5.3218170093689817e-06 -1.5304709162159438e-07 0 6.4762284448026901e-06 6.1488341574451402e-07 0 5.5400577408140293e-06 8.9417180600286854e-07 0 4.706007912581623e-06 1.2885565343439887e-06 0 5.5400577408140293e-06 8.9417180600286854e-07 0 5.8339154037521545e-06 1.3957901997227041e-06 0 6.5774211162034411e-06 1.3195027836336821e-06 0 5.8339154037521545e-06 1.3957901997227041e-06 0 7.2496427206131265e-06 1.7843499807114728e-06 0 6.5774211162034411e-06 1.3195027836336821e-06 0 5.5400577408140293e-06 8.9417180600286854e-07 0 5.8339154037521545e-06 1.3957901997227041e-06 0 5.8339154037521545e-06 1.3957901997227041e-06 0 4.738200412608323e-06 1.4271183799084142e-06 0 5.9637771596688894e-06 1.465995317099179e-06 0 4.706007912581623e-06 1.2885565343439887e-06 0 5.8339154037521545e-06 1.3957901997227041e-06 0 4.738200412608323e-06 1.4271183799084142e-06 0 4.738200412608323e-06 1.4271183799084142e-06 0 4.8669109990863158e-06 1.3158791651259226e-06 0 5.9637771596688894e-06 1.465995317099179e-06 0 4.8669109990863158e-06 1.3158791651259226e-06 0 3.7431671213083942e-06 1.2154378942604394e-06 0 3.8845809284400822e-06 1.4335793158010606e-06 0 3.7431671213083942e-06 1.2154378942604394e-06 0 3.8845809284400822e-06 1.4335793158010606e-06 0 3.0334048436236178e-06 1.4938805619558649e-06 0 4.738200412608323e-06 1.4271183799084142e-06 0 3.8845809284400822e-06 1.4335793158010606e-06 0 3.5981595478346595e-06 1.5034615197975816e-06 0 4.738200412608323e-06 1.4271183799084142e-06 0 4.8669109990863158e-06 1.3158791651259226e-06 0 3.8845809284400822e-06 1.4335793158010606e-06 0 3.5754178470665888e-06 1.2775411702151945e-06 0 3.5981595478346595e-06 1.5034615197975816e-06 0 2.5890245152365079e-06 1.6570124623918722e-06 0 3.0334048436236178e-06 1.4938805619558649e-06 0 2.1056477544663353e-06 1.612200880909768e-06 0 2.5890245152365079e-06 1.6570124623918722e-06 0 3.5981595478346595e-06 1.5034615197975816e-06 0 3.0334048436236178e-06 1.4938805619558649e-06 0 2.5890245152365079e-06 1.6570124623918722e-06 0 3.8845809284400822e-06 1.4335793158010606e-06 0 3.5981595478346595e-06 1.5034615197975816e-06 0 3.0334048436236178e-06 1.4938805619558649e-06 0 3.0334048436236178e-06 1.4938805619558649e-06 0 2.0926279894680173e-06 1.3202651917092185e-06 0 2.7940046519723094e-06 1.1951080234424864e-06 0 3.0334048436236178e-06 1.4938805619558649e-06 0 2.1056477544663353e-06 1.612200880909768e-06 0 2.0926279894680173e-06 1.3202651917092185e-06 0 2.1056477544663353e-06 1.612200880909768e-06 0 2.0926279894680173e-06 1.3202651917092185e-06 0 1.3807298753364045e-06 1.3556201477458232e-06 0 2.0926279894680173e-06 1.3202651917092185e-06 0 2.7940046519723094e-06 1.1951080234424864e-06 0 1.9274526772031053e-06 9.3917039926941178e-07 0 2.7940046519723094e-06 1.1951080234424864e-06 0 1.9274526772031053e-06 9.3917039926941178e-07 0 2.3473392669474736e-06 6.6648842207807825e-07 0 2.7940046519723094e-06 1.1951080234424864e-06 0 2.3473392669474736e-06 6.6648842207807815e-07 0 3.3501467238866255e-06 8.7912246989254462e-07 0 3.7431671213083942e-06 1.2154378942604394e-06 0 2.7940046519723094e-06 1.1951080234424864e-06 0 3.3501467238866255e-06 8.7912246989254462e-07 0 3.7431671213083942e-06 1.2154378942604394e-06 0 3.0334048436236178e-06 1.4938805619558649e-06 0 2.7940046519723094e-06 1.1951080234424864e-06 0 3.2971297891940033e-07 1.5173270472684828e-06 0 4.6878998740053563e-07 1.8655331872448175e-06 0 1.3889316020263853e-06 1.6071911995475949e-06 0 4.6878998740053553e-07 1.8655331872448175e-06 0 1.3889316020263853e-06 1.6071911995475949e-06 0 1.337481754773182e-06 1.8480508791526562e-06 0 4.6878998740053553e-07 1.8655331872448175e-06 0 1.337481754773182e-06 1.8480508791526562e-06 0 5.5976148380380373e-07 1.9249547421910438e-06 0 1.337481754773182e-06 1.8480508791526562e-06 0 1.9844111401818065e-06 1.6852998595159117e-06 0 1.86009947902175e-06 1.7532661948491221e-06 0 1.3889316020263853e-06 1.6071911995475949e-06 0 1.337481754773182e-06 1.8480508791526562e-06 0 1.9844111401818065e-06 1.6852998595159117e-06 0 2.5205129969482834e-06 1.4149274434609794e-06 0 1.3889316020263853e-06 1.6071911995475949e-06 0 1.9844111401818065e-06 1.6852998595159117e-06 0 2.5205129969482834e-06 1.4149274434609794e-06 0 1.9844111401818065e-06 1.6852998595159117e-06 0 2.5890245152365079e-06 1.6570124623918722e-06 0 1.9844111401818065e-06 1.6852998595159117e-06 0 2.5890245152365079e-06 1.6570124623918722e-06 0 1.86009947902175e-06 1.7532661948491221e-06 0 2.1056477544663353e-06 1.612200880909768e-06 0 2.5890245152365079e-06 1.6570124623918722e-06 0 1.86009947902175e-06 1.7532661948491221e-06 0 2.1056477544663353e-06 1.612200880909768e-06 0 1.86009947902175e-06 1.7532661948491221e-06 0 1.1737134600194083e-06 1.7492783586862296e-06 0 2.1056477544663353e-06 1.612200880909768e-06 0 1.1737134600194083e-06 1.7492783586862296e-06 0 1.3807298753364045e-06 1.3556201477458232e-06 0 1.337481754773182e-06 1.8480508791526562e-06 0 1.86009947902175e-06 1.7532661948491221e-06 0 1.1737134600194083e-06 1.7492783586862296e-06 0 1.337481754773182e-06 1.8480508791526562e-06 0 1.1737134600194083e-06 1.7492783586862296e-06 0 5.5976148380380373e-07 1.9249547421910438e-06 0 1.1737134600194083e-06 1.7492783586862296e-06 0 5.5976148380380373e-07 1.9249547421910438e-06 0 2.6084103606463216e-07 1.7719136952792326e-06 0 -1.1868730747975169e-07 1.882976635186756e-06 0 5.5976148380380373e-07 1.9249547421910438e-06 0 2.6084103606463216e-07 1.7719136952792326e-06 0 -2.9870804514148627e-07 1.9613260626006121e-06 0 4.6878998740053553e-07 1.8655331872448175e-06 0 5.5976148380380373e-07 1.9249547421910438e-06 0 -2.9870804514148627e-07 1.9613260626006121e-06 0 -1.1868730747975169e-07 1.882976635186756e-06 0 5.5976148380380373e-07 1.9249547421910438e-06 0 -6.0281576339401437e-08 1.5683372832894264e-06 0 4.9176376307084588e-07 1.4811650353885177e-06 0 1.0404766335178188e-07 9.6476243270496556e-07 0 -6.0281576339401437e-08 1.5683372832894264e-06 0 -1.1868730747975169e-07 1.882976635186756e-06 0 2.6084103606463216e-07 1.7719136952792326e-06 0 -6.0281576339401437e-08 1.5683372832894264e-06 0 2.6084103606463216e-07 1.7719136952792326e-06 0 4.9176376307084588e-07 1.4811650353885177e-06 0 1.1737134600194083e-06 1.7492783586862296e-06 0 2.6084103606463216e-07 1.7719136952792326e-06 0 4.9176376307084588e-07 1.4811650353885177e-06 0 4.9176376307084588e-07 1.4811650353885177e-06 0 3.0924645925718987e-07 8.3530997435331856e-07 0 1.0404766335178188e-07 9.6476243270496556e-07 0 4.9176376307084588e-07 1.4811650353885177e-06 0 7.8826357661401031e-07 1.2916452409427439e-06 0 3.0924645925718987e-07 8.3530997435331856e-07 0 1.1737134600194083e-06 1.7492783586862296e-06 0 4.9176376307084588e-07 1.4811650353885177e-06 0 7.8826357661401031e-07 1.2916452409427439e-06 0 1.1737134600194083e-06 1.7492783586862296e-06 0 7.8826357661401031e-07 1.2916452409427439e-06 0 1.3807298753364045e-06 1.3556201477458232e-06 0 7.8826357661401031e-07 1.2916452409427439e-06 0 1.3807298753364045e-06 1.3556201477458232e-06 0 5.4672313429093152e-07 7.8393600091611173e-07 0 7.8826357661401031e-07 1.2916452409427439e-06 0 3.0924645925718987e-07 8.3530997435331856e-07 0 5.4672313429093152e-07 7.8393600091611173e-07 0 3.5933197642049591e-10 3.7673198498187482e-10 0 3.0924645925718987e-07 8.3530997435331856e-07 0 5.4672313429093152e-07 7.8393600091611173e-07 0 3.5933197642049591e-10 3.7673198498187482e-10 0 3.0924645925718987e-07 8.3530997435331856e-07 0 2.0574563233065464e-10 3.7466561453196603e-10 0 3.0924645925718987e-07 8.3530997435331856e-07 0 2.0574563233065464e-10 3.7466561453196603e-10 0 1.0404766335178188e-07 9.6476243270496556e-07 0 2.0574563233065464e-10 3.7466561453196603e-10 0 -2.8151847673456548e-11 4.2413983900466195e-10 0 1.0404766335178188e-07 9.6476243270496556e-07 0 -1.1492557088218337e-07 8.8241628937074327e-07 0 -2.8151847673456548e-11 4.2413983900466195e-10 0 1.0404766335178188e-07 9.6476243270496556e-07 0 1.1903415352888051e-06 4.9860515663535067e-07 0 1.9274526772031053e-06 9.3917039926941178e-07 0 1.1527398772169234e-06 8.6682269049332749e-07 0 1.1903415352888051e-06 4.9860515663535067e-07 0 1.9274526772031053e-06 9.3917039926941178e-07 0 2.3473392669474736e-06 6.6648842207807825e-07 0 2.0926279894680173e-06 1.3202651917092185e-06 0 1.9274526772031053e-06 9.3917039926941178e-07 0 1.1527398772169234e-06 8.6682269049332749e-07 0 2.0926279894680173e-06 1.3202651917092185e-06 0 1.3807298753364045e-06 1.3556201477458232e-06 0 1.1527398772169234e-06 8.6682269049332749e-07 0 1.3807298753364045e-06 1.3556201477458232e-06 0 1.1527398772169231e-06 8.6682269049332749e-07 0 5.4672313429093152e-07 7.8393600091611173e-07 0 1.1527398772169234e-06 8.6682269049332749e-07 0 4.7276353262935237e-07 4.7735977416917753e-07 0 5.4672313429093152e-07 7.8393600091611173e-07 0 3.5933197642049591e-10 3.7673198498187482e-10 0 5.4672313429093152e-07 7.8393600091611173e-07 0 5.8192617304676042e-10 2.5065390021610617e-10 0 4.7276353262935242e-07 4.7735977416917763e-07 0 5.4672313429093152e-07 7.8393600091611173e-07 0 5.8192617304676042e-10 2.5065390021610617e-10 0 4.7276353262935242e-07 4.7735977416917763e-07 0 5.8192617304676042e-10 2.5065390021610617e-10 0 6.895267287265873e-10 2.1051434090840639e-10 0 4.7276353262935242e-07 4.7735977416917763e-07 0 6.895267287265873e-10 2.1051434090840639e-10 0 5.002831333173119e-07 3.5448500014162038e-07 0 1.1903415352888051e-06 4.9860515663535067e-07 0 5.002831333173119e-07 3.5448500014162038e-07 0 7.4179545114350643e-10 1.7182133949713383e-10 0 1.1903415352888051e-06 4.9860515663535067e-07 0 1.1527398772169234e-06 8.6682269049332749e-07 0 5.002831333173119e-07 3.5448500014162038e-07 0 1.1527398772169234e-06 8.6682269049332749e-07 0 4.7276353262935237e-07 4.7735977416917763e-07 0 5.002831333173119e-07 3.5448500014162038e-07 0 6.895267287265873e-10 2.1051434090840639e-10 0 5.002831333173119e-07 3.5448500014162038e-07 0 7.4179545114350643e-10 1.7182133949713383e-10 0 1.1903415352888051e-06 4.9860515663535067e-07 0 7.4179545114350643e-10 1.7182133949713383e-10 0 7.7185244976723404e-07 1.3929271144336218e-07 0 7.4179545114350643e-10 1.7182133949713383e-10 0 8.0482101533579892e-10 -5.7170704708062598e-11 0 7.7185244976723404e-07 1.3929271144336218e-07 0 8.0482101533579892e-10 -5.7170704708062598e-11 0 7.7185244976723404e-07 1.3929271144336218e-07 0 5.8877675360521609e-07 -6.7267040434238669e-08 0 7.7185244976723404e-07 1.3929271144336218e-07 0 1.4726918285068227e-06 -3.4800593126841828e-08 0 5.8877675360521609e-07 -6.7267040434238669e-08 0 1.1903415352888051e-06 4.9860515663535067e-07 0 7.7185244976723414e-07 1.3929271144336218e-07 0 1.6125822477403171e-06 2.688319006119359e-07 0 1.1903415352888051e-06 4.9860515663535067e-07 0 1.6125822477403171e-06 2.688319006119359e-07 0 2.3473392669474736e-06 6.6648842207807825e-07 0 7.7185244976723404e-07 1.3929271144336218e-07 0 1.6125822477403171e-06 2.688319006119359e-07 0 1.4726918285068227e-06 -3.4800593126841828e-08 0 1.6125822477403171e-06 2.688319006119359e-07 0 2.3496717276532349e-06 6.9084832699802897e-08 0 1.4726918285068227e-06 -3.4800593126841828e-08 0 1.6125822477403171e-06 2.688319006119359e-07 0 2.3473392669474736e-06 6.6648842207807825e-07 0 2.3496717276532349e-06 6.9084832699802897e-08 0 1.9916990124518279e-06 -3.9184151530166796e-07 0 2.3496717276532349e-06 6.9084832699802897e-08 0 1.4726918285068227e-06 -3.4800593126841828e-08 0 1.9916990124518279e-06 -3.9184151530166796e-07 0 8.4479546910109775e-07 -3.365184354111277e-07 0 1.4562815829297078e-06 -7.5536863699012714e-07 0 1.9916990124518279e-06 -3.9184151530166796e-07 0 1.4726918285068229e-06 -3.4800593126841835e-08 0 8.4479546910109775e-07 -3.365184354111277e-07 0 1.4726918285068227e-06 -3.4800593126841828e-08 0 8.4479546910109775e-07 -3.365184354111277e-07 0 5.8877675360521609e-07 -6.7267040434238669e-08 0 8.0482101533579892e-10 -5.7170704708062598e-11 0 5.8877675360521609e-07 -6.7267040434238669e-08 0 8.2111129828629298e-10 6.1400066331977927e-12 0 8.4479546910109775e-07 -3.365184354111277e-07 0 8.2111129828629298e-10 6.1400066331977927e-12 0 6.3125448052141947e-10 -2.7985123366898754e-10 0 8.4479546910109775e-07 -3.365184354111277e-07 0 5.8877675360521609e-07 -6.7267040434238656e-08 0 8.2111129828629298e-10 6.1400066331977927e-12 0 6.3125448052141947e-10 -2.7985123366898754e-10 0 6.5080124028199879e-07 -6.3845530735463616e-07 0 4.6036656074611698e-10 -3.519059322865141e-10 0 8.4479546910109775e-07 -3.365184354111277e-07 0 6.5080124028199858e-07 -6.3845530735463616e-07 0 1.4562815829297078e-06 -7.5536863699012714e-07 0 8.4479546910109775e-07 -3.365184354111277e-07 0 6.3125448052141947e-10 -2.7985123366898754e-10 0 6.5080124028199879e-07 -6.3845530735463616e-07 0 4.6036656074611698e-10 -3.519059322865141e-10 0 4.1445574321988275e-07 -9.9843782802562957e-07 0 1.9197945659353964e-10 -5.1710949989415628e-10 0 6.5080124028199879e-07 -6.3845530735463616e-07 0 4.6036656074611698e-10 -3.519059322865141e-10 0 4.1445574321988275e-07 -9.9843782802562957e-07 0 4.1445574321988275e-07 -9.9843782802562957e-07 0 1.9197945659353964e-10 -5.1710949989415628e-10 0 8.5245619766098594e-08 -1.076532788971686e-06 0 4.1445574321988275e-07 -9.9843782802562957e-07 0 1.4063659591405283e-06 -1.3107494932442588e-06 0 5.2032298335951483e-07 -1.7226758617185031e-06 0 1.4063659591405283e-06 -1.3107494932442588e-06 0 1.255404412741052e-06 -1.7304373651157465e-06 0 5.2032298335951483e-07 -1.7226758617185031e-06 0 6.5080124028199879e-07 -6.3845530735463616e-07 0 4.144557432198828e-07 -9.9843782802562957e-07 0 1.4063659591405283e-06 -1.3107494932442588e-06 0 1.2554044127410518e-06 -1.7304373651157463e-06 0 5.2032298335951483e-07 -1.7226758617185031e-06 0 1.022127093175886e-06 -2.0268379189933879e-06 0 6.5080124028199879e-07 -6.3845530735463616e-07 0 1.4063659591405283e-06 -1.3107494932442588e-06 0 1.4562815829297078e-06 -7.5536863699012714e-07 0 1.4063659591405283e-06 -1.3107494932442588e-06 0 1.4562815829297078e-06 -7.5536863699012714e-07 0 2.3020903589157344e-06 -7.5695164409041383e-07 0 1.9916990124518279e-06 -3.9184151530166796e-07 0 1.4562815829297078e-06 -7.5536863699012714e-07 0 2.3020903589157344e-06 -7.5695164409041383e-07 0 1.4063659591405283e-06 -1.3107494932442588e-06 0 2.3020903589157344e-06 -7.5695164409041383e-07 0 3.0959441624488273e-06 -1.0046751300087074e-06 0 2.3020903589157344e-06 -7.5695164409041383e-07 0 3.0959441624488273e-06 -1.0046751300087074e-06 0 3.3677834470566466e-06 -2.3278588293711178e-07 0 3.0959441624488273e-06 -1.0046751300087074e-06 0 4.4346129052456594e-06 -1.5278365622224453e-07 0 3.3677834470566466e-06 -2.3278588293711178e-07 0 1.4063659591405283e-06 -1.3107494932442588e-06 0 3.0959441624488273e-06 -1.0046751300087074e-06 0 2.1292473725444031e-06 -1.5819245245416757e-06 0 1.2554044127410518e-06 -1.7304373651157463e-06 0 2.1292473725444031e-06 -1.5819245245416757e-06 0 1.022127093175886e-06 -2.0268379189933879e-06 0 1.4063659591405283e-06 -1.3107494932442588e-06 0 1.255404412741052e-06 -1.7304373651157463e-06 0 2.1292473725444031e-06 -1.5819245245416757e-06 0 3.0959441624488273e-06 -1.0046751300087074e-06 0 2.1292473725444031e-06 -1.5819245245416755e-06 0 2.9420722237509929e-06 -1.4406001340216403e-06 0 2.1292473725444031e-06 -1.5819245245416757e-06 0 1.022127093175886e-06 -2.0268379189933879e-06 0 1.4481108404792234e-06 -2.1277854689621464e-06 0 2.1292473725444031e-06 -1.5819245245416757e-06 0 2.9420722237509929e-06 -1.4406001340216403e-06 0 1.4481108404792234e-06 -2.1277854689621464e-06 0 2.9420722237509929e-06 -1.4406001340216403e-06 0 3.347729936009997e-06 -1.4024749575793814e-06 0 1.4481108404792234e-06 -2.1277854689621464e-06 0 2.9420722237509929e-06 -1.4406001340216403e-06 0 3.347729936009997e-06 -1.4024749575793814e-06 0 4.5889208863354216e-06 -6.3946710677053262e-07 0 3.347729936009997e-06 -1.4024749575793814e-06 0 4.5889208863354216e-06 -6.3946710677053262e-07 0 5.1123954873475315e-06 -4.5012349981504395e-07 0 3.347729936009997e-06 -1.4024749575793814e-06 0 1.2507239172829543e-06 -2.0347953024489377e-06 0 3.3861088092104531e-06 -1.1333381227220329e-06 0 3.347729936009997e-06 -1.4024749575793814e-06 0 3.3861088092104531e-06 -1.1333381227220329e-06 0 5.1123954873475315e-06 -4.5012349981504395e-07 0 3.0959441624488273e-06 -1.0046751300087074e-06 0 4.5889208863354208e-06 -6.3946710677053272e-07 0 4.4346129052456594e-06 -1.5278365622224453e-07 0 3.0959441624488273e-06 -1.0046751300087074e-06 0 2.9420722237509929e-06 -1.4406001340216403e-06 0 4.5889208863354216e-06 -6.3946710677053262e-07 0 4.5889208863354216e-06 -6.3946710677053262e-07 0 5.7915589523850916e-06 3.0446575805550638e-07 0 4.4346129052456594e-06 -1.5278365622224453e-07 0 4.5889208863354216e-06 -6.3946710677053262e-07 0 5.7915589523850916e-06 3.0446575805550638e-07 0 6.6874245886414957e-06 5.4457346635054949e-07 0 5.7915589523850916e-06 3.0446575805550638e-07 0 4.4346129052456594e-06 -1.5278365622224453e-07 0 5.2843982479464482e-06 5.9030265652972486e-07 0 5.7915589523850916e-06 3.0446575805550638e-07 0 5.2843982479464482e-06 5.9030265652972486e-07 0 6.4970670861813466e-06 9.4327032557449773e-07 0 4.4346129052456594e-06 -1.5278365622224453e-07 0 5.2843982479464482e-06 5.9030265652972486e-07 0 4.1065035582571812e-06 2.8288183529727557e-07 0 5.2843982479464482e-06 5.9030265652972486e-07 0 4.3607925554926564e-06 8.5829984904539407e-07 0 4.1065035582571812e-06 2.8288183529727557e-07 0 5.2843982479464482e-06 5.9030265652972486e-07 0 5.7633118298201447e-06 1.1442184785682413e-06 0 6.4970670861813466e-06 9.4327032557449773e-07 0 5.2843982479464482e-06 5.9030265652972486e-07 0 4.3607925554926564e-06 8.5829984904539428e-07 0 5.7633118298201447e-06 1.1442184785682413e-06 0 4.8669109990863158e-06 1.3158791651259226e-06 0 4.3607925554926564e-06 8.5829984904539417e-07 0 5.7633118298201447e-06 1.1442184785682413e-06 0 3.7431671213083942e-06 1.2154378942604394e-06 0 4.3607925554926564e-06 8.5829984904539417e-07 0 3.3501467238866255e-06 8.7912246989254462e-07 0 4.8669109990863158e-06 1.3158791651259226e-06 0 3.7431671213083942e-06 1.2154378942604394e-06 0 4.3607925554926564e-06 8.5829984904539417e-07 0 4.3607925554926564e-06 8.5829984904539417e-07 0 3.1520626617853908e-06 3.7319907984513112e-07 0 4.1065035582571812e-06 2.8288183529727557e-07 0 4.3607925554926564e-06 8.5829984904539417e-07 0 3.3501467238866255e-06 8.7912246989254473e-07 0 3.1520626617853904e-06 3.7319907984513117e-07 0 2.3473392669474736e-06 6.6648842207807825e-07 0 3.3501467238866255e-06 8.7912246989254462e-07 0 3.1520626617853904e-06 3.7319907984513117e-07 0 2.3473392669474736e-06 6.6648842207807825e-07 0 2.3496717276532349e-06 6.9084832699802897e-08 0 3.1520626617853904e-06 3.7319907984513117e-07 0 2.3496717276532349e-06 6.9084832699802897e-08 0 3.1520626617853904e-06 3.7319907984513117e-07 0 3.3677834470566466e-06 -2.3278588293711178e-07 0 1.9916990124518279e-06 -3.9184151530166796e-07 0 2.3496717276532349e-06 6.9084832699802897e-08 0 3.3677834470566466e-06 -2.3278588293711178e-07 0 1.9916990124518279e-06 -3.9184151530166796e-07 0 2.3020903589157344e-06 -7.5695164409041383e-07 0 3.3677834470566466e-06 -2.3278588293711178e-07 0 4.4346129052456594e-06 -1.5278365622224453e-07 0 3.3677834470566466e-06 -2.3278588293711178e-07 0 4.1065035582571812e-06 2.8288183529727557e-07 0 3.1520626617853904e-06 3.7319907984513117e-07 0 3.367783447056647e-06 -2.327858829371117e-07 0 4.1065035582571812e-06 2.8288183529727557e-07 0 -2.7169090762157449e-06 -8.9331344599653633e-07 0 -2.7302718910180661e-06 -1.4637066904965455e-06 0 -4.8166358603415176e-06 -1.2491749962017814e-06 0 -2.7302718910180661e-06 -1.4637066904965455e-06 0 -1.2483741256861865e-06 -8.3302624662475872e-07 0 -1.6903721931193744e-06 -1.6126549633719559e-06 0 -2.7169090762157449e-06 -8.9331344599653633e-07 0 -1.1200657177387147e-06 -2.982059584291561e-07 0 -1.2483741256861865e-06 -8.3302624662475872e-07 0 -2.7169090762157449e-06 -8.9331344599653633e-07 0 -2.7302718910180661e-06 -1.4637066904965455e-06 0 -1.2483741256861865e-06 -8.3302624662475872e-07 0 -1.1200657177387147e-06 -2.982059584291561e-07 0 -5.2772676512701761e-07 -2.7125651020120595e-07 0 -1.2483741256861865e-06 -8.3302624662475872e-07 0 -1.1200657177387147e-06 -2.982059584291561e-07 0 -8.0376667517485242e-10 3.2822844258088839e-10 0 -5.2772676512701761e-07 -2.7125651020120595e-07 0 -8.0376667517485242e-10 3.2822844258088839e-10 0 -5.2772676512701761e-07 -2.7125651020120595e-07 0 -1.0196175539393317e-09 -4.0082265518174089e-10 0 -5.2772676512701761e-07 -2.7125651020120595e-07 0 -1.0196175539393243e-09 -4.00822655181735e-10 0 -1.2483741256861865e-06 -8.3302624662475872e-07 0 -1.0196175539393317e-09 -4.0082265518174089e-10 0 -1.2483741256861865e-06 -8.3302624662475872e-07 0 -7.6195183026246103e-07 -1.0094225089843863e-06 0 -1.2483741256861865e-06 -8.3302624662475872e-07 0 -7.6195183026246114e-07 -1.0094225089843863e-06 0 -1.6903721931193744e-06 -1.6126549633719559e-06 0 -1.0196175539393317e-09 -4.0082265518174089e-10 0 -9.2922772789566465e-10 -2.9494044432576202e-10 0 -7.6195183026246103e-07 -1.0094225089843863e-06 0 -9.2922772789583753e-10 -2.9494044432599125e-10 0 -7.6195183026246103e-07 -1.0094225089843863e-06 0 -4.1635947419544814e-10 -6.9879940545483378e-10 0 -7.6195183026246103e-07 -1.0094225089843863e-06 0 -1.6903721931193744e-06 -1.6126549633719559e-06 0 -7.6358339658811456e-07 -1.5580720464711621e-06 0 -1.6903721931193744e-06 -1.6126549633719559e-06 0 -1.5581844358128589e-06 -2.1281730353198637e-06 0 -7.6358339658811456e-07 -1.5580720464711621e-06 0 -2.7302718910180661e-06 -1.4637066904965455e-06 0 -1.6903721931193744e-06 -1.6126549633719559e-06 0 -2.6230820364395686e-06 -2.1608407348607234e-06 0 -2.7302718910180661e-06 -1.4637066904965455e-06 0 -2.6230820364395682e-06 -2.1608407348607234e-06 0 -3.9621962325642457e-06 -1.9994031276991959e-06 0 -2.6230820364395686e-06 -2.1608407348607234e-06 0 -1.5581844358128589e-06 -2.1281730353198637e-06 0 -1.7226518731313338e-06 -2.5353833533203305e-06 0 -1.6903721931193744e-06 -1.6126549633719559e-06 0 -2.6230820364395686e-06 -2.1608407348607234e-06 0 -1.5581844358128589e-06 -2.1281730353198637e-06 0 -1.5581844358128589e-06 -2.1281730353198637e-06 0 -8.8425513284669268e-07 -2.2094774162539549e-06 0 -1.7226518731313338e-06 -2.5353833533203305e-06 0 -8.8425513284669268e-07 -2.2094774162539549e-06 0 -7.6358339658811456e-07 -1.5580720464711621e-06 0 -1.7503513426734664e-07 -1.8149595953824543e-06 0 -1.5581844358128589e-06 -2.1281730353198637e-06 0 -8.8425513284669268e-07 -2.2094774162539549e-06 0 -7.6358339658811456e-07 -1.5580720464711621e-06 0 -7.6358339658811456e-07 -1.5580720464711621e-06 0 -4.1635947419544814e-10 -6.9879940545483378e-10 0 -1.8588722376097394e-07 -1.0028408822273039e-06 0 -7.6195183026246103e-07 -1.0094225089843863e-06 0 -7.6358339658811456e-07 -1.5580720464711621e-06 0 -4.1635947419544814e-10 -6.9879940545483378e-10 0 -4.1635947419544814e-10 -6.9879940545483378e-10 0 -1.8588722376097394e-07 -1.0028408822273039e-06 0 -1.4679861350986745e-10 -4.7893752061000901e-10 0 -7.6358339658811456e-07 -1.5580720464711621e-06 0 -1.8588722376097394e-07 -1.0028408822273039e-06 0 -1.7503513426734664e-07 -1.8149595953824543e-06 0 -1.8588722376097394e-07 -1.0028408822273039e-06 0 8.5245619766098594e-08 -1.076532788971686e-06 0 -1.7503513426734664e-07 -1.8149595953824543e-06 0 -1.8588722376097394e-07 -1.0028408822273039e-06 0 -1.4679861350986745e-10 -4.7893752061000901e-10 0 8.5245619766098594e-08 -1.076532788971686e-06 0 -1.4679861350986745e-10 -4.7893752061000901e-10 0 1.9197945659353964e-10 -5.1710949989415628e-10 0 8.5245619766098594e-08 -1.076532788971686e-06 0 4.1445574321988275e-07 -9.9843782802562957e-07 0 8.5245619766098594e-08 -1.076532788971686e-06 0 5.2032298335951483e-07 -1.7226758617185031e-06 0 8.5245619766098594e-08 -1.076532788971686e-06 0 5.2032298335951483e-07 -1.7226758617185031e-06 0 -1.7503513426734664e-07 -1.8149595953824543e-06 0 -8.8425513284669268e-07 -2.2094774162539549e-06 0 -1.7503513426734664e-07 -1.8149595953824543e-06 0 -3.1888263072154695e-08 -2.3765095286032466e-06 0 5.2032298335951483e-07 -1.7226758617185031e-06 0 -1.7503513426734662e-07 -1.8149595953824543e-06 0 -3.1888263072154695e-08 -2.3765095286032466e-06 0 5.2032298335951483e-07 -1.7226758617185031e-06 0 1.022127093175886e-06 -2.0268379189933879e-06 0 -3.1888263072154695e-08 -2.3765095286032466e-06 0 1.022127093175886e-06 -2.0268379189933879e-06 0 -3.1888263072154695e-08 -2.3765095286032466e-06 0 1.4481108404792234e-06 -2.1277854689621464e-06 0 -3.1888263072154695e-08 -2.3765095286032466e-06 0 1.4481108404792234e-06 -2.1277854689621464e-06 0 -6.8077979221542036e-07 -2.5834697616039034e-06 0 3.347729936009997e-06 -1.4024749575793814e-06 0 1.4481108404792236e-06 -2.127785468962146e-06 0 1.2507239172829543e-06 -2.0347953024489377e-06 0 1.2507239172829543e-06 -2.0347953024489377e-06 0 -7.801601414868829e-07 -2.3168966205870398e-06 0 -3.91103672493226e-07 -1.7253791029116529e-06 0 1.2507239172829543e-06 -2.0347953024489377e-06 0 -7.801601414868829e-07 -2.3168966205870398e-06 0 -6.8077979221542036e-07 -2.5834697616039034e-06 0 1.4481108404792234e-06 -2.1277854689621464e-06 0 1.2507239172829543e-06 -2.0347953024489377e-06 0 -6.8077979221542036e-07 -2.5834697616039034e-06 0 -7.801601414868829e-07 -2.3168966205870398e-06 0 -2.8950668112979765e-06 -2.5886415141620646e-06 0 -6.8077979221542036e-07 -2.5834697616039034e-06 0 -7.801601414868829e-07 -2.3168966205870398e-06 0 -2.9474752587406608e-06 -2.1468285220065817e-06 0 -3.91103672493226e-07 -1.7253791029116529e-06 0 -7.801601414868829e-07 -2.3168966205870398e-06 0 -2.9474752587406608e-06 -2.1468285220065817e-06 0 -2.8950668112979765e-06 -2.5886415141620646e-06 0 -2.8950668112979765e-06 -2.5886415141620646e-06 0 -6.8077979221542036e-07 -2.5834697616039034e-06 0 -1.7226518731313338e-06 -2.5353833533203305e-06 0 -2.8950668112979765e-06 -2.5886415141620646e-06 0 -1.7226518731313338e-06 -2.5353833533203305e-06 0 -3.2931995986308525e-06 -2.4250133611398114e-06 0 -3.1888263072154695e-08 -2.3765095286032466e-06 0 -6.8077979221542036e-07 -2.5834697616039034e-06 0 -1.7226518731313338e-06 -2.5353833533203305e-06 0 -8.8425513284669268e-07 -2.2094774162539549e-06 0 -3.1888263072154695e-08 -2.3765095286032466e-06 0 -1.7226518731313338e-06 -2.5353833533203305e-06 0 -2.6230820364395686e-06 -2.1608407348607234e-06 0 -1.7226518731313338e-06 -2.5353833533203305e-06 0 -3.2931995986308525e-06 -2.4250133611398114e-06 0 -2.6230820364395686e-06 -2.1608407348607234e-06 0 -3.293199598630852e-06 -2.4250133611398114e-06 0 -3.9621962325642457e-06 -1.9994031276991959e-06 0 -3.2931995986308525e-06 -2.4250133611398114e-06 0 -5.0719761281000665e-06 -2.2237304821413247e-06 0 -3.9621962325642457e-06 -1.9994031276991959e-06 0 -2.8950668112979765e-06 -2.5886415141620646e-06 0 -3.2931995986308525e-06 -2.4250133611398114e-06 0 -5.0719761281000665e-06 -2.2237304821413247e-06 0 -2.8950668112979765e-06 -2.5886415141620646e-06 0 -6.0353277187699534e-06 -1.8918578359812704e-06 0 -5.0719761281000665e-06 -2.2237304821413247e-06 0 -2.9474752587406608e-06 -2.1468285220065817e-06 0 -2.8950668112979765e-06 -2.5886415141620646e-06 0 -6.0353277187699534e-06 -1.8918578359812704e-06 0 -6.0353277187699534e-06 -1.8918578359812704e-06 0 -5.0719761281000665e-06 -2.2237304821413247e-06 0 -7.7795595625766783e-06 -1.5017221402334177e-06 0 -5.0719761281000665e-06 -2.2237304821413247e-06 0 -7.7795595625766783e-06 -1.5017221402334177e-06 0 -5.9190508401612397e-06 -1.7537231611464083e-06 0 -6.0353277187699534e-06 -1.8918578359812704e-06 0 -7.7795595625766783e-06 -1.5017221402334177e-06 0 -9.9603998302426986e-06 -5.7137376784810695e-07 0 -7.7795595625766783e-06 -1.5017221402334177e-06 0 -7.4122456399888898e-06 -1.0584950283025018e-06 0 -1.057198100083916e-05 -2.5619319904550555e-07 0 -7.7795595625766783e-06 -1.5017221402334177e-06 0 -7.4122456399888898e-06 -1.0584950283025018e-06 0 -5.9190508401612397e-06 -1.7537231611464083e-06 0 -7.4122456399888898e-06 -1.0584950283025018e-06 0 -5.9190508401612397e-06 -1.7537231611464083e-06 0 -4.8166358603415176e-06 -1.2491749962017814e-06 0 -5.0719761281000665e-06 -2.2237304821413247e-06 0 -5.9190508401612397e-06 -1.7537231611464083e-06 0 -3.9621962325642457e-06 -1.9994031276991959e-06 0 -5.9190508401612397e-06 -1.7537231611464083e-06 0 -3.9621962325642457e-06 -1.9994031276991959e-06 0 -4.8166358603415176e-06 -1.2491749962017814e-06 0 -2.7302718910180661e-06 -1.4637066904965455e-06 0 -3.9621962325642457e-06 -1.9994031276991959e-06 0 -4.8166358603415176e-06 -1.2491749962017814e-06 0 -1.872028134453765e-05 4.4555828476736422e-06 0 -1.666154437380763e-05 4.2626458224313507e-06 0 -1.3206539398187247e-05 1.6210069547149177e-06 0 -1.872028134453765e-05 4.4555828476736422e-06 0 -1.666154437380763e-05 4.2626458224313507e-06 0 -2.3986311685816653e-05 8.8096751785568387e-06 0 -1.666154437380763e-05 4.2626458224313507e-06 0 -1.3206539398187247e-05 1.6210069547149177e-06 0 -1.1588398293619543e-05 2.8389146237067163e-06 0 -1.666154437380763e-05 4.2626458224313507e-06 0 -1.1588398293619543e-05 2.8389146237067163e-06 0 -1.6873781181294621e-05 6.8368265794316966e-06 0 -1.872028134453765e-05 4.4555828476736422e-06 0 -1.3206539398187247e-05 1.6210069547149177e-06 0 -1.4279447756789443e-05 1.4728664928080162e-06 0 -1.4279447756789443e-05 1.4728664928080162e-06 0 -1.057198100083916e-05 -2.5619319904550555e-07 0 -9.9603998302426986e-06 -5.7137376784810695e-07 0 -7.7795595625766783e-06 -1.5017221402334177e-06 0 -1.057198100083916e-05 -2.5619319904550555e-07 0 -9.9603998302426986e-06 -5.7137376784810695e-07 0 -1.3206539398187247e-05 1.6210069547149177e-06 0 -1.4279447756789443e-05 1.4728664928080162e-06 0 -9.9603998302426986e-06 -5.7137376784810695e-07 0 -1.3206539398187247e-05 1.6210069547149177e-06 0 -9.9603998302426986e-06 -5.7137376784810695e-07 0 -7.6547808759963074e-06 -1.8825771267113941e-07 0 -6.0353277187699534e-06 -1.8918578359812704e-06 0 -4.8962192252973844e-06 -1.460148946597563e-06 0 -7.6547808759963074e-06 -1.8825771267113941e-07 0 -6.0353277187699534e-06 -1.8918578359812704e-06 0 -9.9603998302426986e-06 -5.7137376784810685e-07 0 -7.6547808759963074e-06 -1.8825771267113941e-07 0 -2.9474752587406608e-06 -2.1468285220065817e-06 0 -6.0353277187699534e-06 -1.8918578359812704e-06 0 -4.8962192252973844e-06 -1.4601489465975632e-06 0 -7.6547808759963074e-06 -1.8825771267113941e-07 0 -1.1588398293619543e-05 2.8389146237067163e-06 0 -7.2316333200927519e-06 2.3504940363245514e-06 0 -1.3206539398187247e-05 1.6210069547149177e-06 0 -7.6547808759963074e-06 -1.8825771267113957e-07 0 -1.1588398293619543e-05 2.8389146237067163e-06 0 -1.1588398293619543e-05 2.8389146237067163e-06 0 -7.2316333200927519e-06 2.350494036324551e-06 0 -1.0643104287838749e-05 5.9023715849398608e-06 0 -7.2316333200927519e-06 2.3504940363245514e-06 0 -2.9762780263050118e-06 5.6507129972982568e-07 0 -3.1390482649158164e-06 4.5299361035862804e-06 0 -2.9762780263050118e-06 5.6507129972982579e-07 0 5.4824729942882615e-07 1.6577713541253269e-06 0 -3.1390482649158164e-06 4.5299361035862804e-06 0 -2.9762780263050118e-06 5.6507129972982579e-07 0 6.9786594972700685e-08 -4.8912040990684801e-07 0 5.4824729942882615e-07 1.6577713541253269e-06 0 -7.6547808759963074e-06 -1.8825771267113941e-07 0 -7.2316333200927519e-06 2.3504940363245514e-06 0 -2.9762780263050118e-06 5.6507129972982579e-07 0 -7.6547808759963074e-06 -1.8825771267113941e-07 0 -2.9762780263050127e-06 5.6507129972982621e-07 0 -2.7868325206028354e-06 -1.0472734165837883e-06 0 -4.8962192252973844e-06 -1.4601489465975632e-06 0 -7.6547808759963074e-06 -1.8825771267113941e-07 0 -2.7868325206028354e-06 -1.0472734165837883e-06 0 -2.9474752587406608e-06 -2.1468285220065817e-06 0 -4.8962192252973844e-06 -1.4601489465975632e-06 0 -2.7868325206028354e-06 -1.0472734165837883e-06 0 -2.9474752587406608e-06 -2.1468285220065817e-06 0 -2.786832520602835e-06 -1.0472734165837883e-06 0 -3.91103672493226e-07 -1.7253791029116529e-06 0 -2.7868325206028354e-06 -1.0472734165837883e-06 0 -3.91103672493226e-07 -1.7253791029116529e-06 0 6.9786594972700685e-08 -4.8912040990684801e-07 0 -2.9762780263050118e-06 5.6507129972982579e-07 0 -2.786832520602835e-06 -1.0472734165837883e-06 0 6.9786594972700685e-08 -4.8912040990684801e-07 0 -3.91103672493226e-07 -1.7253791029116529e-06 0 6.9786594972700685e-08 -4.8912040990684801e-07 0 2.1332164200328039e-06 -1.0701885068603586e-06 0 6.9786594972700685e-08 -4.8912040990684801e-07 0 2.1332164200328035e-06 -1.0701885068603586e-06 0 3.2197305163451841e-06 5.6623518982119912e-07 0 1.2507239172829543e-06 -2.0347953024489377e-06 0 -3.91103672493226e-07 -1.7253791029116529e-06 0 2.1332164200328039e-06 -1.0701885068603586e-06 0 2.1332164200328039e-06 -1.0701885068603586e-06 0 3.3861088092104535e-06 -1.1333381227220329e-06 0 4.6773747900727708e-06 -1.5787500173254994e-07 0 1.2507239172829543e-06 -2.0347953024489377e-06 0 2.1332164200328039e-06 -1.0701885068603586e-06 0 3.3861088092104531e-06 -1.1333381227220329e-06 0 2.1332164200328039e-06 -1.0701885068603586e-06 0 3.2197305163451841e-06 5.6623518982119912e-07 0 4.6773747900727708e-06 -1.5787500173254994e-07 0 3.2197305163451841e-06 5.6623518982119912e-07 0 4.6773747900727708e-06 -1.5787500173254994e-07 0 6.8567359194600341e-06 1.8443097838403677e-06 0 6.9786594972700685e-08 -4.8912040990684801e-07 0 3.2197305163451841e-06 5.6623518982119912e-07 0 5.4824729942882615e-07 1.6577713541253269e-06 0 3.2197305163451841e-06 5.6623518982119912e-07 0 5.4824729942882615e-07 1.6577713541253269e-06 0 4.0759795797522146e-06 3.3423381165338497e-06 0 3.2197305163451841e-06 5.6623518982119912e-07 0 4.0759795797522146e-06 3.3423381165338497e-06 0 6.8567359194600341e-06 1.8443097838403677e-06 0 4.0759795797522146e-06 3.3423381165338497e-06 0 6.8295569047593915e-06 6.3269278115675507e-06 0 9.2690483926875848e-06 4.4407305246920842e-06 0 4.0759795797522146e-06 3.3423381165338497e-06 0 6.8567359194600341e-06 1.8443097838403677e-06 0 9.2690483926875848e-06 4.4407305246920842e-06 0 4.0759795797522146e-06 3.3423381165338497e-06 0 1.8760697623675328e-06 7.0119612969179077e-06 0 -3.1390482649158164e-06 4.5299361035862804e-06 0 5.4824729942882615e-07 1.6577713541253269e-06 0 4.0759795797522146e-06 3.3423381165338497e-06 0 -3.1390482649158164e-06 4.5299361035862804e-06 0 4.0759795797522146e-06 3.3423381165338497e-06 0 1.8760697623675328e-06 7.0119612969179077e-06 0 6.8295569047593915e-06 6.3269278115675507e-06 0 6.8295569047593915e-06 6.3269278115675507e-06 0 5.0492223087449213e-06 1.1427035625891957e-05 0 1.1668218325272473e-05 8.1951347070294042e-06 0 5.0492223087449213e-06 1.1427035625891957e-05 0 1.1668218325272473e-05 8.1951347070294042e-06 0 1.0801363081287833e-05 1.7598962803201464e-05 0 5.0492223087449213e-06 1.1427035625891957e-05 0 4.6129053603232289e-06 1.9210597334962303e-05 0 1.0801363081287833e-05 1.7598962803201464e-05 0 5.0492223087449213e-06 1.1427035625891957e-05 0 -2.263216434664133e-06 2.0253373869637534e-05 0 4.6129053603232289e-06 1.9210597334962303e-05 0 1.8760697623675328e-06 7.0119612969179077e-06 0 5.0492223087449213e-06 1.1427035625891957e-05 0 -4.3769599655899272e-06 1.1842388664210302e-05 0 1.8760697623675328e-06 7.0119612969179077e-06 0 6.8295569047593915e-06 6.3269278115675507e-06 0 5.0492223087449213e-06 1.1427035625891957e-05 0 5.0492223087449213e-06 1.1427035625891957e-05 0 -4.3769599655899272e-06 1.1842388664210302e-05 0 -2.263216434664133e-06 2.0253373869637534e-05 0 -4.3769599655899272e-06 1.1842388664210302e-05 0 -1.2027543533685579e-05 2.0833997316331748e-05 0 -2.263216434664133e-06 2.0253373869637534e-05 0 -4.3769599655899272e-06 1.1842388664210302e-05 0 -1.0066921201885164e-05 1.0387164605331453e-05 0 -1.2027543533685579e-05 2.0833997316331751e-05 0 -4.3769599655899272e-06 1.1842388664210302e-05 0 -3.1390482649158164e-06 4.5299361035862804e-06 0 -1.0066921201885164e-05 1.0387164605331453e-05 0 -3.1390482649158164e-06 4.5299361035862804e-06 0 -1.0643104287838749e-05 5.9023715849398608e-06 0 -1.0066921201885164e-05 1.0387164605331453e-05 0 1.8760697623675328e-06 7.0119612969179077e-06 0 -4.3769599655899272e-06 1.1842388664210302e-05 0 -3.1390482649158164e-06 4.5299361035862804e-06 0 -7.2316333200927519e-06 2.3504940363245514e-06 0 -3.1390482649158168e-06 4.5299361035862804e-06 0 -1.0643104287838749e-05 5.9023715849398608e-06 0 -1.1588398293619543e-05 2.8389146237067163e-06 0 -1.0643104287838749e-05 5.9023715849398608e-06 0 -1.6873781181294621e-05 6.8368265794316966e-06 0 -1.0643104287838749e-05 5.9023715849398608e-06 0 -1.6162171654748459e-05 1.0973746783179935e-05 0 -1.6873781181294621e-05 6.8368265794316966e-06 0 -1.0643104287838749e-05 5.9023715849398608e-06 0 -1.6162171654748459e-05 1.0973746783179935e-05 0 -1.0066921201885164e-05 1.0387164605331453e-05 0 -1.6162171654748459e-05 1.0973746783179935e-05 0 -1.0066921201885164e-05 1.0387164605331453e-05 0 -1.7433761335734376e-05 1.6728299114206649e-05 0 -1.0066921201885164e-05 1.0387164605331453e-05 0 -1.7433761335734376e-05 1.6728299114206649e-05 0 -1.2027543533685579e-05 2.0833997316331751e-05 0 -1.7433761335734376e-05 1.6728299114206649e-05 0 -2.4350994929982099e-05 1.7333988811326708e-05 0 -2.5392195723861313e-05 2.6721122448615101e-05 0 -1.7433761335734376e-05 1.6728299114206649e-05 0 -2.5392195723861313e-05 2.6721122448615101e-05 0 -1.2027543533685579e-05 2.0833997316331751e-05 0 -1.6162171654748459e-05 1.0973746783179935e-05 0 -1.7433761335734376e-05 1.6728299114206649e-05 0 -2.4350994929982099e-05 1.7333988811326708e-05 0 -1.6162171654748459e-05 1.0973746783179935e-05 0 -2.4350994929982099e-05 1.7333988811326708e-05 0 -2.230309940782915e-05 1.1426423057923446e-05 0 -2.4350994929982099e-05 1.7333988811326708e-05 0 -3.5751907260858316e-05 2.4298700391378334e-05 0 -2.5392195723861313e-05 2.6721122448615101e-05 0 -2.4350994929982099e-05 1.7333988811326708e-05 0 -2.9808818040467623e-05 1.5405047055166857e-05 0 -3.5751907260858316e-05 2.4298700391378334e-05 0 -2.4350994929982099e-05 1.7333988811326708e-05 0 -2.9808818040467623e-05 1.5405047055166857e-05 0 -2.230309940782915e-05 1.1426423057923446e-05 0 -2.9808818040467623e-05 1.5405047055166857e-05 0 -2.230309940782915e-05 1.1426423057923446e-05 0 -2.3986311685816653e-05 8.8096751785568387e-06 0 -2.230309940782915e-05 1.1426423057923446e-05 0 -1.6873781181294621e-05 6.8368265794316966e-06 0 -2.3986311685816653e-05 8.8096751785568387e-06 0 -1.6162171654748459e-05 1.0973746783179935e-05 0 -2.230309940782915e-05 1.1426423057923446e-05 0 -1.6873781181294621e-05 6.8368265794316966e-06 0 -1.666154437380763e-05 4.2626458224313507e-06 0 -1.6873781181294621e-05 6.8368265794316966e-06 0 -2.3986311685816653e-05 8.8096751785568387e-06 0 8.1355875396918263e-06 2.0339624143848407e-06 0 8.1138750797595347e-06 1.7436709327061726e-06 0 9.2340550860873826e-06 2.6058962928187797e-06 0 8.1138750797595347e-06 1.7436709327061726e-06 0 9.2340550860873826e-06 2.6058962928187797e-06 0 9.7689831703135137e-06 2.7434982884336506e-06 0 9.2340550860873826e-06 2.6058962928187797e-06 0 9.7689831703135137e-06 2.743498288433651e-06 0 1.0842909868799694e-05 3.6762606930513678e-06 0 8.1355875396918263e-06 2.0339624143848407e-06 0 9.2340550860873826e-06 2.6058962928187797e-06 0 8.7487312880440667e-06 2.3789739885874301e-06 0 8.7487312880440667e-06 2.3789739885874301e-06 0 7.2496427206131265e-06 1.7843499807114728e-06 0 7.6484846279918137e-06 1.6058178774725763e-06 0 8.1355875396918263e-06 2.0339624143848407e-06 0 8.7487312880440667e-06 2.3789739885874301e-06 0 7.2496427206131265e-06 1.7843499807114728e-06 0 6.5774211162034411e-06 1.3195027836336821e-06 0 7.2496427206131256e-06 1.7843499807114728e-06 0 7.6484846279918137e-06 1.6058178774725763e-06 0 8.1355875396918263e-06 2.0339624143848407e-06 0 7.2496427206131265e-06 1.7843499807114728e-06 0 6.9878543766718599e-06 1.520779242961065e-06 0 7.2496427206131265e-06 1.7843499807114728e-06 0 5.9637771596688894e-06 1.465995317099179e-06 0 6.9878543766718599e-06 1.520779242961065e-06 0 5.8339154037521545e-06 1.3957901997227041e-06 0 7.2496427206131265e-06 1.7843499807114728e-06 0 5.9637771596688894e-06 1.465995317099179e-06 0 4.8669109990863158e-06 1.3158791651259226e-06 0 5.9637771596688894e-06 1.465995317099179e-06 0 5.7633118298201447e-06 1.1442184785682413e-06 0 5.9637771596688894e-06 1.465995317099179e-06 0 5.7633118298201447e-06 1.144218478568241e-06 0 6.9878543766718599e-06 1.520779242961065e-06 0 5.7633118298201447e-06 1.1442184785682413e-06 0 6.9878543766718599e-06 1.520779242961065e-06 0 6.4970670861813466e-06 9.4327032557449773e-07 0 8.1355875396918263e-06 2.0339624143848407e-06 0 8.1138750797595347e-06 1.7436709327061726e-06 0 6.9878543766718599e-06 1.520779242961065e-06 0 8.1138750797595347e-06 1.7436709327061726e-06 0 6.9878543766718599e-06 1.520779242961065e-06 0 6.4970670861813466e-06 9.4327032557449773e-07 0 8.1138750797595347e-06 1.7436709327061726e-06 0 6.4970670861813466e-06 9.4327032557449773e-07 0 6.6874245886414957e-06 5.4457346635054949e-07 0 5.7915589523850916e-06 3.0446575805550638e-07 0 6.4970670861813466e-06 9.4327032557449773e-07 0 6.6874245886414957e-06 5.4457346635054949e-07 0 4.5889208863354216e-06 -6.3946710677053262e-07 0 6.6874245886414957e-06 5.4457346635054949e-07 0 5.1123954873475315e-06 -4.5012349981504395e-07 0 6.6874245886414957e-06 5.4457346635054949e-07 0 6.9546766137074803e-06 7.998616664507124e-07 0 8.2335551174788946e-06 1.5808772370679766e-06 0 6.6874245886414957e-06 5.4457346635054949e-07 0 5.1123954873475315e-06 -4.50123499815044e-07 0 6.9546766137074803e-06 7.998616664507124e-07 0 8.1138750797595347e-06 1.7436709327061726e-06 0 6.6874245886414949e-06 5.4457346635054928e-07 0 8.2335551174788946e-06 1.5808772370679766e-06 0 3.3861088092104531e-06 -1.1333381227220329e-06 0 5.1123954873475315e-06 -4.5012349981504395e-07 0 4.6773747900727708e-06 -1.5787500173254994e-07 0 5.1123954873475315e-06 -4.5012349981504395e-07 0 4.6773747900727708e-06 -1.5787500173254981e-07 0 6.9546766137074803e-06 7.998616664507124e-07 0 4.6773747900727708e-06 -1.5787500173254994e-07 0 6.9546766137074803e-06 7.998616664507124e-07 0 6.8567359194600341e-06 1.8443097838403677e-06 0 6.9546766137074803e-06 7.998616664507124e-07 0 9.5978655378293341e-06 2.7353341609796446e-06 0 6.8567359194600341e-06 1.8443097838403677e-06 0 9.5978655378293341e-06 2.7353341609796446e-06 0 6.8567359194600341e-06 1.8443097838403677e-06 0 9.2690483926875848e-06 4.4407305246920842e-06 0 8.1138750797595347e-06 1.7436709327061726e-06 0 8.2335551174788946e-06 1.5808772370679764e-06 0 9.7689831703135137e-06 2.7434982884336506e-06 0 6.9546766137074803e-06 7.998616664507124e-07 0 9.5978655378293341e-06 2.7353341609796446e-06 0 8.2335551174788946e-06 1.5808772370679766e-06 0 9.5978655378293341e-06 2.7353341609796446e-06 0 8.2335551174788946e-06 1.5808772370679766e-06 0 9.7689831703135137e-06 2.7434982884336506e-06 0 9.5978655378293341e-06 2.7353341609796446e-06 0 9.7689831703135137e-06 2.7434982884336506e-06 0 1.1440479516644479e-05 4.1551723591599501e-06 0 9.7689831703135137e-06 2.7434982884336506e-06 0 1.1440479516644479e-05 4.1551723591599501e-06 0 1.0842909868799694e-05 3.6762606930513678e-06 0 9.5978655378293341e-06 2.7353341609796446e-06 0 1.1440479516644479e-05 4.1551723591599501e-06 0 1.3358333995567561e-05 6.0013052220606231e-06 0 1.1440479516644479e-05 4.1551723591599501e-06 0 1.3358333995567561e-05 6.0013052220606231e-06 0 1.2829946491477288e-05 5.1205473264668408e-06 0 1.2829946491477288e-05 5.1205473264668408e-06 0 1.1268101505096488e-05 3.8233397268351345e-06 0 1.0842909868799694e-05 3.6762606930513678e-06 0 1.1440479516644479e-05 4.1551723591599501e-06 0 1.2829946491477288e-05 5.1205473264668408e-06 0 1.0842909868799694e-05 3.6762606930513678e-06 0 9.5978655378293341e-06 2.7353341609796446e-06 0 9.2690483926875848e-06 4.4407305246920842e-06 0 1.3358333995567561e-05 6.0013052220606231e-06 0 9.2690483926875848e-06 4.4407305246920842e-06 0 1.3358333995567561e-05 6.0013052220606231e-06 0 1.1668218325272473e-05 8.1951347070294042e-06 0 6.8295569047593915e-06 6.3269278115675507e-06 0 9.2690483926875848e-06 4.4407305246920842e-06 0 1.1668218325272473e-05 8.1951347070294042e-06 0 1.3358333995567561e-05 6.0013052220606231e-06 0 1.1668218325272473e-05 8.1951347070294042e-06 0 1.9036037677994912e-05 1.0423252514622256e-05 0 1.1668218325272473e-05 8.1951347070294042e-06 0 1.9036037677994912e-05 1.0423252514622256e-05 0 1.0801363081287833e-05 1.7598962803201464e-05 0 1.3358333995567561e-05 6.0013052220606231e-06 0 1.4565172091744672e-05 6.9240866664256138e-06 0 1.9036037677994912e-05 1.0423252514622256e-05 0 1.2829946491477288e-05 5.1205473264668408e-06 0 1.4565172091744672e-05 6.9240866664256129e-06 0 1.203557832822801e-05 4.1092308206011088e-06 0 1.2829946491477288e-05 5.1205473264668408e-06 0 1.203557832822801e-05 4.1092308206011088e-06 0 1.1268101505096488e-05 3.8233397268351345e-06 0 1.3358333995567561e-05 6.0013052220606231e-06 0 1.2829946491477288e-05 5.12054732646684e-06 0 1.4565172091744672e-05 6.9240866664256129e-06 0 1.4565172091744672e-05 6.9240866664256129e-06 0 1.203557832822801e-05 4.1092308206011096e-06 0 1.2786964808039197e-05 2.5137915341305642e-06 0 1.203557832822801e-05 4.1092308206011088e-06 0 1.1183205670227866e-05 3.4499912956796354e-07 0 1.2786964808039197e-05 2.5137915341305642e-06 0 1.203557832822801e-05 4.1092308206011088e-06 0 1.0141936576048402e-05 2.2756332557602374e-06 0 1.1183205670227866e-05 3.4499912956796354e-07 0 1.203557832822801e-05 4.1092308206011088e-06 0 1.0141936576048402e-05 2.2756332557602374e-06 0 1.1268101505096488e-05 3.8233397268351345e-06 0 1.1268101505096488e-05 3.8233397268351345e-06 0 1.0028729932185976e-05 3.1226840615300367e-06 0 1.0842909868799694e-05 3.6762606930513678e-06 0 1.0141936576048402e-05 2.2756332557602374e-06 0 1.1268101505096488e-05 3.8233397268351345e-06 0 1.0028729932185976e-05 3.1226840615300367e-06 0 1.0141936576048402e-05 2.2756332557602374e-06 0 1.0028729932185976e-05 3.1226840615300367e-06 0 8.8787214877943254e-06 1.9328229199643446e-06 0 8.7487312880440667e-06 2.3789739885874301e-06 0 1.0028729932185976e-05 3.1226840615300367e-06 0 8.8787214877943254e-06 1.9328229199643446e-06 0 9.2340550860873826e-06 2.6058962928187797e-06 0 8.7487312880440667e-06 2.3789739885874301e-06 0 1.0028729932185976e-05 3.1226840615300367e-06 0 9.2340550860873826e-06 2.6058962928187797e-06 0 1.0028729932185976e-05 3.1226840615300367e-06 0 1.0842909868799694e-05 3.6762606930513678e-06 0 8.7487312880440667e-06 2.3789739885874301e-06 0 7.6484846279918137e-06 1.6058178774725763e-06 0 8.8787214877943254e-06 1.9328229199643446e-06 0 7.3411794048982957e-06 4.9179784312596672e-07 0 7.6484846279918137e-06 1.6058178774725765e-06 0 8.8787214877943254e-06 1.9328229199643446e-06 0 1.0141936576048402e-05 2.2756332557602374e-06 0 8.4342224042087996e-06 2.4136521460319408e-07 0 9.4722404777170243e-06 -1.9869053535108356e-06 0 7.3411794048982957e-06 4.9179784312596672e-07 0 7.1986116287338137e-06 -1.3038174416041155e-06 0 8.4342224042087996e-06 2.4136521460319408e-07 0 7.3411794048982957e-06 4.9179784312596672e-07 0 8.8787214877943254e-06 1.9328229199643446e-06 0 8.4342224042087996e-06 2.4136521460319408e-07 0 1.0141936576048402e-05 2.2756332557602374e-06 0 8.8787214877943254e-06 1.9328229199643446e-06 0 8.4342224042087996e-06 2.4136521460319408e-07 0 7.1986116287338137e-06 -1.3038174416041155e-06 0 8.4342224042087996e-06 2.4136521460319408e-07 0 7.9183053953611243e-06 -2.921505695215261e-06 0 8.4342224042087996e-06 2.4136521460319408e-07 0 9.4722404777170243e-06 -1.9869053535108356e-06 0 7.9183053953611243e-06 -2.921505695215261e-06 0 9.4722404777170243e-06 -1.9869053535108356e-06 0 7.9183053953611243e-06 -2.921505695215261e-06 0 9.643655450913877e-06 -5.0383974285414094e-06 0 9.4722404777170243e-06 -1.9869053535108356e-06 0 9.643655450913877e-06 -5.0383974285414094e-06 0 1.1360936514339581e-05 -4.6324724212804508e-06 0 7.9183053953611243e-06 -2.921505695215261e-06 0 7.9868557559532765e-06 -5.5516895545785622e-06 0 9.643655450913877e-06 -5.0383974285414094e-06 0 7.9868557559532765e-06 -5.5516895545785622e-06 0 9.643655450913877e-06 -5.0383974285414094e-06 0 1.0336210036768338e-05 -8.3301854757255593e-06 0 9.643655450913877e-06 -5.0383974285414094e-06 0 1.0336210036768338e-05 -8.3301854757255593e-06 0 1.1360936514339581e-05 -4.6324724212804508e-06 0 7.9868557559532765e-06 -5.5516895545785622e-06 0 1.0336210036768338e-05 -8.3301854757255593e-06 0 7.7808057769836296e-06 -8.2038391311398865e-06 0 1.4798321017047373e-05 -6.9062175185860658e-06 0 1.6270047353588219e-05 -1.0155757942569987e-05 0 1.3605730961542936e-05 -9.2623344885540087e-06 0 1.1360936514339581e-05 -4.6324724212804508e-06 0 1.4798321017047373e-05 -6.9062175185860658e-06 0 1.3605730961542936e-05 -9.2623344885540087e-06 0 1.0336210036768338e-05 -8.3301854757255593e-06 0 1.1360936514339581e-05 -4.6324724212804508e-06 0 1.3605730961542936e-05 -9.2623344885540087e-06 0 1.1360936514339581e-05 -4.6324724212804508e-06 0 1.3155241394670646e-05 -1.8559925064638558e-06 0 1.4798321017047373e-05 -6.9062175185860658e-06 0 1.0141936576048402e-05 2.2756332557602374e-06 0 9.472240477717026e-06 -1.9869053535108352e-06 0 1.1183205670227866e-05 3.4499912956796354e-07 0 1.1360936514339581e-05 -4.6324724212804508e-06 0 1.1183205670227866e-05 3.4499912956796354e-07 0 1.3155241394670646e-05 -1.8559925064638558e-06 0 9.4722404777170243e-06 -1.9869053535108356e-06 0 1.1360936514339581e-05 -4.6324724212804508e-06 0 1.1183205670227866e-05 3.4499912956796354e-07 0 1.1183205670227866e-05 3.4499912956796354e-07 0 1.2786964808039199e-05 2.5137915341305642e-06 0 1.3155241394670646e-05 -1.8559925064638558e-06 0 1.4565172091744672e-05 6.9240866664256129e-06 0 1.2786964808039197e-05 2.5137915341305642e-06 0 1.4953564961222326e-05 2.2620699299188774e-06 0 1.2786964808039197e-05 2.5137915341305642e-06 0 1.4953564961222326e-05 2.2620699299188774e-06 0 1.3155241394670646e-05 -1.8559925064638558e-06 0 1.4565172091744672e-05 6.9240866664256129e-06 0 1.4953564961222325e-05 2.262069929918877e-06 0 1.9036037677994912e-05 1.0423252514622256e-05 0 1.4953564961222326e-05 2.2620699299188774e-06 0 2.0373976431949567e-05 -1.9348013941003144e-06 0 1.6921442770498342e-05 -4.8903495274204225e-06 0 1.4953564961222326e-05 2.2620699299188774e-06 0 1.3155241394670646e-05 -1.8559925064638558e-06 0 1.6921442770498342e-05 -4.8903495274204225e-06 0 1.9036037677994912e-05 1.0423252514622256e-05 0 1.5512633559303476e-05 3.1473044639906932e-05 0 1.0801363081287833e-05 1.7598962803201464e-05 0 1.4953564961222326e-05 2.2620699299188774e-06 0 1.9036037677994912e-05 1.0423252514622256e-05 0 2.0373976431949567e-05 -1.9348013941003144e-06 0 1.3340273980752319e-05 8.9029019861787088e-06 0 2.5892695334262603e-05 1.5976573835315573e-05 0 1.9036037677994912e-05 1.0423252514622256e-05 0 2.7194621686632381e-05 3.1197982715008767e-05 0 1.5512633559303473e-05 3.1473044639906932e-05 0 1.5512633559303473e-05 3.1473044639906932e-05 0 3.1969894069801841e-05 4.7037328796602335e-05 0 1.4542477636028323e-05 4.4987471454771539e-05 0 2.5892695334262603e-05 1.5976573835315573e-05 0 2.6046213486253348e-05 1.9398127776092729e-05 0 2.0373976431949567e-05 -1.9348013941003144e-06 0 2.0762431176676739e-05 -6.8408139792019917e-06 0 1.6921442770498342e-05 -4.8903495274204225e-06 0 2.7194621686632381e-05 3.1197982715008767e-05 0 1.5512633559303473e-05 3.1473044639906932e-05 0 3.1969894069801841e-05 4.7037328796602335e-05 0 2.6046213486253348e-05 1.9398127776092729e-05 0 2.8909604996470887e-05 2.6789946664778225e-05 0 2.0762431176676739e-05 -6.8408139792019917e-06 0 1.8557989630419711e-05 -9.0300878054667667e-06 0 2.1422622539493696e-05 -1.0167294298372338e-05 0 3.1969894069801841e-05 4.7037328796602335e-05 0 2.4254349704765422e-05 5.7111375252554367e-05 0 1.4542477636028323e-05 4.4987471454771539e-05 0 1.3155241394670646e-05 -1.8559925064638558e-06 0 1.6921442770498342e-05 -4.8903495274204225e-06 0 1.4798321017047373e-05 -6.9062175185860658e-06 0 2.0762431176676739e-05 -6.8408139792019917e-06 0 1.6921442770498342e-05 -4.8903495274204225e-06 0 1.8557989630419711e-05 -9.0300878054667667e-06 0 1.6921442770498342e-05 -4.8903495274204225e-06 0 1.8557989630419711e-05 -9.0300878054667667e-06 0 1.4798321017047373e-05 -6.9062175185860658e-06 0 1.8557989630419711e-05 -9.0300878054667667e-06 0 1.4798321017047373e-05 -6.9062175185860658e-06 0 1.6270047353588219e-05 -1.0155757942569987e-05 0 1.8557989630419711e-05 -9.0300878054667667e-06 0 1.6270047353588219e-05 -1.0155757942569987e-05 0 1.9099082967320214e-05 -1.2440422426673468e-05 0 1.8557989630419711e-05 -9.0300878054667667e-06 0 1.9099082967320214e-05 -1.2440422426673468e-05 0 2.1422622539493696e-05 -1.0167294298372338e-05 0 1.9099082967320214e-05 -1.2440422426673468e-05 0 2.1422622539493696e-05 -1.0167294298372338e-05 0 2.2506531292864783e-05 -1.310019460790917e-05 0 1.6270047353588219e-05 -1.0155757942569987e-05 0 1.9099082967320214e-05 -1.2440422426673468e-05 0 1.5983714397405188e-05 -1.249664165919708e-05 0 2.4254349704765422e-05 5.7111375252554367e-05 0 2.6917713159657339e-05 6.7835870292394076e-05 0 1.3531609474044925e-05 6.1764788723688358e-05 0 2.4254349704765422e-05 5.7111375252554367e-05 0 3.6113842198287609e-05 6.2917485655110346e-05 0 2.6917713159657339e-05 6.7835870292394076e-05 0 3.1969894069801841e-05 4.7037328796602335e-05 0 2.4254349704765422e-05 5.7111375252554367e-05 0 3.6113842198287609e-05 6.2917485655110346e-05 0 2.8909604996470887e-05 2.6789946664778225e-05 0 3.100121176862981e-05 3.3195046102308518e-05 0 3.6113842198287609e-05 6.2917485655110346e-05 0 2.6917713159657339e-05 6.7835870292394076e-05 0 3.9755808237478926e-05 7.9882316104177032e-05 0 2.6917713159657339e-05 6.7835870292394076e-05 0 3.9755808237478926e-05 7.9882316104177032e-05 0 2.1612491626333369e-05 7.7266358825322118e-05 0 3.9755808237478926e-05 7.9882316104177032e-05 0 2.759121821371365e-05 8.938689688598604e-05 0 2.1612491626333369e-05 7.7266358825322118e-05 0 3.9755808237478926e-05 7.9882316104177032e-05 0 4.3078923344770817e-05 9.7968609489340461e-05 0 2.759121821371365e-05 8.938689688598604e-05 0 2.2506531292864783e-05 -1.310019460790917e-05 0 2.3829310316579163e-05 -1.6114111505325805e-05 0 2.0999364768361261e-05 -1.5432948710762589e-05 0 3.100121176862981e-05 3.3195046102308518e-05 0 3.3164947561118304e-05 4.0723650167890429e-05 0 4.3078923344770817e-05 9.7968609489340461e-05 0 2.759121821371365e-05 8.938689688598604e-05 0 2.4518824664439399e-05 0.00010196222865817433 0 1.9099082967320214e-05 -1.2440422426673468e-05 0 1.8052396257422944e-05 -1.5075310273821339e-05 0 2.0999364768361261e-05 -1.5432948710762589e-05 0 1.9099082967320214e-05 -1.2440422426673468e-05 0 1.8052396257422944e-05 -1.5075310273821337e-05 0 1.5983714397405188e-05 -1.249664165919708e-05 0 1.9099082967320214e-05 -1.2440422426673468e-05 0 2.2506531292864783e-05 -1.310019460790917e-05 0 2.0999364768361261e-05 -1.5432948710762589e-05 0 1.8052396257422944e-05 -1.5075310273821337e-05 0 2.0999364768361261e-05 -1.5432948710762589e-05 0 1.8457870084479796e-05 -1.7526619781446764e-05 0 2.0999364768361261e-05 -1.5432948710762589e-05 0 1.8457870084479796e-05 -1.7526619781446764e-05 0 2.2005377340282657e-05 -1.8864916528629251e-05 0 1.8052396257422944e-05 -1.5075310273821337e-05 0 1.8457870084479796e-05 -1.7526619781446764e-05 0 1.4543191755003631e-05 -1.5309184490468162e-05 0 1.8457870084479796e-05 -1.7526619781446764e-05 0 1.4543191755003631e-05 -1.5309184490468162e-05 0 1.6419537262317043e-05 -1.920854880188136e-05 0 1.8052396257422944e-05 -1.5075310273821337e-05 0 1.4543191755003631e-05 -1.5309184490468162e-05 0 1.5983714397405188e-05 -1.249664165919708e-05 0 1.4543191755003631e-05 -1.5309184490468162e-05 0 1.0948874675791483e-05 -1.2263117540744503e-05 0 1.3284936677183569e-05 -1.2221498417643936e-05 0 1.4543191755003631e-05 -1.5309184490468162e-05 0 1.5983714397405188e-05 -1.249664165919708e-05 0 1.3284936677183569e-05 -1.2221498417643936e-05 0 1.4543191755003631e-05 -1.5309184490468162e-05 0 1.0904593676419585e-05 -1.5006248844069252e-05 0 1.2858203422661897e-05 -1.8967378817508723e-05 0 1.0904593676419585e-05 -1.5006248844069252e-05 0 1.2858203422661897e-05 -1.8967378817508723e-05 0 9.3474964960710905e-06 -1.6645270056655529e-05 0 1.0904593676419585e-05 -1.5006248844069252e-05 0 1.0948874675791483e-05 -1.2263117540744503e-05 0 8.5616671883770708e-06 -1.3484032184455484e-05 0 1.4543191755003631e-05 -1.5309184490468162e-05 0 1.0904593676419585e-05 -1.5006248844069252e-05 0 1.0948874675791483e-05 -1.2263117540744503e-05 0 1.0336210036768338e-05 -8.3301854757255593e-06 0 1.0948874675791483e-05 -1.2263117540744503e-05 0 1.3284936677183569e-05 -1.2221498417643936e-05 0 1.0948874675791483e-05 -1.2263117540744503e-05 0 8.8767621315545917e-06 -1.0721007315309119e-05 0 8.5616671883770708e-06 -1.3484032184455484e-05 0 1.0336210036768338e-05 -8.3301854757255593e-06 0 1.0948874675791483e-05 -1.2263117540744503e-05 0 8.8767621315545917e-06 -1.0721007315309119e-05 0 1.0336210036768338e-05 -8.3301854757255593e-06 0 7.7808057769836296e-06 -8.2038391311398865e-06 0 8.8767621315545917e-06 -1.0721007315309119e-05 0 1.0336210036768338e-05 -8.3301854757255593e-06 0 1.3605730961542936e-05 -9.2623344885540087e-06 0 1.3284936677183569e-05 -1.2221498417643936e-05 0 1.6270047353588219e-05 -1.0155757942569987e-05 0 1.3605730961542936e-05 -9.2623344885540087e-06 0 1.5983714397405188e-05 -1.249664165919708e-05 0 1.3605730961542936e-05 -9.2623344885540087e-06 0 1.5983714397405188e-05 -1.249664165919708e-05 0 1.3284936677183569e-05 -1.2221498417643936e-05 0 -4.6897165007979585e-05 4.9122624731157311e-05 0 -3.497377088566025e-05 5.3955627936845276e-05 0 -3.4498081188823101e-05 4.0570005776115425e-05 0 -4.6897165007979585e-05 4.9122624731157311e-05 0 -3.497377088566025e-05 5.3955627936845276e-05 0 -5.1552226789679041e-05 6.4561721152825153e-05 0 -3.497377088566025e-05 5.3955627936845276e-05 0 -3.4498081188823101e-05 4.0570005776115425e-05 0 -2.451694463057448e-05 4.0432001782926896e-05 0 -4.6897165007979585e-05 4.9122624731157311e-05 0 -3.4498081188823101e-05 4.0570005776115425e-05 0 -4.1272328332269441e-05 3.5547218355339327e-05 0 -4.1272328332269441e-05 3.5547218355339327e-05 0 -3.5751907260858316e-05 2.4298700391378334e-05 0 -2.5392195723861313e-05 2.6721122448615101e-05 0 -3.4498081188823101e-05 4.0570005776115425e-05 0 -2.5392195723861313e-05 2.6721122448615101e-05 0 -2.451694463057448e-05 4.0432001782926896e-05 0 -3.4498081188823101e-05 4.0570005776115425e-05 0 -4.1272328332269441e-05 3.5547218355339327e-05 0 -2.5392195723861313e-05 2.6721122448615101e-05 0 -2.5392195723861313e-05 2.6721122448615101e-05 0 -1.6613734922412387e-05 3.2125600516461998e-05 0 -2.451694463057448e-05 4.0432001782926896e-05 0 -2.5392195723861313e-05 2.6721122448615101e-05 0 -1.2027543533685579e-05 2.0833997316331751e-05 0 -1.6613734922412387e-05 3.2125600516461998e-05 0 -1.6613734922412387e-05 3.2125600516461998e-05 0 -1.5982940454413063e-05 4.1523641548759066e-05 0 -7.612212524849712e-06 3.3926495789305864e-05 0 -1.6613734922412387e-05 3.2125600516461998e-05 0 -1.5982940454413063e-05 4.1523641548759066e-05 0 -2.451694463057448e-05 4.0432001782926896e-05 0 -1.5982940454413063e-05 4.1523641548759066e-05 0 -2.451694463057448e-05 4.0432001782926896e-05 0 -2.1550240574070778e-05 5.2552808388420617e-05 0 -3.497377088566025e-05 5.3955627936845276e-05 0 -2.451694463057448e-05 4.0432001782926896e-05 0 -2.1550240574070778e-05 5.2552808388420617e-05 0 -1.5982940454413063e-05 4.1523641548759066e-05 0 -2.1550240574070778e-05 5.2552808388420617e-05 0 -9.5146563807053585e-06 5.0362791353048476e-05 0 -9.5146563807053585e-06 5.0362791353048476e-05 0 2.371020786099695e-06 4.6809449755243192e-05 0 -1.327374310774479e-06 6.2313712728899714e-05 0 -9.5146563807053585e-06 5.0362791353048476e-05 0 -7.612212524849712e-06 3.3926495789305864e-05 0 2.371020786099695e-06 4.6809449755243192e-05 0 -7.612212524849712e-06 3.3926495789305864e-05 0 4.5429008541524575e-06 2.9928691921236038e-05 0 2.371020786099695e-06 4.6809449755243192e-05 0 -1.5982940454413063e-05 4.1523641548759066e-05 0 -9.5146563807053585e-06 5.0362791353048476e-05 0 -7.612212524849712e-06 3.3926495789305864e-05 0 -1.2027543533685579e-05 2.0833997316331751e-05 0 -1.6613734922412387e-05 3.2125600516461998e-05 0 -7.612212524849712e-06 3.3926495789305864e-05 0 -1.2027543533685579e-05 2.0833997316331751e-05 0 -7.6122125248497136e-06 3.3926495789305864e-05 0 -2.263216434664133e-06 2.0253373869637534e-05 0 -7.612212524849712e-06 3.3926495789305864e-05 0 -2.2632164346641317e-06 2.0253373869637534e-05 0 4.5429008541524575e-06 2.9928691921236038e-05 0 -2.263216434664133e-06 2.0253373869637534e-05 0 4.5429008541524567e-06 2.9928691921236038e-05 0 4.6129053603232289e-06 1.9210597334962303e-05 0 4.5429008541524575e-06 2.9928691921236038e-05 0 4.6129053603232281e-06 1.9210597334962303e-05 0 1.0801363081287833e-05 1.7598962803201464e-05 0 1.5512633559303473e-05 3.1473044639906932e-05 0 4.5429008541524575e-06 2.9928691921236041e-05 0 1.0801363081287833e-05 1.7598962803201464e-05 0 1.5512633559303473e-05 3.1473044639906932e-05 0 4.5429008541524575e-06 2.9928691921236038e-05 0 1.4542477636028323e-05 4.4987471454771539e-05 0 4.5429008541524575e-06 2.9928691921236038e-05 0 2.371020786099695e-06 4.6809449755243192e-05 0 1.4542477636028323e-05 4.4987471454771539e-05 0 2.371020786099695e-06 4.6809449755243192e-05 0 1.4542477636028321e-05 4.4987471454771539e-05 0 1.3531609474044925e-05 6.1764788723688358e-05 0 2.4254349704765422e-05 5.7111375252554367e-05 0 1.4542477636028323e-05 4.4987471454771539e-05 0 1.3531609474044925e-05 6.1764788723688358e-05 0 2.371020786099695e-06 4.6809449755243192e-05 0 1.3531609474044925e-05 6.1764788723688371e-05 0 -1.327374310774479e-06 6.2313712728899714e-05 0 1.3531609474044925e-05 6.1764788723688358e-05 0 7.3864014273804697e-06 7.2948068245499875e-05 0 -1.327374310774479e-06 6.2313712728899714e-05 0 1.3531609474044925e-05 6.1764788723688358e-05 0 7.3864014273804697e-06 7.2948068245499875e-05 0 2.1612491626333369e-05 7.7266358825322118e-05 0 2.6917713159657339e-05 6.7835870292394076e-05 0 1.3531609474044925e-05 6.1764788723688358e-05 0 2.1612491626333369e-05 7.7266358825322118e-05 0 2.759121821371365e-05 8.938689688598604e-05 0 2.1612491626333369e-05 7.7266358825322118e-05 0 9.7055392116437202e-06 8.9169129972965848e-05 0 2.759121821371365e-05 8.938689688598604e-05 0 9.7055392116437202e-06 8.9169129972965848e-05 0 2.4518824664439399e-05 0.00010196222865817433 0 7.3864014273804697e-06 7.2948068245499875e-05 0 2.1612491626333369e-05 7.7266358825322118e-05 0 9.7055392116437202e-06 8.9169129972965848e-05 0 7.3864014273804697e-06 7.2948068245499875e-05 0 9.7055392116437202e-06 8.9169129972965848e-05 0 -6.1559795212853219e-06 7.5119231395704163e-05 0 9.7055392116437202e-06 8.9169129972965848e-05 0 -8.8956205804193013e-06 9.0548640488227438e-05 0 -6.1559795212853219e-06 7.5119231395704163e-05 0 9.7055392116437202e-06 8.9169129972965848e-05 0 -8.8956205804193013e-06 9.0548640488227438e-05 0 -5.0846747974772876e-06 0.00010594779189004135 0 -8.8956205804193013e-06 9.0548640488227438e-05 0 -6.1559795212853219e-06 7.5119231395704163e-05 0 -2.1427943279487946e-05 8.9229977015660089e-05 0 -6.1559795212853219e-06 7.5119231395704163e-05 0 -1.6367962685392473e-05 6.7207250832028185e-05 0 -2.1427943279487946e-05 8.9229977015660089e-05 0 -6.1559795212853219e-06 7.5119231395704163e-05 0 -1.327374310774479e-06 6.2313712728899714e-05 0 -1.6367962685392473e-05 6.7207250832028185e-05 0 7.3864014273804697e-06 7.2948068245499875e-05 0 -6.1559795212853219e-06 7.5119231395704163e-05 0 -1.327374310774479e-06 6.2313712728899714e-05 0 -9.5146563807053585e-06 5.0362791353048476e-05 0 -1.327374310774479e-06 6.2313712728899714e-05 0 -1.6367962685392473e-05 6.7207250832028185e-05 0 -2.1550240574070778e-05 5.2552808388420617e-05 0 -9.5146563807053585e-06 5.0362791353048476e-05 0 -1.6367962685392473e-05 6.7207250832028185e-05 0 -2.1550240574070778e-05 5.2552808388420617e-05 0 -2.8280295436280095e-05 6.4663972777566277e-05 0 -1.6367962685392473e-05 6.7207250832028185e-05 0 -3.497377088566025e-05 5.3955627936845276e-05 0 -2.1550240574070778e-05 5.2552808388420617e-05 0 -2.8280295436280095e-05 6.4663972777566277e-05 0 -2.8280295436280095e-05 6.4663972777566277e-05 0 -2.9171459625630777e-05 7.6682454826376643e-05 0 -4.0658225863967309e-05 7.3781342072978427e-05 0 -2.8280295436280095e-05 6.4663972777566277e-05 0 -1.6367962685392473e-05 6.7207250832028185e-05 0 -2.9171459625630777e-05 7.6682454826376643e-05 0 -1.6367962685392473e-05 6.7207250832028185e-05 0 -2.1427943279487946e-05 8.9229977015660089e-05 0 -2.9171459625630777e-05 7.6682454826376643e-05 0 -8.8956205804193013e-06 9.0548640488227438e-05 0 -2.1427943279487946e-05 8.9229977015660089e-05 0 -2.0263398958595224e-05 0.00010598407399116273 0 -2.1427943279487946e-05 8.9229977015660089e-05 0 -3.970763370162172e-05 8.9800641480668634e-05 0 -3.1977721608550951e-05 0.00010170610777700408 0 -2.1427943279487946e-05 8.9229977015660089e-05 0 -2.9171459625630777e-05 7.6682454826376643e-05 0 -3.970763370162172e-05 8.9800641480668634e-05 0 -2.9171459625630777e-05 7.6682454826376643e-05 0 -3.970763370162172e-05 8.9800641480668634e-05 0 -4.0658225863967309e-05 7.3781342072978427e-05 0 -3.970763370162172e-05 8.9800641480668634e-05 0 -5.5601011289550741e-05 8.1685682309511857e-05 0 -5.8693477475046563e-05 9.9982191196507024e-05 0 -3.970763370162172e-05 8.9800641480668634e-05 0 -5.8693477475046563e-05 9.9982191196507024e-05 0 -4.4838499315312993e-05 0.00010729275091537376 0 -3.970763370162172e-05 8.9800641480668634e-05 0 -5.5601011289550741e-05 8.1685682309511857e-05 0 -4.0658225863967309e-05 7.3781342072978427e-05 0 -5.5601011289550741e-05 8.1685682309511857e-05 0 -4.0658225863967309e-05 7.3781342072978427e-05 0 -5.1552226789679041e-05 6.4561721152825153e-05 0 -3.497377088566025e-05 5.3955627936845276e-05 0 -2.8280295436280095e-05 6.4663972777566277e-05 0 -4.0658225863967309e-05 7.3781342072978427e-05 0 -3.497377088566025e-05 5.3955627936845276e-05 0 -4.0658225863967309e-05 7.3781342072978427e-05 0 -5.1552226789679041e-05 6.4561721152825153e-05 0 -6.2792354470260251e-05 0.00013910291156993257 0 -3.8138777658865837e-05 0.00013940662335030609 0 -4.571105064965241e-05 0.00015884083008523288 0 -6.2792354470260251e-05 0.00013910291156993257 0 -4.7738204582749459e-05 0.00012468320301970632 0 -3.8138777658865837e-05 0.00013940662335030609 0 -4.7738204582749466e-05 0.00012468320301970632 0 -3.3930435067505407e-05 0.00011719858470763173 0 -3.8138777658865837e-05 0.00013940662335030609 0 -6.2792354470260251e-05 0.00013910291156993257 0 -4.7738204582749466e-05 0.00012468320301970632 0 -6.1152526931839023e-05 0.0001192075675061468 0 -4.7738204582749466e-05 0.00012468320301970632 0 -6.1152526931839023e-05 0.0001192075675061468 0 -4.4838499315312993e-05 0.00010729275091537376 0 -6.1152526931839023e-05 0.0001192075675061468 0 -5.8693477475046563e-05 9.9982191196507024e-05 0 -4.4838499315312993e-05 0.00010729275091537376 0 -3.970763370162172e-05 8.9800641480668634e-05 0 -4.4838499315312993e-05 0.00010729275091537376 0 -3.1977721608550951e-05 0.00010170610777700408 0 -4.7738204582749466e-05 0.00012468320301970632 0 -4.4838499315312993e-05 0.00010729275091537376 0 -3.3930435067505407e-05 0.00011719858470763173 0 -3.3930435067505407e-05 0.00011719858470763173 0 -3.1977721608550951e-05 0.00010170610777700408 0 -2.0263398958595224e-05 0.00010598407399116273 0 -4.4838499315312993e-05 0.00010729275091537376 0 -3.3930435067505407e-05 0.00011719858470763173 0 -3.1977721608550951e-05 0.00010170610777700408 0 -2.1427943279487946e-05 8.9229977015660089e-05 0 -3.1977721608550951e-05 0.00010170610777700408 0 -2.0263398958595224e-05 0.00010598407399116273 0 -3.3930435067505407e-05 0.00011719858470763173 0 -2.0263398958595224e-05 0.00010598407399116273 0 -2.0481456464850709e-05 0.00012294207353678735 0 -2.0481456464850709e-05 0.00012294207353678735 0 -3.8138777658865837e-05 0.00013940662335030609 0 -1.9665265243738867e-05 0.00014109450887501063 0 -3.3930435067505407e-05 0.00011719858470763173 0 -2.0481456464850709e-05 0.00012294207353678735 0 -3.8138777658865837e-05 0.00013940662335030609 0 -3.8138777658865837e-05 0.00013940662335030609 0 -1.9665265243738867e-05 0.0001410945088750106 0 -2.6949139911796089e-05 0.00016089839070968144 0 -1.9665265243738867e-05 0.00014109450887501063 0 -7.015472341797559e-06 0.0001292204415903501 0 -5.6846544286836863e-06 0.0001514693217059675 0 -7.015472341797559e-06 0.0001292204415903501 0 8.148084538511776e-06 0.00013762488212836204 0 -5.6846544286836863e-06 0.0001514693217059675 0 -7.015472341797559e-06 0.0001292204415903501 0 4.5874129197336807e-06 0.00011848528446876647 0 8.148084538511776e-06 0.00013762488212836204 0 -2.0481456464850709e-05 0.00012294207353678735 0 -1.9665265243738867e-05 0.00014109450887501063 0 -7.015472341797559e-06 0.0001292204415903501 0 -2.0263398958595224e-05 0.00010598407399116273 0 -2.0481456464850709e-05 0.00012294207353678735 0 -5.0846747974772876e-06 0.00010594779189004135 0 -2.0481456464850709e-05 0.00012294207353678735 0 -7.015472341797559e-06 0.0001292204415903501 0 -5.0846747974772876e-06 0.00010594779189004135 0 -8.8956205804193013e-06 9.0548640488227438e-05 0 -2.0263398958595224e-05 0.00010598407399116273 0 -5.0846747974772876e-06 0.00010594779189004135 0 -5.0846747974772876e-06 0.00010594779189004135 0 4.5874129197336816e-06 0.00011848528446876647 0 1.0460044427541691e-05 0.00010687907762997774 0 -7.015472341797559e-06 0.0001292204415903501 0 -5.0846747974772892e-06 0.00010594779189004135 0 4.5874129197336824e-06 0.00011848528446876647 0 4.5874129197336824e-06 0.00011848528446876647 0 1.046004442754169e-05 0.00010687907762997774 0 1.8963582252607807e-05 0.00011908050726328211 0 9.7055392116437202e-06 8.9169129972965848e-05 0 1.0460044427541691e-05 0.00010687907762997774 0 2.4518824664439399e-05 0.00010196222865817433 0 9.7055392116437202e-06 8.9169129972965848e-05 0 -5.0846747974772876e-06 0.00010594779189004135 0 1.0460044427541691e-05 0.00010687907762997774 0 1.0460044427541691e-05 0.00010687907762997774 0 2.4518824664439399e-05 0.00010196222865817433 0 1.8963582252607807e-05 0.00011908050726328211 0 2.4518824664439399e-05 0.00010196222865817433 0 1.8963582252607807e-05 0.00011908050726328211 0 3.3317840917076478e-05 0.00011243607884178506 0 1.8963582252607807e-05 0.00011908050726328211 0 8.148084538511776e-06 0.00013762488212836204 0 2.5984119995746508e-05 0.00014085373772739857 0 1.8963582252607807e-05 0.00011908050726328211 0 2.5984119995746508e-05 0.00014085373772739857 0 3.3699556318732648e-05 0.00012563793337267885 0 4.5874129197336824e-06 0.00011848528446876647 0 1.8963582252607807e-05 0.00011908050726328211 0 8.148084538511776e-06 0.00013762488212836204 0 8.148084538511776e-06 0.00013762488212836204 0 2.5984119995746508e-05 0.00014085373772739857 0 1.3890510082210769e-05 0.00016105159177455983 0 2.5984119995746508e-05 0.00014085373772739857 0 1.3890510082210771e-05 0.00016105159177455983 0 3.3604898686916421e-05 0.00015985383158462091 0 1.3890510082210769e-05 0.00016105159177455983 0 3.129723504290444e-05 0.00017892011900988493 0 1.1720867489390214e-05 0.0001827212084326379 0 1.3890510082210769e-05 0.00016105159177455983 0 3.1297235042904446e-05 0.00017892011900988493 0 3.3604898686916421e-05 0.00015985383158462091 0 3.1297235042904446e-05 0.00017892011900988493 0 2.4446191216598121e-05 0.00019196477158410125 0 1.1720867489390214e-05 0.0001827212084326379 0 3.1297235042904446e-05 0.00017892011900988493 0 2.4446191216598117e-05 0.00019196477158410125 0 4.2622078784216353e-05 0.00019106969667814099 0 2.4446191216598121e-05 0.00019196477158410125 0 4.2622078784216353e-05 0.00019106969667814099 0 3.676335210658945e-05 0.00020400152538929938 0 2.4446191216598121e-05 0.00019196477158410125 0 1.4481082909023071e-05 0.00020237460719583347 0 3.676335210658945e-05 0.00020400152538929938 0 2.4446191216598121e-05 0.00019196477158410125 0 1.4481082909023071e-05 0.00020237460719583347 0 1.1720867489390214e-05 0.0001827212084326379 0 -5.7961508541864992e-06 0.00020086359978916705 0 -6.4414638153435411e-06 0.00017488739961949763 0 -2.3750037522033052e-05 0.00018144220740611049 0 1.1720867489390214e-05 0.0001827212084326379 0 -5.7961508541865017e-06 0.00020086359978916705 0 -6.4414638153435411e-06 0.00017488739961949763 0 1.4481082909023071e-05 0.00020237460719583347 0 1.1720867489390214e-05 0.0001827212084326379 0 -5.7961508541864992e-06 0.00020086359978916705 0 -6.4414638153435411e-06 0.00017488739961949763 0 -5.6846544286836863e-06 0.0001514693217059675 0 -2.6949139911796089e-05 0.00016089839070968144 0 1.3890510082210769e-05 0.00016105159177455983 0 1.1720867489390214e-05 0.0001827212084326379 0 -6.4414638153435411e-06 0.00017488739961949763 0 1.3890510082210769e-05 0.00016105159177455983 0 -6.4414638153435411e-06 0.00017488739961949763 0 -5.6846544286836863e-06 0.0001514693217059675 0 8.148084538511776e-06 0.00013762488212836204 0 1.3890510082210769e-05 0.00016105159177455983 0 -5.6846544286836863e-06 0.0001514693217059675 0 -1.9665265243738867e-05 0.00014109450887501063 0 -5.6846544286836854e-06 0.0001514693217059675 0 -2.6949139911796089e-05 0.00016089839070968144 0 -3.8138777658865837e-05 0.00013940662335030609 0 -2.6949139911796086e-05 0.00016089839070968144 0 -4.571105064965241e-05 0.00015884083008523288 0 -2.6949139911796089e-05 0.00016089839070968144 0 -2.3750037522033052e-05 0.00018144220740611049 0 -4.2167025901851964e-05 0.00017712896629453435 0 -2.6949139911796089e-05 0.00016089839070968144 0 -4.2167025901851964e-05 0.00017712896629453435 0 -4.571105064965241e-05 0.00015884083008523288 0 -6.4414638153435411e-06 0.00017488739961949763 0 -2.6949139911796086e-05 0.00016089839070968144 0 -2.3750037522033052e-05 0.00018144220740611049 0 -5.7961508541864992e-06 0.00020086359978916705 0 -2.3750037522033052e-05 0.00018144220740611049 0 -2.5059151523521495e-05 0.00019991937321189944 0 -2.5059151523521495e-05 0.00019991937321189944 0 -3.4862751591951015e-05 0.00018943183650135863 0 -4.45479074659072e-05 0.00019947704488905345 0 -2.3750037522033052e-05 0.00018144220740611049 0 -2.5059151523521495e-05 0.00019991937321189944 0 -3.4862751591951015e-05 0.00018943183650135863 0 -2.3750037522033052e-05 0.00018144220740611049 0 -3.4862751591951015e-05 0.00018943183650135863 0 -4.2167025901851964e-05 0.00017712896629453435 0 -3.4862751591951015e-05 0.00018943183650135863 0 -4.2167025901851957e-05 0.00017712896629453435 0 -5.1071592583852728e-05 0.00018823606831919941 0 -3.4862751591951015e-05 0.00018943183650135863 0 -5.1071592583852728e-05 0.00018823606831919941 0 -4.45479074659072e-05 0.00019947704488905345 0 -5.1071592583852728e-05 0.00018823606831919941 0 -4.45479074659072e-05 0.00019947704488905345 0 -6.4183815586015192e-05 0.00019944039943415611 0 -5.1071592583852728e-05 0.00018823606831919941 0 -6.4183815586015192e-05 0.00019944039943415608 0 -6.4139637470264892e-05 0.0001796087009870493 0 -4.2167025901851964e-05 0.00017712896629453435 0 -5.1071592583852728e-05 0.00018823606831919941 0 -6.4139637470264892e-05 0.0001796087009870493 0 -6.4139637470264892e-05 0.0001796087009870493 0 -4.571105064965241e-05 0.00015884083008523288 0 -6.3725860222243417e-05 0.00015944497209726381 0 -4.2167025901851964e-05 0.00017712896629453435 0 -6.4139637470264892e-05 0.0001796087009870493 0 -4.571105064965241e-05 0.00015884083008523288 0 -6.2792354470260251e-05 0.00013910291156993257 0 -4.571105064965241e-05 0.00015884083008523288 0 -6.3725860222243417e-05 0.00015944497209726381 0 1.7136624692978817e-05 -2.2454107913945235e-05 0 1.6107147144125762e-05 -2.6577641452983818e-05 0 1.3958695729321756e-05 -2.3184840561336759e-05 0 1.7136624692978817e-05 -2.2454107913945235e-05 0 1.9892223737067049e-05 -2.7053458514471179e-05 0 2.0850401195125734e-05 -2.4119671920799809e-05 0 1.7136624692978817e-05 -2.2454107913945235e-05 0 1.9603297041255096e-05 -2.1036857569536583e-05 0 2.0850401195125734e-05 -2.4119671920799809e-05 0 1.7136624692978817e-05 -2.2454107913945235e-05 0 1.9892223737067049e-05 -2.7053458514471179e-05 0 1.6107147144125762e-05 -2.6577641452983818e-05 0 1.6107147144125762e-05 -2.6577641452983818e-05 0 1.213486544128977e-05 -2.600635165325139e-05 0 1.3958695729321756e-05 -2.3184840561336759e-05 0 1.213486544128977e-05 -2.600635165325139e-05 0 1.1196952899362678e-05 -2.1961983616562751e-05 0 1.3958695729321756e-05 -2.3184840561336759e-05 0 1.213486544128977e-05 -2.600635165325139e-05 0 1.1196952899362678e-05 -2.1961983616562751e-05 0 9.9372090440521862e-06 -2.414568433233266e-05 0 1.1196952899362678e-05 -2.1961983616562751e-05 0 1.3958695729321756e-05 -2.3184840561336759e-05 0 1.2858203422661897e-05 -1.8967378817508723e-05 0 1.1196952899362678e-05 -2.1961983616562751e-05 0 1.2858203422661897e-05 -1.8967378817508723e-05 0 1.0142116330062013e-05 -1.9408432618705885e-05 0 1.2858203422661897e-05 -1.8967378817508723e-05 0 1.0142116330062013e-05 -1.9408432618705885e-05 0 9.3474964960710905e-06 -1.6645270056655529e-05 0 1.4543191755003631e-05 -1.5309184490468162e-05 0 1.2858203422661897e-05 -1.8967378817508723e-05 0 1.6419537262317043e-05 -1.920854880188136e-05 0 1.7136624692978817e-05 -2.2454107913945235e-05 0 1.2858203422661897e-05 -1.8967378817508723e-05 0 1.6419537262317043e-05 -1.920854880188136e-05 0 1.7136624692978817e-05 -2.2454107913945235e-05 0 1.3958695729321756e-05 -2.3184840561336759e-05 0 1.2858203422661897e-05 -1.8967378817508723e-05 0 1.7136624692978817e-05 -2.2454107913945235e-05 0 1.6419537262317043e-05 -1.920854880188136e-05 0 1.9603297041255096e-05 -2.1036857569536583e-05 0 1.8457870084479796e-05 -1.7526619781446764e-05 0 1.6419537262317043e-05 -1.920854880188136e-05 0 1.9603297041255096e-05 -2.1036857569536583e-05 0 1.8457870084479796e-05 -1.7526619781446764e-05 0 2.2005377340282657e-05 -1.8864916528629251e-05 0 1.9603297041255096e-05 -2.1036857569536583e-05 0 2.3829310316579163e-05 -1.6114111505325805e-05 0 2.0999364768361261e-05 -1.5432948710762589e-05 0 2.2005377340282657e-05 -1.8864916528629251e-05 0 2.2005377340282657e-05 -1.8864916528629251e-05 0 2.5559718030295578e-05 -1.9477999018192848e-05 0 2.3746696823992472e-05 -2.2576034040486472e-05 0 2.2005377340282657e-05 -1.8864916528629251e-05 0 1.9603297041255096e-05 -2.1036857569536583e-05 0 2.3746696823992472e-05 -2.2576034040486472e-05 0 4.3078923344770817e-05 9.7968609489340461e-05 0 2.4518824664439399e-05 0.00010196222865817433 0 3.3317840917076478e-05 0.00011243607884178506 0 4.3078923344770817e-05 9.7968609489340461e-05 0 4.6200200958462597e-05 0.00011702903431567553 0 3.3317840917076478e-05 0.00011243607884178506 0 2.3829310316579163e-05 -1.6114111505325805e-05 0 2.2005377340282657e-05 -1.8864916528629251e-05 0 2.5559718030295578e-05 -1.9477999018192848e-05 0 3.3164947561118304e-05 4.0723650167890429e-05 0 3.5571271900238363e-05 4.939260822224645e-05 0 1.8963582252607807e-05 0.00011908050726328211 0 3.3317840917076478e-05 0.00011243607884178506 0 3.3699556318732648e-05 0.00012563793337267885 0 4.6200200958462597e-05 0.00011702903431567553 0 3.3317840917076478e-05 0.00011243607884178506 0 3.3699556318732648e-05 0.00012563793337267885 0 2.5984119995746508e-05 0.00014085373772739857 0 3.3699556318732648e-05 0.00012563793337267885 0 4.9126582199353862e-05 0.00013738114035353514 0 3.5571271900238363e-05 4.939260822224645e-05 0 3.72287116958441e-05 5.5614810487122301e-05 0 2.5559718030295578e-05 -1.9477999018192848e-05 0 2.77470292772819e-05 -2.351150268549493e-05 0 2.3746696823992472e-05 -2.2576034040486472e-05 0 4.6200200958462597e-05 0.00011702903431567553 0 3.3699556318732648e-05 0.00012563793337267885 0 4.9126582199353862e-05 0.00013738114035353514 0 3.72287116958441e-05 5.5614810487122301e-05 0 4.2369998669327871e-05 6.7134883013529061e-05 0 2.5984119995746508e-05 0.00014085373772739857 0 4.9126582199353862e-05 0.00013738114035353514 0 3.3604898686916421e-05 0.00015985383158462091 0 1.9603297041255096e-05 -2.1036857569536583e-05 0 2.0850401195125734e-05 -2.4119671920799809e-05 0 2.3746696823992472e-05 -2.2576034040486472e-05 0 2.77470292772819e-05 -2.351150268549493e-05 0 2.3746696823992472e-05 -2.2576034040486472e-05 0 2.4617820092505445e-05 -2.7511924437959841e-05 0 1.9892223737067049e-05 -2.7053458514471179e-05 0 2.0850401195125734e-05 -2.4119671920799809e-05 0 2.4617820092505445e-05 -2.7511924437959841e-05 0 2.0850401195125734e-05 -2.4119671920799809e-05 0 2.3746696823992472e-05 -2.2576034040486472e-05 0 2.4617820092505445e-05 -2.7511924437959841e-05 0 2.4617820092505445e-05 -2.7511924437959841e-05 0 2.7898891969389625e-05 -3.2017063444960028e-05 0 2.3088790074930097e-05 -3.1724400035193003e-05 0 1.9892223737067049e-05 -2.7053458514471179e-05 0 2.4617820092505445e-05 -2.7511924437959841e-05 0 2.3088790074930097e-05 -3.1724400035193003e-05 0 2.77470292772819e-05 -2.351150268549493e-05 0 2.4617820092505445e-05 -2.7511924437959841e-05 0 3.0660779973833941e-05 -2.8261259460485041e-05 0 2.4617820092505445e-05 -2.7511924437959841e-05 0 2.7898891969389621e-05 -3.2017063444960028e-05 0 3.0660779973833941e-05 -2.8261259460485041e-05 0 2.7898891969389621e-05 -3.2017063444960028e-05 0 2.3088790074930097e-05 -3.1724400035193003e-05 0 2.8568726618973738e-05 -3.6975711093697066e-05 0 4.9126582199353862e-05 0.00013738114035353514 0 3.3604898686916421e-05 0.00015985383158462091 0 5.2111614780442323e-05 0.00015813685870100065 0 4.2369998669327871e-05 6.7134883013529061e-05 0 3.6243225239210379e-05 7.0454166538398943e-05 0 2.7898891969389621e-05 -3.2017063444960028e-05 0 3.0660779973833941e-05 -2.8261259460485041e-05 0 3.4559243031860132e-05 -3.44964444395435e-05 0 3.3604898686916421e-05 0.00015985383158462091 0 5.2111614780442323e-05 0.00015813685870100065 0 5.5520122719055191e-05 0.00018014656388996248 0 3.1297235042904446e-05 0.00017892011900988493 0 3.3604898686916421e-05 0.00015985383158462091 0 5.5520122719055191e-05 0.00018014656388996248 0 3.1297235042904446e-05 0.00017892011900988493 0 5.5520122719055191e-05 0.00018014656388996245 0 4.2622078784216353e-05 0.00019106969667814099 0 3.6243225239210379e-05 7.0454166538398943e-05 0 7.6313566758301571e-05 8.2288156684426876e-05 0 5.5520122719055191e-05 0.00018014656388996248 0 6.0697548650240926e-05 0.00020299133219674824 0 4.2622078784216353e-05 0.00019106969667814099 0 6.0697548650240926e-05 0.00020299133219674824 0 4.2622078784216353e-05 0.00019106969667814099 0 3.676335210658945e-05 0.00020400152538929938 0 2.3088790074930097e-05 -3.1724400035193003e-05 0 2.8568726618973738e-05 -3.6975711093697066e-05 0 2.0733858813116311e-05 -3.5860021919498421e-05 0 2.7898891969389621e-05 -3.2017063444960028e-05 0 3.4559243031860132e-05 -3.44964444395435e-05 0 2.8568726618973738e-05 -3.6975711093697066e-05 0 3.4559243031860132e-05 -3.44964444395435e-05 0 3.9439199653752921e-05 -4.2605565287428096e-05 0 2.8568726618973738e-05 -3.6975711093697066e-05 0 3.9439199653752921e-05 -4.2605565287428096e-05 0 2.8568726618973738e-05 -3.6975711093697066e-05 0 2.9818497526280711e-05 -4.319723642222718e-05 0 2.8568726618973738e-05 -3.6975711093697066e-05 0 2.9818497526280711e-05 -4.319723642222718e-05 0 2.0733858813116311e-05 -3.5860021919498421e-05 0 2.0733858813116311e-05 -3.5860021919498421e-05 0 1.6106386935550954e-05 -3.2351024638920681e-05 0 1.6432895947615002e-05 -3.8031146276790237e-05 0 2.9818497526280711e-05 -4.319723642222718e-05 0 2.2315975456731125e-05 -4.1061539737488039e-05 0 2.0733858813116311e-05 -3.5860021919498421e-05 0 2.2315975456731125e-05 -4.1061539737488039e-05 0 2.0733858813116311e-05 -3.5860021919498421e-05 0 1.6432895947615002e-05 -3.8031146276790237e-05 0 2.3088790074930097e-05 -3.1724400035193003e-05 0 2.0733858813116311e-05 -3.5860021919498421e-05 0 1.8242410108140883e-05 -3.0506262846665493e-05 0 2.0733858813116311e-05 -3.5860021919498421e-05 0 1.8242410108140883e-05 -3.0506262846665493e-05 0 1.6106386935550954e-05 -3.2351024638920681e-05 0 1.6107147144125762e-05 -2.6577641452983818e-05 0 1.8242410108140883e-05 -3.0506262846665493e-05 0 1.3725601324809243e-05 -2.93465116455415e-05 0 1.9892223737067049e-05 -2.7053458514471179e-05 0 1.6107147144125762e-05 -2.6577641452983818e-05 0 1.8242410108140883e-05 -3.0506262846665493e-05 0 1.9892223737067049e-05 -2.7053458514471179e-05 0 2.3088790074930097e-05 -3.1724400035193003e-05 0 1.8242410108140883e-05 -3.0506262846665493e-05 0 1.213486544128977e-05 -2.600635165325139e-05 0 1.3725601324809243e-05 -2.93465116455415e-05 0 1.1078496784145023e-05 -2.9114716357314572e-05 0 1.6107147144125762e-05 -2.6577641452983818e-05 0 1.213486544128977e-05 -2.600635165325139e-05 0 1.3725601324809243e-05 -2.93465116455415e-05 0 1.3725601324809243e-05 -2.93465116455415e-05 0 1.6106386935550954e-05 -3.2351024638920681e-05 0 1.2943130982337399e-05 -3.2614219103209618e-05 0 1.8242410108140883e-05 -3.0506262846665493e-05 0 1.3725601324809243e-05 -2.93465116455415e-05 0 1.6106386935550954e-05 -3.2351024638920681e-05 0 1.3725601324809243e-05 -2.93465116455415e-05 0 1.2943130982337399e-05 -3.2614219103209618e-05 0 1.1078496784145023e-05 -2.9114716357314572e-05 0 1.6106386935550954e-05 -3.2351024638920681e-05 0 1.2943130982337399e-05 -3.2614219103209618e-05 0 1.6432895947615002e-05 -3.8031146276790237e-05 0 1.2943130982337399e-05 -3.2614219103209618e-05 0 1.6432895947614999e-05 -3.8031146276790237e-05 0 1.2538093682684959e-05 -3.5001506889067801e-05 0 1.2943130982337399e-05 -3.2614219103209618e-05 0 1.2538093682684959e-05 -3.5001506889067801e-05 0 1.0706812374166779e-05 -3.1613836514773835e-05 0 1.2538093682684959e-05 -3.5001506889067801e-05 0 9.7566611236651494e-06 -3.2015640524903256e-05 0 1.0706812374166779e-05 -3.1613836514773835e-05 0 9.7566611236651494e-06 -3.2015640524903256e-05 0 8.5309019029728388e-06 -2.9045273707108204e-05 0 1.0706812374166779e-05 -3.1613836514773835e-05 0 8.5309019029728388e-06 -2.9045273707108204e-05 0 1.0706812374166779e-05 -3.1613836514773835e-05 0 1.1078496784145023e-05 -2.9114716357314572e-05 0 1.2943130982337399e-05 -3.2614219103209618e-05 0 1.0706812374166779e-05 -3.1613836514773835e-05 0 1.1078496784145023e-05 -2.9114716357314572e-05 0 8.6504611773739876e-06 -2.9272151312170896e-05 0 7.4080962817607506e-06 -2.8505145473051112e-05 0 8.6959983480474379e-06 -2.7228725664677444e-05 0 9.7566611236651494e-06 -3.2015640524903256e-05 0 8.6504611773739876e-06 -2.9272151312170896e-05 0 7.4080962817607506e-06 -2.8505145473051112e-05 0 9.7566611236651494e-06 -3.2015640524903256e-05 0 8.5309019029728388e-06 -2.9045273707108204e-05 0 7.4080962817607506e-06 -2.8505145473051112e-05 0 7.4080962817607506e-06 -2.8505145473051112e-05 0 6.9702020719242775e-06 -2.6865708248176298e-05 0 6.005827465591346e-06 -2.672889176640035e-05 0 8.5309019029728388e-06 -2.9045273707108204e-05 0 7.4080962817607506e-06 -2.8505145473051112e-05 0 6.9702020719242775e-06 -2.6865708248176298e-05 0 6.9702020719242775e-06 -2.6865708248176298e-05 0 8.8034472484355864e-06 -2.6462442871182945e-05 0 6.9617976969638906e-06 -2.477959052731048e-05 0 6.9702020719242775e-06 -2.6865708248176298e-05 0 6.9617976969638906e-06 -2.477959052731048e-05 0 5.563027300107759e-06 -2.4841945093791013e-05 0 6.9702020719242775e-06 -2.6865708248176298e-05 0 5.563027300107759e-06 -2.4841945093791013e-05 0 6.005827465591346e-06 -2.672889176640035e-05 0 8.5309019029728388e-06 -2.9045273707108204e-05 0 1.1078496784145023e-05 -2.9114716357314572e-05 0 8.8034472484355864e-06 -2.6462442871182945e-05 0 8.5309019029728388e-06 -2.9045273707108204e-05 0 6.9702020719242775e-06 -2.6865708248176298e-05 0 8.8034472484355864e-06 -2.6462442871182945e-05 0 1.213486544128977e-05 -2.600635165325139e-05 0 1.1078496784145023e-05 -2.9114716357314572e-05 0 8.8034472484355864e-06 -2.6462442871182945e-05 0 1.213486544128977e-05 -2.600635165325139e-05 0 8.8034472484355864e-06 -2.6462442871182945e-05 0 9.9372090440521862e-06 -2.414568433233266e-05 0 1.1196952899362678e-05 -2.1961983616562751e-05 0 9.9372090440521845e-06 -2.414568433233266e-05 0 9.0169877919541857e-06 -2.1810838707076892e-05 0 9.9372090440521862e-06 -2.414568433233266e-05 0 9.0169877919541857e-06 -2.1810838707076892e-05 0 8.2058740218752622e-06 -2.4056970000523221e-05 0 9.0169877919541857e-06 -2.1810838707076892e-05 0 8.2058740218752622e-06 -2.4056970000523221e-05 0 7.1442324094121826e-06 -2.2112366492578728e-05 0 8.8034472484355864e-06 -2.6462442871182945e-05 0 9.9372090440521862e-06 -2.414568433233266e-05 0 8.2058740218752622e-06 -2.4056970000523221e-05 0 8.2058740218752622e-06 -2.4056970000523221e-05 0 6.9617976969638906e-06 -2.477959052731048e-05 0 7.1442324094121826e-06 -2.2112366492578728e-05 0 8.8034472484355864e-06 -2.6462442871182945e-05 0 8.2058740218752622e-06 -2.4056970000523221e-05 0 6.9617976969638906e-06 -2.477959052731048e-05 0 6.9617976969638906e-06 -2.477959052731048e-05 0 5.563027300107759e-06 -2.4841945093791013e-05 0 5.4811013913209929e-06 -2.1687515179304914e-05 0 5.563027300107759e-06 -2.4841945093791013e-05 0 5.4811013913209929e-06 -2.1687515179304914e-05 0 4.4957655854622659e-06 -2.3088346885162772e-05 0 6.9617976969638906e-06 -2.477959052731048e-05 0 5.4811013913209929e-06 -2.1687515179304914e-05 0 7.1442324094121826e-06 -2.2112366492578728e-05 0 7.1442324094121826e-06 -2.2112366492578728e-05 0 5.487510041531253e-06 -1.9115789255162245e-05 0 7.8655682875813403e-06 -1.9449486303092176e-05 0 5.4811013913209929e-06 -2.1687515179304914e-05 0 7.1442324094121826e-06 -2.2112366492578728e-05 0 5.487510041531253e-06 -1.9115789255162245e-05 0 5.4811013913209929e-06 -2.1687515179304914e-05 0 5.487510041531253e-06 -1.9115789255162245e-05 0 3.2410913448906366e-06 -1.997056366521534e-05 0 5.487510041531253e-06 -1.9115789255162245e-05 0 7.8655682875813403e-06 -1.9449486303092176e-05 0 7.2376804803930856e-06 -1.6358193621463279e-05 0 7.8655682875813403e-06 -1.9449486303092176e-05 0 7.2376804803930856e-06 -1.6358193621463279e-05 0 9.3474964960710905e-06 -1.6645270056655529e-05 0 7.8655682875813403e-06 -1.9449486303092176e-05 0 1.0142116330062013e-05 -1.9408432618705885e-05 0 9.3474964960710905e-06 -1.6645270056655529e-05 0 9.0169877919541857e-06 -2.1810838707076892e-05 0 7.8655682875813403e-06 -1.9449486303092176e-05 0 1.0142116330062013e-05 -1.9408432618705885e-05 0 1.1196952899362678e-05 -2.1961983616562751e-05 0 9.0169877919541857e-06 -2.1810838707076892e-05 0 1.0142116330062013e-05 -1.9408432618705885e-05 0 9.0169877919541857e-06 -2.1810838707076892e-05 0 7.1442324094121826e-06 -2.2112366492578724e-05 0 7.8655682875813403e-06 -1.9449486303092176e-05 0 1.7255102727861038e-05 -5.7207443716562851e-05 0 9.2172523984274265e-06 -5.1876536098238382e-05 0 1.0856933640201581e-05 -6.0947929306602839e-05 0 9.2448942797198208e-06 -3.9691762753640993e-05 0 8.1125007954456141e-06 -3.30209657706499e-05 0 1.7255102727861038e-05 -5.7207443716562851e-05 0 9.2172523984274265e-06 -5.1876536098238382e-05 0 1.5686586575967291e-05 -4.73156767897888e-05 0 1.3554633487839493e-06 -2.1992184996477964e-05 0 3.2410913448906366e-06 -1.997056366521534e-05 0 6.5378680920210788e-07 -1.8742117867884999e-05 0 3.2410913448906366e-06 -1.997056366521534e-05 0 2.3579044524300877e-06 -1.6771034147605756e-05 0 6.5378680920210788e-07 -1.8742117867884999e-05 0 5.487510041531253e-06 -1.9115789255162245e-05 0 3.2410913448906366e-06 -1.997056366521534e-05 0 3.9850099917711925e-06 -1.7550276393550004e-05 0 3.2410913448906366e-06 -1.997056366521534e-05 0 3.9850099917711925e-06 -1.7550276393550004e-05 0 2.3579044524300877e-06 -1.6771034147605756e-05 0 5.4811013913209929e-06 -2.1687515179304914e-05 0 3.2410913448906366e-06 -1.997056366521534e-05 0 4.4957655854622659e-06 -2.3088346885162772e-05 0 1.3554633487839493e-06 -2.1992184996477964e-05 0 3.2410913448906366e-06 -1.997056366521534e-05 0 3.0387991746076151e-06 -2.2810596700210025e-05 0 3.2410913448906366e-06 -1.997056366521534e-05 0 3.0387991746076151e-06 -2.2810596700210025e-05 0 4.4957655854622659e-06 -2.3088346885162772e-05 0 3.0387991746076151e-06 -2.2810596700210025e-05 0 4.4957655854622659e-06 -2.3088346885162772e-05 0 4.3880572804946084e-06 -2.5109324702619508e-05 0 5.563027300107759e-06 -2.4841945093791013e-05 0 4.4957655854622659e-06 -2.3088346885162772e-05 0 4.3880572804946084e-06 -2.5109324702619508e-05 0 3.0387991746076151e-06 -2.2810596700210025e-05 0 4.3880572804946084e-06 -2.5109324702619508e-05 0 2.5510199909010903e-06 -2.4777550911723931e-05 0 4.3880572804946084e-06 -2.5109324702619508e-05 0 2.5510199909010903e-06 -2.4777550911723931e-05 0 4.3944450084263977e-06 -2.6839610168440112e-05 0 1.8766360184172828e-05 -6.7913103169963199e-05 0 1.0856933640201581e-05 -6.0947929306602839e-05 0 6.4329104103544292e-06 -6.9127638160414246e-05 0 1.8766360184172828e-05 -6.7913103169963199e-05 0 1.0943470261936825e-05 -7.9687134764518444e-05 0 6.4329104103544292e-06 -6.9127638160414246e-05 0 1.0419669272402675e-05 -4.5988221906402773e-05 0 1.2572585500392897e-05 -5.3548635899770764e-05 0 1.3554633487839493e-06 -2.1992184996477964e-05 0 3.0387991746076151e-06 -2.2810596700210025e-05 0 2.5510199909010903e-06 -2.4777550911723931e-05 0 1.7255102727861038e-05 -5.7207443716562851e-05 0 1.8766360184172828e-05 -6.7913103169963199e-05 0 1.0856933640201581e-05 -6.0947929306602839e-05 0 9.2448942797198208e-06 -3.9691762753640993e-05 0 1.0419669272402675e-05 -4.5988221906402773e-05 0 1.8766360184172828e-05 -6.7913103169963199e-05 0 1.0943470261936825e-05 -7.9687134764518444e-05 0 2.0441010281529154e-05 -7.8976162076503705e-05 0 1.2572585500392897e-05 -5.3548635899770764e-05 0 1.3027037881730383e-05 -5.8456128408901355e-05 0 4.3944450084263977e-06 -2.6839610168440112e-05 0 5.5828484908776444e-06 -2.666773200876633e-05 0 7.0388721099291689e-06 -2.7703267003998767e-05 0 1.0943470261936825e-05 -7.9687134764518444e-05 0 2.0441010281529154e-05 -7.8976162076503705e-05 0 2.2421076963655346e-05 -9.0784984547049861e-05 0 1.0943470261936825e-05 -7.9687134764518444e-05 0 2.2421076963655346e-05 -9.0784984547049861e-05 0 1.0195281820785766e-05 -9.003363378700432e-05 0 5.563027300107759e-06 -2.4841945093791013e-05 0 4.3880572804946084e-06 -2.5109324702619508e-05 0 6.005827465591346e-06 -2.672889176640035e-05 0 4.3880572804946084e-06 -2.5109324702619508e-05 0 5.5828484908776444e-06 -2.666773200876633e-05 0 6.005827465591346e-06 -2.672889176640035e-05 0 4.3880572804946084e-06 -2.5109324702619508e-05 0 4.3944450084263977e-06 -2.6839610168440112e-05 0 5.5828484908776444e-06 -2.666773200876633e-05 0 5.5828484908776444e-06 -2.666773200876633e-05 0 6.005827465591346e-06 -2.672889176640035e-05 0 6.9968297380040604e-06 -2.7160528534869687e-05 0 7.4080962817607506e-06 -2.8505145473051112e-05 0 6.005827465591346e-06 -2.672889176640035e-05 0 6.9968297380040604e-06 -2.7160528534869687e-05 0 5.5828484908776444e-06 -2.666773200876633e-05 0 6.9968297380040613e-06 -2.7160528534869687e-05 0 7.0388721099291689e-06 -2.7703267003998767e-05 0 6.9968297380040604e-06 -2.7160528534869687e-05 0 7.0388721099291689e-06 -2.7703267003998767e-05 0 1.0398202795814427e-05 -2.7104157809853076e-05 0 6.9968297380040604e-06 -2.7160528534869687e-05 0 8.6959983480474379e-06 -2.7228725664677444e-05 0 1.0398202795814427e-05 -2.7104157809853076e-05 0 7.4080962817607506e-06 -2.8505145473051112e-05 0 6.9968297380040596e-06 -2.7160528534869687e-05 0 8.6959983480474379e-06 -2.7228725664677444e-05 0 2.2421076963655346e-05 -9.0784984547049861e-05 0 1.614017160012088e-05 -9.6519332896384397e-05 0 1.0195281820785766e-05 -9.003363378700432e-05 0 1.3027037881730383e-05 -5.8456128408901355e-05 0 2.2769674257969189e-05 -6.5723414704027297e-05 0 2.2421076963655346e-05 -9.0784984547049861e-05 0 2.5799523569122564e-05 -0.00010280892211968985 0 1.614017160012088e-05 -9.6519332896384397e-05 0 2.5799523569122564e-05 -0.00010280892211968985 0 1.614017160012088e-05 -9.6519332896384397e-05 0 1.343595233249558e-05 -0.00010315669488974586 0 1.614017160012088e-05 -9.6519332896384397e-05 0 6.9285966152000143e-06 -9.6752748227636273e-05 0 1.343595233249558e-05 -0.00010315669488974586 0 6.9285966152000151e-06 -9.6752748227636273e-05 0 1.343595233249558e-05 -0.00010315669488974586 0 1.9927769087751629e-06 -0.00010195251128768204 0 6.9285966152000151e-06 -9.6752748227636273e-05 0 1.0195281820785766e-05 -9.003363378700432e-05 0 4.3331470129833836e-07 -9.1842961742818894e-05 0 1.614017160012088e-05 -9.6519332896384397e-05 0 6.9285966152000151e-06 -9.6752748227636273e-05 0 1.0195281820785766e-05 -9.003363378700432e-05 0 6.9285966152000151e-06 -9.6752748227636273e-05 0 4.3331470129833846e-07 -9.1842961742818894e-05 0 1.9927769087751629e-06 -0.00010195251128768204 0 4.3331470129833836e-07 -9.1842961742818894e-05 0 -8.2121823299276405e-06 -0.00010091053675024276 0 -8.6268962946782793e-06 -8.76356430447067e-05 0 -8.2121823299276405e-06 -0.00010091053675024276 0 -8.6268962946782793e-06 -8.76356430447067e-05 0 -1.7225615562363725e-05 -9.0894134650690962e-05 0 4.3331470129833836e-07 -9.1842961742818894e-05 0 1.9927769087751629e-06 -0.00010195251128768204 0 -8.2121823299276405e-06 -0.00010091053675024276 0 4.3331470129833836e-07 -9.1842961742818894e-05 0 -8.6268962946782793e-06 -8.76356430447067e-05 0 1.3505708724778361e-06 -8.0757396762935399e-05 0 -8.6268962946782793e-06 -8.76356430447067e-05 0 -9.4396133272235938e-06 -7.5446170935995727e-05 0 1.3505708724778361e-06 -8.0757396762935399e-05 0 -8.6268962946782793e-06 -8.76356430447067e-05 0 -9.4396133272235938e-06 -7.5446170935995727e-05 0 -1.8848138373355363e-05 -8.0099336894352415e-05 0 -9.4396133272235938e-06 -7.5446170935995727e-05 0 1.3505708724778361e-06 -8.0757396762935399e-05 0 -2.659363281207258e-06 -7.0105386972241706e-05 0 1.0943470261936825e-05 -7.9687134764518444e-05 0 1.3505708724778361e-06 -8.0757396762935399e-05 0 6.4329104103544292e-06 -6.9127638160414246e-05 0 1.0943470261936825e-05 -7.9687134764518444e-05 0 1.0195281820785766e-05 -9.003363378700432e-05 0 1.3505708724778361e-06 -8.0757396762935399e-05 0 1.0195281820785766e-05 -9.003363378700432e-05 0 4.3331470129833836e-07 -9.1842961742818894e-05 0 1.3505708724778361e-06 -8.0757396762935399e-05 0 -3.7568837612169305e-05 -8.9930224413453858e-05 0 -3.095799554518141e-05 -9.4309513170868356e-05 0 -2.644584831685626e-05 -8.8654031418829691e-05 0 -3.7568837612169305e-05 -8.9930224413453858e-05 0 -3.7593608977262176e-05 -9.998656249842585e-05 0 -3.095799554518141e-05 -9.4309513170868356e-05 0 -3.7593608977262176e-05 -9.998656249842585e-05 0 -2.7660497116993582e-05 -0.00010000670805561923 0 -3.095799554518141e-05 -9.4309513170868356e-05 0 -2.7660497116993579e-05 -0.00010000670805561923 0 -3.095799554518141e-05 -9.4309513170868356e-05 0 -2.2783104824659991e-05 -9.4931156828611935e-05 0 -3.095799554518141e-05 -9.4309513170868356e-05 0 -2.644584831685626e-05 -8.8654031418829691e-05 0 -2.2783104824659991e-05 -9.4931156828611935e-05 0 -2.644584831685626e-05 -8.8654031418829691e-05 0 -2.2783104824659991e-05 -9.4931156828611935e-05 0 -1.7225615562363725e-05 -9.0894134650690962e-05 0 -2.2783104824659991e-05 -9.4931156828611935e-05 0 -1.7840382919059276e-05 -0.00010028526324539516 0 -1.7225615562363725e-05 -9.0894134650690962e-05 0 -2.7660497116993579e-05 -0.00010000670805561923 0 -2.2783104824659991e-05 -9.4931156828611949e-05 0 -1.7840382919059276e-05 -0.00010028526324539516 0 -8.2121823299276405e-06 -0.00010091053675024276 0 -1.7840382919059276e-05 -0.00010028526324539516 0 -1.7225615562363725e-05 -9.0894134650690962e-05 0 -8.6268962946782793e-06 -8.76356430447067e-05 0 -1.7225615562363725e-05 -9.0894134650690962e-05 0 -1.8848138373355363e-05 -8.0099336894352415e-05 0 -9.4396133272235938e-06 -7.5446170935995727e-05 0 -1.8848138373355363e-05 -8.0099336894352415e-05 0 -1.6374687671149214e-05 -6.8236134784349184e-05 0 -1.8848138373355363e-05 -8.0099336894352415e-05 0 -2.8331367425279804e-05 -7.9511137878956955e-05 0 -2.5083103488421673e-05 -6.9983727105837274e-05 0 -2.644584831685626e-05 -8.8654031418829691e-05 0 -1.7225615562363725e-05 -9.0894134650690962e-05 0 -1.8848138373355363e-05 -8.0099336894352415e-05 0 -2.644584831685626e-05 -8.8654031418829691e-05 0 -1.8848138373355363e-05 -8.0099336894352415e-05 0 -2.8331367425279804e-05 -7.9511137878956955e-05 0 -3.7568837612169305e-05 -8.9930224413453858e-05 0 -2.644584831685626e-05 -8.8654031418829691e-05 0 -2.8331367425279804e-05 -7.9511137878956955e-05 0 -2.8331367425279804e-05 -7.9511137878956955e-05 0 -3.7311895130646772e-05 -7.9631043361955733e-05 0 -3.6722882460269577e-05 -6.9201296602629708e-05 0 -3.7568837612169305e-05 -8.9930224413453858e-05 0 -2.8331367425279804e-05 -7.9511137878956955e-05 0 -3.7311895130646772e-05 -7.9631043361955733e-05 0 -3.6722882460269577e-05 -6.9201296602629708e-05 0 -2.9165107539091347e-05 -6.253859682480208e-05 0 -3.5661668199207184e-05 -5.9053255493052691e-05 0 -2.8331367425279804e-05 -7.9511137878956955e-05 0 -3.6722882460269577e-05 -6.9201296602629708e-05 0 -2.5083103488421673e-05 -6.9983727105837274e-05 0 -2.5083103488421673e-05 -6.9983727105837274e-05 0 -2.9165107539091347e-05 -6.253859682480208e-05 0 -2.1817050733827341e-05 -5.8872833898790435e-05 0 -3.6722882460269577e-05 -6.9201296602629708e-05 0 -2.5083103488421673e-05 -6.9983727105837274e-05 0 -2.9165107539091347e-05 -6.253859682480208e-05 0 -2.5083103488421673e-05 -6.9983727105837274e-05 0 -1.6374687671149214e-05 -6.8236134784349184e-05 0 -2.1817050733827341e-05 -5.8872833898790435e-05 0 -1.8848138373355363e-05 -8.0099336894352415e-05 0 -2.5083103488421673e-05 -6.9983727105837274e-05 0 -1.6374687671149214e-05 -6.8236134784349184e-05 0 -1.6374687671149214e-05 -6.8236134784349184e-05 0 -1.4720792421160898e-05 -5.8504500148508351e-05 0 -2.1817050733827341e-05 -5.8872833898790435e-05 0 -1.6374687671149214e-05 -6.8236134784349184e-05 0 -1.4720792421160897e-05 -5.8504500148508344e-05 0 -8.9904003138905028e-06 -6.3898663494348361e-05 0 -1.4720792421160897e-05 -5.8504500148508351e-05 0 -1.7469838136087211e-05 -5.2150985119794496e-05 0 -2.1817050733827341e-05 -5.8872833898790435e-05 0 -1.7469838136087211e-05 -5.2150985119794496e-05 0 -9.9609803118507127e-06 -5.241087118392299e-05 0 -1.5881589845026211e-05 -4.3638003185001543e-05 0 -1.4720792421160897e-05 -5.8504500148508351e-05 0 -1.7469838136087211e-05 -5.2150985119794496e-05 0 -9.9609803118507127e-06 -5.241087118392299e-05 0 -1.7469838136087211e-05 -5.2150985119794496e-05 0 -2.1817050733827341e-05 -5.8872833898790435e-05 0 -2.4603423800684326e-05 -4.9251842084399159e-05 0 -2.9165107539091347e-05 -6.253859682480208e-05 0 -2.1817050733827341e-05 -5.8872833898790435e-05 0 -2.9150852829095552e-05 -5.5575956018804637e-05 0 -2.1817050733827341e-05 -5.8872833898790435e-05 0 -2.9150852829095552e-05 -5.5575956018804637e-05 0 -2.4603423800684326e-05 -4.9251842084399159e-05 0 -2.9150852829095552e-05 -5.5575956018804637e-05 0 -2.4603423800684326e-05 -4.9251842084399159e-05 0 -3.4072670684843852e-05 -4.9239044737834714e-05 0 -2.9150852829095552e-05 -5.5575956018804637e-05 0 -3.5661668199207184e-05 -5.9053255493052691e-05 0 -3.4072670684843852e-05 -4.9239044737834714e-05 0 -2.9165107539091347e-05 -6.253859682480208e-05 0 -2.9150852829095552e-05 -5.5575956018804637e-05 0 -3.5661668199207184e-05 -5.9053255493052691e-05 0 -2.4122762872978081e-06 -6.0836360161277123e-05 0 6.4329104103544292e-06 -6.9127638160414246e-05 0 4.0596726214178193e-06 -5.7374944835446166e-05 0 -2.4122762872978081e-06 -6.0836360161277123e-05 0 6.4329104103544292e-06 -6.9127638160414246e-05 0 -2.659363281207258e-06 -7.0105386972241706e-05 0 1.0856933640201581e-05 -6.0947929306602839e-05 0 6.4329104103544292e-06 -6.9127638160414246e-05 0 4.0596726214178193e-06 -5.7374944835446166e-05 0 1.3505708724778361e-06 -8.0757396762935399e-05 0 6.4329104103544292e-06 -6.9127638160414246e-05 0 -2.659363281207258e-06 -7.0105386972241706e-05 0 -9.4396133272235938e-06 -7.5446170935995727e-05 0 -2.659363281207258e-06 -7.0105386972241706e-05 0 -8.9904003138905028e-06 -6.3898663494348361e-05 0 -9.4396133272235938e-06 -7.5446170935995727e-05 0 -1.6374687671149214e-05 -6.8236134784349184e-05 0 -8.9904003138905028e-06 -6.3898663494348361e-05 0 -2.4122762872978081e-06 -6.0836360161277123e-05 0 -2.659363281207258e-06 -7.0105386972241706e-05 0 -8.9904003138905028e-06 -6.3898663494348361e-05 0 -2.4122762872978081e-06 -6.0836360161277123e-05 0 -9.9609803118507127e-06 -5.241087118392299e-05 0 -2.5215363205736539e-06 -5.118178094813105e-05 0 -2.4122762872978081e-06 -6.0836360161277123e-05 0 -8.9904003138905028e-06 -6.3898663494348361e-05 0 -9.9609803118507127e-06 -5.241087118392299e-05 0 -1.4720792421160897e-05 -5.8504500148508351e-05 0 -8.9904003138905028e-06 -6.3898663494348361e-05 0 -9.9609803118507127e-06 -5.241087118392299e-05 0 -9.9609803118507127e-06 -5.241087118392299e-05 0 -2.5215363205736534e-06 -5.118178094813105e-05 0 -6.9602549790302742e-06 -4.3585671661383877e-05 0 -2.5215363205736539e-06 -5.118178094813105e-05 0 4.0596726214178193e-06 -5.7374944835446166e-05 0 3.1879392613416279e-06 -4.9265955982577398e-05 0 -2.4122762872978081e-06 -6.0836360161277123e-05 0 -2.5215363205736539e-06 -5.118178094813105e-05 0 4.0596726214178193e-06 -5.7374944835446166e-05 0 9.2172523984274265e-06 -5.1876536098238382e-05 0 1.0856933640201579e-05 -6.0947929306602846e-05 0 4.0596726214178193e-06 -5.7374944835446166e-05 0 9.2172523984274265e-06 -5.1876536098238382e-05 0 4.0596726214178193e-06 -5.7374944835446166e-05 0 3.1879392613416279e-06 -4.9265955982577398e-05 0 9.2172523984274265e-06 -5.1876536098238382e-05 0 3.1879392613416279e-06 -4.9265955982577398e-05 0 6.7135703771250229e-06 -4.3077288707631858e-05 0 3.1879392613416279e-06 -4.9265955982577398e-05 0 6.7135703771250229e-06 -4.3077288707631858e-05 0 -1.3730413858729535e-06 -4.3244700914357365e-05 0 6.7135703771250229e-06 -4.3077288707631858e-05 0 2.3024680061476643e-06 -3.7474403178317359e-05 0 -1.3730413858729535e-06 -4.3244700914357365e-05 0 6.7135703771250229e-06 -4.3077288707631858e-05 0 2.3024680061476643e-06 -3.7474403178317359e-05 0 7.1581180135761494e-06 -3.4777657269024901e-05 0 2.3024680061476643e-06 -3.7474403178317359e-05 0 -1.373041385872954e-06 -4.3244700914357365e-05 0 -2.898127494303305e-06 -3.6225448202099939e-05 0 -2.5215363205736539e-06 -5.118178094813105e-05 0 3.1879392613416279e-06 -4.9265955982577398e-05 0 -1.3730413858729535e-06 -4.3244700914357365e-05 0 -2.5215363205736539e-06 -5.118178094813105e-05 0 -1.3730413858729535e-06 -4.3244700914357365e-05 0 -6.9602549790302742e-06 -4.3585671661383877e-05 0 -9.9609803118507127e-06 -5.241087118392299e-05 0 -6.9602549790302742e-06 -4.3585671661383877e-05 0 -1.5881589845026211e-05 -4.3638003185001543e-05 0 -6.9602549790302742e-06 -4.3585671661383877e-05 0 -9.2510486347225615e-06 -3.5881168556626296e-05 0 -1.5881589845026211e-05 -4.3638003185001543e-05 0 -1.3730413858729535e-06 -4.3244700914357365e-05 0 -6.9602549790302742e-06 -4.3585671661383877e-05 0 -2.898127494303305e-06 -3.6225448202099939e-05 0 -6.9602549790302742e-06 -4.3585671661383877e-05 0 -9.2510486347225615e-06 -3.5881168556626296e-05 0 -2.898127494303305e-06 -3.6225448202099939e-05 0 -9.2510486347225615e-06 -3.5881168556626296e-05 0 -3.2717424269064052e-06 -2.8329400865087241e-05 0 -2.898127494303305e-06 -3.6225448202099939e-05 0 -9.2510486347225615e-06 -3.5881168556626296e-05 0 -1.3127412493775048e-05 -3.0879237101191884e-05 0 -8.2953399936387396e-06 -2.5912308242523301e-05 0 -9.2510486347225615e-06 -3.5881168556626296e-05 0 -3.2717424269064044e-06 -2.8329400865087245e-05 0 -8.2953399936387396e-06 -2.5912308242523301e-05 0 -3.2717424269064052e-06 -2.8329400865087241e-05 0 1.9846472381172667e-06 -3.0530961923422508e-05 0 1.8874903088781668e-06 -2.166350399031378e-05 0 1.9846472381172671e-06 -3.0530961923422508e-05 0 1.8874903088781668e-06 -2.166350399031378e-05 0 6.6060478617877269e-06 -2.6076932455872711e-05 0 2.3024680061476643e-06 -3.7474403178317359e-05 0 1.9846472381172675e-06 -3.0530961923422501e-05 0 7.1581180135761494e-06 -3.4777657269024901e-05 0 -3.2717424269064052e-06 -2.8329400865087241e-05 0 1.9846472381172671e-06 -3.0530961923422508e-05 0 -2.898127494303305e-06 -3.6225448202099939e-05 0 2.3024680061476643e-06 -3.7474403178317359e-05 0 1.9846472381172671e-06 -3.0530961923422508e-05 0 -2.898127494303305e-06 -3.6225448202099939e-05 0 -3.1993206149884283e-05 -4.0113082320472874e-05 0 -2.8322327383598727e-05 -4.4596495327640508e-05 0 -2.2693549168999976e-05 -3.9601818843341212e-05 0 -3.1993206149884283e-05 -4.0113082320472874e-05 0 -2.2693549168999976e-05 -3.9601818843341212e-05 0 -2.4657205225660753e-05 -3.3448280497757504e-05 0 -2.4603423800684326e-05 -4.9251842084399159e-05 0 -3.4072670684843852e-05 -4.9239044737834714e-05 0 -2.8322327383598727e-05 -4.4596495327640508e-05 0 -3.1993206149884283e-05 -4.0113082320472874e-05 0 -3.4072670684843852e-05 -4.9239044737834714e-05 0 -2.8322327383598727e-05 -4.4596495327640508e-05 0 -2.4603423800684326e-05 -4.9251842084399159e-05 0 -2.8322327383598727e-05 -4.4596495327640508e-05 0 -2.2693549168999976e-05 -3.9601818843341212e-05 0 -2.2693549168999976e-05 -3.9601818843341212e-05 0 -1.5881589845026211e-05 -4.3638003185001543e-05 0 -1.5623265882508111e-05 -3.6124604025071248e-05 0 -2.4603423800684326e-05 -4.9251842084399159e-05 0 -2.2693549168999976e-05 -3.9601818843341212e-05 0 -1.5881589845026211e-05 -4.3638003185001543e-05 0 -1.7469838136087211e-05 -5.2150985119794496e-05 0 -2.4603423800684326e-05 -4.9251842084399159e-05 0 -1.5881589845026211e-05 -4.3638003185001543e-05 0 -9.2510486347225615e-06 -3.5881168556626296e-05 0 -1.5881589845026211e-05 -4.3638003185001536e-05 0 -1.5623265882508111e-05 -3.6124604025071248e-05 0 -1.5623265882508111e-05 -3.6124604025071248e-05 0 -1.3127412493775048e-05 -3.0879237101191884e-05 0 -1.8799079689891222e-05 -3.1403524764064346e-05 0 -9.2510486347225615e-06 -3.5881168556626296e-05 0 -1.5623265882508111e-05 -3.6124604025071248e-05 0 -1.3127412493775048e-05 -3.0879237101191884e-05 0 -1.3127412493775048e-05 -3.0879237101191884e-05 0 -1.3831348839099586e-05 -2.5714018497650719e-05 0 -8.2953399936387396e-06 -2.5912308242523301e-05 0 -1.3127412493775048e-05 -3.0879237101191884e-05 0 -1.8799079689891222e-05 -3.1403524764064346e-05 0 -1.3831348839099586e-05 -2.5714018497650722e-05 0 -1.8799079689891222e-05 -3.1403524764064346e-05 0 -2.1325189139746332e-05 -2.6335806672944071e-05 0 -1.3831348839099586e-05 -2.5714018497650722e-05 0 -2.2693549168999976e-05 -3.9601818843341212e-05 0 -1.5623265882508111e-05 -3.6124604025071248e-05 0 -1.8799079689891222e-05 -3.1403524764064346e-05 0 -2.2693549168999976e-05 -3.9601818843341212e-05 0 -1.8799079689891222e-05 -3.1403524764064346e-05 0 -2.4657205225660753e-05 -3.3448280497757504e-05 0 -1.8799079689891222e-05 -3.1403524764064346e-05 0 -2.4657205225660753e-05 -3.3448280497757504e-05 0 -2.1325189139746332e-05 -2.6335806672944071e-05 0 -2.4657205225660753e-05 -3.3448280497757504e-05 0 -2.9588884545665133e-05 -3.1768787595184977e-05 0 -2.1325189139746332e-05 -2.6335806672944071e-05 0 -3.1993206149884283e-05 -4.0113082320472874e-05 0 -2.4657205225660753e-05 -3.3448280497757504e-05 0 -2.9588884545665133e-05 -3.1768787595184977e-05 0 -2.691547216444853e-05 -2.4328132379117774e-05 0 -2.0753790266281846e-05 -2.016909352261299e-05 0 -2.3825538966054915e-05 -1.7870376229377164e-05 0 -2.9588884545665133e-05 -3.1768787595184977e-05 0 -2.691547216444853e-05 -2.4328132379117774e-05 0 -2.1325189139746332e-05 -2.6335806672944071e-05 0 -2.691547216444853e-05 -2.4328132379117774e-05 0 -2.1325189139746332e-05 -2.6335806672944071e-05 0 -2.0753790266281846e-05 -2.016909352261299e-05 0 -2.1325189139746332e-05 -2.6335806672944071e-05 0 -2.0753790266281846e-05 -2.016909352261299e-05 0 -1.5890330557082041e-05 -1.9899391700046364e-05 0 -2.1325189139746332e-05 -2.6335806672944071e-05 0 -1.5890330557082041e-05 -1.9899391700046364e-05 0 -1.3831348839099586e-05 -2.5714018497650722e-05 0 -1.3831348839099586e-05 -2.5714018497650722e-05 0 -1.1657733953437984e-05 -2.0654515995042744e-05 0 -8.2953399936387396e-06 -2.5912308242523301e-05 0 -1.5890330557082041e-05 -1.9899391700046364e-05 0 -1.3831348839099586e-05 -2.5714018497650722e-05 0 -1.1657733953437984e-05 -2.0654515995042744e-05 0 -1.1657733953437984e-05 -2.0654515995042744e-05 0 -1.2039931184546217e-05 -1.6240541847587795e-05 0 -7.510620089052849e-06 -1.7141734224719872e-05 0 -1.5890330557082041e-05 -1.9899391700046364e-05 0 -1.1657733953437984e-05 -2.0654515995042744e-05 0 -1.2039931184546217e-05 -1.6240541847587795e-05 0 -1.2039931184546217e-05 -1.6240541847587795e-05 0 -9.650138424446204e-06 -1.1639345676768661e-05 0 -1.6065711564403248e-05 -1.3817007104371719e-05 0 -1.1208847592797047e-05 -8.994988282720858e-06 0 -9.650138424446204e-06 -1.1639345676768661e-05 0 -1.6065711564403248e-05 -1.3817007104371719e-05 0 -1.5890330557082041e-05 -1.9899391700046364e-05 0 -1.2039931184546217e-05 -1.6240541847587795e-05 0 -1.6065711564403248e-05 -1.3817007104371719e-05 0 -2.0753790266281846e-05 -2.016909352261299e-05 0 -1.6065711564403248e-05 -1.3817007104371719e-05 0 -2.3825538966054915e-05 -1.7870376229377164e-05 0 -2.0753790266281846e-05 -2.016909352261299e-05 0 -1.5890330557082041e-05 -1.9899391700046364e-05 0 -1.6065711564403248e-05 -1.3817007104371719e-05 0 -2.0865535323906962e-05 -1.2506399419161984e-05 0 -1.6065711564403248e-05 -1.3817007104371719e-05 0 -2.3825538966054915e-05 -1.7870376229377164e-05 0 1.8874903088781668e-06 -2.166350399031378e-05 0 -3.8998896676479154e-06 -2.139488805205329e-05 0 -2.1344336038516343e-06 -1.5480151958761239e-05 0 1.8874903088781668e-06 -2.166350399031378e-05 0 -2.1344336038516343e-06 -1.5480151958761239e-05 0 2.4498177295670958e-06 -1.3655383722919498e-05 0 -3.2717424269064052e-06 -2.8329400865087241e-05 0 1.8874903088781668e-06 -2.166350399031378e-05 0 -3.8998896676479154e-06 -2.139488805205329e-05 0 -3.2717424269064052e-06 -2.8329400865087241e-05 0 -3.8998896676479154e-06 -2.139488805205329e-05 0 -8.2953399936387396e-06 -2.5912308242523301e-05 0 -1.1657733953437984e-05 -2.0654515995042744e-05 0 -8.2953399936387396e-06 -2.5912308242523301e-05 0 -7.510620089052849e-06 -1.7141734224719872e-05 0 -3.8998896676479154e-06 -2.139488805205329e-05 0 -8.2953399936387396e-06 -2.5912308242523301e-05 0 -7.510620089052849e-06 -1.7141734224719872e-05 0 -3.8998896676479154e-06 -2.139488805205329e-05 0 -7.510620089052849e-06 -1.7141734224719872e-05 0 -2.1344336038516343e-06 -1.5480151958761239e-05 0 -7.510620089052849e-06 -1.7141734224719872e-05 0 -5.275071094801267e-06 -1.1701009987393433e-05 0 -2.1344336038516343e-06 -1.5480151958761239e-05 0 -1.2039931184546217e-05 -1.6240541847587795e-05 0 -9.650138424446204e-06 -1.1639345676768661e-05 0 -7.510620089052849e-06 -1.7141734224719872e-05 0 -7.1787669511557955e-06 -8.9343551311878502e-06 0 -9.650138424446204e-06 -1.1639345676768661e-05 0 -5.2750710948012661e-06 -1.1701009987393433e-05 0 -9.650138424446204e-06 -1.1639345676768661e-05 0 -7.510620089052849e-06 -1.7141734224719872e-05 0 -5.2750710948012661e-06 -1.1701009987393433e-05 0 -5.2750710948012661e-06 -1.1701009987393433e-05 0 -1.8274285026851028e-06 -1.0153757378720525e-05 0 -2.1344336038516343e-06 -1.5480151958761239e-05 0 -1.8274285026851028e-06 -1.0153757378720523e-05 0 -2.1344336038516343e-06 -1.5480151958761239e-05 0 2.4498177295670958e-06 -1.3655383722919498e-05 0 1.5657652169716634e-06 -8.3479998306449563e-06 0 -1.8274285026851028e-06 -1.0153757378720523e-05 0 2.4498177295670958e-06 -1.3655383722919498e-05 0 1.5657652169716634e-06 -8.3479998306449563e-06 0 4.2652590231322368e-06 -7.1116568856161167e-06 0 2.4498177295670958e-06 -1.3655383722919498e-05 0 4.2652590231322368e-06 -7.1116568856161167e-06 0 2.3522939173548723e-06 -6.360073579790875e-06 0 3.0484368430293745e-06 -5.6470254869823403e-06 0 4.2652590231322368e-06 -7.1116568856161167e-06 0 7.7686097844669417e-06 -1.5144132825044577e-05 0 2.4498177295670958e-06 -1.3655383722919498e-05 0 3.9237124883863315e-06 -7.0611104928951338e-06 0 5.2271224151864811e-06 -1.0813043757773873e-05 0 7.7686097844669417e-06 -1.5144132825044577e-05 0 2.4498177295670958e-06 -1.3655383722919498e-05 0 5.8489000395690815e-06 -1.8996738610507848e-05 0 1.8874903088781668e-06 -2.166350399031378e-05 0 2.4498177295670958e-06 -1.3655383722919498e-05 0 5.8489000395690815e-06 -1.8996738610507848e-05 0 5.2271224151864811e-06 -1.0813043757773873e-05 0 5.8053979598499351e-06 -1.5367185656006983e-05 0 7.7686097844669417e-06 -1.5144132825044577e-05 0 5.8489000395690815e-06 -1.8996738610507848e-05 0 1.0333223124863913e-05 -2.207297638295019e-05 0 5.8053979598499351e-06 -1.5367185656006983e-05 0 6.487391866059077e-06 -2.07857011933415e-05 0 5.8489000395690815e-06 -1.8996738610507848e-05 0 1.0333223124863913e-05 -2.207297638295019e-05 0 6.6060478617877269e-06 -2.6076932455872711e-05 0 1.8874903088781668e-06 -2.166350399031378e-05 0 5.8489000395690806e-06 -1.8996738610507844e-05 0 6.6060478617877269e-06 -2.6076932455872711e-05 0 2.492970658670359e-06 -9.3004502944012798e-06 0 3.2018743318837594e-06 -6.4825658220665915e-06 0 3.9468375359619012e-06 -8.3291502963391451e-06 0 1.3254786829224284e-06 -8.6948562633296566e-06 0 2.492970658670359e-06 -9.3004502944012798e-06 0 6.357362556008889e-07 -1.1771734209015841e-05 0 1.3254786829224284e-06 -8.6948562633296566e-06 0 2.492970658670359e-06 -9.3004502944012798e-06 0 3.2018743318837594e-06 -6.4825658220665915e-06 0 2.3522939173548723e-06 -6.360073579790875e-06 0 1.3254786829224284e-06 -8.6948562633296566e-06 0 3.2018743318837594e-06 -6.4825658220665915e-06 0 3.2018743318837594e-06 -6.4825658220665915e-06 0 3.0484368430293745e-06 -5.6470254869823403e-06 0 4.2480078137419671e-06 -4.5119682411753355e-06 0 2.3522939173548723e-06 -6.360073579790875e-06 0 3.2018743318837594e-06 -6.4825658220665907e-06 0 3.0484368430293745e-06 -5.6470254869823403e-06 0 3.6285700937405686e-06 -4.7383631290996583e-06 0 4.2652590231322368e-06 -7.1116568856161167e-06 0 3.0484368430293745e-06 -5.6470254869823403e-06 0 3.6285700937405686e-06 -4.7383631290996583e-06 0 3.0484368430293745e-06 -5.6470254869823403e-06 0 4.2480078137419671e-06 -4.5119682411753355e-06 0 3.2018743318837594e-06 -6.4825658220665915e-06 0 4.2480078137419671e-06 -4.5119682411753355e-06 0 4.9542748050867431e-06 -6.3927344106201127e-06 0 4.2480078137419671e-06 -4.5119682411753355e-06 0 6.2180328265324736e-06 -4.0375495196972534e-06 0 4.9542748050867431e-06 -6.3927344106201127e-06 0 5.643112779518297e-06 -2.4274267126976165e-06 0 4.2480078137419671e-06 -4.5119682411753355e-06 0 6.2180328265324736e-06 -4.0375495196972534e-06 0 7.1986116287338137e-06 -1.3038174416041155e-06 0 7.9183053953611243e-06 -2.921505695215261e-06 0 6.2180328265324736e-06 -4.0375495196972534e-06 0 7.1986116287338137e-06 -1.3038174416041155e-06 0 5.643112779518297e-06 -2.4274267126976165e-06 0 6.2180328265324736e-06 -4.0375495196972534e-06 0 7.9183053953611243e-06 -2.921505695215261e-06 0 7.9868557559532765e-06 -5.5516895545785622e-06 0 6.2180328265324736e-06 -4.0375495196972534e-06 0 7.9868557559532765e-06 -5.5516895545785622e-06 0 6.5879510725384197e-06 -6.1574994230143242e-06 0 7.7808057769836296e-06 -8.2038391311398865e-06 0 7.9868557559532765e-06 -5.5516895545785622e-06 0 6.2180328265324736e-06 -4.0375495196972534e-06 0 6.5879510725384197e-06 -6.1574994230143242e-06 0 6.5879510725384197e-06 -6.1574994230143242e-06 0 6.2657390139313483e-06 -8.1965096537664119e-06 0 4.9542748050867431e-06 -6.3927344106201127e-06 0 6.2180328265324736e-06 -4.0375495196972534e-06 0 6.5879510725384197e-06 -6.1574994230143242e-06 0 4.9542748050867431e-06 -6.3927344106201127e-06 0 6.5879510725384197e-06 -6.1574994230143242e-06 0 6.2657390139313483e-06 -8.1965096537664119e-06 0 7.7808057769836296e-06 -8.2038391311398865e-06 0 3.2018743318837594e-06 -6.4825658220665915e-06 0 4.9542748050867431e-06 -6.3927344106201127e-06 0 3.9468375359619012e-06 -8.3291502963391451e-06 0 6.2657390139313483e-06 -8.1965096537664119e-06 0 4.9542748050867431e-06 -6.3927344106201127e-06 0 5.1124157044861594e-06 -1.0001248181077954e-05 0 4.9542748050867431e-06 -6.3927344106201127e-06 0 3.9468375359619012e-06 -8.3291502963391451e-06 0 5.1124157044861594e-06 -1.0001248181077954e-05 0 3.9468375359619012e-06 -8.3291502963391451e-06 0 5.1124157044861594e-06 -1.0001248181077954e-05 0 3.1284005125969072e-06 -1.1364398793217184e-05 0 5.1124157044861594e-06 -1.0001248181077954e-05 0 7.0784865013722847e-06 -1.0649122130946411e-05 0 6.1550463458272761e-06 -1.3175444666315933e-05 0 5.1124157044861594e-06 -1.0001248181077954e-05 0 4.3442148024228769e-06 -1.2914474594615191e-05 0 6.1550463458272761e-06 -1.3175444666315933e-05 0 5.1124157044861594e-06 -1.0001248181077954e-05 0 4.3442148024228769e-06 -1.2914474594615191e-05 0 3.1284005125969072e-06 -1.1364398793217184e-05 0 7.7808057769836296e-06 -8.2038391311398865e-06 0 8.8767621315545917e-06 -1.0721007315309119e-05 0 7.0784865013722847e-06 -1.0649122130946411e-05 0 6.2657390139313483e-06 -8.1965096537664119e-06 0 7.7808057769836296e-06 -8.2038391311398865e-06 0 7.0784865013722847e-06 -1.0649122130946411e-05 0 6.2657390139313483e-06 -8.1965096537664119e-06 0 5.1124157044861594e-06 -1.0001248181077954e-05 0 7.0784865013722847e-06 -1.0649122130946411e-05 0 7.0784865013722847e-06 -1.0649122130946411e-05 0 8.5616671883770708e-06 -1.3484032184455484e-05 0 6.1550463458272761e-06 -1.3175444666315933e-05 0 8.8767621315545917e-06 -1.0721007315309119e-05 0 7.0784865013722847e-06 -1.0649122130946411e-05 0 8.5616671883770708e-06 -1.3484032184455484e-05 0 1.0904593676419585e-05 -1.5006248844069252e-05 0 8.5616671883770708e-06 -1.3484032184455484e-05 0 9.3474964960710905e-06 -1.6645270056655529e-05 0 8.5616671883770708e-06 -1.3484032184455484e-05 0 7.2376804803930856e-06 -1.6358193621463279e-05 0 6.1550463458272761e-06 -1.3175444666315933e-05 0 8.5616671883770708e-06 -1.3484032184455484e-05 0 7.2376804803930856e-06 -1.6358193621463279e-05 0 9.3474964960710905e-06 -1.6645270056655529e-05 0 4.3442148024228769e-06 -1.2914474594615191e-05 0 5.1971360519808508e-06 -1.5908289252796402e-05 0 3.5960131138240944e-06 -1.5376814507951259e-05 0 7.2376804803930856e-06 -1.6358193621463279e-05 0 6.1550463458272761e-06 -1.3175444666315933e-05 0 5.1971360519808508e-06 -1.5908289252796402e-05 0 4.3442148024228769e-06 -1.2914474594615191e-05 0 6.1550463458272761e-06 -1.3175444666315933e-05 0 5.1971360519808508e-06 -1.5908289252796402e-05 0 5.487510041531253e-06 -1.9115789255162245e-05 0 7.2376804803930856e-06 -1.6358193621463279e-05 0 5.1971360519808508e-06 -1.5908289252796402e-05 0 5.1971360519808508e-06 -1.5908289252796402e-05 0 3.9850099917711925e-06 -1.7550276393550004e-05 0 3.5960131138240944e-06 -1.5376814507951259e-05 0 5.487510041531253e-06 -1.9115789255162245e-05 0 5.1971360519808508e-06 -1.5908289252796402e-05 0 3.9850099917711925e-06 -1.7550276393550004e-05 0 3.9850099917711925e-06 -1.7550276393550004e-05 0 3.5960131138240944e-06 -1.5376814507951259e-05 0 2.3579044524300877e-06 -1.6771034147605756e-05 0 3.5960131138240944e-06 -1.5376814507951259e-05 0 2.2377943296641002e-06 -1.3869681185421297e-05 0 2.3579044524300877e-06 -1.6771034147605756e-05 0 4.3442148024228769e-06 -1.2914474594615191e-05 0 3.5960131138240944e-06 -1.5376814507951259e-05 0 2.2377943296641002e-06 -1.3869681185421297e-05 0 2.2377943296641002e-06 -1.3869681185421297e-05 0 2.3579044524300877e-06 -1.6771034147605756e-05 0 4.0629731740701663e-07 -1.5276709579283739e-05 0 6.7135703771250229e-06 -4.3077288707631858e-05 0 1.5686586575967291e-05 -4.73156767897888e-05 0 1.4100422655569854e-05 -3.8149688819311157e-05 0 8.1125007954456141e-06 -3.30209657706499e-05 0 7.2266421436810345e-06 -2.6728778509175049e-05 0 2.3579044524300877e-06 -1.6771034147605756e-05 0 6.5378680920210778e-07 -1.8742117867884999e-05 0 4.0629731740701663e-07 -1.5276709579283739e-05 0 9.2172523984274265e-06 -5.1876536098238382e-05 0 6.7135703771250229e-06 -4.3077288707631858e-05 0 1.5686586575967291e-05 -4.73156767897888e-05 0 6.7135703771250229e-06 -4.3077288707631858e-05 0 1.4100422655569854e-05 -3.8149688819311157e-05 0 7.1581180135761494e-06 -3.4777657269024901e-05 0 1.4100422655569854e-05 -3.8149688819311157e-05 0 7.1581180135761494e-06 -3.4777657269024901e-05 0 1.2332915380215685e-05 -2.9743565201383928e-05 0 2.2377943296641002e-06 -1.3869681185421297e-05 0 4.0629731740701668e-07 -1.5276709579283739e-05 0 6.357362556008889e-07 -1.1771734209015841e-05 0 7.2266421436810345e-06 -2.6728778509175049e-05 0 6.487391866059077e-06 -2.07857011933415e-05 0 7.1581180135761494e-06 -3.4777657269024901e-05 0 6.6060478617877269e-06 -2.6076932455872711e-05 0 1.2332915380215685e-05 -2.9743565201383928e-05 0 1.9846472381172671e-06 -3.0530961923422508e-05 0 7.1581180135761494e-06 -3.4777657269024901e-05 0 6.6060478617877269e-06 -2.6076932455872711e-05 0 1.0333223124863913e-05 -2.207297638295019e-05 0 6.6060478617877269e-06 -2.6076932455872711e-05 0 1.2332915380215685e-05 -2.9743565201383928e-05 0 2.492970658670359e-06 -9.3004502944012798e-06 0 6.357362556008889e-07 -1.1771734209015841e-05 0 3.1284005125969072e-06 -1.1364398793217184e-05 0 2.492970658670359e-06 -9.3004502944012798e-06 0 3.9468375359619012e-06 -8.3291502963391451e-06 0 3.1284005125969072e-06 -1.1364398793217184e-05 0 4.3442148024228769e-06 -1.2914474594615191e-05 0 2.2377943296640997e-06 -1.3869681185421297e-05 0 3.1284005125969072e-06 -1.1364398793217184e-05 0 2.2377943296641002e-06 -1.3869681185421297e-05 0 6.357362556008889e-07 -1.1771734209015841e-05 0 3.1284005125969072e-06 -1.1364398793217184e-05 0 
</DataArray>
</PointData>
<CellData Scalars="region_id,cross_section_updated,displacement_divergence," Vectors="" Tensors="effective_stress,">
<DataArray type="Float64" Name="region_id" format="ascii">
1 1 1 1 1 1 1 1 1 1 1 1 1 1 1 1 1 1 1 1 1 1 1 1 1 1 1 1 1 1 1 1 1 1 1 1 1 1 1 1 1 1 1 1 1 1 1 1 1 1 1 1 1 1 1 1 1 1 1 1 1 1 1 1 1 1 1 1 1 1 1 1 1 1 1 1 1 1 1 1 1 1 1 1 1 1 1 1 1 1 1 1 1 1 1 1 1 1 1 1 1 1 1 1 1 1 1 1 1 1 1 1 1 1 1 1 1 1 1 1 1 1 1 1 1 1 1 1 1 1 1 1 1 1 1 1 1 1 1 1 1 1 1 1 1 1 1 1 1 1 1 1 1 1 1 1 1 1 1 1 1 1 1 1 1 1 1 1 1 1 1 1 1 1 1 1 1 1 1 1 1 1 1 1 1 1 1 1 1 1 1 1 1 1 1 1 1 1 1 1 1 1 1 1 1 1 1 1 1 1 1 1 1 1 1 1 1 1 1 1 1 1 1 1 1 1 1 1 1 1 1 1 1 1 1 1 1 1 1 1 1 1 1 1 1 1 1 1 1 1 1 1 1 1 1 1 1 1 1 1 1 1 1 1 1 1 1 1 1 1 1 1 1 1 1 1 1 1 1 1 1 1 1 1 1 1 1 1 1 1 1 1 1 1 1 1 1 1 1 1 1 1 1 1 1 1 1 1 1 1 1 1 1 1 1 1 1 1 1 1 1 1 1 1 1 1 1 1 1 1 1 1 1 1 1 1 1 1 1 1 1 1 1 1 1 1 1 1 1 1 1 1 1 1 1 1 1 1 1 1 1 1 1 1 1 1 1 1 1 1 1 1 1 1 1 1 1 1 1 1 1 1 1 1 1 1 1 1 1 1 1 1 1 1 1 1 1 1 1 1 1 1 1 1 1 1 1 1 1 1 1 1 1 1 1 1 1 1 1 1 1 1 1 1 1 1 1 1 1 1 1 1 1 1 1 1 1 1 1 1 1 1 1 1 1 1 1 1 1 1 1 1 1 1 1 1 1 1 1 1 1 1 1 1 1 1 1 1 1 1 1 1 1 1 1 1 1 1 1 1 1 1 1 1 1 1 1 1 1 1 1 1 1 1 1 1 1 1 1 1 1 1 1 1 1 1 1 1 1 1 1 1 1 1 1 1 1 1 1 1 1 1 1 1 1 1 1 1 1 1 1 1 1 1 1 1 1 1 3 1 1 3 1 1 3 1 1 1 1 1 1 1 1 1 1 1 1 1 3 1 1 1 1 1 3 1 1 1 1 1 1 1 1 1 1 1 1 1 1 1 1 1 1 1 1 1 1 1 1 1 1 1 1 1 1 1 1 1 1 1 1 1 1 1 1 1 1 1 1 1 1 1 1 1 1 1 1 1 1 1 1 1 1 1 1 1 1 1 1 1 1 1 1 1 1 1 1 1 1 1 1 1 1 1 1 1 1 1 1 1 1 1 1 1 1 1 1 1 1 1 1 1 1 1 1 1 1 1 1 1 1 1 1 1 1 1 1 1 1 1 1 1 1 1 1 1 1 1 1 1 1 1 1 1 1 1 1 1 1 1 1 1 1 1 1 1 1 1 1 1 1 1 1 1 1 1 1 1 1 1 1 1 1 1 1 1 1 1 1 1 1 1 1 3 1 1 1 3 1 1 3 1 1 1 1 1 1 1 1 1 1 1 3 1 1 1 1 3 1 1 1 1 1 1 1 1 1 1 1 1 1 1 1 1 1 1 1 1 1 1 1 1 1 1 1 1 1 1 1 1 1 1 1 1 1 1 1 1 1 1 1 1 1 1 1 1 1 1 1 1 1 1 1 1 1 1 2 1 1 1 1 1 1 1 1 1 1 1 1 1 1 2 1 1 2 1 2 1 1 1 1 1 1 1 1 1 1 1 1 1 2 1 1 1 1 1 1 1 1 1 1 1 1 1 1 1 1 1 1 1 1 1 1 1 1 1 1 1 1 1 1 1 1 1 1 1 1 1 1 1 1 1 1 1 1 1 1 1 1 1 1 1 1 1 1 1 1 1 1 1 1 1 1 1 1 1 1 1 1 1 1 1 1 1 1 1 1 1 1 1 1 1 1 1 1 1 1 1 1 1 1 1 1 1 1 1 1 1 1 1 1 1 1 1 1 1 1 1 1 1 1 1 1 1 1 1 1 1 1 1 1 1 1 1 1 1 1 1 1 1 1 1 1 1 1 1 1 2 1 1 2 1 2 1 1 1 1 1 1 1 1 1 1 1 1 1 1 1 1 1 1 1 1 1 1 1 1 1 1 1 1 1 1 1 1 1 1 1 1 1 1 1 1 1 1 1 1 1 1 1 2 1 1 1 1 1 2 1 1 1 1 1 1 1 
</DataArray>
<DataArray type="Float64" Name="effective_stress" NumberOfComponents="9" format="ascii">
-0.019535275281062529 0.0014454880543565969 0 0.0014454880543565969 -0.0026642646732602418 0 0 0 -0.0055498849885806936 -0.01905702336338555 0.0021440941269515357 0 0.0021440941269515357 -0.0063408448840298736 0 0 0 -0.0063494670618538555 -0.020460080799122038 0.0022352538458437132 0 0.0022352538458437132 0.0012994358737341265 0 0 0 -0.0047901612313469791 -0.020095443084707114 0.0028061760714099908 0 0.0028061760714099908 -0.0025413014948109784 0 0 0 -0.0056591861448795208 -0.01683297037914535 0.0058215745972085165 0 0.0058215745972085165 -0.0056122266829227371 0 0 0 -0.0056112992655170217 -0.016830535258231989 0.0058244125579974704 0 0.0058244125579974704 -0.0056041755095024275 0 0 0 -0.0056086776919336044 -0.019459047448227445 0.0056315923523419104 0 0.0056315923523419104 -0.0013179039807515733 0 0 0 -0.0051942378572447552 -0.019586545056793997 0.0050093002159495859 0 0.0050093002159495859 -0.0016324464751110469 0 0 0 -0.0053047478829762636 -0.018692331624120238 0.0065575640436188031 0 0.0065575640436188031 -0.001301044038780029 0 0 0 -0.0049983439157250675 -0.015168302968005497 0.0068214542709369979 0 0.0068214542709369979 -0.00023480339353074142 0 0 0 -0.0038507765903840587 -0.021653536372699324 0.0070199688488085162 0 0.0070199688488085162 -0.00069975757228610269 0 0 0 -0.0055883234862463584 -0.015004930565931955 0.007592085625047533 0 0.007592085625047533 0.00041431522241024837 0 0 0 -0.0036476538358804298 -0.026744292550823161 0.0054682198801236214 0 0.0054682198801236214 -0.00036488175212741683 0 0 0 -0.0067772935757376461 -0.020816198187976982 0.005758570581583208 0 0.005758570581583208 0.00033373957063236384 0 0 0 -0.0051206146543361546 -0.031193839824563318 0.0021534548240937151 0 0.0021534548240937151 -0.0010309150982016537 0 0 0 -0.0080561887306912425 -0.02466175311599051 0.0027027059178865681 0 0.0027027059178865681 -0.00016544095687744261 0 0 0 -0.0062067985182169905 -0.022999995018951606 0.0035229914644475881 0 0.0035229914644475881 0.001454984312795499 0 0 0 -0.005386252676539029 -0.023169455969604819 0.0055708163546315517 0 0.0055708163546315517 -0.00027333670484923703 0 0 0 -0.0058606981686135174 -0.0031242189828532101 0.0080054768302756703 0 0.0080054768302756703 -0.0010398267908357003 0 0 0 -0.0010410114434222274 -0.0058587428007830893 0.0094639041168343915 0 0.0094639041168343915 -0.0010746288396536706 0 0 0 -0.00173334291010919 -0.0068885572660363666 0.0074670218130107272 0 0.0074670218130107272 -0.0007035913114724502 0 0 0 -0.0018980371443772022 -0.011928169434610112 0.0084607857548111582 0 0.0084607857548111582 -0.00092260941273185001 0 0 0 -0.0032126947118354906 -0.012520865901486083 0.0077048087130575649 0 0.0077048087130575649 -0.0022487255174164465 0 0 0 -0.0036923978547256315 -0.0080979549434737445 0.0085854259199100967 0 0.0085854259199100967 -0.0012377587201425205 0 0 0 -0.0023339284159040671 -0.0082059778867263188 0.0076689071969575084 0 0.0076689071969575084 -0.0027378327760391626 0 0 0 -0.0027359526656913708 -0.013225297351007595 0.0085463547338577982 0 0.0085463547338577982 -0.00033702692349589503 0 0 0 -0.003390581068625869 -0.014380323525688559 0.0069980682438813644 0 0.0069980682438813644 -0.00053953532391008393 0 0 0 -0.0037299647123996589 -0.012012597367260009 0.0075750871936440907 0 0.0075750871936440907 -0.0012741855545397376 0 0 0 -0.0033216957304499344 -0.0057032318836953474 0.0075421661527244688 0 0.0075421661527244688 -0.00041029492159068599 0 0 0 -0.0015283817013215088 -0.0059642612246524479 0.0081264665639146187 0 0.0081264665639146187 -0.00093395340815650291 0 0 0 -0.001724553658202236 -0.0029196402898113635 0.0092548146652449148 0 0.0092548146652449148 -0.00092342305546939951 0 0 0 -0.0009607658363201925 -0.0006541215002016116 0.0071801441871436828 0 0.0071801441871436828 -5.4928363595319746e-05 0 0 0 -0.00017726246594923153 -0.0011300747680642632 0.0085530769782928284 0 0.0085530769782928284 -0.00085363859854269142 0 0 0 -0.0004959283416517378 -0.0013465206023449902 0.0068885386982607249 0 0.0068885386982607249 -0.00022295169177440066 0 0 0 -0.00039236807352984598 -0.0066396131644874071 0.0090743004886702314 0 0.0090743004886702314 -0.00084087257012788186 0 0 0 -0.0018701214336538253 -0.014496597487321551 0.0089213001453455586 0 0.0089213001453455586 -0.00058055347601706359 0 0 0 -0.0037692877408346519 -0.011681063420322702 0.0087947768459738611 0 0.0087947768459738611 -0.00062010109783727785 0 0 0 -0.0030752911295399924 -0.0080238692197333959 0.0074045099849816788 0 0.0074045099849816788 0.00017761296746107019 0 0 0 -0.0019615640630680792 -0.014560138529015046 0.0072960437435980194 0 0.0072960437435980194 0.00051210547811342266 0 0 0 -0.0035120082627254044 -0.016286125600431446 0.0090729331647951793 0 0.0090729331647951793 -0.0004936967762838862 0 0 0 -0.0041949555941788313 -0.01218798307117212 0.0074952156673254201 0 0.0074952156673254201 -0.00027039324285101432 0 0 0 -0.0031145940785057848 -0.0088129795501315951 0.0094337277759502652 0 0.0094337277759502652 0.0001790244740013866 0 0 0 -0.002158488769032553 -0.0087913872433298696 0.0074164919122180067 0 0.0074164919122180067 0.00079495587978273188 0 0 0 -0.001999107840886782 -0.0026233919889022302 0.0071579469873437815 0 0.0071579469873437815 0.00028516252475371405 0 0 0 -0.00058455736603713255 -0.0081201521196665877 0.0093625524233898784 0 0.0093625524233898784 -0.0006154247554681358 0 0 0 -0.0021838942187836774 -0.0065624967249850079 0.0068296710791275013 0 0.0068296710791275013 0.00086713148488089774 0 0 0 -0.0014238413100260249 0.0028406165382246738 0.0068517722595014142 0 0.0068517722595014142 -0.0001113859828330635 0 0 0 0.00068230763884790345 -0.0018045234176881468 0.0083114082358586375 0 0.0083114082358586375 -3.5533108251141476e-05 0 0 0 -0.0004600141314848212 -0.031577277491988555 0.0025342871246822503 0 0.0025342871246822503 -0.0013435009118077726 0 0 0 -0.0082301946009490853 -0.025024244948755617 0.0061013136953133691 0 0.0061013136953133691 6.985201820229256e-05 0 0 0 -0.0062385982326383319 -0.03699661824664869 0.0031947282028876537 0 0.0031947282028876537 -0.00012220700856034085 0 0 0 -0.0092797063138022572 -0.025167130496907268 0.0043079620057178379 0 0.0043079620057178379 0.001062893239769748 0 0 0 -0.0060260593142843766 -0.019880164244964624 0.0064290914227408593 0 0.0064290914227408593 0.00075309675403188725 0 0 0 -0.0047817668727331824 -0.020751756112648422 0.0073395740945315334 0 0.0073395740945315334 -0.00039461838571228092 0 0 0 -0.0052865936245901756 -0.021181821061181126 0.0081206397589632905 0 0.0081206397589632905 -0.00033510565501123149 0 0 0 -0.0053792316790480885 -0.024438960131506995 0.0056968038630198026 0 0.0056968038630198026 0.00053369526378662692 0 0 0 -0.0059763162169300943 -0.01775833570274191 0.0069464399491959393 0 0.0069464399491959393 -8.153952869802486e-05 0 0 0 -0.0044599688078599785 -0.025742736392701117 0.0077886228917339508 0 0.0077886228917339508 -0.00049194237199553376 0 0 0 -0.0065586696911741644 -0.020803564997056424 0.0064071416893555604 0 0.0064071416893555604 -0.00040666873902634251 0 0 0 -0.0053025584340206907 -0.024994992623951329 0.005810754995965335 0 0.005810754995965335 0.00062100491727237056 0 0 0 -0.0060934969266697378 -0.03509119983817828 0.0048102782668528353 0 0.0048102782668528353 -0.00053191733644988165 0 0 0 -0.0089057792936570387 -0.032815176006347195 0.0046712610939912986 0 0.0046712610939912986 -0.00058196392016958247 0 0 0 -0.0083492849816291983 -0.031658406176537167 0.0027256278915433838 0 0.0027256278915433838 0.00031595518572612342 0 0 0 -0.0078356127477027526 -0.042681812737242135 0.0031597359038458457 0 0.0031597359038458457 -0.00038185154566121305 0 0 0 -0.01076591607072583 -0.045950582385069161 0.0028459749606676681 0 0.0028459749606676681 -0.00033408436121656372 0 0 0 -0.011571166686571427 -0.033688597437737611 0.0035524741389048472 0 0.0035524741389048472 0.00093823133945458107 0 0 0 -0.0081875915245707542 -0.039329854191435476 0.0026155594545242515 0 0.0026155594545242515 0.00053000295955582186 0 0 0 -0.0096999628079699092 -0.053487847438794561 0.0021230428217286559 0 0.0021230428217286559 0.00084626225414666245 0 0 0 -0.013160396296161976 -0.041266485540933408 0.0059344486267311342 0 0.0059344486267311342 0.0011021931822895806 0 0 0 -0.010041073089660952 -0.041675625859065493 0.0022697075287658464 0 0.0022697075287658464 -0.00072272271910276201 0 0 0 -0.01059958714454207 -0.043952194216209807 0.0023289554709389915 0 0.0023289554709389915 0.001698748492461738 0 0 0 -0.010563361430937022 -0.060649283681709659 0.00050680794518406791 0 0.00050680794518406791 -0.00063043953499979793 0 0 0 -0.015319930804177373 -0.025972883672772541 0.0043104621440732752 0 0.0043104621440732752 0.0015378056012609297 0 0 0 -0.0061087695178779142 -0.021100117867943108 0.0083573827368224659 0 0.0083573827368224659 0.0011859703746543888 0 0 0 -0.0049785368733221771 -0.031308228697735287 0.0055816831574928621 0 0.0055816831574928621 -0.00023162707921486284 0 0 0 -0.0078849639442375337 -0.03101644822808056 0.006497596942411441 0 0.006497596942411441 0.00055552908891513559 0 0 0 -0.0076152297847913537 -0.020708650862910037 0.0084379120704411864 0 0.0084379120704411864 0.0010199036349925455 0 0 0 -0.0049221868069793586 -0.035250739707108562 0.0076505671326879835 0 0.0076505671326879835 0.0013876047665443841 0 0 0 -0.0084657837351410394 -0.029804279829047067 0.005523692275461848 0 0.005523692275461848 -0.00054976599324999334 0 0 0 -0.0075885114555742606 -0.026235652747090436 0.0078588444692452766 0 0.0078588444692452766 0.00066709147770275742 0 0 0 -0.0063921403173469215 -0.019042332687341276 0.0086856058713859728 0 0.0086856058713859728 0.00015590259702959186 0 0 0 -0.0047216075225779298 -0.012893654428079236 0.0082802583337910525 0 0.0082802583337910525 0.00033104195266809612 0 0 0 -0.0031406531188527828 -0.012824047440530333 0.0073398340951864524 0 0.0073398340951864524 0.00050572485465211897 0 0 0 -0.0030795806464695499 -0.012042579337372994 0.0071480299177114626 0 0.0071480299177114626 0.0013561647383390843 0 0 0 -0.002671603649758476 -0.0063379290976325504 0.0083466212703977513 0 0.0083466212703977513 0.00028373358790936224 0 0 0 -0.0015135488774307986 -0.020623680441704244 0.0073078665204737384 0 0.0073078665204737384 0.00057451524787970748 0 0 0 -0.0050122912984561343 -0.00075404534881808039 0.0065376173181975047 0 0.0065376173181975047 0.0016001485587330486 0 0 0 0.00021152580247874378 -0.002179673830527605 0.0085992445318178404 0 0.0085992445318178404 -0.00026208892714167653 0 0 0 -0.00061044068941732213 -0.0051793021641807126 0.0063099003663530931 0 0.0063099003663530931 0.0021042316971635481 0 0 0 -0.00076876761675428963 0.0030918445364272401 0.0042594868244663154 0 0.0042594868244663154 0.0030520650659584848 0 0 0 0.0015359774005964302 0.0011784650130421672 0.0076095821074212734 0 0.0076095821074212734 0.00089342642911763477 0 0 0 0.00051797286053995115 -0.0042229297485412622 0.0064401991038454268 0 0.0064401991038454268 0.0035281236999088212 0 0 0 -0.00017370151215811026 0.0039043619196700453 0.0048905615577381593 0 0.0048905615577381593 0.003430679382687072 0 0 0 0.0018337603255892797 0.0036722249196908998 0.004188548952558685 0 0.004188548952558685 0.0060718519250094749 0 0 0 0.0024360192111750941 -0.012509731130538528 0.0085715431467932816 0 0.0085715431467932816 0.0011085902272315882 0 0 0 -0.0028502852258267351 -0.017786227698105759 0.0057738348225182534 0 0.0057738348225182534 0.0011743136382430137 0 0 0 -0.0041529785149656863 -0.0046447501890414149 0.0067281976494260754 0 0.0067281976494260754 0.0013130778413009917 0 0 0 -0.00083291808693511122 -0.0094055321090165452 0.0050362154446028096 0 0.0050362154446028096 0.0027431854226883674 0 0 0 -0.0016655866715820488 -0.011973312775345593 0.0084454180822236598 0 0.0084454180822236598 0.0029243129996173109 0 0 0 -0.002262249943932074 -0.017068204494232835 0.0080096924736060143 0 0.0080096924736060143 0.004113636292185141 0 0 0 -0.0032386420505119209 -0.011417503006942303 0.0058386625979507042 0 0.0058386625979507042 0.0084558381939833088 0 0 0 -0.00074041620323973822 -0.016851937402166364 0.0026559402810334004 0 0.0026559402810334004 0.0041281358023200349 0 0 0 -0.003180950399961583 0.013196419141770567 0.0014946460045996372 0 0.0014946460045996372 0.0075885629395143483 0 0 0 0.0051962455203212344 -0.0064218616625137306 0.0068853510444291111 0 0.0068853510444291111 0.0054542927082242912 0 0 0 -0.00024189223857235681 0.0012580128533517497 0.0037500547059777858 0 0.0037500547059777858 0.0062156295369787846 0 0 0 0.0018684105975826371 0.0023915417618502847 0.0042221497839171462 0 0.0042221497839171462 0.010298917689832973 0 0 0 0.0031726148629208119 0.010657166162741354 -0.00029676084802652061 0 -0.00029676084802652061 0.011729162864916126 0 0 0 0.005596582256914364 -0.00033624996259484785 0.0028086268914410614 0 0.0028086268914410614 0.016889068473611935 0 0 0 0.0041382046277542717 -0.0018478330359919803 -0.0016352036008597526 0 -0.0016352036008597526 0.017626294741499182 0 0 0 0.0039446154263768074 0.0039429572261586512 -0.0049795955545785947 0 -0.0049795955545785947 0.013383558543275262 0 0 0 0.00433162894235848 0.0099602954786547765 -0.0016362501888708969 0 -0.0016362501888708969 0.026105980868211281 0 0 0 0.0090165690867164972 -0.016110494593966691 0.00082930323719349053 0 0.00082930323719349053 0.01057657472277268 0 0 0 -0.001383479967798501 -0.0037823786901880589 0.0014217677919491634 0 0.0014217677919491634 0.007786502871527233 0 0 0 0.0010010310453347944 -0.0060335398920832242 -0.0040813774230500505 0 -0.0040813774230500505 0.010105992761565832 0 0 0 0.0010181132173706711 -0.017881792530379775 0.0024238118012222618 0 0.0024238118012222618 0.005555192017473648 0 0 0 -0.003081650128226518 -0.022434972614218413 -0.0029664817636239904 0 -0.0029664817636239904 0.0058383003686134985 0 0 0 -0.0041491680614012157 -0.030875718516980427 0.00017111506947746491 0 0.00017111506947746491 0.0037566562264522152 0 0 0 -0.0067797655726320322 -0.034440745233775757 0.0039952620695988053 0 0.0039952620695988053 0.0027462583964328116 0 0 0 -0.0079236217093357313 -0.043030902124387024 -0.0028913987234132493 0 -0.0028913987234132493 0.0032595994300810074 0 0 0 -0.0099428256735765164 -0.047189148344121183 0.0017140037741881775 0 0.0017140037741881775 0.0010695176646269289 0 0 0 -0.011529907669873558 -0.066342986843526339 0.00053387068148909311 0 0.00053387068148909311 0.0012071020380204911 0 0 0 -0.016283971201376486 -0.048653596115481874 0.0021618905718483183 0 0.0021618905718483183 0.0013268026359399693 0 0 0 -0.011831698369885499 -0.048074193966524986 0.0005466444912676921 0 0.0005466444912676921 0.00072473741081865994 0 0 0 -0.011837364138926582 -0.049983264362092772 0.00036776862474777183 0 0.00036776862474777183 -0.00062721299583656798 0 0 0 -0.012652619339482335 -0.041165669132217739 0.0058136666824526728 0 0.0058136666824526728 0.001312862303717105 0 0 0 -0.0099632017071251619 -0.064631131508422951 0.0026443127753772375 0 0.0026443127753772375 0.0002307439784172971 0 0 0 -0.01610009688250141 -0.046730584323359498 0.0048990771896866743 0 0.0048990771896866743 0.0013091768660358633 0 0 0 -0.011355351864330912 -0.031553915592101113 0.0074207294998967915 0 0.0074207294998967915 0.0024351086390250187 0 0 0 -0.0072797017382690114 -0.024737667928169844 0.0064818209931300254 0 0.0064818209931300254 0.0041115888758631175 0 0 0 -0.0051565197630766835 -0.035206367644013588 0.0023260338606019559 0 0.0023260338606019559 0.0017988209513900271 0 0 0 -0.0083518866731559019 0.010824923289380891 -0.00035932794539953773 0 -0.00035932794539953773 0.026379710265033534 0 0 0 0.0093011583886036028 0.0099948139957941589 -0.0014378524991643391 0 -0.0014378524991643391 0.021209534229813896 0 0 0 0.0078010870564020132 0.0098143123654065197 -0.0025185453139344705 0 -0.0025185453139344705 0.018123424368878295 0 0 0 0.006984434183571208 0.0084354127398004689 0.0011045574020760122 0 0.0011045574020760122 0.022060029987516182 0 0 0 0.0076238606818291666 0.012051728527252543 0.0046933870250494194 0 0.0046933870250494194 0.024032949223493562 0 0 0 0.0090211694376865336 0.013211151632746519 0.0039334986311106053 0 0.0039334986311106053 0.029908174271832753 0 0 0 0.010779831476144815 0.0081758001550377886 -0.00035978435567414827 0 -0.00035978435567414827 0.028750367946115293 0 0 0 0.0092315420252882703 0.0069811527778246077 1.9588939836907154e-05 0 1.9588939836907154e-05 0.028502160783976032 0 0 0 0.0088708283904501556 0.0097657277422078716 -0.00033643785938318113 0 -0.00033643785938318113 0.027941403313100518 0 0 0 0.0094267827638270987 0.0085032360175998755 0.00017445348772836614 0 0.00017445348772836614 0.027562005111559224 0 0 0 0.0090163102822897658 0.0022410150396709027 -0.0011933779132213343 0 -0.0011933779132213343 0.026138035732658417 0 0 0 0.0070947626930823304 0.0066808109547661608 -0.0018891322062741546 0 -0.0018891322062741546 0.027528200242064427 0 0 0 0.0085522527992076443 0.0055924955571907626 -0.0024855686638154718 0 -0.0024855686638154718 0.026338516245430033 0 0 0 0.0079827529506551961 0.0060513401541406747 -0.004899108460645344 0 -0.004899108460645344 0.027044364419839248 0 0 0 0.0082739261434949807 0.0034439674191657568 -0.0032733644500878151 0 -0.0032733644500878151 0.03075738844626702 0 0 0 0.0085503389663581994 0.022838371341859762 -0.022280107735228958 0 -0.022280107735228958 0.047613690432328548 0 0 0 0.017613015443547059 0.00027022711828903964 -0.012103518427088303 0 -0.012103518427088303 0.028804010947253239 0 0 0 0.0072685595163855671 0.022077129449889269 -0.013861289455330095 0 -0.013861289455330095 0.026514332473483983 0 0 0 0.012147865480843317 0.0018944235322337737 -0.0050489577407212653 0 -0.0050489577407212653 0.027817069642233731 0 0 0 0.0074278732936168754 0.024694039968680526 -0.0043305457650341037 0 -0.0043305457650341037 0.038872109303692254 0 0 0 0.015891537318093188 0.022596456453113714 -0.0075125170883604264 0 -0.0075125170883604264 0.020634273266161102 0 0 0 0.010807682429818694 0.036371403580958112 -0.011866003697428879 0 -0.011866003697428879 0.027300070641007382 0 0 0 0.015917868555491377 0.015806021927517521 -0.0079234248046170346 0 -0.0079234248046170346 0.020015250940463417 0 0 0 0.0089553182169952485 0.011537757565932503 9.9159910512847116e-05 0 9.9159910512847116e-05 0.01856881639227595 0 0 0 0.007526643489552105 0.023904445694999648 -0.0045635584548302712 0 -0.0045635584548302712 0.015284661515970042 0 0 0 0.0097972768027424252 0.011299048993741748 -0.00055612349855614814 0 -0.00055612349855614814 0.01204721311145842 0 0 0 0.0058365655263000436 0.01551756924587917 -0.0011907874284054288 0 -0.0011907874284054288 0.0085642410003636434 0 0 0 0.0060204525615607041 0.010869098574164753 -0.0071969872559049537 0 -0.0071969872559049537 0.023936868665834818 0 0 0 0.008701491809999887 0.0090787621981295481 -0.0073593309071312632 0 -0.0073593309071312632 0.016500942748945702 0 0 0 0.0063949262367688185 0.016439334047961905 -0.0058916060969117423 0 -0.0058916060969117423 0.019377154671972749 0 0 0 0.008954122179983667 0.010762018631188346 -0.0023251325394821861 0 -0.0023251325394821861 0.0094937086024946774 0 0 0 0.0050639318084207546 0.013233366633918569 -0.0023082345262076583 0 -0.0023082345262076583 0.018723881204121773 0 0 0 0.0079893119595100832 0.012739611145633165 -0.001299980865308793 0 -0.001299980865308793 0.011404080236851518 0 0 0 0.0060359228456211694 0.012815775410331194 0.0028265948851251867 0 0.0028265948851251867 0.0099073691772428949 0 0 0 0.0056807861468935175 0.010481071533515629 0.0018103045488431617 0 0.0018103045488431617 0.0047891395531878917 0 0 0 0.0038175527716758795 0.009904466910239244 0.00074038308680843094 0 0.00074038308680843094 0.0085757689776624242 0 0 0 0.004620058971975414 0.012441780102971905 0.00029933601229540762 0 0.00029933601229540762 0.0065420325224381437 0 0 0 0.0047459531563525141 0.010555429192506982 0.0033399815425774297 0 0.0033399815425774297 0.0074048831134791854 0 0 0 0.004490078076496538 0.0059164006813859507 0.0055527222886978377 0 0.0055527222886978377 0.0039892623429591892 0 0 0 0.0024764157560862856 0.0092594902374484884 0.0025667668496942098 0 0.0025667668496942098 0.0038787837406110415 0 0 0 0.003284568494514882 0.0082948064809461406 0.0059440563314232253 0 0.0059440563314232253 0.0030911219316183268 0 0 0 0.0028464821031411163 0.0062709057039250747 0.0048163715663718095 0 0.0048163715663718095 0.0016001225044172535 0 0 0 0.0019677570520855812 0.0036396559348754465 0.0074731379566702755 0 0.0074731379566702755 0.00089013320788628586 0 0 0 0.0011324472856904348 0.012677251842100831 0.0024421601275723933 0 0.0024421601275723933 0.0063859498433053268 0 0 0 0.0047658004213515402 0.011683208256290148 0.0018842318566383983 0 0.0018842318566383983 0.0055696186143992174 0 0 0 0.0043132067176723399 0.011274421392824219 0.0044312018899058253 0 0.0044312018899058253 0.0048700390110715981 0 0 0 0.0040361151009739521 0.010003802665561317 0.0038381050685232891 0 0.0038381050685232891 0.0038431797331508963 0 0 0 0.0034617455996780559 0.012599739579155365 0.0031380134981292603 0 0.0031380134981292603 0.0074100409349883017 0 0 0 0.0050024451285359175 0.014035159437607584 0.0056050069041294111 0 0.0056050069041294111 0.0042700973895355709 0 0 0 0.0045763142067857905 0.017298741264637627 0.0058390559679238237 0 0.0058390559679238237 0.0073217366606679168 0 0 0 0.0061551194813263847 0.017578598760581571 0.0053913134008514996 0 0.0053913134008514996 0.0060054942551000766 0 0 0 0.0058960232539204092 0.014590506479753001 0.0031297528591204488 0 0.0031297528591204488 0.0084683350569646019 0 0 0 0.0057647103841793942 0.014559246323008739 0.0032069839017825567 0 0.0032069839017825567 0.011664318151266319 0 0 0 0.0065558911185687619 0.012540027141122519 0.0019717251753601341 0 0.0019717251753601341 0.0099922485906349251 0 0 0 0.005633068932939354 0.014902240980159036 0.0025776198767093828 0 0.0025776198767093828 0.016927579309129734 0 0 0 0.0079574550723221955 0.016710539749131777 0.0047098191607769339 0 0.0047098191607769339 0.012523772959306709 0 0 0 0.007308578177109626 0.011181957103139881 0.0015008997837526747 0 0.0015008997837526747 0.015176729266879165 0 0 0 0.0065896715925047623 0.012973572191241688 0.00058029280387934118 0 0.00058029280387934118 0.02122848755848929 0 0 0 0.0085505149374327481 0.010793207121038397 -0.0009406621921289899 0 -0.0009406621921289899 0.013869031590507853 0 0 0 0.0061655596778865569 0.01786724215200514 0.0069467762138229827 0 0.0069467762138229827 0.026902036445694888 0 0 0 0.011192319649425013 0.013288774418211817 0.0043990042740493967 0 0.0043990042740493967 0.017589921392194202 0 0 0 0.0077196739526015027 0.014962428601003667 0.0035457278337170783 0 0.0035457278337170783 0.02367272996716854 0 0 0 0.0096587896420430534 0.01666388971020339 0.0049179362638284594 0 0.0049179362638284594 0.012780283148076096 0 0 0 0.0073610432145698656 0.018801638795587092 0.0070612001456450482 0 0.0070612001456450482 0.016276917721205091 0 0 0 0.0087696391291980456 0.019410980895988941 0.0069252514971234989 0 0.0069252514971234989 0.018209955218465149 0 0 0 0.0094052340286135162 0.020255577632148369 0.0067948234454313066 0 0.0067948234454313066 0.0081592791415746116 0 0 0 0.0071037141934307459 0.020548577543471121 0.0071425344415159773 0 0.0071425344415159773 0.010328553254875625 0 0 0 0.0077192826995866812 0.024150253289395816 0.0079043705106318415 0 0.0079043705106318415 0.0069349317419814815 0 0 0 0.0077712962578443279 0.022953207756405622 0.0069908801080717552 0 0.0069908801080717552 0.0034680596743199427 0 0 0 0.0066053168576813964 0.020228226434466177 0.0056692331568380071 0 0.0056692331568380071 0.00090177431225711008 0 0 0 0.0052825001866808226 0.020067355905267169 0.0068454155574409906 0 0.0068454155574409906 0.0048191199055105452 0 0 0 0.0062216189526944285 0.020527041279699086 0.0061324813737447682 0 0.0061324813737447682 0.0038336304553600251 0 0 0 0.0060901679337647795 0.014807536141591847 0.0044812149759868893 0 0.0044812149759868893 0.0043073652149786326 0 0 0 0.0047787253391426161 0.01519388818057104 0.0058879359073892544 0 0.0058879359073892544 0.0018465580837452346 0 0 0 0.0042601115660790652 0.017710255683860726 0.0061419154969400867 0 0.0061419154969400867 0.0024296439102171469 0 0 0 0.0050349748985194665 0.018132260514915212 0.0062319581986002952 0 0.0062319581986002952 0.0037510075013880879 0 0 0 0.005470817004075825 0.018536508891066381 0.0053033066285730667 0 0.0053033066285730667 0.00037359414404387198 0 0 0 0.0047275257587775631 0.018495388173615811 0.0062383527407119319 0 0.0062383527407119319 0.0003173254473633029 0 0 0 0.0047031784052447767 0.014659752360932121 0.0057976171756907637 0 0.0057976171756907637 0.00023924187109623102 0 0 0 0.0037247485580070901 0.021156535010229113 0.0055818402451511956 0 0.0055818402451511956 -0.00010983536944051894 0 0 0 0.0052616749101971486 0.02084181568979716 0.0045267363938743203 0 0.0045267363938743203 -0.00067700701935069149 0 0 0 0.005041202167611618 0.023902351716912493 0.0051270287993142013 0 0.0051270287993142013 -0.0001907066734897038 0 0 0 0.0059279112608556965 0.02230152893670357 0.0049250915997645986 0 0.0049250915997645986 -0.0005839978439892736 0 0 0 0.0054293827731785784 0.020969583334699619 0.0060665004426318156 0 0.0060665004426318156 0.0010619548619577239 0 0 0 0.0055078845491643297 0.0035173578870150851 0.0070373556067543763 0 0.0070373556067543763 0.0018589505356930783 0 0 0 0.0013440771056770391 0.0079300659282959419 0.0061329894529921249 0 0.0061329894529921249 0.00043065312821344293 0 0 0 0.002090179764127344 0.0038304613344758605 0.0072822881510359386 0 0.0072822881510359386 0.0003440321124013497 0 0 0 0.0010436233617192991 0.010868032270698689 0.0057026286942379427 0 0.0057026286942379427 -0.00018350776564667742 0 0 0 0.0026711311262630055 0.0087499320326689094 0.0065273604580737632 0 0.0065273604580737632 0.0024029481933485058 0 0 0 0.0027882200565043577 0.01119690522412187 0.0060954348240391983 0 0.0060954348240391983 0.0018499318363908723 0 0 0 0.0032617092651281831 0.012285157380571822 0.0046180432262272197 0 0.0046180432262272197 0.0019008996887241447 0 0 0 0.0035465142673239934 0.012684520268452964 0.0067849436995314379 0 0.0067849436995314379 0.0029932013706204293 0 0 0 0.003919430409768351 0.01436708849719311 0.0053911898832267862 0 0.0053911898832267862 0.00024513303666119646 0 0 0 0.0036530553834635757 0.011806609038981628 0.005666380720078067 0 0.005666380720078067 0.00056265148684763941 0 0 0 0.0030923151314573155 0.014587369035507881 0.0065288256524971399 0 0.0065288256524971399 -2.1848682428125821e-05 0 0 0 0.0036413800882699396 0.010019373315497737 0.0072075000968425708 0 0.0072075000968425708 0.00099644794756355813 0 0 0 0.0027539553157653225 0.0091540744577948557 0.0065614026838144435 0 0.0065614026838144435 -3.7188687433180323e-05 0 0 0 0.0022792214425904171 0.0044787259637771235 0.0069135668751235651 0 0.0069135668751235651 -3.0692228635696012e-05 0 0 0 0.0011120084337853577 0.0038532619809603548 0.0079874457955734952 0 0.0079874457955734952 -0.00021593053254759242 0 0 0 0.00090933286210318973 0.0036283115960244958 0.0071689591782781743 0 0.0071689591782781743 -9.4806056646093428e-05 0 0 0 0.00088337638484460232 -0.00035361413546387138 0.0083731131221208149 0 0.0083731131221208149 -0.00042165092231938317 0 0 0 -0.00019381626444581537 0.0024177591188923671 0.0086822659264817886 0 0.0086822659264817886 -0.00041093971811840147 0 0 0 0.00050170485019349271 -0.00083047055774076312 0.0078370819828034576 0 0.0078370819828034576 0.0002060599049671652 0 0 0 -0.00015610266319339774 0.0026503059090704356 0.0069030716650065205 0 0.0069030716650065205 -0.00044960044085938511 0 0 0 0.00055017636705276263 0.0069657475720075268 0.0078866253420610093 0 0.0078866253420610093 -0.00012848623447189213 0 0 0 0.001709315334383908 0.0062398826776708218 0.0068901234359302326 0 0.0068901234359302326 0.00028152289297591129 0 0 0 0.0016303513926616839 0.00761098497089986 0.0080247655200586486 0 0.0080247655200586486 -5.7671353285305114e-05 0 0 0 0.0018883284044036402 0.010130052450549284 0.0060943546769390913 0 0.0060943546769390913 1.8893138062588133e-05 0 0 0 0.0025372363971529702 0.010753253286778171 0.0067464865355641428 0 0.0067464865355641428 0.00027976515439822464 0 0 0 0.0027582546102940982 0.014157392033295933 0.006749678932865797 0 0.006749678932865797 -8.8007957400612971e-05 0 0 0 0.0035173460189738318 0.010871056210649536 0.0061918000785434902 0 0.0061918000785434902 0.0017673788561328833 0 0 0 0.0031596087666956063 0.009232874252313162 0.008157638525472112 0 0.008157638525472112 0.0008538042581426146 0 0 0 0.0025216696276139454 0.007992200805385985 0.0072006237918076452 0 0.0072006237918076452 0.0026641110176982611 0 0 0 0.0026640779557710612 0.0045313489297271088 0.0092037134478066066 0 0.0092037134478066066 0.00011665543872153156 0 0 0 0.001162001092112161 0.0025093011088457959 0.0077622617496284222 0 0.0077622617496284222 0.00083537825282652036 0 0 0 0.00083616984041807888 -0.0005118135651669669 0.0097112222300497278 0 0.0097112222300497278 -0.00080185735796989288 0 0 0 -0.00032841773078421538 0.020340006448253282 0.0042120472936029909 0 0.0042120472936029909 0.0008483128861880504 0 0 0 0.0052970798336103332 0.021021844896694231 0.0045801813696228636 0 0.0045801813696228636 -0.00064862789438937044 0 0 0 0.0050933042505762159 0.017793803971759392 0.0053075674364928913 0 0.0053075674364928913 -0.00030627803892875789 0 0 0 0.0043718814832076625 0.017981083211441772 0.0056814818277182008 0 0.0056814818277182008 -0.00017720667921670985 0 0 0 0.0044509691330562639 0.014591303427138796 0.0057481932462399993 0 0.0057481932462399993 0.00084161313344642032 0 0 0 0.0038582291401463055 0.016740646347022017 0.0053971313924685189 0 0.0053971313924685189 0.0014516057011499661 0 0 0 0.0045480630120429957 0.012956618390915796 0.0061986037074970735 0 0.0061986037074970735 0.0043161831311636046 0 0 0 0.0043182003805198503 0.01300828215241529 0.0069384771728892769 0 0.0069384771728892769 0.0022483032120346165 0 0 0 0.0038141463411124738 0.015975411313166172 0.0053825750128633524 0 0.0053825750128633524 0.0053242807937901602 0 0 0 0.0053249230267390819 0.016056885523319298 0.0052573174846960828 0 0.0052573174846960828 0.0023481173072291868 0 0 0 0.0046012507076371219 0.019882557234150951 0.0036836817191082004 0 0.0036836817191082004 0.0029174630457130288 0 0 0 0.0057000050699659958 0.018167372140871652 0.0046677273203864951 0 0.0046677273203864951 0.00039906752646330667 0 0 0 0.0046416099168337405 0.017541164392086257 0.0044622654460988584 0 0.0044622654460988584 0.0027255259658080285 0 0 0 0.005066672589473571 0.017868336592296273 0.0042243468228050198 0 0.0042243468228050198 0.0059552867467353192 0 0 0 0.0059559058347578983 0.019033017451067238 0.0026089486282454251 0 0.0026089486282454251 0.0017265000339719309 0 0 0 0.0051898793712597925 0.020755469081707233 0.0012503360332541762 0 0.0012503360332541762 0.0069136045302926694 0 0 0 0.0069172684029999761 0.018696345775912906 0.00051041139974673019 0 0.00051041139974673019 0.00094244509707010291 0 0 0 0.004909697718245753 0.022454931935079161 0.00035034794582915153 0 0.00035034794582915153 0.0018418959764755333 0 0 0 0.0060742069778886723 0.022178032405692615 0.0018282461054926532 0 0.0018282461054926532 0.00075949748270267127 0 0 0 0.0057343824720988241 0.022816212912314102 0.0027885507100872385 0 0.0027885507100872385 -0.00012526676386466484 0 0 0 0.0056727365371123592 0.021485587006557543 0.0013811167834587087 0 0.0013811167834587087 -0.0011740093709786458 0 0 0 0.005077894408894724 0.024752971536457547 0.0014287346468344864 0 0.0014287346468344864 -0.00019972639081086555 0 0 0 0.0061383112864116709 0.022771806623675166 0.0025072905226193555 0 0.0025072905226193555 -0.0024319083099663677 0 0 0 0.0050849745784271958 0.023473874526137358 0.00031952996718135604 0 0.00031952996718135604 -0.0035955525094352506 0 0 0 0.0049695805041755246 0.021581559890566739 -0.0027779898946426913 0 -0.0027779898946426913 -0.003756473225259651 0 0 0 0.004456271666326771 0.022980037891574621 -0.00097728056503576695 0 -0.00097728056503576695 -0.0009627201369123246 0 0 0 0.0055043294386655749 0.021554273207590301 -0.0006057054250360335 0 -0.0006057054250360335 -0.00013441409695050558 0 0 0 0.0053549647776599514 0.020521705380853232 -0.0007821415816205811 0 -0.0007821415816205811 0.0068419190887930329 0 0 0 0.0068409061174115656 0.020226149570653849 -0.0026893776465303446 0 -0.0026893776465303446 0.0067359487104247948 0 0 0 0.0067405245702696608 0.018443670989019334 -0.0022982293429302122 0 -0.0022982293429302122 0.0011921275674714425 0 0 0 0.0049089496391226933 0.016731432270619351 -0.0054749299380328726 0 -0.0054749299380328726 0.0055756069233026014 0 0 0 0.0055767597984804872 0.020548206354423459 -0.0034679985541879671 0 -0.0034679985541879671 0.00092238411374828211 0 0 0 0.0053676476170429364 0.015744440199576774 -0.0053793207240233776 0 -0.0053793207240233776 -0.00096451894955135349 0 0 0 0.0036949803125063555 0.009996356310378476 -0.0080332508777216944 0 -0.0080332508777216944 0.0033285944273505038 0 0 0 0.0033312376844322443 0.01071484768895941 -0.008906048983136225 0 -0.008906048983136225 -0.0025680714135734237 0 0 0 0.0020366940688464974 0.0045144045822631835 -0.011381960668444175 0 -0.011381960668444175 -0.0029966730016586021 0 0 0 0.00037943289515114491 0.010741704057076792 -0.0092152932649243284 0 -0.0092152932649243284 -0.005479910419229319 0 0 0 0.001315448409461871 0.013339125333770949 -0.0075285039414231016 0 -0.0075285039414231016 -0.0038846128022538527 0 0 0 0.0023636281328792731 0.016437228817280578 -0.005999396720077526 0 -0.005999396720077526 -0.0011243121758116993 0 0 0 0.0038282291603672193 0.0086350220607560313 -0.0090122647689861168 0 -0.0090122647689861168 -0.0039326741537856341 0 0 0 0.0011755869767425958 0.015926308331146756 -0.0060476006614335401 0 -0.0060476006614335401 -0.0041947324923806081 0 0 0 0.0029328939596915361 0.021463280601546821 -0.0036845650083808437 0 -0.0036845650083808437 -0.0051422448477588846 0 0 0 0.0040802589384469866 0.022512366587106182 -0.0021150816352799376 0 -0.0021150816352799376 -0.0028130739948136231 0 0 0 0.0049248231480731432 0.02378034447714155 -0.0030344972702859331 0 -0.0030344972702859331 -0.0039806416969410292 0 0 0 0.0049499256950501329 0.023046871925596239 -0.0026397014448672354 0 -0.0026397014448672354 -0.0063131017440621346 0 0 0 0.0041834425453835264 0.028813039800072208 -0.00041469811369040889 0 -0.00041469811369040889 -0.0052627551323214177 0 0 0 0.0058875711669376992 0.018742155045972961 -0.0066816512088991691 0 -0.0066816512088991691 -0.0073607117295392335 0 0 0 0.0028453608291084329 0.01449844998798552 -0.0091370501314111674 0 -0.0091370501314111674 -0.006290932576430916 0 0 0 0.0020518793528886518 0.018910927882455533 -0.0064354332693551571 0 -0.0064354332693551571 -0.0054037337652575387 0 0 0 0.0033767985292994934 0.020543213050928495 -0.0049885812093228635 0 -0.0049885812093228635 -0.0056919763275638628 0 0 0 0.0037128091808411546 0.011095855650373021 -0.0096390845587005503 0 -0.0096390845587005503 -0.0075757423562823386 0 0 0 0.00088002832352267451 0.01918077137307923 -0.0096456986425880915 0 -0.0096456986425880915 -0.008085197693392554 0 0 0 0.0027738934199216699 0.023616558875715673 -0.0078821480710523258 0 -0.0078821480710523258 -0.0059358517071437106 0 0 0 0.0044201767921429949 0.021592136074626643 -0.0066095716210630793 0 -0.0066095716210630793 -0.0086380929797899453 0 0 0 0.0032385107737091749 0.031881861956709917 -0.0033946960837657053 0 -0.0033946960837657053 -0.0054134204191850308 0 0 0 0.0066171103843812185 0.023561438958255382 -0.009970789873733607 0 -0.009970789873733607 -0.0051908548513233338 0 0 0 0.0045926460267330035 0.022437457458524341 -0.009331736942678014 0 -0.009331736942678014 -0.0078187741452065383 0 0 0 0.0036546708283294472 0.026718996064951778 -0.000749078343542076 0 -0.000749078343542076 -0.0053855610011583933 0 0 0 0.0053333587659483471 0.027799125925106392 -0.0046591116901336348 0 -0.0046591116901336348 -0.0063064516789271934 0 0 0 0.0053731685615447996 0.031450007350385389 0.00035223869113148792 0 0.00035223869113148792 -0.0064004194700506521 0 0 0 0.0062623969700836835 0.036562731986024936 0.0027403023890181584 0 0.0027403023890181584 -0.0023579292245557611 0 0 0 0.0085512006903673034 0.030832061459875756 0.00403479982007518 0 0.00403479982007518 -0.0015622893895294171 0 0 0 0.0073174430175865831 0.032715386095769586 0.0039944422097305038 0 0.0039944422097305038 -0.0012098843256700513 0 0 0 0.0078763754425248654 0.029249365666564667 0.0028036414908757532 0 0.0028036414908757532 -0.0039792225132933646 0 0 0 0.0063175357883178285 0.029260071142685223 0.005375728514487043 0 0.005375728514487043 -0.0003050770342089091 0 0 0 0.0072387485271190807 0.030691550021657629 0.0070379460475997668 0 0.0070379460475997668 0.0026227958491309399 0 0 0 0.0083285864676971404 0.0277708785279423 0.0053870579408000809 0 0.0053870579408000809 -0.00048643761250174306 0 0 0 0.0068211102288601418 0.027185977343904752 0.0075439909257763275 0 0.0075439909257763275 0.0039374961113968349 0 0 0 0.0077808683638253967 0.023958886262159255 0.0056476984792321293 0 0.0056476984792321293 0.00060822497578946451 0 0 0 0.0061417778094871771 0.023667584098607725 0.005797498939853072 0 0.005797498939853072 0.00048020608668901399 0 0 0 0.0060369475463241829 0.02561626289905657 0.0037279433488514573 0 0.0037279433488514573 -0.0027552368987246376 0 0 0 0.0057152565000829769 0.026925121718229465 0.0046180027161508872 0 0.0046180027161508872 -0.00074574860958401441 0 0 0 0.0065448432771613597 0.023105599450051618 0.0035658581696943479 0 0.0035658581696943479 -0.0026253225965331209 0 0 0 0.0051200692133796261 0.02621482985344321 0.0027395815824503168 0 0.0027395815824503168 -0.0012527861602749637 0 0 0 0.0062405109232920629 0.024232730770273863 0.0015430001357132667 0 0.0015430001357132667 -0.003919480980405423 0 0 0 0.0050783124474671083 0.025917668109901603 0.00078071080086387261 0 0.00078071080086387261 -0.0026042392635830507 0 0 0 0.0058283572115796359 0.025325443470164022 -0.0014904189930419463 0 -0.0014904189930419463 -0.0040283415901919226 0 0 0 0.0053242754699930278 0.026510316369313239 0.0019670448016560877 0 0.0019670448016560877 -0.00381239657188631 0 0 0 0.0056744799493567265 0.028577340637942657 0.0026485845812682643 0 0.0026485845812682643 -0.0029615366604917892 0 0 0 0.0064039509943627088 -0.045439078463504999 -0.0037337384667442226 0 -0.0037337384667442226 -0.0019347212070248243 0 0 0 -0.011843449917632453 -0.031324064977097839 -0.0095927656681161211 0 -0.0095927656681161211 -0.00084659613533116101 0 0 0 -0.0080426652781072482 -0.034182745505744995 -0.0045080096836333464 0 -0.0045080096836333464 -0.00035026157513025347 0 0 0 -0.0086332517702188104 -0.030920781740936328 -0.0060289916771138095 0 -0.0060289916771138095 0.0024909533594917686 0 0 0 -0.0071074570953611358 -0.026448384921131416 -0.0042280497236390144 0 -0.0042280497236390144 0.0022475474331685869 0 0 0 -0.0060502093719907056 -0.024942532945993766 -0.0032012245963301674 0 -0.0032012245963301674 -0.0031948339702127203 0 0 0 -0.0070343417290516198 -0.024529407898328703 -0.0042088555409782926 0 -0.0042088555409782926 -0.0081609162093573603 0 0 0 -0.0081725810269215153 -0.026170079723901597 -0.0050668151108523391 0 -0.0050668151108523391 -0.0029281306330550053 0 0 0 -0.0072745525892391524 -0.025614398970661624 -0.0084788415041133231 0 -0.0084788415041133231 -0.0022202634362796757 0 0 0 -0.0069586656017353258 -0.024057373720888897 -0.0091072267290362476 0 -0.0091072267290362476 -0.0014611329464631201 0 0 0 -0.006379626666838006 -0.020610600542179201 -0.0091103352884450116 0 -0.0091103352884450116 -0.006872459001224648 0 0 0 -0.0068707648858509635 -0.020606845835927701 -0.0091135851209573088 0 -0.0091135851209573088 -0.0068603329541384725 0 0 0 -0.0068667946975165435 -0.023096889714567935 -0.010714522730045705 0 -0.010714522730045705 -0.0029068146868285114 0 0 0 -0.0065009261003491133 -0.016209667104302682 -0.011114646112712427 0 -0.011114646112712427 -0.00092746943939777879 0 0 0 -0.004284284135925116 -0.026200184675177894 -0.0099063332468684734 0 -0.0099063332468684734 0.00035999838461350103 0 0 0 -0.0064600465726411035 -0.037989014275555663 -0.010039413165113979 0 -0.010039413165113979 -0.0017523504134663859 0 0 0 -0.0099353411722555053 -0.015494982055298959 -0.013197225938492412 0 -0.013197225938492412 -0.00098563040649757294 0 0 0 -0.0041201531154491326 -0.028108643901116583 -0.012222762151150646 0 -0.012222762151150646 -0.0029119143249842078 0 0 0 -0.0077551395565251986 -0.013985347635102887 -0.011646565835929414 0 -0.011646565835929414 -0.0027575226152193148 0 0 0 -0.0041857175625805475 -0.011155670663715688 -0.011710889806694366 0 -0.011710889806694366 -0.0041221820190932359 0 0 0 -0.003819463170702227 -0.013623686039587402 -0.013684221823150959 0 -0.013684221823150959 -0.0029113635844694591 0 0 0 -0.0041337624060142145 -0.012441450404280005 -0.01242252498278042 0 -0.01242252498278042 -0.0017332865473984604 0 0 0 -0.0035436842379196164 -0.013085490100256562 -0.011726625578513889 0 -0.011726625578513889 -0.0032542507998336708 0 0 0 -0.0040849352250225575 -0.0057866055150147325 -0.010412271823700348 0 -0.010412271823700348 -0.001933558891881631 0 0 0 -0.0019300411017240909 -0.0052768677478504337 -0.012247448432642005 0 -0.012247448432642005 -0.0031972975620461336 0 0 0 -0.0021185413274741414 -0.0027716275409983386 -0.010029485821534685 0 -0.010029485821534685 -0.0016501318858737459 0 0 0 -0.0011054398567180209 -0.0032019188299993728 -0.012806249799917126 0 -0.012806249799917126 -0.0027585114658462348 0 0 0 -0.0014901075739614002 0.0023198801307669588 -0.009766727105153996 0 -0.009766727105153996 0.00077410771248038481 0 0 0 0.00077349696081183573 0.0072619213222601849 -0.0083885435989159846 0 -0.0083885435989159846 -0.0011769473734430649 0 0 0 0.0015212434872042804 0.0027322791129513226 -0.012319655923223736 0 -0.012319655923223736 -0.0043401750341670389 0 0 0 -0.00040197398030392822 -7.6123150750811996e-06 -0.012467726897650352 0 -0.012467726897650352 -0.0042137131909407016 0 0 0 -0.0010553313765039457 0.00034474654586157507 -0.010450927873776297 0 -0.010450927873776297 -0.0041567141926654883 0 0 0 -0.00095299191170097842 0.0073239830386370164 -0.012240072762824523 0 -0.012240072762824523 -0.0074773527318451952 0 0 0 -3.8342423302042961e-05 0.011991466047981483 -0.010399715015691556 0 -0.010399715015691556 -0.0053723990313257284 0 0 0 0.0016547667541639451 0.00080818554432929984 -0.014639056823521211 0 -0.014639056823521211 -0.008015661279453884 0 0 0 -0.0018018689337811478 0.01130264375451074 -0.012980331514579514 0 -0.012980331514579514 -0.0091744350162656085 0 0 0 0.00053205218456128106 0.0012256727673497485 -0.01411343275717843 0 -0.01411343275717843 -0.0044653979537829409 0 0 0 -0.00080993129660829853 -0.0030552574077722106 -0.016957835299755798 0 -0.016957835299755798 -0.0070723044484502715 0 0 0 -0.0025318904640556222 0.010504521353097988 -0.011824341369868228 0 -0.011824341369868228 -0.0042184904093708897 0 0 0 0.0015715077359317771 -0.0020802620049948893 -0.015206666784892121 0 -0.015206666784892121 -0.0036272665676731902 0 0 0 -0.0014268821431670173 -7.3526860381891573e-05 -0.018482481389811404 0 -0.018482481389811404 -0.0035256265075353684 0 0 0 -0.00089978834197931498 -0.017731550267797949 -0.016252661618829538 0 -0.016252661618829538 -0.0072415397841288538 0 0 0 -0.0062432725129817016 -0.015415549848375107 -0.016357158918968804 0 -0.016357158918968804 -0.0047875328466587472 0 0 0 -0.0050507706737584618 -0.016500440042307329 -0.013343033881307441 0 -0.013343033881307441 -0.0018683764361059341 0 0 0 -0.0045922041196033089 -0.0015827583569230363 -0.013083635835196145 0 -0.013083635835196145 -0.00294374318376351 0 0 0 -0.0011316253851716349 -0.010095708758308133 -0.014273862195065639 0 -0.014273862195065639 -0.0053380214527806724 0 0 0 -0.0038584325527722015 -0.025975625766072999 -0.013578996605489994 0 -0.013578996605489994 -0.0032001007358378741 0 0 0 -0.0072939316254777165 -0.023966878671718657 -0.012107665367206057 0 -0.012107665367206057 0.00085365345469819165 0 0 0 -0.0057783063042551128 -0.034449128099148907 -0.011553615037393073 0 -0.011553615037393073 -0.00058429462702042079 0 0 0 -0.0087583556815423284 -0.026116065737742444 -0.016553684805556825 0 -0.016553684805556825 -0.0009671616540044975 0 0 0 -0.0067708068479367372 -0.033720369156077096 -0.013525851483623811 0 -0.013525851483623811 -0.0037536005104791062 0 0 0 -0.0093684924166390453 -0.018391792800911258 -0.019201879249547808 0 -0.019201879249547808 -0.0020040514894697076 0 0 0 -0.0050989610725952414 -0.033055576454452035 -0.014693468740363303 0 -0.014693468740363303 0.0010685813410304598 0 0 0 -0.0079967487783553989 -0.051783526330435835 -0.010569150122895192 0 -0.010569150122895192 -0.003461373442412978 0 0 0 -0.0138112249432122 -0.057017554846511505 -0.012924998887988412 0 -0.012924998887988412 -0.0025931486105495189 0 0 0 -0.014902675864265264 -0.067655855117768657 -0.0066046794545276 0 -0.0066046794545276 -0.00074450225973008745 0 0 0 -0.01710008934437468 -0.048616948114452191 -0.0052762228941602464 0 -0.0052762228941602464 2.9226683982995494e-05 0 0 0 -0.012146930357617299 -0.055532822480451931 -0.0059155422097728946 0 -0.0059155422097728946 -0.00047944154461537596 0 0 0 -0.01400306600626682 -0.034657815932707378 -0.0117744248602214 0 -0.0117744248602214 -0.00041697163412131658 0 0 0 -0.0087686968917071676 -0.047642986135420777 -0.0049552785649635937 0 -0.0049552785649635937 -0.0028717516070154055 0 0 0 -0.012628684435609053 -0.034597523014467196 -0.0076183003204630898 0 -0.0076183003204630898 0.0018718122345556636 0 0 0 -0.0081814276949778823 -0.077026702843380007 -0.0067493213250102053 0 -0.0067493213250102053 0.0033494411253404757 0 0 0 -0.018419315429509892 -0.11261448385339255 -0.0023544122946790452 0 -0.0023544122946790452 -0.00081750971972351094 0 0 0 -0.028357998393279037 -0.071069047627251136 -0.015253621587187516 0 -0.015253621587187516 0.0027691828871729135 0 0 0 -0.017074966185019566 -0.073686235106020431 -0.0063426123861045347 0 -0.0063426123861045347 -0.00032542494821372753 0 0 0 -0.018502915013558541 -0.094441960371413489 -0.0056703619309976102 0 -0.0056703619309976102 0.00088746850046202835 0 0 0 -0.023388622967737856 -0.07925387728833426 -0.0065076803015901392 0 -0.0065076803015901392 -0.00048375948517205038 0 0 0 -0.019934409193376582 -0.053807892241026202 -0.0067428651403283 0 -0.0067428651403283 0.00088546299808695255 0 0 0 -0.013230607310734816 -0.063778401557932865 -0.0060921573815539915 0 -0.0060921573815539915 0.00071294670134363757 0 0 0 -0.015766363714147316 -0.061208929794047615 -0.015887027018036591 0 -0.015887027018036591 0.00054737946037395225 0 0 0 -0.015165387583418424 -0.036709345073723129 -0.016841827143580314 0 -0.016841827143580314 0.00020781556744485594 0 0 0 -0.0091253823765695668 -0.036649669888742888 -0.015555758173676614 0 -0.015555758173676614 -0.00096757505628895443 0 0 0 -0.009404311236257951 -0.025002343526122225 -0.015883015372116484 0 -0.015883015372116484 -0.0050634924842516225 0 0 0 -0.0075164590025934633 -0.036864333061075588 -0.022686375782729126 0 -0.022686375782729126 0.0028363988513968319 0 0 0 -0.0085069835524196943 -0.049403078219163982 -0.011939544159937119 0 -0.011939544159937119 0.00023112376387964678 0 0 0 -0.012292988613821075 -0.042512864414206999 -0.0113431144627174 0 -0.0113431144627174 0.001832106310832902 0 0 0 -0.010170189525843519 -0.0084803747086477383 -0.019390587284136993 0 -0.019390587284136993 0.0027804312878021153 0 0 0 -0.0014249858552113984 -0.0059760585070581275 -0.017522793112786431 0 -0.017522793112786431 0.0095335869766346587 0 0 0 0.00088938211739413367 0.0082966840506133073 -0.021395524275357923 0 -0.021395524275357923 -3.2326045235848977e-05 0 0 0 0.0020660895013443654 -0.031178827974236416 -0.017374409085080967 0 -0.017374409085080967 0.0022601439757993624 0 0 0 -0.0072296709996092614 -0.011818458803953864 -0.020576029559528676 0 -0.020576029559528676 0.00053141637844780244 0 0 0 -0.0028217606063765171 -0.027839485001893462 -0.021682941181250106 0 -0.021682941181250106 -0.0023359511999605578 0 0 0 -0.0075438590504635049 -0.012751933356820198 -0.022043942719851869 0 -0.022043942719851869 -0.0043520026486128238 0 0 0 -0.004275984001358259 -0.0099355233340920786 -0.017243980854071948 0 -0.017243980854071948 -0.0027288716684552572 0 0 0 -0.0031660987506368331 0.0043417061286222533 -0.020423510065146096 0 -0.020423510065146096 -0.0024877280945491288 0 0 0 0.00046349450851828049 -0.012073841290103464 -0.018145173002113404 0 -0.018145173002113404 -0.0017218207478635096 0 0 0 -0.0034489155094917442 0.0047324568100927094 -0.015652030160892737 0 -0.015652030160892737 -0.0037412757799771476 0 0 0 0.00024779525752889088 0.02050503192892169 -0.018391272340034775 0 -0.018391272340034775 -0.0037022548272255002 0 0 0 0.004200694275424053 0.013827473881547531 -0.017127736265931878 0 -0.017127736265931878 -0.0048924647066282204 0 0 0 0.0022337522937298272 0.027538212400685113 -0.013746181876535923 0 -0.013746181876535923 -0.0050484922835084215 0 0 0 0.0056224300292941672 0.013812635423370006 -0.012209556354636476 0 -0.012209556354636476 -0.0061976332757126898 0 0 0 0.0019037505369143282 0.021301043179864556 -0.011640949416065109 0 -0.011640949416065109 -0.0016899978121146268 0 0 0 0.0049027613419374812 0.036270802960251744 -0.01508354389625163 0 -0.01508354389625163 -0.00063534380245338501 0 0 0 0.0089088647894495932 0.0092373805452618911 -0.016244264563855922 0 -0.016244264563855922 0.0018658493177766584 0 0 0 0.0027758074657596356 0.029208181141227356 -0.019072233312145713 0 -0.019072233312145713 0.0032228900969139551 0 0 0 0.0081077678095353226 0.027953756677686837 -0.011176214077509614 0 -0.011176214077509614 0.0064050478546485018 0 0 0 0.0085897011330838373 0.042300996785467261 -0.0080217221717921016 0 -0.0080217221717921016 0.018385434652263527 0 0 0 0.015171607859432695 0.048840130760256437 -0.015602824035327617 0 -0.015602824035327617 0.012256175384884438 0 0 0 0.015274076536285219 0.016844558696370131 -0.014904525067697062 0 -0.014904525067697062 0.012029768111047473 0 0 0 0.0072185817018544027 0.0075437236692752971 -0.023044126403756075 0 -0.023044126403756075 0.012703308408804251 0 0 0 0.0050617580195198852 0.030583454763226284 -0.022959656212822192 0 -0.022959656212822192 0.032153734203615225 0 0 0 0.015684297241710388 0.042400701905844676 -0.01513368761938088 0 -0.01513368761938088 0.063851987099052543 0 0 0 0.026563172251224287 0.047564552646409269 0.0060184861163272985 0 0.0060184861163272985 0.053061994306694726 0 0 0 0.025156636738276016 0.034326507585970861 0.0014638856320882271 0 0.0014638856320882271 0.072575009814034863 0 0 0 0.02672537935000141 0.026150358132195572 -0.0014139311632097029 0 -0.0014139311632097029 0.044473288671250111 0 0 0 0.017655911700861421 0.014338043024454863 -0.015679477220426161 0 -0.015679477220426161 0.032925786407751984 0 0 0 0.011815957358051715 0.026719783760011131 -0.0064608655984523533 0 -0.0064608655984523533 0.031689622014491201 0 0 0 0.014602351443625575 0.00065278032064109218 0.0064172847394999288 0 0.0064172847394999288 0.037847323042192071 0 0 0 0.0096250258407082935 -0.011871957490691087 -0.003658454044844231 0 -0.003658454044844231 0.023219687319114612 0 0 0 0.0028369324571058396 -0.029904603980918508 0.0021631984355383049 0 0.0021631984355383049 0.028512691979558441 0 0 0 -0.00034797800034002541 -0.01307993043270532 -0.014516740967073886 0 -0.014516740967073886 0.010386023343233908 0 0 0 -0.00067347677236785641 -0.032477747489449496 -0.0086814188810069443 0 -0.0086814188810069443 0.010670879894152203 0 0 0 -0.0054517168988243332 -0.0064617122165516877 -0.012056413956100381 0 -0.012056413956100381 0.030880578550923576 0 0 0 0.0061047165835929756 -0.029164949974844631 -0.021058313706641733 0 -0.021058313706641733 0.013153830953676046 0 0 0 -0.0040027797552921601 -0.052484512946718624 -0.017288490483256293 0 -0.017288490483256293 0.0058955918744484359 0 0 0 -0.011647230268067556 -0.059813656502143667 -0.0066503223158278432 0 -0.0066503223158278432 0.0042076167088212213 0 0 0 -0.013901509948330643 -0.040221681447994234 -0.017003342322317608 0 -0.017003342322317608 0.012506531586200242 0 0 0 -0.0069287874654485049 -0.057019565991243512 7.5816169106512898e-05 0 7.5816169106512898e-05 0.010812141263956188 0 0 0 -0.011551856181821852 -0.037901266397203648 -0.0033338960858002309 0 -0.0033338960858002309 0.0058831450584701517 0 0 0 -0.008004530334683374 -0.076175319485470155 0.0079549819958056045 0 0.0079549819958056045 0.0044968338494673077 0 0 0 -0.017919621409000747 -0.060313804665986431 -0.0015820546469415137 0 -0.0015820546469415137 0.017631139389004957 0 0 0 -0.010670666319245403 -0.061028385869787261 -0.007070764051999464 0 -0.007070764051999464 0.0068360605680919395 0 0 0 -0.013548081325423872 -0.086402512715440638 -0.00017760275369020639 0 -0.00017760275369020639 0.0042544062262188653 0 0 0 -0.020537026622305443 -0.085294952562215767 -0.0029575552790836457 0 -0.0029575552790836457 0.0032934258203658473 0 0 0 -0.020500381685462421 -0.12580942421366392 -0.00083314233498557599 0 -0.00083314233498557599 0.0029294374625948305 0 0 0 -0.030719996687767259 -0.089532260107585221 -0.0045006585314083941 0 -0.0045006585314083941 0.0018627461604699969 0 0 0 -0.021917378486778806 -0.12354819214762208 -0.0058490236178248695 0 -0.0058490236178248695 0.0019958302532469829 0 0 0 -0.030388090473593747 -0.092354925588754064 -0.0014980216513804101 0 -0.0014980216513804101 -0.0014214120721642021 0 0 0 -0.023444084415229535 -0.071242961169732513 -0.013383696152820049 0 -0.013383696152820049 0.0042895078379358818 0 0 0 -0.016738363332949195 -0.083411255873782161 -0.011577084271702828 0 -0.011577084271702828 0.0032390588519072283 0 0 0 -0.020043049255468751 0.036688400633696251 0.013204205887797004 0 0.013204205887797004 0.013452231583585911 0 0 0 0.012535158054320561 0.037629510142320841 0.013650859741613265 0 0.013650859741613265 0.015736626691175024 0 0 0 0.013341534208373956 0.04040393854235641 0.015229222558033349 0 0.015229222558033349 0.016552945494386608 0 0 0 0.014239221009185751 0.030627683822033586 0.013320947683358141 0 0.013320947683358141 0.021569269715175685 0 0 0 0.013049238384302306 0.02312958621152552 0.010877462379132329 0 0.010877462379132329 0.025887533087392743 0 0 0 0.012254279824729573 0.027286556934469623 0.011420799342432113 0 0.011420799342432113 0.014708159062821746 0 0 0 0.010498678999322842 0.019428790030472542 0.0083948741603043463 0 0.0083948741603043463 0.018088189401527132 0 0 0 0.009379244857999923 0.030901028981656923 0.011994284382902554 0 0.011994284382902554 0.015933652248608147 0 0 0 0.011708670307566272 0.02460315783493263 0.0085297941742348386 0 0.0085297941742348386 0.0082480965274343704 0 0 0 0.0082128135905917467 0.024555306704262782 0.0096026566091122374 0 0.0096026566091122374 0.014340085741440422 0 0 0 0.0097238481114258028 0.024143552066801268 0.0068720025339539456 0 0.0068720025339539456 0.003449122019572249 0 0 0 0.006898168521593381 0.028574889369811528 0.0095799036771552874 0 0.0095799036771552874 0.0091134825757376997 0 0 0 0.0094220929863873155 0.030085992865635257 0.0077924163543442622 0 0.0077924163543442622 0.0018758373034628364 0 0 0 0.0079904575422745233 0.030357707067177896 0.0095567473578405619 0 0.0095567473578405619 0.0079900127691363843 0 0 0 0.009586929959078571 0.034568674487735332 0.010396441662055856 0 0.010396441662055856 0.0071336016684517382 0 0 0 0.010425569039046761 0.03635810348172943 0.006244952648648756 0 0.006244952648648756 5.7294509685012346e-05 0 0 0 0.0091038494978536132 0.03199625974448931 0.0045676809641460288 0 0.0045676809641460288 -0.00021369213571890457 0 0 0 0.0079456419021926104 0.030503736615378804 -0.0027312538659891627 0 -0.0027312538659891627 -0.0063684666707194172 0 0 0 0.0060338174861648492 0.039277739292202012 0.00076470816211366387 0 0.00076470816211366387 -0.0013370063943813001 0 0 0 0.0094851832244551779 0.037741060091200568 0.001053139462682786 0 0.001053139462682786 -0.0015800593087651939 0 0 0 0.0090402501956088413 0.03919502955656945 0.0083808118088395233 0 0.0083808118088395233 0.0051310744281305998 0 0 0 0.011081525996175023 0.028787091758510956 -0.0065993663604754582 0 -0.0065993663604754582 -0.0044727917657582852 0 0 0 0.0060785749981881673 0.035236754294858633 -0.0080830977796964541 0 -0.0080830977796964541 -0.0043307202443009802 0 0 0 0.0077265085126394153 0.039248746323441275 -0.0033093959182329928 0 -0.0033093959182329928 0.0014394677460936745 0 0 0 0.010172053517383733 0.04459827288051961 -0.0054809862568458052 0 -0.0054809862568458052 0.0040455150089176786 0 0 0 0.012160946972359327 0.052282293772204821 0.0020622514615452614 0 0.0020622514615452614 0.01148815278974856 0 0 0 0.015942611640488338 0.045148257527456277 0.0094401789697284993 0 0.0094401789697284993 0.0065074418255444411 0 0 0 0.012913924838250174 0.050804232355697435 0.0054505686145625842 0 0.0054505686145625842 0.0047355962317316702 0 0 0 0.013884957146857276 0.043222274488891987 0.0083555124795856323 0 0.0083555124795856323 0.0096203746646751215 0 0 0 0.013210662288391784 0.055127148210787014 0.011493252247848466 0 0.011493252247848466 0.012131232481272469 0 0 0 0.016814595173014875 0.046502032455395304 0.01846879929629703 0 0.01846879929629703 0.029903480095531121 0 0 0 0.01910137813773162 0.068809031221977318 0.018595247651847686 0 0.018595247651847686 0.026807326710307375 0 0 0 0.023904089483071191 0.055767268956755683 0.018718218992928512 0 0.018718218992928512 0.044363258814518275 0 0 0 0.025032631942818476 0.043041714980313193 0.021969422322250347 0 0.021969422322250347 0.049914716945581243 0 0 0 0.023239107981473599 0.05146050277094278 0.017581215029522347 0 0.017581215029522347 0.031579061624559729 0 0 0 0.020759891098875612 0.066834987988388883 -0.0032632252934004582 0 -0.0032632252934004582 0.01976211775840879 0 0 0 0.021649276436699429 0.06746471169598986 0.0039783864783049863 0 0.0039783864783049863 0.036169863812853253 0 0 0 0.025908643877210764 0.07126677238818116 -0.015877579858879984 0 -0.015877579858879984 0.030716226940706998 0 0 0 0.025495749832222053 0.12084899278656233 -0.0066382954493162255 0 -0.0066382954493162255 0.056938889302221546 0 0 0 0.044446970522195962 0.078010464902729379 -0.0045681586496980203 0 -0.0045681586496980203 0.13923663767483513 0 0 0 0.05431177564439113 0.11355235883678418 0.052545686393294544 0 0.052545686393294544 0.098576013797700895 0 0 0 0.05303209315862123 0.057152158048985741 0.032961179295139316 0 0.032961179295139316 0.086394555007496682 0 0 0 0.035886678264120578 0.028786239955944079 0.016358179670696825 0 0.016358179670696825 0.046444135317111113 0 0 0 0.018807593818263801 0.055402309230109484 0.021636156899156975 0 0.021636156899156975 0.045199424593570903 0 0 0 0.025150433455920097 0.029442156318754239 -0.0057466045827146151 0 -0.0057466045827146151 0.098920957635841175 0 0 0 0.03209077848864883 0.02129657310478246 -0.0059217713382357286 0 -0.0059217713382357286 0.055668271888815832 0 0 0 0.019241211248399559 0.021330507051930365 -0.0063062695834902021 0 -0.0063062695834902021 0.059505429806844659 0 0 0 0.020208984214693766 0.031543453682389887 0.016636885590490473 0 0.016636885590490473 0.056627764633585015 0 0 0 0.022042804578993734 0.032563218452930219 0.015572789591506177 0 0.015572789591506177 0.030347146841581782 0 0 0 0.015727591323628005 0.02697932351525862 0.013578549016730269 0 0.013578549016730269 0.049540916284589356 0 0 0 0.019130059949961996 0.019293623112428673 0.0084855948579987232 0 0.0084855948579987232 0.032664423494230849 0 0 0 0.012989511651664884 0.026222029563700365 0.013327437459609424 0 0.013327437459609424 0.039625487616052502 0 0 0 0.016461879294938218 0.029260638972440842 0.013493997923550712 0 0.013493997923550712 0.021506120312185392 0 0 0 0.012691689821156564 0.03530566765287331 0.017752191072032505 0 0.017752191072032505 0.032897856860195931 0 0 0 0.01705088112826731 0.018800258998923076 0.009175949439642634 0 0.009175949439642634 0.023637312851758636 0 0 0 0.010609392962670432 0.018426429354420903 0.0085870205165076759 0 0.0085870205165076759 0.035425383066079952 0 0 0 0.013462953105125214 0.017491471547326557 -0.0061808719725549629 0 -0.0061808719725549629 0.038506993544645797 0 0 0 0.013999616272993096 0.01319852672561727 0.0014810497015242754 0 0.0014810497015242754 0.03699449947719427 0 0 0 0.012548256550702895 0.01191086756026289 0.0027461962368892485 0 0.0027461962368892485 0.030665596224584875 0 0 0 0.010644115946211945 0.019428286562214236 0.0067031483859247591 0 0.0067031483859247591 0.047467830928320992 0 0 0 0.016724029372633814 0.013806803117244809 -0.0057534140360374943 0 -0.0057534140360374943 0.030247523353516253 0 0 0 0.01101358161769026 0.014006627610978869 -0.0049819613377001396 0 -0.0049819613377001396 0.027078267961610114 0 0 0 0.010271223893147247 0.021697761851065159 -0.012821144858749085 0 -0.012821144858749085 0.029221680049008755 0 0 0 0.012729860475018465 0.018769512744295877 -0.011205123742640181 0 -0.011205123742640181 0.016629982505054181 0 0 0 0.0088498738123375248 0.013459332979684283 -0.0076659122207246534 0 -0.0076659122207246534 0.015095593971721999 0 0 0 0.00713873173785156 0.021509862401055537 -0.012189316810348745 0 -0.012189316810348745 0.017248260791159757 0 0 0 0.0096895307980538019 0.021604938970184624 -0.011423434089001951 0 -0.011423434089001951 0.017571706890497196 0 0 0 0.0097941614651704534 0.016579755916192394 -0.0090546848234353827 0 -0.0090546848234353827 0.0092374931715046293 0 0 0 0.0064543122719242577 0.034378097379210978 -0.0051244356665099827 0 -0.0051244356665099827 0.0079120137959748371 0 0 0 0.010572527793796457 0.027556685121970931 -0.0079841779390371626 0 -0.0079841779390371626 0.0031607379150655757 0 0 0 0.0076793557592591266 0.030420255010209153 -0.010183762694492837 0 -0.010183762694492837 0.0081639755516405843 0 0 0 0.0096460576404624257 0.04215562642600288 -0.01855370919123632 0 -0.01855370919123632 0.020631028367073256 0 0 0 0.015696663698269019 0.017950957158052536 -0.0059870211398315894 0 -0.0059870211398315894 0.039798394398258698 0 0 0 0.014437337889077809 0.025727484966504569 -0.01401172921046262 0 -0.01401172921046262 0.026590820256056927 0 0 0 0.013079576305640373 0.02585356198076199 -0.015962143898997142 0 -0.015962143898997142 0.032458881316488282 0 0 0 0.014578110824312564 0.029987118941559754 -0.019723043107172614 0 -0.019723043107172614 0.047596995565609992 0 0 0 0.019396028626792419 0.019882294427128175 -0.016934195053655825 0 -0.016934195053655825 0.062017890943471161 0 0 0 0.020475046342649822 0.035413921024678711 -0.016576114089387736 0 -0.016576114089387736 0.061869552438756303 0 0 0 0.024320868365858749 0.050852134076552702 -0.0018782094343565876 0 -0.0018782094343565876 0.17797869468645053 0 0 0 0.057207707190750808 0.043159152638896373 -0.0058665275284072657 0 -0.0058665275284072657 -0.0067992763874166057 0 0 0 0.0090899690628699521 0.05647751379105409 -0.028555292307226917 0 -0.028555292307226917 0.036544309712244386 0 0 0 0.023255455875824598 0.10788715097993791 0.068453656422803363 0 0.068453656422803363 0.11442785524195392 0 0 0 0.055578751555472983 0.05337289421205877 -0.041617716668662444 0 -0.041617716668662444 0.074490602383078253 0 0 0 0.031965874148784268 0.0036145365233951547 0.0007386539002613773 0 0.0007386539002613773 0.010040254603560806 0 0 0 0.0034136977817389906 0.18443327582251254 0.053286287653542305 0 0.053286287653542305 0.031150450914739003 0 0 0 0.053895931684312948 0.095449141577189978 0.013369737611435117 0 0.013369737611435117 0.015983580040159429 0 0 0 0.027858180404337352 0.0087047771241391212 0.0018301832463070104 0 0.0018301832463070104 0.026104506210689951 0 0 0 0.0087023208337072677 0.015362300769382838 0.0033133097940796774 0 0.0033133097940796774 0.021225798645609528 0 0 0 0.0091470248537480828 0.10653663396025274 0.016067380379907958 0 0.016067380379907958 0.013992469357911846 0 0 0 0.03013227582954113 0.012765013669173923 0.0026490028063013869 0 0.0026490028063013869 0.038111783950867846 0 0 0 0.012719199405010442 0.02285862574424051 0.0055192222919243916 0 0.0055192222919243916 0.026323630012436372 0 0 0 0.012295563939169238 0.0777844762644401 0.01553640327428979 0 0.01553640327428979 0.010508026068706044 0 0 0 0.022073125583286501 0.034414644071267896 -0.0089322026231329482 0 -0.0089322026231329482 -0.0022201374110565747 0 0 0 0.0080486266650528424 0.035060823637659791 0.0033112296393553176 0 0.0033112296393553176 0.016296055717759772 0 0 0 0.012839219838854901 0.034284228081909951 -0.0023999585480398667 0 -0.0023999585480398667 0.011375642022969201 0 0 0 0.011414967526219802 0.03311930267728154 -0.00040051428192300342 0 -0.00040051428192300342 0.007464750093741146 0 0 0 0.010146013192755668 0.02856986340232319 0.0030471895664795912 0 0.0030471895664795912 0.011226639924181075 0 0 0 0.0099491258316260628 0.033891686194346821 0.0031493299825287244 0 0.0031493299825287244 0.028365314407548969 0 0 0 0.015564250150473968 0.033921209663535276 0.0052264370326894904 0 0.0052264370326894904 0.032393468774856271 0 0 0 0.016578669609597904 0.031775736951087985 0.0017286737298770061 0 0.0017286737298770061 0.011899834362345763 0 0 0 0.010918892828358437 0.071354117074860279 0.013262174696605199 0 0.013262174696605199 0.011268033076473394 0 0 0 0.020655537537833446 0.076842748960747997 0.0090663923240704714 0 0.0090663923240704714 0.030153719603623674 0 0 0 0.026749117141092904 0.09760634323416284 0.0063764228044762006 0 0.0063764228044762006 0.027606349479400327 0 0 0 0.031303173178390598 0.016656927629088703 0.0032452904558410477 0 0.0032452904558410477 0.049836920053847947 0 0 0 0.016623461920734162 0.088313550419046316 0.009062097078375797 0 0.009062097078375797 0.031854824748894339 0 0 0 0.030042093791985192 0.078014329742929323 0.005710923078504071 0 0.005710923078504071 0.030618632427108272 0 0 0 0.02715824054250926 0.061989042864681487 0.014960732759228601 0 0.014960732759228601 0.02947573860884245 0 0 0 0.022866195368381137 0.084248246387771508 0.0087085505684047406 0 0.0087085505684047406 0.040065372296634205 0 0 0 0.031078404671101345 0.042841260945453319 0.0050232145464642495 0 0.0050232145464642495 0.043865925318640198 0 0 0 0.021676796566023421 0.020758452829694969 0.0037101178298052356 0 0.0037101178298052356 0.062136879398365666 0 0 0 0.020723833057015157 0.066531610829713927 0.0079391404283641887 0 0.0079391404283641887 0.039517071736218767 0 0 0 0.026512170641483368 0.031419916112523982 0.004088293293804432 0 0.004088293293804432 0.01961996957599349 0 0 0 0.012759971422129368 0.027587206447780552 0.0016119200130939454 0 0.0016119200130939454 0.01050339767412406 0 0 0 0.0095226510304761702 0.037889896797041023 0.0021749573610306827 0 0.0021749573610306827 0.037934889860252785 0 0 0 0.018956196664323438 0.030113340003624339 0.0022969668130813359 0 0.0022969668130813359 0.020729383224934145 0 0 0 0.012710680807139607 0.035677587872679078 0.0030727876126598053 0 0.0030727876126598053 0.022029535553522217 0 0 0 0.014426780856550345 0.025393869906169458 0.00078831307207018544 0 0.00078831307207018544 0.0075892886909567636 0 0 0 0.0082457896492815902 0.021298369068528708 0.00074639835227505169 0 0.00074639835227505169 0.0084042803318443715 0 0 0 0.0074256623500932734 0.027135069935871343 0.0017076593882899421 0 0.0017076593882899421 0.0083538875730028751 0 0 0 0.0088722393772185434 0.022522021700978612 -0.0038369204360704373 0 -0.0038369204360704373 0.0041740058927832169 0 0 0 0.0066740068984404294 0.021314628438414196 -0.0011227642695799261 0 -0.0011227642695799261 0.0035834532167708377 0 0 0 0.0062245204137962445 0.013704141471282686 -0.0030641128234154824 0 -0.0030641128234154824 0.0026329329586979242 0 0 0 0.004084268607495156 0.016008996241750006 -0.005113101495581876 0 -0.005113101495581876 0.0036560127160598643 0 0 0 0.0049162522394524677 0.015783273350626542 -0.0072867217269838788 0 -0.0072867217269838788 0.0043688397644734422 0 0 0 0.005038028278775003 0.018971363074251717 -0.0031883497804920946 0 -0.0031883497804920946 0.0043936943983557339 0 0 0 0.0058412643681518377 0.022123867624440158 -0.005142418147868949 0 -0.005142418147868949 0.0038310373885958038 0 0 0 0.0064887262532589973 0.01518415880775343 -0.0074947734199944938 0 -0.0074947734199944938 0.0040336993102858265 0 0 0 0.0048044645295098123 0.021532002273827136 -0.0092388624275841422 0 -0.0092388624275841422 0.0069780708369941435 0 0 0 0.0071275182777053303 0.015775411841629713 -0.0092396266419578765 0 -0.0092396266419578765 0.0090172260106413243 0 0 0 0.0061981594630677577 0.023265041435219489 -0.0057444168674545687 0 -0.0057444168674545687 0.0037291539036497512 0 0 0 0.0067485488347173196 0.026625840245076769 -0.0012659912527780426 0 -0.0012659912527780426 0.0029770792362773107 0 0 0 0.0074007298703385391 0.02841041305990058 -0.0023188917680289634 0 -0.0023188917680289634 0.0060948847516858473 0 0 0 0.0086263244528966138 -0.079479649893025917 0.0038309681844475585 0 0.0038309681844475585 5.0496208590267155e-05 0 0 0 -0.019857288421108954 -0.098780229463631547 0.0075235981884289593 0 0.0075235981884289593 0.001583265639936049 0 0 0 -0.024299240955923868 -0.068773244005077561 0.018172945138444585 0 0.018172945138444585 0.0064106121946236883 0 0 0 -0.01559065795261344 -0.11938941216087448 0.0065547580055002053 0 0.0065547580055002053 0.0018213107653209937 0 0 0 -0.029392025348888379 -0.11657283514987454 0.0040139360985932404 0 0.0040139360985932404 0.0035884431229857849 0 0 0 -0.028246098006722176 -0.073849517602764869 0.0024622379858810495 0 0.0024622379858810495 0.0012755118169003321 0 0 0 -0.018143501446466093 -0.08060945232286465 0.0081848393450461299 0 0.0081848393450461299 0.0014649886271115298 0 0 0 -0.019786115923938336 -0.059054811541658619 0.01569003840041866 0 0.01569003840041866 0.010749883730501453 0 0 0 -0.012076231952789257 -0.037407120029124663 0.014541211642849772 0 0.014541211642849772 0.0094910911653456886 0 0 0 -0.0069790072159447436 -0.02663787532978551 0.021335661823933039 0 0.021335661823933039 0.021772799206566384 0 0 0 -0.0012162690308047952 -0.037845785425053458 0.012039136000737582 0 0.012039136000737582 0.0026555819363531796 0 0 0 -0.0087975508721750417 -0.03532569047654914 0.024729987472670856 0 0.024729987472670856 0.0090375046183392427 0 0 0 -0.0065720464645524918 -0.053160322837942142 0.011756122094873478 0 0.011756122094873478 0.00094268106271977459 0 0 0 -0.013054410443805509 -0.025930946403640409 0.018067417328902297 0 0.018067417328902297 0.0039611286955218983 0 0 0 -0.0054924544270296138 0.020629363127644601 0.031533505367366099 0 0.031533505367366099 0.009247189653542931 0 0 0 0.0074691381952969593 -0.0017878468709410233 0.022379008886979926 0 0.022379008886979926 0.0081145263431963155 0 0 0 0.0015816698680638508 0.032377503545572936 0.035017433273591692 0 0.035017433273591692 0.022132530413762591 0 0 0 0.013627508489833892 -0.0028968721375201012 0.025575125680873362 0 0.025575125680873362 0.0080081241611852372 0 0 0 0.0012778130059162285 -0.031969046419889346 0.0085743038607484917 0 0.0085743038607484917 0.011256082692280178 0 0 0 -0.0051782409319022782 -0.0086327729893980742 0.023286640429568156 0 0.023286640429568156 0.030109170998010137 0 0 0 0.0053690995021530019 -0.00059521565327866344 0.016132605442423481 0 0.016132605442423481 0.022148572688033497 0 0 0 0.0053883392586886736 0.027797905341787083 0.030136601313573902 0 0.030136601313573902 0.047389847751610703 0 0 0 0.018796938273349412 0.037558516341809595 0.033372569257844889 0 0.033372569257844889 0.078880382647028346 0 0 0 0.029109724747209464 0.063582713427933549 0.039023681134727373 0 0.039023681134727373 0.027494245188768328 0 0 0 0.022769239654175478 0.071915757929225721 0.038794765113467466 0 0.038794765113467466 0.030094328885836491 0 0 0 0.025502521703765546 0.039304192946666372 0.022090672794423158 0 0.022090672794423158 0.0087868551265040118 0 0 0 0.01202276201829261 0.056733358936415165 0.03021034838989467 0 0.03021034838989467 0.01140463106721562 0 0 0 0.017034497500907728 0.070301890336277484 0.012287245453137863 0 0.012287245453137863 0.012149044038686441 0 0 0 0.020612733593740995 0.032051800371764527 0.020023985378446019 0 0.020023985378446019 0.0049255105816488065 0 0 0 0.0092443277383533751 0.033632209637735888 0.026194740954720019 0 0.026194740954720019 0.0046667690352271141 0 0 0 0.0095747446682407644 0.055263703703406053 0.017122198531945798 0 0.017122198531945798 0.010104462654414226 0 0 0 0.01634204158945507 0.055213336889894438 0.016798644467125867 0 0.016798644467125867 0.012502275982752442 0 0 0 0.016928903218161706 0.057846472241903424 0.013644288034265928 0 0.013644288034265928 0.015115430545895592 0 0 0 0.018240475696949754 0.047553528330504288 0.020178495675178931 0 0.020178495675178931 0.01168844276396714 0 0 0 0.014810492773617774 0.032015930098039325 0.020693761179624959 0 0.020693761179624959 0.0062026709889072551 0 0 0 0.0095546502717365756 0.032341671448481102 0.024869642939822564 0 0.024869642939822564 0.0045946085817212268 0 0 0 0.0092340700075506099 0.00728507780253701 0.021060355684293652 0 0.021060355684293652 0.0030279425998161469 0 0 0 0.0025782551005882337 0.0096362543170539772 0.025449578261155459 0 0.025449578261155459 0.0030767227576053435 0 0 0 0.0031782442686648926 0.0063930558768890977 0.022445930218265658 0 0.022445930218265658 0.0028745034400969871 0 0 0 0.0023168898292466045 -0.016595819598419326 0.025047292460454618 0 0.025047292460454618 0.0037336286539589869 0 0 0 -0.0032155477361151541 0.0086322838184322848 0.025909275405069987 0 0.025909275405069987 0.0031738929613971401 0 0 0 0.0029515441949573562 0.0162458506397474 0.020401904108791058 0 0.020401904108791058 0.0013036119767079191 0 0 0 0.0043873656541137118 -0.0070595564236864417 0.020829949851026652 0 0.020829949851026652 0.0025555763291205125 0 0 0 -0.0011259950236414129 -0.015330097162282327 0.027294161421017815 0 0.027294161421017815 0.0044500148157831654 0 0 0 -0.0027200205866247246 -0.032377695427492692 0.015864447668720971 0 0.015864447668720971 0.00017467320915076634 0 0 0 -0.0080507555545855647 -0.042168700885215897 0.022145463795884668 0 0.022145463795884668 0.00358479616269676 0 0 0 -0.009645976180629838 -0.039191987144224671 0.014296301439124276 0 0.014296301439124276 -0.00021144729170385901 0 0 0 -0.0098508586089820493 -0.037592804930912105 0.022198655009883939 0 0.022198655009883939 0.0023379616921257451 0 0 0 -0.0088137108096966177 -0.016577474090372579 0.02294332011077635 0 0.02294332011077635 -0.00062493913676364699 0 0 0 -0.0043006033067841676 -0.014013541591479023 0.026443453425368468 0 0.026443453425368468 -0.0028002960387735754 0 0 0 -0.0042034594075631426 -0.027074713110600022 0.020352079620788111 0 0.020352079620788111 0.0018320650362635311 0 0 0 -0.0063106620185840673 -0.035466581570526845 0.015618955634125409 0 0.015618955634125409 -0.00096522445037883209 0 0 0 -0.0091079515052263638 -0.046963725680781998 0.019376408749736895 0 0.019376408749736895 0.0011787972488794818 0 0 0 -0.011446232107975685 -0.06598310598859547 0.0073662365134409269 0 0.0073662365134409269 -3.148209268166724e-05 0 0 0 -0.016503647020319256 -0.040683455940412394 0.0081132261024612351 0 0.0081132261024612351 0.0012355496195193272 0 0 0 -0.0098619765802232529 -0.053564697309641196 0.0076161156864344992 0 0.0076161156864344992 0.001483352937323934 0 0 0 -0.013020336093079399 -0.086312765824401338 0.0061131947443054946 0 0.0061131947443054946 0.00018391052038113642 0 0 0 -0.021532213826005064 -0.06428712113417645 0.014814763895517336 0 0.014814763895517336 0.0024512980061275336 0 0 0 -0.015458955782012063 -0.063320238932174089 0.0080399340205781072 0 0.0080399340205781072 -0.001183275565383779 0 0 0 -0.016125878624389411 -0.012253709578367813 0.010001017647930821 0 0.010001017647930821 0.0024691862306014944 0 0 0 -0.0024461308369414653 -0.029179523420989728 0.0079908878844696662 0 0.0079908878844696662 -0.0033046697924925539 0 0 0 -0.0081210483033706815 -0.016143363847272441 0.013735908257678009 0 0.013735908257678009 0.00038667940392511646 0 0 0 -0.0039391711108366367 -0.034593401573343008 0.0079996001602437028 0 0.0079996001602437028 0.0011687577396579663 0 0 0 -0.0083561609584212881 -0.033592619838062054 0.0064313008892356027 0 0.0064313008892356027 -0.00043802657913594167 0 0 0 -0.00850766160429961 -0.052432344791173091 0.0079816728828051922 0 0.0079816728828051922 8.2130862288920525e-05 0 0 0 -0.013087553482220793 -0.04434902042025235 0.013792222879418947 0 0.013792222879418947 -0.00051744114439866706 0 0 0 -0.01121661539116281 -0.035277637309191423 0.013113445946721092 0 0.013113445946721092 -0.00061068419679877195 0 0 0 -0.0089720803764976598 -0.024878732381268032 0.020339367832113389 0 0.020339367832113389 -0.00011961490461986912 0 0 0 -0.0062495868214720307 -0.023325278555248352 0.015676024898759966 0 0.015676024898759966 0.0017017339253015962 0 0 0 -0.0054058861574864947 -0.01617505126226193 0.01767355700933293 0 0.01767355700933293 -0.00052907082167985564 0 0 0 -0.0041760305209853632 -0.0086787205443855653 0.018324540076051665 0 0.018324540076051665 0.00071767988721616049 0 0 0 -0.001990260164292379 -0.0081277586702175331 0.017983611557890633 0 0.017983611557890633 -0.0012551069876720611 0 0 0 -0.002345716414472454 -0.018832922072691827 0.019384132828267564 0 0.019384132828267564 -0.00013823001826041015 0 0 0 -0.004742788022737976 -0.0057101804174178733 0.018784598920197793 0 0.018784598920197793 -0.00028367757242320213 0 0 0 -0.0014984644974603695 0.0075382605987495133 0.020409508584170455 0 0.020409508584170455 5.4291051857280337e-05 0 0 0 0.0018981379126516984 0.007872944053253339 0.020888634519191207 0 0.020888634519191207 0.00087635650286732591 0 0 0 0.002187325139030083 0.019853554632087933 0.020781052406109168 0 0.020781052406109168 0.0020018644004027308 0 0 0 0.0054638547581224994 -0.0070270808737349366 0.022908457041302371 0 0.022908457041302371 -0.00072324633211007239 0 0 0 -0.0019375818014610857 -0.0091496815739262605 0.025253711192937938 0 0.025253711192937938 -0.0012083531759188304 0 0 0 -0.0025895086874612172 0.0055742485344923431 0.021614446075333915 0 0.021614446075333915 0.00010180586661057145 0 0 0 0.001419013600275687 0.0049873442309565919 0.019050782532630595 0 0.019050782532630595 0.0034653044091212948 0 0 0 0.0021131621600195549 0.017189658955763298 0.02485576211650653 0 0.02485576211650653 0.0018471926246959036 0 0 0 0.0047592128951149393 0.0066947602046434351 0.021877628524405751 0 0.021877628524405751 0.0038198860216613895 0 0 0 0.0026286615565762617 0.031138468420127241 0.01747807194833606 0 0.01747807194833606 0.0096593079230911094 0 0 0 0.010199444085804643 0.031318947768862238 0.018063104949965523 0 0.018063104949965523 0.012660896162868696 0 0 0 0.010994960982932733 0.028642849691766004 0.020823957822395656 0 0.020823957822395656 0.0052018896831591555 0 0 0 0.008461184843731373 0.038212338848325367 0.020811992642796762 0 0.020811992642796762 0.012164434520160361 0 0 0 0.012594193342121252 0.052505188312034656 0.011565218896469442 0 0.011565218896469442 0.027225001179232322 0 0 0 0.019932547372816689 0.037433669954123117 0.016590947676407897 0 0.016590947676407897 0.010467090119582689 0 0 0 0.011975190018426618 0.042402159398707617 0.01822699113272197 0 0.01822699113272197 0.024584176538072988 0 0 0 0.016746583984195151 0.022552154574439709 0.023166248340974471 0 0.023166248340974471 0.0073407758999305406 0 0 0 0.0074732326185925624 0.026657360301261146 0.020094898690683927 0 0.020094898690683927 0.0086348665465397767 0 0 0 0.0088230567119502168 0.047541895402039014 0.010817606837703164 0 0.010817606837703164 0.014402658386189593 0 0 0 0.015486138447057263 0.028098809024998062 0.0061765354115248527 0 0.0061765354115248527 0.00010178324163145902 0 0 0 0.0070501480666573801 0.051410107382630965 0.015848539404178963 0 0.015848539404178963 0.014877575714240976 0 0 0 0.016571920774218318 0.035380708327125809 0.0091294481050652188 0 0.0091294481050652188 0.00061576727364620609 0 0 0 0.0089991189001930039 0.056804277108130741 -0.0024312037823499555 0 -0.0024312037823499555 0.011962692697483845 0 0 0 0.017191742451403647 0.058378389893288168 0.0085331505263148699 0 0.0085331505263148699 0.010588899886839198 0 0 0 0.017241822445032168 0.042016619605972583 -0.0031940505860277302 0 -0.0031940505860277302 -0.020702048258695704 0 0 0 0.0053286428368193306 0.018813433884655506 0.0012720557224410456 0 0.0012720557224410456 -0.013828247315629483 0 0 0 0.0012462966422566168 0.0079930181156797619 0.011789720555738983 0 0.011789720555738983 -0.008682287041759551 0 0 0 -0.00017231723152022482 0.0051627097510977826 0.0074183563840108935 0 0.0074183563840108935 -0.017173212135409344 0 0 0 -0.0030026255960775572 0.015944371986417405 0.0070964594929386893 0 0.0070964594929386893 -0.026920034013406813 0 0 0 -0.0027439155067472409 0.0075354475676561172 0.018279838430326378 0 0.018279838430326378 -0.0036771778990405402 0 0 0 0.00096456741715411631 0.022168999618974006 0.016035389439420483 0 0.016035389439420483 -0.004725750741183532 0 0 0 0.0043608122194476184 0.0078272044628343584 0.016031705291881471 0 0.016031705291881471 -0.003851801505998953 0 0 0 0.0009938507392087681 0.023262917222062862 0.018071224216672788 0 0.018071224216672788 0.0010642139104999337 0 0 0 0.0060817827831407545 -0.0049021922314252953 0.017339844706218299 0 0.017339844706218299 -0.0048255084130897075 0 0 0 -0.0024319251611286674 -0.016524228943018748 0.012785197394991288 0 0.012785197394991288 -0.0040102660392271616 0 0 0 -0.0051336237455612554 -0.0014767869007583645 0.011903612518785023 0 0.011903612518785023 -0.0054555851759348073 0 0 0 -0.0017330930191730154 -0.0050233470733291874 0.011582176287325829 0 0.011582176287325829 -0.0006232800775132219 0 0 0 -0.0014116567877102693 -0.0030217502457687839 0.013273267996430915 0 0.013273267996430915 -0.012469658827075403 0 0 0 -0.0038728522682112132 6.4149244570099739e-05 0.006956685830579179 0 0.006956685830579179 -0.020122117233516867 0 0 0 -0.0050144919972365809 -0.00076733786598492948 0.0042277148571250311 0 0.0042277148571250311 -0.0096921168426824522 0 0 0 -0.002614863677167012 0.004642646083245161 0.006410703488438807 0 0.006410703488438807 -0.006484971992250621 0 0 0 -0.00046058147725158705 -0.0010164587257535107 0.0074726867737213709 0 0.0074726867737213709 -0.0077892048889105503 0 0 0 -0.0022014159036658487 -0.0048345717469859828 0.0055999164064748364 0 0.0055999164064748364 -0.0044245407601826159 0 0 0 -0.0023147781267920386 0.00087567679481903582 0.0022366376776208341 0 0.0022366376776208341 -0.0031229250529911656 0 0 0 -0.00056181206454297694 -0.00057980616049491118 0.0014285932832875936 0 0.0014285932832875936 -0.00097503842464163881 0 0 0 -0.00038871114628391545 -0.0014703817685903786 0.0017852814178158649 0 0.0017852814178158649 -0.0015837458977654428 0 0 0 -0.00076353191658906638 -0.00062598168914873575 0.0032291945809936884 0 0.0032291945809936884 0.0012380436463734767 0 0 0 0.00015301548930590769 -0.0082404329745584537 0.0050053752498946391 0 0.0050053752498946391 0.0017604449495900454 0 0 0 -0.0016199970062420466 -0.0088299325364999959 0.0059772193961615816 0 0.0059772193961615816 -0.0022011933751586721 0 0 0 -0.0027577814779149445 -0.020745349532709678 0.0065236349061414955 0 0.0065236349061414955 -0.002491680471124802 0 0 0 -0.005809257500958509 0.014638108622984397 -0.0018461060644594102 0 -0.0018461060644594102 0.00030778883117710265 0 0 0 0.0037364743635403541 0.025956081764889338 0.00047787193782253268 0 0.00047787193782253268 0.0105702173635005 0 0 0 0.009131574782097529 0.029041835421423912 0.0020076976524937007 0 0.0020076976524937007 0.0083173415349242497 0 0 0 0.0093397942390870403 0.020748310135301234 0.0032143434565416046 0 0.0032143434565416046 -0.0010229912139011477 0 0 0 0.0049313297303500425 0.011330311278890124 -3.4785951034455032e-05 0 -3.4785951034455032e-05 -0.0073243270057193055 0 0 0 0.0010014960682927323 0.0059130929550134659 -0.0017532764697406195 0 -0.0017532764697406195 -0.0030427629815077406 0 0 0 0.00071758249337638969 0.0061884737190044392 -0.0050463597154945042 0 -0.0050463597154945042 -0.006554889876634884 0 0 0 -9.1604039407666704e-05 0.012833785939421603 -0.0026320836744858078 0 -0.0026320836744858078 -0.0007018282781939833 0 0 0 0.0030329894153069067 0.0083679538183808744 -0.0041156433701808326 0 -0.0041156433701808326 0.0016209037198204879 0 0 0 0.0024972143845503059 0.0093436697716501455 -0.00407143745105365 0 -0.00407143745105365 0.0019440529319138672 0 0 0 0.002821930675891024 0.020429753250428007 4.0894725003098875e-05 0 4.0894725003098875e-05 0.0038139188619880082 0 0 0 0.0060609180281040176 0.018881413001455544 -0.0010770545481487981 0 -0.0010770545481487981 0.0033837269519069735 0 0 0 0.0055662849883406085 0.012627445021296826 0.00074759621790093655 0 0.00074759621790093655 0.001599431397181536 0 0 0 0.0035567191046195629 0.020860915526273754 0.0028100100501404334 0 0.0028100100501404334 0.0091218348668602456 0 0 0 0.0074956875982834792 0.026615658309350282 0.0018302489029419222 0 0.0018302489029419222 0.0098676977563210699 0 0 0 0.009120839016417831 0.031113918076661098 0.002610457250514342 0 0.002610457250514342 0.023504541306555826 0 0 0 0.013654614845804228 0.044566589614615862 0.0028510783419149199 0 0.0028510783419149199 0.049385580645209759 0 0 0 0.023488042564956388 0.052794279317706194 0.0018742059805044731 0 0.0018742059805044731 0.058390928414052079 0 0 0 0.027796301932939527 0.041377809608191096 0.0036264605834976649 0 0.0036264605834976649 0.024607516642223992 0 0 0 0.0164963315626038 0.064145319516763055 0.017058690570724844 0 0.017058690570724844 0.03496918416091499 0 0 0 0.024778625919419595 0.084946397353386383 0.0067670553840551186 0 0.0067670553840551186 0.055077424783886109 0 0 0 0.035005955534318067 0.054043509971076084 0.004689348553942041 0 0.004689348553942041 0.051384436235377529 0 0 0 0.026356986551613379 0.025116727216992343 0.0040583612600707149 0 0.0040583612600707149 0.075196176893273348 0 0 0 0.025078226027566427 0.054998612828060289 0.01562386333636967 0 0.01562386333636967 0.023305756655062959 0 0 0 0.019576092370780951 0.067231205385142601 0.01079943269914474 0 0.01079943269914474 0.057251789660828667 0 0 0 0.031120748761492734 0.065764316587735294 0.0055377803488543265 0 0.0055377803488543265 0.048449417529400574 0 0 0 0.028553433529283967 0.029779746192384389 0.0042517812031429101 0 0.0042517812031429101 0.089233162430234381 0 0 0 0.029753227155654691 0.066585179414386408 0.0041946434977007951 0 0.0041946434977007951 0.059767618436035064 0 0 0 0.031588199462605382 0.081575769010282184 0.011332080772172404 0 0.011332080772172404 0.057438907613806656 0 0 0 0.034753669156022071 0.034852467007415192 0.0043751993530792878 0 0.0043751993530792878 0.1042283586559426 0 0 0 0.034770206415839444 0.059212754604097792 0.016038751019265884 0 0.016038751019265884 0.044009474455845465 0 0 0 0.025805557264985887 0.034528028125573068 0.0032611156855961443 0 0.0032611156855961443 0.026057121551659734 0 0 0 0.015146287419308208 0.060277285416739351 0.0043464304339077553 0 0.0043464304339077553 0.061851893430019733 0 0 0 0.030532294711689778 0.036731234360955156 0.0067958675412041203 0 0.0067958675412041203 0.012650183027139494 0 0 0 0.012345354347023663 0.047702928057370447 0.00061395053738722005 0 0.00061395053738722005 0.026199867392818155 0 0 0 0.018475698862547102 0.054396952464202342 0.0082559189427724305 0 0.0082559189427724305 0.018868964916425091 0 0 0 0.018316479345156844 0.037907800467169558 0.00012602986901372182 0 0.00012602986901372182 0.015259082584226327 0 0 0 0.013291720762848944 0.08320443283435508 0.0059054865629552256 0 0.0059054865629552256 0.063133253923735588 0 0 0 0.036584421689522695 0.074108014734408756 0.00053257692765561193 0 0.00053257692765561193 0.071079171818506093 0 0 0 0.036296796638228712 0.062110652071083218 -0.003351110887144737 0 -0.003351110887144737 0.023930153404666907 0 0 0 0.021510201368937588 0.086835816130103494 0.0025969997650789889 0 0.0025969997650789889 0.069465363200648333 0 0 0 0.039075294832688234 0.039957070086776361 0.0042677257175793206 0 0.0042677257175793206 0.12026332375985657 0 0 0 0.040055098461658237 0.10830266912943523 0.0041949924746880751 0 0.0041949924746880751 0.075406371674629269 0 0 0 0.045927260201016146 0.097001071055952667 0.012629518013736352 0 0.012629518013736352 0.072858705096634585 0 0 0 0.042464944038146928 0.071416499193573957 0.00018982843858561527 0 0.00018982843858561527 0.049335187134847747 0 0 0 0.030187921582105481 0.084031005728082087 0.014268948972792295 0 0.014268948972792295 0.057451645068805846 0 0 0 0.035370662699221733 0.046985678777826417 0.0043165947895365282 0 0.0043165947895365282 0.13839253447625743 0 0 0 0.046344553313520963 0.13653715111566411 0.0012667051376704652 0 0.0012667051376704652 0.078256193751103709 0 0 0 0.05369833621669251 0.097070582667706073 -0.013658868866175622 0 -0.013658868866175622 0.053907648997021163 0 0 0 0.037744557916181698 0.042362008421237496 0.0081766881694806115 0 0.0081766881694806115 -0.0083534688196618134 0 0 0 0.0085021349003938929 0.084465599033991201 0.011722424308205193 0 0.011722424308205193 0.066493438838115204 0 0 0 0.037739759468026601 0.12864588743094413 -0.00076407434443662311 0 -0.00076407434443662311 0.07362043849169464 0 0 0 0.050566581480659678 0.083346772814190784 0.018874828071629435 0 0.018874828071629435 0.040404575147077737 0 0 0 0.030937836990317213 0.057447653053452286 -0.0059957353943712877 0 -0.0059957353943712877 -0.0039002662779273889 0 0 0 0.013386846693881266 0.0098450648728961032 0.002635147067929805 0 0.002635147067929805 -0.034786784343661448 0 0 0 -0.0062354298676913777 0.029340482442188121 0.009625692411647957 0 0.009625692411647957 -0.035781368460253482 0 0 0 -0.0016102215045163959 0.022078592266539687 -0.0033490586245240456 0 -0.0033490586245240456 -0.057288863072566309 0 0 0 -0.0088025677015066695 0.022037759503720972 -0.00019336818071766237 0 -0.00019336818071766237 -0.0062987907980355251 0 0 0 0.0039347421764213131 0.017918513746528031 -0.0020257363544806811 0 -0.0020257363544806811 -0.027119075754370003 0 0 0 -0.0023001405019604793 0.014019749265246934 0.00034279835440274853 0 0.00034279835440274853 -0.015162904572247005 0 0 0 -0.00028578882675003858 0.01750382725904177 -0.00039034561568418447 0 -0.00039034561568418447 -0.0016282740996848843 0 0 0 0.0039688882898391668 0.028561801901828165 0.0049065146367261309 0 0.0049065146367261309 -0.006171203054392338 0 0 0 0.0055976497118589985 0.0047966021398871406 -0.0014111279314431985 0 -0.0014111279314431985 -0.021493100492465222 0 0 0 -0.0041741245881444788 0.0063955108465025019 -0.00079843480950686496 0 -0.00079843480950686496 -0.008949146130090924 0 0 0 -0.00063840882089710553 0.0058868622179646946 0.0015181836297288032 0 0.0015181836297288032 -0.031233865753881318 0 0 0 -0.006336750883979142 0.0076930512736101478 -0.0012766929747790035 0 -0.0012766929747790035 -0.017053232461839873 0 0 0 -0.0023400452970574123 0.0034670081502257699 -0.0024547586294001722 0 -0.0024547586294001722 -0.022471765837068225 0 0 0 -0.0047511894217105999 0.0058826918074398882 -0.0042084812108058589 0 -0.0042084812108058589 -0.0388890682712561 0 0 0 -0.0082515941159540807 0.0037438992629205692 -0.00084285118270369108 0 -0.00084285118270369108 -0.063384340516936977 0 0 0 -0.014910110313504088 0.0056129855965133535 -0.0025693292414623314 0 -0.0025693292414623314 -0.040096897821248589 0 0 0 -0.0086209780561838367 0.0026351901407415945 -0.0023186044662455996 0 -0.0023186044662455996 -0.062820085722095742 0 0 0 -0.015046223895338495 0.0026179743641017161 0.0013558707317634644 0 0.0013558707317634644 -0.041398096243888904 0 0 0 -0.0096950304699467971 0.00083716375181142055 -0.0052088482812049086 0 -0.0052088482812049086 -0.028301929983471419 0 0 0 -0.0068661915579149579 0.0012444995125315966 -0.001832789636802723 0 -0.001832789636802723 -0.041120050531397057 0 0 0 -0.0099688877547163685 0.01976486634625238 -0.0078220384082010805 0 -0.0078220384082010805 -0.037004791697908601 0 0 0 -0.0043099813379140484 0.014207938922088893 0.0013830285210464366 0 0.0013830285210464366 -0.053791790231105127 0 0 0 -0.0098959628272540668 0.0068295029722426348 -0.0047011570778602817 0 -0.0047011570778602817 -0.033076425214478955 0 0 0 -0.006561730560559087 0.013367445545717421 -0.0034191998439972171 0 -0.0034191998439972171 -0.0083800280572176034 0 0 0 0.0012468543721249614 0.0084548309789139603 -0.0023085613242374292 0 -0.0023085613242374292 -0.02967073456683017 0 0 0 -0.0053039758969790768 0.0066958394361106566 -0.0041038357520969959 0 -0.0041038357520969959 -0.012546727832956628 0 0 0 -0.0014627220992114998 0.0090357226763324583 -0.0054270059007496679 0 -0.0054270059007496679 -0.001356386910166596 0 0 0 0.0019198339415414933 0.01506597398468959 -0.006675026084314778 0 -0.006675026084314778 -0.010238034280279695 0 0 0 0.0012069849261024668 0.0051140364348082473 -0.0020147389028895846 0 -0.0020147389028895846 -0.023948450532389365 0 0 0 -0.0047086035243952967 0.0049240795778537905 -0.0047895343143801172 0 -0.0047895343143801172 -0.013658533939025219 0 0 0 -0.0021836135902928711 0.0011897369573352079 -0.00489557087386365 0 -0.00489557087386365 -0.013081337920325509 0 0 0 -0.0029729002407475613 0.0058228731672242545 -0.0030859898188685397 0 -0.0030859898188685397 -0.010456701134030411 0 0 0 -0.0011584569917015425 0.0054617446678251746 -0.0047103492534946168 0 -0.0047103492534946168 -0.0016197859014980276 0 0 0 0.00096048969158177289 0.0058502809255617239 -0.0057447254181674234 0 -0.0057447254181674234 -0.0053760966441496194 0 0 0 0.00011854607035305387 0.0052354361931890858 -0.0061501406443745799 0 -0.0061501406443745799 -0.00016994111889800934 0 0 0 0.0012663737685728038 0.0028533216088219016 -0.0044058557370769413 0 -0.0044058557370769413 -0.0061448857689115899 0 0 0 -0.00082289104002242208 0.0062029754213479837 -0.0064789451055324854 0 -0.0064789451055324854 -0.0049203746083919531 0 0 0 0.00032065020323898685 0.0045885399854738163 -0.0075334833405583251 0 -0.0075334833405583251 -0.0066010129401253836 0 0 0 -0.00050311823866289185 0.0097217019133254909 -0.0082835645674563807 0 -0.0082835645674563807 -0.0019951163910303868 0 0 0 0.0019316463805737413 0.013578899062839656 -0.0071227364322037495 0 -0.0071227364322037495 0.0089379775885096713 0 0 0 0.0056292191628373733 0.0078393340469356532 -0.0068467256966162904 0 -0.0068467256966162904 0.0019264548954105454 0 0 0 0.0024414472355865358 0.0065917884307740426 -0.0081106541667308463 0 -0.0081106541667308463 0.003714466699172414 0 0 0 0.002576563782486635 0.0080567605946030019 -0.0087415142784890154 0 -0.0087415142784890154 0.0028980420942219393 0 0 0 0.0027387006722062457 0.010250335395507459 -0.0089039033667320001 0 -0.0089039033667320001 0.010172301400121098 0 0 0 0.0051056591989071531 0.008539407798633547 -0.0095096285847797724 0 -0.0095096285847797724 0.004788443792293616 0 0 0 0.0033319628977317994 0.0074576524836276192 -0.0081031823667314234 0 -0.0081031823667314234 0.003305482123867165 0 0 0 0.0026907836518736961 0.011159156576550477 -0.0070717244622991449 0 -0.0070717244622991449 0.0025351723192712245 0 0 0 0.003423582223955419 0.0060787679766969027 -0.0061980542384426629 0 -0.0061980542384426629 0.00091352937011457414 0 0 0 0.0017480743367028484 0.0088903193506349575 -0.005059317867211921 0 -0.005059317867211921 -0.00046720658625733647 0 0 0 0.002105778191094405 0.0076230318992206517 -0.0072070607617112648 0 -0.0072070607617112648 0.00015655030900847688 0 0 0 0.0019448955520572977 0.031850195288703698 -0.010034429672202028 0 -0.010034429672202028 0.029733044441286438 0 0 0 0.015395809932497562 0.012784940972020317 -0.0062398542050323856 0 -0.0062398542050323856 0.038282349733067406 0 0 0 0.012766822676271931 0.042093050485358052 -0.0093348395482764079 0 -0.0093348395482764079 0.025894117734874045 0 0 0 0.016996792055058052 0.023528729271085798 -0.008416373815918532 0 -0.008416373815918532 0.025678889280019379 0 0 0 0.012301904637776299 0.014529541165130694 -0.0073763096432274133 0 -0.0073763096432274133 0.024460201442396245 0 0 0 0.0097474356518817418 0.010287124624007653 -0.010313171069577409 0 -0.010313171069577409 0.0096394022953569525 0 0 0 0.0049816317298411114 0.012519365150814088 -0.0089724417722402972 0 -0.0089724417722402972 0.013806135634806482 0 0 0 0.0065813751964051148 0.014059705574908155 -0.0077336155198582113 0 -0.0077336155198582113 0.0074275068051117277 0 0 0 0.0053718030950049844 0.025096483788270868 -0.0050485604261671646 0 -0.0050485604261671646 0.029574412359885061 0 0 0 0.013667724037039003 0.017829678308829228 -0.0093800302390955465 0 -0.0093800302390955465 0.01709066330653386 0 0 0 0.0087300854038407372 0.026667762824135105 -0.005337574373499937 0 -0.005337574373499937 0.01597694485677692 0 0 0 0.010661176920228027 0.018604584230683952 -0.0098836881710795826 0 -0.0098836881710795826 0.0051738955491469341 0 0 0 0.005944619944957763 0.033467523398525822 -0.007330576152693051 0 -0.007330576152693051 0.035296155919398386 0 0 0 0.017190919829481122 0.05085361721824011 -0.0072155018014912475 0 -0.0072155018014912475 0.034581650533100861 0 0 0 0.021358816937835229 0.033670554299014999 -0.0078655591513163148 0 -0.0078655591513163148 0.025354964304267424 0 0 0 0.01475637965082055 0.030636888415012331 -0.014375770217934125 0 -0.014375770217934125 0.023883950586542912 0 0 0 0.013630209750388866 0.019106090822732333 -0.0065128644052218397 0 -0.0065128644052218397 0.05718048582960563 0 0 0 0.019071644163084493 0.036324339297946123 -0.0078579192285567201 0 -0.0078579192285567201 0.032457392798341367 0 0 0 0.017195433024071893 0.042341789976583333 -0.011189123269613676 0 -0.011189123269613676 0.030304892725795174 0 0 0 0.01816167067559471 0.01569835679548922 -0.0064733675876918612 0 -0.0064733675876918612 0.047019884786935959 0 0 0 0.015679560395606293 0.048313152092724021 -0.0063563343696804164 0 -0.0063563343696804164 0.037761850047366874 0 0 0 0.021518750535022724 0.023054560747375025 -0.0063250139654388252 0 -0.0063250139654388252 0.069134597289719504 0 0 0 0.023047289509273636 0.070118628048838338 -0.0053203133639529165 0 -0.0053203133639529165 0.041112549650337726 0 0 0 0.027807794424794002 0.055774597277876238 -0.012376275144086901 0 -0.012376275144086901 0.040599524177552131 0 0 0 0.024093530363857064 0.041328737368498514 -0.0049808340051836764 0 -0.0049808340051836764 0.025479314791807539 0 0 0 0.016702013040076569 0.022064685223473976 -0.0038124609468274673 0 -0.0038124609468274673 0.0084045334210030437 0 0 0 0.0076173046611192757 0.032862424383473809 -0.0087616704334846779 0 -0.0087616704334846779 0.0067452523490801886 0 0 0 0.0099019191831384856 0.045570259224038512 -0.0041168132748405362 0 -0.0041168132748405362 0.041041527042096293 0 0 0 0.021652946566533715 0.039449568067108226 0.00034856711789937878 0 0.00034856711789937878 0.010564096825428831 0 0 0 0.01250341622313425 0.025858564896266395 -0.0078887744433136231 0 -0.0078887744433136231 -0.01570643624933743 0 0 0 0.0025380321617322621 0.054411896772944335 -0.010463717231822073 0 -0.010463717231822073 0.035378878703807737 0 0 0 0.022447693869188046 0.084885844224838025 -0.00058386159709614138 0 -0.00058386159709614138 0.03966036877785778 0 0 0 0.03113655325067393 0.054924773578443498 -0.014078941404192594 0 -0.014078941404192594 0.015650810289891126 0 0 0 0.017643895967083684 0.037575091053660643 0.0036783721026791838 0 0.0036783721026791838 -0.012288287285502963 0 0 0 0.0063217009420394417 0.052863157222929225 -0.012345788323757989 0 -0.012345788323757989 0.031319706306636164 0 0 0 0.021045715882391347 0.027991119643607301 -0.0062148434157678675 0 -0.0062148434157678675 0.083349830202742628 0 0 0 0.027835237461587482 0.087367535929982365 -0.0033592097353618306 0 -0.0033592097353618306 0.045882025040045793 0 0 0 0.033312390242506984 0.062395996861418057 0.0068422769978142561 0 0.0068422769978142561 0.028217818048315468 0 0 0 0.022653453727433437 0.038972977046290366 -0.006589052816194263 0 -0.006589052816194263 0.0024192029355393219 0 0 0 0.010348044995457426 0.027136421293303736 0.0010464417795365 0 0.0010464417795365 -0.016643776412863076 0 0 0 0.0026231612201103038 0.022823012007393895 -0.0079149984790736205 0 -0.0079149984790736205 -0.0022160856584845234 0 0 0 0.0051517315872274816 0.03494947507926692 -0.0014488006824557864 0 -0.0014488006824557864 0.0019802995302272142 0 0 0 0.0092324436523735093 0.011369190720145972 -0.002194219889465554 0 -0.002194219889465554 -0.012839909017862805 0 0 0 -0.00036767957442906951 0.0025632014343837106 -0.0059117247462966427 0 -0.0059117247462966427 -0.013300388460853574 0 0 0 -0.0026842967566174103 0.0049936899942434332 -0.0079935857063232144 0 -0.0079935857063232144 -0.0060089227811759294 0 0 0 -0.0002538081967331518 0.010176969291918025 -0.0053578130469562057 0 -0.0053578130469562057 -0.018836467034674342 0 0 0 -0.0021648744356891347 0.01333841776009792 -0.012668219710320172 0 -0.012668219710320172 -0.0040470479672889415 0 0 0 0.0023228424482023002 0.0027569004511609485 -0.012577581328433861 0 -0.012577581328433861 -0.0035315731209311085 0 0 0 -0.00019366816744259552 0.0031839125494069753 -0.012890559137376779 0 -0.012890559137376779 -0.0023861135828644464 0 0 0 0.00019944974163565998 0.0098726966176027053 -0.014283921609033579 0 -0.014283921609033579 -0.00030784720427334822 0 0 0 0.0023912123533323948 0.023653104591611553 -0.011116718079092869 0 -0.011116718079092869 0.0060872546890062829 0 0 0 0.0074350898201545404 0.030804814356936494 -0.013938871622670684 0 -0.013938871622670684 0.007615273840808845 0 0 0 0.0096050220494362515 0.015789739995431235 -0.0072948625303181913 0 -0.0072948625303181913 -0.0039456881671007249 0 0 0 0.0029610129570826482 -0.00042163232182468313 -0.0020287774834253369 0 -0.0020287774834253369 0.0008793627013079508 0 0 0 0.00011443259487087243 -0.00085627051300396495 -0.0010818293629860872 0 -0.0010818293629860872 -0.00098344417307183463 0 0 0 -0.00045992867151922745 -0.00041641781338101996 -0.00086733664827387535 0 -0.00086733664827387535 -0.00056857782458610167 0 0 0 -0.00024624890949191919 0.00060372261343333289 -0.0014346048488645957 0 -0.0014346048488645957 -0.0019449502878634561 0 0 0 -0.00033530691860750306 -0.0034312584292902626 -0.0036805853343515604 0 -0.0036805853343515604 -0.0028872400447808033 0 0 0 -0.0015796246185177942 -0.00077079089792786437 -0.0049823126827633901 0 -0.0049823126827633901 -0.0053242820461569806 0 0 0 -0.0015237682360212945 0.0029298151364356428 -0.0041902554076859166 0 -0.0041902554076859166 -0.0042592299272303791 0 0 0 -0.00033235369769868406 -0.00069989703425754612 -0.0027814509974873891 0 -0.0027814509974873891 -0.0061758097266557677 0 0 0 -0.0017189266902285505 -0.00021276157764791711 -0.0048483764582789579 0 -0.0048483764582789579 -0.013410088629334073 0 0 0 -0.0034057125517455806 -0.0024514608810938809 -0.0092947457331449268 0 -0.0092947457331449268 -0.0088826627929080582 0 0 0 -0.0028335309185006374 -0.0060266707412749976 -0.012395348777640924 0 -0.012395348777640924 -0.0032129236723837939 0 0 0 -0.0023098986034146285 -0.011859478182448625 -0.0088261006736768399 0 -0.0088261006736768399 -0.0029709508352638719 0 0 0 -0.0037076072544281261 -0.0014483212920710087 -0.0080576305553029526 0 -0.0080576305553029526 -0.0038192057432500648 0 0 0 -0.0013168817588304349 -0.0033832499718817743 -0.0077635950523287089 0 -0.0077635950523287089 -0.00034187065331892086 0 0 0 -0.0009312801563001738 -0.0062508737396563957 -0.0039465910940398308 0 -0.0039465910940398308 -0.0015543755849156127 0 0 0 -0.0019513123311429986 -0.013092643586527331 -0.0041219347549085184 0 -0.0041219347549085184 -0.0015811198555402395 0 0 0 -0.0036684408605169205 -0.0051227668116896607 -0.0030769201587583783 0 -0.0030769201587583783 0.0010760183823306235 0 0 0 -0.0010116871073397871 -0.022127928290932797 -0.0043686309306941729 0 -0.0043686309306941729 0.0015339278350152696 0 0 0 -0.0051485001139792153 -0.0083889550519785638 -0.0061824734862926389 0 -0.0061824734862926389 0.0016217378934739735 0 0 0 -0.0016918042896262309 -0.011412434171939878 -0.0091176970427043202 0 -0.0091176970427043202 0.0008722337327875529 0 0 0 -0.0026350501097880952 -0.019432379313947833 -0.0050779196952631667 0 -0.0050779196952631667 -0.0022350223221771492 0 0 0 -0.0054168504090312472 -0.013559839514479005 -0.011272985287692383 0 -0.011272985287692383 -0.0011599763417531606 0 0 0 -0.0036799539640581524 -0.0046694977795183057 -0.012254642125492599 0 -0.012254642125492599 0.0011750499839577877 0 0 0 -0.00087361194889001847 -0.0070810480006846532 -0.014248895459381836 0 -0.014248895459381836 0.0012864798167755431 0 0 0 -0.0014486420459773885 -0.0069967938100675697 -0.013815485782962864 0 -0.013815485782962864 0.0009370526800127621 0 0 0 -0.0015149352825136742 -0.014251742295519954 -0.011099891814521701 0 -0.011099891814521701 -0.00087477142411374054 0 0 0 -0.003781628429908479 -0.014108279419996143 -0.012270933466323519 0 -0.012270933466323519 0.0012764605794624712 0 0 0 -0.0032079547101334024 -0.0069739968145501874 -0.015327752630272473 0 -0.015327752630272473 0.004104993013449576 0 0 0 -0.00071725095027519448 -0.017420220969519729 -0.012429245482834084 0 -0.012429245482834084 0.00097461983138291686 0 0 0 -0.0041114002845343278 -0.021689522095677927 -0.0080441954477981081 0 -0.0080441954477981081 0.00061609482948643546 0 0 0 -0.0052683568165479144 -0.025083721192153463 -0.0066022890129795453 0 -0.0066022890129795453 -0.0016688756536619165 0 0 0 -0.006688149211453831 -0.025609515185927856 -0.0065851410009698519 0 -0.0065851410009698519 0.0022417553023674763 0 0 0 -0.0058419399708901087 -0.034082320682962852 -0.0036003914536430481 0 -0.0036003914536430481 -0.00055112112990318707 0 0 0 -0.0086583604532164959 -0.02307634134132297 -0.0036460139313474332 0 -0.0036460139313474332 0.00036759125007046478 0 0 0 -0.0056771875228130986 0.017424956343987996 -0.016003618461421454 0 -0.016003618461421454 0.0066251119373181844 0 0 0 0.0060125170703265729 0.0098569092006443038 -0.014065253417820167 0 -0.014065253417820167 0.0044450715071839841 0 0 0 0.0035754951769570997 0.019658881190284416 -0.014670005879338255 0 -0.014670005879338255 0.015799939276009312 0 0 0 0.0088647051165733903 0.013555912776694878 -0.016675603660934457 0 -0.016675603660934457 0.0050648061589042559 0 0 0 0.0046551797338997281 0.00042006919946846466 -0.014566937394026258 0 -0.014566937394026258 0.00014603691709136335 0 0 0 0.00014152652913984598 0.00048862431956381291 -0.014749095686945213 0 -0.014749095686945213 0.00042464842341027875 0 0 0 0.00022831818574359231 0.0088038021939381705 -0.016849302921519732 0 -0.016849302921519732 0.0029511153735541917 0 0 0 0.0029387293918730073 0.006459648124911177 -0.016860976487453938 0 -0.016860976487453938 0.0041398242344534708 0 0 0 0.0026498680898411897 -0.00072060272588125862 -0.014992705782463422 0 -0.014992705782463422 0.0028882962297196446 0 0 0 0.0005419233759595965 -0.0015095353160122227 -0.014510851862913787 0 -0.014510851862913787 0.00088884758972873623 0 0 0 -0.000155171931570941 -0.00087772940643537911 -0.012718862628689931 0 -0.012718862628689931 0.0031434780544398189 0 0 0 0.00056643716200110994 0.016255190395955244 -0.015439849947140538 0 -0.015439849947140538 0.0071583601370024397 0 0 0 0.005853387633239393 0.007584244904140891 -0.01411041608236705 0 -0.01411041608236705 0.0071875074401208661 0 0 0 0.0036929380860654115 0.027074948525374065 -0.012411908848961928 0 -0.012411908848961928 0.013303782140661191 0 0 0 0.010094682666508814 0.018049707050128205 -0.013688897693172497 0 -0.013688897693172497 0.013336632298908802 0 0 0 0.0078465848372593072 0.026281588959809393 -0.011175829976294571 0 -0.011175829976294571 0.011943768795784904 0 0 0 0.0095563394388985812 0.017130070740458636 -0.014947686947673178 0 -0.014947686947673178 0.0091405170014817738 0 0 0 0.0065676469354851164 0.019861996866231635 -0.011151980016256113 0 -0.011151980016256113 0.01005115904340792 0 0 0 0.0074782889774099304 0.025460630373344173 -0.013100341148721328 0 -0.013100341148721328 0.0096917801869400577 0 0 0 0.0087881026400710716 0.00953962839708411 -0.015192028566957505 0 -0.015192028566957505 0.0063311815748272604 0 0 0 0.0039677024929777871 0.010517832164153321 -0.012454672998340244 0 -0.012454672998340244 0.0076919837795457191 0 0 0 0.0045524539859247565 0.0072637226579975733 -0.016492388843470943 0 -0.016492388843470943 0.0047421697345835234 0 0 0 0.0030014730981453019 -0.0043282943306623411 -0.01584288417486189 0 -0.01584288417486189 0.0034178119046083255 0 0 0 -0.00022762060651349003 -0.0061987394029730525 -0.011582890652455533 0 -0.011582890652455533 0.0025809172292372562 0 0 0 -0.00090445554343399071 0.0074905600710270387 -0.012358371865453355 0 -0.012358371865453355 0.0052227327739092361 0 0 0 0.0031783232112341103 -0.00091703211269411611 -0.016262602568820061 0 -0.016262602568820061 0.0031919666416000414 0 0 0 0.00056873363222648132 0.0061784869720811764 -0.011246973731253052 0 -0.011246973731253052 0.0047303390645452303 0 0 0 0.0027272065091565878 -0.0059889450130938271 -0.011891908537779383 0 -0.011891908537779383 0.0022836511653106517 0 0 0 -0.00092632346194573834 -0.0049779347068740487 -0.013669934406112028 0 -0.013669934406112028 0.006373790140690061 0 0 0 0.0003489638584539545 0.022334347497082595 -0.011992790777799495 0 -0.011992790777799495 0.0073412244179760777 0 0 0 0.007418892978764656 0.02428061451533281 -0.010016239379369608 0 -0.010016239379369608 0.011276281826774537 0 0 0 0.0088892240855268367 0.020859293076264829 -0.010621106727179527 0 -0.010621106727179527 0.011898944449860061 0 0 0 0.0081895593815311529 0.0069664322537362627 -0.014407915848664576 0 -0.014407915848664576 0.0064331708562424539 0 0 0 0.0033499007774946826 0.019155525112188043 -0.011904623618098398 0 -0.011904623618098398 0.0073055140950990527 0 0 0 0.0066152598018218156 -0.035284189108486047 -0.0061492186307280927 0 -0.0061492186307280927 0.0013198208544348278 0 0 0 -0.0084910920635128395 -0.040155469298610885 -0.0028020066883544525 0 -0.0028020066883544525 -0.00046436171387572237 0 0 0 -0.010154957753121665 -0.034549648571671962 -0.0034371877269128159 0 -0.0034371877269128159 -0.0011591213183329285 0 0 0 -0.0089271924725012747 -0.043938805296893313 -0.0041229245800638503 0 -0.0041229245800638503 0.001269314346381778 0 0 0 -0.010667372737627856 -0.026661884640434674 -0.0054017137314870123 0 -0.0054017137314870123 -0.0016536224399572585 0 0 0 -0.0070788767700979971 -0.017237806412215978 -0.0096623993719914814 0 -0.0096623993719914814 0.0014612558405063814 0 0 0 -0.00394413764292742 -0.026463602357222393 -0.010297970916477491 0 -0.010297970916477491 0.0018145068396584474 0 0 0 -0.0061622738793910004 -0.013972746790624435 -0.011325066753900659 0 -0.011325066753900659 0.00058608297062240355 0 0 0 -0.0033466659550005495 -0.015889958953758387 -0.013853324265061362 0 -0.013853324265061362 0.0032661691453337305 0 0 0 -0.0031559474521061226 -0.018250198948841945 -0.0115984465416272 0 -0.0115984465416272 0.0025213335066182063 0 0 0 -0.0039322163605559624 -0.015507471225905095 -0.0095870398897351383 0 -0.0095870398897351383 0.0032354185599891803 0 0 0 -0.0030680131664790064 -0.016161756050525916 -0.012585041927889423 0 -0.012585041927889423 0.0054788328126985641 0 0 0 -0.0026707308094567894 -0.021663873058478018 -0.0070549394394119336 0 -0.0070549394394119336 0.0017384329101247688 0 0 0 -0.00498136003708834 -0.029383682556783391 -0.0093917642859462913 0 -0.0093917642859462913 0.0022817207601684153 0 0 0 -0.0067754904491537649 -0.029266532386412664 -0.0080160006811936801 0 -0.0080160006811936801 0.0012102682155823441 0 0 0 -0.0070140660427075729 -0.03015450595523822 -0.0089209624153105682 0 -0.0089209624153105682 0.0013794119458687693 0 0 0 -0.0071937735023422933 -0.04146545376696488 -0.0045470625783115559 0 -0.0045470625783115559 0.0013294524682713471 0 0 0 -0.010034000324673401 -0.040589196523144383 -0.0028726428629418099 0 -0.0028726428629418099 0.00043875737634177514 0 0 0 -0.01003760978670068 -0.051025435544271192 -0.0051990819243739606 0 -0.0051990819243739606 0.00080027603680687953 0 0 0 -0.012556289876866078 -0.065546289799469096 -0.0024562449694583155 0 -0.0024562449694583155 0.0011168552982628865 0 0 0 -0.016107358625301535 -0.056715623167760076 -0.0034201834587939961 0 -0.0034201834587939961 0.0009515228941319176 0 0 0 -0.013941025068407109 -0.046055978958689126 -0.0011811530256194414 0 -0.0011811530256194414 0.00021441762348492488 0 0 0 -0.011460390333801029 -0.041266594706314191 -0.007757803527428199 0 -0.007757803527428199 0.0028880617896173133 0 0 0 -0.0095946332291742265 -0.032883412845738841 -0.0044104959704572566 0 -0.0044104959704572566 0.0010784430678679735 0 0 0 -0.0079512424444676821 -0.018354598854519427 -0.0069293805039978562 0 -0.0069293805039978562 0.003360780885048209 0 0 0 -0.0037484544923677976 -0.02157157975082824 -0.010680926330419477 0 -0.010680926330419477 0.0056199019261118366 0 0 0 -0.0039879194561790732 -0.019181714148929663 -0.0086869234596152894 0 -0.0086869234596152894 0.0099298140337327201 0 0 0 -0.0023129750287992357 -0.025049440843306001 -0.0043240603130329236 0 -0.0043240603130329236 0.00077278931341540069 0 0 0 -0.0060691628824726535 -0.025160671296762138 -0.0055025773848114759 0 -0.0055025773848114759 0.0038696118491195475 0 0 0 -0.0053227648619106754 -0.033711597904716187 0.0010329882725633455 0 0.0010329882725633455 0.0051405392112332804 0 0 0 -0.0071427646733707301 -0.035817456321159929 -0.0059460402197512724 0 -0.0059460402197512724 0.0043311920493420697 0 0 0 -0.0078715660679544996 -0.046492625601842141 -0.0033071432554229174 0 -0.0033071432554229174 0.00091947171246065107 0 0 0 -0.011393288472345331 -0.042387435640721706 -0.00010032630520737107 0 -0.00010032630520737107 0.0011822318484050985 0 0 0 -0.010301300948079167 -0.062690374793185802 -0.0010609632787455248 0 -0.0010609632787455248 0.0013691087174538541 0 0 0 -0.015330316518932977 0.0097756776285368059 -0.0096782730713178555 0 -0.0096782730713178555 0.0087260898792232075 0 0 0 0.0046254418769399903 0.027850764169630962 -0.018298551654970074 0 -0.018298551654970074 0.016228661452887316 0 0 0 0.01101985640562958 0.0086574125868301988 -0.014213185703123354 0 -0.014213185703123354 0.0092676509558005105 0 0 0 0.0044812658856576704 0.0062725110132352824 -0.010341933119265255 0 -0.010341933119265255 0.0043098789556744732 0 0 0 0.002645597492227425 -0.0083510644224773223 -0.010538297672354174 0 -0.010538297672354174 0.0042963991063435514 0 0 0 -0.0010136663290334635 -0.0069527283969186976 -0.010820476892108841 0 -0.010820476892108841 0.0085716088954771452 0 0 0 0.00040472012463958762 0.0049275032612935005 -0.013935907235467088 0 -0.013935907235467088 0.010137789028295874 0 0 0 0.0037663230723973262 -0.0060964853001435199 -0.0055827832437052374 0 -0.0055827832437052374 0.010686745017813581 0 0 0 0.0011475649294175327 -0.021882575575363911 -0.0024083147986020473 0 -0.0024083147986020473 0.0044929892071201571 0 0 0 -0.0043473965920609314 -0.015239077980065685 -0.00027717695258559771 0 -0.00027717695258559771 0.0071768491747594698 0 0 0 -0.0020155572013265399 -0.0098931778017863348 -0.0092137803880416869 0 -0.0092137803880416869 0.01212875279830905 0 0 0 0.00055889374913066503 0.0081990205504324093 -0.010417040662878602 0 -0.010417040662878602 0.014410760536191558 0 0 0 0.0056524452716559953 0.0089320046297006322 -0.0094141503169397588 0 -0.0094141503169397588 0.015763748768574004 0 0 0 0.0061739383495686556 0.02438092556198386 -0.013802209740284982 0 -0.013802209740284982 0.021942891630648137 0 0 0 0.011580954298158003 0.033462557998143905 -0.025915842417635976 0 -0.025915842417635976 0.045283518497596695 0 0 0 0.019686519123935153 -0.032652497099499293 0.0039446441781105165 0 0.0039446441781105165 0.024472275471253579 0 0 0 -0.0020450554070614302 0.081728798944838602 -0.024295648129526389 0 -0.024295648129526389 0.020971948109094363 0 0 0 0.025675186763483251 0.0017880936872939446 -0.0011132786395414444 0 -0.0011132786395414444 0.0052808628265666232 0 0 0 0.001767239128465142 0.041199018414910735 -0.01392084741401578 0 -0.01392084741401578 0.0039846042000891979 0 0 0 0.011295905653749994 0.034604724002689186 -0.0092932330647059469 0 -0.0092932330647059469 0.010662133833161169 0 0 0 0.011316714458962568 0.0044463144860467712 -0.002921245196996576 0 -0.002921245196996576 0.013301933823281847 0 0 0 0.0044370620773321557 0.058408739168376883 -0.0077222608933563697 0 -0.0077222608933563697 0.011090963719723956 0 0 0 0.017374925722025203 0.0062863580761467457 -0.0041843328376099326 0 -0.0041843328376099326 0.018815426618442842 0 0 0 0.0062754461736473982 0.039678869715513237 -0.0070890749045820489 0 -0.0070890749045820489 0.01366449571578926 0 0 0 0.013335841357825617 0.036310250670713889 -0.011406442816249251 0 -0.011406442816249251 0.0077242191832842533 0 0 0 0.011008617463499543 -0.001834765653918019 -0.0074961958890859617 0 -0.0074961958890859617 0.0093160039906108882 0 0 0 0.0018703095841732242 -0.010290826625504457 -0.0096081006093151899 0 -0.0096081006093151899 0.013271035472065096 0 0 0 0.00074505221164015978 -0.0014907303834059381 -0.0076467708012618041 0 -0.0076467708012618041 0.011035821729079173 0 0 0 0.0023862728364183218 -0.019021293283058235 -0.0092967015222280899 0 -0.0092967015222280899 0.0086522951545019433 0 0 0 -0.0025922495321390737 -0.00050828118389557517 -0.0038456695532606867 0 -0.0038456695532606867 0.017210569016675725 0 0 0 0.0041755719581950471 -0.0041139931413348117 -0.0021147803083151201 0 -0.0021147803083151201 0.00490379241818302 0 0 0 0.00019744981921205815 -0.011904737359539543 -0.0063271100698983063 0 -0.0063271100698983063 0.044582412251977441 0 0 0 0.0081694187231094798 0.0008383042875141529 0.0016373236729402621 0 0.0016373236729402621 0.018754091067865006 0 0 0 0.0048980988388447923 0.0048470847414482168 -0.0038764421412051699 0 -0.0038764421412051699 0.0088507975824660273 0 0 0 0.0034244705809785628 0.0077667090624962739 -0.0045870203284009495 0 -0.0045870203284009495 0.020643302788123929 0 0 0 0.0071025029626550478 0.0065400886013385756 -0.0034526583847233512 0 -0.0034526583847233512 0.019573632819298879 0 0 0 0.006528430355159362 0.010875908642041493 -0.0043551955725583749 0 -0.0043551955725583749 0.022819010768961673 0 0 0 0.0084237298527507949 0.0094763343338133965 -0.0045640183657550924 0 -0.0045640183657550924 0.028481612722619162 0 0 0 0.0094894867641081432 0.015086114214719275 -0.0095364599228639144 0 -0.0095364599228639144 0.022804256295443054 0 0 0 0.0094725926275405839 0.015269598423041096 -0.01104048315495916 0 -0.01104048315495916 0.015093207903052939 0 0 0 0.0075907015815235134 0.011801454976908578 -0.0064825862204876752 0 -0.0064825862204876752 0.015074214482861337 0 0 0 0.0067189173649424769 0.010732443119352363 -0.0097583727455347671 0 -0.0097583727455347671 0.012147664028407251 0 0 0 0.0057200267869399121 0.010743496539779886 -0.0066795554559585333 0 -0.0066795554559585333 0.011741075510049159 0 0 0 0.0056211430124572664 0.011533435238475345 -0.0088885807055685342 0 -0.0088885807055685342 0.0092957537879748975 0 0 0 0.0052072972566125503 0.0028468748887695329 -0.009733574829093608 0 -0.009733574829093608 0.010484544704421422 0 0 0 0.0033328548982977414 0.0090088792117938993 -0.0088107362145171536 0 -0.0088107362145171536 0.010018446472544268 0 0 0 0.0047568314210845314 0.0075683649690621788 -0.010144952870767512 0 -0.010144952870767512 0.0064592797823432302 0 0 0 0.0035069111878513679 0.004076092134817931 -0.0099428792599996901 0 -0.0099428792599996901 0.0091164357923773087 0 0 0 0.0032981319817988117 0.0083138986764900794 -0.011047264363741968 0 -0.011047264363741968 0.0070493677406150146 0 0 0 0.0038408166042762856 0.0077495501583217941 -0.010544314425114547 0 -0.010544314425114547 0.0070989672036218532 0 0 0 0.0037121293404859118 0.0067315186992654846 -0.01113189750045853 0 -0.01113189750045853 0.0088515668230068623 0 0 0 0.0038957713805680833 0.015114716036289652 -0.0089608409485742516 0 -0.0089608409485742516 0.0071891673205642381 0 0 0 0.005575970839213476 0.012077507272307844 -0.01002810424513717 0 -0.01002810424513717 0.0097395235901610415 0 0 0 0.0054542577156172362 0.011211501023305537 -0.0098045932790706281 0 -0.0098045932790706281 0.0069543480029620741 0 0 0 0.0045414622565668888 0.012255830147525085 -0.0097488232061838792 0 -0.0097488232061838792 0.0059293377822786653 0 0 0 0.004546291982450934 0.012721531733366733 -0.010017203414192904 0 -0.010017203414192904 0.0065603342232837709 0 0 0 0.004820466489162646 0.010582653527581393 -0.0062041823474193181 0 -0.0062041823474193181 0.0023898781069365826 0 0 0 0.0032431329086294869 0.0085359772028306136 -0.0096983493495747253 0 -0.0096983493495747253 0.0047145681197325873 0 0 0 0.0033126363306408002 0.012297116232215605 -0.0084518537502084462 0 -0.0084518537502084462 0.004969075659031319 0 0 0 0.0043165479728117517 0.0066124215437023126 -0.010420874983386508 0 -0.010420874983386508 0.0091367957045680459 0 0 0 0.0039373043120675966 0.0093619430894407718 -0.010131217597587248 0 -0.010131217597587248 0.0065534181478157927 0 0 0 0.0039788403093141134 0.0068990790463899984 -0.011129559732920236 0 -0.011129559732920236 0.0070726819696720067 0 0 0 0.0034929402540154961 0.0072891966200430008 -0.009485709267038539 0 -0.009485709267038539 0.0055984102639348166 0 0 0 0.0032219017209944439 0.0077919764295778376 -0.010098512622857214 0 -0.010098512622857214 0.0091575853987265199 0 0 0 0.0042373904570760929 0.0085669935961012467 -0.0099482149630688438 0 -0.0099482149630688438 0.0093492675638753298 0 0 0 0.0044790652899941441 0.0091420981332689111 -0.0096202909204408243 0 -0.0096202909204408243 0.01432094847328591 0 0 0 0.0058657616516386846 0.0066971741842657972 -0.010268100069770247 0 -0.010268100069770247 0.013175199980860919 0 0 0 0.0049680935412816651 0.0073448048644793873 -0.0099796055439349274 0 -0.0099796055439349274 0.011889763375091567 0 0 0 0.0048086420598927315 0.0094502198441951679 -0.0073016596261791748 0 -0.0073016596261791748 0.021819892445032851 0 0 0 0.0078175280723070117 0.040814682972710736 -0.0081281348872914161 0 -0.0081281348872914161 0.020929558012696303 0 0 0 0.015436060246351746 0.010310568240028593 -0.0057957225190774031 0 -0.0057957225190774031 0.030875009766372846 0 0 0 0.010296394501600362 0.012941865306256517 -0.008274826895508916 0 -0.008274826895508916 0.022986268443883739 0 0 0 0.0089820334375350641 0.029200289877935104 -0.010440828994832896 0 -0.010440828994832896 0.023200627906944771 0 0 0 0.013100229446219858 0.030833757604323081 -0.0085706281137446494 0 -0.0085706281137446494 0.019362068907697871 0 0 0 0.012548956628005203 0.043418832046050376 -0.0063472516114925492 0 -0.0063472516114925492 0.017136030515484235 0 0 0 0.015138715640383632 0.0013973130998944754 -0.0084318841656909616 0 -0.0084318841656909616 0.018876031344091132 0 0 0 0.0050683361109964235 0.0081867040531420267 -0.0051258055110821937 0 -0.0051258055110821937 0.024512800141658277 0 0 0 0.0081748760487000763 0.034770412421960106 -0.0071557761247310475 0 -0.0071557761247310475 0.017182539177633571 0 0 0 0.012988237899898447 0.030904132473386858 -0.010645674931469257 0 -0.010645674931469257 0.008489224366017234 0 0 0 0.0098483392098510092 0.047153606306181622 -0.0062407039974644585 0 -0.0062407039974644585 0.013480514576031166 0 0 0 0.015158530220553218 -0.00086168333799470365 -0.0082697850182206628 0 -0.0082697850182206628 0.013319290766289932 0 0 0 0.0031144018570738036 0.0026569460910740618 -0.010847314847768963 0 -0.010847314847768963 0.0080671416064696522 0 0 0 0.0026810219243859242 0.0019892809708908499 -0.010566027666609079 0 -0.010566027666609079 0.0099759038022956825 0 0 0 0.002991296193296647 0.0051432824688234374 -0.008742532785166679 0 -0.008742532785166679 0.015389749965479871 0 0 0 0.0051332581085758167 
</DataArray>
<DataArray type="Float64" Name="cross_section_updated" format="ascii">
1 1 1 1 1 1 1 1 1 1 1 1 1 1 1 1 1 1 1 1 1 1 1 1 1 1 1 1 1 1 1 1 1 1 1 1 1 1 1 1 1 1 1 1 1 1 1 1 1 1 1 1 1 1 1 1 1 1 1 1 1 1 1 1 1 1 1 1 1 1 1 1 1 1 1 1 1 1 1 1 1 1 1 1 1 1 1 1 1 1 1 1 1 1 1 1 1 1 1 1 1 1 1 1 1 1 1 1 1 1 1 1 1 1 1 1 1 1 1 1 1 1 1 1 1 1 1 1 1 1 1 1 1 1 1 1 1 1 1 1 1 1 1 1 1 1 1 1 1 1 1 1 1 1 1 1 1 1 1 1 1 1 1 1 1 1 1 1 1 1 1 1 1 1 1 1 1 1 1 1 1 1 1 1 1 1 1 1 1 1 1 1 1 1 1 1 1 1 1 1 1 1 1 1 1 1 1 1 1 1 1 1 1 1 1 1 1 1 1 1 1 1 1 1 1 1 1 1 1 1 1 1 1 1 1 1 1 1 1 1 1 1 1 1 1 1 1 1 1 1 1 1 1 1 1 1 1 1 1 1 1 1 1 1 1 1 1 1 1 1 1 1 1 1 1 1 1 1 1 1 1 1 1 1 1 1 1 1 1 1 1 1 1 1 1 1 1 1 1 1 1 1 1 1 1 1 1 1 1 1 1 1 1 1 1 1 1 1 1 1 1 1 1 1 1 1 1 1 1 1 1 1 1 1 1 1 1 1 1 1 1 1 1 1 1 1 1 1 1 1 1 1 1 1 1 1 1 1 1 1 1 1 1 1 1 1 1 1 1 1 1 1 1 1 1 1 1 1 1 1 1 1 1 1 1 1 1 1 1 1 1 1 1 1 1 1 1 1 1 1 1 1 1 1 1 1 1 1 1 1 1 1 1 1 1 1 1 1 1 1 1 1 1 1 1 1 1 1 1 1 1 1 1 1 1 1 1 1 1 1 1 1 1 1 1 1 1 1 1 1 1 1 1 1 1 1 1 1 1 1 1 1 1 1 1 1 1 1 1 1 1 1 1 1 1 1 1 1 1 1 1 1 1 1 1 1 1 1 1 1 1 1 1 1 1 1 1 1 1 1 1 1 1 1 1 1 1 1 1 1 1 1 1 1 1 1 1 1 1 1 1 1 1 1 1 1 1 1 1 1 1 1 1 1 1 1 1 1 0.0020165663920545546 1 1 0.0020435054634424569 1 1 0.0020634814613646434 1 1 1 1 1 1 1 1 1 1 1 1 1 0.0020830336453327844 1 1 1 1 1 0.0021035326158533765 1 1 1 1 1 1 1 1 1 1 1 1 1 1 1 1 1 1 1 1 1 1 1 1 1 1 1 1 1 1 1 1 1 1 1 1 1 1 1 1 1 1 1 1 1 1 1 1 1 1 1 1 1 1 1 1 1 1 1 1 1 1 1 1 1 1 1 1 1 1 1 1 1 1 1 1 1 1 1 1 1 1 1 1 1 1 1 1 1 1 1 1 1 1 1 1 1 1 1 1 1 1 1 1 1 1 1 1 1 1 1 1 1 1 1 1 1 1 1 1 1 1 1 1 1 1 1 1 1 1 1 1 1 1 1 1 1 1 1 1 1 1 1 1 1 1 1 1 1 1 1 1 1 1 1 1 1 1 1 1 1 1 1 1 1 1 1 1 0.0021252948771642672 1 1 1 0.0021486998381864491 1 1 0.002173645380600258 1 1 1 1 1 1 1 1 1 1 1 0.0022005205632454959 1 1 1 1 0.0022301199529068411 1 1 1 1 1 1 1 1 1 1 1 1 1 1 1 1 1 1 1 1 1 1 1 1 1 1 1 1 1 1 1 1 1 1 1 1 1 1 1 1 1 1 1 1 1 1 1 1 1 1 1 1 1 1 1 1 1 1 0.0010318944088209942 1 1 1 1 1 1 1 1 1 1 1 1 1 1 0.0010476360520831514 1 1 0.001039175405489162 1 0.0010576091347255573 1 1 1 1 1 1 1 1 1 1 1 1 1 0.001069393240926444 1 1 1 1 1 1 1 1 1 1 1 1 1 1 1 1 1 1 1 1 1 1 1 1 1 1 1 1 1 1 1 1 1 1 1 1 1 1 1 1 1 1 1 1 1 1 1 1 1 1 1 1 1 1 1 1 1 1 1 1 1 1 1 1 1 1 1 1 1 1 1 1 1 1 1 1 1 1 1 1 1 1 1 1 1 1 1 1 1 1 1 1 1 1 1 1 1 1 1 1 1 1 1 1 1 1 1 1 1 1 1 1 1 1 1 1 1 1 1 1 1 1 1 1 1 1 1 1 1 1 1 1 1 1 1 1 0.0010043920296226268 1 1 0.0010110810896824371 1 0.0010156749755559943 1 1 1 1 1 1 1 1 1 1 1 1 1 1 1 1 1 1 1 1 1 1 1 1 1 1 1 1 1 1 1 1 1 1 1 1 1 1 1 1 1 1 1 1 1 1 1 0.0010257232690809657 1 1 1 1 1 0.0010204224051161977 1 1 1 1 1 1 1 
</DataArray>
<DataArray type="Float64" Name="displacement_divergence" format="ascii">
-1.3874712471451731e-05 -1.5873667654634641e-05 -1.1975403078367441e-05 -1.4147965362198808e-05 -1.4028248163792552e-05 -1.402169422983401e-05 -1.2985594643111879e-05 -1.326186970744066e-05 -1.2495859789312671e-05 -9.6269414759601422e-06 -1.3970808715615887e-05 -9.1191345897010668e-06 -1.6943233939344123e-05 -1.2801536635840387e-05 -2.0140471826728109e-05 -1.551699629554247e-05 -1.3465631691347568e-05 -1.4651745421533788e-05 -2.6025286085555698e-06 -4.3333572752729759e-06 -4.7450928609430048e-06 -8.0317367795887279e-06 -9.2309946368140781e-06 -5.8348210397601682e-06 -6.8398816642284269e-06 -8.4764526715646728e-06 -9.3249117809991493e-06 -8.3042393261248363e-06 -3.82095425330377e-06 -4.3113841455055901e-06 -2.4019145908004796e-06 -4.4315616487307843e-07 -1.2398208541293445e-06 -9.8092018382461903e-07 -4.6753035841345616e-06 -9.4232193520866326e-06 -7.6882278238499867e-06 -4.9039101576701954e-06 -8.7800206568135169e-06 -1.048738898544708e-05 -7.7864851962644691e-06 -5.396221922581393e-06 -4.9977696022169568e-06 -1.46139341509283e-06 -5.4597355469592068e-06 -3.559603275065052e-06 1.7057690971197559e-06 -1.1500353287120568e-06 -2.0575486502372715e-05 -1.5596495581595832e-05 -2.319926578450564e-05 -1.5065148285710953e-05 -1.1954417181832954e-05 -1.3216484061475433e-05 -1.3448079197620222e-05 -1.4940790542325225e-05 -1.114992201964996e-05 -1.6396674227935415e-05 -1.3256396085051718e-05 -1.5233742316674348e-05 -2.2264448234142551e-05 -2.0873212454072968e-05 -1.9589031869256893e-05 -2.6914790176814578e-05 -2.8927916716428576e-05 -2.046897881142688e-05 -2.4249907019924795e-05 -3.2900990740404911e-05 -2.5102682724152377e-05 -2.6498967861355181e-05 -2.6408403577342574e-05 -3.8299827010443404e-05 -1.5271923794694752e-05 -1.244634218330547e-05 -1.9712409860593788e-05 -1.9038074461978382e-05 -1.2305467017448407e-05 -2.1164459337852588e-05 -1.8971278638935674e-05 -1.5980350793367281e-05 -1.1804018806444816e-05 -7.851632797131965e-06 -7.6989516161738748e-06 -6.6790091243962111e-06 -3.7838721935769977e-06 -1.2530728246140329e-05 5.2881450619686297e-07 -1.526101723543304e-06 -1.921919041885731e-06 3.8399435014910754e-06 1.2949321513498775e-06 -4.3425378039526439e-07 4.5844008139732002e-06 6.0900480279377341e-06 -7.1257130645668177e-06 -1.038244628741422e-05 -2.0822952173377716e-06 -4.1639666789551337e-06 -5.6556248598301746e-06 -8.0966051262798189e-06 -1.8510405080993363e-06 -7.9523759999039766e-06 1.2990613800803081e-05 -6.0473059643091778e-07 4.6710264939565951e-06 7.9315371573020259e-06 1.39914556422859e-05 1.0345511569385686e-05 9.861538565942012e-06 1.0829072355896178e-05 2.2541422716791258e-05 -3.4586999194962417e-06 2.5025776133369933e-06 2.5452830434266653e-06 -7.7041253205662949e-06 -1.0372920153503124e-05 -1.694941393158015e-05 -1.9809054273339339e-05 -2.4857064183941259e-05 -2.8824769174683914e-05 -4.0709928003441228e-05 -2.9579245924713735e-05 -2.9593410347316483e-05 -3.1631548348705929e-05 -2.4908004267812963e-05 -4.0250242206253496e-05 -2.838837966082734e-05 -1.8199254345672514e-05 -1.2891299407691683e-05 -2.0879716682889709e-05 2.3252895971509008e-05 1.9502717641005029e-05 1.7461085458928025e-05 1.9059651704572914e-05 2.2552923594216325e-05 2.6949578690362047e-05 2.3078855063220625e-05 2.217707097612541e-05 2.3566956909567749e-05 2.2540775705724414e-05 1.773690673270582e-05 2.1380631998019133e-05 1.995688237663799e-05 2.0684815358737471e-05 2.1375847415895483e-05 4.4032538608867685e-05 1.8171398790963901e-05 3.0369663702108314e-05 1.8569683234042176e-05 3.9728843295232984e-05 2.701920607454677e-05 3.9794671388728459e-05 2.2388295542488109e-05 1.881660872388027e-05 2.449319200685607e-05 1.4591413815750102e-05 1.5051131403901751e-05 2.1753729524999719e-05 1.5987315591922015e-05 2.2385305449959166e-05 1.265982952105189e-05 1.9973279898775208e-05 1.5089807114052934e-05 1.4201965367233804e-05 9.5438819291896949e-06 1.1550147429938545e-05 1.1864882890881281e-05 1.1225195191241352e-05 6.1910393902157093e-06 8.2114212362872045e-06 7.1162052578527899e-06 4.9193926302139567e-06 2.8311182142260876e-06 1.1914501053378829e-05 1.0783016794180848e-05 1.0090287752434861e-05 8.6543639991951471e-06 1.250611282133978e-05 1.1440785516964468e-05 1.5387798703315955e-05 1.4740058134801018e-05 1.4411775960448492e-05 1.6389727796421902e-05 1.4082672332348366e-05 1.9893637680805479e-05 1.8271445442774068e-05 1.6474178981261905e-05 2.1376287343581875e-05 1.5413899194716394e-05 2.7980799123562522e-05 1.9299184881503772e-05 2.4146974105107627e-05 1.8402608036424681e-05 2.1924097822995142e-05 2.3513085071533798e-05 1.775928548357689e-05 1.9298206748966719e-05 1.9428240644610803e-05 1.6513292144203485e-05 1.3206250466702041e-05 1.5554047381736081e-05 1.5225419834411947e-05 1.1946813347856534e-05 1.0650278915197658e-05 1.2587437246298664e-05 1.367704251018957e-05 1.1818814396943916e-05 1.1757946013111938e-05 9.3118713950177168e-06 1.3154187275492878e-05 1.2603005419029035e-05 1.4819778152139248e-05 1.3573456932946446e-05 1.3769711372910827e-05 3.3601927641926035e-06 5.2254494103183686e-06 2.6090584042982501e-06 6.6778278156575318e-06 6.9705501412608846e-06 8.1542731628204681e-06 8.866285668309977e-06 9.7985760244208737e-06 9.132638458658934e-06 7.7307878286432945e-06 9.1034502206748494e-06 6.8848882894133005e-06 5.6980536064760412e-06 2.7800210844633926e-06 2.273332155257973e-06 2.2084409621115077e-06 -4.8454066111453599e-07 1.2542621254837305e-06 -3.9025665798350954e-07 1.3754409176319032e-06 4.2732883359597662e-06 4.0758784816542088e-06 4.7208210110091055e-06 6.3430909928824218e-06 6.8956365257352449e-06 8.7933650474345807e-06 7.8990219167390146e-06 6.3041740690348626e-06 6.660194889427654e-06 2.9050027302804015e-06 2.0904246010451974e-06 -8.2104432696053994e-07 1.3242699584025844e-05 1.2733260626440537e-05 1.0929703708019157e-05 1.1127422832640665e-05 9.6455728503657624e-06 1.1370157530107487e-05 1.0795500951299625e-05 9.5353658527811867e-06 1.3312307566847708e-05 1.1503126769092805e-05 1.4250012674914987e-05 1.1604024792084353e-05 1.2666681473683926e-05 1.4889764586894744e-05 1.297469842814948e-05 1.7293171007499941e-05 1.2274244295614379e-05 1.5185517444721678e-05 1.4335956180247055e-05 1.4181841342780904e-05 1.2694736022236813e-05 1.5345778216029175e-05 1.2712436446068001e-05 1.2423951260438814e-05 1.1140679165816937e-05 1.3760823596663925e-05 1.3387411944149872e-05 1.7102265293528919e-05 1.6851311425674154e-05 1.2272374097806737e-05 1.3941899496201218e-05 1.341911904260734e-05 9.2374507812658846e-06 8.3280942110806115e-06 5.0917351721162409e-06 9.4858223787786363e-07 3.2886210236546742e-06 5.9090703321981924e-06 9.5705729009180455e-06 2.938967441856502e-06 7.3322348992288373e-06 1.0200647346117463e-05 1.2312057870182845e-05 1.2374814237625317e-05 1.0458606363458827e-05 1.4718927917344239e-05 7.1134020727710848e-06 5.1296983822216258e-06 8.4419963232487254e-06 9.2820229521028837e-06 2.2000708088066798e-06 6.9347335498041632e-06 1.1050441980357489e-05 8.0962769342729346e-06 1.654277596095308e-05 1.1481615066832509e-05 9.1366770708236406e-06 1.3333396914870858e-05 1.3432921403862011e-05 1.5655992425209203e-05 2.1378001725918248e-05 1.8293607543966462e-05 1.9690938606312223e-05 1.5793839470794564e-05 1.8096871317797685e-05 2.0821466169242859e-05 1.7052775572150338e-05 1.9452170909563512e-05 1.5354444523717958e-05 1.5092368865810455e-05 1.4288141250207443e-05 1.6362108192903401e-05 1.2800173033449064e-05 1.5601277308230176e-05 1.2695781118667785e-05 1.45708930289491e-05 1.3310688674982563e-05 1.4186199873391818e-05 1.6009877485906794e-05 -2.9608624794081135e-05 -2.0106663195268125e-05 -2.1583129425547035e-05 -1.7768642738402845e-05 -1.5125523429976762e-05 -1.7585854322629054e-05 -2.0431452567303787e-05 -1.8186381473097876e-05 -1.7396664004338314e-05 -1.5949066667095024e-05 -1.7176912214627406e-05 -1.7166986743791359e-05 -1.6252315250872783e-05 -1.0710710339812786e-05 -1.6150116431602759e-05 -2.4838352930638773e-05 -1.0300382788622841e-05 -1.9387848891312986e-05 -1.0464293906451348e-05 -9.5486579267555744e-06 -1.0334406015035521e-05 -8.8592105947990434e-06 -1.0212338062556391e-05 -4.8251027543102277e-06 -5.2963533186853522e-06 -2.7635996417950539e-06 -3.7252689349035071e-06 1.9337424020295891e-06 3.803108718010696e-06 -1.0049349507598303e-06 -2.6383284412598569e-06 -2.3824797792524464e-06 -9.5856058255110925e-08 4.1369168854098448e-06 -4.5046723344528645e-06 1.3301304614032051e-06 -2.0248282415207499e-06 -6.3297261601390605e-06 3.928769339829453e-06 -3.5672053579175554e-06 -2.2494708549482777e-06 -1.5608181282454245e-05 -1.2626926684396154e-05 -1.1480510299008269e-05 -2.8290634629290812e-06 -9.646081381930497e-06 -1.8234829063694292e-05 -1.4445765760637783e-05 -2.1895889203855814e-05 -1.6927017119841829e-05 -2.3421231041597615e-05 -1.2747402681488111e-05 -1.999187194588848e-05 -3.4528062358030502e-05 -3.7256689660663163e-05 -4.275022336093673e-05 -3.0367325894043267e-05 -3.5007665015667072e-05 -2.1921742229267928e-05 -3.1571711089022625e-05 -2.0453569237444703e-05 -4.6048288573774648e-05 -7.0894995983197557e-05 -4.2687415462548933e-05 -4.625728753389642e-05 -5.8471557419344653e-05 -4.9836022983441487e-05 -3.3076518276837056e-05 -3.9415909285368288e-05 -3.7913468958546042e-05 -2.2813455941423912e-05 -2.3510778090644901e-05 -1.8791147506483668e-05 -2.1267458881049226e-05 -3.0732471534552713e-05 -2.5425473814608863e-05 -3.5624646380285027e-06 2.223455293485329e-06 5.1652237533609142e-06 -1.8074177499023153e-05 -7.054401515941291e-06 -1.8859647626158786e-05 -1.0689960003395655e-05 -7.9152468765920805e-06 1.1587362712957013e-06 -8.6222887737293583e-06 6.194881438222272e-07 1.0501735688560136e-05 5.5843807343245636e-06 1.4056075073235411e-05 4.7593763422858258e-06 1.2256903354843694e-05 2.2272161973623966e-05 6.9395186643990941e-06 2.0269419523838309e-05 2.1474252832709573e-05 3.7929019648581762e-05 3.8185191340713105e-05 1.8046454254636019e-05 1.2654395048799728e-05 3.9210743104275975e-05 6.6407930628060687e-05 6.2891591845690069e-05 6.681344837500356e-05 4.4139779252153478e-05 2.9539893395129254e-05 3.6505878609063979e-05 2.4062564601770746e-05 7.0923311427646771e-06 -8.6994500085010905e-07 -1.6836919309196692e-06 -1.3629292247060784e-05 1.5261791458982426e-05 -1.0006949388230356e-05 -2.9118075670168903e-05 -3.4753774870826599e-05 -1.7321968663621312e-05 -2.8879640454554685e-05 -2.0011325836708372e-05 -4.4799053522501958e-05 -2.6676665798113473e-05 -3.3870203313559645e-05 -5.1342566555763632e-05 -5.1250954213656087e-05 -7.6799991719418129e-05 -5.4793446216947075e-05 -7.5970226183984431e-05 -5.8610211038073772e-05 -4.1845908332372937e-05 -5.010762313867182e-05 3.1337895135801381e-05 3.33538355209349e-05 3.5598052522964378e-05 3.2623095960755796e-05 3.0635699561823963e-05 2.624669749830709e-05 2.3448112144999789e-05 2.9271675768915697e-05 2.0532033976479358e-05 2.4309620278564508e-05 1.7245421303983448e-05 2.3555232465968303e-05 1.9976143855686305e-05 2.3967324897696426e-05 2.6063922597616906e-05 2.2759623744634e-05 1.9864104755481526e-05 1.5084543715412125e-05 2.3712958061137896e-05 2.2600625489022102e-05 2.7703814990437545e-05 1.519643749547042e-05 1.931627128159856e-05 2.5430133793459336e-05 3.0402367430898341e-05 3.985652910122083e-05 3.2284812095625438e-05 3.4712392867143198e-05 3.3026655720979473e-05 4.2036487932537224e-05 4.7753445344329002e-05 5.9760223707677962e-05 6.2581579857046157e-05 5.8097769953684031e-05 5.1899727747189075e-05 5.4123191091748568e-05 6.4771609693026975e-05 6.3739374580555098e-05 0.00011111742630548991 0.00013577943911097777 0.0001325802328965531 8.9716695660301506e-05 4.7018984545659425e-05 6.2876083639800217e-05 8.0226946221622066e-05 4.8103028120998867e-05 5.0522460536734408e-05 5.5107011447484283e-05 3.9318978309069929e-05 4.7825149874905018e-05 3.2473779129162214e-05 4.1154698237345566e-05 3.1729224552891425e-05 4.2627202820668338e-05 2.6523482406676065e-05 3.3657382762813035e-05 3.4999040682482748e-05 3.1370641376757219e-05 2.6610289865529848e-05 4.181007343158447e-05 2.7533954044225628e-05 2.5678059732868127e-05 3.1824651187546179e-05 2.2124684530843786e-05 1.7846829344628933e-05 2.4223826995134538e-05 2.4485403662926199e-05 1.6135780679810667e-05 2.6431319484491127e-05 1.9198389398147815e-05 2.4115144101156092e-05 3.9241659245672564e-05 3.6093344722694524e-05 3.2698940764100963e-05 3.6445277060781416e-05 4.8490071566981065e-05 5.1187615856624632e-05 6.0802170914646847e-05 0.00014301926797687702 2.2724922657174886e-05 5.8138639689561553e-05 0.00013894687888868241 7.9914685371960636e-05 0.0085342444543474762 0.00013473982921078222 6.9645451010843487e-05 0.02175580208426817 2.2867562134370244e-05 7.5330689573852974e-05 0.031797998512526106 3.0738909847923175e-05 5.5182813958216449e-05 2.0121566662632148e-05 3.2098049597137341e-05 2.8537418815549544e-05 2.5365032981889177e-05 2.4872814579065159e-05 3.8910625376184992e-05 4.1446674023994735e-05 2.7297232070896049e-05 5.1638843844583303e-05 6.6872792852732408e-05 7.8257932945976745e-05 0.041558654801835397 7.5105234479963014e-05 6.7895601356273479e-05 5.7165488420952851e-05 7.7696011677753311e-05 5.4191991415058539e-05 0.051809582642537884 6.6280426603708247e-05 3.1899928555323453e-05 2.3806627576190419e-05 4.7390491660808629e-05 3.1776702017849033e-05 3.6066952141375905e-05 2.0614474123203876e-05 1.8564155875233179e-05 2.2180598443046248e-05 1.6685017246101201e-05 1.5561301034490557e-05 1.0210671518737815e-05 1.229063059863118e-05 1.2595070696937518e-05 1.4603160920379582e-05 1.6221815633147413e-05 1.2011161323774574e-05 1.7818795694263311e-05 1.5495398657669352e-05 1.6871372086793304e-05 1.850182467584632e-05 2.1565811132241589e-05 -4.9643221052772372e-05 -6.0748102389809747e-05 -3.8976644881533618e-05 -7.348006337222089e-05 -7.0615245016805565e-05 -4.5358753616165032e-05 -4.946528980984572e-05 -3.0190579881973095e-05 -1.7447518039861982e-05 -3.0406725770120401e-06 -2.1993877180437544e-05 -1.6430116161381217e-05 -3.263602610951424e-05 -1.3731136067573991e-05 1.8672845488242474e-05 3.954174670159653e-06 3.4068771224584656e-05 3.19453251479071e-06 -1.2945602329755509e-05 1.3422748755382533e-05 1.347084814672171e-05 4.6992345683373568e-05 7.2774311868023544e-05 5.6923099135438848e-05 6.3756304259413851e-05 3.0056905045731486e-05 4.258624375226932e-05 5.153183398435234e-05 2.3110819345883256e-05 2.393686167060185e-05 4.0855103973637874e-05 4.2322258045404183e-05 4.5601189242374307e-05 3.7026231934044745e-05 2.3886625679341218e-05 2.3085175018876507e-05 6.4456377514704726e-06 7.9456106716620071e-06 5.792224573116303e-06 -8.0388693402876164e-06 7.3788604873930869e-06 1.096841413528426e-05 -2.8149875591037925e-06 -6.8000514665617821e-06 -2.0126888886463435e-05 -2.4114940451574479e-05 -2.4627146522455132e-05 -2.2034277024241206e-05 -1.075150826696002e-05 -1.0508648518907523e-05 -1.5776655046460619e-05 -2.2769878763065745e-05 -2.8615580269938934e-05 -4.1259117550798176e-05 -2.4654941450558609e-05 -3.2550840232698419e-05 -5.3830534565012743e-05 -3.8647389455030452e-05 -4.0314696560973676e-05 -6.1153270923534382e-06 -2.0302620758426253e-05 -9.8479277770922424e-06 -2.0890402396053082e-05 -2.1269154010749441e-05 -3.2718883705552468e-05 -2.8041538477906712e-05 -2.2430200941244045e-05 -1.5623967053680389e-05 -1.3514715393716115e-05 -1.0440076302463495e-05 -4.9756504107308606e-06 -5.8642910361807882e-06 -1.1856970056845265e-05 -3.7461612436504315e-06 4.7453447816286042e-06 5.468312847575112e-06 1.3659636895306526e-05 -4.843954503652801e-06 -6.4737717186528522e-06 3.5475340006901413e-06 5.2829054000484536e-06 1.189803223778773e-05 6.5716538914404807e-06 2.54986102145114e-05 2.7487402457331868e-05 2.1152962109328381e-05 3.1485483355303307e-05 4.9831368432041567e-05 2.9937975046066302e-05 4.1866459960488312e-05 1.8683081546480842e-05 2.2057641779876281e-05 3.8715346117643157e-05 1.7625370166643711e-05 4.1429801935545258e-05 2.249779725048244e-05 4.2979356128508908e-05 4.3104556112579461e-05 1.3321607092048673e-05 3.1157416056403278e-06 -4.3079307880059675e-07 -7.506563990194396e-06 -6.8597887668674778e-06 2.4114185428847183e-06 1.0902030548619324e-05 2.4846268480210529e-06 1.5204456957852632e-05 -6.0798129028220762e-06 -1.2834059363904179e-05 -4.3327325479325905e-06 -3.5291419692765578e-06 -9.6821306705277901e-06 -1.2536229993091036e-05 -6.5371591929175646e-06 -1.1514536931286554e-06 -5.503539759165333e-06 -5.7869453169798885e-06 -1.4045301613575117e-06 -9.7177786571086416e-07 -1.9088297914726313e-06 3.825387232649427e-07 -4.0499925156056195e-06 -6.8944536947865113e-06 -1.4523143752396064e-05 9.3411859088508723e-06 2.2828936955243554e-05 2.334948559771751e-05 1.2328324325874894e-05 2.5037401707317612e-06 1.7939562334411043e-06 -2.29010098519054e-07 7.5824735382673373e-06 6.2430359613758189e-06 7.0548266897274737e-06 1.5152295070259994e-05 1.3915712470851554e-05 8.8917977615490611e-06 1.8739218995708867e-05 2.2802097541044621e-05 3.4136537114510569e-05 5.8720106412390923e-05 6.9490754832348984e-05 4.1240828906509463e-05 6.1946564798548757e-05 8.7514888835795671e-05 6.5892466379033658e-05 0.062695565068916062 4.8940230926951744e-05 7.7801871903731678e-05 7.1383583823209779e-05 0.074383067889136734 7.8970498656513364e-05 8.6884172890055317e-05 0.08692551603959861 6.4513893162464436e-05 3.7865718548270679e-05 7.6330736779224541e-05 3.0863385867559048e-05 4.6189247156367937e-05 4.5791198362892188e-05 3.3229301907122569e-05 9.1461054223806798e-05 9.0741991595571689e-05 5.3775503422343979e-05 9.768823708172043e-05 0.10013774615414557 0.00011481815050254043 0.00010616236009536739 7.546980395526379e-05 8.8426656748055526e-05 0.11586138328380241 0.00013424584054173069 9.4361394790454071e-05 2.1255337250984706e-05 9.4349398670066334e-05 0.00012641645370164913 7.7344592475792626e-05 3.3467116734703091e-05 -1.5588574669228464e-05 -4.0255537612908943e-06 -2.2006419253766557e-05 9.8368554410533261e-06 -5.7503512549012545e-06 -7.1447206687513982e-07 9.9222207245979458e-06 1.3994124279647149e-05 -1.0435311470361375e-05 -1.5960220522425907e-06 -1.5841877209947747e-05 -5.8501132426436083e-06 -1.1877973554276782e-05 -2.0628985289885074e-05 -3.727527578376022e-05 -2.1552445140459635e-05 -3.7615559738346234e-05 -2.4237576174867019e-05 -1.716547889478757e-05 -2.4922219386791004e-05 -1.077495334478513e-05 -2.4739907068135096e-05 -1.6404326401397691e-05 3.1171359303123255e-06 -1.3259939742447761e-05 -3.6568052480287863e-06 4.7995848538535989e-06 3.0174623152560802e-06 -1.1771508810988235e-05 -5.4590339757320345e-06 -7.4322506018689337e-06 -2.8961424792537445e-06 2.4012242289544886e-06 2.9636517588258696e-07 3.1659344214319011e-06 -2.0572276000562851e-06 8.0162550809744762e-07 -1.257795596657299e-06 4.8291159514345067e-06 1.407304790709352e-05 6.1036180889663264e-06 6.4414094562165874e-06 6.8467516805155698e-06 1.2764147997267885e-05 8.3299072443295086e-06 6.7269591296841794e-06 8.5589555598885875e-06 4.3701858417571448e-06 5.2644454777360696e-06 4.862238880143214e-06 3.848952483124406e-05 0.031917056690679818 4.2491980137645169e-05 3.0754761594440722e-05 2.4368589129704365e-05 1.2454079324602903e-05 1.6453437991012856e-05 1.3429507737512485e-05 3.4169310092597505e-05 2.1825213509601873e-05 2.6652942300570012e-05 1.486154986239446e-05 4.2977299573702683e-05 5.3397042344588018e-05 3.6890949127051185e-05 3.4075524375972062e-05 0.047679110407711243 4.2988582560179718e-05 4.5404176688986549e-05 0.039198900989015732 5.3796876337557043e-05 0.057618223773184096 6.9519486061984915e-05 6.0233825909642906e-05 4.1755032600191084e-05 1.9043261652798278e-05 2.475479795784627e-05 5.4132366416334262e-05 3.1258540557835708e-05 6.3450804043306487e-06 5.6119234672970058e-05 7.7841383126684948e-05 4.4109739917709101e-05 1.5804252355098521e-05 5.2614289705978697e-05 0.069588093653968716 8.3280975606267894e-05 5.663363431858328e-05 2.5870112488643395e-05 6.5579030502755341e-06 1.2879328968067993e-05 2.3081109130933963e-05 -9.1919893607317685e-07 -6.7107418915432569e-06 -6.345204918325846e-07 -5.4121860892223685e-06 5.8071061205058633e-06 -4.8417041860634134e-07 4.9862435408929741e-07 5.9780308833308482e-06 1.8587724550386299e-05 2.4012555123590663e-05 7.4025323927069003e-06 2.8608148717676474e-07 -1.1498216787972533e-06 -6.1562227372958981e-07 -8.3826729651908724e-07 -3.949061546294156e-06 -3.8094205900532536e-06 -8.3088424424624177e-07 -4.2973167255705783e-06 -8.5142813793637603e-06 -7.0838272962515372e-06 -5.7747465085365756e-06 -9.2690181360702371e-06 -3.2922043970758249e-06 -2.32820039075066e-06 -4.8782808278576755e-06 -9.171102151292666e-06 -2.5292177683496064e-06 -1.2871250284948168e-05 -4.2295107240655945e-06 -6.5876252744701772e-06 -1.3542126022578319e-05 -9.1998849101451513e-06 -2.1840298722250462e-06 -3.621605114943055e-06 -3.7873382062842634e-06 -9.4540710747713884e-06 -8.0198867753334676e-06 -1.7931273756878387e-06 -1.027850071133585e-05 -1.3170892041369548e-05 -1.6720373028634365e-05 -1.4604849927225372e-05 -2.1645901133041383e-05 -1.4192968807032972e-05 1.5031292675816293e-05 8.9387379423925238e-06 2.2161762791433242e-05 1.1637949334749372e-05 3.5381632284962362e-07 5.7079546435896342e-07 7.3468234796825356e-06 6.6246702246025926e-06 1.3548084398989696e-06 -3.8792982892720072e-07 1.4160929050026621e-06 1.463346908309876e-05 9.2323452151631732e-06 2.5236706666272035e-05 1.9616462093148437e-05 2.3890848597246553e-05 1.6419117338712795e-05 1.8695722443524813e-05 2.1970256600177692e-05 9.9192562324442769e-06 1.138113496481182e-05 7.5036827453633503e-06 -5.6905151628371207e-07 -2.2611388585849334e-06 7.9458080280855555e-06 1.4218340805660472e-06 6.8180162728914695e-06 -2.315808654864283e-06 8.7240964613489926e-07 1.8547232446911624e-05 2.2223060213817148e-05 2.0473898453827848e-05 8.3747519437367803e-06 1.6538149504554539e-05 -2.1227730158782359e-05 -2.5387394382804042e-05 -2.2317981181253321e-05 -2.6668431844069709e-05 -1.7697191925244906e-05 -9.8603441073186388e-06 -1.5405684698477514e-05 -8.3666648875013326e-06 -7.8898686302654453e-06 -9.830540901390036e-06 -7.6700329161972653e-06 -6.6768270236420083e-06 -1.2453400092720687e-05 -1.6938726122884347e-05 -1.7535165106768698e-05 -1.7984433755855855e-05 -2.5085000811683533e-05 -2.5094024466751759e-05 -3.1390724692165065e-05 -4.0268396563253902e-05 -3.4852562671017673e-05 -2.8650975834502713e-05 -2.3986583072935566e-05 -1.9878106111169305e-05 -9.3711362309194376e-06 -9.9697986404479084e-06 -5.7824375719980783e-06 -1.5172907206181579e-05 -1.3306912154776608e-05 -1.7856911683426845e-05 -1.9678915169886186e-05 -2.8483221180863384e-05 -2.5753252370197916e-05 -3.8325791297332451e-05 1.1563604692349925e-05 2.7549641014073937e-05 1.1203164714144174e-05 6.6139937305685756e-06 -2.534165822583583e-06 1.0118003115990092e-06 9.4158076809933524e-06 2.8689123235438058e-06 -1.086849148015229e-05 -5.0388930033164094e-06 1.3972343728266344e-06 1.4131113179139987e-05 1.5434845873921676e-05 2.8952385745395021e-05 4.9216297809837864e-05 -5.1126385176535874e-06 6.4187966908708157e-05 0.0044180978211628549 2.8239764134375064e-05 2.8291786147406454e-05 0.011092655193330386 4.3437314305062999e-05 0.015688615434118494 3.3339603394564145e-05 2.7521543658748902e-05 4.6757739604330606e-06 1.8626305291003978e-06 5.9656820910457828e-06 -6.4806238303476957e-06 1.0438929895487608e-05 4.9362454803012423e-07 2.0423546807773679e-05 1.224524709711198e-05 8.5611764524463923e-06 1.7756257406637615e-05 1.6321075887898418e-05 2.1059324631876986e-05 2.3723716910270352e-05 2.3681481568851466e-05 1.8976753953808795e-05 1.6797293412356215e-05 1.4300066967349819e-05 1.4052857531143148e-05 1.301824314153138e-05 8.3321372457443452e-06 1.1892078552711347e-05 8.767277969628373e-06 8.2453299544970606e-06 9.6020415106907119e-06 9.2803233512148012e-06 9.7394284514201583e-06 1.3939927098033681e-05 1.363564428904304e-05 1.1353655641417241e-05 1.1365729956127333e-05 1.2051166222906618e-05 8.1078322715737432e-06 8.2815908266020092e-06 1.0791369932029358e-05 9.8432607801690456e-06 9.9471007732853376e-06 8.7323506350387215e-06 8.0547543024861012e-06 1.0593476142690202e-05 1.1197663224985356e-05 1.4664404129096785e-05 1.2420233853204128e-05 1.2021605149731892e-05 1.9543820180767553e-05 3.8590150615879599e-05 0.025740986254000904 2.2455083593837636e-05 3.2750573615549818e-05 3.1372391570013065e-05 3.7846789100959071e-05 1.2670840277490992e-05 0.020437190121750187 3.2470594749746027e-05 2.4620848024627454e-05 3.7896325551382989e-05 7.7860046426845078e-06 6.70255481096478e-06 7.478240483241602e-06 1.2833145271439562e-05 
</DataArray>
</CellData>
</Piece>
</UnstructuredGrid>
</VTKFile>
