<?xml version="1.0"?>
<VTKFile type="UnstructuredGrid" version="0.1" byte_order="LittleEndian">
<UnstructuredGrid>
<Piece NumberOfPoints="902" NumberOfCells="306">
<Points>
<DataArray type="Float64" NumberOfComponents="3" format="ascii">
0 0 0 0.073205080756622284 0.073205080756783406 0 0.099999999999814668 0 0 0 0 0 0 0.10000000000041601 0 0.073205080756622284 0.073205080756783406 0 0 0.10000000000041601 0 0.073205080756622284 0.073205080756783406 0 0.091402515083494409 0.15708578875639231 0 0.073205080756622284 0.073205080756783406 0 0.091402515083494409 0.15708578875639231 0 0.15027753147047779 0.085031708671012771 0 0.073205080756622284 0.073205080756783406 0 0.099999999999814668 0 0 0.15027753147047779 0.085031708671012771 0 0 0.20000000000083221 0 0.091402515083494409 0.15708578875639231 0 0.081883829897837504 0.25483250623203502 0 0 0.10000000000041601 0 0 0.20000000000083221 0 0.091402515083494409 0.15708578875639231 0 0.091402515083494409 0.15708578875639231 0 0.15549563120825899 0.22728761896597441 0 0.081883829897837504 0.25483250623203502 0 0.091402515083494409 0.15708578875639231 0 0.15549563120825899 0.22728761896597441 0 0.19770415439635231 0.16188916215834151 0 0.091402515083494409 0.15708578875639231 0 0.19770415439635231 0.16188916215834151 0 0.15027753147047779 0.085031708671012771 0 0.19770415439635231 0.16188916215834151 0 0.24865572115759171 0.085435742792086475 0 0.29474128210898343 0.16200542811217281 0 0.15549563120825899 0.22728761896597441 0 0.19770415439635231 0.16188916215834151 0 0.25 0.25 0 0.19770415439635231 0.16188916215834151 0 0.29474128210898343 0.16200542811217281 0 0.25 0.25 0 0.099999999999814668 0 0 0.15027753147047779 0.085031708671012771 0 0.19999999999955789 0 0 0.19770415439635231 0.16188916215834151 0 0.15027753147047779 0.085031708671012771 0 0.24865572115759171 0.085435742792086475 0 0.15027753147047779 0.085031708671012771 0 0.24865572115759171 0.085435742792086475 0 0.19999999999955789 0 0 0.24865572115759171 0.085435742792086475 0 0.19999999999955789 0 0 0.29999999999926641 0 0 0.24865572115759171 0.085435742792086475 0 0.29999999999926641 0 0 0.34895628004087342 0.081718455239699395 0 0.29999999999926641 0 0 0.34895628004087342 0.081718455239699395 0 0.3999999999989749 0 0 0.24865572115759171 0.085435742792086475 0 0.34895628004087342 0.081718455239699395 0 0.29474128210898343 0.16200542811217281 0 0.29474128210898343 0.16200542811217281 0 0.3464199946918517 0.23853139853342401 0 0.25 0.25 0 0.29474128210898343 0.16200542811217281 0 0.3464199946918517 0.23853139853342401 0 0.40494618262236548 0.1650662896072117 0 0.34895628004087342 0.081718455239699395 0 0.29474128210898343 0.16200542811217281 0 0.40494618262236548 0.1650662896072117 0 0.3464199946918517 0.23853139853342401 0 0.40494618262236548 0.1650662896072117 0 0.42061435012922882 0.23794897811370561 0 0.42061435012922882 0.23794897811370561 0 0.49638486706945439 0.2121184447907791 0 0.48197160777613701 0.29296902118871587 0 0.40494618262236548 0.1650662896072117 0 0.42061435012922882 0.23794897811370561 0 0.49638486706945439 0.2121184447907791 0 0.40494618262236548 0.1650662896072117 0 0.49638486706945439 0.2121184447907791 0 0.49677298727352631 0.1419426259588793 0 0.40494618262236548 0.1650662896072117 0 0.49677298727352631 0.1419426259588793 0 0.44949959448178062 0.082308188761819806 0 0.49677298727352631 0.1419426259588793 0 0.44949959448178062 0.082308188761819806 0 0.54912436800118414 0.07923269986872096 0 0.44949959448178062 0.082308188761819806 0 0.49999999999869432 0 0 0.54912436800118414 0.07923269986872096 0 0.44949959448178062 0.082308188761819806 0 0.49999999999869432 0 0 0.3999999999989749 0 0 0.34895628004087342 0.081718455239699395 0 0.44949959448178062 0.082308188761819806 0 0.3999999999989749 0 0 0.34895628004087342 0.081718455239699395 0 0.40494618262236548 0.1650662896072117 0 0.44949959448178062 0.082308188761819806 0 0.4375 0.4375 0 0.375 0.375 0 0.37209049300057639 0.44668163221273938 0 0.4375 0.4375 0 0.45958432544769412 0.36572680929244022 0 0.375 0.375 0 0.4375 0.4375 0 0.375 0.375 0 0.4375 0.4375 0 0.37209049300057639 0.44668163221273938 0 0.41666666666666657 0.5 0 0.4375 0.4375 0 0.5 0.5 0 0.51443730641548846 0.4230626935845116 0 0.4375 0.4375 0 0.41666666666666657 0.5 0 0.5 0.5 0 0.4375 0.4375 0 0.5 0.5 0 0.4375 0.4375 0 0.45958432544769412 0.36572680929244022 0 0.51443730641548846 0.4230626935845116 0 0.45958432544769412 0.36572680929244022 0 0.48197160777613701 0.29296902118871587 0 0.53795066522196777 0.35232980433802918 0 0.45958432544769412 0.36572680929244022 0 0.48197160777613701 0.29296902118871587 0 0.39571815329053278 0.30366769536745408 0 0.3464199946918517 0.23853139853342401 0 0.42061435012922882 0.23794897811370561 0 0.39571815329053278 0.30366769536745408 0 0.42061435012922882 0.23794897811370561 0 0.48197160777613701 0.29296902118871587 0 0.39571815329053278 0.30366769536745408 0 0.45958432544769412 0.36572680929244022 0 0.39571815329053278 0.30366769536745408 0 0.375 0.375 0 0.375 0.375 0 0.3125 0.3125 0 0.29795246500288208 0.42090816106369688 0 0.39571815329053278 0.30366769536745408 0 0.375 0.375 0 0.3125 0.3125 0 0.375 0.375 0 0.3125 0.3125 0 0.3464199946918517 0.23853139853342401 0 0.39571815329053278 0.30366769536745408 0 0.3125 0.3125 0 0.3464199946918517 0.23853139853342401 0 0.3125 0.3125 0 0.25 0.25 0 0.3125 0.3125 0 0.25 0.25 0 0.2364851416377855 0.35196809740109009 0 0.3125 0.3125 0 0.25 0.25 0 0.3125 0.3125 0 0.29795246500288208 0.42090816106369688 0 0.2364851416377855 0.35196809740109009 0 0.375 0.375 0 0.29795246500288208 0.42090816106369688 0 0.37209049300057639 0.44668163221273938 0 0.37209049300057639 0.44668163221273938 0 0.33333333333333331 0.5 0 0.41666666666666657 0.5 0 0.29795246500288208 0.42090816106369688 0 0.37209049300057639 0.44668163221273938 0 0.33333333333333331 0.5 0 0.29795246500288208 0.42090816106369688 0 0.33333333333333331 0.5 0 0.25 0.5 0 0.20086089844078761 0.43409067997123951 0 0.16586218125878449 0.51810759034366505 0 0.25 0.5 0 0.29795246500288208 0.42090816106369688 0 0.20086089844078761 0.43409067997123951 0 0.25 0.5 0 0.29795246500288208 0.42090816106369688 0 0.20086089844078761 0.43409067997123951 0 0.2364851416377855 0.35196809740109009 0 0.20086089844078761 0.43409067997123951 0 0.2364851416377855 0.35196809740109009 0 0.15692990060445861 0.37320329292197801 0 0.20086089844078761 0.43409067997123951 0 0.15692990060445861 0.37320329292197801 0 0.097900886736469753 0.44336704329953031 0 0.20086089844078761 0.43409067997123951 0 0.097900886736469753 0.44336704329953031 0 0.16586218125878449 0.51810759034366505 0 0.25 0.25 0 0.2364851416377855 0.35196809740109009 0 0.16831836545025089 0.3000279332226779 0 0.15549563120825899 0.22728761896597441 0 0.25 0.25 0 0.16831836545025089 0.3000279332226779 0 0.15692990060445861 0.37320329292197801 0 0.16831836545025089 0.3000279332226779 0 0.08278240412540934 0.34553853769174547 0 0.2364851416377855 0.35196809740109009 0 0.15692990060445861 0.37320329292197801 0 0.16831836545025089 0.3000279332226779 0 0.15549563120825899 0.22728761896597441 0 0.16831836545025089 0.3000279332226779 0 0.081883829897837504 0.25483250623203502 0 0.16831836545025089 0.3000279332226779 0 0.081883829897837504 0.25483250623203502 0 0.08278240412540934 0.34553853769174547 0 0.08278240412540934 0.34553853769174547 0 0 0.30000000000124832 0 0 0.40000000000166441 0 0.081883829897837504 0.25483250623203502 0 0.08278240412540934 0.34553853769174547 0 0 0.30000000000124832 0 0 0.20000000000083221 0 0.081883829897837504 0.25483250623203502 0 0 0.30000000000124832 0 0.15692990060445861 0.37320329292197801 0 0.08278240412540934 0.34553853769174547 0 0.097900886736469753 0.44336704329953031 0 0.08278240412540934 0.34553853769174547 0 0.097900886736469753 0.44336704329953031 0 0 0.40000000000166441 0 0.097900886736469753 0.44336704329953031 0 0 0.50000000000205869 0 0.080137041737376596 0.54953170839333398 0 0.097900886736469753 0.44336704329953031 0 0 0.40000000000166441 0 0 0.50000000000205869 0 0 0.50000000000205869 0 0.080137041737376596 0.54953170839333398 0 0 0.60000000000138687 0 0.097900886736469753 0.44336704329953031 0 0.080137041737376596 0.54953170839333398 0 0.16586218125878449 0.51810759034366505 0 0.080137041737376596 0.54953170839333398 0 0.092210585188327809 0.65716922645417974 0 0.14738305403764121 0.59655284915259177 0 0.080137041737376596 0.54953170839333398 0 0 0.60000000000138687 0 0.092210585188327809 0.65716922645417974 0 0 0.60000000000138687 0 0 0.7000000000006934 0 0.092210585188327809 0.65716922645417974 0 0 0.7000000000006934 0 0.066835488316682207 0.74715275320363728 0 0.092210585188327809 0.65716922645417974 0 0 0.7000000000006934 0 0.066835488316682207 0.74715275320363728 0 0 0.79999999999999982 0 0.066835488316682207 0.74715275320363728 0 0.092210585188327809 0.65716922645417974 0 0.15793426029988769 0.74398998676447015 0 0.092210585188327809 0.65716922645417974 0 0.18829732063548599 0.66099398255167208 0 0.14738305403764121 0.59655284915259177 0 0.092210585188327809 0.65716922645417974 0 0.15793426029988769 0.74398998676447015 0 0.18829732063548599 0.66099398255167208 0 0.15793426029988769 0.74398998676447015 0 0.24021577238288039 0.73972629863776906 0 0.18829732063548599 0.66099398255167208 0 0.24021577238288039 0.73972629863776906 0 0.18829732063548599 0.66099398255167208 0 0.27431461370666999 0.65461381660647655 0 0.18829732063548599 0.66099398255167208 0 0.22112359218785299 0.58198260946245006 0 0.27431461370666999 0.65461381660647655 0 0.22112359218785299 0.58198260946245006 0 0.16586218125878449 0.51810759034366505 0 0.25 0.5 0 0.080137041737376596 0.54953170839333398 0 0.16586218125878449 0.51810759034366505 0 0.14738305403764121 0.59655284915259177 0 0.18829732063548599 0.66099398255167208 0 0.22112359218785299 0.58198260946245006 0 0.14738305403764121 0.59655284915259177 0 0.22112359218785299 0.58198260946245006 0 0.16586218125878449 0.51810759034366505 0 0.14738305403764121 0.59655284915259177 0 0.10000000000041601 1 0 0.073205080757192453 0.92679491924280732 0 0.1501309503580549 0.91511756570841429 0 0 1 0 0 0.89999999999958358 0 0.073205080757192453 0.92679491924280732 0 0.10000000000041601 1 0 0 1 0 0.073205080757192453 0.92679491924280732 0 0 0.89999999999958358 0 0.073205080757192453 0.92679491924280732 0 0.08856781640825595 0.84116524500979684 0 0.073205080757192453 0.92679491924280732 0 0.08856781640825595 0.84116524500979684 0 0.1501309503580549 0.91511756570841429 0 0 0.89999999999958358 0 0.08856781640825595 0.84116524500979684 0 0 0.79999999999999982 0 0.066835488316682207 0.74715275320363728 0 0.08856781640825595 0.84116524500979684 0 0 0.79999999999999982 0 0.066835488316682207 0.74715275320363728 0 0.15793426029988769 0.74398998676447015 0 0.08856781640825595 0.84116524500979684 0 0.15793426029988769 0.74398998676447015 0 0.08856781640825595 0.84116524500979684 0 0.19698204704958311 0.82984289029900649 0 0.24021577238288039 0.73972629863776906 0 0.19698204704958311 0.82984289029900649 0 0.29272065835002509 0.81966004122186487 0 0.15793426029988769 0.74398998676447015 0 0.24021577238288039 0.73972629863776906 0 0.19698204704958311 0.82984289029900649 0 0.19698204704958311 0.82984289029900649 0 0.25000279730609037 0.91142898934179428 0 0.29272065835002509 0.81966004122186487 0 0.08856781640825595 0.84116524500979684 0 0.19698204704958311 0.82984289029900649 0 0.1501309503580549 0.91511756570841429 0 0.19698204704958311 0.82984289029900649 0 0.1501309503580549 0.91511756570841429 0 0.25000279730609037 0.91142898934179428 0 0.1501309503580549 0.91511756570841429 0 0.20000000000083221 1 0 0.25000279730609037 0.91142898934179428 0 0.10000000000041601 1 0 0.1501309503580549 0.91511756570841429 0 0.20000000000083221 1 0 0.30000000000124832 1 0 0.36018312807679881 0.90395343882148016 0 0.40000000000166441 1 0 0.20000000000083221 1 0 0.30000000000124832 1 0 0.25000279730609037 0.91142898934179428 0 0.30000000000124832 1 0 0.25000279730609037 0.91142898934179428 0 0.36018312807679881 0.90395343882148016 0 0.25000279730609037 0.91142898934179428 0 0.36018312807679881 0.90395343882148016 0 0.29272065835002509 0.81966004122186487 0 0.36018312807679881 0.90395343882148016 0 0.29272065835002509 0.81966004122186487 0 0.3859831055955032 0.7911562468105291 0 0.24021577238288039 0.73972629863776906 0 0.29272065835002509 0.81966004122186487 0 0.32850465968734038 0.72497571723197574 0 0.29272065835002509 0.81966004122186487 0 0.3859831055955032 0.7911562468105291 0 0.32850465968734038 0.72497571723197574 0 0.3859831055955032 0.7911562468105291 0 0.46922011776697548 0.77351369004258919 0 0.44913734244298342 0.8579011037016615 0 0.3859831055955032 0.7911562468105291 0 0.46922011776697548 0.77351369004258919 0 0.41400456169167021 0.70705979958180076 0 0.46922011776697548 0.77351369004258919 0 0.44913734244298342 0.8579011037016615 0 0.52379080970865055 0.82526472814768648 0 0.36018312807679881 0.90395343882148016 0 0.3859831055955032 0.7911562468105291 0 0.44913734244298342 0.8579011037016615 0 0.36018312807679881 0.90395343882148016 0 0.44913734244298342 0.8579011037016615 0 0.45000000000186152 0.93710401158983114 0 0.44913734244298342 0.8579011037016615 0 0.45000000000186152 0.93710401158983114 0 0.53853961848507526 0.91052613143614081 0 0.45000000000186152 0.93710401158983114 0 0.50000000000205869 1 0 0.53853961848507526 0.91052613143614081 0 0.45000000000186152 0.93710401158983114 0 0.40000000000166441 1 0 0.50000000000205869 1 0 0.36018312807679881 0.90395343882148016 0 0.45000000000186152 0.93710401158983114 0 0.40000000000166441 1 0 0.30438298808748598 0.57540927256642327 0 0.35694548412345278 0.64361853624604293 0 0.38429639916174169 0.5696787164162832 0 0.33333333333333331 0.5 0 0.41666666666666657 0.5 0 0.33333333333333331 0.5 0 0.30438298808748598 0.57540927256642327 0 0.38429639916174169 0.5696787164162832 0 0.22112359218785299 0.58198260946245006 0 0.25 0.5 0 0.30438298808748598 0.57540927256642327 0 0.33333333333333331 0.5 0 0.25 0.5 0 0.30438298808748598 0.57540927256642327 0 0.33333333333333331 0.5 0 0.25 0.5 0 0.30438298808748598 0.57540927256642327 0 0.27431461370666999 0.65461381660647655 0 0.35694548412345278 0.64361853624604293 0 0.22112359218785299 0.58198260946245006 0 0.30438298808748598 0.57540927256642327 0 0.27431461370666999 0.65461381660647655 0 0.24021577238288039 0.73972629863776906 0 0.27431461370666999 0.65461381660647655 0 0.32850465968734038 0.72497571723197574 0 0.32850465968734038 0.72497571723197574 0 0.35694548412345278 0.64361853624604293 0 0.41400456169167021 0.70705979958180076 0 0.27431461370666999 0.65461381660647655 0 0.32850465968734038 0.72497571723197574 0 0.35694548412345278 0.64361853624604293 0 0.35694548412345278 0.64361853624604293 0 0.43190667360534168 0.6338044761171725 0 0.41400456169167021 0.70705979958180076 0 0.3859831055955032 0.7911562468105291 0 0.32850465968734038 0.72497571723197574 0 0.41400456169167021 0.70705979958180076 0 0.46922011776697548 0.77351369004258919 0 0.41400456169167021 0.70705979958180076 0 0.48992236780659748 0.69705563000365345 0 0.43190667360534168 0.6338044761171725 0 0.48992236780659748 0.69705563000365345 0 0.50325413700727362 0.62834294463932405 0 0.43190667360534168 0.6338044761171725 0 0.41400456169167021 0.70705979958180076 0 0.48992236780659748 0.69705563000365345 0 0.43190667360534168 0.6338044761171725 0 0.45932917084445313 0.56578811481719171 0 0.50325413700727362 0.62834294463932405 0 0.45932917084445313 0.56578811481719171 0 0.51061056534295712 0.57312092011422733 0 0.50325413700727362 0.62834294463932405 0 0.35694548412345278 0.64361853624604293 0 0.43190667360534168 0.6338044761171725 0 0.38429639916174169 0.5696787164162832 0 0.43190667360534168 0.6338044761171725 0 0.45932917084445313 0.56578811481719171 0 0.38429639916174169 0.5696787164162832 0 0.33333333333333331 0.5 0 0.38429639916174169 0.5696787164162832 0 0.41666666666666657 0.5 0 0.45932917084445313 0.56578811481719171 0 0.38429639916174169 0.5696787164162832 0 0.41666666666666657 0.5 0 0.45932917084445313 0.56578811481719171 0 0.41666666666666657 0.5 0 0.5 0.5 0 0.41666666666666657 0.5 0 0.5 0.5 0 0.45932917084445313 0.56578811481719171 0 0.5 0.5 0 0.51061056534295712 0.57312092011422733 0 0.5 0.5 0 0.59999999999999976 0.5 0 0.5 0.5 0 0.59999999999999976 0.5 0 0.5625 0.5625 0 0.5 0.5 0 0.5625 0.5625 0 0.51061056534295712 0.57312092011422733 0 0.5 0.5 0 0.5625 0.5625 0 0.59999999999999976 0.5 0 0.5625 0.5625 0 0.65313871162836923 0.56208240931645903 0 0.5625 0.5625 0 0.625 0.625 0 0.65313871162836923 0.56208240931645903 0 0.5625 0.5625 0 0.625 0.625 0 0.5625 0.5625 0 0.56828204399108151 0.61921795600891838 0 0.625 0.625 0 0.56828204399108151 0.61921795600891838 0 0.51061056534295712 0.57312092011422733 0 0.50325413700727362 0.62834294463932405 0 0.5625 0.5625 0 0.56828204399108151 0.61921795600891838 0 0.51061056534295712 0.57312092011422733 0 0.48992236780659748 0.69705563000365345 0 0.55991272404133086 0.6760277657225735 0 0.50325413700727362 0.62834294463932405 0 0.56828204399108151 0.61921795600891838 0 0.55991272404133086 0.6760277657225735 0 0.50325413700727362 0.62834294463932405 0 0.46922011776697548 0.77351369004258919 0 0.48992236780659748 0.69705563000365345 0 0.55970163348305024 0.75080633321688517 0 0.48992236780659748 0.69705563000365345 0 0.55991272404133086 0.6760277657225735 0 0.55970163348305024 0.75080633321688517 0 0.61911758580022647 0.70002807341198925 0 0.55970163348305024 0.75080633321688517 0 0.64846471110503368 0.7610277027090997 0 0.55991272404133086 0.6760277657225735 0 0.61911758580022647 0.70002807341198925 0 0.55970163348305024 0.75080633321688517 0 0.56828204399108151 0.61921795600891838 0 0.55991272404133086 0.6760277657225735 0 0.625 0.625 0 0.55991272404133086 0.6760277657225735 0 0.61911758580022647 0.70002807341198925 0 0.625 0.625 0 0.625 0.625 0 0.6875 0.6875 0 0.69201159065998896 0.62048840934001104 0 0.61911758580022647 0.70002807341198925 0 0.625 0.625 0 0.6875 0.6875 0 0.625 0.625 0 0.6875 0.6875 0 0.61911758580022647 0.70002807341198925 0 0.6875 0.6875 0 0.64846471110503368 0.7610277027090997 0 0.6875 0.6875 0 0.64846471110503368 0.7610277027090997 0 0.75 0.75 0 0.6875 0.6875 0 0.75 0.75 0 0.75989579748454794 0.66142208951066328 0 0.6875 0.6875 0 0.75 0.75 0 0.6875 0.6875 0 0.69201159065998896 0.62048840934001104 0 0.75989579748454794 0.66142208951066328 0 0.69201159065998896 0.62048840934001104 0 0.74685358701831439 0.58150382891824492 0 0.75989579748454794 0.66142208951066328 0 0.69201159065998896 0.62048840934001104 0 0.74685358701831439 0.58150382891824492 0 0.65313871162836923 0.56208240931645903 0 0.69999999999999984 0.5 0 0.79999999999999982 0.5 0 0.74685358701831439 0.58150382891824492 0 0.69999999999999984 0.5 0 0.79999999999999982 0.5 0 0.74685358701831439 0.58150382891824492 0 0.69999999999999984 0.5 0 0.65313871162836923 0.56208240931645903 0 0.59999999999999976 0.5 0 0.69999999999999984 0.5 0 0.59999999999999976 0.5 0 0.69999999999999984 0.5 0 0.65313871162836923 0.56208240931645903 0 0.625 0.625 0 0.69201159065998896 0.62048840934001104 0 0.65313871162836923 0.56208240931645903 0 0.60000000000138687 1 0 0.53853961848507526 0.91052613143614081 0 0.64926043220195895 0.91383679218108282 0 0.60000000000138687 1 0 0.50000000000205869 1 0 0.53853961848507526 0.91052613143614081 0 0.53853961848507526 0.91052613143614081 0 0.60235533636516836 0.83357638234115594 0 0.64926043220195895 0.91383679218108282 0 0.53853961848507526 0.91052613143614081 0 0.60235533636516836 0.83357638234115594 0 0.52379080970865055 0.82526472814768648 0 0.44913734244298342 0.8579011037016615 0 0.53853961848507526 0.91052613143614081 0 0.52379080970865055 0.82526472814768648 0 0.60235533636516836 0.83357638234115594 0 0.52379080970865055 0.82526472814768648 0 0.55970163348305024 0.75080633321688517 0 0.46922011776697548 0.77351369004258919 0 0.52379080970865055 0.82526472814768648 0 0.55970163348305024 0.75080633321688517 0 0.60235533636516836 0.83357638234115594 0 0.55970163348305024 0.75080633321688517 0 0.64846471110503368 0.7610277027090997 0 0.60235533636516836 0.83357638234115594 0 0.64846471110503368 0.7610277027090997 0 0.7000020149222177 0.83415812519521837 0 0.64846471110503368 0.7610277027090997 0 0.7000020149222177 0.83415812519521837 0 0.75 0.75 0 0.60235533636516836 0.83357638234115594 0 0.7000020149222177 0.83415812519521837 0 0.64926043220195895 0.91383679218108282 0 0.7000020149222177 0.83415812519521837 0 0.64926043220195895 0.91383679218108282 0 0.74990398477387488 0.91482605081002355 0 0.74990398477387488 0.91482605081002355 0 0.7000000000006934 1 0 0.79999999999999982 1 0 0.64926043220195895 0.91383679218108282 0 0.74990398477387488 0.91482605081002355 0 0.7000000000006934 1 0 0.60000000000138687 1 0 0.64926043220195895 0.91383679218108282 0 0.7000000000006934 1 0 0.79999999999999982 1 0 0.84972343667254391 0.91496957197099094 0 0.89999999999958358 1 0 0.74990398477387488 0.91482605081002355 0 0.79999999999999982 1 0 0.84972343667254391 0.91496957197099094 0 0.74990398477387488 0.91482605081002355 0 0.84972343667254391 0.91496957197099094 0 0.80157081937057084 0.83842482832452347 0 0.84972343667254391 0.91496957197099094 0 0.80157081937057084 0.83842482832452347 0 0.90849008766191841 0.84288279534025123 0 0.80157081937057084 0.83842482832452347 0 0.84418394508769212 0.773149552060308 0 0.90849008766191841 0.84288279534025123 0 0.7000020149222177 0.83415812519521837 0 0.74990398477387488 0.91482605081002355 0 0.80157081937057084 0.83842482832452347 0 0.7000020149222177 0.83415812519521837 0 0.80157081937057084 0.83842482832452347 0 0.75 0.75 0 0.80157081937057084 0.83842482832452347 0 0.75 0.75 0 0.84418394508769212 0.773149552060308 0 0.84418394508769212 0.773149552060308 0 0.90849008766191841 0.84288279534025123 0 0.91774987785492024 0.74446742543575928 0 1 0.79999999999999982 0 0.90849008766191841 0.84288279534025123 0 0.91774987785492024 0.74446742543575928 0 1 0.79999999999999982 0 0.90849008766191841 0.84288279534025123 0 1 0.89999999999999991 0 0.84972343667254391 0.91496957197099094 0 0.90849008766191841 0.84288279534025123 0 0.92679491924305324 0.92679491924316471 0 0.90849008766191841 0.84288279534025123 0 0.92679491924305324 0.92679491924316471 0 1 0.89999999999999991 0 0.92679491924305324 0.92679491924316471 0 1 0.89999999999999991 0 1 1 0 0.92679491924305324 0.92679491924316471 0 1 1 0 0.89999999999958358 1 0 0.84972343667254391 0.91496957197099094 0 0.92679491924305324 0.92679491924316471 0 0.89999999999958358 1 0 0.79999999999999982 0.5 0 0.89999999999999991 0.5 0 0.84123805554876707 0.59680309078067073 0 0.79999999999999982 0.5 0 0.89999999999999991 0.5 0 0.74685358701831439 0.58150382891824492 0 0.84123805554876707 0.59680309078067073 0 0.79999999999999982 0.5 0 0.74685358701831439 0.58150382891824492 0 0.84123805554876707 0.59680309078067073 0 0.75989579748454794 0.66142208951066328 0 0.75 0.75 0 0.84418394508769212 0.773149552060308 0 0.83890624185782958 0.69626544663594958 0 0.75 0.75 0 0.75989579748454794 0.66142208951066328 0 0.83890624185782958 0.69626544663594958 0 0.84418394508769212 0.773149552060308 0 0.83890624185782958 0.69626544663594958 0 0.91774987785492024 0.74446742543575928 0 0.84123805554876707 0.59680309078067073 0 0.75989579748454794 0.66142208951066328 0 0.83890624185782958 0.69626544663594958 0 0.84123805554876707 0.59680309078067073 0 0.83890624185782958 0.69626544663594958 0 0.91502196414490444 0.65023695573082385 0 0.83890624185782958 0.69626544663594958 0 0.91502196414490444 0.65023695573082385 0 0.91774987785492024 0.74446742543575928 0 1 0.79999999999999982 0 0.91774987785492024 0.74446742543575928 0 1 0.69999999999999984 0 0.91502196414490444 0.65023695573082385 0 0.91774987785492024 0.74446742543575928 0 1 0.69999999999999984 0 0.91502196414490444 0.65023695573082385 0 1 0.69999999999999984 0 1 0.59999999999999976 0 0.91502196414490444 0.65023695573082385 0 1 0.59999999999999976 0 0.9267949192431123 0.57320508075688748 0 0.84123805554876707 0.59680309078067073 0 0.91502196414490444 0.65023695573082385 0 0.9267949192431123 0.57320508075688748 0 0.84123805554876707 0.59680309078067073 0 0.9267949192431123 0.57320508075688748 0 0.89999999999999991 0.5 0 0.89999999999999991 0.5 0 1 0.5 0 0.9267949192431123 0.57320508075688748 0 0.89999999999999991 0.5 0 1 0.5 0 1 0.59999999999999976 0 0.9267949192431123 0.57320508075688748 0 1 0.5 0 1 0.5 0 1 0.39999999999973668 0 0.92692772226615627 0.42692772226608527 0 0.89999999999999991 0.5 0 1 0.5 0 0.92692772226615627 0.42692772226608527 0 1 0.39999999999973668 0 0.92692772226615627 0.42692772226608527 0 0.9390432307803237 0.34999999999960513 0 0.92692772226615627 0.42692772226608527 0 0.84999999999999998 0.44473470008005372 0 0.86315719642252953 0.37137843546999749 0 0.92692772226615627 0.42692772226608527 0 0.86315719642252953 0.37137843546999749 0 0.9390432307803237 0.34999999999960513 0 0.89999999999999991 0.5 0 0.92692772226615627 0.42692772226608527 0 0.84999999999999998 0.44473470008005372 0 0.79999999999999982 0.5 0 0.89999999999999991 0.5 0 0.84999999999999998 0.44473470008005372 0 0.84999999999999998 0.44473470008005372 0 0.77037265046857561 0.40537414349831652 0 0.86315719642252953 0.37137843546999749 0 0.69999999999999984 0.5 0 0.79999999999999982 0.5 0 0.77037265046857561 0.40537414349831652 0 0.79999999999999982 0.5 0 0.84999999999999998 0.44473470008005372 0 0.77037265046857561 0.40537414349831652 0 0.77037265046857561 0.40537414349831652 0 0.80098314916214353 0.29821695223768352 0 0.70429891134180211 0.31826793154456973 0 0.77037265046857561 0.40537414349831652 0 0.80098314916214353 0.29821695223768352 0 0.86315719642252953 0.37137843546999749 0 0.80098314916214353 0.29821695223768352 0 0.86315719642252953 0.37137843546999749 0 0.90612513992130683 0.2689611572755029 0 0.80098314916214353 0.29821695223768352 0 0.90612513992130683 0.2689611572755029 0 0.82804875980116233 0.20223501309006731 0 0.86315719642252953 0.37137843546999749 0 0.90612513992130683 0.2689611572755029 0 0.9390432307803237 0.34999999999960513 0 1 0.39999999999973668 0 0.9390432307803237 0.34999999999960513 0 1 0.29999999999947341 0 0.90612513992130683 0.2689611572755029 0 0.9390432307803237 0.34999999999960513 0 1 0.29999999999947341 0 0.90612513992130683 0.2689611572755029 0 1 0.29999999999947341 0 1 0.19999999999948739 0 0.90612513992130683 0.2689611572755029 0 1 0.19999999999948739 0 0.91622867597293034 0.15490381056726649 0 1 0.19999999999948739 0 0.91622867597293034 0.15490381056726649 0 1 0.099999999999778932 0 0.90612513992130683 0.2689611572755029 0 0.91622867597293034 0.15490381056726649 0 0.82804875980116233 0.20223501309006731 0 1 0 0 1 0.099999999999778932 0 0.92679491924283741 0.073205080757032887 0 1 0 0 0.92679491924283741 0.073205080757032887 0 0.89999999999973679 0 0 0.91622867597293034 0.15490381056726649 0 1 0.099999999999778932 0 0.92679491924283741 0.073205080757032887 0 0.91622867597293034 0.15490381056726649 0 0.92679491924283741 0.073205080757032887 0 0.84086402007378613 0.097558427428716066 0 0.92679491924283741 0.073205080757032887 0 0.89999999999973679 0 0 0.84086402007378613 0.097558427428716066 0 0.89999999999973679 0 0 0.84086402007378613 0.097558427428716066 0 0.79999999999947335 0 0 0.84086402007378613 0.097558427428716066 0 0.76667895216258231 0.15605762470516529 0 0.73928714325231959 0.084329337206986266 0 0.84086402007378613 0.097558427428716066 0 0.79999999999947335 0 0 0.73928714325231959 0.084329337206986266 0 0.91622867597293034 0.15490381056726649 0 0.84086402007378613 0.097558427428716066 0 0.82804875980116233 0.20223501309006731 0 0.84086402007378613 0.097558427428716066 0 0.82804875980116233 0.20223501309006731 0 0.76667895216258231 0.15605762470516529 0 0.82804875980116233 0.20223501309006731 0 0.76667895216258231 0.15605762470516529 0 0.73785529459718069 0.23276325864008299 0 0.80098314916214353 0.29821695223768352 0 0.82804875980116233 0.20223501309006731 0 0.73785529459718069 0.23276325864008299 0 0.73785529459718069 0.23276325864008299 0 0.68733954308846279 0.16340208715997401 0 0.65013787896763531 0.24738705877289749 0 0.76667895216258231 0.15605762470516529 0 0.73785529459718069 0.23276325864008299 0 0.68733954308846279 0.16340208715997401 0 0.76667895216258231 0.15605762470516529 0 0.68733954308846279 0.16340208715997401 0 0.73928714325231959 0.084329337206986266 0 0.68733954308846279 0.16340208715997401 0 0.64661073844116768 0.083938889182861035 0 0.58390992419284726 0.17098750676586491 0 0.68733954308846279 0.16340208715997401 0 0.65013787896763531 0.24738705877289749 0 0.58390992419284726 0.17098750676586491 0 0.79999999999947335 0 0 0.69999999999921003 0 0 0.73928714325231959 0.084329337206986266 0 0.69999999999921003 0 0 0.73928714325231959 0.084329337206986266 0 0.64661073844116768 0.083938889182861035 0 0.68733954308846279 0.16340208715997401 0 0.73928714325231959 0.084329337206986266 0 0.64661073844116768 0.083938889182861035 0 0.69999999999921003 0 0 0.64661073844116768 0.083938889182861035 0 0.59999999999894682 0 0 0.64661073844116768 0.083938889182861035 0 0.59999999999894682 0 0 0.54912436800118414 0.07923269986872096 0 0.64661073844116768 0.083938889182861035 0 0.54912436800118414 0.07923269986872096 0 0.58390992419284726 0.17098750676586491 0 0.49999999999869432 0 0 0.59999999999894682 0 0 0.54912436800118414 0.07923269986872096 0 0.65013787896763531 0.24738705877289749 0 0.58390992419284726 0.17098750676586491 0 0.56331152681373342 0.26926005188416458 0 0.49677298727352631 0.1419426259588793 0 0.54912436800118414 0.07923269986872096 0 0.58390992419284726 0.17098750676586491 0 0.49638486706945439 0.2121184447907791 0 0.49677298727352631 0.1419426259588793 0 0.58390992419284726 0.17098750676586491 0 0.49638486706945439 0.2121184447907791 0 0.58390992419284726 0.17098750676586491 0 0.56331152681373342 0.26926005188416458 0 0.48197160777613701 0.29296902118871587 0 0.56331152681373342 0.26926005188416458 0 0.53795066522196777 0.35232980433802918 0 0.49638486706945439 0.2121184447907791 0 0.48197160777613701 0.29296902118871587 0 0.56331152681373342 0.26926005188416458 0 0.65013787896763531 0.24738705877289749 0 0.56331152681373342 0.26926005188416458 0 0.61953310281942287 0.33623578723476061 0 0.61953310281942287 0.33623578723476061 0 0.53795066522196777 0.35232980433802918 0 0.59493019080807719 0.41959199530426949 0 0.56331152681373342 0.26926005188416458 0 0.61953310281942287 0.33623578723476061 0 0.53795066522196777 0.35232980433802918 0 0.53795066522196777 0.35232980433802918 0 0.51443730641548846 0.4230626935845116 0 0.59493019080807719 0.41959199530426949 0 0.51443730641548846 0.4230626935845116 0 0.55234187430589132 0.46066367222219529 0 0.59493019080807719 0.41959199530426949 0 0.45958432544769412 0.36572680929244022 0 0.53795066522196777 0.35232980433802918 0 0.51443730641548846 0.4230626935845116 0 0.5 0.5 0 0.51443730641548846 0.4230626935845116 0 0.55234187430589132 0.46066367222219529 0 0.5 0.5 0 0.59999999999999976 0.5 0 0.55234187430589132 0.46066367222219529 0 0.59999999999999976 0.5 0 0.59493019080807719 0.41959199530426949 0 0.6422748717904081 0.45615324511504501 0 0.59999999999999976 0.5 0 0.55234187430589132 0.46066367222219529 0 0.59493019080807719 0.41959199530426949 0 0.59493019080807719 0.41959199530426949 0 0.67416929635355571 0.4050209851559104 0 0.6422748717904081 0.45615324511504501 0 0.61953310281942287 0.33623578723476061 0 0.59493019080807719 0.41959199530426949 0 0.67416929635355571 0.4050209851559104 0 0.69999999999999984 0.5 0 0.67416929635355571 0.4050209851559104 0 0.6422748717904081 0.45615324511504501 0 0.59999999999999976 0.5 0 0.69999999999999984 0.5 0 0.6422748717904081 0.45615324511504501 0 0.69999999999999984 0.5 0 0.77037265046857561 0.40537414349831652 0 0.67416929635355571 0.4050209851559104 0 0.77037265046857561 0.40537414349831652 0 0.67416929635355571 0.4050209851559104 0 0.70429891134180211 0.31826793154456973 0 0.73785529459718069 0.23276325864008299 0 0.65013787896763531 0.24738705877289749 0 0.70429891134180211 0.31826793154456973 0 0.80098314916214353 0.29821695223768352 0 0.73785529459718069 0.23276325864008299 0 0.70429891134180211 0.31826793154456973 0 0.65013787896763531 0.24738705877289749 0 0.61953310281942287 0.33623578723476061 0 0.70429891134180211 0.31826793154456973 0 0.61953310281942287 0.33623578723476061 0 0.67416929635355571 0.4050209851559104 0 0.70429891134180211 0.31826793154456973 0 
</DataArray>
</Points>
<Cells>
<DataArray type="UInt32" Name="connectivity" format="ascii">
0 1 2 3 4 5 6 7 8 9 10 11 12 13 14 15 16 17 18 19 20 21 22 23 24 25 26 27 28 29 30 31 32 33 34 35 36 37 38 39 40 41 42 43 44 45 46 47 48 49 50 51 52 53 54 55 56 57 58 59 60 61 62 63 64 65 66 67 68 69 70 71 72 73 74 75 76 77 78 79 80 81 82 83 84 85 86 87 88 89 90 91 92 93 94 95 96 97 98 99 100 101 102 103 104 105 106 107 108 109 110 111 112 113 114 115 116 117 118 119 120 121 122 123 124 125 126 127 128 129 130 131 132 133 134 135 136 137 138 139 140 141 142 143 144 145 146 147 148 149 150 151 152 153 154 155 156 157 158 159 160 161 162 163 164 165 166 167 168 169 170 171 172 173 174 175 176 177 178 179 180 181 182 183 184 185 186 187 188 189 190 191 192 193 194 195 196 197 198 199 200 201 202 203 204 205 206 207 208 209 210 211 212 213 214 215 216 217 218 219 220 221 222 223 224 225 226 227 228 229 230 231 232 233 234 235 236 237 238 239 240 241 242 243 244 245 246 247 248 249 250 251 252 253 254 255 256 257 258 259 260 261 262 263 264 265 266 267 268 269 270 271 272 273 274 275 276 277 278 279 280 281 282 283 284 285 286 287 288 289 290 291 292 293 294 295 296 297 298 299 300 301 302 303 304 305 306 307 308 309 310 311 312 313 314 315 316 317 318 319 320 321 322 323 324 325 326 327 328 329 330 331 332 333 334 335 336 337 338 339 340 341 342 343 344 345 346 347 348 349 350 351 352 353 354 355 356 357 358 359 360 361 362 363 364 365 366 367 368 369 370 371 372 373 374 375 376 377 378 379 380 381 382 383 384 385 386 387 388 389 390 391 392 393 394 395 396 397 398 399 400 401 402 403 404 405 406 407 408 409 410 411 412 413 414 415 416 417 418 419 420 421 422 423 424 425 426 427 428 429 430 431 432 433 434 435 436 437 438 439 440 441 442 443 444 445 446 447 448 449 450 451 452 453 454 455 456 457 458 459 460 461 462 463 464 465 466 467 468 469 470 471 472 473 474 475 476 477 478 479 480 481 482 483 484 485 486 487 488 489 490 491 492 493 494 495 496 497 498 499 500 501 502 503 504 505 506 507 508 509 510 511 512 513 514 515 516 517 518 519 520 521 522 523 524 525 526 527 528 529 530 531 532 533 534 535 536 537 538 539 540 541 542 543 544 545 546 547 548 549 550 551 552 553 554 555 556 557 558 559 560 561 562 563 564 565 566 567 568 569 570 571 572 573 574 575 576 577 578 579 580 581 582 583 584 585 586 587 588 589 590 591 592 593 594 595 596 597 598 599 600 601 602 603 604 605 606 607 608 609 610 611 612 613 614 615 616 617 618 619 620 621 622 623 624 625 626 627 628 629 630 631 632 633 634 635 636 637 638 639 640 641 642 643 644 645 646 647 648 649 650 651 652 653 654 655 656 657 658 659 660 661 662 663 664 665 666 667 668 669 670 671 672 673 674 675 676 677 678 679 680 681 682 683 684 685 686 687 688 689 690 691 692 693 694 695 696 697 698 699 700 701 702 703 704 705 706 707 708 709 710 711 712 713 714 715 716 717 718 719 720 721 722 723 724 725 726 727 728 729 730 731 732 733 734 735 736 737 738 739 740 741 742 743 744 745 746 747 748 749 750 751 752 753 754 755 756 757 758 759 760 761 762 763 764 765 766 767 768 769 770 771 772 773 774 775 776 777 778 779 780 781 782 783 784 785 786 787 788 789 790 791 792 793 794 795 796 797 798 799 800 801 802 803 804 805 806 807 808 809 810 811 812 813 814 815 816 817 818 819 820 821 822 823 824 825 826 827 828 829 830 831 832 833 834 835 836 837 838 839 840 841 842 843 844 845 846 847 848 849 850 851 852 853 854 855 856 857 858 859 860 861 862 863 864 865 866 867 868 869 870 871 872 873 874 875 876 877 878 879 880 881 882 883 884 885 886 887 888 889 890 891 892 893 894 895 896 897 898 899 900 901 
</DataArray>
<DataArray type="UInt32" Name="offsets" format="ascii">
3 6 9 12 15 18 21 24 27 30 33 36 39 42 45 48 51 54 57 60 63 66 69 72 75 78 81 84 87 90 93 96 99 102 105 107 110 113 116 118 121 124 127 130 133 136 139 142 144 147 150 153 155 158 161 164 167 170 173 176 179 182 185 188 191 194 197 200 203 206 209 212 215 218 221 224 227 230 233 236 239 242 245 248 251 254 257 260 263 266 269 272 275 278 281 284 287 290 293 296 299 302 305 308 311 314 317 320 323 326 329 332 335 338 341 344 347 350 353 356 359 362 365 368 371 374 377 379 382 385 388 390 393 396 399 402 405 408 411 414 417 420 423 426 429 432 435 438 441 443 446 448 451 454 456 459 462 464 467 470 473 476 479 482 485 488 491 494 497 500 503 505 508 511 514 516 519 522 525 527 530 533 535 538 541 544 547 550 553 556 559 562 565 568 571 574 577 580 583 586 589 592 595 598 601 604 607 610 613 616 619 622 625 628 631 634 636 639 642 645 648 651 654 657 660 663 666 669 672 675 678 681 683 686 689 692 695 698 701 704 707 710 713 716 719 722 725 728 731 734 737 740 743 746 749 752 755 758 761 764 767 770 773 776 779 782 785 788 791 794 797 800 803 806 809 812 815 818 821 824 827 830 833 836 839 842 845 848 851 854 857 860 863 866 869 872 875 878 881 884 887 890 893 896 899 902 
</DataArray>
<DataArray type="UInt32" Name="types" format="ascii">
5 5 5 5 5 5 5 5 5 5 5 5 5 5 5 5 5 5 5 5 5 5 5 5 5 5 5 5 5 5 5 5 5 5 5 3 5 5 5 3 5 5 5 5 5 5 5 5 3 5 5 5 3 5 5 5 5 5 5 5 5 5 5 5 5 5 5 5 5 5 5 5 5 5 5 5 5 5 5 5 5 5 5 5 5 5 5 5 5 5 5 5 5 5 5 5 5 5 5 5 5 5 5 5 5 5 5 5 5 5 5 5 5 5 5 5 5 5 5 5 5 5 5 5 5 5 5 3 5 5 5 3 5 5 5 5 5 5 5 5 5 5 5 5 5 5 5 5 5 3 5 3 5 5 3 5 5 3 5 5 5 5 5 5 5 5 5 5 5 5 5 3 5 5 5 3 5 5 5 3 5 5 3 5 5 5 5 5 5 5 5 5 5 5 5 5 5 5 5 5 5 5 5 5 5 5 5 5 5 5 5 5 5 5 5 5 3 5 5 5 5 5 5 5 5 5 5 5 5 5 5 5 3 5 5 5 5 5 5 5 5 5 5 5 5 5 5 5 5 5 5 5 5 5 5 5 5 5 5 5 5 5 5 5 5 5 5 5 5 5 5 5 5 5 5 5 5 5 5 5 5 5 5 5 5 5 5 5 5 5 5 5 5 5 5 5 5 5 5 5 5 5 5 5 5 5 
</DataArray>
</Cells>
<PointData Scalars="" Vectors="displacement," Tensors="">
<DataArray type="Float64" Name="displacement" NumberOfComponents="3" format="ascii">
-4.3769555582314061e-07 -9.4522584861267389e-07 0 -0.00025016950775880496 -0.00047029275176074906 0 -3.7003376436924911e-08 -5.244209566359875e-07 0 -4.3769555582314061e-07 -9.4522584861267389e-07 0 -0.00052240624372054765 -0.00076345138057449906 0 -0.00025016950775880496 -0.00047029275176074906 0 -0.00052240624372054765 -0.00076345138057449906 0 -0.00025016950775880496 -0.00047029275176074906 0 -0.00049070528685780425 -0.0010472835016532463 0 -0.00025016950775880496 -0.00047029275176074906 0 -0.00049070528685780425 -0.0010472835016532463 0 -0.00016841555389976386 -0.00054023575395901395 0 -0.00025016950775880496 -0.00047029275176074906 0 -3.7003376436924911e-08 -5.244209566359875e-07 0 -0.00016841555389976386 -0.00054023575395901395 0 -0.00077734270223496786 -0.0013133005980647341 0 -0.00049070528685780425 -0.0010472835016532463 0 -0.00070341653632141241 -0.0016819016463449547 0 -0.00052240624372054765 -0.00076345138057449906 0 -0.00077734270223496786 -0.0013133005980647341 0 -0.00049070528685780425 -0.0010472835016532463 0 -0.00049070528685780425 -0.0010472835016532463 0 -0.00045555825402367883 -0.001673149613356189 0 -0.00070341653632141241 -0.0016819016463449547 0 -0.00049070528685780425 -0.0010472835016532463 0 -0.00045555825402367883 -0.001673149613356189 0 -0.0001857925561690272 -0.0011354548955180407 0 -0.00049070528685780425 -0.0010472835016532463 0 -0.0001857925561690272 -0.0011354548955180407 0 -0.00016841555389976386 -0.00054023575395901395 0 -0.0001857925561690272 -0.0011354548955180407 0 1.1332723499842997e-05 -0.00049493494027493402 0 0.00017736133093427484 -0.00093942632093154039 0 -0.00045555825402367883 -0.001673149613356189 0 -0.0001857925561690272 -0.0011354548955180407 0 -0.00015350582450908849 -0.0019187664814562739 0 -0.0001857925561690272 -0.0011354548955180407 0 0.00017736133093427484 -0.00093942632093154039 0 -0.00015350582450908849 -0.0019187664814562739 0 -3.7003376436924911e-08 -5.244209566359875e-07 0 -0.00016841555389976386 -0.00054023575395901395 0 -2.6425139920468968e-08 -5.6007071543190571e-07 0 -0.0001857925561690272 -0.0011354548955180407 0 -0.00016841555389976386 -0.00054023575395901395 0 1.1332723499842997e-05 -0.00049493494027493402 0 -0.00016841555389976386 -0.00054023575395901395 0 1.1332723499842997e-05 -0.00049493494027493402 0 -2.6425139920468968e-08 -5.6007071543190571e-07 0 1.1332723499842997e-05 -0.00049493494027493402 0 -2.6425139920468968e-08 -5.6007071543190571e-07 0 5.3910474199870669e-08 -5.1325249114859092e-07 0 1.1332723499842997e-05 -0.00049493494027493402 0 5.3910474199870669e-08 -5.1325249114859092e-07 0 0.00010798340509223385 -0.00044034958647472456 0 5.3910474199870669e-08 -5.1325249114859092e-07 0 0.00010798340509223385 -0.00044034958647472456 0 3.6049934576138332e-08 -5.3622989376774469e-07 0 1.1332723499842997e-05 -0.00049493494027493402 0 0.00010798340509223385 -0.00044034958647472456 0 0.00017736133093427484 -0.00093942632093154039 0 0.00017736133093427484 -0.00093942632093154039 0 0.00051036461849504936 -0.001282085566309469 0 -0.00015350582450908849 -0.0019187664814562739 0 0.00017736133093427484 -0.00093942632093154039 0 0.00051036461849504936 -0.001282085566309469 0 0.00037328040932914705 -0.00092468553013225359 0 0.00010798340509223385 -0.00044034958647472456 0 0.00017736133093427484 -0.00093942632093154039 0 0.00037328040932914705 -0.00092468553013225359 0 0.00051036461849504936 -0.001282085566309469 0 0.00037328040932914705 -0.00092468553013225359 0 0.00081269602288686765 -0.0014617348660675765 0 0.00081269602288686765 -0.0014617348660675765 0 0.0008323385321004367 -0.001510424128711876 0 0.0015214216959210357 -0.002092085088074732 0 0.00037328040932914705 -0.00092468553013225359 0 0.00081269602288686765 -0.0014617348660675765 0 0.0008323385321004367 -0.001510424128711876 0 0.00037328040932914705 -0.00092468553013225359 0 0.0008323385321004367 -0.001510424128711876 0 0.00043727589149086593 -0.00097821557943912987 0 0.00037328040932914705 -0.00092468553013225359 0 0.00043727589149086593 -0.00097821557943912987 0 0.00016399061381128875 -0.00049280488571909161 0 0.00043727589149086593 -0.00097821557943912987 0 0.00016399061381128875 -0.00049280488571909161 0 0.00022626093638829928 -0.00059191673278032909 0 0.00016399061381128875 -0.00049280488571909161 0 3.5204505876773029e-08 -6.4343383272639562e-07 0 0.00022626093638829928 -0.00059191673278032909 0 0.00016399061381128875 -0.00049280488571909161 0 3.5204505876773029e-08 -6.4343383272639562e-07 0 3.6049934576138332e-08 -5.3622989376774469e-07 0 0.00010798340509223385 -0.00044034958647472456 0 0.00016399061381128875 -0.00049280488571909161 0 3.6049934576138332e-08 -5.3622989376774469e-07 0 0.00010798340509223385 -0.00044034958647472456 0 0.00037328040932914705 -0.00092468553013225359 0 0.00016399061381128875 -0.00049280488571909161 0 -0.00044685963913943124 -0.0066822687792022807 0 -0.0006819071942846315 -0.0052838785674813558 0 8.8703281308644071e-06 -0.0058251229976035547 0 0.0036168940086291671 -0.0026185151304119292 0 0.0024293484846413401 -0.0024575772227405342 0 0.0025973000565338539 -0.0020046713147729854 0 0.0011322365164207504 -0.0046833031666349938 0 0.0010815270110483802 -0.0036527313234646598 0 -0.00044685963913943124 -0.0066822687792022807 0 8.8703281308644071e-06 -0.0058251229976035547 0 0.00042458355228916836 -0.0067711136481752813 0 0.0036168940086291671 -0.0026185151304119292 0 0.0044687695588809121 -0.0032919444555037252 0 0.0032187607537884845 -0.0031281967797903505 0 -0.00044685963913943124 -0.0066822687792022807 0 0.00042458355228916836 -0.0067711136481752813 0 -0.00023654345698205376 -0.007997257470233823 0 0.0011322365164207504 -0.0046833031666349938 0 0.0039382469955572845 -0.0054663805682775585 0 0.0036168940086291671 -0.0026185151304119292 0 0.0024293484846413401 -0.0024575772227405342 0 0.0032187607537884845 -0.0031281967797903505 0 0.0024293484846413401 -0.0024575772227405342 0 0.0015214216959210357 -0.002092085088074732 0 0.0022992997866245987 -0.0028277579105805586 0 0.0024293484846413401 -0.0024575772227405342 0 0.0015214216959210357 -0.002092085088074732 0 0.0014514150457688186 -0.0017913147362778271 0 0.00051036461849504936 -0.001282085566309469 0 0.00081269602288686765 -0.0014617348660675765 0 0.0014514150457688186 -0.0017913147362778271 0 0.00081269602288686765 -0.0014617348660675765 0 0.0015214216959210357 -0.002092085088074732 0 0.0014514150457688186 -0.0017913147362778271 0 0.0024293484846413401 -0.0024575772227405342 0 0.0014514150457688186 -0.0017913147362778271 0 0.0025973000565338539 -0.0020046713147729854 0 -0.0006819071942846315 -0.0052838785674813558 0 -0.00076857804575422648 -0.0037411500663177303 0 -2.8324375438986573e-05 -0.004634570608933508 0 0.0014514150457688186 -0.0017913147362778271 0 0.0025973000565338539 -0.0020046713147729854 0 0.0013132777719308559 -0.001659294247163444 0 0.0010815270110483802 -0.0036527313234646598 0 0.0002588573713278389 -0.0027121849456799244 0 0.00051036461849504936 -0.001282085566309469 0 0.0014514150457688186 -0.0017913147362778271 0 0.0013132777719308559 -0.001659294247163444 0 0.00051036461849504936 -0.001282085566309469 0 0.0013132777719308559 -0.001659294247163444 0 -0.00015350582450908849 -0.0019187664814562739 0 -0.00076857804575422648 -0.0037411500663177303 0 -0.00015350582450908849 -0.0019187664814562739 0 -0.00053724670543522002 -0.0031795233980052074 0 0.0002588573713278389 -0.0027121849456799244 0 -0.00012100146384652959 -0.0019495666736137434 0 -0.00076857804575422648 -0.0037411500663177303 0 -2.8324375438986573e-05 -0.004634570608933508 0 -0.00053724670543522002 -0.0031795233980052074 0 -0.0006819071942846315 -0.0052838785674813558 0 -2.8324375438986573e-05 -0.004634570608933508 0 8.8703281308644071e-06 -0.0058251229976035547 0 8.8703281308644071e-06 -0.0058251229976035547 0 0.00091209336132858098 -0.0057057680597585349 0 0.00042458355228916836 -0.0067711136481752813 0 -2.8324375438986573e-05 -0.004634570608933508 0 8.8703281308644071e-06 -0.0058251229976035547 0 0.00091209336132858098 -0.0057057680597585349 0 -2.8324375438986573e-05 -0.004634570608933508 0 0.00091209336132858098 -0.0057057680597585349 0 0.0013748257621245955 -0.004738902156008998 0 0.00024754818291750991 -0.0036010081004979664 0 0.0014712983331057524 -0.0039673485952793587 0 0.0013748257621245955 -0.004738902156008998 0 -2.8324375438986573e-05 -0.004634570608933508 0 0.00024754818291750991 -0.0036010081004979664 0 0.0013748257621245955 -0.004738902156008998 0 -2.8324375438986573e-05 -0.004634570608933508 0 0.00024754818291750991 -0.0036010081004979664 0 -0.00053724670543522002 -0.0031795233980052074 0 0.00024754818291750991 -0.0036010081004979664 0 -0.00053724670543522002 -0.0031795233980052074 0 -0.00033640094422851899 -0.0028057530592408993 0 0.00024754818291750991 -0.0036010081004979664 0 -0.00033640094422851899 -0.0028057530592408993 0 0.00026626593496445835 -0.0028058390996186992 0 0.00024754818291750991 -0.0036010081004979664 0 0.00026626593496445835 -0.0028058390996186992 0 0.0014712983331057524 -0.0039673485952793587 0 -0.00015350582450908849 -0.0019187664814562739 0 -0.00053724670543522002 -0.0031795233980052074 0 -0.00057703154605138443 -0.0023536877227622122 0 -0.00045555825402367883 -0.001673149613356189 0 -0.00015350582450908849 -0.0019187664814562739 0 -0.00057703154605138443 -0.0023536877227622122 0 -0.00033640094422851899 -0.0028057530592408993 0 -0.00057703154605138443 -0.0023536877227622122 0 -0.00054927894696379118 -0.0021853420879583596 0 -0.00053724670543522002 -0.0031795233980052074 0 -0.00033640094422851899 -0.0028057530592408993 0 -0.00057703154605138443 -0.0023536877227622122 0 -0.00045555825402367883 -0.001673149613356189 0 -0.00057703154605138443 -0.0023536877227622122 0 -0.00070341653632141241 -0.0016819016463449547 0 -0.00057703154605138443 -0.0023536877227622122 0 -0.00070341653632141241 -0.0016819016463449547 0 -0.00054927894696379118 -0.0021853420879583596 0 -0.00054927894696379118 -0.0021853420879583596 0 -0.00077589094143813329 -0.001640004867215961 0 -0.0002428164064552572 -0.0018058359086687702 0 -0.00070341653632141241 -0.0016819016463449547 0 -0.00054927894696379118 -0.0021853420879583596 0 -0.00077589094143813329 -0.001640004867215961 0 -0.00077734270223496786 -0.0013133005980647341 0 -0.00070341653632141241 -0.0016819016463449547 0 -0.00077589094143813329 -0.001640004867215961 0 -0.00033640094422851899 -0.0028057530592408993 0 -0.00054927894696379118 -0.0021853420879583596 0 0.00026626593496445835 -0.0028058390996186992 0 -0.00054927894696379118 -0.0021853420879583596 0 0.00026626593496445835 -0.0028058390996186992 0 -0.0002428164064552572 -0.0018058359086687702 0 0.00026626593496445835 -0.0028058390996186992 0 0.00087410658305683093 -0.0020709017536310794 0 0.0017639596735505466 -0.0033012330159263902 0 0.00026626593496445835 -0.0028058390996186992 0 -0.0002428164064552572 -0.0018058359086687702 0 0.00087410658305683093 -0.0020709017536310794 0 0.00087410658305683093 -0.0020709017536310794 0 0.0017639596735505466 -0.0033012330159263902 0 0.002393925361458135 -0.0025492356062621654 0 0.00026626593496445835 -0.0028058390996186992 0 0.0017639596735505466 -0.0033012330159263902 0 0.0014712983331057524 -0.0039673485952793587 0 0.0017639596735505466 -0.0033012330159263902 0 0.0035720792515936939 -0.0042755745587146152 0 0.0027562573106911527 -0.0044535956341112352 0 0.0017639596735505466 -0.0033012330159263902 0 0.002393925361458135 -0.0025492356062621654 0 0.0035720792515936939 -0.0042755745587146152 0 0.002393925361458135 -0.0025492356062621654 0 0.0040087633963639853 -0.0032679482007185712 0 0.0035720792515936939 -0.0042755745587146152 0 0.0040087633963639853 -0.0032679482007185712 0 0.0049553655422550115 -0.0046600514811300509 0 0.0035720792515936939 -0.0042755745587146152 0 0.0040087633963639853 -0.0032679482007185712 0 0.0049553655422550115 -0.0046600514811300509 0 0.0055979427890590558 -0.0040764717242276483 0 0.0049553655422550115 -0.0046600514811300509 0 0.0035720792515936939 -0.0042755745587146152 0 0.0052004713865494243 -0.0059384303417458172 0 0.0035720792515936939 -0.0042755745587146152 0 0.0039972722913513862 -0.0055658080928845232 0 0.0027562573106911527 -0.0044535956341112352 0 0.0035720792515936939 -0.0042755745587146152 0 0.0052004713865494243 -0.0059384303417458172 0 0.0039972722913513862 -0.0055658080928845232 0 0.0052004713865494243 -0.0059384303417458172 0 0.0054620296456303714 -0.0070103986712243228 0 0.0039972722913513862 -0.0055658080928845232 0 0.0054620296456303714 -0.0070103986712243228 0 0.0039972722913513862 -0.0055658080928845232 0 0.0042941910826717541 -0.0066060131774897113 0 0.0039972722913513862 -0.0055658080928845232 0 0.0028198437880732358 -0.0052000074722661303 0 0.0042941910826717541 -0.0066060131774897113 0 0.0028198437880732358 -0.0052000074722661303 0 0.0014712983331057524 -0.0039673485952793587 0 0.0013748257621245955 -0.004738902156008998 0 0.0017639596735505466 -0.0033012330159263902 0 0.0014712983331057524 -0.0039673485952793587 0 0.0027562573106911527 -0.0044535956341112352 0 0.0039972722913513862 -0.0055658080928845232 0 0.0028198437880732358 -0.0052000074722661303 0 0.0027562573106911527 -0.0044535956341112352 0 0.0028198437880732358 -0.0052000074722661303 0 0.0014712983331057524 -0.0039673485952793587 0 0.0027562573106911527 -0.0044535956341112352 0 0.0091596038744935406 -0.0074183339794958664 0 0.0078458436183876726 -0.0063342260117646328 0 0.0078535851209131872 -0.0074006246744336484 0 0.0089142443737268619 -0.0058068621067510007 0 0.007190563224608538 -0.0049222531623337286 0 0.0078458436183876726 -0.0063342260117646328 0 0.0091596038744935406 -0.0074183339794958664 0 0.0089142443737268619 -0.0058068621067510007 0 0.0078458436183876726 -0.0063342260117646328 0 0.007190563224608538 -0.0049222531623337286 0 0.0078458436183876726 -0.0063342260117646328 0 0.0065020607497363091 -0.0058102562017024913 0 0.0078458436183876726 -0.0063342260117646328 0 0.0065020607497363091 -0.0058102562017024913 0 0.0078535851209131872 -0.0074006246744336484 0 0.007190563224608538 -0.0049222531623337286 0 0.0065020607497363091 -0.0058102562017024913 0 0.0055979427890590558 -0.0040764717242276483 0 0.0049553655422550115 -0.0046600514811300509 0 0.0065020607497363091 -0.0058102562017024913 0 0.0055979427890590558 -0.0040764717242276483 0 0.0049553655422550115 -0.0046600514811300509 0 0.0052004713865494243 -0.0059384303417458172 0 0.0065020607497363091 -0.0058102562017024913 0 0.0052004713865494243 -0.0059384303417458172 0 0.0065020607497363091 -0.0058102562017024913 0 0.0066697394910091839 -0.0072875586769009957 0 0.0054620296456303714 -0.0070103986712243228 0 0.0066697394910091839 -0.0072875586769009957 0 0.0068521421052098385 -0.0084704889010922876 0 0.0052004713865494243 -0.0059384303417458172 0 0.0054620296456303714 -0.0070103986712243228 0 0.0066697394910091839 -0.0072875586769009957 0 0.0066697394910091839 -0.0072875586769009957 0 0.0080390864746483059 -0.0087722508442923293 0 0.0068521421052098385 -0.0084704889010922876 0 0.0065020607497363091 -0.0058102562017024913 0 0.0066697394910091839 -0.0072875586769009957 0 0.0078535851209131872 -0.0074006246744336484 0 0.0066697394910091839 -0.0072875586769009957 0 0.0078535851209131872 -0.0074006246744336484 0 0.0080390864746483059 -0.0087722508442923293 0 0.0078535851209131872 -0.0074006246744336484 0 0.0093198387312973842 -0.0088786601633556242 0 0.0080390864746483059 -0.0087722508442923293 0 0.0091596038744935406 -0.0074183339794958664 0 0.0078535851209131872 -0.0074006246744336484 0 0.0093198387312973842 -0.0088786601633556242 0 0.009422663869739268 -0.010214375331362499 0 0.0081884029161452838 -0.010099554688427501 0 0.009464939556637797 -0.011377467409060767 0 0.0093198387312973842 -0.0088786601633556242 0 0.009422663869739268 -0.010214375331362499 0 0.0080390864746483059 -0.0087722508442923293 0 0.009422663869739268 -0.010214375331362499 0 0.0080390864746483059 -0.0087722508442923293 0 0.0081884029161452838 -0.010099554688427501 0 0.0080390864746483059 -0.0087722508442923293 0 0.0081884029161452838 -0.010099554688427501 0 0.0068521421052098385 -0.0084704889010922876 0 0.0081884029161452838 -0.010099554688427501 0 0.0068521421052098385 -0.0084704889010922876 0 0.0068394474542159628 -0.0093073318461631086 0 0.0054620296456303714 -0.0070103986712243228 0 0.0068521421052098385 -0.0084704889010922876 0 0.0056407829564273588 -0.0079725672627293416 0 0.0068521421052098385 -0.0084704889010922876 0 0.0068394474542159628 -0.0093073318461631086 0 0.0056407829564273588 -0.0079725672627293416 0 0.0068394474542159628 -0.0093073318461631086 0 0.0070240937160306197 -0.010007908309453827 0 0.0079000804623739051 -0.010634437704722284 0 0.0068394474542159628 -0.0093073318461631086 0 0.0070240937160306197 -0.010007908309453827 0 0.0058201237929177809 -0.0087733281646494247 0 0.0070240937160306197 -0.010007908309453827 0 0.0079000804623739051 -0.010634437704722284 0 0.0078524160118961395 -0.01095908735139816 0 0.0081884029161452838 -0.010099554688427501 0 0.0068394474542159628 -0.0093073318461631086 0 0.0079000804623739051 -0.010634437704722284 0 0.0081884029161452838 -0.010099554688427501 0 0.0079000804623739051 -0.010634437704722284 0 0.0087384048748969344 -0.01135390652308112 0 0.0079000804623739051 -0.010634437704722284 0 0.0087384048748969344 -0.01135390652308112 0 0.0086325037222588826 -0.011840971860128204 0 0.0087384048748969344 -0.01135390652308112 0 0.0093498653942148627 -0.012309987851436891 0 0.0086325037222588826 -0.011840971860128204 0 0.0087384048748969344 -0.01135390652308112 0 0.009464939556637797 -0.011377467409060767 0 0.0093498653942148627 -0.012309987851436891 0 0.0081884029161452838 -0.010099554688427501 0 0.0087384048748969344 -0.01135390652308112 0 0.009464939556637797 -0.011377467409060767 0 0.0031395866249749925 -0.0062008188364048962 0 0.0045383840628705338 -0.0074921496190748236 0 0.0035084248107970285 -0.0070591337659253565 0 0.0016765006477915563 -0.0055050899752190933 0 0.00088942657666582871 -0.0074326573718171895 0 0.0021310275966563812 -0.0057057680596924653 0 0.0031395866249749925 -0.0062008188364048962 0 0.0035084248107970285 -0.0070591337659253565 0 0.0028198437880732358 -0.0052000074722661303 0 0.0013748257621245955 -0.004738902156008998 0 0.0031395866249749925 -0.0062008188364048962 0 0.0021310275966563812 -0.0057057680596924653 0 0.0013748257621245955 -0.004738902156008998 0 0.0031395866249749925 -0.0062008188364048962 0 0.0016765006477915563 -0.0055050899752190933 0 0.0013092544543941084 -0.0048234112282214761 0 0.0031395866249749925 -0.0062008188364048962 0 0.0042941910826717541 -0.0066060131774897113 0 0.0045383840628705338 -0.0074921496190748236 0 0.0028198437880732358 -0.0052000074722661303 0 0.0031395866249749925 -0.0062008188364048962 0 0.0042941910826717541 -0.0066060131774897113 0 0.0054620296456303714 -0.0070103986712243228 0 0.0042941910826717541 -0.0066060131774897113 0 0.0056407829564273588 -0.0079725672627293416 0 0.0056407829564273588 -0.0079725672627293416 0 0.0045383840628705338 -0.0074921496190748236 0 0.0058201237929177809 -0.0087733281646494247 0 0.0042941910826717541 -0.0066060131774897113 0 0.0056407829564273588 -0.0079725672627293416 0 0.0045383840628705338 -0.0074921496190748236 0 0.0045383840628705338 -0.0074921496190748236 0 0.0047937145961319825 -0.0082434402990146823 0 0.0058201237929177809 -0.0087733281646494247 0 0.0068394474542159628 -0.0093073318461631086 0 0.0056407829564273588 -0.0079725672627293416 0 0.0058201237929177809 -0.0087733281646494247 0 0.0070240937160306197 -0.010007908309453827 0 0.0058201237929177809 -0.0087733281646494247 0 0.0061089423165086544 -0.0094603198341061071 0 0.0047937145961319825 -0.0082434402990146823 0 0.0061089423165086544 -0.0094603198341061071 0 0.0050610512125582891 -0.0089987028867948033 0 0.0047937145961319825 -0.0082434402990146823 0 0.0058201237929177809 -0.0087733281646494247 0 0.0061089423165086544 -0.0094603198341061071 0 0.0047937145961319825 -0.0082434402990146823 0 0.0038104487495129184 -0.0079452729548964828 0 0.0050610512125582891 -0.0089987028867948033 0 0.0038104487495129184 -0.0079452729548964828 0 0.0040942300596608456 -0.0086916635095147955 0 0.0050610512125582891 -0.0089987028867948033 0 0.0045383840628705338 -0.0074921496190748236 0 0.0047937145961319825 -0.0082434402990146823 0 0.0035084248107970285 -0.0070591337659253565 0 0.0047937145961319825 -0.0082434402990146823 0 0.0038104487495129184 -0.0079452729548964828 0 0.0035084248107970285 -0.0070591337659253565 0 0.0021310275966563812 -0.0057057680596924653 0 0.0035084248107970285 -0.0070591337659253565 0 0.0026122482423475367 -0.0067711136486820495 0 0.0038104487495129184 -0.0079452729548964828 0 0.0035084248107970285 -0.0070591337659253565 0 0.0026122482423475367 -0.0067711136486820495 0 0.0038104487495129184 -0.0079452729548964828 0 0.0026122482423475367 -0.0067711136486820495 0 0.0028938712948784646 -0.007997257471890588 0 0.00088942657666582871 -0.0074326573718171895 0 0.0039382469955572845 -0.0054663805682775585 0 0.0038104487495129184 -0.0079452729548964828 0 0.0028938712948784646 -0.007997257471890588 0 0.0040942300596608456 -0.0086916635095147955 0 0.0039382469955572845 -0.0054663805682775585 0 0.0067465502554893281 -0.0038038375699766449 0 0.0080909420545482811 -0.003219744349988049 0 0.0082802634451166254 -0.0044325526866788711 0 0.0091410060630102985 -0.004284977029328757 0 0.0028938712948784646 -0.007997257471890588 0 0.0039541933217756443 -0.0094717897703545956 0 0.0040942300596608456 -0.0086916635095147955 0 0.0039382469955572845 -0.0054663805682775585 0 0.0069398956595887627 -0.0069343792481026184 0 0.0082802634451166254 -0.0044325526866788711 0 0.0091410060630102985 -0.004284977029328757 0 0.0091348568938778209 -0.0056847529564810892 0 0.0091410060630102985 -0.004284977029328757 0 0.0099098769460638815 -0.0057571012120691866 0 0.0091348568938778209 -0.0056847529564810892 0 0.0069398956595887627 -0.0069343792481026184 0 0.0075459060648572713 -0.007978761845657073 0 0.0039541933217756443 -0.0094717897703545956 0 0.0051318277856180249 -0.0097320469962169573 0 0.0054065956932450258 -0.010260382463644895 0 0.0051318277856180249 -0.0097320469962169573 0 0.0040942300596608456 -0.0086916635095147955 0 0.0050610512125582891 -0.0089987028867948033 0 0.0039541933217756443 -0.0094717897703545956 0 0.0051318277856180249 -0.0097320469962169573 0 0.0040942300596608456 -0.0086916635095147955 0 0.0061089423165086544 -0.0094603198341061071 0 0.0061708969593715418 -0.0099532648554132106 0 0.0050610512125582891 -0.0089987028867948033 0 0.0051318277856180249 -0.0097320469962169573 0 0.0061708969593715418 -0.0099532648554132106 0 0.0050610512125582891 -0.0089987028867948033 0 0.0070240937160306197 -0.010007908309453827 0 0.0061089423165086544 -0.0094603198341061071 0 0.0072884054940600277 -0.010561822444618027 0 0.0061089423165086544 -0.0094603198341061071 0 0.0061708969593715418 -0.0099532648554132106 0 0.0072884054940600277 -0.010561822444618027 0 0.0069049698419503735 -0.010517841887914769 0 0.0072884054940600277 -0.010561822444618027 0 0.0080264726930027175 -0.011016835211378377 0 0.0061708969593715418 -0.0099532648554132106 0 0.0069049698419503735 -0.010517841887914769 0 0.0072884054940600277 -0.010561822444618027 0 0.0051318277856180249 -0.0097320469962169573 0 0.0061708969593715418 -0.0099532648554132106 0 0.0054065956932450258 -0.010260382463644895 0 0.0061708969593715418 -0.0099532648554132106 0 0.0069049698419503735 -0.010517841887914769 0 0.0054065956932450258 -0.010260382463644895 0 0.0099098769460638815 -0.0057571012120691866 0 0.0099795622708034031 -0.0076131273193593184 0 0.0097328620778366175 -0.006860006580988778 0 0.0069049698419503735 -0.010517841887914769 0 0.0054065956932450258 -0.010260382463644895 0 0.0071450408418723141 -0.010447648747193261 0 0.0075459060648572713 -0.007978761845657073 0 0.0085662090363408435 -0.0090169760292942661 0 0.0069049698419503735 -0.010517841887914769 0 0.0071450408418723141 -0.010447648747193261 0 0.0080264726930027175 -0.011016835211378377 0 0.0071450408418723141 -0.010447648747193261 0 0.0080264726930027175 -0.011016835211378377 0 0.0091086087083878976 -0.0098217732571938433 0 0.0099795622708034031 -0.0076131273193593184 0 0.0091086087083878976 -0.0098217732571938433 0 0.0099779670184582149 -0.0082011934897197655 0 0.0085662090363408435 -0.0090169760292942661 0 0.0090683343888274762 -0.0097825707615355421 0 0.0099795622708034031 -0.0076131273193593184 0 0.0097328620778366175 -0.006860006580988778 0 0.0099779670184582149 -0.0082011934897197655 0 0.0097328620778366175 -0.006860006580988778 0 0.0096031073304181959 -0.0069545849708169327 0 0.0099779670184582149 -0.0082011934897197655 0 0.0097328620778366175 -0.006860006580988778 0 0.0096031073304181959 -0.0069545849708169327 0 0.0091348568938778209 -0.0056847529564810892 0 0.0061999728767100663 -0.0056284884979325841 0 0.0067634145128222037 -0.0060701618926164106 0 0.0096031073304181959 -0.0069545849708169327 0 0.0087322363346377004 -0.0054439930832373799 0 0.0093710947361860392 -0.0061404026911980021 0 0.0096031073304181959 -0.0069545849708169327 0 0.0087322363346377004 -0.0054439930832373799 0 0.0091348568938778209 -0.0056847529564810892 0 0.0067465502554893281 -0.0038038375699766449 0 0.0061999728767100663 -0.0056284884979325841 0 0.0082802634451166254 -0.0044325526866788711 0 0.0087322363346377004 -0.0054439930832373799 0 0.0091348568938778209 -0.0056847529564810892 0 0.0099098769460638815 -0.0057571012120691866 0 0.0097328620778366175 -0.006860006580988778 0 0.0091348568938778209 -0.0056847529564810892 0 0.0091985569860883777 -0.012783366589514141 0 0.0086325037222588826 -0.011840971860128204 0 0.0088151904755781729 -0.012133072721766783 0 0.0091985569860883777 -0.012783366589514141 0 0.0093498653942148627 -0.012309987851436891 0 0.0086325037222588826 -0.011840971860128204 0 0.0086325037222588826 -0.011840971860128204 0 0.0082639002296432083 -0.011478625150849334 0 0.0088151904755781729 -0.012133072721766783 0 0.0086325037222588826 -0.011840971860128204 0 0.0082639002296432083 -0.011478625150849334 0 0.0078524160118961395 -0.01095908735139816 0 0.0079000804623739051 -0.010634437704722284 0 0.0086325037222588826 -0.011840971860128204 0 0.0078524160118961395 -0.01095908735139816 0 0.0082639002296432083 -0.011478625150849334 0 0.0078524160118961395 -0.01095908735139816 0 0.0072884054940600277 -0.010561822444618027 0 0.0070240937160306197 -0.010007908309453827 0 0.0078524160118961395 -0.01095908735139816 0 0.0072884054940600277 -0.010561822444618027 0 0.0082639002296432083 -0.011478625150849334 0 0.0072884054940600277 -0.010561822444618027 0 0.0080264726930027175 -0.011016835211378377 0 0.0082639002296432083 -0.011478625150849334 0 0.0080264726930027175 -0.011016835211378377 0 0.008634946565436943 -0.011310095419062293 0 0.0080264726930027175 -0.011016835211378377 0 0.008634946565436943 -0.011310095419062293 0 0.0091086087083878976 -0.0098217732571938433 0 0.0082639002296432083 -0.011478625150849334 0 0.008634946565436943 -0.011310095419062293 0 0.0088151904755781729 -0.012133072721766783 0 0.008634946565436943 -0.011310095419062293 0 0.0088151904755781729 -0.012133072721766783 0 0.0090654408467631953 -0.011798046967674046 0 0.0090654408467631953 -0.011798046967674046 0 0.0090937382677771655 -0.012749898911845203 0 0.0092244094553892882 -0.012343218490747852 0 0.0088151904755781729 -0.012133072721766783 0 0.0090654408467631953 -0.011798046967674046 0 0.0090937382677771655 -0.012749898911845203 0 0.0091985569860883777 -0.012783366589514141 0 0.0088151904755781729 -0.012133072721766783 0 0.0090937382677771655 -0.012749898911845203 0 0.0092244094553892882 -0.012343218490747852 0 0.0094635330762832762 -0.011245167208795001 0 0.0095824661105117677 -0.01186343953151822 0 0.0090654408467631953 -0.011798046967674046 0 0.0092244094553892882 -0.012343218490747852 0 0.0094635330762832762 -0.011245167208795001 0 0.0090654408467631953 -0.011798046967674046 0 0.0094635330762832762 -0.011245167208795001 0 0.0092724798937288983 -0.010628714603651519 0 0.0094635330762832762 -0.011245167208795001 0 0.0092724798937288983 -0.010628714603651519 0 0.0097954548873708767 -0.010233307428893048 0 0.0092724798937288983 -0.010628714603651519 0 0.0096626805061779189 -0.0096228506291068626 0 0.0097954548873708767 -0.010233307428893048 0 0.008634946565436943 -0.011310095419062293 0 0.0090654408467631953 -0.011798046967674046 0 0.0092724798937288983 -0.010628714603651519 0 0.008634946565436943 -0.011310095419062293 0 0.0092724798937288983 -0.010628714603651519 0 0.0091086087083878976 -0.0098217732571938433 0 0.0092724798937288983 -0.010628714603651519 0 0.0091086087083878976 -0.0098217732571938433 0 0.0096626805061779189 -0.0096228506291068626 0 0.0096626805061779189 -0.0096228506291068626 0 0.0097954548873708767 -0.010233307428893048 0 0.010136567402154047 -0.0091059493091520706 0 0.010275726881977037 -0.0095598011121762055 0 0.0097954548873708767 -0.010233307428893048 0 0.010136567402154047 -0.0091059493091520706 0 0.010275726881977037 -0.0095598011121762055 0 0.0097954548873708767 -0.010233307428893048 0 0.010027882238846873 -0.010636935027584249 0 0.0094635330762832762 -0.011245167208795001 0 0.0097954548873708767 -0.010233307428893048 0 0.0097405233254851138 -0.01106101802926656 0 0.0097954548873708767 -0.010233307428893048 0 0.0097405233254851138 -0.01106101802926656 0 0.010027882238846873 -0.010636935027584249 0 0.0097405233254851138 -0.01106101802926656 0 0.010027882238846873 -0.010636935027584249 0 0.0099570171146036064 -0.011638254085208953 0 0.0097405233254851138 -0.01106101802926656 0 0.0099570171146036064 -0.011638254085208953 0 0.0095824661105117677 -0.01186343953151822 0 0.0094635330762832762 -0.011245167208795001 0 0.0097405233254851138 -0.01106101802926656 0 0.0095824661105117677 -0.01186343953151822 0 0.0067634145128222037 -0.0060701618926164106 0 0.0070729720793683499 -0.0064247145999429449 0 0.010036491140396182 -0.0074714883593519389 0 0.0093710947361860392 -0.0061404026911980021 0 0.0098497727330043618 -0.0064198558667091328 0 0.0096031073304181959 -0.0069545849708169327 0 0.010036491140396182 -0.0074714883593519389 0 0.0093710947361860392 -0.0061404026911980021 0 0.0096031073304181959 -0.0069545849708169327 0 0.010036491140396182 -0.0074714883593519389 0 0.0099779670184582149 -0.0082011934897197655 0 0.0091086087083878976 -0.0098217732571938433 0 0.0096626805061779189 -0.0096228506291068626 0 0.01005342630702429 -0.0086027162166934755 0 0.0091086087083878976 -0.0098217732571938433 0 0.0099779670184582149 -0.0082011934897197655 0 0.01005342630702429 -0.0086027162166934755 0 0.0096626805061779189 -0.0096228506291068626 0 0.01005342630702429 -0.0086027162166934755 0 0.010136567402154047 -0.0091059493091520706 0 0.010036491140396182 -0.0074714883593519389 0 0.0099779670184582149 -0.0082011934897197655 0 0.01005342630702429 -0.0086027162166934755 0 0.010036491140396182 -0.0074714883593519389 0 0.01005342630702429 -0.0086027162166934755 0 0.010304020147881206 -0.0081189828650382653 0 0.01005342630702429 -0.0086027162166934755 0 0.010304020147881206 -0.0081189828650382653 0 0.010136567402154047 -0.0091059493091520706 0 0.010275726881977037 -0.0095598011121762055 0 0.010136567402154047 -0.0091059493091520706 0 0.010507766178799756 -0.0085841753127055883 0 0.010304020147881206 -0.0081189828650382653 0 0.010136567402154047 -0.0091059493091520706 0 0.010507766178799756 -0.0085841753127055883 0 0.010304020147881206 -0.0081189828650382653 0 0.010507766178799756 -0.0085841753127055883 0 0.010530374655375888 -0.0077146015867164807 0 0.010304020147881206 -0.0081189828650382653 0 0.010530374655375888 -0.0077146015867164807 0 0.010247311049845963 -0.0073209976443254429 0 0.010036491140396182 -0.0074714883593519389 0 0.010304020147881206 -0.0081189828650382653 0 0.010247311049845963 -0.0073209976443254429 0 0.010036491140396182 -0.0074714883593519389 0 0.010247311049845963 -0.0073209976443254429 0 0.0098497727330043618 -0.0064198558667091328 0 0.0070729720793683499 -0.0064247145999429449 0 0.0074277196637672722 -0.0069733064538607444 0 0.010247311049845963 -0.0073209976443254429 0 0.0098497727330043618 -0.0064198558667091328 0 0.010214658314490822 -0.0068563503088743798 0 0.010530374655375888 -0.0077146015867164807 0 0.010247311049845963 -0.0073209976443254429 0 0.010214658314490822 -0.0068563503088743798 0 0.0046497910454902369 -0.0067841502054445044 0 0.0040945158941498479 -0.0058373368715220163 0 0.0040190984006213413 -0.0057557236019381399 0 0.0043100786435037695 -0.0064920559705960836 0 0.0046497910454902369 -0.0067841502054445044 0 0.0040190984006213413 -0.0057557236019381399 0 0.0040945158941498479 -0.0058373368715220163 0 0.0040190984006213413 -0.0057557236019381399 0 0.0034840634151698689 -0.0049162334763000791 0 0.0040190984006213413 -0.0057557236019381399 0 0.0038532234438265929 -0.005634426952215602 0 0.0033555705785016207 -0.0047953441608810585 0 0.0040190984006213413 -0.0057557236019381399 0 0.0033555705785016207 -0.0047953441608810585 0 0.0034840634151698689 -0.0049162334763000791 0 0.0043100786435037695 -0.0064920559705960836 0 0.0040190984006213413 -0.0057557236019381399 0 0.0038532234438265929 -0.005634426952215602 0 0.0040870282842260909 -0.0060682025871462214 0 0.0043100786435037695 -0.0064920559705960836 0 0.0038532234438265929 -0.005634426952215602 0 0.0038532234438265929 -0.005634426952215602 0 0.0033112735162094975 -0.0047954770500318773 0 0.0033555705785016207 -0.0047953441608810585 0 0.0039514757881504133 -0.0055161931867870849 0 0.0040870282842260909 -0.0060682025871462214 0 0.0033112735162094975 -0.0047954770500318773 0 0.0040870282842260909 -0.0060682025871462214 0 0.0038532234438265929 -0.005634426952215602 0 0.0033112735162094975 -0.0047954770500318773 0 0.0033112735162094975 -0.0047954770500318773 0 0.0024685107757080648 -0.0035961889582255559 0 0.0023067887765303285 -0.0034159751629243445 0 0.0033112735162094975 -0.0047954770500318773 0 0.0024685107757080648 -0.0035961889582255559 0 0.0033555705785016207 -0.0047953441608810585 0 0.0024685107757080648 -0.0035961889582255559 0 0.0033555705785016207 -0.0047953441608810585 0 0.0026293358313984323 -0.0036977164795445974 0 0.0024685107757080648 -0.0035961889582255559 0 0.0026293358313984323 -0.0036977164795445974 0 0.0016809348927586437 -0.0024759567311934878 0 0.0033555705785016207 -0.0047953441608810585 0 0.0026293358313984323 -0.0036977164795445974 0 0.0034840634151698689 -0.0049162334763000791 0 0.0040945158941498479 -0.0058373368715220163 0 0.0034840634151698689 -0.0049162334763000791 0 0.0032963113794938839 -0.0047413441745564628 0 0.0026293358313984323 -0.0036977164795445974 0 0.0034840634151698689 -0.0049162334763000791 0 0.0032963113794938839 -0.0047413441745564628 0 0.0026293358313984323 -0.0036977164795445974 0 0.0032963113794938839 -0.0047413441745564628 0 0.0023935104784757705 -0.0034535709905810156 0 0.0026293358313984323 -0.0036977164795445974 0 0.0023935104784757705 -0.0034535709905810156 0 0.0015649246228953181 -0.0021998529970657364 0 0.0023935104784757705 -0.0034535709905810156 0 0.0015649246228953181 -0.0021998529970657364 0 0.0014100380143384392 -0.0019695449780919873 0 0.0026293358313984323 -0.0036977164795445974 0 0.0015649246228953181 -0.0021998529970657364 0 0.0016809348927586437 -0.0024759567311934878 0 1.0070022689586884e-06 -2.5381255916331229e-06 0 0.0014100380143384392 -0.0019695449780919873 0 0.00071223577803243381 -0.0010371221319579753 0 1.0070022689586884e-06 -2.5381255916331229e-06 0 0.00071223577803243381 -0.0010371221319579753 0 8.1348583127529273e-08 -1.0003378870370836e-06 0 0.0015649246228953181 -0.0021998529970657364 0 0.0014100380143384392 -0.0019695449780919873 0 0.00071223577803243381 -0.0010371221319579753 0 0.0015649246228953181 -0.0021998529970657364 0 0.00071223577803243381 -0.0010371221319579753 0 0.00073886627418736403 -0.001152973321257201 0 0.00071223577803243381 -0.0010371221319579753 0 8.1348583127529273e-08 -1.0003378870370836e-06 0 0.00073886627418736403 -0.001152973321257201 0 8.1348583127529273e-08 -1.0003378870370836e-06 0 0.00073886627418736403 -0.001152973321257201 0 2.041299856592316e-07 -1.1146928096081317e-06 0 0.00073886627418736403 -0.001152973321257201 0 0.0010658491183748468 -0.0017173357736533954 0 0.00048051042291738977 -0.0008641398874495599 0 0.00073886627418736403 -0.001152973321257201 0 2.041299856592316e-07 -1.1146928096081317e-06 0 0.00048051042291738977 -0.0008641398874495599 0 0.0015649246228953181 -0.0021998529970657364 0 0.00073886627418736403 -0.001152973321257201 0 0.0016809348927586437 -0.0024759567311934878 0 0.00073886627418736403 -0.001152973321257201 0 0.0016809348927586437 -0.0024759567311934878 0 0.0010658491183748468 -0.0017173357736533954 0 0.0016809348927586437 -0.0024759567311934878 0 0.0010658491183748468 -0.0017173357736533954 0 0.0016379180858354038 -0.0025442560733832408 0 0.0024685107757080648 -0.0035961889582255559 0 0.0016809348927586437 -0.0024759567311934878 0 0.0016379180858354038 -0.0025442560733832408 0 0.0016379180858354038 -0.0025442560733832408 0 0.00092434743654877332 -0.0016162288764231196 0 0.0014959924311251499 -0.0023932196582160943 0 0.0010658491183748468 -0.0017173357736533954 0 0.0016379180858354038 -0.0025442560733832408 0 0.00092434743654877332 -0.0016162288764231196 0 0.0010658491183748468 -0.0017173357736533954 0 0.00092434743654877332 -0.0016162288764231196 0 0.00048051042291738977 -0.0008641398874495599 0 0.00092434743654877332 -0.0016162288764231196 0 0.00035238836496017588 -0.00074800293188682888 0 0.00074161122250163928 -0.0014297633576841227 0 0.00092434743654877332 -0.0016162288764231196 0 0.0014959924311251499 -0.0023932196582160943 0 0.00074161122250163928 -0.0014297633576841227 0 2.041299856592316e-07 -1.1146928096081317e-06 0 1.2624723856961234e-07 -9.104363052267507e-07 0 0.00048051042291738977 -0.0008641398874495599 0 1.2624723856961234e-07 -9.104363052267507e-07 0 0.00048051042291738977 -0.0008641398874495599 0 0.00035238836496017588 -0.00074800293188682888 0 0.00092434743654877332 -0.0016162288764231196 0 0.00048051042291738977 -0.0008641398874495599 0 0.00035238836496017588 -0.00074800293188682888 0 1.2624723856961234e-07 -9.104363052267507e-07 0 0.00035238836496017588 -0.00074800293188682888 0 7.5217771113731374e-08 -7.8878272162784726e-07 0 0.00035238836496017588 -0.00074800293188682888 0 7.5217771113731374e-08 -7.8878272162784726e-07 0 0.00022626093638829928 -0.00059191673278032909 0 0.00035238836496017588 -0.00074800293188682888 0 0.00022626093638829928 -0.00059191673278032909 0 0.00074161122250163928 -0.0014297633576841227 0 3.5204505876773029e-08 -6.4343383272639562e-07 0 7.5217771113731374e-08 -7.8878272162784726e-07 0 0.00022626093638829928 -0.00059191673278032909 0 0.0014959924311251499 -0.0023932196582160943 0 0.00074161122250163928 -0.0014297633576841227 0 0.0014683637286947292 -0.0022574766675370474 0 0.00043727589149086593 -0.00097821557943912987 0 0.00022626093638829928 -0.00059191673278032909 0 0.00074161122250163928 -0.0014297633576841227 0 0.0008323385321004367 -0.001510424128711876 0 0.00043727589149086593 -0.00097821557943912987 0 0.00074161122250163928 -0.0014297633576841227 0 0.0008323385321004367 -0.001510424128711876 0 0.00074161122250163928 -0.0014297633576841227 0 0.0014683637286947292 -0.0022574766675370474 0 0.0015214216959210357 -0.002092085088074732 0 0.0014683637286947292 -0.0022574766675370474 0 0.0022992997866245987 -0.0028277579105805586 0 0.0008323385321004367 -0.001510424128711876 0 0.0015214216959210357 -0.002092085088074732 0 0.0014683637286947292 -0.0022574766675370474 0 0.0014959924311251499 -0.0023932196582160943 0 0.0014683637286947292 -0.0022574766675370474 0 0.0022522224999953267 -0.0031657265657662938 0 0.0022522224999953267 -0.0031657265657662938 0 0.0022992997866245987 -0.0028277579105805586 0 0.0031291552484293762 -0.0037543692470522086 0 0.0014683637286947292 -0.0022574766675370474 0 0.0022522224999953267 -0.0031657265657662938 0 0.0022992997866245987 -0.0028277579105805586 0 0.0022992997866245987 -0.0028277579105805586 0 0.0032187607537884845 -0.0031281967797903505 0 0.0031291552484293762 -0.0037543692470522086 0 0.0032187607537884845 -0.0031281967797903505 0 0.0036806207644919432 -0.0036758897898590231 0 0.0031291552484293762 -0.0037543692470522086 0 0.0024293484846413401 -0.0024575772227405342 0 0.0022992997866245987 -0.0028277579105805586 0 0.0032187607537884845 -0.0031281967797903505 0 0.0044687695588809121 -0.0032919444555037252 0 0.0032187607537884845 -0.0031281967797903505 0 0.0036806207644919432 -0.0036758897898590231 0 0.0044687695588809121 -0.0032919444555037252 0 0.0040465758823861088 -0.0043603525833200377 0 0.0036806207644919432 -0.0036758897898590231 0 0.0040465758823861088 -0.0043603525833200377 0 0.0031291552484293762 -0.0037543692470522086 0 0.0035016662837543937 -0.0044671612137319964 0 0.0040465758823861088 -0.0043603525833200377 0 0.0036806207644919432 -0.0036758897898590231 0 0.0031291552484293762 -0.0037543692470522086 0 0.0031291552484293762 -0.0037543692470522086 0 0.0030601770744527936 -0.0042200300248718004 0 0.0035016662837543937 -0.0044671612137319964 0 0.0022522224999953267 -0.0031657265657662938 0 0.0031291552484293762 -0.0037543692470522086 0 0.0030601770744527936 -0.0042200300248718004 0 0.0039514757881504133 -0.0055161931867870849 0 0.0030601770744527936 -0.0042200300248718004 0 0.0035016662837543937 -0.0044671612137319964 0 0.0040465758823861088 -0.0043603525833200377 0 0.0039514757881504133 -0.0055161931867870849 0 0.0035016662837543937 -0.0044671612137319964 0 0.0039514757881504133 -0.0055161931867870849 0 0.0033112735162094975 -0.0047954770500318773 0 0.0030601770744527936 -0.0042200300248718004 0 0.0033112735162094975 -0.0047954770500318773 0 0.0030601770744527936 -0.0042200300248718004 0 0.0023067887765303285 -0.0034159751629243445 0 0.0016379180858354038 -0.0025442560733832408 0 0.0014959924311251499 -0.0023932196582160943 0 0.0023067887765303285 -0.0034159751629243445 0 0.0024685107757080648 -0.0035961889582255559 0 0.0016379180858354038 -0.0025442560733832408 0 0.0023067887765303285 -0.0034159751629243445 0 0.0014959924311251499 -0.0023932196582160943 0 0.0022522224999953267 -0.0031657265657662938 0 0.0023067887765303285 -0.0034159751629243445 0 0.0022522224999953267 -0.0031657265657662938 0 0.0030601770744527936 -0.0042200300248718004 0 0.0023067887765303285 -0.0034159751629243445 0 
</DataArray>
</PointData>
<CellData Scalars="region_id,cross_section_updated," Vectors="" Tensors="effective_stress,">
<DataArray type="Float64" Name="region_id" format="ascii">
8 8 8 8 8 8 8 8 8 8 8 8 8 8 8 8 8 8 8 8 8 8 8 8 8 8 8 8 8 8 8 8 8 8 8 7 8 8 8 7 8 8 8 8 8 8 8 8 7 8 8 8 7 8 8 8 8 8 8 8 8 8 8 8 8 8 8 8 8 8 8 8 8 8 8 8 8 8 8 8 8 8 8 8 8 8 8 8 8 8 8 8 8 8 8 8 8 8 8 8 8 8 8 8 8 8 8 8 8 8 8 8 8 8 8 8 8 8 8 8 8 8 8 8 8 8 8 6 8 8 8 6 8 8 8 8 8 8 8 8 8 8 8 8 8 8 8 8 8 6 8 6 8 8 7 8 8 7 8 8 8 8 8 8 8 8 8 8 8 8 8 7 8 8 8 7 8 8 8 6 8 8 6 8 8 8 8 8 8 8 8 8 8 8 8 8 8 8 8 8 8 8 8 8 8 8 8 8 8 8 8 8 8 8 8 8 6 8 8 8 8 8 8 8 8 8 8 8 8 8 8 8 6 8 8 8 8 8 8 8 8 8 8 8 8 8 8 8 8 8 8 8 8 8 8 8 8 8 8 8 8 8 8 8 8 8 8 8 8 8 8 8 8 8 8 8 8 8 8 8 8 8 8 8 8 8 8 8 8 8 8 8 8 8 8 8 8 8 8 8 8 8 8 8 8 8 
</DataArray>
<DataArray type="Float64" Name="effective_stress" NumberOfComponents="9" format="ascii">
-2561437.48781633 -1364479.5475611698 0 -1364479.5475611698 -7697134.6131893741 0 0 0 -2564643.0252514258 -880082.03617005143 -1602412.148159354 0 -1602412.148159354 -8426759.6624323018 0 0 0 -2326710.4246505881 96403.647567941807 -810641.5463744516 0 -810641.5463744516 -7623906.224891183 0 0 0 -1881875.6443308098 -901831.36572701589 -1220505.0886844308 0 -1220505.0886844308 -7673331.5043876003 0 0 0 -2143790.7175286543 -755244.08374610101 -1117783.1501258619 0 -1117783.1501258619 -7068173.511322543 0 0 0 -1955854.3987671607 56066.531863152049 -841950.41780648194 0 -841950.41780648194 -6921626.0657631643 0 0 0 -1716389.8834750038 127455.22863321305 -888223.66897797026 0 -888223.66897797026 -5822573.2436603606 0 0 0 -1423779.5037567869 488818.90821060818 -1726424.6067576585 0 -1726424.6067576585 -7011445.9312882721 0 0 0 -1630656.7557694158 158240.34224402439 -1061686.8507149415 0 -1061686.8507149415 -9023522.4158408269 0 0 0 -2216320.5183992013 577354.34122753097 -1018639.0213356029 0 -1018639.0213356029 -7743634.9873154052 0 0 0 -1791570.1615219684 1680627.4705379526 777740.68838495528 0 777740.68838495528 -6934191.0277593639 0 0 0 -1313390.8893053522 922286.36250253767 -929836.88607032504 0 -929836.88607032504 -8833840.7410505489 0 0 0 -1977888.5946370028 455074.77951123193 70453.963263001657 0 70453.963263001657 -10617642.743509978 0 0 0 -2540641.9909996856 -2538659.6743851164 -792241.78947246831 0 -792241.78947246831 -7616317.5267238757 0 0 0 -2538744.300277248 -1020374.6645552441 -345384.97794809146 0 -345384.97794809146 -8925726.3147187158 0 0 0 -2486525.2448184895 -228151.77360439245 -169735.76160746548 0 -169735.76160746548 -6543179.3871382959 0 0 0 -1692832.7901856722 -2313747.0438847006 53186.452853534764 0 53186.452853534764 -6943811.8713059602 0 0 0 -2314389.7287976653 -1045073.0742936656 425827.01792069874 0 425827.01792069874 -6305030.34878047 0 0 0 -1837525.8557685339 -2153094.4014200903 528250.13091009285 0 528250.13091009285 -6458711.6669923095 0 0 0 -2152951.5171031002 -1174087.280540192 750237.57804735354 0 750237.57804735354 -6790079.577039877 0 0 0 -1991041.7143950169 4913877.7224769061 2137313.6771662571 0 2137313.6771662571 -7185952.3361868188 0 0 0 -568018.65342747886 164166.90758246137 1389699.0398953832 0 1389699.0398953832 -4910963.2971717771 0 0 0 -1186699.0973973288 -339444.47544608824 930939.66941251885 0 930939.66941251885 -6527082.7102780286 0 0 0 -1716631.7964310292 2203643.9055616893 1067757.7199550252 0 1067757.7199550252 -6557837.3968325183 0 0 0 -1088548.3728177063 930723.16104418971 2331273.4896192076 0 2331273.4896192076 -7990289.3830611706 0 0 0 -1764891.5555042438 -106887.01595069119 1050508.5917126564 0 1050508.5917126564 -7221568.4353387142 0 0 0 -1832113.8628223513 -498090.80306855962 1258051.6089265607 0 1258051.6089265607 -8270282.4214737788 0 0 0 -2192093.3061355846 -708526.94470252935 465989.93671935925 0 465989.93671935925 -7062915.9135306114 0 0 0 -1942860.7145582847 -1972363.0469730916 1109276.0581321726 0 1109276.0581321726 -8311358.0720099891 0 0 0 -2570930.2797457706 -1847090.5753874378 487647.24095453368 0 487647.24095453368 -7780621.6105472287 0 0 0 -2406928.0464836666 -2392071.4829761544 796356.9467637944 0 796356.9467637944 -7176187.3952100817 0 0 0 -2392064.7195465588 -1618089.6042020062 469784.17738046747 0 469784.17738046747 -6605604.3448647736 0 0 0 -2055923.4872666949 -1544253.6042241054 932142.45718576899 0 932142.45718576899 -6362378.2025875775 0 0 0 -1976657.9517029207 -10027692.83130274 -1935127.2910269201 0 -1935127.2910269201 -12013370.012928113 0 0 0 -5510265.7110577114 -1823441.2614993136 4278125.9060286563 0 4278125.9060286563 -4901858.8693322577 0 0 0 -1681325.0327078924 204879.27912739647 -3135.5594397766981 0 -3135.5594397766981 -217421.51721591764 0 0 0 -3135.5595221302938 -8736792.9248467684 -706327.14722048864 0 -706327.14722048864 -9390999.9580217004 0 0 0 -4531948.2207171172 -4042110.4253243636 3421290.2547049578 0 3421290.2547049578 -5074827.2294008061 0 0 0 -2279234.4136812892 -12050666.210226465 -1366057.1355719119 0 -1366057.1355719119 -10764721.474664509 0 0 0 -5703846.9212227464 272458.5130172568 6473.3858464092482 0 6473.3858464092482 -246564.96961904864 0 0 0 6473.3858495520544 -4453346.8140718397 3357094.0889990814 0 3357094.0889990814 -6330310.8824707828 0 0 0 -2695914.424135657 -2134479.6170455646 2696076.9644374494 0 2696076.9644374494 -8003749.6001327485 0 0 0 -2534557.3042945787 408412.02053741785 3584131.9214664716 0 3584131.9214664716 -6624680.7642587749 0 0 0 -1554067.185930341 2616248.5498802289 3531284.1890590196 0 3531284.1890590196 -5474556.6916436739 0 0 0 -714577.03544086032 -119424.32087127585 2483645.2128590476 0 2483645.2128590476 -7131444.9422693029 0 0 0 -1812717.3157851445 -2156517.1554302191 4050961.8848132556 0 4050961.8848132556 -5727621.9932985231 0 0 0 -1971034.787182183 -9832055.8514781892 -3324976.4629072696 0 -3324976.4629072696 -14143114.129059933 0 0 0 -5993792.4951345287 2741661.9252629238 6043198.8010708354 0 6043198.8010708354 -2885139.5745137744 0 0 0 -35869.412312711123 156521.64208920664 -377.20551430074556 0 -377.20551430074556 -158030.46452644706 0 0 0 -377.20560931009823 1096967.7313096197 3989493.4460155377 0 3989493.4460155377 -6167881.3674668185 0 0 0 -1267728.409039299 9501198.0899523925 8465247.8838936426 0 8465247.8838936426 829959.64123205654 0 0 0 2582789.4327961113 -12171680.459483989 -7721262.6331509892 0 -7721262.6331509892 -19342137.644240875 0 0 0 -7878454.5259312158 60090.040971795905 -1224.8301772761333 0 -1224.8301772761333 -64989.361847121967 0 0 0 -1224.8302188315138 -3321943.1764206784 -2256139.286632333 0 -2256139.286632333 -11693122.584317762 0 0 0 -3753766.4401846072 -6605904.9335922971 -1489603.7507360689 0 -1489603.7507360689 -10829538.662713259 0 0 0 -4358860.899076391 -9841850.2155164555 -38566.580035790801 0 -38566.580035790801 -10805173.979435921 0 0 0 -5161756.0487380996 -8173292.1757004596 149458.78296433017 0 149458.78296433017 -10757819.18320699 0 0 0 -4732777.8397268578 -10004752.192601038 1108715.1416132934 0 1108715.1416132934 -12245332.387236163 0 0 0 -5562521.1449592952 -973695.84483081661 1748502.7562384382 0 1748502.7562384382 -9909508.3499692492 0 0 0 -2720801.0487000141 -3953913.254275132 2263855.3521806994 0 2263855.3521806994 -10353145.665096909 0 0 0 -3576764.729843013 -6112741.8485698886 -1282862.6102774641 0 -1282862.6102774641 -13088701.798262477 0 0 0 -4800360.9117080942 -3208194.7895780364 1082557.035542313 0 1082557.035542313 -9719474.5307153948 0 0 0 -3231917.3300733576 -2043898.7235393077 308716.95547081344 0 308716.95547081344 -8181756.2854920961 0 0 0 -2556413.7522578519 -1739682.8704059497 2648961.2396995742 0 2648961.2396995742 -8977749.8278359398 0 0 0 -2679358.1745604724 -1313910.6588750046 -2317879.002071349 0 -2317879.002071349 -13972402.055512531 0 0 0 -3821578.1785968821 791528.480017066 -1079288.290453054 0 -1079288.290453054 -9646767.0544152968 0 0 0 -2213809.6435995586 -963186.9371951439 -879734.2092139814 0 -879734.2092139814 -7861909.1631378308 0 0 0 -2206274.0250832411 -4945273.7601138409 -1440548.0340892016 0 -1440548.0340892016 -9337481.8942109942 0 0 0 -3570688.9135812093 -431546.68054562411 -2118440.9292109217 0 -2118440.9292109217 -9526720.6496685799 0 0 0 -2489566.8325535487 -1508722.7099680267 -1280724.5259120287 0 -1280724.5259120287 -6371436.7358624488 0 0 0 -1970039.8614576198 -897321.04560645111 -137847.04076788295 0 -137847.04076788295 -2067971.4573580883 0 0 0 -741323.12574113533 -30978.342510595496 -748970.89831566345 0 -748970.89831566345 -5893032.0860696649 0 0 0 -1481002.607145065 -235101.75734173786 -919703.69453658164 0 -919703.69453658164 -3563212.7900458351 0 0 0 -949578.6368468916 -2448255.6529567465 803116.6361645693 0 803116.6361645693 -6531920.9489841498 0 0 0 -2245044.150485225 -104179.84698885726 54980.395147056319 0 54980.395147056319 -5489937.0471007563 0 0 0 -1398529.2235224028 -29483.133128717542 1267543.2247970719 0 1267543.2247970719 -7004000.9502259269 0 0 0 -1758371.0208386611 -757436.31733719632 851577.74006614555 0 851577.74006614555 -3079847.7853658795 0 0 0 -959321.02567576896 139062.06444205157 1120747.5127530731 0 1120747.5127530731 -5055873.739951849 0 0 0 -1229202.9188774507 -295934.6137131271 1728056.3670920692 0 1728056.3670920692 -6878709.8195206653 0 0 0 -1793661.1083084499 825028.56995267794 1882051.7669577599 0 1882051.7669577599 -7977464.806442555 0 0 0 -1788109.0591224693 57723.943128857762 969640.80919420719 0 969640.80919420719 -7950549.2562410831 0 0 0 -1973206.3282780554 443165.35651645437 753037.53774508089 0 753037.53774508089 -7518545.8887493387 0 0 0 -1768845.1330582183 -64512.320348536596 517877.58607369289 0 517877.58607369289 -9048432.2458388954 0 0 0 -2278236.1415468603 307622.68900621496 306864.6903238073 0 306864.6903238073 -8521710.0211545527 0 0 0 -2053521.833037084 582823.31622509379 787776.53455543518 0 787776.53455543518 -8671169.1383762769 0 0 0 -2022086.4555377914 919906.05110919476 1521572.897519018 0 1521572.897519018 -9251098.1294207722 0 0 0 -2082798.0195778869 844531.4449762553 1130280.4552791938 0 1130280.4552791938 -9603380.9855979383 0 0 0 -2189712.3851554208 1033313.250529699 978265.6036236058 0 978265.6036236058 -9719186.780227378 0 0 0 -2171468.3824244253 1571800.594402384 1096032.7479770295 0 1096032.7479770295 -10025315.412630752 0 0 0 -2113378.7045570947 1658151.0315226298 1609498.801725667 0 1609498.801725667 -10072195.719003186 0 0 0 -2103511.1718701404 -395668.7379044313 2961049.7523474358 0 2961049.7523474358 -10351227.95718772 0 0 0 -2686724.1737730335 -112655.88290009648 2422618.6814301722 0 2422618.6814301722 -9411245.3708089963 0 0 0 -2380975.3134272732 1126552.3798071779 1840421.8858220465 0 1840421.8858220465 -9891394.0284699462 0 0 0 -2191210.4121656902 1557942.4812021367 2196878.2985861227 0 2196878.2985861227 -9082814.2122769952 0 0 0 -1881217.9327687174 -477637.47541161627 681626.17255061865 0 681626.17255061865 -9996718.1784479693 0 0 0 -2618588.9134648964 -367812.86683743302 474718.85365188122 0 474718.85365188122 -9558433.0293574184 0 0 0 -2481561.4740487174 -620003.51662640274 373400.80494892597 0 373400.80494892597 -9711514.5743802339 0 0 0 -2582879.5227516666 15907.481557406485 94104.575063154101 0 94104.575063154101 -9583118.3342126012 0 0 0 -2391802.713163808 -476014.49915422313 378083.04217837006 0 378083.04217837006 -9595529.5780999586 0 0 0 -2517886.0193135496 -16053.607509909198 112603.73451744393 0 112603.73451744393 -9027019.8756723702 0 0 0 -2260768.3707955629 -11144.542440152727 90953.712704241276 0 90953.712704241276 -9216935.9099504426 0 0 0 -2307020.1130976481 315270.62461221963 544593.48251189908 0 544593.48251189908 -9408628.7699368075 0 0 0 -2273339.536331147 185215.31816138327 436361.05569234863 0 436361.05569234863 -9629199.7663717642 0 0 0 -2360996.1120525971 416684.06971115991 688203.74547928572 0 688203.74547928572 -9981038.3325809538 0 0 0 -2391088.565717455 940989.4389266111 713439.23210449773 0 713439.23210449773 -9887483.1891964078 0 0 0 -2236623.4375674464 337862.73622455075 469375.24659517407 0 469375.24659517407 -10032146.723157689 0 0 0 -2423570.9967332892 75130.068987876177 410578.20802048966 0 410578.20802048966 -9947115.9863354266 0 0 0 -2467996.4793368801 -719030.46762149781 457434.15002918243 0 457434.15002918243 -9898582.0474545136 0 0 0 -2654403.1287690029 -727365.88760363311 706953.69021518528 0 706953.69021518528 -9997706.8020057008 0 0 0 -2681268.1724023372 -1610467.2825994417 691712.47442472726 0 691712.47442472726 -9958917.2654999793 0 0 0 -2892346.1370248571 -2886070.2507000305 593852.97576857358 0 593852.97576857358 -10011032.732847407 0 0 0 -3224275.745886866 -2262972.818695128 673408.95076612069 0 673408.95076612069 -10079322.886212006 0 0 0 -3085573.9262267873 -861696.72808449343 656747.21173989028 0 656747.21173989028 -10028234.322899848 0 0 0 -2722482.7627460845 -907730.97735035419 534949.51367939031 0 534949.51367939031 -10101020.187940627 0 0 0 -2752187.7913227454 636940.51864149049 347676.8076697439 0 347676.8076697439 -10196168.864472389 0 0 0 -2389807.0864577182 1327366.7837715223 760962.24255888164 0 760962.24255888164 -10234262.714927673 0 0 0 -2226723.9827890322 1208425.9575618878 977733.02753918618 0 977733.02753918618 -10028668.658819124 0 0 0 -2205060.6753142998 1612597.9439953119 386774.38187008165 0 386774.38187008165 -10052611.755766541 0 0 0 -2110003.452942811 2241444.4545362368 1333155.5394599698 0 1333155.5394599698 -9759552.9242559075 0 0 0 -1879527.1174299195 1446237.5697760116 1175980.9892648086 0 1175980.9892648086 -9589044.224730283 0 0 0 -2035701.663738573 204857.03529403545 711742.86178765446 0 711742.86178765446 -10093745.454073027 0 0 0 -2472222.104694752 -916050.04680211842 -38181.007788281888 0 -38181.007788281888 -9871013.3141788244 0 0 0 -2696765.8402452394 -1228150.626436397 944767.48151569068 0 944767.48151569068 -10003564.44536156 0 0 0 -2807928.7679494913 -1828215.0072969496 196498.97172108293 0 196498.97172108293 -9933939.5483798534 0 0 0 -2940538.638919197 -4496008.2232172042 524546.33916862309 0 524546.33916862309 -9805651.4721322805 0 0 0 -3575414.9238373637 -1823551.4656326547 801600.16756331548 0 801600.16756331548 -10072654.645980388 0 0 0 -2974051.5279032663 2881946.5848297104 1839383.0836853236 0 1839383.0836853236 -9809679.4407441169 0 0 0 -1731933.213978596 -11333.866633024445 58879.655004052489 0 58879.655004052489 -3777.9555678453762 0 0 0 -3777.9555502174771 2482500.5292104892 1618587.5353709608 0 1618587.5353709608 -10896057.649390154 0 0 0 -2103389.280044917 2401723.3876074702 2680179.013864994 0 2680179.013864994 -10015757.33757443 0 0 0 -1903508.4874917399 6481657.495316986 2102334.6941838586 0 2102334.6941838586 -9593177.9600695968 0 0 0 -777880.11618815362 5288.3451862446382 21106.626720967455 0 21106.626720967455 1762.7817322718911 0 0 0 1762.7817296291178 2316201.0153196696 1809244.295739159 0 1809244.295739159 -9548711.1956433728 0 0 0 -1808127.5450809281 2183258.1376511306 1489073.2106756819 0 1489073.2106756819 -9915615.4864880145 0 0 0 -1933089.3372092173 1643567.9947547782 1217710.5484675243 0 1217710.5484675243 -9874867.8710925207 0 0 0 -2057824.9690844361 2430687.7926650718 1588513.1812717542 0 1588513.1812717542 -9754690.8480526507 0 0 0 -1831000.7638469003 1938522.2182615325 1289339.3515086696 0 1289339.3515086696 -10153749.899600536 0 0 0 -2053806.9203347564 2495438.8317834511 1600975.3754266305 0 1600975.3754266305 -9837778.7873482406 0 0 0 -1835584.9888911918 1910011.7397629023 913198.38429119438 0 913198.38429119438 -10223557.840982392 0 0 0 -2078386.5253048763 2709785.3478235453 1247093.3774513006 0 1247093.3774513006 -9729064.3807339221 0 0 0 -1754819.7582276016 2424461.566087693 1980360.2543040216 0 1980360.2543040216 -8689635.4531546384 0 0 0 -1566293.4717667326 3102849.5370092317 2041236.9260811284 0 2041236.9260811284 -9375471.5060335621 0 0 0 -1568155.4922560751 2438900.7238906957 2082565.4089521989 0 2082565.4089521989 -8709338.0366749093 0 0 0 -1567609.3281960562 624882.75815559924 1760592.0404325537 0 1760592.0404325537 -7641132.7808970511 0 0 0 -1754062.5056853518 2575078.6092526913 1849803.5064277165 0 1849803.5064277165 -9862091.0822220892 0 0 0 -1821753.1182423532 2115906.3929299563 1651259.9081112742 0 1651259.9081112742 -9257935.8654655516 0 0 0 -1785507.3681338951 2900534.2055990808 1104041.5928041488 0 1104041.5928041488 -9777270.1777431816 0 0 0 -1719183.9930360205 1826521.2921795174 1109596.8995443804 0 1109596.8995443804 -9905848.4987827539 0 0 0 -2019831.8016508073 732979.05328696594 523105.33024944365 0 523105.33024944365 -8615388.0573266894 0 0 0 -1970602.2510099374 43903.013988766295 115799.71749536801 0 115799.71749536801 14634.337880867068 0 0 0 14634.337967408355 888313.1485389024 986963.5607207194 0 986963.5607207194 -7747746.0801010281 0 0 0 -1714858.2328905314 33699.639162321459 163767.37316116149 0 163767.37316116149 11233.21316913882 0 0 0 11233.213082865026 305600.88580290601 1111890.7451202311 0 1111890.7451202311 -5141481.840778321 0 0 0 -1208970.2387438528 -2070887.1389265507 -66239.204535968602 0 -66239.204535968602 -8267938.9950403869 0 0 0 -2584706.5334917307 323752.24995911855 -1025.761068769556 0 -1025.761068769556 -280387.76608835603 0 0 0 10841.120967690716 -2774889.8752937 -682451.25464053452 0 -682451.25464053452 -8310573.6354616359 0 0 0 -2771365.8776888382 -3242666.6611619852 -1267045.6243865266 0 -1267045.6243865266 -9692435.3132751435 0 0 0 -3233775.4936092831 276552.92254014825 -1402.7910358489607 0 -1402.7910358489607 -282164.086519273 0 0 0 -1402.7909947812441 1836851.9861974511 4616689.0506138951 0 4616689.0506138951 -3310080.4272684939 0 0 0 -368307.11026776396 1456482.9405200481 2280751.8007831201 0 2280751.8007831201 -7191247.106004566 0 0 0 -1433691.0413711369 625868.91616233625 1984394.0026125759 0 1984394.0026125759 -2984438.4169658013 0 0 0 -589642.37520085834 3532469.170681186 2701753.7919730153 0 2701753.7919730153 -7979860.4683315754 0 0 0 -1111847.8244126067 2209483.6774302786 2706698.7093576416 0 2706698.7093576416 -5314365.0182693042 0 0 0 -776220.33520977292 3843356.2704451811 2077600.3950555697 0 2077600.3950555697 -8812247.3765948638 0 0 0 -1242222.7765374277 3189532.5126772672 2185324.3938057758 0 2185324.3938057758 -7646086.2890024483 0 0 0 -1114138.4440812916 5453990.3403993174 4319653.6374720559 0 4319653.6374720559 -4634472.4990938604 0 0 0 204879.46032638103 4337985.9036196619 3492906.0341038145 0 3492906.0341038145 -7253433.5614739358 0 0 0 -728861.9144635722 1447579.4757351745 3974643.0671312958 0 3974643.0671312958 -5051775.1793106869 0 0 0 -901048.92589390092 3384527.8656234294 4961516.2551775537 0 4961516.2551775537 -3192275.4065670371 0 0 0 48063.114764094353 -7846701.4373410195 -5509559.1220265403 0 -5509559.1220265403 -15845386.107848436 0 0 0 -5923021.8862973601 7368824.7806235459 8377900.2615198269 0 8377900.2615198269 -1170246.8806824237 0 0 0 1549644.4749852847 214017.02458266891 -57.315911988262087 0 -57.315911988262087 -214246.28796584788 0 0 0 -57.315845794742927 4397584.2685790733 5964003.8183911592 0 5964003.8183911592 -7037066.4273335934 0 0 0 -659870.53968861699 14596257.832735661 12129387.39814584 0 12129387.39814584 3175942.5014650226 0 0 0 4443050.0835501663 -12451135.427728917 -10223540.680985678 0 -10223540.680985678 -25492449.054729074 0 0 0 -9485896.1206145026 82542.873208845733 -843.1020307308645 0 -843.1020307308645 -85915.281207641121 0 0 0 -843.10199969884707 -3227604.3689457364 -3480927.2917018011 0 -3480927.2917018011 -13959564.99953283 0 0 0 -4296792.342119623 -4448782.2405616194 -2772805.199326314 0 -2772805.199326314 -16122838.728807524 0 0 0 -5142905.2423422709 -1150621.291373089 -1144503.4461305887 0 -1144503.4461305887 -14122629.211087942 0 0 0 -3818312.6256152689 6761.2996233037265 199529.84639020951 0 199529.84639020951 2253.7665143238846 0 0 0 2253.7665344069246 1854063.4224804491 19348.407539192587 0 19348.407539192587 -14881278.58210548 0 0 0 -3256803.7899062634 -1088963.0360125694 -861096.19217674434 0 -861096.19217674434 -13373977.532705583 0 0 0 -3615735.1421795357 -6558.928541533649 172990.3584725323 0 172990.3584725323 -2186.3095036647283 0 0 0 -2186.3095112996234 818609.36154009402 -87017.812433419909 0 -87017.812433419909 -12007304.380054057 0 0 0 -2797173.7546284944 -5752128.3938766941 -2226731.694960874 0 -2226731.694960874 -11277186.600284338 0 0 0 -4257328.7485402599 -1771592.1964145154 1172009.0909407735 0 1172009.0909407735 -10087391.700988829 0 0 0 -2964745.9743508324 -4728079.0539731011 1052811.1619248805 0 1052811.1619248805 -9342368.1018392146 0 0 0 -3517611.7889530882 -927606.1459255144 1429028.9797057435 0 1429028.9797057435 -7487734.1439528316 0 0 0 -2103835.0724695921 1470661.3166925088 1110212.7670002282 0 1110212.7670002282 -9505381.5697926879 0 0 0 -2008680.0632750466 183357.59890966862 144756.0874221772 0 144756.0874221772 -9450055.9905502498 0 0 0 -2316674.5979101434 1820599.0564150587 1542284.0188544374 0 1542284.0188544374 -8044757.1397058666 0 0 0 -1556039.5208226964 2811748.9124586582 693033.5068339631 0 693033.5068339631 -9120572.1234177947 0 0 0 -1577205.8027397767 5289386.4809360653 1552098.3559747487 0 1552098.3559747487 -7801641.2706366479 0 0 0 -628063.69742514938 2419979.1998474635 2969386.2446421981 0 2969386.2446421981 -4791676.1133388728 0 0 0 -592924.22837285325 8315336.7963418774 4512207.6725399271 0 4512207.6725399271 -9420092.3708068728 0 0 0 -276188.89361624792 848634.79046560079 2578001.7371692946 0 2578001.7371692946 -9524811.3488520682 0 0 0 -2169044.1395966262 -324373.36613908038 2892282.4165154546 0 2892282.4165154546 -8809718.9908841997 0 0 0 -2283523.0892558284 -1948993.9347242378 2065858.5400829241 0 2065858.5400829241 -10028459.807789668 0 0 0 -2994363.43562847 -706051.09221819043 2079134.2065876448 0 2079134.2065876448 -10019007.414624959 0 0 0 -2681264.6267107874 -4200182.7845509537 1673889.3113760501 0 1673889.3113760501 -9246349.3676707745 0 0 0 -3361633.0380554385 253474.55292259157 1631757.3082325161 0 1631757.3082325161 -10697389.30519928 0 0 0 -2610978.6880691648 919949.05943475664 2029212.3992950767 0 2029212.3992950767 -10004352.635278419 0 0 0 -2271100.8939609155 166459.55479557067 2217006.8952778801 0 2217006.8952778801 -12262673.498586029 0 0 0 -3024053.4859476089 1635611.0838889703 1418373.1612995714 0 1418373.1612995714 -10824963.19432795 0 0 0 -2297338.0276097357 944815.22047385946 605932.48038960248 0 605932.48038960248 -13179424.976893783 0 0 0 -3058652.439104978 3268606.653325431 3456363.1421495229 0 3456363.1421495229 -10079509.742075279 0 0 0 -1702725.7721874639 2279345.8012859374 2166836.7500954326 0 2166836.7500954326 -13497002.322193801 0 0 0 -2804414.1302269623 2766385.2099508122 1296830.2791346461 0 1296830.2791346461 -11974639.56010215 0 0 0 -2302063.5875378326 1858963.1457072794 -124463.87445291877 0 -124463.87445291877 -11332389.66577737 0 0 0 -2368356.6300175264 45857.122102603316 -410219.96136372909 0 -410219.96136372909 -11994358.077222124 0 0 0 -2987125.2387798876 595710.54263710231 -66446.272508312017 0 -66446.272508312017 -11290858.250140086 0 0 0 -2673786.9268757552 288832.97968606651 1019803.6550609693 0 1019803.6550609693 -11364914.128255486 0 0 0 -2769020.2871423662 -26072.167303428054 248802.81196597964 0 248802.81196597964 -11000616.578130983 0 0 0 -2756672.1863586009 393937.44878518581 567739.2679316029 0 567739.2679316029 -10549424.131735131 0 0 0 -2538871.6707374826 439793.798255831 585481.8316604048 0 585481.8316604048 -10666250.736121446 0 0 0 -2556614.2344664037 639648.2087700814 1222362.9791143425 0 1222362.9791143425 -9973847.3822136819 0 0 0 -2333549.7933608964 3714.6907952570182 215056.9999999046 0 215056.9999999046 1238.2302562947152 0 0 0 1238.2302628879261 720145.08467472158 816005.32879845425 0 816005.32879845425 -13157260.644162215 0 0 0 -3109278.8898718748 -423206.33159095794 717532.47140678018 0 717532.47140678018 -13222999.201206893 0 0 0 -3411551.3831994683 -1319168.6562314332 408024.15987329464 0 408024.15987329464 -16551033.832550332 0 0 0 -4467550.6221954525 3247871.4681832567 -45880.394571579993 0 -45880.394571579993 -13470604.758818001 0 0 0 -2555683.3226586953 -1148786.6555784969 -2562375.5122596994 0 -2562375.5122596994 -19558994.180863038 0 0 0 -5176945.2091103895 -144252.72208634717 -1430219.8659159616 0 -1430219.8659159616 -14333276.056481032 0 0 0 -3619382.194641843 -3504830.5998709053 50046.110315643251 0 50046.110315643251 -13301572.219164893 0 0 0 -4201600.704758957 -421463.28552560194 -111590.12442877144 0 -111590.12442877144 -12285396.796632646 0 0 0 -3176715.0205395636 -1574424.9364210963 -727627.99886240065 0 -727627.99886240065 -11697686.360911891 0 0 0 -3318027.8243332505 7767.5960257574916 -500494.25261588767 0 -500494.25261588767 -10404085.995678008 0 0 0 -2599079.5999130681 -271.2092193569988 -483065.63223030418 0 -483065.63223030418 -11193026.528626384 0 0 0 -2798324.4344614279 -442262.89927707985 -243254.99294672161 0 -243254.99294672161 -9422874.0436428189 0 0 0 -2466284.2357299775 -147398.49701648951 -97686.883834190667 0 -97686.883834190667 -11343601.554427117 0 0 0 -2872750.0128609017 -872335.29846072197 6054.0361189320683 0 6054.0361189320683 -11527465.960099846 0 0 0 -3099950.3146401495 -388000.40456585959 1050815.8171559665 0 1050815.8171559665 -12679540.420356244 0 0 0 -3266885.2062305249 4256.9710219288827 219896.85975435231 0 219896.85975435231 1418.9903650203487 0 0 0 1418.9903467373224 93768.953068887815 -108017.57872244716 0 -108017.57872244716 -11395031.748360008 0 0 0 -2825315.6988227833 -179662.61272565648 368740.50827947445 0 368740.50827947445 -9214567.8345576525 0 0 0 -2348557.6118208319 -93259.644976945405 378713.6155946143 0 378713.6155946143 -10130428.776805604 0 0 0 -2555922.1054456327 -384714.56220913306 925205.28825062513 0 925205.28825062513 -12024940.550194338 0 0 0 -3102413.7781008668 -128824.94910476357 840489.5670650471 0 840489.5670650471 -12599544.45932512 0 0 0 -3182092.3521074727 -225975.94012712687 1229568.7536906889 0 1229568.7536906889 -13119580.535363868 0 0 0 -3336389.1188727506 -86155.504124522209 1069183.5909112021 0 1069183.5909112021 -12489422.522228569 0 0 0 -3143894.5065882728 -622631.9740695972 379308.56979017332 0 379308.56979017332 -12636046.167229906 0 0 0 -3314669.5353248809 -1996869.4784844294 804021.16058245476 0 804021.16058245476 -13128219.932338998 0 0 0 -3781272.3527058586 -1091333.4805481918 1147459.7682147566 0 1147459.7682147566 -13422717.293642014 0 0 0 -3628512.6935475506 -3062066.4505062588 901447.19859839801 0 901447.19859839801 -13523879.225940466 0 0 0 -4146486.4191116802 -894561.53007462807 1031525.9947975464 0 1031525.9947975464 -13108908.518609732 0 0 0 -3500867.5121710934 -770932.6338174874 1767754.036494609 0 1767754.036494609 -13550439.705714416 0 0 0 -3580343.0848829756 -497877.15315505862 1743217.9873479307 0 1743217.9873479307 -13498994.171707205 0 0 0 -3499217.8312155679 -278223.74273203127 1714086.060845742 0 1714086.060845742 -13524539.816027828 0 0 0 -3450690.889689967 -219312.88079968095 1920106.7559789633 0 1920106.7559789633 -13897628.046692327 0 0 0 -3529235.231873 -141944.74759072252 1446595.0659870394 0 1446595.0659870394 -13819676.517030913 0 0 0 -3490405.3161554094 -223312.84568842128 744479.33256153762 0 744479.33256153762 -11765026.382831275 0 0 0 -2997084.807129927 153642.35235429183 700227.69757243991 0 700227.69757243991 -12911501.843853358 0 0 0 -3189464.8728747703 -207192.79088716395 867475.19262639433 0 867475.19262639433 -13805311.55936908 0 0 0 -3503126.0875640567 54793.284096768126 882723.80708876532 0 882723.80708876532 -14701942.538999543 0 0 0 -3661787.3137256932 -419983.76021472737 1143059.8512526564 0 1143059.8512526564 -15969605.386667348 0 0 0 -4097397.2867205199 -745258.3611008476 2224933.0155008454 0 2224933.0155008454 -14645141.629467584 0 0 0 -3847599.9976421101 -2618334.1722788075 3421168.7784463046 0 3421168.7784463046 -21854184.484143097 0 0 0 -6118129.6641054759 -5648115.4467592454 3883777.7662988999 0 3883777.7662988999 -16973967.258224245 0 0 0 -5655520.6762458738 479923.9374683518 1581882.5752532305 0 1581882.5752532305 -16012315.869195255 0 0 0 -3883097.9829317275 -2538469.6204460678 3202038.5019493252 0 3202038.5019493252 -16411417.345858805 0 0 0 -4737471.741576219 -2647657.1626407937 2601566.2388818637 0 2601566.2388818637 -15037809.032956423 0 0 0 -4421366.5488993041 -4724408.7042075284 3029257.0307067465 0 3029257.0307067465 -14169297.107741585 0 0 0 -4723426.4529872779 -2680094.3528638547 2481352.2866864372 0 2481352.2866864372 -13026348.680483805 0 0 0 -3926610.7583369166 -2514670.7383082793 2200147.9334413758 0 2200147.9334413758 -12815121.563149542 0 0 0 -3832448.0753644556 -732167.26728665549 2220272.740333925 0 2220272.740333925 -14235979.797402382 0 0 0 -3742036.7661722591 -1611499.9925516462 2701297.6702198749 0 2701297.6702198749 -14359486.542170869 0 0 0 -3992746.6336806295 -683788.49809591845 2174830.5211587865 0 2174830.5211587865 -13054998.10747977 0 0 0 -3434696.651393922 -749494.40492111119 2275933.3220218904 0 2275933.3220218904 -13761007.140319305 0 0 0 -3627625.3863101047 -758426.37460861448 1839433.4597444423 0 1839433.4597444423 -11786401.848736476 0 0 0 -3136207.0558362734 -1590381.5590402368 2426757.7804517439 0 2426757.7804517439 -12972872.361844949 0 0 0 -3640813.480221299 -1464788.1781923147 1971871.2310516124 0 1971871.2310516124 -12241495.027874416 0 0 0 -3426570.8015166819 -1202078.8624829836 1421792.2707293523 0 1421792.2707293523 -10683088.559576139 0 0 0 -2971291.8555147806 -1344585.678573634 2111718.2297475785 0 2111718.2297475785 -11528267.72736782 0 0 0 -3218213.3514853618 -4093247.731652298 2277647.8294259585 0 2277647.8294259585 -12282235.442863761 0 0 0 -4093870.7936290139 -2235264.7268057005 1540001.1098322782 0 1540001.1098322782 -11061438.446216773 0 0 0 -3324175.7932556188 -2496355.9084615358 2117408.5447313073 0 2117408.5447313073 -11825286.974546516 0 0 0 -3580410.7207520125 -3559870.5300935078 1678303.1118912874 0 1678303.1118912874 -10681244.533239111 0 0 0 -3560278.7658331543 -1947931.5529291835 948405.83881350118 0 948405.83881350118 -9431724.7921917215 0 0 0 -2844914.0862802267 -2223252.0910527976 1615901.3231942686 0 1615901.3231942686 -10003251.95746287 0 0 0 -3056626.0121289166 -2984155.7207206902 1141402.0329710206 0 1141402.0329710206 -8953747.5866496507 0 0 0 -2984475.8268425851 -931898.0775136482 1594932.370314518 0 1594932.370314518 -10164630.547834441 0 0 0 -2774132.1563370228 -1055548.2430541329 986303.09540460911 0 986303.09540460911 -9102172.8722659573 0 0 0 -2539430.2788300221 -1103655.4372163331 1195712.1376323858 0 1195712.1376323858 -8473040.2565212473 0 0 0 -2394173.9234343935 -405265.22361694649 1837604.8602724532 0 1837604.8602724532 -9872301.5126814768 0 0 0 -2569391.6840746058 -305524.84522454441 2533160.9082328109 0 2533160.9082328109 -8866724.7848125026 0 0 0 -2293062.4075092636 -869528.93128570868 1804278.8556846846 0 1804278.8556846846 -8792182.3355521336 0 0 0 -2415427.8167094621 -808572.5725761503 2131933.3330393503 0 2131933.3330393503 -11054048.385402128 0 0 0 -2965655.2394945715 -1609530.0352033824 2044746.8849400026 0 2044746.8849400026 -9919649.1076527163 0 0 0 -2882294.7857140265 -1677464.826389201 1842886.2910073511 0 1842886.2910073511 -9786716.5569227897 0 0 0 -2866045.3458279986 -3446061.3631943818 1893795.8548120186 0 1893795.8548120186 -8543773.065864794 0 0 0 -2997458.6072647925 -3248647.8243744262 1915963.2576759122 0 1915963.2576759122 -7956269.1944756731 0 0 0 -2801229.2547125258 -1751359.9531583413 2967671.4593797745 0 2967671.4593797745 -7163344.9135884866 0 0 0 -2228676.216686707 -5610177.5207717223 2089322.4037855715 0 2089322.4037855715 -6222286.5307507329 0 0 0 -2958116.0128806094 -6848691.8668574691 1493705.1427661427 0 1493705.1427661427 -7035877.9527386576 0 0 0 -3471142.4548990279 -3958975.2130133845 705530.6258308515 0 705530.6258308515 -8705516.2898267917 0 0 0 -3166122.8757100403 -4998712.6873323955 1174684.775865877 0 1174684.775865877 -9127402.8658366725 0 0 0 -3531528.8882922679 -2867807.2582836524 599056.69381866511 0 599056.69381866511 -11195878.518405959 0 0 0 -3515921.4441723973 -2370321.5170521503 1306152.2097635008 0 1306152.2097635008 -10711288.366029564 0 0 0 -3270402.470770427 -3383680.3795859944 -273285.65304933488 0 -273285.65304933488 -12830094.119540613 0 0 0 -4053443.6247816551 -4624437.268207632 -19088.66959439218 0 -19088.66959439218 -10830108.789080635 0 0 0 -3863636.5143220648 -1719014.4664187916 1098238.3887127601 0 1098238.3887127601 -13407232.896919928 0 0 0 -3781561.8408346809 -1442639.7345077526 1455433.1855274357 0 1455433.1855274357 -12567588.507728972 0 0 0 -3502557.0605591815 -900658.05502992496 2155463.8163732174 0 2155463.8163732174 -12707436.821047664 0 0 0 -3402023.7190193981 -453525.97386508994 1959839.2402694356 0 1959839.2402694356 -12838727.497625541 0 0 0 -3323063.3678726563 -1021741.301368135 1699243.3166368939 0 1699243.3166368939 -11515513.99294544 0 0 0 -3134313.823578394 -1226280.583290875 1723267.3905071635 0 1723267.3905071635 -12261194.406141944 0 0 0 -3371868.7473582067 
</DataArray>
<DataArray type="Float64" Name="cross_section_updated" format="ascii">
1 1 1 1 1 1 1 1 1 1 1 1 1 1 1 1 1 1 1 1 1 1 1 1 1 1 1 1 1 1 1 1 1 1 1 0.0099999999989705806 1 1 1 0.010000000000039285 1 1 1 1 1 1 1 1 0.0099999999988123825 1 1 1 0.0099999999994805581 1 1 1 1 1 1 1 1 1 1 1 1 1 1 1 1 1 1 1 1 1 1 1 1 1 1 1 1 1 1 1 1 1 1 1 1 1 1 1 1 1 1 1 1 1 1 1 1 1 1 1 1 1 1 1 1 1 1 1 1 1 1 1 1 1 1 1 1 1 1 1 1 1 1 0.0099999999997796504 1 1 1 0.010000000000033035 1 1 1 1 1 1 1 1 1 1 1 1 1 1 1 1 1 0.0099999999989182353 1 0.010000000001078422 1 1 0.010148336025455751 1 1 0.010000000000513347 1 1 1 1 1 1 1 1 1 1 1 1 1 0.01000000000082742 1 1 1 0.0100000000003879 1 1 1 0.0099999999997489597 1 1 0.010000000000095436 1 1 1 1 1 1 1 1 1 1 1 1 1 1 1 1 1 1 1 1 1 1 1 1 1 1 1 1 1 1 1 1 1 0.0099999999999175835 1 1 1 1 1 1 1 1 1 1 1 1 1 1 1 0.01000000000022854 1 1 1 1 1 1 1 1 1 1 1 1 1 1 1 1 1 1 1 1 1 1 1 1 1 1 1 1 1 1 1 1 1 1 1 1 1 1 1 1 1 1 1 1 1 1 1 1 1 1 1 1 1 1 1 1 1 1 1 1 1 1 1 1 1 1 1 1 1 1 1 1 1 
</DataArray>
</CellData>
</Piece>
</UnstructuredGrid>
</VTKFile>
