<?xml version="1.0"?>
<VTKFile type="UnstructuredGrid" version="0.1" byte_order="LittleEndian">
<UnstructuredGrid>
<Piece NumberOfPoints="2876" NumberOfCells="719">
<Points>
<DataArray type="Float64" NumberOfComponents="3" format="ascii">
0.31610726166346748 0.18804489794572149 0 0.16929708765618309 0.30074819035915368 0 0.14641016151452901 0.14641016151487049 0 0.312576188949791 0.31458070521983672 0.3125761889497819 0 0.20000000000083221 0 0 0 0 0.14641016151452901 0.14641016151487049 0 0 0.14641016151432179 0.14641016151432179 0 0 0 0.19999999999955789 0 0 0.14641016151452901 0.14641016151487049 0 0.1464101615145241 0 0.14641016151486561 0 0.14641016151432179 0.14641016151432179 0 0 0.20000000000083221 0 0 0 0.1464101615145241 0 0.14641016151486561 0 0.14641016151432179 0.14641016151432179 0 0.30074819035869899 0.1692970876565193 0 0.18804489794560331 0.31610726166461361 0.312576188949791 0.31458070521983672 0.3125761889497819 0.31578456131778371 0 0.1865278143482666 0.1464101615145241 0 0.14641016151486561 0.16938214347656569 0 0.30011357660650623 0.312576188949791 0.31458070521983672 0.3125761889497819 0 0.14641016151432179 0.14641016151432179 0 0 0 0.14641016151452901 0.14641016151487049 0 0.1464101615145241 0 0.14641016151486561 0.14641016151452901 0.14641016151487049 0 0.1464101615145241 0 0.14641016151486561 0.31578456131778371 0 0.1865278143482666 0.312576188949791 0.31458070521983672 0.3125761889497819 0.14641016151452901 0.14641016151487049 0 0 0.30074819035869899 0.1692970876565193 0 0.14641016151432179 0.14641016151432179 0.312576188949791 0.31458070521983672 0.3125761889497819 0.14641016151452901 0.14641016151487049 0 0 0.14641016151432179 0.14641016151432179 0.1464101615145241 0 0.14641016151486561 0.312576188949791 0.31458070521983672 0.3125761889497819 0 0.14641016151432179 0.14641016151432179 0.16938214347656569 0 0.30011357660650623 0.1464101615145241 0 0.14641016151486561 0.312576188949791 0.31458070521983672 0.3125761889497819 0.1464101615145241 0 0.14641016151486561 0 0.14641016151432179 0.14641016151432179 0 0 0.20000000000083221 0.16938214347656569 0 0.30011357660650623 0 0.18804489794560331 0.31610726166461361 0 0 0.20000000000083221 0 0.14641016151432179 0.14641016151432179 0.16938214347656569 0 0.30011357660650623 0 0.14641016151432179 0.14641016151432179 0.14641016151452901 0.14641016151487049 0 0 0.20000000000083221 0 0 0.30074819035869899 0.1692970876565193 0 0.30074819035869899 0.1692970876565193 0.14641016151452901 0.14641016151487049 0 0 0.20000000000083221 0 0.16929708765618309 0.30074819035915368 0 0.19999999999955789 0 0 0.14641016151452901 0.14641016151487049 0 0.31578456131778371 0 0.1865278143482666 0.31610726166346748 0.18804489794572149 0 0.19999999999955789 0 0 0.14641016151452901 0.14641016151487049 0 0.1464101615145241 0 0.14641016151486561 0.31578456131778371 0 0.1865278143482666 0.31578456131778371 0 0.1865278143482666 0.3999999999989749 0 0 0.19999999999955789 0 0 0.31610726166346748 0.18804489794572149 0 0.31578456131778371 0 0.1865278143482666 0.31610726166346748 0.18804489794572149 0 0.14641016151452901 0.14641016151487049 0 0.312576188949791 0.31458070521983672 0.3125761889497819 0.31610726166346748 0.18804489794572149 0 0.312576188949791 0.31458070521983672 0.3125761889497819 0.31578456131778371 0 0.1865278143482666 0.5003997205654479 0.21136633249797621 0.2258422409314382 0.31610726166346748 0.18804489794572149 0 0.49391845158624981 0 0.1323760430705655 0.50966790549376417 0.16275515618023731 0 0.5003997205654479 0.21136633249797621 0.2258422409314382 0.31610726166346748 0.18804489794572149 0 0.50966790549376417 0.16275515618023731 0 0.45812322962036273 0.31024977578535839 0 0.5003997205654479 0.21136633249797621 0.2258422409314382 0.49391845158624981 0 0.1323760430705655 0.3999999999989749 0 0 0.31610726166346748 0.18804489794572149 0 0.50966790549376417 0.16275515618023731 0 0.49391845158624981 0 0.1323760430705655 0.3999999999989749 0 0 0.31578456131778371 0 0.1865278143482666 0.31610726166346748 0.18804489794572149 0 0.31578456131778371 0 0.1865278143482666 0.47688326899416439 0 0.31741132792405607 0.49391845158624981 0 0.1323760430705655 0.5003997205654479 0.21136633249797621 0.2258422409314382 0.31610726166346748 0.18804489794572149 0 0.31578456131778371 0 0.1865278143482666 0.49391845158624981 0 0.1323760430705655 0.5003997205654479 0.21136633249797621 0.2258422409314382 0.31030302876556398 0 0.54179813558513157 0.50073570207385831 0.24848280280289631 0.52886631355986169 0.32146143392436449 0 0.38738071487621961 0.22088738526309029 0.22111069116742441 0.50004796911802929 0.32146143392436449 0 0.38738071487621961 0.312576188949791 0.31458070521983672 0.3125761889497819 0.16938214347656569 0 0.30011357660650623 0.22088738526309029 0.22111069116742441 0.50004796911802929 0.32146143392436449 0 0.38738071487621961 0.50073570207385831 0.24848280280289631 0.52886631355986169 0.312576188949791 0.31458070521983672 0.3125761889497819 0.22088738526309029 0.22111069116742441 0.50004796911802929 0.32146143392436449 0 0.38738071487621961 0.50073570207385831 0.24848280280289631 0.52886631355986169 0.47688326899416439 0 0.31741132792405607 0.5003997205654479 0.21136633249797621 0.2258422409314382 0.32146143392436449 0 0.38738071487621961 0.312576188949791 0.31458070521983672 0.3125761889497819 0.50073570207385831 0.24848280280289631 0.52886631355986169 0.5003997205654479 0.21136633249797621 0.2258422409314382 0.32146143392436449 0 0.38738071487621961 0.31578456131778371 0 0.1865278143482666 0.16938214347656569 0 0.30011357660650623 0.312576188949791 0.31458070521983672 0.3125761889497819 0.31578456131778371 0 0.1865278143482666 0.312576188949791 0.31458070521983672 0.3125761889497819 0.32146143392436449 0 0.38738071487621961 0.5003997205654479 0.21136633249797621 0.2258422409314382 0.31578456131778371 0 0.1865278143482666 0.32146143392436449 0 0.38738071487621961 0.47688326899416439 0 0.31741132792405607 0.5003997205654479 0.21136633249797621 0.2258422409314382 0.31030302876556398 0 0.54179813558513157 0.50000000000250922 0 0.48038475773043671 0.32146143392436449 0 0.38738071487621961 0.50073570207385831 0.24848280280289631 0.52886631355986169 0.32146143392436449 0 0.38738071487621961 0.50000000000250922 0 0.48038475773043671 0.47688326899416439 0 0.31741132792405607 0.50073570207385831 0.24848280280289631 0.52886631355986169 0.16370661204827031 0 0.4886650857430957 0.31030302876556398 0 0.54179813558513157 0.32146143392436449 0 0.38738071487621961 0.22088738526309029 0.22111069116742441 0.50004796911802929 0.16370661204827031 0 0.4886650857430957 0.32146143392436449 0 0.38738071487621961 0.16938214347656569 0 0.30011357660650623 0.22088738526309029 0.22111069116742441 0.50004796911802929 0.16938214347656569 0 0.30011357660650623 0 0.14641016151432179 0.14641016151432179 0 0.18804489794560331 0.31610726166461361 0.312576188949791 0.31458070521983672 0.3125761889497819 0 0.18804489794560331 0.31610726166461361 0.16370661204827031 0 0.4886650857430957 0.16938214347656569 0 0.30011357660650623 0.22088738526309029 0.22111069116742441 0.50004796911802929 0 0.18804489794560331 0.31610726166461361 0.16938214347656569 0 0.30011357660650623 0.312576188949791 0.31458070521983672 0.3125761889497819 0.22088738526309029 0.22111069116742441 0.50004796911802929 0 0 0.40000000000166441 0 0 0.60000000000138687 0.16370661204827031 0 0.4886650857430957 0 0.16275515618034081 0.50966790549591257 0 0 0.40000000000166441 0 0.18804489794560331 0.31610726166461361 0.16370661204827031 0 0.4886650857430957 0.16938214347656569 0 0.30011357660650623 0.16370661204827031 0 0.4886650857430957 0 0.18804489794560331 0.31610726166461361 0 0 0.40000000000166441 0 0.16275515618034081 0.50966790549591257 0 0.18804489794560331 0.31610726166461361 0 0 0.40000000000166441 0 0 0.20000000000083221 0.16938214347656569 0 0.30011357660650623 0 0.18804489794560331 0.31610726166461361 0 0.16275515618034081 0.50966790549591257 0.16370661204827031 0 0.4886650857430957 0.22088738526309029 0.22111069116742441 0.50004796911802929 0 0.18804489794560331 0.31610726166461361 0 0.31024977578556651 0.45812322962166352 0 0.16275515618034081 0.50966790549591257 0.22088738526309029 0.22111069116742441 0.50004796911802929 0 0.30074819035869899 0.1692970876565193 0 0.39615100178029522 0.32925244736138171 0 0.18804489794560331 0.31610726166461361 0.312576188949791 0.31458070521983672 0.3125761889497819 0 0.31024977578556651 0.45812322962166352 0.312576188949791 0.31458070521983672 0.3125761889497819 0.24769234054476261 0.52242103280823293 0.45098450226372488 0.22088738526309029 0.22111069116742441 0.50004796911802929 0 0.18804489794560331 0.31610726166461361 0 0.39615100178029522 0.32925244736138171 0 0.31024977578556651 0.45812322962166352 0.312576188949791 0.31458070521983672 0.3125761889497819 0 0.39615100178029522 0.32925244736138171 0.24769234054476261 0.52242103280823293 0.45098450226372488 0.312576188949791 0.31458070521983672 0.3125761889497819 0.22345881830598399 0.5062398304147856 0.22345881830602041 0 0.31024977578556651 0.45812322962166352 0.312576188949791 0.31458070521983672 0.3125761889497819 0 0.39615100178029522 0.32925244736138171 0.24769234054476261 0.52242103280823293 0.45098450226372488 0 0.30074819035869899 0.1692970876565193 0 0.39615100178029522 0.32925244736138171 0.312576188949791 0.31458070521983672 0.3125761889497819 0.22345881830598399 0.5062398304147856 0.22345881830602041 0 0.18804489794560331 0.31610726166461361 0.312576188949791 0.31458070521983672 0.3125761889497819 0 0.31024977578556651 0.45812322962166352 0.22088738526309029 0.22111069116742441 0.50004796911802929 0 0.31024977578556651 0.45812322962166352 0 0.39615100178029522 0.32925244736138171 0 0.50000000000237477 0.51961524226909872 0.24769234054476261 0.52242103280823293 0.45098450226372488 0.50000000000001332 0.49999999999999561 0.49999999999999561 0.50073570207385831 0.24848280280289631 0.52886631355986169 0.312576188949791 0.31458070521983672 0.3125761889497819 0.5004045312576143 0.47050700646456922 0.24963111222780321 0.24769234054476261 0.52242103280823293 0.45098450226372488 0.5004045312576143 0.47050700646456922 0.24963111222780321 0.312576188949791 0.31458070521983672 0.3125761889497819 0.22345881830598399 0.5062398304147856 0.22345881830602041 0.312576188949791 0.31458070521983672 0.3125761889497819 0.5004045312576143 0.47050700646456922 0.24963111222780321 0.50073570207385831 0.24848280280289631 0.52886631355986169 0.5003997205654479 0.21136633249797621 0.2258422409314382 0.50000000000001332 0.49999999999999561 0.49999999999999561 0.24769234054476261 0.52242103280823293 0.45098450226372488 0.312576188949791 0.31458070521983672 0.3125761889497819 0.50073570207385831 0.24848280280289631 0.52886631355986169 0.312576188949791 0.31458070521983672 0.3125761889497819 0.24769234054476261 0.52242103280823293 0.45098450226372488 0.50000000000001332 0.49999999999999561 0.49999999999999561 0.5004045312576143 0.47050700646456922 0.24963111222780321 0.312576188949791 0.31458070521983672 0.3125761889497819 0.50073570207385831 0.24848280280289631 0.52886631355986169 0.24769234054476261 0.52242103280823293 0.45098450226372488 0.22088738526309029 0.22111069116742441 0.50004796911802929 0.32925244736090059 0.39615100178043078 0 0.312576188949791 0.31458070521983672 0.3125761889497819 0.45812322962036273 0.31024977578535839 0 0.5004045312576143 0.47050700646456922 0.24963111222780321 0.32925244736090059 0.39615100178043078 0 0.5004045312576143 0.47050700646456922 0.24963111222780321 0.32446581821364329 0.60020898676454815 0 0.22345881830598399 0.5062398304147856 0.22345881830602041 0.45812322962036273 0.31024977578535839 0 0.5004045312576143 0.47050700646456922 0.24963111222780321 0.312576188949791 0.31458070521983672 0.3125761889497819 0.5003997205654479 0.21136633249797621 0.2258422409314382 0.45812322962036273 0.31024977578535839 0 0.32925244736090059 0.39615100178043078 0 0.31610726166346748 0.18804489794572149 0 0.312576188949791 0.31458070521983672 0.3125761889497819 0.16929708765618309 0.30074819035915368 0 0.312576188949791 0.31458070521983672 0.3125761889497819 0.32925244736090059 0.39615100178043078 0 0.22345881830598399 0.5062398304147856 0.22345881830602041 0.31610726166346748 0.18804489794572149 0 0.45812322962036273 0.31024977578535839 0 0.312576188949791 0.31458070521983672 0.3125761889497819 0.5003997205654479 0.21136633249797621 0.2258422409314382 0.32925244736090059 0.39615100178043078 0 0.312576188949791 0.31458070521983672 0.3125761889497819 0.5004045312576143 0.47050700646456922 0.24963111222780321 0.22345881830598399 0.5062398304147856 0.22345881830602041 0.32925244736090059 0.39615100178043078 0 0.16929708765618309 0.30074819035915368 0 0.31610726166346748 0.18804489794572149 0 0.312576188949791 0.31458070521983672 0.3125761889497819 0.32446581821364329 0.60020898676454815 0 0.32925244736090059 0.39615100178043078 0 0.51961524226956368 0.5000000000025091 0 0.5004045312576143 0.47050700646456922 0.24963111222780321 0.51961524226956368 0.5000000000025091 0 0.32925244736090059 0.39615100178043078 0 0.45812322962036273 0.31024977578535839 0 0.5004045312576143 0.47050700646456922 0.24963111222780321 0 0.30074819035869899 0.1692970876565193 0.14641016151452901 0.14641016151487049 0 0.16929708765618309 0.30074819035915368 0 0.312576188949791 0.31458070521983672 0.3125761889497819 0 0.30074819035869899 0.1692970876565193 0.312576188949791 0.31458070521983672 0.3125761889497819 0.16929708765618309 0.30074819035915368 0 0.22345881830598399 0.5062398304147856 0.22345881830602041 0.17226134197279269 0.49836539647922029 0 0 0.49836539647891548 0.17226134197271731 0.16929708765618309 0.30074819035915368 0 0.22345881830598399 0.5062398304147856 0.22345881830602041 0.17226134197279269 0.49836539647922029 0 0.16929708765618309 0.30074819035915368 0 0.32925244736090059 0.39615100178043078 0 0.22345881830598399 0.5062398304147856 0.22345881830602041 0 0.30074819035869899 0.1692970876565193 0 0.20000000000083221 0 0 0.40000000000166441 0 0.16929708765618309 0.30074819035915368 0 0 0.30074819035869899 0.1692970876565193 0 0.40000000000166441 0 0 0.49836539647891548 0.17226134197271731 0.16929708765618309 0.30074819035915368 0 0 0.30074819035869899 0.1692970876565193 0.16929708765618309 0.30074819035915368 0 0 0.49836539647891548 0.17226134197271731 0.22345881830598399 0.5062398304147856 0.22345881830602041 0 0.30074819035869899 0.1692970876565193 0 0.49836539647891548 0.17226134197271731 0 0.39615100178029522 0.32925244736138171 0.22345881830598399 0.5062398304147856 0.22345881830602041 0 0.49836539647891548 0.17226134197271731 0 0.40000000000166441 0 0 0.60000000000138687 0 0.17226134197279269 0.49836539647922029 0 0.16929708765618309 0.30074819035915368 0 0 0.40000000000166441 0 0 0.49836539647891548 0.17226134197271731 0.17226134197279269 0.49836539647922029 0 0 0.69449451837103049 0.15896804272139439 0 0.60020898676435996 0.32446581821286191 0.22345881830598399 0.5062398304147856 0.22345881830602041 0.19259015428765269 0.77719169076434647 0.19259015428773721 0.1589680427220837 0.69449451837091269 0 0 0.69449451837103049 0.15896804272139439 0.22345881830598399 0.5062398304147856 0.22345881830602041 0.19259015428765269 0.77719169076434647 0.19259015428773721 0 0.69449451837103049 0.15896804272139439 0.17226134197279269 0.49836539647922029 0 0 0.60000000000138687 0 0.1589680427220837 0.69449451837091269 0 0.32446581821364329 0.60020898676454815 0 0.1589680427220837 0.69449451837091269 0 0.22345881830598399 0.5062398304147856 0.22345881830602041 0.19259015428765269 0.77719169076434647 0.19259015428773721 0 0.60000000000138687 0 0 0.49836539647891548 0.17226134197271731 0.17226134197279269 0.49836539647922029 0 0 0.69449451837103049 0.15896804272139439 0 0.69449451837103049 0.15896804272139439 0 0.60000000000138687 0 0 0.79999999999999982 0 0.1589680427220837 0.69449451837091269 0 0.31067093463127438 0.81480288849489035 0 0.1589680427220837 0.69449451837091269 0 0.32446581821364329 0.60020898676454815 0 0.19259015428765269 0.77719169076434647 0.19259015428773721 0.32446581821364329 0.60020898676454815 0 0.1589680427220837 0.69449451837091269 0 0.17226134197279269 0.49836539647922029 0 0.22345881830598399 0.5062398304147856 0.22345881830602041 0.1589680427220837 0.69449451837091269 0 0 0.69449451837103049 0.15896804272139439 0.17226134197279269 0.49836539647922029 0 0.22345881830598399 0.5062398304147856 0.22345881830602041 0 0.69449451837103049 0.15896804272139439 0 0.81480288849496429 0.31067093462946233 0 0.60020898676435996 0.32446581821286191 0.19259015428765269 0.77719169076434647 0.19259015428773721 0 0.49836539647891548 0.17226134197271731 0 0.69449451837103049 0.15896804272139439 0 0.60020898676435996 0.32446581821286191 0.22345881830598399 0.5062398304147856 0.22345881830602041 0 0.49836539647891548 0.17226134197271731 0.17226134197279269 0.49836539647922029 0 0 0.69449451837103049 0.15896804272139439 0.22345881830598399 0.5062398304147856 0.22345881830602041 0 0.60020898676435996 0.32446581821286191 0.22516916914780419 0.77057994845201627 0.48187244075707292 0.35848654557803328 0.70013656506632282 0.30029870175293161 0.19259015428765269 0.77719169076434647 0.19259015428773721 0 0.60020898676435996 0.32446581821286191 0.24769234054476261 0.52242103280823293 0.45098450226372488 0 0.39615100178029522 0.32925244736138171 0.22345881830598399 0.5062398304147856 0.22345881830602041 0 0.60020898676435996 0.32446581821286191 0 0.81480288849496429 0.31067093462946233 0.22516916914780419 0.77057994845201627 0.48187244075707292 0.19259015428765269 0.77719169076434647 0.19259015428773721 0.35848654557803328 0.70013656506632282 0.30029870175293161 0.22345881830598399 0.5062398304147856 0.22345881830602041 0 0.60020898676435996 0.32446581821286191 0.19259015428765269 0.77719169076434647 0.19259015428773721 0 0.49836539647891548 0.17226134197271731 0 0.60020898676435996 0.32446581821286191 0 0.39615100178029522 0.32925244736138171 0.22345881830598399 0.5062398304147856 0.22345881830602041 0 0.60020898676435996 0.32446581821286191 0.24769234054476261 0.52242103280823293 0.45098450226372488 0.35848654557803328 0.70013656506632282 0.30029870175293161 0.22516916914780419 0.77057994845201627 0.48187244075707292 0.35848654557803328 0.70013656506632282 0.30029870175293161 0.24769234054476261 0.52242103280823293 0.45098450226372488 0 0.60020898676435996 0.32446581821286191 0.22345881830598399 0.5062398304147856 0.22345881830602041 0 0.39615100178029522 0.32925244736138171 0 0.60020898676435996 0.32446581821286191 0 0.50000000000237477 0.51961524226909872 0.24769234054476261 0.52242103280823293 0.45098450226372488 0 0.68801781652248195 0.45664527743358641 0 0.50000000000237477 0.51961524226909872 0 0.60020898676435996 0.32446581821286191 0.24769234054476261 0.52242103280823293 0.45098450226372488 0 0.66416205381430016 0.59944234540882957 0.24769234054476261 0.52242103280823293 0.45098450226372488 0 0.68801781652248195 0.45664527743358641 0.22516916914780419 0.77057994845201627 0.48187244075707292 0 0.60020898676435996 0.32446581821286191 0 0.81480288849496429 0.31067093462946233 0 0.68801781652248195 0.45664527743358641 0.22516916914780419 0.77057994845201627 0.48187244075707292 0 0.68801781652248195 0.45664527743358641 0.24769234054476261 0.52242103280823293 0.45098450226372488 0 0.60020898676435996 0.32446581821286191 0.22516916914780419 0.77057994845201627 0.48187244075707292 0.16929708765615539 1 0.30074819035677097 0.32926555316115258 1 0.39615987727515128 0.22516916914780419 0.77057994845201627 0.48187244075707292 0.19259015428765269 0.77719169076434647 0.19259015428773721 0 0.81480288849496429 0.31067093462946233 0.16929708765615539 1 0.30074819035677097 0.22516916914780419 0.77057994845201627 0.48187244075707292 0.19259015428765269 0.77719169076434647 0.19259015428773721 0.17226134197293 1 0.49836539647645101 0 0.83630110503664845 0.50803330197135654 0 0.81480288849496429 0.31067093462946233 0.22516916914780419 0.77057994845201627 0.48187244075707292 0 0.68801781652248195 0.45664527743358641 0 0.81480288849496429 0.31067093462946233 0 0.83630110503664845 0.50803330197135654 0.22516916914780419 0.77057994845201627 0.48187244075707292 0.17226134197293 1 0.49836539647645101 0 1 0.3999999999989749 0 0.81480288849496429 0.31067093462946233 0 0.83630110503664845 0.50803330197135654 0 0.81480288849496429 0.31067093462946233 0.16929708765615539 1 0.30074819035677097 0 1 0.3999999999989749 0.17226134197293 1 0.49836539647645101 0.17226134197293 1 0.49836539647645101 0 0.81480288849496429 0.31067093462946233 0.16929708765615539 1 0.30074819035677097 0.22516916914780419 0.77057994845201627 0.48187244075707292 0.17226134197293 1 0.49836539647645101 0.16929708765615539 1 0.30074819035677097 0.32926555316115258 1 0.39615987727515128 0.22516916914780419 0.77057994845201627 0.48187244075707292 0 1 0.3999999999989749 0 1 0.19999999999955789 0.16929708765615539 1 0.30074819035677097 0 0.81480288849496429 0.31067093462946233 0.16929708765615539 1 0.30074819035677097 0 1 0.19999999999955789 0 0.85358983848655678 0.14641016151332509 0 0.81480288849496429 0.31067093462946233 0.14641016151352521 1 0.1464101615131837 0 1 0.19999999999955789 0 0.85358983848655678 0.14641016151332509 0.16929708765615539 1 0.30074819035677097 0.20000000000083221 1 0 0 1 0 0.14641016151479211 0.85358983848543113 0 0.14641016151352521 1 0.1464101615131837 0 0.85358983848655678 0.14641016151332509 0 1 0 0 1 0.19999999999955789 0.14641016151352521 1 0.1464101615131837 0 0.85358983848655678 0.14641016151332509 0.14641016151479211 0.85358983848543113 0 0 1 0 0.14641016151352521 1 0.1464101615131837 0.14641016151479211 0.85358983848543113 0 0 1 0 0 0.79999999999999982 0 0 0.85358983848655678 0.14641016151332509 0 0.85358983848655678 0.14641016151332509 0 0.69449451837103049 0.15896804272139439 0.1589680427220837 0.69449451837091269 0 0.19259015428765269 0.77719169076434647 0.19259015428773721 0 0.79999999999999982 0 0.1589680427220837 0.69449451837091269 0 0.14641016151479211 0.85358983848543113 0 0 0.85358983848655678 0.14641016151332509 0.14641016151352521 1 0.1464101615131837 0 0.85358983848655678 0.14641016151332509 0.14641016151479211 0.85358983848543113 0 0.19259015428765269 0.77719169076434647 0.19259015428773721 0.1589680427220837 0.69449451837091269 0 0 0.79999999999999982 0 0 0.69449451837103049 0.15896804272139439 0 0.85358983848655678 0.14641016151332509 0.1589680427220837 0.69449451837091269 0 0.14641016151479211 0.85358983848543113 0 0 0.85358983848655678 0.14641016151332509 0.19259015428765269 0.77719169076434647 0.19259015428773721 0.16929708765615539 1 0.30074819035677097 0 0.81480288849496429 0.31067093462946233 0 0.85358983848655678 0.14641016151332509 0.19259015428765269 0.77719169076434647 0.19259015428773721 0 0.85358983848655678 0.14641016151332509 0 0.81480288849496429 0.31067093462946233 0 0.69449451837103049 0.15896804272139439 0.19259015428765269 0.77719169076434647 0.19259015428773721 0.14641016151352521 1 0.1464101615131837 0.14641016151479211 0.85358983848543113 0 0.31067093463127438 0.81480288849489035 0 0.19259015428765269 0.77719169076434647 0.19259015428773721 0.1589680427220837 0.69449451837091269 0 0.31067093463127438 0.81480288849489035 0 0.14641016151479211 0.85358983848543113 0 0.19259015428765269 0.77719169076434647 0.19259015428773721 0.14641016151479211 0.85358983848543113 0 0.31067093463127438 0.81480288849489035 0 0.20000000000083221 1 0 0.14641016151352521 1 0.1464101615131837 0.31635851157303152 1 0.18818969570840721 0.20000000000083221 1 0 0.31067093463127438 0.81480288849489035 0 0.14641016151352521 1 0.1464101615131837 0.31067093463127438 0.81480288849489035 0 0.31635851157303152 1 0.18818969570840721 0.14641016151352521 1 0.1464101615131837 0.19259015428765269 0.77719169076434647 0.19259015428773721 0.31635851157303152 1 0.18818969570840721 0.16929708765615539 1 0.30074819035677097 0.14641016151352521 1 0.1464101615131837 0.19259015428765269 0.77719169076434647 0.19259015428773721 0.14641016151352521 1 0.1464101615131837 0.16929708765615539 1 0.30074819035677097 0 0.85358983848655678 0.14641016151332509 0.19259015428765269 0.77719169076434647 0.19259015428773721 0.35848654557803328 0.70013656506632282 0.30029870175293161 0.19259015428765269 0.77719169076434647 0.19259015428773721 0.31635851157303152 1 0.18818969570840721 0.52894546611500048 0.79133000140429866 0.2082794184507949 0.31067093463127438 0.81480288849489035 0 0.19259015428765269 0.77719169076434647 0.19259015428773721 0.35848654557803328 0.70013656506632282 0.30029870175293161 0.52894546611500048 0.79133000140429866 0.2082794184507949 0.31067093463127438 0.81480288849489035 0 0.31635851157303152 1 0.18818969570840721 0.19259015428765269 0.77719169076434647 0.19259015428773721 0.52894546611500048 0.79133000140429866 0.2082794184507949 0.31067093463127438 0.81480288849489035 0 0.40000000000166441 1 0 0.20000000000083221 1 0 0.31635851157303152 1 0.18818969570840721 0.31067093463127438 0.81480288849489035 0 0.50803330197353713 0.83630110503668265 0 0.31635851157303152 1 0.18818969570840721 0.52894546611500048 0.79133000140429866 0.2082794184507949 0.45664527743509797 0.68801781652245086 0 0.50803330197353713 0.83630110503668265 0 0.31067093463127438 0.81480288849489035 0 0.52894546611500048 0.79133000140429866 0.2082794184507949 0.51133491425992716 1 0.16370661204795281 0.31635851157303152 1 0.18818969570840721 0.40000000000166441 1 0 0.50803330197353713 0.83630110503668265 0 0.31635851157303152 1 0.18818969570840721 0.31067093463127438 0.81480288849489035 0 0.40000000000166441 1 0 0.50803330197353713 0.83630110503668265 0 0.51133491425992716 1 0.16370661204795281 0.45820186441796368 1 0.31030302876579191 0.31635851157303152 1 0.18818969570840721 0.52894546611500048 0.79133000140429866 0.2082794184507949 0.51133491425992716 1 0.16370661204795281 0.31635851157303152 1 0.18818969570840721 0.50803330197353713 0.83630110503668265 0 0.52894546611500048 0.79133000140429866 0.2082794184507949 0.32926555316115258 1 0.39615987727515128 0.35848654557803328 0.70013656506632282 0.30029870175293161 0.49983993748706529 0.75039103705932653 0.52967335724801234 0.22516916914780419 0.77057994845201627 0.48187244075707292 0.35848654557803328 0.70013656506632282 0.30029870175293161 0.22516916914780419 0.77057994845201627 0.48187244075707292 0.32926555316115258 1 0.39615987727515128 0.19259015428765269 0.77719169076434647 0.19259015428773721 0.31635851157303152 1 0.18818969570840721 0.45820186441796368 1 0.31030302876579191 0.32926555316115258 1 0.39615987727515128 0.35848654557803328 0.70013656506632282 0.30029870175293161 0.45820186441796368 1 0.31030302876579191 0.35848654557803328 0.70013656506632282 0.30029870175293161 0.31635851157303152 1 0.18818969570840721 0.52894546611500048 0.79133000140429866 0.2082794184507949 0.31635851157303152 1 0.18818969570840721 0.35848654557803328 0.70013656506632282 0.30029870175293161 0.32926555316115258 1 0.39615987727515128 0.19259015428765269 0.77719169076434647 0.19259015428773721 0.45820186441796368 1 0.31030302876579191 0.49983993748706529 0.75039103705932653 0.52967335724801234 0.35848654557803328 0.70013656506632282 0.30029870175293161 0.52894546611500048 0.79133000140429866 0.2082794184507949 0.45820186441796368 1 0.31030302876579191 0.32926555316115258 1 0.39615987727515128 0.35848654557803328 0.70013656506632282 0.30029870175293161 0.49983993748706529 0.75039103705932653 0.52967335724801234 0.31635851157303152 1 0.18818969570840721 0.32926555316115258 1 0.39615987727515128 0.16929708765615539 1 0.30074819035677097 0.19259015428765269 0.77719169076434647 0.19259015428773721 0.32926555316115258 1 0.39615987727515128 0.32448110831226962 1 0.6002015905153204 0.17226134197293 1 0.49836539647645101 0.22516916914780419 0.77057994845201627 0.48187244075707292 0.45820186441796368 1 0.31030302876579191 0.51961524227008238 1 0.49999999999872219 0.32926555316115258 1 0.39615987727515128 0.49983993748706529 0.75039103705932653 0.52967335724801234 0.24769234054476261 0.52242103280823293 0.45098450226372488 0.49983993748706529 0.75039103705932653 0.52967335724801234 0.35848654557803328 0.70013656506632282 0.30029870175293161 0.22516916914780419 0.77057994845201627 0.48187244075707292 0.35848654557803328 0.70013656506632282 0.30029870175293161 0.50000000000001332 0.49999999999999561 0.49999999999999561 0.24769234054476261 0.52242103280823293 0.45098450226372488 0.5004045312576143 0.47050700646456922 0.24963111222780321 0.35848654557803328 0.70013656506632282 0.30029870175293161 0.24769234054476261 0.52242103280823293 0.45098450226372488 0.50000000000001332 0.49999999999999561 0.49999999999999561 0.49983993748706529 0.75039103705932653 0.52967335724801234 0.35848654557803328 0.70013656506632282 0.30029870175293161 0.5004045312576143 0.47050700646456922 0.24963111222780321 0.24769234054476261 0.52242103280823293 0.45098450226372488 0.22345881830598399 0.5062398304147856 0.22345881830602041 0.35848654557803328 0.70013656506632282 0.30029870175293161 0.32446581821364329 0.60020898676454815 0 0.5004045312576143 0.47050700646456922 0.24963111222780321 0.22345881830598399 0.5062398304147856 0.22345881830602041 0.31067093463127438 0.81480288849489035 0 0.32446581821364329 0.60020898676454815 0 0.45664527743509797 0.68801781652245086 0 0.35848654557803328 0.70013656506632282 0.30029870175293161 0.32446581821364329 0.60020898676454815 0 0.22345881830598399 0.5062398304147856 0.22345881830602041 0.35848654557803328 0.70013656506632282 0.30029870175293161 0.19259015428765269 0.77719169076434647 0.19259015428773721 0.32446581821364329 0.60020898676454815 0 0.45664527743509797 0.68801781652245086 0 0.35848654557803328 0.70013656506632282 0.30029870175293161 0.5004045312576143 0.47050700646456922 0.24963111222780321 0.31067093463127438 0.81480288849489035 0 0.32446581821364329 0.60020898676454815 0 0.35848654557803328 0.70013656506632282 0.30029870175293161 0.19259015428765269 0.77719169076434647 0.19259015428773721 0.45664527743509797 0.68801781652245086 0 0.31067093463127438 0.81480288849489035 0 0.35848654557803328 0.70013656506632282 0.30029870175293161 0.52894546611500048 0.79133000140429866 0.2082794184507949 0.35848654557803328 0.70013656506632282 0.30029870175293161 0.5004045312576143 0.47050700646456922 0.24963111222780321 0.45664527743509797 0.68801781652245086 0 0.52894546611500048 0.79133000140429866 0.2082794184507949 0.17226134197279269 0.49836539647922029 0 0.32925244736090059 0.39615100178043078 0 0.32446581821364329 0.60020898676454815 0 0.22345881830598399 0.5062398304147856 0.22345881830602041 0.32446581821364329 0.60020898676454815 0 0.51961524226956368 0.5000000000025091 0 0.45664527743509797 0.68801781652245086 0 0.5004045312576143 0.47050700646456922 0.24963111222780321 0.72722573386132172 0.60922248848163563 0 0.68456408135056701 0.68607101396845627 0.31096060989957619 0.59944234541082553 0.66416205381394655 0 0.77713227489941183 0.50036915849493024 0.21774643624003751 0.68456408135056701 0.68607101396845627 0.31096060989957619 0.5004045312576143 0.47050700646456922 0.24963111222780321 0.59944234541082553 0.66416205381394655 0 0.77713227489941183 0.50036915849493024 0.21774643624003751 0.59944234541082553 0.66416205381394655 0 0.45664527743509797 0.68801781652245086 0 0.5004045312576143 0.47050700646456922 0.24963111222780321 0.52894546611500048 0.79133000140429866 0.2082794184507949 0.51961524226956368 0.5000000000025091 0 0.67320508075660079 0.46954769941202479 0 0.59944234541082553 0.66416205381394655 0 0.5004045312576143 0.47050700646456922 0.24963111222780321 0.59944234541082553 0.66416205381394655 0 0.5004045312576143 0.47050700646456922 0.24963111222780321 0.68456408135056701 0.68607101396845627 0.31096060989957619 0.52894546611500048 0.79133000140429866 0.2082794184507949 0.59944234541082553 0.66416205381394655 0 0.5004045312576143 0.47050700646456922 0.24963111222780321 0.67320508075660079 0.46954769941202479 0 0.77713227489941183 0.50036915849493024 0.21774643624003751 0.59944234541082553 0.66416205381394655 0 0.52894546611500048 0.79133000140429866 0.2082794184507949 0.68456408135056701 0.68607101396845627 0.31096060989957619 0.81582077266975173 0.77657922508894406 0.18483084990574741 0.59944234541082553 0.66416205381394655 0 0.45664527743509797 0.68801781652245086 0 0.51961524226956368 0.5000000000025091 0 0.5004045312576143 0.47050700646456922 0.24963111222780321 0.59944234541082553 0.66416205381394655 0 0.68456408135056701 0.68607101396845627 0.31096060989957619 0.72722573386132172 0.60922248848163563 0 0.81582077266975173 0.77657922508894406 0.18483084990574741 0.45664527743509797 0.68801781652245086 0 0.59944234541082553 0.66416205381394655 0 0.50803330197353713 0.83630110503668265 0 0.52894546611500048 0.79133000140429866 0.2082794184507949 0.59944234541082553 0.66416205381394655 0 0.72722573386132172 0.60922248848163563 0 0.7054234997318658 0.80860557108880304 0 0.81582077266975173 0.77657922508894406 0.18483084990574741 0.72722573386132172 0.60922248848163563 0 0.59944234541082553 0.66416205381394655 0 0.67320508075660079 0.46954769941202479 0 0.77713227489941183 0.50036915849493024 0.21774643624003751 0.68456408135056701 0.68607101396845627 0.31096060989957619 0.5004045312576143 0.47050700646456922 0.24963111222780321 0.35848654557803328 0.70013656506632282 0.30029870175293161 0.52894546611500048 0.79133000140429866 0.2082794184507949 0.68456408135056701 0.68607101396845627 0.31096060989957619 0.35848654557803328 0.70013656506632282 0.30029870175293161 0.50000000000001332 0.49999999999999561 0.49999999999999561 0.49983993748706529 0.75039103705932653 0.52967335724801234 0.50000000000001332 0.49999999999999561 0.49999999999999561 0.35848654557803328 0.70013656506632282 0.30029870175293161 0.68456408135056701 0.68607101396845627 0.31096060989957619 0.5004045312576143 0.47050700646456922 0.24963111222780321 0.50000000000001332 0.49999999999999561 0.49999999999999561 0.68456408135056701 0.68607101396845627 0.31096060989957619 0.7504488434426726 0.53051757989633308 0.49836643074154852 0.5004045312576143 0.47050700646456922 0.24963111222780321 0.68456408135056701 0.68607101396845627 0.31096060989957619 0.49983993748706529 0.75039103705932653 0.52967335724801234 0.7504488434426726 0.53051757989633308 0.49836643074154852 0.77374673111774417 0.78860835645735528 0.49829081152968557 0.7504488434426726 0.53051757989633308 0.49836643074154852 0.5004045312576143 0.47050700646456922 0.24963111222780321 0.68456408135056701 0.68607101396845627 0.31096060989957619 0.77713227489941183 0.50036915849493024 0.21774643624003751 0.35848654557803328 0.70013656506632282 0.30029870175293161 0.49983993748706529 0.75039103705932653 0.52967335724801234 0.68456408135056701 0.68607101396845627 0.31096060989957619 0.52894546611500048 0.79133000140429866 0.2082794184507949 0.50000000000001332 0.49999999999999561 0.49999999999999561 0.7504488434426726 0.53051757989633308 0.49836643074154852 0.68456408135056701 0.68607101396845627 0.31096060989957619 0.49983993748706529 0.75039103705932653 0.52967335724801234 0.68456408135056701 0.68607101396845627 0.31096060989957619 0.52894546611500048 0.79133000140429866 0.2082794184507949 0.61068558124908323 1 0.33127740899601937 0.81582077266975173 0.77657922508894406 0.18483084990574741 0.61068558124908323 1 0.33127740899601937 0.49983993748706529 0.75039103705932653 0.52967335724801234 0.68456408135056701 0.68607101396845627 0.31096060989957619 0.77374673111774417 0.78860835645735528 0.49829081152968557 0.61068558124908323 1 0.33127740899601937 0.68240285647621723 1 0.52310058211166854 0.49983993748706529 0.75039103705932653 0.52967335724801234 0.77374673111774417 0.78860835645735528 0.49829081152968557 0.82751535738810444 1 0.31407731390515509 0.68456408135056701 0.68607101396845627 0.31096060989957619 0.61068558124908323 1 0.33127740899601937 0.81582077266975173 0.77657922508894406 0.18483084990574741 0.45820186441796368 1 0.31030302876579191 0.61068558124908323 1 0.33127740899601937 0.49983993748706529 0.75039103705932653 0.52967335724801234 0.52894546611500048 0.79133000140429866 0.2082794184507949 0.61068558124908323 1 0.33127740899601937 0.68456408135056701 0.68607101396845627 0.31096060989957619 0.82751535738810444 1 0.31407731390515509 0.77374673111774417 0.78860835645735528 0.49829081152968557 0.68456408135056701 0.68607101396845627 0.31096060989957619 0.49983993748706529 0.75039103705932653 0.52967335724801234 0.61068558124908323 1 0.33127740899601937 0.52894546611500048 0.79133000140429866 0.2082794184507949 0.61068558124908323 1 0.33127740899601937 0.68240285647621723 1 0.52310058211166854 0.51961524227008238 1 0.49999999999872219 0.49983993748706529 0.75039103705932653 0.52967335724801234 0.51961524227008238 1 0.49999999999872219 0.45820186441796368 1 0.31030302876579191 0.61068558124908323 1 0.33127740899601937 0.49983993748706529 0.75039103705932653 0.52967335724801234 0.68240285647621723 1 0.52310058211166854 0.61068558124908323 1 0.33127740899601937 0.82751535738810444 1 0.31407731390515509 0.77374673111774417 0.78860835645735528 0.49829081152968557 0.51133491425992716 1 0.16370661204795281 0.61068558124908323 1 0.33127740899601937 0.45820186441796368 1 0.31030302876579191 0.52894546611500048 0.79133000140429866 0.2082794184507949 0.51133491425992716 1 0.16370661204795281 0.69988642339594154 1 0.16938214347578889 0.61068558124908323 1 0.33127740899601937 0.52894546611500048 0.79133000140429866 0.2082794184507949 0.69988642339594154 1 0.16938214347578889 0.61068558124908323 1 0.33127740899601937 0.52894546611500048 0.79133000140429866 0.2082794184507949 0.81582077266975173 0.77657922508894406 0.18483084990574741 0.69988642339594154 1 0.16938214347578889 0.52894546611500048 0.79133000140429866 0.2082794184507949 0.7054234997318658 0.80860557108880304 0 0.81582077266975173 0.77657922508894406 0.18483084990574741 0.69988642339594154 1 0.16938214347578889 0.51133491425992716 1 0.16370661204795281 0.50803330197353713 0.83630110503668265 0 0.52894546611500048 0.79133000140429866 0.2082794184507949 0.59944234541082553 0.66416205381394655 0 0.7054234997318658 0.80860557108880304 0 0.52894546611500048 0.79133000140429866 0.2082794184507949 0.81582077266975173 0.77657922508894406 0.18483084990574741 0.60000000000138687 1 0 0.69988642339594154 1 0.16938214347578889 0.51133491425992716 1 0.16370661204795281 0.50803330197353713 0.83630110503668265 0 0.51133491425992716 1 0.16370661204795281 0.40000000000166441 1 0 0.60000000000138687 1 0 0.50803330197353713 0.83630110503668265 0 0.50803330197353713 0.83630110503668265 0 0.59944234541082553 0.66416205381394655 0 0.7054234997318658 0.80860557108880304 0 0.52894546611500048 0.79133000140429866 0.2082794184507949 0.69988642339594154 1 0.16938214347578889 0.50803330197353713 0.83630110503668265 0 0.7054234997318658 0.80860557108880304 0 0.52894546611500048 0.79133000140429866 0.2082794184507949 0.60000000000138687 1 0 0.79999999999999982 1 0 0.69988642339594154 1 0.16938214347578889 0.7054234997318658 0.80860557108880304 0 0.50803330197353713 0.83630110503668265 0 0.60000000000138687 1 0 0.69988642339594154 1 0.16938214347578889 0.7054234997318658 0.80860557108880304 0 0.69988642339594154 1 0.16938214347578889 0.82751535738810444 1 0.31407731390515509 0.61068558124908323 1 0.33127740899601937 0.81582077266975173 0.77657922508894406 0.18483084990574741 0.82751535738810444 1 0.31407731390515509 0.69988642339594154 1 0.16938214347578889 0.85358983848665693 1 0.14641016151322461 0.81582077266975173 0.77657922508894406 0.18483084990574741 0.69988642339594154 1 0.16938214347578889 0.85358983848666903 0.85358983848666903 0 0.85358983848665693 1 0.14641016151322461 0.81582077266975173 0.77657922508894406 0.18483084990574741 0.85358983848665693 1 0.14641016151322461 1 0.85358983848655678 0.14641016151332509 0.82751535738810444 1 0.31407731390515509 0.81582077266975173 0.77657922508894406 0.18483084990574741 0.85358983848666903 0.85358983848666903 0 0.85358983848665693 1 0.14641016151322461 0.79999999999999982 1 0 0.69988642339594154 1 0.16938214347578889 0.69988642339594154 1 0.16938214347578889 0.79999999999999982 1 0 0.85358983848666903 0.85358983848666903 0 0.7054234997318658 0.80860557108880304 0 0.85358983848666903 0.85358983848666903 0 0.7054234997318658 0.80860557108880304 0 0.85173693729186062 0.69992182039541118 0 0.81582077266975173 0.77657922508894406 0.18483084990574741 0.69988642339594154 1 0.16938214347578889 0.7054234997318658 0.80860557108880304 0 0.85358983848666903 0.85358983848666903 0 0.81582077266975173 0.77657922508894406 0.18483084990574741 1 0.85358983848655678 0.14641016151332509 1 0.69449451837101916 0.15896804272136739 1 0.8148028884949543 0.31067093462944562 0.81582077266975173 0.77657922508894406 0.18483084990574741 0.82751535738810444 1 0.31407731390515509 1 0.85358983848655678 0.14641016151332509 1 0.8148028884949543 0.31067093462944562 0.81582077266975173 0.77657922508894406 0.18483084990574741 1 0.85358983848655678 0.14641016151332509 0.85358983848666903 0.85358983848666903 0 1 0.79999999999999982 0 0.81582077266975173 0.77657922508894406 0.18483084990574741 1 0.79999999999999982 0 0.81582077266975173 0.77657922508894406 0.18483084990574741 1 0.69449451837101916 0.15896804272136739 1 0.85358983848655678 0.14641016151332509 0.85358983848666903 0.85358983848666903 0 1 0.85358983848655678 0.14641016151332509 0.85358983848665693 1 0.14641016151322461 0.81582077266975173 0.77657922508894406 0.18483084990574741 0.85358983848666903 0.85358983848666903 0 0.85173693729186062 0.69992182039541118 0 1 0.79999999999999982 0 0.81582077266975173 0.77657922508894406 0.18483084990574741 1 0.85358983848655678 0.14641016151332509 0.85358983848665693 1 0.14641016151322461 1 1 0 0.85358983848666903 0.85358983848666903 0 1 1 0.19999999999955789 0.85358983848665693 1 0.14641016151322461 1 1 0 1 0.85358983848655678 0.14641016151332509 1 1 0 1 0.85358983848655678 0.14641016151332509 0.85358983848666903 0.85358983848666903 0 1 0.79999999999999982 0 0.79999999999999982 1 0 1 1 0 0.85358983848665693 1 0.14641016151322461 0.85358983848666903 0.85358983848666903 0 0.82751535738810444 1 0.31407731390515509 0.85358983848665693 1 0.14641016151322461 1 1 0.19999999999955789 1 0.85358983848655678 0.14641016151332509 1 1 0.19999999999955789 1 0.8148028884949543 0.31067093462944562 0.82751535738810444 1 0.31407731390515509 1 0.85358983848655678 0.14641016151332509 1 1 0.3999999999989749 1 0.8148028884949543 0.31067093462944562 0.82751535738810444 1 0.31407731390515509 1 1 0.19999999999955789 0.82751535738810444 1 0.31407731390515509 0.77374673111774417 0.78860835645735528 0.49829081152968557 0.68456408135056701 0.68607101396845627 0.31096060989957619 0.81582077266975173 0.77657922508894406 0.18483084990574741 1 0.8148028884949543 0.31067093462944562 0.77374673111774417 0.78860835645735528 0.49829081152968557 0.82751535738810444 1 0.31407731390515509 0.81582077266975173 0.77657922508894406 0.18483084990574741 1 0.8148028884949543 0.31067093462944562 0.68456408135056701 0.68607101396845627 0.31096060989957619 0.77374673111774417 0.78860835645735528 0.49829081152968557 0.81582077266975173 0.77657922508894406 0.18483084990574741 1 0.8148028884949543 0.31067093462944562 0.86762395692956074 1 0.5060815484123421 0.82751535738810444 1 0.31407731390515509 0.77374673111774417 0.78860835645735528 0.49829081152968557 0.68240285647621723 1 0.52310058211166854 0.82751535738810444 1 0.31407731390515509 0.86762395692956074 1 0.5060815484123421 0.77374673111774417 0.78860835645735528 0.49829081152968557 0.86762395692956074 1 0.5060815484123421 1 1 0.3999999999989749 1 0.8148028884949543 0.31067093462944562 0.82751535738810444 1 0.31407731390515509 1 1 0.3999999999989749 1 0.83630110503662825 0.50803330197135588 0.86762395692956074 1 0.5060815484123421 1 0.8148028884949543 0.31067093462944562 1 0.8148028884949543 0.31067093462944562 1 0.83630110503662825 0.50803330197135588 0.86762395692956074 1 0.5060815484123421 0.77374673111774417 0.78860835645735528 0.49829081152968557 1 0.8148028884949543 0.31067093462944562 1 0.68975022421527898 0.45812322962078778 1 0.83630110503662825 0.50803330197135588 0.77374673111774417 0.78860835645735528 0.49829081152968557 1 0.39615100178016449 0.32925244736082498 0.7504488434426726 0.53051757989633308 0.49836643074154852 1 0.60020898676431722 0.32446581821274012 0.77713227489941183 0.50036915849493024 0.21774643624003751 1 0.68975022421527898 0.45812322962078778 0.68456408135056701 0.68607101396845627 0.31096060989957619 1 0.60020898676431722 0.32446581821274012 0.7504488434426726 0.53051757989633308 0.49836643074154852 1 0.8148028884949543 0.31067093462944562 0.68456408135056701 0.68607101396845627 0.31096060989957619 1 0.68975022421527898 0.45812322962078778 0.77374673111774417 0.78860835645735528 0.49829081152968557 1 0.68975022421527898 0.45812322962078778 0.68456408135056701 0.68607101396845627 0.31096060989957619 0.7504488434426726 0.53051757989633308 0.49836643074154852 0.77374673111774417 0.78860835645735528 0.49829081152968557 1 0.68975022421527898 0.45812322962078778 1 0.8148028884949543 0.31067093462944562 1 0.60020898676431722 0.32446581821274012 0.68456408135056701 0.68607101396845627 0.31096060989957619 0.68456408135056701 0.68607101396845627 0.31096060989957619 1 0.60020898676431722 0.32446581821274012 0.7504488434426726 0.53051757989633308 0.49836643074154852 0.77713227489941183 0.50036915849493024 0.21774643624003751 1 0.8148028884949543 0.31067093462944562 1 0.60020898676431722 0.32446581821274012 0.68456408135056701 0.68607101396845627 0.31096060989957619 0.81582077266975173 0.77657922508894406 0.18483084990574741 1 0.60020898676431722 0.32446581821274012 0.77713227489941183 0.50036915849493024 0.21774643624003751 0.68456408135056701 0.68607101396845627 0.31096060989957619 0.81582077266975173 0.77657922508894406 0.18483084990574741 1 0.50000000000229983 0.51961524226898759 1 0.68975022421527898 0.45812322962078778 1 0.60020898676431722 0.32446581821274012 0.7504488434426726 0.53051757989633308 0.49836643074154852 1 0.39615100178016449 0.32925244736082498 1 0.50000000000229983 0.51961524226898759 1 0.60020898676431722 0.32446581821274012 0.7504488434426726 0.53051757989633308 0.49836643074154852 0.84191918937744659 0.51186163305076127 0 1 0.49836539647890021 0.17226134197269399 1 0.69449451837101916 0.15896804272136739 0.77713227489941183 0.50036915849493024 0.21774643624003751 1 0.69449451837101916 0.15896804272136739 0.85173693729186062 0.69992182039541118 0 0.77713227489941183 0.50036915849493024 0.21774643624003751 0.81582077266975173 0.77657922508894406 0.18483084990574741 1 0.69449451837101916 0.15896804272136739 0.77713227489941183 0.50036915849493024 0.21774643624003751 1 0.60020898676431722 0.32446581821274012 0.81582077266975173 0.77657922508894406 0.18483084990574741 1 0.69449451837101916 0.15896804272136739 1 0.49836539647890021 0.17226134197269399 1 0.60020898676431722 0.32446581821274012 0.77713227489941183 0.50036915849493024 0.21774643624003751 0.72722573386132172 0.60922248848163563 0 0.77713227489941183 0.50036915849493024 0.21774643624003751 0.85173693729186062 0.69992182039541118 0 0.81582077266975173 0.77657922508894406 0.18483084990574741 0.72722573386132172 0.60922248848163563 0 0.68456408135056701 0.68607101396845627 0.31096060989957619 0.77713227489941183 0.50036915849493024 0.21774643624003751 0.81582077266975173 0.77657922508894406 0.18483084990574741 1 0.8148028884949543 0.31067093462944562 1 0.69449451837101916 0.15896804272136739 1 0.60020898676431722 0.32446581821274012 0.81582077266975173 0.77657922508894406 0.18483084990574741 0.72722573386132172 0.60922248848163563 0 0.67320508075660079 0.46954769941202479 0 0.84191918937744659 0.51186163305076127 0 0.77713227489941183 0.50036915849493024 0.21774643624003751 0.84191918937744659 0.51186163305076127 0 1 0.69449451837101916 0.15896804272136739 0.85173693729186062 0.69992182039541118 0 0.77713227489941183 0.50036915849493024 0.21774643624003751 0.72722573386132172 0.60922248848163563 0 0.84191918937744659 0.51186163305076127 0 0.85173693729186062 0.69992182039541118 0 0.77713227489941183 0.50036915849493024 0.21774643624003751 0.7054234997318658 0.80860557108880304 0 0.72722573386132172 0.60922248848163563 0 0.85173693729186062 0.69992182039541118 0 0.81582077266975173 0.77657922508894406 0.18483084990574741 1 0.69449451837101916 0.15896804272136739 0.85173693729186062 0.69992182039541118 0 1 0.79999999999999982 0 1 0.60000000000138687 0 1 0.69449451837101916 0.15896804272136739 0.81582077266975173 0.77657922508894406 0.18483084990574741 1 0.79999999999999982 0 0.85173693729186062 0.69992182039541118 0 0.84191918937744659 0.51186163305076127 0 0.85173693729186062 0.69992182039541118 0 1 0.69449451837101916 0.15896804272136739 1 0.60000000000138687 0 1 0.60000000000138687 0 1 0.69449451837101916 0.15896804272136739 0.84191918937744659 0.51186163305076127 0 1 0.49836539647890021 0.17226134197269399 1 0.40000000000166441 0 1 0.60000000000138687 0 0.84191918937744659 0.51186163305076127 0 1 0.49836539647890021 0.17226134197269399 0.80839867011859301 0.31807971531731721 0 0.85358983848570813 0.1464101615143738 0 1 0.30074819035868428 0.16929708765640439 0.68777432594363841 0.31447353261427252 0.31366778418247038 0.80839867011859301 0.31807971531731721 0 1 0.40000000000166441 0 0.84191918937744659 0.51186163305076127 0 1 0.49836539647890021 0.17226134197269399 1 0.40000000000166441 0 0.80839867011859301 0.31807971531731721 0 1 0.30074819035868428 0.16929708765640439 1 0.49836539647890021 0.17226134197269399 0.80839867011859301 0.31807971531731721 0 0.68777432594363841 0.31447353261427252 0.31366778418247038 1 0.30074819035868428 0.16929708765640439 0.77713227489941183 0.50036915849493024 0.21774643624003751 0.84191918937744659 0.51186163305076127 0 0.67320508075660079 0.46954769941202479 0 0.80839867011859301 0.31807971531731721 0 0.77713227489941183 0.50036915849493024 0.21774643624003751 0.84191918937744659 0.51186163305076127 0 0.80839867011859301 0.31807971531731721 0 1 0.49836539647890021 0.17226134197269399 0.77713227489941183 0.50036915849493024 0.21774643624003751 0.80839867011859301 0.31807971531731721 0 1 0.30074819035868428 0.16929708765640439 1 0.49836539647890021 0.17226134197269399 0.77713227489941183 0.50036915849493024 0.21774643624003751 1 0.30074819035868428 0.16929708765640439 1 0.39615100178016449 0.32925244736082498 1 0.49836539647890021 0.17226134197269399 0.77713227489941183 0.50036915849493024 0.21774643624003751 1 0.30074819035868428 0.16929708765640439 0.80839867011859301 0.31807971531731721 0 1 0.40000000000166441 0 1 0.20000000000083221 0 1 0.30074819035868428 0.16929708765640439 0.80839867011859301 0.31807971531731721 0 1 0.20000000000083221 0 0.85358983848570813 0.1464101615143738 0 1 0.20000000000083221 0 1 0.14641016151453831 0.14641016151419689 1 0.30074819035868428 0.16929708765640439 0.85358983848570813 0.1464101615143738 0 0.83057691269884504 0 0.30018449338884379 0.85358983848650494 0 0.1464101615132356 0.68592116352011878 0 0.1724872797865501 0.68777432594363841 0.31447353261427252 0.31366778418247038 0.80839867011859301 0.31807971531731721 0 0.69380980079964416 0.1619694349440581 0 0.85358983848570813 0.1464101615143738 0 0.68777432594363841 0.31447353261427252 0.31366778418247038 1 0.18804489794556911 0.3161072616634244 1 0.30074819035868428 0.16929708765640439 1 0.14641016151453831 0.14641016151419689 0.68777432594363841 0.31447353261427252 0.31366778418247038 1 0.14641016151453831 0.14641016151419689 1 0.30074819035868428 0.16929708765640439 0.85358983848570813 0.1464101615143738 0 0.68777432594363841 0.31447353261427252 0.31366778418247038 1 0.14641016151453831 0.14641016151419689 0.85358983848650494 0 0.1464101615132356 0.83057691269884504 0 0.30018449338884379 0.68777432594363841 0.31447353261427252 0.31366778418247038 1 0.14641016151453831 0.14641016151419689 0.85358983848570813 0.1464101615143738 0 0.85358983848650494 0 0.1464101615132356 0.68777432594363841 0.31447353261427252 0.31366778418247038 0.69380980079964416 0.1619694349440581 0 0.85358983848650494 0 0.1464101615132356 0.85358983848570813 0.1464101615143738 0 0.68777432594363841 0.31447353261427252 0.31366778418247038 0.85358983848650494 0 0.1464101615132356 0.83057691269884504 0 0.30018449338884379 1 0 0.19999999999955789 1 0.14641016151453831 0.14641016151419689 0.83057691269884504 0 0.30018449338884379 1 0.18804489794556911 0.3161072616634244 1 0 0.19999999999955789 1 0.14641016151453831 0.14641016151419689 0.85358983848570813 0.1464101615143738 0 1 0 0 0.85358983848650494 0 0.1464101615132356 0.79999999999947335 0 0 0.85358983848650494 0 0.1464101615132356 1 0 0.19999999999955789 1 0 0 1 0.14641016151453831 0.14641016151419689 1 0 0 1 0.14641016151453831 0.14641016151419689 1 0.20000000000083221 0 0.85358983848570813 0.1464101615143738 0 1 0.14641016151453831 0.14641016151419689 1 0 0 0.85358983848650494 0 0.1464101615132356 0.85358983848570813 0.1464101615143738 0 0.68592116352011878 0 0.1724872797865501 0.69380980079964416 0.1619694349440581 0 0.85358983848650494 0 0.1464101615132356 0.79999999999947335 0 0 0.85358983848570813 0.1464101615143738 0 0.85358983848650494 0 0.1464101615132356 0.69380980079964416 0.1619694349440581 0 0.79999999999947335 0 0 0.68592116352011878 0 0.1724872797865501 0.68777432594363841 0.31447353261427252 0.31366778418247038 0.69380980079964416 0.1619694349440581 0 0.5003997205654479 0.21136633249797621 0.2258422409314382 0.68592116352011878 0 0.1724872797865501 0.85358983848650494 0 0.1464101615132356 0.69380980079964416 0.1619694349440581 0 0.68777432594363841 0.31447353261427252 0.31366778418247038 0.69380980079964416 0.1619694349440581 0 0.68592116352011878 0 0.1724872797865501 0.59999999999894682 0 0 0.79999999999947335 0 0 0.49391845158624981 0 0.1323760430705655 0.3999999999989749 0 0 0.50966790549376417 0.16275515618023731 0 0.59999999999894682 0 0 0.50966790549376417 0.16275515618023731 0 0.69380980079964416 0.1619694349440581 0 0.68592116352011878 0 0.1724872797865501 0.59999999999894682 0 0 0.68592116352011878 0 0.1724872797865501 0.49391845158624981 0 0.1323760430705655 0.50966790549376417 0.16275515618023731 0 0.59999999999894682 0 0 0.47688326899416439 0 0.31741132792405607 0.68592116352011878 0 0.1724872797865501 0.49391845158624981 0 0.1323760430705655 0.5003997205654479 0.21136633249797621 0.2258422409314382 0.49391845158624981 0 0.1323760430705655 0.68592116352011878 0 0.1724872797865501 0.50966790549376417 0.16275515618023731 0 0.5003997205654479 0.21136633249797621 0.2258422409314382 0.50966790549376417 0.16275515618023731 0 0.68592116352011878 0 0.1724872797865501 0.69380980079964416 0.1619694349440581 0 0.5003997205654479 0.21136633249797621 0.2258422409314382 0.6104699881764214 0.32043363027358418 0 0.50966790549376417 0.16275515618023731 0 0.69380980079964416 0.1619694349440581 0 0.5003997205654479 0.21136633249797621 0.2258422409314382 0.6104699881764214 0.32043363027358418 0 0.68777432594363841 0.31447353261427252 0.31366778418247038 0.80839867011859301 0.31807971531731721 0 0.77713227489941183 0.50036915849493024 0.21774643624003751 0.6104699881764214 0.32043363027358418 0 0.69380980079964416 0.1619694349440581 0 0.68777432594363841 0.31447353261427252 0.31366778418247038 0.5003997205654479 0.21136633249797621 0.2258422409314382 0.80839867011859301 0.31807971531731721 0 0.6104699881764214 0.32043363027358418 0 0.69380980079964416 0.1619694349440581 0 0.68777432594363841 0.31447353261427252 0.31366778418247038 0.6104699881764214 0.32043363027358418 0 0.45812322962036273 0.31024977578535839 0 0.50966790549376417 0.16275515618023731 0 0.5003997205654479 0.21136633249797621 0.2258422409314382 0.45812322962036273 0.31024977578535839 0 0.6104699881764214 0.32043363027358418 0 0.5004045312576143 0.47050700646456922 0.24963111222780321 0.5003997205654479 0.21136633249797621 0.2258422409314382 0.77713227489941183 0.50036915849493024 0.21774643624003751 0.6104699881764214 0.32043363027358418 0 0.5004045312576143 0.47050700646456922 0.24963111222780321 0.67320508075660079 0.46954769941202479 0 0.68777432594363841 0.31447353261427252 0.31366778418247038 0.5004045312576143 0.47050700646456922 0.24963111222780321 0.6104699881764214 0.32043363027358418 0 0.5003997205654479 0.21136633249797621 0.2258422409314382 0.77713227489941183 0.50036915849493024 0.21774643624003751 0.5004045312576143 0.47050700646456922 0.24963111222780321 0.6104699881764214 0.32043363027358418 0 0.68777432594363841 0.31447353261427252 0.31366778418247038 0.51961524226956368 0.5000000000025091 0 0.6104699881764214 0.32043363027358418 0 0.67320508075660079 0.46954769941202479 0 0.5004045312576143 0.47050700646456922 0.24963111222780321 0.45812322962036273 0.31024977578535839 0 0.6104699881764214 0.32043363027358418 0 0.51961524226956368 0.5000000000025091 0 0.5004045312576143 0.47050700646456922 0.24963111222780321 0.6104699881764214 0.32043363027358418 0 0.80839867011859301 0.31807971531731721 0 0.67320508075660079 0.46954769941202479 0 0.77713227489941183 0.50036915849493024 0.21774643624003751 0.68777432594363841 0.31447353261427252 0.31366778418247038 0.7504488434426726 0.53051757989633308 0.49836643074154852 0.50000000000001332 0.49999999999999561 0.49999999999999561 0.50073570207385831 0.24848280280289631 0.52886631355986169 0.7504488434426726 0.53051757989633308 0.49836643074154852 0.50073570207385831 0.24848280280289631 0.52886631355986169 0.68777432594363841 0.31447353261427252 0.31366778418247038 0.77973766487723961 0.22090161127815711 0.50014622462635805 0.50000000000001332 0.49999999999999561 0.49999999999999561 0.7504488434426726 0.53051757989633308 0.49836643074154852 0.68777432594363841 0.31447353261427252 0.31366778418247038 0.5004045312576143 0.47050700646456922 0.24963111222780321 0.68777432594363841 0.31447353261427252 0.31366778418247038 0.5004045312576143 0.47050700646456922 0.24963111222780321 0.7504488434426726 0.53051757989633308 0.49836643074154852 0.77713227489941183 0.50036915849493024 0.21774643624003751 0.50073570207385831 0.24848280280289631 0.52886631355986169 0.5004045312576143 0.47050700646456922 0.24963111222780321 0.68777432594363841 0.31447353261427252 0.31366778418247038 0.5003997205654479 0.21136633249797621 0.2258422409314382 0.50000000000001332 0.49999999999999561 0.49999999999999561 0.68777432594363841 0.31447353261427252 0.31366778418247038 0.50073570207385831 0.24848280280289631 0.52886631355986169 0.5004045312576143 0.47050700646456922 0.24963111222780321 0.83057691269884504 0 0.30018449338884379 0.68777432594363841 0.31447353261427252 0.31366778418247038 0.66852282575985944 0 0.3853248791658106 0.77973766487723961 0.22090161127815711 0.50014622462635805 0.68592116352011878 0 0.1724872797865501 0.66852282575985944 0 0.3853248791658106 0.83057691269884504 0 0.30018449338884379 0.68777432594363841 0.31447353261427252 0.31366778418247038 0.66852282575985944 0 0.3853248791658106 0.47688326899416439 0 0.31741132792405607 0.50073570207385831 0.24848280280289631 0.52886631355986169 0.5003997205654479 0.21136633249797621 0.2258422409314382 0.68969697123394857 0 0.54179813558228873 0.66852282575985944 0 0.3853248791658106 0.50073570207385831 0.24848280280289631 0.52886631355986169 0.77973766487723961 0.22090161127815711 0.50014622462635805 0.68592116352011878 0 0.1724872797865501 0.66852282575985944 0 0.3853248791658106 0.68777432594363841 0.31447353261427252 0.31366778418247038 0.5003997205654479 0.21136633249797621 0.2258422409314382 0.66852282575985944 0 0.3853248791658106 0.50073570207385831 0.24848280280289631 0.52886631355986169 0.68777432594363841 0.31447353261427252 0.31366778418247038 0.5003997205654479 0.21136633249797621 0.2258422409314382 0.68777432594363841 0.31447353261427252 0.31366778418247038 0.50073570207385831 0.24848280280289631 0.52886631355986169 0.66852282575985944 0 0.3853248791658106 0.77973766487723961 0.22090161127815711 0.50014622462635805 0.68592116352011878 0 0.1724872797865501 0.47688326899416439 0 0.31741132792405607 0.66852282575985944 0 0.3853248791658106 0.5003997205654479 0.21136633249797621 0.2258422409314382 0.50000000000250922 0 0.48038475773043671 0.66852282575985944 0 0.3853248791658106 0.47688326899416439 0 0.31741132792405607 0.50073570207385831 0.24848280280289631 0.52886631355986169 0.50000000000250922 0 0.48038475773043671 0.68969697123394857 0 0.54179813558228873 0.66852282575985944 0 0.3853248791658106 0.50073570207385831 0.24848280280289631 0.52886631355986169 0.66852282575985944 0 0.3853248791658106 0.68969697123394857 0 0.54179813558228873 0.83534964916824084 0 0.4902996892628636 0.77973766487723961 0.22090161127815711 0.50014622462635805 1 0.18804489794556911 0.3161072616634244 0.68777432594363841 0.31447353261427252 0.31366778418247038 0.83057691269884504 0 0.30018449338884379 0.77973766487723961 0.22090161127815711 0.50014622462635805 1 0.18804489794556911 0.3161072616634244 1 0.14641016151453831 0.14641016151419689 0.83057691269884504 0 0.30018449338884379 0.68777432594363841 0.31447353261427252 0.31366778418247038 0.83534964916824084 0 0.4902996892628636 0.83057691269884504 0 0.30018449338884379 0.66852282575985944 0 0.3853248791658106 0.77973766487723961 0.22090161127815711 0.50014622462635805 0.83534964916824084 0 0.4902996892628636 1 0.18804489794556911 0.3161072616634244 0.83057691269884504 0 0.30018449338884379 0.77973766487723961 0.22090161127815711 0.50014622462635805 0.83057691269884504 0 0.30018449338884379 0.83534964916824084 0 0.4902996892628636 1 0 0.3999999999989749 1 0.18804489794556911 0.3161072616634244 0.83534964916824084 0 0.4902996892628636 1 0.162755156180173 0.50966790549372887 1 0 0.59999999999894682 1 0 0.3999999999989749 1 0 0.3999999999989749 0.83534964916824084 0 0.4902996892628636 1 0.162755156180173 0.50966790549372887 1 0.18804489794556911 0.3161072616634244 1 0.18804489794556911 0.3161072616634244 1 0 0.3999999999989749 0.83057691269884504 0 0.30018449338884379 1 0 0.19999999999955789 1 0.31024977578542368 0.45812322962028301 1 0.18804489794556911 0.3161072616634244 1 0.162755156180173 0.50966790549372887 0.77973766487723961 0.22090161127815711 0.50014622462635805 0.83534964916824084 0 0.4902996892628636 1 0.162755156180173 0.50966790549372887 1 0.18804489794556911 0.3161072616634244 0.77973766487723961 0.22090161127815711 0.50014622462635805 1 0.39615100178016449 0.32925244736082498 0.68777432594363841 0.31447353261427252 0.31366778418247038 0.7504488434426726 0.53051757989633308 0.49836643074154852 0.77713227489941183 0.50036915849493024 0.21774643624003751 1 0.39615100178016449 0.32925244736082498 1 0.18804489794556911 0.3161072616634244 1 0.31024977578542368 0.45812322962028301 0.68777432594363841 0.31447353261427252 0.31366778418247038 1 0.31024977578542368 0.45812322962028301 0.7504488434426726 0.53051757989633308 0.49836643074154852 0.68777432594363841 0.31447353261427252 0.31366778418247038 0.77973766487723961 0.22090161127815711 0.50014622462635805 1 0.30074819035868428 0.16929708765640439 1 0.18804489794556911 0.3161072616634244 1 0.39615100178016449 0.32925244736082498 0.68777432594363841 0.31447353261427252 0.31366778418247038 1 0.31024977578542368 0.45812322962028301 0.68777432594363841 0.31447353261427252 0.31366778418247038 1 0.18804489794556911 0.3161072616634244 0.77973766487723961 0.22090161127815711 0.50014622462635805 1 0.30074819035868428 0.16929708765640439 0.68777432594363841 0.31447353261427252 0.31366778418247038 1 0.39615100178016449 0.32925244736082498 0.77713227489941183 0.50036915849493024 0.21774643624003751 1 0.39615100178016449 0.32925244736082498 0.68777432594363841 0.31447353261427252 0.31366778418247038 1 0.31024977578542368 0.45812322962028301 0.7504488434426726 0.53051757989633308 0.49836643074154852 1 0.60020898676431722 0.32446581821274012 1 0.49836539647890021 0.17226134197269399 1 0.39615100178016449 0.32925244736082498 0.77713227489941183 0.50036915849493024 0.21774643624003751 1 0.39615100178016449 0.32925244736082498 1 0.31024977578542368 0.45812322962028301 1 0.50000000000229983 0.51961524226898759 0.7504488434426726 0.53051757989633308 0.49836643074154852 1 0.33579115324550912 0.59952339316293046 0.7504488434426726 0.53051757989633308 0.49836643074154852 0.68742751001967084 0.31250796680084852 0.687427510020161 0.78019141325921404 0.49972466465542442 0.78019141325930785 1 0.33579115324550912 0.59952339316293046 1 0.39076805646076263 0.7272421105028648 0.68742751001967084 0.31250796680084852 0.687427510020161 0.81599560342209843 0.22280203704001911 0.81599560342233202 1 0.33579115324550912 0.59952339316293046 1 0.53045230059030524 0.6732050807565132 1 0.50000000000229983 0.51961524226898759 0.7504488434426726 0.53051757989633308 0.49836643074154852 1 0.33579115324550912 0.59952339316293046 0.7504488434426726 0.53051757989633308 0.49836643074154852 1 0.31024977578542368 0.45812322962028301 0.77973766487723961 0.22090161127815711 0.50014622462635805 0.68742751001967084 0.31250796680084852 0.687427510020161 0.77973766487723961 0.22090161127815711 0.50014622462635805 1 0.33579115324550912 0.59952339316293046 0.81599560342209843 0.22280203704001911 0.81599560342233202 1 0.33579115324550912 0.59952339316293046 0.68742751001967084 0.31250796680084852 0.687427510020161 0.7504488434426726 0.53051757989633308 0.49836643074154852 0.77973766487723961 0.22090161127815711 0.50014622462635805 1 0.53045230059030524 0.6732050807565132 0.7504488434426726 0.53051757989633308 0.49836643074154852 1 0.33579115324550912 0.59952339316293046 0.78019141325921404 0.49972466465542442 0.78019141325930785 1 0.39076805646076263 0.7272421105028648 1 0.33579115324550912 0.59952339316293046 0.68742751001967084 0.31250796680084852 0.687427510020161 0.78019141325921404 0.49972466465542442 0.78019141325930785 1 0.33579115324550912 0.59952339316293046 1 0.50000000000229983 0.51961524226898759 1 0.31024977578542368 0.45812322962028301 0.7504488434426726 0.53051757989633308 0.49836643074154852 1 0.39076805646076263 0.7272421105028648 1 0.53045230059030524 0.6732050807565132 1 0.33579115324550912 0.59952339316293046 0.78019141325921404 0.49972466465542442 0.78019141325930785 1 0.33579115324550912 0.59952339316293046 1 0.1912596090855686 0.70565701451953711 1 0.39076805646076263 0.7272421105028648 0.81599560342209843 0.22280203704001911 0.81599560342233202 1 0.33579115324550912 0.59952339316293046 1 0.31024977578542368 0.45812322962028301 1 0.162755156180173 0.50966790549372887 0.77973766487723961 0.22090161127815711 0.50014622462635805 1 0.162755156180173 0.50966790549372887 0.81469961246449951 0 0.68914937826112133 1 0.1912596090855686 0.70565701451953711 0.77973766487723961 0.22090161127815711 0.50014622462635805 0.81469961246449951 0 0.68914937826112133 0.77973766487723961 0.22090161127815711 0.50014622462635805 0.68742751001967084 0.31250796680084852 0.687427510020161 0.81599560342209843 0.22280203704001911 0.81599560342233202 0.81469961246449951 0 0.68914937826112133 1 0.1912596090855686 0.70565701451953711 0.77973766487723961 0.22090161127815711 0.50014622462635805 0.81599560342209843 0.22280203704001911 0.81599560342233202 1 0.1912596090855686 0.70565701451953711 1 0.33579115324550912 0.59952339316293046 0.77973766487723961 0.22090161127815711 0.50014622462635805 0.81599560342209843 0.22280203704001911 0.81599560342233202 1 0.162755156180173 0.50966790549372887 1 0.1912596090855686 0.70565701451953711 1 0.33579115324550912 0.59952339316293046 0.77973766487723961 0.22090161127815711 0.50014622462635805 1 0.1912596090855686 0.70565701451953711 0.81469961246449951 0 0.68914937826112133 1 0 0.59999999999894682 1 0 0.79999999999947335 0.81469961246449951 0 0.68914937826112133 1 0 0.59999999999894682 1 0.162755156180173 0.50966790549372887 1 0.1912596090855686 0.70565701451953711 1 0.162755156180173 0.50966790549372887 1 0 0.59999999999894682 0.81469961246449951 0 0.68914937826112133 0.83534964916824084 0 0.4902996892628636 0.81469961246449951 0 0.68914937826112133 0.83534964916824084 0 0.4902996892628636 0.68969697123394857 0 0.54179813558228873 0.77973766487723961 0.22090161127815711 0.50014622462635805 0.81469961246449951 0 0.68914937826112133 1 0.162755156180173 0.50966790549372887 0.83534964916824084 0 0.4902996892628636 0.77973766487723961 0.22090161127815711 0.50014622462635805 0.68969697123394857 0 0.54179813558228873 0.6002015905170176 0 0.67551889168744117 0.68742751001967084 0.31250796680084852 0.687427510020161 0.50073570207385831 0.24848280280289631 0.52886631355986169 0.6002015905170176 0 0.67551889168744117 0.81469961246449951 0 0.68914937826112133 0.68969697123394857 0 0.54179813558228873 0.68742751001967084 0.31250796680084852 0.687427510020161 0.81469961246449951 0 0.68914937826112133 0.68969697123394857 0 0.54179813558228873 0.68742751001967084 0.31250796680084852 0.687427510020161 0.77973766487723961 0.22090161127815711 0.50014622462635805 0.69447607299129699 0 0.84099946107689361 0.68742751001967084 0.31250796680084852 0.687427510020161 0.6002015905170176 0 0.67551889168744117 0.50084626324420545 0.22238844715913 0.78084811589659187 0.68742751001967084 0.31250796680084852 0.687427510020161 0.68969697123394857 0 0.54179813558228873 0.50073570207385831 0.24848280280289631 0.52886631355986169 0.77973766487723961 0.22090161127815711 0.50014622462635805 0.68742751001967084 0.31250796680084852 0.687427510020161 0.50073570207385831 0.24848280280289631 0.52886631355986169 0.6002015905170176 0 0.67551889168744117 0.50084626324420545 0.22238844715913 0.78084811589659187 0.6002015905170176 0 0.67551889168744117 0.81469961246449951 0 0.68914937826112133 0.68742751001967084 0.31250796680084852 0.687427510020161 0.81599560342209843 0.22280203704001911 0.81599560342233202 0.68969697123394857 0 0.54179813558228873 0.50000000000250922 0 0.48038475773043671 0.6002015905170176 0 0.67551889168744117 0.50073570207385831 0.24848280280289631 0.52886631355986169 0.50000000000001332 0.49999999999999561 0.49999999999999561 0.68742751001967084 0.31250796680084852 0.687427510020161 0.49816183246753282 0.5307146639261795 0.75045686993209071 0.50073570207385831 0.24848280280289631 0.52886631355986169 0.68742751001967084 0.31250796680084852 0.687427510020161 0.50000000000001332 0.49999999999999561 0.49999999999999561 0.7504488434426726 0.53051757989633308 0.49836643074154852 0.50073570207385831 0.24848280280289631 0.52886631355986169 0.68742751001967084 0.31250796680084852 0.687427510020161 0.7504488434426726 0.53051757989633308 0.49836643074154852 0.50000000000001332 0.49999999999999561 0.49999999999999561 0.49816183246753282 0.5307146639261795 0.75045686993209071 0.7504488434426726 0.53051757989633308 0.49836643074154852 0.49816183246753282 0.5307146639261795 0.75045686993209071 0.68742751001967084 0.31250796680084852 0.687427510020161 0.78019141325921404 0.49972466465542442 0.78019141325930785 0.49816183246753282 0.5307146639261795 0.75045686993209071 0.50073570207385831 0.24848280280289631 0.52886631355986169 0.68742751001967084 0.31250796680084852 0.687427510020161 0.50084626324420545 0.22238844715913 0.78084811589659187 0.68742751001967084 0.31250796680084852 0.687427510020161 0.50073570207385831 0.24848280280289631 0.52886631355986169 0.7504488434426726 0.53051757989633308 0.49836643074154852 0.77973766487723961 0.22090161127815711 0.50014622462635805 0.45812322962173568 0.31024977578554058 1 0.49816183246753282 0.5307146639261795 0.75045686993209071 0.59952339316492498 0.33579115324593939 1 0.50084626324420545 0.22238844715913 0.78084811589659187 0.59952339316492498 0.33579115324593939 1 0.68742751001967084 0.31250796680084852 0.687427510020161 0.72724211050425436 0.39076805646176382 1 0.81599560342209843 0.22280203704001911 0.81599560342233202 0.59952339316492498 0.33579115324593939 1 0.68742751001967084 0.31250796680084852 0.687427510020161 0.49816183246753282 0.5307146639261795 0.75045686993209071 0.78019141325921404 0.49972466465542442 0.78019141325930785 0.59952339316492498 0.33579115324593939 1 0.50084626324420545 0.22238844715913 0.78084811589659187 0.68742751001967084 0.31250796680084852 0.687427510020161 0.81599560342209843 0.22280203704001911 0.81599560342233202 0.59952339316492498 0.33579115324593939 1 0.49816183246753282 0.5307146639261795 0.75045686993209071 0.68742751001967084 0.31250796680084852 0.687427510020161 0.50084626324420545 0.22238844715913 0.78084811589659187 0.59952339316492498 0.33579115324593939 1 0.72724211050425436 0.39076805646176382 1 0.68742751001967084 0.31250796680084852 0.687427510020161 0.78019141325921404 0.49972466465542442 0.78019141325930785 0.59952339316492498 0.33579115324593939 1 0.49816183246753282 0.5307146639261795 0.75045686993209071 0.67320508075671459 0.53045230059073867 1 0.78019141325921404 0.49972466465542442 0.78019141325930785 0.70565701452089868 0.1912596090858541 1 0.59952339316492498 0.33579115324593939 1 0.72724211050425436 0.39076805646176382 1 0.81599560342209843 0.22280203704001911 0.81599560342233202 0.59952339316492498 0.33579115324593939 1 0.67320508075671459 0.53045230059073867 1 0.72724211050425436 0.39076805646176382 1 0.78019141325921404 0.49972466465542442 0.78019141325930785 0.45812322962173568 0.31024977578554058 1 0.51961524226934941 0.50000000000250611 1 0.59952339316492498 0.33579115324593939 1 0.49816183246753282 0.5307146639261795 0.75045686993209071 0.67320508075671459 0.53045230059073867 1 0.59952339316492498 0.33579115324593939 1 0.51961524226934941 0.50000000000250611 1 0.49816183246753282 0.5307146639261795 0.75045686993209071 0.59952339316492498 0.33579115324593939 1 0.50966790549576724 0.1627551561802443 1 0.45812322962173568 0.31024977578554058 1 0.50084626324420545 0.22238844715913 0.78084811589659187 0.50966790549576724 0.1627551561802443 1 0.70565701452089868 0.1912596090858541 1 0.69447607299129699 0 0.84099946107689361 0.50084626324420545 0.22238844715913 0.78084811589659187 0.68742751001967084 0.31250796680084852 0.687427510020161 0.50084626324420545 0.22238844715913 0.78084811589659187 0.69447607299129699 0 0.84099946107689361 0.81599560342209843 0.22280203704001911 0.81599560342233202 0.70565701452089868 0.1912596090858541 1 0.69447607299129699 0 0.84099946107689361 0.50084626324420545 0.22238844715913 0.78084811589659187 0.81599560342209843 0.22280203704001911 0.81599560342233202 0.70565701452089868 0.1912596090858541 1 0.50084626324420545 0.22238844715913 0.78084811589659187 0.59952339316492498 0.33579115324593939 1 0.81599560342209843 0.22280203704001911 0.81599560342233202 0.70565701452089868 0.1912596090858541 1 0.50966790549576724 0.1627551561802443 1 0.59952339316492498 0.33579115324593939 1 0.50084626324420545 0.22238844715913 0.78084811589659187 0.6002015905170176 0 0.67551889168744117 0.68742751001967084 0.31250796680084852 0.687427510020161 0.69447607299129699 0 0.84099946107689361 0.81599560342209843 0.22280203704001911 0.81599560342233202 0.69447607299129699 0 0.84099946107689361 0.6002015905170176 0 0.67551889168744117 0.49836539647917322 0 0.82773865802723501 0.50084626324420545 0.22238844715913 0.78084811589659187 0.69447607299129699 0 0.84099946107689361 0.49836539647917322 0 0.82773865802723501 0.50966790549576724 0.1627551561802443 1 0.50084626324420545 0.22238844715913 0.78084811589659187 0.60000000000138687 0 1 0.49836539647917322 0 0.82773865802723501 0.50966790549576724 0.1627551561802443 1 0.69447607299129699 0 0.84099946107689361 0.50966790549576724 0.1627551561802443 1 0.40000000000166441 0 1 0.49836539647917322 0 0.82773865802723501 0.60000000000138687 0 1 0.50966790549576724 0.1627551561802443 1 0.70565701452089868 0.1912596090858541 1 0.60000000000138687 0 1 0.69447607299129699 0 0.84099946107689361 0.70565701452089868 0.1912596090858541 1 0.60000000000138687 0 1 0.69447607299129699 0 0.84099946107689361 0.79999999999999982 0 1 0.6002015905170176 0 0.67551889168744117 0.69447607299129699 0 0.84099946107689361 0.81469961246449951 0 0.68914937826112133 0.81599560342209843 0.22280203704001911 0.81599560342233202 0.70565701452089868 0.1912596090858541 1 0.85358983848646974 0.14641016151341191 1 0.69447607299129699 0 0.84099946107689361 0.81599560342209843 0.22280203704001911 0.81599560342233202 0.85358983848646974 0.14641016151341191 1 0.70565701452089868 0.1912596090858541 1 0.85173693729199718 0.30007817960516198 1 0.81599560342209843 0.22280203704001911 0.81599560342233202 1 0.1912596090855686 0.70565701451953711 0.81469961246449951 0 0.68914937826112133 0.85358983848570524 0 0.85358983848556425 0.81599560342209843 0.22280203704001911 0.81599560342233202 0.69447607299129699 0 0.84099946107689361 0.85358983848570524 0 0.85358983848556425 0.81469961246449951 0 0.68914937826112133 0.81599560342209843 0.22280203704001911 0.81599560342233202 0.85358983848570524 0 0.85358983848556425 0.69447607299129699 0 0.84099946107689361 0.85358983848646974 0.14641016151341191 1 0.81599560342209843 0.22280203704001911 0.81599560342233202 0.79999999999999982 0 1 0.69447607299129699 0 0.84099946107689361 0.70565701452089868 0.1912596090858541 1 0.85358983848646974 0.14641016151341191 1 0.79999999999999982 0 1 0.85358983848570524 0 0.85358983848556425 0.69447607299129699 0 0.84099946107689361 0.85358983848646974 0.14641016151341191 1 1 0 1 1 0.14641016151333891 0.85358983848640169 0.85358983848570524 0 0.85358983848556425 0.85358983848646974 0.14641016151341191 1 0.79999999999999982 0 1 1 0 1 0.85358983848570524 0 0.85358983848556425 0.85358983848646974 0.14641016151341191 1 0.85358983848646974 0.14641016151341191 1 1 0 1 1 0.14641016151333891 0.85358983848640169 1 0.19999999999955789 1 0.85358983848570524 0 0.85358983848556425 1 0.14641016151333891 0.85358983848640169 1 0 1 1 0 0.79999999999947335 0.85358983848570524 0 0.85358983848556425 0.81469961246449951 0 0.68914937826112133 1 0.1912596090855686 0.70565701451953711 1 0 0.79999999999947335 1 0.1912596090855686 0.70565701451953711 1 0.14641016151333891 0.85358983848640169 0.85358983848570524 0 0.85358983848556425 1 0 0.79999999999947335 1 0.14641016151333891 0.85358983848640169 1 0.30007817960499339 0.85173693729139244 1 0.1912596090855686 0.70565701451953711 0.81599560342209843 0.22280203704001911 0.81599560342233202 1 0.1912596090855686 0.70565701451953711 0.85358983848570524 0 0.85358983848556425 1 0.14641016151333891 0.85358983848640169 0.81599560342209843 0.22280203704001911 0.81599560342233202 0.85358983848646974 0.14641016151341191 1 0.85173693729199718 0.30007817960516198 1 1 0.19999999999955789 1 0.81599560342209843 0.22280203704001911 0.81599560342233202 1 0.14641016151333891 0.85358983848640169 0.85358983848646974 0.14641016151341191 1 1 0.19999999999955789 1 0.81599560342209843 0.22280203704001911 0.81599560342233202 1 0.14641016151333891 0.85358983848640169 1 0.19999999999955789 1 1 0.30007817960499339 0.85173693729139244 0.81599560342209843 0.22280203704001911 0.81599560342233202 0.85358983848570524 0 0.85358983848556425 0.85358983848646974 0.14641016151341191 1 1 0.14641016151333891 0.85358983848640169 0.81599560342209843 0.22280203704001911 0.81599560342233202 1 0.19999999999955789 1 1 0.30007817960499339 0.85173693729139244 0.85173693729199718 0.30007817960516198 1 1 0.3999999999989749 1 1 0.19999999999955789 1 0.85173693729199718 0.30007817960516198 1 1 0.30007817960499339 0.85173693729139244 0.81599560342209843 0.22280203704001911 0.81599560342233202 1 0.30007817960499339 0.85173693729139244 0.85173693729199718 0.30007817960516198 1 0.78019141325921404 0.49972466465542442 0.78019141325930785 0.81599560342209843 0.22280203704001911 0.81599560342233202 0.68742751001967084 0.31250796680084852 0.687427510020161 0.78019141325921404 0.49972466465542442 0.78019141325930785 0.72724211050425436 0.39076805646176382 1 0.81599560342209843 0.22280203704001911 0.81599560342233202 1 0.39076805646076263 0.7272421105028648 1 0.30007817960499339 0.85173693729139244 0.78019141325921404 0.49972466465542442 0.78019141325930785 0.81599560342209843 0.22280203704001911 0.81599560342233202 0.85173693729199718 0.30007817960516198 1 0.72724211050425436 0.39076805646176382 1 0.78019141325921404 0.49972466465542442 0.78019141325930785 0.81599560342209843 0.22280203704001911 0.81599560342233202 1 0.39076805646076263 0.7272421105028648 0.78019141325921404 0.49972466465542442 0.78019141325930785 0.68742751001967084 0.31250796680084852 0.687427510020161 0.81599560342209843 0.22280203704001911 0.81599560342233202 0.85173693729199718 0.30007817960516198 1 1 0.30007817960499339 0.85173693729139244 1 0.48813836695007229 0.84191918937727617 1 0.3999999999989749 1 0.72724211050425436 0.39076805646176382 1 0.85173693729199718 0.30007817960516198 1 0.70565701452089868 0.1912596090858541 1 0.81599560342209843 0.22280203704001911 0.81599560342233202 1 0.1912596090855686 0.70565701451953711 1 0.30007817960499339 0.85173693729139244 1 0.39076805646076263 0.7272421105028648 0.81599560342209843 0.22280203704001911 0.81599560342233202 0.85173693729199718 0.30007817960516198 1 1 0.48813836695007229 0.84191918937727617 1 0.30007817960499339 0.85173693729139244 0.78019141325921404 0.49972466465542442 0.78019141325930785 1 0.30007817960499339 0.85173693729139244 1 0.48813836695007229 0.84191918937727617 1 0.39076805646076263 0.7272421105028648 0.78019141325921404 0.49972466465542442 0.78019141325930785 1 0.39076805646076263 0.7272421105028648 1 0.48813836695007229 0.84191918937727617 1 0.53045230059030524 0.6732050807565132 0.78019141325921404 0.49972466465542442 0.78019141325930785 0.72724211050425436 0.39076805646176382 1 0.67320508075671459 0.53045230059073867 1 0.84191918937756771 0.48813836695034618 1 0.78019141325921404 0.49972466465542442 0.78019141325930785 0.84191918937756771 0.48813836695034618 1 0.85173693729199718 0.30007817960516198 1 0.72724211050425436 0.39076805646176382 1 0.78019141325921404 0.49972466465542442 0.78019141325930785 0.84191918937756771 0.48813836695034618 1 1 0.48813836695007229 0.84191918937727617 0.85173693729199718 0.30007817960516198 1 0.78019141325921404 0.49972466465542442 0.78019141325930785 1 0.3999999999989749 1 1 0.48813836695007229 0.84191918937727617 0.84191918937756771 0.48813836695034618 1 1 0.59999999999894682 1 1 0.48813836695007229 0.84191918937727617 0.84191918937756771 0.48813836695034618 1 0.85173693729199718 0.30007817960516198 1 1 0.3999999999989749 1 0.80839867011861499 0.68192028468377774 1 0.78019141325921404 0.49972466465542442 0.78019141325930785 0.68649174659499257 0.68600703198516766 0.6864917465949647 0.77683220420328725 0.81278569633583353 0.81664766512111064 0.80839867011861499 0.68192028468377774 1 1 0.68192028468364885 0.80839867011854549 0.78019141325921404 0.49972466465542442 0.78019141325930785 0.77683220420328725 0.81278569633583353 0.81664766512111064 1 0.59999999999894682 1 1 0.48813836695007229 0.84191918937727617 0.84191918937756771 0.48813836695034618 1 1 0.68192028468364885 0.80839867011854549 0.68649174659499257 0.68600703198516766 0.6864917465949647 0.78019141325921404 0.49972466465542442 0.78019141325930785 1 0.68192028468364885 0.80839867011854549 0.77683220420328725 0.81278569633583353 0.81664766512111064 0.84191918937756771 0.48813836695034618 1 1 0.59999999999894682 1 1 0.68192028468364885 0.80839867011854549 0.80839867011861499 0.68192028468377774 1 1 0.59999999999894682 1 1 0.68192028468364885 0.80839867011854549 0.80839867011861499 0.68192028468377774 1 1 0.79999999999947335 1 0.84191918937756771 0.48813836695034618 1 0.67320508075671459 0.53045230059073867 1 0.80839867011861499 0.68192028468377774 1 0.78019141325921404 0.49972466465542442 0.78019141325930785 0.84191918937756771 0.48813836695034618 1 0.80839867011861499 0.68192028468377774 1 1 0.68192028468364885 0.80839867011854549 0.78019141325921404 0.49972466465542442 0.78019141325930785 1 0.68192028468364885 0.80839867011854549 1 0.53045230059030524 0.6732050807565132 1 0.48813836695007229 0.84191918937727617 0.78019141325921404 0.49972466465542442 0.78019141325930785 1 0.68192028468364885 0.80839867011854549 1 0.48813836695007229 0.84191918937727617 0.84191918937756771 0.48813836695034618 1 0.78019141325921404 0.49972466465542442 0.78019141325930785 1 0.67939035495490308 0.61016512164639347 0.78019141325921404 0.49972466465542442 0.78019141325930785 0.7504488434426726 0.53051757989633308 0.49836643074154852 1 0.53045230059030524 0.6732050807565132 1 0.67939035495490308 0.61016512164639347 0.7504488434426726 0.53051757989633308 0.49836643074154852 0.68649174659499257 0.68600703198516766 0.6864917465949647 0.77374673111774417 0.78860835645735528 0.49829081152968557 1 0.67939035495490308 0.61016512164639347 0.68649174659499257 0.68600703198516766 0.6864917465949647 1 0.83791821520125753 0.69361520514217179 0.77374673111774417 0.78860835645735528 0.49829081152968557 1 0.68192028468364885 0.80839867011854549 1 0.67939035495490308 0.61016512164639347 0.68649174659499257 0.68600703198516766 0.6864917465949647 0.77683220420328725 0.81278569633583353 0.81664766512111064 1 0.67939035495490308 0.61016512164639347 1 0.68975022421527898 0.45812322962078778 0.7504488434426726 0.53051757989633308 0.49836643074154852 0.77374673111774417 0.78860835645735528 0.49829081152968557 0.7504488434426726 0.53051757989633308 0.49836643074154852 0.78019141325921404 0.49972466465542442 0.78019141325930785 1 0.67939035495490308 0.61016512164639347 0.68649174659499257 0.68600703198516766 0.6864917465949647 1 0.68192028468364885 0.80839867011854549 0.68649174659499257 0.68600703198516766 0.6864917465949647 1 0.67939035495490308 0.61016512164639347 0.78019141325921404 0.49972466465542442 0.78019141325930785 1 0.53045230059030524 0.6732050807565132 1 0.68192028468364885 0.80839867011854549 1 0.67939035495490308 0.61016512164639347 0.78019141325921404 0.49972466465542442 0.78019141325930785 1 0.67939035495490308 0.61016512164639347 1 0.50000000000229983 0.51961524226898759 1 0.53045230059030524 0.6732050807565132 0.7504488434426726 0.53051757989633308 0.49836643074154852 1 0.67939035495490308 0.61016512164639347 1 0.68975022421527898 0.45812322962078778 1 0.50000000000229983 0.51961524226898759 0.7504488434426726 0.53051757989633308 0.49836643074154852 1 0.67939035495490308 0.61016512164639347 1 0.83630110503662825 0.50803330197135588 1 0.68975022421527898 0.45812322962078778 0.77374673111774417 0.78860835645735528 0.49829081152968557 1 0.83791821520125753 0.69361520514217179 0.77374673111774417 0.78860835645735528 0.49829081152968557 0.68649174659499257 0.68600703198516766 0.6864917465949647 0.77683220420328725 0.81278569633583353 0.81664766512111064 0.68649174659499257 0.68600703198516766 0.6864917465949647 0.77374673111774417 0.78860835645735528 0.49829081152968557 0.81346205468287114 1 0.68420958956387889 0.77683220420328725 0.81278569633583353 0.81664766512111064 1 0.83791821520125753 0.69361520514217179 0.68649174659499257 0.68600703198516766 0.6864917465949647 1 0.67939035495490308 0.61016512164639347 0.77683220420328725 0.81278569633583353 0.81664766512111064 1 0.68192028468364885 0.80839867011854549 1 0.83791821520125753 0.69361520514217179 1 0.67939035495490308 0.61016512164639347 0.77683220420328725 0.81278569633583353 0.81664766512111064 1 0.83791821520125753 0.69361520514217179 0.81346205468287114 1 0.68420958956387889 0.77374673111774417 0.78860835645735528 0.49829081152968557 0.77683220420328725 0.81278569633583353 0.81664766512111064 1 0.83630110503662825 0.50803330197135588 1 0.67939035495490308 0.61016512164639347 1 0.83791821520125753 0.69361520514217179 0.77374673111774417 0.78860835645735528 0.49829081152968557 1 0.83791821520125753 0.69361520514217179 0.86762395692956074 1 0.5060815484123421 1 0.83630110503662825 0.50803330197135588 0.77374673111774417 0.78860835645735528 0.49829081152968557 1 1 0.59999999999894682 1 0.83630110503662825 0.50803330197135588 1 0.83791821520125753 0.69361520514217179 0.86762395692956074 1 0.5060815484123421 0.86762395692956074 1 0.5060815484123421 1 1 0.59999999999894682 1 0.83630110503662825 0.50803330197135588 1 1 0.3999999999989749 1 0.83791821520125753 0.69361520514217179 0.81346205468287114 1 0.68420958956387889 1 1 0.59999999999894682 0.86762395692956074 1 0.5060815484123421 0.86762395692956074 1 0.5060815484123421 0.81346205468287114 1 0.68420958956387889 0.68240285647621723 1 0.52310058211166854 0.77374673111774417 0.78860835645735528 0.49829081152968557 0.81346205468287114 1 0.68420958956387889 0.86762395692956074 1 0.5060815484123421 1 0.83791821520125753 0.69361520514217179 0.77374673111774417 0.78860835645735528 0.49829081152968557 1 0.83791821520125753 0.69361520514217179 0.81346205468287114 1 0.68420958956387889 1 1 0.79999999999947335 1 1 0.59999999999894682 1 1 0.79999999999947335 0.85358983848569092 1 0.85358983848569092 0.81346205468287114 1 0.68420958956387889 1 0.83791821520125753 0.69361520514217179 0.85358983848569092 1 0.85358983848569092 1 0.83791821520125753 0.69361520514217179 1 0.85358983848587056 0.85358983848587056 0.77683220420328725 0.81278569633583353 0.81664766512111064 0.85358983848569092 1 0.85358983848569092 1 1 0.79999999999947335 1 0.85358983848587056 0.85358983848587056 1 0.83791821520125753 0.69361520514217179 0.85358983848587056 0.85358983848587056 1 1 1 1 1 0.79999999999947335 1 1 0.85358983848587056 0.85358983848587056 0.85358983848587056 0.85358983848587056 1 0.79999999999947335 1 1 1 1 1 0.85358983848569092 1 0.85358983848569092 1 1 0.79999999999947335 1 0.85358983848587056 0.85358983848587056 1 1 1 0.85358983848569092 1 0.85358983848569092 1 0.85358983848587056 0.85358983848587056 0.85358983848587056 0.85358983848587056 1 1 1 1 0.85358983848569092 1 0.85358983848569092 0.85358983848587056 0.85358983848587056 1 1 0.79999999999947335 1 1 0.68192028468364885 0.80839867011854549 1 0.85358983848587056 0.85358983848587056 1 0.79999999999947335 1 1 0.68192028468364885 0.80839867011854549 0.80839867011861499 0.68192028468377774 1 0.85358983848587056 0.85358983848587056 1 0.85358983848587056 0.85358983848587056 1 1 0.85358983848587056 0.85358983848587056 1 0.68192028468364885 0.80839867011854549 0.77683220420328725 0.81278569633583353 0.81664766512111064 1 0.68192028468364885 0.80839867011854549 1 0.85358983848587056 0.85358983848587056 1 0.83791821520125753 0.69361520514217179 0.77683220420328725 0.81278569633583353 0.81664766512111064 0.69361520514218133 0.83791821520130205 1 0.85358983848587056 0.85358983848587056 1 0.80839867011861499 0.68192028468377774 1 0.77683220420328725 0.81278569633583353 0.81664766512111064 0.80839867011861499 0.68192028468377774 1 0.85358983848587056 0.85358983848587056 1 1 0.68192028468364885 0.80839867011854549 0.77683220420328725 0.81278569633583353 0.81664766512111064 0.85358983848587056 0.85358983848587056 1 0.79999999999947335 1 1 0.85358983848569092 1 0.85358983848569092 0.77683220420328725 0.81278569633583353 0.81664766512111064 0.69981550660938663 1 0.83057691269844081 0.85358983848569092 1 0.85358983848569092 0.79999999999947335 1 1 0.77683220420328725 0.81278569633583353 0.81664766512111064 0.85358983848587056 0.85358983848587056 1 0.69361520514218133 0.83791821520130205 1 0.79999999999947335 1 1 0.77683220420328725 0.81278569633583353 0.81664766512111064 1 0.85358983848587056 0.85358983848587056 0.85358983848587056 0.85358983848587056 1 0.85358983848569092 1 0.85358983848569092 0.77683220420328725 0.81278569633583353 0.81664766512111064 0.85358983848569092 1 0.85358983848569092 0.69981550660938663 1 0.83057691269844081 0.81346205468287114 1 0.68420958956387889 0.77683220420328725 0.81278569633583353 0.81664766512111064 0.81346205468287114 1 0.68420958956387889 1 0.83791821520125753 0.69361520514217179 0.85358983848569092 1 0.85358983848569092 0.77683220420328725 0.81278569633583353 0.81664766512111064 0.69361520514218133 0.83791821520130205 1 0.49911199724958061 0.77872228561593948 0.77895350115271889 0.69981550660938663 1 0.83057691269844081 0.77683220420328725 0.81278569633583353 0.81664766512111064 0.69361520514218133 0.83791821520130205 1 0.61016512164652226 0.67939035495506384 1 0.49911199724958061 0.77872228561593948 0.77895350115271889 0.77683220420328725 0.81278569633583353 0.81664766512111064 0.81346205468287114 1 0.68420958956387889 0.69981550660938663 1 0.83057691269844081 0.6123333432449789 1 0.67837347745467769 0.77683220420328725 0.81278569633583353 0.81664766512111064 0.6123333432449789 1 0.67837347745467769 0.69981550660938663 1 0.83057691269844081 0.49911199724958061 0.77872228561593948 0.77895350115271889 0.77683220420328725 0.81278569633583353 0.81664766512111064 0.69361520514218133 0.83791821520130205 1 0.69981550660938663 1 0.83057691269844081 0.79999999999947335 1 1 0.77683220420328725 0.81278569633583353 0.81664766512111064 0.50970031073508926 1 0.83534964916803001 0.59999999999894682 1 1 0.69361520514218133 0.83791821520130205 1 0.69981550660938663 1 0.83057691269844081 0.69981550660938663 1 0.83057691269844081 0.59999999999894682 1 1 0.69361520514218133 0.83791821520130205 1 0.79999999999947335 1 1 0.80839867011861499 0.68192028468377774 1 0.61016512164652226 0.67939035495506384 1 0.69361520514218133 0.83791821520130205 1 0.77683220420328725 0.81278569633583353 0.81664766512111064 0.50803330197137353 0.83630110503667787 1 0.69361520514218133 0.83791821520130205 1 0.61016512164652226 0.67939035495506384 1 0.49911199724958061 0.77872228561593948 0.77895350115271889 0.50803330197137353 0.83630110503667787 1 0.50970031073508926 1 0.83534964916803001 0.69361520514218133 0.83791821520130205 1 0.49911199724958061 0.77872228561593948 0.77895350115271889 0.59999999999894682 1 1 0.50803330197137353 0.83630110503667787 1 0.3999999999989749 1 1 0.50970031073508926 1 0.83534964916803001 0.69361520514218133 0.83791821520130205 1 0.50803330197137353 0.83630110503667787 1 0.59999999999894682 1 1 0.50970031073508926 1 0.83534964916803001 0.69361520514218133 0.83791821520130205 1 0.50970031073508926 1 0.83534964916803001 0.69981550660938663 1 0.83057691269844081 0.49911199724958061 0.77872228561593948 0.77895350115271889 0.50970031073508926 1 0.83534964916803001 0.6123333432449789 1 0.67837347745467769 0.69981550660938663 1 0.83057691269844081 0.49911199724958061 0.77872228561593948 0.77895350115271889 0.6123333432449789 1 0.67837347745467769 0.49983993748706529 0.75039103705932653 0.52967335724801234 0.68649174659499257 0.68600703198516766 0.6864917465949647 0.49911199724958061 0.77872228561593948 0.77895350115271889 0.6123333432449789 1 0.67837347745467769 0.49983993748706529 0.75039103705932653 0.52967335724801234 0.68240285647621723 1 0.52310058211166854 0.77374673111774417 0.78860835645735528 0.49829081152968557 0.6123333432449789 1 0.67837347745467769 0.45820186441573879 1 0.68969697123405882 0.49983993748706529 0.75039103705932653 0.52967335724801234 0.49911199724958061 0.77872228561593948 0.77895350115271889 0.45820186441573879 1 0.68969697123405882 0.6123333432449789 1 0.67837347745467769 0.50970031073508926 1 0.83534964916803001 0.49911199724958061 0.77872228561593948 0.77895350115271889 0.6123333432449789 1 0.67837347745467769 0.68649174659499257 0.68600703198516766 0.6864917465949647 0.49983993748706529 0.75039103705932653 0.52967335724801234 0.77374673111774417 0.78860835645735528 0.49829081152968557 0.81346205468287114 1 0.68420958956387889 0.6123333432449789 1 0.67837347745467769 0.68649174659499257 0.68600703198516766 0.6864917465949647 0.77683220420328725 0.81278569633583353 0.81664766512111064 0.6123333432449789 1 0.67837347745467769 0.49911199724958061 0.77872228561593948 0.77895350115271889 0.68649174659499257 0.68600703198516766 0.6864917465949647 0.77683220420328725 0.81278569633583353 0.81664766512111064 0.81346205468287114 1 0.68420958956387889 0.68649174659499257 0.68600703198516766 0.6864917465949647 0.6123333432449789 1 0.67837347745467769 0.77374673111774417 0.78860835645735528 0.49829081152968557 0.81346205468287114 1 0.68420958956387889 0.6123333432449789 1 0.67837347745467769 0.68240285647621723 1 0.52310058211166854 0.77374673111774417 0.78860835645735528 0.49829081152968557 0.6123333432449789 1 0.67837347745467769 0.45820186441573879 1 0.68969697123405882 0.51961524227008238 1 0.49999999999872219 0.49983993748706529 0.75039103705932653 0.52967335724801234 0.6123333432449789 1 0.67837347745467769 0.51961524227008238 1 0.49999999999872219 0.68240285647621723 1 0.52310058211166854 0.49983993748706529 0.75039103705932653 0.52967335724801234 0.68649174659499257 0.68600703198516766 0.6864917465949647 0.49983993748706529 0.75039103705932653 0.52967335724801234 0.49816183246753282 0.5307146639261795 0.75045686993209071 0.49911199724958061 0.77872228561593948 0.77895350115271889 0.68649174659499257 0.68600703198516766 0.6864917465949647 0.50000000000001332 0.49999999999999561 0.49999999999999561 0.7504488434426726 0.53051757989633308 0.49836643074154852 0.49816183246753282 0.5307146639261795 0.75045686993209071 0.68649174659499257 0.68600703198516766 0.6864917465949647 0.49816183246753282 0.5307146639261795 0.75045686993209071 0.7504488434426726 0.53051757989633308 0.49836643074154852 0.78019141325921404 0.49972466465542442 0.78019141325930785 0.50000000000001332 0.49999999999999561 0.49999999999999561 0.68649174659499257 0.68600703198516766 0.6864917465949647 0.7504488434426726 0.53051757989633308 0.49836643074154852 0.49983993748706529 0.75039103705932653 0.52967335724801234 0.7504488434426726 0.53051757989633308 0.49836643074154852 0.49983993748706529 0.75039103705932653 0.52967335724801234 0.68649174659499257 0.68600703198516766 0.6864917465949647 0.77374673111774417 0.78860835645735528 0.49829081152968557 0.68649174659499257 0.68600703198516766 0.6864917465949647 0.50000000000001332 0.49999999999999561 0.49999999999999561 0.49816183246753282 0.5307146639261795 0.75045686993209071 0.49983993748706529 0.75039103705932653 0.52967335724801234 0.78019141325921404 0.49972466465542442 0.78019141325930785 0.61016512164652226 0.67939035495506384 1 0.49816183246753282 0.5307146639261795 0.75045686993209071 0.67320508075671459 0.53045230059073867 1 0.78019141325921404 0.49972466465542442 0.78019141325930785 0.49816183246753282 0.5307146639261795 0.75045686993209071 0.61016512164652226 0.67939035495506384 1 0.68649174659499257 0.68600703198516766 0.6864917465949647 0.61016512164652226 0.67939035495506384 1 0.68649174659499257 0.68600703198516766 0.6864917465949647 0.80839867011861499 0.68192028468377774 1 0.78019141325921404 0.49972466465542442 0.78019141325930785 0.68649174659499257 0.68600703198516766 0.6864917465949647 0.49911199724958061 0.77872228561593948 0.77895350115271889 0.61016512164652226 0.67939035495506384 1 0.77683220420328725 0.81278569633583353 0.81664766512111064 0.68649174659499257 0.68600703198516766 0.6864917465949647 0.49816183246753282 0.5307146639261795 0.75045686993209071 0.61016512164652226 0.67939035495506384 1 0.49911199724958061 0.77872228561593948 0.77895350115271889 0.80839867011861499 0.68192028468377774 1 0.68649174659499257 0.68600703198516766 0.6864917465949647 0.61016512164652226 0.67939035495506384 1 0.77683220420328725 0.81278569633583353 0.81664766512111064 0.67320508075671459 0.53045230059073867 1 0.61016512164652226 0.67939035495506384 1 0.80839867011861499 0.68192028468377774 1 0.78019141325921404 0.49972466465542442 0.78019141325930785 0.45812322962090041 0.68975022421538157 1 0.61016512164652226 0.67939035495506384 1 0.49816183246753282 0.5307146639261795 0.75045686993209071 0.49911199724958061 0.77872228561593948 0.77895350115271889 0.50803330197137353 0.83630110503667787 1 0.61016512164652226 0.67939035495506384 1 0.45812322962090041 0.68975022421538157 1 0.49911199724958061 0.77872228561593948 0.77895350115271889 0.51961524226934941 0.50000000000250611 1 0.45812322962090041 0.68975022421538157 1 0.61016512164652226 0.67939035495506384 1 0.49816183246753282 0.5307146639261795 0.75045686993209071 0.67320508075671459 0.53045230059073867 1 0.51961524226934941 0.50000000000250611 1 0.61016512164652226 0.67939035495506384 1 0.49816183246753282 0.5307146639261795 0.75045686993209071 0.3115891413135391 0.68758981780459771 0.68521708032990558 0.2184393375098648 0.50004596894495223 0.77634962490704662 0.32446581821293602 0.60020898676440626 1 0.18453958615733529 0.77655623474864555 0.81613222483915937 0.32925244736146098 0.39615100178034629 1 0.32446581821293602 0.60020898676440626 1 0.51961524226934941 0.50000000000250611 1 0.49816183246753282 0.5307146639261795 0.75045686993209071 0.45812322962090041 0.68975022421538157 1 0.3115891413135391 0.68758981780459771 0.68521708032990558 0.31067093462947892 0.81480288849497895 1 0.49911199724958061 0.77872228561593948 0.77895350115271889 0.32925244736146098 0.39615100178034629 1 0.32446581821293602 0.60020898676440626 1 0.49816183246753282 0.5307146639261795 0.75045686993209071 0.2184393375098648 0.50004596894495223 0.77634962490704662 0.45812322962090041 0.68975022421538157 1 0.49816183246753282 0.5307146639261795 0.75045686993209071 0.3115891413135391 0.68758981780459771 0.68521708032990558 0.49911199724958061 0.77872228561593948 0.77895350115271889 0.32446581821293602 0.60020898676440626 1 0.3115891413135391 0.68758981780459771 0.68521708032990558 0.49816183246753282 0.5307146639261795 0.75045686993209071 0.2184393375098648 0.50004596894495223 0.77634962490704662 0.45812322962090041 0.68975022421538157 1 0.51961524226934941 0.50000000000250611 1 0.32446581821293602 0.60020898676440626 1 0.49816183246753282 0.5307146639261795 0.75045686993209071 0.31067093462947892 0.81480288849497895 1 0.45812322962090041 0.68975022421538157 1 0.32446581821293602 0.60020898676440626 1 0.3115891413135391 0.68758981780459771 0.68521708032990558 0.45812322962090041 0.68975022421538157 1 0.32446581821293602 0.60020898676440626 1 0.3115891413135391 0.68758981780459771 0.68521708032990558 0.49816183246753282 0.5307146639261795 0.75045686993209071 0.32446581821293602 0.60020898676440626 1 0.31067093462947892 0.81480288849497895 1 0.3115891413135391 0.68758981780459771 0.68521708032990558 0.18453958615733529 0.77655623474864555 0.81613222483915937 0.3115891413135391 0.68758981780459771 0.68521708032990558 0.50000000000001332 0.49999999999999561 0.49999999999999561 0.24769234054476261 0.52242103280823293 0.45098450226372488 0.49983993748706529 0.75039103705932653 0.52967335724801234 0.3115891413135391 0.68758981780459771 0.68521708032990558 0.49816183246753282 0.5307146639261795 0.75045686993209071 0.50000000000001332 0.49999999999999561 0.49999999999999561 0.49983993748706529 0.75039103705932653 0.52967335724801234 0.3115891413135391 0.68758981780459771 0.68521708032990558 0.49983993748706529 0.75039103705932653 0.52967335724801234 0.24769234054476261 0.52242103280823293 0.45098450226372488 0.22516916914780419 0.77057994845201627 0.48187244075707292 0.50000000000001332 0.49999999999999561 0.49999999999999561 0.3115891413135391 0.68758981780459771 0.68521708032990558 0.24769234054476261 0.52242103280823293 0.45098450226372488 0.2184393375098648 0.50004596894495223 0.77634962490704662 0.3115891413135391 0.68758981780459771 0.68521708032990558 0.50000000000001332 0.49999999999999561 0.49999999999999561 0.49816183246753282 0.5307146639261795 0.75045686993209071 0.2184393375098648 0.50004596894495223 0.77634962490704662 0.49816183246753282 0.5307146639261795 0.75045686993209071 0.49983993748706529 0.75039103705932653 0.52967335724801234 0.3115891413135391 0.68758981780459771 0.68521708032990558 0.49911199724958061 0.77872228561593948 0.77895350115271889 0.32448110831226962 1 0.6002015905153204 0.45820186441573879 1 0.68969697123405882 0.3115891413135391 0.68758981780459771 0.68521708032990558 0.49983993748706529 0.75039103705932653 0.52967335724801234 0.45820186441573879 1 0.68969697123405882 0.31085062173747541 1 0.81469961246428202 0.32448110831226962 1 0.6002015905153204 0.3115891413135391 0.68758981780459771 0.68521708032990558 0.45820186441573879 1 0.68969697123405882 0.3115891413135391 0.68758981780459771 0.68521708032990558 0.49983993748706529 0.75039103705932653 0.52967335724801234 0.49911199724958061 0.77872228561593948 0.77895350115271889 0.32448110831226962 1 0.6002015905153204 0.3115891413135391 0.68758981780459771 0.68521708032990558 0.31085062173747541 1 0.81469961246428202 0.18453958615733529 0.77655623474864555 0.81613222483915937 0.32448110831226962 1 0.6002015905153204 0.49983993748706529 0.75039103705932653 0.52967335724801234 0.3115891413135391 0.68758981780459771 0.68521708032990558 0.22516916914780419 0.77057994845201627 0.48187244075707292 0.45820186441573879 1 0.68969697123405882 0.31085062173747541 1 0.81469961246428202 0.3115891413135391 0.68758981780459771 0.68521708032990558 0.49911199724958061 0.77872228561593948 0.77895350115271889 0.32926555316115258 1 0.39615987727515128 0.49983993748706529 0.75039103705932653 0.52967335724801234 0.32448110831226962 1 0.6002015905153204 0.22516916914780419 0.77057994845201627 0.48187244075707292 0.32448110831226962 1 0.6002015905153204 0.3115891413135391 0.68758981780459771 0.68521708032990558 0.15900053892265181 1 0.69447607299016312 0.22516916914780419 0.77057994845201627 0.48187244075707292 0.32926555316115258 1 0.39615987727515128 0.51961524227008238 1 0.49999999999872219 0.32448110831226962 1 0.6002015905153204 0.49983993748706529 0.75039103705932653 0.52967335724801234 0.32448110831226962 1 0.6002015905153204 0.51961524227008238 1 0.49999999999872219 0.45820186441573879 1 0.68969697123405882 0.49983993748706529 0.75039103705932653 0.52967335724801234 0.45820186441573879 1 0.68969697123405882 0.50970031073508926 1 0.83534964916803001 0.31085062173747541 1 0.81469961246428202 0.49911199724958061 0.77872228561593948 0.77895350115271889 0.31085062173747541 1 0.81469961246428202 0.49911199724958061 0.77872228561593948 0.77895350115271889 0.31067093462947892 0.81480288849497895 1 0.18453958615733529 0.77655623474864555 0.81613222483915937 0.31085062173747541 1 0.81469961246428202 0.3115891413135391 0.68758981780459771 0.68521708032990558 0.49911199724958061 0.77872228561593948 0.77895350115271889 0.18453958615733529 0.77655623474864555 0.81613222483915937 0.50803330197137353 0.83630110503667787 1 0.31085062173747541 1 0.81469961246428202 0.50970031073508926 1 0.83534964916803001 0.49911199724958061 0.77872228561593948 0.77895350115271889 0.31067093462947892 0.81480288849497895 1 0.49911199724958061 0.77872228561593948 0.77895350115271889 0.3115891413135391 0.68758981780459771 0.68521708032990558 0.18453958615733529 0.77655623474864555 0.81613222483915937 0.31085062173747541 1 0.81469961246428202 0.3999999999989749 1 1 0.50803330197137353 0.83630110503667787 1 0.50970031073508926 1 0.83534964916803001 0.31085062173747541 1 0.81469961246428202 0.3999999999989749 1 1 0.31067093462947892 0.81480288849497895 1 0.50803330197137353 0.83630110503667787 1 0.31085062173747541 1 0.81469961246428202 0.50803330197137353 0.83630110503667787 1 0.31067093462947892 0.81480288849497895 1 0.49911199724958061 0.77872228561593948 0.77895350115271889 0.45812322962090041 0.68975022421538157 1 0.31067093462947892 0.81480288849497895 1 0.50803330197137353 0.83630110503667787 1 0.49911199724958061 0.77872228561593948 0.77895350115271889 0.3999999999989749 1 1 0.19999999999955789 1 1 0.31085062173747541 1 0.81469961246428202 0.31067093462947892 0.81480288849497895 1 0.15900053892265181 1 0.69447607299016312 0.31085062173747541 1 0.81469961246428202 0.1464101615132356 1 0.85358983848650494 0.18453958615733529 0.77655623474864555 0.81613222483915937 0.31085062173747541 1 0.81469961246428202 0.31067093462947892 0.81480288849497895 1 0.1464101615132356 1 0.85358983848650494 0.18453958615733529 0.77655623474864555 0.81613222483915937 0.31085062173747541 1 0.81469961246428202 0.19999999999955789 1 1 0.1464101615132356 1 0.85358983848650494 0.31067093462947892 0.81480288849497895 1 0.14641016151332509 0.85358983848655678 1 0.1464101615132356 1 0.85358983848650494 0.19999999999955789 1 1 0.31067093462947892 0.81480288849497895 1 0.31067093462947892 0.81480288849497895 1 0.15896804272141651 0.69449451837104537 1 0.14641016151332509 0.85358983848655678 1 0.18453958615733529 0.77655623474864555 0.81613222483915937 0.14641016151332509 0.85358983848655678 1 0.1464101615132356 1 0.85358983848650494 0.31067093462947892 0.81480288849497895 1 0.18453958615733529 0.77655623474864555 0.81613222483915937 0 0.85358983848682146 0.85358983848668035 0 0.69992182039579531 0.85173693729137989 0 0.80860557108920617 0.70542349973054763 0.18453958615733529 0.77655623474864555 0.81613222483915937 0.15900053892265181 1 0.69447607299016312 0 0.85358983848682146 0.85358983848668035 0 0.80860557108920617 0.70542349973054763 0.18453958615733529 0.77655623474864555 0.81613222483915937 0.18453958615733529 0.77655623474864555 0.81613222483915937 0 0.79999999999999982 1 0.15896804272141651 0.69449451837104537 1 0.14641016151332509 0.85358983848655678 1 0.1464101615132356 1 0.85358983848650494 0.14641016151332509 0.85358983848655678 1 0 0.85358983848682146 0.85358983848668035 0.18453958615733529 0.77655623474864555 0.81613222483915937 0 0.85358983848682146 0.85358983848668035 0 0.79999999999999982 1 0 0.69992182039579531 0.85173693729137989 0.18453958615733529 0.77655623474864555 0.81613222483915937 0 0.85358983848682146 0.85358983848668035 0.14641016151332509 0.85358983848655678 1 0 0.79999999999999982 1 0.18453958615733529 0.77655623474864555 0.81613222483915937 0 1 1 0 0.85358983848682146 0.85358983848668035 0.14641016151332509 0.85358983848655678 1 0 0.79999999999999982 1 0 0.85358983848682146 0.85358983848668035 0.1464101615132356 1 0.85358983848650494 0 1 1 0.14641016151332509 0.85358983848655678 1 0.19999999999955789 1 1 0 1 1 0.1464101615132356 1 0.85358983848650494 0.14641016151332509 0.85358983848655678 1 0.1464101615132356 1 0.85358983848650494 0 1 1 0 1 0.79999999999947335 0 0.85358983848682146 0.85358983848668035 0.1464101615132356 1 0.85358983848650494 0 0.85358983848682146 0.85358983848668035 0.15900053892265181 1 0.69447607299016312 0.18453958615733529 0.77655623474864555 0.81613222483915937 0.15900053892265181 1 0.69447607299016312 0 1 0.79999999999947335 0 0.80860557108920617 0.70542349973054763 0 0.85358983848682146 0.85358983848668035 0 1 0.79999999999947335 0.15900053892265181 1 0.69447607299016312 0.1464101615132356 1 0.85358983848650494 0 0.85358983848682146 0.85358983848668035 0 0.80860557108920617 0.70542349973054763 0 1 0.59999999999894682 0 1 0.79999999999947335 0.15900053892265181 1 0.69447607299016312 0.3115891413135391 0.68758981780459771 0.68521708032990558 0.22516916914780419 0.77057994845201627 0.48187244075707292 0 0.80860557108920617 0.70542349973054763 0.18453958615733529 0.77655623474864555 0.81613222483915937 0 0.80860557108920617 0.70542349973054763 0 0.83630110503664845 0.50803330197135654 0 1 0.59999999999894682 0.15900053892265181 1 0.69447607299016312 0.15900053892265181 1 0.69447607299016312 0.3115891413135391 0.68758981780459771 0.68521708032990558 0.32448110831226962 1 0.6002015905153204 0.18453958615733529 0.77655623474864555 0.81613222483915937 0.15900053892265181 1 0.69447607299016312 0.22516916914780419 0.77057994845201627 0.48187244075707292 0.3115891413135391 0.68758981780459771 0.68521708032990558 0.18453958615733529 0.77655623474864555 0.81613222483915937 0.15900053892265181 1 0.69447607299016312 0 0.80860557108920617 0.70542349973054763 0.22516916914780419 0.77057994845201627 0.48187244075707292 0.18453958615733529 0.77655623474864555 0.81613222483915937 0.15900053892265181 1 0.69447607299016312 0.32448110831226962 1 0.6002015905153204 0.31085062173747541 1 0.81469961246428202 0.18453958615733529 0.77655623474864555 0.81613222483915937 0.32448110831226962 1 0.6002015905153204 0.15900053892265181 1 0.69447607299016312 0.17226134197293 1 0.49836539647645101 0.22516916914780419 0.77057994845201627 0.48187244075707292 0 0.83630110503664845 0.50803330197135654 0.17226134197293 1 0.49836539647645101 0.15900053892265181 1 0.69447607299016312 0.22516916914780419 0.77057994845201627 0.48187244075707292 0 1 0.59999999999894682 0 1 0.3999999999989749 0.17226134197293 1 0.49836539647645101 0 0.83630110503664845 0.50803330197135654 0 0.83630110503664845 0.50803330197135654 0.17226134197293 1 0.49836539647645101 0 1 0.59999999999894682 0.15900053892265181 1 0.69447607299016312 0 0.83630110503664845 0.50803330197135654 0.15900053892265181 1 0.69447607299016312 0 0.80860557108920617 0.70542349973054763 0.22516916914780419 0.77057994845201627 0.48187244075707292 0 0.66416205381430016 0.59944234540882957 0 0.83630110503664845 0.50803330197135654 0 0.80860557108920617 0.70542349973054763 0.22516916914780419 0.77057994845201627 0.48187244075707292 0 0.66416205381430016 0.59944234540882957 0 0.80860557108920617 0.70542349973054763 0.3115891413135391 0.68758981780459771 0.68521708032990558 0.22516916914780419 0.77057994845201627 0.48187244075707292 0 0.66416205381430016 0.59944234540882957 0.3115891413135391 0.68758981780459771 0.68521708032990558 0 0.80860557108920617 0.70542349973054763 0.18453958615733529 0.77655623474864555 0.81613222483915937 0 0.66416205381430016 0.59944234540882957 0 0.80860557108920617 0.70542349973054763 0 0.60922248848335758 0.72722573386012812 0.18453958615733529 0.77655623474864555 0.81613222483915937 0 0.66416205381430016 0.59944234540882957 0.24769234054476261 0.52242103280823293 0.45098450226372488 0.3115891413135391 0.68758981780459771 0.68521708032990558 0.2184393375098648 0.50004596894495223 0.77634962490704662 0 0.66416205381430016 0.59944234540882957 0 0.60922248848335758 0.72722573386012812 0.3115891413135391 0.68758981780459771 0.68521708032990558 0.18453958615733529 0.77655623474864555 0.81613222483915937 0 0.66416205381430016 0.59944234540882957 0 0.46954769941369501 0.67320508075638175 0 0.50000000000237477 0.51961524226909872 0.2184393375098648 0.50004596894495223 0.77634962490704662 0 0.60922248848335758 0.72722573386012812 0 0.66416205381430016 0.59944234540882957 0.3115891413135391 0.68758981780459771 0.68521708032990558 0.2184393375098648 0.50004596894495223 0.77634962490704662 0 0.66416205381430016 0.59944234540882957 0.3115891413135391 0.68758981780459771 0.68521708032990558 0.24769234054476261 0.52242103280823293 0.45098450226372488 0.22516916914780419 0.77057994845201627 0.48187244075707292 0 0.66416205381430016 0.59944234540882957 0 0.50000000000237477 0.51961524226909872 0.24769234054476261 0.52242103280823293 0.45098450226372488 0.2184393375098648 0.50004596894495223 0.77634962490704662 0 0.68801781652248195 0.45664527743358641 0 0.83630110503664845 0.50803330197135654 0 0.66416205381430016 0.59944234540882957 0.22516916914780419 0.77057994845201627 0.48187244075707292 0 0.66416205381430016 0.59944234540882957 0 0.50000000000237477 0.51961524226909872 0 0.68801781652248195 0.45664527743358641 0.24769234054476261 0.52242103280823293 0.45098450226372488 0 0.60922248848335758 0.72722573386012812 0 0.46954769941369501 0.67320508075638175 0 0.66416205381430016 0.59944234540882957 0.2184393375098648 0.50004596894495223 0.77634962490704662 0 0.5118616330515301 0.84191918937737908 0 0.69992182039579531 0.85173693729137989 0.15896804272141651 0.69449451837104537 1 0.2184393375098648 0.50004596894495223 0.77634962490704662 0 0.60922248848335758 0.72722573386012812 0.2184393375098648 0.50004596894495223 0.77634962490704662 0.3115891413135391 0.68758981780459771 0.68521708032990558 0.18453958615733529 0.77655623474864555 0.81613222483915937 0.15896804272141651 0.69449451837104537 1 0.2184393375098648 0.50004596894495223 0.77634962490704662 0 0.69992182039579531 0.85173693729137989 0.18453958615733529 0.77655623474864555 0.81613222483915937 0 0.5118616330515301 0.84191918937737908 0 0.46954769941369501 0.67320508075638175 0 0.60922248848335758 0.72722573386012812 0.2184393375098648 0.50004596894495223 0.77634962490704662 0 0.5118616330515301 0.84191918937737908 0 0.60922248848335758 0.72722573386012812 0 0.69992182039579531 0.85173693729137989 0.2184393375098648 0.50004596894495223 0.77634962490704662 0.15896804272141651 0.69449451837104537 1 0.32446581821293602 0.60020898676440626 1 0.2184393375098648 0.50004596894495223 0.77634962490704662 0.18453958615733529 0.77655623474864555 0.81613222483915937 0 0.60922248848335758 0.72722573386012812 0 0.69992182039579531 0.85173693729137989 0.2184393375098648 0.50004596894495223 0.77634962490704662 0.18453958615733529 0.77655623474864555 0.81613222483915937 0 0.80860557108920617 0.70542349973054763 0 0.69992182039579531 0.85173693729137989 0 0.60922248848335758 0.72722573386012812 0.18453958615733529 0.77655623474864555 0.81613222483915937 0.15896804272141651 0.69449451837104537 1 0.32446581821293602 0.60020898676440626 1 0.17226134197275911 0.49836539647894412 1 0.2184393375098648 0.50004596894495223 0.77634962490704662 0.15896804272141651 0.69449451837104537 1 0.17226134197275911 0.49836539647894412 1 0 0.5118616330515301 0.84191918937737908 0.2184393375098648 0.50004596894495223 0.77634962490704662 0.32446581821293602 0.60020898676440626 1 0.15896804272141651 0.69449451837104537 1 0.31067093462947892 0.81480288849497895 1 0.18453958615733529 0.77655623474864555 0.81613222483915937 0.18453958615733529 0.77655623474864555 0.81613222483915937 0.15896804272141651 0.69449451837104537 1 0 0.79999999999999982 1 0 0.69992182039579531 0.85173693729137989 0 0.69992182039579531 0.85173693729137989 0 0.5118616330515301 0.84191918937737908 0.15896804272141651 0.69449451837104537 1 0 0.60000000000138687 1 0.15896804272141651 0.69449451837104537 1 0 0.79999999999999982 1 0 0.69992182039579531 0.85173693729137989 0 0.60000000000138687 1 0 0.60000000000138687 1 0 0.5118616330515301 0.84191918937737908 0.15896804272141651 0.69449451837104537 1 0.17226134197275911 0.49836539647894412 1 0 0.5118616330515301 0.84191918937737908 0 0.60000000000138687 1 0 0.40000000000166441 1 0.17226134197275911 0.49836539647894412 1 0.17226134197275911 0.49836539647894412 1 0 0.40000000000166441 1 0 0.5118616330515301 0.84191918937737908 0 0.31807971531776508 0.80839867011913336 0 0.40000000000166441 1 0.17226134197275911 0.49836539647894412 1 0.16929708765653109 0.30074819035870082 1 0 0.31807971531776508 0.80839867011913336 0 0.14641016151490169 0.85358983848532144 0 0.31807971531776508 0.80839867011913336 0.16929708765653109 0.30074819035870082 1 0.31426750628021272 0.31270343261798911 0.68761148188185484 0.16929708765653109 0.30074819035870082 1 0.31426750628021272 0.31270343261798911 0.68761148188185484 0 0.31807971531776508 0.80839867011913336 0.2184393375098648 0.50004596894495223 0.77634962490704662 0 0.5118616330515301 0.84191918937737908 0 0.31807971531776508 0.80839867011913336 0 0.46954769941369501 0.67320508075638175 0.2184393375098648 0.50004596894495223 0.77634962490704662 0 0.5118616330515301 0.84191918937737908 0.17226134197275911 0.49836539647894412 1 0 0.31807971531776508 0.80839867011913336 0.2184393375098648 0.50004596894495223 0.77634962490704662 0 0.31807971531776508 0.80839867011913336 0.16929708765653109 0.30074819035870082 1 0 0.40000000000166441 1 0 0.20000000000083221 1 0.17226134197275911 0.49836539647894412 1 0.32925244736146098 0.39615100178034629 1 0.16929708765653109 0.30074819035870082 1 0.2184393375098648 0.50004596894495223 0.77634962490704662 0.17226134197275911 0.49836539647894412 1 0.16929708765653109 0.30074819035870082 1 0 0.31807971531776508 0.80839867011913336 0.2184393375098648 0.50004596894495223 0.77634962490704662 0.31610726166461628 0.1880448979455934 1 0.16929708765653109 0.30074819035870082 1 0.32925244736146098 0.39615100178034629 1 0.31426750628021272 0.31270343261798911 0.68761148188185484 0.32446581821293602 0.60020898676440626 1 0.32925244736146098 0.39615100178034629 1 0.17226134197275911 0.49836539647894412 1 0.2184393375098648 0.50004596894495223 0.77634962490704662 0.45812322962173568 0.31024977578554058 1 0.31426750628021272 0.31270343261798911 0.68761148188185484 0.49816183246753282 0.5307146639261795 0.75045686993209071 0.50084626324420545 0.22238844715913 0.78084811589659187 0.32925244736146098 0.39615100178034629 1 0.49816183246753282 0.5307146639261795 0.75045686993209071 0.31426750628021272 0.31270343261798911 0.68761148188185484 0.2184393375098648 0.50004596894495223 0.77634962490704662 0.31610726166461628 0.1880448979455934 1 0.32925244736146098 0.39615100178034629 1 0.45812322962173568 0.31024977578554058 1 0.31426750628021272 0.31270343261798911 0.68761148188185484 0.45812322962173568 0.31024977578554058 1 0.31610726166461628 0.1880448979455934 1 0.31426750628021272 0.31270343261798911 0.68761148188185484 0.50084626324420545 0.22238844715913 0.78084811589659187 0.32925244736146098 0.39615100178034629 1 0.45812322962173568 0.31024977578554058 1 0.31426750628021272 0.31270343261798911 0.68761148188185484 0.49816183246753282 0.5307146639261795 0.75045686993209071 0.32925244736146098 0.39615100178034629 1 0.31426750628021272 0.31270343261798911 0.68761148188185484 0.16929708765653109 0.30074819035870082 1 0.2184393375098648 0.50004596894495223 0.77634962490704662 0.32925244736146098 0.39615100178034629 1 0.51961524226934941 0.50000000000250611 1 0.45812322962173568 0.31024977578554058 1 0.49816183246753282 0.5307146639261795 0.75045686993209071 0.31426750628021272 0.31270343261798911 0.68761148188185484 0.49816183246753282 0.5307146639261795 0.75045686993209071 0.50000000000001332 0.49999999999999561 0.49999999999999561 0.2184393375098648 0.50004596894495223 0.77634962490704662 0.24769234054476261 0.52242103280823293 0.45098450226372488 0.50073570207385831 0.24848280280289631 0.52886631355986169 0.31426750628021272 0.31270343261798911 0.68761148188185484 0.22088738526309029 0.22111069116742441 0.50004796911802929 0.31426750628021272 0.31270343261798911 0.68761148188185484 0.50073570207385831 0.24848280280289631 0.52886631355986169 0.49816183246753282 0.5307146639261795 0.75045686993209071 0.50084626324420545 0.22238844715913 0.78084811589659187 0.50000000000001332 0.49999999999999561 0.49999999999999561 0.31426750628021272 0.31270343261798911 0.68761148188185484 0.24769234054476261 0.52242103280823293 0.45098450226372488 0.50073570207385831 0.24848280280289631 0.52886631355986169 0.50000000000001332 0.49999999999999561 0.49999999999999561 0.49816183246753282 0.5307146639261795 0.75045686993209071 0.31426750628021272 0.31270343261798911 0.68761148188185484 0.50073570207385831 0.24848280280289631 0.52886631355986169 0.50000000000001332 0.49999999999999561 0.49999999999999561 0.24769234054476261 0.52242103280823293 0.45098450226372488 0.31426750628021272 0.31270343261798911 0.68761148188185484 0.2184393375098648 0.50004596894495223 0.77634962490704662 0.2184393375098648 0.50004596894495223 0.77634962490704662 0.31426750628021272 0.31270343261798911 0.68761148188185484 0 0.50000000000237477 0.51961524226909872 0.24769234054476261 0.52242103280823293 0.45098450226372488 0 0.31024977578556651 0.45812322962166352 0.24769234054476261 0.52242103280823293 0.45098450226372488 0 0.32043363027398297 0.61046998817722586 0.22088738526309029 0.22111069116742441 0.50004796911802929 0 0.32043363027398297 0.61046998817722586 0 0.50000000000237477 0.51961524226909872 0.31426750628021272 0.31270343261798911 0.68761148188185484 0.24769234054476261 0.52242103280823293 0.45098450226372488 0.2184393375098648 0.50004596894495223 0.77634962490704662 0 0.32043363027398297 0.61046998817722586 0 0.50000000000237477 0.51961524226909872 0.31426750628021272 0.31270343261798911 0.68761148188185484 0 0.32043363027398297 0.61046998817722586 0.24769234054476261 0.52242103280823293 0.45098450226372488 0.31426750628021272 0.31270343261798911 0.68761148188185484 0.22088738526309029 0.22111069116742441 0.50004796911802929 0.2184393375098648 0.50004596894495223 0.77634962490704662 0 0.50000000000237477 0.51961524226909872 0 0.32043363027398297 0.61046998817722586 0 0.46954769941369501 0.67320508075638175 0 0.16196943494415611 0.69380980080116506 0 0.32043363027398297 0.61046998817722586 0.31426750628021272 0.31270343261798911 0.68761148188185484 0.22088738526309029 0.22111069116742441 0.50004796911802929 0 0.32043363027398297 0.61046998817722586 0 0.31807971531776508 0.80839867011913336 0.31426750628021272 0.31270343261798911 0.68761148188185484 0.2184393375098648 0.50004596894495223 0.77634962490704662 0 0.16196943494415611 0.69380980080116506 0 0.32043363027398297 0.61046998817722586 0 0.31807971531776508 0.80839867011913336 0.31426750628021272 0.31270343261798911 0.68761148188185484 0 0.31024977578556651 0.45812322962166352 0 0.50000000000237477 0.51961524226909872 0 0.32043363027398297 0.61046998817722586 0.24769234054476261 0.52242103280823293 0.45098450226372488 0 0.32043363027398297 0.61046998817722586 0 0.46954769941369501 0.67320508075638175 0 0.31807971531776508 0.80839867011913336 0.2184393375098648 0.50004596894495223 0.77634962490704662 0 0.32043363027398297 0.61046998817722586 0 0.16275515618034081 0.50966790549591257 0 0.31024977578556651 0.45812322962166352 0.22088738526309029 0.22111069116742441 0.50004796911802929 0 0.16196943494415611 0.69380980080116506 0.14641016151479661 0 0.85358983848542624 0.18818969570926641 0 0.68364148842842287 0.31426750628021272 0.31270343261798911 0.68761148188185484 0 0.16196943494415611 0.69380980080116506 0.31426750628021272 0.31270343261798911 0.68761148188185484 0.18818969570926641 0 0.68364148842842287 0.22088738526309029 0.22111069116742441 0.50004796911802929 0 0.16196943494415611 0.69380980080116506 0.18818969570926641 0 0.68364148842842287 0 0.16275515618034081 0.50966790549591257 0.22088738526309029 0.22111069116742441 0.50004796911802929 0 0.16196943494415611 0.69380980080116506 0 0.16275515618034081 0.50966790549591257 0 0.32043363027398297 0.61046998817722586 0.22088738526309029 0.22111069116742441 0.50004796911802929 0 0 0.79999999999999982 0 0 0.60000000000138687 0 0.16196943494415611 0.69380980080116506 0.18818969570926641 0 0.68364148842842287 0 0 0.60000000000138687 0 0.16196943494415611 0.69380980080116506 0.18818969570926641 0 0.68364148842842287 0 0.16275515618034081 0.50966790549591257 0.18818969570926641 0 0.68364148842842287 0.16370661204827031 0 0.4886650857430957 0 0 0.60000000000138687 0 0.16275515618034081 0.50966790549591257 0.18818969570926641 0 0.68364148842842287 0.31030302876556398 0 0.54179813558513157 0.16370661204827031 0 0.4886650857430957 0.22088738526309029 0.22111069116742441 0.50004796911802929 0 0.16275515618034081 0.50966790549591257 0.18818969570926641 0 0.68364148842842287 0.16370661204827031 0 0.4886650857430957 0.22088738526309029 0.22111069116742441 0.50004796911802929 0.30074819035913852 0 0.83070291234383831 0.39615987727709562 0 0.67073444684008199 0.18818969570926641 0 0.68364148842842287 0.31426750628021272 0.31270343261798911 0.68761148188185484 0.31030302876556398 0 0.54179813558513157 0.31426750628021272 0.31270343261798911 0.68761148188185484 0.50073570207385831 0.24848280280289631 0.52886631355986169 0.22088738526309029 0.22111069116742441 0.50004796911802929 0.39615987727709562 0 0.67073444684008199 0.31030302876556398 0 0.54179813558513157 0.31426750628021272 0.31270343261798911 0.68761148188185484 0.50073570207385831 0.24848280280289631 0.52886631355986169 0.39615987727709562 0 0.67073444684008199 0.31426750628021272 0.31270343261798911 0.68761148188185484 0.30074819035913852 0 0.83070291234383831 0.50084626324420545 0.22238844715913 0.78084811589659187 0.18818969570926641 0 0.68364148842842287 0.31426750628021272 0.31270343261798911 0.68761148188185484 0.31030302876556398 0 0.54179813558513157 0.22088738526309029 0.22111069116742441 0.50004796911802929 0.6002015905170176 0 0.67551889168744117 0.50073570207385831 0.24848280280289631 0.52886631355986169 0.39615987727709562 0 0.67073444684008199 0.50084626324420545 0.22238844715913 0.78084811589659187 0.31030302876556398 0 0.54179813558513157 0.18818969570926641 0 0.68364148842842287 0.39615987727709562 0 0.67073444684008199 0.31426750628021272 0.31270343261798911 0.68761148188185484 0.39615987727709562 0 0.67073444684008199 0.50073570207385831 0.24848280280289631 0.52886631355986169 0.31426750628021272 0.31270343261798911 0.68761148188185484 0.50084626324420545 0.22238844715913 0.78084811589659187 0.39615987727709562 0 0.67073444684008199 0.6002015905170176 0 0.67551889168744117 0.50000000000250922 0 0.48038475773043671 0.50073570207385831 0.24848280280289631 0.52886631355986169 0.39615987727709562 0 0.67073444684008199 0.50000000000250922 0 0.48038475773043671 0.31030302876556398 0 0.54179813558513157 0.50073570207385831 0.24848280280289631 0.52886631355986169 0.49836539647917322 0 0.82773865802723501 0.6002015905170176 0 0.67551889168744117 0.39615987727709562 0 0.67073444684008199 0.50084626324420545 0.22238844715913 0.78084811589659187 0.30074819035913852 0 0.83070291234383831 0.14641016151432179 0.14641016151432179 1 0.31610726166461628 0.1880448979455934 1 0.31426750628021272 0.31270343261798911 0.68761148188185484 0.30074819035913852 0 0.83070291234383831 0.31426750628021272 0.31270343261798911 0.68761148188185484 0.31610726166461628 0.1880448979455934 1 0.50084626324420545 0.22238844715913 0.78084811589659187 0.30074819035913852 0 0.83070291234383831 0.31610726166461628 0.1880448979455934 1 0.49836539647917322 0 0.82773865802723501 0.50084626324420545 0.22238844715913 0.78084811589659187 0.39615987727709562 0 0.67073444684008199 0.30074819035913852 0 0.83070291234383831 0.49836539647917322 0 0.82773865802723501 0.50084626324420545 0.22238844715913 0.78084811589659187 0.31610726166461628 0.1880448979455934 1 0.40000000000166441 0 1 0.49836539647917322 0 0.82773865802723501 0.50966790549576724 0.1627551561802443 1 0.40000000000166441 0 1 0.49836539647917322 0 0.82773865802723501 0.30074819035913852 0 0.83070291234383831 0.31610726166461628 0.1880448979455934 1 0.31610726166461628 0.1880448979455934 1 0.50966790549576724 0.1627551561802443 1 0.49836539647917322 0 0.82773865802723501 0.50084626324420545 0.22238844715913 0.78084811589659187 0.45812322962173568 0.31024977578554058 1 0.50966790549576724 0.1627551561802443 1 0.31610726166461628 0.1880448979455934 1 0.50084626324420545 0.22238844715913 0.78084811589659187 0.40000000000166441 0 1 0.30074819035913852 0 0.83070291234383831 0.20000000000083221 0 1 0.31610726166461628 0.1880448979455934 1 0 0.14641016151490169 0.85358983848532144 0 0.16196943494415611 0.69380980080116506 0 0.31807971531776508 0.80839867011913336 0.31426750628021272 0.31270343261798911 0.68761148188185484 0.16929708765653109 0.30074819035870082 1 0.31610726166461628 0.1880448979455934 1 0.14641016151432179 0.14641016151432179 1 0.31426750628021272 0.31270343261798911 0.68761148188185484 0.14641016151432179 0.14641016151432179 1 0.20000000000083221 0 1 0.14641016151479661 0 0.85358983848542624 0.30074819035913852 0 0.83070291234383831 0.14641016151432179 0.14641016151432179 1 0.30074819035913852 0 0.83070291234383831 0.14641016151479661 0 0.85358983848542624 0.31426750628021272 0.31270343261798911 0.68761148188185484 0.14641016151432179 0.14641016151432179 1 0.20000000000083221 0 1 0.30074819035913852 0 0.83070291234383831 0.31610726166461628 0.1880448979455934 1 0.18818969570926641 0 0.68364148842842287 0.14641016151479661 0 0.85358983848542624 0.30074819035913852 0 0.83070291234383831 0.31426750628021272 0.31270343261798911 0.68761148188185484 0 0.14641016151490169 0.85358983848532144 0.16929708765653109 0.30074819035870082 1 0.14641016151432179 0.14641016151432179 1 0.31426750628021272 0.31270343261798911 0.68761148188185484 0.14641016151432179 0.14641016151432179 1 0.14641016151479661 0 0.85358983848542624 0 0.14641016151490169 0.85358983848532144 0.31426750628021272 0.31270343261798911 0.68761148188185484 0 0.16196943494415611 0.69380980080116506 0 0.14641016151490169 0.85358983848532144 0.14641016151479661 0 0.85358983848542624 0.31426750628021272 0.31270343261798911 0.68761148188185484 0 0.20000000000083221 1 0 0.31807971531776508 0.80839867011913336 0.16929708765653109 0.30074819035870082 1 0 0.14641016151490169 0.85358983848532144 0.14641016151432179 0.14641016151432179 1 0 0.20000000000083221 1 0.16929708765653109 0.30074819035870082 1 0 0.14641016151490169 0.85358983848532144 0 0.16196943494415611 0.69380980080116506 0.14641016151479661 0 0.85358983848542624 0 0 0.79999999999999982 0.18818969570926641 0 0.68364148842842287 0 0.14641016151490169 0.85358983848532144 0.14641016151479661 0 0.85358983848542624 0 0 0.79999999999999982 0 0.16196943494415611 0.69380980080116506 0 0 1 0 0.20000000000083221 1 0.14641016151432179 0.14641016151432179 1 0 0.14641016151490169 0.85358983848532144 0.14641016151479661 0 0.85358983848542624 0 0 0.79999999999999982 0 0 1 0 0.14641016151490169 0.85358983848532144 0 0 1 0.14641016151432179 0.14641016151432179 1 0.20000000000083221 0 1 0.14641016151479661 0 0.85358983848542624 0.14641016151479661 0 0.85358983848542624 0 0 1 0.14641016151432179 0.14641016151432179 1 0 0.14641016151490169 0.85358983848532144 
</DataArray>
</Points>
<Cells>
<DataArray type="UInt32" Name="connectivity" format="ascii">
0 1 2 3 4 5 6 7 8 9 10 11 12 13 14 15 16 17 18 19 20 21 22 23 24 25 26 27 28 29 30 31 32 33 34 35 36 37 38 39 40 41 42 43 44 45 46 47 48 49 50 51 52 53 54 55 56 57 58 59 60 61 62 63 64 65 66 67 68 69 70 71 72 73 74 75 76 77 78 79 80 81 82 83 84 85 86 87 88 89 90 91 92 93 94 95 96 97 98 99 100 101 102 103 104 105 106 107 108 109 110 111 112 113 114 115 116 117 118 119 120 121 122 123 124 125 126 127 128 129 130 131 132 133 134 135 136 137 138 139 140 141 142 143 144 145 146 147 148 149 150 151 152 153 154 155 156 157 158 159 160 161 162 163 164 165 166 167 168 169 170 171 172 173 174 175 176 177 178 179 180 181 182 183 184 185 186 187 188 189 190 191 192 193 194 195 196 197 198 199 200 201 202 203 204 205 206 207 208 209 210 211 212 213 214 215 216 217 218 219 220 221 222 223 224 225 226 227 228 229 230 231 232 233 234 235 236 237 238 239 240 241 242 243 244 245 246 247 248 249 250 251 252 253 254 255 256 257 258 259 260 261 262 263 264 265 266 267 268 269 270 271 272 273 274 275 276 277 278 279 280 281 282 283 284 285 286 287 288 289 290 291 292 293 294 295 296 297 298 299 300 301 302 303 304 305 306 307 308 309 310 311 312 313 314 315 316 317 318 319 320 321 322 323 324 325 326 327 328 329 330 331 332 333 334 335 336 337 338 339 340 341 342 343 344 345 346 347 348 349 350 351 352 353 354 355 356 357 358 359 360 361 362 363 364 365 366 367 368 369 370 371 372 373 374 375 376 377 378 379 380 381 382 383 384 385 386 387 388 389 390 391 392 393 394 395 396 397 398 399 400 401 402 403 404 405 406 407 408 409 410 411 412 413 414 415 416 417 418 419 420 421 422 423 424 425 426 427 428 429 430 431 432 433 434 435 436 437 438 439 440 441 442 443 444 445 446 447 448 449 450 451 452 453 454 455 456 457 458 459 460 461 462 463 464 465 466 467 468 469 470 471 472 473 474 475 476 477 478 479 480 481 482 483 484 485 486 487 488 489 490 491 492 493 494 495 496 497 498 499 500 501 502 503 504 505 506 507 508 509 510 511 512 513 514 515 516 517 518 519 520 521 522 523 524 525 526 527 528 529 530 531 532 533 534 535 536 537 538 539 540 541 542 543 544 545 546 547 548 549 550 551 552 553 554 555 556 557 558 559 560 561 562 563 564 565 566 567 568 569 570 571 572 573 574 575 576 577 578 579 580 581 582 583 584 585 586 587 588 589 590 591 592 593 594 595 596 597 598 599 600 601 602 603 604 605 606 607 608 609 610 611 612 613 614 615 616 617 618 619 620 621 622 623 624 625 626 627 628 629 630 631 632 633 634 635 636 637 638 639 640 641 642 643 644 645 646 647 648 649 650 651 652 653 654 655 656 657 658 659 660 661 662 663 664 665 666 667 668 669 670 671 672 673 674 675 676 677 678 679 680 681 682 683 684 685 686 687 688 689 690 691 692 693 694 695 696 697 698 699 700 701 702 703 704 705 706 707 708 709 710 711 712 713 714 715 716 717 718 719 720 721 722 723 724 725 726 727 728 729 730 731 732 733 734 735 736 737 738 739 740 741 742 743 744 745 746 747 748 749 750 751 752 753 754 755 756 757 758 759 760 761 762 763 764 765 766 767 768 769 770 771 772 773 774 775 776 777 778 779 780 781 782 783 784 785 786 787 788 789 790 791 792 793 794 795 796 797 798 799 800 801 802 803 804 805 806 807 808 809 810 811 812 813 814 815 816 817 818 819 820 821 822 823 824 825 826 827 828 829 830 831 832 833 834 835 836 837 838 839 840 841 842 843 844 845 846 847 848 849 850 851 852 853 854 855 856 857 858 859 860 861 862 863 864 865 866 867 868 869 870 871 872 873 874 875 876 877 878 879 880 881 882 883 884 885 886 887 888 889 890 891 892 893 894 895 896 897 898 899 900 901 902 903 904 905 906 907 908 909 910 911 912 913 914 915 916 917 918 919 920 921 922 923 924 925 926 927 928 929 930 931 932 933 934 935 936 937 938 939 940 941 942 943 944 945 946 947 948 949 950 951 952 953 954 955 956 957 958 959 960 961 962 963 964 965 966 967 968 969 970 971 972 973 974 975 976 977 978 979 980 981 982 983 984 985 986 987 988 989 990 991 992 993 994 995 996 997 998 999 1000 1001 1002 1003 1004 1005 1006 1007 1008 1009 1010 1011 1012 1013 1014 1015 1016 1017 1018 1019 1020 1021 1022 1023 1024 1025 1026 1027 1028 1029 1030 1031 1032 1033 1034 1035 1036 1037 1038 1039 1040 1041 1042 1043 1044 1045 1046 1047 1048 1049 1050 1051 1052 1053 1054 1055 1056 1057 1058 1059 1060 1061 1062 1063 1064 1065 1066 1067 1068 1069 1070 1071 1072 1073 1074 1075 1076 1077 1078 1079 1080 1081 1082 1083 1084 1085 1086 1087 1088 1089 1090 1091 1092 1093 1094 1095 1096 1097 1098 1099 1100 1101 1102 1103 1104 1105 1106 1107 1108 1109 1110 1111 1112 1113 1114 1115 1116 1117 1118 1119 1120 1121 1122 1123 1124 1125 1126 1127 1128 1129 1130 1131 1132 1133 1134 1135 1136 1137 1138 1139 1140 1141 1142 1143 1144 1145 1146 1147 1148 1149 1150 1151 1152 1153 1154 1155 1156 1157 1158 1159 1160 1161 1162 1163 1164 1165 1166 1167 1168 1169 1170 1171 1172 1173 1174 1175 1176 1177 1178 1179 1180 1181 1182 1183 1184 1185 1186 1187 1188 1189 1190 1191 1192 1193 1194 1195 1196 1197 1198 1199 1200 1201 1202 1203 1204 1205 1206 1207 1208 1209 1210 1211 1212 1213 1214 1215 1216 1217 1218 1219 1220 1221 1222 1223 1224 1225 1226 1227 1228 1229 1230 1231 1232 1233 1234 1235 1236 1237 1238 1239 1240 1241 1242 1243 1244 1245 1246 1247 1248 1249 1250 1251 1252 1253 1254 1255 1256 1257 1258 1259 1260 1261 1262 1263 1264 1265 1266 1267 1268 1269 1270 1271 1272 1273 1274 1275 1276 1277 1278 1279 1280 1281 1282 1283 1284 1285 1286 1287 1288 1289 1290 1291 1292 1293 1294 1295 1296 1297 1298 1299 1300 1301 1302 1303 1304 1305 1306 1307 1308 1309 1310 1311 1312 1313 1314 1315 1316 1317 1318 1319 1320 1321 1322 1323 1324 1325 1326 1327 1328 1329 1330 1331 1332 1333 1334 1335 1336 1337 1338 1339 1340 1341 1342 1343 1344 1345 1346 1347 1348 1349 1350 1351 1352 1353 1354 1355 1356 1357 1358 1359 1360 1361 1362 1363 1364 1365 1366 1367 1368 1369 1370 1371 1372 1373 1374 1375 1376 1377 1378 1379 1380 1381 1382 1383 1384 1385 1386 1387 1388 1389 1390 1391 1392 1393 1394 1395 1396 1397 1398 1399 1400 1401 1402 1403 1404 1405 1406 1407 1408 1409 1410 1411 1412 1413 1414 1415 1416 1417 1418 1419 1420 1421 1422 1423 1424 1425 1426 1427 1428 1429 1430 1431 1432 1433 1434 1435 1436 1437 1438 1439 1440 1441 1442 1443 1444 1445 1446 1447 1448 1449 1450 1451 1452 1453 1454 1455 1456 1457 1458 1459 1460 1461 1462 1463 1464 1465 1466 1467 1468 1469 1470 1471 1472 1473 1474 1475 1476 1477 1478 1479 1480 1481 1482 1483 1484 1485 1486 1487 1488 1489 1490 1491 1492 1493 1494 1495 1496 1497 1498 1499 1500 1501 1502 1503 1504 1505 1506 1507 1508 1509 1510 1511 1512 1513 1514 1515 1516 1517 1518 1519 1520 1521 1522 1523 1524 1525 1526 1527 1528 1529 1530 1531 1532 1533 1534 1535 1536 1537 1538 1539 1540 1541 1542 1543 1544 1545 1546 1547 1548 1549 1550 1551 1552 1553 1554 1555 1556 1557 1558 1559 1560 1561 1562 1563 1564 1565 1566 1567 1568 1569 1570 1571 1572 1573 1574 1575 1576 1577 1578 1579 1580 1581 1582 1583 1584 1585 1586 1587 1588 1589 1590 1591 1592 1593 1594 1595 1596 1597 1598 1599 1600 1601 1602 1603 1604 1605 1606 1607 1608 1609 1610 1611 1612 1613 1614 1615 1616 1617 1618 1619 1620 1621 1622 1623 1624 1625 1626 1627 1628 1629 1630 1631 1632 1633 1634 1635 1636 1637 1638 1639 1640 1641 1642 1643 1644 1645 1646 1647 1648 1649 1650 1651 1652 1653 1654 1655 1656 1657 1658 1659 1660 1661 1662 1663 1664 1665 1666 1667 1668 1669 1670 1671 1672 1673 1674 1675 1676 1677 1678 1679 1680 1681 1682 1683 1684 1685 1686 1687 1688 1689 1690 1691 1692 1693 1694 1695 1696 1697 1698 1699 1700 1701 1702 1703 1704 1705 1706 1707 1708 1709 1710 1711 1712 1713 1714 1715 1716 1717 1718 1719 1720 1721 1722 1723 1724 1725 1726 1727 1728 1729 1730 1731 1732 1733 1734 1735 1736 1737 1738 1739 1740 1741 1742 1743 1744 1745 1746 1747 1748 1749 1750 1751 1752 1753 1754 1755 1756 1757 1758 1759 1760 1761 1762 1763 1764 1765 1766 1767 1768 1769 1770 1771 1772 1773 1774 1775 1776 1777 1778 1779 1780 1781 1782 1783 1784 1785 1786 1787 1788 1789 1790 1791 1792 1793 1794 1795 1796 1797 1798 1799 1800 1801 1802 1803 1804 1805 1806 1807 1808 1809 1810 1811 1812 1813 1814 1815 1816 1817 1818 1819 1820 1821 1822 1823 1824 1825 1826 1827 1828 1829 1830 1831 1832 1833 1834 1835 1836 1837 1838 1839 1840 1841 1842 1843 1844 1845 1846 1847 1848 1849 1850 1851 1852 1853 1854 1855 1856 1857 1858 1859 1860 1861 1862 1863 1864 1865 1866 1867 1868 1869 1870 1871 1872 1873 1874 1875 1876 1877 1878 1879 1880 1881 1882 1883 1884 1885 1886 1887 1888 1889 1890 1891 1892 1893 1894 1895 1896 1897 1898 1899 1900 1901 1902 1903 1904 1905 1906 1907 1908 1909 1910 1911 1912 1913 1914 1915 1916 1917 1918 1919 1920 1921 1922 1923 1924 1925 1926 1927 1928 1929 1930 1931 1932 1933 1934 1935 1936 1937 1938 1939 1940 1941 1942 1943 1944 1945 1946 1947 1948 1949 1950 1951 1952 1953 1954 1955 1956 1957 1958 1959 1960 1961 1962 1963 1964 1965 1966 1967 1968 1969 1970 1971 1972 1973 1974 1975 1976 1977 1978 1979 1980 1981 1982 1983 1984 1985 1986 1987 1988 1989 1990 1991 1992 1993 1994 1995 1996 1997 1998 1999 2000 2001 2002 2003 2004 2005 2006 2007 2008 2009 2010 2011 2012 2013 2014 2015 2016 2017 2018 2019 2020 2021 2022 2023 2024 2025 2026 2027 2028 2029 2030 2031 2032 2033 2034 2035 2036 2037 2038 2039 2040 2041 2042 2043 2044 2045 2046 2047 2048 2049 2050 2051 2052 2053 2054 2055 2056 2057 2058 2059 2060 2061 2062 2063 2064 2065 2066 2067 2068 2069 2070 2071 2072 2073 2074 2075 2076 2077 2078 2079 2080 2081 2082 2083 2084 2085 2086 2087 2088 2089 2090 2091 2092 2093 2094 2095 2096 2097 2098 2099 2100 2101 2102 2103 2104 2105 2106 2107 2108 2109 2110 2111 2112 2113 2114 2115 2116 2117 2118 2119 2120 2121 2122 2123 2124 2125 2126 2127 2128 2129 2130 2131 2132 2133 2134 2135 2136 2137 2138 2139 2140 2141 2142 2143 2144 2145 2146 2147 2148 2149 2150 2151 2152 2153 2154 2155 2156 2157 2158 2159 2160 2161 2162 2163 2164 2165 2166 2167 2168 2169 2170 2171 2172 2173 2174 2175 2176 2177 2178 2179 2180 2181 2182 2183 2184 2185 2186 2187 2188 2189 2190 2191 2192 2193 2194 2195 2196 2197 2198 2199 2200 2201 2202 2203 2204 2205 2206 2207 2208 2209 2210 2211 2212 2213 2214 2215 2216 2217 2218 2219 2220 2221 2222 2223 2224 2225 2226 2227 2228 2229 2230 2231 2232 2233 2234 2235 2236 2237 2238 2239 2240 2241 2242 2243 2244 2245 2246 2247 2248 2249 2250 2251 2252 2253 2254 2255 2256 2257 2258 2259 2260 2261 2262 2263 2264 2265 2266 2267 2268 2269 2270 2271 2272 2273 2274 2275 2276 2277 2278 2279 2280 2281 2282 2283 2284 2285 2286 2287 2288 2289 2290 2291 2292 2293 2294 2295 2296 2297 2298 2299 2300 2301 2302 2303 2304 2305 2306 2307 2308 2309 2310 2311 2312 2313 2314 2315 2316 2317 2318 2319 2320 2321 2322 2323 2324 2325 2326 2327 2328 2329 2330 2331 2332 2333 2334 2335 2336 2337 2338 2339 2340 2341 2342 2343 2344 2345 2346 2347 2348 2349 2350 2351 2352 2353 2354 2355 2356 2357 2358 2359 2360 2361 2362 2363 2364 2365 2366 2367 2368 2369 2370 2371 2372 2373 2374 2375 2376 2377 2378 2379 2380 2381 2382 2383 2384 2385 2386 2387 2388 2389 2390 2391 2392 2393 2394 2395 2396 2397 2398 2399 2400 2401 2402 2403 2404 2405 2406 2407 2408 2409 2410 2411 2412 2413 2414 2415 2416 2417 2418 2419 2420 2421 2422 2423 2424 2425 2426 2427 2428 2429 2430 2431 2432 2433 2434 2435 2436 2437 2438 2439 2440 2441 2442 2443 2444 2445 2446 2447 2448 2449 2450 2451 2452 2453 2454 2455 2456 2457 2458 2459 2460 2461 2462 2463 2464 2465 2466 2467 2468 2469 2470 2471 2472 2473 2474 2475 2476 2477 2478 2479 2480 2481 2482 2483 2484 2485 2486 2487 2488 2489 2490 2491 2492 2493 2494 2495 2496 2497 2498 2499 2500 2501 2502 2503 2504 2505 2506 2507 2508 2509 2510 2511 2512 2513 2514 2515 2516 2517 2518 2519 2520 2521 2522 2523 2524 2525 2526 2527 2528 2529 2530 2531 2532 2533 2534 2535 2536 2537 2538 2539 2540 2541 2542 2543 2544 2545 2546 2547 2548 2549 2550 2551 2552 2553 2554 2555 2556 2557 2558 2559 2560 2561 2562 2563 2564 2565 2566 2567 2568 2569 2570 2571 2572 2573 2574 2575 2576 2577 2578 2579 2580 2581 2582 2583 2584 2585 2586 2587 2588 2589 2590 2591 2592 2593 2594 2595 2596 2597 2598 2599 2600 2601 2602 2603 2604 2605 2606 2607 2608 2609 2610 2611 2612 2613 2614 2615 2616 2617 2618 2619 2620 2621 2622 2623 2624 2625 2626 2627 2628 2629 2630 2631 2632 2633 2634 2635 2636 2637 2638 2639 2640 2641 2642 2643 2644 2645 2646 2647 2648 2649 2650 2651 2652 2653 2654 2655 2656 2657 2658 2659 2660 2661 2662 2663 2664 2665 2666 2667 2668 2669 2670 2671 2672 2673 2674 2675 2676 2677 2678 2679 2680 2681 2682 2683 2684 2685 2686 2687 2688 2689 2690 2691 2692 2693 2694 2695 2696 2697 2698 2699 2700 2701 2702 2703 2704 2705 2706 2707 2708 2709 2710 2711 2712 2713 2714 2715 2716 2717 2718 2719 2720 2721 2722 2723 2724 2725 2726 2727 2728 2729 2730 2731 2732 2733 2734 2735 2736 2737 2738 2739 2740 2741 2742 2743 2744 2745 2746 2747 2748 2749 2750 2751 2752 2753 2754 2755 2756 2757 2758 2759 2760 2761 2762 2763 2764 2765 2766 2767 2768 2769 2770 2771 2772 2773 2774 2775 2776 2777 2778 2779 2780 2781 2782 2783 2784 2785 2786 2787 2788 2789 2790 2791 2792 2793 2794 2795 2796 2797 2798 2799 2800 2801 2802 2803 2804 2805 2806 2807 2808 2809 2810 2811 2812 2813 2814 2815 2816 2817 2818 2819 2820 2821 2822 2823 2824 2825 2826 2827 2828 2829 2830 2831 2832 2833 2834 2835 2836 2837 2838 2839 2840 2841 2842 2843 2844 2845 2846 2847 2848 2849 2850 2851 2852 2853 2854 2855 2856 2857 2858 2859 2860 2861 2862 2863 2864 2865 2866 2867 2868 2869 2870 2871 2872 2873 2874 2875 
</DataArray>
<DataArray type="UInt32" Name="offsets" format="ascii">
4 8 12 16 20 24 28 32 36 40 44 48 52 56 60 64 68 72 76 80 84 88 92 96 100 104 108 112 116 120 124 128 132 136 140 144 148 152 156 160 164 168 172 176 180 184 188 192 196 200 204 208 212 216 220 224 228 232 236 240 244 248 252 256 260 264 268 272 276 280 284 288 292 296 300 304 308 312 316 320 324 328 332 336 340 344 348 352 356 360 364 368 372 376 380 384 388 392 396 400 404 408 412 416 420 424 428 432 436 440 444 448 452 456 460 464 468 472 476 480 484 488 492 496 500 504 508 512 516 520 524 528 532 536 540 544 548 552 556 560 564 568 572 576 580 584 588 592 596 600 604 608 612 616 620 624 628 632 636 640 644 648 652 656 660 664 668 672 676 680 684 688 692 696 700 704 708 712 716 720 724 728 732 736 740 744 748 752 756 760 764 768 772 776 780 784 788 792 796 800 804 808 812 816 820 824 828 832 836 840 844 848 852 856 860 864 868 872 876 880 884 888 892 896 900 904 908 912 916 920 924 928 932 936 940 944 948 952 956 960 964 968 972 976 980 984 988 992 996 1000 1004 1008 1012 1016 1020 1024 1028 1032 1036 1040 1044 1048 1052 1056 1060 1064 1068 1072 1076 1080 1084 1088 1092 1096 1100 1104 1108 1112 1116 1120 1124 1128 1132 1136 1140 1144 1148 1152 1156 1160 1164 1168 1172 1176 1180 1184 1188 1192 1196 1200 1204 1208 1212 1216 1220 1224 1228 1232 1236 1240 1244 1248 1252 1256 1260 1264 1268 1272 1276 1280 1284 1288 1292 1296 1300 1304 1308 1312 1316 1320 1324 1328 1332 1336 1340 1344 1348 1352 1356 1360 1364 1368 1372 1376 1380 1384 1388 1392 1396 1400 1404 1408 1412 1416 1420 1424 1428 1432 1436 1440 1444 1448 1452 1456 1460 1464 1468 1472 1476 1480 1484 1488 1492 1496 1500 1504 1508 1512 1516 1520 1524 1528 1532 1536 1540 1544 1548 1552 1556 1560 1564 1568 1572 1576 1580 1584 1588 1592 1596 1600 1604 1608 1612 1616 1620 1624 1628 1632 1636 1640 1644 1648 1652 1656 1660 1664 1668 1672 1676 1680 1684 1688 1692 1696 1700 1704 1708 1712 1716 1720 1724 1728 1732 1736 1740 1744 1748 1752 1756 1760 1764 1768 1772 1776 1780 1784 1788 1792 1796 1800 1804 1808 1812 1816 1820 1824 1828 1832 1836 1840 1844 1848 1852 1856 1860 1864 1868 1872 1876 1880 1884 1888 1892 1896 1900 1904 1908 1912 1916 1920 1924 1928 1932 1936 1940 1944 1948 1952 1956 1960 1964 1968 1972 1976 1980 1984 1988 1992 1996 2000 2004 2008 2012 2016 2020 2024 2028 2032 2036 2040 2044 2048 2052 2056 2060 2064 2068 2072 2076 2080 2084 2088 2092 2096 2100 2104 2108 2112 2116 2120 2124 2128 2132 2136 2140 2144 2148 2152 2156 2160 2164 2168 2172 2176 2180 2184 2188 2192 2196 2200 2204 2208 2212 2216 2220 2224 2228 2232 2236 2240 2244 2248 2252 2256 2260 2264 2268 2272 2276 2280 2284 2288 2292 2296 2300 2304 2308 2312 2316 2320 2324 2328 2332 2336 2340 2344 2348 2352 2356 2360 2364 2368 2372 2376 2380 2384 2388 2392 2396 2400 2404 2408 2412 2416 2420 2424 2428 2432 2436 2440 2444 2448 2452 2456 2460 2464 2468 2472 2476 2480 2484 2488 2492 2496 2500 2504 2508 2512 2516 2520 2524 2528 2532 2536 2540 2544 2548 2552 2556 2560 2564 2568 2572 2576 2580 2584 2588 2592 2596 2600 2604 2608 2612 2616 2620 2624 2628 2632 2636 2640 2644 2648 2652 2656 2660 2664 2668 2672 2676 2680 2684 2688 2692 2696 2700 2704 2708 2712 2716 2720 2724 2728 2732 2736 2740 2744 2748 2752 2756 2760 2764 2768 2772 2776 2780 2784 2788 2792 2796 2800 2804 2808 2812 2816 2820 2824 2828 2832 2836 2840 2844 2848 2852 2856 2860 2864 2868 2872 2876 
</DataArray>
<DataArray type="UInt32" Name="types" format="ascii">
10 10 10 10 10 10 10 10 10 10 10 10 10 10 10 10 10 10 10 10 10 10 10 10 10 10 10 10 10 10 10 10 10 10 10 10 10 10 10 10 10 10 10 10 10 10 10 10 10 10 10 10 10 10 10 10 10 10 10 10 10 10 10 10 10 10 10 10 10 10 10 10 10 10 10 10 10 10 10 10 10 10 10 10 10 10 10 10 10 10 10 10 10 10 10 10 10 10 10 10 10 10 10 10 10 10 10 10 10 10 10 10 10 10 10 10 10 10 10 10 10 10 10 10 10 10 10 10 10 10 10 10 10 10 10 10 10 10 10 10 10 10 10 10 10 10 10 10 10 10 10 10 10 10 10 10 10 10 10 10 10 10 10 10 10 10 10 10 10 10 10 10 10 10 10 10 10 10 10 10 10 10 10 10 10 10 10 10 10 10 10 10 10 10 10 10 10 10 10 10 10 10 10 10 10 10 10 10 10 10 10 10 10 10 10 10 10 10 10 10 10 10 10 10 10 10 10 10 10 10 10 10 10 10 10 10 10 10 10 10 10 10 10 10 10 10 10 10 10 10 10 10 10 10 10 10 10 10 10 10 10 10 10 10 10 10 10 10 10 10 10 10 10 10 10 10 10 10 10 10 10 10 10 10 10 10 10 10 10 10 10 10 10 10 10 10 10 10 10 10 10 10 10 10 10 10 10 10 10 10 10 10 10 10 10 10 10 10 10 10 10 10 10 10 10 10 10 10 10 10 10 10 10 10 10 10 10 10 10 10 10 10 10 10 10 10 10 10 10 10 10 10 10 10 10 10 10 10 10 10 10 10 10 10 10 10 10 10 10 10 10 10 10 10 10 10 10 10 10 10 10 10 10 10 10 10 10 10 10 10 10 10 10 10 10 10 10 10 10 10 10 10 10 10 10 10 10 10 10 10 10 10 10 10 10 10 10 10 10 10 10 10 10 10 10 10 10 10 10 10 10 10 10 10 10 10 10 10 10 10 10 10 10 10 10 10 10 10 10 10 10 10 10 10 10 10 10 10 10 10 10 10 10 10 10 10 10 10 10 10 10 10 10 10 10 10 10 10 10 10 10 10 10 10 10 10 10 10 10 10 10 10 10 10 10 10 10 10 10 10 10 10 10 10 10 10 10 10 10 10 10 10 10 10 10 10 10 10 10 10 10 10 10 10 10 10 10 10 10 10 10 10 10 10 10 10 10 10 10 10 10 10 10 10 10 10 10 10 10 10 10 10 10 10 10 10 10 10 10 10 10 10 10 10 10 10 10 10 10 10 10 10 10 10 10 10 10 10 10 10 10 10 10 10 10 10 10 10 10 10 10 10 10 10 10 10 10 10 10 10 10 10 10 10 10 10 10 10 10 10 10 10 10 10 10 10 10 10 10 10 10 10 10 10 10 10 10 10 10 10 10 10 10 10 10 10 10 10 10 10 10 10 10 10 10 10 10 10 10 10 10 10 10 10 10 10 10 10 10 10 10 10 10 10 10 10 10 10 10 10 10 10 10 10 10 10 10 10 10 10 10 10 10 10 10 10 10 10 10 10 10 10 10 10 10 10 10 10 10 10 10 10 10 10 10 10 10 10 10 10 10 10 10 10 10 10 10 10 10 
</DataArray>
</Cells>
<PointData Scalars="" Vectors="displacement," Tensors="">
<DataArray type="Float64" Name="displacement" NumberOfComponents="3" format="ascii">
9.8789491180239584e-06 -2.1033372388399939e-10 -1.2611971430343467e-09 5.290866347621012e-06 -1.4511039912978912e-10 -1.2146706973711674e-09 4.5756204854584968e-06 -2.1892342072719153e-10 -9.7080332900367806e-10 9.7686314128452169e-06 -9.8719039374730089e-11 -2.9304676263877372e-05 1.8943270484504898e-14 -2.3492368773987311e-10 -1.2115022401246363e-09 1.424165976748734e-14 -3.250368745568161e-10 -1.3077285920676001e-09 4.5756204854584968e-06 -2.1892342072719153e-10 -9.7080332900315776e-10 -2.9350580980801926e-14 -2.0271980283213969e-10 -1.3726824476945558e-05 1.4241659767487343e-14 -3.250368745568161e-10 -1.3077285920664892e-09 6.2503214218619117e-06 -3.5504336976671166e-10 -1.3765647294037885e-09 4.5756204854584968e-06 -2.1892342072719153e-10 -9.7080332900315776e-10 4.575618667113072e-06 -2.3769946929931969e-10 -1.3726857112178096e-05 -2.9350580980801926e-14 -2.0271980283213969e-10 -1.3726824476945558e-05 4.0485995285346471e-15 -3.0964298545501116e-10 -1.8750821782527422e-05 1.4241659767487343e-14 -3.250368745568161e-10 -1.3077285920664892e-09 4.575618667113072e-06 -2.3769946929931969e-10 -1.3726857112178096e-05 -2.9350580980801926e-14 -2.0271980283213969e-10 -1.3726824476945558e-05 -1.4801797414101093e-14 -8.7510607944831711e-11 -1.5872541037089011e-05 -1.8391377004747272e-15 -1.8957276366509627e-10 -2.9635636996504369e-05 9.768631412845222e-06 -9.8719039374730024e-11 -2.9304676263877365e-05 9.8689161044496725e-06 -3.2053021260086531e-10 -1.7487976158653344e-05 4.5756186671130712e-06 -2.3769946929931969e-10 -1.3726857112178094e-05 5.2935452106757363e-06 -3.0073961341321812e-10 -2.8136293504327884e-05 9.7686314128452169e-06 -9.8719039374730089e-11 -2.9304676263877372e-05 -2.9350580980801926e-14 -2.0271980283213969e-10 -1.3726824476945558e-05 1.4241659397201117e-14 -3.2503687455681605e-10 -1.3077285920659337e-09 4.5756204854584968e-06 -2.1892342072719153e-10 -9.7080332900315776e-10 4.575618667113072e-06 -2.3769946929931969e-10 -1.3726857112178096e-05 4.5756204854584968e-06 -2.1892342072719153e-10 -9.7080332900315776e-10 4.5756186671130712e-06 -2.3769946929931969e-10 -1.3726857112178101e-05 9.8689161044496725e-06 -3.2053021260086531e-10 -1.7487976158653344e-05 9.7686314128452169e-06 -9.8719039374730089e-11 -2.9304676263877372e-05 4.5756204854584968e-06 -2.1892342072719153e-10 -9.7080332900315776e-10 -1.4801797237356302e-14 -8.7510607944831673e-11 -1.5872541037089008e-05 -2.9350580627006854e-14 -2.0271980283213972e-10 -1.372682447694556e-05 9.7686314128452169e-06 -9.8719039374730089e-11 -2.9304676263877372e-05 4.5756204854584968e-06 -2.1892342072719153e-10 -9.7080332900315776e-10 -2.9350580938929095e-14 -2.0271980283213969e-10 -1.3726824476945556e-05 4.575618667113072e-06 -2.3769946929931969e-10 -1.3726857112178096e-05 9.7686314128452169e-06 -9.8719039374730076e-11 -2.9304676263877372e-05 -2.9350580980801926e-14 -2.0271980283213969e-10 -1.3726824476945558e-05 5.293545210675738e-06 -3.0073961341321812e-10 -2.813629350432788e-05 4.575618667113072e-06 -2.3769946929931969e-10 -1.3726857112178096e-05 9.7686314128452186e-06 -9.8719039374730101e-11 -2.9304676263877379e-05 4.575618667113072e-06 -2.3769946929931969e-10 -1.3726857112178096e-05 -2.9350580919598418e-14 -2.0271980283213969e-10 -1.3726824476945558e-05 4.048598887179968e-15 -3.0964298545501116e-10 -1.8750821782527422e-05 5.2935452106757363e-06 -3.0073961341321812e-10 -2.8136293504327884e-05 -1.8391377004747272e-15 -1.8957276366509627e-10 -2.9635636996504369e-05 4.048598887179968e-15 -3.0964298545501116e-10 -1.8750821782527422e-05 -2.9350580980801926e-14 -2.0271980283213969e-10 -1.3726824476945558e-05 5.2935452106757363e-06 -3.0073961341321812e-10 -2.8136293504327884e-05 -2.9350580980801926e-14 -2.0271980283213969e-10 -1.3726824476945558e-05 4.5756204854584968e-06 -2.1892342072719153e-10 -9.7080332900315776e-10 1.8943270484504898e-14 -2.3492368773987311e-10 -1.2115022401245472e-09 -1.4801797414101093e-14 -8.7510607944831711e-11 -1.5872541037089011e-05 -1.4801797414101093e-14 -8.7510607944831711e-11 -1.5872541037089011e-05 4.5756204854584976e-06 -2.189234207271915e-10 -9.7080332900711003e-10 1.8943270484504898e-14 -2.3492368773987311e-10 -1.2115022401246363e-09 5.290866347621012e-06 -1.4511039912978912e-10 -1.2146706973711674e-09 6.2503214218619117e-06 -3.5504336976671166e-10 -1.3765647294037885e-09 4.5756204854584959e-06 -2.1892342072719153e-10 -9.7080332900468536e-10 9.8689161044496725e-06 -3.2053021260086531e-10 -1.7487976158653344e-05 9.8789491180239584e-06 -2.1033372388399939e-10 -1.2611971430343467e-09 6.2503214218619117e-06 -3.5504336976671166e-10 -1.3765647294037885e-09 4.5756204854584976e-06 -2.1892342072719153e-10 -9.7080332900314473e-10 4.5756186671130704e-06 -2.3769946929931964e-10 -1.3726857112178097e-05 9.8689161044496725e-06 -3.2053021260086531e-10 -1.7487976158653344e-05 9.8689161044496725e-06 -3.2053021260086531e-10 -1.7487976158653344e-05 1.2500770631694509e-05 -3.2551865487249185e-10 -1.6298312782212908e-09 6.2503214218619117e-06 -3.5504336976671166e-10 -1.3765647294046465e-09 9.8789491180239584e-06 -2.1033372388399939e-10 -1.2611971430343467e-09 9.8689161044496725e-06 -3.2053021260086531e-10 -1.7487976158653344e-05 9.8789491180239584e-06 -2.1033372388399939e-10 -1.2611971430344133e-09 4.5756204854584951e-06 -2.189234207271915e-10 -9.7080332900402734e-10 9.7686314128452152e-06 -9.8719039374730063e-11 -2.9304676263877369e-05 9.8789491180239584e-06 -2.1033372388399939e-10 -1.2611971430343467e-09 9.7686314128452135e-06 -9.8719039374730076e-11 -2.9304676263877375e-05 9.8689161044496725e-06 -3.2053021260086531e-10 -1.7487976158653344e-05 1.5638472074161126e-05 -2.1739648929442879e-10 -2.1173537326265207e-05 9.8789491180239584e-06 -2.1033372388399939e-10 -1.2611971430343467e-09 1.5435874170417731e-05 -3.0158246289135902e-10 -1.2411423166219327e-05 1.5928102293019623e-05 -1.9230759909025034e-10 -1.1798406967463162e-09 1.5638472074161122e-05 -2.1739648929442876e-10 -2.117353732626521e-05 9.8789491180239584e-06 -2.1033372388399939e-10 -1.2611971430343467e-09 1.5928102293019623e-05 -1.9230759909025034e-10 -1.1798406967491967e-09 1.4317220832694687e-05 -1.1877050831415157e-10 -1.0177437396673764e-09 1.5638472074161122e-05 -2.1739648929442882e-10 -2.117353732626521e-05 1.5435874170417731e-05 -3.0158246289135907e-10 -1.2411423166219332e-05 1.2500770631694509e-05 -3.2551865487249185e-10 -1.6298312782212908e-09 9.8789491180239618e-06 -2.1033372388399946e-10 -1.2611971430282801e-09 1.5928102293019623e-05 -1.9230759909025034e-10 -1.1798406967463162e-09 1.5435874170417731e-05 -3.0158246289135907e-10 -1.2411423166219332e-05 1.2500770631694509e-05 -3.2551865487249185e-10 -1.6298312782212908e-09 9.8689161044496725e-06 -3.2053021260086531e-10 -1.7487976158653344e-05 9.8789491180239584e-06 -2.1033372388399946e-10 -1.2611971430326671e-09 9.8689161044496725e-06 -3.2053021260086531e-10 -1.7487976158653344e-05 1.4903524049732077e-05 -3.6922275844051115e-10 -2.9758047374277382e-05 1.5435874170417731e-05 -3.0158246289135907e-10 -1.2411423166219332e-05 1.5638472074161122e-05 -2.1739648929442879e-10 -2.1173537326265207e-05 9.8789491180239584e-06 -2.1033372388399939e-10 -1.2611971430343467e-09 9.8689161044496725e-06 -3.2053021260086531e-10 -1.7487976158653337e-05 1.5435874170417728e-05 -3.0158246289135902e-10 -1.2411423166219336e-05 1.5638472074161122e-05 -2.1739648929442876e-10 -2.1173537326265214e-05 9.6976195658220851e-06 -2.5740156772024874e-10 -5.079380795096179e-05 1.5649015781864177e-05 -1.6228295607618598e-10 -4.9581559587152601e-05 1.0046318757326264e-05 -2.7787189418596753e-10 -3.6317496456138621e-05 6.903188573960937e-06 -1.6079586032112983e-10 -4.6879764981981335e-05 1.0046318757326264e-05 -2.7787189418596753e-10 -3.6317496456138621e-05 9.7686314128452169e-06 -9.8719039374730089e-11 -2.9304676263877372e-05 5.2935452106757363e-06 -3.0073961341321812e-10 -2.8136293504327884e-05 6.9031885739609362e-06 -1.6079586032112986e-10 -4.6879764981981335e-05 1.0046318757326264e-05 -2.7787189418596753e-10 -3.6317496456138621e-05 1.564901578186418e-05 -1.6228295607618595e-10 -4.9581559587152594e-05 9.7686314128452186e-06 -9.8719039374730101e-11 -2.9304676263877372e-05 6.903188573960937e-06 -1.6079586032112986e-10 -4.6879764981981341e-05 1.0046318757326264e-05 -2.7787189418596753e-10 -3.6317496456138621e-05 1.5649015781864177e-05 -1.6228295607618595e-10 -4.9581559587152601e-05 1.4903524049732079e-05 -3.692227584405112e-10 -2.9758047374277382e-05 1.5638472074161122e-05 -2.1739648929442879e-10 -2.1173537326265207e-05 1.0046318757326264e-05 -2.7787189418596753e-10 -3.6317496456138621e-05 9.7686314128452186e-06 -9.8719039374730101e-11 -2.9304676263877369e-05 1.564901578186418e-05 -1.6228295607618598e-10 -4.9581559587152601e-05 1.5638472074161119e-05 -2.1739648929442874e-10 -2.117353732626521e-05 1.0046318757326264e-05 -2.7787189418596753e-10 -3.6317496456138621e-05 9.8689161044496708e-06 -3.2053021260086531e-10 -1.748797615865334e-05 5.2935452106757363e-06 -3.0073961341321812e-10 -2.8136293504327884e-05 9.7686314128452169e-06 -9.8719039374730089e-11 -2.9304676263877372e-05 9.8689161044496725e-06 -3.2053021260086531e-10 -1.7487976158653344e-05 9.7686314128452169e-06 -9.8719039374730089e-11 -2.9304676263877372e-05 1.0046318757326264e-05 -2.7787189418596753e-10 -3.6317496456138621e-05 1.5638472074161122e-05 -2.1739648929442879e-10 -2.1173537326265207e-05 9.8689161044496725e-06 -3.2053021260086531e-10 -1.7487976158653344e-05 1.0046318757326264e-05 -2.7787189418596753e-10 -3.6317496456138621e-05 1.4903524049732079e-05 -3.6922275844051126e-10 -2.9758047374277382e-05 1.5638472074161122e-05 -2.1739648929442879e-10 -2.1173537326265207e-05 9.6976195658220851e-06 -2.5740156772024874e-10 -5.079380795096179e-05 1.5625990340109727e-05 -3.1909607908090827e-10 -4.5036512895558558e-05 1.0046318757326264e-05 -2.7787189418596753e-10 -3.6317496456138621e-05 1.564901578186418e-05 -1.6228295607618603e-10 -4.9581559587152601e-05 1.0046318757326264e-05 -2.7787189418596753e-10 -3.6317496456138621e-05 1.5625990340109727e-05 -3.1909607908090827e-10 -4.5036512895558558e-05 1.4903524049732077e-05 -3.6922275844051115e-10 -2.9758047374277382e-05 1.564901578186418e-05 -1.6228295607618598e-10 -4.9581559587152601e-05 5.1161760617392409e-06 -2.9973527601313126e-10 -4.581262799123024e-05 9.6976195658220851e-06 -2.5740156772024874e-10 -5.079380795096179e-05 1.0046318757326264e-05 -2.7787189418596753e-10 -3.6317496456138621e-05 6.903188573960937e-06 -1.6079586032112986e-10 -4.6879764981981335e-05 5.1161760617392409e-06 -2.9973527601313126e-10 -4.581262799123024e-05 1.0046318757326264e-05 -2.7787189418596753e-10 -3.6317496456138621e-05 5.2935452106757363e-06 -3.0073961341321812e-10 -2.8136293504327884e-05 6.903188573960937e-06 -1.6079586032112986e-10 -4.6879764981981335e-05 5.2935452106757363e-06 -3.0073961341321812e-10 -2.8136293504327884e-05 -2.9350580980801926e-14 -2.0271980283213969e-10 -1.3726824476945558e-05 -1.839138019426318e-15 -1.895727636650963e-10 -2.9635636996504369e-05 9.7686314128452169e-06 -9.8719039374730076e-11 -2.9304676263877365e-05 -1.8391377004747272e-15 -1.8957276366509627e-10 -2.9635636996504369e-05 5.1161760617392392e-06 -2.9973527601313131e-10 -4.581262799123024e-05 5.2935452106757363e-06 -3.0073961341321812e-10 -2.8136293504327884e-05 6.9031885739609396e-06 -1.6079586032112983e-10 -4.6879764981981335e-05 -1.8391377004747272e-15 -1.8957276366509627e-10 -2.9635636996504369e-05 5.2935452106757355e-06 -3.0073961341321812e-10 -2.8136293504327884e-05 9.7686314128452169e-06 -9.8719039374730076e-11 -2.9304676263877372e-05 6.903188573960937e-06 -1.6079586032112983e-10 -4.6879764981981335e-05 2.8411134726412226e-15 -3.6096348707872233e-10 -3.750043521659016e-05 1.0013898901228728e-14 -4.0660738171072445e-10 -5.6250025531786102e-05 5.1161760617392409e-06 -2.9973527601313126e-10 -4.581262799123024e-05 -6.9730691623275109e-15 -2.3774173402760527e-10 -4.7781568686664073e-05 2.8411134726412226e-15 -3.6096348707872233e-10 -3.750043521659016e-05 -1.8391377004747272e-15 -1.8957276366509627e-10 -2.9635636996504369e-05 5.1161760617392409e-06 -2.9973527601313126e-10 -4.581262799123024e-05 5.2935452106757363e-06 -3.0073961341321812e-10 -2.8136293504327884e-05 5.1161760617392409e-06 -2.9973527601313126e-10 -4.581262799123024e-05 -1.8391372740862074e-15 -1.8957276366509627e-10 -2.9635636996504365e-05 2.8411134850988276e-15 -3.6096348707872233e-10 -3.750043521659016e-05 -6.9730691623275109e-15 -2.3774173402760527e-10 -4.7781568686664073e-05 -1.8391377004747272e-15 -1.8957276366509627e-10 -2.9635636996504369e-05 2.8411144332073678e-15 -3.6096348707872233e-10 -3.750043521659016e-05 4.048598887179968e-15 -3.0964298545501116e-10 -1.8750821782527422e-05 5.2935452106757363e-06 -3.0073961341321812e-10 -2.8136293504327884e-05 -1.8391377004747272e-15 -1.8957276366509627e-10 -2.9635636996504369e-05 -6.9730691623275109e-15 -2.3774173402760527e-10 -4.7781568686664073e-05 5.1161760617392409e-06 -2.9973527601313126e-10 -4.581262799123024e-05 6.9031885739609396e-06 -1.6079586032112981e-10 -4.6879764981981335e-05 -1.8391377004747272e-15 -1.8957276366509627e-10 -2.9635636996504369e-05 -2.631328631965041e-15 -1.0868251789077637e-10 -4.2949381530007733e-05 -6.9730689168915675e-15 -2.3774173402760527e-10 -4.7781568686664073e-05 6.9031885739609387e-06 -1.6079586032112983e-10 -4.6879764981981335e-05 -1.4801797414101093e-14 -8.7510607944831711e-11 -1.5872541037089011e-05 2.1465206120996431e-15 -4.7484203222515168e-11 -3.0868038677502576e-05 -1.8391377004747272e-15 -1.8957276366509627e-10 -2.9635636996504369e-05 9.7686314128452169e-06 -9.8719039374730089e-11 -2.9304676263877372e-05 -2.6313288024560773e-15 -1.0868251789077634e-10 -4.2949381530007733e-05 9.7686314128452152e-06 -9.8719039374730089e-11 -2.9304676263877362e-05 7.7408888467154314e-06 2.1400440649606432e-11 -4.2280181507588739e-05 6.903188573960937e-06 -1.6079586032112986e-10 -4.6879764981981335e-05 -1.8391377004747272e-15 -1.8957276366509627e-10 -2.9635636996504369e-05 2.1465209589819839e-15 -4.7484203222515168e-11 -3.0868038677502576e-05 -2.6313288241362237e-15 -1.0868251789077634e-10 -4.2949381530007733e-05 9.7686314128452169e-06 -9.8719039374730089e-11 -2.9304676263877372e-05 2.1465206120996431e-15 -4.7484203222515168e-11 -3.0868038677502576e-05 7.7408888467154331e-06 2.1400440649606426e-11 -4.2280181507588739e-05 9.7686314128452169e-06 -9.8719039374730089e-11 -2.9304676263877372e-05 6.9835545031663871e-06 1.0423397557719797e-11 -2.0950150144393386e-05 -2.6313288024560773e-15 -1.0868251789077634e-10 -4.2949381530007733e-05 9.7686314128452169e-06 -9.8719039374730127e-11 -2.9304676263877369e-05 2.1465206120996431e-15 -4.7484203222515168e-11 -3.0868038677502576e-05 7.7408888467154314e-06 2.1400440649606432e-11 -4.2280181507588739e-05 -1.4801797414101093e-14 -8.7510607944831711e-11 -1.5872541037089011e-05 2.1465206120996431e-15 -4.7484203222515168e-11 -3.0868038677502576e-05 9.7686314128452152e-06 -9.8719039374730127e-11 -2.9304676263877375e-05 6.9835545031663845e-06 1.0423397557719763e-11 -2.09501501443934e-05 -1.8391377004747272e-15 -1.8957276366509627e-10 -2.9635636996504369e-05 9.7686314128452169e-06 -9.8719039374730076e-11 -2.9304676263877372e-05 -2.6313288830245072e-15 -1.0868251789077633e-10 -4.2949381530007733e-05 6.9031885739609379e-06 -1.6079586032112988e-10 -4.6879764981981341e-05 -2.6313288024560773e-15 -1.0868251789077634e-10 -4.2949381530007733e-05 2.1465203710980537e-15 -4.7484203222515175e-11 -3.0868038677502576e-05 -6.7683441514757425e-15 4.0493707356556116e-12 -4.8714121995995779e-05 7.7408888467154314e-06 2.1400440649606432e-11 -4.2280181507588739e-05 1.562600746976112e-05 -1.794718503326462e-12 -4.6875390101611998e-05 1.564901578186418e-05 -1.6228295607618598e-10 -4.9581559587152594e-05 9.7686314128452135e-06 -9.8719039374730076e-11 -2.9304676263877365e-05 1.563859584053514e-05 -2.0842065621694226e-11 -2.3403715355258553e-05 7.7408888467154314e-06 2.1400440649606432e-11 -4.2280181507588739e-05 1.563859584053514e-05 -2.0842065621694255e-11 -2.3403715355258553e-05 9.7686314128452186e-06 -9.8719039374730063e-11 -2.9304676263877369e-05 6.9835545031663871e-06 1.0423397557719806e-11 -2.0950150144393393e-05 9.7686314128452169e-06 -9.8719039374730089e-11 -2.9304676263877372e-05 1.563859584053514e-05 -2.0842065621694223e-11 -2.3403715355258553e-05 1.564901578186418e-05 -1.6228295607618598e-10 -4.9581559587152601e-05 1.5638472074161122e-05 -2.1739648929442879e-10 -2.117353732626521e-05 1.562600746976112e-05 -1.794718503326462e-12 -4.6875390101611998e-05 7.7408888467154314e-06 2.1400440649606432e-11 -4.2280181507588739e-05 9.7686314128452186e-06 -9.8719039374730076e-11 -2.9304676263877362e-05 1.564901578186418e-05 -1.6228295607618598e-10 -4.9581559587152601e-05 9.7686314128452169e-06 -9.8719039374730089e-11 -2.9304676263877372e-05 7.7408888467154314e-06 2.1400440649606432e-11 -4.2280181507588739e-05 1.562600746976112e-05 -1.794718503326479e-12 -4.6875390101612012e-05 1.563859584053514e-05 -2.0842065621694223e-11 -2.3403715355258556e-05 9.7686314128452169e-06 -9.8719039374730089e-11 -2.9304676263877372e-05 1.564901578186418e-05 -1.6228295607618598e-10 -4.9581559587152608e-05 7.7408888467154314e-06 2.1400440649606439e-11 -4.2280181507588739e-05 6.903188573960937e-06 -1.6079586032112986e-10 -4.6879764981981335e-05 1.0289794207172254e-05 -7.5403124581760312e-11 -1.4010547198906637e-09 9.7686314128452152e-06 -9.8719039374730127e-11 -2.9304676263877372e-05 1.4317220832694687e-05 -1.1877050831415157e-10 -1.0177437396675507e-09 1.563859584053514e-05 -2.0842065621694223e-11 -2.3403715355258556e-05 1.0289794207172254e-05 -7.5403124581760312e-11 -1.4010547198906637e-09 1.563859584053514e-05 -2.0842065621694223e-11 -2.3403715355258556e-05 1.0140216880563031e-05 6.788009561706986e-11 -1.4693990174247081e-09 6.9835545031663871e-06 1.0423397557719806e-11 -2.0950150144393393e-05 1.4317220832694687e-05 -1.1877050831415157e-10 -1.0177437396673764e-09 1.563859584053514e-05 -2.0842065621694223e-11 -2.3403715355258556e-05 9.7686314128452152e-06 -9.8719039374730037e-11 -2.9304676263877372e-05 1.5638472074161126e-05 -2.1739648929442882e-10 -2.1173537326265203e-05 1.4317220832694687e-05 -1.1877050831415157e-10 -1.0177437396673764e-09 1.0289794207172254e-05 -7.5403124581760312e-11 -1.4010547198906637e-09 9.8789491180239584e-06 -2.1033372388399939e-10 -1.2611971430343467e-09 9.7686314128452169e-06 -9.8719039374730089e-11 -2.9304676263877372e-05 5.290866347621012e-06 -1.4511039912978912e-10 -1.2146706973711674e-09 9.7686314128452152e-06 -9.8719039374730089e-11 -2.9304676263877372e-05 1.0289794207172254e-05 -7.5403124581760312e-11 -1.4010547198906637e-09 6.9835545031663871e-06 1.0423397557719806e-11 -2.0950150144393393e-05 9.8789491180239584e-06 -2.1033372388399939e-10 -1.2611971430343467e-09 1.4317220832694687e-05 -1.1877050831415157e-10 -1.0177437396673764e-09 9.7686314128452152e-06 -9.8719039374730063e-11 -2.9304676263877372e-05 1.5638472074161122e-05 -2.1739648929442884e-10 -2.117353732626521e-05 1.0289794207172254e-05 -7.5403124581760312e-11 -1.4010547198906637e-09 9.7686314128452186e-06 -9.8719039374730192e-11 -2.9304676263877372e-05 1.563859584053514e-05 -2.0842065621694223e-11 -2.3403715355258556e-05 6.9835545031663888e-06 1.0423397557719845e-11 -2.0950150144393389e-05 1.0289794207172254e-05 -7.5403124581760312e-11 -1.4010547198906637e-09 5.290866347621012e-06 -1.4511039912978914e-10 -1.2146706973707952e-09 9.8789491180239584e-06 -2.1033372388399939e-10 -1.2611971430343467e-09 9.7686314128452152e-06 -9.8719039374730089e-11 -2.9304676263877379e-05 1.0140216880563031e-05 6.788009561706986e-11 -1.4693990174247081e-09 1.0289794207172254e-05 -7.5403124581760312e-11 -1.4010547198906637e-09 1.6239023559649787e-05 2.3597046534813304e-11 -1.3010143685195271e-09 1.563859584053514e-05 -2.0842065621694223e-11 -2.3403715355258556e-05 1.6239023559649787e-05 2.3597046534813304e-11 -1.3010143685195271e-09 1.0289794207172254e-05 -7.5403124581760312e-11 -1.4010547198906637e-09 1.4317220832694687e-05 -1.1877050831415157e-10 -1.0177437396673764e-09 1.563859584053514e-05 -2.0842065621694223e-11 -2.3403715355258556e-05 -1.4801797414101093e-14 -8.7510607944831711e-11 -1.5872541037089011e-05 4.5756204854584968e-06 -2.1892342072719153e-10 -9.7080332900315776e-10 5.290866347621012e-06 -1.4511039912978912e-10 -1.2146706973709385e-09 9.7686314128452169e-06 -9.8719039374730089e-11 -2.9304676263877372e-05 -1.4801797414101093e-14 -8.7510607944831711e-11 -1.5872541037089011e-05 9.7686314128452169e-06 -9.8719039374730166e-11 -2.9304676263877375e-05 5.290866347621012e-06 -1.4511039912978912e-10 -1.2146706973703088e-09 6.9835545031663862e-06 1.0423397557719798e-11 -2.0950150144393393e-05 5.3835011812767868e-06 -1.0343813765753803e-11 -1.32381720319665e-09 -1.3971688483948959e-14 -4.8894289688350305e-12 -1.6150548187414054e-05 5.290866347621012e-06 -1.4511039912978912e-10 -1.2146706973711674e-09 6.9835545031663871e-06 1.0423397557719806e-11 -2.0950150144393393e-05 5.3835011812767868e-06 -1.0343813765753803e-11 -1.32381720319665e-09 5.290866347621012e-06 -1.4511039912978912e-10 -1.2146706973711674e-09 1.0289794207172254e-05 -7.5403124581760312e-11 -1.4010547198906637e-09 6.9835545031663871e-06 1.0423397557719806e-11 -2.0950150144393393e-05 -1.4801797414101093e-14 -8.7510607944831711e-11 -1.5872541037089011e-05 1.8943270484504898e-14 -2.3492368773987311e-10 -1.2115022401246363e-09 2.2817389607798339e-14 -1.0451193970971975e-10 -1.5463315164894483e-09 5.290866347621012e-06 -1.4511039912978912e-10 -1.2146706973711674e-09 -1.4801797414101093e-14 -8.7510607944831711e-11 -1.5872541037089011e-05 2.2817389607798339e-14 -1.0451193970971975e-10 -1.5463315164894483e-09 -1.3971688804176048e-14 -4.8894289688350264e-12 -1.6150548187414054e-05 5.290866347621012e-06 -1.4511039912978912e-10 -1.2146706973711674e-09 -1.4801797414101093e-14 -8.7510607944831711e-11 -1.5872541037089011e-05 5.290866347621012e-06 -1.4511039912978912e-10 -1.2146706973711674e-09 -1.3971688483948959e-14 -4.8894289688350305e-12 -1.6150548187414054e-05 6.9835545031663854e-06 1.0423397557719794e-11 -2.0950150144393389e-05 -1.4801797414101093e-14 -8.7510607944831711e-11 -1.5872541037089011e-05 -1.3971688483948959e-14 -4.8894289688350305e-12 -1.6150548187414054e-05 2.1465205048299369e-15 -4.7484203222515168e-11 -3.0868038677502576e-05 6.9835545031663854e-06 1.0423397557719806e-11 -2.0950150144393396e-05 -1.3971688483948959e-14 -4.8894289688350305e-12 -1.6150548187414054e-05 2.2817389298226275e-14 -1.0451193970971974e-10 -1.5463315164880628e-09 9.9060778787106887e-15 8.4398395587997769e-11 -1.4435618472791162e-09 5.3835011812767868e-06 -1.0343813765753803e-11 -1.32381720319665e-09 5.290866347621012e-06 -1.4511039912978912e-10 -1.2146706973711674e-09 2.2817389607798339e-14 -1.0451193970971975e-10 -1.5463315164894483e-09 -1.3971688483948959e-14 -4.8894289688350305e-12 -1.6150548187414054e-05 5.3835011812767868e-06 -1.0343813765753803e-11 -1.32381720319665e-09 -5.8937611694567095e-15 9.7513856341590875e-11 -1.4904214124021894e-05 -1.8345826168188441e-15 5.0873604120173789e-11 -3.0419303355714051e-05 6.9835545031663888e-06 1.0423397557719781e-11 -2.0950150144393393e-05 6.0188548338192944e-06 1.4989567652035309e-10 -1.8056193251567572e-05 4.9680631765175686e-06 1.1510963515380201e-10 -1.2084234794413988e-09 -5.89376124419784e-15 9.7513856341590875e-11 -1.4904214124021892e-05 6.9835545031663871e-06 1.0423397557719803e-11 -2.0950150144393396e-05 6.0188548338192952e-06 1.4989567652035309e-10 -1.8056193251567575e-05 -5.8937611694567095e-15 9.7513856341590875e-11 -1.4904214124021894e-05 5.3835011812767868e-06 -1.0343813765753803e-11 -1.32381720319665e-09 9.9060779045617663e-15 8.4398395587997769e-11 -1.4435618472790387e-09 4.9680631765175686e-06 1.1510963515380201e-10 -1.2084234794413988e-09 1.0140216880563031e-05 6.788009561706986e-11 -1.4693990174247081e-09 4.9680631765175686e-06 1.1510963515380201e-10 -1.2084234794413988e-09 6.9835545031663879e-06 1.042339755771981e-11 -2.0950150144393396e-05 6.0188548338192952e-06 1.4989567652035312e-10 -1.8056193251567575e-05 9.9060778787106887e-15 8.4398395587997769e-11 -1.4435618472791162e-09 -1.3971688483948959e-14 -4.8894289688350305e-12 -1.6150548187414054e-05 5.3835011812767868e-06 -1.0343813765753801e-11 -1.3238172031971867e-09 -5.8937611694567095e-15 9.7513856341590875e-11 -1.4904214124021894e-05 -5.8937611694567095e-15 9.7513856341590875e-11 -1.4904214124021894e-05 9.9060778787106887e-15 8.4398395587997769e-11 -1.4435618472791162e-09 3.4133729857003905e-15 2.1478247615614749e-10 -1.1743892163884591e-09 4.9680631765175686e-06 1.1510963515380201e-10 -1.2084234794413988e-09 9.7091051152245772e-06 2.2762904402256462e-10 -1.3083165408741895e-09 4.9680631765175695e-06 1.1510963515380203e-10 -1.2084234794409792e-09 1.0140216880563031e-05 6.788009561706986e-11 -1.4693990174251304e-09 6.0188548338192952e-06 1.4989567652035312e-10 -1.8056193251567575e-05 1.0140216880563031e-05 6.788009561706986e-11 -1.4693990174247081e-09 4.9680631765175686e-06 1.1510963515380201e-10 -1.2084234794413988e-09 5.3835011812767868e-06 -1.0343813765753803e-11 -1.32381720319665e-09 6.9835545031663871e-06 1.0423397557719806e-11 -2.0950150144393393e-05 4.9680631765175686e-06 1.1510963515380201e-10 -1.2084234794413988e-09 -5.8937613161238305e-15 9.7513856341590875e-11 -1.4904214124021892e-05 5.3835011812767868e-06 -1.0343813765753803e-11 -1.32381720319665e-09 6.9835545031663871e-06 1.0423397557719806e-11 -2.0950150144393393e-05 -5.8937611694567095e-15 9.7513856341590875e-11 -1.4904214124021894e-05 -1.4194950794589481e-15 2.0162718978631234e-10 -2.9126012816447243e-05 -1.8345826168188441e-15 5.0873604120173789e-11 -3.0419303355714051e-05 6.0188548338192935e-06 1.4989567652035314e-10 -1.8056193251567575e-05 -1.3971688483948959e-14 -4.8894289688350305e-12 -1.6150548187414054e-05 -5.8937611694567095e-15 9.7513856341590875e-11 -1.4904214124021894e-05 -1.8345826168188441e-15 5.0873604120173789e-11 -3.0419303355714051e-05 6.9835545031663871e-06 1.0423397557719806e-11 -2.0950150144393393e-05 -1.3971688483948959e-14 -4.8894289688350305e-12 -1.6150548187414054e-05 5.3835011812767877e-06 -1.0343813765753801e-11 -1.3238172031970899e-09 -5.8937611694567095e-15 9.7513856341590875e-11 -1.4904214124021894e-05 6.9835545031663871e-06 1.0423397557719806e-11 -2.0950150144393393e-05 -1.8345826168188441e-15 5.0873604120173789e-11 -3.0419303355714051e-05 7.036996476273817e-06 1.8630182246203685e-10 -4.5175849460323202e-05 1.1203404675539121e-05 1.2402564057825097e-10 -2.8153686431913189e-05 6.0188548338192952e-06 1.4989567652035309e-10 -1.8056193251567572e-05 -1.8345826168188441e-15 5.0873604120173789e-11 -3.0419303355714051e-05 7.7408888467154331e-06 2.1400440649606426e-11 -4.2280181507588732e-05 2.1465206120996431e-15 -4.7484203222515168e-11 -3.0868038677502576e-05 6.9835545031663896e-06 1.0423397557719815e-11 -2.0950150144393393e-05 -1.8345826168188441e-15 5.0873604120173789e-11 -3.0419303355714051e-05 -1.4194947979605272e-15 2.0162718978631234e-10 -2.9126012816447243e-05 7.036996476273817e-06 1.8630182246203685e-10 -4.5175849460323209e-05 6.0188548338192944e-06 1.4989567652035312e-10 -1.8056193251567572e-05 1.1203404675539121e-05 1.2402564057825097e-10 -2.8153686431913189e-05 6.9835545031663888e-06 1.0423397557719813e-11 -2.0950150144393386e-05 -1.8345823721624435e-15 5.0873604120173821e-11 -3.0419303355714055e-05 6.0188548338192944e-06 1.4989567652035312e-10 -1.8056193251567568e-05 -1.3971688483948959e-14 -4.8894289688350305e-12 -1.6150548187414054e-05 -1.8345825859358981e-15 5.0873604120173789e-11 -3.0419303355714048e-05 2.1465206120996431e-15 -4.7484203222515168e-11 -3.0868038677502576e-05 6.9835545031663871e-06 1.0423397557719806e-11 -2.0950150144393393e-05 -1.8345826168188441e-15 5.0873604120173789e-11 -3.0419303355714051e-05 7.7408888467154314e-06 2.1400440649606449e-11 -4.2280181507588746e-05 1.1203404675539121e-05 1.2402564057825097e-10 -2.8153686431913189e-05 7.0369964762738179e-06 1.863018224620368e-10 -4.5175849460323209e-05 1.1203404675539121e-05 1.2402564057825097e-10 -2.8153686431913189e-05 7.7408888467154314e-06 2.1400440649606462e-11 -4.2280181507588746e-05 -1.834583563552333e-15 5.0873604120173815e-11 -3.0419303355714055e-05 6.9835545031663896e-06 1.0423397557719798e-11 -2.0950150144393393e-05 2.1465206120996431e-15 -4.7484203222515168e-11 -3.0868038677502576e-05 -1.8345830545686167e-15 5.0873604120173789e-11 -3.0419303355714051e-05 -6.7683441514757425e-15 4.0493707356556116e-12 -4.8714121995995779e-05 7.7408888467154314e-06 2.1400440649606432e-11 -4.2280181507588739e-05 1.4263197929429189e-15 1.2061571595473732e-10 -4.2810835528267177e-05 -6.7683441514757425e-15 4.0493707356556116e-12 -4.8714121995995779e-05 -1.8345826168188441e-15 5.0873604120173789e-11 -3.0419303355714051e-05 7.7408888467154314e-06 2.1400440649606432e-11 -4.2280181507588739e-05 -4.9909675764111913e-15 1.0636761261200376e-10 -5.6197752480315577e-05 7.7408888467154314e-06 2.1400440649606403e-11 -4.2280181507588739e-05 1.4263197929429189e-15 1.2061571595473732e-10 -4.2810835528267177e-05 7.0369964762738179e-06 1.8630182246203685e-10 -4.5175849460323202e-05 -1.8345826168188441e-15 5.0873604120173789e-11 -3.0419303355714051e-05 -1.4194947979605272e-15 2.0162718978631234e-10 -2.9126012816447243e-05 1.4263192047226156e-15 1.2061571595473732e-10 -4.2810835528267171e-05 7.0369964762738179e-06 1.8630182246203685e-10 -4.5175849460323202e-05 1.4263197929429189e-15 1.2061571595473732e-10 -4.2810835528267177e-05 7.7408888467154314e-06 2.1400440649606439e-11 -4.2280181507588739e-05 -1.8345826168188441e-15 5.0873604120173789e-11 -3.0419303355714051e-05 7.0369964762738179e-06 1.8630182246203685e-10 -4.5175849460323202e-05 5.290889366206146e-06 3.0292325512698111e-10 -2.8195810911366197e-05 1.0290216328827606e-05 3.5333005824226489e-10 -3.7140530282860246e-05 7.0369964762738179e-06 1.8630182246203685e-10 -4.5175849460323202e-05 6.0188548338192952e-06 1.4989567652035312e-10 -1.8056193251567575e-05 -1.4194947979605272e-15 2.0162718978631234e-10 -2.9126012816447243e-05 5.290889366206146e-06 3.0292325512698111e-10 -2.8195810911366193e-05 7.0369964762738179e-06 1.8630182246203685e-10 -4.5175849460323202e-05 6.0188548338192952e-06 1.4989567652035312e-10 -1.8056193251567575e-05 5.3835198419055702e-06 3.3029302806081248e-10 -4.6722024248783792e-05 -7.8321790582847201e-15 2.3945230712075121e-10 -4.7628340732010795e-05 -1.4194946551851692e-15 2.0162718978631234e-10 -2.9126012816447236e-05 7.0369964762738179e-06 1.8630182246203685e-10 -4.5175849460323195e-05 1.4263197929429189e-15 1.2061571595473732e-10 -4.2810835528267177e-05 -1.4194947979605272e-15 2.0162718978631234e-10 -2.9126012816447243e-05 -7.8321774030278997e-15 2.3945230712075126e-10 -4.7628340732010795e-05 7.0369964762738179e-06 1.8630182246203685e-10 -4.5175849460323202e-05 5.3835198419055702e-06 3.3029302806081248e-10 -4.6722024248783792e-05 3.6848126592292596e-15 3.8700978123879235e-10 -3.750045439854466e-05 -1.4194943281026764e-15 2.0162718978631234e-10 -2.912601281644724e-05 -7.8321774030279013e-15 2.3945230712075121e-10 -4.7628340732010788e-05 -1.4194947979605272e-15 2.0162718978631234e-10 -2.9126012816447243e-05 5.290889366206146e-06 3.0292325512698111e-10 -2.8195810911366197e-05 3.6848126592292596e-15 3.8700978123879235e-10 -3.750045439854466e-05 5.3835198419055711e-06 3.3029302806081243e-10 -4.6722024248783792e-05 5.3835198419055702e-06 3.3029302806081248e-10 -4.6722024248783792e-05 -1.4194956960942977e-15 2.0162718978631229e-10 -2.9126012816447236e-05 5.290889366206146e-06 3.0292325512698111e-10 -2.8195810911366197e-05 7.0369964762738162e-06 1.8630182246203685e-10 -4.5175849460323209e-05 5.3835198419055702e-06 3.3029302806081248e-10 -4.6722024248783792e-05 5.290889366206146e-06 3.0292325512698111e-10 -2.8195810911366197e-05 1.0290216328827606e-05 3.5333005824226489e-10 -3.7140530282860246e-05 7.0369964762738179e-06 1.8630182246203685e-10 -4.5175849460323202e-05 3.6848126592292596e-15 3.8700978123879235e-10 -3.750045439854466e-05 2.3592353914797055e-15 3.0308847833298274e-10 -1.8750848624116496e-05 5.290889366206146e-06 3.0292325512698111e-10 -2.8195810911366197e-05 -1.4194947979605272e-15 2.0162718978631234e-10 -2.9126012816447243e-05 5.290889366206146e-06 3.0292325512698111e-10 -2.8195810911366197e-05 2.359234186743846e-15 3.0308847833298274e-10 -1.8750848624116493e-05 -2.1464715236464894e-14 2.0771989386757491e-10 -1.3726849714683102e-05 -1.4194953853672462e-15 2.0162718978631236e-10 -2.9126012816447243e-05 4.5756236310516391e-06 2.4270492572859714e-10 -1.372690337248586e-05 2.3592353914797055e-15 3.0308847833298274e-10 -1.8750848624116496e-05 -2.1464713491278951e-14 2.0771989386757491e-10 -1.3726849714683102e-05 5.290889366206146e-06 3.0292325512698111e-10 -2.8195810911366197e-05 6.2503371525868111e-06 3.4404658748848163e-10 -1.329015434589065e-09 1.045388848942602e-14 3.2692491265558301e-10 -1.3300845526311964e-09 4.5755946782838817e-06 2.1641521524143693e-10 -9.6843018021313023e-10 4.5756236310516391e-06 2.4270492572859714e-10 -1.372690337248586e-05 -2.1464713520989668e-14 2.0771989386757491e-10 -1.37268497146831e-05 1.0453888624953806e-14 3.2692491265558307e-10 -1.3300845526300857e-09 2.3592353914797055e-15 3.0308847833298274e-10 -1.8750848624116496e-05 4.5756236310516391e-06 2.4270492572859714e-10 -1.372690337248586e-05 -2.1464713520989668e-14 2.0771989386757491e-10 -1.37268497146831e-05 4.5755946782838817e-06 2.1641521524143693e-10 -9.6843018021313023e-10 1.0453888624953806e-14 3.2692491265558307e-10 -1.3300845526300857e-09 4.5756236310516391e-06 2.4270492572859714e-10 -1.372690337248586e-05 4.5755946782838817e-06 2.1641521524143693e-10 -9.6843018021313023e-10 1.0453888102281616e-14 3.2692491265558307e-10 -1.330084552631494e-09 3.4133726446663647e-15 2.1478247615614749e-10 -1.1743892163894823e-09 -2.1464713520989668e-14 2.0771989386757491e-10 -1.37268497146831e-05 -2.1464713520989668e-14 2.0771989386757491e-10 -1.37268497146831e-05 -5.8937611694567095e-15 9.7513856341590875e-11 -1.4904214124021894e-05 4.9680631765175695e-06 1.15109635153802e-10 -1.2084234794419551e-09 6.0188548338192952e-06 1.4989567652035312e-10 -1.8056193251567575e-05 3.4133726446663647e-15 2.1478247615614749e-10 -1.1743892163894823e-09 4.9680631765175686e-06 1.1510963515380201e-10 -1.2084234794413988e-09 4.5755946782838817e-06 2.1641521524143693e-10 -9.6843018021313023e-10 -2.1464713520989668e-14 2.0771989386757491e-10 -1.37268497146831e-05 4.5756236310516391e-06 2.4270492572859714e-10 -1.372690337248586e-05 -2.1464713672218945e-14 2.0771989386757491e-10 -1.37268497146831e-05 4.5755946782838817e-06 2.1641521524143691e-10 -9.6843018021269989e-10 6.0188548338192952e-06 1.4989567652035309e-10 -1.8056193251567572e-05 4.9680631765175686e-06 1.1510963515380201e-10 -1.2084234794413988e-09 3.4133726446663647e-15 2.1478247615614749e-10 -1.1743892163894823e-09 -5.8937611694567095e-15 9.7513856341590875e-11 -1.4904214124021894e-05 -2.1464713520989668e-14 2.0771989386757491e-10 -1.37268497146831e-05 4.9680631765175686e-06 1.1510963515380201e-10 -1.2084234794413988e-09 4.5755946782838817e-06 2.1641521524143693e-10 -9.6843018021202036e-10 -2.1464713520989668e-14 2.0771989386757491e-10 -1.37268497146831e-05 6.0188548338192952e-06 1.4989567652035312e-10 -1.8056193251567575e-05 5.290889366206146e-06 3.0292325512698111e-10 -2.8195810911366197e-05 -1.4194960619105949e-15 2.0162718978631234e-10 -2.912601281644724e-05 -2.1464714108396381e-14 2.0771989386757488e-10 -1.3726849714683103e-05 6.0188548338192952e-06 1.4989567652035312e-10 -1.8056193251567575e-05 -2.1464713520989668e-14 2.0771989386757491e-10 -1.37268497146831e-05 -1.4194947979605272e-15 2.0162718978631234e-10 -2.9126012816447243e-05 -5.8937611694567095e-15 9.7513856341590875e-11 -1.4904214124021894e-05 6.0188548338192952e-06 1.4989567652035312e-10 -1.8056193251567575e-05 4.5756236310516391e-06 2.4270492572859714e-10 -1.372690337248586e-05 4.5755946782838833e-06 2.1641521524143693e-10 -9.6843018021818637e-10 9.7091051152245772e-06 2.2762904402256459e-10 -1.3083165408766404e-09 6.0188548338192952e-06 1.4989567652035309e-10 -1.8056193251567575e-05 4.9680631765175686e-06 1.1510963515380201e-10 -1.2084234794413988e-09 9.7091051152245772e-06 2.2762904402256462e-10 -1.3083165408741895e-09 4.5755946782838817e-06 2.1641521524143693e-10 -9.6843018021313023e-10 6.0188548338192952e-06 1.4989567652035312e-10 -1.8056193251567575e-05 4.5755946782838817e-06 2.1641521524143693e-10 -9.6843018021313023e-10 9.7091051152245772e-06 2.2762904402256462e-10 -1.3083165408741895e-09 6.2503371525868111e-06 3.4404658748848163e-10 -1.329015434589065e-09 4.5756236310516391e-06 2.4270492572859714e-10 -1.372690337248586e-05 9.8868448396287226e-06 3.177611171511155e-10 -1.7643781644732243e-05 6.2503371525868119e-06 3.4404658748848173e-10 -1.3290154345879165e-09 9.7091051152245772e-06 2.2762904402256462e-10 -1.3083165408741895e-09 4.5756236310516391e-06 2.4270492572859714e-10 -1.372690337248586e-05 9.7091051152245772e-06 2.2762904402256462e-10 -1.3083165408741895e-09 9.8868448396287226e-06 3.177611171511155e-10 -1.7643781644732243e-05 4.5756236310516374e-06 2.4270492572859709e-10 -1.3726903372485856e-05 6.018854833819296e-06 1.4989567652035309e-10 -1.8056193251567575e-05 9.8868448396287226e-06 3.177611171511155e-10 -1.7643781644732243e-05 5.290889366206146e-06 3.0292325512698111e-10 -2.8195810911366197e-05 4.5756236310516391e-06 2.4270492572859714e-10 -1.372690337248586e-05 6.0188548338192952e-06 1.4989567652035312e-10 -1.8056193251567575e-05 4.5756236310516391e-06 2.4270492572859714e-10 -1.372690337248586e-05 5.290889366206146e-06 3.0292325512698111e-10 -2.8195810911366197e-05 -2.1464713520989668e-14 2.0771989386757491e-10 -1.37268497146831e-05 6.0188548338192952e-06 1.4989567652035312e-10 -1.8056193251567575e-05 1.1203404675539121e-05 1.2402564057825097e-10 -2.8153686431913189e-05 6.0188548338192952e-06 1.4989567652035312e-10 -1.8056193251567572e-05 9.8868448396287226e-06 3.177611171511155e-10 -1.7643781644732243e-05 1.6530579203325437e-05 2.1296524835433619e-10 -1.9527067257495591e-05 9.7091051152245772e-06 2.2762904402256462e-10 -1.3083165408741895e-09 6.0188548338192952e-06 1.4989567652035312e-10 -1.8056193251567575e-05 1.1203404675539122e-05 1.2402564057825095e-10 -2.8153686431913189e-05 1.6530579203325437e-05 2.1296524835433617e-10 -1.9527067257495595e-05 9.7091051152245772e-06 2.2762904402256462e-10 -1.3083165408741895e-09 9.8868448396287226e-06 3.1776111715111555e-10 -1.764378164473224e-05 6.0188548338192952e-06 1.4989567652035309e-10 -1.8056193251567575e-05 1.6530579203325437e-05 2.1296524835433617e-10 -1.9527067257495591e-05 9.7091051152245772e-06 2.2762904402256462e-10 -1.3083165408741895e-09 1.2500788546109246e-05 4.062791548700545e-10 -1.550457685376521e-09 6.2503371525868111e-06 3.4404658748848163e-10 -1.329015434589065e-09 9.8868448396287226e-06 3.177611171511155e-10 -1.7643781644732243e-05 9.7091051152245772e-06 2.2762904402256462e-10 -1.3083165408741895e-09 1.5877035511968546e-05 2.5364552142674324e-10 -1.2694708843607408e-09 9.8868448396287226e-06 3.177611171511155e-10 -1.7643781644732243e-05 1.6530579203325437e-05 2.1296524835433617e-10 -1.9527067257495598e-05 1.4271059849808152e-05 1.2094633357350149e-10 -9.9612777568372585e-10 1.5877035511968546e-05 2.536455214267433e-10 -1.2694708843579168e-09 9.7091051152245772e-06 2.2762904402256462e-10 -1.308316540873799e-09 1.6530579203325437e-05 2.1296524835433619e-10 -1.9527067257495588e-05 1.5980201674811111e-05 2.9924029895612618e-10 -1.534858032472575e-05 9.8868448396287226e-06 3.177611171511155e-10 -1.7643781644732243e-05 1.2500788546109246e-05 4.062791548700545e-10 -1.550457685373515e-09 1.5877035511968546e-05 2.536455214267433e-10 -1.2694708843579168e-09 9.8868448396287226e-06 3.177611171511155e-10 -1.7643781644732243e-05 9.7091051152245772e-06 2.2762904402256457e-10 -1.308316540878205e-09 1.2500788546109246e-05 4.062791548700545e-10 -1.550457685376521e-09 1.5877035511968546e-05 2.536455214267433e-10 -1.2694708843579168e-09 1.5980201674811111e-05 2.9924029895612618e-10 -1.534858032472575e-05 1.4319703188244751e-05 2.4238258087100718e-10 -2.9091662376342296e-05 9.8868448396287226e-06 3.177611171511155e-10 -1.7643781644732243e-05 1.6530579203325437e-05 2.1296524835433619e-10 -1.9527067257495591e-05 1.5980201674811111e-05 2.9924029895612618e-10 -1.534858032472575e-05 9.8868448396287226e-06 3.177611171511155e-10 -1.7643781644732243e-05 1.587703551196855e-05 2.5364552142674324e-10 -1.269470884358562e-09 1.6530579203325437e-05 2.1296524835433622e-10 -1.9527067257495591e-05 1.0290216328827606e-05 3.5333005824226489e-10 -3.7140530282860246e-05 1.1203404675539121e-05 1.2402564057825095e-10 -2.8153686431913189e-05 1.5621010445398847e-05 1.5873911691594417e-10 -4.9657217105295726e-05 7.0369964762738179e-06 1.8630182246203685e-10 -4.5175849460323202e-05 1.1203404675539121e-05 1.2402564057825097e-10 -2.8153686431913189e-05 7.0369964762738179e-06 1.8630182246203685e-10 -4.5175849460323202e-05 1.0290216328827606e-05 3.5333005824226489e-10 -3.7140530282860246e-05 6.0188548338192944e-06 1.4989567652035312e-10 -1.8056193251567572e-05 9.8868448396287226e-06 3.177611171511155e-10 -1.7643781644732243e-05 1.4319703188244749e-05 2.4238258087100713e-10 -2.9091662376342296e-05 1.0290216328827606e-05 3.5333005824226489e-10 -3.7140530282860246e-05 1.1203404675539119e-05 1.240256405782509e-10 -2.8153686431913189e-05 1.4319703188244749e-05 2.4238258087100713e-10 -2.9091662376342296e-05 1.1203404675539117e-05 1.2402564057825097e-10 -2.8153686431913189e-05 9.8868448396287226e-06 3.177611171511155e-10 -1.7643781644732243e-05 1.6530579203325437e-05 2.1296524835433619e-10 -1.9527067257495591e-05 9.8868448396287226e-06 3.177611171511155e-10 -1.7643781644732243e-05 1.1203404675539124e-05 1.2402564057825095e-10 -2.8153686431913189e-05 1.0290216328827608e-05 3.5333005824226495e-10 -3.7140530282860246e-05 6.0188548338192952e-06 1.4989567652035312e-10 -1.8056193251567575e-05 1.4319703188244749e-05 2.4238258087100713e-10 -2.9091662376342296e-05 1.562101044539884e-05 1.5873911691594409e-10 -4.9657217105295719e-05 1.1203404675539121e-05 1.2402564057825095e-10 -2.8153686431913195e-05 1.6530579203325437e-05 2.1296524835433619e-10 -1.9527067257495591e-05 1.4319703188244749e-05 2.4238258087100713e-10 -2.9091662376342296e-05 1.0290216328827606e-05 3.5333005824226489e-10 -3.7140530282860246e-05 1.1203404675539121e-05 1.2402564057825092e-10 -2.8153686431913189e-05 1.562101044539884e-05 1.5873911691594409e-10 -4.9657217105295712e-05 9.8868448396287226e-06 3.177611171511155e-10 -1.7643781644732243e-05 1.0290216328827606e-05 3.5333005824226489e-10 -3.7140530282860246e-05 5.290889366206146e-06 3.0292325512698111e-10 -2.8195810911366197e-05 6.0188548338192952e-06 1.4989567652035312e-10 -1.8056193251567575e-05 1.0290216328827606e-05 3.5333005824226489e-10 -3.7140530282860246e-05 1.0140724704036042e-05 3.6841697363812655e-10 -5.6269032973875176e-05 5.3835198419055702e-06 3.3029302806081248e-10 -4.6722024248783792e-05 7.0369964762738179e-06 1.8630182246203685e-10 -4.5175849460323202e-05 1.4319703188244749e-05 2.4238258087100713e-10 -2.9091662376342296e-05 1.6239009663722847e-05 3.1638110634913128e-10 -4.6875438724226179e-05 1.0290216328827606e-05 3.5333005824226489e-10 -3.7140530282860246e-05 1.5621010445398844e-05 1.5873911691594412e-10 -4.9657217105295719e-05 7.7408888467154314e-06 2.1400440649606432e-11 -4.2280181507588739e-05 1.562101044539884e-05 1.5873911691594409e-10 -4.9657217105295719e-05 1.1203404675539121e-05 1.2402564057825097e-10 -2.8153686431913189e-05 7.0369964762738187e-06 1.8630182246203682e-10 -4.5175849460323202e-05 1.1203404675539121e-05 1.2402564057825097e-10 -2.8153686431913189e-05 1.562600746976112e-05 -1.7947185033264363e-12 -4.6875390101612005e-05 7.7408888467154314e-06 2.1400440649606432e-11 -4.2280181507588739e-05 1.5638595840535137e-05 -2.0842065621694252e-11 -2.3403715355258549e-05 1.1203404675539121e-05 1.2402564057825097e-10 -2.8153686431913189e-05 7.7408888467154314e-06 2.1400440649606432e-11 -4.2280181507588739e-05 1.562600746976112e-05 -1.7947185033264735e-12 -4.6875390101611998e-05 1.5621010445398844e-05 1.5873911691594414e-10 -4.9657217105295726e-05 1.1203404675539121e-05 1.2402564057825097e-10 -2.8153686431913189e-05 1.563859584053514e-05 -2.0842065621694223e-11 -2.3403715355258556e-05 7.7408888467154297e-06 2.140044064960642e-11 -4.2280181507588732e-05 6.9835545031663871e-06 1.0423397557719806e-11 -2.0950150144393393e-05 1.1203404675539121e-05 1.2402564057825097e-10 -2.8153686431913189e-05 1.0140216880563031e-05 6.788009561706986e-11 -1.4693990174247081e-09 1.563859584053514e-05 -2.0842065621694223e-11 -2.3403715355258556e-05 6.9835545031663871e-06 1.0423397557719806e-11 -2.0950150144393393e-05 9.7091051152245772e-06 2.2762904402256462e-10 -1.3083165408741895e-09 1.0140216880563031e-05 6.788009561706986e-11 -1.4693990174247081e-09 1.4271059849808152e-05 1.2094633357350149e-10 -9.9612777568372585e-10 1.1203404675539121e-05 1.2402564057825097e-10 -2.8153686431913195e-05 1.0140216880563031e-05 6.788009561706986e-11 -1.4693990174247081e-09 6.9835545031663888e-06 1.0423397557719823e-11 -2.0950150144393396e-05 1.1203404675539121e-05 1.2402564057825097e-10 -2.8153686431913189e-05 6.0188548338192952e-06 1.4989567652035312e-10 -1.8056193251567575e-05 1.0140216880563031e-05 6.788009561706986e-11 -1.4693990174247081e-09 1.4271059849808152e-05 1.2094633357350149e-10 -9.9612777568415536e-10 1.1203404675539121e-05 1.2402564057825097e-10 -2.8153686431913185e-05 1.563859584053514e-05 -2.0842065621694223e-11 -2.3403715355258556e-05 9.7091051152245772e-06 2.2762904402256462e-10 -1.3083165408741895e-09 1.0140216880563031e-05 6.788009561706986e-11 -1.4693990174247081e-09 1.1203404675539121e-05 1.2402564057825097e-10 -2.8153686431913189e-05 6.0188548338192952e-06 1.4989567652035312e-10 -1.8056193251567575e-05 1.4271059849808152e-05 1.2094633357350149e-10 -9.9612777568372585e-10 9.7091051152245772e-06 2.2762904402256462e-10 -1.3083165408742352e-09 1.1203404675539121e-05 1.2402564057825097e-10 -2.8153686431913189e-05 1.6530579203325437e-05 2.1296524835433617e-10 -1.9527067257495591e-05 1.1203404675539121e-05 1.2402564057825097e-10 -2.8153686431913189e-05 1.563859584053514e-05 -2.0842065621694223e-11 -2.3403715355258556e-05 1.4271059849808152e-05 1.2094633357350149e-10 -9.9612777568372585e-10 1.6530579203325437e-05 2.1296524835433619e-10 -1.9527067257495591e-05 5.3835011812767868e-06 -1.0343813765753803e-11 -1.32381720319665e-09 1.0289794207172254e-05 -7.5403124581760312e-11 -1.4010547198906637e-09 1.0140216880563031e-05 6.788009561706986e-11 -1.4693990174247081e-09 6.9835545031663871e-06 1.0423397557719806e-11 -2.0950150144393393e-05 1.0140216880563031e-05 6.788009561706986e-11 -1.4693990174247081e-09 1.6239023559649787e-05 2.3597046534813304e-11 -1.3010143685195271e-09 1.4271059849808152e-05 1.2094633357350149e-10 -9.9612777568372585e-10 1.563859584053514e-05 -2.0842065621694223e-11 -2.3403715355258556e-05 2.2727086753133673e-05 8.5860689392881767e-11 -8.3438768956648581e-10 2.139392262875923e-05 1.244032211134647e-10 -2.9153296300019565e-05 1.8733697169836003e-05 1.1050350702735394e-10 -9.9363790024090358e-10 2.4286781129356097e-05 -3.0335703528147347e-11 -2.0414601378496888e-05 2.139392262875923e-05 1.2440322111346477e-10 -2.9153296300019565e-05 1.563859584053514e-05 -2.0842065621694239e-11 -2.3403715355258559e-05 1.8733697169836003e-05 1.1050350702735393e-10 -9.9363790024015229e-10 2.4286781129356094e-05 -3.0335703528147418e-11 -2.0414601378496885e-05 1.8733697169836003e-05 1.1050350702735394e-10 -9.9363790024090358e-10 1.4271059849808152e-05 1.2094633357350149e-10 -9.9612777568445542e-10 1.563859584053514e-05 -2.084206562169422e-11 -2.3403715355258559e-05 1.6530579203325437e-05 2.1296524835433622e-10 -1.9527067257495595e-05 1.6239023559649787e-05 2.3597046534813304e-11 -1.3010143685195271e-09 2.1038870676105789e-05 -8.2989989800916257e-12 -1.0244490023014326e-09 1.8733697169836003e-05 1.1050350702735394e-10 -9.9363790024090358e-10 1.563859584053514e-05 -2.0842065621694223e-11 -2.3403715355258556e-05 1.8733697169836003e-05 1.1050350702735394e-10 -9.9363790024090358e-10 1.5638595840535137e-05 -2.0842065621694226e-11 -2.3403715355258559e-05 2.139392262875923e-05 1.2440322111346475e-10 -2.9153296300019568e-05 1.6530579203325431e-05 2.1296524835433619e-10 -1.9527067257495595e-05 1.8733697169836003e-05 1.1050350702735394e-10 -9.9363790024090358e-10 1.563859584053514e-05 -2.0842065621694226e-11 -2.3403715355258556e-05 2.1038870676105789e-05 -8.2989989800916257e-12 -1.0244490023014326e-09 2.4286781129356094e-05 -3.0335703528147431e-11 -2.0414601378496881e-05 1.8733697169836003e-05 1.1050350702735394e-10 -9.9363790024090358e-10 1.6530579203325437e-05 2.1296524835433632e-10 -1.9527067257495588e-05 2.1393922628759227e-05 1.2440322111346472e-10 -2.9153296300019565e-05 2.5495804771300726e-05 1.9832890120313302e-10 -1.732879614482088e-05 1.8733697169836003e-05 1.1050350702735394e-10 -9.9363790024090358e-10 1.4271059849808152e-05 1.2094633357350149e-10 -9.9612777568437725e-10 1.6239023559649787e-05 2.3597046534813304e-11 -1.3010143685195271e-09 1.563859584053514e-05 -2.0842065621694223e-11 -2.3403715355258556e-05 1.8733697169836003e-05 1.1050350702735394e-10 -9.9363790024090358e-10 2.139392262875923e-05 1.2440322111346477e-10 -2.9153296300019565e-05 2.2727086753133673e-05 8.5860689392881767e-11 -8.3438768956648581e-10 2.5495804771300726e-05 1.9832890120313297e-10 -1.732879614482088e-05 1.4271059849808152e-05 1.2094633357350149e-10 -9.9612777568372585e-10 1.8733697169836003e-05 1.1050350702735394e-10 -9.9363790024076006e-10 1.5877035511968546e-05 2.536455214267433e-10 -1.2694708843594786e-09 1.6530579203325437e-05 2.1296524835433619e-10 -1.9527067257495588e-05 1.8733697169836003e-05 1.1050350702735394e-10 -9.9363790024090358e-10 2.2727086753133673e-05 8.586068939288178e-11 -8.3438768956601018e-10 2.2045765348470939e-05 1.6563338356898693e-10 -1.2740130540073604e-09 2.5495804771300726e-05 1.9832890120313297e-10 -1.732879614482088e-05 2.2727086753133673e-05 8.5860689392881767e-11 -8.3438768956648581e-10 1.8733697169836003e-05 1.1050350702735394e-10 -9.9363790024087856e-10 2.1038870676105789e-05 -8.2989989800916241e-12 -1.0244490023006856e-09 2.4286781129356094e-05 -3.0335703528147425e-11 -2.0414601378496885e-05 2.139392262875923e-05 1.2440322111346477e-10 -2.9153296300019565e-05 1.5638595840535143e-05 -2.0842065621694216e-11 -2.3403715355258549e-05 1.1203404675539121e-05 1.2402564057825097e-10 -2.8153686431913189e-05 1.6530579203325434e-05 2.1296524835433614e-10 -1.9527067257495591e-05 2.139392262875923e-05 1.2440322111346477e-10 -2.9153296300019565e-05 1.1203404675539117e-05 1.2402564057825095e-10 -2.8153686431913185e-05 1.562600746976112e-05 -1.794718503326462e-12 -4.6875390101611998e-05 1.5621010445398844e-05 1.5873911691594412e-10 -4.9657217105295719e-05 1.562600746976112e-05 -1.794718503326462e-12 -4.6875390101611998e-05 1.1203404675539121e-05 1.2402564057825097e-10 -2.8153686431913195e-05 2.139392262875923e-05 1.2440322111346477e-10 -2.9153296300019565e-05 1.5638595840535143e-05 -2.0842065621694268e-11 -2.3403715355258559e-05 1.562600746976112e-05 -1.794718503326462e-12 -4.6875390101611998e-05 2.139392262875923e-05 1.2440322111346477e-10 -2.9153296300019565e-05 2.3452940044532584e-05 1.6515878385926766e-11 -4.6722419229397336e-05 1.5638595840535143e-05 -2.0842065621694268e-11 -2.3403715355258559e-05 2.139392262875923e-05 1.2440322111346477e-10 -2.9153296300019565e-05 1.5621010445398844e-05 1.5873911691594412e-10 -4.9657217105295719e-05 2.3452940044532584e-05 1.6515878385926766e-11 -4.6722419229397336e-05 2.418098408268528e-05 2.068640918650794e-10 -4.6715346053894628e-05 2.3452940044532584e-05 1.6515878385926766e-11 -4.6722419229397336e-05 1.563859584053514e-05 -2.0842065621694242e-11 -2.3403715355258566e-05 2.139392262875923e-05 1.2440322111346477e-10 -2.9153296300019561e-05 2.4286781129356097e-05 -3.0335703528147425e-11 -2.0414601378496885e-05 1.1203404675539121e-05 1.2402564057825097e-10 -2.8153686431913189e-05 1.5621010445398844e-05 1.5873911691594412e-10 -4.9657217105295719e-05 2.139392262875923e-05 1.2440322111346477e-10 -2.9153296300019565e-05 1.6530579203325437e-05 2.1296524835433619e-10 -1.9527067257495591e-05 1.562600746976112e-05 -1.794718503326462e-12 -4.6875390101611998e-05 2.3452940044532584e-05 1.651587838592676e-11 -4.6722419229397343e-05 2.139392262875923e-05 1.2440322111346477e-10 -2.9153296300019565e-05 1.5621010445398844e-05 1.5873911691594412e-10 -4.9657217105295719e-05 2.139392262875923e-05 1.2440322111346477e-10 -2.9153296300019565e-05 1.6530579203325437e-05 2.1296524835433619e-10 -1.9527067257495591e-05 1.9085092702061354e-05 3.3585533923074265e-10 -3.1058044808480012e-05 2.5495804771300726e-05 1.9832890120313297e-10 -1.732879614482088e-05 1.9085092702061354e-05 3.3585533923074265e-10 -3.1058044808480012e-05 1.5621010445398844e-05 1.5873911691594412e-10 -4.9657217105295719e-05 2.139392262875923e-05 1.2440322111346477e-10 -2.9153296300019565e-05 2.418098408268528e-05 2.068640918650794e-10 -4.6715346053894628e-05 1.9085092702061354e-05 3.3585533923074265e-10 -3.1058044808480012e-05 2.1326399070200072e-05 3.7194917294057628e-10 -4.9041192557915753e-05 1.5621010445398847e-05 1.5873911691594414e-10 -4.9657217105295719e-05 2.418098408268528e-05 2.068640918650794e-10 -4.6715346053894628e-05 2.5861278716113538e-05 3.7040282324155226e-10 -2.9445590630370689e-05 2.1393922628759227e-05 1.2440322111346472e-10 -2.9153296300019565e-05 1.9085092702061354e-05 3.3585533923074265e-10 -3.1058044808480012e-05 2.5495804771300726e-05 1.98328901203133e-10 -1.7328796144820894e-05 1.4319703188244749e-05 2.4238258087100713e-10 -2.9091662376342296e-05 1.9085092702061354e-05 3.3585533923074265e-10 -3.1058044808480012e-05 1.5621010445398844e-05 1.5873911691594412e-10 -4.9657217105295719e-05 1.6530579203325437e-05 2.1296524835433619e-10 -1.9527067257495591e-05 1.9085092702061354e-05 3.3585533923074265e-10 -3.1058044808480012e-05 2.1393922628759234e-05 1.2440322111346475e-10 -2.9153296300019568e-05 2.5861278716113538e-05 3.7040282324155226e-10 -2.9445590630370689e-05 2.418098408268528e-05 2.068640918650794e-10 -4.6715346053894628e-05 2.139392262875923e-05 1.2440322111346477e-10 -2.9153296300019565e-05 1.5621010445398844e-05 1.5873911691594414e-10 -4.9657217105295719e-05 1.9085092702061354e-05 3.3585533923074265e-10 -3.1058044808480012e-05 1.6530579203325437e-05 2.1296524835433619e-10 -1.9527067257495595e-05 1.9085092702061354e-05 3.3585533923074265e-10 -3.1058044808480012e-05 2.1326399070200072e-05 3.7194917294057628e-10 -4.9041192557915759e-05 1.6239009663722847e-05 3.1638110634913128e-10 -4.6875438724226173e-05 1.5621010445398844e-05 1.5873911691594412e-10 -4.9657217105295719e-05 1.6239009663722847e-05 3.1638110634913128e-10 -4.6875438724226179e-05 1.4319703188244749e-05 2.4238258087100713e-10 -2.9091662376342296e-05 1.9085092702061354e-05 3.3585533923074265e-10 -3.1058044808480012e-05 1.5621010445398844e-05 1.5873911691594409e-10 -4.9657217105295726e-05 2.1326399070200072e-05 3.7194917294057628e-10 -4.9041192557915759e-05 1.908509270206135e-05 3.358553392307426e-10 -3.1058044808480012e-05 2.5861278716113538e-05 3.7040282324155226e-10 -2.9445590630370689e-05 2.418098408268528e-05 2.068640918650794e-10 -4.6715346053894628e-05 1.5980201674811111e-05 2.9924029895612618e-10 -1.534858032472575e-05 1.9085092702061354e-05 3.3585533923074265e-10 -3.1058044808480012e-05 1.4319703188244749e-05 2.4238258087100713e-10 -2.9091662376342296e-05 1.6530579203325437e-05 2.1296524835433622e-10 -1.9527067257495591e-05 1.5980201674811111e-05 2.9924029895612618e-10 -1.534858032472575e-05 2.1872709469281778e-05 3.0348207307893751e-10 -1.5880712738094002e-05 1.9085092702061354e-05 3.3585533923074265e-10 -3.1058044808480012e-05 1.6530579203325437e-05 2.1296524835433622e-10 -1.9527067257495591e-05 2.1872709469281778e-05 3.0348207307893751e-10 -1.5880712738094002e-05 1.9085092702061354e-05 3.3585533923074265e-10 -3.1058044808480012e-05 1.6530579203325437e-05 2.1296524835433619e-10 -1.9527067257495595e-05 2.5495804771300722e-05 1.9832890120313297e-10 -1.7328796144820877e-05 2.1872709469281778e-05 3.0348207307893751e-10 -1.5880712738094002e-05 1.6530579203325441e-05 2.1296524835433622e-10 -1.9527067257495591e-05 2.2045765348470939e-05 1.6563338356898693e-10 -1.2740130540075078e-09 2.5495804771300726e-05 1.9832890120313297e-10 -1.732879614482087e-05 2.1872709469281778e-05 3.0348207307893751e-10 -1.5880712738094002e-05 1.5980201674811111e-05 2.9924029895612618e-10 -1.534858032472575e-05 1.5877035511968546e-05 2.5364552142674335e-10 -1.2694708843509921e-09 1.6530579203325437e-05 2.1296524835433622e-10 -1.9527067257495584e-05 1.8733697169836003e-05 1.1050350702735394e-10 -9.9363790024090358e-10 2.2045765348470939e-05 1.6563338356898693e-10 -1.2740130540073604e-09 1.6530579203325437e-05 2.1296524835433622e-10 -1.9527067257495595e-05 2.5495804771300726e-05 1.9832890120313297e-10 -1.7328796144820884e-05 1.8751145636585701e-05 3.6021892300204728e-10 -1.6139343264081157e-09 2.1872709469281778e-05 3.0348207307893751e-10 -1.5880712738094002e-05 1.5980201674811111e-05 2.9924029895612618e-10 -1.534858032472575e-05 1.5877035511968546e-05 2.536455214267433e-10 -1.2694708843579168e-09 1.5980201674811111e-05 2.9924029895612618e-10 -1.534858032472575e-05 1.2500788546109246e-05 4.062791548700545e-10 -1.5504576853779741e-09 1.8751145636585701e-05 3.6021892300204728e-10 -1.6139343264081157e-09 1.5877035511968546e-05 2.536455214267433e-10 -1.2694708843579168e-09 1.5877035511968546e-05 2.536455214267433e-10 -1.2694708843579168e-09 1.8733697169836003e-05 1.1050350702735393e-10 -9.9363790024092902e-10 2.2045765348470939e-05 1.6563338356898693e-10 -1.2740130540073604e-09 1.6530579203325437e-05 2.1296524835433619e-10 -1.9527067257495591e-05 2.1872709469281778e-05 3.0348207307893751e-10 -1.5880712738094002e-05 1.5877035511968546e-05 2.5364552142674335e-10 -1.2694708843512657e-09 2.2045765348470939e-05 1.6563338356898696e-10 -1.2740130540048406e-09 1.6530579203325437e-05 2.1296524835433624e-10 -1.9527067257495584e-05 1.8751145636585701e-05 3.6021892300204728e-10 -1.6139343264081157e-09 2.5001445114674265e-05 3.0969006472889406e-10 -1.3249214575064393e-09 2.1872709469281778e-05 3.0348207307893751e-10 -1.5880712738094002e-05 2.2045765348470939e-05 1.6563338356898693e-10 -1.2740130540073604e-09 1.5877035511968546e-05 2.536455214267433e-10 -1.2694708843579168e-09 1.8751145636585701e-05 3.6021892300204728e-10 -1.6139343264081157e-09 2.1872709469281778e-05 3.0348207307893751e-10 -1.5880712738094012e-05 2.2045765348470939e-05 1.6563338356898693e-10 -1.2740130540073604e-09 2.1872709469281778e-05 3.0348207307893751e-10 -1.5880712738094002e-05 2.5861278716113538e-05 3.7040282324155226e-10 -2.9445590630370689e-05 1.9085092702061354e-05 3.3585533923074265e-10 -3.1058044808480012e-05 2.5495804771300726e-05 1.9832890120313302e-10 -1.732879614482088e-05 2.5861278716113538e-05 3.7040282324155226e-10 -2.9445590630370689e-05 2.1872709469281778e-05 3.0348207307893751e-10 -1.5880712738094002e-05 2.6676117357428697e-05 2.2788870137527454e-10 -1.3726978041870576e-05 2.5495804771300722e-05 1.9832890120313297e-10 -1.7328796144820877e-05 2.1872709469281778e-05 3.0348207307893751e-10 -1.5880712738094002e-05 2.6676080667558018e-05 2.3109896616249694e-10 -9.0106477632680335e-10 2.6676117357428697e-05 2.2788870137527454e-10 -1.3726978041870577e-05 2.5495804771300726e-05 1.98328901203133e-10 -1.732879614482087e-05 2.6676117357428697e-05 2.2788870137527454e-10 -1.3726978041870577e-05 3.1251497200130896e-05 2.0372148092972198e-10 -1.3726988745088498e-05 2.5861278716113538e-05 3.7040282324155226e-10 -2.9445590630370689e-05 2.5495804771300726e-05 1.9832890120313295e-10 -1.732879614482088e-05 2.6676080667558018e-05 2.3109896616249694e-10 -9.0106477632298136e-10 2.6676117357428697e-05 2.2788870137527454e-10 -1.3726978041870577e-05 2.5001445114674265e-05 3.0969006472889406e-10 -1.3249214575064393e-09 2.1872709469281778e-05 3.0348207307893751e-10 -1.5880712738094002e-05 2.1872709469281778e-05 3.0348207307893751e-10 -1.5880712738094002e-05 2.5001445114674269e-05 3.0969006472889406e-10 -1.3249214575063496e-09 2.6676080667558018e-05 2.3109896616249694e-10 -9.0106477632298136e-10 2.2045765348470939e-05 1.6563338356898693e-10 -1.2740130540073604e-09 2.6676080667558018e-05 2.3109896616249694e-10 -9.0106477632298136e-10 2.2045765348470939e-05 1.6563338356898693e-10 -1.2740130540075488e-09 2.6618148361600642e-05 1.4088288417957886e-10 -1.0157298944513239e-09 2.5495804771300726e-05 1.9832890120313297e-10 -1.7328796144820877e-05 2.1872709469281778e-05 3.0348207307893751e-10 -1.5880712738094002e-05 2.2045765348470943e-05 1.6563338356898696e-10 -1.2740130540129976e-09 2.6676080667558018e-05 2.3109896616249694e-10 -9.0106477632505934e-10 2.5495804771300726e-05 1.98328901203133e-10 -1.7328796144820874e-05 3.1251497200130896e-05 2.03721480929722e-10 -1.37269887450885e-05 3.1251449275496502e-05 1.0684785660127216e-10 -1.4904274575747906e-05 3.1251476087192838e-05 1.9994879500754342e-10 -2.9126281191600246e-05 2.5495804771300726e-05 1.9832890120313297e-10 -1.732879614482088e-05 2.5861278716113538e-05 3.7040282324155226e-10 -2.9445590630370689e-05 3.1251497200130896e-05 2.03721480929722e-10 -1.37269887450885e-05 3.1251476087192838e-05 1.9994879500754342e-10 -2.9126281191600246e-05 2.5495804771300729e-05 1.9832890120313302e-10 -1.7328796144820884e-05 3.1251497200130896e-05 2.03721480929722e-10 -1.37269887450885e-05 2.6676080667558018e-05 2.3109896616249694e-10 -9.0106477632298136e-10 3.1251397232101023e-05 1.7353454260354506e-10 -1.1794331025573619e-09 2.5495804771300726e-05 1.9832890120313297e-10 -1.732879614482088e-05 3.1251397232101023e-05 1.7353454260354506e-10 -1.1794331025573619e-09 2.5495804771300729e-05 1.9832890120313297e-10 -1.732879614482088e-05 3.1251449275496502e-05 1.0684785660127216e-10 -1.4904274575747906e-05 3.1251497200130896e-05 2.03721480929722e-10 -1.37269887450885e-05 2.6676080667558018e-05 2.3109896616249694e-10 -9.0106477632298136e-10 3.1251497200130896e-05 2.03721480929722e-10 -1.3726988745088502e-05 2.6676117357428697e-05 2.2788870137527454e-10 -1.3726978041870577e-05 2.5495804771300726e-05 1.9832890120313297e-10 -1.7328796144820877e-05 2.6676080667558018e-05 2.3109896616249694e-10 -9.0106477632298136e-10 2.6618148361600645e-05 1.4088288417957889e-10 -1.015729894450444e-09 3.1251397232101023e-05 1.7353454260354506e-10 -1.1794331025569219e-09 2.5495804771300726e-05 1.9832890120313297e-10 -1.7328796144820877e-05 3.1251497200130896e-05 2.03721480929722e-10 -1.37269887450885e-05 2.6676117357428697e-05 2.2788870137527457e-10 -1.3726978041870579e-05 3.1251343144023378e-05 3.3931248097379535e-10 -1.3634955716275655e-09 2.6676080667558018e-05 2.3109896616249694e-10 -9.0106477632298136e-10 3.1251426426234028e-05 3.1732421748672899e-10 -1.8751015853878805e-05 2.6676117357428697e-05 2.2788870137527454e-10 -1.3726978041870579e-05 3.1251343144023378e-05 3.3931248097379535e-10 -1.3634955716275655e-09 3.1251497200130896e-05 2.03721480929722e-10 -1.37269887450885e-05 3.1251343144023378e-05 3.3931248097379535e-10 -1.3634955716275655e-09 3.1251497200130896e-05 2.03721480929722e-10 -1.37269887450885e-05 2.6676080667558018e-05 2.3109896616249694e-10 -9.0106477632298136e-10 3.1251397232101023e-05 1.7353454260354506e-10 -1.1794331025573619e-09 2.5001445114674265e-05 3.0969006472889406e-10 -1.3249214575064393e-09 3.1251343144023378e-05 3.3931248097379535e-10 -1.3634955716275655e-09 2.6676117357428697e-05 2.2788870137527454e-10 -1.3726978041870577e-05 2.6676080667558018e-05 2.3109896616249694e-10 -9.0106477632298136e-10 2.5861278716113538e-05 3.7040282324155226e-10 -2.9445590630370689e-05 2.6676117357428697e-05 2.2788870137527454e-10 -1.3726978041870577e-05 3.1251426426234028e-05 3.1732421748672899e-10 -1.8751015853878805e-05 3.1251497200130896e-05 2.03721480929722e-10 -1.37269887450885e-05 3.1251426426234028e-05 3.1732421748672899e-10 -1.8751015853878805e-05 3.1251476087192838e-05 1.9994879500754342e-10 -2.9126281191600246e-05 2.5861278716113535e-05 3.7040282324155226e-10 -2.9445590630370685e-05 3.1251497200130896e-05 2.03721480929722e-10 -1.37269887450885e-05 3.1251453252021449e-05 2.9859390636280676e-10 -3.7500801078122975e-05 3.1251476087192838e-05 1.9994879500754342e-10 -2.9126281191600246e-05 2.5861278716113538e-05 3.7040282324155226e-10 -2.9445590630370685e-05 3.1251426426234028e-05 3.1732421748672899e-10 -1.8751015853878805e-05 2.5861278716113538e-05 3.7040282324155226e-10 -2.9445590630370689e-05 2.418098408268528e-05 2.068640918650794e-10 -4.6715346053894635e-05 2.139392262875923e-05 1.2440322111346477e-10 -2.9153296300019565e-05 2.5495804771300722e-05 1.98328901203133e-10 -1.7328796144820884e-05 3.1251476087192838e-05 1.9994879500754342e-10 -2.9126281191600246e-05 2.418098408268528e-05 2.0686409186507938e-10 -4.6715346053894628e-05 2.5861278716113538e-05 3.7040282324155226e-10 -2.9445590630370689e-05 2.5495804771300722e-05 1.9832890120313297e-10 -1.7328796144820874e-05 3.1251476087192838e-05 1.9994879500754342e-10 -2.9126281191600246e-05 2.1393922628759234e-05 1.2440322111346467e-10 -2.9153296300019561e-05 2.4180984082685283e-05 2.0686409186507935e-10 -4.6715346053894635e-05 2.5495804771300722e-05 1.9832890120313292e-10 -1.7328796144820877e-05 3.1251476087192838e-05 1.9994879500754342e-10 -2.9126281191600246e-05 2.7114733887081393e-05 3.0052526843408105e-10 -4.7445799932829798e-05 2.5861278716113538e-05 3.7040282324155232e-10 -2.9445590630370685e-05 2.418098408268528e-05 2.068640918650794e-10 -4.6715346053894628e-05 2.1326399070200072e-05 3.7194917294057628e-10 -4.9041192557915759e-05 2.5861278716113538e-05 3.7040282324155226e-10 -2.9445590630370689e-05 2.711473388708139e-05 3.0052526843408115e-10 -4.7445799932829785e-05 2.418098408268528e-05 2.068640918650794e-10 -4.6715346053894628e-05 2.711473388708139e-05 3.0052526843408115e-10 -4.7445799932829785e-05 3.1251453252021449e-05 2.9859390636280676e-10 -3.7500801078122975e-05 3.1251476087192838e-05 1.9994879500754342e-10 -2.9126281191600246e-05 2.5861278716113538e-05 3.7040282324155226e-10 -2.9445590630370689e-05 3.1251453252021449e-05 2.9859390636280676e-10 -3.7500801078122975e-05 3.1251494548559666e-05 2.0372646190531986e-10 -4.7628851673572763e-05 2.711473388708139e-05 3.0052526843408115e-10 -4.7445799932829785e-05 3.1251476087192838e-05 1.9994879500754342e-10 -2.9126281191600246e-05 3.1251476087192838e-05 1.9994879500754342e-10 -2.9126281191600246e-05 3.1251494548559666e-05 2.0372646190531986e-10 -4.7628851673572763e-05 2.711473388708139e-05 3.0052526843408115e-10 -4.7445799932829785e-05 2.418098408268528e-05 2.068640918650794e-10 -4.6715346053894628e-05 3.1251476087192838e-05 1.9994879500754342e-10 -2.9126281191600246e-05 3.1251502216732098e-05 1.2304792737073243e-10 -4.2949831007867728e-05 3.1251494548559666e-05 2.0372646190531986e-10 -4.7628851673572763e-05 2.418098408268528e-05 2.068640918650794e-10 -4.6715346053894628e-05 3.1251478303020999e-05 -8.6782535564508807e-11 -3.0868347107320232e-05 2.3452940044532584e-05 1.651587838592677e-11 -4.6722419229397329e-05 3.1251479812828388e-05 5.0662858403137333e-11 -3.0419555783723698e-05 2.4286781129356094e-05 -3.0335703528147425e-11 -2.0414601378496885e-05 3.1251502216732098e-05 1.2304792737073243e-10 -4.2949831007867728e-05 2.139392262875923e-05 1.2440322111346477e-10 -2.9153296300019565e-05 3.1251479812828388e-05 5.0662858403137333e-11 -3.0419555783723702e-05 2.3452940044532584e-05 1.6515878385926766e-11 -4.6722419229397336e-05 3.1251476087192838e-05 1.9994879500754342e-10 -2.9126281191600246e-05 2.139392262875923e-05 1.244032211134647e-10 -2.9153296300019561e-05 3.1251502216732098e-05 1.2304792737073243e-10 -4.2949831007867721e-05 2.418098408268528e-05 2.068640918650794e-10 -4.6715346053894628e-05 3.1251502216732098e-05 1.2304792737073243e-10 -4.2949831007867728e-05 2.139392262875923e-05 1.2440322111346477e-10 -2.9153296300019565e-05 2.3452940044532588e-05 1.6515878385926799e-11 -4.6722419229397343e-05 2.4180984082685273e-05 2.068640918650794e-10 -4.6715346053894628e-05 3.1251502216732098e-05 1.2304792737073243e-10 -4.2949831007867728e-05 3.1251476087192838e-05 1.9994879500754342e-10 -2.9126281191600246e-05 3.1251479812828388e-05 5.0662858403137333e-11 -3.0419555783723702e-05 2.139392262875923e-05 1.2440322111346477e-10 -2.9153296300019565e-05 2.139392262875923e-05 1.2440322111346477e-10 -2.9153296300019565e-05 3.1251479812828388e-05 5.0662858403137307e-11 -3.0419555783723698e-05 2.3452940044532584e-05 1.6515878385926766e-11 -4.6722419229397336e-05 2.4286781129356094e-05 -3.0335703528147438e-11 -2.0414601378496881e-05 3.1251476087192838e-05 1.9994879500754342e-10 -2.9126281191600246e-05 3.1251479812828388e-05 5.0662858403137333e-11 -3.0419555783723702e-05 2.1393922628759227e-05 1.2440322111346477e-10 -2.9153296300019568e-05 2.5495804771300726e-05 1.9832890120313297e-10 -1.732879614482088e-05 3.1251479812828388e-05 5.0662858403137333e-11 -3.0419555783723702e-05 2.4286781129356094e-05 -3.0335703528147425e-11 -2.0414601378496885e-05 2.1393922628759234e-05 1.2440322111346477e-10 -2.9153296300019575e-05 2.5495804771300726e-05 1.9832890120313292e-10 -1.7328796144820887e-05 3.1251471331972877e-05 -1.2253624190039084e-12 -4.871465933686723e-05 3.1251502216732098e-05 1.2304792737073243e-10 -4.2949831007867728e-05 3.1251479812828388e-05 5.0662858403137333e-11 -3.0419555783723702e-05 2.3452940044532584e-05 1.6515878385926766e-11 -4.6722419229397336e-05 3.1251478303020999e-05 -8.6782535564508807e-11 -3.0868347107320232e-05 3.1251471331972877e-05 -1.225362419003922e-12 -4.871465933686723e-05 3.1251479812828388e-05 5.0662858403137333e-11 -3.0419555783723702e-05 2.3452940044532588e-05 1.6515878385926757e-11 -4.6722419229397336e-05 2.6311303372097482e-05 4.1933344628383671e-11 -1.1625080636248609e-09 3.1251411841761943e-05 -2.6415796880196661e-11 -1.6150611047679868e-05 3.1251449275496502e-05 1.0684785660127216e-10 -1.4904274575747908e-05 2.4286781129356094e-05 -3.0335703528147425e-11 -2.0414601378496885e-05 3.1251449275496502e-05 1.0684785660127216e-10 -1.4904274575747908e-05 2.6618148361600645e-05 1.4088288417957889e-10 -1.0157298944559702e-09 2.4286781129356091e-05 -3.0335703528147464e-11 -2.0414601378496885e-05 2.5495804771300726e-05 1.9832890120313297e-10 -1.732879614482088e-05 3.1251449275496502e-05 1.0684785660127216e-10 -1.4904274575747908e-05 2.4286781129356094e-05 -3.0335703528147464e-11 -2.0414601378496881e-05 3.1251479812828388e-05 5.0662858403137333e-11 -3.0419555783723702e-05 2.5495804771300726e-05 1.9832890120313297e-10 -1.732879614482088e-05 3.1251449275496502e-05 1.0684785660127216e-10 -1.4904274575747908e-05 3.1251411841761943e-05 -2.6415796880196638e-11 -1.6150611047679872e-05 3.1251479812828388e-05 5.0662858403137333e-11 -3.0419555783723702e-05 2.4286781129356091e-05 -3.0335703528147386e-11 -2.0414601378496888e-05 2.2727086753133673e-05 8.5860689392881767e-11 -8.3438768956648581e-10 2.4286781129356094e-05 -3.0335703528147425e-11 -2.0414601378496885e-05 2.6618148361600642e-05 1.4088288417957889e-10 -1.0157298944513249e-09 2.5495804771300726e-05 1.9832890120313297e-10 -1.732879614482088e-05 2.2727086753133673e-05 8.5860689392881767e-11 -8.3438768956648581e-10 2.139392262875923e-05 1.2440322111346475e-10 -2.9153296300019568e-05 2.4286781129356094e-05 -3.0335703528147412e-11 -2.0414601378496888e-05 2.5495804771300726e-05 1.9832890120313297e-10 -1.732879614482088e-05 3.1251476087192838e-05 1.9994879500754342e-10 -2.9126281191600246e-05 3.1251449275496502e-05 1.0684785660127216e-10 -1.4904274575747908e-05 3.1251479812828388e-05 5.0662858403137333e-11 -3.0419555783723702e-05 2.5495804771300726e-05 1.9832890120313297e-10 -1.732879614482088e-05 2.2727086753133673e-05 8.5860689392881767e-11 -8.3438768956648581e-10 2.1038870676105789e-05 -8.2989989800916225e-12 -1.0244490023009112e-09 2.6311303372097482e-05 4.1933344628383671e-11 -1.1625080636256079e-09 2.4286781129356094e-05 -3.0335703528147425e-11 -2.0414601378496885e-05 2.6311303372097482e-05 4.1933344628383671e-11 -1.1625080636248609e-09 3.1251449275496502e-05 1.0684785660127213e-10 -1.4904274575747908e-05 2.6618148361600645e-05 1.4088288417957889e-10 -1.015729894450444e-09 2.4286781129356094e-05 -3.0335703528147425e-11 -2.0414601378496885e-05 2.2727086753133673e-05 8.5860689392881767e-11 -8.3438768956648581e-10 2.6311303372097482e-05 4.1933344628383671e-11 -1.1625080636249873e-09 2.6618148361600645e-05 1.4088288417957889e-10 -1.0157298944500705e-09 2.4286781129356094e-05 -3.0335703528147425e-11 -2.0414601378496885e-05 2.2045765348470939e-05 1.6563338356898693e-10 -1.2740130540073604e-09 2.2727086753133673e-05 8.5860689392881767e-11 -8.3438768956648581e-10 2.6618148361600645e-05 1.4088288417957889e-10 -1.0157298944513239e-09 2.5495804771300726e-05 1.9832890120313297e-10 -1.7328796144820884e-05 3.1251449275496502e-05 1.0684785660127216e-10 -1.4904274575747908e-05 2.6618148361600645e-05 1.4088288417957889e-10 -1.0157298944487532e-09 3.1251397232101023e-05 1.7353454260354506e-10 -1.1794331025575152e-09 3.125127245761184e-05 9.2239291716224448e-11 -1.3148121923542255e-09 3.1251449275496502e-05 1.0684785660127216e-10 -1.4904274575747908e-05 2.5495804771300722e-05 1.9832890120313295e-10 -1.732879614482088e-05 3.1251397232101023e-05 1.7353454260354506e-10 -1.1794331025573619e-09 2.6618148361600645e-05 1.4088288417957889e-10 -1.0157298944529846e-09 2.6311303372097482e-05 4.1933344628383671e-11 -1.1625080636248609e-09 2.6618148361600645e-05 1.4088288417957889e-10 -1.015729894450444e-09 3.1251449275496502e-05 1.0684785660127216e-10 -1.4904274575747908e-05 3.125127245761184e-05 9.2239291716224448e-11 -1.3148121923542255e-09 3.125127245761184e-05 9.2239291716224448e-11 -1.3148121923542255e-09 3.1251449275496502e-05 1.0684785660127216e-10 -1.4904274575747908e-05 2.6311303372097482e-05 4.1933344628383671e-11 -1.1625080636248609e-09 3.1251411841761943e-05 -2.6415796880196616e-11 -1.6150611047679872e-05 3.1251231506353289e-05 -2.6859423947233911e-11 -1.5970057342516546e-09 3.125127245761184e-05 9.2239291716224448e-11 -1.3148121923542255e-09 2.6311303372097482e-05 4.1933344628383671e-11 -1.1625080636248609e-09 3.1251411841761943e-05 -2.6415796880196616e-11 -1.6150611047679872e-05 2.5263797819365607e-05 -1.2706469718856659e-10 -1.4003595680185127e-09 2.6676051049183198e-05 -1.6900332105032459e-10 -9.8942912722786611e-10 3.1251436215755042e-05 -8.4118970581330465e-11 -1.5872784347337655e-05 2.1494243548660505e-05 -1.2463509275334449e-10 -2.9407132359758399e-05 2.5263797819365607e-05 -1.2706469718856659e-10 -1.4003595680185127e-09 3.1251231506353282e-05 -2.685942394723395e-11 -1.5970057342561038e-09 2.6311303372097482e-05 4.1933344628383652e-11 -1.1625080636257146e-09 3.1251411841761943e-05 -2.6415796880196616e-11 -1.6150611047679872e-05 3.1251231506353289e-05 -2.6859423947233911e-11 -1.5970057342516546e-09 2.5263797819365607e-05 -1.2706469718856659e-10 -1.4003595680185127e-09 3.1251436215755042e-05 -8.411897058133044e-11 -1.5872784347337655e-05 3.1251411841761943e-05 -2.6415796880196616e-11 -1.6150611047679872e-05 2.5263797819365607e-05 -1.2706469718856659e-10 -1.4003595680185127e-09 2.1494243548660509e-05 -1.2463509275334456e-10 -2.9407132359758399e-05 3.1251436215755042e-05 -8.4118970581330453e-11 -1.5872784347337652e-05 2.4286781129356097e-05 -3.0335703528147399e-11 -2.0414601378496881e-05 2.6311303372097482e-05 4.1933344628383671e-11 -1.1625080636248609e-09 2.1038870676105789e-05 -8.2989989800916177e-12 -1.0244490023014133e-09 2.5263797819365607e-05 -1.2706469718856659e-10 -1.4003595680185127e-09 2.4286781129356094e-05 -3.0335703528147425e-11 -2.0414601378496885e-05 2.6311303372097482e-05 4.1933344628383671e-11 -1.1625080636248609e-09 2.5263797819365607e-05 -1.2706469718856659e-10 -1.4003595680185127e-09 3.125141184176195e-05 -2.6415796880196629e-11 -1.6150611047679872e-05 2.4286781129356094e-05 -3.0335703528147425e-11 -2.0414601378496885e-05 2.5263797819365607e-05 -1.2706469718856659e-10 -1.4003595680185127e-09 3.1251436215755042e-05 -8.4118970581330427e-11 -1.5872784347337648e-05 3.1251411841761943e-05 -2.6415796880196616e-11 -1.6150611047679872e-05 2.4286781129356094e-05 -3.0335703528147425e-11 -2.0414601378496885e-05 3.1251436215755042e-05 -8.411897058133044e-11 -1.5872784347337655e-05 3.1251478303020999e-05 -8.6782535564508807e-11 -3.0868347107320232e-05 3.1251411841761943e-05 -2.6415796880196619e-11 -1.6150611047679875e-05 2.4286781129356094e-05 -3.0335703528147431e-11 -2.0414601378496888e-05 3.1251436215755042e-05 -8.411897058133044e-11 -1.5872784347337655e-05 2.5263797819365611e-05 -1.2706469718856659e-10 -1.4003595680187187e-09 3.1251231506353289e-05 -2.6859423947233911e-11 -1.5970057342516546e-09 3.1251273324887987e-05 -2.1227904311140674e-10 -1.3635388483333254e-09 3.1251436215755042e-05 -8.411897058133044e-11 -1.5872784347337655e-05 2.5263797819365611e-05 -1.2706469718856659e-10 -1.4003595680228295e-09 3.1251273324887987e-05 -2.1227904311140674e-10 -1.3635388483333254e-09 2.6676051049183198e-05 -1.6900332105032459e-10 -9.8942912722786611e-10 3.1251273324887987e-05 -2.1227904311140674e-10 -1.3635388483333254e-09 3.1251494871835232e-05 -1.7850285432284103e-10 -1.3727033373902176e-05 3.1251436215755042e-05 -8.411897058133044e-11 -1.5872784347337655e-05 2.6676051049183198e-05 -1.6900332105032459e-10 -9.8942912722786611e-10 2.5956945162204091e-05 -3.0335662462687091e-10 -2.8143157583302599e-05 2.6676084359419898e-05 -2.2887643688780287e-10 -1.3726959163267676e-05 2.1436282205713021e-05 -3.6629257878928469e-10 -1.6171697598220046e-05 2.1494243548660509e-05 -1.2463509275334454e-10 -2.9407132359758399e-05 2.5263797819365607e-05 -1.2706469718856659e-10 -1.4003595680185127e-09 2.1682804823761286e-05 -2.2385984471231731e-10 -1.1986850090311949e-09 2.6676051049183198e-05 -1.6900332105032459e-10 -9.8942912722786611e-10 2.1494243548660509e-05 -1.2463509275334451e-10 -2.9407132359758395e-05 3.1251473864269041e-05 -1.7655131336864299e-10 -2.9635986529990982e-05 3.1251436215755042e-05 -8.411897058133044e-11 -1.5872784347337655e-05 3.1251494871835232e-05 -1.7850285432284103e-10 -1.3727033373902176e-05 2.1494243548660509e-05 -1.2463509275334451e-10 -2.9407132359758399e-05 3.1251494871835232e-05 -1.7850285432284103e-10 -1.3727033373902176e-05 3.1251436215755042e-05 -8.411897058133044e-11 -1.5872784347337655e-05 2.6676051049183201e-05 -1.6900332105032462e-10 -9.894291272297587e-10 2.1494243548660512e-05 -1.2463509275334446e-10 -2.9407132359758392e-05 3.1251494871835232e-05 -1.7850285432284103e-10 -1.3727033373902176e-05 2.6676084359419898e-05 -2.2887643688780292e-10 -1.372695916326768e-05 2.5956945162204087e-05 -3.0335662462687086e-10 -2.8143157583302593e-05 2.1494243548660512e-05 -1.2463509275334464e-10 -2.9407132359758409e-05 3.1251494871835232e-05 -1.7850285432284103e-10 -1.3727033373902176e-05 2.6676051049183198e-05 -1.6900332105032459e-10 -9.894291272282553e-10 2.6676084359419898e-05 -2.2887643688780287e-10 -1.3726959163267676e-05 2.1494243548660512e-05 -1.2463509275334454e-10 -2.9407132359758392e-05 2.1682804823761286e-05 -2.2385984471231731e-10 -1.1986850090317134e-09 2.6676084359419898e-05 -2.2887643688780287e-10 -1.3726959163267678e-05 2.6676051049183198e-05 -1.6900332105032459e-10 -9.8942912722786611e-10 2.1494243548660509e-05 -1.2463509275334451e-10 -2.9407132359758399e-05 2.6676084359419898e-05 -2.2887643688780287e-10 -1.3726959163267676e-05 2.5956945162204091e-05 -3.0335662462687091e-10 -2.8143157583302599e-05 3.1251401540095122e-05 -3.0911154913964956e-10 -1.8751027892327137e-05 3.1251494871835232e-05 -1.7850285432284103e-10 -1.3727033373902176e-05 2.5956945162204091e-05 -3.0335662462687091e-10 -2.8143157583302599e-05 3.1251473864269041e-05 -1.7655131336864299e-10 -2.9635986529990982e-05 3.1251401540095122e-05 -3.0911154913964956e-10 -1.8751027892327137e-05 3.1251494871835232e-05 -1.7850285432284103e-10 -1.3727033373902176e-05 2.6676051049183198e-05 -1.6900332105032459e-10 -9.8942912722786611e-10 3.1251296604170494e-05 -3.3872100562498306e-10 -1.3015624851926378e-09 2.6676084359419898e-05 -2.2887643688780287e-10 -1.3726959163267676e-05 2.5001399592848712e-05 -3.1831081750431213e-10 -1.2118700338010053e-09 2.6676084359419898e-05 -2.2887643688780287e-10 -1.3726959163267676e-05 3.1251401540095122e-05 -3.0911154913964956e-10 -1.8751027892327137e-05 3.1251296604170487e-05 -3.3872100562498301e-10 -1.3015624851912996e-09 3.1251494871835232e-05 -1.7850285432284103e-10 -1.3727033373902176e-05 3.1251296604170494e-05 -3.3872100562498306e-10 -1.3015624851926378e-09 3.1251494871835232e-05 -1.7850285432284103e-10 -1.3727033373902176e-05 3.1251273324887981e-05 -2.1227904311140671e-10 -1.3635388483322145e-09 2.6676051049183198e-05 -1.6900332105032459e-10 -9.8942912722786611e-10 3.1251494871835232e-05 -1.7850285432284103e-10 -1.3727033373902176e-05 3.1251296604170487e-05 -3.3872100562498301e-10 -1.3015624851915269e-09 2.6676084359419898e-05 -2.2887643688780287e-10 -1.3726959163267676e-05 2.6676051049183198e-05 -1.6900332105032459e-10 -9.8942912722786611e-10 2.1436282205713021e-05 -3.6629257878928469e-10 -1.6171697598220046e-05 2.1682804823761286e-05 -2.2385984471231731e-10 -1.1986850090317134e-09 2.6676084359419898e-05 -2.2887643688780295e-10 -1.3726959163267675e-05 2.5001399592848712e-05 -3.1831081750431213e-10 -1.2118700338010053e-09 2.6676051049183198e-05 -1.6900332105032459e-10 -9.8942912722786611e-10 2.6676084359419898e-05 -2.2887643688780287e-10 -1.3726959163267676e-05 2.1682804823761286e-05 -2.2385984471231731e-10 -1.1986850090322688e-09 2.5001399592848712e-05 -3.1831081750431213e-10 -1.2118700338010053e-09 2.1436282205713021e-05 -3.6629257878928469e-10 -1.6171697598220046e-05 2.1494243548660512e-05 -1.2463509275334449e-10 -2.9407132359758406e-05 2.1682804823761282e-05 -2.2385984471231731e-10 -1.1986850090295064e-09 1.5638472074161119e-05 -2.1739648929442887e-10 -2.1173537326265203e-05 2.1436282205713021e-05 -3.6629257878928469e-10 -1.6171697598220046e-05 2.6676084359419898e-05 -2.2887643688780287e-10 -1.3726959163267676e-05 2.1682804823761286e-05 -2.2385984471231731e-10 -1.1986850090312756e-09 2.1494243548660505e-05 -1.2463509275334443e-10 -2.9407132359758402e-05 2.1682804823761286e-05 -2.2385984471231731e-10 -1.1986850090317134e-09 2.1436282205713021e-05 -3.6629257878928469e-10 -1.6171697598220043e-05 1.8751136013463059e-05 -2.9955348163795814e-10 -1.3680769373137602e-09 2.5001399592848712e-05 -3.1831081750431213e-10 -1.2118700338010053e-09 1.5435874170417731e-05 -3.0158246289135907e-10 -1.2411423166219332e-05 1.2500770631694511e-05 -3.2551865487249185e-10 -1.6298312782192694e-09 1.5928102293019623e-05 -1.9230759909025034e-10 -1.1798406967463162e-09 1.8751136013463059e-05 -2.9955348163795814e-10 -1.3680769373137602e-09 1.5928102293019623e-05 -1.9230759909025034e-10 -1.1798406967463162e-09 2.1682804823761286e-05 -2.2385984471231731e-10 -1.1986850090317134e-09 2.1436282205713021e-05 -3.6629257878928469e-10 -1.6171697598220046e-05 1.8751136013463059e-05 -2.9955348163795814e-10 -1.3680769373137602e-09 2.1436282205713021e-05 -3.6629257878928469e-10 -1.6171697598220046e-05 1.5435874170417731e-05 -3.0158246289135907e-10 -1.2411423166219332e-05 1.5928102293019623e-05 -1.9230759909025034e-10 -1.1798406967463162e-09 1.8751136013463059e-05 -2.9955348163795814e-10 -1.3680769373137602e-09 1.4903524049732077e-05 -3.6922275844051115e-10 -2.9758047374277382e-05 2.1436282205713021e-05 -3.6629257878928469e-10 -1.6171697598220046e-05 1.5435874170417731e-05 -3.0158246289135907e-10 -1.2411423166219332e-05 1.5638472074161122e-05 -2.1739648929442879e-10 -2.1173537326265207e-05 1.5435874170417731e-05 -3.0158246289135907e-10 -1.2411423166219332e-05 2.1436282205713021e-05 -3.6629257878928469e-10 -1.6171697598220046e-05 1.5928102293019623e-05 -1.9230759909025034e-10 -1.1798406967463162e-09 1.5638472074161122e-05 -2.1739648929442879e-10 -2.1173537326265207e-05 1.5928102293019623e-05 -1.9230759909025034e-10 -1.1798406967463162e-09 2.1436282205713024e-05 -3.6629257878928474e-10 -1.6171697598220043e-05 2.1682804823761286e-05 -2.2385984471231731e-10 -1.1986850090317134e-09 1.5638472074161122e-05 -2.1739648929442876e-10 -2.1173537326265207e-05 1.9078313107114552e-05 -1.102902500074081e-10 -1.1190267729512159e-09 1.5928102293019623e-05 -1.9230759909025034e-10 -1.1798406967463162e-09 2.1682804823761286e-05 -2.2385984471231731e-10 -1.1986850090317134e-09 1.5638472074161122e-05 -2.1739648929442879e-10 -2.1173537326265207e-05 1.9078313107114552e-05 -1.102902500074081e-10 -1.1190267729512159e-09 2.1494243548660505e-05 -1.2463509275334449e-10 -2.9407132359758395e-05 2.5263797819365607e-05 -1.2706469718856659e-10 -1.4003595680185127e-09 2.4286781129356094e-05 -3.0335703528147425e-11 -2.0414601378496885e-05 1.9078313107114552e-05 -1.102902500074081e-10 -1.1190267729512159e-09 2.1682804823761286e-05 -2.2385984471231731e-10 -1.1986850090317134e-09 2.1494243548660509e-05 -1.2463509275334454e-10 -2.9407132359758395e-05 1.5638472074161122e-05 -2.1739648929442879e-10 -2.1173537326265207e-05 2.5263797819365607e-05 -1.2706469718856659e-10 -1.4003595680185127e-09 1.9078313107114552e-05 -1.102902500074081e-10 -1.119026772952253e-09 2.1682804823761286e-05 -2.2385984471231731e-10 -1.1986850090317134e-09 2.1494243548660509e-05 -1.2463509275334449e-10 -2.9407132359758395e-05 1.9078313107114552e-05 -1.102902500074081e-10 -1.1190267729512159e-09 1.4317220832694687e-05 -1.1877050831415157e-10 -1.0177437396673764e-09 1.5928102293019623e-05 -1.9230759909025034e-10 -1.1798406967455962e-09 1.5638472074161122e-05 -2.1739648929442879e-10 -2.1173537326265207e-05 1.4317220832694687e-05 -1.1877050831415157e-10 -1.0177437396673764e-09 1.9078313107114552e-05 -1.102902500074081e-10 -1.1190267729512159e-09 1.563859584053514e-05 -2.0842065621694223e-11 -2.3403715355258556e-05 1.5638472074161122e-05 -2.1739648929442879e-10 -2.1173537326265207e-05 2.4286781129356094e-05 -3.0335703528147425e-11 -2.0414601378496885e-05 1.9078313107114552e-05 -1.102902500074081e-10 -1.1190267729520476e-09 1.5638595840535137e-05 -2.0842065621694213e-11 -2.3403715355258556e-05 2.1038870676105789e-05 -8.2989989800916257e-12 -1.0244490023014326e-09 2.1494243548660509e-05 -1.2463509275334451e-10 -2.9407132359758399e-05 1.563859584053514e-05 -2.0842065621694223e-11 -2.3403715355258556e-05 1.9078313107114549e-05 -1.102902500074081e-10 -1.1190267729529515e-09 1.5638472074161126e-05 -2.1739648929442874e-10 -2.1173537326265203e-05 2.4286781129356094e-05 -3.0335703528147425e-11 -2.0414601378496885e-05 1.563859584053514e-05 -2.0842065621694223e-11 -2.3403715355258556e-05 1.9078313107114552e-05 -1.1029025000740809e-10 -1.1190267729503658e-09 2.1494243548660509e-05 -1.2463509275334451e-10 -2.9407132359758399e-05 1.6239023559649787e-05 2.3597046534813304e-11 -1.3010143685195271e-09 1.9078313107114552e-05 -1.102902500074081e-10 -1.119026772951053e-09 2.1038870676105789e-05 -8.2989989800916257e-12 -1.0244490023015955e-09 1.563859584053514e-05 -2.0842065621694223e-11 -2.3403715355258556e-05 1.4317220832694687e-05 -1.1877050831415157e-10 -1.0177437396673764e-09 1.9078313107114552e-05 -1.102902500074081e-10 -1.1190267729512159e-09 1.6239023559649787e-05 2.3597046534813304e-11 -1.3010143685195271e-09 1.563859584053514e-05 -2.0842065621694223e-11 -2.3403715355258556e-05 1.9078313107114552e-05 -1.102902500074081e-10 -1.1190267729512159e-09 2.5263797819365607e-05 -1.2706469718856659e-10 -1.4003595680185127e-09 2.1038870676105792e-05 -8.2989989800916419e-12 -1.024449002303246e-09 2.4286781129356094e-05 -3.0335703528147425e-11 -2.0414601378496885e-05 2.1494243548660509e-05 -1.2463509275334451e-10 -2.9407132359758399e-05 2.3452940044532584e-05 1.651587838592676e-11 -4.6722419229397336e-05 1.562600746976112e-05 -1.7947185033264634e-12 -4.6875390101611998e-05 1.564901578186418e-05 -1.6228295607618595e-10 -4.9581559587152601e-05 2.3452940044532584e-05 1.6515878385926766e-11 -4.6722419229397336e-05 1.564901578186418e-05 -1.6228295607618598e-10 -4.9581559587152601e-05 2.1494243548660505e-05 -1.2463509275334451e-10 -2.9407132359758395e-05 2.4368225413801741e-05 -1.7404017708319402e-10 -4.6889308791873471e-05 1.562600746976112e-05 -1.794718503326462e-12 -4.6875390101611998e-05 2.3452940044532584e-05 1.6515878385926766e-11 -4.6722419229397336e-05 2.1494243548660505e-05 -1.2463509275334443e-10 -2.9407132359758395e-05 1.5638595840535137e-05 -2.0842065621694194e-11 -2.3403715355258546e-05 2.1494243548660509e-05 -1.2463509275334451e-10 -2.9407132359758399e-05 1.5638595840535137e-05 -2.0842065621694226e-11 -2.3403715355258556e-05 2.3452940044532584e-05 1.6515878385926766e-11 -4.6722419229397336e-05 2.4286781129356094e-05 -3.0335703528147425e-11 -2.0414601378496885e-05 1.564901578186418e-05 -1.6228295607618598e-10 -4.9581559587152601e-05 1.5638595840535133e-05 -2.0842065621694236e-11 -2.3403715355258559e-05 2.1494243548660505e-05 -1.2463509275334451e-10 -2.9407132359758399e-05 1.5638472074161122e-05 -2.1739648929442887e-10 -2.117353732626521e-05 1.562600746976112e-05 -1.794718503326462e-12 -4.6875390101611998e-05 2.1494243548660505e-05 -1.2463509275334451e-10 -2.9407132359758399e-05 1.564901578186418e-05 -1.6228295607618598e-10 -4.9581559587152601e-05 1.5638595840535137e-05 -2.0842065621694233e-11 -2.3403715355258549e-05 2.5956945162204091e-05 -3.0335662462687091e-10 -2.8143157583302599e-05 2.1494243548660509e-05 -1.2463509275334451e-10 -2.9407132359758399e-05 2.0892595557638249e-05 -3.3361667974360377e-10 -3.6124899420955623e-05 2.4368225413801741e-05 -1.7404017708319402e-10 -4.6889308791873478e-05 2.1436282205713021e-05 -3.6629257878928469e-10 -1.6171697598220046e-05 2.0892595557638249e-05 -3.3361667974360377e-10 -3.6124899420955623e-05 2.5956945162204091e-05 -3.0335662462687091e-10 -2.8143157583302599e-05 2.1494243548660509e-05 -1.2463509275334451e-10 -2.9407132359758399e-05 2.0892595557638249e-05 -3.3361667974360377e-10 -3.6124899420955623e-05 1.4903524049732077e-05 -3.6922275844051115e-10 -2.9758047374277382e-05 1.5649015781864184e-05 -1.6228295607618603e-10 -4.9581559587152594e-05 1.5638472074161122e-05 -2.1739648929442882e-10 -2.1173537326265214e-05 2.1554361867230233e-05 -2.566525613133381e-10 -5.0794053886511689e-05 2.0892595557638249e-05 -3.3361667974360377e-10 -3.6124899420955623e-05 1.564901578186418e-05 -1.62282956076186e-10 -4.9581559587152601e-05 2.4368225413801741e-05 -1.7404017708319402e-10 -4.6889308791873478e-05 2.1436282205713021e-05 -3.6629257878928469e-10 -1.6171697598220046e-05 2.0892595557638249e-05 -3.3361667974360377e-10 -3.6124899420955623e-05 2.1494243548660509e-05 -1.2463509275334451e-10 -2.9407132359758402e-05 1.5638472074161119e-05 -2.1739648929442884e-10 -2.1173537326265207e-05 2.0892595557638249e-05 -3.3361667974360377e-10 -3.6124899420955623e-05 1.5649015781864177e-05 -1.6228295607618598e-10 -4.9581559587152594e-05 2.1494243548660515e-05 -1.2463509275334449e-10 -2.9407132359758399e-05 1.5638472074161122e-05 -2.1739648929442876e-10 -2.1173537326265214e-05 2.1494243548660509e-05 -1.2463509275334451e-10 -2.9407132359758399e-05 1.564901578186418e-05 -1.6228295607618598e-10 -4.9581559587152594e-05 2.0892595557638249e-05 -3.3361667974360377e-10 -3.6124899420955623e-05 2.4368225413801741e-05 -1.7404017708319402e-10 -4.6889308791873478e-05 2.1436282205713021e-05 -3.6629257878928469e-10 -1.6171697598220046e-05 1.4903524049732077e-05 -3.6922275844051115e-10 -2.9758047374277382e-05 2.0892595557638249e-05 -3.3361667974360377e-10 -3.6124899420955623e-05 1.5638472074161126e-05 -2.1739648929442882e-10 -2.1173537326265207e-05 1.5625990340109727e-05 -3.1909607908090827e-10 -4.5036512895558558e-05 2.0892595557638249e-05 -3.3361667974360377e-10 -3.6124899420955623e-05 1.4903524049732077e-05 -3.6922275844051115e-10 -2.9758047374277382e-05 1.564901578186418e-05 -1.6228295607618598e-10 -4.9581559587152601e-05 1.5625990340109727e-05 -3.1909607908090827e-10 -4.5036512895558558e-05 2.1554361867230233e-05 -2.566525613133381e-10 -5.0794053886511689e-05 2.0892595557638249e-05 -3.3361667974360377e-10 -3.6124899420955623e-05 1.564901578186418e-05 -1.6228295607618598e-10 -4.9581559587152601e-05 2.0892595557638249e-05 -3.3361667974360377e-10 -3.6124899420955623e-05 2.1554361867230229e-05 -2.566525613133381e-10 -5.0794053886511689e-05 2.6106136545803717e-05 -3.0294262507298659e-10 -4.5966262832317793e-05 2.4368225413801741e-05 -1.7404017708319402e-10 -4.6889308791873478e-05 3.1251473864269041e-05 -1.7655131336864299e-10 -2.9635986529990982e-05 2.1494243548660509e-05 -1.2463509275334451e-10 -2.9407132359758399e-05 2.5956945162204091e-05 -3.0335662462687091e-10 -2.8143157583302596e-05 2.4368225413801741e-05 -1.7404017708319399e-10 -4.6889308791873478e-05 3.1251473864269041e-05 -1.7655131336864299e-10 -2.9635986529990982e-05 3.1251494871835232e-05 -1.7850285432284103e-10 -1.3727033373902176e-05 2.5956945162204091e-05 -3.0335662462687091e-10 -2.8143157583302599e-05 2.1494243548660509e-05 -1.2463509275334451e-10 -2.9407132359758399e-05 2.6106136545803717e-05 -3.0294262507298659e-10 -4.5966262832317793e-05 2.5956945162204091e-05 -3.0335662462687091e-10 -2.8143157583302599e-05 2.0892595557638249e-05 -3.3361667974360377e-10 -3.6124899420955623e-05 2.4368225413801738e-05 -1.7404017708319399e-10 -4.6889308791873471e-05 2.6106136545803717e-05 -3.0294262507298659e-10 -4.5966262832317793e-05 3.1251473864269041e-05 -1.7655131336864297e-10 -2.9635986529990982e-05 2.5956945162204091e-05 -3.0335662462687091e-10 -2.8143157583302599e-05 2.4368225413801744e-05 -1.7404017708319405e-10 -4.6889308791873484e-05 2.5956945162204091e-05 -3.0335662462687091e-10 -2.8143157583302599e-05 2.6106136545803717e-05 -3.0294262507298649e-10 -4.59662628323178e-05 3.1251407349560288e-05 -3.6346284727975445e-10 -3.7500839322250112e-05 3.1251473864269041e-05 -1.7655131336864299e-10 -2.9635986529990982e-05 2.6106136545803717e-05 -3.0294262507298659e-10 -4.5966262832317793e-05 3.1251502132743469e-05 -2.3467056794985491e-10 -4.7782122664504697e-05 3.1251485165976617e-05 -4.0353736948795928e-10 -5.625068074967651e-05 3.1251407349560288e-05 -3.634628472797544e-10 -3.7500839322250112e-05 3.1251407349560288e-05 -3.634628472797544e-10 -3.7500839322250112e-05 2.6106136545803717e-05 -3.0294262507298659e-10 -4.5966262832317793e-05 3.1251502132743483e-05 -2.3467056794985491e-10 -4.7782122664504704e-05 3.1251473864269041e-05 -1.7655131336864299e-10 -2.9635986529990982e-05 3.1251473864269041e-05 -1.7655131336864299e-10 -2.9635986529990982e-05 3.1251407349560282e-05 -3.6346284727975434e-10 -3.7500839322250112e-05 2.5956945162204091e-05 -3.0335662462687091e-10 -2.8143157583302599e-05 3.1251401540095122e-05 -3.0911154913964956e-10 -1.8751027892327137e-05 3.1251516522251541e-05 -1.2720085733055973e-10 -4.2949857664635999e-05 3.1251473864269041e-05 -1.7655131336864299e-10 -2.9635986529990982e-05 3.1251502132743476e-05 -2.3467056794985496e-10 -4.7782122664504697e-05 2.4368225413801741e-05 -1.7404017708319402e-10 -4.6889308791873478e-05 2.6106136545803717e-05 -3.0294262507298659e-10 -4.5966262832317793e-05 3.1251502132743476e-05 -2.3467056794985501e-10 -4.7782122664504704e-05 3.1251473864269034e-05 -1.7655131336864297e-10 -2.9635986529990982e-05 2.4368225413801738e-05 -1.7404017708319402e-10 -4.6889308791873464e-05 3.1251478303020999e-05 -8.6782535564508807e-11 -3.0868347107320232e-05 2.1494243548660509e-05 -1.2463509275334454e-10 -2.9407132359758402e-05 2.3452940044532584e-05 1.6515878385926724e-11 -4.6722419229397322e-05 2.4286781129356094e-05 -3.0335703528147425e-11 -2.0414601378496885e-05 3.1251478303020999e-05 -8.6782535564508807e-11 -3.0868347107320232e-05 3.1251473864269041e-05 -1.7655131336864299e-10 -2.9635986529990982e-05 3.1251516522251541e-05 -1.2720085733055973e-10 -4.2949857664635999e-05 2.1494243548660509e-05 -1.2463509275334451e-10 -2.9407132359758399e-05 3.1251516522251541e-05 -1.2720085733055973e-10 -4.2949857664635999e-05 2.3452940044532584e-05 1.6515878385926766e-11 -4.6722419229397349e-05 2.1494243548660505e-05 -1.2463509275334449e-10 -2.9407132359758395e-05 2.4368225413801738e-05 -1.7404017708319397e-10 -4.6889308791873484e-05 3.1251436215755042e-05 -8.411897058133044e-11 -1.5872784347337655e-05 3.1251473864269041e-05 -1.7655131336864299e-10 -2.9635986529990979e-05 3.1251478303020999e-05 -8.6782535564508807e-11 -3.0868347107320232e-05 2.1494243548660509e-05 -1.2463509275334451e-10 -2.9407132359758399e-05 3.1251516522251541e-05 -1.2720085733055973e-10 -4.2949857664635999e-05 2.1494243548660509e-05 -1.2463509275334451e-10 -2.9407132359758395e-05 3.1251473864269041e-05 -1.7655131336864299e-10 -2.9635986529990982e-05 2.4368225413801748e-05 -1.7404017708319405e-10 -4.6889308791873491e-05 3.1251436215755042e-05 -8.411897058133044e-11 -1.5872784347337655e-05 2.1494243548660509e-05 -1.2463509275334451e-10 -2.9407132359758395e-05 3.1251478303020999e-05 -8.6782535564508807e-11 -3.0868347107320232e-05 2.4286781129356091e-05 -3.0335703528147386e-11 -2.0414601378496881e-05 3.1251478303020999e-05 -8.6782535564508807e-11 -3.0868347107320232e-05 2.1494243548660509e-05 -1.2463509275334451e-10 -2.9407132359758399e-05 3.1251516522251541e-05 -1.2720085733055973e-10 -4.2949857664635999e-05 2.3452940044532588e-05 1.6515878385926698e-11 -4.6722419229397336e-05 3.1251479812828388e-05 5.0662858403137333e-11 -3.0419555783723702e-05 3.1251411841761943e-05 -2.6415796880196616e-11 -1.6150611047679872e-05 3.1251478303020999e-05 -8.6782535564508807e-11 -3.0868347107320232e-05 2.4286781129356094e-05 -3.0335703528147425e-11 -2.0414601378496885e-05 3.1251478303020999e-05 -8.6782535564508807e-11 -3.0868347107320232e-05 3.1251516522251541e-05 -1.2720085733055973e-10 -4.2949857664635999e-05 3.1251471331972877e-05 -1.2253624190039084e-12 -4.871465933686723e-05 2.3452940044532588e-05 1.6515878385926773e-11 -4.6722419229397336e-05 3.1251583719883948e-05 -1.1284234114619782e-10 -5.6206013646209796e-05 2.3452940044532584e-05 1.6515878385926766e-11 -4.6722419229397336e-05 2.148352060089735e-05 -1.2496515953965156e-10 -6.4446611094535691e-05 2.438258918223497e-05 -6.1522688868599675e-12 -7.314323946128831e-05 3.1251583719883948e-05 -1.1284234114619782e-10 -5.6206013646209796e-05 3.1251673316114828e-05 -7.8389754554690853e-11 -6.8179555164359334e-05 2.148352060089735e-05 -1.2496515953965161e-10 -6.4446611094535705e-05 2.5501533641350078e-05 -1.6657575407356606e-10 -7.6499898205931182e-05 3.1251583719883948e-05 -1.1284234114619782e-10 -5.6206013646209796e-05 3.1251584769381405e-05 2.1393815027710998e-11 -6.3113596784848431e-05 3.1251471331972877e-05 -1.2253624190039084e-12 -4.871465933686723e-05 2.3452940044532584e-05 1.6515878385926766e-11 -4.6722419229397336e-05 3.1251583719883948e-05 -1.1284234114619782e-10 -5.6206013646209796e-05 2.3452940044532584e-05 1.6515878385926766e-11 -4.6722419229397336e-05 3.1251516522251541e-05 -1.2720085733055973e-10 -4.2949857664635999e-05 2.4368225413801738e-05 -1.7404017708319399e-10 -4.6889308791873478e-05 2.148352060089735e-05 -1.2496515953965156e-10 -6.4446611094535691e-05 2.4368225413801738e-05 -1.7404017708319399e-10 -4.6889308791873478e-05 3.1251583719883948e-05 -1.1284234114619781e-10 -5.6206013646209796e-05 2.5501533641350078e-05 -1.6657575407356603e-10 -7.6499898205931182e-05 3.1251583719883948e-05 -1.1284234114619782e-10 -5.6206013646209796e-05 2.148352060089735e-05 -1.2496515953965156e-10 -6.4446611094535691e-05 2.3452940044532584e-05 1.6515878385926744e-11 -4.6722419229397336e-05 2.4368225413801738e-05 -1.7404017708319399e-10 -4.6889308791873471e-05 3.1251584769381405e-05 2.1393815027710998e-11 -6.3113596784848431e-05 2.3452940044532581e-05 1.651587838592676e-11 -4.6722419229397336e-05 3.1251583719883948e-05 -1.1284234114619782e-10 -5.6206013646209796e-05 2.4382589182234967e-05 -6.1522688868599659e-12 -7.314323946128831e-05 3.1251673316114828e-05 -7.8389754554690853e-11 -6.8179555164359334e-05 3.1251583719883948e-05 -1.1284234114619782e-10 -5.6206013646209796e-05 2.1483520600897346e-05 -1.2496515953965161e-10 -6.4446611094535691e-05 2.438258918223497e-05 -6.1522688868598835e-12 -7.3143239461288296e-05 3.1251583719883948e-05 -1.1284234114619782e-10 -5.6206013646209796e-05 3.1251471331972877e-05 -1.2253624190039084e-12 -4.871465933686723e-05 3.1251516522251541e-05 -1.2720085733055973e-10 -4.2949857664635999e-05 2.3452940044532584e-05 1.6515878385926766e-11 -4.6722419229397336e-05 3.1251673316114828e-05 -7.8389754554690853e-11 -6.8179555164359334e-05 3.1251584769381405e-05 2.1393815027710998e-11 -6.3113596784848431e-05 3.1251583719883948e-05 -1.1284234114619782e-10 -5.6206013646209796e-05 2.438258918223497e-05 -6.1522688868599675e-12 -7.314323946128831e-05 3.1251583719883948e-05 -1.1284234114619782e-10 -5.6206013646209796e-05 3.1251638921873487e-05 -2.0481797627851036e-10 -6.6155967756111568e-05 3.1251673316114828e-05 -7.8389754554690853e-11 -6.8179555164359334e-05 2.5501533641350078e-05 -1.6657575407356603e-10 -7.6499898205931182e-05 3.1251583719883948e-05 -1.1284234114619782e-10 -5.6206013646209796e-05 3.1251516522251541e-05 -1.2720085733055973e-10 -4.2949857664635999e-05 3.1251502132743476e-05 -2.3467056794985496e-10 -4.7782122664504697e-05 2.4368225413801741e-05 -1.7404017708319402e-10 -4.6889308791873478e-05 3.1251502132743476e-05 -2.3467056794985496e-10 -4.7782122664504697e-05 2.546092994834679e-05 -3.2726856216437799e-10 -6.4608198042964205e-05 3.1251638921873487e-05 -2.0481797627851036e-10 -6.6155967756111568e-05 2.4368225413801741e-05 -1.7404017708319397e-10 -4.6889308791873478e-05 2.5460929948346787e-05 -3.2726856216437799e-10 -6.4608198042964219e-05 2.4368225413801738e-05 -1.7404017708319407e-10 -4.6889308791873471e-05 2.1483520600897353e-05 -1.2496515953965151e-10 -6.4446611094535678e-05 2.5501533641350078e-05 -1.6657575407356603e-10 -7.6499898205931182e-05 2.5460929948346787e-05 -3.2726856216437799e-10 -6.4608198042964219e-05 3.1251638921873487e-05 -2.0481797627851036e-10 -6.6155967756111568e-05 2.4368225413801741e-05 -1.7404017708319405e-10 -4.6889308791873478e-05 2.5501533641350078e-05 -1.6657575407356603e-10 -7.6499898205931182e-05 3.1251638921873487e-05 -2.0481797627851036e-10 -6.6155967756111568e-05 3.1251583719883948e-05 -1.1284234114619782e-10 -5.6206013646209796e-05 2.4368225413801741e-05 -1.7404017708319402e-10 -4.6889308791873478e-05 2.5501533641350078e-05 -1.6657575407356603e-10 -7.6499898205931182e-05 3.1251502132743476e-05 -2.3467056794985496e-10 -4.7782122664504697e-05 3.1251638921873487e-05 -2.0481797627851036e-10 -6.6155967756111568e-05 3.1251583719883948e-05 -1.1284234114619782e-10 -5.6206013646209796e-05 2.4368225413801741e-05 -1.7404017708319402e-10 -4.6889308791873478e-05 3.1251638921873487e-05 -2.0481797627851036e-10 -6.6155967756111568e-05 2.5460929948346787e-05 -3.2726856216437799e-10 -6.4608198042964219e-05 3.1251485165976617e-05 -4.0353736948795928e-10 -5.625068074967651e-05 3.1251664730573492e-05 -3.2956269099778898e-10 -7.5000562711993599e-05 2.5460929948346787e-05 -3.2726856216437799e-10 -6.4608198042964219e-05 3.1251485165976617e-05 -4.0353736948795928e-10 -5.625068074967651e-05 3.1251502132743476e-05 -2.3467056794985496e-10 -4.7782122664504697e-05 3.1251638921873487e-05 -2.0481797627851036e-10 -6.6155967756111568e-05 3.1251502132743476e-05 -2.3467056794985496e-10 -4.7782122664504697e-05 3.125148516597661e-05 -4.0353736948795928e-10 -5.625068074967651e-05 2.5460929948346787e-05 -3.2726856216437799e-10 -6.4608198042964219e-05 2.610613654580371e-05 -3.0294262507298654e-10 -4.5966262832317786e-05 2.5460929948346787e-05 -3.2726856216437799e-10 -6.4608198042964219e-05 2.6106136545803717e-05 -3.0294262507298659e-10 -4.5966262832317793e-05 2.1554361867230233e-05 -2.566525613133381e-10 -5.0794053886511689e-05 2.4368225413801741e-05 -1.7404017708319402e-10 -4.6889308791873478e-05 2.5460929948346787e-05 -3.2726856216437799e-10 -6.4608198042964219e-05 3.1251502132743476e-05 -2.3467056794985496e-10 -4.7782122664504697e-05 2.6106136545803717e-05 -3.0294262507298659e-10 -4.5966262832317793e-05 2.4368225413801741e-05 -1.7404017708319402e-10 -4.6889308791873478e-05 2.1554361867230233e-05 -2.566525613133381e-10 -5.0794053886511689e-05 1.8757564298625961e-05 -3.7000139487554962e-10 -6.3330099726098383e-05 2.148352060089735e-05 -1.2496515953965156e-10 -6.4446611094535691e-05 1.564901578186418e-05 -1.6228295607618598e-10 -4.9581559587152608e-05 1.8757564298625961e-05 -3.7000139487554962e-10 -6.3330099726098383e-05 2.5460929948346787e-05 -3.2726856216437799e-10 -6.4608198042964219e-05 2.1554361867230233e-05 -2.566525613133381e-10 -5.0794053886511689e-05 2.148352060089735e-05 -1.2496515953965156e-10 -6.4446611094535691e-05 2.5460929948346787e-05 -3.2726856216437799e-10 -6.4608198042964219e-05 2.1554361867230233e-05 -2.566525613133381e-10 -5.0794053886511689e-05 2.148352060089735e-05 -1.2496515953965156e-10 -6.4446611094535678e-05 2.4368225413801741e-05 -1.7404017708319399e-10 -4.6889308791873484e-05 2.1703919459109275e-05 -3.0166182197807646e-10 -7.8843809058422068e-05 2.148352060089735e-05 -1.2496515953965156e-10 -6.4446611094535691e-05 1.8757564298625965e-05 -3.7000139487554962e-10 -6.3330099726098383e-05 1.5652599435545565e-05 -1.9420292194329739e-10 -7.3204429471438107e-05 2.148352060089735e-05 -1.2496515953965156e-10 -6.4446611094535691e-05 2.1554361867230233e-05 -2.566525613133381e-10 -5.0794053886511696e-05 1.5649015781864177e-05 -1.6228295607618595e-10 -4.9581559587152594e-05 2.4368225413801741e-05 -1.7404017708319402e-10 -4.6889308791873478e-05 2.148352060089735e-05 -1.2496515953965156e-10 -6.4446611094535691e-05 1.5649015781864177e-05 -1.6228295607618593e-10 -4.9581559587152594e-05 1.8757564298625961e-05 -3.7000139487554962e-10 -6.3330099726098383e-05 1.5652599435545565e-05 -1.9420292194329739e-10 -7.3204429471438107e-05 1.8757564298625961e-05 -3.7000139487554962e-10 -6.3330099726098383e-05 2.5460929948346787e-05 -3.2726856216437799e-10 -6.4608198042964219e-05 2.148352060089735e-05 -1.2496515953965156e-10 -6.4446611094535691e-05 2.5501533641350078e-05 -1.6657575407356603e-10 -7.6499898205931182e-05 2.1554361867230233e-05 -2.566525613133381e-10 -5.0794053886511689e-05 1.5625990340109727e-05 -3.1909607908090827e-10 -4.5036512895558558e-05 1.8757564298625961e-05 -3.7000139487554962e-10 -6.3330099726098383e-05 1.564901578186418e-05 -1.6228295607618606e-10 -4.9581559587152601e-05 1.562600746976112e-05 -1.794718503326462e-12 -4.6875390101611998e-05 2.148352060089735e-05 -1.2496515953965156e-10 -6.4446611094535678e-05 1.5568674751791598e-05 1.520378657466734e-11 -7.0355303123466472e-05 1.564901578186418e-05 -1.6228295607618598e-10 -4.9581559587152601e-05 2.148352060089735e-05 -1.2496515953965156e-10 -6.4446611094535691e-05 1.562600746976112e-05 -1.7947185033264743e-12 -4.6875390101611984e-05 2.3452940044532588e-05 1.651587838592676e-11 -4.6722419229397329e-05 1.5649015781864177e-05 -1.62282956076186e-10 -4.9581559587152574e-05 2.148352060089735e-05 -1.2496515953965156e-10 -6.4446611094535691e-05 2.3452940044532584e-05 1.6515878385926805e-11 -4.6722419229397343e-05 1.562600746976112e-05 -1.794718503326462e-12 -4.6875390101611998e-05 1.5568674751791605e-05 1.5203786574667333e-11 -7.0355303123466486e-05 2.3452940044532584e-05 1.6515878385926766e-11 -4.6722419229397336e-05 1.5568674751791602e-05 1.5203786574667298e-11 -7.0355303123466486e-05 2.148352060089735e-05 -1.2496515953965156e-10 -6.4446611094535691e-05 2.438258918223497e-05 -6.1522688868599675e-12 -7.314323946128831e-05 1.5568674751791602e-05 1.5203786574667324e-11 -7.0355303123466472e-05 1.564901578186418e-05 -1.6228295607618598e-10 -4.9581559587152601e-05 2.148352060089735e-05 -1.2496515953965156e-10 -6.4446611094535691e-05 1.5652599435545565e-05 -1.9420292194329739e-10 -7.3204429471438107e-05 2.148352060089735e-05 -1.2496515953965156e-10 -6.4446611094535691e-05 1.5649015781864177e-05 -1.6228295607618595e-10 -4.9581559587152594e-05 2.3452940044532584e-05 1.6515878385926763e-11 -4.6722419229397336e-05 2.4368225413801741e-05 -1.7404017708319402e-10 -4.6889308791873478e-05 1.4317602991285989e-05 -1.2802007991692124e-10 -9.374949471376404e-05 1.5568674751791602e-05 1.5203786574667324e-11 -7.0355303123466472e-05 1.873668066732569e-05 -1.1132919093602598e-10 -9.3749723311073566e-05 1.5652599435545565e-05 -1.9420292194329739e-10 -7.3204429471438107e-05 1.873668066732569e-05 -1.1132919093602598e-10 -9.3749723311073566e-05 2.148352060089735e-05 -1.2496515953965153e-10 -6.4446611094535678e-05 2.2728102934878279e-05 -6.9100725641826586e-11 -9.3749956479501138e-05 2.5501533641350078e-05 -1.6657575407356603e-10 -7.6499898205931182e-05 1.873668066732569e-05 -1.1132919093602598e-10 -9.3749723311073566e-05 2.148352060089735e-05 -1.2496515953965156e-10 -6.4446611094535691e-05 1.5568674751791602e-05 1.5203786574667269e-11 -7.0355303123466472e-05 2.438258918223497e-05 -6.1522688868599675e-12 -7.314323946128831e-05 1.873668066732569e-05 -1.1132919093602598e-10 -9.3749723311073566e-05 1.5652599435545565e-05 -1.9420292194329739e-10 -7.3204429471438107e-05 2.148352060089735e-05 -1.2496515953965161e-10 -6.4446611094535691e-05 2.5501533641350078e-05 -1.6657575407356603e-10 -7.6499898205931182e-05 1.873668066732569e-05 -1.1132919093602598e-10 -9.3749723311073566e-05 1.5568674751791605e-05 1.5203786574667308e-11 -7.0355303123466472e-05 2.148352060089735e-05 -1.2496515953965151e-10 -6.4446611094535691e-05 1.5652599435545565e-05 -1.9420292194329739e-10 -7.3204429471438107e-05 1.873668066732569e-05 -1.1132919093602598e-10 -9.3749723311073566e-05 2.2728102934878279e-05 -6.9100725641826599e-11 -9.3749956479501125e-05 2.148352060089735e-05 -1.2496515953965156e-10 -6.4446611094535691e-05 2.438258918223497e-05 -6.1522688868599675e-12 -7.314323946128831e-05 1.873668066732569e-05 -1.1132919093602598e-10 -9.3749723311073566e-05 1.5568674751791602e-05 1.5203786574667324e-11 -7.0355303123466472e-05 2.103937475265617e-05 1.7611786560874982e-11 -9.3749835825642232e-05 2.438258918223497e-05 -6.1522688868599675e-12 -7.314323946128831e-05 2.2053546402268802e-05 -2.0370606465276807e-10 -9.3749903735154908e-05 1.873668066732569e-05 -1.1132919093602598e-10 -9.3749723311073566e-05 2.2728102934878279e-05 -6.9100725641826586e-11 -9.3749956479501125e-05 2.5501533641350078e-05 -1.6657575407356603e-10 -7.6499898205931182e-05 1.873668066732569e-05 -1.1132919093602598e-10 -9.3749723311073566e-05 2.1039374752656173e-05 1.7611786560874979e-11 -9.3749835825642232e-05 2.2728102934878279e-05 -6.9100725641826586e-11 -9.3749956479501125e-05 2.438258918223497e-05 -6.1522688868599675e-12 -7.314323946128831e-05 1.4317602991285989e-05 -1.2802007991692124e-10 -9.374949471376404e-05 1.6239391573383359e-05 -2.5209394555620942e-12 -9.3749591552643106e-05 1.873668066732569e-05 -1.1132919093602598e-10 -9.3749723311073566e-05 1.5568674751791602e-05 1.5203786574667324e-11 -7.0355303123466472e-05 2.1039374752656173e-05 1.7611786560874979e-11 -9.3749835825642232e-05 1.8736680667325687e-05 -1.1132919093602596e-10 -9.3749723311073566e-05 1.6239391573383363e-05 -2.5209394555620913e-12 -9.3749591552643106e-05 1.5568674751791602e-05 1.5203786574667324e-11 -7.0355303123466472e-05 1.873668066732569e-05 -1.1132919093602598e-10 -9.3749723311073566e-05 1.5928507061515667e-05 -2.4049568115798103e-10 -9.3749574577935211e-05 1.4317602991285989e-05 -1.2802007991692124e-10 -9.374949471376404e-05 1.5652599435545565e-05 -1.9420292194329739e-10 -7.3204429471438107e-05 1.5928507061515667e-05 -2.4049568115798103e-10 -9.3749574577935211e-05 2.2053546402268802e-05 -2.0370606465276807e-10 -9.3749903735154908e-05 2.1703919459109275e-05 -3.0166182197807646e-10 -7.8843809058422055e-05 1.5652599435545562e-05 -1.9420292194329739e-10 -7.3204429471438094e-05 2.148352060089735e-05 -1.2496515953965156e-10 -6.4446611094535691e-05 1.5652599435545565e-05 -1.9420292194329739e-10 -7.3204429471438107e-05 2.1703919459109275e-05 -3.0166182197807646e-10 -7.8843809058422068e-05 2.5501533641350078e-05 -1.6657575407356603e-10 -7.6499898205931182e-05 2.2053546402268802e-05 -2.0370606465276807e-10 -9.3749903735154908e-05 2.1703919459109275e-05 -3.0166182197807646e-10 -7.8843809058422082e-05 1.5652599435545565e-05 -1.9420292194329739e-10 -7.3204429471438107e-05 2.5501533641350078e-05 -1.6657575407356601e-10 -7.6499898205931169e-05 2.2053546402268802e-05 -2.0370606465276807e-10 -9.3749903735154908e-05 1.5652599435545565e-05 -1.9420292194329739e-10 -7.3204429471438107e-05 1.873668066732569e-05 -1.1132919093602598e-10 -9.3749723311073566e-05 2.5501533641350078e-05 -1.6657575407356598e-10 -7.6499898205931169e-05 2.2053546402268802e-05 -2.0370606465276807e-10 -9.3749903735154908e-05 1.5928507061515667e-05 -2.4049568115798103e-10 -9.3749574577935211e-05 1.873668066732569e-05 -1.1132919093602598e-10 -9.3749723311073566e-05 1.5652599435545565e-05 -1.9420292194329739e-10 -7.3204429471438121e-05 1.8757564298625961e-05 -3.7000139487554962e-10 -6.3330099726098383e-05 2.1483520600897343e-05 -1.249651595396514e-10 -6.4446611094535705e-05 2.1703919459109275e-05 -3.0166182197807646e-10 -7.8843809058422068e-05 2.5501533641350078e-05 -1.6657575407356603e-10 -7.6499898205931182e-05 2.1703919459109275e-05 -3.0166182197807646e-10 -7.8843809058422068e-05 1.8757564298625961e-05 -3.7000139487554962e-10 -6.3330099726098383e-05 1.5575080193548331e-05 -3.3051046182416611e-10 -7.7600347245884366e-05 1.5652599435545565e-05 -1.9420292194329739e-10 -7.3204429471438107e-05 2.1703919459109275e-05 -3.0166182197807646e-10 -7.8843809058422068e-05 1.5575080193548331e-05 -3.3051046182416611e-10 -7.7600347245884366e-05 1.5928507061515667e-05 -2.4049568115798103e-10 -9.3749574577935211e-05 1.5652599435545565e-05 -1.9420292194329739e-10 -7.3204429471438107e-05 1.875159818590469e-05 -3.6126582533519695e-10 -9.3749734790092703e-05 1.5575080193548331e-05 -3.3051046182416611e-10 -7.7600347245884366e-05 1.5928507061515667e-05 -2.4049568115798103e-10 -9.3749574577935211e-05 2.1703919459109275e-05 -3.0166182197807646e-10 -7.8843809058422068e-05 1.5928507061515667e-05 -2.4049568115798103e-10 -9.3749574577935211e-05 1.2501103189152445e-05 -3.8666065782556161e-10 -9.3749450940511033e-05 1.5575080193548331e-05 -3.3051046182416617e-10 -7.7600347245884366e-05 1.875159818590469e-05 -3.6126582533519695e-10 -9.3749734790092703e-05 1.5928507061515667e-05 -2.4049568115798103e-10 -9.3749574577935211e-05 2.2053546402268802e-05 -2.0370606465276807e-10 -9.3749903735154908e-05 1.875159818590469e-05 -3.612658253351969e-10 -9.374973479009269e-05 2.1703919459109275e-05 -3.0166182197807646e-10 -7.8843809058422068e-05 2.2053546402268802e-05 -2.0370606465276807e-10 -9.3749903735154908e-05 1.875159818590469e-05 -3.6126582533519695e-10 -9.3749734790092703e-05 2.1703919459109275e-05 -3.0166182197807646e-10 -7.8843809058422068e-05 2.5001936740346644e-05 -2.934391886758612e-10 -9.3750146774555809e-05 1.8757564298625961e-05 -3.7000139487554962e-10 -6.3330099726098383e-05 2.1703919459109275e-05 -3.0166182197807646e-10 -7.8843809058422082e-05 2.5460929948346787e-05 -3.2726856216437799e-10 -6.4608198042964219e-05 2.5501533641350078e-05 -1.6657575407356603e-10 -7.6499898205931182e-05 2.2053546402268802e-05 -2.0370606465276807e-10 -9.3749903735154908e-05 2.667664299979625e-05 -2.0624770321777012e-10 -9.3750227363176302e-05 2.1703919459109275e-05 -3.0166182197807641e-10 -7.8843809058422068e-05 2.5501533641350081e-05 -1.6657575407356601e-10 -7.6499898205931182e-05 2.667664299979625e-05 -2.0624770321777012e-10 -9.3750227363176302e-05 2.2053546402268802e-05 -2.0370606465276807e-10 -9.3749903735154908e-05 2.6618718186968675e-05 -1.2684142380765305e-10 -9.3750223704191539e-05 2.5501533641350078e-05 -1.6657575407356603e-10 -7.6499898205931182e-05 3.1251638921873487e-05 -2.0481797627851036e-10 -6.6155967756111568e-05 2.5460929948346787e-05 -3.2726856216437799e-10 -6.4608198042964232e-05 2.66764192092383e-05 -2.4293969849652939e-10 -8.002440312677448e-05 2.5501533641350075e-05 -1.6657575407356601e-10 -7.6499898205931169e-05 2.1703919459109275e-05 -3.0166182197807646e-10 -7.8843809058422068e-05 2.66764192092383e-05 -2.4293969849652939e-10 -8.002440312677448e-05 2.5460929948346787e-05 -3.2726856216437799e-10 -6.4608198042964219e-05 2.5501533641350078e-05 -1.6657575407356603e-10 -7.6499898205931182e-05 2.6676419209238303e-05 -2.4293969849652939e-10 -8.002440312677448e-05 2.1703919459109275e-05 -3.0166182197807646e-10 -7.8843809058422068e-05 2.667664299979625e-05 -2.0624770321777012e-10 -9.3750227363176302e-05 2.5501533641350078e-05 -1.6657575407356603e-10 -7.6499898205931182e-05 2.5001936740346644e-05 -2.934391886758612e-10 -9.3750146774555809e-05 2.1703919459109272e-05 -3.0166182197807646e-10 -7.8843809058422055e-05 2.2053546402268802e-05 -2.0370606465276807e-10 -9.3749903735154908e-05 2.667664299979625e-05 -2.0624770321777012e-10 -9.3750227363176302e-05 2.5001936740346644e-05 -2.934391886758612e-10 -9.3750146774555809e-05 2.6676419209238307e-05 -2.4293969849652939e-10 -8.002440312677448e-05 2.1703919459109275e-05 -3.0166182197807646e-10 -7.8843809058422068e-05 2.667664299979625e-05 -2.0624770321777012e-10 -9.3750227363176302e-05 3.1251990813599131e-05 -3.3280831883528185e-10 -9.3750551404990124e-05 3.1251791189642599e-05 -2.066259913628972e-10 -8.0024602096813492e-05 2.66764192092383e-05 -2.4293969849652939e-10 -8.002440312677448e-05 2.667664299979625e-05 -2.0624770321777012e-10 -9.3750227363176302e-05 2.5001936740346644e-05 -2.934391886758612e-10 -9.3750146774555809e-05 3.1251990813599131e-05 -3.3280831883528185e-10 -9.3750551404990138e-05 2.6676419209238303e-05 -2.4293969849652939e-10 -8.002440312677448e-05 2.667664299979625e-05 -2.0624770321777012e-10 -9.3750227363176302e-05 2.667664299979625e-05 -2.0624770321777012e-10 -9.3750227363176302e-05 3.1251990813599131e-05 -3.3280831883528185e-10 -9.3750551404990124e-05 3.1251791189642599e-05 -2.066259913628972e-10 -8.0024602096813492e-05 3.1251999466388784e-05 -1.7837742028892314e-10 -9.3750503671478902e-05 2.6676419209238303e-05 -2.4293969849652939e-10 -8.002440312677448e-05 3.1251791189642606e-05 -2.066259913628972e-10 -8.0024602096813492e-05 3.1251990813599131e-05 -3.3280831883528185e-10 -9.3750551404990124e-05 3.1251664730573492e-05 -3.2956269099778898e-10 -7.5000562711993599e-05 2.6676419209238303e-05 -2.4293969849652939e-10 -8.002440312677448e-05 2.5460929948346787e-05 -3.2726856216437799e-10 -6.4608198042964219e-05 3.1251638921873487e-05 -2.0481797627851039e-10 -6.6155967756111568e-05 3.1251664730573492e-05 -3.2956269099778898e-10 -7.5000562711993599e-05 3.1251638921873487e-05 -2.0481797627851036e-10 -6.6155967756111568e-05 3.1251791189642599e-05 -2.0662599136289717e-10 -8.0024602096813492e-05 2.6676419209238303e-05 -2.4293969849652939e-10 -8.002440312677448e-05 3.1251664730573492e-05 -3.2956269099778898e-10 -7.5000562711993599e-05 3.1251791189642599e-05 -2.066259913628972e-10 -8.0024602096813492e-05 3.1251783394985603e-05 -1.1946416307832423e-10 -7.985088112609482e-05 3.1251638921873487e-05 -2.0481797627851036e-10 -6.6155967756111568e-05 2.5501533641350078e-05 -1.6657575407356603e-10 -7.6499898205931182e-05 3.1251638921873487e-05 -2.0481797627851036e-10 -6.6155967756111568e-05 2.6676419209238303e-05 -2.4293969849652939e-10 -8.002440312677448e-05 3.1251791189642599e-05 -2.066259913628972e-10 -8.0024602096813492e-05 2.5501533641350078e-05 -1.6657575407356603e-10 -7.6499898205931182e-05 2.667664299979625e-05 -2.0624770321777012e-10 -9.3750227363176302e-05 2.6618718186968671e-05 -1.2684142380765302e-10 -9.3750223704191539e-05 3.1251999466388784e-05 -1.7837742028892314e-10 -9.3750503671478902e-05 2.5501533641350078e-05 -1.6657575407356603e-10 -7.6499898205931182e-05 3.1251791189642599e-05 -2.066259913628972e-10 -8.0024602096813492e-05 2.667664299979625e-05 -2.0624770321777009e-10 -9.3750227363176302e-05 3.1251999466388784e-05 -1.7837742028892314e-10 -9.3750503671478902e-05 2.5501533641350078e-05 -1.6657575407356603e-10 -7.6499898205931182e-05 3.1251791189642599e-05 -2.066259913628972e-10 -8.0024602096813492e-05 3.1251999466388784e-05 -1.7837742028892314e-10 -9.3750503671478902e-05 3.1251783394985603e-05 -1.1946416307832423e-10 -7.985088112609482e-05 2.5501533641350078e-05 -1.6657575407356603e-10 -7.6499898205931182e-05 2.6676419209238303e-05 -2.4293969849652939e-10 -8.002440312677448e-05 2.667664299979625e-05 -2.0624770321777012e-10 -9.3750227363176302e-05 3.1251791189642599e-05 -2.066259913628972e-10 -8.0024602096813492e-05 2.5501533641350085e-05 -1.6657575407356608e-10 -7.6499898205931182e-05 3.1251999466388784e-05 -1.7837742028892314e-10 -9.3750503671478902e-05 3.1251783394985603e-05 -1.1946416307832423e-10 -7.9850881126094833e-05 2.6618718186968675e-05 -1.2684142380765307e-10 -9.3750223704191539e-05 3.1251976021723467e-05 -5.755985784390269e-11 -9.3750513048361202e-05 3.1251999466388784e-05 -1.7837742028892314e-10 -9.3750503671478902e-05 2.6618718186968675e-05 -1.2684142380765302e-10 -9.3750223704191553e-05 3.1251783394985603e-05 -1.1946416307832423e-10 -7.985088112609482e-05 2.5501533641350075e-05 -1.6657575407356606e-10 -7.6499898205931182e-05 3.1251783394985603e-05 -1.1946416307832423e-10 -7.985088112609482e-05 2.6618718186968675e-05 -1.2684142380765302e-10 -9.3750223704191553e-05 2.438258918223497e-05 -6.1522688868599643e-12 -7.314323946128831e-05 2.5501533641350085e-05 -1.6657575407356603e-10 -7.6499898205931196e-05 2.148352060089735e-05 -1.2496515953965156e-10 -6.4446611094535691e-05 2.438258918223497e-05 -6.1522688868599789e-12 -7.314323946128831e-05 2.2728102934878279e-05 -6.9100725641826625e-11 -9.3749956479501138e-05 2.5501533641350078e-05 -1.6657575407356603e-10 -7.6499898205931182e-05 3.1251673316114828e-05 -7.8389754554690853e-11 -6.8179555164359334e-05 3.1251783394985603e-05 -1.1946416307832423e-10 -7.985088112609482e-05 2.438258918223497e-05 -6.1522688868599667e-12 -7.314323946128831e-05 2.5501533641350071e-05 -1.6657575407356606e-10 -7.6499898205931182e-05 2.6618718186968675e-05 -1.2684142380765305e-10 -9.3750223704191539e-05 2.2728102934878279e-05 -6.9100725641826586e-11 -9.3749956479501125e-05 2.438258918223497e-05 -6.1522688868599675e-12 -7.314323946128831e-05 2.5501533641350075e-05 -1.6657575407356603e-10 -7.6499898205931182e-05 3.1251673316114828e-05 -7.8389754554690853e-11 -6.8179555164359334e-05 2.4382589182234974e-05 -6.1522688868599562e-12 -7.314323946128831e-05 2.1483520600897353e-05 -1.2496515953965158e-10 -6.4446611094535678e-05 2.5501533641350075e-05 -1.6657575407356603e-10 -7.6499898205931182e-05 2.6618718186968675e-05 -1.2684142380765305e-10 -9.3750223704191539e-05 3.1251783394985603e-05 -1.1946416307832421e-10 -7.985088112609482e-05 3.1251752796008706e-05 -7.9095843785158666e-12 -7.893048525152427e-05 3.1251976021723467e-05 -5.755985784390269e-11 -9.3750513048361202e-05 2.2728102934878279e-05 -6.9100725641826586e-11 -9.3749956479501125e-05 2.6618718186968671e-05 -1.2684142380765305e-10 -9.3750223704191525e-05 2.2053546402268802e-05 -2.0370606465276807e-10 -9.3749903735154908e-05 2.5501533641350078e-05 -1.6657575407356603e-10 -7.6499898205931182e-05 3.1251638921873487e-05 -2.0481797627851036e-10 -6.6155967756111568e-05 3.1251783394985603e-05 -1.1946416307832423e-10 -7.985088112609482e-05 3.1251673316114828e-05 -7.8389754554690853e-11 -6.8179555164359334e-05 2.5501533641350078e-05 -1.6657575407356603e-10 -7.6499898205931182e-05 2.6618718186968675e-05 -1.2684142380765305e-10 -9.3750223704191539e-05 3.1251752796008706e-05 -7.9095843785158585e-12 -7.8930485251524257e-05 3.1251783394985603e-05 -1.1946416307832423e-10 -7.985088112609482e-05 2.438258918223497e-05 -6.1522688868599675e-12 -7.314323946128831e-05 3.1251783394985603e-05 -1.1946416307832423e-10 -7.985088112609482e-05 3.1251752796008706e-05 -7.909584378515886e-12 -7.893048525152427e-05 3.1251673316114828e-05 -7.8389754554690853e-11 -6.8179555164359334e-05 2.438258918223497e-05 -6.1522688868599675e-12 -7.314323946128831e-05 3.1251673316114828e-05 -7.8389754554690853e-11 -6.8179555164359334e-05 3.1251752796008706e-05 -7.9095843785158714e-12 -7.893048525152427e-05 3.1251584769381405e-05 2.1393815027710998e-11 -6.3113596784848431e-05 2.438258918223497e-05 -6.1522688868599675e-12 -7.314323946128831e-05 2.2728102934878279e-05 -6.9100725641826586e-11 -9.3749956479501125e-05 2.1039374752656173e-05 1.7611786560874976e-11 -9.3749835825642232e-05 2.6311916126356138e-05 -7.5662885166929676e-12 -9.3750214620849252e-05 2.438258918223497e-05 -6.1522688868599675e-12 -7.314323946128831e-05 2.6311916126356138e-05 -7.5662885166929692e-12 -9.3750214620849266e-05 2.6618718186968675e-05 -1.2684142380765305e-10 -9.3750223704191539e-05 2.2728102934878279e-05 -6.9100725641826586e-11 -9.3749956479501125e-05 2.438258918223497e-05 -6.1522688868599675e-12 -7.314323946128831e-05 2.6311916126356138e-05 -7.5662885166929692e-12 -9.3750214620849266e-05 3.1251752796008706e-05 -7.9095843785158666e-12 -7.893048525152427e-05 2.6618718186968675e-05 -1.2684142380765305e-10 -9.3750223704191539e-05 2.438258918223497e-05 -6.1522688868599675e-12 -7.314323946128831e-05 3.1251976021723467e-05 -5.755985784390269e-11 -9.3750513048361202e-05 3.1251752796008706e-05 -7.9095843785158666e-12 -7.893048525152427e-05 2.6311916126356138e-05 -7.5662885166929692e-12 -9.3750214620849266e-05 3.1251981359639286e-05 6.2901703994008484e-11 -9.3750504677393221e-05 3.1251752796008706e-05 -7.9095843785158666e-12 -7.893048525152427e-05 2.6311916126356138e-05 -7.5662885166929466e-12 -9.3750214620849279e-05 2.6618718186968678e-05 -1.2684142380765307e-10 -9.3750223704191539e-05 3.1251976021723467e-05 -5.755985784390269e-11 -9.3750513048361202e-05 2.5264338881529765e-05 1.1285468098217674e-10 -9.3750105500531138e-05 2.4382589182234977e-05 -6.1522688868599772e-12 -7.314323946128831e-05 2.1454278676800571e-05 1.0749162355838968e-10 -6.435887050422595e-05 2.4277623572363245e-05 1.8789771921494774e-10 -7.6560964616667574e-05 2.5264338881529765e-05 1.1285468098217674e-10 -9.3750105500531138e-05 3.1251727719940775e-05 1.1590254556640359e-10 -7.5787934751601858e-05 2.438258918223497e-05 -6.1522688868599675e-12 -7.314323946128831e-05 2.4277623572363245e-05 1.8789771921494774e-10 -7.6560964616667574e-05 3.1251981359639286e-05 6.2901703994008484e-11 -9.3750504677393221e-05 3.1251752796008706e-05 -7.9095843785158666e-12 -7.893048525152427e-05 2.6311916126356138e-05 -7.5662885166929692e-12 -9.3750214620849266e-05 3.1251727719940775e-05 1.1590254556640359e-10 -7.5787934751601871e-05 2.1454278676800577e-05 1.0749162355838961e-10 -6.4358870504225923e-05 2.438258918223497e-05 -6.1522688868599587e-12 -7.3143239461288324e-05 3.1251727719940775e-05 1.159025455664036e-10 -7.5787934751601885e-05 2.4277623572363245e-05 1.8789771921494774e-10 -7.6560964616667588e-05 2.6311916126356138e-05 -7.5662885166929692e-12 -9.3750214620849266e-05 3.1251981359639286e-05 6.2901703994008484e-11 -9.3750504677393221e-05 3.1251727719940775e-05 1.1590254556640359e-10 -7.5787934751601871e-05 2.5264338881529765e-05 1.1285468098217674e-10 -9.3750105500531138e-05 3.1251981359639286e-05 6.2901703994008484e-11 -9.3750504677393221e-05 3.1251727719940775e-05 1.1590254556640359e-10 -7.5787934751601871e-05 2.5264338881529765e-05 1.1285468098217674e-10 -9.3750105500531138e-05 3.1251981992212178e-05 1.7873739149814473e-10 -9.3750498457632702e-05 2.6311916126356138e-05 -7.5662885166929692e-12 -9.3750214620849266e-05 2.1039374752656173e-05 1.7611786560874979e-11 -9.3749835825642232e-05 2.5264338881529765e-05 1.1285468098217674e-10 -9.3750105500531138e-05 2.438258918223497e-05 -6.1522688868599675e-12 -7.314323946128831e-05 2.6311916126356138e-05 -7.5662885166929692e-12 -9.3750214620849266e-05 2.5264338881529765e-05 1.1285468098217674e-10 -9.3750105500531138e-05 3.1251727719940775e-05 1.1590254556640359e-10 -7.5787934751601871e-05 2.438258918223497e-05 -6.1522688868599675e-12 -7.314323946128831e-05 3.1251727719940775e-05 1.1590254556640359e-10 -7.5787934751601871e-05 3.1251584769381405e-05 2.1393815027710992e-11 -6.3113596784848417e-05 3.1251752796008706e-05 -7.9095843785158666e-12 -7.893048525152427e-05 2.438258918223497e-05 -6.1522688868599675e-12 -7.314323946128831e-05 3.1251727719940775e-05 1.1590254556640359e-10 -7.5787934751601871e-05 3.1251752796008706e-05 -7.9095843785158666e-12 -7.893048525152427e-05 2.6311916126356138e-05 -7.5662885166929644e-12 -9.3750214620849266e-05 2.438258918223497e-05 -6.1522688868599675e-12 -7.314323946128831e-05 3.1251565433672827e-05 1.2605448988653195e-10 -5.7203657786039783e-05 2.4382589182234967e-05 -6.1522688868600168e-12 -7.314323946128831e-05 2.3452940044532584e-05 1.6515878385926776e-11 -4.6722419229397336e-05 3.1251584769381405e-05 2.1393815027710998e-11 -6.3113596784848431e-05 3.1251565433672827e-05 1.2605448988653195e-10 -5.7203657786039783e-05 2.3452940044532584e-05 1.6515878385926744e-11 -4.6722419229397336e-05 2.1454278676800574e-05 1.0749162355838964e-10 -6.4358870504225909e-05 2.4180984082685277e-05 2.0686409186507943e-10 -4.6715346053894628e-05 3.1251565433672827e-05 1.2605448988653195e-10 -5.7203657786039783e-05 2.1454278676800581e-05 1.0749162355838964e-10 -6.4358870504225923e-05 3.1251639105908017e-05 2.1346170290676463e-10 -6.5027030918701721e-05 2.4180984082685277e-05 2.068640918650794e-10 -4.6715346053894628e-05 3.1251727719940775e-05 1.1590254556640359e-10 -7.5787934751601871e-05 3.1251565433672834e-05 1.2605448988653195e-10 -5.7203657786039783e-05 2.1454278676800574e-05 1.0749162355838969e-10 -6.4358870504225923e-05 2.4277623572363245e-05 1.8789771921494774e-10 -7.6560964616667574e-05 3.1251565433672827e-05 1.2605448988653195e-10 -5.7203657786039783e-05 3.1251502216732098e-05 1.2304792737073243e-10 -4.2949831007867728e-05 2.3452940044532584e-05 1.6515878385926766e-11 -4.6722419229397336e-05 2.4180984082685277e-05 2.068640918650794e-10 -4.6715346053894622e-05 2.3452940044532584e-05 1.6515878385926766e-11 -4.6722419229397336e-05 2.4382589182234967e-05 -6.1522688868599748e-12 -7.314323946128831e-05 3.1251565433672827e-05 1.2605448988653195e-10 -5.7203657786039783e-05 2.1454278676800577e-05 1.0749162355838961e-10 -6.4358870504225923e-05 3.1251727719940775e-05 1.1590254556640359e-10 -7.5787934751601871e-05 2.1454278676800577e-05 1.0749162355838961e-10 -6.4358870504225923e-05 3.1251565433672827e-05 1.2605448988653195e-10 -5.7203657786039783e-05 2.438258918223497e-05 -6.1522688868599675e-12 -7.314323946128831e-05 3.1251584769381405e-05 2.1393815027710998e-11 -6.3113596784848431e-05 3.1251727719940781e-05 1.1590254556640357e-10 -7.5787934751601885e-05 3.1251565433672827e-05 1.2605448988653195e-10 -5.7203657786039783e-05 2.438258918223497e-05 -6.1522688868599667e-12 -7.314323946128831e-05 3.1251565433672827e-05 1.2605448988653195e-10 -5.7203657786039783e-05 3.1251471331972877e-05 -1.2253624190039084e-12 -4.871465933686723e-05 3.1251584769381405e-05 2.1393815027710995e-11 -6.3113596784848431e-05 2.3452940044532584e-05 1.6515878385926766e-11 -4.6722419229397336e-05 3.1251565433672827e-05 1.2605448988653195e-10 -5.7203657786039783e-05 3.1251502216732098e-05 1.2304792737073243e-10 -4.2949831007867728e-05 3.1251471331972877e-05 -1.2253624190039145e-12 -4.871465933686723e-05 2.3452940044532584e-05 1.6515878385926766e-11 -4.6722419229397336e-05 3.1251565433672827e-05 1.2605448988653195e-10 -5.7203657786039783e-05 3.1251494548559666e-05 2.0372646190531984e-10 -4.7628851673572763e-05 3.1251502216732098e-05 1.2304792737073243e-10 -4.2949831007867728e-05 2.418098408268528e-05 2.068640918650794e-10 -4.6715346053894628e-05 3.1251639105908017e-05 2.1346170290676463e-10 -6.5027030918701721e-05 2.418098408268528e-05 2.068640918650794e-10 -4.6715346053894628e-05 2.1454278676800581e-05 1.074916235583895e-10 -6.4358870504225923e-05 2.4277623572363245e-05 1.8789771921494774e-10 -7.6560964616667574e-05 2.1454278676800577e-05 1.0749162355838961e-10 -6.4358870504225923e-05 2.4180984082685277e-05 2.0686409186507938e-10 -4.6715346053894628e-05 2.5422246041192057e-05 3.2066923404289531e-10 -6.4145086866165374e-05 2.4277623572363252e-05 1.8789771921494774e-10 -7.6560964616667588e-05 3.1251639105908017e-05 2.1346170290676463e-10 -6.5027030918701721e-05 2.1454278676800574e-05 1.0749162355838965e-10 -6.4358870504225909e-05 3.1251565433672827e-05 1.2605448988653195e-10 -5.7203657786039783e-05 2.4277623572363245e-05 1.8789771921494774e-10 -7.6560964616667574e-05 3.1251727719940775e-05 1.1590254556640359e-10 -7.5787934751601871e-05 3.1251639105908017e-05 2.1346170290676463e-10 -6.5027030918701721e-05 3.1251565433672827e-05 1.2605448988653195e-10 -5.7203657786039783e-05 2.4277623572363245e-05 1.8789771921494774e-10 -7.6560964616667574e-05 3.1251639105908017e-05 2.1346170290676463e-10 -6.5027030918701721e-05 2.5422246041192054e-05 3.2066923404289536e-10 -6.4145086866165374e-05 2.418098408268528e-05 2.068640918650794e-10 -4.6715346053894628e-05 2.4277623572363245e-05 1.8789771921494774e-10 -7.6560964616667574e-05 3.1251494548559666e-05 2.0372646190531986e-10 -4.7628851673572763e-05 3.1251565433672827e-05 1.2605448988653195e-10 -5.7203657786039783e-05 3.1251639105908017e-05 2.1346170290676463e-10 -6.5027030918701721e-05 2.418098408268528e-05 2.068640918650794e-10 -4.6715346053894628e-05 3.1251639105908017e-05 2.1346170290676463e-10 -6.5027030918701721e-05 2.711473388708139e-05 3.005252684340812e-10 -4.7445799932829778e-05 3.1251494548559666e-05 2.0372646190531986e-10 -4.7628851673572763e-05 2.418098408268528e-05 2.068640918650794e-10 -4.6715346053894628e-05 3.1251524849691278e-05 3.2600944578716069e-10 -5.6250673098950266e-05 3.1251494548559666e-05 2.0372646190531986e-10 -4.7628851673572763e-05 3.1251639105908017e-05 2.1346170290676463e-10 -6.5027030918701721e-05 2.711473388708139e-05 3.0052526843408115e-10 -4.7445799932829785e-05 2.711473388708139e-05 3.0052526843408115e-10 -4.7445799932829785e-05 3.1251524849691278e-05 3.2600944578716069e-10 -5.6250673098950266e-05 3.1251494548559666e-05 2.0372646190531986e-10 -4.7628851673572763e-05 3.1251453252021449e-05 2.9859390636280676e-10 -3.7500801078122975e-05 3.1251639105908017e-05 2.1346170290676463e-10 -6.5027030918701721e-05 2.5422246041192054e-05 3.2066923404289536e-10 -6.4145086866165374e-05 3.1251524849691278e-05 3.2600944578716069e-10 -5.6250673098950266e-05 2.7114733887081387e-05 3.0052526843408105e-10 -4.7445799932829771e-05 2.711473388708139e-05 3.0052526843408115e-10 -4.7445799932829785e-05 2.5422246041192054e-05 3.2066923404289531e-10 -6.4145086866165374e-05 2.1326399070200072e-05 3.7194917294057628e-10 -4.9041192557915759e-05 2.418098408268528e-05 2.068640918650794e-10 -4.6715346053894628e-05 2.5422246041192054e-05 3.2066923404289536e-10 -6.4145086866165374e-05 2.711473388708139e-05 3.0052526843408115e-10 -4.7445799932829785e-05 3.1251639105908017e-05 2.1346170290676466e-10 -6.5027030918701721e-05 2.418098408268528e-05 2.068640918650794e-10 -4.6715346053894628e-05 3.1251639105908017e-05 2.1346170290676463e-10 -6.5027030918701721e-05 2.5422246041192054e-05 3.2066923404289542e-10 -6.4145086866165387e-05 3.1251654469651429e-05 3.5492512928565091e-10 -7.5000545201414471e-05 3.1251524849691278e-05 3.2600944578716069e-10 -5.6250673098950266e-05 3.1251654469651429e-05 3.5492512928565091e-10 -7.5000545201414471e-05 2.667641688161438e-05 2.3750311076173729e-10 -8.0024394649367403e-05 2.5422246041192054e-05 3.2066923404289536e-10 -6.4145086866165374e-05 3.1251639105908017e-05 2.1346170290676463e-10 -6.5027030918701721e-05 2.6676416881614383e-05 2.3750311076173729e-10 -8.0024394649367403e-05 3.125163910590801e-05 2.1346170290676463e-10 -6.5027030918701734e-05 3.1251787939992451e-05 2.0277463275817503e-10 -8.0024582611520705e-05 2.4277623572363245e-05 1.8789771921494777e-10 -7.6560964616667574e-05 2.6676416881614383e-05 2.3750311076173729e-10 -8.0024394649367403e-05 3.1251654469651429e-05 3.5492512928565091e-10 -7.5000545201414471e-05 3.1251787939992444e-05 2.0277463275817503e-10 -8.0024582611520692e-05 3.1251639105908023e-05 2.1346170290676471e-10 -6.5027030918701734e-05 2.6676624788255973e-05 2.1469134246136906e-10 -9.3750228023038563e-05 3.1251973535067614e-05 3.2539720454481098e-10 -9.3750530455813215e-05 3.1251981992212178e-05 1.7873739149814473e-10 -9.3750498457632702e-05 3.1251787939992451e-05 2.0277463275817503e-10 -8.0024582611520705e-05 2.6676624788255973e-05 2.1469134246136906e-10 -9.3750228023038563e-05 2.5001900731444038e-05 3.0860048435897467e-10 -9.3750125758664362e-05 3.1251973535067614e-05 3.2539720454481098e-10 -9.3750530455813215e-05 2.6676416881614383e-05 2.3750311076173729e-10 -8.0024394649367403e-05 3.1251654469651429e-05 3.5492512928565091e-10 -7.5000545201414471e-05 3.1251787939992451e-05 2.0277463275817503e-10 -8.0024582611520705e-05 3.1251973535067614e-05 3.2539720454481098e-10 -9.3750530455813215e-05 2.6676416881614383e-05 2.3750311076173729e-10 -8.0024394649367403e-05 3.1251787939992451e-05 2.0277463275817503e-10 -8.0024582611520705e-05 2.6676624788255973e-05 2.1469134246136908e-10 -9.3750228023038577e-05 3.1251973535067614e-05 3.2539720454481098e-10 -9.3750530455813215e-05 2.6676416881614383e-05 2.3750311076173729e-10 -8.0024394649367403e-05 2.6676624788255973e-05 2.1469134246136906e-10 -9.3750228023038563e-05 3.1251981992212178e-05 1.7873739149814473e-10 -9.3750498457632702e-05 3.1251727719940781e-05 1.1590254556640359e-10 -7.5787934751601871e-05 3.1251787939992451e-05 2.0277463275817503e-10 -8.0024582611520705e-05 3.1251981992212178e-05 1.7873739149814473e-10 -9.3750498457632702e-05 3.1251727719940775e-05 1.1590254556640359e-10 -7.5787934751601871e-05 2.5264338881529762e-05 1.1285468098217675e-10 -9.3750105500531124e-05 2.6676624788255973e-05 2.1469134246136906e-10 -9.3750228023038563e-05 2.6676624788255973e-05 2.1469134246136906e-10 -9.3750228023038563e-05 3.1251787939992451e-05 2.0277463275817503e-10 -8.0024582611520705e-05 3.1251727719940768e-05 1.1590254556640359e-10 -7.5787934751601871e-05 2.4277623572363245e-05 1.8789771921494772e-10 -7.6560964616667574e-05 3.1251727719940775e-05 1.1590254556640359e-10 -7.5787934751601871e-05 3.1251787939992451e-05 2.0277463275817503e-10 -8.0024582611520705e-05 3.1251639105908017e-05 2.1346170290676463e-10 -6.5027030918701721e-05 2.4277623572363245e-05 1.8789771921494774e-10 -7.6560964616667574e-05 2.1677219333735953e-05 2.2904330413908756e-10 -9.3749871873119952e-05 2.6676624788255973e-05 2.1469134246136906e-10 -9.3750228023038563e-05 2.5264338881529765e-05 1.1285468098217674e-10 -9.3750105500531138e-05 2.4277623572363245e-05 1.8789771921494774e-10 -7.6560964616667574e-05 2.5264338881529765e-05 1.1285468098217674e-10 -9.3750105500531138e-05 2.6676624788255973e-05 2.1469134246136906e-10 -9.3750228023038563e-05 3.1251727719940768e-05 1.1590254556640359e-10 -7.5787934751601871e-05 2.4277623572363245e-05 1.8789771921494774e-10 -7.6560964616667574e-05 2.6676624788255973e-05 2.1469134246136906e-10 -9.3750228023038563e-05 2.5001900731444041e-05 3.0860048435897467e-10 -9.3750125758664362e-05 2.6676416881614383e-05 2.3750311076173729e-10 -8.0024394649367403e-05 2.4277623572363245e-05 1.8789771921494774e-10 -7.6560964616667574e-05 2.1870775680849443e-05 3.0264964930715236e-10 -7.786672683777946e-05 2.6676416881614383e-05 2.3750311076173729e-10 -8.0024394649367403e-05 2.5001900731444041e-05 3.0860048435897467e-10 -9.3750125758664362e-05 2.4277623572363245e-05 1.8789771921494774e-10 -7.6560964616667574e-05 2.6676624788255973e-05 2.1469134246136906e-10 -9.3750228023038563e-05 2.1677219333735953e-05 2.2904330413908756e-10 -9.3749871873119952e-05 2.5001900731444041e-05 3.0860048435897467e-10 -9.3750125758664362e-05 2.4277623572363245e-05 1.8789771921494774e-10 -7.6560964616667574e-05 3.1251787939992451e-05 2.0277463275817503e-10 -8.0024582611520705e-05 2.6676624788255973e-05 2.1469134246136906e-10 -9.3750228023038577e-05 2.667641688161438e-05 2.3750311076173729e-10 -8.002439464936739e-05 2.4277623572363241e-05 1.8789771921494774e-10 -7.6560964616667574e-05 2.6676416881614383e-05 2.3750311076173729e-10 -8.0024394649367403e-05 2.1870775680849439e-05 3.0264964930715236e-10 -7.786672683777946e-05 2.5422246041192054e-05 3.2066923404289536e-10 -6.4145086866165374e-05 2.4277623572363248e-05 1.8789771921494774e-10 -7.6560964616667574e-05 2.5422246041192054e-05 3.2066923404289536e-10 -6.4145086866165374e-05 3.125163910590801e-05 2.1346170290676463e-10 -6.5027030918701721e-05 2.6676416881614383e-05 2.3750311076173729e-10 -8.0024394649367403e-05 2.4277623572363245e-05 1.8789771921494774e-10 -7.6560964616667574e-05 2.1677219333735953e-05 2.2904330413908756e-10 -9.3749871873119952e-05 1.5598393584324534e-05 1.7243176682291142e-10 -7.3026802666176081e-05 2.1870775680849443e-05 3.0264964930715241e-10 -7.786672683777946e-05 2.4277623572363245e-05 1.8789771921494774e-10 -7.6560964616667574e-05 2.1677219333735953e-05 2.2904330413908756e-10 -9.3749871873119952e-05 1.906925040916821e-05 1.1702676770244988e-10 -9.3749735775896183e-05 1.5598393584324537e-05 1.7243176682291145e-10 -7.3026802666176094e-05 2.4277623572363245e-05 1.8789771921494774e-10 -7.6560964616667574e-05 2.5422246041192054e-05 3.2066923404289536e-10 -6.4145086866165374e-05 2.1870775680849443e-05 3.0264964930715236e-10 -7.786672683777946e-05 1.9136696072295189e-05 2.7545074247182748e-10 -6.3597747562509869e-05 2.4277623572363245e-05 1.8789771921494774e-10 -7.6560964616667574e-05 1.9136696072295189e-05 2.7545074247182748e-10 -6.3597747562509869e-05 2.1870775680849443e-05 3.0264964930715241e-10 -7.786672683777946e-05 1.5598393584324537e-05 1.7243176682291145e-10 -7.3026802666176094e-05 2.4277623572363245e-05 1.8789771921494774e-10 -7.6560964616667574e-05 2.1677219333735953e-05 2.2904330413908756e-10 -9.3749871873119952e-05 2.1870775680849446e-05 3.0264964930715236e-10 -7.786672683777946e-05 2.5001900731444041e-05 3.0860048435897467e-10 -9.3750125758664362e-05 2.4277623572363245e-05 1.8789771921494774e-10 -7.6560964616667574e-05 1.5929335036972052e-05 3.016566580570434e-10 -7.8313893144832297e-05 1.8751593706117127e-05 3.6412892476807968e-10 -9.374976059813615e-05 2.1677219333735957e-05 2.2904330413908751e-10 -9.3749871873119952e-05 2.1870775680849443e-05 3.0264964930715236e-10 -7.786672683777946e-05 2.1870775680849443e-05 3.0264964930715236e-10 -7.786672683777946e-05 1.875159370611713e-05 3.6412892476807968e-10 -9.374976059813615e-05 2.1677219333735953e-05 2.2904330413908756e-10 -9.3749871873119952e-05 2.5001900731444041e-05 3.0860048435897467e-10 -9.3750125758664362e-05 2.5264338881529765e-05 1.1285468098217674e-10 -9.3750105500531138e-05 1.906925040916821e-05 1.1702676770244988e-10 -9.3749735775896183e-05 2.1677219333735953e-05 2.2904330413908756e-10 -9.3749871873119952e-05 2.4277623572363245e-05 1.8789771921494774e-10 -7.6560964616667574e-05 1.5877405932994945e-05 2.3619654831245111e-10 -9.3749560357650187e-05 2.1677219333735953e-05 2.2904330413908756e-10 -9.3749871873119952e-05 1.906925040916821e-05 1.1702676770244988e-10 -9.3749735775896183e-05 1.5598393584324537e-05 1.7243176682291145e-10 -7.3026802666176094e-05 1.5877405932994945e-05 2.3619654831245111e-10 -9.3749560357650187e-05 1.5929335036972052e-05 3.016566580570434e-10 -7.8313893144832283e-05 2.1677219333735953e-05 2.2904330413908756e-10 -9.3749871873119952e-05 1.5598393584324537e-05 1.7243176682291145e-10 -7.3026802666176094e-05 1.8751593706117127e-05 3.6412892476807968e-10 -9.374976059813615e-05 1.5877405932994945e-05 2.3619654831245111e-10 -9.3749560357650187e-05 1.2501115449143322e-05 4.0426889917588585e-10 -9.3749477442914454e-05 1.5929335036972052e-05 3.016566580570434e-10 -7.8313893144832297e-05 2.1677219333735953e-05 2.2904330413908756e-10 -9.3749871873119952e-05 1.5877405932994945e-05 2.3619654831245111e-10 -9.3749560357650187e-05 1.8751593706117127e-05 3.6412892476807968e-10 -9.374976059813615e-05 1.5929335036972049e-05 3.016566580570434e-10 -7.8313893144832283e-05 2.1677219333735953e-05 2.2904330413908756e-10 -9.3749871873119952e-05 1.5929335036972052e-05 3.016566580570434e-10 -7.8313893144832297e-05 2.1870775680849443e-05 3.0264964930715236e-10 -7.786672683777946e-05 1.5598393584324534e-05 1.7243176682291142e-10 -7.3026802666176094e-05 1.5929335036972052e-05 3.016566580570434e-10 -7.8313893144832297e-05 1.9136696072295189e-05 2.7545074247182748e-10 -6.3597747562509869e-05 2.1870775680849443e-05 3.0264964930715236e-10 -7.786672683777946e-05 1.5598393584324537e-05 1.7243176682291145e-10 -7.3026802666176094e-05 1.9136696072295189e-05 2.7545074247182748e-10 -6.3597747562509869e-05 1.562101044539884e-05 1.5873911691594412e-10 -4.9657217105295719e-05 2.1454278676800577e-05 1.074916235583896e-10 -6.4358870504225923e-05 1.5598393584324537e-05 1.7243176682291145e-10 -7.3026802666176094e-05 1.9136696072295189e-05 2.7545074247182748e-10 -6.3597747562509869e-05 1.562101044539884e-05 1.5873911691594414e-10 -4.9657217105295712e-05 2.1326399070200072e-05 3.7194917294057628e-10 -4.9041192557915759e-05 2.418098408268528e-05 2.068640918650794e-10 -4.6715346053894628e-05 1.9136696072295189e-05 2.7545074247182748e-10 -6.3597747562509869e-05 1.431980320694804e-05 2.6679195545191383e-10 -6.4659148310786726e-05 1.5621010445398844e-05 1.5873911691594412e-10 -4.9657217105295726e-05 1.5598393584324537e-05 1.7243176682291145e-10 -7.3026802666176094e-05 1.431980320694804e-05 2.6679195545191383e-10 -6.4659148310786726e-05 1.9136696072295189e-05 2.7545074247182748e-10 -6.3597747562509869e-05 1.5929335036972052e-05 3.016566580570434e-10 -7.8313893144832297e-05 1.5598393584324537e-05 1.7243176682291145e-10 -7.3026802666176094e-05 1.9136696072295189e-05 2.7545074247182748e-10 -6.3597747562509869e-05 2.1454278676800574e-05 1.074916235583896e-10 -6.4358870504225909e-05 1.5621010445398844e-05 1.5873911691594412e-10 -4.9657217105295719e-05 2.418098408268528e-05 2.068640918650794e-10 -4.6715346053894628e-05 2.5422246041192054e-05 3.2066923404289536e-10 -6.4145086866165374e-05 1.9136696072295189e-05 2.7545074247182748e-10 -6.3597747562509869e-05 2.1454278676800574e-05 1.074916235583896e-10 -6.4358870504225909e-05 2.4277623572363245e-05 1.8789771921494774e-10 -7.6560964616667574e-05 1.9136696072295189e-05 2.7545074247182748e-10 -6.3597747562509869e-05 1.5598393584324537e-05 1.7243176682291145e-10 -7.3026802666176094e-05 2.1454278676800577e-05 1.0749162355838959e-10 -6.4358870504225909e-05 2.4277623572363245e-05 1.8789771921494774e-10 -7.6560964616667574e-05 2.5422246041192054e-05 3.2066923404289536e-10 -6.4145086866165374e-05 2.1454278676800577e-05 1.0749162355838962e-10 -6.4358870504225936e-05 1.9136696072295189e-05 2.7545074247182748e-10 -6.3597747562509869e-05 2.418098408268528e-05 2.0686409186507938e-10 -4.6715346053894635e-05 2.5422246041192054e-05 3.2066923404289536e-10 -6.4145086866165374e-05 1.9136696072295189e-05 2.7545074247182748e-10 -6.3597747562509869e-05 2.1326399070200072e-05 3.7194917294057617e-10 -4.9041192557915759e-05 2.418098408268528e-05 2.068640918650794e-10 -4.6715346053894628e-05 1.9136696072295189e-05 2.7545074247182748e-10 -6.3597747562509869e-05 1.431980320694804e-05 2.6679195545191383e-10 -6.4659148310786726e-05 1.6239009663722847e-05 3.1638110634913128e-10 -4.6875438724226179e-05 1.5621010445398844e-05 1.5873911691594406e-10 -4.9657217105295719e-05 1.9136696072295189e-05 2.7545074247182748e-10 -6.3597747562509869e-05 1.6239009663722847e-05 3.1638110634913128e-10 -4.6875438724226179e-05 2.1326399070200072e-05 3.7194917294057628e-10 -4.9041192557915759e-05 1.5621010445398847e-05 1.5873911691594412e-10 -4.9657217105295726e-05 2.1454278676800577e-05 1.0749162355838961e-10 -6.4358870504225923e-05 1.5621010445398844e-05 1.5873911691594409e-10 -4.9657217105295719e-05 1.5568674751791602e-05 1.5203786574667327e-11 -7.0355303123466472e-05 1.5598393584324537e-05 1.7243176682291145e-10 -7.3026802666176094e-05 2.1454278676800577e-05 1.0749162355838961e-10 -6.4358870504225923e-05 1.562600746976112e-05 -1.7947185033264923e-12 -4.6875390101611991e-05 2.3452940044532581e-05 1.6515878385926779e-11 -4.6722419229397329e-05 1.5568674751791602e-05 1.5203786574667324e-11 -7.0355303123466472e-05 2.1454278676800577e-05 1.0749162355838961e-10 -6.4358870504225923e-05 1.5568674751791602e-05 1.5203786574667324e-11 -7.0355303123466472e-05 2.3452940044532584e-05 1.6515878385926766e-11 -4.6722419229397336e-05 2.438258918223497e-05 -6.1522688868599675e-12 -7.314323946128831e-05 1.562600746976112e-05 -1.794718503326462e-12 -4.6875390101611998e-05 2.1454278676800577e-05 1.0749162355838964e-10 -6.4358870504225909e-05 2.3452940044532584e-05 1.6515878385926766e-11 -4.6722419229397336e-05 1.5621010445398844e-05 1.5873911691594412e-10 -4.9657217105295719e-05 2.3452940044532584e-05 1.6515878385926766e-11 -4.6722419229397336e-05 1.5621010445398844e-05 1.5873911691594409e-10 -4.9657217105295726e-05 2.1454278676800577e-05 1.0749162355838961e-10 -6.4358870504225923e-05 2.4180984082685287e-05 2.0686409186507948e-10 -4.6715346053894635e-05 2.1454278676800577e-05 1.0749162355838961e-10 -6.4358870504225923e-05 1.5626007469761117e-05 -1.794718503326445e-12 -4.6875390101611998e-05 1.5568674751791602e-05 1.5203786574667324e-11 -7.0355303123466472e-05 1.562101044539884e-05 1.5873911691594414e-10 -4.9657217105295712e-05 2.438258918223497e-05 -6.1522688868599675e-12 -7.314323946128831e-05 1.9069250409168207e-05 1.170267677024498e-10 -9.3749735775896183e-05 1.5568674751791602e-05 1.520378657466733e-11 -7.0355303123466472e-05 2.1039374752656177e-05 1.7611786560875031e-11 -9.3749835825642232e-05 2.438258918223497e-05 -6.1522688868599675e-12 -7.314323946128831e-05 1.5568674751791602e-05 1.520378657466733e-11 -7.0355303123466472e-05 1.906925040916821e-05 1.1702676770244988e-10 -9.3749735775896183e-05 2.1454278676800577e-05 1.0749162355838959e-10 -6.4358870504225923e-05 1.906925040916821e-05 1.1702676770244988e-10 -9.3749735775896183e-05 2.1454278676800577e-05 1.0749162355838956e-10 -6.4358870504225923e-05 2.5264338881529765e-05 1.1285468098217674e-10 -9.3750105500531138e-05 2.438258918223497e-05 -6.1522688868599377e-12 -7.314323946128831e-05 2.1454278676800577e-05 1.0749162355838961e-10 -6.4358870504225923e-05 1.5598393584324537e-05 1.7243176682291145e-10 -7.3026802666176094e-05 1.906925040916821e-05 1.1702676770244988e-10 -9.374973577589617e-05 2.4277623572363241e-05 1.8789771921494777e-10 -7.6560964616667574e-05 2.1454278676800577e-05 1.0749162355838961e-10 -6.4358870504225923e-05 1.5568674751791605e-05 1.5203786574667321e-11 -7.0355303123466486e-05 1.906925040916821e-05 1.1702676770244985e-10 -9.3749735775896183e-05 1.5598393584324537e-05 1.7243176682291145e-10 -7.3026802666176094e-05 2.5264338881529765e-05 1.1285468098217674e-10 -9.3750105500531138e-05 2.1454278676800577e-05 1.0749162355838959e-10 -6.4358870504225909e-05 1.906925040916821e-05 1.1702676770244988e-10 -9.3749735775896183e-05 2.4277623572363245e-05 1.8789771921494774e-10 -7.6560964616667574e-05 2.1039374752656173e-05 1.7611786560874979e-11 -9.3749835825642232e-05 1.906925040916821e-05 1.1702676770244988e-10 -9.3749735775896183e-05 2.5264338881529765e-05 1.1285468098217674e-10 -9.3750105500531138e-05 2.438258918223497e-05 -6.1522688868599675e-12 -7.314323946128831e-05 1.4317593917184256e-05 1.2090610602416439e-10 -9.3749489669856176e-05 1.906925040916821e-05 1.1702676770244988e-10 -9.3749735775896183e-05 1.5568674751791602e-05 1.5203786574667324e-11 -7.0355303123466472e-05 1.5598393584324537e-05 1.7243176682291145e-10 -7.3026802666176094e-05 1.5877405932994945e-05 2.3619654831245111e-10 -9.3749560357650187e-05 1.906925040916821e-05 1.1702676770244988e-10 -9.3749735775896183e-05 1.4317593917184256e-05 1.2090610602416439e-10 -9.3749489669856176e-05 1.5598393584324537e-05 1.7243176682291145e-10 -7.3026802666176094e-05 1.6239391573383363e-05 -2.5209394555620913e-12 -9.3749591552643106e-05 1.4317593917184256e-05 1.2090610602416439e-10 -9.3749489669856176e-05 1.906925040916821e-05 1.1702676770244988e-10 -9.3749735775896183e-05 1.5568674751791602e-05 1.5203786574667324e-11 -7.0355303123466472e-05 2.1039374752656173e-05 1.7611786560874979e-11 -9.3749835825642232e-05 1.6239391573383363e-05 -2.520939455562095e-12 -9.3749591552643106e-05 1.906925040916821e-05 1.1702676770244988e-10 -9.3749735775896183e-05 1.5568674751791602e-05 1.5203786574667324e-11 -7.0355303123466472e-05 9.7378469232354288e-06 1.2125568631688856e-10 -6.4239040619801054e-05 6.8267443633000524e-06 -1.2297795861552156e-12 -7.2782490500450392e-05 1.0140464031632224e-05 6.7240574408292706e-11 -9.3749349845232319e-05 5.7673090040685562e-06 1.6141367176105178e-10 -7.6512013958454159e-05 1.0290065039530393e-05 -7.0763166902130868e-11 -9.3749357077240985e-05 1.0140464031632224e-05 6.7240574408292706e-11 -9.3749349845232319e-05 1.6239391573383363e-05 -2.5209394555620913e-12 -9.3749591552643106e-05 1.5568674751791602e-05 1.5203786574667324e-11 -7.0355303123466459e-05 1.4317593917184256e-05 1.2090610602416439e-10 -9.3749489669856176e-05 9.7378469232354288e-06 1.2125568631688856e-10 -6.4239040619801054e-05 9.7093398312923921e-06 2.1183385184693026e-10 -9.3749343092006235e-05 1.5598393584324537e-05 1.7243176682291145e-10 -7.3026802666176094e-05 1.0290065039530393e-05 -7.0763166902130868e-11 -9.3749357077240985e-05 1.0140464031632224e-05 6.7240574408292706e-11 -9.3749349845232319e-05 1.5568674751791605e-05 1.5203786574667327e-11 -7.0355303123466459e-05 6.826744363300055e-06 -1.2297795861551907e-12 -7.2782490500450392e-05 1.4317593917184256e-05 1.2090610602416439e-10 -9.3749489669856176e-05 1.5568674751791602e-05 1.5203786574667311e-11 -7.0355303123466472e-05 9.7378469232354288e-06 1.2125568631688856e-10 -6.4239040619801054e-05 1.5598393584324537e-05 1.7243176682291145e-10 -7.3026802666176094e-05 1.0140464031632224e-05 6.7240574408292706e-11 -9.3749349845232319e-05 9.7378469232354305e-06 1.2125568631688853e-10 -6.423904061980104e-05 1.5568674751791602e-05 1.5203786574667359e-11 -7.0355303123466459e-05 6.8267443633000533e-06 -1.2297795861551903e-12 -7.2782490500450392e-05 1.4317593917184256e-05 1.2090610602416439e-10 -9.3749489669856176e-05 1.6239391573383363e-05 -2.5209394555620913e-12 -9.3749591552643106e-05 1.0140464031632224e-05 6.7240574408292706e-11 -9.3749349845232319e-05 1.5568674751791602e-05 1.5203786574667324e-11 -7.0355303123466472e-05 9.7093398312923921e-06 2.1183385184693026e-10 -9.3749343092006235e-05 1.4317593917184256e-05 1.2090610602416439e-10 -9.3749489669856176e-05 1.0140464031632224e-05 6.7240574408292706e-11 -9.3749349845232319e-05 9.7378469232354288e-06 1.2125568631688856e-10 -6.4239040619801054e-05 1.4317593917184256e-05 1.2090610602416439e-10 -9.3749489669856176e-05 1.0140464031632224e-05 6.7240574408292706e-11 -9.3749349845232319e-05 9.7378469232354288e-06 1.2125568631688856e-10 -6.4239040619801054e-05 1.5568674751791602e-05 1.5203786574667324e-11 -7.0355303123466472e-05 1.0140464031632224e-05 6.7240574408292706e-11 -9.3749349845232319e-05 9.7093398312923904e-06 2.1183385184693023e-10 -9.3749343092006235e-05 9.7378469232354288e-06 1.2125568631688856e-10 -6.423904061980104e-05 5.767309004068557e-06 1.6141367176105181e-10 -7.6512013958454159e-05 9.7378469232354288e-06 1.2125568631688856e-10 -6.4239040619801054e-05 1.562600746976112e-05 -1.7947185033264481e-12 -4.6875390101611991e-05 7.7408888467154314e-06 2.1400440649606403e-11 -4.2280181507588739e-05 1.5621010445398844e-05 1.5873911691594412e-10 -4.9657217105295712e-05 9.7378469232354288e-06 1.2125568631688856e-10 -6.4239040619801054e-05 1.5568674751791602e-05 1.520378657466733e-11 -7.0355303123466472e-05 1.5626007469761123e-05 -1.7947185033264311e-12 -4.6875390101611991e-05 1.5621010445398844e-05 1.5873911691594412e-10 -4.9657217105295719e-05 9.7378469232354288e-06 1.2125568631688856e-10 -6.4239040619801054e-05 1.5621010445398847e-05 1.5873911691594412e-10 -4.9657217105295726e-05 7.7408888467154314e-06 2.1400440649606465e-11 -4.2280181507588739e-05 7.036996476273817e-06 1.8630182246203682e-10 -4.5175849460323195e-05 1.562600746976112e-05 -1.794718503326462e-12 -4.6875390101611998e-05 9.7378469232354288e-06 1.2125568631688856e-10 -6.4239040619801054e-05 7.7408888467154314e-06 2.1400440649606432e-11 -4.2280181507588739e-05 6.8267443633000533e-06 -1.2297795861551903e-12 -7.2782490500450392e-05 9.7378469232354288e-06 1.2125568631688856e-10 -6.4239040619801054e-05 1.562600746976112e-05 -1.7947185033264808e-12 -4.6875390101611998e-05 1.5568674751791602e-05 1.5203786574667324e-11 -7.0355303123466472e-05 6.8267443633000516e-06 -1.2297795861552204e-12 -7.2782490500450378e-05 1.5568674751791602e-05 1.5203786574667324e-11 -7.0355303123466472e-05 1.5621010445398844e-05 1.5873911691594412e-10 -4.9657217105295719e-05 9.7378469232354288e-06 1.2125568631688856e-10 -6.4239040619801054e-05 1.5598393584324537e-05 1.7243176682291145e-10 -7.3026802666176094e-05 1.0140724704036042e-05 3.6841697363812655e-10 -5.6269032973875176e-05 1.431980320694804e-05 2.6679195545191383e-10 -6.4659148310786726e-05 9.7378469232354288e-06 1.2125568631688856e-10 -6.4239040619801054e-05 1.562101044539884e-05 1.5873911691594412e-10 -4.9657217105295732e-05 1.431980320694804e-05 2.6679195545191383e-10 -6.4659148310786726e-05 9.7148165869363674e-06 3.2600881422191441e-10 -7.6377791868018454e-05 1.0140724704036042e-05 3.6841697363812655e-10 -5.6269032973875176e-05 9.7378469232354288e-06 1.2125568631688856e-10 -6.4239040619801054e-05 1.431980320694804e-05 2.6679195545191383e-10 -6.4659148310786726e-05 9.7378469232354288e-06 1.2125568631688856e-10 -6.4239040619801054e-05 1.5621010445398844e-05 1.5873911691594412e-10 -4.9657217105295719e-05 1.5598393584324537e-05 1.7243176682291145e-10 -7.3026802666176094e-05 1.0140724704036042e-05 3.6841697363812655e-10 -5.6269032973875176e-05 9.7378469232354288e-06 1.2125568631688856e-10 -6.4239040619801054e-05 9.714816586936369e-06 3.2600881422191441e-10 -7.637779186801844e-05 5.767309004068557e-06 1.6141367176105181e-10 -7.6512013958454159e-05 1.0140724704036042e-05 3.6841697363812655e-10 -5.6269032973875176e-05 1.562101044539884e-05 1.5873911691594412e-10 -4.9657217105295726e-05 9.7378469232354288e-06 1.2125568631688856e-10 -6.4239040619801067e-05 7.0369964762738187e-06 1.8630182246203695e-10 -4.5175849460323202e-05 1.431980320694804e-05 2.6679195545191383e-10 -6.4659148310786726e-05 9.714816586936369e-06 3.2600881422191441e-10 -7.6377791868018454e-05 9.7378469232354254e-06 1.2125568631688851e-10 -6.423904061980104e-05 1.5598393584324537e-05 1.7243176682291145e-10 -7.3026802666176094e-05 1.0290216328827606e-05 3.5333005824226489e-10 -3.7140530282860246e-05 1.5621010445398847e-05 1.5873911691594412e-10 -4.9657217105295719e-05 1.0140724704036042e-05 3.6841697363812655e-10 -5.6269032973875176e-05 7.036996476273817e-06 1.8630182246203685e-10 -4.5175849460323202e-05 1.0140724704036042e-05 3.6841697363812655e-10 -5.6269032973875176e-05 9.7378469232354305e-06 1.2125568631688856e-10 -6.4239040619801067e-05 4.9691220823498338e-06 3.0221421336657104e-10 -6.5106988417718424e-05 7.036996476273817e-06 1.8630182246203688e-10 -4.5175849460323195e-05 1.0290216328827606e-05 3.5333005824226489e-10 -3.7140530282860246e-05 1.6239009663722847e-05 3.1638110634913128e-10 -4.6875438724226179e-05 1.0140724704036042e-05 3.6841697363812655e-10 -5.6269032973875176e-05 1.5621010445398844e-05 1.5873911691594412e-10 -4.9657217105295719e-05 1.0140724704036042e-05 3.6841697363812655e-10 -5.6269032973875176e-05 1.6239009663722847e-05 3.1638110634913128e-10 -4.6875438724226179e-05 1.431980320694804e-05 2.6679195545191383e-10 -6.4659148310786726e-05 1.5621010445398844e-05 1.5873911691594417e-10 -4.9657217105295719e-05 1.431980320694804e-05 2.6679195545191383e-10 -6.4659148310786726e-05 1.5929335036972052e-05 3.016566580570434e-10 -7.8313893144832297e-05 9.7148165869363674e-06 3.2600881422191441e-10 -7.6377791868018454e-05 1.5598393584324537e-05 1.7243176682291145e-10 -7.3026802666176094e-05 9.7148165869363674e-06 3.2600881422191441e-10 -7.6377791868018454e-05 1.5598393584324541e-05 1.7243176682291142e-10 -7.3026802666176081e-05 9.7093398312923921e-06 2.1183385184693026e-10 -9.3749343092006235e-05 5.767309004068557e-06 1.6141367176105181e-10 -7.6512013958454159e-05 9.7148165869363674e-06 3.2600881422191441e-10 -7.6377791868018454e-05 9.7378469232354271e-06 1.2125568631688861e-10 -6.4239040619801054e-05 1.5598393584324537e-05 1.7243176682291132e-10 -7.3026802666176094e-05 5.767309004068557e-06 1.6141367176105181e-10 -7.6512013958454159e-05 1.5877405932994945e-05 2.3619654831245111e-10 -9.3749560357650187e-05 9.7148165869363657e-06 3.2600881422191441e-10 -7.6377791868018454e-05 1.5929335036972052e-05 3.016566580570434e-10 -7.8313893144832297e-05 1.5598393584324537e-05 1.7243176682291145e-10 -7.3026802666176094e-05 9.7093398312923921e-06 2.1183385184693026e-10 -9.3749343092006235e-05 1.5598393584324534e-05 1.7243176682291147e-10 -7.3026802666176081e-05 9.7378469232354288e-06 1.2125568631688853e-10 -6.4239040619801067e-05 5.767309004068557e-06 1.6141367176105181e-10 -7.6512013958454159e-05 9.7148165869363674e-06 3.2600881422191441e-10 -7.6377791868018454e-05 1.2501115449143322e-05 4.0426889917588585e-10 -9.3749477442914454e-05 1.5877405932994945e-05 2.3619654831245111e-10 -9.3749560357650187e-05 1.5929335036972052e-05 3.016566580570434e-10 -7.8313893144832297e-05 9.7148165869363674e-06 3.2600881422191441e-10 -7.6377791868018454e-05 1.2501115449143322e-05 4.0426889917588585e-10 -9.3749477442914454e-05 9.7093398312923921e-06 2.1183385184693026e-10 -9.3749343092006235e-05 1.5877405932994945e-05 2.3619654831245111e-10 -9.3749560357650187e-05 9.7148165869363674e-06 3.2600881422191441e-10 -7.6377791868018454e-05 1.5877405932994945e-05 2.3619654831245111e-10 -9.3749560357650187e-05 9.7093398312923921e-06 2.1183385184693026e-10 -9.3749343092006235e-05 1.5598393584324537e-05 1.724317668229114e-10 -7.3026802666176081e-05 1.4317593917184256e-05 1.2090610602416439e-10 -9.3749489669856176e-05 9.7093398312923921e-06 2.1183385184693026e-10 -9.3749343092006235e-05 1.5877405932994945e-05 2.3619654831245111e-10 -9.3749560357650187e-05 1.5598393584324537e-05 1.7243176682291145e-10 -7.3026802666176094e-05 1.2501115449143322e-05 4.0426889917588585e-10 -9.3749477442914454e-05 6.2505657274740604e-06 3.2985782834870776e-10 -9.3749293461732413e-05 9.7148165869363674e-06 3.2600881422191441e-10 -7.6377791868018454e-05 9.7093398312923921e-06 2.1183385184693026e-10 -9.3749343092006235e-05 4.9691220823498338e-06 3.0221421336657104e-10 -6.5106988417718424e-05 9.7148165869363674e-06 3.2600881422191441e-10 -7.6377791868018454e-05 4.575674838374168e-06 2.4310077988920053e-10 -8.0023571231328165e-05 5.767309004068557e-06 1.6141367176105181e-10 -7.6512013958454159e-05 9.7148165869363674e-06 3.2600881422191441e-10 -7.6377791868018454e-05 9.7093398312923921e-06 2.1183385184693026e-10 -9.3749343092006235e-05 4.575674838374168e-06 2.4310077988920053e-10 -8.0023571231328165e-05 5.767309004068557e-06 1.6141367176105181e-10 -7.6512013958454159e-05 9.7148165869363674e-06 3.2600881422191441e-10 -7.6377791868018454e-05 6.2505657274740596e-06 3.2985782834870765e-10 -9.3749293461732413e-05 4.575674838374168e-06 2.4310077988920053e-10 -8.0023571231328165e-05 9.7093398312923921e-06 2.1183385184693026e-10 -9.3749343092006235e-05 4.5757307172203256e-06 2.1094900752522304e-10 -9.3749229017174988e-05 4.575674838374168e-06 2.4310077988920053e-10 -8.0023571231328165e-05 6.2505657274740604e-06 3.2985782834870776e-10 -9.3749293461732413e-05 9.7093398312923921e-06 2.1183385184693026e-10 -9.3749343092006235e-05 9.7093398312923921e-06 2.1183385184693026e-10 -9.3749343092006235e-05 4.9682066966360242e-06 1.1937776070888898e-10 -9.3749246679166934e-05 4.5757307172203256e-06 2.1094900752522304e-10 -9.3749229017174988e-05 5.767309004068557e-06 1.6141367176105181e-10 -7.6512013958454159e-05 4.5757307172203256e-06 2.1094900752522304e-10 -9.3749229017174988e-05 4.575674838374168e-06 2.4310077988920053e-10 -8.0023571231328152e-05 9.7093398312923921e-06 2.1183385184693023e-10 -9.3749343092006221e-05 5.767309004068557e-06 1.6141367176105178e-10 -7.6512013958454159e-05 -3.1004537124966255e-15 2.0056293772624603e-10 -8.0023542051592159e-05 2.5660591023530793e-15 1.1412822195272724e-10 -7.9849844664155067e-05 5.1953336812852612e-15 1.904951027797045e-10 -6.6133257534988762e-05 5.767309004068557e-06 1.6141367176105181e-10 -7.6512013958454159e-05 4.9691220823498338e-06 3.0221421336657104e-10 -6.5106988417718424e-05 -3.1004534969322007e-15 2.0056293772624598e-10 -8.0023542051592159e-05 5.1953338500475889e-15 1.9049510277970444e-10 -6.6133257534988749e-05 5.7673090040685562e-06 1.6141367176105178e-10 -7.6512013958454159e-05 5.767309004068557e-06 1.6141367176105181e-10 -7.6512013958454159e-05 1.6319976973268096e-14 1.7781058386301075e-10 -9.3749200737942666e-05 4.9682066966360217e-06 1.1937776070888903e-10 -9.374924667916692e-05 4.5757307172203256e-06 2.1094900752522302e-10 -9.3749229017174988e-05 4.575674838374168e-06 2.4310077988920053e-10 -8.0023571231328165e-05 4.5757307172203256e-06 2.1094900752522304e-10 -9.3749229017175002e-05 -3.1004537124966255e-15 2.0056293772624603e-10 -8.0023542051592159e-05 5.767309004068557e-06 1.6141367176105181e-10 -7.6512013958454159e-05 -3.1004537124966255e-15 2.0056293772624603e-10 -8.0023542051592159e-05 1.6319975971372533e-14 1.7781058386301081e-10 -9.3749200737942666e-05 2.5660591023530793e-15 1.1412822195272724e-10 -7.9849844664155067e-05 5.767309004068557e-06 1.6141367176105181e-10 -7.6512013958454159e-05 -3.1004537124966255e-15 2.0056293772624603e-10 -8.0023542051592159e-05 4.5757307172203256e-06 2.1094900752522304e-10 -9.3749229017174988e-05 1.6319976168953112e-14 1.7781058386301081e-10 -9.374920073794268e-05 5.767309004068557e-06 1.6141367176105181e-10 -7.6512013958454159e-05 1.3861210323532103e-14 3.327344093605915e-10 -9.3749215764652116e-05 -3.1004539109373164e-15 2.0056293772624606e-10 -8.0023542051592159e-05 4.5757307172203256e-06 2.1094900752522304e-10 -9.3749229017174988e-05 1.6319975934649849e-14 1.7781058386301081e-10 -9.3749200737942666e-05 -3.1004537124966255e-15 2.0056293772624603e-10 -8.0023542051592159e-05 4.575674838374168e-06 2.4310077988920048e-10 -8.0023571231328152e-05 1.3861210323532103e-14 3.327344093605915e-10 -9.3749215764652116e-05 4.5757307172203256e-06 2.1094900752522304e-10 -9.3749229017174988e-05 6.2505657274740604e-06 3.2985782834870776e-10 -9.3749293461732413e-05 1.386121045906972e-14 3.3273440936059156e-10 -9.3749215764652116e-05 4.575674838374168e-06 2.4310077988920053e-10 -8.0023571231328165e-05 4.5757307172203256e-06 2.1094900752522304e-10 -9.3749229017174988e-05 4.575674838374168e-06 2.4310077988920053e-10 -8.0023571231328165e-05 1.3861210323532103e-14 3.327344093605915e-10 -9.3749215764652116e-05 1.2718015512629955e-15 2.9325572779144812e-10 -7.49996081741482e-05 -3.1004537124966255e-15 2.0056293772624603e-10 -8.0023542051592159e-05 4.575674838374168e-06 2.4310077988920053e-10 -8.0023571231328165e-05 -3.1004537112293792e-15 2.0056293772624603e-10 -8.0023542051592159e-05 4.9691220823498338e-06 3.0221421336657104e-10 -6.5106988417718424e-05 5.767309004068557e-06 1.6141367176105181e-10 -7.6512013958454159e-05 4.9691220823498338e-06 3.0221421336657104e-10 -6.5106988417718424e-05 1.2718003559054877e-15 2.9325572779144822e-10 -7.4999608174148213e-05 5.1953336812852612e-15 1.904951027797045e-10 -6.6133257534988762e-05 -3.1004537124966255e-15 2.0056293772624603e-10 -8.0023542051592159e-05 1.271801921553838e-15 2.9325572779144817e-10 -7.4999608174148213e-05 4.9691220823498338e-06 3.0221421336657104e-10 -6.5106988417718424e-05 4.575674838374168e-06 2.4310077988920053e-10 -8.0023571231328165e-05 -3.1004537124966255e-15 2.0056293772624603e-10 -8.0023542051592159e-05 5.1953336812852612e-15 1.904951027797045e-10 -6.6133257534988762e-05 4.7818800742833107e-15 3.6113703529293958e-10 -5.6250025289349016e-05 1.271801921553838e-15 2.9325572779144817e-10 -7.4999608174148213e-05 4.9691220823498338e-06 3.0221421336657104e-10 -6.5106988417718424e-05 9.7378469232354288e-06 1.2125568631688856e-10 -6.4239040619801054e-05 7.0369964762738187e-06 1.8630182246203688e-10 -4.5175849460323209e-05 5.1953325108682908e-15 1.9049510277970444e-10 -6.6133257534988762e-05 5.7673090040685579e-06 1.6141367176105181e-10 -7.6512013958454159e-05 5.1953336812852612e-15 1.904951027797045e-10 -6.6133257534988762e-05 -7.832176669907256e-15 2.3945230712075126e-10 -4.7628340732010795e-05 4.7818800742833107e-15 3.6113703529293958e-10 -5.6250025289349016e-05 4.9691220823498338e-06 3.0221421336657104e-10 -6.5106988417718424e-05 4.9691220823498338e-06 3.0221421336657104e-10 -6.5106988417718424e-05 9.7378469232354288e-06 1.2125568631688861e-10 -6.423904061980104e-05 1.0140724704036042e-05 3.6841697363812655e-10 -5.6269032973875176e-05 5.767309004068557e-06 1.6141367176105181e-10 -7.6512013958454159e-05 4.9691220823498338e-06 3.0221421336657104e-10 -6.5106988417718424e-05 7.0369964762738229e-06 1.8630182246203685e-10 -4.5175849460323202e-05 9.7378469232354237e-06 1.2125568631688856e-10 -6.4239040619801067e-05 5.767309004068557e-06 1.6141367176105181e-10 -7.6512013958454159e-05 4.9691220823498338e-06 3.0221421336657104e-10 -6.5106988417718424e-05 5.1953350873188872e-15 1.9049510277970444e-10 -6.6133257534988762e-05 7.0369964762738179e-06 1.8630182246203685e-10 -4.5175849460323202e-05 5.7673090040685562e-06 1.6141367176105178e-10 -7.6512013958454159e-05 4.9691220823498338e-06 3.0221421336657104e-10 -6.5106988417718424e-05 1.0140724704036042e-05 3.6841697363812655e-10 -5.6269032973875169e-05 9.7148165869363674e-06 3.2600881422191441e-10 -7.6377791868018454e-05 5.767309004068557e-06 1.6141367176105181e-10 -7.6512013958454159e-05 1.0140724704036042e-05 3.6841697363812655e-10 -5.6269032973875176e-05 4.9691220823498338e-06 3.0221421336657104e-10 -6.5106988417718424e-05 5.3835198419055702e-06 3.3029302806081248e-10 -4.6722024248783792e-05 7.0369964762738179e-06 1.8630182246203685e-10 -4.5175849460323202e-05 -7.8321774030278997e-15 2.3945230712075126e-10 -4.7628340732010795e-05 5.3835198419055711e-06 3.3029302806081248e-10 -4.6722024248783792e-05 4.9691220823498338e-06 3.0221421336657104e-10 -6.5106988417718424e-05 7.0369964762738179e-06 1.8630182246203685e-10 -4.5175849460323202e-05 4.7818800742833107e-15 3.6113703529293958e-10 -5.6250025289349016e-05 3.6848132886643001e-15 3.8700978123879235e-10 -3.750045439854466e-05 5.3835198419055702e-06 3.3029302806081248e-10 -4.6722024248783792e-05 -7.8321774030278997e-15 2.3945230712075126e-10 -4.7628340732010795e-05 -7.8321774030278997e-15 2.3945230712075126e-10 -4.7628340732010795e-05 5.3835198419055719e-06 3.3029302806081248e-10 -4.6722024248783792e-05 4.7818800742833107e-15 3.6113703529293958e-10 -5.6250025289349016e-05 4.9691220823498338e-06 3.0221421336657104e-10 -6.5106988417718424e-05 -7.8321774030278997e-15 2.3945230712075126e-10 -4.7628340732010795e-05 4.9691220823498338e-06 3.0221421336657104e-10 -6.5106988417718424e-05 5.1953336812852612e-15 1.904951027797045e-10 -6.6133257534988762e-05 7.0369964762738179e-06 1.8630182246203685e-10 -4.5175849460323202e-05 -4.9909675764111913e-15 1.0636761261200376e-10 -5.6197752480315577e-05 -7.8321774030278997e-15 2.3945230712075126e-10 -4.7628340732010795e-05 5.1953336812852612e-15 1.904951027797045e-10 -6.6133257534988762e-05 7.0369964762738179e-06 1.8630182246203685e-10 -4.5175849460323202e-05 -4.9909675764111913e-15 1.0636761261200376e-10 -5.6197752480315577e-05 5.1953338201105116e-15 1.904951027797045e-10 -6.6133257534988762e-05 9.7378469232354288e-06 1.2125568631688853e-10 -6.423904061980104e-05 7.0369964762738179e-06 1.8630182246203685e-10 -4.5175849460323202e-05 -4.9909675764111913e-15 1.0636761261200376e-10 -5.6197752480315577e-05 9.7378469232354254e-06 1.2125568631688835e-10 -6.4239040619801067e-05 5.1953339188407926e-15 1.9049510277970452e-10 -6.6133257534988749e-05 5.767309004068557e-06 1.6141367176105173e-10 -7.6512013958454173e-05 -4.9909675764111913e-15 1.0636761261200376e-10 -5.6197752480315577e-05 5.1953336812852612e-15 1.904951027797045e-10 -6.6133257534988762e-05 4.4270080949550528e-15 6.4287514374653239e-11 -6.8177178515254602e-05 5.7673090040685596e-06 1.6141367176105181e-10 -7.6512013958454159e-05 -4.9909675764111913e-15 1.0636761261200376e-10 -5.6197752480315577e-05 7.7408888467154314e-06 2.1400440649606397e-11 -4.2280181507588732e-05 9.7378469232354288e-06 1.2125568631688856e-10 -6.4239040619801054e-05 6.8267443633000533e-06 -1.2297795861552154e-12 -7.2782490500450392e-05 -4.9909675764111913e-15 1.0636761261200376e-10 -5.6197752480315577e-05 4.4270080949550528e-15 6.4287514374653239e-11 -6.8177178515254602e-05 9.7378469232354271e-06 1.2125568631688861e-10 -6.4239040619801054e-05 5.7673090040685587e-06 1.6141367176105181e-10 -7.6512013958454159e-05 -4.9909675764111913e-15 1.0636761261200376e-10 -5.6197752480315577e-05 4.2739486057483689e-15 -1.9795809751256877e-11 -6.3112861985983285e-05 -6.7683445298240428e-15 4.049370735655614e-12 -4.8714121995995779e-05 6.826744363300055e-06 -1.2297795861551845e-12 -7.2782490500450392e-05 4.4270080949550528e-15 6.4287514374653239e-11 -6.8177178515254602e-05 -4.9909675764111913e-15 1.0636761261200376e-10 -5.6197752480315577e-05 9.7378469232354288e-06 1.2125568631688856e-10 -6.4239040619801054e-05 6.8267443633000533e-06 -1.2297795861551903e-12 -7.2782490500450392e-05 -4.9909675764111913e-15 1.0636761261200376e-10 -5.6197752480315577e-05 9.7378469232354288e-06 1.2125568631688856e-10 -6.4239040619801054e-05 7.7408888467154314e-06 2.1400440649606384e-11 -4.2280181507588732e-05 7.0369964762738179e-06 1.8630182246203685e-10 -4.5175849460323202e-05 -4.9909675764111913e-15 1.0636761261200376e-10 -5.6197752480315577e-05 -6.7683441514757425e-15 4.0493707356556116e-12 -4.8714121995995779e-05 7.7408888467154314e-06 2.1400440649606432e-11 -4.2280181507588739e-05 6.826744363300055e-06 -1.2297795861552426e-12 -7.2782490500450392e-05 1.4263197929429189e-15 1.2061571595473732e-10 -4.2810835528267177e-05 -7.8321774043766625e-15 2.3945230712075126e-10 -4.7628340732010795e-05 -4.9909675764111913e-15 1.0636761261200376e-10 -5.6197752480315577e-05 7.0369964762738179e-06 1.8630182246203685e-10 -4.5175849460323202e-05 -4.9909675764111913e-15 1.0636761261200376e-10 -5.6197752480315577e-05 -6.7683441514757425e-15 4.0493707356556116e-12 -4.8714121995995779e-05 1.4263197929429189e-15 1.2061571595473732e-10 -4.2810835528267177e-05 7.7408888467154314e-06 2.1400440649606432e-11 -4.2280181507588739e-05 4.4270080949550528e-15 6.4287514374653239e-11 -6.8177178515254602e-05 4.2739486057483689e-15 -1.9795809751256877e-11 -6.3112861985983285e-05 -4.990967328222382e-15 1.0636761261200376e-10 -5.619775248031557e-05 6.8267443633000533e-06 -1.2297795861551903e-12 -7.2782490500450392e-05 -2.4265794037888127e-16 2.5377546519307995e-12 -7.8929451281617574e-05 2.5660591023530793e-15 1.1412822195272724e-10 -7.9849844664155067e-05 4.9682066966360242e-06 1.1937776070888898e-10 -9.3749246679166934e-05 6.8267443633000541e-06 -1.2297795861551699e-12 -7.2782490500450378e-05 4.4270080949550528e-15 6.4287514374653239e-11 -6.8177178515254602e-05 6.8267443633000533e-06 -1.2297795861551978e-12 -7.2782490500450392e-05 9.7378469232354288e-06 1.2125568631688856e-10 -6.4239040619801054e-05 5.7673090040685579e-06 1.6141367176105183e-10 -7.6512013958454159e-05 4.9682066966360242e-06 1.1937776070888898e-10 -9.3749246679166934e-05 6.8267443633000533e-06 -1.2297795861551873e-12 -7.2782490500450378e-05 2.5660577563866547e-15 1.1412822195272721e-10 -7.9849844664155067e-05 5.767309004068557e-06 1.6141367176105178e-10 -7.6512013958454159e-05 -2.4265794037888127e-16 2.5377546519307995e-12 -7.8929451281617574e-05 4.2739486057483689e-15 -1.9795809751256877e-11 -6.3112861985983285e-05 4.4270080949550528e-15 6.4287514374653239e-11 -6.8177178515254602e-05 6.826744363300055e-06 -1.2297795861551905e-12 -7.2782490500450378e-05 -2.4265794037888127e-16 2.5377546519307995e-12 -7.8929451281617574e-05 4.4270080949550528e-15 6.4287514374653239e-11 -6.8177178515254602e-05 2.5660591023530793e-15 1.1412822195272724e-10 -7.9849844664155067e-05 6.826744363300055e-06 -1.2297795861551903e-12 -7.2782490500450405e-05 4.9682066966360242e-06 1.1937776070888898e-10 -9.3749246679166934e-05 1.0140464031632224e-05 6.7240574408292693e-11 -9.3749349845232319e-05 6.8267443633000533e-06 -1.2297795861551851e-12 -7.2782490500450392e-05 5.7673090040685562e-06 1.6141367176105181e-10 -7.6512013958454159e-05 4.4270080949550528e-15 6.4287514374653239e-11 -6.8177178515254602e-05 2.566059074072133e-15 1.1412822195272724e-10 -7.9849844664155067e-05 6.8267443633000524e-06 -1.2297795861551899e-12 -7.2782490500450392e-05 5.7673090040685587e-06 1.6141367176105186e-10 -7.6512013958454159e-05 5.1953336812852612e-15 1.904951027797045e-10 -6.6133257534988762e-05 2.5660591023530793e-15 1.1412822195272724e-10 -7.9849844664155067e-05 4.4270079480643204e-15 6.4287514374653239e-11 -6.8177178515254602e-05 5.767309004068557e-06 1.6141367176105181e-10 -7.6512013958454159e-05 4.9682066966360242e-06 1.1937776070888898e-10 -9.3749246679166934e-05 1.0140464031632224e-05 6.7240574408292706e-11 -9.3749349845232319e-05 5.383655526648627e-06 8.7774150327328958e-14 -9.3749247366912747e-05 6.8267443633000533e-06 -1.2297795861551903e-12 -7.2782490500450392e-05 4.9682066966360242e-06 1.1937776070888898e-10 -9.3749246679166934e-05 5.3836555266486278e-06 8.7774150327343751e-14 -9.374924736691276e-05 -2.4265794037888127e-16 2.5377546519307995e-12 -7.8929451281617574e-05 6.8267443633000533e-06 -1.2297795861551903e-12 -7.2782490500450392e-05 1.0140464031632224e-05 6.7240574408292706e-11 -9.3749349845232319e-05 4.9682066966360242e-06 1.1937776070888898e-10 -9.3749246679166934e-05 9.7093398312923938e-06 2.1183385184693026e-10 -9.3749343092006235e-05 5.767309004068557e-06 1.6141367176105181e-10 -7.6512013958454159e-05 5.767309004068557e-06 1.6141367176105181e-10 -7.6512013958454159e-05 4.9682066966360234e-06 1.1937776070888903e-10 -9.3749246679166934e-05 1.6319976968025588e-14 1.7781058386301078e-10 -9.3749200737942666e-05 2.5660591023530793e-15 1.1412822195272724e-10 -7.9849844664155067e-05 2.5660591023530793e-15 1.1412822195272724e-10 -7.9849844664155067e-05 -2.426579510365024e-16 2.5377546519307991e-12 -7.8929451281617574e-05 4.9682066966360242e-06 1.1937776070888898e-10 -9.3749246679166934e-05 1.3249352736678848e-14 5.899902129911673e-11 -9.3749226462943274e-05 4.9682066966360242e-06 1.1937776070888898e-10 -9.3749246679166934e-05 1.6319975934649849e-14 1.7781058386301081e-10 -9.3749200737942666e-05 2.5660586938131067e-15 1.1412822195272723e-10 -7.9849844664155067e-05 1.3249352736678848e-14 5.899902129911673e-11 -9.3749226462943274e-05 1.3249352736678848e-14 5.899902129911673e-11 -9.3749226462943274e-05 -2.4265794037888127e-16 2.5377546519307995e-12 -7.8929451281617574e-05 4.9682066966360242e-06 1.1937776070888898e-10 -9.3749246679166934e-05 5.3836555266486278e-06 8.7774150327343751e-14 -9.374924736691276e-05 -2.4265794037888127e-16 2.5377546519307995e-12 -7.8929451281617574e-05 1.3249352736678848e-14 5.899902129911673e-11 -9.3749226462943274e-05 1.6382476102047767e-14 -6.2106574645691492e-11 -9.374922534507993e-05 5.3836555266486278e-06 8.7774150327343751e-14 -9.374924736691276e-05 5.3836555266486278e-06 8.7774150327343751e-14 -9.374924736691276e-05 1.6382476416773219e-14 -6.2106574645691492e-11 -9.3749225345079917e-05 -2.4265701640031422e-16 2.5377546519307652e-12 -7.8929451281617574e-05 2.7275355417496818e-15 -1.116989233545456e-10 -7.5786966207064033e-05 1.6382476416773219e-14 -6.2106574645691492e-11 -9.3749225345079917e-05 5.3836555266486278e-06 8.7774150327343751e-14 -9.374924736691276e-05 5.2910265669850416e-06 -1.1625248515093208e-10 -9.374924240887753e-05 2.7275373348671762e-15 -1.1169892335454562e-10 -7.5786966207064033e-05 -6.3225512462899392e-16 -2.0940820672558579e-10 -8.0023534168369262e-05 2.7275373348671762e-15 -1.1169892335454562e-10 -7.5786966207064033e-05 5.2910265669850416e-06 -1.1625248515093208e-10 -9.3749242408877517e-05 9.8215603600140069e-06 -1.2134451325174749e-10 -6.446350394175948e-05 5.2910265669850416e-06 -1.1625248515093208e-10 -9.374924240887753e-05 9.8215603600140035e-06 -1.2134451325174741e-10 -6.446350394175948e-05 2.7275375875511172e-15 -1.1169892335454562e-10 -7.5786966207064046e-05 6.8267443633000524e-06 -1.2297795861551869e-12 -7.2782490500450392e-05 -2.4265794037888127e-16 2.5377546519307995e-12 -7.8929451281617574e-05 2.7275374325554627e-15 -1.1169892335454562e-10 -7.5786966207064033e-05 4.2739486057483689e-15 -1.9795809751256877e-11 -6.3112861985983285e-05 6.826744363300055e-06 -1.2297795861551899e-12 -7.2782490500450378e-05 -2.4265794037888127e-16 2.5377546519307995e-12 -7.8929451281617574e-05 5.383655526648627e-06 8.7774150327345329e-14 -9.374924736691276e-05 2.7275374499379918e-15 -1.1169892335454562e-10 -7.5786966207064033e-05 6.8267443633000541e-06 -1.2297795861551881e-12 -7.2782490500450392e-05 2.7275373348671762e-15 -1.1169892335454562e-10 -7.5786966207064033e-05 5.2910265669850416e-06 -1.1625248515093208e-10 -9.374924240887753e-05 1.6382476416773219e-14 -6.2106574645691492e-11 -9.3749225345079917e-05 1.6234999271553398e-14 -1.7764367793339364e-10 -9.3749215566378969e-05 5.3836555266486278e-06 8.7774150327343751e-14 -9.374924736691276e-05 1.0290065039530393e-05 -7.0763166902130868e-11 -9.3749357077240985e-05 5.2910265669850416e-06 -1.1625248515093208e-10 -9.374924240887753e-05 6.8267443633000533e-06 -1.2297795861551903e-12 -7.2782490500450392e-05 5.3836555266486278e-06 8.7774150327343751e-14 -9.374924736691276e-05 5.2910265669850416e-06 -1.1625248515093208e-10 -9.374924240887753e-05 2.7275385745393328e-15 -1.1169892335454562e-10 -7.5786966207064033e-05 6.8267443633000524e-06 -1.2297795861551907e-12 -7.2782490500450378e-05 9.8792483006917122e-06 -2.0542220535922792e-10 -9.3749338045826723e-05 5.2910265669850416e-06 -1.1625248515093208e-10 -9.374924240887753e-05 1.0290065039530393e-05 -7.0763166902130868e-11 -9.3749357077240985e-05 9.8215603600140018e-06 -1.2134451325174741e-10 -6.446350394175948e-05 1.0140464031632224e-05 6.7240574408292706e-11 -9.3749349845232319e-05 1.0290065039530393e-05 -7.0763166902130868e-11 -9.3749357077240985e-05 5.3836555266486278e-06 8.7774150327343751e-14 -9.374924736691276e-05 6.8267443633000533e-06 -1.2297795861551903e-12 -7.2782490500450392e-05 1.4317602991285989e-05 -1.2802007991692124e-10 -9.374949471376404e-05 9.8215603600140001e-06 -1.2134451325174741e-10 -6.446350394175948e-05 1.5568674751791602e-05 1.5203786574667324e-11 -7.0355303123466472e-05 1.5652599435545568e-05 -1.9420292194329739e-10 -7.3204429471438121e-05 1.0290065039530393e-05 -7.0763166902130868e-11 -9.3749357077240985e-05 1.5568674751791605e-05 1.5203786574667333e-11 -7.0355303123466486e-05 9.8215603600140018e-06 -1.2134451325174744e-10 -6.446350394175948e-05 6.8267443633000541e-06 -1.2297795861552216e-12 -7.2782490500450392e-05 9.8792483006917122e-06 -2.0542220535922792e-10 -9.3749338045826723e-05 1.0290065039530393e-05 -7.0763166902130881e-11 -9.3749357077240985e-05 1.4317602991285989e-05 -1.2802007991692124e-10 -9.374949471376404e-05 9.8215603600140001e-06 -1.2134451325174741e-10 -6.446350394175948e-05 1.4317602991285989e-05 -1.2802007991692124e-10 -9.374949471376404e-05 9.8792483006917139e-06 -2.0542220535922794e-10 -9.3749338045826723e-05 9.8215603600140018e-06 -1.2134451325174744e-10 -6.446350394175948e-05 1.5652599435545565e-05 -1.9420292194329742e-10 -7.3204429471438094e-05 1.0290065039530393e-05 -7.0763166902130868e-11 -9.3749357077240985e-05 1.4317602991285989e-05 -1.2802007991692124e-10 -9.374949471376404e-05 9.8215603600140018e-06 -1.2134451325174744e-10 -6.446350394175948e-05 1.5568674751791605e-05 1.5203786574667382e-11 -7.0355303123466472e-05 1.0290065039530393e-05 -7.0763166902130868e-11 -9.3749357077240985e-05 9.8215603600140018e-06 -1.2134451325174744e-10 -6.446350394175948e-05 5.2910265669850416e-06 -1.1625248515093208e-10 -9.374924240887753e-05 6.826744363300055e-06 -1.2297795861552396e-12 -7.2782490500450405e-05 1.0290065039530393e-05 -7.0763166902130868e-11 -9.3749357077240985e-05 1.6239391573383363e-05 -2.5209394555620865e-12 -9.3749591552643106e-05 1.4317602991285989e-05 -1.2802007991692124e-10 -9.374949471376404e-05 1.5568674751791602e-05 1.5203786574667324e-11 -7.0355303123466472e-05 9.8215603600140018e-06 -1.2134451325174744e-10 -6.446350394175948e-05 1.5568674751791598e-05 1.5203786574667346e-11 -7.0355303123466459e-05 1.562600746976112e-05 -1.7947185033264503e-12 -4.6875390101611998e-05 6.8267443633000524e-06 -1.2297795861551776e-12 -7.2782490500450378e-05 7.7408888467154314e-06 2.1400440649606432e-11 -4.2280181507588739e-05 1.5649015781864177e-05 -1.6228295607618598e-10 -4.9581559587152594e-05 9.8215603600139984e-06 -1.2134451325174744e-10 -6.446350394175948e-05 6.9031885739609396e-06 -1.6079586032112986e-10 -4.6879764981981335e-05 9.8215603600140018e-06 -1.2134451325174744e-10 -6.446350394175948e-05 1.564901578186418e-05 -1.6228295607618598e-10 -4.9581559587152601e-05 1.5568674751791598e-05 1.5203786574667298e-11 -7.0355303123466459e-05 1.5652599435545565e-05 -1.9420292194329739e-10 -7.3204429471438107e-05 1.562600746976112e-05 -1.794718503326462e-12 -4.6875390101611998e-05 9.8215603600140018e-06 -1.2134451325174744e-10 -6.446350394175948e-05 7.7408888467154314e-06 2.1400440649606432e-11 -4.2280181507588739e-05 1.564901578186418e-05 -1.6228295607618598e-10 -4.9581559587152601e-05 1.562600746976112e-05 -1.794718503326462e-12 -4.6875390101611998e-05 1.5568674751791605e-05 1.5203786574667324e-11 -7.0355303123466472e-05 9.8215603600140035e-06 -1.2134451325174746e-10 -6.446350394175948e-05 1.564901578186418e-05 -1.6228295607618598e-10 -4.9581559587152601e-05 1.562600746976112e-05 -1.794718503326462e-12 -4.6875390101611998e-05 7.7408888467154314e-06 2.1400440649606432e-11 -4.2280181507588739e-05 9.8215603600140018e-06 -1.2134451325174746e-10 -6.4463503941759466e-05 6.8267443633000533e-06 -1.2297795861551903e-12 -7.2782490500450392e-05 6.8267443633000533e-06 -1.2297795861551903e-12 -7.2782490500450392e-05 9.8215603600140018e-06 -1.2134451325174744e-10 -6.446350394175948e-05 -6.7683439881377865e-15 4.0493707356556099e-12 -4.8714121995995779e-05 7.740888846715428e-06 2.1400440649606407e-11 -4.2280181507588739e-05 -2.6313288024560773e-15 -1.0868251789077634e-10 -4.2949381530007733e-05 7.7408888467154297e-06 2.1400440649606442e-11 -4.2280181507588739e-05 2.324906123389673e-15 -1.1504233879947518e-10 -5.7231567795991046e-05 6.903188573960937e-06 -1.6079586032112986e-10 -4.6879764981981335e-05 2.3249060391909936e-15 -1.1504233879947518e-10 -5.7231567795991046e-05 -6.7683441514757425e-15 4.0493707356556116e-12 -4.8714121995995779e-05 9.8215603600140018e-06 -1.2134451325174738e-10 -6.446350394175948e-05 7.7408888467154314e-06 2.1400440649606432e-11 -4.2280181507588739e-05 6.8267443633000533e-06 -1.2297795861551903e-12 -7.2782490500450392e-05 2.3249085515695701e-15 -1.1504233879947513e-10 -5.7231567795991039e-05 -6.7683441514757425e-15 4.0493707356556116e-12 -4.8714121995995779e-05 9.8215603600140018e-06 -1.2134451325174744e-10 -6.446350394175948e-05 2.3249060391909936e-15 -1.1504233879947518e-10 -5.7231567795991046e-05 7.7408888467154314e-06 2.1400440649606423e-11 -4.2280181507588732e-05 9.8215603600140018e-06 -1.2134451325174744e-10 -6.446350394175948e-05 6.903188573960937e-06 -1.6079586032112988e-10 -4.6879764981981328e-05 6.8267443633000533e-06 -1.2297795861551903e-12 -7.2782490500450392e-05 -6.7683441514757425e-15 4.0493707356556116e-12 -4.8714121995995779e-05 2.3249057991099524e-15 -1.1504233879947513e-10 -5.7231567795991046e-05 4.2739486057483689e-15 -1.9795809751256877e-11 -6.3112861985983285e-05 -5.7818763556168489e-15 -2.3521214509110753e-10 -6.5044498314746748e-05 2.3249060391909936e-15 -1.1504233879947518e-10 -5.7231567795991046e-05 9.8215603600140018e-06 -1.2134451325174741e-10 -6.446350394175948e-05 6.903188573960937e-06 -1.6079586032112986e-10 -4.6879764981981335e-05 2.3249060391909936e-15 -1.1504233879947518e-10 -5.7231567795991046e-05 2.7275373348671762e-15 -1.1169892335454562e-10 -7.5786966207064033e-05 9.8215603600140018e-06 -1.2134451325174744e-10 -6.446350394175948e-05 6.8267443633000524e-06 -1.2297795861552384e-12 -7.2782490500450392e-05 -5.7818763556168489e-15 -2.3521214509110753e-10 -6.5044498314746748e-05 2.3249060391909936e-15 -1.1504233879947518e-10 -5.7231567795991046e-05 2.7275375073761877e-15 -1.1169892335454562e-10 -7.5786966207064033e-05 9.8215603600140018e-06 -1.2134451325174744e-10 -6.446350394175948e-05 -2.6313288024560773e-15 -1.0868251789077634e-10 -4.2949381530007733e-05 -6.7683441514757425e-15 4.0493707356556116e-12 -4.8714121995995779e-05 2.3249060391909936e-15 -1.1504233879947518e-10 -5.7231567795991046e-05 7.7408888467154314e-06 2.1400440649606432e-11 -4.2280181507588739e-05 2.3249060391909936e-15 -1.1504233879947518e-10 -5.7231567795991046e-05 4.2739487184312217e-15 -1.9795809751256877e-11 -6.3112861985983285e-05 2.7275376355968018e-15 -1.1169892335454563e-10 -7.5786966207064033e-05 6.8267443633000499e-06 -1.2297795861551538e-12 -7.2782490500450392e-05 2.3249060391909936e-15 -1.1504233879947518e-10 -5.7231567795991046e-05 -6.9730691623275109e-15 -2.3774173402760527e-10 -4.7781568686664073e-05 -2.631328925174049e-15 -1.0868251789077634e-10 -4.2949381530007733e-05 6.9031885739609387e-06 -1.6079586032112983e-10 -4.6879764981981335e-05 -5.7818763556168489e-15 -2.3521214509110753e-10 -6.5044498314746748e-05 4.5756749451370153e-06 -2.4289480370617793e-10 -8.0023578554110357e-05 5.8813431672860281e-06 -3.1568683251918095e-10 -6.4091271712235333e-05 9.8215603600140018e-06 -1.2134451325174744e-10 -6.446350394175948e-05 -5.7818763556168489e-15 -2.3521214509110753e-10 -6.5044498314746748e-05 9.8215603600140018e-06 -1.2134451325174744e-10 -6.446350394175948e-05 5.881343167286029e-06 -3.1568683251918095e-10 -6.4091271712235319e-05 6.903188573960937e-06 -1.6079586032112986e-10 -4.6879764981981335e-05 -5.7818763556168489e-15 -2.3521214509110753e-10 -6.5044498314746748e-05 5.8813431672860281e-06 -3.15686832519181e-10 -6.4091271712235333e-05 -6.9730691623275109e-15 -2.3774173402760527e-10 -4.7781568686664073e-05 6.903188573960937e-06 -1.6079586032112986e-10 -4.6879764981981335e-05 -5.7818763556168489e-15 -2.3521214509110753e-10 -6.5044498314746748e-05 -6.9730691623275109e-15 -2.3774173402760527e-10 -4.7781568686664073e-05 2.3249058219023409e-15 -1.1504233879947518e-10 -5.7231567795991046e-05 6.903188573960937e-06 -1.6079586032112986e-10 -4.6879764981981335e-05 1.1934233334735484e-14 -3.4466020026123996e-10 -7.4999596826718558e-05 1.0013898901228728e-14 -4.0660738171072445e-10 -5.6250025531786102e-05 -5.7818763556168489e-15 -2.3521214509110753e-10 -6.5044498314746748e-05 5.881343167286029e-06 -3.15686832519181e-10 -6.4091271712235333e-05 1.0013898901228728e-14 -4.0660738171072445e-10 -5.6250025531786102e-05 -5.7818763556168489e-15 -2.3521214509110753e-10 -6.5044498314746748e-05 5.881343167286029e-06 -3.15686832519181e-10 -6.4091271712235333e-05 -6.9730691623275109e-15 -2.3774173402760527e-10 -4.7781568686664073e-05 5.881343167286029e-06 -3.15686832519181e-10 -6.4091271712235333e-05 5.1161760617392409e-06 -2.9973527601313126e-10 -4.581262799123024e-05 1.0013898901228728e-14 -4.0660738171072445e-10 -5.6250025531786102e-05 -6.9730691623275109e-15 -2.3774173402760527e-10 -4.7781568686664073e-05 5.881343167286029e-06 -3.15686832519181e-10 -6.4091271712235333e-05 9.6976195658220851e-06 -2.5740156772024874e-10 -5.079380795096179e-05 5.1161760617392409e-06 -2.9973527601313126e-10 -4.581262799123024e-05 6.903188573960937e-06 -1.6079586032112986e-10 -4.6879764981981335e-05 -6.9730691623275109e-15 -2.3774173402760527e-10 -4.7781568686664073e-05 5.8813431672860281e-06 -3.15686832519181e-10 -6.4091271712235333e-05 5.1161760617392409e-06 -2.9973527601313126e-10 -4.581262799123024e-05 6.9031885739609379e-06 -1.6079586032112978e-10 -4.6879764981981328e-05 9.399098775704871e-06 -3.0380917663463256e-10 -7.7878058325984032e-05 1.2380856071070901e-05 -3.5026871565288501e-10 -6.2881390216114151e-05 5.881343167286029e-06 -3.15686832519181e-10 -6.4091271712235333e-05 9.8215603600140018e-06 -1.2134451325174744e-10 -6.446350394175948e-05 9.6976195658220851e-06 -2.5740156772024874e-10 -5.079380795096179e-05 9.8215603600140035e-06 -1.2134451325174746e-10 -6.446350394175948e-05 1.5649015781864177e-05 -1.62282956076186e-10 -4.9581559587152615e-05 6.903188573960937e-06 -1.6079586032112983e-10 -4.6879764981981328e-05 1.2380856071070901e-05 -3.5026871565288501e-10 -6.2881390216114151e-05 9.6976195658220851e-06 -2.5740156772024874e-10 -5.079380795096179e-05 9.8215603600140018e-06 -1.2134451325174738e-10 -6.4463503941759466e-05 1.564901578186418e-05 -1.622829560761859e-10 -4.9581559587152594e-05 1.2380856071070901e-05 -3.5026871565288501e-10 -6.2881390216114151e-05 9.8215603600140018e-06 -1.2134451325174744e-10 -6.446350394175948e-05 9.399098775704871e-06 -3.0380917663463256e-10 -7.7878058325984032e-05 1.5652599435545565e-05 -1.9420292194329739e-10 -7.3204429471438107e-05 5.881343167286029e-06 -3.15686832519181e-10 -6.4091271712235333e-05 9.8215603600140018e-06 -1.2134451325174738e-10 -6.446350394175948e-05 9.6976195658220851e-06 -2.5740156772024874e-10 -5.079380795096179e-05 6.903188573960937e-06 -1.6079586032112986e-10 -4.6879764981981335e-05 1.8757564298625961e-05 -3.7000139487554962e-10 -6.3330099726098383e-05 1.5649015781864177e-05 -1.6228295607618598e-10 -4.9581559587152594e-05 1.2380856071070901e-05 -3.5026871565288501e-10 -6.2881390216114151e-05 1.5652599435545565e-05 -1.9420292194329739e-10 -7.3204429471438107e-05 9.6976195658220851e-06 -2.5740156772024874e-10 -5.079380795096179e-05 5.8813431672860298e-06 -3.15686832519181e-10 -6.4091271712235333e-05 1.2380856071070901e-05 -3.5026871565288501e-10 -6.2881390216114151e-05 9.8215603600140018e-06 -1.2134451325174744e-10 -6.446350394175948e-05 1.2380856071070901e-05 -3.5026871565288501e-10 -6.2881390216114151e-05 1.564901578186418e-05 -1.6228295607618593e-10 -4.9581559587152601e-05 9.8215603600140018e-06 -1.2134451325174738e-10 -6.4463503941759466e-05 1.5652599435545565e-05 -1.9420292194329739e-10 -7.3204429471438107e-05 1.2380856071070901e-05 -3.5026871565288501e-10 -6.2881390216114151e-05 1.8757564298625961e-05 -3.7000139487554962e-10 -6.3330099726098383e-05 1.5625990340109727e-05 -3.1909607908090827e-10 -4.5036512895558551e-05 1.564901578186418e-05 -1.6228295607618595e-10 -4.9581559587152608e-05 1.2380856071070901e-05 -3.5026871565288501e-10 -6.2881390216114151e-05 1.5625990340109727e-05 -3.1909607908090827e-10 -4.5036512895558558e-05 9.6976195658220851e-06 -2.5740156772024874e-10 -5.079380795096179e-05 1.564901578186418e-05 -1.6228295607618595e-10 -4.9581559587152608e-05 1.5575080193548331e-05 -3.3051046182416611e-10 -7.7600347245884366e-05 1.8757564298625961e-05 -3.7000139487554962e-10 -6.3330099726098383e-05 1.2380856071070901e-05 -3.5026871565288501e-10 -6.2881390216114151e-05 1.5652599435545565e-05 -1.9420292194329739e-10 -7.3204429471438107e-05 9.399098775704871e-06 -3.0380917663463256e-10 -7.7878058325984032e-05 4.5757528018937685e-06 -2.019275655810735e-10 -9.3749222560252088e-05 9.8792483006917122e-06 -2.0542220535922792e-10 -9.3749338045826723e-05 9.8215603600140018e-06 -1.2134451325174744e-10 -6.446350394175948e-05 9.399098775704871e-06 -3.0380917663463256e-10 -7.7878058325984032e-05 9.8215603600140018e-06 -1.2134451325174744e-10 -6.446350394175948e-05 9.8792483006917105e-06 -2.0542220535922794e-10 -9.3749338045826723e-05 1.5652599435545562e-05 -1.9420292194329739e-10 -7.3204429471438107e-05 9.399098775704871e-06 -3.0380917663463256e-10 -7.7878058325984032e-05 9.8792483006917122e-06 -2.0542220535922792e-10 -9.3749338045826737e-05 1.5575080193548331e-05 -3.3051046182416611e-10 -7.7600347245884366e-05 1.5652599435545565e-05 -1.9420292194329745e-10 -7.3204429471438121e-05 1.2380856071070901e-05 -3.5026871565288501e-10 -6.2881390216114151e-05 9.399098775704871e-06 -3.0380917663463256e-10 -7.7878058325984032e-05 1.5575080193548331e-05 -3.3051046182416611e-10 -7.7600347245884366e-05 1.5652599435545565e-05 -1.9420292194329739e-10 -7.3204429471438107e-05 9.8792483006917122e-06 -2.0542220535922792e-10 -9.3749338045826723e-05 1.2501103189152445e-05 -3.8666065782556161e-10 -9.3749450940511033e-05 1.5575080193548331e-05 -3.3051046182416611e-10 -7.7600347245884366e-05 1.5928507061515667e-05 -2.4049568115798103e-10 -9.3749574577935211e-05 1.2501103189152445e-05 -3.8666065782556161e-10 -9.3749450940511033e-05 1.5575080193548331e-05 -3.3051046182416611e-10 -7.7600347245884366e-05 9.399098775704871e-06 -3.0380917663463256e-10 -7.7878058325984032e-05 9.8792483006917122e-06 -2.0542220535922792e-10 -9.3749338045826723e-05 9.8792483006917122e-06 -2.0542220535922792e-10 -9.3749338045826723e-05 1.5928507061515667e-05 -2.4049568115798103e-10 -9.3749574577935211e-05 1.5575080193548331e-05 -3.3051046182416611e-10 -7.7600347245884366e-05 1.5652599435545565e-05 -1.9420292194329742e-10 -7.3204429471438107e-05 1.4317602991285989e-05 -1.2802007991692124e-10 -9.374949471376404e-05 1.5928507061515667e-05 -2.4049568115798103e-10 -9.3749574577935211e-05 9.8792483006917122e-06 -2.0542220535922792e-10 -9.3749338045826723e-05 1.5652599435545565e-05 -1.9420292194329739e-10 -7.3204429471438107e-05 1.2501103189152445e-05 -3.8666065782556161e-10 -9.3749450940511033e-05 9.399098775704871e-06 -3.0380917663463256e-10 -7.7878058325984032e-05 6.2505608318289181e-06 -3.0281117698098923e-10 -9.3749270856672201e-05 9.8792483006917122e-06 -2.0542220535922792e-10 -9.3749338045826723e-05 -6.3225512462899392e-16 -2.0940820672558579e-10 -8.0023534168369262e-05 -5.7818760847989256e-15 -2.3521214509110748e-10 -6.5044498314746735e-05 2.7275373348671762e-15 -1.1169892335454562e-10 -7.5786966207064033e-05 9.8215603600140035e-06 -1.2134451325174741e-10 -6.446350394175948e-05 5.2910265669850416e-06 -1.1625248515093208e-10 -9.374924240887753e-05 9.8792483006917122e-06 -2.0542220535922792e-10 -9.3749338045826723e-05 4.5757528018937685e-06 -2.019275655810735e-10 -9.3749222560252088e-05 9.8215603600140018e-06 -1.2134451325174744e-10 -6.446350394175948e-05 4.5757528018937685e-06 -2.019275655810735e-10 -9.3749222560252088e-05 6.2505608318289164e-06 -3.0281117698098923e-10 -9.3749270856672201e-05 4.5756749451370145e-06 -2.4289480370617788e-10 -8.0023578554110357e-05 9.399098775704871e-06 -3.0380917663463256e-10 -7.7878058325984032e-05 4.5757528018937685e-06 -2.019275655810735e-10 -9.3749222560252088e-05 9.3990987757048727e-06 -3.0380917663463261e-10 -7.7878058325984032e-05 4.5756749451370145e-06 -2.4289480370617788e-10 -8.0023578554110357e-05 9.8215603600140052e-06 -1.2134451325174751e-10 -6.446350394175948e-05 4.5757528018937685e-06 -2.019275655810735e-10 -9.3749222560252088e-05 6.2505608318289181e-06 -3.0281117698098923e-10 -9.3749270856672201e-05 9.399098775704871e-06 -3.0380917663463256e-10 -7.7878058325984032e-05 9.8792483006917122e-06 -2.0542220535922792e-10 -9.3749338045826723e-05 5.881343167286029e-06 -3.15686832519181e-10 -6.4091271712235333e-05 4.5756749451370145e-06 -2.4289480370617788e-10 -8.0023578554110357e-05 9.399098775704871e-06 -3.0380917663463256e-10 -7.7878058325984032e-05 9.8215603600140018e-06 -1.2134451325174738e-10 -6.446350394175948e-05 -6.3225512462899392e-16 -2.0940820672558579e-10 -8.0023534168369262e-05 5.291026566985039e-06 -1.1625248515093205e-10 -9.3749242408877544e-05 4.5757528018937693e-06 -2.0192756558107352e-10 -9.3749222560252088e-05 9.8215603600140035e-06 -1.2134451325174741e-10 -6.4463503941759466e-05 4.5757528018937685e-06 -2.019275655810735e-10 -9.3749222560252088e-05 4.5756749451370145e-06 -2.4289480370617788e-10 -8.0023578554110357e-05 -6.3225512462899392e-16 -2.0940820672558579e-10 -8.0023534168369262e-05 9.8215603600140018e-06 -1.2134451325174744e-10 -6.446350394175948e-05 -5.7818763556168489e-15 -2.3521214509110753e-10 -6.5044498314746748e-05 -6.3225512462899392e-16 -2.0940820672558579e-10 -8.0023534168369262e-05 4.5756749451370145e-06 -2.4289480370617788e-10 -8.0023578554110357e-05 9.8215603600140001e-06 -1.2134451325174744e-10 -6.4463503941759466e-05 1.6234999271553398e-14 -1.7764367793339364e-10 -9.3749215566378969e-05 2.7275373348671762e-15 -1.1169892335454562e-10 -7.5786966207064033e-05 5.2910265669850416e-06 -1.1625248515093208e-10 -9.374924240887753e-05 -6.3225512462899392e-16 -2.0940820672558579e-10 -8.0023534168369262e-05 4.5757528018937685e-06 -2.019275655810735e-10 -9.3749222560252088e-05 1.6234999077097733e-14 -1.7764367793339362e-10 -9.3749215566378956e-05 5.2910265669850416e-06 -1.1625248515093208e-10 -9.374924240887753e-05 -6.3225512462899392e-16 -2.0940820672558579e-10 -8.0023534168369262e-05 -5.7818763556168489e-15 -2.3521214509110753e-10 -6.5044498314746748e-05 4.5756749451370153e-06 -2.4289480370617793e-10 -8.0023578554110357e-05 1.1934233334735484e-14 -3.4466020026123996e-10 -7.4999596826718558e-05 5.8813431672860298e-06 -3.156868325191809e-10 -6.4091271712235346e-05 -6.3225512462899392e-16 -2.0940820672558579e-10 -8.0023534168369262e-05 4.5756749451370153e-06 -2.4289480370617783e-10 -8.0023578554110344e-05 1.1934233334735484e-14 -3.4466020026123996e-10 -7.4999596826718558e-05 -5.7818763556168489e-15 -2.3521214509110753e-10 -6.5044498314746748e-05 1.2852330323903107e-14 -3.2674713496171042e-10 -9.3749210504647377e-05 1.6234999271553401e-14 -1.7764367793339364e-10 -9.3749215566378983e-05 4.5757528018937685e-06 -2.019275655810735e-10 -9.3749222560252088e-05 -6.3225512462899392e-16 -2.0940820672558579e-10 -8.0023534168369262e-05 4.5756749451370145e-06 -2.4289480370617788e-10 -8.0023578554110357e-05 1.1934233300594018e-14 -3.4466020026123996e-10 -7.4999596826718558e-05 1.2852330323903107e-14 -3.2674713496171042e-10 -9.3749210504647377e-05 -6.3225512462899392e-16 -2.0940820672558579e-10 -8.0023534168369262e-05 1.2852330323903107e-14 -3.2674713496171042e-10 -9.3749210504647377e-05 4.5757528018937685e-06 -2.019275655810735e-10 -9.3749222560252101e-05 6.2505608318289181e-06 -3.0281117698098923e-10 -9.3749270856672201e-05 4.5756749451370145e-06 -2.4289480370617788e-10 -8.0023578554110357e-05 4.5756749451370145e-06 -2.4289480370617788e-10 -8.0023578554110357e-05 1.2852330323903107e-14 -3.2674713496171042e-10 -9.3749210504647377e-05 4.5757528018937685e-06 -2.019275655810735e-10 -9.3749222560252088e-05 -6.3225512462899392e-16 -2.0940820672558579e-10 -8.0023534168369262e-05 
</DataArray>
</PointData>
<CellData Scalars="" Vectors="" Tensors="stress,">
<DataArray type="Float64" Name="stress" NumberOfComponents="9" format="ascii">
0.32843874467425849 -0.0055305634093155837 -0.049409490958881114 -0.0055305634093155837 -2499.7725533077332 -0.048714602697570136 -0.049409490958881114 -0.048714602697570136 -9999.6140612719137 0.36614393176159865 0.010969037681553398 0.072791573371646601 0.010969037681553398 -2499.7633296033282 0.034640278483338449 0.072791573371646601 0.034640278483338449 -9999.5996887187084 0.35177609432275858 0.012477519374732238 0.0042148097827587327 0.012477519374732238 -2499.7068028917756 0.13567924306929491 0.0042148097827587327 0.13567924306929491 -9999.5289079990707 0.37432490419928566 0.020772374026516049 0.012980985504782439 0.020772374026516049 -2499.729528565877 0.024977899349436283 0.012980985504782439 0.024977899349436283 -9999.5958278440885 0.34616955329238408 -0.00077088420961176837 0.0025504546124466287 -0.00077088420961176837 -2499.7529009509772 -0.033011516819897224 0.0025504546124466287 -0.033011516819897224 -9999.6628673361156 0.35191812958419177 -0.018887766274266946 -0.03700427229205161 -0.018887766274266946 -2499.744274352196 -0.0010499771556169435 -0.03700427229205161 -0.0010499771556169435 -9999.6654018573863 0.33543286154008456 0.0099594918327444229 0.041312452751299134 0.0099594918327444229 -2499.7910556000511 0.064626862354089099 0.041312452751299134 0.064626862354089099 -9999.6923920483696 0.31202829745643612 -0.02477324391963125 -0.033101557101531398 -0.02477324391963125 -2499.8100878803398 0.041303537726889772 -0.033101557101531398 0.041303537726889772 -9999.7667072262266 0.31625529609709702 -0.0029936789690375026 0.014965559271786333 -0.0029936789690375026 -2499.7861588557589 -0.022781262148043879 0.014965559271786333 -0.022781262148043879 -9999.7577729649947 0.28731162916278663 0.0018611175420747833 0.0024800798496471543 0.0018611175420747833 -2499.8506116402677 0.020077085532420824 0.0024800798496471543 0.020077085532420824 -9999.8134160858062 0.33070766199944046 0.0095919527078939977 -0.0075598032435664209 0.0095919527078939977 -2499.7875984309794 -0.018340720619562489 -0.0075598032435664209 -0.018340720619562489 -9999.6924563984448 0.3376670066436418 0.013372390339643749 0.0031515045875494252 0.013372390339643749 -2499.7827457484464 -0.0074719855656439904 0.0031515045875494252 -0.0074719855656439904 -9999.6936405458418 0.34401159669596382 0.0043026979247657582 0.0026188466781604802 0.0043026979247657582 -2499.7671166168866 0.0067270336508045148 0.0026188466781604802 0.0067270336508045148 -9999.6909342456438 0.35733877570396544 0.014290271242763775 0.054921622514029877 0.014290271242763775 -2499.7540150349437 -0.010869085661397548 0.054921622514029877 -0.010869085661397548 -9999.6442403532492 0.36651522353674337 0.0063796904042476531 0.043046916303696947 0.0063796904042476531 -2499.7607148919342 -0.044801959537320468 0.043046916303696947 -0.044801959537320468 -9999.5846794684021 0.36575975115849491 0.012147219410956846 -0.057824427894364094 0.012147219410956846 -2499.6941937646147 0.090176241513224828 -0.057824427894364094 0.090176241513224828 -9999.4905770257665 0.36979247037515961 -0.0019583720985300312 -0.024940910588611587 -0.0019583720985300312 -2499.7275554079265 0.11639175937830259 -0.024940910588611587 0.11639175937830259 -9999.5604361778533 0.41023699927925261 0.0090928064270084236 -0.036267559122594051 0.0090928064270084236 -2499.7151750184216 0.059551804903658301 -0.036267559122594051 0.059551804903658301 -9999.542296686097 0.30923513875268327 -0.0093059258562094033 -0.065411016562507029 -0.0093059258562094033 -2499.7782118004243 0.016857597050147888 -0.065411016562507029 0.016857597050147888 -9999.6901087444603 0.32635909849081202 -0.013735552071732313 0.01117918917316274 -0.013735552071732313 -2499.7721478721123 0.017337629366135587 0.01117918917316274 0.017337629366135587 -9999.6826745535036 0.31476936296576241 0.01407418014256985 0.023721351151891668 0.01407418014256985 -2499.8067079548296 0.031427486178472464 0.023721351151891668 0.031427486178472464 -9999.7360148279931 0.31099328513346336 0.0042658031669301601 0.027480192258830208 0.0042658031669301601 -2499.8021849262777 0.043256947138496815 0.027480192258830208 0.043256947138496815 -9999.7423456144934 0.38343053489880768 0.0056796813327628509 0.018633096188993281 0.0056796813327628509 -2499.7188852505797 0.093247032733946328 0.018633096188993281 0.093247032733946328 -9999.5368010018137 0.35065958430641331 -0.0038847156967538113 0.0042382357341921306 -0.0038847156967538113 -2499.7197803554077 0.082943372010361782 0.0042382357341921306 0.082943372010361782 -9999.4984797686739 0.30489934892011661 0.0063762873299853598 -0.0055537716266371717 0.0063762873299853598 -2499.7767817780596 0.0093994439630478155 -0.0055537716266371717 0.0093994439630478155 -9999.6361429884855 0.30059934009932476 0.0054718911779978851 0.00042058477333739575 0.0054718911779978851 -2499.7945717234238 0.022202874325557787 0.00042058477333739575 0.022202874325557787 -9999.6607808208901 0.34108456570334056 -0.00347935759336538 -0.013188425077714783 -0.00347935759336538 -2499.7851332981045 0.0064520052455918631 -0.013188425077714783 0.0064520052455918631 -9999.6561625492232 0.32967987539450405 0.0050256470523022956 -0.017965628536330769 0.0050256470523022956 -2499.7777222519599 0.0052344330638334213 -0.017965628536330769 0.0052344330638334213 -9999.6722233529254 0.34023109226291126 -0.0018243391529404775 -0.015201700752186298 -0.0018243391529404775 -2499.7772508725502 0.0010633608037551312 -0.015201700752186298 0.0010633608037551312 -9999.6686304090508 0.31280659743242722 -0.016728815404951108 -0.013296129351601849 -0.016728815404951108 -2499.7670653167024 0.015064374251323898 -0.013296129351601849 0.015064374251323898 -9999.7072105074585 0.32314039871289424 -0.0097147222067108102 0.00017067296766981599 -0.0097147222067108102 -2499.7870230107706 0.0061691289403142946 0.00017067296766981599 0.0061691289403142946 -9999.7065918264616 0.35008416387333341 -0.00010282835218534958 -0.028767505647010694 -0.00010282835218534958 -2499.7583023128032 0.015446990002601524 -0.028767505647010694 0.015446990002601524 -9999.6315430909272 0.33379350171561839 -0.0090831893626764082 0.0065868463707374758 -0.0090831893626764082 -2499.7649052432057 0.016455644738968545 0.0065868463707374758 0.016455644738968545 -9999.6397545576201 0.33066091953949694 -0.016827376370101135 -0.008993033125079819 -0.016827376370101135 -2499.7385080912754 0.030425694169935014 -0.008993033125079819 0.030425694169935014 -9999.6328283899657 0.32722704345542297 -0.0072729630542232582 -0.011958550105191534 -0.0072729630542232582 -2499.7711316383302 0.0044708470586556359 -0.011958550105191534 0.0044708470586556359 -9999.655813240006 0.31576944792686845 -0.012768872599063508 -0.006862562659989635 -0.012768872599063508 -2499.785658115873 0.016278339319796942 -0.006862562659989635 0.016278339319796942 -9999.682655391618 0.3478513621721504 0.0085914988661968707 -0.011761454568841145 0.0085914988661968707 -2499.7696220771977 0.0078861328365746886 -0.011761454568841145 0.0078861328365746886 -9999.6503427461066 0.33391801455672976 0.0062285777595255803 -0.020152203800535062 0.0062285777595255803 -2499.7738720314092 0.0032227157189481659 -0.020152203800535062 0.0032227157189481659 -9999.6655753787345 0.33662918658569652 -0.00085327303385315106 -0.0084636756550935388 -0.00085327303385315106 -2499.7749581710314 -0.0033198321048075741 -0.0084636756550935388 -0.0033198321048075741 -9999.6881753603157 0.3504666821743001 0.00042563441591335349 -0.0076505572742462391 0.00042563441591335349 -2499.764984926283 -0.00012600379068317125 -0.0076505572742462391 -0.00012600379068317125 -9999.6582869949179 0.3468218941034138 -0.00086708900773048761 -0.0060189341174350375 -0.00086708900773048761 -2499.7652394722181 -0.00084254232103830873 -0.0060189341174350375 -0.00084254232103830873 -9999.6578284892385 0.37084511382454366 0.019901329954091468 -0.005523097524928744 0.019901329954091468 -2499.7245999961306 -0.0071568219209439121 -0.005523097524928744 -0.0071568219209439121 -9999.6335963315578 0.36643511191778089 0.014899226685500477 -0.002886109359224065 0.014899226685500477 -2499.7276724779176 0.0045193831997494271 -0.002886109359224065 0.0045193831997494271 -9999.6446111611331 0.36526381269504782 0.017944395886071784 -0.0038203842686925782 0.017944395886071784 -2499.735058024814 -0.0014185633863235125 -0.0038203842686925782 -0.0014185633863235125 -9999.645478127044 0.35943526663777448 0.0081680616866384725 -0.004113437867090397 0.0081680616866384725 -2499.7436373972391 -0.0068284537746876595 -0.004113437867090397 -0.0068284537746876595 -9999.652767525009 0.35124977457803652 0.0064140040345251025 -0.0084586662342189811 0.0064140040345251025 -2499.7679177650589 -0.0072405712617182871 -0.0084586662342189811 -0.0072405712617182871 -9999.6586533562022 0.35904173466224165 0.0049631827604558545 -0.0065600450907368213 0.0049631827604558545 -2499.7406989559368 -0.012847636146034347 -0.0065600450907368213 -0.012847636146034347 -9999.652135725597 0.35514889835349095 0.00033053956220108899 -0.0035213633591411053 0.00033053956220108899 -2499.7494963368304 -0.019827925359095389 -0.0035213633591411053 -0.019827925359095389 -9999.6303640662281 0.34959987631009426 -0.00016920793709526011 -0.00099443623184924945 -0.00016920793709526011 -2499.7662562370606 -0.0030926249919502879 -0.00099443623184924945 -0.0030926249919502879 -9999.6543505761801 0.34977777991116454 0.00054345064874564315 -0.0037107947318872903 0.00054345064874564315 -2499.7555956195647 -0.013744945497592198 -0.0037107947318872903 -0.013744945497592198 -9999.6457474646195 0.35382612218609211 0.0026334584481808926 -0.0041587762024164476 0.0026334584481808926 -2499.7623730609293 -0.0065881475470632722 -0.0041587762024164476 -0.0065881475470632722 -9999.6300024644843 0.35292291841960832 0.00083427093474900782 -0.0008469182355383964 0.00083427093474900782 -2499.7583654036644 -0.0082588960067369044 -0.0008469182355383964 -0.0082588960067369044 -9999.6335800008583 0.3483826257884175 0.0022332777532720533 -0.0046310245714948906 0.0022332777532720533 -2499.7712041315044 -0.011745040994355804 -0.0046310245714948906 -0.011745040994355804 -9999.6435906969891 0.34679773400148406 -0.0018564097885748875 -0.0037945726376165112 -0.0018564097885748875 -2499.7634427482817 -0.0064482457037229324 -0.0037945726376165112 -0.0064482457037229324 -9999.6618785716346 0.3588629546957236 -0.00014435998253220896 -0.0057781250197876943 -0.00014435998253220896 -2499.7544540519129 -0.0033017527130141389 -0.0057781250197876943 -0.0033017527130141389 -9999.6227292339936 0.31356749932274397 -0.0061593141494711966 0.00091810648427781416 -0.0061593141494711966 -2499.7839375497397 -4.3337835336387798e-05 0.00091810648427781416 -4.3337835336387798e-05 -9999.7044505397025 0.32164331079411568 -0.0026001791878052169 0.0026996907536158687 -0.0026001791878052169 -2499.7747469989558 -0.0042462211665679206 0.0026996907536158687 -0.0042462211665679206 -9999.6429865031205 0.32221145520907157 -0.011801823315971346 -0.00077214749057930021 -0.011801823315971346 -2499.7698077635441 0.002141789390861959 -0.00077214749057930021 0.002141789390861959 -9999.7015264461261 0.3331016875217756 -0.0028201633733676446 -0.010041442889814789 -0.0028201633733676446 -2499.7743453194271 -0.0027802097174571827 -0.010041442889814789 -0.0027802097174571827 -9999.6817990014642 0.3198219664827775 -0.0072486172109338578 -0.0036608685509236238 -0.0072486172109338578 -2499.790918219067 0.0061377759161587164 -0.0036608685509236238 0.0061377759161587164 -9999.7063594946867 0.33995267612772295 -0.0029113344098620347 -0.014656499544798862 -0.0029113344098620347 -2499.773633026512 -0.0042921311423924635 -0.014656499544798862 -0.0042921311423924635 -9999.6744898963389 0.30222165093323383 0.0026338064686698423 0.064649785928850179 0.0026338064686698423 -2499.7929569660892 -0.079764532311855874 0.064649785928850179 -0.079764532311855874 -9999.6801887222864 0.34036262071231249 0.0016158890414577319 -1.0576000477158232e-05 0.0016158890414577319 -2499.7453784831955 -0.012295881837360412 -1.0576000477158232e-05 -0.012295881837360412 -9999.60251065989 0.2928674180118378 -0.013988934282005573 -0.014376517342952866 -0.013988934282005573 -2499.7958762291873 -0.0013273376875986287 -0.014376517342952866 -0.0013273376875986287 -9999.7818832599914 0.33051189629713917 0.010337543305814252 0.098701964654781371 0.010337543305814252 -2499.7602363703863 -0.029087696751875308 0.098701964654781371 -0.029087696751875308 -9999.6284874980829 0.34820982155929414 0.0060941405272823615 -0.03191158626214019 0.0060941405272823615 -2499.7574802586169 -0.018490705242584227 -0.03191158626214019 -0.018490705242584227 -9999.633762043386 0.32336841234587155 -0.0062772828622560117 0.024989533669668162 -0.0062772828622560117 -2499.7588061156048 0.055726030626374268 0.024989533669668162 0.055726030626374268 -9999.7223989215472 0.32928147549625919 -0.0023417029025664424 0.0032377122383877577 -0.0023417029025664424 -2499.7648256302009 0.0011997443430118437 0.0032377122383877577 0.0011997443430118437 -9999.622068589124 0.34359761884752515 0.0083322096268179865 -0.029826461452487352 0.0083322096268179865 -2499.7587639014132 -0.021015504222722525 -0.029826461452487352 -0.021015504222722525 -9999.636714236789 0.35182950859234552 0.0082543873578494412 0.019625149443970036 0.0082543873578494412 -2499.7533836749412 -0.01611191476150698 0.019625149443970036 -0.01611191476150698 -9999.647501122121 0.3301035128915828 0.018365048975273832 0.057533333865461195 0.018365048975273832 -2499.7639384361482 -0.084180581227748741 0.057533333865461195 -0.084180581227748741 -9999.6685330692762 0.33030371252380064 -0.010061447404884526 0.0072609808030392742 -0.010061447404884526 -2499.789091105426 -0.056365742321304424 0.0072609808030392742 -0.056365742321304424 -9999.6866718847159 0.33153965396820695 -0.0018107485268768573 0.0054551556267483647 -0.0018107485268768573 -2499.7802498640754 -0.0053202343970042421 0.0054551556267483647 -0.0053202343970042421 -9999.6880330825188 0.35090933631454391 0.00035790701549926461 0.016993542101317871 0.00035790701549926461 -2499.7594186877113 -0.019796297384857553 0.016993542101317871 -0.019796297384857553 -9999.6611853176746 0.35785060177022388 0.00033568116641230147 -0.028655628486301987 0.00033568116641230147 -2499.7501055617709 -0.01909835174528355 -0.028655628486301987 -0.01909835174528355 -9999.6308800802308 0.36586671316963826 0.0056995262593659002 0.039094131336686377 0.0056995262593659002 -2499.7390120312207 -0.047657940919451192 0.039094131336686377 -0.047657940919451192 -9999.5827383341129 0.38156964795302883 9.1852983782121644e-05 0.06436200565043837 9.1852983782121644e-05 -2499.7424373007834 -0.010164414772134478 0.06436200565043837 -0.010164414772134478 -9999.5164985342271 0.34139917145239451 -0.0008411188537391502 0.01607802066973818 -0.0008411188537391502 -2499.7906820359713 -0.010251621533321043 0.01607802066973818 -0.010251621533321043 -9999.6694378311204 0.36047156454515061 0.0021437852242583801 0.0083577611085274839 0.0021437852242583801 -2499.7730715905191 -0.023286539581050647 0.0083577611085274839 -0.023286539581050647 -9999.6199874259855 0.37473372691506324 0.00028928259325144241 0.039925145384515137 0.00028928259325144241 -2499.7049212524043 0.022112335863778143 0.039925145384515137 0.022112335863778143 -9999.5722394071254 0.39038965911198475 0.0055550265249330547 0.065281780569247883 0.0055550265249330547 -2499.7113613726378 -0.015454464481011621 0.065281780569247883 -0.015454464481011621 -9999.5076666355271 0.36130367226905946 0.0036217148470932218 4.144062086197664e-05 0.0036217148470932218 -2499.7664048408751 0.01323085414878733 4.144062086197664e-05 0.01323085414878733 -9999.6355879827679 0.33788117859330669 0.0045749961620849926 0.008698954808551207 0.0045749961620849926 -2499.7884707559601 0.0087359543344973645 0.008698954808551207 0.0087359543344973645 -9999.6980416515744 0.36511258936872459 -0.0064714161220820569 0.042995218881910074 -0.0064714161220820569 -2499.7407623409049 0.014858665833262175 0.042995218881910074 0.014858665833262175 -9999.5791465720722 0.35631756115253665 0.0025742892221814577 -0.055203975690346851 0.0025742892221814577 -2499.773813937999 0.0034980634754901985 -0.055203975690346851 0.0034980634754901985 -9999.6559207137216 0.35989199678056139 -0.010026557134849862 0.042569830209231441 -0.010026557134849862 -2499.754749642957 0.016271180817057029 0.042569830209231441 0.016271180817057029 -9999.5818009879422 0.35111575738065803 -0.007774348869239691 0.027162426662826367 -0.007774348869239691 -2499.7536600705075 0.041633974948366931 0.027162426662826367 0.041633974948366931 -9999.6265242005484 0.35288922095924136 0.0071863928257973522 -0.042256857041352153 0.0071863928257973522 -2499.7567676220947 0.020232283824900721 -0.042256857041352153 0.020232283824900721 -9999.6814322345926 0.36983112539019203 0.004469296362036637 -0.047480563643351292 0.004469296362036637 -2499.7482230500118 0.02208709001980208 -0.047480563643351292 0.02208709001980208 -9999.6208109921317 0.34989066277739767 0.0069423994023850551 0.016835381651617354 0.0069423994023850551 -2499.7642639467895 0.025818115728299063 0.016835381651617354 0.025818115728299063 -9999.666791840169 0.36977054901399242 -0.0021804968717660869 0.0008242200497079466 -0.0021804968717660869 -2499.7447522624357 0.014102635213021131 0.0008242200497079466 0.014102635213021131 -9999.6329425238819 0.36422387541188073 0.0018562410324230712 0.00678921713733871 0.0018562410324230712 -2499.7609081109222 0.024737353940963658 0.00678921713733871 0.024737353940963658 -9999.6171460625665 0.34331791945078294 0.0017152831713106898 0.015664963763356354 0.0017152831713106898 -2499.7793328384728 0.025541704512704655 0.015664963763356354 0.025541704512704655 -9999.6712985957784 0.32773978475279364 0.011861407816263023 -0.0042524806654000713 0.011861407816263023 -2499.7734164516537 0.013322796204192855 -0.0042524806654000713 0.013322796204192855 -9999.667298811446 0.3553004186369435 0.0010170252094346373 -0.0075400921473374183 0.0010170252094346373 -2499.7709699060956 0.00033732423334242867 -0.0075400921473374183 0.00033732423334242867 -9999.6320877683484 0.35782869980630494 -0.0017736751956892345 -0.0061811263115032489 -0.0017736751956892345 -2499.7529527895604 0.014627466302812309 -0.0061811263115032489 0.014627466302812309 -9999.6544118055044 0.33502732379156441 0.0018032420748372658 -0.016262496369563451 0.0018032420748372658 -2499.7776881437426 0.013572186958754173 -0.016262496369563451 0.013572186958754173 -9999.6564195091469 0.37848984426136667 0.0016639001210962707 0.0039897476431178802 0.0016639001210962707 -2499.7498577690044 0.0020883790839434369 0.0039897476431178802 0.0020883790839434369 -9999.5711296040208 0.34314707441171777 0.00071799603935043376 0.004246843168630221 0.00071799603935043376 -2499.7617520208296 0.0065603703978922567 0.004246843168630221 0.0065603703978922567 -9999.6514909306643 0.34948029303950534 -0.0047692877302439032 -0.0036121580541248477 -0.0047692877302439032 -2499.7664652769454 0.0086241675280689378 -0.0036121580541248477 0.0086241675280689378 -9999.6347887490247 0.35320018361562688 0.001140248872648345 -0.0059309940452294541 0.001140248872648345 -2499.7707519663199 0.00023273547992630483 -0.0059309940452294541 0.00023273547992630483 -9999.6290835928448 0.3592531324702577 0.001493705094472286 -0.006003045473335078 0.001493705094472286 -2499.7511389958399 0.0022974189719207061 -0.006003045473335078 0.0022974189719207061 -9999.6244860672814 0.35783456037370343 0.002249713999172738 -0.0042445511098776478 0.002249713999172738 -2499.7518780345463 0.0016032043959057773 -0.0042445511098776478 0.0016032043959057773 -9999.6322262861249 0.35575056292873342 0.0010484012228459683 -0.0067553373710325104 0.0010484012228459683 -2499.7511590313243 0.011399822744238008 -0.0067553373710325104 0.011399822744238008 -9999.6428921987463 0.35873563179757184 0.0020943735558409636 -0.0047026626680235495 0.0020943735558409636 -2499.7518554167646 0.004625572488293983 -0.0047026626680235495 0.004625572488293983 -9999.6288876682775 0.34381924327271918 0.0091435988304376901 -0.017854018461775922 0.0091435988304376901 -2499.7626769540052 0.00023177664297691081 -0.017854018461775922 0.00023177664297691081 -9999.6576716682011 0.35377989523431097 -0.002474351737739109 -0.0084313123234096565 -0.002474351737739109 -2499.7652403191737 0.0031306353055242653 -0.0084313123234096565 0.0031306353055242653 -9999.6585190559563 0.34952045675515819 -0.0015597796455055768 -0.0067357273592278943 -0.0015597796455055768 -2499.7653225406348 0.0046639861429866869 -0.0067357273592278943 0.0046639861429866869 -9999.6542106691959 0.35493463532475289 -2.2271741958554414e-05 -0.0050896344582724851 -2.2271741958554414e-05 -2499.7473715994302 0.0098055432936234865 -0.0050896344582724851 0.0098055432936234865 -9999.649953838305 0.36455256066074071 -0.015159789936792331 -0.0026800724263011944 -0.015159789936792331 -2499.7226250328549 -0.0010814092347573023 -0.0026800724263011944 -0.0010814092347573023 -9999.6386294927579 0.36703044118985417 -0.015631972829665934 -0.0047662481083534658 -0.015631972829665934 -2499.7243556398244 0.00092780748491350096 -0.0047662481083534658 0.00092780748491350096 -9999.6369398952957 0.35470386237257401 -0.00156587562084122 -0.0093772988993805484 -0.00156587562084122 -2499.7632270867966 0.0049296767419946264 -0.0093772988993805484 0.0049296767419946264 -9999.6495666108567 0.34542171170812708 0.0090909009634995985 -0.018521034327932284 0.0090909009634995985 -2499.7590671373205 0.0026232290783809731 -0.018521034327932284 0.0026232290783809731 -9999.6505020016521 0.36268305197882 -0.010026326133996261 -0.0042594178994477261 -0.010026326133996261 -2499.7413576017188 0.012943446771714662 -0.0042594178994477261 0.012943446771714662 -9999.6475558788461 0.34298396330905234 -0.0025920221802216703 0.0030224883407754533 -0.0025920221802216703 -2499.7759739625826 -0.0068501578916766448 0.0030224883407754533 -0.0068501578916766448 -9999.6917022941034 0.34445769078683952 -0.010352986463338969 -0.00067021396216659923 -0.010352986463338969 -2499.7834736986288 0.003489971139060799 -0.00067021396216659923 0.003489971139060799 -9999.6762268913153 0.33932900677746147 -0.004857970248268742 0.016406182893445032 -0.004857970248268742 -2499.7282955444425 -0.12502565170991453 0.016406182893445032 -0.12502565170991453 -9999.5886726422741 0.37495940765393243 -0.018234940071620812 0.0073477225969327264 -0.018234940071620812 -2499.7366851317029 -0.02677621634938987 0.0073477225969327264 -0.02677621634938987 -9999.5997012336684 0.32045359944845586 -0.0063574739783224671 0.046023778905464496 -0.0063574739783224671 -2499.7991367288801 -0.06942516714411795 0.046023778905464496 -0.06942516714411795 -9999.7157500112771 0.3367268325778241 -0.0077619154031924112 0.06765943255257828 -0.0077619154031924112 -2499.7698404622251 -0.041277996732919681 0.06765943255257828 -0.041277996732919681 -9999.6403735544773 0.3428542837527857 0.00038827270874219888 0.0056836566686797596 0.00038827270874219888 -2499.7713118551719 0.016254046454719173 0.0056836566686797596 0.016254046454719173 -9999.7016264833419 0.30758166025907485 -0.01130098189870949 0.034195163012660956 -0.01130098189870949 -2499.7962219416704 0.051958833649199176 0.034195163012660956 0.051958833649199176 -9999.74036360026 0.28239685524795277 -0.0047685317769619318 0.00550188774786875 -0.0047685317769619318 -2499.8565877141164 -0.019206155468964425 0.00550188774786875 -0.019206155468964425 -9999.8510668944255 0.33016803168766273 -0.00730928748851533 0.005513437021363643 -0.00730928748851533 -2499.7731932110582 0.0094859573546273168 0.005513437021363643 0.0094859573546273168 -9999.6907618673613 0.31528766797009666 -0.0032766279491740977 0.028570050509642897 -0.0032766279491740977 -2499.8000659329391 0.058533777173352064 0.028570050509642897 0.058533777173352064 -9999.7693826438244 0.35025416898201911 -0.0043601166364748874 -0.010206840964201547 -0.0043601166364748874 -2499.770289482929 0.0052552298980117484 -0.010206840964201547 0.0052552298980117484 -9999.6813893541912 0.35953105549162956 -0.0020966062590308913 -0.002820039246671513 -0.0020966062590308913 -2499.7555963369291 0.026877316312948096 -0.002820039246671513 0.026877316312948096 -9999.6630673117579 0.31242469177277599 0.0072083436860294068 -0.081902802158310806 0.0072083436860294068 -2499.8315246107613 -0.036008132131428283 -0.081902802158310806 -0.036008132131428283 -9999.8001048512288 0.34852257942475262 0.0070945880142177231 -0.06341593437824361 0.0070945880142177231 -2499.7742248576978 0.049258623022190834 -0.06341593437824361 0.049258623022190834 -9999.7071599768096 0.35242779140389757 -0.0044539624397687411 -0.075138276055013886 -0.0044539624397687411 -2499.7543044879526 -0.086784696421459084 -0.075138276055013886 -0.086784696421459084 -9999.6814010266462 0.35260136024089661 0.0017919141261126398 -0.014734399439475965 0.0017919141261126398 -2499.7188974700211 -0.043926536602612032 -0.014734399439475965 -0.043926536602612032 -9999.613805830435 0.32912453388962604 0.015338694525410538 -0.028134149495258498 0.015338694525410538 -2499.7880192205703 -0.0072603808789608593 -0.028134149495258498 -0.0072603808789608593 -9999.682556625834 0.3360715993667327 0.011774860836249401 -0.029043240747796517 0.011774860836249401 -2499.7763422464614 0.0081789317564471276 -0.029043240747796517 0.0081789317564471276 -9999.6657406305076 0.34866764533313699 -0.010228649257569857 -0.012320301389536326 -0.010228649257569857 -2499.7847837568297 0.01473077472019213 -0.012320301389536326 0.01473077472019213 -9999.6712553607686 0.30578841471560736 0.0061151434966886346 -0.010095829173224047 0.0061151434966886346 -2499.7894866148026 -0.021598870860771058 -0.010095829173224047 -0.021598870860771058 -9999.7294251759668 0.32996888816478531 0.015823421897529603 -0.0060409910656744614 0.015823421897529603 -2499.7827397289975 0.013059147462627152 -0.0060409910656744614 0.013059147462627152 -9999.6321863685989 0.33360616383652086 0.0067123938686368539 -0.0054171648462215671 0.0067123938686368539 -2499.7616782139839 -0.026673308568206267 -0.0054171648462215671 -0.026673308568206267 -9999.6430028746508 0.40122978017143396 0.001328686561165901 -0.03544991441516393 0.001328686561165901 -2499.7141627897581 -0.044219516728209146 -0.03544991441516393 -0.044219516728209146 -9999.5837050824066 0.31355644298037078 0.0013906872979560073 0.0085883007760685359 0.0013906872979560073 -2499.7859460041163 -0.011318126810238027 0.0085883007760685359 -0.011318126810238027 -9999.6837319817987 0.30891971005348751 0.0034161139951771405 0.017132831078321309 0.0034161139951771405 -2499.7645164885248 -0.079797243233123219 0.017132831078321309 -0.079797243233123219 -9999.7199997734624 0.36086683907985856 -0.010313371005213182 -0.0033362657402272594 -0.010313371005213182 -2499.7144307309177 -0.092648519551067121 -0.0033362657402272594 -0.092648519551067121 -9999.5484807328266 0.37944365059520058 -0.0014199074367850228 0.015265146387028805 -0.0014199074367850228 -2499.6895012415025 -0.077520230995604344 0.015265146387028805 -0.077520230995604344 -9999.517861924458 0.3125348123578533 -0.0090202280795346479 -0.0060517780279951694 -0.0090202280795346479 -2499.8044388607177 -0.040427710457151989 -0.0060517780279951694 -0.040427710457151989 -9999.6527883094932 0.29860503413328843 -0.00759803433189374 -0.0094091149533142016 -0.00759803433189374 -2499.8119380009134 -0.030505694887324353 -0.0094091149533142016 -0.030505694887324353 -9999.6993940683988 0.34141057328906754 -8.5751500022226979e-06 -0.012676106400249409 -8.5751500022226979e-06 -2499.7576500870482 -0.00526351802454883 -0.012676106400249409 -0.00526351802454883 -9999.6741049192005 0.32266435653900771 0.0070964297722689168 -0.011302530409466272 0.0070964297722689168 -2499.7622495739856 -0.0018211485634651581 -0.011302530409466272 -0.0018211485634651581 -9999.6645847349264 0.32590978314510721 -0.026299566521888647 -0.0062986111252030241 -0.026299566521888647 -2499.7658536704021 -0.0013727181885769824 -0.0062986111252030241 -0.0013727181885769824 -9999.6396962948093 0.31842351896239052 0.00018830568011853066 -0.0007063679759085062 0.00018830568011853066 -2499.7983345202356 -0.036745875108294968 -0.0007063679759085062 -0.036745875108294968 -9999.680570139988 0.32731728068949906 0.0050365162914257772 -0.018067469906782208 0.0050365162914257772 -2499.755057203427 -0.0047124769076845041 -0.018067469906782208 -0.0047124769076845041 -9999.6348096265338 0.32038111481597298 0.011097770636797538 0.00063858479597911355 0.011097770636797538 -2499.8186288985835 -0.014338956237907041 0.00063858479597911355 -0.014338956237907041 -9999.7132082940643 0.32211561898839136 -0.023365992313806948 -0.0099474679800550803 -0.023365992313806948 -2499.7826537734654 0.0098228460358313896 -0.0099474679800550803 0.0098228460358313896 -9999.6850059535645 0.34827909492662457 0.006626174751009975 -0.02127231542726804 0.006626174751009975 -2499.7569786322592 -0.0035838245289596671 -0.02127231542726804 -0.0035838245289596671 -9999.6296298834241 0.35931743625974377 0.008250716559102908 -0.011539529938090709 0.008250716559102908 -2499.7559819627368 0.00024096456945699174 -0.011539529938090709 0.00024096456945699174 -9999.6502920642524 0.32338861139714936 -0.02164712589485128 -0.012417813202773686 -0.02164712589485128 -2499.7656345796954 0.016128485074659693 -0.012417813202773686 0.016128485074659693 -9999.6803675067913 0.33408796578305555 -0.0028679519079865545 -0.010980492643284379 -0.0028679519079865545 -2499.7725319095489 0.0039374112520818016 -0.010980492643284379 0.0039374112520818016 -9999.6855750232789 0.32543516146051843 0.00087351530110867765 -0.0055601984187205744 0.00087351530110867765 -2499.7831850365401 -0.0027697229593286465 -0.0055601984187205744 -0.0027697229593286465 -9999.7004709039338 0.33059827901070094 -0.0015672950088698439 -0.0084015577851914713 -0.0015672950088698439 -2499.7761171196571 0.0014077875412112917 -0.0084015577851914713 0.0014077875412112917 -9999.6896960258782 0.32312702329454623 -0.0018941022159754892 0.0038429217775046709 -0.0018941022159754892 -2499.7692876627452 0.0041814687581336329 0.0038429217775046709 0.0041814687581336329 -9999.6430944539297 0.34163819228547254 -0.0012658413228789479 -0.00018017746288023773 -0.0012658413228789479 -2499.750679096328 -0.0020444345509531558 -0.00018017746288023773 -0.0020444345509531558 -9999.5898975249875 0.32057193443051801 -0.0030589790562770697 0.11537854713283707 -0.0030589790562770697 -2499.7618054674376 0.03567635289138861 0.11537854713283707 0.03567635289138861 -9999.6632686595694 0.33631616328523251 0.0032732327372598964 -0.019053768653975567 0.0032732327372598964 -2499.7636663076569 0.012794502269116492 -0.019053768653975567 0.012794502269116492 -9999.6009249750714 0.30944950054890796 -0.00038910078184543027 0.096734496158433103 -0.00038910078184543027 -2499.7823457867748 0.065022839953599032 0.096734496158433103 0.065022839953599032 -9999.6893306262391 0.34028187198850901 0.01095126185136587 -0.0068101162942184601 0.01095126185136587 -2499.7418811015577 0.025948390013695644 -0.0068101162942184601 0.025948390013695644 -9999.6122547785581 0.3113004581206269 0.0065640412361439998 0.020821869998144393 0.0065640412361439998 -2499.7668825737237 -0.072987268309134379 0.020821869998144393 -0.072987268309134379 -9999.7339008463168 0.29035934263015406 0.0091151237589587181 -0.025915176032413001 0.0091151237589587181 -2499.80401987804 -0.0013191613893468457 -0.025915176032413001 -0.0013191613893468457 -9999.7940941559355 0.36465127790643237 0.0046472960920073188 -0.024455137423630563 0.0046472960920073188 -2499.7464508892954 -0.011745296595982169 -0.024455137423630563 -0.011745296595982169 -9999.6317298986542 0.34630121465534103 -0.0051520357265388214 0.072003882220770948 -0.0051520357265388214 -2499.7625136761999 0.087840800613513792 0.072003882220770948 0.087840800613513792 -9999.6097647647002 0.19307853523923768 0.0071876884293252093 0.08612154494448987 0.0071876884293252093 -2499.8247162268754 0.060202389400728862 0.08612154494448987 0.060202389400728862 -9999.8901832095908 0.25603785814485036 0.0030906571345554051 -0.0036049885488864675 0.0030906571345554051 -2499.8101794403078 0.0086965716373015312 -0.0036049885488864675 0.0086965716373015312 -9999.8028301397935 0.25063746150681254 0.0063143527865604492 0.0016738829792757315 0.0063143527865604492 -2499.8204926563867 -0.0031942727964633377 0.0016738829792757315 -0.0031942727964633377 -9999.8255356895097 0.24136927365452721 -0.0057350632042752793 0.067370135266250464 -0.0057350632042752793 -2499.7976147469944 0.031673197945320003 0.067370135266250464 0.031673197945320003 -9999.6618066492629 0.26419457585711825 0.0010231337790286912 0.012978910940091737 0.0010231337790286912 -2499.8129357577145 -0.0054976463811726717 0.012978910940091737 -0.0054976463811726717 -9999.8110321612749 0.24492722964168934 0.0016481874521596957 -0.0047457840937568108 0.0016481874521596957 -2499.8370818995563 -0.0016909726534777292 -0.0047457840937568108 -0.0016909726534777292 -9999.8206799008094 0.22327009954813093 -0.014521124504805413 0.0061327104122028686 -0.014521124504805413 -2499.8151703538206 -0.02072994640457182 0.0061327104122028686 -0.02072994640457182 -9999.8107128817101 0.29709077041115961 -0.011005411210896855 0.00073455347274702792 -0.011005411210896855 -2499.7855057229453 0.064347161080347048 0.00073455347274702792 0.064347161080347048 -9999.6481171455671 0.19825875924209413 -0.0025457738312196741 0.032390710593290351 -0.0025457738312196741 -2499.8435930614182 -0.063879911054755212 0.032390710593290351 -0.063879911054755212 -9999.8340319321724 0.29180886001768158 0.0073513823576384675 -0.0091292390843983398 0.0073513823576384675 -2499.7683553619054 -0.070518199505665013 -0.0091292390843983398 -0.070518199505665013 -9999.7131841179671 0.22941802959303459 0.0044913758945538881 0.0093744298939337917 0.0044913758945538881 -2499.8427312254589 -0.076473749276884911 0.0093744298939337917 -0.076473749276884911 -9999.7594259714533 0.16942194682997069 0.0042053824879035298 0.072894711384328542 0.0042053824879035298 -2499.8793281117073 0.020867528217528686 0.072894711384328542 0.020867528217528686 -9999.9435228675629 0.31332016598116752 0.0040151662169607442 -0.015597038597547908 0.0040151662169607442 -2499.7773588054306 -0.0080228594945310761 -0.015597038597547908 -0.0080228594945310761 -9999.702433024755 0.30897770722913265 0.00084132412779149219 0.00076366815237349783 0.00084132412779149219 -2499.7849635735047 -1.3840043720847461e-05 0.00076366815237349783 -1.3840043720847461e-05 -9999.705635945782 0.30910818685242702 -0.00014057877157899631 -0.00021717328051096274 -0.00014057877157899631 -2499.7842553665237 0.00014588286558137042 -0.00021717328051096274 0.00014588286558137042 -9999.7057177135466 0.28288590397824009 0.0057687022397980943 -0.022143317091547488 0.0057687022397980943 -2499.7907620929695 0.018578989678644575 -0.022143317091547488 0.018578989678644575 -9999.7194624910899 0.24887071759576429 -0.0045226819504053904 -0.031071057068402297 -0.0045226819504053904 -2499.8073480215685 0.00041552775292075239 -0.031071057068402297 0.00041552775292075239 -9999.7705909777142 0.26526809912684257 0.0018757273683027396 0.0014603365962102544 0.0018757273683027396 -2499.8040058427559 0.0073727165802210948 0.0014603365962102544 0.0073727165802210948 -9999.7780631356545 0.31942732708466792 0.0164844128088334 -0.0030652462290277072 0.0164844128088334 -2499.7599707413247 -0.0022357696143444628 -0.0030652462290277072 -0.0022357696143444628 -9999.6966482668868 0.26896138060601515 0.00025069232618895286 -0.025185123337450932 0.00025069232618895286 -2499.8090671693035 0.00073462344789732015 -0.025185123337450932 0.00073462344789732015 -9999.7634721443064 0.23023200905072372 -0.005833138357870065 0.015345682532824867 -0.005833138357870065 -2499.8217656767242 -0.014538129045945425 0.015345682532824867 -0.014538129045945425 -9999.7875400209123 0.25195075180636195 0.00060583623118303648 -0.030145306913254899 0.00060583623118303648 -2499.805574436703 -0.015167533565090707 -0.030145306913254899 -0.015167533565090707 -9999.7507896238167 0.26862960394282709 0.0098794474190722834 -0.018430769731821783 0.0098794474190722834 -2499.7804495535038 -5.1532127145037521e-05 -0.018430769731821783 -5.1532127145037521e-05 -9999.7096560611099 0.20974594001108926 0.0011077297055277205 0.0037772525959667291 0.0011077297055277205 -2499.8297183445711 -0.0065086413165431622 0.0037772525959667291 -0.0065086413165431622 -9999.8113013536058 0.29188940061749236 0.020856499940571357 -0.014305727708176619 0.020856499940571357 -2499.8199830334652 -0.016552217942717107 -0.014305727708176619 -0.016552217942717107 -9999.7249739610306 0.21288639303020318 0.0011195373483432352 -0.0043002280125392645 0.0011195373483432352 -2499.8247951769745 -0.01150354792247299 -0.0043002280125392645 -0.01150354792247299 -9999.7969446008174 0.28275461213297604 -0.0035973895993572994 -0.013943970614946011 -0.0035973895993572994 -2499.7928983689258 -0.017840420702896154 -0.013943970614946011 -0.017840420702896154 -9999.7204279036323 0.29416308516010758 0.011830619949981427 -0.023512166879299912 0.011830619949981427 -2499.7914421609648 -0.0030300976441139937 -0.023512166879299912 -0.0030300976441139937 -9999.7050641091901 0.30940970147275948 0.021902720825256086 -0.012716474033368286 0.021902720825256086 -2499.7835681730289 0.0023013377394818235 -0.012716474033368286 0.0023013377394818235 -9999.687290067217 0.23703523674635107 0.0093503321964847827 0.0061516346968346625 0.0093503321964847827 -2499.7919142310329 0.0088535500726720784 0.0061516346968346625 0.0088535500726720784 -9999.740458244034 0.31515605599997798 0.022520792048594626 -0.019247371608798858 0.022520792048594626 -2499.7932708570111 -0.031225993354382808 -0.019247371608798858 -0.031225993354382808 -9999.6615634262307 0.27029380490421318 -0.0016325146251167121 -0.0038462749781729144 -0.0016325146251167121 -2499.8082709879291 -0.016860826034189813 -0.0038462749781729144 -0.016860826034189813 -9999.6871541108994 0.26336101338597473 0.0009852395784413423 0.0073682291354089102 0.0009852395784413423 -2499.8033766231465 -0.027517267192479267 0.0073682291354089102 -0.027517267192479267 -9999.6683100853697 0.24818698589297128 3.8072344229353461e-05 -0.0041451926813351747 3.8072344229353461e-05 -2499.8160896533391 -0.026191907735210407 -0.0041451926813351747 -0.026191907735210407 -9999.7071837243966 0.26134780004258573 -0.0030852390612827116 -0.012356631403662277 -0.0030852390612827116 -2499.8231840922244 -0.031232881580763205 -0.012356631403662277 -0.031232881580763205 -9999.7106502397237 0.23998930427910636 0.0049864159152418833 -0.0058698611560430436 0.0049864159152418833 -2499.8327135424288 -0.065587597655394347 -0.0058698611560430436 -0.065587597655394347 -9999.7265967500607 0.32106759630960369 0.0054961996916832734 -0.022137308118544752 0.0054961996916832734 -2499.744684992168 -0.090181329911991848 -0.022137308118544752 -0.090181329911991848 -9999.5527672391181 0.36772585598954666 -0.012484131313067859 -0.013116828974761741 -0.012484131313067859 -2499.7126769593742 -0.09692654693682301 -0.013116828974761741 -0.09692654693682301 -9999.5306005869279 0.2624215543801256 -0.013358284192347122 -0.0089525047399106605 -0.013358284192347122 -2499.802385697883 -0.070617067263465338 -0.0089525047399106605 -0.070617067263465338 -9999.72902879514 0.27078675587063117 -0.017541468724711407 -0.0047496776231241711 -0.017541468724711407 -2499.78689291398 -0.033467073283190985 -0.0047496776231241711 -0.033467073283190985 -9999.7046166832733 0.293380004015944 -0.0054003356290127716 0.049190714131600088 -0.0054003356290127716 -2499.756210294624 -0.046641361176984364 0.049190714131600088 -0.046641361176984364 -9999.669225953141 0.32869556898876096 -0.0091843722061378738 -0.019614698299922295 -0.0091843722061378738 -2499.7215392338458 -0.083187390994892668 -0.019614698299922295 -0.083187390994892668 -9999.5491157823708 0.25013935836886958 0.005906913087428016 0.0003835241504930309 0.005906913087428016 -2499.7978111347493 -0.025579791961263254 0.0003835241504930309 -0.025579791961263254 -9999.6759920148324 0.20215807635258898 -0.016773664370880084 0.040942160933354899 -0.016773664370880084 -2499.8643750783417 0.012267255326605664 0.040942160933354899 0.012267255326605664 -9999.7923058181987 0.14345041001115533 -0.021814988840824417 0.038961279150726114 -0.021814988840824417 -2499.9367017591703 -0.035858823604485224 0.038961279150726114 -0.035858823604485224 -9999.9642888123199 0.10915103740541099 0.0060410216483351292 -0.014702913761084346 0.0060410216483351292 -2499.9078798490091 0.022519262981404609 -0.014702913761084346 0.022519262981404609 -9999.8464084756306 0.21022970128819907 0.006759901927797643 0.020524762655441009 0.006759901927797643 -2499.84894530361 -0.11585779565871235 0.020524762655441009 -0.11585779565871235 -9999.7408625001808 0.216781284850806 0.03199656580310227 0.093008024565601144 0.03199656580310227 -2499.782891804467 -0.066583697518076426 0.093008024565601144 -0.066583697518076426 -9999.5998088073957 0.14185407076092815 0.017813551300422302 0.10259366045362096 0.017813551300422302 -2499.8703416934195 0.033540541078330377 0.10259366045362096 0.033540541078330377 -9999.8567785398773 0.15061801957472198 0.002012863576029443 0.10263880258708014 0.002012863576029443 -2499.868678094504 0.01574632677829868 0.10263880258708014 0.01574632677829868 -9999.8703058123738 0.10559262333481456 0.0037164825353679792 -0.022813987997324148 0.0037164825353679792 -2499.8737961009374 0.0039814450582298377 -0.022813987997324148 0.0039814450582298377 -9999.8482251398127 0.11495238730913115 -0.0046574993070414017 -0.021640844784997171 -0.0046574993070414017 -2499.8632114591437 -0.0030208246066649735 -0.021640844784997171 -0.0030208246066649735 -9999.8478268106373 0.069364195186608413 0.022237713756455734 -0.036119990126735502 0.022237713756455734 -2499.9088201854265 0.064850904062950576 -0.036119990126735502 0.064850904062950576 -9999.9210107036415 0.12002888731649364 0.0046794126896452272 0.0021208687442140217 0.0046794126896452272 -2499.8688785496215 -0.0014404505759557651 0.0021208687442140217 -0.0014404505759557651 -9999.8385920393284 0.051101949133681046 0.0011126051313523518 -0.016148872560734162 0.0011126051313523518 -2499.9797021687159 -0.025742985110809968 -0.016148872560734162 -0.025742985110809968 -10000.016573505003 0.02994476530193424 0.00045596780707875262 -0.059578252823509148 0.00045596780707875262 -2499.927911670386 0.031906694735219537 -0.059578252823509148 0.031906694735219537 -9999.977281280595 0.048782353828215191 -0.0045515887346564005 -0.03857492162008129 -0.0045515887346564005 -2499.9170243497579 -0.08066774130001822 -0.03857492162008129 -0.08066774130001822 -9999.8977152001953 0.076935687944370501 0.00061142084109662778 -0.0061846539703483971 0.00061142084109662778 -2499.8409452240471 -0.024314577853147057 -0.0061846539703483971 -0.024314577853147057 -9999.7671815583344 0.073104307290448228 -0.014408721150002184 -0.058254653194493272 -0.014408721150002184 -2499.8521284893609 -0.040701056257026108 -0.058254653194493272 -0.040701056257026108 -9999.8131741414782 0.047112211816511262 0.011272983899123505 -0.0030394642876375166 0.011272983899123505 -2499.8648195302167 -0.14314067940640005 -0.0030394642876375166 -0.14314067940640005 -9999.7427903207263 0.055803357557692834 -0.0069494731120116338 -0.015495324725634418 -0.0069494731120116338 -2499.9057556648499 0.026040159807962482 -0.015495324725634418 0.026040159807962482 -9999.8582912453658 0.048929973956091999 -0.024472401742265969 -0.025369857646637684 -0.024472401742265969 -2499.8827160209644 -0.0017270206599278026 -0.025369857646637684 -0.0017270206599278026 -9999.8685666749443 0.078541863067584927 -0.022306677458226801 -0.0064380921660358581 -0.022306677458226801 -2499.8835482998447 -0.0071881661501720373 -0.0064380921660358581 -0.0071881661501720373 -9999.8438637586114 0.18833494513523874 0.00018243842623112683 0.0026179389278695453 0.00018243842623112683 -2499.8279323133092 -0.01266130193380377 0.0026179389278695453 -0.01266130193380377 -9999.8067018777838 0.11316017725357597 -0.0036549477300963883 -0.018430880990081278 -0.0036549477300963883 -2499.8521102766226 -0.011307282483585368 -0.018430880990081278 -0.011307282483585368 -9999.8376800878395 0.10490411635919372 0.027461576419564704 -0.024311245160333783 0.027461576419564704 -2499.8306013795413 0.011585232754441677 -0.024311245160333783 0.011585232754441677 -9999.8379259687008 0.12679655281499436 -0.0065543308902477823 -0.0079594640956202056 -0.0065543308902477823 -2499.8646962401072 -0.019575618903218128 -0.0079594640956202056 -0.019575618903218128 -9999.8280663348251 0.18505178700434044 -0.017275834774831134 -0.021725019108998822 -0.017275834774831134 -2499.8407262084474 -0.014670792825199896 -0.021725019108998822 -0.014670792825199896 -9999.8023208696868 0.070197672665926802 -0.021547282844099507 0.001662169582232309 -0.021547282844099507 -2499.8762769555788 -0.015059448005104059 0.001662169582232309 -0.015059448005104059 -9999.8480101065306 0.034375884159999259 -0.0090093963748322063 -0.015322867177928856 -0.0090093963748322063 -2499.9093394907295 0.00096660556619099225 -0.015322867177928856 0.00096660556619099225 -9999.8927108883763 0.095203051996350041 0.0050264543075157556 -0.024041965973083279 0.0050264543075157556 -2499.8946476033843 -0.0043510801961019752 -0.024041965973083279 -0.0043510801961019752 -9999.872316411449 0.10547199934626406 -0.0087422021275980755 -0.023815385929992772 -0.0087422021275980755 -2499.8843290945788 0.0012282330717425793 -0.023815385929992772 0.0012282330717425793 -9999.8687703528831 0.10601627699543315 0.00097125461675069387 -0.022338269060128368 0.00097125461675069387 -2499.8657709233635 0.0135634862749896 -0.022338269060128368 0.0135634862749896 -9999.8394226921009 0.12982827223186177 -0.0089267148317710779 -0.010726342684392876 -0.0089267148317710779 -2499.8530001690419 -0.0065582099905441282 -0.010726342684392876 -0.0065582099905441282 -9999.8364587960132 0.13077761104250385 0.0014859055108707841 -0.012765815350121557 0.0014859055108707841 -2499.8558947142155 0.014820863083514269 -0.012765815350121557 0.014820863083514269 -9999.8366396935307 0.13340940933630918 -0.0055444898507520865 -0.011270603699813364 -0.0055444898507520865 -2499.8457647987088 0.0020013999574075569 -0.011270603699813364 0.0020013999574075569 -9999.812835204566 0.12741622267003549 -0.0021023413524866377 -0.012214955960644147 -0.0021023413524866377 -2499.8626817084578 0.0056320450330531457 -0.012214955960644147 0.0056320450330531457 -9999.8582717045392 0.13007596718762215 -0.016509415053584917 -0.015318708240670276 -0.016509415053584917 -2499.8454037193414 0.00046888410588508123 -0.015318708240670276 0.00046888410588508123 -9999.8238336225313 0.1325260962230459 -0.003079268567091406 -0.030799530743735204 -0.003079268567091406 -2499.859578192164 -0.0024240382387006321 -0.030799530743735204 -0.0024240382387006321 -9999.8456134728294 0.13591821472209631 -0.0040164101198270352 -0.033132891451259638 -0.0040164101198270352 -2499.843776640701 0.0022596080818857445 -0.033132891451259638 0.0022596080818857445 -9999.8426422083412 0.089023816607550543 0.0073406720864366932 -0.027051362184465688 0.0073406720864366932 -2499.8762883753561 0.0036239898950043425 -0.027051362184465688 0.0036239898950043425 -9999.8670997793961 0.091959235113336035 0.0004429251395297938 -0.029843296520994045 0.0004429251395297938 -2499.8728202055067 0.012889432136944379 -0.029843296520994045 0.012889432136944379 -9999.8534238670509 0.087721244075055438 0.0070552632683330285 -0.018545383272794425 0.0070552632683330285 -2499.8709207993584 0.0089401889879923147 -0.018545383272794425 0.0089401889879923147 -9999.8348173034556 0.086623294104356319 -0.0044986371701441381 -0.012400513289776427 -0.0044986371701441381 -2499.8686568358594 -0.0015667532661609584 -0.012400513289776427 -0.0015667532661609584 -9999.8967846488122 0.1008016367647997 -0.0031438027429256457 -0.011817480006357073 -0.0031438027429256457 -2499.8521365938659 0.0082885484066537174 -0.011817480006357073 0.0082885484066537174 -9999.8528393417291 0.087550722751075227 0.0098148649951533933 -0.021038536021933396 0.0098148649951533933 -2499.8680899001856 0.023307215799150072 -0.021038536021933396 0.023307215799150072 -9999.833040483938 0.12953812957380251 -0.0080751226148841199 -0.048224657548871619 -0.0080751226148841199 -2499.860284529143 0.0024993880451802397 -0.048224657548871619 0.0024993880451802397 -9999.9080285213495 0.17313760357414054 -0.0081192058742877993 -0.03843786579409425 -0.0081192058742877993 -2499.8502819249256 -0.0010735192599895527 -0.03843786579409425 -0.0010735192599895527 -9999.9065355001549 0.093566971650034247 -0.0072954415099348233 -0.011903907025953231 -0.0072954415099348233 -2499.8712688424084 0.005364581642425037 -0.011903907025953231 0.005364581642425037 -9999.8584262448112 0.14172346815712444 0.016250233444578533 -0.0307118427353964 0.016250233444578533 -2499.8588462257794 0.06402265519333844 -0.0307118427353964 0.06402265519333844 -9999.8247198156059 0.080512902112332085 0.011786801852994171 -0.029865441572383133 0.011786801852994171 -2499.8897628414943 0.022425536311601491 -0.029865441572383133 0.022425536311601491 -9999.8481932960167 0.11809016902270741 0.0098552038096890344 -0.064503932807116249 0.0098552038096890344 -2499.8848435681348 0.024168760887659513 -0.064503932807116249 0.024168760887659513 -9999.8666553055373 0.15606774183015659 0.0080936795127297886 0.01745665171916605 0.0080936795127297886 -2499.8626130257899 -0.080965527419855216 0.01745665171916605 -0.080965527419855216 -9999.772654271459 0.046461083954000282 0.022789086601565704 -0.032784273702687522 0.022789086601565704 -2499.9025265814325 0.021086887706801366 -0.032784273702687522 0.021086887706801366 -9999.8191579114628 0.081168639032010756 -0.011513168845246275 -0.019506364486673075 -0.011513168845246275 -2499.8870343673598 -0.019958301651690907 -0.019506364486673075 -0.019958301651690907 -9999.8849593269388 0.015916029414341004 0.010633242268373228 -0.01884218967778889 0.010633242268373228 -2499.902918871067 0.025424749463647416 -0.01884218967778889 0.025424749463647416 -9999.8375202033367 0.027265738944834084 0.0082665318629501251 -0.012623162791896902 0.0082665318629501251 -2499.8801223030255 0.010406391245396662 -0.012623162791896902 0.010406391245396662 -9999.8114114870077 0.048225526011265174 0.007638664347934615 -0.032807835845839128 0.007638664347934615 -2499.8665373436265 0.042940070972434907 -0.032807835845839128 0.042940070972434907 -9999.7525723318467 0.13637541263142339 0.005284019491090395 -0.022940324871342455 0.005284019491090395 -2499.8775668889884 -0.099000440701843218 -0.022940324871342455 -0.099000440701843218 -9999.763280538773 0.042235167363742221 0.0083115221619078378 -0.02616867056991011 0.0083115221619078378 -2499.8436370549002 0.041510235768345505 -0.02616867056991011 0.041510235768345505 -9999.7544087563419 0.057010718131550675 0.010273548813849228 -0.0015411414274240087 0.010273548813849228 -2499.8791878674674 0.006395232783688698 -0.0015411414274240087 0.006395232783688698 -9999.6915535341941 0.15031868349581146 0.021164835448983645 -0.014759502553602033 0.021164835448983645 -2499.8519716546484 0.02881240385795536 -0.014759502553602033 0.02881240385795536 -9999.7423779345499 0.16508675087743541 -0.0040069558338270573 -0.026044572779171465 -0.0040069558338270573 -2499.8253393473678 0.046760300242833508 -0.026044572779171465 0.046760300242833508 -9999.8095710113157 0.097736895798334444 -0.0045364859208030361 -0.018536989764925238 -0.0045364859208030361 -2499.8428406613434 0.042903180514144879 -0.018536989764925238 0.042903180514144879 -9999.8203570250735 0.11080258234642315 -0.0026368765452698386 -0.0098896263457390887 -0.0026368765452698386 -2499.8775981655999 0.021833850819149347 -0.0098896263457390887 0.021833850819149347 -9999.7367239152445 0.082530139239679556 -0.0058995592394976166 -0.017674988117960311 -0.0058995592394976166 -2499.9044677533539 0.006078355724184803 -0.017674988117960311 0.006078355724184803 -9999.8183542045626 0.050841406052874211 -0.0032996224014710633 0.022374448381890261 -0.0032996224014710633 -2499.8371025437291 -0.038481394904640531 0.022374448381890261 -0.038481394904640531 -9999.7700908192928 0.051049048860934226 -0.026505931834690251 -0.015358457139452802 -0.026505931834690251 -2499.8938659718347 -0.085209684784093132 -0.015358457139452802 -0.085209684784093132 -9999.6872556733033 0.03314054787938403 -0.042773600817580512 -0.03695091402261752 -0.042773600817580512 -2499.8877815981732 -0.018610216489378217 -0.03695091402261752 -0.018610216489378217 -9999.8033096738927 0.19237542864800616 0.032290231190722211 0.017742086382440903 0.032290231190722211 -2499.8106642892903 -0.0021486658069989062 0.017742086382440903 -0.0021486658069989062 -9999.8071168683055 0.19967581144419455 0.016203288001875232 0.050258431075215659 0.016203288001875232 -2499.8331726397378 -0.077851595755823955 0.050258431075215659 -0.077851595755823955 -9999.6697592860619 0.11891346013089787 -0.011369619972071726 -0.034501676282161498 -0.011369619972071726 -2499.8639268612596 -0.03853010704551707 -0.034501676282161498 -0.03853010704551707 -9999.8277648543735 0.11272862339455969 -0.013461288852415555 -0.03242137972938508 -0.013461288852415555 -2499.8819314021175 -0.035290036337073616 -0.03242137972938508 -0.035290036337073616 -9999.8940960663476 0.1400795275747555 -0.0096412199916953937 -0.012180353142866807 -0.0096412199916953937 -2499.8753944687278 -0.020418243947005976 -0.012180353142866807 -0.020418243947005976 -9999.8469828188427 0.10306213666513031 -0.0028233742217470296 -0.023727317921611757 -0.0028233742217470296 -2499.9241530531522 0.0079864476397233375 -0.023727317921611757 0.0079864476397233375 -9999.9415575530002 0.14472596448922559 0.013977050279680764 0.06370536192707732 0.013977050279680764 -2499.8756079044724 0.043368065661979927 0.06370536192707732 0.043368065661979927 -9999.8443880897248 0.05852486414323721 0.012764277326533569 -0.015022240887446969 0.012764277326533569 -2499.882982302664 -0.023111067805530183 -0.015022240887446969 -0.023111067805530183 -9999.8686690782997 0.039647527566103236 0.015874983055464368 -0.028504917426744214 0.015874983055464368 -2499.87526540931 -0.0089838481899278122 -0.028504917426744214 -0.0089838481899278122 -9999.8696798198362 0.043160712018352948 -0.0050111050456897177 -0.0097670385955232197 -0.0050111050456897177 -2499.831072417921 0.093265985639593041 -0.0097670385955232197 0.093265985639593041 -9999.7903073446596 0.069238527910692349 0.0090923454537649682 -0.0048855147571928575 0.0090923454537649682 -2499.8394964173676 0.011519893209879228 -0.0048855147571928575 0.011519893209879228 -9999.8057294140617 0.025042106321333468 -0.025735197719116927 -0.038848102038927967 -0.025735197719116927 -2499.8757320526438 0.006088747834340047 -0.038848102038927967 0.006088747834340047 -9999.7808542419261 0.066490997530175983 0.0062308996106298919 -0.021141432289286555 0.0062308996106298919 -2499.8791088212834 0.046208247508496031 -0.021141432289286555 0.046208247508496031 -9999.8835765447275 0.2043442104512086 0.020466167707279787 -0.002099386539682703 0.020466167707279787 -2499.7742563561342 0.021705683913605833 -0.002099386539682703 0.021705683913605833 -9999.7615522469405 0.15469804605551629 -0.0017026612370889573 0.046599248724370407 -0.0017026612370889573 -2499.8326792099283 0.058342132470872998 0.046599248724370407 0.058342132470872998 -9999.8307551738581 0.26960635505638209 0.0070342890709527012 -0.011501834956106904 0.0070342890709527012 -2499.7918819901606 0.0052946413846655105 -0.011501834956106904 0.0052946413846655105 -9999.7570175406781 0.19558002983785627 0.036437010453656091 0.014691096394756187 0.036437010453656091 -2499.8174851084455 0.0056132184963644249 0.014691096394756187 0.0056132184963644249 -9999.7800236198236 0.2453029684145846 -0.0064918272093749119 0.030452217101938989 -0.0064918272093749119 -2499.8183965861963 0.010130457156133504 0.030452217101938989 0.010130457156133504 -9999.7275502785469 0.35053724256595009 0.0074691766432974024 0.046412080836710334 0.0074691766432974024 -2499.7371358064329 0.078866545793978782 0.046412080836710334 0.078866545793978782 -9999.5914787621587 0.2811728295292879 -0.012706702807035184 -0.0074542940898905136 -0.012706702807035184 -2499.7901255426686 0.031984140445046272 -0.0074542940898905136 0.031984140445046272 -9999.6677459955899 0.30123236650765317 -0.011294304247334238 0.0077084206362308255 -0.011294304247334238 -2499.7972180371662 0.045766459980061402 0.0077084206362308255 0.045766459980061402 -9999.690196890162 0.3163491667787639 -0.0038614371507497344 0.018203319554004338 -0.0038614371507497344 -2499.769613433119 0.0067988055980094941 0.018203319554004338 0.0067988055980094941 -9999.6260810221902 0.27652924471476581 -0.0030239640809997604 0.021676334253015739 -0.0030239640809997604 -2499.8169414772688 0.030563503084977128 0.021676334253015739 0.030563503084977128 -9999.7483120245161 0.25821863606552142 -0.0063562212350487188 -0.0016131569300643633 -0.0063562212350487188 -2499.8087608961146 0.0071836203455859504 -0.0016131569300643633 0.0071836203455859504 -9999.7411979887438 0.25837344394494721 -0.007035778666343015 -0.0014634878556945563 -0.007035778666343015 -2499.8079487790828 0.0078678527449428659 -0.0014634878556945563 0.0078678527449428659 -9999.7413618186765 0.20922958118448776 0.0037247064221828819 -0.045274200782188245 0.0037247064221828819 -2499.8342618439797 0.035947067200140737 -0.045274200782188245 0.035947067200140737 -9999.7609052073167 0.26827176666029118 0.0061896968442863298 -0.011715055801232666 0.0061896968442863298 -2499.7965223112969 0.0084991771618661005 -0.011715055801232666 0.0084991771618661005 -9999.7616951181917 0.21353293561651299 -0.011378843543170819 -0.046070424466401895 -0.011378843543170819 -2499.8184154917872 -0.010414641528235458 -0.046070424466401895 -0.010414641528235458 -9999.7577340074968 0.27718295508248048 -0.0054079145797572966 -0.024629693768950817 -0.0054079145797572966 -2499.8176272640367 0.025109356423395013 -0.024629693768950817 0.025109356423395013 -9999.7501729450742 0.27242144867250317 -0.0043877246360791277 -0.021646585815659591 -0.0043877246360791277 -2499.8012319596564 -0.0032190986289606371 -0.021646585815659591 -0.0032190986289606371 -9999.7844647580696 0.25314530165441962 -0.0095057110072671262 -0.0069699926825211936 -0.0095057110072671262 -2499.817673181748 0.024120828770630265 -0.0069699926825211936 0.024120828770630265 -9999.819404839709 0.27917421720133007 -0.00051037801681170017 -0.0062435763406938349 -0.00051037801681170017 -2499.7946174764875 -0.0020736597462018835 -0.0062435763406938349 -0.0020736597462018835 -9999.7630995727231 0.26333194801418358 -0.010570382691154845 -0.00076005979349247355 -0.010570382691154845 -2499.8238071176283 0.0052677645835501608 -0.00076005979349247355 0.0052677645835501608 -9999.7771923072323 0.24532306167475326 0.0019616678057409365 0.060139131969171977 0.0019616678057409365 -2499.785320753831 -0.0085136208482331777 0.060139131969171977 -0.0085136208482331777 -9999.6713913032272 0.30100146297172614 0.016164504467312442 -0.031028291290362706 0.016164504467312442 -2499.7714571267024 -0.055794257621630594 -0.031028291290362706 -0.055794257621630594 -9999.6862156190873 0.2059374763894084 0.0018315901686043934 -0.043473195329034646 0.0018315901686043934 -2499.8231481769194 0.04239836264747171 -0.043473195329034646 0.04239836264747171 -9999.784951995809 0.27752666576907359 -0.0021486478586237511 -0.021943173828162799 -0.0021486478586237511 -2499.8015783030351 -0.00045339016378420638 -0.021943173828162799 -0.00045339016378420638 -9999.7398552451705 0.25187508742146747 0.0051013697637813764 -0.030118052080979396 0.0051013697637813764 -2499.8139545903741 0.0031015731274237623 -0.030118052080979396 0.0031015731274237623 -9999.7548040941292 0.28931816917338438 -0.0053507621640981849 -0.017294033377197593 -0.0053507621640981849 -2499.7892821142987 -0.010009114878812397 -0.017294033377197593 -0.010009114878812397 -9999.7090130494798 0.26354124150702773 -0.0085188587491253787 0.0027529826566023985 -0.0085188587491253787 -2499.8199265300468 0.0082827552275830385 0.0027529826566023985 0.0082827552275830385 -9999.7825422764854 0.2947529803263933 -0.0030817962899286067 -0.012322969103479409 -0.0030817962899286067 -2499.7789500060899 0.002131057153292204 -0.012322969103479409 0.002131057153292204 -9999.7106442813456 0.29655843356204059 -0.0025057020274237389 -0.0091011669965155306 -0.0025057020274237389 -2499.7895855663792 -6.9460931342746335e-05 -0.0091011669965155306 -6.9460931342746335e-05 -9999.7101462038918 0.2033806880517659 0.010993618422958512 -0.0092094919218652649 0.010993618422958512 -2499.8317836796778 -0.00015466086733795237 -0.0092094919218652649 -0.00015466086733795237 -9999.7897848019638 0.21423864467919884 0.014774097357578328 -0.004734895306683029 0.014774097357578328 -2499.8153194509059 0.010444750910664879 -0.004734895306683029 0.010444750910664879 -9999.7505674718759 0.29683866948971627 0.011897246233589889 -0.0080656483185066463 0.011897246233589889 -2499.7803155188885 0.014838717501334031 -0.0080656483185066463 0.014838717501334031 -9999.7143580515458 0.249794098647385 -0.0027413458119074675 -0.019559775039851957 -0.0027413458119074675 -2499.8302128524056 0.020974063612811733 -0.019559775039851957 0.020974063612811733 -9999.7483778579826 0.2741329813501352 0.0042482048043277695 -0.011961739046455477 0.0042482048043277695 -2499.7947394918137 0.010031864263567059 -0.011961739046455477 0.010031864263567059 -9999.7322610514784 0.28096135367695751 0.0052209546957074811 -0.016307401228004892 0.0052209546957074811 -2499.7912966522858 0.0088194605529565706 -0.016307401228004892 0.0088194605529565706 -9999.7191169884863 0.25377126022704033 0.0025992495387232376 -0.031081665684723703 0.0025992495387232376 -2499.8065768784136 0.0059185657119087409 -0.031081665684723703 0.0059185657119087409 -9999.7505341571305 0.29260764575519715 0.012081802256427417 -0.0044699729915009812 0.012081802256427417 -2499.7799593130176 0.016401732549184089 -0.0044699729915009812 0.016401732549184089 -9999.7224987628178 0.29972782660115627 0.0072176361045662996 -0.010113086299952556 0.0072176361045662996 -2499.789294922165 0.013323048833626672 -0.010113086299952556 0.013323048833626672 -9999.6861353797649 0.28613051139109302 0.010612117144338948 -0.016909786212636391 0.010612117144338948 -2499.8083465562431 0.023413313717355777 -0.016909786212636391 0.023413313717355777 -9999.7352287668073 0.20001504930519332 -0.0026385468083483521 -0.017386572084433283 -0.0026385468083483521 -2499.8380529125016 0.022093071533163311 -0.017386572084433283 0.022093071533163311 -9999.76270778445 0.13154134811702534 -0.0038053359702932533 -0.006162722080716776 -0.0038053359702932533 -2499.8599204673019 -0.00060236470483232551 -0.006162722080716776 -0.00060236470483232551 -9999.8127736070965 0.12107497596139183 -0.0026359667615640809 -0.023342388573382777 -0.0026359667615640809 -2499.8708419953055 -0.0054196366031646903 -0.023342388573382777 -0.0054196366031646903 -9999.8491349840988 0.19729395400085536 0.011394102672108095 -0.012015091730063432 0.011394102672108095 -2499.8394030251193 0.0050923474263981916 -0.012015091730063432 0.0050923474263981916 -9999.8070341917264 0.11367653545212875 0.00016071507628028642 -0.016014269969673478 0.00016071507628028642 -2499.8700738371763 0.0040132778103725286 -0.016014269969673478 0.0040132778103725286 -9999.8353118458563 0.058286182877793635 0.0038496582008567259 -0.0098632515328063164 0.0038496582008567259 -2499.8464284521597 -0.0005389184043451678 -0.0098632515328063164 -0.0005389184043451678 -9999.8435968035028 0.055995078392697906 -0.0062905687733008225 -0.0089160213856303017 -0.0062905687733008225 -2499.86138229066 -0.0090357581293574185 -0.0089160213856303017 -0.0090357581293574185 -9999.8720605175804 0.04712124366324133 -0.00088015508592897279 -0.014217926169749262 -0.00088015508592897279 -2499.8631901036069 -0.010832527145794302 -0.014217926169749262 -0.010832527145794302 -9999.8651810863848 0.063989223678618146 0.0068804518427605238 -0.015861833884173393 0.0068804518427605238 -2499.860435984137 -0.013492701639279403 -0.015861833884173393 -0.013492701639279403 -9999.8548266789312 0.10904361555731157 0.0024903346913739133 -0.023428090971719939 0.0024903346913739133 -2499.8699868423028 -0.009154170011242968 -0.023428090971719939 -0.009154170011242968 -9999.8504081227984 0.098364139639784298 -0.008226725251275515 -0.023755702979542548 -0.008226725251275515 -2499.8827452565583 -0.005934991600952344 -0.023755702979542548 -0.005934991600952344 -9999.8550637367443 0.1219887244765232 0.012444865888848002 -0.0220091914106888 0.012444865888848002 -2499.8711402947515 0.016088391441826388 -0.0220091914106888 0.016088391441826388 -9999.8371154415963 0.12295747367898002 0.00046877615324839028 -0.0088950661006492737 0.00046877615324839028 -2499.8879097753488 -0.0032516070092469818 -0.0088950661006492737 -0.0032516070092469818 -9999.8477737026988 0.13742389341132366 -0.00027972788255471379 -0.010058861212201009 -0.00027972788255471379 -2499.8535445100606 0.0042588936539686983 -0.010058861212201009 0.0042588936539686983 -9999.7969454835329 0.15185056391328544 0.00091160260214982053 -0.01135406255525595 0.00091160260214982053 -2499.8578064183234 -0.015409836595608795 -0.01135406255525595 -0.015409836595608795 -9999.7628126469681 0.12663687477561325 -0.0028151670866698817 -0.0092163979320503131 -0.0028151670866698817 -2499.8793319200568 -0.012511801762229879 -0.0092163979320503131 -0.012511801762229879 -9999.8265254534708 0.12540280010261995 0.015119062929692038 -0.024752765534117316 0.015119062929692038 -2499.8845410063518 0.0097248843685520114 -0.024752765534117316 0.0097248843685520114 -9999.8106854272628 0.13340582836826798 0.0018808541566480747 -0.0097545896294377599 0.0018808541566480747 -2499.8626192337924 0.011446665102994302 -0.0097545896294377599 0.011446665102994302 -9999.8215037873615 0.097766491696802404 0.0020980095912807263 -0.014405286764485936 0.0020980095912807263 -2499.8604916537111 0.01221345059639134 -0.014405286764485936 0.01221345059639134 -9999.8096720330723 0.088297392648200912 -0.011120698646934372 -0.024901517527723627 -0.011120698646934372 -2499.8763569261273 0.0067945705850434024 -0.024901517527723627 0.0067945705850434024 -9999.8455448424684 0.15334639368666103 0.014528423618940377 -0.014544170788212796 0.014528423618940377 -2499.8517790325168 -0.0038968567096162587 -0.014544170788212796 -0.0038968567096162587 -9999.8183675023975 0.15200353842101322 -0.016869420032666841 -0.0083665568859032646 -0.016869420032666841 -2499.8719712567226 -0.0049845716275740415 -0.0083665568859032646 -0.0049845716275740415 -9999.8538437426723 0.070273512259518611 -0.011386978708070311 0.0038558447404284379 -0.011386978708070311 -2499.8850529373194 0.0054203624085857882 0.0038558447404284379 0.0054203624085857882 -9999.8845946878355 0.11574097070274547 -0.00072417053447638297 -0.013067706559013459 -0.00072417053447638297 -2499.8757143679813 0.0011735100097212126 -0.013067706559013459 0.0011735100097212126 -9999.8633513898239 0.15809374353921157 -0.029679200522358874 -0.014276276472173777 -0.029679200522358874 -2499.8660847487872 0.01250014298602764 -0.014276276472173777 0.01250014298602764 -9999.823316554066 0.14617138857465761 0.00030264253620113698 -0.030591425962484209 0.00030264253620113698 -2499.8538237800376 -0.00099878249602625147 -0.030591425962484209 -0.00099878249602625147 -9999.806768449751 0.098997395396509091 -0.0084284468445823702 -0.013033607372562983 -0.0084284468445823702 -2499.8647611201395 -0.00098575478887141799 -0.013033607372562983 -0.00098575478887141799 -9999.8349994236924 0.12839395053742919 0.018735295526031471 -0.027049756311498641 0.018735295526031471 -2499.8726038263412 0.0084299833179102279 -0.027049756311498641 0.0084299833179102279 -9999.8763595525743 0.072634393322005053 -0.016160626940433468 -0.0060755088261430501 -0.016160626940433468 -2499.8844021227123 0.0052557017861545319 -0.0060755088261430501 0.0052557017861545319 -9999.878333774679 0.094733375177384005 -0.011972598229605036 -0.014534917108903755 -0.011972598229605036 -2499.8768403334398 0.0046395188510359731 -0.014534917108903755 0.0046395188510359731 -9999.8828287069919 0.081440375064630643 6.5856045540144126e-06 -0.025000529552926309 6.5856045540144126e-06 -2499.8868256995174 -3.6761046430910937e-05 -0.025000529552926309 -3.6761046430910937e-05 -9999.8823598619201 0.10859966329644521 0.0065473046816025074 -0.013091970320601831 0.0065473046816025074 -2499.8662498119747 -0.0033000761977746151 -0.013091970320601831 -0.0033000761977746151 -9999.8610990847483 0.096676739486952101 -0.0035370463061979822 -0.0040426930399917183 -0.0035370463061979822 -2499.8718399737431 -0.0069940911616868107 -0.0040426930399917183 -0.0069940911616868107 -9999.8722468798969 0.24984904188841028 0.011603014863542059 -0.02692524374651839 0.011603014863542059 -2499.8114002079683 -6.1745307903038338e-05 -0.02692524374651839 -6.1745307903038338e-05 -9999.7838586085854 0.10375609857328527 -0.0013245130695118401 -0.012778189011442009 -0.0013245130695118401 -2499.8623591986097 0.0016093540334622958 -0.012778189011442009 0.0016093540334622958 -9999.8355975184058 0.10403339461117866 0.0035831240853325952 -0.01137929919968883 0.0035831240853325952 -2499.8676082969787 0.011364074159246229 -0.01137929919968883 0.011364074159246229 -9999.8374239278601 0.097486397851525908 0.00075375925176609376 -0.0023591415792907355 0.00075375925176609376 -2499.8771700141933 0.0020617013160517672 -0.0023591415792907355 0.0020617013160517672 -9999.8765755031782 0.055794889509343193 0.0029713380740093789 -0.0038719599515388836 0.0029713380740093789 -2499.8766313053966 0.013905526438975357 -0.0038719599515388836 0.013905526438975357 -9999.896190237836 0.052761418171940022 0.001757340481597286 -0.01250174834876816 0.001757340481597286 -2499.8531369629309 -0.0031470164467464201 -0.01250174834876816 -0.0031470164467464201 -9999.8806208715323 0.056191418791058823 -0.0041301051325613736 -0.010368323921284173 -0.0041301051325613736 -2499.8531142896718 -0.0024540858612454031 -0.010368323921284173 -0.0024540858612454031 -9999.8450935623077 0.19448476323645991 -0.011578571025360029 -0.011046232399166911 -0.011578571025360029 -2499.8548799230448 -0.0055618243786739185 -0.011046232399166911 -0.0055618243786739185 -9999.8125460384254 0.10048265582759086 -0.0094769581463814805 -0.0066600463687791489 -0.0094769581463814805 -2499.879009969909 -0.0025948618495021947 -0.0066600463687791489 -0.0025948618495021947 -9999.8400658464416 0.27620889062472997 0.017625790888371046 -0.013278611707391974 0.017625790888371046 -2499.796158935952 -0.024479913846334966 -0.013278611707391974 -0.024479913846334966 -9999.7341485335164 0.24583006410284725 0.012349006192401051 -0.03097265270389471 0.012349006192401051 -2499.8054206785564 -0.025961430786992423 -0.03097265270389471 -0.025961430786992423 -9999.7644915200362 0.21453439371180139 -0.014468357839229746 -0.020568149122482282 -0.014468357839229746 -2499.8455014484416 -0.0027867577268807509 -0.020568149122482282 -0.0027867577268807509 -9999.7944872907683 0.29082145171014417 0.0053515308979669649 -0.025387411687916028 0.0053515308979669649 -2499.790792348891 0.015143597859150759 -0.025387411687916028 0.015143597859150759 -9999.7429983333823 0.24680569889824255 -0.0022894207798850041 -0.0035178447969883564 -0.0022894207798850041 -2499.8417529933795 0.0036462333728195517 -0.0035178447969883564 0.0036462333728195517 -9999.7684368686787 0.29560260572179686 -0.0017418784786354495 -0.02371192228019936 -0.0017418784786354495 -2499.7717234305746 -0.0020707868848148792 -0.02371192228019936 -0.0020707868848148792 -9999.700759824329 0.2326775722867751 0.010422705825702486 -0.01932436893139311 0.010422705825702486 -2499.8182692486516 0.0010464717624358855 -0.01932436893139311 0.0010464717624358855 -9999.7972754446309 0.28592925484917942 0.020736626247517102 -0.0051528490294003859 0.020736626247517102 -2499.7845657267553 -0.01693822896504571 -0.0051528490294003859 -0.01693822896504571 -9999.7162790210932 0.29434206995529166 -0.0009153362964630235 -0.025365693258208921 -0.0009153362964630235 -2499.7896012317565 -0.00044400070510164369 -0.025365693258208921 -0.00044400070510164369 -9999.7074947681358 0.26917538348243397 -0.00040129388515276494 -0.006743510450633039 -0.00040129388515276494 -2499.8100103136185 -0.0026912648281722795 -0.006743510450633039 -0.0026912648281722795 -9999.7636989143139 0.28660173046955606 -0.0026557891215011542 -0.010924183690576683 -0.0026557891215011542 -2499.792705490705 0.012293138726818142 -0.010924183690576683 0.012293138726818142 -9999.7138559360756 0.27127329526774702 -0.0015098895023868165 -0.030104036946795532 -0.0015098895023868165 -2499.811830689775 0.00012451026032067603 -0.030104036946795532 0.00012451026032067603 -9999.7752356108867 0.29302921650742064 -0.0014470803783461356 -0.023760730928188423 -0.0014470803783461356 -2499.7856111358742 -0.0028987213972868631 -0.023760730928188423 -0.0028987213972868631 -9999.7049585813002 0.2566030600664817 0.0051957825646581808 -0.0067188169296059641 0.0051957825646581808 -2499.8142567152299 0.00042140590903727571 -0.0067188169296059641 0.00042140590903727571 -9999.7603280756775 0.36642039520120306 -0.00057046771210281927 -0.028584840518078636 -0.00057046771210281927 -2499.7616613687187 9.9842591225751676e-05 -0.028584840518078636 9.9842591225751676e-05 -9999.6858064990083 0.25172052241350684 0.021998841706502698 -0.032792682271974627 0.021998841706502698 -2499.817083599844 -0.0092119126675243024 -0.032792682271974627 -0.0092119126675243024 -9999.759044168306 0.2755277987826048 -0.0097187506513693213 -0.012639715891054948 -0.0097187506513693213 -2499.8018253393066 -0.0052373623020685045 -0.012639715891054948 -0.0052373623020685045 -9999.7387127123548 0.26426763171093626 0.027853903285817688 -0.019427155022640363 0.027853903285817688 -2499.8096031946052 0.012179278121038806 -0.019427155022640363 0.012179278121038806 -9999.7489727022021 0.31420032239975626 0.0019624166258266559 -0.0056703328446019441 0.0019624166258266559 -2499.7839870117082 -0.0013328619916137541 -0.0056703328446019441 -0.0013328619916137541 -9999.7222022415735 0.2913435509417468 -0.012195695822855542 -0.035531147817891906 -0.012195695822855542 -2499.808141422418 0.012888650886452524 -0.035531147817891906 0.012888650886452524 -9999.757656859374 0.27902706523764209 0.0043999188653030099 -0.001748629303619964 0.0043999188653030099 -2499.7971962379161 -0.0027839647650580446 -0.001748629303619964 -0.0027839647650580446 -9999.7333971980333 0.27486990143370349 -0.0011737521585548187 -0.01132868916465668 -0.0011737521585548187 -2499.806994911658 -0.0052696559578180313 -0.01132868916465668 -0.0052696559578180313 -9999.7708980750758 0.26524879106727894 0.0068000396578811254 -0.024858751792635303 0.0068000396578811254 -2499.8124361261107 0.0071952181988308439 -0.024858751792635303 0.0071952181988308439 -9999.7717163680063 0.36399527932917408 0.0050690763678304107 -0.024174872967705596 0.0050690763678304107 -2499.763698738936 0.00099895059793198016 -0.024174872967705596 0.00099895059793198016 -9999.6835433919914 0.32837178555382707 -0.00065942852613968693 -0.02291708734628628 -0.00065942852613968693 -2499.7755250322698 0.0014590492573915981 -0.02291708734628628 0.0014590492573915981 -9999.6954676473615 0.37126317252841545 -0.0046607278489346482 -0.027056799255660735 -0.0046607278489346482 -2499.7521628355789 -0.0010742400099843508 -0.027056799255660735 -0.0010742400099843508 -9999.6823532504786 0.31522754577054002 0.012031410268618196 -0.025030113240063656 0.012031410268618196 -2499.7927954766419 -0.0086509032043977641 -0.025030113240063656 -0.0086509032043977641 -9999.7098967453057 0.26156918635388138 -0.0076465390962103461 -0.046423638602391293 -0.0076465390962103461 -2499.8235833565705 -0.0021891981978114927 -0.046423638602391293 -0.0021891981978114927 -9999.7775982529129 0.25542628119183064 0.00063255023636121094 -0.00036286901740822941 0.00063255023636121094 -2499.8195325350371 -0.0014867728250465007 -0.00036286901740822941 -0.0014867728250465007 -9999.7535169475377 0.26327685690375802 -0.0052562758329430387 -0.0014428861832129769 -0.0052562758329430387 -2499.7994901826896 0.0077134533994467347 -0.0014428861832129769 0.0077134533994467347 -9999.7432619348074 0.32450536042779277 0.007310745728861083 -0.027078538486875914 0.007310745728861083 -2499.7731846236802 -0.00040214283217210323 -0.027078538486875914 -0.00040214283217210323 -9999.6980495971875 0.21696769000845961 -0.0075789164156049305 -0.020571093686157838 -0.0075789164156049305 -2499.797150049053 0.0296376980295463 -0.020571093686157838 0.0296376980295463 -9999.7467621765827 0.31067918824010121 0.0077141986637050269 -0.033293502219748916 0.0077141986637050269 -2499.7866751068486 0.013291247874803958 -0.033293502219748916 0.013291247874803958 -9999.7308712710765 0.31419698620447889 0.012417047864599842 -0.016836249596508424 0.012417047864599842 -2499.7875480829025 -0.000375524376067915 -0.016836249596508424 -0.000375524376067915 -9999.7043254662713 0.31469582090903714 -0.0048430651928802401 0.00048183707986027002 -0.0048430651928802401 -2499.7660198670219 -0.0035436903417576104 0.00048183707986027002 -0.0035436903417576104 -9999.7123963563317 0.38929369932884583 0.0076348013533094478 -0.013791430890705669 0.0076348013533094478 -2499.7437043061618 -0.0022714929382345872 -0.013791430890705669 -0.0022714929382345872 -9999.6891144183683 0.32178385795123177 -0.0057277965776167915 -0.0065757168113123043 -0.0057277965776167915 -2499.7730817295596 -0.011306331231025979 -0.0065757168113123043 -0.011306331231025979 -9999.7273162861893 0.27391875146167877 0.010984405717480467 -0.028074002173525514 0.010984405717480467 -2499.8105867152244 0.0032508226213394664 -0.028074002173525514 0.0032508226213394664 -9999.7708472495142 0.23409216075106087 0.0048777925594837707 -0.011697118814481655 0.0048777925594837707 -2499.830642374488 0.0081631469674903201 -0.011697118814481655 0.0081631469674903201 -9999.7739765707629 0.22083519703119237 0.0057772033490555109 -0.031128370502756297 0.0057772033490555109 -2499.8430685053154 0.012899475197627908 -0.031128370502756297 0.012899475197627908 -9999.8034195456785 0.21093373310941388 0.00058425750276665592 -0.037193075741015491 0.00058425750276665592 -2499.8504631623546 -0.001262018227862427 -0.037193075741015491 -0.001262018227862427 -9999.8201572414837 0.0959827346127895 0.0033049752130961813 -0.0096498684088146547 0.0033049752130961813 -2499.8983438718965 0.024711303505682736 -0.0096498684088146547 0.024711303505682736 -9999.8690418719543 0.19520089386605832 0.014548715986803379 -0.034520106210948143 0.014548715986803379 -2499.8600468243276 0.02076082846178906 -0.034520106210948143 0.02076082846178906 -9999.8243475548734 0.18117581016122131 0.0203391506359837 -0.0084622892186416721 0.0203391506359837 -2499.8770549598357 -0.002614074533994426 -0.0084622892186416721 -0.002614074533994426 -9999.8430959335019 0.21689842491832678 -0.0057107113135821466 -0.018326669425732689 -0.0057107113135821466 -2499.8386481400703 0.0071772452902223449 -0.018326669425732689 0.0071772452902223449 -9999.7881729351939 0.18166843405742839 0.0060494029819703893 0.0059608210031001363 0.0060494029819703893 -2499.8686426882541 -0.0065516727991052903 0.0059608210031001363 -0.0065516727991052903 -9999.8380544616011 0.074955505786419963 -0.0090267410786541644 -0.013605241976620164 -0.0090267410786541644 -2499.9036867593932 0.004860526178163127 -0.013605241976620164 0.004860526178163127 -9999.9121930058609 0.086624401523295091 -0.0053281384945348328 -0.022331063468300272 -0.0053281384945348328 -2499.881598545111 -0.0090749545925064012 -0.022331063468300272 -0.0090749545925064012 -9999.8800503537641 0.071342234743497102 -0.0019602655707800024 -0.022714330571034225 -0.0019602655707800024 -2499.8868844476201 0.0059592289871943649 -0.022714330571034225 0.0059592289871943649 -9999.9277418223282 0.048665144251572201 -0.013225112147029899 0.0095063805492827669 -0.013225112147029899 -2499.8920719384696 0.0007014948805590393 0.0095063805492827669 0.0007014948805590393 -9999.9551981721306 0.057348409405676648 0.00058424435507950512 -0.0025444010279898066 0.00058424435507950512 -2499.858357445366 0.027290204579912825 -0.0025444010279898066 0.027290204579912825 -9999.8702011249006 0.039528551684270496 -0.0029385432565779412 -0.0037830956789548509 -0.0029385432565779412 -2499.8943608752652 0.0046368993716896512 -0.0037830956789548509 0.0046368993716896512 -9999.9209036217289 0.093598471121367766 -0.0021032992648080812 -0.015026488603325561 -0.0021032992648080812 -2499.8951998414595 0.0096354927142670022 -0.015026488603325561 0.0096354927142670022 -9999.9020545742969 0.083518400763296086 -0.005866653866130625 -0.01567851783693186 -0.005866653866130625 -2499.9230340437675 0.0055175375546241412 -0.01567851783693186 0.0055175375546241412 -9999.9125691539102 0.092081662947748555 -0.0054347424515560974 -0.017427109272830421 -0.0054347424515560974 -2499.8918579484198 -1.0529489827604266e-05 -0.017427109272830421 -1.0529489827604266e-05 -9999.8662149607262 0.080059796507157444 -0.0045499581028436657 -0.0085887157592878793 -0.0045499581028436657 -2499.9026905239689 -0.022739136275049532 -0.0085887157592878793 -0.022739136275049532 -9999.8999113855825 0.077000265036076598 -0.00050748861576828397 0.0029621988396684173 -0.00050748861576828397 -2499.9053156433101 0.0025592951387807261 0.0029621988396684173 0.0025592951387807261 -9999.9250758448652 0.086499542387173278 -0.0020781645206435356 0.0023537332672276534 -0.0020781645206435356 -2499.9161744275752 0.00091740332209155895 0.0023537332672276534 0.00091740332209155895 -9999.8788655704666 0.07310526013134222 -0.0022823964856050526 -0.021669453306458308 -0.0022823964856050526 -2499.9049199550245 -0.0014591564431611914 -0.021669453306458308 -0.0014591564431611914 -9999.9344202051143 0.089136558593963855 -0.0015528689333289165 -0.0064497626699449029 -0.0015528689333289165 -2499.8955576897406 0.017723010352710844 -0.0064497626699449029 0.017723010352710844 -9999.8934776912647 0.094389308393147076 0.00056372820568640139 -0.00038824929106340278 0.00056372820568640139 -2499.8867862633742 -0.0022656793607893633 -0.00038824929106340278 -0.0022656793607893633 -9999.8726777788943 0.18955720055100755 0.0040628852251347394 -0.013681443695531925 0.0040628852251347394 -2499.8414438185041 0.0021689134009648114 -0.013681443695531925 0.0021689134009648114 -9999.7916348248636 0.099327332578468486 -0.0028470540988577396 -0.019781710705501609 -0.0028470540988577396 -2499.8911966869764 0.0018692343201109907 -0.019781710705501609 0.0018692343201109907 -9999.9004325033238 0.21489751439185056 0.0016081202105020162 -0.04221781399428437 0.0016081202105020162 -2499.8421440908878 -0.0048902896505751414 -0.04221781399428437 -0.0048902896505751414 -9999.8119713094384 0.14095837984132231 0.00095001044883699561 0.0088908957502980002 0.00095001044883699561 -2499.8640161579551 0.0052817881751252571 0.0088908957502980002 0.0052817881751252571 -9999.8333253619421 0.071587958169402555 -0.00098998321178069698 -0.021408053398772608 -0.00098998321178069698 -2499.9058593942391 -0.0025998958224136004 -0.021408053398772608 -0.0025998958224136004 -9999.9326578629261 0.20784885831380961 0.00027261426378402676 -0.037555221060756594 0.00027261426378402676 -2499.8349203066464 -0.0040406572334177326 -0.037555221060756594 -0.0040406572334177326 -9999.816293545824 0.093846846770247794 0.0017144723373591908 -0.017621247414354002 0.0017144723373591908 -2499.8884303895011 0.0056701304583839374 -0.017621247414354002 0.0056701304583839374 -9999.8957648070282 0.086862902116990881 -0.0025674240078232056 -0.003658197811091668 -0.0025674240078232056 -2499.8883467968371 -0.0031256242785957511 -0.003658197811091668 -0.0031256242785957511 -9999.8770915566492 0.094166513874370139 -0.0050968581553113984 -0.022054252513044048 -0.0050968581553113984 -2499.8924167682308 0.0013875687300242134 -0.022054252513044048 0.0013875687300242134 -9999.9033259923599 0.089504666813809308 -0.0098906427479591146 -0.015448119145730743 -0.0098906427479591146 -2499.8840499306953 0.0020841036912315758 -0.015448119145730743 0.0020841036912315758 -9999.9123828831434 0.22536099662465858 0.00067152869324594439 -0.044110803624789696 0.00067152869324594439 -2499.8318656895608 0.00076472605360322632 -0.044110803624789696 0.00076472605360322632 -9999.8022403229916 0.21786680265540781 0.0031412698819127394 -0.041216172925487626 0.0031412698819127394 -2499.8337063414056 -0.001550589579892403 -0.041216172925487626 -0.001550589579892403 -9999.8063491881767 0.086596889068459859 0.0018553284902365907 0.00077948503530933522 0.0018553284902365907 -2499.8830196167364 -0.00018907327921624528 0.00077948503530933522 -0.00018907327921624528 -9999.8727766573829 0.065244792980593047 0.0018501847620253815 -0.017500012492746464 0.0018501847620253815 -2499.9052525675725 0.0025436611103941686 -0.017500012492746464 0.0025436611103941686 -9999.9271781869611 0.064454194562131306 0.0025710195303317272 -0.019607967256888514 0.0025710195303317272 -2499.9032876419878 -0.00044400504270925012 -0.019607967256888514 -0.00044400504270925012 -9999.9321041540243 0.13937236900892458 -0.0052431404984850244 0.001620468006876763 -0.0052431404984850244 -2499.861384877182 0.0024076363115455024 0.001620468006876763 0.0024076363115455024 -9999.8311646910806 0.12248389495925949 -0.0028774714407924541 -0.0032152213525478146 -0.0028774714407924541 -2499.866241260389 0.0018596132740640314 -0.0032152213525478146 0.0018596132740640314 -9999.8344219976352 0.059205246101555531 0.0040659548438065438 -0.020401597017553286 0.0040659548438065438 -2499.9038372817467 0.0023918790084280772 -0.020401597017553286 0.0023918790084280772 -9999.9298670646021 0.12609195711047505 -0.0032824946225353743 0.00058453900237509515 -0.0032824946225353743 -2499.8619957945448 -0.00025336251837870805 0.00058453900237509515 -0.00025336251837870805 -9999.8229998649331 0.090876381450470944 -0.0094504319435082737 -0.030771942141655018 -0.0094504319435082737 -2499.8932072238449 0.0083355240167293232 -0.030771942141655018 0.0083355240167293232 -9999.912647529065 0.098497193923321902 -0.00039676247922442245 -0.029797379408591951 -0.00039676247922442245 -2499.8974139242819 8.4382056229515001e-05 -0.029797379408591951 8.4382056229515001e-05 -9999.9198242660532 0.22226768592008739 -0.0032229621252237994 -0.042156247225648258 -0.0032229621252237994 -2499.8330836617806 0.008284065181214828 -0.042156247225648258 0.008284065181214828 -9999.8036512369436 0.12427104251037235 -0.0074279998606037708 -0.0080829370417632163 -0.0074279998606037708 -2499.8699405582993 0.012464151477388441 -0.0080829370417632163 0.012464151477388441 -9999.8549010627539 0.085889061145280721 0.0029727272866477928 -0.012255521016413695 0.0029727272866477928 -2499.8936278056099 0.0023691994501859881 -0.012255521016413695 0.0023691994501859881 -9999.9149980108414 0.087642335427517537 0.0056655446628468605 0.0012139016143919434 0.0056655446628468605 -2499.8816899079829 0.0065811964550448465 0.0012139016143919434 0.0065811964550448465 -9999.8714875759688 0.095811265520751476 0.0073485881378053675 -0.011460746407465194 0.0073485881378053675 -2499.8647389372181 0.0025833180334302597 -0.011460746407465194 0.0025833180334302597 -9999.8347484395836 0.14423519844058319 -0.0023533768670844727 -0.02962245024900767 -0.0023533768670844727 -2499.841374449994 -0.003076969559515419 -0.02962245024900767 -0.003076969559515419 -9999.8029626019415 0.14322075946256518 0.010002200486876297 -0.022587787750580901 0.010002200486876297 -2499.8544899976278 -0.01182902709388145 -0.022587787750580901 -0.01182902709388145 -9999.816470807411 0.13322279109564761 0.01392456472484899 -0.01341270909421155 0.01392456472484899 -2499.8701010415311 0.013461001828545704 -0.01341270909421155 0.013461001828545704 -9999.8750965484996 0.11437118313938299 -0.0054403939717929568 -0.013465586969687138 -0.0054403939717929568 -2499.8652206748866 0.0030100385620244197 -0.013465586969687138 0.0030100385620244197 -9999.871512768379 0.14355736552624876 -0.015327365831385746 -0.018414273152302485 -0.015327365831385746 -2499.8552805856843 0.0058596389299054863 -0.018414273152302485 0.0058596389299054863 -9999.8187550605708 0.13047026288970187 -0.0094380992179950683 -0.013506157535346119 -0.0094380992179950683 -2499.8755541372047 -0.0082522390639496734 -0.013506157535346119 -0.0082522390639496734 -9999.8764544526693 0.082633709824222024 0.0086805366950565219 -0.014314460389869055 0.0086805366950565219 -2499.8842563946437 -0.0076240483485889854 -0.014314460389869055 -0.0076240483485889854 -9999.8906103051922 0.080438301971298642 0.0073292996048586294 -0.00093898801515024388 0.0073292996048586294 -2499.8784226205844 -0.0026940079605992651 -0.00093898801515024388 -0.0026940079605992651 -9999.8764545634476 0.081135373648976383 0.012409099105292705 -0.011264451614806603 0.012409099105292705 -2499.8832452508659 0.0010885308711294783 -0.011264451614806603 0.0010885308711294783 -9999.8846252970616 0.10153737282053044 -0.012713316507983068 -0.011927258699870436 -0.012713316507983068 -2499.8916332894987 0.0063991827373683918 -0.011927258699870436 0.0063991827373683918 -9999.8806499214115 0.1183478008451857 0.027136137746701393 -0.014387322855327511 0.027136137746701393 -2499.8480222806647 -0.013753017829003511 -0.014387322855327511 -0.013753017829003511 -9999.8240649402451 0.24341236193868099 0.0033595464319330082 -0.022919041970453691 0.0033595464319330082 -2499.8271448017567 -0.00513526625582017 -0.022919041970453691 -0.00513526625582017 -9999.7888648874141 0.15361672677681781 -0.003435195813869224 0.0054259547923720675 -0.003435195813869224 -2499.8667050039658 -0.00037407399577205069 0.0054259547923720675 -0.00037407399577205069 -9999.8307463239616 0.11252323599546799 0.0020263061444482366 -0.019225904086852097 0.0020263061444482366 -2499.8845344138408 0.0033534189005877124 -0.019225904086852097 0.0033534189005877124 -9999.8835561250598 0.12399061951145995 0.0019625861791016316 -0.013408303054347925 0.0019625861791016316 -2499.862224086517 -0.0070461379718835815 -0.013408303054347925 -0.0070461379718835815 -9999.8273711200891 0.093180668758577667 -0.0028760841773726592 0.0031000976578070549 -0.0028760841773726592 -2499.8949960501013 0.0060610858763538999 0.0031000976578070549 0.0060610858763538999 -9999.8836318584799 0.087593487941781234 0.0043416105329360313 0.0045161669604567578 0.0043416105329360313 -2499.9001760972828 -0.00094563916536571924 0.0045161669604567578 -0.00094563916536571924 -9999.8861707896904 0.025025210125022568 -0.0037599296386084946 0.0067104926820320543 -0.0037599296386084946 -2499.8968949371538 0.00061374339384201448 0.0067104926820320543 0.00061374339384201448 -9999.901028258053 0.057829850029520458 0.0031697150253983397 -0.0093789848642700235 0.0031697150253983397 -2499.8921940385935 0.0049126949215860805 -0.0093789848642700235 0.0049126949215860805 -9999.8946014621033 0.071111201315943617 -0.015135043963475883 -0.016764464126936218 -0.015135043963475883 -2499.8677422567089 0.011290955008917081 -0.016764464126936218 0.011290955008917081 -9999.8524502448781 0.18660151150061211 -0.01810225562144567 0.0014957983567001065 -0.01810225562144567 -2499.8452139260758 -0.0034014254160865676 0.0014957983567001065 -0.0034014254160865676 -9999.8133172512826 0.12259748333167408 0.0002768660755601178 -0.014082263721320487 0.0002768660755601178 -2499.8804391575441 0.0040605182039143983 -0.014082263721320487 0.0040605182039143983 -9999.8456094540816 0.07122973747755168 -0.0094681699214233042 -0.012975006498891162 -0.0094681699214233042 -2499.8762283609794 0.0038590136300626909 -0.012975006498891162 0.0038590136300626909 -9999.8873008633018 0.064902612566584139 -0.0017605105520058263 0.0008032803816604428 -0.0017605105520058263 -2499.8204167880631 -0.03085422310505237 0.0008032803816604428 -0.03085422310505237 -9999.8602141516167 0.09775454267423811 0.0097312435913344229 -0.017873452094136155 0.0097312435913344229 -2499.9267321966199 -0.0066406262794771465 -0.017873452094136155 -0.0066406262794771465 -9999.912660143842 0.034083925618688227 0.0076445292464079571 -0.0084003301817574538 0.0076445292464079571 -2499.8726795631246 -0.0029337761679926189 -0.0084003301817574538 -0.0029337761679926189 -9999.9166535474433 0.067688211493077688 -0.00077798753119769776 -0.023829588102671551 -0.00077798753119769776 -2499.8940784422739 -0.0022304890844679903 -0.023829588102671551 -0.0022304890844679903 -9999.9373216066888 0.10146618762519211 -0.0026775168088937346 -0.030175141342624556 -0.0026775168088937346 -2499.8738831353148 0.018967028103361372 -0.030175141342624556 0.018967028103361372 -9999.8658593284199 0.046891604535630904 0.016811132198548948 0.010822486747201765 0.016811132198548948 -2499.8773188595333 -0.0075439707688929047 0.010822486747201765 -0.0075439707688929047 -9999.9502339884421 0.071529453984112479 0.0073308877901051908 -0.013235857262770878 0.0073308877901051908 -2499.9118804983154 -0.0020025706617161632 -0.013235857262770878 -0.0020025706617161632 -9999.9177184503933 0.063668122036688146 -0.0024190376893792158 -0.019845831689963234 -0.0024190376893792158 -2499.9179719057156 0.0034918722376460209 -0.019845831689963234 0.0034918722376460209 -9999.9359513048112 0.085936057459548465 0.0095154390100704103 -0.030341792897161213 0.0095154390100704103 -2499.8954547405428 -0.0099730384099530056 -0.030341792897161213 -0.0099730384099530056 -9999.9077717187101 0.1095018827545573 -0.0037793065970276353 0.0067060439323540777 -0.0037793065970276353 -2499.8923834529232 0.0003023527433470008 0.0067060439323540777 0.0003023527433470008 -9999.8762198449185 0.11010606991112581 0.0038737032753432127 -0.018132600256649312 0.0038737032753432127 -2499.8943346442866 -0.0037383095750556095 -0.018132600256649312 -0.0037383095750556095 -9999.9024404338415 0.21571182680418133 -0.0046545600367084005 -0.038604463279625634 -0.0046545600367084005 -2499.8324552521954 -0.0024912430271797348 -0.038604463279625634 -0.0024912430271797348 -9999.7987960952159 0.13519801016627753 0.0083677570784732695 -0.0038852134548506001 0.0083677570784732695 -2499.8705148991048 -0.011948791184750007 -0.0038852134548506001 -0.011948791184750007 -9999.8522185123147 0.14856399986365432 -0.021791828362359114 -0.015247855899360729 -0.021791828362359114 -2499.8811473544965 0.012664987712014408 -0.015247855899360729 0.012664987712014408 -9999.8482033690234 0.17831975278022583 -0.022621108463116976 0.0011321977576699283 -0.022621108463116976 -2499.8724583231015 0.0075939846319670323 0.0011321977576699283 0.0075939846319670323 -9999.8265744393939 0.21224554130458273 0.00064449373694856933 -0.039607068092209374 0.00064449373694856933 -2499.8385704127359 -0.0014133669428701978 -0.039607068092209374 -0.0014133669428701978 -9999.8015301949999 0.096503604032477597 0.0051730894892674309 0.0059664785876520909 0.0051730894892674309 -2499.9229403948757 -0.00081725811833166517 0.0059664785876520909 -0.00081725811833166517 -9999.8860580786568 0.19197376160263957 -0.014323908156618383 -0.027747687044211489 -0.014323908156618383 -2499.8597888896275 -0.020671471378591377 -0.027747687044211489 -0.020671471378591377 -9999.8286205553377 0.11856260546346675 0.0011583961998070692 -0.0091578635274345288 0.0011583961998070692 -2499.8934177138885 -0.027212523025809787 -0.0091578635274345288 -0.027212523025809787 -9999.863227990445 0.26151810477858817 0.0031227397051260888 -0.00086839774849067908 0.0031227397051260888 -2499.8118533076904 0.00050091663979401346 -0.00086839774849067908 0.00050091663979401346 -9999.7446988979755 0.26652251267842075 0.005311588209599212 -0.0013051859896222595 0.005311588209599212 -2499.7949156516243 -0.0011659819901979063 -0.0013051859896222595 -0.0011659819901979063 -9999.7389262928664 0.23895212188108417 0.01214156290418561 -0.0041992038659373065 0.01214156290418561 -2499.8132418928708 0.0035315314016770571 -0.0041992038659373065 0.0035315314016770571 -9999.772355025143 0.26794433882605517 0.0054533227289697631 -0.022465923031631974 0.0054533227289697631 -2499.8114102597747 0.0036428770217753481 -0.022465923031631974 0.0036428770217753481 -9999.7456196636776 0.23638061419478618 -0.0018011533868505444 -0.023893123610832845 -0.0018011533868505444 -2499.8288270012763 -0.0086661735786037752 -0.023893123610832845 -0.0086661735786037752 -9999.7762441905688 0.30922733712213812 0.005664258757320198 -0.0015408657454827335 0.005664258757320198 -2499.769607186483 0.0093841215748398099 -0.0015408657454827335 0.0093841215748398099 -9999.72439358259 0.25798697980826546 -0.012772921852850581 -0.024435121198621346 -0.012772921852850581 -2499.8109767042897 -0.0067483855418686289 -0.024435121198621346 -0.0067483855418686289 -9999.7711259974094 0.25124614293235936 0.0068419082450484267 -0.02154910453401726 0.0068419082450484267 -2499.8078123016821 0.0094302315192180686 -0.02154910453401726 0.0094302315192180686 -9999.7715104696545 0.34040673915660591 -0.0059979620121678777 -0.02925976116321749 -0.0059979620121678777 -2499.7645932941523 0.0050116925631300546 -0.02925976116321749 0.0050116925631300546 -9999.690877773508 0.33475348403590033 -0.0049961130351348316 -0.029448946246361629 -0.0049961130351348316 -2499.7847684836288 0.00059648306159942877 -0.029448946246361629 0.00059648306159942877 -9999.6932338254883 0.37879055639496073 -0.0059409467883179135 -0.013522149005439132 -0.0059409467883179135 -2499.7409710878819 0.0024663424846949056 -0.013522149005439132 0.0024663424846949056 -9999.7003806358916 0.33882045044447295 0.0081658422194253403 -0.016222621637780321 0.0081658422194253403 -2499.7597825530756 0.0049141883973788936 -0.016222621637780321 0.0049141883973788936 -9999.7007971393832 0.29916298188436485 -0.00462985015258441 -0.011086469555920075 -0.00462985015258441 -2499.8018826653297 0.00061302195354073774 -0.011086469555920075 0.00061302195354073774 -9999.7299665188802 0.29586809287866345 0.00021513056412866827 -0.029748089360509766 0.00021513056412866827 -2499.8057451114528 0.0038399158729589544 -0.029748089360509766 0.0038399158729589544 -9999.7346059175143 0.29206402759700723 -0.0041738099460618787 -0.022994188984739594 -0.0041738099460618787 -2499.8019765727786 -0.0043361622656448162 -0.022994188984739594 -0.0043361622656448162 -9999.7049438961476 0.26621970627866176 0.0053778891276575307 -0.0097116016395375482 0.0053778891276575307 -2499.7812364402375 -0.030956069845160528 -0.0097116016395375482 -0.030956069845160528 -9999.7305001974564 0.31280054111812206 -0.0019164892731738229 -0.019037074682842103 -0.0019164892731738229 -2499.8027629714397 -0.0056844007731342572 -0.019037074682842103 -0.0056844007731342572 -9999.6994478285997 0.31645047667916515 0.0019505096749953162 -0.0113478276252863 0.0019505096749953162 -2499.7932966108892 0.0020186145175102865 -0.0113478276252863 0.0020186145175102865 -9999.7000471971478 0.25455047131163155 0.0011540128887301097 0.00025814521450229222 0.0011540128887301097 -2499.8217434824846 -0.008812527881900678 0.00025814521450229222 -0.008812527881900678 -9999.7607684501854 0.22694800973113161 0.0058321127558297499 -0.013072512865846875 0.0058321127558297499 -2499.8349899062378 -0.0087698486977387802 -0.013072512865846875 -0.0087698486977387802 -9999.8012671656907 0.27035558550960559 -0.0018796164284155779 -0.035927277158407378 -0.0018796164284155779 -2499.8187252045336 -0.0023033119573483418 -0.035927277158407378 -0.0023033119573483418 -9999.7580282538256 0.23173771416622913 0.0057757877895899083 -0.015660894202596864 0.0057757877895899083 -2499.8303300673033 -0.0083500859284697526 -0.015660894202596864 -0.0083500859284697526 -9999.7874807774933 0.25490976451146707 0.014447181742215834 -0.025269214394086248 0.014447181742215834 -2499.7790050178119 -0.031765076621013577 -0.025269214394086248 -0.031765076621013577 -9999.7488382333831 0.31592875247588381 0.00085611815318120937 -0.024784342049201769 0.00085611815318120937 -2499.7860164484337 -0.014578212621927378 -0.024784342049201769 -0.014578212621927378 -9999.6995690804906 0.27638325763200555 0.016903488902417385 -0.0053566701753879897 0.016903488902417385 -2499.8096263218531 -0.024188646635593614 -0.0053566701753879897 -0.024188646635593614 -9999.7338281838965 0.29885505339007068 -7.9835087925139714e-05 -0.020521395971627499 -7.9835087925139714e-05 -2499.7869772306067 0.0012272560343262739 -0.020521395971627499 0.0012272560343262739 -9999.7012153845935 0.2856301078791148 0.004882291418159144 -0.0081405505254679156 0.004882291418159144 -2499.7958859783994 -0.017499376383057097 -0.0081405505254679156 -0.017499376383057097 -9999.7056166713701 0.27082716431687004 0.0019607864421028231 -0.029560233322627028 0.0019607864421028231 -2499.816432409586 0.0018065784124701167 -0.029560233322627028 0.0018065784124701167 -9999.7760404128967 0.27382423967628711 -0.0021829146174806848 -0.0046863903373832727 -0.0021829146174806848 -2499.8049100240978 -0.00031582178053213283 -0.0046863903373832727 -0.00031582178053213283 -9999.7524592672744 0.26395927615158143 -0.0052911906082032945 -0.0028098341308577801 -0.0052911906082032945 -2499.7985840753627 -0.0038406815292546526 -0.0028098341308577801 -0.0038406815292546526 -9999.7510513139878 0.30150962852121665 -0.0030710582060163374 -0.022480652686681424 -0.0030710582060163374 -2499.7866167424377 -0.00033420514409954194 -0.022480652686681424 -0.00033420514409954194 -9999.704951016869 0.27431385254021734 -0.0071005712203647906 0.00019938673813157948 -0.0071005712203647906 -2499.7990320744229 0.0056724777168710716 0.00019938673813157948 0.0056724777168710716 -9999.7367713449858 0.28062671331917954 0.010715183966673916 -0.011557050402643654 0.010715183966673916 -2499.8025608215348 0.0095867830077622784 -0.011557050402643654 0.0095867830077622784 -9999.7408247046515 0.24969917005228126 0.0048733308488292928 -0.037347126131976438 0.0048733308488292928 -2499.8181088564729 -0.0055765479028195841 -0.037347126131976438 -0.0055765479028195841 -9999.7676601269941 0.27597909572750723 -0.022217335161424635 -0.015967025410645874 -0.022217335161424635 -2499.8061539897722 -0.0085677001952717546 -0.015967025410645874 -0.0085677001952717546 -9999.7459571859508 0.31386894528168341 -0.001470963763758177 -0.0050313282627030276 -0.001470963763758177 -2499.7903839780729 0.0048704715445637703 -0.0050313282627030276 0.0048704715445637703 -9999.7271782713578 0.25093241587620696 -0.015906926940356027 -0.037927952035204271 -0.015906926940356027 -2499.8171140015493 0.010634139718604274 -0.037927952035204271 0.010634139718604274 -9999.7663738140855 0.24997780726880592 -0.010090894941207122 -0.025015424540470121 -0.010090894941207122 -2499.814913100874 -0.0045924254127385211 -0.025015424540470121 -0.0045924254127385211 -9999.7716484371995 0.36476092200973653 0.00056649487656063166 -0.029722956990440252 0.00056649487656063166 -2499.7675052924069 0.0033198767196154222 -0.029722956990440252 0.0033198767196154222 -9999.6872300330797 0.3712273126711807 0.003292543446839262 -0.028733461447700392 0.003292543446839262 -2499.7496582266122 0.0060892837027495261 -0.028733461447700392 0.0060892837027495261 -9999.6807974627591 0.36556836655836378 -0.0060795520726212027 -0.025642217642598553 -0.0060795520726212027 -2499.7637359514429 0.00083189754332124721 -0.025642217642598553 0.00083189754332124721 -9999.6831935832379 0.32833643843332538 -0.00058923168498074049 -0.022686170298584329 -0.00058923168498074049 -2499.7751575835391 0.00039455889054806903 -0.022686170298584329 0.00039455889054806903 -9999.6957663923167 0.39688176512072459 0.0027096627535686257 0.00071163983920996543 0.0027096627535686257 -2499.753001437311 -0.00029589103178295773 0.00071163983920996543 -0.00029589103178295773 -9999.6493734287578 0.40268428145827784 -0.0016799925695458599 -0.010733030016126577 -0.0016799925695458599 -2499.7501972003847 0.00078141563102462896 -0.010733030016126577 0.00078141563102462896 -9999.6738948905477 0.36706145414427738 -0.015360312013086491 -0.0046534353004972218 -0.015360312013086491 -2499.7587809913775 0.0077303494017542107 -0.0046534353004972218 0.0077303494017542107 -9999.6657100568445 0.37272287180803687 -0.0021838542880928953 -0.001065596745320363 -0.0021838542880928953 -2499.7511524865658 0.0011300396836873006 -0.001065596745320363 0.0011300396836873006 -9999.6477162565498 0.33965576693935873 -0.0015397586115313555 0.002467791175149614 -0.0015397586115313555 -2499.7717370859837 0.0020885870671918383 0.002467791175149614 0.0020885870671918383 -9999.6796180297679 0.36787752754980829 0.0049380734491804952 -0.0042765024900290882 0.0049380734491804952 -2499.7547228993571 0.0049458437115390552 -0.0042765024900290882 0.0049458437115390552 -9999.653299382042 0.39899741114277276 -0.0042050372231202879 -0.0076689364686899353 -0.0042050372231202879 -2499.7547992615564 0.0069175114231256885 -0.0076689364686899353 0.0069175114231256885 -9999.6747345751864 0.40429476842200529 -0.0018115201877065366 -0.016929030243773013 -0.0018115201877065366 -2499.7428902284983 -0.00071016498986864462 -0.016929030243773013 -0.00071016498986864462 -9999.6441457859873 0.37857883570495687 0.01049633970547623 -0.010427417365463043 0.01049633970547623 -2499.7552173740501 -0.0054647680881316774 -0.010427417365463043 -0.0054647680881316774 -9999.6570329222868 0.40361637666546812 0.0070989128446362765 0.00073050056744250469 0.0070989128446362765 -2499.7418572093206 0.00021872688080293301 0.00073050056744250469 0.00021872688080293301 -9999.6450749137348 0.34129273641337932 -0.0016241231195625551 -0.0066704758432933886 -0.0016241231195625551 -2499.7630691094091 -0.0024355066889256705 -0.0066704758432933886 -0.0024355066889256705 -9999.6509084975478 0.34704287038948678 -0.0023085585440357492 -0.011748732740670675 -0.0023085585440357492 -2499.7713873065495 -0.00033104517206083983 -0.011748732740670675 -0.00033104517206083983 -9999.6895647233359 0.3427769455388443 -0.0030352698753538937 -0.0079485673250019317 -0.0030352698753538937 -2499.7611303200206 -0.00060477961142169079 -0.0079485673250019317 -0.00060477961142169079 -9999.6528630815174 0.34241684269818506 0.00061249386636314429 -0.0080564512577439018 0.00061249386636314429 -2499.7621036970668 -0.0016855929752637167 -0.0080564512577439018 -0.0016855929752637167 -9999.6524672513551 0.35571460206074335 0.0011746861610957592 -0.012714277545455843 0.0011746861610957592 -2499.7672022466745 -0.0010755220737337368 -0.012714277545455843 -0.0010755220737337368 -9999.6861500193918 0.35267164142351248 0.00036241562956521728 -0.0080902075451376732 0.00036241562956521728 -2499.7690161597775 0.001176791580292047 -0.0080902075451376732 0.001176791580292047 -9999.6831658230476 0.34190006500739401 -0.016070860530168291 -0.0098444434588600416 -0.016070860530168291 -2499.7665040345128 -0.0241283684431437 -0.0098444434588600416 -0.0241283684431437 -9999.6780913220173 0.35491990576338139 -0.023300501003756684 -0.016042293724240153 -0.023300501003756684 -2499.749216404256 -0.011781027482356876 -0.016042293724240153 -0.011781027482356876 -9999.6524954364286 0.34981316165431053 0.00030748389743390919 -0.0054217469660216011 0.00030748389743390919 -2499.7905777881151 -0.0032242342167592142 -0.0054217469660216011 -0.0032242342167592142 -9999.6877464945428 0.37913786362923929 0.00044112925568089156 -0.0075945962526020594 0.00044112925568089156 -2499.7423378644157 -0.010450196599322226 -0.0075945962526020594 -0.010450196599322226 -9999.6434609988337 0.3469857976278945 -0.0015264216936971137 -0.0073486592955305241 -0.0015264216936971137 -2499.746026234724 -0.0014690323303057085 -0.0073486592955305241 -0.0014690323303057085 -9999.6511717147769 0.36196629515325185 -0.0077239423424037626 -0.010778189709526487 -0.0077239423424037626 -2499.7724592269951 0.01104028278041369 -0.010778189709526487 0.01104028278041369 -9999.6623042045176 0.3494017406345904 0.00024773915123614196 -0.012416693984960148 0.00024773915123614196 -2499.7472665664509 0.00034338971272518393 -0.012416693984960148 0.00034338971272518393 -9999.6506369567614 0.36635007271979703 0.011631993142853785 -0.013224619446191355 0.011631993142853785 -2499.7455269832162 -0.0081818948897307564 -0.013224619446191355 -0.0081818948897307564 -9999.6431627929851 0.32626432921097148 -0.01100172970920725 -0.015599245405610418 -0.01100172970920725 -2499.7680806847948 -0.0019374839021111256 -0.015599245405610418 -0.0019374839021111256 -9999.6618030776153 0.33524358256181586 -0.02007490905793391 -0.0078010482684476301 -0.02007490905793391 -2499.7739716876476 -0.021928215355728753 -0.0078010482684476301 -0.021928215355728753 -9999.6791575139723 0.361215516169068 -0.0063984601809001784 -0.015046386943140533 -0.0063984601809001784 -2499.7797874533198 0.0052699392563226866 -0.015046386943140533 0.0052699392563226866 -9999.6869748066383 0.38365449498542148 0.0012988541361125781 0.0015309092996176332 0.0012988541361125781 -2499.7434405939885 0.0049958270037677721 0.0015309092996176332 0.0049958270037677721 -9999.6429110979225 0.36860548687764094 0.00091895007147918886 -0.01521849699656741 0.00091895007147918886 -2499.7534514039398 -0.0055337240519293118 -0.01521849699656741 -0.0055337240519293118 -9999.6746648113694 0.35833126937359339 -0.0091108768848396065 -0.0017906128202866967 -0.0091108768848396065 -2499.7770583789279 -0.00041286905980086885 -0.0017906128202866967 -0.00041286905980086885 -9999.6874958869485 0.3708746003358101 -0.023398647559197128 0.0067558808004832827 -0.023398647559197128 -2499.7938783401587 -0.0081505891866981983 0.0067558808004832827 -0.0081505891866981983 -9999.6509357291434 0.37291671239563584 -0.0089004860720667545 -0.00018966523930430412 -0.0089004860720667545 -2499.7334161283479 0.01460299906830187 -0.00018966523930430412 0.01460299906830187 -9999.6710524427326 0.40860296726532397 0.0048973150779478489 -0.0086913669911155012 0.0048973150779478489 -2499.7071952815168 0.0084756168034800794 -0.0086913669911155012 0.0084756168034800794 -9999.6509283851738 0.39420182760113676 0.0066615202340332908 -0.0081376316290970863 0.0066615202340332908 -2499.7469011206394 -0.0057934932556236163 -0.0081376316290970863 -0.0057934932556236163 -9999.6684115586904 0.39689679390903621 0.00094573872911624113 -0.0073179379251087084 0.00094573872911624113 -2499.7408511945341 -0.0010451614325575065 -0.0073179379251087084 -0.0010451614325575065 -9999.6696379749701 0.43065397513419157 0.014189855937271983 -0.0074914295255439356 0.014189855937271983 -2499.7204648625848 -0.0015356876829173416 -0.0074914295255439356 -0.0015356876829173416 -9999.6563626118514 0.38250819200038677 0.01557751440942852 -0.016367818770959275 0.01557751440942852 -2499.7652589867139 -0.014533708872477291 -0.016367818770959275 -0.014533708872477291 -9999.6413970267167 0.39008307116819196 0.015061761709242512 0.00091238179220454185 0.015061761709242512 -2499.7683125523745 -0.0062806077949062455 0.00091238179220454185 -0.0062806077949062455 -9999.6514032573396 0.40292212293570628 0.0152177086221644 -0.0049573152573429979 0.0152177086221644 -2499.7114972999861 0.0099372647819109261 -0.0049573152573429979 0.0099372647819109261 -9999.6455716868513 0.44000122604848002 0.0078873330415407603 -0.013501140681910329 0.0078873330415407603 -2499.7246482120936 0.014198453047356452 -0.013501140681910329 0.014198453047356452 -9999.6368888047145 0.43620767298125429 0.0039587539798652815 -0.010690654384234222 0.0039587539798652815 -2499.7399985609918 0.0044250202990951948 -0.010690654384234222 0.0044250202990951948 -9999.6309777579663 0.42994596796597762 0.0040433717582407293 -0.012360338719190622 0.0040433717582407293 -2499.765657129059 0.0042702867467596661 -0.012360338719190622 0.0042702867467596661 -9999.6356772808213 0.3961436223689816 8.754536090281595e-05 -0.0089653561335580889 8.754536090281595e-05 -2499.752510173159 -0.0019788556946025437 -0.0089653561335580889 -0.0019788556946025437 -9999.6316728352831 0.39164377104179948 -0.0045296528221640542 -0.0077546670454466948 -0.0045296528221640542 -2499.7528841845046 -0.0027424096861068392 -0.0077546670454466948 -0.0027424096861068392 -9999.6323976747699 0.44466200045826554 -0.0010415932989131238 0.0077896287220937666 -0.0010415932989131238 -2499.7361555239822 0.0049598865552979987 0.0077896287220937666 0.0049598865552979987 -9999.6199946867055 0.39274749457217695 -0.0033445060758430581 0.0043697867149603553 -0.0033445060758430581 -2499.7783774113959 0.0061926469643367454 0.0043697867149603553 0.0061926469643367454 -9999.6413481133422 0.39421097543618089 0.0013025144651836462 -0.009327489671704825 0.0013025144651836462 -2499.7545934395303 0.0041819019461399876 -0.009327489671704825 0.0041819019461399876 -9999.6373331087452 0.42151715807631263 0.019681498707146326 -0.0020351366611066624 0.019681498707146326 -2499.7467429500593 0.0049243204666709062 -0.0020351366611066624 0.0049243204666709062 -9999.627678391349 0.44882241135201184 -0.0022881171971253222 -0.0066208727075718343 -0.0022881171971253222 -2499.7149597486296 0.0021198105896473862 -0.0066208727075718343 0.0021198105896473862 -9999.6185090568542 0.41656382736437081 -0.018456292920048009 0.0018391523553873412 -0.018456292920048009 -2499.7490331512763 0.011487244986710721 0.0018391523553873412 0.011487244986710721 -9999.6371661581943 0.44076265999683528 -0.00030892771216037285 -6.6436550696380436e-06 -0.00030892771216037285 -2499.7201286419877 0.011994287298875861 -6.6436550696380436e-06 0.011994287298875861 -9999.648247971345 0.39953350279574806 -0.016590510533582944 -0.0056923987358459271 -0.016590510533582944 -2499.7392630762897 0.0056185963076131884 -0.0056923987358459271 0.0056185963076131884 -9999.6387276206442 0.39411370936181811 -0.005412914906571635 -0.0010217071394436061 -0.005412914906571635 -2499.7697140886385 -0.013894361713028047 -0.0010217071394436061 -0.013894361713028047 -9999.6366458511784 0.37551497963795555 -0.00071487006971344275 -0.006924859440914588 -0.00071487006971344275 -2499.7558448071795 -0.004830278108784114 -0.006924859440914588 -0.004830278108784114 -9999.6357615955494 0.3867551819421351 -0.0050984996810799765 0.00063841876362857874 -0.0050984996810799765 -2499.7633054281177 -0.016099173655675258 0.00063841876362857874 -0.016099173655675258 -9999.6364985753826 0.37971104611642659 -0.0067569344965787148 -0.0071258343377849087 -0.0067569344965787148 -2499.7426547259838 -0.013782213265585597 -0.0071258343377849087 -0.013782213265585597 -9999.6321782948871 0.38355452703217452 0.01096816472974959 0.0038611111413047183 0.01096816472974959 -2499.7573797124123 0.012870887447206769 0.0038611111413047183 0.012870887447206769 -9999.6394119519973 0.38477941588303111 -0.01165543436573209 -0.0074383454284543404 -0.01165543436573209 -2499.7284965854578 -0.0052418946634134045 -0.0074383454284543404 -0.0052418946634134045 -9999.6260418630409 0.37519701031123986 0.022356715999136252 -0.010490062490134733 0.022356715999136252 -2499.7328724779727 0.008263443989562802 -0.010490062490134733 0.008263443989562802 -9999.6437527368107 0.35107547608004097 -0.0020731659499664615 -0.010853184405277716 -0.0020731659499664615 -2499.7670422699448 -0.0046019246019568527 -0.010853184405277716 -0.0046019246019568527 -9999.6533163510285 0.37794766715160222 -0.0010292316188533664 0.001149039209849434 -0.0010292316188533664 -2499.757448774275 -0.0026949827642965829 0.001149039209849434 -0.0026949827642965829 -9999.6409481289811 0.36825369266080088 0.013276466429830734 -0.0081084470566565869 0.013276466429830734 -2499.7641740104373 -0.0094408739587379387 -0.0081084470566565869 -0.0094408739587379387 -9999.6517091304413 0.36452277018361201 0.013621278108661046 -0.013761321064521326 0.013621278108661046 -2499.7473802662862 -0.0084312790231706458 -0.013761321064521326 -0.0084312790231706458 -9999.639126544309 0.35556721280426018 -0.0029695022771169081 -0.00029270261711644707 -0.0029695022771169081 -2499.7594572862017 -0.0064490645572732319 -0.00029270261711644707 -0.0064490645572732319 -9999.6420840911851 0.36429920216232858 -0.010212179962239887 -0.0057997946769319242 -0.010212179962239887 -2499.7343100375811 -0.0061363222048385069 -0.0057997946769319242 -0.0061363222048385069 -9999.6279481123456 0.37379726579274575 -0.014497223554812456 -0.000902853355910338 -0.014497223554812456 -2499.7307523646869 -0.0061264413943717955 -0.000902853355910338 -0.0061264413943717955 -9999.6304907815647 0.3589740492417377 0.0023033328589722353 -0.0056680079424040741 0.0023033328589722353 -2499.7569704818552 -0.0071667577931293636 -0.0056680079424040741 -0.0071667577931293636 -9999.6399216298742 0.35699079169353354 -0.0020503876372055876 -0.0056925972749013454 -0.0020503876372055876 -2499.7509801389842 -0.0045864781204727478 -0.0056925972749013454 -0.0045864781204727478 -9999.6381336601917 0.36475506467468222 -0.0035323256547511355 -0.004297108985383602 -0.0035323256547511355 -2499.7581803462044 0.002438874003928504 -0.004297108985383602 0.002438874003928504 -9999.650859427682 0.36677882205913193 -0.01148520453751746 0.0053498388351727044 -0.01148520453751746 -2499.7482127451985 -0.0055014467106957454 0.0053498388351727044 -0.0055014467106957454 -9999.6275639451487 0.39977613346491125 -0.00051204228923963646 -0.0097559772220847663 -0.00051204228923963646 -2499.7438555358676 -0.00092065137141617015 -0.0097559772220847663 -0.00092065137141617015 -9999.6257710560021 0.36405785635906796 -0.0014010594101525661 -0.0010976799458148889 -0.0014010594101525661 -2499.756402809202 -0.0046678735052410048 -0.0010976799458148889 -0.0046678735052410048 -9999.6446891206306 0.36732385409504786 0.010475660764506706 -0.0075093544164701598 0.010475660764506706 -2499.7576737045956 0.00018212750728707761 -0.0075093544164701598 0.00018212750728707761 -9999.6355506887667 0.38851874053943902 0.00038523721009159134 -0.0062433021139440825 0.00038523721009159134 -2499.7491263893844 -0.0010038440495918621 -0.0062433021139440825 -0.0010038440495918621 -9999.6399539511476 0.37686014791324851 -0.0096118026928674553 -0.014864718441458535 -0.0096118026928674553 -2499.7545223741654 -0.0058607541068340652 -0.014864718441458535 -0.0058607541068340652 -9999.639183739775 0.36195274158217217 0.00028385021482350923 -0.0015098411276994739 0.00028385021482350923 -2499.7561566554677 -0.00020126112212892622 -0.0015098411276994739 -0.00020126112212892622 -9999.6552957801396 0.35936124947147619 -0.0040224172437197973 0.00052569778654287802 -0.0040224172437197973 -2499.7579213085555 -0.0016703224955563201 0.00052569778654287802 -0.0016703224955563201 -9999.6452875355062 0.36352989225633792 -6.7743797018023078e-05 -0.0049773275968618691 -6.7743797018023078e-05 -2499.7366634216141 0.0041444923263043165 -0.0049773275968618691 0.0041444923263043165 -9999.6262808341999 0.35452137656648119 0.0005981228934530884 -0.0068720824674528558 0.0005981228934530884 -2499.7582997258251 -0.0025074137702176813 -0.0068720824674528558 -0.0025074137702176813 -9999.6362487693477 0.39216228587611113 0.0010477730332491839 -0.0084077169431111543 0.0010477730332491839 -2499.7464395266288 -0.00070352140483009862 -0.0084077169431111543 -0.00070352140483009862 -9999.6280674584777 0.40199338114507555 0.0001069443164754063 0.0066404489571141312 0.0001069443164754063 -2499.7490838511494 0.0013921282810542834 0.0066404489571141312 0.0013921282810542834 -9999.6350278005411 0.38365925104881171 -0.00016841853901049947 0.0049696500683467093 -0.00016841853901049947 -2499.7489270042061 -0.0035251117678853916 0.0049696500683467093 -0.0035251117678853916 -9999.6204269409936 0.40303183302057732 0.00091551245204014517 0.0066519067695480771 0.00091551245204014517 -2499.749864868174 0.0025747430572664598 0.0066519067695480771 0.0025747430572664598 -9999.6367065203449 0.39192576926416223 0.00038295074097307886 -0.0085682735043519642 0.00038295074097307886 -2499.747911564421 0.00074467364174779505 -0.0085682735043519642 0.00074467364174779505 -9999.6275571356637 0.39000913030758966 0.00019957820794036781 -0.0090494619162200252 0.00019957820794036781 -2499.7510164957766 -0.0013177877390262438 -0.0090494619162200252 -0.0013177877390262438 -9999.6321192120158 0.42997020517941564 0.0018172131000729341 -0.0075690166522690561 0.0018172131000729341 -2499.7428467761529 0.0010185676601395244 -0.0075690166522690561 0.0010185676601395244 -9999.6355166992071 0.39349614755883522 0.0022474654544387303 -0.010017976594099309 0.0022474654544387303 -2499.750462962993 -0.00042034177749883384 -0.010017976594099309 -0.00042034177749883384 -9999.6326442071404 0.39802449134367635 -0.00059745229484971241 -0.0087290583142021205 -0.00059745229484971241 -2499.7455796209397 -0.00096836401462496724 -0.0087290583142021205 -0.00096836401462496724 -9999.6310757356041 0.43111780661456578 0.0019599844063302044 -0.0079579343655495904 0.0019599844063302044 -2499.7392082277129 -0.00092248381042736582 -0.0079579343655495904 -0.00092248381042736582 -9999.6321270444678 0.40278374661284033 0.00073988368618822277 0.006051322790881386 0.00073988368618822277 -2499.7465097309396 7.052505065985315e-05 0.006051322790881386 7.052505065985315e-05 -9999.6326567133947 0.43304669682765962 0.0035498932060504876 -0.0077533802468678914 0.0035498932060504876 -2499.7318903371597 0.003006396240380127 -0.0077533802468678914 0.003006396240380127 -9999.6319651963859 0.41862542714261508 -0.013825084657955372 0.00019679556316987146 -0.013825084657955372 -2499.7443424570865 0.0042233286294504069 0.00019679556316987146 0.0042233286294504069 -9999.6297641661004 0.44330240626368322 0.0011180659494024105 -0.005318360203091288 0.0011180659494024105 -2499.7384923698992 0.0014794993262512435 -0.005318360203091288 0.0014794993262512435 -9999.6340561452671 0.44658737432291673 0.0010683840815763953 -0.0081418834324722411 0.0010683840815763953 -2499.7350394118766 0.0062862519880582113 -0.0081418834324722411 0.0062862519880582113 -9999.6243681469641 0.44263573780881416 0.0016533135416113389 -0.0054966156221780693 0.0016533135416113389 -2499.7366332605216 0.00049891203161678277 -0.0054966156221780693 0.00049891203161678277 -9999.6329337251009 0.44081167581316549 0.00061038660949520862 -0.0049821579996205401 0.00061038660949520862 -2499.7376455875965 0.00055856384642538615 -0.0049821579996205401 0.00055856384642538615 -9999.6336052180886 0.44022514379867062 0.0010045845749848004 -0.0050663422925936175 0.0010045845749848004 -2499.7396154273138 0.0002160861185984686 -0.0050663422925936175 0.0002160861185984686 -9999.6339847495074 0.44492877048287482 -0.0015269450622864469 -0.0034949422206409508 -0.0015269450622864469 -2499.7377929441955 -0.000643541308818385 -0.0034949422206409508 -0.000643541308818385 -9999.6314360957986 0.39438059877466003 0.004498671113450186 0.0069898860256216722 0.004498671113450186 -2499.751894740104 -0.001150405410953681 0.0069898860256216722 -0.001150405410953681 -9999.6333167180746 0.39582244658060972 0.00076782471795276718 0.0069126094666671634 0.00076782471795276718 -2499.7467889031377 0.0024621123375254683 0.0069126094666671634 0.0024621123375254683 -9999.6311851944265 0.39202445882438042 0.00039696081066550328 -0.0085000334129290422 0.00039696081066550328 -2499.7492251395179 -0.0022868947021379427 -0.0085000334129290422 -0.0022868947021379427 -9999.6258490045948 0.40139778587581532 -0.0019587626288058561 0.0059734379938163329 -0.0019587626288058561 -2499.7493800447683 -0.00036715646206175734 0.0059734379938163329 -0.00036715646206175734 -9999.6337416818678 0.4493898782047836 0.00075383393465146276 -0.005175411995878676 0.00075383393465146276 -2499.7371512792861 -0.0014822180601186119 -0.005175411995878676 -0.0014822180601186119 -9999.6290692019247 0.43063862665621855 -0.0051489205555876674 -0.010399431504993117 -0.0051489205555876674 -2499.7419133621897 -0.00072191153594758362 -0.010399431504993117 -0.00072191153594758362 -9999.6341822357062 0.40034786730575433 -0.0015820409408209897 0.0058354407810838893 -0.0015820409408209897 -2499.7495901913408 -0.00029968324506057797 0.0058354407810838893 -0.00029968324506057797 -9999.6340893169254 0.42834891292113753 -0.0054068724454362609 -0.0036025540193804773 -0.0054068724454362609 -2499.7375684342187 -0.0022250602160056587 -0.0036025540193804773 -0.0022250602160056587 -9999.6401164567615 0.43693660208919027 -0.0015425583048036507 -0.0093260855137486942 -0.0015425583048036507 -2499.730479687978 0.0011205063412944583 -0.0093260855137486942 0.0011205063412944583 -9999.6292694158474 0.33775435917777941 -0.0034399180235930513 0.00019543882444850169 -0.0034399180235930513 -2499.7676080081183 0.00045748597585770767 0.00019543882444850169 0.00045748597585770767 -9999.6802387240277 0.36923716773799242 -0.0069146339176684923 -0.0030840033196000149 -0.0069146339176684923 -2499.7582216626597 -0.0054997381848806981 -0.0030840033196000149 -0.0054997381848806981 -9999.6576644519409 0.40353073031837994 -0.0011563105982996535 -0.019146673515933799 -0.0011563105982996535 -2499.7461405826216 -0.0013425436411580449 -0.019146673515933799 -0.0013425436411580449 -9999.6472354505058 0.36680412291934772 0.011112702813408162 -0.0080935551504808245 0.011112702813408162 -2499.7545417368492 -0.0067514280963223428 -0.0080935551504808245 -0.0067514280963223428 -9999.6648276660708 0.38165173422748921 -0.011356607656178143 -0.012677105141847278 -0.011356607656178143 -2499.7550453148324 0.0039154187725216616 -0.012677105141847278 0.0039154187725216616 -9999.6588147273906 0.41759186005810989 0.0008926118080349435 -0.003872662808134919 0.0008926118080349435 -2499.7465370108421 -0.003284001768406597 -0.003872662808134919 -0.003284001768406597 -9999.6441160766335 0.39693381019060325 0.0012096835429959325 -0.0072045068918669131 0.0012096835429959325 -2499.7542220069536 -0.0049731793988030404 -0.0072045068918669131 -0.0049731793988030404 -9999.6787444499205 0.35711071993432597 -0.0038394811925667508 -0.01197117139963666 -0.0038394811925667508 -2499.7681723018168 -0.0019573042773117777 -0.01197117139963666 -0.0019573042773117777 -9999.6857495483164 0.3457437145775657 -0.0015084633030995297 -0.0074456455586187076 -0.0015084633030995297 -2499.7657752791233 -0.002531650132368668 -0.0074456455586187076 -0.002531650132368668 -9999.6492796405637 0.35241565692012955 -0.0034072049727702745 -0.011785531880377675 -0.0034072049727702745 -2499.7658617198394 -0.0027949864706897642 -0.011785531880377675 -0.0027949864706897642 -9999.6851606284763 0.34266632255639706 -0.0025636024562764614 -0.0067380248874542303 -0.0025636024562764614 -2499.7622486584278 0.0007121521484805271 -0.0067380248874542303 0.0007121521484805271 -9999.6453463577527 0.34691870490541987 -0.00081836673727576914 -0.01410484093685227 -0.00081836673727576914 -2499.7720242457594 -0.00040239323334390065 -0.01410484093685227 -0.00040239323334390065 -9999.689764646273 0.34058787023786863 -0.0048240421157088589 -0.0085025040447135325 -0.0048240421157088589 -2499.7643093422957 -0.0022583695736102527 -0.0085025040447135325 -0.0022583695736102527 -9999.6535755590667 0.35961713416872954 -0.00083926994273913298 0.00048593921110295923 -0.00083926994273913298 -2499.7556636859008 0.0016676642653692397 0.00048593921110295923 0.0016676642653692397 -9999.6441476512227 0.35540629001104662 -0.00058203045524600136 -0.0054461647996504325 -0.00058203045524600136 -2499.7621319599639 -0.0044320073830022011 -0.0054461647996504325 -0.0044320073830022011 -9999.6398946580885 0.35946094621795055 0.0087683657765007025 0.0079532576323799731 0.0087683657765007025 -2499.7591114361039 -0.0033505910878375289 0.0079532576323799731 -0.0033505910878375289 -9999.6551975604234 0.37355808866959705 0.0028020716174572517 -0.0050455222935852362 0.0028020716174572517 -2499.7501268338037 -0.0001055601378538995 -0.0050455222935852362 -0.0001055601378538995 -9999.6349358219049 0.36289233517254615 0.00030228613942282195 -0.00055129645238594094 0.00030228613942282195 -2499.7640937515507 -0.0053435257332239416 -0.00055129645238594094 -0.0053435257332239416 -9999.655047079832 0.38875382656624424 0.00026854376188085571 -0.0059302053959982004 0.00026854376188085571 -2499.747888446389 -0.002246608379209647 -0.0059302053959982004 -0.002246608379209647 -9999.6402509756081 0.36927509985798679 0.0046621782361644078 -0.0028873880808077956 0.0046621782361644078 -2499.75130121859 -0.0087865280829646508 -0.0028873880808077956 -0.0087865280829646508 -9999.6484495518453 0.37692676934321412 0.0055768287675159534 -0.010487403087040548 0.0055768287675159534 -2499.7517917603668 0.0015589847025694326 -0.010487403087040548 0.0015589847025694326 -9999.6337641155878 0.38243868240715528 -0.00029642379625003171 -0.010582257134956308 -0.00029642379625003171 -2499.7341894452638 0.00054622030984319281 -0.010582257134956308 0.00054622030984319281 -9999.6280177614608 0.35319166283443337 -0.00037094756568087405 -0.0075867826171815977 -0.00037094756568087405 -2499.7596500687469 -0.002121844267094275 -0.0075867826171815977 -0.002121844267094275 -9999.6402278445676 0.39202871741144918 -0.00056998810674433527 -0.0076387578719732119 -0.00056998810674433527 -2499.7463245929721 -0.0019516442571330117 -0.0076387578719732119 -0.0019516442571330117 -9999.6287262753685 0.36727055472510983 0.004880002376527845 -0.0069299332499213051 0.004880002376527845 -2499.7312671897453 -0.0084611645406766911 -0.0069299332499213051 -0.0084611645406766911 -9999.6286511652506 0.37076754993586292 0.0042591737738314709 -0.0011391677498977515 0.0042591737738314709 -2499.761253055352 0.01504854794984567 -0.0011391677498977515 0.01504854794984567 -9999.6469099823335 0.36972489984691492 0.0035599628504310319 -0.0022842706453616302 0.0035599628504310319 -2499.7610620017895 -0.0076394690582333169 -0.0022842706453616302 -0.0076394690582333169 -9999.6509207511444 0.36108470408388627 0.0019213254753404178 -0.0079735052522664773 0.0019213254753404178 -2499.7520510723493 -0.00065043253744079266 -0.0079735052522664773 -0.00065043253744079266 -9999.6451636280344 0.36041915113906953 0.0058574929256243677 -0.0077617469742108369 0.0058574929256243677 -2499.7439976129549 -0.0013624364073621109 -0.0077617469742108369 -0.0013624364073621109 -9999.6433243879001 0.38562521524545446 0.013814651698422609 -0.007636167934833793 0.013814651698422609 -2499.7205587828539 0.011144360540129128 -0.007636167934833793 0.011144360540129128 -9999.6193809231481 0.38768144648020098 0.018997563478226735 -0.0055483222831753665 0.018997563478226735 -2499.7049948314907 0.0022041505908418912 -0.0055483222831753665 0.0022041505908418912 -9999.6267205831537 0.37960009172797982 0.024021264883631738 -0.0021444873600557912 0.024021264883631738 -2499.7173540418771 -0.0042720269520941656 -0.0021444873600557912 -0.0042720269520941656 -9999.6305327166701 0.35051948104410258 0.012473365472277245 -0.014032029683221481 0.012473365472277245 -2499.769236742839 -0.0029966053716634633 -0.014032029683221481 -0.0029966053716634633 -9999.6468520767521 0.35548728639184901 0.0062958556498061251 -0.0040654021786394878 0.0062958556498061251 -2499.7645488837784 -0.0048349807348131435 -0.0040654021786394878 -0.0048349807348131435 -9999.6476298385278 0.36605517237603635 -0.0047178975771407367 -0.0085505856841336936 -0.0047178975771407367 -2499.7525325647957 0.011071730392359314 -0.0085505856841336936 0.011071730392359314 -9999.6486025912382 0.33798388441027782 -0.002154562256343584 -0.0070623130677631707 -0.002154562256343584 -2499.7879388789406 0.002420635420094186 -0.0070623130677631707 0.002420635420094186 -9999.6586584431861 0.34181549758523033 -0.015606631649130639 -0.010793414764521003 -0.015606631649130639 -2499.7652744660181 -0.014732377788732265 -0.010793414764521003 -0.014732377788732265 -9999.6651504523379 0.3683653971829699 -0.0043004208089222548 -0.016637033493680065 -0.0043004208089222548 -2499.7557482574111 0.0087192555429282947 -0.016637033493680065 0.0087192555429282947 -9999.6633017814675 0.36121696530426561 0.012552915602828445 -0.011670316618619836 0.012552915602828445 -2499.7702066290167 -0.0059319632068763894 -0.011670316618619836 -0.0059319632068763894 -9999.6475802784553 0.33505735011567594 0.0015389612181365172 -0.013546699488586 0.0015389612181365172 -2499.7610299605312 0.0019065641890847473 -0.013546699488586 0.0019065641890847473 -9999.6871763347772 0.36406250184700184 -0.0063538131536818865 -0.016876980938832276 -0.0063538131536818865 -2499.7511388758376 -0.020224002653776552 -0.016876980938832276 -0.020224002653776552 -9999.6528627647858 0.35948711189666938 0.0010367155429493215 -0.010282574839948211 0.0010367155429493215 -2499.7570529146869 0.00010447755130371661 -0.010282574839948211 0.00010447755130371661 -9999.680504084623 0.33035098231448501 -0.001364566770912422 -0.01878721637379499 -0.001364566770912422 -2499.7737379577775 -0.0054659181523675215 -0.01878721637379499 -0.0054659181523675215 -9999.6945292207129 0.33214885766483349 -0.015791140859555103 -0.0057354214950464666 -0.015791140859555103 -2499.7635926299781 -0.015069913650222588 -0.0057354214950464666 -0.015069913650222588 -9999.6718351097261 0.33270821520636673 -0.00094036234476449487 -0.0089484948130120756 -0.00094036234476449487 -2499.7724020233127 0.010193116522714263 -0.0089484948130120756 0.010193116522714263 -9999.6841083159779 0.42148833778992412 -0.0011198838720017537 -0.0011764672260596853 -0.0011198838720017537 -2499.7475071909039 0.00039952467432158301 -0.0011764672260596853 0.00039952467432158301 -9999.6404104960857 0.35944738107673402 0.0027045353646629744 -0.0081039649267040659 0.0027045353646629744 -2499.7684444470001 0.00074636085787460615 -0.0081039649267040659 0.00074636085787460615 -9999.660623248039 0.37020388275414007 -0.0015989813978029589 -0.0071519202369074719 -0.0015989813978029589 -2499.7623790573543 0.0007466365223081084 -0.0071519202369074719 0.0007466365223081084 -9999.6594173969424 0.368503526718996 -0.0038548828914374278 -0.018721445552728255 -0.0038548828914374278 -2499.7589500685062 0.011346911536747939 -0.018721445552728255 0.011346911536747939 -9999.6679204249995 0.40535848547369824 -0.0012250993802160465 -0.0043810184361063875 -0.0012250993802160465 -2499.7218843540031 -0.012035015697620111 -0.0043810184361063875 -0.012035015697620111 -9999.667942988086 0.3783105405709648 -0.0093172224670088205 0.0011217946557735559 -0.0093172224670088205 -2499.7303977256561 -0.0087288429385807831 0.0011217946557735559 -0.0087288429385807831 -9999.6602228977463 0.39461321837006835 0.0017409633577482888 -0.0089630579836921243 0.0017409633577482888 -2499.7604593579144 -0.00010074030433315784 -0.0089630579836921243 -0.00010074030433315784 -9999.6784948434506 0.39797181276117044 -0.0042216708939763967 -0.010314325929357437 -0.0042216708939763967 -2499.7451608200281 0.0044589886419998948 -0.010314325929357437 0.0044589886419998948 -9999.6716972403083 0.42706420153626823 -0.012370145582045494 -0.0085591418901458383 -0.012370145582045494 -2499.7277375410667 -0.0017977180505113211 -0.0085591418901458383 -0.0017977180505113211 -9999.6487202478238 0.37832230636377062 0.0026257005414706686 -0.0099663076198339695 0.0026257005414706686 -2499.7498489044538 0.0071949113225855399 -0.0099663076198339695 0.0071949113225855399 -9999.6288286209528 0.42538915689510759 -0.0078175392727256737 -0.0030602447841374669 -0.0078175392727256737 -2499.7462984910999 -0.0026309087952540722 -0.0030602447841374669 -0.0026309087952540722 -9999.6422797018204 0.38958219024607388 -0.016292654866909152 -0.0014449412010435481 -0.016292654866909152 -2499.7607840662622 -0.0048051189378384151 -0.0014449412010435481 -0.0048051189378384151 -9999.6450996111234 0.3893622762261657 -0.014769899251748269 -0.0025544458086415034 -0.014769899251748269 -2499.7630140182118 -0.005183185944588331 -0.0025544458086415034 -0.005183185944588331 -9999.6417560451628 0.42277294084487949 -0.0019362967062023159 -0.0010935642567346804 -0.0019362967062023159 -2499.7421179595767 -0.00094180439646152081 -0.0010935642567346804 -0.00094180439646152081 -9999.6413853799968 0.39198731908163609 -0.015580564507049061 -0.012291299153730506 -0.015580564507049061 -2499.737265259032 0.015847279617446475 -0.012291299153730506 0.015847279617446475 -9999.6433279787343 0.40314296944688977 0.00048381200656323273 0.0089715738477025297 0.00048381200656323273 -2499.7514149002136 -0.0019129294541926356 0.0089715738477025297 -0.0019129294541926356 -9999.6302967893498 0.39380797376998089 0.0049748462717149776 0.0080650851609789243 0.0049748462717149776 -2499.7786508973959 -0.0013005473706471093 0.0080650851609789243 -0.0013005473706471093 -9999.6360974961754 0.37774405409572864 0.0012209195305011786 -0.011773742160585243 0.0012209195305011786 -2499.7739409328483 0.0089341666862310376 -0.011773742160585243 0.0089341666862310376 -9999.6343587951451 0.44766877682559425 0.0009090146779269781 -0.0037643446739821229 0.0009090146779269781 -2499.7393857606148 -0.0040103676801663823 -0.0037643446739821229 -0.0040103676801663823 -9999.6337084677361 0.45162333921325626 -0.0012176217875853133 -0.0026297463300579693 -0.0012176217875853133 -2499.7402782335776 -0.0039829210254538339 -0.0026297463300579693 -0.0039829210254538339 -9999.632681647432 0.40371527280331065 0.026008030953932306 -0.0017445965559090837 0.026008030953932306 -2499.7016847747527 0.01687006747306441 -0.0017445965559090837 0.01687006747306441 -9999.624911911269 0.41197600961459102 0.024244209343522324 -0.01342271984594845 0.024244209343522324 -2499.716509206919 0.0084147780789862736 -0.01342271984594845 0.0084147780789862736 -9999.6119797220381 0.46102518971747486 0.0042813256607998618 -0.0022769455463276245 0.0042813256607998618 -2499.7171525723134 -0.003249246277846396 -0.0022769455463276245 -0.003249246277846396 -9999.6278423930344 0.40582331967743812 0.026487995554203159 -0.01034993680241314 0.026487995554203159 -2499.7181754054818 0.0053588999362546019 -0.01034993680241314 0.0053588999362546019 -9999.6349269858547 0.44134964897966711 0.011533650435994997 0.0024540017693652771 0.011533650435994997 -2499.7243496333795 -0.009344938829599414 0.0024540017693652771 -0.009344938829599414 -9999.6318896718731 0.42635950386647892 0.02310990680684448 0.0029272449392010458 0.02310990680684448 -2499.7469437635664 -0.0060161894634802593 0.0029272449392010458 -0.0060161894634802593 -9999.6303848029638 
</DataArray>
</CellData>
</Piece>
</UnstructuredGrid>
</VTKFile>
