<?xml version="1.0"?>
<VTKFile type="UnstructuredGrid" version="0.1" byte_order="LittleEndian">
<UnstructuredGrid>
<Piece NumberOfPoints="2876" NumberOfCells="719">
<Points>
<DataArray type="Float64" NumberOfComponents="3" format="ascii">
0.31610726166346748 0.18804489794572149 0 0.16929708765618309 0.30074819035915368 0 0.14641016151452901 0.14641016151487049 0 0.312576188949791 0.31458070521983672 0.3125761889497819 0 0.20000000000083221 0 0 0 0 0.14641016151452901 0.14641016151487049 0 0 0.14641016151432179 0.14641016151432179 0 0 0 0.19999999999955789 0 0 0.14641016151452901 0.14641016151487049 0 0.1464101615145241 0 0.14641016151486561 0 0.14641016151432179 0.14641016151432179 0 0 0.20000000000083221 0 0 0 0.1464101615145241 0 0.14641016151486561 0 0.14641016151432179 0.14641016151432179 0 0.30074819035869899 0.1692970876565193 0 0.18804489794560331 0.31610726166461361 0.312576188949791 0.31458070521983672 0.3125761889497819 0.31578456131778371 0 0.1865278143482666 0.1464101615145241 0 0.14641016151486561 0.16938214347656569 0 0.30011357660650623 0.312576188949791 0.31458070521983672 0.3125761889497819 0 0.14641016151432179 0.14641016151432179 0 0 0 0.14641016151452901 0.14641016151487049 0 0.1464101615145241 0 0.14641016151486561 0.14641016151452901 0.14641016151487049 0 0.1464101615145241 0 0.14641016151486561 0.31578456131778371 0 0.1865278143482666 0.312576188949791 0.31458070521983672 0.3125761889497819 0.14641016151452901 0.14641016151487049 0 0 0.30074819035869899 0.1692970876565193 0 0.14641016151432179 0.14641016151432179 0.312576188949791 0.31458070521983672 0.3125761889497819 0.14641016151452901 0.14641016151487049 0 0 0.14641016151432179 0.14641016151432179 0.1464101615145241 0 0.14641016151486561 0.312576188949791 0.31458070521983672 0.3125761889497819 0 0.14641016151432179 0.14641016151432179 0.16938214347656569 0 0.30011357660650623 0.1464101615145241 0 0.14641016151486561 0.312576188949791 0.31458070521983672 0.3125761889497819 0.1464101615145241 0 0.14641016151486561 0 0.14641016151432179 0.14641016151432179 0 0 0.20000000000083221 0.16938214347656569 0 0.30011357660650623 0 0.18804489794560331 0.31610726166461361 0 0 0.20000000000083221 0 0.14641016151432179 0.14641016151432179 0.16938214347656569 0 0.30011357660650623 0 0.14641016151432179 0.14641016151432179 0.14641016151452901 0.14641016151487049 0 0 0.20000000000083221 0 0 0.30074819035869899 0.1692970876565193 0 0.30074819035869899 0.1692970876565193 0.14641016151452901 0.14641016151487049 0 0 0.20000000000083221 0 0.16929708765618309 0.30074819035915368 0 0.19999999999955789 0 0 0.14641016151452901 0.14641016151487049 0 0.31578456131778371 0 0.1865278143482666 0.31610726166346748 0.18804489794572149 0 0.19999999999955789 0 0 0.14641016151452901 0.14641016151487049 0 0.1464101615145241 0 0.14641016151486561 0.31578456131778371 0 0.1865278143482666 0.31578456131778371 0 0.1865278143482666 0.3999999999989749 0 0 0.19999999999955789 0 0 0.31610726166346748 0.18804489794572149 0 0.31578456131778371 0 0.1865278143482666 0.31610726166346748 0.18804489794572149 0 0.14641016151452901 0.14641016151487049 0 0.312576188949791 0.31458070521983672 0.3125761889497819 0.31610726166346748 0.18804489794572149 0 0.312576188949791 0.31458070521983672 0.3125761889497819 0.31578456131778371 0 0.1865278143482666 0.5003997205654479 0.21136633249797621 0.2258422409314382 0.31610726166346748 0.18804489794572149 0 0.49391845158624981 0 0.1323760430705655 0.50966790549376417 0.16275515618023731 0 0.5003997205654479 0.21136633249797621 0.2258422409314382 0.31610726166346748 0.18804489794572149 0 0.50966790549376417 0.16275515618023731 0 0.45812322962036273 0.31024977578535839 0 0.5003997205654479 0.21136633249797621 0.2258422409314382 0.49391845158624981 0 0.1323760430705655 0.3999999999989749 0 0 0.31610726166346748 0.18804489794572149 0 0.50966790549376417 0.16275515618023731 0 0.49391845158624981 0 0.1323760430705655 0.3999999999989749 0 0 0.31578456131778371 0 0.1865278143482666 0.31610726166346748 0.18804489794572149 0 0.31578456131778371 0 0.1865278143482666 0.47688326899416439 0 0.31741132792405607 0.49391845158624981 0 0.1323760430705655 0.5003997205654479 0.21136633249797621 0.2258422409314382 0.31610726166346748 0.18804489794572149 0 0.31578456131778371 0 0.1865278143482666 0.49391845158624981 0 0.1323760430705655 0.5003997205654479 0.21136633249797621 0.2258422409314382 0.31030302876556398 0 0.54179813558513157 0.50073570207385831 0.24848280280289631 0.52886631355986169 0.32146143392436449 0 0.38738071487621961 0.22088738526309029 0.22111069116742441 0.50004796911802929 0.32146143392436449 0 0.38738071487621961 0.312576188949791 0.31458070521983672 0.3125761889497819 0.16938214347656569 0 0.30011357660650623 0.22088738526309029 0.22111069116742441 0.50004796911802929 0.32146143392436449 0 0.38738071487621961 0.50073570207385831 0.24848280280289631 0.52886631355986169 0.312576188949791 0.31458070521983672 0.3125761889497819 0.22088738526309029 0.22111069116742441 0.50004796911802929 0.32146143392436449 0 0.38738071487621961 0.50073570207385831 0.24848280280289631 0.52886631355986169 0.47688326899416439 0 0.31741132792405607 0.5003997205654479 0.21136633249797621 0.2258422409314382 0.32146143392436449 0 0.38738071487621961 0.312576188949791 0.31458070521983672 0.3125761889497819 0.50073570207385831 0.24848280280289631 0.52886631355986169 0.5003997205654479 0.21136633249797621 0.2258422409314382 0.32146143392436449 0 0.38738071487621961 0.31578456131778371 0 0.1865278143482666 0.16938214347656569 0 0.30011357660650623 0.312576188949791 0.31458070521983672 0.3125761889497819 0.31578456131778371 0 0.1865278143482666 0.312576188949791 0.31458070521983672 0.3125761889497819 0.32146143392436449 0 0.38738071487621961 0.5003997205654479 0.21136633249797621 0.2258422409314382 0.31578456131778371 0 0.1865278143482666 0.32146143392436449 0 0.38738071487621961 0.47688326899416439 0 0.31741132792405607 0.5003997205654479 0.21136633249797621 0.2258422409314382 0.31030302876556398 0 0.54179813558513157 0.50000000000250922 0 0.48038475773043671 0.32146143392436449 0 0.38738071487621961 0.50073570207385831 0.24848280280289631 0.52886631355986169 0.32146143392436449 0 0.38738071487621961 0.50000000000250922 0 0.48038475773043671 0.47688326899416439 0 0.31741132792405607 0.50073570207385831 0.24848280280289631 0.52886631355986169 0.16370661204827031 0 0.4886650857430957 0.31030302876556398 0 0.54179813558513157 0.32146143392436449 0 0.38738071487621961 0.22088738526309029 0.22111069116742441 0.50004796911802929 0.16370661204827031 0 0.4886650857430957 0.32146143392436449 0 0.38738071487621961 0.16938214347656569 0 0.30011357660650623 0.22088738526309029 0.22111069116742441 0.50004796911802929 0.16938214347656569 0 0.30011357660650623 0 0.14641016151432179 0.14641016151432179 0 0.18804489794560331 0.31610726166461361 0.312576188949791 0.31458070521983672 0.3125761889497819 0 0.18804489794560331 0.31610726166461361 0.16370661204827031 0 0.4886650857430957 0.16938214347656569 0 0.30011357660650623 0.22088738526309029 0.22111069116742441 0.50004796911802929 0 0.18804489794560331 0.31610726166461361 0.16938214347656569 0 0.30011357660650623 0.312576188949791 0.31458070521983672 0.3125761889497819 0.22088738526309029 0.22111069116742441 0.50004796911802929 0 0 0.40000000000166441 0 0 0.60000000000138687 0.16370661204827031 0 0.4886650857430957 0 0.16275515618034081 0.50966790549591257 0 0 0.40000000000166441 0 0.18804489794560331 0.31610726166461361 0.16370661204827031 0 0.4886650857430957 0.16938214347656569 0 0.30011357660650623 0.16370661204827031 0 0.4886650857430957 0 0.18804489794560331 0.31610726166461361 0 0 0.40000000000166441 0 0.16275515618034081 0.50966790549591257 0 0.18804489794560331 0.31610726166461361 0 0 0.40000000000166441 0 0 0.20000000000083221 0.16938214347656569 0 0.30011357660650623 0 0.18804489794560331 0.31610726166461361 0 0.16275515618034081 0.50966790549591257 0.16370661204827031 0 0.4886650857430957 0.22088738526309029 0.22111069116742441 0.50004796911802929 0 0.18804489794560331 0.31610726166461361 0 0.31024977578556651 0.45812322962166352 0 0.16275515618034081 0.50966790549591257 0.22088738526309029 0.22111069116742441 0.50004796911802929 0 0.30074819035869899 0.1692970876565193 0 0.39615100178029522 0.32925244736138171 0 0.18804489794560331 0.31610726166461361 0.312576188949791 0.31458070521983672 0.3125761889497819 0 0.31024977578556651 0.45812322962166352 0.312576188949791 0.31458070521983672 0.3125761889497819 0.24769234054476261 0.52242103280823293 0.45098450226372488 0.22088738526309029 0.22111069116742441 0.50004796911802929 0 0.18804489794560331 0.31610726166461361 0 0.39615100178029522 0.32925244736138171 0 0.31024977578556651 0.45812322962166352 0.312576188949791 0.31458070521983672 0.3125761889497819 0 0.39615100178029522 0.32925244736138171 0.24769234054476261 0.52242103280823293 0.45098450226372488 0.312576188949791 0.31458070521983672 0.3125761889497819 0.22345881830598399 0.5062398304147856 0.22345881830602041 0 0.31024977578556651 0.45812322962166352 0.312576188949791 0.31458070521983672 0.3125761889497819 0 0.39615100178029522 0.32925244736138171 0.24769234054476261 0.52242103280823293 0.45098450226372488 0 0.30074819035869899 0.1692970876565193 0 0.39615100178029522 0.32925244736138171 0.312576188949791 0.31458070521983672 0.3125761889497819 0.22345881830598399 0.5062398304147856 0.22345881830602041 0 0.18804489794560331 0.31610726166461361 0.312576188949791 0.31458070521983672 0.3125761889497819 0 0.31024977578556651 0.45812322962166352 0.22088738526309029 0.22111069116742441 0.50004796911802929 0 0.31024977578556651 0.45812322962166352 0 0.39615100178029522 0.32925244736138171 0 0.50000000000237477 0.51961524226909872 0.24769234054476261 0.52242103280823293 0.45098450226372488 0.50000000000001332 0.49999999999999561 0.49999999999999561 0.50073570207385831 0.24848280280289631 0.52886631355986169 0.312576188949791 0.31458070521983672 0.3125761889497819 0.5004045312576143 0.47050700646456922 0.24963111222780321 0.24769234054476261 0.52242103280823293 0.45098450226372488 0.5004045312576143 0.47050700646456922 0.24963111222780321 0.312576188949791 0.31458070521983672 0.3125761889497819 0.22345881830598399 0.5062398304147856 0.22345881830602041 0.312576188949791 0.31458070521983672 0.3125761889497819 0.5004045312576143 0.47050700646456922 0.24963111222780321 0.50073570207385831 0.24848280280289631 0.52886631355986169 0.5003997205654479 0.21136633249797621 0.2258422409314382 0.50000000000001332 0.49999999999999561 0.49999999999999561 0.24769234054476261 0.52242103280823293 0.45098450226372488 0.312576188949791 0.31458070521983672 0.3125761889497819 0.50073570207385831 0.24848280280289631 0.52886631355986169 0.312576188949791 0.31458070521983672 0.3125761889497819 0.24769234054476261 0.52242103280823293 0.45098450226372488 0.50000000000001332 0.49999999999999561 0.49999999999999561 0.5004045312576143 0.47050700646456922 0.24963111222780321 0.312576188949791 0.31458070521983672 0.3125761889497819 0.50073570207385831 0.24848280280289631 0.52886631355986169 0.24769234054476261 0.52242103280823293 0.45098450226372488 0.22088738526309029 0.22111069116742441 0.50004796911802929 0.32925244736090059 0.39615100178043078 0 0.312576188949791 0.31458070521983672 0.3125761889497819 0.45812322962036273 0.31024977578535839 0 0.5004045312576143 0.47050700646456922 0.24963111222780321 0.32925244736090059 0.39615100178043078 0 0.5004045312576143 0.47050700646456922 0.24963111222780321 0.32446581821364329 0.60020898676454815 0 0.22345881830598399 0.5062398304147856 0.22345881830602041 0.45812322962036273 0.31024977578535839 0 0.5004045312576143 0.47050700646456922 0.24963111222780321 0.312576188949791 0.31458070521983672 0.3125761889497819 0.5003997205654479 0.21136633249797621 0.2258422409314382 0.45812322962036273 0.31024977578535839 0 0.32925244736090059 0.39615100178043078 0 0.31610726166346748 0.18804489794572149 0 0.312576188949791 0.31458070521983672 0.3125761889497819 0.16929708765618309 0.30074819035915368 0 0.312576188949791 0.31458070521983672 0.3125761889497819 0.32925244736090059 0.39615100178043078 0 0.22345881830598399 0.5062398304147856 0.22345881830602041 0.31610726166346748 0.18804489794572149 0 0.45812322962036273 0.31024977578535839 0 0.312576188949791 0.31458070521983672 0.3125761889497819 0.5003997205654479 0.21136633249797621 0.2258422409314382 0.32925244736090059 0.39615100178043078 0 0.312576188949791 0.31458070521983672 0.3125761889497819 0.5004045312576143 0.47050700646456922 0.24963111222780321 0.22345881830598399 0.5062398304147856 0.22345881830602041 0.32925244736090059 0.39615100178043078 0 0.16929708765618309 0.30074819035915368 0 0.31610726166346748 0.18804489794572149 0 0.312576188949791 0.31458070521983672 0.3125761889497819 0.32446581821364329 0.60020898676454815 0 0.32925244736090059 0.39615100178043078 0 0.51961524226956368 0.5000000000025091 0 0.5004045312576143 0.47050700646456922 0.24963111222780321 0.51961524226956368 0.5000000000025091 0 0.32925244736090059 0.39615100178043078 0 0.45812322962036273 0.31024977578535839 0 0.5004045312576143 0.47050700646456922 0.24963111222780321 0 0.30074819035869899 0.1692970876565193 0.14641016151452901 0.14641016151487049 0 0.16929708765618309 0.30074819035915368 0 0.312576188949791 0.31458070521983672 0.3125761889497819 0 0.30074819035869899 0.1692970876565193 0.312576188949791 0.31458070521983672 0.3125761889497819 0.16929708765618309 0.30074819035915368 0 0.22345881830598399 0.5062398304147856 0.22345881830602041 0.17226134197279269 0.49836539647922029 0 0 0.49836539647891548 0.17226134197271731 0.16929708765618309 0.30074819035915368 0 0.22345881830598399 0.5062398304147856 0.22345881830602041 0.17226134197279269 0.49836539647922029 0 0.16929708765618309 0.30074819035915368 0 0.32925244736090059 0.39615100178043078 0 0.22345881830598399 0.5062398304147856 0.22345881830602041 0 0.30074819035869899 0.1692970876565193 0 0.20000000000083221 0 0 0.40000000000166441 0 0.16929708765618309 0.30074819035915368 0 0 0.30074819035869899 0.1692970876565193 0 0.40000000000166441 0 0 0.49836539647891548 0.17226134197271731 0.16929708765618309 0.30074819035915368 0 0 0.30074819035869899 0.1692970876565193 0.16929708765618309 0.30074819035915368 0 0 0.49836539647891548 0.17226134197271731 0.22345881830598399 0.5062398304147856 0.22345881830602041 0 0.30074819035869899 0.1692970876565193 0 0.49836539647891548 0.17226134197271731 0 0.39615100178029522 0.32925244736138171 0.22345881830598399 0.5062398304147856 0.22345881830602041 0 0.49836539647891548 0.17226134197271731 0 0.40000000000166441 0 0 0.60000000000138687 0 0.17226134197279269 0.49836539647922029 0 0.16929708765618309 0.30074819035915368 0 0 0.40000000000166441 0 0 0.49836539647891548 0.17226134197271731 0.17226134197279269 0.49836539647922029 0 0 0.69449451837103049 0.15896804272139439 0 0.60020898676435996 0.32446581821286191 0.22345881830598399 0.5062398304147856 0.22345881830602041 0.19259015428765269 0.77719169076434647 0.19259015428773721 0.1589680427220837 0.69449451837091269 0 0 0.69449451837103049 0.15896804272139439 0.22345881830598399 0.5062398304147856 0.22345881830602041 0.19259015428765269 0.77719169076434647 0.19259015428773721 0 0.69449451837103049 0.15896804272139439 0.17226134197279269 0.49836539647922029 0 0 0.60000000000138687 0 0.1589680427220837 0.69449451837091269 0 0.32446581821364329 0.60020898676454815 0 0.1589680427220837 0.69449451837091269 0 0.22345881830598399 0.5062398304147856 0.22345881830602041 0.19259015428765269 0.77719169076434647 0.19259015428773721 0 0.60000000000138687 0 0 0.49836539647891548 0.17226134197271731 0.17226134197279269 0.49836539647922029 0 0 0.69449451837103049 0.15896804272139439 0 0.69449451837103049 0.15896804272139439 0 0.60000000000138687 0 0 0.79999999999999982 0 0.1589680427220837 0.69449451837091269 0 0.31067093463127438 0.81480288849489035 0 0.1589680427220837 0.69449451837091269 0 0.32446581821364329 0.60020898676454815 0 0.19259015428765269 0.77719169076434647 0.19259015428773721 0.32446581821364329 0.60020898676454815 0 0.1589680427220837 0.69449451837091269 0 0.17226134197279269 0.49836539647922029 0 0.22345881830598399 0.5062398304147856 0.22345881830602041 0.1589680427220837 0.69449451837091269 0 0 0.69449451837103049 0.15896804272139439 0.17226134197279269 0.49836539647922029 0 0.22345881830598399 0.5062398304147856 0.22345881830602041 0 0.69449451837103049 0.15896804272139439 0 0.81480288849496429 0.31067093462946233 0 0.60020898676435996 0.32446581821286191 0.19259015428765269 0.77719169076434647 0.19259015428773721 0 0.49836539647891548 0.17226134197271731 0 0.69449451837103049 0.15896804272139439 0 0.60020898676435996 0.32446581821286191 0.22345881830598399 0.5062398304147856 0.22345881830602041 0 0.49836539647891548 0.17226134197271731 0.17226134197279269 0.49836539647922029 0 0 0.69449451837103049 0.15896804272139439 0.22345881830598399 0.5062398304147856 0.22345881830602041 0 0.60020898676435996 0.32446581821286191 0.22516916914780419 0.77057994845201627 0.48187244075707292 0.35848654557803328 0.70013656506632282 0.30029870175293161 0.19259015428765269 0.77719169076434647 0.19259015428773721 0 0.60020898676435996 0.32446581821286191 0.24769234054476261 0.52242103280823293 0.45098450226372488 0 0.39615100178029522 0.32925244736138171 0.22345881830598399 0.5062398304147856 0.22345881830602041 0 0.60020898676435996 0.32446581821286191 0 0.81480288849496429 0.31067093462946233 0.22516916914780419 0.77057994845201627 0.48187244075707292 0.19259015428765269 0.77719169076434647 0.19259015428773721 0.35848654557803328 0.70013656506632282 0.30029870175293161 0.22345881830598399 0.5062398304147856 0.22345881830602041 0 0.60020898676435996 0.32446581821286191 0.19259015428765269 0.77719169076434647 0.19259015428773721 0 0.49836539647891548 0.17226134197271731 0 0.60020898676435996 0.32446581821286191 0 0.39615100178029522 0.32925244736138171 0.22345881830598399 0.5062398304147856 0.22345881830602041 0 0.60020898676435996 0.32446581821286191 0.24769234054476261 0.52242103280823293 0.45098450226372488 0.35848654557803328 0.70013656506632282 0.30029870175293161 0.22516916914780419 0.77057994845201627 0.48187244075707292 0.35848654557803328 0.70013656506632282 0.30029870175293161 0.24769234054476261 0.52242103280823293 0.45098450226372488 0 0.60020898676435996 0.32446581821286191 0.22345881830598399 0.5062398304147856 0.22345881830602041 0 0.39615100178029522 0.32925244736138171 0 0.60020898676435996 0.32446581821286191 0 0.50000000000237477 0.51961524226909872 0.24769234054476261 0.52242103280823293 0.45098450226372488 0 0.68801781652248195 0.45664527743358641 0 0.50000000000237477 0.51961524226909872 0 0.60020898676435996 0.32446581821286191 0.24769234054476261 0.52242103280823293 0.45098450226372488 0 0.66416205381430016 0.59944234540882957 0.24769234054476261 0.52242103280823293 0.45098450226372488 0 0.68801781652248195 0.45664527743358641 0.22516916914780419 0.77057994845201627 0.48187244075707292 0 0.60020898676435996 0.32446581821286191 0 0.81480288849496429 0.31067093462946233 0 0.68801781652248195 0.45664527743358641 0.22516916914780419 0.77057994845201627 0.48187244075707292 0 0.68801781652248195 0.45664527743358641 0.24769234054476261 0.52242103280823293 0.45098450226372488 0 0.60020898676435996 0.32446581821286191 0.22516916914780419 0.77057994845201627 0.48187244075707292 0.16929708765615539 1 0.30074819035677097 0.32926555316115258 1 0.39615987727515128 0.22516916914780419 0.77057994845201627 0.48187244075707292 0.19259015428765269 0.77719169076434647 0.19259015428773721 0 0.81480288849496429 0.31067093462946233 0.16929708765615539 1 0.30074819035677097 0.22516916914780419 0.77057994845201627 0.48187244075707292 0.19259015428765269 0.77719169076434647 0.19259015428773721 0.17226134197293 1 0.49836539647645101 0 0.83630110503664845 0.50803330197135654 0 0.81480288849496429 0.31067093462946233 0.22516916914780419 0.77057994845201627 0.48187244075707292 0 0.68801781652248195 0.45664527743358641 0 0.81480288849496429 0.31067093462946233 0 0.83630110503664845 0.50803330197135654 0.22516916914780419 0.77057994845201627 0.48187244075707292 0.17226134197293 1 0.49836539647645101 0 1 0.3999999999989749 0 0.81480288849496429 0.31067093462946233 0 0.83630110503664845 0.50803330197135654 0 0.81480288849496429 0.31067093462946233 0.16929708765615539 1 0.30074819035677097 0 1 0.3999999999989749 0.17226134197293 1 0.49836539647645101 0.17226134197293 1 0.49836539647645101 0 0.81480288849496429 0.31067093462946233 0.16929708765615539 1 0.30074819035677097 0.22516916914780419 0.77057994845201627 0.48187244075707292 0.17226134197293 1 0.49836539647645101 0.16929708765615539 1 0.30074819035677097 0.32926555316115258 1 0.39615987727515128 0.22516916914780419 0.77057994845201627 0.48187244075707292 0 1 0.3999999999989749 0 1 0.19999999999955789 0.16929708765615539 1 0.30074819035677097 0 0.81480288849496429 0.31067093462946233 0.16929708765615539 1 0.30074819035677097 0 1 0.19999999999955789 0 0.85358983848655678 0.14641016151332509 0 0.81480288849496429 0.31067093462946233 0.14641016151352521 1 0.1464101615131837 0 1 0.19999999999955789 0 0.85358983848655678 0.14641016151332509 0.16929708765615539 1 0.30074819035677097 0.20000000000083221 1 0 0 1 0 0.14641016151479211 0.85358983848543113 0 0.14641016151352521 1 0.1464101615131837 0 0.85358983848655678 0.14641016151332509 0 1 0 0 1 0.19999999999955789 0.14641016151352521 1 0.1464101615131837 0 0.85358983848655678 0.14641016151332509 0.14641016151479211 0.85358983848543113 0 0 1 0 0.14641016151352521 1 0.1464101615131837 0.14641016151479211 0.85358983848543113 0 0 1 0 0 0.79999999999999982 0 0 0.85358983848655678 0.14641016151332509 0 0.85358983848655678 0.14641016151332509 0 0.69449451837103049 0.15896804272139439 0.1589680427220837 0.69449451837091269 0 0.19259015428765269 0.77719169076434647 0.19259015428773721 0 0.79999999999999982 0 0.1589680427220837 0.69449451837091269 0 0.14641016151479211 0.85358983848543113 0 0 0.85358983848655678 0.14641016151332509 0.14641016151352521 1 0.1464101615131837 0 0.85358983848655678 0.14641016151332509 0.14641016151479211 0.85358983848543113 0 0.19259015428765269 0.77719169076434647 0.19259015428773721 0.1589680427220837 0.69449451837091269 0 0 0.79999999999999982 0 0 0.69449451837103049 0.15896804272139439 0 0.85358983848655678 0.14641016151332509 0.1589680427220837 0.69449451837091269 0 0.14641016151479211 0.85358983848543113 0 0 0.85358983848655678 0.14641016151332509 0.19259015428765269 0.77719169076434647 0.19259015428773721 0.16929708765615539 1 0.30074819035677097 0 0.81480288849496429 0.31067093462946233 0 0.85358983848655678 0.14641016151332509 0.19259015428765269 0.77719169076434647 0.19259015428773721 0 0.85358983848655678 0.14641016151332509 0 0.81480288849496429 0.31067093462946233 0 0.69449451837103049 0.15896804272139439 0.19259015428765269 0.77719169076434647 0.19259015428773721 0.14641016151352521 1 0.1464101615131837 0.14641016151479211 0.85358983848543113 0 0.31067093463127438 0.81480288849489035 0 0.19259015428765269 0.77719169076434647 0.19259015428773721 0.1589680427220837 0.69449451837091269 0 0.31067093463127438 0.81480288849489035 0 0.14641016151479211 0.85358983848543113 0 0.19259015428765269 0.77719169076434647 0.19259015428773721 0.14641016151479211 0.85358983848543113 0 0.31067093463127438 0.81480288849489035 0 0.20000000000083221 1 0 0.14641016151352521 1 0.1464101615131837 0.31635851157303152 1 0.18818969570840721 0.20000000000083221 1 0 0.31067093463127438 0.81480288849489035 0 0.14641016151352521 1 0.1464101615131837 0.31067093463127438 0.81480288849489035 0 0.31635851157303152 1 0.18818969570840721 0.14641016151352521 1 0.1464101615131837 0.19259015428765269 0.77719169076434647 0.19259015428773721 0.31635851157303152 1 0.18818969570840721 0.16929708765615539 1 0.30074819035677097 0.14641016151352521 1 0.1464101615131837 0.19259015428765269 0.77719169076434647 0.19259015428773721 0.14641016151352521 1 0.1464101615131837 0.16929708765615539 1 0.30074819035677097 0 0.85358983848655678 0.14641016151332509 0.19259015428765269 0.77719169076434647 0.19259015428773721 0.35848654557803328 0.70013656506632282 0.30029870175293161 0.19259015428765269 0.77719169076434647 0.19259015428773721 0.31635851157303152 1 0.18818969570840721 0.52894546611500048 0.79133000140429866 0.2082794184507949 0.31067093463127438 0.81480288849489035 0 0.19259015428765269 0.77719169076434647 0.19259015428773721 0.35848654557803328 0.70013656506632282 0.30029870175293161 0.52894546611500048 0.79133000140429866 0.2082794184507949 0.31067093463127438 0.81480288849489035 0 0.31635851157303152 1 0.18818969570840721 0.19259015428765269 0.77719169076434647 0.19259015428773721 0.52894546611500048 0.79133000140429866 0.2082794184507949 0.31067093463127438 0.81480288849489035 0 0.40000000000166441 1 0 0.20000000000083221 1 0 0.31635851157303152 1 0.18818969570840721 0.31067093463127438 0.81480288849489035 0 0.50803330197353713 0.83630110503668265 0 0.31635851157303152 1 0.18818969570840721 0.52894546611500048 0.79133000140429866 0.2082794184507949 0.45664527743509797 0.68801781652245086 0 0.50803330197353713 0.83630110503668265 0 0.31067093463127438 0.81480288849489035 0 0.52894546611500048 0.79133000140429866 0.2082794184507949 0.51133491425992716 1 0.16370661204795281 0.31635851157303152 1 0.18818969570840721 0.40000000000166441 1 0 0.50803330197353713 0.83630110503668265 0 0.31635851157303152 1 0.18818969570840721 0.31067093463127438 0.81480288849489035 0 0.40000000000166441 1 0 0.50803330197353713 0.83630110503668265 0 0.51133491425992716 1 0.16370661204795281 0.45820186441796368 1 0.31030302876579191 0.31635851157303152 1 0.18818969570840721 0.52894546611500048 0.79133000140429866 0.2082794184507949 0.51133491425992716 1 0.16370661204795281 0.31635851157303152 1 0.18818969570840721 0.50803330197353713 0.83630110503668265 0 0.52894546611500048 0.79133000140429866 0.2082794184507949 0.32926555316115258 1 0.39615987727515128 0.35848654557803328 0.70013656506632282 0.30029870175293161 0.49983993748706529 0.75039103705932653 0.52967335724801234 0.22516916914780419 0.77057994845201627 0.48187244075707292 0.35848654557803328 0.70013656506632282 0.30029870175293161 0.22516916914780419 0.77057994845201627 0.48187244075707292 0.32926555316115258 1 0.39615987727515128 0.19259015428765269 0.77719169076434647 0.19259015428773721 0.31635851157303152 1 0.18818969570840721 0.45820186441796368 1 0.31030302876579191 0.32926555316115258 1 0.39615987727515128 0.35848654557803328 0.70013656506632282 0.30029870175293161 0.45820186441796368 1 0.31030302876579191 0.35848654557803328 0.70013656506632282 0.30029870175293161 0.31635851157303152 1 0.18818969570840721 0.52894546611500048 0.79133000140429866 0.2082794184507949 0.31635851157303152 1 0.18818969570840721 0.35848654557803328 0.70013656506632282 0.30029870175293161 0.32926555316115258 1 0.39615987727515128 0.19259015428765269 0.77719169076434647 0.19259015428773721 0.45820186441796368 1 0.31030302876579191 0.49983993748706529 0.75039103705932653 0.52967335724801234 0.35848654557803328 0.70013656506632282 0.30029870175293161 0.52894546611500048 0.79133000140429866 0.2082794184507949 0.45820186441796368 1 0.31030302876579191 0.32926555316115258 1 0.39615987727515128 0.35848654557803328 0.70013656506632282 0.30029870175293161 0.49983993748706529 0.75039103705932653 0.52967335724801234 0.31635851157303152 1 0.18818969570840721 0.32926555316115258 1 0.39615987727515128 0.16929708765615539 1 0.30074819035677097 0.19259015428765269 0.77719169076434647 0.19259015428773721 0.32926555316115258 1 0.39615987727515128 0.32448110831226962 1 0.6002015905153204 0.17226134197293 1 0.49836539647645101 0.22516916914780419 0.77057994845201627 0.48187244075707292 0.45820186441796368 1 0.31030302876579191 0.51961524227008238 1 0.49999999999872219 0.32926555316115258 1 0.39615987727515128 0.49983993748706529 0.75039103705932653 0.52967335724801234 0.24769234054476261 0.52242103280823293 0.45098450226372488 0.49983993748706529 0.75039103705932653 0.52967335724801234 0.35848654557803328 0.70013656506632282 0.30029870175293161 0.22516916914780419 0.77057994845201627 0.48187244075707292 0.35848654557803328 0.70013656506632282 0.30029870175293161 0.50000000000001332 0.49999999999999561 0.49999999999999561 0.24769234054476261 0.52242103280823293 0.45098450226372488 0.5004045312576143 0.47050700646456922 0.24963111222780321 0.35848654557803328 0.70013656506632282 0.30029870175293161 0.24769234054476261 0.52242103280823293 0.45098450226372488 0.50000000000001332 0.49999999999999561 0.49999999999999561 0.49983993748706529 0.75039103705932653 0.52967335724801234 0.35848654557803328 0.70013656506632282 0.30029870175293161 0.5004045312576143 0.47050700646456922 0.24963111222780321 0.24769234054476261 0.52242103280823293 0.45098450226372488 0.22345881830598399 0.5062398304147856 0.22345881830602041 0.35848654557803328 0.70013656506632282 0.30029870175293161 0.32446581821364329 0.60020898676454815 0 0.5004045312576143 0.47050700646456922 0.24963111222780321 0.22345881830598399 0.5062398304147856 0.22345881830602041 0.31067093463127438 0.81480288849489035 0 0.32446581821364329 0.60020898676454815 0 0.45664527743509797 0.68801781652245086 0 0.35848654557803328 0.70013656506632282 0.30029870175293161 0.32446581821364329 0.60020898676454815 0 0.22345881830598399 0.5062398304147856 0.22345881830602041 0.35848654557803328 0.70013656506632282 0.30029870175293161 0.19259015428765269 0.77719169076434647 0.19259015428773721 0.32446581821364329 0.60020898676454815 0 0.45664527743509797 0.68801781652245086 0 0.35848654557803328 0.70013656506632282 0.30029870175293161 0.5004045312576143 0.47050700646456922 0.24963111222780321 0.31067093463127438 0.81480288849489035 0 0.32446581821364329 0.60020898676454815 0 0.35848654557803328 0.70013656506632282 0.30029870175293161 0.19259015428765269 0.77719169076434647 0.19259015428773721 0.45664527743509797 0.68801781652245086 0 0.31067093463127438 0.81480288849489035 0 0.35848654557803328 0.70013656506632282 0.30029870175293161 0.52894546611500048 0.79133000140429866 0.2082794184507949 0.35848654557803328 0.70013656506632282 0.30029870175293161 0.5004045312576143 0.47050700646456922 0.24963111222780321 0.45664527743509797 0.68801781652245086 0 0.52894546611500048 0.79133000140429866 0.2082794184507949 0.17226134197279269 0.49836539647922029 0 0.32925244736090059 0.39615100178043078 0 0.32446581821364329 0.60020898676454815 0 0.22345881830598399 0.5062398304147856 0.22345881830602041 0.32446581821364329 0.60020898676454815 0 0.51961524226956368 0.5000000000025091 0 0.45664527743509797 0.68801781652245086 0 0.5004045312576143 0.47050700646456922 0.24963111222780321 0.72722573386132172 0.60922248848163563 0 0.68456408135056701 0.68607101396845627 0.31096060989957619 0.59944234541082553 0.66416205381394655 0 0.77713227489941183 0.50036915849493024 0.21774643624003751 0.68456408135056701 0.68607101396845627 0.31096060989957619 0.5004045312576143 0.47050700646456922 0.24963111222780321 0.59944234541082553 0.66416205381394655 0 0.77713227489941183 0.50036915849493024 0.21774643624003751 0.59944234541082553 0.66416205381394655 0 0.45664527743509797 0.68801781652245086 0 0.5004045312576143 0.47050700646456922 0.24963111222780321 0.52894546611500048 0.79133000140429866 0.2082794184507949 0.51961524226956368 0.5000000000025091 0 0.67320508075660079 0.46954769941202479 0 0.59944234541082553 0.66416205381394655 0 0.5004045312576143 0.47050700646456922 0.24963111222780321 0.59944234541082553 0.66416205381394655 0 0.5004045312576143 0.47050700646456922 0.24963111222780321 0.68456408135056701 0.68607101396845627 0.31096060989957619 0.52894546611500048 0.79133000140429866 0.2082794184507949 0.59944234541082553 0.66416205381394655 0 0.5004045312576143 0.47050700646456922 0.24963111222780321 0.67320508075660079 0.46954769941202479 0 0.77713227489941183 0.50036915849493024 0.21774643624003751 0.59944234541082553 0.66416205381394655 0 0.52894546611500048 0.79133000140429866 0.2082794184507949 0.68456408135056701 0.68607101396845627 0.31096060989957619 0.81582077266975173 0.77657922508894406 0.18483084990574741 0.59944234541082553 0.66416205381394655 0 0.45664527743509797 0.68801781652245086 0 0.51961524226956368 0.5000000000025091 0 0.5004045312576143 0.47050700646456922 0.24963111222780321 0.59944234541082553 0.66416205381394655 0 0.68456408135056701 0.68607101396845627 0.31096060989957619 0.72722573386132172 0.60922248848163563 0 0.81582077266975173 0.77657922508894406 0.18483084990574741 0.45664527743509797 0.68801781652245086 0 0.59944234541082553 0.66416205381394655 0 0.50803330197353713 0.83630110503668265 0 0.52894546611500048 0.79133000140429866 0.2082794184507949 0.59944234541082553 0.66416205381394655 0 0.72722573386132172 0.60922248848163563 0 0.7054234997318658 0.80860557108880304 0 0.81582077266975173 0.77657922508894406 0.18483084990574741 0.72722573386132172 0.60922248848163563 0 0.59944234541082553 0.66416205381394655 0 0.67320508075660079 0.46954769941202479 0 0.77713227489941183 0.50036915849493024 0.21774643624003751 0.68456408135056701 0.68607101396845627 0.31096060989957619 0.5004045312576143 0.47050700646456922 0.24963111222780321 0.35848654557803328 0.70013656506632282 0.30029870175293161 0.52894546611500048 0.79133000140429866 0.2082794184507949 0.68456408135056701 0.68607101396845627 0.31096060989957619 0.35848654557803328 0.70013656506632282 0.30029870175293161 0.50000000000001332 0.49999999999999561 0.49999999999999561 0.49983993748706529 0.75039103705932653 0.52967335724801234 0.50000000000001332 0.49999999999999561 0.49999999999999561 0.35848654557803328 0.70013656506632282 0.30029870175293161 0.68456408135056701 0.68607101396845627 0.31096060989957619 0.5004045312576143 0.47050700646456922 0.24963111222780321 0.50000000000001332 0.49999999999999561 0.49999999999999561 0.68456408135056701 0.68607101396845627 0.31096060989957619 0.7504488434426726 0.53051757989633308 0.49836643074154852 0.5004045312576143 0.47050700646456922 0.24963111222780321 0.68456408135056701 0.68607101396845627 0.31096060989957619 0.49983993748706529 0.75039103705932653 0.52967335724801234 0.7504488434426726 0.53051757989633308 0.49836643074154852 0.77374673111774417 0.78860835645735528 0.49829081152968557 0.7504488434426726 0.53051757989633308 0.49836643074154852 0.5004045312576143 0.47050700646456922 0.24963111222780321 0.68456408135056701 0.68607101396845627 0.31096060989957619 0.77713227489941183 0.50036915849493024 0.21774643624003751 0.35848654557803328 0.70013656506632282 0.30029870175293161 0.49983993748706529 0.75039103705932653 0.52967335724801234 0.68456408135056701 0.68607101396845627 0.31096060989957619 0.52894546611500048 0.79133000140429866 0.2082794184507949 0.50000000000001332 0.49999999999999561 0.49999999999999561 0.7504488434426726 0.53051757989633308 0.49836643074154852 0.68456408135056701 0.68607101396845627 0.31096060989957619 0.49983993748706529 0.75039103705932653 0.52967335724801234 0.68456408135056701 0.68607101396845627 0.31096060989957619 0.52894546611500048 0.79133000140429866 0.2082794184507949 0.61068558124908323 1 0.33127740899601937 0.81582077266975173 0.77657922508894406 0.18483084990574741 0.61068558124908323 1 0.33127740899601937 0.49983993748706529 0.75039103705932653 0.52967335724801234 0.68456408135056701 0.68607101396845627 0.31096060989957619 0.77374673111774417 0.78860835645735528 0.49829081152968557 0.61068558124908323 1 0.33127740899601937 0.68240285647621723 1 0.52310058211166854 0.49983993748706529 0.75039103705932653 0.52967335724801234 0.77374673111774417 0.78860835645735528 0.49829081152968557 0.82751535738810444 1 0.31407731390515509 0.68456408135056701 0.68607101396845627 0.31096060989957619 0.61068558124908323 1 0.33127740899601937 0.81582077266975173 0.77657922508894406 0.18483084990574741 0.45820186441796368 1 0.31030302876579191 0.61068558124908323 1 0.33127740899601937 0.49983993748706529 0.75039103705932653 0.52967335724801234 0.52894546611500048 0.79133000140429866 0.2082794184507949 0.61068558124908323 1 0.33127740899601937 0.68456408135056701 0.68607101396845627 0.31096060989957619 0.82751535738810444 1 0.31407731390515509 0.77374673111774417 0.78860835645735528 0.49829081152968557 0.68456408135056701 0.68607101396845627 0.31096060989957619 0.49983993748706529 0.75039103705932653 0.52967335724801234 0.61068558124908323 1 0.33127740899601937 0.52894546611500048 0.79133000140429866 0.2082794184507949 0.61068558124908323 1 0.33127740899601937 0.68240285647621723 1 0.52310058211166854 0.51961524227008238 1 0.49999999999872219 0.49983993748706529 0.75039103705932653 0.52967335724801234 0.51961524227008238 1 0.49999999999872219 0.45820186441796368 1 0.31030302876579191 0.61068558124908323 1 0.33127740899601937 0.49983993748706529 0.75039103705932653 0.52967335724801234 0.68240285647621723 1 0.52310058211166854 0.61068558124908323 1 0.33127740899601937 0.82751535738810444 1 0.31407731390515509 0.77374673111774417 0.78860835645735528 0.49829081152968557 0.51133491425992716 1 0.16370661204795281 0.61068558124908323 1 0.33127740899601937 0.45820186441796368 1 0.31030302876579191 0.52894546611500048 0.79133000140429866 0.2082794184507949 0.51133491425992716 1 0.16370661204795281 0.69988642339594154 1 0.16938214347578889 0.61068558124908323 1 0.33127740899601937 0.52894546611500048 0.79133000140429866 0.2082794184507949 0.69988642339594154 1 0.16938214347578889 0.61068558124908323 1 0.33127740899601937 0.52894546611500048 0.79133000140429866 0.2082794184507949 0.81582077266975173 0.77657922508894406 0.18483084990574741 0.69988642339594154 1 0.16938214347578889 0.52894546611500048 0.79133000140429866 0.2082794184507949 0.7054234997318658 0.80860557108880304 0 0.81582077266975173 0.77657922508894406 0.18483084990574741 0.69988642339594154 1 0.16938214347578889 0.51133491425992716 1 0.16370661204795281 0.50803330197353713 0.83630110503668265 0 0.52894546611500048 0.79133000140429866 0.2082794184507949 0.59944234541082553 0.66416205381394655 0 0.7054234997318658 0.80860557108880304 0 0.52894546611500048 0.79133000140429866 0.2082794184507949 0.81582077266975173 0.77657922508894406 0.18483084990574741 0.60000000000138687 1 0 0.69988642339594154 1 0.16938214347578889 0.51133491425992716 1 0.16370661204795281 0.50803330197353713 0.83630110503668265 0 0.51133491425992716 1 0.16370661204795281 0.40000000000166441 1 0 0.60000000000138687 1 0 0.50803330197353713 0.83630110503668265 0 0.50803330197353713 0.83630110503668265 0 0.59944234541082553 0.66416205381394655 0 0.7054234997318658 0.80860557108880304 0 0.52894546611500048 0.79133000140429866 0.2082794184507949 0.69988642339594154 1 0.16938214347578889 0.50803330197353713 0.83630110503668265 0 0.7054234997318658 0.80860557108880304 0 0.52894546611500048 0.79133000140429866 0.2082794184507949 0.60000000000138687 1 0 0.79999999999999982 1 0 0.69988642339594154 1 0.16938214347578889 0.7054234997318658 0.80860557108880304 0 0.50803330197353713 0.83630110503668265 0 0.60000000000138687 1 0 0.69988642339594154 1 0.16938214347578889 0.7054234997318658 0.80860557108880304 0 0.69988642339594154 1 0.16938214347578889 0.82751535738810444 1 0.31407731390515509 0.61068558124908323 1 0.33127740899601937 0.81582077266975173 0.77657922508894406 0.18483084990574741 0.82751535738810444 1 0.31407731390515509 0.69988642339594154 1 0.16938214347578889 0.85358983848665693 1 0.14641016151322461 0.81582077266975173 0.77657922508894406 0.18483084990574741 0.69988642339594154 1 0.16938214347578889 0.85358983848666903 0.85358983848666903 0 0.85358983848665693 1 0.14641016151322461 0.81582077266975173 0.77657922508894406 0.18483084990574741 0.85358983848665693 1 0.14641016151322461 1 0.85358983848655678 0.14641016151332509 0.82751535738810444 1 0.31407731390515509 0.81582077266975173 0.77657922508894406 0.18483084990574741 0.85358983848666903 0.85358983848666903 0 0.85358983848665693 1 0.14641016151322461 0.79999999999999982 1 0 0.69988642339594154 1 0.16938214347578889 0.69988642339594154 1 0.16938214347578889 0.79999999999999982 1 0 0.85358983848666903 0.85358983848666903 0 0.7054234997318658 0.80860557108880304 0 0.85358983848666903 0.85358983848666903 0 0.7054234997318658 0.80860557108880304 0 0.85173693729186062 0.69992182039541118 0 0.81582077266975173 0.77657922508894406 0.18483084990574741 0.69988642339594154 1 0.16938214347578889 0.7054234997318658 0.80860557108880304 0 0.85358983848666903 0.85358983848666903 0 0.81582077266975173 0.77657922508894406 0.18483084990574741 1 0.85358983848655678 0.14641016151332509 1 0.69449451837101916 0.15896804272136739 1 0.8148028884949543 0.31067093462944562 0.81582077266975173 0.77657922508894406 0.18483084990574741 0.82751535738810444 1 0.31407731390515509 1 0.85358983848655678 0.14641016151332509 1 0.8148028884949543 0.31067093462944562 0.81582077266975173 0.77657922508894406 0.18483084990574741 1 0.85358983848655678 0.14641016151332509 0.85358983848666903 0.85358983848666903 0 1 0.79999999999999982 0 0.81582077266975173 0.77657922508894406 0.18483084990574741 1 0.79999999999999982 0 0.81582077266975173 0.77657922508894406 0.18483084990574741 1 0.69449451837101916 0.15896804272136739 1 0.85358983848655678 0.14641016151332509 0.85358983848666903 0.85358983848666903 0 1 0.85358983848655678 0.14641016151332509 0.85358983848665693 1 0.14641016151322461 0.81582077266975173 0.77657922508894406 0.18483084990574741 0.85358983848666903 0.85358983848666903 0 0.85173693729186062 0.69992182039541118 0 1 0.79999999999999982 0 0.81582077266975173 0.77657922508894406 0.18483084990574741 1 0.85358983848655678 0.14641016151332509 0.85358983848665693 1 0.14641016151322461 1 1 0 0.85358983848666903 0.85358983848666903 0 1 1 0.19999999999955789 0.85358983848665693 1 0.14641016151322461 1 1 0 1 0.85358983848655678 0.14641016151332509 1 1 0 1 0.85358983848655678 0.14641016151332509 0.85358983848666903 0.85358983848666903 0 1 0.79999999999999982 0 0.79999999999999982 1 0 1 1 0 0.85358983848665693 1 0.14641016151322461 0.85358983848666903 0.85358983848666903 0 0.82751535738810444 1 0.31407731390515509 0.85358983848665693 1 0.14641016151322461 1 1 0.19999999999955789 1 0.85358983848655678 0.14641016151332509 1 1 0.19999999999955789 1 0.8148028884949543 0.31067093462944562 0.82751535738810444 1 0.31407731390515509 1 0.85358983848655678 0.14641016151332509 1 1 0.3999999999989749 1 0.8148028884949543 0.31067093462944562 0.82751535738810444 1 0.31407731390515509 1 1 0.19999999999955789 0.82751535738810444 1 0.31407731390515509 0.77374673111774417 0.78860835645735528 0.49829081152968557 0.68456408135056701 0.68607101396845627 0.31096060989957619 0.81582077266975173 0.77657922508894406 0.18483084990574741 1 0.8148028884949543 0.31067093462944562 0.77374673111774417 0.78860835645735528 0.49829081152968557 0.82751535738810444 1 0.31407731390515509 0.81582077266975173 0.77657922508894406 0.18483084990574741 1 0.8148028884949543 0.31067093462944562 0.68456408135056701 0.68607101396845627 0.31096060989957619 0.77374673111774417 0.78860835645735528 0.49829081152968557 0.81582077266975173 0.77657922508894406 0.18483084990574741 1 0.8148028884949543 0.31067093462944562 0.86762395692956074 1 0.5060815484123421 0.82751535738810444 1 0.31407731390515509 0.77374673111774417 0.78860835645735528 0.49829081152968557 0.68240285647621723 1 0.52310058211166854 0.82751535738810444 1 0.31407731390515509 0.86762395692956074 1 0.5060815484123421 0.77374673111774417 0.78860835645735528 0.49829081152968557 0.86762395692956074 1 0.5060815484123421 1 1 0.3999999999989749 1 0.8148028884949543 0.31067093462944562 0.82751535738810444 1 0.31407731390515509 1 1 0.3999999999989749 1 0.83630110503662825 0.50803330197135588 0.86762395692956074 1 0.5060815484123421 1 0.8148028884949543 0.31067093462944562 1 0.8148028884949543 0.31067093462944562 1 0.83630110503662825 0.50803330197135588 0.86762395692956074 1 0.5060815484123421 0.77374673111774417 0.78860835645735528 0.49829081152968557 1 0.8148028884949543 0.31067093462944562 1 0.68975022421527898 0.45812322962078778 1 0.83630110503662825 0.50803330197135588 0.77374673111774417 0.78860835645735528 0.49829081152968557 1 0.39615100178016449 0.32925244736082498 0.7504488434426726 0.53051757989633308 0.49836643074154852 1 0.60020898676431722 0.32446581821274012 0.77713227489941183 0.50036915849493024 0.21774643624003751 1 0.68975022421527898 0.45812322962078778 0.68456408135056701 0.68607101396845627 0.31096060989957619 1 0.60020898676431722 0.32446581821274012 0.7504488434426726 0.53051757989633308 0.49836643074154852 1 0.8148028884949543 0.31067093462944562 0.68456408135056701 0.68607101396845627 0.31096060989957619 1 0.68975022421527898 0.45812322962078778 0.77374673111774417 0.78860835645735528 0.49829081152968557 1 0.68975022421527898 0.45812322962078778 0.68456408135056701 0.68607101396845627 0.31096060989957619 0.7504488434426726 0.53051757989633308 0.49836643074154852 0.77374673111774417 0.78860835645735528 0.49829081152968557 1 0.68975022421527898 0.45812322962078778 1 0.8148028884949543 0.31067093462944562 1 0.60020898676431722 0.32446581821274012 0.68456408135056701 0.68607101396845627 0.31096060989957619 0.68456408135056701 0.68607101396845627 0.31096060989957619 1 0.60020898676431722 0.32446581821274012 0.7504488434426726 0.53051757989633308 0.49836643074154852 0.77713227489941183 0.50036915849493024 0.21774643624003751 1 0.8148028884949543 0.31067093462944562 1 0.60020898676431722 0.32446581821274012 0.68456408135056701 0.68607101396845627 0.31096060989957619 0.81582077266975173 0.77657922508894406 0.18483084990574741 1 0.60020898676431722 0.32446581821274012 0.77713227489941183 0.50036915849493024 0.21774643624003751 0.68456408135056701 0.68607101396845627 0.31096060989957619 0.81582077266975173 0.77657922508894406 0.18483084990574741 1 0.50000000000229983 0.51961524226898759 1 0.68975022421527898 0.45812322962078778 1 0.60020898676431722 0.32446581821274012 0.7504488434426726 0.53051757989633308 0.49836643074154852 1 0.39615100178016449 0.32925244736082498 1 0.50000000000229983 0.51961524226898759 1 0.60020898676431722 0.32446581821274012 0.7504488434426726 0.53051757989633308 0.49836643074154852 0.84191918937744659 0.51186163305076127 0 1 0.49836539647890021 0.17226134197269399 1 0.69449451837101916 0.15896804272136739 0.77713227489941183 0.50036915849493024 0.21774643624003751 1 0.69449451837101916 0.15896804272136739 0.85173693729186062 0.69992182039541118 0 0.77713227489941183 0.50036915849493024 0.21774643624003751 0.81582077266975173 0.77657922508894406 0.18483084990574741 1 0.69449451837101916 0.15896804272136739 0.77713227489941183 0.50036915849493024 0.21774643624003751 1 0.60020898676431722 0.32446581821274012 0.81582077266975173 0.77657922508894406 0.18483084990574741 1 0.69449451837101916 0.15896804272136739 1 0.49836539647890021 0.17226134197269399 1 0.60020898676431722 0.32446581821274012 0.77713227489941183 0.50036915849493024 0.21774643624003751 0.72722573386132172 0.60922248848163563 0 0.77713227489941183 0.50036915849493024 0.21774643624003751 0.85173693729186062 0.69992182039541118 0 0.81582077266975173 0.77657922508894406 0.18483084990574741 0.72722573386132172 0.60922248848163563 0 0.68456408135056701 0.68607101396845627 0.31096060989957619 0.77713227489941183 0.50036915849493024 0.21774643624003751 0.81582077266975173 0.77657922508894406 0.18483084990574741 1 0.8148028884949543 0.31067093462944562 1 0.69449451837101916 0.15896804272136739 1 0.60020898676431722 0.32446581821274012 0.81582077266975173 0.77657922508894406 0.18483084990574741 0.72722573386132172 0.60922248848163563 0 0.67320508075660079 0.46954769941202479 0 0.84191918937744659 0.51186163305076127 0 0.77713227489941183 0.50036915849493024 0.21774643624003751 0.84191918937744659 0.51186163305076127 0 1 0.69449451837101916 0.15896804272136739 0.85173693729186062 0.69992182039541118 0 0.77713227489941183 0.50036915849493024 0.21774643624003751 0.72722573386132172 0.60922248848163563 0 0.84191918937744659 0.51186163305076127 0 0.85173693729186062 0.69992182039541118 0 0.77713227489941183 0.50036915849493024 0.21774643624003751 0.7054234997318658 0.80860557108880304 0 0.72722573386132172 0.60922248848163563 0 0.85173693729186062 0.69992182039541118 0 0.81582077266975173 0.77657922508894406 0.18483084990574741 1 0.69449451837101916 0.15896804272136739 0.85173693729186062 0.69992182039541118 0 1 0.79999999999999982 0 1 0.60000000000138687 0 1 0.69449451837101916 0.15896804272136739 0.81582077266975173 0.77657922508894406 0.18483084990574741 1 0.79999999999999982 0 0.85173693729186062 0.69992182039541118 0 0.84191918937744659 0.51186163305076127 0 0.85173693729186062 0.69992182039541118 0 1 0.69449451837101916 0.15896804272136739 1 0.60000000000138687 0 1 0.60000000000138687 0 1 0.69449451837101916 0.15896804272136739 0.84191918937744659 0.51186163305076127 0 1 0.49836539647890021 0.17226134197269399 1 0.40000000000166441 0 1 0.60000000000138687 0 0.84191918937744659 0.51186163305076127 0 1 0.49836539647890021 0.17226134197269399 0.80839867011859301 0.31807971531731721 0 0.85358983848570813 0.1464101615143738 0 1 0.30074819035868428 0.16929708765640439 0.68777432594363841 0.31447353261427252 0.31366778418247038 0.80839867011859301 0.31807971531731721 0 1 0.40000000000166441 0 0.84191918937744659 0.51186163305076127 0 1 0.49836539647890021 0.17226134197269399 1 0.40000000000166441 0 0.80839867011859301 0.31807971531731721 0 1 0.30074819035868428 0.16929708765640439 1 0.49836539647890021 0.17226134197269399 0.80839867011859301 0.31807971531731721 0 0.68777432594363841 0.31447353261427252 0.31366778418247038 1 0.30074819035868428 0.16929708765640439 0.77713227489941183 0.50036915849493024 0.21774643624003751 0.84191918937744659 0.51186163305076127 0 0.67320508075660079 0.46954769941202479 0 0.80839867011859301 0.31807971531731721 0 0.77713227489941183 0.50036915849493024 0.21774643624003751 0.84191918937744659 0.51186163305076127 0 0.80839867011859301 0.31807971531731721 0 1 0.49836539647890021 0.17226134197269399 0.77713227489941183 0.50036915849493024 0.21774643624003751 0.80839867011859301 0.31807971531731721 0 1 0.30074819035868428 0.16929708765640439 1 0.49836539647890021 0.17226134197269399 0.77713227489941183 0.50036915849493024 0.21774643624003751 1 0.30074819035868428 0.16929708765640439 1 0.39615100178016449 0.32925244736082498 1 0.49836539647890021 0.17226134197269399 0.77713227489941183 0.50036915849493024 0.21774643624003751 1 0.30074819035868428 0.16929708765640439 0.80839867011859301 0.31807971531731721 0 1 0.40000000000166441 0 1 0.20000000000083221 0 1 0.30074819035868428 0.16929708765640439 0.80839867011859301 0.31807971531731721 0 1 0.20000000000083221 0 0.85358983848570813 0.1464101615143738 0 1 0.20000000000083221 0 1 0.14641016151453831 0.14641016151419689 1 0.30074819035868428 0.16929708765640439 0.85358983848570813 0.1464101615143738 0 0.83057691269884504 0 0.30018449338884379 0.85358983848650494 0 0.1464101615132356 0.68592116352011878 0 0.1724872797865501 0.68777432594363841 0.31447353261427252 0.31366778418247038 0.80839867011859301 0.31807971531731721 0 0.69380980079964416 0.1619694349440581 0 0.85358983848570813 0.1464101615143738 0 0.68777432594363841 0.31447353261427252 0.31366778418247038 1 0.18804489794556911 0.3161072616634244 1 0.30074819035868428 0.16929708765640439 1 0.14641016151453831 0.14641016151419689 0.68777432594363841 0.31447353261427252 0.31366778418247038 1 0.14641016151453831 0.14641016151419689 1 0.30074819035868428 0.16929708765640439 0.85358983848570813 0.1464101615143738 0 0.68777432594363841 0.31447353261427252 0.31366778418247038 1 0.14641016151453831 0.14641016151419689 0.85358983848650494 0 0.1464101615132356 0.83057691269884504 0 0.30018449338884379 0.68777432594363841 0.31447353261427252 0.31366778418247038 1 0.14641016151453831 0.14641016151419689 0.85358983848570813 0.1464101615143738 0 0.85358983848650494 0 0.1464101615132356 0.68777432594363841 0.31447353261427252 0.31366778418247038 0.69380980079964416 0.1619694349440581 0 0.85358983848650494 0 0.1464101615132356 0.85358983848570813 0.1464101615143738 0 0.68777432594363841 0.31447353261427252 0.31366778418247038 0.85358983848650494 0 0.1464101615132356 0.83057691269884504 0 0.30018449338884379 1 0 0.19999999999955789 1 0.14641016151453831 0.14641016151419689 0.83057691269884504 0 0.30018449338884379 1 0.18804489794556911 0.3161072616634244 1 0 0.19999999999955789 1 0.14641016151453831 0.14641016151419689 0.85358983848570813 0.1464101615143738 0 1 0 0 0.85358983848650494 0 0.1464101615132356 0.79999999999947335 0 0 0.85358983848650494 0 0.1464101615132356 1 0 0.19999999999955789 1 0 0 1 0.14641016151453831 0.14641016151419689 1 0 0 1 0.14641016151453831 0.14641016151419689 1 0.20000000000083221 0 0.85358983848570813 0.1464101615143738 0 1 0.14641016151453831 0.14641016151419689 1 0 0 0.85358983848650494 0 0.1464101615132356 0.85358983848570813 0.1464101615143738 0 0.68592116352011878 0 0.1724872797865501 0.69380980079964416 0.1619694349440581 0 0.85358983848650494 0 0.1464101615132356 0.79999999999947335 0 0 0.85358983848570813 0.1464101615143738 0 0.85358983848650494 0 0.1464101615132356 0.69380980079964416 0.1619694349440581 0 0.79999999999947335 0 0 0.68592116352011878 0 0.1724872797865501 0.68777432594363841 0.31447353261427252 0.31366778418247038 0.69380980079964416 0.1619694349440581 0 0.5003997205654479 0.21136633249797621 0.2258422409314382 0.68592116352011878 0 0.1724872797865501 0.85358983848650494 0 0.1464101615132356 0.69380980079964416 0.1619694349440581 0 0.68777432594363841 0.31447353261427252 0.31366778418247038 0.69380980079964416 0.1619694349440581 0 0.68592116352011878 0 0.1724872797865501 0.59999999999894682 0 0 0.79999999999947335 0 0 0.49391845158624981 0 0.1323760430705655 0.3999999999989749 0 0 0.50966790549376417 0.16275515618023731 0 0.59999999999894682 0 0 0.50966790549376417 0.16275515618023731 0 0.69380980079964416 0.1619694349440581 0 0.68592116352011878 0 0.1724872797865501 0.59999999999894682 0 0 0.68592116352011878 0 0.1724872797865501 0.49391845158624981 0 0.1323760430705655 0.50966790549376417 0.16275515618023731 0 0.59999999999894682 0 0 0.47688326899416439 0 0.31741132792405607 0.68592116352011878 0 0.1724872797865501 0.49391845158624981 0 0.1323760430705655 0.5003997205654479 0.21136633249797621 0.2258422409314382 0.49391845158624981 0 0.1323760430705655 0.68592116352011878 0 0.1724872797865501 0.50966790549376417 0.16275515618023731 0 0.5003997205654479 0.21136633249797621 0.2258422409314382 0.50966790549376417 0.16275515618023731 0 0.68592116352011878 0 0.1724872797865501 0.69380980079964416 0.1619694349440581 0 0.5003997205654479 0.21136633249797621 0.2258422409314382 0.6104699881764214 0.32043363027358418 0 0.50966790549376417 0.16275515618023731 0 0.69380980079964416 0.1619694349440581 0 0.5003997205654479 0.21136633249797621 0.2258422409314382 0.6104699881764214 0.32043363027358418 0 0.68777432594363841 0.31447353261427252 0.31366778418247038 0.80839867011859301 0.31807971531731721 0 0.77713227489941183 0.50036915849493024 0.21774643624003751 0.6104699881764214 0.32043363027358418 0 0.69380980079964416 0.1619694349440581 0 0.68777432594363841 0.31447353261427252 0.31366778418247038 0.5003997205654479 0.21136633249797621 0.2258422409314382 0.80839867011859301 0.31807971531731721 0 0.6104699881764214 0.32043363027358418 0 0.69380980079964416 0.1619694349440581 0 0.68777432594363841 0.31447353261427252 0.31366778418247038 0.6104699881764214 0.32043363027358418 0 0.45812322962036273 0.31024977578535839 0 0.50966790549376417 0.16275515618023731 0 0.5003997205654479 0.21136633249797621 0.2258422409314382 0.45812322962036273 0.31024977578535839 0 0.6104699881764214 0.32043363027358418 0 0.5004045312576143 0.47050700646456922 0.24963111222780321 0.5003997205654479 0.21136633249797621 0.2258422409314382 0.77713227489941183 0.50036915849493024 0.21774643624003751 0.6104699881764214 0.32043363027358418 0 0.5004045312576143 0.47050700646456922 0.24963111222780321 0.67320508075660079 0.46954769941202479 0 0.68777432594363841 0.31447353261427252 0.31366778418247038 0.5004045312576143 0.47050700646456922 0.24963111222780321 0.6104699881764214 0.32043363027358418 0 0.5003997205654479 0.21136633249797621 0.2258422409314382 0.77713227489941183 0.50036915849493024 0.21774643624003751 0.5004045312576143 0.47050700646456922 0.24963111222780321 0.6104699881764214 0.32043363027358418 0 0.68777432594363841 0.31447353261427252 0.31366778418247038 0.51961524226956368 0.5000000000025091 0 0.6104699881764214 0.32043363027358418 0 0.67320508075660079 0.46954769941202479 0 0.5004045312576143 0.47050700646456922 0.24963111222780321 0.45812322962036273 0.31024977578535839 0 0.6104699881764214 0.32043363027358418 0 0.51961524226956368 0.5000000000025091 0 0.5004045312576143 0.47050700646456922 0.24963111222780321 0.6104699881764214 0.32043363027358418 0 0.80839867011859301 0.31807971531731721 0 0.67320508075660079 0.46954769941202479 0 0.77713227489941183 0.50036915849493024 0.21774643624003751 0.68777432594363841 0.31447353261427252 0.31366778418247038 0.7504488434426726 0.53051757989633308 0.49836643074154852 0.50000000000001332 0.49999999999999561 0.49999999999999561 0.50073570207385831 0.24848280280289631 0.52886631355986169 0.7504488434426726 0.53051757989633308 0.49836643074154852 0.50073570207385831 0.24848280280289631 0.52886631355986169 0.68777432594363841 0.31447353261427252 0.31366778418247038 0.77973766487723961 0.22090161127815711 0.50014622462635805 0.50000000000001332 0.49999999999999561 0.49999999999999561 0.7504488434426726 0.53051757989633308 0.49836643074154852 0.68777432594363841 0.31447353261427252 0.31366778418247038 0.5004045312576143 0.47050700646456922 0.24963111222780321 0.68777432594363841 0.31447353261427252 0.31366778418247038 0.5004045312576143 0.47050700646456922 0.24963111222780321 0.7504488434426726 0.53051757989633308 0.49836643074154852 0.77713227489941183 0.50036915849493024 0.21774643624003751 0.50073570207385831 0.24848280280289631 0.52886631355986169 0.5004045312576143 0.47050700646456922 0.24963111222780321 0.68777432594363841 0.31447353261427252 0.31366778418247038 0.5003997205654479 0.21136633249797621 0.2258422409314382 0.50000000000001332 0.49999999999999561 0.49999999999999561 0.68777432594363841 0.31447353261427252 0.31366778418247038 0.50073570207385831 0.24848280280289631 0.52886631355986169 0.5004045312576143 0.47050700646456922 0.24963111222780321 0.83057691269884504 0 0.30018449338884379 0.68777432594363841 0.31447353261427252 0.31366778418247038 0.66852282575985944 0 0.3853248791658106 0.77973766487723961 0.22090161127815711 0.50014622462635805 0.68592116352011878 0 0.1724872797865501 0.66852282575985944 0 0.3853248791658106 0.83057691269884504 0 0.30018449338884379 0.68777432594363841 0.31447353261427252 0.31366778418247038 0.66852282575985944 0 0.3853248791658106 0.47688326899416439 0 0.31741132792405607 0.50073570207385831 0.24848280280289631 0.52886631355986169 0.5003997205654479 0.21136633249797621 0.2258422409314382 0.68969697123394857 0 0.54179813558228873 0.66852282575985944 0 0.3853248791658106 0.50073570207385831 0.24848280280289631 0.52886631355986169 0.77973766487723961 0.22090161127815711 0.50014622462635805 0.68592116352011878 0 0.1724872797865501 0.66852282575985944 0 0.3853248791658106 0.68777432594363841 0.31447353261427252 0.31366778418247038 0.5003997205654479 0.21136633249797621 0.2258422409314382 0.66852282575985944 0 0.3853248791658106 0.50073570207385831 0.24848280280289631 0.52886631355986169 0.68777432594363841 0.31447353261427252 0.31366778418247038 0.5003997205654479 0.21136633249797621 0.2258422409314382 0.68777432594363841 0.31447353261427252 0.31366778418247038 0.50073570207385831 0.24848280280289631 0.52886631355986169 0.66852282575985944 0 0.3853248791658106 0.77973766487723961 0.22090161127815711 0.50014622462635805 0.68592116352011878 0 0.1724872797865501 0.47688326899416439 0 0.31741132792405607 0.66852282575985944 0 0.3853248791658106 0.5003997205654479 0.21136633249797621 0.2258422409314382 0.50000000000250922 0 0.48038475773043671 0.66852282575985944 0 0.3853248791658106 0.47688326899416439 0 0.31741132792405607 0.50073570207385831 0.24848280280289631 0.52886631355986169 0.50000000000250922 0 0.48038475773043671 0.68969697123394857 0 0.54179813558228873 0.66852282575985944 0 0.3853248791658106 0.50073570207385831 0.24848280280289631 0.52886631355986169 0.66852282575985944 0 0.3853248791658106 0.68969697123394857 0 0.54179813558228873 0.83534964916824084 0 0.4902996892628636 0.77973766487723961 0.22090161127815711 0.50014622462635805 1 0.18804489794556911 0.3161072616634244 0.68777432594363841 0.31447353261427252 0.31366778418247038 0.83057691269884504 0 0.30018449338884379 0.77973766487723961 0.22090161127815711 0.50014622462635805 1 0.18804489794556911 0.3161072616634244 1 0.14641016151453831 0.14641016151419689 0.83057691269884504 0 0.30018449338884379 0.68777432594363841 0.31447353261427252 0.31366778418247038 0.83534964916824084 0 0.4902996892628636 0.83057691269884504 0 0.30018449338884379 0.66852282575985944 0 0.3853248791658106 0.77973766487723961 0.22090161127815711 0.50014622462635805 0.83534964916824084 0 0.4902996892628636 1 0.18804489794556911 0.3161072616634244 0.83057691269884504 0 0.30018449338884379 0.77973766487723961 0.22090161127815711 0.50014622462635805 0.83057691269884504 0 0.30018449338884379 0.83534964916824084 0 0.4902996892628636 1 0 0.3999999999989749 1 0.18804489794556911 0.3161072616634244 0.83534964916824084 0 0.4902996892628636 1 0.162755156180173 0.50966790549372887 1 0 0.59999999999894682 1 0 0.3999999999989749 1 0 0.3999999999989749 0.83534964916824084 0 0.4902996892628636 1 0.162755156180173 0.50966790549372887 1 0.18804489794556911 0.3161072616634244 1 0.18804489794556911 0.3161072616634244 1 0 0.3999999999989749 0.83057691269884504 0 0.30018449338884379 1 0 0.19999999999955789 1 0.31024977578542368 0.45812322962028301 1 0.18804489794556911 0.3161072616634244 1 0.162755156180173 0.50966790549372887 0.77973766487723961 0.22090161127815711 0.50014622462635805 0.83534964916824084 0 0.4902996892628636 1 0.162755156180173 0.50966790549372887 1 0.18804489794556911 0.3161072616634244 0.77973766487723961 0.22090161127815711 0.50014622462635805 1 0.39615100178016449 0.32925244736082498 0.68777432594363841 0.31447353261427252 0.31366778418247038 0.7504488434426726 0.53051757989633308 0.49836643074154852 0.77713227489941183 0.50036915849493024 0.21774643624003751 1 0.39615100178016449 0.32925244736082498 1 0.18804489794556911 0.3161072616634244 1 0.31024977578542368 0.45812322962028301 0.68777432594363841 0.31447353261427252 0.31366778418247038 1 0.31024977578542368 0.45812322962028301 0.7504488434426726 0.53051757989633308 0.49836643074154852 0.68777432594363841 0.31447353261427252 0.31366778418247038 0.77973766487723961 0.22090161127815711 0.50014622462635805 1 0.30074819035868428 0.16929708765640439 1 0.18804489794556911 0.3161072616634244 1 0.39615100178016449 0.32925244736082498 0.68777432594363841 0.31447353261427252 0.31366778418247038 1 0.31024977578542368 0.45812322962028301 0.68777432594363841 0.31447353261427252 0.31366778418247038 1 0.18804489794556911 0.3161072616634244 0.77973766487723961 0.22090161127815711 0.50014622462635805 1 0.30074819035868428 0.16929708765640439 0.68777432594363841 0.31447353261427252 0.31366778418247038 1 0.39615100178016449 0.32925244736082498 0.77713227489941183 0.50036915849493024 0.21774643624003751 1 0.39615100178016449 0.32925244736082498 0.68777432594363841 0.31447353261427252 0.31366778418247038 1 0.31024977578542368 0.45812322962028301 0.7504488434426726 0.53051757989633308 0.49836643074154852 1 0.60020898676431722 0.32446581821274012 1 0.49836539647890021 0.17226134197269399 1 0.39615100178016449 0.32925244736082498 0.77713227489941183 0.50036915849493024 0.21774643624003751 1 0.39615100178016449 0.32925244736082498 1 0.31024977578542368 0.45812322962028301 1 0.50000000000229983 0.51961524226898759 0.7504488434426726 0.53051757989633308 0.49836643074154852 1 0.33579115324550912 0.59952339316293046 0.7504488434426726 0.53051757989633308 0.49836643074154852 0.68742751001967084 0.31250796680084852 0.687427510020161 0.78019141325921404 0.49972466465542442 0.78019141325930785 1 0.33579115324550912 0.59952339316293046 1 0.39076805646076263 0.7272421105028648 0.68742751001967084 0.31250796680084852 0.687427510020161 0.81599560342209843 0.22280203704001911 0.81599560342233202 1 0.33579115324550912 0.59952339316293046 1 0.53045230059030524 0.6732050807565132 1 0.50000000000229983 0.51961524226898759 0.7504488434426726 0.53051757989633308 0.49836643074154852 1 0.33579115324550912 0.59952339316293046 0.7504488434426726 0.53051757989633308 0.49836643074154852 1 0.31024977578542368 0.45812322962028301 0.77973766487723961 0.22090161127815711 0.50014622462635805 0.68742751001967084 0.31250796680084852 0.687427510020161 0.77973766487723961 0.22090161127815711 0.50014622462635805 1 0.33579115324550912 0.59952339316293046 0.81599560342209843 0.22280203704001911 0.81599560342233202 1 0.33579115324550912 0.59952339316293046 0.68742751001967084 0.31250796680084852 0.687427510020161 0.7504488434426726 0.53051757989633308 0.49836643074154852 0.77973766487723961 0.22090161127815711 0.50014622462635805 1 0.53045230059030524 0.6732050807565132 0.7504488434426726 0.53051757989633308 0.49836643074154852 1 0.33579115324550912 0.59952339316293046 0.78019141325921404 0.49972466465542442 0.78019141325930785 1 0.39076805646076263 0.7272421105028648 1 0.33579115324550912 0.59952339316293046 0.68742751001967084 0.31250796680084852 0.687427510020161 0.78019141325921404 0.49972466465542442 0.78019141325930785 1 0.33579115324550912 0.59952339316293046 1 0.50000000000229983 0.51961524226898759 1 0.31024977578542368 0.45812322962028301 0.7504488434426726 0.53051757989633308 0.49836643074154852 1 0.39076805646076263 0.7272421105028648 1 0.53045230059030524 0.6732050807565132 1 0.33579115324550912 0.59952339316293046 0.78019141325921404 0.49972466465542442 0.78019141325930785 1 0.33579115324550912 0.59952339316293046 1 0.1912596090855686 0.70565701451953711 1 0.39076805646076263 0.7272421105028648 0.81599560342209843 0.22280203704001911 0.81599560342233202 1 0.33579115324550912 0.59952339316293046 1 0.31024977578542368 0.45812322962028301 1 0.162755156180173 0.50966790549372887 0.77973766487723961 0.22090161127815711 0.50014622462635805 1 0.162755156180173 0.50966790549372887 0.81469961246449951 0 0.68914937826112133 1 0.1912596090855686 0.70565701451953711 0.77973766487723961 0.22090161127815711 0.50014622462635805 0.81469961246449951 0 0.68914937826112133 0.77973766487723961 0.22090161127815711 0.50014622462635805 0.68742751001967084 0.31250796680084852 0.687427510020161 0.81599560342209843 0.22280203704001911 0.81599560342233202 0.81469961246449951 0 0.68914937826112133 1 0.1912596090855686 0.70565701451953711 0.77973766487723961 0.22090161127815711 0.50014622462635805 0.81599560342209843 0.22280203704001911 0.81599560342233202 1 0.1912596090855686 0.70565701451953711 1 0.33579115324550912 0.59952339316293046 0.77973766487723961 0.22090161127815711 0.50014622462635805 0.81599560342209843 0.22280203704001911 0.81599560342233202 1 0.162755156180173 0.50966790549372887 1 0.1912596090855686 0.70565701451953711 1 0.33579115324550912 0.59952339316293046 0.77973766487723961 0.22090161127815711 0.50014622462635805 1 0.1912596090855686 0.70565701451953711 0.81469961246449951 0 0.68914937826112133 1 0 0.59999999999894682 1 0 0.79999999999947335 0.81469961246449951 0 0.68914937826112133 1 0 0.59999999999894682 1 0.162755156180173 0.50966790549372887 1 0.1912596090855686 0.70565701451953711 1 0.162755156180173 0.50966790549372887 1 0 0.59999999999894682 0.81469961246449951 0 0.68914937826112133 0.83534964916824084 0 0.4902996892628636 0.81469961246449951 0 0.68914937826112133 0.83534964916824084 0 0.4902996892628636 0.68969697123394857 0 0.54179813558228873 0.77973766487723961 0.22090161127815711 0.50014622462635805 0.81469961246449951 0 0.68914937826112133 1 0.162755156180173 0.50966790549372887 0.83534964916824084 0 0.4902996892628636 0.77973766487723961 0.22090161127815711 0.50014622462635805 0.68969697123394857 0 0.54179813558228873 0.6002015905170176 0 0.67551889168744117 0.68742751001967084 0.31250796680084852 0.687427510020161 0.50073570207385831 0.24848280280289631 0.52886631355986169 0.6002015905170176 0 0.67551889168744117 0.81469961246449951 0 0.68914937826112133 0.68969697123394857 0 0.54179813558228873 0.68742751001967084 0.31250796680084852 0.687427510020161 0.81469961246449951 0 0.68914937826112133 0.68969697123394857 0 0.54179813558228873 0.68742751001967084 0.31250796680084852 0.687427510020161 0.77973766487723961 0.22090161127815711 0.50014622462635805 0.69447607299129699 0 0.84099946107689361 0.68742751001967084 0.31250796680084852 0.687427510020161 0.6002015905170176 0 0.67551889168744117 0.50084626324420545 0.22238844715913 0.78084811589659187 0.68742751001967084 0.31250796680084852 0.687427510020161 0.68969697123394857 0 0.54179813558228873 0.50073570207385831 0.24848280280289631 0.52886631355986169 0.77973766487723961 0.22090161127815711 0.50014622462635805 0.68742751001967084 0.31250796680084852 0.687427510020161 0.50073570207385831 0.24848280280289631 0.52886631355986169 0.6002015905170176 0 0.67551889168744117 0.50084626324420545 0.22238844715913 0.78084811589659187 0.6002015905170176 0 0.67551889168744117 0.81469961246449951 0 0.68914937826112133 0.68742751001967084 0.31250796680084852 0.687427510020161 0.81599560342209843 0.22280203704001911 0.81599560342233202 0.68969697123394857 0 0.54179813558228873 0.50000000000250922 0 0.48038475773043671 0.6002015905170176 0 0.67551889168744117 0.50073570207385831 0.24848280280289631 0.52886631355986169 0.50000000000001332 0.49999999999999561 0.49999999999999561 0.68742751001967084 0.31250796680084852 0.687427510020161 0.49816183246753282 0.5307146639261795 0.75045686993209071 0.50073570207385831 0.24848280280289631 0.52886631355986169 0.68742751001967084 0.31250796680084852 0.687427510020161 0.50000000000001332 0.49999999999999561 0.49999999999999561 0.7504488434426726 0.53051757989633308 0.49836643074154852 0.50073570207385831 0.24848280280289631 0.52886631355986169 0.68742751001967084 0.31250796680084852 0.687427510020161 0.7504488434426726 0.53051757989633308 0.49836643074154852 0.50000000000001332 0.49999999999999561 0.49999999999999561 0.49816183246753282 0.5307146639261795 0.75045686993209071 0.7504488434426726 0.53051757989633308 0.49836643074154852 0.49816183246753282 0.5307146639261795 0.75045686993209071 0.68742751001967084 0.31250796680084852 0.687427510020161 0.78019141325921404 0.49972466465542442 0.78019141325930785 0.49816183246753282 0.5307146639261795 0.75045686993209071 0.50073570207385831 0.24848280280289631 0.52886631355986169 0.68742751001967084 0.31250796680084852 0.687427510020161 0.50084626324420545 0.22238844715913 0.78084811589659187 0.68742751001967084 0.31250796680084852 0.687427510020161 0.50073570207385831 0.24848280280289631 0.52886631355986169 0.7504488434426726 0.53051757989633308 0.49836643074154852 0.77973766487723961 0.22090161127815711 0.50014622462635805 0.45812322962173568 0.31024977578554058 1 0.49816183246753282 0.5307146639261795 0.75045686993209071 0.59952339316492498 0.33579115324593939 1 0.50084626324420545 0.22238844715913 0.78084811589659187 0.59952339316492498 0.33579115324593939 1 0.68742751001967084 0.31250796680084852 0.687427510020161 0.72724211050425436 0.39076805646176382 1 0.81599560342209843 0.22280203704001911 0.81599560342233202 0.59952339316492498 0.33579115324593939 1 0.68742751001967084 0.31250796680084852 0.687427510020161 0.49816183246753282 0.5307146639261795 0.75045686993209071 0.78019141325921404 0.49972466465542442 0.78019141325930785 0.59952339316492498 0.33579115324593939 1 0.50084626324420545 0.22238844715913 0.78084811589659187 0.68742751001967084 0.31250796680084852 0.687427510020161 0.81599560342209843 0.22280203704001911 0.81599560342233202 0.59952339316492498 0.33579115324593939 1 0.49816183246753282 0.5307146639261795 0.75045686993209071 0.68742751001967084 0.31250796680084852 0.687427510020161 0.50084626324420545 0.22238844715913 0.78084811589659187 0.59952339316492498 0.33579115324593939 1 0.72724211050425436 0.39076805646176382 1 0.68742751001967084 0.31250796680084852 0.687427510020161 0.78019141325921404 0.49972466465542442 0.78019141325930785 0.59952339316492498 0.33579115324593939 1 0.49816183246753282 0.5307146639261795 0.75045686993209071 0.67320508075671459 0.53045230059073867 1 0.78019141325921404 0.49972466465542442 0.78019141325930785 0.70565701452089868 0.1912596090858541 1 0.59952339316492498 0.33579115324593939 1 0.72724211050425436 0.39076805646176382 1 0.81599560342209843 0.22280203704001911 0.81599560342233202 0.59952339316492498 0.33579115324593939 1 0.67320508075671459 0.53045230059073867 1 0.72724211050425436 0.39076805646176382 1 0.78019141325921404 0.49972466465542442 0.78019141325930785 0.45812322962173568 0.31024977578554058 1 0.51961524226934941 0.50000000000250611 1 0.59952339316492498 0.33579115324593939 1 0.49816183246753282 0.5307146639261795 0.75045686993209071 0.67320508075671459 0.53045230059073867 1 0.59952339316492498 0.33579115324593939 1 0.51961524226934941 0.50000000000250611 1 0.49816183246753282 0.5307146639261795 0.75045686993209071 0.59952339316492498 0.33579115324593939 1 0.50966790549576724 0.1627551561802443 1 0.45812322962173568 0.31024977578554058 1 0.50084626324420545 0.22238844715913 0.78084811589659187 0.50966790549576724 0.1627551561802443 1 0.70565701452089868 0.1912596090858541 1 0.69447607299129699 0 0.84099946107689361 0.50084626324420545 0.22238844715913 0.78084811589659187 0.68742751001967084 0.31250796680084852 0.687427510020161 0.50084626324420545 0.22238844715913 0.78084811589659187 0.69447607299129699 0 0.84099946107689361 0.81599560342209843 0.22280203704001911 0.81599560342233202 0.70565701452089868 0.1912596090858541 1 0.69447607299129699 0 0.84099946107689361 0.50084626324420545 0.22238844715913 0.78084811589659187 0.81599560342209843 0.22280203704001911 0.81599560342233202 0.70565701452089868 0.1912596090858541 1 0.50084626324420545 0.22238844715913 0.78084811589659187 0.59952339316492498 0.33579115324593939 1 0.81599560342209843 0.22280203704001911 0.81599560342233202 0.70565701452089868 0.1912596090858541 1 0.50966790549576724 0.1627551561802443 1 0.59952339316492498 0.33579115324593939 1 0.50084626324420545 0.22238844715913 0.78084811589659187 0.6002015905170176 0 0.67551889168744117 0.68742751001967084 0.31250796680084852 0.687427510020161 0.69447607299129699 0 0.84099946107689361 0.81599560342209843 0.22280203704001911 0.81599560342233202 0.69447607299129699 0 0.84099946107689361 0.6002015905170176 0 0.67551889168744117 0.49836539647917322 0 0.82773865802723501 0.50084626324420545 0.22238844715913 0.78084811589659187 0.69447607299129699 0 0.84099946107689361 0.49836539647917322 0 0.82773865802723501 0.50966790549576724 0.1627551561802443 1 0.50084626324420545 0.22238844715913 0.78084811589659187 0.60000000000138687 0 1 0.49836539647917322 0 0.82773865802723501 0.50966790549576724 0.1627551561802443 1 0.69447607299129699 0 0.84099946107689361 0.50966790549576724 0.1627551561802443 1 0.40000000000166441 0 1 0.49836539647917322 0 0.82773865802723501 0.60000000000138687 0 1 0.50966790549576724 0.1627551561802443 1 0.70565701452089868 0.1912596090858541 1 0.60000000000138687 0 1 0.69447607299129699 0 0.84099946107689361 0.70565701452089868 0.1912596090858541 1 0.60000000000138687 0 1 0.69447607299129699 0 0.84099946107689361 0.79999999999999982 0 1 0.6002015905170176 0 0.67551889168744117 0.69447607299129699 0 0.84099946107689361 0.81469961246449951 0 0.68914937826112133 0.81599560342209843 0.22280203704001911 0.81599560342233202 0.70565701452089868 0.1912596090858541 1 0.85358983848646974 0.14641016151341191 1 0.69447607299129699 0 0.84099946107689361 0.81599560342209843 0.22280203704001911 0.81599560342233202 0.85358983848646974 0.14641016151341191 1 0.70565701452089868 0.1912596090858541 1 0.85173693729199718 0.30007817960516198 1 0.81599560342209843 0.22280203704001911 0.81599560342233202 1 0.1912596090855686 0.70565701451953711 0.81469961246449951 0 0.68914937826112133 0.85358983848570524 0 0.85358983848556425 0.81599560342209843 0.22280203704001911 0.81599560342233202 0.69447607299129699 0 0.84099946107689361 0.85358983848570524 0 0.85358983848556425 0.81469961246449951 0 0.68914937826112133 0.81599560342209843 0.22280203704001911 0.81599560342233202 0.85358983848570524 0 0.85358983848556425 0.69447607299129699 0 0.84099946107689361 0.85358983848646974 0.14641016151341191 1 0.81599560342209843 0.22280203704001911 0.81599560342233202 0.79999999999999982 0 1 0.69447607299129699 0 0.84099946107689361 0.70565701452089868 0.1912596090858541 1 0.85358983848646974 0.14641016151341191 1 0.79999999999999982 0 1 0.85358983848570524 0 0.85358983848556425 0.69447607299129699 0 0.84099946107689361 0.85358983848646974 0.14641016151341191 1 1 0 1 1 0.14641016151333891 0.85358983848640169 0.85358983848570524 0 0.85358983848556425 0.85358983848646974 0.14641016151341191 1 0.79999999999999982 0 1 1 0 1 0.85358983848570524 0 0.85358983848556425 0.85358983848646974 0.14641016151341191 1 0.85358983848646974 0.14641016151341191 1 1 0 1 1 0.14641016151333891 0.85358983848640169 1 0.19999999999955789 1 0.85358983848570524 0 0.85358983848556425 1 0.14641016151333891 0.85358983848640169 1 0 1 1 0 0.79999999999947335 0.85358983848570524 0 0.85358983848556425 0.81469961246449951 0 0.68914937826112133 1 0.1912596090855686 0.70565701451953711 1 0 0.79999999999947335 1 0.1912596090855686 0.70565701451953711 1 0.14641016151333891 0.85358983848640169 0.85358983848570524 0 0.85358983848556425 1 0 0.79999999999947335 1 0.14641016151333891 0.85358983848640169 1 0.30007817960499339 0.85173693729139244 1 0.1912596090855686 0.70565701451953711 0.81599560342209843 0.22280203704001911 0.81599560342233202 1 0.1912596090855686 0.70565701451953711 0.85358983848570524 0 0.85358983848556425 1 0.14641016151333891 0.85358983848640169 0.81599560342209843 0.22280203704001911 0.81599560342233202 0.85358983848646974 0.14641016151341191 1 0.85173693729199718 0.30007817960516198 1 1 0.19999999999955789 1 0.81599560342209843 0.22280203704001911 0.81599560342233202 1 0.14641016151333891 0.85358983848640169 0.85358983848646974 0.14641016151341191 1 1 0.19999999999955789 1 0.81599560342209843 0.22280203704001911 0.81599560342233202 1 0.14641016151333891 0.85358983848640169 1 0.19999999999955789 1 1 0.30007817960499339 0.85173693729139244 0.81599560342209843 0.22280203704001911 0.81599560342233202 0.85358983848570524 0 0.85358983848556425 0.85358983848646974 0.14641016151341191 1 1 0.14641016151333891 0.85358983848640169 0.81599560342209843 0.22280203704001911 0.81599560342233202 1 0.19999999999955789 1 1 0.30007817960499339 0.85173693729139244 0.85173693729199718 0.30007817960516198 1 1 0.3999999999989749 1 1 0.19999999999955789 1 0.85173693729199718 0.30007817960516198 1 1 0.30007817960499339 0.85173693729139244 0.81599560342209843 0.22280203704001911 0.81599560342233202 1 0.30007817960499339 0.85173693729139244 0.85173693729199718 0.30007817960516198 1 0.78019141325921404 0.49972466465542442 0.78019141325930785 0.81599560342209843 0.22280203704001911 0.81599560342233202 0.68742751001967084 0.31250796680084852 0.687427510020161 0.78019141325921404 0.49972466465542442 0.78019141325930785 0.72724211050425436 0.39076805646176382 1 0.81599560342209843 0.22280203704001911 0.81599560342233202 1 0.39076805646076263 0.7272421105028648 1 0.30007817960499339 0.85173693729139244 0.78019141325921404 0.49972466465542442 0.78019141325930785 0.81599560342209843 0.22280203704001911 0.81599560342233202 0.85173693729199718 0.30007817960516198 1 0.72724211050425436 0.39076805646176382 1 0.78019141325921404 0.49972466465542442 0.78019141325930785 0.81599560342209843 0.22280203704001911 0.81599560342233202 1 0.39076805646076263 0.7272421105028648 0.78019141325921404 0.49972466465542442 0.78019141325930785 0.68742751001967084 0.31250796680084852 0.687427510020161 0.81599560342209843 0.22280203704001911 0.81599560342233202 0.85173693729199718 0.30007817960516198 1 1 0.30007817960499339 0.85173693729139244 1 0.48813836695007229 0.84191918937727617 1 0.3999999999989749 1 0.72724211050425436 0.39076805646176382 1 0.85173693729199718 0.30007817960516198 1 0.70565701452089868 0.1912596090858541 1 0.81599560342209843 0.22280203704001911 0.81599560342233202 1 0.1912596090855686 0.70565701451953711 1 0.30007817960499339 0.85173693729139244 1 0.39076805646076263 0.7272421105028648 0.81599560342209843 0.22280203704001911 0.81599560342233202 0.85173693729199718 0.30007817960516198 1 1 0.48813836695007229 0.84191918937727617 1 0.30007817960499339 0.85173693729139244 0.78019141325921404 0.49972466465542442 0.78019141325930785 1 0.30007817960499339 0.85173693729139244 1 0.48813836695007229 0.84191918937727617 1 0.39076805646076263 0.7272421105028648 0.78019141325921404 0.49972466465542442 0.78019141325930785 1 0.39076805646076263 0.7272421105028648 1 0.48813836695007229 0.84191918937727617 1 0.53045230059030524 0.6732050807565132 0.78019141325921404 0.49972466465542442 0.78019141325930785 0.72724211050425436 0.39076805646176382 1 0.67320508075671459 0.53045230059073867 1 0.84191918937756771 0.48813836695034618 1 0.78019141325921404 0.49972466465542442 0.78019141325930785 0.84191918937756771 0.48813836695034618 1 0.85173693729199718 0.30007817960516198 1 0.72724211050425436 0.39076805646176382 1 0.78019141325921404 0.49972466465542442 0.78019141325930785 0.84191918937756771 0.48813836695034618 1 1 0.48813836695007229 0.84191918937727617 0.85173693729199718 0.30007817960516198 1 0.78019141325921404 0.49972466465542442 0.78019141325930785 1 0.3999999999989749 1 1 0.48813836695007229 0.84191918937727617 0.84191918937756771 0.48813836695034618 1 1 0.59999999999894682 1 1 0.48813836695007229 0.84191918937727617 0.84191918937756771 0.48813836695034618 1 0.85173693729199718 0.30007817960516198 1 1 0.3999999999989749 1 0.80839867011861499 0.68192028468377774 1 0.78019141325921404 0.49972466465542442 0.78019141325930785 0.68649174659499257 0.68600703198516766 0.6864917465949647 0.77683220420328725 0.81278569633583353 0.81664766512111064 0.80839867011861499 0.68192028468377774 1 1 0.68192028468364885 0.80839867011854549 0.78019141325921404 0.49972466465542442 0.78019141325930785 0.77683220420328725 0.81278569633583353 0.81664766512111064 1 0.59999999999894682 1 1 0.48813836695007229 0.84191918937727617 0.84191918937756771 0.48813836695034618 1 1 0.68192028468364885 0.80839867011854549 0.68649174659499257 0.68600703198516766 0.6864917465949647 0.78019141325921404 0.49972466465542442 0.78019141325930785 1 0.68192028468364885 0.80839867011854549 0.77683220420328725 0.81278569633583353 0.81664766512111064 0.84191918937756771 0.48813836695034618 1 1 0.59999999999894682 1 1 0.68192028468364885 0.80839867011854549 0.80839867011861499 0.68192028468377774 1 1 0.59999999999894682 1 1 0.68192028468364885 0.80839867011854549 0.80839867011861499 0.68192028468377774 1 1 0.79999999999947335 1 0.84191918937756771 0.48813836695034618 1 0.67320508075671459 0.53045230059073867 1 0.80839867011861499 0.68192028468377774 1 0.78019141325921404 0.49972466465542442 0.78019141325930785 0.84191918937756771 0.48813836695034618 1 0.80839867011861499 0.68192028468377774 1 1 0.68192028468364885 0.80839867011854549 0.78019141325921404 0.49972466465542442 0.78019141325930785 1 0.68192028468364885 0.80839867011854549 1 0.53045230059030524 0.6732050807565132 1 0.48813836695007229 0.84191918937727617 0.78019141325921404 0.49972466465542442 0.78019141325930785 1 0.68192028468364885 0.80839867011854549 1 0.48813836695007229 0.84191918937727617 0.84191918937756771 0.48813836695034618 1 0.78019141325921404 0.49972466465542442 0.78019141325930785 1 0.67939035495490308 0.61016512164639347 0.78019141325921404 0.49972466465542442 0.78019141325930785 0.7504488434426726 0.53051757989633308 0.49836643074154852 1 0.53045230059030524 0.6732050807565132 1 0.67939035495490308 0.61016512164639347 0.7504488434426726 0.53051757989633308 0.49836643074154852 0.68649174659499257 0.68600703198516766 0.6864917465949647 0.77374673111774417 0.78860835645735528 0.49829081152968557 1 0.67939035495490308 0.61016512164639347 0.68649174659499257 0.68600703198516766 0.6864917465949647 1 0.83791821520125753 0.69361520514217179 0.77374673111774417 0.78860835645735528 0.49829081152968557 1 0.68192028468364885 0.80839867011854549 1 0.67939035495490308 0.61016512164639347 0.68649174659499257 0.68600703198516766 0.6864917465949647 0.77683220420328725 0.81278569633583353 0.81664766512111064 1 0.67939035495490308 0.61016512164639347 1 0.68975022421527898 0.45812322962078778 0.7504488434426726 0.53051757989633308 0.49836643074154852 0.77374673111774417 0.78860835645735528 0.49829081152968557 0.7504488434426726 0.53051757989633308 0.49836643074154852 0.78019141325921404 0.49972466465542442 0.78019141325930785 1 0.67939035495490308 0.61016512164639347 0.68649174659499257 0.68600703198516766 0.6864917465949647 1 0.68192028468364885 0.80839867011854549 0.68649174659499257 0.68600703198516766 0.6864917465949647 1 0.67939035495490308 0.61016512164639347 0.78019141325921404 0.49972466465542442 0.78019141325930785 1 0.53045230059030524 0.6732050807565132 1 0.68192028468364885 0.80839867011854549 1 0.67939035495490308 0.61016512164639347 0.78019141325921404 0.49972466465542442 0.78019141325930785 1 0.67939035495490308 0.61016512164639347 1 0.50000000000229983 0.51961524226898759 1 0.53045230059030524 0.6732050807565132 0.7504488434426726 0.53051757989633308 0.49836643074154852 1 0.67939035495490308 0.61016512164639347 1 0.68975022421527898 0.45812322962078778 1 0.50000000000229983 0.51961524226898759 0.7504488434426726 0.53051757989633308 0.49836643074154852 1 0.67939035495490308 0.61016512164639347 1 0.83630110503662825 0.50803330197135588 1 0.68975022421527898 0.45812322962078778 0.77374673111774417 0.78860835645735528 0.49829081152968557 1 0.83791821520125753 0.69361520514217179 0.77374673111774417 0.78860835645735528 0.49829081152968557 0.68649174659499257 0.68600703198516766 0.6864917465949647 0.77683220420328725 0.81278569633583353 0.81664766512111064 0.68649174659499257 0.68600703198516766 0.6864917465949647 0.77374673111774417 0.78860835645735528 0.49829081152968557 0.81346205468287114 1 0.68420958956387889 0.77683220420328725 0.81278569633583353 0.81664766512111064 1 0.83791821520125753 0.69361520514217179 0.68649174659499257 0.68600703198516766 0.6864917465949647 1 0.67939035495490308 0.61016512164639347 0.77683220420328725 0.81278569633583353 0.81664766512111064 1 0.68192028468364885 0.80839867011854549 1 0.83791821520125753 0.69361520514217179 1 0.67939035495490308 0.61016512164639347 0.77683220420328725 0.81278569633583353 0.81664766512111064 1 0.83791821520125753 0.69361520514217179 0.81346205468287114 1 0.68420958956387889 0.77374673111774417 0.78860835645735528 0.49829081152968557 0.77683220420328725 0.81278569633583353 0.81664766512111064 1 0.83630110503662825 0.50803330197135588 1 0.67939035495490308 0.61016512164639347 1 0.83791821520125753 0.69361520514217179 0.77374673111774417 0.78860835645735528 0.49829081152968557 1 0.83791821520125753 0.69361520514217179 0.86762395692956074 1 0.5060815484123421 1 0.83630110503662825 0.50803330197135588 0.77374673111774417 0.78860835645735528 0.49829081152968557 1 1 0.59999999999894682 1 0.83630110503662825 0.50803330197135588 1 0.83791821520125753 0.69361520514217179 0.86762395692956074 1 0.5060815484123421 0.86762395692956074 1 0.5060815484123421 1 1 0.59999999999894682 1 0.83630110503662825 0.50803330197135588 1 1 0.3999999999989749 1 0.83791821520125753 0.69361520514217179 0.81346205468287114 1 0.68420958956387889 1 1 0.59999999999894682 0.86762395692956074 1 0.5060815484123421 0.86762395692956074 1 0.5060815484123421 0.81346205468287114 1 0.68420958956387889 0.68240285647621723 1 0.52310058211166854 0.77374673111774417 0.78860835645735528 0.49829081152968557 0.81346205468287114 1 0.68420958956387889 0.86762395692956074 1 0.5060815484123421 1 0.83791821520125753 0.69361520514217179 0.77374673111774417 0.78860835645735528 0.49829081152968557 1 0.83791821520125753 0.69361520514217179 0.81346205468287114 1 0.68420958956387889 1 1 0.79999999999947335 1 1 0.59999999999894682 1 1 0.79999999999947335 0.85358983848569092 1 0.85358983848569092 0.81346205468287114 1 0.68420958956387889 1 0.83791821520125753 0.69361520514217179 0.85358983848569092 1 0.85358983848569092 1 0.83791821520125753 0.69361520514217179 1 0.85358983848587056 0.85358983848587056 0.77683220420328725 0.81278569633583353 0.81664766512111064 0.85358983848569092 1 0.85358983848569092 1 1 0.79999999999947335 1 0.85358983848587056 0.85358983848587056 1 0.83791821520125753 0.69361520514217179 0.85358983848587056 0.85358983848587056 1 1 1 1 1 0.79999999999947335 1 1 0.85358983848587056 0.85358983848587056 0.85358983848587056 0.85358983848587056 1 0.79999999999947335 1 1 1 1 1 0.85358983848569092 1 0.85358983848569092 1 1 0.79999999999947335 1 0.85358983848587056 0.85358983848587056 1 1 1 0.85358983848569092 1 0.85358983848569092 1 0.85358983848587056 0.85358983848587056 0.85358983848587056 0.85358983848587056 1 1 1 1 0.85358983848569092 1 0.85358983848569092 0.85358983848587056 0.85358983848587056 1 1 0.79999999999947335 1 1 0.68192028468364885 0.80839867011854549 1 0.85358983848587056 0.85358983848587056 1 0.79999999999947335 1 1 0.68192028468364885 0.80839867011854549 0.80839867011861499 0.68192028468377774 1 0.85358983848587056 0.85358983848587056 1 0.85358983848587056 0.85358983848587056 1 1 0.85358983848587056 0.85358983848587056 1 0.68192028468364885 0.80839867011854549 0.77683220420328725 0.81278569633583353 0.81664766512111064 1 0.68192028468364885 0.80839867011854549 1 0.85358983848587056 0.85358983848587056 1 0.83791821520125753 0.69361520514217179 0.77683220420328725 0.81278569633583353 0.81664766512111064 0.69361520514218133 0.83791821520130205 1 0.85358983848587056 0.85358983848587056 1 0.80839867011861499 0.68192028468377774 1 0.77683220420328725 0.81278569633583353 0.81664766512111064 0.80839867011861499 0.68192028468377774 1 0.85358983848587056 0.85358983848587056 1 1 0.68192028468364885 0.80839867011854549 0.77683220420328725 0.81278569633583353 0.81664766512111064 0.85358983848587056 0.85358983848587056 1 0.79999999999947335 1 1 0.85358983848569092 1 0.85358983848569092 0.77683220420328725 0.81278569633583353 0.81664766512111064 0.69981550660938663 1 0.83057691269844081 0.85358983848569092 1 0.85358983848569092 0.79999999999947335 1 1 0.77683220420328725 0.81278569633583353 0.81664766512111064 0.85358983848587056 0.85358983848587056 1 0.69361520514218133 0.83791821520130205 1 0.79999999999947335 1 1 0.77683220420328725 0.81278569633583353 0.81664766512111064 1 0.85358983848587056 0.85358983848587056 0.85358983848587056 0.85358983848587056 1 0.85358983848569092 1 0.85358983848569092 0.77683220420328725 0.81278569633583353 0.81664766512111064 0.85358983848569092 1 0.85358983848569092 0.69981550660938663 1 0.83057691269844081 0.81346205468287114 1 0.68420958956387889 0.77683220420328725 0.81278569633583353 0.81664766512111064 0.81346205468287114 1 0.68420958956387889 1 0.83791821520125753 0.69361520514217179 0.85358983848569092 1 0.85358983848569092 0.77683220420328725 0.81278569633583353 0.81664766512111064 0.69361520514218133 0.83791821520130205 1 0.49911199724958061 0.77872228561593948 0.77895350115271889 0.69981550660938663 1 0.83057691269844081 0.77683220420328725 0.81278569633583353 0.81664766512111064 0.69361520514218133 0.83791821520130205 1 0.61016512164652226 0.67939035495506384 1 0.49911199724958061 0.77872228561593948 0.77895350115271889 0.77683220420328725 0.81278569633583353 0.81664766512111064 0.81346205468287114 1 0.68420958956387889 0.69981550660938663 1 0.83057691269844081 0.6123333432449789 1 0.67837347745467769 0.77683220420328725 0.81278569633583353 0.81664766512111064 0.6123333432449789 1 0.67837347745467769 0.69981550660938663 1 0.83057691269844081 0.49911199724958061 0.77872228561593948 0.77895350115271889 0.77683220420328725 0.81278569633583353 0.81664766512111064 0.69361520514218133 0.83791821520130205 1 0.69981550660938663 1 0.83057691269844081 0.79999999999947335 1 1 0.77683220420328725 0.81278569633583353 0.81664766512111064 0.50970031073508926 1 0.83534964916803001 0.59999999999894682 1 1 0.69361520514218133 0.83791821520130205 1 0.69981550660938663 1 0.83057691269844081 0.69981550660938663 1 0.83057691269844081 0.59999999999894682 1 1 0.69361520514218133 0.83791821520130205 1 0.79999999999947335 1 1 0.80839867011861499 0.68192028468377774 1 0.61016512164652226 0.67939035495506384 1 0.69361520514218133 0.83791821520130205 1 0.77683220420328725 0.81278569633583353 0.81664766512111064 0.50803330197137353 0.83630110503667787 1 0.69361520514218133 0.83791821520130205 1 0.61016512164652226 0.67939035495506384 1 0.49911199724958061 0.77872228561593948 0.77895350115271889 0.50803330197137353 0.83630110503667787 1 0.50970031073508926 1 0.83534964916803001 0.69361520514218133 0.83791821520130205 1 0.49911199724958061 0.77872228561593948 0.77895350115271889 0.59999999999894682 1 1 0.50803330197137353 0.83630110503667787 1 0.3999999999989749 1 1 0.50970031073508926 1 0.83534964916803001 0.69361520514218133 0.83791821520130205 1 0.50803330197137353 0.83630110503667787 1 0.59999999999894682 1 1 0.50970031073508926 1 0.83534964916803001 0.69361520514218133 0.83791821520130205 1 0.50970031073508926 1 0.83534964916803001 0.69981550660938663 1 0.83057691269844081 0.49911199724958061 0.77872228561593948 0.77895350115271889 0.50970031073508926 1 0.83534964916803001 0.6123333432449789 1 0.67837347745467769 0.69981550660938663 1 0.83057691269844081 0.49911199724958061 0.77872228561593948 0.77895350115271889 0.6123333432449789 1 0.67837347745467769 0.49983993748706529 0.75039103705932653 0.52967335724801234 0.68649174659499257 0.68600703198516766 0.6864917465949647 0.49911199724958061 0.77872228561593948 0.77895350115271889 0.6123333432449789 1 0.67837347745467769 0.49983993748706529 0.75039103705932653 0.52967335724801234 0.68240285647621723 1 0.52310058211166854 0.77374673111774417 0.78860835645735528 0.49829081152968557 0.6123333432449789 1 0.67837347745467769 0.45820186441573879 1 0.68969697123405882 0.49983993748706529 0.75039103705932653 0.52967335724801234 0.49911199724958061 0.77872228561593948 0.77895350115271889 0.45820186441573879 1 0.68969697123405882 0.6123333432449789 1 0.67837347745467769 0.50970031073508926 1 0.83534964916803001 0.49911199724958061 0.77872228561593948 0.77895350115271889 0.6123333432449789 1 0.67837347745467769 0.68649174659499257 0.68600703198516766 0.6864917465949647 0.49983993748706529 0.75039103705932653 0.52967335724801234 0.77374673111774417 0.78860835645735528 0.49829081152968557 0.81346205468287114 1 0.68420958956387889 0.6123333432449789 1 0.67837347745467769 0.68649174659499257 0.68600703198516766 0.6864917465949647 0.77683220420328725 0.81278569633583353 0.81664766512111064 0.6123333432449789 1 0.67837347745467769 0.49911199724958061 0.77872228561593948 0.77895350115271889 0.68649174659499257 0.68600703198516766 0.6864917465949647 0.77683220420328725 0.81278569633583353 0.81664766512111064 0.81346205468287114 1 0.68420958956387889 0.68649174659499257 0.68600703198516766 0.6864917465949647 0.6123333432449789 1 0.67837347745467769 0.77374673111774417 0.78860835645735528 0.49829081152968557 0.81346205468287114 1 0.68420958956387889 0.6123333432449789 1 0.67837347745467769 0.68240285647621723 1 0.52310058211166854 0.77374673111774417 0.78860835645735528 0.49829081152968557 0.6123333432449789 1 0.67837347745467769 0.45820186441573879 1 0.68969697123405882 0.51961524227008238 1 0.49999999999872219 0.49983993748706529 0.75039103705932653 0.52967335724801234 0.6123333432449789 1 0.67837347745467769 0.51961524227008238 1 0.49999999999872219 0.68240285647621723 1 0.52310058211166854 0.49983993748706529 0.75039103705932653 0.52967335724801234 0.68649174659499257 0.68600703198516766 0.6864917465949647 0.49983993748706529 0.75039103705932653 0.52967335724801234 0.49816183246753282 0.5307146639261795 0.75045686993209071 0.49911199724958061 0.77872228561593948 0.77895350115271889 0.68649174659499257 0.68600703198516766 0.6864917465949647 0.50000000000001332 0.49999999999999561 0.49999999999999561 0.7504488434426726 0.53051757989633308 0.49836643074154852 0.49816183246753282 0.5307146639261795 0.75045686993209071 0.68649174659499257 0.68600703198516766 0.6864917465949647 0.49816183246753282 0.5307146639261795 0.75045686993209071 0.7504488434426726 0.53051757989633308 0.49836643074154852 0.78019141325921404 0.49972466465542442 0.78019141325930785 0.50000000000001332 0.49999999999999561 0.49999999999999561 0.68649174659499257 0.68600703198516766 0.6864917465949647 0.7504488434426726 0.53051757989633308 0.49836643074154852 0.49983993748706529 0.75039103705932653 0.52967335724801234 0.7504488434426726 0.53051757989633308 0.49836643074154852 0.49983993748706529 0.75039103705932653 0.52967335724801234 0.68649174659499257 0.68600703198516766 0.6864917465949647 0.77374673111774417 0.78860835645735528 0.49829081152968557 0.68649174659499257 0.68600703198516766 0.6864917465949647 0.50000000000001332 0.49999999999999561 0.49999999999999561 0.49816183246753282 0.5307146639261795 0.75045686993209071 0.49983993748706529 0.75039103705932653 0.52967335724801234 0.78019141325921404 0.49972466465542442 0.78019141325930785 0.61016512164652226 0.67939035495506384 1 0.49816183246753282 0.5307146639261795 0.75045686993209071 0.67320508075671459 0.53045230059073867 1 0.78019141325921404 0.49972466465542442 0.78019141325930785 0.49816183246753282 0.5307146639261795 0.75045686993209071 0.61016512164652226 0.67939035495506384 1 0.68649174659499257 0.68600703198516766 0.6864917465949647 0.61016512164652226 0.67939035495506384 1 0.68649174659499257 0.68600703198516766 0.6864917465949647 0.80839867011861499 0.68192028468377774 1 0.78019141325921404 0.49972466465542442 0.78019141325930785 0.68649174659499257 0.68600703198516766 0.6864917465949647 0.49911199724958061 0.77872228561593948 0.77895350115271889 0.61016512164652226 0.67939035495506384 1 0.77683220420328725 0.81278569633583353 0.81664766512111064 0.68649174659499257 0.68600703198516766 0.6864917465949647 0.49816183246753282 0.5307146639261795 0.75045686993209071 0.61016512164652226 0.67939035495506384 1 0.49911199724958061 0.77872228561593948 0.77895350115271889 0.80839867011861499 0.68192028468377774 1 0.68649174659499257 0.68600703198516766 0.6864917465949647 0.61016512164652226 0.67939035495506384 1 0.77683220420328725 0.81278569633583353 0.81664766512111064 0.67320508075671459 0.53045230059073867 1 0.61016512164652226 0.67939035495506384 1 0.80839867011861499 0.68192028468377774 1 0.78019141325921404 0.49972466465542442 0.78019141325930785 0.45812322962090041 0.68975022421538157 1 0.61016512164652226 0.67939035495506384 1 0.49816183246753282 0.5307146639261795 0.75045686993209071 0.49911199724958061 0.77872228561593948 0.77895350115271889 0.50803330197137353 0.83630110503667787 1 0.61016512164652226 0.67939035495506384 1 0.45812322962090041 0.68975022421538157 1 0.49911199724958061 0.77872228561593948 0.77895350115271889 0.51961524226934941 0.50000000000250611 1 0.45812322962090041 0.68975022421538157 1 0.61016512164652226 0.67939035495506384 1 0.49816183246753282 0.5307146639261795 0.75045686993209071 0.67320508075671459 0.53045230059073867 1 0.51961524226934941 0.50000000000250611 1 0.61016512164652226 0.67939035495506384 1 0.49816183246753282 0.5307146639261795 0.75045686993209071 0.3115891413135391 0.68758981780459771 0.68521708032990558 0.2184393375098648 0.50004596894495223 0.77634962490704662 0.32446581821293602 0.60020898676440626 1 0.18453958615733529 0.77655623474864555 0.81613222483915937 0.32925244736146098 0.39615100178034629 1 0.32446581821293602 0.60020898676440626 1 0.51961524226934941 0.50000000000250611 1 0.49816183246753282 0.5307146639261795 0.75045686993209071 0.45812322962090041 0.68975022421538157 1 0.3115891413135391 0.68758981780459771 0.68521708032990558 0.31067093462947892 0.81480288849497895 1 0.49911199724958061 0.77872228561593948 0.77895350115271889 0.32925244736146098 0.39615100178034629 1 0.32446581821293602 0.60020898676440626 1 0.49816183246753282 0.5307146639261795 0.75045686993209071 0.2184393375098648 0.50004596894495223 0.77634962490704662 0.45812322962090041 0.68975022421538157 1 0.49816183246753282 0.5307146639261795 0.75045686993209071 0.3115891413135391 0.68758981780459771 0.68521708032990558 0.49911199724958061 0.77872228561593948 0.77895350115271889 0.32446581821293602 0.60020898676440626 1 0.3115891413135391 0.68758981780459771 0.68521708032990558 0.49816183246753282 0.5307146639261795 0.75045686993209071 0.2184393375098648 0.50004596894495223 0.77634962490704662 0.45812322962090041 0.68975022421538157 1 0.51961524226934941 0.50000000000250611 1 0.32446581821293602 0.60020898676440626 1 0.49816183246753282 0.5307146639261795 0.75045686993209071 0.31067093462947892 0.81480288849497895 1 0.45812322962090041 0.68975022421538157 1 0.32446581821293602 0.60020898676440626 1 0.3115891413135391 0.68758981780459771 0.68521708032990558 0.45812322962090041 0.68975022421538157 1 0.32446581821293602 0.60020898676440626 1 0.3115891413135391 0.68758981780459771 0.68521708032990558 0.49816183246753282 0.5307146639261795 0.75045686993209071 0.32446581821293602 0.60020898676440626 1 0.31067093462947892 0.81480288849497895 1 0.3115891413135391 0.68758981780459771 0.68521708032990558 0.18453958615733529 0.77655623474864555 0.81613222483915937 0.3115891413135391 0.68758981780459771 0.68521708032990558 0.50000000000001332 0.49999999999999561 0.49999999999999561 0.24769234054476261 0.52242103280823293 0.45098450226372488 0.49983993748706529 0.75039103705932653 0.52967335724801234 0.3115891413135391 0.68758981780459771 0.68521708032990558 0.49816183246753282 0.5307146639261795 0.75045686993209071 0.50000000000001332 0.49999999999999561 0.49999999999999561 0.49983993748706529 0.75039103705932653 0.52967335724801234 0.3115891413135391 0.68758981780459771 0.68521708032990558 0.49983993748706529 0.75039103705932653 0.52967335724801234 0.24769234054476261 0.52242103280823293 0.45098450226372488 0.22516916914780419 0.77057994845201627 0.48187244075707292 0.50000000000001332 0.49999999999999561 0.49999999999999561 0.3115891413135391 0.68758981780459771 0.68521708032990558 0.24769234054476261 0.52242103280823293 0.45098450226372488 0.2184393375098648 0.50004596894495223 0.77634962490704662 0.3115891413135391 0.68758981780459771 0.68521708032990558 0.50000000000001332 0.49999999999999561 0.49999999999999561 0.49816183246753282 0.5307146639261795 0.75045686993209071 0.2184393375098648 0.50004596894495223 0.77634962490704662 0.49816183246753282 0.5307146639261795 0.75045686993209071 0.49983993748706529 0.75039103705932653 0.52967335724801234 0.3115891413135391 0.68758981780459771 0.68521708032990558 0.49911199724958061 0.77872228561593948 0.77895350115271889 0.32448110831226962 1 0.6002015905153204 0.45820186441573879 1 0.68969697123405882 0.3115891413135391 0.68758981780459771 0.68521708032990558 0.49983993748706529 0.75039103705932653 0.52967335724801234 0.45820186441573879 1 0.68969697123405882 0.31085062173747541 1 0.81469961246428202 0.32448110831226962 1 0.6002015905153204 0.3115891413135391 0.68758981780459771 0.68521708032990558 0.45820186441573879 1 0.68969697123405882 0.3115891413135391 0.68758981780459771 0.68521708032990558 0.49983993748706529 0.75039103705932653 0.52967335724801234 0.49911199724958061 0.77872228561593948 0.77895350115271889 0.32448110831226962 1 0.6002015905153204 0.3115891413135391 0.68758981780459771 0.68521708032990558 0.31085062173747541 1 0.81469961246428202 0.18453958615733529 0.77655623474864555 0.81613222483915937 0.32448110831226962 1 0.6002015905153204 0.49983993748706529 0.75039103705932653 0.52967335724801234 0.3115891413135391 0.68758981780459771 0.68521708032990558 0.22516916914780419 0.77057994845201627 0.48187244075707292 0.45820186441573879 1 0.68969697123405882 0.31085062173747541 1 0.81469961246428202 0.3115891413135391 0.68758981780459771 0.68521708032990558 0.49911199724958061 0.77872228561593948 0.77895350115271889 0.32926555316115258 1 0.39615987727515128 0.49983993748706529 0.75039103705932653 0.52967335724801234 0.32448110831226962 1 0.6002015905153204 0.22516916914780419 0.77057994845201627 0.48187244075707292 0.32448110831226962 1 0.6002015905153204 0.3115891413135391 0.68758981780459771 0.68521708032990558 0.15900053892265181 1 0.69447607299016312 0.22516916914780419 0.77057994845201627 0.48187244075707292 0.32926555316115258 1 0.39615987727515128 0.51961524227008238 1 0.49999999999872219 0.32448110831226962 1 0.6002015905153204 0.49983993748706529 0.75039103705932653 0.52967335724801234 0.32448110831226962 1 0.6002015905153204 0.51961524227008238 1 0.49999999999872219 0.45820186441573879 1 0.68969697123405882 0.49983993748706529 0.75039103705932653 0.52967335724801234 0.45820186441573879 1 0.68969697123405882 0.50970031073508926 1 0.83534964916803001 0.31085062173747541 1 0.81469961246428202 0.49911199724958061 0.77872228561593948 0.77895350115271889 0.31085062173747541 1 0.81469961246428202 0.49911199724958061 0.77872228561593948 0.77895350115271889 0.31067093462947892 0.81480288849497895 1 0.18453958615733529 0.77655623474864555 0.81613222483915937 0.31085062173747541 1 0.81469961246428202 0.3115891413135391 0.68758981780459771 0.68521708032990558 0.49911199724958061 0.77872228561593948 0.77895350115271889 0.18453958615733529 0.77655623474864555 0.81613222483915937 0.50803330197137353 0.83630110503667787 1 0.31085062173747541 1 0.81469961246428202 0.50970031073508926 1 0.83534964916803001 0.49911199724958061 0.77872228561593948 0.77895350115271889 0.31067093462947892 0.81480288849497895 1 0.49911199724958061 0.77872228561593948 0.77895350115271889 0.3115891413135391 0.68758981780459771 0.68521708032990558 0.18453958615733529 0.77655623474864555 0.81613222483915937 0.31085062173747541 1 0.81469961246428202 0.3999999999989749 1 1 0.50803330197137353 0.83630110503667787 1 0.50970031073508926 1 0.83534964916803001 0.31085062173747541 1 0.81469961246428202 0.3999999999989749 1 1 0.31067093462947892 0.81480288849497895 1 0.50803330197137353 0.83630110503667787 1 0.31085062173747541 1 0.81469961246428202 0.50803330197137353 0.83630110503667787 1 0.31067093462947892 0.81480288849497895 1 0.49911199724958061 0.77872228561593948 0.77895350115271889 0.45812322962090041 0.68975022421538157 1 0.31067093462947892 0.81480288849497895 1 0.50803330197137353 0.83630110503667787 1 0.49911199724958061 0.77872228561593948 0.77895350115271889 0.3999999999989749 1 1 0.19999999999955789 1 1 0.31085062173747541 1 0.81469961246428202 0.31067093462947892 0.81480288849497895 1 0.15900053892265181 1 0.69447607299016312 0.31085062173747541 1 0.81469961246428202 0.1464101615132356 1 0.85358983848650494 0.18453958615733529 0.77655623474864555 0.81613222483915937 0.31085062173747541 1 0.81469961246428202 0.31067093462947892 0.81480288849497895 1 0.1464101615132356 1 0.85358983848650494 0.18453958615733529 0.77655623474864555 0.81613222483915937 0.31085062173747541 1 0.81469961246428202 0.19999999999955789 1 1 0.1464101615132356 1 0.85358983848650494 0.31067093462947892 0.81480288849497895 1 0.14641016151332509 0.85358983848655678 1 0.1464101615132356 1 0.85358983848650494 0.19999999999955789 1 1 0.31067093462947892 0.81480288849497895 1 0.31067093462947892 0.81480288849497895 1 0.15896804272141651 0.69449451837104537 1 0.14641016151332509 0.85358983848655678 1 0.18453958615733529 0.77655623474864555 0.81613222483915937 0.14641016151332509 0.85358983848655678 1 0.1464101615132356 1 0.85358983848650494 0.31067093462947892 0.81480288849497895 1 0.18453958615733529 0.77655623474864555 0.81613222483915937 0 0.85358983848682146 0.85358983848668035 0 0.69992182039579531 0.85173693729137989 0 0.80860557108920617 0.70542349973054763 0.18453958615733529 0.77655623474864555 0.81613222483915937 0.15900053892265181 1 0.69447607299016312 0 0.85358983848682146 0.85358983848668035 0 0.80860557108920617 0.70542349973054763 0.18453958615733529 0.77655623474864555 0.81613222483915937 0.18453958615733529 0.77655623474864555 0.81613222483915937 0 0.79999999999999982 1 0.15896804272141651 0.69449451837104537 1 0.14641016151332509 0.85358983848655678 1 0.1464101615132356 1 0.85358983848650494 0.14641016151332509 0.85358983848655678 1 0 0.85358983848682146 0.85358983848668035 0.18453958615733529 0.77655623474864555 0.81613222483915937 0 0.85358983848682146 0.85358983848668035 0 0.79999999999999982 1 0 0.69992182039579531 0.85173693729137989 0.18453958615733529 0.77655623474864555 0.81613222483915937 0 0.85358983848682146 0.85358983848668035 0.14641016151332509 0.85358983848655678 1 0 0.79999999999999982 1 0.18453958615733529 0.77655623474864555 0.81613222483915937 0 1 1 0 0.85358983848682146 0.85358983848668035 0.14641016151332509 0.85358983848655678 1 0 0.79999999999999982 1 0 0.85358983848682146 0.85358983848668035 0.1464101615132356 1 0.85358983848650494 0 1 1 0.14641016151332509 0.85358983848655678 1 0.19999999999955789 1 1 0 1 1 0.1464101615132356 1 0.85358983848650494 0.14641016151332509 0.85358983848655678 1 0.1464101615132356 1 0.85358983848650494 0 1 1 0 1 0.79999999999947335 0 0.85358983848682146 0.85358983848668035 0.1464101615132356 1 0.85358983848650494 0 0.85358983848682146 0.85358983848668035 0.15900053892265181 1 0.69447607299016312 0.18453958615733529 0.77655623474864555 0.81613222483915937 0.15900053892265181 1 0.69447607299016312 0 1 0.79999999999947335 0 0.80860557108920617 0.70542349973054763 0 0.85358983848682146 0.85358983848668035 0 1 0.79999999999947335 0.15900053892265181 1 0.69447607299016312 0.1464101615132356 1 0.85358983848650494 0 0.85358983848682146 0.85358983848668035 0 0.80860557108920617 0.70542349973054763 0 1 0.59999999999894682 0 1 0.79999999999947335 0.15900053892265181 1 0.69447607299016312 0.3115891413135391 0.68758981780459771 0.68521708032990558 0.22516916914780419 0.77057994845201627 0.48187244075707292 0 0.80860557108920617 0.70542349973054763 0.18453958615733529 0.77655623474864555 0.81613222483915937 0 0.80860557108920617 0.70542349973054763 0 0.83630110503664845 0.50803330197135654 0 1 0.59999999999894682 0.15900053892265181 1 0.69447607299016312 0.15900053892265181 1 0.69447607299016312 0.3115891413135391 0.68758981780459771 0.68521708032990558 0.32448110831226962 1 0.6002015905153204 0.18453958615733529 0.77655623474864555 0.81613222483915937 0.15900053892265181 1 0.69447607299016312 0.22516916914780419 0.77057994845201627 0.48187244075707292 0.3115891413135391 0.68758981780459771 0.68521708032990558 0.18453958615733529 0.77655623474864555 0.81613222483915937 0.15900053892265181 1 0.69447607299016312 0 0.80860557108920617 0.70542349973054763 0.22516916914780419 0.77057994845201627 0.48187244075707292 0.18453958615733529 0.77655623474864555 0.81613222483915937 0.15900053892265181 1 0.69447607299016312 0.32448110831226962 1 0.6002015905153204 0.31085062173747541 1 0.81469961246428202 0.18453958615733529 0.77655623474864555 0.81613222483915937 0.32448110831226962 1 0.6002015905153204 0.15900053892265181 1 0.69447607299016312 0.17226134197293 1 0.49836539647645101 0.22516916914780419 0.77057994845201627 0.48187244075707292 0 0.83630110503664845 0.50803330197135654 0.17226134197293 1 0.49836539647645101 0.15900053892265181 1 0.69447607299016312 0.22516916914780419 0.77057994845201627 0.48187244075707292 0 1 0.59999999999894682 0 1 0.3999999999989749 0.17226134197293 1 0.49836539647645101 0 0.83630110503664845 0.50803330197135654 0 0.83630110503664845 0.50803330197135654 0.17226134197293 1 0.49836539647645101 0 1 0.59999999999894682 0.15900053892265181 1 0.69447607299016312 0 0.83630110503664845 0.50803330197135654 0.15900053892265181 1 0.69447607299016312 0 0.80860557108920617 0.70542349973054763 0.22516916914780419 0.77057994845201627 0.48187244075707292 0 0.66416205381430016 0.59944234540882957 0 0.83630110503664845 0.50803330197135654 0 0.80860557108920617 0.70542349973054763 0.22516916914780419 0.77057994845201627 0.48187244075707292 0 0.66416205381430016 0.59944234540882957 0 0.80860557108920617 0.70542349973054763 0.3115891413135391 0.68758981780459771 0.68521708032990558 0.22516916914780419 0.77057994845201627 0.48187244075707292 0 0.66416205381430016 0.59944234540882957 0.3115891413135391 0.68758981780459771 0.68521708032990558 0 0.80860557108920617 0.70542349973054763 0.18453958615733529 0.77655623474864555 0.81613222483915937 0 0.66416205381430016 0.59944234540882957 0 0.80860557108920617 0.70542349973054763 0 0.60922248848335758 0.72722573386012812 0.18453958615733529 0.77655623474864555 0.81613222483915937 0 0.66416205381430016 0.59944234540882957 0.24769234054476261 0.52242103280823293 0.45098450226372488 0.3115891413135391 0.68758981780459771 0.68521708032990558 0.2184393375098648 0.50004596894495223 0.77634962490704662 0 0.66416205381430016 0.59944234540882957 0 0.60922248848335758 0.72722573386012812 0.3115891413135391 0.68758981780459771 0.68521708032990558 0.18453958615733529 0.77655623474864555 0.81613222483915937 0 0.66416205381430016 0.59944234540882957 0 0.46954769941369501 0.67320508075638175 0 0.50000000000237477 0.51961524226909872 0.2184393375098648 0.50004596894495223 0.77634962490704662 0 0.60922248848335758 0.72722573386012812 0 0.66416205381430016 0.59944234540882957 0.3115891413135391 0.68758981780459771 0.68521708032990558 0.2184393375098648 0.50004596894495223 0.77634962490704662 0 0.66416205381430016 0.59944234540882957 0.3115891413135391 0.68758981780459771 0.68521708032990558 0.24769234054476261 0.52242103280823293 0.45098450226372488 0.22516916914780419 0.77057994845201627 0.48187244075707292 0 0.66416205381430016 0.59944234540882957 0 0.50000000000237477 0.51961524226909872 0.24769234054476261 0.52242103280823293 0.45098450226372488 0.2184393375098648 0.50004596894495223 0.77634962490704662 0 0.68801781652248195 0.45664527743358641 0 0.83630110503664845 0.50803330197135654 0 0.66416205381430016 0.59944234540882957 0.22516916914780419 0.77057994845201627 0.48187244075707292 0 0.66416205381430016 0.59944234540882957 0 0.50000000000237477 0.51961524226909872 0 0.68801781652248195 0.45664527743358641 0.24769234054476261 0.52242103280823293 0.45098450226372488 0 0.60922248848335758 0.72722573386012812 0 0.46954769941369501 0.67320508075638175 0 0.66416205381430016 0.59944234540882957 0.2184393375098648 0.50004596894495223 0.77634962490704662 0 0.5118616330515301 0.84191918937737908 0 0.69992182039579531 0.85173693729137989 0.15896804272141651 0.69449451837104537 1 0.2184393375098648 0.50004596894495223 0.77634962490704662 0 0.60922248848335758 0.72722573386012812 0.2184393375098648 0.50004596894495223 0.77634962490704662 0.3115891413135391 0.68758981780459771 0.68521708032990558 0.18453958615733529 0.77655623474864555 0.81613222483915937 0.15896804272141651 0.69449451837104537 1 0.2184393375098648 0.50004596894495223 0.77634962490704662 0 0.69992182039579531 0.85173693729137989 0.18453958615733529 0.77655623474864555 0.81613222483915937 0 0.5118616330515301 0.84191918937737908 0 0.46954769941369501 0.67320508075638175 0 0.60922248848335758 0.72722573386012812 0.2184393375098648 0.50004596894495223 0.77634962490704662 0 0.5118616330515301 0.84191918937737908 0 0.60922248848335758 0.72722573386012812 0 0.69992182039579531 0.85173693729137989 0.2184393375098648 0.50004596894495223 0.77634962490704662 0.15896804272141651 0.69449451837104537 1 0.32446581821293602 0.60020898676440626 1 0.2184393375098648 0.50004596894495223 0.77634962490704662 0.18453958615733529 0.77655623474864555 0.81613222483915937 0 0.60922248848335758 0.72722573386012812 0 0.69992182039579531 0.85173693729137989 0.2184393375098648 0.50004596894495223 0.77634962490704662 0.18453958615733529 0.77655623474864555 0.81613222483915937 0 0.80860557108920617 0.70542349973054763 0 0.69992182039579531 0.85173693729137989 0 0.60922248848335758 0.72722573386012812 0.18453958615733529 0.77655623474864555 0.81613222483915937 0.15896804272141651 0.69449451837104537 1 0.32446581821293602 0.60020898676440626 1 0.17226134197275911 0.49836539647894412 1 0.2184393375098648 0.50004596894495223 0.77634962490704662 0.15896804272141651 0.69449451837104537 1 0.17226134197275911 0.49836539647894412 1 0 0.5118616330515301 0.84191918937737908 0.2184393375098648 0.50004596894495223 0.77634962490704662 0.32446581821293602 0.60020898676440626 1 0.15896804272141651 0.69449451837104537 1 0.31067093462947892 0.81480288849497895 1 0.18453958615733529 0.77655623474864555 0.81613222483915937 0.18453958615733529 0.77655623474864555 0.81613222483915937 0.15896804272141651 0.69449451837104537 1 0 0.79999999999999982 1 0 0.69992182039579531 0.85173693729137989 0 0.69992182039579531 0.85173693729137989 0 0.5118616330515301 0.84191918937737908 0.15896804272141651 0.69449451837104537 1 0 0.60000000000138687 1 0.15896804272141651 0.69449451837104537 1 0 0.79999999999999982 1 0 0.69992182039579531 0.85173693729137989 0 0.60000000000138687 1 0 0.60000000000138687 1 0 0.5118616330515301 0.84191918937737908 0.15896804272141651 0.69449451837104537 1 0.17226134197275911 0.49836539647894412 1 0 0.5118616330515301 0.84191918937737908 0 0.60000000000138687 1 0 0.40000000000166441 1 0.17226134197275911 0.49836539647894412 1 0.17226134197275911 0.49836539647894412 1 0 0.40000000000166441 1 0 0.5118616330515301 0.84191918937737908 0 0.31807971531776508 0.80839867011913336 0 0.40000000000166441 1 0.17226134197275911 0.49836539647894412 1 0.16929708765653109 0.30074819035870082 1 0 0.31807971531776508 0.80839867011913336 0 0.14641016151490169 0.85358983848532144 0 0.31807971531776508 0.80839867011913336 0.16929708765653109 0.30074819035870082 1 0.31426750628021272 0.31270343261798911 0.68761148188185484 0.16929708765653109 0.30074819035870082 1 0.31426750628021272 0.31270343261798911 0.68761148188185484 0 0.31807971531776508 0.80839867011913336 0.2184393375098648 0.50004596894495223 0.77634962490704662 0 0.5118616330515301 0.84191918937737908 0 0.31807971531776508 0.80839867011913336 0 0.46954769941369501 0.67320508075638175 0.2184393375098648 0.50004596894495223 0.77634962490704662 0 0.5118616330515301 0.84191918937737908 0.17226134197275911 0.49836539647894412 1 0 0.31807971531776508 0.80839867011913336 0.2184393375098648 0.50004596894495223 0.77634962490704662 0 0.31807971531776508 0.80839867011913336 0.16929708765653109 0.30074819035870082 1 0 0.40000000000166441 1 0 0.20000000000083221 1 0.17226134197275911 0.49836539647894412 1 0.32925244736146098 0.39615100178034629 1 0.16929708765653109 0.30074819035870082 1 0.2184393375098648 0.50004596894495223 0.77634962490704662 0.17226134197275911 0.49836539647894412 1 0.16929708765653109 0.30074819035870082 1 0 0.31807971531776508 0.80839867011913336 0.2184393375098648 0.50004596894495223 0.77634962490704662 0.31610726166461628 0.1880448979455934 1 0.16929708765653109 0.30074819035870082 1 0.32925244736146098 0.39615100178034629 1 0.31426750628021272 0.31270343261798911 0.68761148188185484 0.32446581821293602 0.60020898676440626 1 0.32925244736146098 0.39615100178034629 1 0.17226134197275911 0.49836539647894412 1 0.2184393375098648 0.50004596894495223 0.77634962490704662 0.45812322962173568 0.31024977578554058 1 0.31426750628021272 0.31270343261798911 0.68761148188185484 0.49816183246753282 0.5307146639261795 0.75045686993209071 0.50084626324420545 0.22238844715913 0.78084811589659187 0.32925244736146098 0.39615100178034629 1 0.49816183246753282 0.5307146639261795 0.75045686993209071 0.31426750628021272 0.31270343261798911 0.68761148188185484 0.2184393375098648 0.50004596894495223 0.77634962490704662 0.31610726166461628 0.1880448979455934 1 0.32925244736146098 0.39615100178034629 1 0.45812322962173568 0.31024977578554058 1 0.31426750628021272 0.31270343261798911 0.68761148188185484 0.45812322962173568 0.31024977578554058 1 0.31610726166461628 0.1880448979455934 1 0.31426750628021272 0.31270343261798911 0.68761148188185484 0.50084626324420545 0.22238844715913 0.78084811589659187 0.32925244736146098 0.39615100178034629 1 0.45812322962173568 0.31024977578554058 1 0.31426750628021272 0.31270343261798911 0.68761148188185484 0.49816183246753282 0.5307146639261795 0.75045686993209071 0.32925244736146098 0.39615100178034629 1 0.31426750628021272 0.31270343261798911 0.68761148188185484 0.16929708765653109 0.30074819035870082 1 0.2184393375098648 0.50004596894495223 0.77634962490704662 0.32925244736146098 0.39615100178034629 1 0.51961524226934941 0.50000000000250611 1 0.45812322962173568 0.31024977578554058 1 0.49816183246753282 0.5307146639261795 0.75045686993209071 0.31426750628021272 0.31270343261798911 0.68761148188185484 0.49816183246753282 0.5307146639261795 0.75045686993209071 0.50000000000001332 0.49999999999999561 0.49999999999999561 0.2184393375098648 0.50004596894495223 0.77634962490704662 0.24769234054476261 0.52242103280823293 0.45098450226372488 0.50073570207385831 0.24848280280289631 0.52886631355986169 0.31426750628021272 0.31270343261798911 0.68761148188185484 0.22088738526309029 0.22111069116742441 0.50004796911802929 0.31426750628021272 0.31270343261798911 0.68761148188185484 0.50073570207385831 0.24848280280289631 0.52886631355986169 0.49816183246753282 0.5307146639261795 0.75045686993209071 0.50084626324420545 0.22238844715913 0.78084811589659187 0.50000000000001332 0.49999999999999561 0.49999999999999561 0.31426750628021272 0.31270343261798911 0.68761148188185484 0.24769234054476261 0.52242103280823293 0.45098450226372488 0.50073570207385831 0.24848280280289631 0.52886631355986169 0.50000000000001332 0.49999999999999561 0.49999999999999561 0.49816183246753282 0.5307146639261795 0.75045686993209071 0.31426750628021272 0.31270343261798911 0.68761148188185484 0.50073570207385831 0.24848280280289631 0.52886631355986169 0.50000000000001332 0.49999999999999561 0.49999999999999561 0.24769234054476261 0.52242103280823293 0.45098450226372488 0.31426750628021272 0.31270343261798911 0.68761148188185484 0.2184393375098648 0.50004596894495223 0.77634962490704662 0.2184393375098648 0.50004596894495223 0.77634962490704662 0.31426750628021272 0.31270343261798911 0.68761148188185484 0 0.50000000000237477 0.51961524226909872 0.24769234054476261 0.52242103280823293 0.45098450226372488 0 0.31024977578556651 0.45812322962166352 0.24769234054476261 0.52242103280823293 0.45098450226372488 0 0.32043363027398297 0.61046998817722586 0.22088738526309029 0.22111069116742441 0.50004796911802929 0 0.32043363027398297 0.61046998817722586 0 0.50000000000237477 0.51961524226909872 0.31426750628021272 0.31270343261798911 0.68761148188185484 0.24769234054476261 0.52242103280823293 0.45098450226372488 0.2184393375098648 0.50004596894495223 0.77634962490704662 0 0.32043363027398297 0.61046998817722586 0 0.50000000000237477 0.51961524226909872 0.31426750628021272 0.31270343261798911 0.68761148188185484 0 0.32043363027398297 0.61046998817722586 0.24769234054476261 0.52242103280823293 0.45098450226372488 0.31426750628021272 0.31270343261798911 0.68761148188185484 0.22088738526309029 0.22111069116742441 0.50004796911802929 0.2184393375098648 0.50004596894495223 0.77634962490704662 0 0.50000000000237477 0.51961524226909872 0 0.32043363027398297 0.61046998817722586 0 0.46954769941369501 0.67320508075638175 0 0.16196943494415611 0.69380980080116506 0 0.32043363027398297 0.61046998817722586 0.31426750628021272 0.31270343261798911 0.68761148188185484 0.22088738526309029 0.22111069116742441 0.50004796911802929 0 0.32043363027398297 0.61046998817722586 0 0.31807971531776508 0.80839867011913336 0.31426750628021272 0.31270343261798911 0.68761148188185484 0.2184393375098648 0.50004596894495223 0.77634962490704662 0 0.16196943494415611 0.69380980080116506 0 0.32043363027398297 0.61046998817722586 0 0.31807971531776508 0.80839867011913336 0.31426750628021272 0.31270343261798911 0.68761148188185484 0 0.31024977578556651 0.45812322962166352 0 0.50000000000237477 0.51961524226909872 0 0.32043363027398297 0.61046998817722586 0.24769234054476261 0.52242103280823293 0.45098450226372488 0 0.32043363027398297 0.61046998817722586 0 0.46954769941369501 0.67320508075638175 0 0.31807971531776508 0.80839867011913336 0.2184393375098648 0.50004596894495223 0.77634962490704662 0 0.32043363027398297 0.61046998817722586 0 0.16275515618034081 0.50966790549591257 0 0.31024977578556651 0.45812322962166352 0.22088738526309029 0.22111069116742441 0.50004796911802929 0 0.16196943494415611 0.69380980080116506 0.14641016151479661 0 0.85358983848542624 0.18818969570926641 0 0.68364148842842287 0.31426750628021272 0.31270343261798911 0.68761148188185484 0 0.16196943494415611 0.69380980080116506 0.31426750628021272 0.31270343261798911 0.68761148188185484 0.18818969570926641 0 0.68364148842842287 0.22088738526309029 0.22111069116742441 0.50004796911802929 0 0.16196943494415611 0.69380980080116506 0.18818969570926641 0 0.68364148842842287 0 0.16275515618034081 0.50966790549591257 0.22088738526309029 0.22111069116742441 0.50004796911802929 0 0.16196943494415611 0.69380980080116506 0 0.16275515618034081 0.50966790549591257 0 0.32043363027398297 0.61046998817722586 0.22088738526309029 0.22111069116742441 0.50004796911802929 0 0 0.79999999999999982 0 0 0.60000000000138687 0 0.16196943494415611 0.69380980080116506 0.18818969570926641 0 0.68364148842842287 0 0 0.60000000000138687 0 0.16196943494415611 0.69380980080116506 0.18818969570926641 0 0.68364148842842287 0 0.16275515618034081 0.50966790549591257 0.18818969570926641 0 0.68364148842842287 0.16370661204827031 0 0.4886650857430957 0 0 0.60000000000138687 0 0.16275515618034081 0.50966790549591257 0.18818969570926641 0 0.68364148842842287 0.31030302876556398 0 0.54179813558513157 0.16370661204827031 0 0.4886650857430957 0.22088738526309029 0.22111069116742441 0.50004796911802929 0 0.16275515618034081 0.50966790549591257 0.18818969570926641 0 0.68364148842842287 0.16370661204827031 0 0.4886650857430957 0.22088738526309029 0.22111069116742441 0.50004796911802929 0.30074819035913852 0 0.83070291234383831 0.39615987727709562 0 0.67073444684008199 0.18818969570926641 0 0.68364148842842287 0.31426750628021272 0.31270343261798911 0.68761148188185484 0.31030302876556398 0 0.54179813558513157 0.31426750628021272 0.31270343261798911 0.68761148188185484 0.50073570207385831 0.24848280280289631 0.52886631355986169 0.22088738526309029 0.22111069116742441 0.50004796911802929 0.39615987727709562 0 0.67073444684008199 0.31030302876556398 0 0.54179813558513157 0.31426750628021272 0.31270343261798911 0.68761148188185484 0.50073570207385831 0.24848280280289631 0.52886631355986169 0.39615987727709562 0 0.67073444684008199 0.31426750628021272 0.31270343261798911 0.68761148188185484 0.30074819035913852 0 0.83070291234383831 0.50084626324420545 0.22238844715913 0.78084811589659187 0.18818969570926641 0 0.68364148842842287 0.31426750628021272 0.31270343261798911 0.68761148188185484 0.31030302876556398 0 0.54179813558513157 0.22088738526309029 0.22111069116742441 0.50004796911802929 0.6002015905170176 0 0.67551889168744117 0.50073570207385831 0.24848280280289631 0.52886631355986169 0.39615987727709562 0 0.67073444684008199 0.50084626324420545 0.22238844715913 0.78084811589659187 0.31030302876556398 0 0.54179813558513157 0.18818969570926641 0 0.68364148842842287 0.39615987727709562 0 0.67073444684008199 0.31426750628021272 0.31270343261798911 0.68761148188185484 0.39615987727709562 0 0.67073444684008199 0.50073570207385831 0.24848280280289631 0.52886631355986169 0.31426750628021272 0.31270343261798911 0.68761148188185484 0.50084626324420545 0.22238844715913 0.78084811589659187 0.39615987727709562 0 0.67073444684008199 0.6002015905170176 0 0.67551889168744117 0.50000000000250922 0 0.48038475773043671 0.50073570207385831 0.24848280280289631 0.52886631355986169 0.39615987727709562 0 0.67073444684008199 0.50000000000250922 0 0.48038475773043671 0.31030302876556398 0 0.54179813558513157 0.50073570207385831 0.24848280280289631 0.52886631355986169 0.49836539647917322 0 0.82773865802723501 0.6002015905170176 0 0.67551889168744117 0.39615987727709562 0 0.67073444684008199 0.50084626324420545 0.22238844715913 0.78084811589659187 0.30074819035913852 0 0.83070291234383831 0.14641016151432179 0.14641016151432179 1 0.31610726166461628 0.1880448979455934 1 0.31426750628021272 0.31270343261798911 0.68761148188185484 0.30074819035913852 0 0.83070291234383831 0.31426750628021272 0.31270343261798911 0.68761148188185484 0.31610726166461628 0.1880448979455934 1 0.50084626324420545 0.22238844715913 0.78084811589659187 0.30074819035913852 0 0.83070291234383831 0.31610726166461628 0.1880448979455934 1 0.49836539647917322 0 0.82773865802723501 0.50084626324420545 0.22238844715913 0.78084811589659187 0.39615987727709562 0 0.67073444684008199 0.30074819035913852 0 0.83070291234383831 0.49836539647917322 0 0.82773865802723501 0.50084626324420545 0.22238844715913 0.78084811589659187 0.31610726166461628 0.1880448979455934 1 0.40000000000166441 0 1 0.49836539647917322 0 0.82773865802723501 0.50966790549576724 0.1627551561802443 1 0.40000000000166441 0 1 0.49836539647917322 0 0.82773865802723501 0.30074819035913852 0 0.83070291234383831 0.31610726166461628 0.1880448979455934 1 0.31610726166461628 0.1880448979455934 1 0.50966790549576724 0.1627551561802443 1 0.49836539647917322 0 0.82773865802723501 0.50084626324420545 0.22238844715913 0.78084811589659187 0.45812322962173568 0.31024977578554058 1 0.50966790549576724 0.1627551561802443 1 0.31610726166461628 0.1880448979455934 1 0.50084626324420545 0.22238844715913 0.78084811589659187 0.40000000000166441 0 1 0.30074819035913852 0 0.83070291234383831 0.20000000000083221 0 1 0.31610726166461628 0.1880448979455934 1 0 0.14641016151490169 0.85358983848532144 0 0.16196943494415611 0.69380980080116506 0 0.31807971531776508 0.80839867011913336 0.31426750628021272 0.31270343261798911 0.68761148188185484 0.16929708765653109 0.30074819035870082 1 0.31610726166461628 0.1880448979455934 1 0.14641016151432179 0.14641016151432179 1 0.31426750628021272 0.31270343261798911 0.68761148188185484 0.14641016151432179 0.14641016151432179 1 0.20000000000083221 0 1 0.14641016151479661 0 0.85358983848542624 0.30074819035913852 0 0.83070291234383831 0.14641016151432179 0.14641016151432179 1 0.30074819035913852 0 0.83070291234383831 0.14641016151479661 0 0.85358983848542624 0.31426750628021272 0.31270343261798911 0.68761148188185484 0.14641016151432179 0.14641016151432179 1 0.20000000000083221 0 1 0.30074819035913852 0 0.83070291234383831 0.31610726166461628 0.1880448979455934 1 0.18818969570926641 0 0.68364148842842287 0.14641016151479661 0 0.85358983848542624 0.30074819035913852 0 0.83070291234383831 0.31426750628021272 0.31270343261798911 0.68761148188185484 0 0.14641016151490169 0.85358983848532144 0.16929708765653109 0.30074819035870082 1 0.14641016151432179 0.14641016151432179 1 0.31426750628021272 0.31270343261798911 0.68761148188185484 0.14641016151432179 0.14641016151432179 1 0.14641016151479661 0 0.85358983848542624 0 0.14641016151490169 0.85358983848532144 0.31426750628021272 0.31270343261798911 0.68761148188185484 0 0.16196943494415611 0.69380980080116506 0 0.14641016151490169 0.85358983848532144 0.14641016151479661 0 0.85358983848542624 0.31426750628021272 0.31270343261798911 0.68761148188185484 0 0.20000000000083221 1 0 0.31807971531776508 0.80839867011913336 0.16929708765653109 0.30074819035870082 1 0 0.14641016151490169 0.85358983848532144 0.14641016151432179 0.14641016151432179 1 0 0.20000000000083221 1 0.16929708765653109 0.30074819035870082 1 0 0.14641016151490169 0.85358983848532144 0 0.16196943494415611 0.69380980080116506 0.14641016151479661 0 0.85358983848542624 0 0 0.79999999999999982 0.18818969570926641 0 0.68364148842842287 0 0.14641016151490169 0.85358983848532144 0.14641016151479661 0 0.85358983848542624 0 0 0.79999999999999982 0 0.16196943494415611 0.69380980080116506 0 0 1 0 0.20000000000083221 1 0.14641016151432179 0.14641016151432179 1 0 0.14641016151490169 0.85358983848532144 0.14641016151479661 0 0.85358983848542624 0 0 0.79999999999999982 0 0 1 0 0.14641016151490169 0.85358983848532144 0 0 1 0.14641016151432179 0.14641016151432179 1 0.20000000000083221 0 1 0.14641016151479661 0 0.85358983848542624 0.14641016151479661 0 0.85358983848542624 0 0 1 0.14641016151432179 0.14641016151432179 1 0 0.14641016151490169 0.85358983848532144 
</DataArray>
</Points>
<Cells>
<DataArray type="UInt32" Name="connectivity" format="ascii">
0 1 2 3 4 5 6 7 8 9 10 11 12 13 14 15 16 17 18 19 20 21 22 23 24 25 26 27 28 29 30 31 32 33 34 35 36 37 38 39 40 41 42 43 44 45 46 47 48 49 50 51 52 53 54 55 56 57 58 59 60 61 62 63 64 65 66 67 68 69 70 71 72 73 74 75 76 77 78 79 80 81 82 83 84 85 86 87 88 89 90 91 92 93 94 95 96 97 98 99 100 101 102 103 104 105 106 107 108 109 110 111 112 113 114 115 116 117 118 119 120 121 122 123 124 125 126 127 128 129 130 131 132 133 134 135 136 137 138 139 140 141 142 143 144 145 146 147 148 149 150 151 152 153 154 155 156 157 158 159 160 161 162 163 164 165 166 167 168 169 170 171 172 173 174 175 176 177 178 179 180 181 182 183 184 185 186 187 188 189 190 191 192 193 194 195 196 197 198 199 200 201 202 203 204 205 206 207 208 209 210 211 212 213 214 215 216 217 218 219 220 221 222 223 224 225 226 227 228 229 230 231 232 233 234 235 236 237 238 239 240 241 242 243 244 245 246 247 248 249 250 251 252 253 254 255 256 257 258 259 260 261 262 263 264 265 266 267 268 269 270 271 272 273 274 275 276 277 278 279 280 281 282 283 284 285 286 287 288 289 290 291 292 293 294 295 296 297 298 299 300 301 302 303 304 305 306 307 308 309 310 311 312 313 314 315 316 317 318 319 320 321 322 323 324 325 326 327 328 329 330 331 332 333 334 335 336 337 338 339 340 341 342 343 344 345 346 347 348 349 350 351 352 353 354 355 356 357 358 359 360 361 362 363 364 365 366 367 368 369 370 371 372 373 374 375 376 377 378 379 380 381 382 383 384 385 386 387 388 389 390 391 392 393 394 395 396 397 398 399 400 401 402 403 404 405 406 407 408 409 410 411 412 413 414 415 416 417 418 419 420 421 422 423 424 425 426 427 428 429 430 431 432 433 434 435 436 437 438 439 440 441 442 443 444 445 446 447 448 449 450 451 452 453 454 455 456 457 458 459 460 461 462 463 464 465 466 467 468 469 470 471 472 473 474 475 476 477 478 479 480 481 482 483 484 485 486 487 488 489 490 491 492 493 494 495 496 497 498 499 500 501 502 503 504 505 506 507 508 509 510 511 512 513 514 515 516 517 518 519 520 521 522 523 524 525 526 527 528 529 530 531 532 533 534 535 536 537 538 539 540 541 542 543 544 545 546 547 548 549 550 551 552 553 554 555 556 557 558 559 560 561 562 563 564 565 566 567 568 569 570 571 572 573 574 575 576 577 578 579 580 581 582 583 584 585 586 587 588 589 590 591 592 593 594 595 596 597 598 599 600 601 602 603 604 605 606 607 608 609 610 611 612 613 614 615 616 617 618 619 620 621 622 623 624 625 626 627 628 629 630 631 632 633 634 635 636 637 638 639 640 641 642 643 644 645 646 647 648 649 650 651 652 653 654 655 656 657 658 659 660 661 662 663 664 665 666 667 668 669 670 671 672 673 674 675 676 677 678 679 680 681 682 683 684 685 686 687 688 689 690 691 692 693 694 695 696 697 698 699 700 701 702 703 704 705 706 707 708 709 710 711 712 713 714 715 716 717 718 719 720 721 722 723 724 725 726 727 728 729 730 731 732 733 734 735 736 737 738 739 740 741 742 743 744 745 746 747 748 749 750 751 752 753 754 755 756 757 758 759 760 761 762 763 764 765 766 767 768 769 770 771 772 773 774 775 776 777 778 779 780 781 782 783 784 785 786 787 788 789 790 791 792 793 794 795 796 797 798 799 800 801 802 803 804 805 806 807 808 809 810 811 812 813 814 815 816 817 818 819 820 821 822 823 824 825 826 827 828 829 830 831 832 833 834 835 836 837 838 839 840 841 842 843 844 845 846 847 848 849 850 851 852 853 854 855 856 857 858 859 860 861 862 863 864 865 866 867 868 869 870 871 872 873 874 875 876 877 878 879 880 881 882 883 884 885 886 887 888 889 890 891 892 893 894 895 896 897 898 899 900 901 902 903 904 905 906 907 908 909 910 911 912 913 914 915 916 917 918 919 920 921 922 923 924 925 926 927 928 929 930 931 932 933 934 935 936 937 938 939 940 941 942 943 944 945 946 947 948 949 950 951 952 953 954 955 956 957 958 959 960 961 962 963 964 965 966 967 968 969 970 971 972 973 974 975 976 977 978 979 980 981 982 983 984 985 986 987 988 989 990 991 992 993 994 995 996 997 998 999 1000 1001 1002 1003 1004 1005 1006 1007 1008 1009 1010 1011 1012 1013 1014 1015 1016 1017 1018 1019 1020 1021 1022 1023 1024 1025 1026 1027 1028 1029 1030 1031 1032 1033 1034 1035 1036 1037 1038 1039 1040 1041 1042 1043 1044 1045 1046 1047 1048 1049 1050 1051 1052 1053 1054 1055 1056 1057 1058 1059 1060 1061 1062 1063 1064 1065 1066 1067 1068 1069 1070 1071 1072 1073 1074 1075 1076 1077 1078 1079 1080 1081 1082 1083 1084 1085 1086 1087 1088 1089 1090 1091 1092 1093 1094 1095 1096 1097 1098 1099 1100 1101 1102 1103 1104 1105 1106 1107 1108 1109 1110 1111 1112 1113 1114 1115 1116 1117 1118 1119 1120 1121 1122 1123 1124 1125 1126 1127 1128 1129 1130 1131 1132 1133 1134 1135 1136 1137 1138 1139 1140 1141 1142 1143 1144 1145 1146 1147 1148 1149 1150 1151 1152 1153 1154 1155 1156 1157 1158 1159 1160 1161 1162 1163 1164 1165 1166 1167 1168 1169 1170 1171 1172 1173 1174 1175 1176 1177 1178 1179 1180 1181 1182 1183 1184 1185 1186 1187 1188 1189 1190 1191 1192 1193 1194 1195 1196 1197 1198 1199 1200 1201 1202 1203 1204 1205 1206 1207 1208 1209 1210 1211 1212 1213 1214 1215 1216 1217 1218 1219 1220 1221 1222 1223 1224 1225 1226 1227 1228 1229 1230 1231 1232 1233 1234 1235 1236 1237 1238 1239 1240 1241 1242 1243 1244 1245 1246 1247 1248 1249 1250 1251 1252 1253 1254 1255 1256 1257 1258 1259 1260 1261 1262 1263 1264 1265 1266 1267 1268 1269 1270 1271 1272 1273 1274 1275 1276 1277 1278 1279 1280 1281 1282 1283 1284 1285 1286 1287 1288 1289 1290 1291 1292 1293 1294 1295 1296 1297 1298 1299 1300 1301 1302 1303 1304 1305 1306 1307 1308 1309 1310 1311 1312 1313 1314 1315 1316 1317 1318 1319 1320 1321 1322 1323 1324 1325 1326 1327 1328 1329 1330 1331 1332 1333 1334 1335 1336 1337 1338 1339 1340 1341 1342 1343 1344 1345 1346 1347 1348 1349 1350 1351 1352 1353 1354 1355 1356 1357 1358 1359 1360 1361 1362 1363 1364 1365 1366 1367 1368 1369 1370 1371 1372 1373 1374 1375 1376 1377 1378 1379 1380 1381 1382 1383 1384 1385 1386 1387 1388 1389 1390 1391 1392 1393 1394 1395 1396 1397 1398 1399 1400 1401 1402 1403 1404 1405 1406 1407 1408 1409 1410 1411 1412 1413 1414 1415 1416 1417 1418 1419 1420 1421 1422 1423 1424 1425 1426 1427 1428 1429 1430 1431 1432 1433 1434 1435 1436 1437 1438 1439 1440 1441 1442 1443 1444 1445 1446 1447 1448 1449 1450 1451 1452 1453 1454 1455 1456 1457 1458 1459 1460 1461 1462 1463 1464 1465 1466 1467 1468 1469 1470 1471 1472 1473 1474 1475 1476 1477 1478 1479 1480 1481 1482 1483 1484 1485 1486 1487 1488 1489 1490 1491 1492 1493 1494 1495 1496 1497 1498 1499 1500 1501 1502 1503 1504 1505 1506 1507 1508 1509 1510 1511 1512 1513 1514 1515 1516 1517 1518 1519 1520 1521 1522 1523 1524 1525 1526 1527 1528 1529 1530 1531 1532 1533 1534 1535 1536 1537 1538 1539 1540 1541 1542 1543 1544 1545 1546 1547 1548 1549 1550 1551 1552 1553 1554 1555 1556 1557 1558 1559 1560 1561 1562 1563 1564 1565 1566 1567 1568 1569 1570 1571 1572 1573 1574 1575 1576 1577 1578 1579 1580 1581 1582 1583 1584 1585 1586 1587 1588 1589 1590 1591 1592 1593 1594 1595 1596 1597 1598 1599 1600 1601 1602 1603 1604 1605 1606 1607 1608 1609 1610 1611 1612 1613 1614 1615 1616 1617 1618 1619 1620 1621 1622 1623 1624 1625 1626 1627 1628 1629 1630 1631 1632 1633 1634 1635 1636 1637 1638 1639 1640 1641 1642 1643 1644 1645 1646 1647 1648 1649 1650 1651 1652 1653 1654 1655 1656 1657 1658 1659 1660 1661 1662 1663 1664 1665 1666 1667 1668 1669 1670 1671 1672 1673 1674 1675 1676 1677 1678 1679 1680 1681 1682 1683 1684 1685 1686 1687 1688 1689 1690 1691 1692 1693 1694 1695 1696 1697 1698 1699 1700 1701 1702 1703 1704 1705 1706 1707 1708 1709 1710 1711 1712 1713 1714 1715 1716 1717 1718 1719 1720 1721 1722 1723 1724 1725 1726 1727 1728 1729 1730 1731 1732 1733 1734 1735 1736 1737 1738 1739 1740 1741 1742 1743 1744 1745 1746 1747 1748 1749 1750 1751 1752 1753 1754 1755 1756 1757 1758 1759 1760 1761 1762 1763 1764 1765 1766 1767 1768 1769 1770 1771 1772 1773 1774 1775 1776 1777 1778 1779 1780 1781 1782 1783 1784 1785 1786 1787 1788 1789 1790 1791 1792 1793 1794 1795 1796 1797 1798 1799 1800 1801 1802 1803 1804 1805 1806 1807 1808 1809 1810 1811 1812 1813 1814 1815 1816 1817 1818 1819 1820 1821 1822 1823 1824 1825 1826 1827 1828 1829 1830 1831 1832 1833 1834 1835 1836 1837 1838 1839 1840 1841 1842 1843 1844 1845 1846 1847 1848 1849 1850 1851 1852 1853 1854 1855 1856 1857 1858 1859 1860 1861 1862 1863 1864 1865 1866 1867 1868 1869 1870 1871 1872 1873 1874 1875 1876 1877 1878 1879 1880 1881 1882 1883 1884 1885 1886 1887 1888 1889 1890 1891 1892 1893 1894 1895 1896 1897 1898 1899 1900 1901 1902 1903 1904 1905 1906 1907 1908 1909 1910 1911 1912 1913 1914 1915 1916 1917 1918 1919 1920 1921 1922 1923 1924 1925 1926 1927 1928 1929 1930 1931 1932 1933 1934 1935 1936 1937 1938 1939 1940 1941 1942 1943 1944 1945 1946 1947 1948 1949 1950 1951 1952 1953 1954 1955 1956 1957 1958 1959 1960 1961 1962 1963 1964 1965 1966 1967 1968 1969 1970 1971 1972 1973 1974 1975 1976 1977 1978 1979 1980 1981 1982 1983 1984 1985 1986 1987 1988 1989 1990 1991 1992 1993 1994 1995 1996 1997 1998 1999 2000 2001 2002 2003 2004 2005 2006 2007 2008 2009 2010 2011 2012 2013 2014 2015 2016 2017 2018 2019 2020 2021 2022 2023 2024 2025 2026 2027 2028 2029 2030 2031 2032 2033 2034 2035 2036 2037 2038 2039 2040 2041 2042 2043 2044 2045 2046 2047 2048 2049 2050 2051 2052 2053 2054 2055 2056 2057 2058 2059 2060 2061 2062 2063 2064 2065 2066 2067 2068 2069 2070 2071 2072 2073 2074 2075 2076 2077 2078 2079 2080 2081 2082 2083 2084 2085 2086 2087 2088 2089 2090 2091 2092 2093 2094 2095 2096 2097 2098 2099 2100 2101 2102 2103 2104 2105 2106 2107 2108 2109 2110 2111 2112 2113 2114 2115 2116 2117 2118 2119 2120 2121 2122 2123 2124 2125 2126 2127 2128 2129 2130 2131 2132 2133 2134 2135 2136 2137 2138 2139 2140 2141 2142 2143 2144 2145 2146 2147 2148 2149 2150 2151 2152 2153 2154 2155 2156 2157 2158 2159 2160 2161 2162 2163 2164 2165 2166 2167 2168 2169 2170 2171 2172 2173 2174 2175 2176 2177 2178 2179 2180 2181 2182 2183 2184 2185 2186 2187 2188 2189 2190 2191 2192 2193 2194 2195 2196 2197 2198 2199 2200 2201 2202 2203 2204 2205 2206 2207 2208 2209 2210 2211 2212 2213 2214 2215 2216 2217 2218 2219 2220 2221 2222 2223 2224 2225 2226 2227 2228 2229 2230 2231 2232 2233 2234 2235 2236 2237 2238 2239 2240 2241 2242 2243 2244 2245 2246 2247 2248 2249 2250 2251 2252 2253 2254 2255 2256 2257 2258 2259 2260 2261 2262 2263 2264 2265 2266 2267 2268 2269 2270 2271 2272 2273 2274 2275 2276 2277 2278 2279 2280 2281 2282 2283 2284 2285 2286 2287 2288 2289 2290 2291 2292 2293 2294 2295 2296 2297 2298 2299 2300 2301 2302 2303 2304 2305 2306 2307 2308 2309 2310 2311 2312 2313 2314 2315 2316 2317 2318 2319 2320 2321 2322 2323 2324 2325 2326 2327 2328 2329 2330 2331 2332 2333 2334 2335 2336 2337 2338 2339 2340 2341 2342 2343 2344 2345 2346 2347 2348 2349 2350 2351 2352 2353 2354 2355 2356 2357 2358 2359 2360 2361 2362 2363 2364 2365 2366 2367 2368 2369 2370 2371 2372 2373 2374 2375 2376 2377 2378 2379 2380 2381 2382 2383 2384 2385 2386 2387 2388 2389 2390 2391 2392 2393 2394 2395 2396 2397 2398 2399 2400 2401 2402 2403 2404 2405 2406 2407 2408 2409 2410 2411 2412 2413 2414 2415 2416 2417 2418 2419 2420 2421 2422 2423 2424 2425 2426 2427 2428 2429 2430 2431 2432 2433 2434 2435 2436 2437 2438 2439 2440 2441 2442 2443 2444 2445 2446 2447 2448 2449 2450 2451 2452 2453 2454 2455 2456 2457 2458 2459 2460 2461 2462 2463 2464 2465 2466 2467 2468 2469 2470 2471 2472 2473 2474 2475 2476 2477 2478 2479 2480 2481 2482 2483 2484 2485 2486 2487 2488 2489 2490 2491 2492 2493 2494 2495 2496 2497 2498 2499 2500 2501 2502 2503 2504 2505 2506 2507 2508 2509 2510 2511 2512 2513 2514 2515 2516 2517 2518 2519 2520 2521 2522 2523 2524 2525 2526 2527 2528 2529 2530 2531 2532 2533 2534 2535 2536 2537 2538 2539 2540 2541 2542 2543 2544 2545 2546 2547 2548 2549 2550 2551 2552 2553 2554 2555 2556 2557 2558 2559 2560 2561 2562 2563 2564 2565 2566 2567 2568 2569 2570 2571 2572 2573 2574 2575 2576 2577 2578 2579 2580 2581 2582 2583 2584 2585 2586 2587 2588 2589 2590 2591 2592 2593 2594 2595 2596 2597 2598 2599 2600 2601 2602 2603 2604 2605 2606 2607 2608 2609 2610 2611 2612 2613 2614 2615 2616 2617 2618 2619 2620 2621 2622 2623 2624 2625 2626 2627 2628 2629 2630 2631 2632 2633 2634 2635 2636 2637 2638 2639 2640 2641 2642 2643 2644 2645 2646 2647 2648 2649 2650 2651 2652 2653 2654 2655 2656 2657 2658 2659 2660 2661 2662 2663 2664 2665 2666 2667 2668 2669 2670 2671 2672 2673 2674 2675 2676 2677 2678 2679 2680 2681 2682 2683 2684 2685 2686 2687 2688 2689 2690 2691 2692 2693 2694 2695 2696 2697 2698 2699 2700 2701 2702 2703 2704 2705 2706 2707 2708 2709 2710 2711 2712 2713 2714 2715 2716 2717 2718 2719 2720 2721 2722 2723 2724 2725 2726 2727 2728 2729 2730 2731 2732 2733 2734 2735 2736 2737 2738 2739 2740 2741 2742 2743 2744 2745 2746 2747 2748 2749 2750 2751 2752 2753 2754 2755 2756 2757 2758 2759 2760 2761 2762 2763 2764 2765 2766 2767 2768 2769 2770 2771 2772 2773 2774 2775 2776 2777 2778 2779 2780 2781 2782 2783 2784 2785 2786 2787 2788 2789 2790 2791 2792 2793 2794 2795 2796 2797 2798 2799 2800 2801 2802 2803 2804 2805 2806 2807 2808 2809 2810 2811 2812 2813 2814 2815 2816 2817 2818 2819 2820 2821 2822 2823 2824 2825 2826 2827 2828 2829 2830 2831 2832 2833 2834 2835 2836 2837 2838 2839 2840 2841 2842 2843 2844 2845 2846 2847 2848 2849 2850 2851 2852 2853 2854 2855 2856 2857 2858 2859 2860 2861 2862 2863 2864 2865 2866 2867 2868 2869 2870 2871 2872 2873 2874 2875 
</DataArray>
<DataArray type="UInt32" Name="offsets" format="ascii">
4 8 12 16 20 24 28 32 36 40 44 48 52 56 60 64 68 72 76 80 84 88 92 96 100 104 108 112 116 120 124 128 132 136 140 144 148 152 156 160 164 168 172 176 180 184 188 192 196 200 204 208 212 216 220 224 228 232 236 240 244 248 252 256 260 264 268 272 276 280 284 288 292 296 300 304 308 312 316 320 324 328 332 336 340 344 348 352 356 360 364 368 372 376 380 384 388 392 396 400 404 408 412 416 420 424 428 432 436 440 444 448 452 456 460 464 468 472 476 480 484 488 492 496 500 504 508 512 516 520 524 528 532 536 540 544 548 552 556 560 564 568 572 576 580 584 588 592 596 600 604 608 612 616 620 624 628 632 636 640 644 648 652 656 660 664 668 672 676 680 684 688 692 696 700 704 708 712 716 720 724 728 732 736 740 744 748 752 756 760 764 768 772 776 780 784 788 792 796 800 804 808 812 816 820 824 828 832 836 840 844 848 852 856 860 864 868 872 876 880 884 888 892 896 900 904 908 912 916 920 924 928 932 936 940 944 948 952 956 960 964 968 972 976 980 984 988 992 996 1000 1004 1008 1012 1016 1020 1024 1028 1032 1036 1040 1044 1048 1052 1056 1060 1064 1068 1072 1076 1080 1084 1088 1092 1096 1100 1104 1108 1112 1116 1120 1124 1128 1132 1136 1140 1144 1148 1152 1156 1160 1164 1168 1172 1176 1180 1184 1188 1192 1196 1200 1204 1208 1212 1216 1220 1224 1228 1232 1236 1240 1244 1248 1252 1256 1260 1264 1268 1272 1276 1280 1284 1288 1292 1296 1300 1304 1308 1312 1316 1320 1324 1328 1332 1336 1340 1344 1348 1352 1356 1360 1364 1368 1372 1376 1380 1384 1388 1392 1396 1400 1404 1408 1412 1416 1420 1424 1428 1432 1436 1440 1444 1448 1452 1456 1460 1464 1468 1472 1476 1480 1484 1488 1492 1496 1500 1504 1508 1512 1516 1520 1524 1528 1532 1536 1540 1544 1548 1552 1556 1560 1564 1568 1572 1576 1580 1584 1588 1592 1596 1600 1604 1608 1612 1616 1620 1624 1628 1632 1636 1640 1644 1648 1652 1656 1660 1664 1668 1672 1676 1680 1684 1688 1692 1696 1700 1704 1708 1712 1716 1720 1724 1728 1732 1736 1740 1744 1748 1752 1756 1760 1764 1768 1772 1776 1780 1784 1788 1792 1796 1800 1804 1808 1812 1816 1820 1824 1828 1832 1836 1840 1844 1848 1852 1856 1860 1864 1868 1872 1876 1880 1884 1888 1892 1896 1900 1904 1908 1912 1916 1920 1924 1928 1932 1936 1940 1944 1948 1952 1956 1960 1964 1968 1972 1976 1980 1984 1988 1992 1996 2000 2004 2008 2012 2016 2020 2024 2028 2032 2036 2040 2044 2048 2052 2056 2060 2064 2068 2072 2076 2080 2084 2088 2092 2096 2100 2104 2108 2112 2116 2120 2124 2128 2132 2136 2140 2144 2148 2152 2156 2160 2164 2168 2172 2176 2180 2184 2188 2192 2196 2200 2204 2208 2212 2216 2220 2224 2228 2232 2236 2240 2244 2248 2252 2256 2260 2264 2268 2272 2276 2280 2284 2288 2292 2296 2300 2304 2308 2312 2316 2320 2324 2328 2332 2336 2340 2344 2348 2352 2356 2360 2364 2368 2372 2376 2380 2384 2388 2392 2396 2400 2404 2408 2412 2416 2420 2424 2428 2432 2436 2440 2444 2448 2452 2456 2460 2464 2468 2472 2476 2480 2484 2488 2492 2496 2500 2504 2508 2512 2516 2520 2524 2528 2532 2536 2540 2544 2548 2552 2556 2560 2564 2568 2572 2576 2580 2584 2588 2592 2596 2600 2604 2608 2612 2616 2620 2624 2628 2632 2636 2640 2644 2648 2652 2656 2660 2664 2668 2672 2676 2680 2684 2688 2692 2696 2700 2704 2708 2712 2716 2720 2724 2728 2732 2736 2740 2744 2748 2752 2756 2760 2764 2768 2772 2776 2780 2784 2788 2792 2796 2800 2804 2808 2812 2816 2820 2824 2828 2832 2836 2840 2844 2848 2852 2856 2860 2864 2868 2872 2876 
</DataArray>
<DataArray type="UInt32" Name="types" format="ascii">
10 10 10 10 10 10 10 10 10 10 10 10 10 10 10 10 10 10 10 10 10 10 10 10 10 10 10 10 10 10 10 10 10 10 10 10 10 10 10 10 10 10 10 10 10 10 10 10 10 10 10 10 10 10 10 10 10 10 10 10 10 10 10 10 10 10 10 10 10 10 10 10 10 10 10 10 10 10 10 10 10 10 10 10 10 10 10 10 10 10 10 10 10 10 10 10 10 10 10 10 10 10 10 10 10 10 10 10 10 10 10 10 10 10 10 10 10 10 10 10 10 10 10 10 10 10 10 10 10 10 10 10 10 10 10 10 10 10 10 10 10 10 10 10 10 10 10 10 10 10 10 10 10 10 10 10 10 10 10 10 10 10 10 10 10 10 10 10 10 10 10 10 10 10 10 10 10 10 10 10 10 10 10 10 10 10 10 10 10 10 10 10 10 10 10 10 10 10 10 10 10 10 10 10 10 10 10 10 10 10 10 10 10 10 10 10 10 10 10 10 10 10 10 10 10 10 10 10 10 10 10 10 10 10 10 10 10 10 10 10 10 10 10 10 10 10 10 10 10 10 10 10 10 10 10 10 10 10 10 10 10 10 10 10 10 10 10 10 10 10 10 10 10 10 10 10 10 10 10 10 10 10 10 10 10 10 10 10 10 10 10 10 10 10 10 10 10 10 10 10 10 10 10 10 10 10 10 10 10 10 10 10 10 10 10 10 10 10 10 10 10 10 10 10 10 10 10 10 10 10 10 10 10 10 10 10 10 10 10 10 10 10 10 10 10 10 10 10 10 10 10 10 10 10 10 10 10 10 10 10 10 10 10 10 10 10 10 10 10 10 10 10 10 10 10 10 10 10 10 10 10 10 10 10 10 10 10 10 10 10 10 10 10 10 10 10 10 10 10 10 10 10 10 10 10 10 10 10 10 10 10 10 10 10 10 10 10 10 10 10 10 10 10 10 10 10 10 10 10 10 10 10 10 10 10 10 10 10 10 10 10 10 10 10 10 10 10 10 10 10 10 10 10 10 10 10 10 10 10 10 10 10 10 10 10 10 10 10 10 10 10 10 10 10 10 10 10 10 10 10 10 10 10 10 10 10 10 10 10 10 10 10 10 10 10 10 10 10 10 10 10 10 10 10 10 10 10 10 10 10 10 10 10 10 10 10 10 10 10 10 10 10 10 10 10 10 10 10 10 10 10 10 10 10 10 10 10 10 10 10 10 10 10 10 10 10 10 10 10 10 10 10 10 10 10 10 10 10 10 10 10 10 10 10 10 10 10 10 10 10 10 10 10 10 10 10 10 10 10 10 10 10 10 10 10 10 10 10 10 10 10 10 10 10 10 10 10 10 10 10 10 10 10 10 10 10 10 10 10 10 10 10 10 10 10 10 10 10 10 10 10 10 10 10 10 10 10 10 10 10 10 10 10 10 10 10 10 10 10 10 10 10 10 10 10 10 10 10 10 10 10 10 10 10 10 10 10 10 10 10 10 10 10 10 10 10 10 10 10 10 10 10 10 10 10 10 10 10 10 10 10 10 10 10 10 10 10 10 10 10 10 10 10 10 10 10 10 10 10 10 10 10 10 10 10 10 10 10 10 10 10 10 10 10 10 10 10 10 10 
</DataArray>
</Cells>
<PointData Scalars="" Vectors="displacement," Tensors="">
<DataArray type="Float64" Name="displacement" NumberOfComponents="3" format="ascii">
9.8789936028992348e-06 -2.1100300745451784e-10 -1.261195087077849e-09 5.2908890038636768e-06 -1.4558764210028131e-10 -1.2146675577511492e-09 4.5756402910950147e-06 -2.1910193417998397e-10 -9.7080161954764592e-10 9.7686685694409679e-06 -9.7662422924667755e-11 -2.9304589531428014e-05 2.0777482025836277e-14 -2.3477458753543236e-10 -1.2115001067863736e-09 1.6466027118430782e-14 -3.2503644839230805e-10 -1.3077257688946797e-09 4.5756402910950147e-06 -2.1910193417998397e-10 -9.7080161954712562e-10 -2.7584438190405874e-14 -2.0287331041238976e-10 -1.3726799989521612e-05 1.6466027118430789e-14 -3.2503644839230805e-10 -1.3077257688935688e-09 6.2503483063338468e-06 -3.5504265181796722e-10 -1.3765610027922397e-09 4.5756402910950147e-06 -2.1910193417998397e-10 -9.7080161954712562e-10 4.575637505007646e-06 -2.3769875155246956e-10 -1.3726825401020502e-05 -2.7584438190405874e-14 -2.0287331041238976e-10 -1.3726799989521612e-05 6.3397542921047619e-15 -3.0964201719306421e-10 -1.8750782909653806e-05 1.6466027118430789e-14 -3.2503644839230805e-10 -1.3077257688935688e-09 4.575637505007646e-06 -2.3769875155246956e-10 -1.3726825401020502e-05 -2.7584438190405874e-14 -2.0287331041238976e-10 -1.3726799989521612e-05 -1.260880465505819e-14 -8.7917046409556618e-11 -1.5872510629248062e-05 -1.0880902588128003e-16 -1.8969837614360798e-10 -2.9635579437456519e-05 9.7686685694409729e-06 -9.7662422924667691e-11 -2.9304589531428007e-05 9.8689609290034177e-06 -3.2053089439334464e-10 -1.748792298307314e-05 4.5756375050076452e-06 -2.3769875155246956e-10 -1.37268254010205e-05 5.2935648674967375e-06 -3.0073951142949417e-10 -2.8136226679733018e-05 9.7686685694409679e-06 -9.7662422924667755e-11 -2.9304589531428014e-05 -2.7584438190405874e-14 -2.0287331041238976e-10 -1.3726799989521612e-05 1.6466026748143077e-14 -3.25036448392308e-10 -1.3077257688930133e-09 4.5756402910950147e-06 -2.1910193417998397e-10 -9.7080161954712562e-10 4.575637505007646e-06 -2.3769875155246956e-10 -1.3726825401020502e-05 4.5756402910950147e-06 -2.1910193417998397e-10 -9.7080161954712562e-10 4.5756375050076452e-06 -2.3769875155246956e-10 -1.3726825401020507e-05 9.8689609290034177e-06 -3.2053089439334464e-10 -1.748792298307314e-05 9.7686685694409679e-06 -9.7662422924667755e-11 -2.9304589531428014e-05 4.5756402910950147e-06 -2.1910193417998397e-10 -9.7080161954712562e-10 -1.2608804478312317e-14 -8.7917046409556579e-11 -1.5872510629248059e-05 -2.7584437836609621e-14 -2.0287331041238979e-10 -1.3726799989521613e-05 9.7686685694409679e-06 -9.7662422924667755e-11 -2.9304589531428014e-05 4.5756402910950147e-06 -2.1910193417998397e-10 -9.7080161954712562e-10 -2.7584438148532793e-14 -2.0287331041238976e-10 -1.372679998952161e-05 4.575637505007646e-06 -2.3769875155246956e-10 -1.3726825401020502e-05 9.7686685694409679e-06 -9.7662422924667742e-11 -2.9304589531428014e-05 -2.7584438190405874e-14 -2.0287331041238976e-10 -1.3726799989521612e-05 5.2935648674967392e-06 -3.0073951142949417e-10 -2.8136226679733015e-05 4.575637505007646e-06 -2.3769875155246956e-10 -1.3726825401020502e-05 9.7686685694409696e-06 -9.7662422924667768e-11 -2.9304589531428021e-05 4.575637505007646e-06 -2.3769875155246956e-10 -1.3726825401020502e-05 -2.7584438129202157e-14 -2.0287331041238976e-10 -1.3726799989521612e-05 6.3397536507474432e-15 -3.0964201719306421e-10 -1.8750782909653806e-05 5.2935648674967375e-06 -3.0073951142949417e-10 -2.8136226679733018e-05 -1.0880902588128003e-16 -1.8969837614360798e-10 -2.9635579437456519e-05 6.3397536507474432e-15 -3.0964201719306421e-10 -1.8750782909653806e-05 -2.7584438190405874e-14 -2.0287331041238976e-10 -1.3726799989521612e-05 5.2935648674967375e-06 -3.0073951142949417e-10 -2.8136226679733018e-05 -2.7584438190405874e-14 -2.0287331041238976e-10 -1.3726799989521612e-05 4.5756402910950147e-06 -2.1910193417998397e-10 -9.7080161954712562e-10 2.0777482025836277e-14 -2.3477458753543236e-10 -1.2115001067862845e-09 -1.260880465505819e-14 -8.7917046409556618e-11 -1.5872510629248062e-05 -1.260880465505819e-14 -8.7917046409556618e-11 -1.5872510629248062e-05 4.5756402910950155e-06 -2.1910193417998394e-10 -9.7080161955107789e-10 2.0777482025836277e-14 -2.3477458753543236e-10 -1.2115001067863736e-09 5.2908890038636768e-06 -1.4558764210028131e-10 -1.2146675577511492e-09 6.2503483063338468e-06 -3.5504265181796722e-10 -1.3765610027922397e-09 4.5756402910950138e-06 -2.1910193417998397e-10 -9.7080161954865322e-10 9.8689609290034177e-06 -3.2053089439334464e-10 -1.748792298307314e-05 9.8789936028992348e-06 -2.1100300745451784e-10 -1.261195087077849e-09 6.2503483063338468e-06 -3.5504265181796722e-10 -1.3765610027922397e-09 4.5756402910950155e-06 -2.1910193417998397e-10 -9.7080161954711259e-10 4.5756375050076443e-06 -2.3769875155246951e-10 -1.3726825401020504e-05 9.8689609290034177e-06 -3.2053089439334464e-10 -1.748792298307314e-05 9.8689609290034177e-06 -3.2053089439334464e-10 -1.748792298307314e-05 1.2500837365116815e-05 -3.2551890321684459e-10 -1.6298269848375935e-09 6.2503483063338468e-06 -3.5504265181796722e-10 -1.3765610027930977e-09 9.8789936028992348e-06 -2.1100300745451784e-10 -1.261195087077849e-09 9.8689609290034177e-06 -3.2053089439334464e-10 -1.748792298307314e-05 9.8789936028992348e-06 -2.1100300745451784e-10 -1.2611950870779156e-09 4.575640291095013e-06 -2.1910193417998394e-10 -9.708016195479952e-10 9.7686685694409662e-06 -9.7662422924667729e-11 -2.9304589531428011e-05 9.8789936028992348e-06 -2.1100300745451784e-10 -1.261195087077849e-09 9.7686685694409645e-06 -9.7662422924667742e-11 -2.9304589531428018e-05 9.8689609290034177e-06 -3.2053089439334464e-10 -1.748792298307314e-05 1.563855769721029e-05 -2.1717704494888214e-10 -2.1173444485168604e-05 9.8789936028992348e-06 -2.1100300745451784e-10 -1.261195087077849e-09 1.543597164672789e-05 -3.0158500085422828e-10 -1.2411370088641567e-05 1.5928202697905011e-05 -1.9231572627623468e-10 -1.1798400389091704e-09 1.5638557697210287e-05 -2.1717704494888211e-10 -2.1173444485168607e-05 9.8789936028992348e-06 -2.1100300745451784e-10 -1.261195087077849e-09 1.5928202697905011e-05 -1.9231572627623468e-10 -1.1798400389120508e-09 1.4317302933629028e-05 -1.1966122122557283e-10 -1.0177412497310061e-09 1.5638557697210287e-05 -2.1717704494888216e-10 -2.1173444485168607e-05 1.543597164672789e-05 -3.0158500085422833e-10 -1.2411370088641572e-05 1.2500837365116815e-05 -3.2551890321684459e-10 -1.6298269848375935e-09 9.8789936028992382e-06 -2.1100300745451792e-10 -1.2611950870717825e-09 1.5928202697905011e-05 -1.9231572627623468e-10 -1.1798400389091704e-09 1.543597164672789e-05 -3.0158500085422833e-10 -1.2411370088641572e-05 1.2500837365116815e-05 -3.2551890321684459e-10 -1.6298269848375935e-09 9.8689609290034177e-06 -3.2053089439334464e-10 -1.748792298307314e-05 9.8789936028992348e-06 -2.1100300745451792e-10 -1.2611950870761694e-09 9.8689609290034177e-06 -3.2053089439334464e-10 -1.748792298307314e-05 1.4903608652116738e-05 -3.692257276761122e-10 -2.9757922028204959e-05 1.543597164672789e-05 -3.0158500085422833e-10 -1.2411370088641572e-05 1.5638557697210287e-05 -2.1717704494888214e-10 -2.1173444485168604e-05 9.8789936028992348e-06 -2.1100300745451784e-10 -1.261195087077849e-09 9.8689609290034177e-06 -3.2053089439334464e-10 -1.7487922983073133e-05 1.5435971646727887e-05 -3.0158500085422828e-10 -1.2411370088641575e-05 1.5638557697210287e-05 -2.1717704494888211e-10 -2.117344448516861e-05 9.6976445600722697e-06 -2.5740277653551457e-10 -5.0793657663276336e-05 1.5649080197213527e-05 -1.6205830801956777e-10 -4.9581342359516047e-05 1.0046357423832341e-05 -2.7787165709112766e-10 -3.6317384210610197e-05 6.9032058486159787e-06 -1.5973986522696944e-10 -4.6879649301062965e-05 1.0046357423832341e-05 -2.7787165709112766e-10 -3.6317384210610197e-05 9.7686685694409679e-06 -9.7662422924667755e-11 -2.9304589531428014e-05 5.2935648674967375e-06 -3.0073951142949417e-10 -2.8136226679733018e-05 6.9032058486159779e-06 -1.5973986522696947e-10 -4.6879649301062965e-05 1.0046357423832341e-05 -2.7787165709112766e-10 -3.6317384210610197e-05 1.564908019721353e-05 -1.6205830801956775e-10 -4.958134235951604e-05 9.7686685694409696e-06 -9.7662422924667768e-11 -2.9304589531428014e-05 6.9032058486159787e-06 -1.5973986522696947e-10 -4.6879649301062972e-05 1.0046357423832341e-05 -2.7787165709112766e-10 -3.6317384210610197e-05 1.5649080197213527e-05 -1.6205830801956775e-10 -4.9581342359516047e-05 1.490360865211674e-05 -3.6922572767611225e-10 -2.9757922028204959e-05 1.5638557697210287e-05 -2.1717704494888214e-10 -2.1173444485168604e-05 1.0046357423832341e-05 -2.7787165709112766e-10 -3.6317384210610197e-05 9.7686685694409696e-06 -9.7662422924667768e-11 -2.9304589531428011e-05 1.564908019721353e-05 -1.6205830801956777e-10 -4.9581342359516047e-05 1.5638557697210283e-05 -2.1717704494888209e-10 -2.1173444485168607e-05 1.0046357423832341e-05 -2.7787165709112766e-10 -3.6317384210610197e-05 9.868960929003416e-06 -3.2053089439334464e-10 -1.7487922983073136e-05 5.2935648674967375e-06 -3.0073951142949417e-10 -2.8136226679733018e-05 9.7686685694409679e-06 -9.7662422924667755e-11 -2.9304589531428014e-05 9.8689609290034177e-06 -3.2053089439334464e-10 -1.748792298307314e-05 9.7686685694409679e-06 -9.7662422924667755e-11 -2.9304589531428014e-05 1.0046357423832341e-05 -2.7787165709112766e-10 -3.6317384210610197e-05 1.5638557697210287e-05 -2.1717704494888214e-10 -2.1173444485168604e-05 9.8689609290034177e-06 -3.2053089439334464e-10 -1.748792298307314e-05 1.0046357423832341e-05 -2.7787165709112766e-10 -3.6317384210610197e-05 1.490360865211674e-05 -3.692257276761123e-10 -2.9757922028204959e-05 1.5638557697210287e-05 -2.1717704494888214e-10 -2.1173444485168604e-05 9.6976445600722697e-06 -2.5740277653551457e-10 -5.0793657663276336e-05 1.5626071302713204e-05 -3.190984609223168e-10 -4.5036316080773629e-05 1.0046357423832341e-05 -2.7787165709112766e-10 -3.6317384210610197e-05 1.564908019721353e-05 -1.6205830801956782e-10 -4.9581342359516047e-05 1.0046357423832341e-05 -2.7787165709112766e-10 -3.6317384210610197e-05 1.5626071302713204e-05 -3.190984609223168e-10 -4.5036316080773629e-05 1.4903608652116738e-05 -3.692257276761122e-10 -2.9757922028204959e-05 1.564908019721353e-05 -1.6205830801956777e-10 -4.9581342359516047e-05 5.1161892602844377e-06 -2.9973492244648184e-10 -4.5812526089942187e-05 9.6976445600722697e-06 -2.5740277653551457e-10 -5.0793657663276336e-05 1.0046357423832341e-05 -2.7787165709112766e-10 -3.6317384210610197e-05 6.9032058486159787e-06 -1.5973986522696947e-10 -4.6879649301062965e-05 5.1161892602844377e-06 -2.9973492244648184e-10 -4.5812526089942187e-05 1.0046357423832341e-05 -2.7787165709112766e-10 -3.6317384210610197e-05 5.2935648674967375e-06 -3.0073951142949417e-10 -2.8136226679733018e-05 6.9032058486159787e-06 -1.5973986522696947e-10 -4.6879649301062965e-05 5.2935648674967375e-06 -3.0073951142949417e-10 -2.8136226679733018e-05 -2.7584438190405874e-14 -2.0287331041238976e-10 -1.3726799989521612e-05 -1.0880934483411814e-16 -1.8969837614360801e-10 -2.9635579437456519e-05 9.7686685694409679e-06 -9.7662422924667742e-11 -2.9304589531428007e-05 -1.0880902588128003e-16 -1.8969837614360798e-10 -2.9635579437456519e-05 5.116189260284436e-06 -2.997349224464819e-10 -4.5812526089942187e-05 5.2935648674967375e-06 -3.0073951142949417e-10 -2.8136226679733018e-05 6.9032058486159813e-06 -1.5973986522696944e-10 -4.6879649301062965e-05 -1.0880902588128003e-16 -1.8969837614360798e-10 -2.9635579437456519e-05 5.2935648674967367e-06 -3.0073951142949417e-10 -2.8136226679733018e-05 9.7686685694409679e-06 -9.7662422924667742e-11 -2.9304589531428014e-05 6.9032058486159787e-06 -1.5973986522696944e-10 -4.6879649301062965e-05 4.6669311017823548e-15 -3.6096282446792458e-10 -3.750035940362141e-05 9.7044452581437711e-15 -4.0660759860004641e-10 -5.6249920007074988e-05 5.1161892602844377e-06 -2.9973492244648184e-10 -4.5812526089942187e-05 -5.4650658373802926e-15 -2.3725793323064358e-10 -4.7781479647208462e-05 4.6669311017823548e-15 -3.6096282446792458e-10 -3.750035940362141e-05 -1.0880902588128003e-16 -1.8969837614360798e-10 -2.9635579437456519e-05 5.1161892602844377e-06 -2.9973492244648184e-10 -4.5812526089942187e-05 5.2935648674967375e-06 -3.0073951142949417e-10 -2.8136226679733018e-05 5.1161892602844377e-06 -2.9973492244648184e-10 -4.5812526089942187e-05 -1.0880859949166069e-16 -1.8969837614360798e-10 -2.9635579437456516e-05 4.6669311142399918e-15 -3.6096282446792458e-10 -3.750035940362141e-05 -5.4650658373802926e-15 -2.3725793323064358e-10 -4.7781479647208462e-05 -1.0880902588128003e-16 -1.8969837614360798e-10 -2.9635579437456519e-05 4.6669320623520668e-15 -3.6096282446792458e-10 -3.750035940362141e-05 6.3397536507474432e-15 -3.0964201719306421e-10 -1.8750782909653806e-05 5.2935648674967375e-06 -3.0073951142949417e-10 -2.8136226679733018e-05 -1.0880902588128003e-16 -1.8969837614360798e-10 -2.9635579437456519e-05 -5.4650658373802926e-15 -2.3725793323064358e-10 -4.7781479647208462e-05 5.1161892602844377e-06 -2.9973492244648184e-10 -4.5812526089942187e-05 6.9032058486159813e-06 -1.5973986522696942e-10 -4.6879649301062965e-05 -1.0880902588128003e-16 -1.8969837614360798e-10 -2.9635579437456519e-05 -2.3467338582567928e-15 -1.0874590927930875e-10 -4.2949300631835607e-05 -5.4650655919437346e-15 -2.3725793323064358e-10 -4.7781479647208462e-05 6.9032058486159804e-06 -1.5973986522696944e-10 -4.6879649301062965e-05 -1.260880465505819e-14 -8.7917046409556618e-11 -1.5872510629248062e-05 4.0089708127292434e-15 -4.7002119375244528e-11 -3.0867979861132284e-05 -1.0880902588128003e-16 -1.8969837614360798e-10 -2.9635579437456519e-05 9.7686685694409679e-06 -9.7662422924667755e-11 -2.9304589531428014e-05 -2.3467340287482563e-15 -1.0874590927930872e-10 -4.2949300631835607e-05 9.7686685694409662e-06 -9.7662422924667755e-11 -2.9304589531428004e-05 7.7409119284633939e-06 2.1079606242772439e-11 -4.2280071442435221e-05 6.9032058486159787e-06 -1.5973986522696947e-10 -4.6879649301062965e-05 -1.0880902588128003e-16 -1.8969837614360798e-10 -2.9635579437456519e-05 4.0089711596129035e-15 -4.7002119375244528e-11 -3.0867979861132284e-05 -2.346734050428485e-15 -1.0874590927930872e-10 -4.2949300631835607e-05 9.7686685694409679e-06 -9.7662422924667755e-11 -2.9304589531428014e-05 4.0089708127292434e-15 -4.7002119375244528e-11 -3.0867979861132284e-05 7.7409119284633956e-06 2.1079606242772432e-11 -4.2280071442435221e-05 9.7686685694409679e-06 -9.7662422924667755e-11 -2.9304589531428014e-05 6.9835818880048364e-06 1.0422261276845161e-11 -2.095009652823448e-05 -2.3467340287482563e-15 -1.0874590927930872e-10 -4.2949300631835607e-05 9.7686685694409679e-06 -9.7662422924667794e-11 -2.9304589531428011e-05 4.0089708127292434e-15 -4.7002119375244528e-11 -3.0867979861132284e-05 7.7409119284633939e-06 2.1079606242772439e-11 -4.2280071442435221e-05 -1.260880465505819e-14 -8.7917046409556618e-11 -1.5872510629248062e-05 4.0089708127292434e-15 -4.7002119375244528e-11 -3.0867979861132284e-05 9.7686685694409662e-06 -9.7662422924667794e-11 -2.9304589531428018e-05 6.9835818880048339e-06 1.0422261276845127e-11 -2.0950096528234493e-05 -1.0880902588128003e-16 -1.8969837614360798e-10 -2.9635579437456519e-05 9.7686685694409679e-06 -9.7662422924667742e-11 -2.9304589531428014e-05 -2.3467341093157241e-15 -1.0874590927930871e-10 -4.2949300631835607e-05 6.9032058486159796e-06 -1.597398652269695e-10 -4.6879649301062972e-05 -2.3467340287482563e-15 -1.0874590927930872e-10 -4.2949300631835607e-05 4.0089705717269357e-15 -4.7002119375244534e-11 -3.0867979861132284e-05 -4.2893911781035554e-15 2.9898242751294892e-12 -4.8714039270935687e-05 7.7409119284633939e-06 2.1079606242772439e-11 -4.2280071442435221e-05 1.5626080314932658e-05 -1.8184047746446237e-12 -4.6875184481376282e-05 1.564908019721353e-05 -1.6205830801956777e-10 -4.958134235951604e-05 9.7686685694409645e-06 -9.7662422924667742e-11 -2.9304589531428007e-05 1.5638686040922115e-05 -2.1099358119152783e-11 -2.3403614258015264e-05 7.7409119284633939e-06 2.1079606242772439e-11 -4.2280071442435221e-05 1.5638686040922115e-05 -2.1099358119152813e-11 -2.3403614258015264e-05 9.7686685694409696e-06 -9.7662422924667729e-11 -2.9304589531428011e-05 6.9835818880048364e-06 1.0422261276845171e-11 -2.0950096528234486e-05 9.7686685694409679e-06 -9.7662422924667755e-11 -2.9304589531428014e-05 1.5638686040922115e-05 -2.109935811915278e-11 -2.3403614258015264e-05 1.564908019721353e-05 -1.6205830801956777e-10 -4.9581342359516047e-05 1.5638557697210287e-05 -2.1717704494888214e-10 -2.1173444485168607e-05 1.5626080314932658e-05 -1.8184047746446237e-12 -4.6875184481376282e-05 7.7409119284633939e-06 2.1079606242772439e-11 -4.2280071442435221e-05 9.7686685694409696e-06 -9.7662422924667742e-11 -2.9304589531428004e-05 1.564908019721353e-05 -1.6205830801956777e-10 -4.9581342359516047e-05 9.7686685694409679e-06 -9.7662422924667755e-11 -2.9304589531428014e-05 7.7409119284633939e-06 2.1079606242772439e-11 -4.2280071442435221e-05 1.5626080314932658e-05 -1.8184047746446404e-12 -4.6875184481376296e-05 1.5638686040922115e-05 -2.109935811915278e-11 -2.3403614258015267e-05 9.7686685694409679e-06 -9.7662422924667755e-11 -2.9304589531428014e-05 1.564908019721353e-05 -1.6205830801956777e-10 -4.9581342359516054e-05 7.7409119284633939e-06 2.1079606242772445e-11 -4.2280071442435221e-05 6.9032058486159787e-06 -1.5973986522696947e-10 -4.6879649301062965e-05 1.0289842991704204e-05 -7.4728679587136188e-11 -1.4010520735039126e-09 9.7686685694409662e-06 -9.7662422924667794e-11 -2.9304589531428014e-05 1.4317302933629028e-05 -1.1966122122557283e-10 -1.0177412497311804e-09 1.5638686040922115e-05 -2.109935811915278e-11 -2.3403614258015267e-05 1.0289842991704204e-05 -7.4728679587136188e-11 -1.4010520735039126e-09 1.5638686040922115e-05 -2.109935811915278e-11 -2.3403614258015267e-05 1.0140263871337544e-05 6.769367087914035e-11 -1.4693963860036431e-09 6.9835818880048364e-06 1.0422261276845171e-11 -2.0950096528234486e-05 1.4317302933629028e-05 -1.1966122122557283e-10 -1.0177412497310061e-09 1.5638686040922115e-05 -2.109935811915278e-11 -2.3403614258015267e-05 9.7686685694409662e-06 -9.7662422924667703e-11 -2.9304589531428014e-05 1.563855769721029e-05 -2.1717704494888216e-10 -2.11734444851686e-05 1.4317302933629028e-05 -1.1966122122557283e-10 -1.0177412497310061e-09 1.0289842991704204e-05 -7.4728679587136188e-11 -1.4010520735039126e-09 9.8789936028992348e-06 -2.1100300745451784e-10 -1.261195087077849e-09 9.7686685694409679e-06 -9.7662422924667755e-11 -2.9304589531428014e-05 5.2908890038636768e-06 -1.4558764210028131e-10 -1.2146675577511492e-09 9.7686685694409662e-06 -9.7662422924667755e-11 -2.9304589531428014e-05 1.0289842991704204e-05 -7.4728679587136188e-11 -1.4010520735039126e-09 6.9835818880048364e-06 1.0422261276845171e-11 -2.0950096528234486e-05 9.8789936028992348e-06 -2.1100300745451784e-10 -1.261195087077849e-09 1.4317302933629028e-05 -1.1966122122557283e-10 -1.0177412497310061e-09 9.7686685694409662e-06 -9.7662422924667729e-11 -2.9304589531428014e-05 1.5638557697210287e-05 -2.1717704494888219e-10 -2.1173444485168607e-05 1.0289842991704204e-05 -7.4728679587136188e-11 -1.4010520735039126e-09 9.7686685694409696e-06 -9.7662422924667859e-11 -2.9304589531428014e-05 1.5638686040922115e-05 -2.109935811915278e-11 -2.3403614258015267e-05 6.9835818880048381e-06 1.0422261276845209e-11 -2.0950096528234483e-05 1.0289842991704204e-05 -7.4728679587136188e-11 -1.4010520735039126e-09 5.2908890038636768e-06 -1.4558764210028134e-10 -1.214667557750777e-09 9.8789936028992348e-06 -2.1100300745451784e-10 -1.261195087077849e-09 9.7686685694409662e-06 -9.7662422924667755e-11 -2.9304589531428021e-05 1.0140263871337544e-05 6.769367087914035e-11 -1.4693963860036431e-09 1.0289842991704204e-05 -7.4728679587136188e-11 -1.4010520735039126e-09 1.6239127197677614e-05 2.3256091103425088e-11 -1.3010129882821782e-09 1.5638686040922115e-05 -2.109935811915278e-11 -2.3403614258015267e-05 1.6239127197677614e-05 2.3256091103425088e-11 -1.3010129882821782e-09 1.0289842991704204e-05 -7.4728679587136188e-11 -1.4010520735039126e-09 1.4317302933629028e-05 -1.1966122122557283e-10 -1.0177412497310061e-09 1.5638686040922115e-05 -2.109935811915278e-11 -2.3403614258015267e-05 -1.260880465505819e-14 -8.7917046409556618e-11 -1.5872510629248062e-05 4.5756402910950147e-06 -2.1910193417998397e-10 -9.7080161954712562e-10 5.2908890038636768e-06 -1.4558764210028131e-10 -1.2146675577509203e-09 9.7686685694409679e-06 -9.7662422924667755e-11 -2.9304589531428014e-05 -1.260880465505819e-14 -8.7917046409556618e-11 -1.5872510629248062e-05 9.7686685694409679e-06 -9.7662422924667833e-11 -2.9304589531428018e-05 5.2908890038636768e-06 -1.4558764210028131e-10 -1.2146675577502906e-09 6.9835818880048356e-06 1.0422261276845162e-11 -2.0950096528234486e-05 5.3835234460626092e-06 -1.0613557884372637e-11 -1.3238136754057556e-09 -1.1620626059759134e-14 -5.1184978363206174e-12 -1.6150515520702566e-05 5.2908890038636768e-06 -1.4558764210028131e-10 -1.2146675577511492e-09 6.9835818880048364e-06 1.0422261276845171e-11 -2.0950096528234486e-05 5.3835234460626092e-06 -1.0613557884372637e-11 -1.3238136754057556e-09 5.2908890038636768e-06 -1.4558764210028131e-10 -1.2146675577511492e-09 1.0289842991704204e-05 -7.4728679587136188e-11 -1.4010520735039126e-09 6.9835818880048364e-06 1.0422261276845171e-11 -2.0950096528234486e-05 -1.260880465505819e-14 -8.7917046409556618e-11 -1.5872510629248062e-05 2.0777482025836277e-14 -2.3477458753543236e-10 -1.2115001067863736e-09 2.5311763082644896e-14 -1.0459201914582129e-10 -1.546328615585919e-09 5.2908890038636768e-06 -1.4558764210028131e-10 -1.2146675577511492e-09 -1.260880465505819e-14 -8.7917046409556618e-11 -1.5872510629248062e-05 2.5311763082644896e-14 -1.0459201914582129e-10 -1.546328615585919e-09 -1.1620626379987594e-14 -5.1184978363206133e-12 -1.6150515520702566e-05 5.2908890038636768e-06 -1.4558764210028131e-10 -1.2146675577511492e-09 -1.260880465505819e-14 -8.7917046409556618e-11 -1.5872510629248062e-05 5.2908890038636768e-06 -1.4558764210028131e-10 -1.2146675577511492e-09 -1.1620626059759134e-14 -5.1184978363206174e-12 -1.6150515520702566e-05 6.9835818880048347e-06 1.0422261276845158e-11 -2.0950096528234483e-05 -1.260880465505819e-14 -8.7917046409556618e-11 -1.5872510629248062e-05 -1.1620626059759134e-14 -5.1184978363206174e-12 -1.6150515520702566e-05 4.0089707054591171e-15 -4.7002119375244528e-11 -3.0867979861132284e-05 6.9835818880048347e-06 1.0422261276845171e-11 -2.095009652823449e-05 -1.1620626059759134e-14 -5.1184978363206174e-12 -1.6150515520702566e-05 2.5311762773071554e-14 -1.0459201914582127e-10 -1.5463286155845335e-09 1.2106603276798657e-14 8.4016370751641803e-11 -1.4435592817928879e-09 5.3835234460626092e-06 -1.0613557884372637e-11 -1.3238136754057556e-09 5.2908890038636768e-06 -1.4558764210028131e-10 -1.2146675577511492e-09 2.5311763082644896e-14 -1.0459201914582129e-10 -1.546328615585919e-09 -1.1620626059759134e-14 -5.1184978363206174e-12 -1.6150515520702566e-05 5.3835234460626092e-06 -1.0613557884372637e-11 -1.3238136754057556e-09 -4.0775066627343016e-15 9.7446182698656174e-11 -1.4904186255818132e-05 1.2447832455468694e-16 5.1547802696221944e-11 -3.0419247561406519e-05 6.9835818880048381e-06 1.0422261276845145e-11 -2.0950096528234486e-05 6.0188769190828516e-06 1.4988465808958326e-10 -1.8056148385179372e-05 4.9680840057959418e-06 1.1545741475183917e-10 -1.2084210190763034e-09 -4.0775067374757335e-15 9.7446182698656174e-11 -1.490418625581813e-05 6.9835818880048364e-06 1.0422261276845167e-11 -2.095009652823449e-05 6.0188769190828524e-06 1.4988465808958326e-10 -1.8056148385179376e-05 -4.0775066627343016e-15 9.7446182698656174e-11 -1.4904186255818132e-05 5.3835234460626092e-06 -1.0613557884372637e-11 -1.3238136754057556e-09 1.2106603302649842e-14 8.4016370751641803e-11 -1.4435592817928104e-09 4.9680840057959418e-06 1.1545741475183917e-10 -1.2084210190763034e-09 1.0140263871337544e-05 6.769367087914035e-11 -1.4693963860036431e-09 4.9680840057959418e-06 1.1545741475183917e-10 -1.2084210190763034e-09 6.9835818880048373e-06 1.0422261276845174e-11 -2.095009652823449e-05 6.0188769190828524e-06 1.4988465808958329e-10 -1.8056148385179376e-05 1.2106603276798657e-14 8.4016370751641803e-11 -1.4435592817928879e-09 -1.1620626059759134e-14 -5.1184978363206174e-12 -1.6150515520702566e-05 5.3835234460626092e-06 -1.0613557884372636e-11 -1.3238136754062922e-09 -4.0775066627343016e-15 9.7446182698656174e-11 -1.4904186255818132e-05 -4.0775066627343016e-15 9.7446182698656174e-11 -1.4904186255818132e-05 1.2106603276798657e-14 8.4016370751641803e-11 -1.4435592817928879e-09 5.4841964492840867e-15 2.1556383106651646e-10 -1.1743868253663359e-09 4.9680840057959418e-06 1.1545741475183917e-10 -1.2084210190763034e-09 9.7091518218750991e-06 2.2849748716616269e-10 -1.3083136657753283e-09 4.9680840057959427e-06 1.1545741475183918e-10 -1.2084210190758838e-09 1.0140263871337544e-05 6.769367087914035e-11 -1.4693963860040654e-09 6.0188769190828524e-06 1.4988465808958329e-10 -1.8056148385179376e-05 1.0140263871337544e-05 6.769367087914035e-11 -1.4693963860036431e-09 4.9680840057959418e-06 1.1545741475183917e-10 -1.2084210190763034e-09 5.3835234460626092e-06 -1.0613557884372637e-11 -1.3238136754057556e-09 6.9835818880048364e-06 1.0422261276845171e-11 -2.0950096528234486e-05 4.9680840057959418e-06 1.1545741475183917e-10 -1.2084210190763034e-09 -4.077506809401892e-15 9.7446182698656174e-11 -1.490418625581813e-05 5.3835234460626092e-06 -1.0613557884372637e-11 -1.3238136754057556e-09 6.9835818880048364e-06 1.0422261276845171e-11 -2.0950096528234486e-05 -4.0775066627343016e-15 9.7446182698656174e-11 -1.4904186255818132e-05 9.0047950605846623e-16 2.0100860114934792e-10 -2.9125955941228018e-05 1.2447832455468694e-16 5.1547802696221944e-11 -3.0419247561406519e-05 6.0188769190828507e-06 1.4988465808958332e-10 -1.8056148385179376e-05 -1.1620626059759134e-14 -5.1184978363206174e-12 -1.6150515520702566e-05 -4.0775066627343016e-15 9.7446182698656174e-11 -1.4904186255818132e-05 1.2447832455468694e-16 5.1547802696221944e-11 -3.0419247561406519e-05 6.9835818880048364e-06 1.0422261276845171e-11 -2.0950096528234486e-05 -1.1620626059759134e-14 -5.1184978363206174e-12 -1.6150515520702566e-05 5.3835234460626101e-06 -1.0613557884372636e-11 -1.3238136754061955e-09 -4.0775066627343016e-15 9.7446182698656174e-11 -1.4904186255818132e-05 6.9835818880048364e-06 1.0422261276845171e-11 -2.0950096528234486e-05 1.2447832455468694e-16 5.1547802696221944e-11 -3.0419247561406519e-05 7.0370189175575336e-06 1.8515466585758749e-10 -4.5175736099429972e-05 1.1203451606077581e-05 1.2353366062272685e-10 -2.8153593521898204e-05 6.0188769190828524e-06 1.4988465808958326e-10 -1.8056148385179372e-05 1.2447832455468694e-16 5.1547802696221944e-11 -3.0419247561406519e-05 7.7409119284633956e-06 2.1079606242772432e-11 -4.2280071442435215e-05 4.0089708127292434e-15 -4.7002119375244528e-11 -3.0867979861132284e-05 6.983581888004839e-06 1.0422261276845179e-11 -2.0950096528234486e-05 1.2447832455468694e-16 5.1547802696221944e-11 -3.0419247561406519e-05 9.0047978755791997e-16 2.0100860114934792e-10 -2.9125955941228018e-05 7.0370189175575336e-06 1.8515466585758749e-10 -4.5175736099429979e-05 6.0188769190828516e-06 1.4988465808958329e-10 -1.8056148385179372e-05 1.1203451606077581e-05 1.2353366062272685e-10 -2.8153593521898204e-05 6.9835818880048381e-06 1.0422261276845177e-11 -2.095009652823448e-05 1.2447856921331994e-16 5.1547802696221976e-11 -3.0419247561406523e-05 6.0188769190828516e-06 1.4988465808958329e-10 -1.8056148385179369e-05 -1.1620626059759134e-14 -5.1184978363206174e-12 -1.6150515520702566e-05 1.2447835543775381e-16 5.1547802696221944e-11 -3.0419247561406516e-05 4.0089708127292434e-15 -4.7002119375244528e-11 -3.0867979861132284e-05 6.9835818880048364e-06 1.0422261276845171e-11 -2.0950096528234486e-05 1.2447832455468694e-16 5.1547802696221944e-11 -3.0419247561406519e-05 7.7409119284633939e-06 2.1079606242772455e-11 -4.2280071442435228e-05 1.1203451606077581e-05 1.2353366062272685e-10 -2.8153593521898204e-05 7.0370189175575345e-06 1.8515466585758744e-10 -4.5175736099429979e-05 1.1203451606077581e-05 1.2353366062272685e-10 -2.8153593521898204e-05 7.7409119284633939e-06 2.1079606242772465e-11 -4.2280071442435228e-05 1.2447737781791482e-16 5.1547802696221969e-11 -3.0419247561406523e-05 6.983581888004839e-06 1.0422261276845162e-11 -2.0950096528234486e-05 4.0089708127292434e-15 -4.7002119375244528e-11 -3.0867979861132284e-05 1.2447788680360926e-16 5.1547802696221944e-11 -3.0419247561406519e-05 -4.2893911781035554e-15 2.9898242751294892e-12 -4.8714039270935687e-05 7.7409119284633939e-06 2.1079606242772439e-11 -4.2280071442435221e-05 1.264960660816916e-15 1.2037577063664569e-10 -4.2810756485915724e-05 -4.2893911781035554e-15 2.9898242751294892e-12 -4.8714039270935687e-05 1.2447832455468694e-16 5.1547802696221944e-11 -3.0419247561406519e-05 7.7409119284633939e-06 2.1079606242772439e-11 -4.2280071442435221e-05 -1.5162335372135728e-15 1.0576212219351867e-10 -5.6197655793460738e-05 7.7409119284633939e-06 2.107960624277241e-11 -4.2280071442435221e-05 1.264960660816916e-15 1.2037577063664569e-10 -4.2810756485915724e-05 7.0370189175575345e-06 1.8515466585758749e-10 -4.5175736099429972e-05 1.2447832455468694e-16 5.1547802696221944e-11 -3.0419247561406519e-05 9.0047978755791997e-16 2.0100860114934792e-10 -2.9125955941228018e-05 1.2649600725947364e-15 1.2037577063664569e-10 -4.2810756485915717e-05 7.0370189175575345e-06 1.8515466585758749e-10 -4.5175736099429972e-05 1.264960660816916e-15 1.2037577063664569e-10 -4.2810756485915724e-05 7.7409119284633939e-06 2.1079606242772445e-11 -4.2280071442435221e-05 1.2447832455468694e-16 5.1547802696221944e-11 -3.0419247561406519e-05 7.0370189175575345e-06 1.8515466585758749e-10 -4.5175736099429972e-05 5.290908803782275e-06 3.0292265667551581e-10 -2.8195743726572264e-05 1.029025647750221e-05 3.5333082014125923e-10 -3.7140415860400776e-05 7.0370189175575345e-06 1.8515466585758749e-10 -4.5175736099429972e-05 6.0188769190828524e-06 1.4988465808958329e-10 -1.8056148385179376e-05 9.0047978755791997e-16 2.0100860114934792e-10 -2.9125955941228018e-05 5.290908803782275e-06 3.0292265667551581e-10 -2.8195743726572261e-05 7.0370189175575345e-06 1.8515466585758749e-10 -4.5175736099429972e-05 6.0188769190828524e-06 1.4988465808958329e-10 -1.8056148385179376e-05 5.3835348999161541e-06 3.3029254117405797e-10 -4.6721921269590402e-05 -5.7576638127892156e-15 2.3844198964716469e-10 -4.7628253778089057e-05 9.0047993033391556e-16 2.0100860114934792e-10 -2.9125955941228011e-05 7.0370189175575345e-06 1.8515466585758749e-10 -4.5175736099429966e-05 1.264960660816916e-15 1.2037577063664569e-10 -4.2810756485915724e-05 9.0047978755791997e-16 2.0100860114934792e-10 -2.9125955941228018e-05 -5.7576621575272888e-15 2.3844198964716474e-10 -4.7628253778089057e-05 7.0370189175575345e-06 1.8515466585758749e-10 -4.5175736099429972e-05 5.3835348999161541e-06 3.3029254117405797e-10 -4.6721921269590402e-05 5.2044506778121734e-15 3.8700914533399093e-10 -3.750037897751236e-05 9.0048025741708494e-16 2.0100860114934792e-10 -2.9125955941228014e-05 -5.7576621575272904e-15 2.3844198964716469e-10 -4.762825377808905e-05 9.0047978755791997e-16 2.0100860114934792e-10 -2.9125955941228018e-05 5.290908803782275e-06 3.0292265667551581e-10 -2.8195743726572264e-05 5.2044506778121734e-15 3.8700914533399093e-10 -3.750037897751236e-05 5.3835348999161549e-06 3.3029254117405792e-10 -4.6721921269590402e-05 5.3835348999161541e-06 3.3029254117405797e-10 -4.6721921269590402e-05 9.0047888942251516e-16 2.0100860114934787e-10 -2.9125955941228011e-05 5.290908803782275e-06 3.0292265667551581e-10 -2.8195743726572264e-05 7.0370189175575328e-06 1.8515466585758749e-10 -4.5175736099429979e-05 5.3835348999161541e-06 3.3029254117405797e-10 -4.6721921269590402e-05 5.290908803782275e-06 3.0292265667551581e-10 -2.8195743726572264e-05 1.029025647750221e-05 3.5333082014125923e-10 -3.7140415860400776e-05 7.0370189175575345e-06 1.8515466585758749e-10 -4.5175736099429972e-05 5.2044506778121734e-15 3.8700914533399093e-10 -3.750037897751236e-05 4.3352815763195192e-15 3.030878359831903e-10 -1.8750808181229284e-05 5.290908803782275e-06 3.0292265667551581e-10 -2.8195743726572264e-05 9.0047978755791997e-16 2.0100860114934792e-10 -2.9125955941228018e-05 5.290908803782275e-06 3.0292265667551581e-10 -2.8195743726572264e-05 4.3352803715792337e-15 3.030878359831903e-10 -1.8750808181229281e-05 -1.9947107282982074e-14 2.0823085663362324e-10 -1.3726822328809099e-05 9.0047920014904318e-16 2.0100860114934795e-10 -2.9125955941228018e-05 4.5756421009452317e-06 2.4270428841764038e-10 -1.3726869609934099e-05 4.3352815763195192e-15 3.030878359831903e-10 -1.8750808181229284e-05 -1.9947105537789788e-14 2.0823085663362324e-10 -1.3726822328809099e-05 5.290908803782275e-06 3.0292265667551581e-10 -2.8195743726572264e-05 6.2503644258836446e-06 3.4404627738704743e-10 -1.3290125393577585e-09 1.295723572348914e-14 3.2692413546115227e-10 -1.3300815000036784e-09 4.5756151267457565e-06 2.170496923299269e-10 -9.6842793013159721e-10 4.5756421009452317e-06 2.4270428841764038e-10 -1.3726869609934099e-05 -1.9947105567500546e-14 2.0823085663362324e-10 -1.3726822328809097e-05 1.2957235859017638e-14 3.2692413546115232e-10 -1.3300815000025677e-09 4.3352815763195192e-15 3.030878359831903e-10 -1.8750808181229284e-05 4.5756421009452317e-06 2.4270428841764038e-10 -1.3726869609934099e-05 -1.9947105567500546e-14 2.0823085663362324e-10 -1.3726822328809097e-05 4.5756151267457565e-06 2.170496923299269e-10 -9.6842793013159721e-10 1.2957235859017638e-14 3.2692413546115232e-10 -1.3300815000025677e-09 4.5756421009452317e-06 2.4270428841764038e-10 -1.3726869609934099e-05 4.5756151267457565e-06 2.170496923299269e-10 -9.6842793013159721e-10 1.2957235336343111e-14 3.2692413546115232e-10 -1.3300815000039759e-09 5.4841961082486311e-15 2.1556383106651646e-10 -1.1743868253673591e-09 -1.9947105567500546e-14 2.0823085663362324e-10 -1.3726822328809097e-05 -1.9947105567500546e-14 2.0823085663362324e-10 -1.3726822328809097e-05 -4.0775066627343016e-15 9.7446182698656174e-11 -1.4904186255818132e-05 4.9680840057959427e-06 1.1545741475183916e-10 -1.2084210190768597e-09 6.0188769190828524e-06 1.4988465808958329e-10 -1.8056148385179376e-05 5.4841961082486311e-15 2.1556383106651646e-10 -1.1743868253673591e-09 4.9680840057959418e-06 1.1545741475183917e-10 -1.2084210190763034e-09 4.5756151267457565e-06 2.170496923299269e-10 -9.6842793013159721e-10 -1.9947105567500546e-14 2.0823085663362324e-10 -1.3726822328809097e-05 4.5756421009452317e-06 2.4270428841764038e-10 -1.3726869609934099e-05 -1.994710571873012e-14 2.0823085663362324e-10 -1.3726822328809097e-05 4.5756151267457565e-06 2.1704969232992687e-10 -9.6842793013116687e-10 6.0188769190828524e-06 1.4988465808958326e-10 -1.8056148385179372e-05 4.9680840057959418e-06 1.1545741475183917e-10 -1.2084210190763034e-09 5.4841961082486311e-15 2.1556383106651646e-10 -1.1743868253673591e-09 -4.0775066627343016e-15 9.7446182698656174e-11 -1.4904186255818132e-05 -1.9947105567500546e-14 2.0823085663362324e-10 -1.3726822328809097e-05 4.9680840057959418e-06 1.1545741475183917e-10 -1.2084210190763034e-09 4.5756151267457565e-06 2.170496923299269e-10 -9.6842793013048735e-10 -1.9947105567500546e-14 2.0823085663362324e-10 -1.3726822328809097e-05 6.0188769190828524e-06 1.4988465808958329e-10 -1.8056148385179376e-05 5.290908803782275e-06 3.0292265667551581e-10 -2.8195743726572264e-05 9.0047852360321711e-16 2.0100860114934792e-10 -2.9125955941228014e-05 -1.9947106154909421e-14 2.0823085663362321e-10 -1.37268223288091e-05 6.0188769190828524e-06 1.4988465808958329e-10 -1.8056148385179376e-05 -1.9947105567500546e-14 2.0823085663362324e-10 -1.3726822328809097e-05 9.0047978755791997e-16 2.0100860114934792e-10 -2.9125955941228018e-05 -4.0775066627343016e-15 9.7446182698656174e-11 -1.4904186255818132e-05 6.0188769190828524e-06 1.4988465808958329e-10 -1.8056148385179376e-05 4.5756421009452317e-06 2.4270428841764038e-10 -1.3726869609934099e-05 4.5756151267457582e-06 2.170496923299269e-10 -9.6842793013665336e-10 9.7091518218750991e-06 2.2849748716616266e-10 -1.3083136657777792e-09 6.0188769190828524e-06 1.4988465808958326e-10 -1.8056148385179376e-05 4.9680840057959418e-06 1.1545741475183917e-10 -1.2084210190763034e-09 9.7091518218750991e-06 2.2849748716616269e-10 -1.3083136657753283e-09 4.5756151267457565e-06 2.170496923299269e-10 -9.6842793013159721e-10 6.0188769190828524e-06 1.4988465808958329e-10 -1.8056148385179376e-05 4.5756151267457565e-06 2.170496923299269e-10 -9.6842793013159721e-10 9.7091518218750991e-06 2.2849748716616269e-10 -1.3083136657753283e-09 6.2503644258836446e-06 3.4404627738704743e-10 -1.3290125393577585e-09 4.5756421009452317e-06 2.4270428841764038e-10 -1.3726869609934099e-05 9.8868894304744597e-06 3.1776116484174051e-10 -1.7643724331315051e-05 6.2503644258836454e-06 3.4404627738704753e-10 -1.3290125393566099e-09 9.7091518218750991e-06 2.2849748716616269e-10 -1.3083136657753283e-09 4.5756421009452317e-06 2.4270428841764038e-10 -1.3726869609934099e-05 9.7091518218750991e-06 2.2849748716616269e-10 -1.3083136657753283e-09 9.8868894304744597e-06 3.1776116484174051e-10 -1.7643724331315051e-05 4.57564210094523e-06 2.4270428841764033e-10 -1.3726869609934096e-05 6.0188769190828533e-06 1.4988465808958326e-10 -1.8056148385179376e-05 9.8868894304744597e-06 3.1776116484174051e-10 -1.7643724331315051e-05 5.290908803782275e-06 3.0292265667551581e-10 -2.8195743726572264e-05 4.5756421009452317e-06 2.4270428841764038e-10 -1.3726869609934099e-05 6.0188769190828524e-06 1.4988465808958329e-10 -1.8056148385179376e-05 4.5756421009452317e-06 2.4270428841764038e-10 -1.3726869609934099e-05 5.290908803782275e-06 3.0292265667551581e-10 -2.8195743726572264e-05 -1.9947105567500546e-14 2.0823085663362324e-10 -1.3726822328809097e-05 6.0188769190828524e-06 1.4988465808958329e-10 -1.8056148385179376e-05 1.1203451606077581e-05 1.2353366062272685e-10 -2.8153593521898204e-05 6.0188769190828524e-06 1.4988465808958329e-10 -1.8056148385179372e-05 9.8868894304744597e-06 3.1776116484174051e-10 -1.7643724331315051e-05 1.6530680954114588e-05 2.1298659542238839e-10 -1.9526977369434445e-05 9.7091518218750991e-06 2.2849748716616269e-10 -1.3083136657753283e-09 6.0188769190828524e-06 1.4988465808958329e-10 -1.8056148385179376e-05 1.1203451606077583e-05 1.2353366062272682e-10 -2.8153593521898204e-05 1.6530680954114588e-05 2.1298659542238837e-10 -1.9526977369434448e-05 9.7091518218750991e-06 2.2849748716616269e-10 -1.3083136657753283e-09 9.8868894304744597e-06 3.1776116484174056e-10 -1.7643724331315048e-05 6.0188769190828524e-06 1.4988465808958326e-10 -1.8056148385179376e-05 1.6530680954114588e-05 2.1298659542238837e-10 -1.9526977369434445e-05 9.7091518218750991e-06 2.2849748716616269e-10 -1.3083136657753283e-09 1.2500852761476371e-05 4.0628073614254341e-10 -1.5504548859748476e-09 6.2503644258836446e-06 3.4404627738704743e-10 -1.3290125393577585e-09 9.8868894304744597e-06 3.1776116484174051e-10 -1.7643724331315051e-05 9.7091518218750991e-06 2.2849748716616269e-10 -1.3083136657753283e-09 1.5877133037576866e-05 2.5337478892188987e-10 -1.2694692855370174e-09 9.8868894304744597e-06 3.1776116484174051e-10 -1.7643724331315051e-05 1.6530680954114588e-05 2.1298659542238837e-10 -1.9526977369434452e-05 1.4271139890881933e-05 1.2163059675129277e-10 -9.9612550191730123e-10 1.5877133037576866e-05 2.5337478892188992e-10 -1.2694692855341934e-09 9.7091518218750991e-06 2.2849748716616269e-10 -1.3083136657749378e-09 1.6530680954114588e-05 2.1298659542238839e-10 -1.9526977369434441e-05 1.5980306642777952e-05 2.9924298815775294e-10 -1.534851196889261e-05 9.8868894304744597e-06 3.1776116484174051e-10 -1.7643724331315051e-05 1.2500852761476371e-05 4.0628073614254341e-10 -1.5504548859718416e-09 1.5877133037576866e-05 2.5337478892188992e-10 -1.2694692855341934e-09 9.8868894304744597e-06 3.1776116484174051e-10 -1.7643724331315051e-05 9.7091518218750991e-06 2.2849748716616264e-10 -1.3083136657793438e-09 1.2500852761476371e-05 4.0628073614254341e-10 -1.5504548859748476e-09 1.5877133037576866e-05 2.5337478892188992e-10 -1.2694692855341934e-09 1.5980306642777952e-05 2.9924298815775294e-10 -1.534851196889261e-05 1.4319778842731039e-05 2.4238438236902213e-10 -2.9091543787619815e-05 9.8868894304744597e-06 3.1776116484174051e-10 -1.7643724331315051e-05 1.6530680954114588e-05 2.1298659542238839e-10 -1.9526977369434445e-05 1.5980306642777952e-05 2.9924298815775294e-10 -1.534851196889261e-05 9.8868894304744597e-06 3.1776116484174051e-10 -1.7643724331315051e-05 1.587713303757687e-05 2.5337478892188987e-10 -1.2694692855348386e-09 1.6530680954114588e-05 2.1298659542238842e-10 -1.9526977369434445e-05 1.029025647750221e-05 3.5333082014125923e-10 -3.7140415860400776e-05 1.1203451606077581e-05 1.2353366062272682e-10 -2.8153593521898204e-05 1.5621076143583323e-05 1.5831230720709941e-10 -4.9657000194535966e-05 7.0370189175575345e-06 1.8515466585758749e-10 -4.5175736099429972e-05 1.1203451606077581e-05 1.2353366062272685e-10 -2.8153593521898204e-05 7.0370189175575345e-06 1.8515466585758749e-10 -4.5175736099429972e-05 1.029025647750221e-05 3.5333082014125923e-10 -3.7140415860400776e-05 6.0188769190828516e-06 1.4988465808958329e-10 -1.8056148385179372e-05 9.8868894304744597e-06 3.1776116484174051e-10 -1.7643724331315051e-05 1.4319778842731038e-05 2.4238438236902208e-10 -2.9091543787619815e-05 1.029025647750221e-05 3.5333082014125923e-10 -3.7140415860400776e-05 1.1203451606077579e-05 1.2353366062272677e-10 -2.8153593521898204e-05 1.4319778842731038e-05 2.4238438236902208e-10 -2.9091543787619815e-05 1.1203451606077578e-05 1.2353366062272685e-10 -2.8153593521898204e-05 9.8868894304744597e-06 3.1776116484174051e-10 -1.7643724331315051e-05 1.6530680954114588e-05 2.1298659542238839e-10 -1.9526977369434445e-05 9.8868894304744597e-06 3.1776116484174051e-10 -1.7643724331315051e-05 1.1203451606077584e-05 1.2353366062272682e-10 -2.8153593521898204e-05 1.0290256477502212e-05 3.5333082014125928e-10 -3.7140415860400776e-05 6.0188769190828524e-06 1.4988465808958329e-10 -1.8056148385179376e-05 1.4319778842731038e-05 2.4238438236902208e-10 -2.9091543787619815e-05 1.5621076143583316e-05 1.5831230720709934e-10 -4.9657000194535959e-05 1.1203451606077581e-05 1.2353366062272682e-10 -2.815359352189821e-05 1.6530680954114588e-05 2.1298659542238839e-10 -1.9526977369434445e-05 1.4319778842731038e-05 2.4238438236902208e-10 -2.9091543787619815e-05 1.029025647750221e-05 3.5333082014125923e-10 -3.7140415860400776e-05 1.1203451606077581e-05 1.235336606227268e-10 -2.8153593521898204e-05 1.5621076143583316e-05 1.5831230720709934e-10 -4.9657000194535952e-05 9.8868894304744597e-06 3.1776116484174051e-10 -1.7643724331315051e-05 1.029025647750221e-05 3.5333082014125923e-10 -3.7140415860400776e-05 5.290908803782275e-06 3.0292265667551581e-10 -2.8195743726572264e-05 6.0188769190828524e-06 1.4988465808958329e-10 -1.8056148385179376e-05 1.029025647750221e-05 3.5333082014125923e-10 -3.7140415860400776e-05 1.0140744429619037e-05 3.6841823348515685e-10 -5.6268861464972617e-05 5.3835348999161541e-06 3.3029254117405797e-10 -4.6721921269590402e-05 7.0370189175575345e-06 1.8515466585758749e-10 -4.5175736099429972e-05 1.4319778842731038e-05 2.4238438236902208e-10 -2.9091543787619815e-05 1.6239093534900631e-05 3.163835001395912e-10 -4.6875224519034137e-05 1.029025647750221e-05 3.5333082014125923e-10 -3.7140415860400776e-05 1.5621076143583319e-05 1.5831230720709936e-10 -4.9657000194535959e-05 7.7409119284633939e-06 2.1079606242772439e-11 -4.2280071442435221e-05 1.5621076143583316e-05 1.5831230720709934e-10 -4.9657000194535959e-05 1.1203451606077581e-05 1.2353366062272685e-10 -2.8153593521898204e-05 7.0370189175575353e-06 1.8515466585758746e-10 -4.5175736099429972e-05 1.1203451606077581e-05 1.2353366062272685e-10 -2.8153593521898204e-05 1.5626080314932658e-05 -1.818404774644598e-12 -4.6875184481376289e-05 7.7409119284633939e-06 2.1079606242772439e-11 -4.2280071442435221e-05 1.5638686040922111e-05 -2.1099358119152809e-11 -2.3403614258015261e-05 1.1203451606077581e-05 1.2353366062272685e-10 -2.8153593521898204e-05 7.7409119284633939e-06 2.1079606242772439e-11 -4.2280071442435221e-05 1.5626080314932658e-05 -1.8184047746446352e-12 -4.6875184481376282e-05 1.5621076143583319e-05 1.5831230720709939e-10 -4.9657000194535966e-05 1.1203451606077581e-05 1.2353366062272685e-10 -2.8153593521898204e-05 1.5638686040922115e-05 -2.109935811915278e-11 -2.3403614258015267e-05 7.7409119284633922e-06 2.1079606242772429e-11 -4.2280071442435215e-05 6.9835818880048364e-06 1.0422261276845171e-11 -2.0950096528234486e-05 1.1203451606077581e-05 1.2353366062272685e-10 -2.8153593521898204e-05 1.0140263871337544e-05 6.769367087914035e-11 -1.4693963860036431e-09 1.5638686040922115e-05 -2.109935811915278e-11 -2.3403614258015267e-05 6.9835818880048364e-06 1.0422261276845171e-11 -2.0950096528234486e-05 9.7091518218750991e-06 2.2849748716616269e-10 -1.3083136657753283e-09 1.0140263871337544e-05 6.769367087914035e-11 -1.4693963860036431e-09 1.4271139890881933e-05 1.2163059675129277e-10 -9.9612550191730123e-10 1.1203451606077581e-05 1.2353366062272685e-10 -2.815359352189821e-05 1.0140263871337544e-05 6.769367087914035e-11 -1.4693963860036431e-09 6.9835818880048381e-06 1.0422261276845187e-11 -2.095009652823449e-05 1.1203451606077581e-05 1.2353366062272685e-10 -2.8153593521898204e-05 6.0188769190828524e-06 1.4988465808958329e-10 -1.8056148385179376e-05 1.0140263871337544e-05 6.769367087914035e-11 -1.4693963860036431e-09 1.4271139890881933e-05 1.2163059675129277e-10 -9.9612550191773074e-10 1.1203451606077581e-05 1.2353366062272685e-10 -2.81535935218982e-05 1.5638686040922115e-05 -2.109935811915278e-11 -2.3403614258015267e-05 9.7091518218750991e-06 2.2849748716616269e-10 -1.3083136657753283e-09 1.0140263871337544e-05 6.769367087914035e-11 -1.4693963860036431e-09 1.1203451606077581e-05 1.2353366062272685e-10 -2.8153593521898204e-05 6.0188769190828524e-06 1.4988465808958329e-10 -1.8056148385179376e-05 1.4271139890881933e-05 1.2163059675129277e-10 -9.9612550191730123e-10 9.7091518218750991e-06 2.2849748716616269e-10 -1.308313665775374e-09 1.1203451606077581e-05 1.2353366062272685e-10 -2.8153593521898204e-05 1.6530680954114588e-05 2.1298659542238837e-10 -1.9526977369434445e-05 1.1203451606077581e-05 1.2353366062272685e-10 -2.8153593521898204e-05 1.5638686040922115e-05 -2.109935811915278e-11 -2.3403614258015267e-05 1.4271139890881933e-05 1.2163059675129277e-10 -9.9612550191730123e-10 1.6530680954114588e-05 2.1298659542238839e-10 -1.9526977369434445e-05 5.3835234460626092e-06 -1.0613557884372637e-11 -1.3238136754057556e-09 1.0289842991704204e-05 -7.4728679587136188e-11 -1.4010520735039126e-09 1.0140263871337544e-05 6.769367087914035e-11 -1.4693963860036431e-09 6.9835818880048364e-06 1.0422261276845171e-11 -2.0950096528234486e-05 1.0140263871337544e-05 6.769367087914035e-11 -1.4693963860036431e-09 1.6239127197677614e-05 2.3256091103425088e-11 -1.3010129882821782e-09 1.4271139890881933e-05 1.2163059675129277e-10 -9.9612550191730123e-10 1.5638686040922115e-05 -2.109935811915278e-11 -2.3403614258015267e-05 2.2727343739128474e-05 8.5603175453222143e-11 -8.3438954484414913e-10 2.139411376498231e-05 1.2777955030572227e-10 -2.9153124341201483e-05 1.8733838848007317e-05 1.1126887403680689e-10 -9.9364040153593814e-10 2.4287077722179634e-05 -3.02938088341185e-11 -2.0414469344935873e-05 2.139411376498231e-05 1.2777955030572234e-10 -2.9153124341201483e-05 1.5638686040922115e-05 -2.1099358119152796e-11 -2.3403614258015271e-05 1.8733838848007317e-05 1.1126887403680688e-10 -9.9364040153518685e-10 2.4287077722179631e-05 -3.0293808834118571e-11 -2.0414469344935869e-05 1.8733838848007317e-05 1.1126887403680689e-10 -9.9364040153593814e-10 1.4271139890881933e-05 1.2163059675129277e-10 -9.961255019180308e-10 1.5638686040922115e-05 -2.1099358119152777e-11 -2.3403614258015271e-05 1.6530680954114588e-05 2.1298659542238842e-10 -1.9526977369434448e-05 1.6239127197677614e-05 2.3256091103425088e-11 -1.3010129882821782e-09 2.1039071816155517e-05 -7.7462011278651381e-12 -1.0244491804363047e-09 1.8733838848007317e-05 1.1126887403680689e-10 -9.9364040153593814e-10 1.5638686040922115e-05 -2.109935811915278e-11 -2.3403614258015267e-05 1.8733838848007317e-05 1.1126887403680689e-10 -9.9364040153593814e-10 1.5638686040922111e-05 -2.1099358119152783e-11 -2.3403614258015271e-05 2.139411376498231e-05 1.2777955030572232e-10 -2.9153124341201486e-05 1.6530680954114581e-05 2.1298659542238839e-10 -1.9526977369434448e-05 1.8733838848007317e-05 1.1126887403680689e-10 -9.9364040153593814e-10 1.5638686040922115e-05 -2.1099358119152783e-11 -2.3403614258015267e-05 2.1039071816155517e-05 -7.7462011278651381e-12 -1.0244491804363047e-09 2.4287077722179631e-05 -3.0293808834118584e-11 -2.0414469344935866e-05 1.8733838848007317e-05 1.1126887403680689e-10 -9.9364040153593814e-10 1.6530680954114588e-05 2.1298659542238852e-10 -1.9526977369434441e-05 2.1394113764982307e-05 1.2777955030572229e-10 -2.9153124341201483e-05 2.5496154318880622e-05 1.9982534254982887e-10 -1.7328678833984864e-05 1.8733838848007317e-05 1.1126887403680689e-10 -9.9364040153593814e-10 1.4271139890881933e-05 1.2163059675129277e-10 -9.9612550191795263e-10 1.6239127197677614e-05 2.3256091103425088e-11 -1.3010129882821782e-09 1.5638686040922115e-05 -2.109935811915278e-11 -2.3403614258015267e-05 1.8733838848007317e-05 1.1126887403680689e-10 -9.9364040153593814e-10 2.139411376498231e-05 1.2777955030572234e-10 -2.9153124341201483e-05 2.2727343739128474e-05 8.5603175453222143e-11 -8.3438954484414913e-10 2.5496154318880622e-05 1.9982534254982882e-10 -1.7328678833984864e-05 1.4271139890881933e-05 1.2163059675129277e-10 -9.9612550191730123e-10 1.8733838848007317e-05 1.1126887403680689e-10 -9.9364040153579462e-10 1.5877133037576866e-05 2.5337478892188992e-10 -1.2694692855357551e-09 1.6530680954114588e-05 2.1298659542238839e-10 -1.9526977369434441e-05 1.8733838848007317e-05 1.1126887403680689e-10 -9.9364040153593814e-10 2.2727343739128474e-05 8.5603175453222156e-11 -8.343895448436735e-10 2.2045997096802222e-05 1.6380920842954689e-10 -1.2740149891162176e-09 2.5496154318880622e-05 1.9982534254982882e-10 -1.7328678833984864e-05 2.2727343739128474e-05 8.5603175453222143e-11 -8.3438954484414913e-10 1.8733838848007317e-05 1.1126887403680689e-10 -9.9364040153591311e-10 2.1039071816155517e-05 -7.7462011278651364e-12 -1.0244491804355577e-09 2.4287077722179631e-05 -3.0293808834118578e-11 -2.0414469344935869e-05 2.139411376498231e-05 1.2777955030572234e-10 -2.9153124341201483e-05 1.5638686040922118e-05 -2.1099358119152777e-11 -2.3403614258015261e-05 1.1203451606077581e-05 1.2353366062272685e-10 -2.8153593521898204e-05 1.6530680954114584e-05 2.1298659542238834e-10 -1.9526977369434445e-05 2.139411376498231e-05 1.2777955030572234e-10 -2.9153124341201483e-05 1.1203451606077578e-05 1.2353366062272682e-10 -2.81535935218982e-05 1.5626080314932658e-05 -1.8184047746446237e-12 -4.6875184481376282e-05 1.5621076143583319e-05 1.5831230720709936e-10 -4.9657000194535959e-05 1.5626080314932658e-05 -1.8184047746446237e-12 -4.6875184481376282e-05 1.1203451606077581e-05 1.2353366062272685e-10 -2.815359352189821e-05 2.139411376498231e-05 1.2777955030572234e-10 -2.9153124341201483e-05 1.5638686040922118e-05 -2.1099358119152825e-11 -2.3403614258015271e-05 1.5626080314932658e-05 -1.8184047746446237e-12 -4.6875184481376282e-05 2.139411376498231e-05 1.2777955030572234e-10 -2.9153124341201483e-05 2.3453171142800636e-05 1.7450436082391611e-11 -4.6722107160600913e-05 1.5638686040922118e-05 -2.1099358119152829e-11 -2.3403614258015271e-05 2.139411376498231e-05 1.2777955030572234e-10 -2.9153124341201483e-05 1.5621076143583319e-05 1.5831230720709936e-10 -4.9657000194535959e-05 2.3453171142800636e-05 1.7450436082391611e-11 -4.6722107160600913e-05 2.4181251484316229e-05 2.1011976552006296e-10 -4.6715031483825796e-05 2.3453171142800636e-05 1.7450436082391611e-11 -4.6722107160600913e-05 1.5638686040922115e-05 -2.10993581191528e-11 -2.3403614258015278e-05 2.139411376498231e-05 1.2777955030572234e-10 -2.9153124341201479e-05 2.4287077722179634e-05 -3.0293808834118578e-11 -2.0414469344935869e-05 1.1203451606077581e-05 1.2353366062272685e-10 -2.8153593521898204e-05 1.5621076143583319e-05 1.5831230720709936e-10 -4.9657000194535959e-05 2.139411376498231e-05 1.2777955030572234e-10 -2.9153124341201483e-05 1.6530680954114588e-05 2.1298659542238839e-10 -1.9526977369434445e-05 1.5626080314932658e-05 -1.8184047746446237e-12 -4.6875184481376282e-05 2.3453171142800636e-05 1.7450436082391604e-11 -4.672210716060092e-05 2.139411376498231e-05 1.2777955030572234e-10 -2.9153124341201483e-05 1.5621076143583319e-05 1.5831230720709936e-10 -4.9657000194535959e-05 2.139411376498231e-05 1.2777955030572234e-10 -2.9153124341201483e-05 1.6530680954114588e-05 2.1298659542238839e-10 -1.9526977369434445e-05 1.9085232139849882e-05 3.3586129515102689e-10 -3.1057879549321638e-05 2.5496154318880622e-05 1.9982534254982882e-10 -1.7328678833984864e-05 1.9085232139849882e-05 3.3586129515102689e-10 -3.1057879549321638e-05 1.5621076143583319e-05 1.5831230720709936e-10 -4.9657000194535959e-05 2.139411376498231e-05 1.2777955030572234e-10 -2.9153124341201483e-05 2.4181251484316229e-05 2.1011976552006296e-10 -4.6715031483825796e-05 1.9085232139849882e-05 3.3586129515102689e-10 -3.1057879549321638e-05 2.1326566786003624e-05 3.7196031928624105e-10 -4.904089656536411e-05 1.5621076143583323e-05 1.5831230720709939e-10 -4.9657000194535959e-05 2.4181251484316229e-05 2.1011976552006296e-10 -4.6715031483825796e-05 2.5861640079879557e-05 3.7042012577155948e-10 -2.9445383330166708e-05 2.1394113764982307e-05 1.2777955030572229e-10 -2.9153124341201483e-05 1.9085232139849882e-05 3.3586129515102689e-10 -3.1057879549321638e-05 2.5496154318880622e-05 1.9982534254982885e-10 -1.7328678833984878e-05 1.4319778842731038e-05 2.4238438236902208e-10 -2.9091543787619815e-05 1.9085232139849882e-05 3.3586129515102689e-10 -3.1057879549321638e-05 1.5621076143583319e-05 1.5831230720709936e-10 -4.9657000194535959e-05 1.6530680954114588e-05 2.1298659542238839e-10 -1.9526977369434445e-05 1.9085232139849882e-05 3.3586129515102689e-10 -3.1057879549321638e-05 2.1394113764982314e-05 1.2777955030572232e-10 -2.9153124341201486e-05 2.5861640079879557e-05 3.7042012577155948e-10 -2.9445383330166708e-05 2.4181251484316229e-05 2.1011976552006296e-10 -4.6715031483825796e-05 2.139411376498231e-05 1.2777955030572234e-10 -2.9153124341201483e-05 1.5621076143583319e-05 1.5831230720709939e-10 -4.9657000194535959e-05 1.9085232139849882e-05 3.3586129515102689e-10 -3.1057879549321638e-05 1.6530680954114588e-05 2.1298659542238839e-10 -1.9526977369434448e-05 1.9085232139849882e-05 3.3586129515102689e-10 -3.1057879549321638e-05 2.1326566786003624e-05 3.7196031928624105e-10 -4.9040896565364117e-05 1.6239093534900631e-05 3.163835001395912e-10 -4.687522451903413e-05 1.5621076143583319e-05 1.5831230720709936e-10 -4.9657000194535959e-05 1.6239093534900631e-05 3.163835001395912e-10 -4.6875224519034137e-05 1.4319778842731038e-05 2.4238438236902208e-10 -2.9091543787619815e-05 1.9085232139849882e-05 3.3586129515102689e-10 -3.1057879549321638e-05 1.5621076143583319e-05 1.5831230720709934e-10 -4.9657000194535966e-05 2.1326566786003624e-05 3.7196031928624105e-10 -4.9040896565364117e-05 1.9085232139849879e-05 3.3586129515102684e-10 -3.1057879549321638e-05 2.5861640079879557e-05 3.7042012577155948e-10 -2.9445383330166708e-05 2.4181251484316229e-05 2.1011976552006296e-10 -4.6715031483825796e-05 1.5980306642777952e-05 2.9924298815775294e-10 -1.534851196889261e-05 1.9085232139849882e-05 3.3586129515102689e-10 -3.1057879549321638e-05 1.4319778842731038e-05 2.4238438236902208e-10 -2.9091543787619815e-05 1.6530680954114588e-05 2.1298659542238842e-10 -1.9526977369434445e-05 1.5980306642777952e-05 2.9924298815775294e-10 -1.534851196889261e-05 2.1872925734957353e-05 3.0349008749914535e-10 -1.5880620160234439e-05 1.9085232139849882e-05 3.3586129515102689e-10 -3.1057879549321638e-05 1.6530680954114588e-05 2.1298659542238842e-10 -1.9526977369434445e-05 2.1872925734957353e-05 3.0349008749914535e-10 -1.5880620160234439e-05 1.9085232139849882e-05 3.3586129515102689e-10 -3.1057879549321638e-05 1.6530680954114588e-05 2.1298659542238839e-10 -1.9526977369434448e-05 2.5496154318880619e-05 1.9982534254982882e-10 -1.7328678833984861e-05 2.1872925734957353e-05 3.0349008749914535e-10 -1.5880620160234439e-05 1.6530680954114591e-05 2.1298659542238842e-10 -1.9526977369434445e-05 2.2045997096802222e-05 1.6380920842954689e-10 -1.2740149891163651e-09 2.5496154318880622e-05 1.9982534254982882e-10 -1.7328678833984854e-05 2.1872925734957353e-05 3.0349008749914535e-10 -1.5880620160234439e-05 1.5980306642777952e-05 2.9924298815775294e-10 -1.534851196889261e-05 1.5877133037576866e-05 2.5337478892188997e-10 -1.2694692855272687e-09 1.6530680954114588e-05 2.1298659542238842e-10 -1.9526977369434438e-05 1.8733838848007317e-05 1.1126887403680689e-10 -9.9364040153593814e-10 2.2045997096802222e-05 1.6380920842954689e-10 -1.2740149891162176e-09 1.6530680954114588e-05 2.1298659542238842e-10 -1.9526977369434448e-05 2.5496154318880622e-05 1.9982534254982882e-10 -1.7328678833984868e-05 1.8751290520806729e-05 3.6022491175276793e-10 -1.6139353252478159e-09 2.1872925734957353e-05 3.0349008749914535e-10 -1.5880620160234439e-05 1.5980306642777952e-05 2.9924298815775294e-10 -1.534851196889261e-05 1.5877133037576866e-05 2.5337478892188992e-10 -1.2694692855341934e-09 1.5980306642777952e-05 2.9924298815775294e-10 -1.534851196889261e-05 1.2500852761476371e-05 4.0628073614254341e-10 -1.5504548859763007e-09 1.8751290520806729e-05 3.6022491175276793e-10 -1.6139353252478159e-09 1.5877133037576866e-05 2.5337478892188992e-10 -1.2694692855341934e-09 1.5877133037576866e-05 2.5337478892188992e-10 -1.2694692855341934e-09 1.8733838848007317e-05 1.1126887403680688e-10 -9.9364040153596357e-10 2.2045997096802222e-05 1.6380920842954689e-10 -1.2740149891162176e-09 1.6530680954114588e-05 2.1298659542238839e-10 -1.9526977369434445e-05 2.1872925734957353e-05 3.0349008749914535e-10 -1.5880620160234439e-05 1.5877133037576866e-05 2.5337478892188997e-10 -1.2694692855275423e-09 2.2045997096802222e-05 1.6380920842954691e-10 -1.2740149891136978e-09 1.6530680954114588e-05 2.1298659542238844e-10 -1.9526977369434438e-05 1.8751290520806729e-05 3.6022491175276793e-10 -1.6139353252478159e-09 2.5001774448216975e-05 3.0970471563203908e-10 -1.3249301866213817e-09 2.1872925734957353e-05 3.0349008749914535e-10 -1.5880620160234439e-05 2.2045997096802222e-05 1.6380920842954689e-10 -1.2740149891162176e-09 1.5877133037576866e-05 2.5337478892188992e-10 -1.2694692855341934e-09 1.8751290520806729e-05 3.6022491175276793e-10 -1.6139353252478159e-09 2.1872925734957353e-05 3.0349008749914535e-10 -1.5880620160234449e-05 2.2045997096802222e-05 1.6380920842954689e-10 -1.2740149891162176e-09 2.1872925734957353e-05 3.0349008749914535e-10 -1.5880620160234439e-05 2.5861640079879557e-05 3.7042012577155948e-10 -2.9445383330166708e-05 1.9085232139849882e-05 3.3586129515102689e-10 -3.1057879549321638e-05 2.5496154318880622e-05 1.9982534254982887e-10 -1.7328678833984864e-05 2.5861640079879557e-05 3.7042012577155948e-10 -2.9445383330166708e-05 2.1872925734957353e-05 3.0349008749914535e-10 -1.5880620160234439e-05 2.6676522007932946e-05 2.2790085320092429e-10 -1.3726885285624676e-05 2.5496154318880619e-05 1.9982534254982882e-10 -1.7328678833984861e-05 2.1872925734957353e-05 3.0349008749914535e-10 -1.5880620160234439e-05 2.6676489675501268e-05 2.3362744193837371e-10 -9.0107393435833255e-10 2.6676522007932946e-05 2.2790085320092429e-10 -1.3726885285624678e-05 2.5496154318880622e-05 1.9982534254982885e-10 -1.7328678833984854e-05 2.6676522007932946e-05 2.2790085320092429e-10 -1.3726885285624678e-05 3.1252047674247178e-05 1.9778195190014095e-10 -1.3726880709770238e-05 2.5861640079879557e-05 3.7042012577155948e-10 -2.9445383330166708e-05 2.5496154318880622e-05 1.998253425498288e-10 -1.7328678833984864e-05 2.6676489675501268e-05 2.3362744193837371e-10 -9.0107393435451067e-10 2.6676522007932946e-05 2.2790085320092429e-10 -1.3726885285624678e-05 2.5001774448216975e-05 3.0970471563203908e-10 -1.3249301866213817e-09 2.1872925734957353e-05 3.0349008749914535e-10 -1.5880620160234439e-05 2.1872925734957353e-05 3.0349008749914535e-10 -1.5880620160234439e-05 2.5001774448216978e-05 3.0970471563203908e-10 -1.324930186621292e-09 2.6676489675501268e-05 2.3362744193837371e-10 -9.0107393435451067e-10 2.2045997096802222e-05 1.6380920842954689e-10 -1.2740149891162176e-09 2.6676489675501268e-05 2.3362744193837371e-10 -9.0107393435451067e-10 2.2045997096802222e-05 1.6380920842954689e-10 -1.274014989116406e-09 2.6618553278207945e-05 1.4171650463498572e-10 -1.0157388689439536e-09 2.5496154318880622e-05 1.9982534254982882e-10 -1.7328678833984861e-05 2.1872925734957353e-05 3.0349008749914535e-10 -1.5880620160234439e-05 2.2045997096802226e-05 1.6380920842954691e-10 -1.2740149891218549e-09 2.6676489675501268e-05 2.3362744193837366e-10 -9.0107393435658855e-10 2.5496154318880622e-05 1.9982534254982885e-10 -1.7328678833984857e-05 3.1252047674247178e-05 1.9778195190014098e-10 -1.3726880709770239e-05 3.1251995074788779e-05 1.0843199650766885e-10 -1.4904149350053617e-05 3.1252017399873587e-05 1.9519848383650632e-10 -2.9126043883794671e-05 2.5496154318880622e-05 1.9982534254982882e-10 -1.7328678833984864e-05 2.5861640079879557e-05 3.7042012577155948e-10 -2.9445383330166708e-05 3.1252047674247178e-05 1.9778195190014098e-10 -1.3726880709770239e-05 3.1252017399873587e-05 1.9519848383650632e-10 -2.9126043883794671e-05 2.5496154318880626e-05 1.9982534254982887e-10 -1.7328678833984868e-05 3.1252047674247178e-05 1.9778195190014098e-10 -1.3726880709770239e-05 2.6676489675501268e-05 2.3362744193837371e-10 -9.0107393435451067e-10 3.1251943950739686e-05 1.7074123516209493e-10 -1.1794220093898798e-09 2.5496154318880622e-05 1.9982534254982882e-10 -1.7328678833984864e-05 3.1251943950739686e-05 1.7074123516209493e-10 -1.1794220093898798e-09 2.5496154318880626e-05 1.9982534254982882e-10 -1.7328678833984864e-05 3.1251995074788779e-05 1.0843199650766885e-10 -1.4904149350053617e-05 3.1252047674247178e-05 1.9778195190014098e-10 -1.3726880709770239e-05 2.6676489675501268e-05 2.3362744193837371e-10 -9.0107393435451067e-10 3.1252047674247178e-05 1.9778195190014098e-10 -1.3726880709770241e-05 2.6676522007932946e-05 2.2790085320092429e-10 -1.3726885285624678e-05 2.5496154318880622e-05 1.9982534254982882e-10 -1.7328678833984861e-05 2.6676489675501268e-05 2.3362744193837371e-10 -9.0107393435451067e-10 2.6618553278207949e-05 1.4171650463498574e-10 -1.0157388689430737e-09 3.1251943950739686e-05 1.7074123516209493e-10 -1.1794220093894397e-09 2.5496154318880622e-05 1.9982534254982882e-10 -1.7328678833984861e-05 3.1252047674247178e-05 1.9778195190014098e-10 -1.3726880709770239e-05 2.6676522007932946e-05 2.2790085320092432e-10 -1.372688528562468e-05 3.1251881132153768e-05 3.3931481236030494e-10 -1.3634905268159698e-09 2.6676489675501268e-05 2.3362744193837371e-10 -9.0107393435451067e-10 3.1251926816630837e-05 3.1732688150623022e-10 -1.8750869844110974e-05 2.6676522007932946e-05 2.2790085320092429e-10 -1.372688528562468e-05 3.1251881132153768e-05 3.3931481236030494e-10 -1.3634905268159698e-09 3.1252047674247178e-05 1.9778195190014098e-10 -1.3726880709770239e-05 3.1251881132153768e-05 3.3931481236030494e-10 -1.3634905268159698e-09 3.1252047674247178e-05 1.9778195190014098e-10 -1.3726880709770239e-05 2.6676489675501268e-05 2.3362744193837371e-10 -9.0107393435451067e-10 3.1251943950739686e-05 1.7074123516209493e-10 -1.1794220093898798e-09 2.5001774448216975e-05 3.0970471563203908e-10 -1.3249301866213817e-09 3.1251881132153768e-05 3.3931481236030494e-10 -1.3634905268159698e-09 2.6676522007932946e-05 2.2790085320092429e-10 -1.3726885285624678e-05 2.6676489675501268e-05 2.3362744193837371e-10 -9.0107393435451067e-10 2.5861640079879557e-05 3.7042012577155948e-10 -2.9445383330166708e-05 2.6676522007932946e-05 2.2790085320092429e-10 -1.3726885285624678e-05 3.1251926816630837e-05 3.1732688150623022e-10 -1.8750869844110974e-05 3.1252047674247178e-05 1.9778195190014098e-10 -1.3726880709770239e-05 3.1251926816630837e-05 3.1732688150623022e-10 -1.8750869844110974e-05 3.1252017399873587e-05 1.9519848383650632e-10 -2.9126043883794671e-05 2.5861640079879553e-05 3.7042012577155948e-10 -2.9445383330166705e-05 3.1252047674247178e-05 1.9778195190014098e-10 -1.3726880709770239e-05 3.1251943104064404e-05 2.985970859555082e-10 -3.7500499194013793e-05 3.1252017399873587e-05 1.9519848383650632e-10 -2.9126043883794671e-05 2.5861640079879557e-05 3.7042012577155948e-10 -2.9445383330166705e-05 3.1251926816630837e-05 3.1732688150623022e-10 -1.8750869844110974e-05 2.5861640079879557e-05 3.7042012577155948e-10 -2.9445383330166708e-05 2.4181251484316229e-05 2.1011976552006296e-10 -4.6715031483825803e-05 2.139411376498231e-05 1.2777955030572234e-10 -2.9153124341201483e-05 2.5496154318880619e-05 1.9982534254982885e-10 -1.7328678833984868e-05 3.1252017399873587e-05 1.9519848383650632e-10 -2.9126043883794671e-05 2.4181251484316229e-05 2.1011976552006293e-10 -4.6715031483825796e-05 2.5861640079879557e-05 3.7042012577155948e-10 -2.9445383330166708e-05 2.5496154318880619e-05 1.9982534254982882e-10 -1.7328678833984857e-05 3.1252017399873587e-05 1.9519848383650632e-10 -2.9126043883794671e-05 2.1394113764982314e-05 1.2777955030572222e-10 -2.9153124341201479e-05 2.4181251484316232e-05 2.1011976552006291e-10 -4.6715031483825803e-05 2.5496154318880619e-05 1.9982534254982877e-10 -1.7328678833984861e-05 3.1252017399873587e-05 1.9519848383650632e-10 -2.9126043883794671e-05 2.7115119147521619e-05 3.0053750879676307e-10 -4.7445441774464033e-05 2.5861640079879557e-05 3.7042012577155953e-10 -2.9445383330166705e-05 2.4181251484316229e-05 2.1011976552006296e-10 -4.6715031483825796e-05 2.1326566786003624e-05 3.7196031928624105e-10 -4.9040896565364117e-05 2.5861640079879557e-05 3.7042012577155948e-10 -2.9445383330166708e-05 2.7115119147521616e-05 3.0053750879676318e-10 -4.744544177446402e-05 2.4181251484316229e-05 2.1011976552006296e-10 -4.6715031483825796e-05 2.7115119147521616e-05 3.0053750879676318e-10 -4.744544177446402e-05 3.1251943104064404e-05 2.985970859555082e-10 -3.7500499194013793e-05 3.1252017399873587e-05 1.9519848383650632e-10 -2.9126043883794671e-05 2.5861640079879557e-05 3.7042012577155948e-10 -2.9445383330166708e-05 3.1251943104064404e-05 2.985970859555082e-10 -3.7500499194013793e-05 3.1251967302286396e-05 2.0129947167824209e-10 -4.7628452021229636e-05 2.7115119147521616e-05 3.0053750879676318e-10 -4.744544177446402e-05 3.1252017399873587e-05 1.9519848383650632e-10 -2.9126043883794671e-05 3.1252017399873587e-05 1.9519848383650632e-10 -2.9126043883794671e-05 3.1251967302286396e-05 2.0129947167824209e-10 -4.7628452021229636e-05 2.7115119147521616e-05 3.0053750879676318e-10 -4.744544177446402e-05 2.4181251484316229e-05 2.1011976552006296e-10 -4.6715031483825796e-05 3.1252017399873587e-05 1.9519848383650632e-10 -2.9126043883794671e-05 3.1252017182579258e-05 1.2414435662582901e-10 -4.2949481011648411e-05 3.1251967302286396e-05 2.0129947167824209e-10 -4.7628452021229636e-05 2.4181251484316229e-05 2.1011976552006296e-10 -4.6715031483825796e-05 3.1252009906481788e-05 -8.8539073524996852e-11 -3.0868094374283219e-05 2.3453171142800636e-05 1.7450436082391614e-11 -4.6722107160600906e-05 3.1252016366828531e-05 5.3813470639827331e-11 -3.0419309488462816e-05 2.4287077722179631e-05 -3.0293808834118578e-11 -2.0414469344935869e-05 3.1252017182579258e-05 1.2414435662582901e-10 -4.2949481011648411e-05 2.139411376498231e-05 1.2777955030572234e-10 -2.9153124341201483e-05 3.1252016366828531e-05 5.3813470639827331e-11 -3.041930948846282e-05 2.3453171142800636e-05 1.7450436082391611e-11 -4.6722107160600913e-05 3.1252017399873587e-05 1.9519848383650632e-10 -2.9126043883794671e-05 2.139411376498231e-05 1.2777955030572227e-10 -2.9153124341201479e-05 3.1252017182579258e-05 1.2414435662582901e-10 -4.2949481011648405e-05 2.4181251484316229e-05 2.1011976552006296e-10 -4.6715031483825796e-05 3.1252017182579258e-05 1.2414435662582901e-10 -4.2949481011648411e-05 2.139411376498231e-05 1.2777955030572234e-10 -2.9153124341201483e-05 2.3453171142800639e-05 1.7450436082391643e-11 -4.672210716060092e-05 2.4181251484316222e-05 2.1011976552006296e-10 -4.6715031483825796e-05 3.1252017182579258e-05 1.2414435662582901e-10 -4.2949481011648411e-05 3.1252017399873587e-05 1.9519848383650632e-10 -2.9126043883794671e-05 3.1252016366828531e-05 5.3813470639827331e-11 -3.041930948846282e-05 2.139411376498231e-05 1.2777955030572234e-10 -2.9153124341201483e-05 2.139411376498231e-05 1.2777955030572234e-10 -2.9153124341201483e-05 3.1252016366828531e-05 5.3813470639827305e-11 -3.0419309488462816e-05 2.3453171142800636e-05 1.7450436082391611e-11 -4.6722107160600913e-05 2.4287077722179631e-05 -3.0293808834118591e-11 -2.0414469344935866e-05 3.1252017399873587e-05 1.9519848383650632e-10 -2.9126043883794671e-05 3.1252016366828531e-05 5.3813470639827331e-11 -3.041930948846282e-05 2.1394113764982307e-05 1.2777955030572232e-10 -2.9153124341201486e-05 2.5496154318880622e-05 1.9982534254982882e-10 -1.7328678833984864e-05 3.1252016366828531e-05 5.3813470639827331e-11 -3.041930948846282e-05 2.4287077722179631e-05 -3.0293808834118578e-11 -2.0414469344935869e-05 2.1394113764982314e-05 1.2777955030572234e-10 -2.9153124341201493e-05 2.5496154318880622e-05 1.9982534254982877e-10 -1.7328678833984871e-05 3.1251919081902987e-05 4.4602931712029499e-13 -4.871425293634746e-05 3.1252017182579258e-05 1.2414435662582901e-10 -4.2949481011648411e-05 3.1252016366828531e-05 5.3813470639827331e-11 -3.041930948846282e-05 2.3453171142800636e-05 1.7450436082391611e-11 -4.6722107160600913e-05 3.1252009906481788e-05 -8.8539073524996852e-11 -3.0868094374283219e-05 3.1251919081902987e-05 4.4602931712028085e-13 -4.871425293634746e-05 3.1252016366828531e-05 5.3813470639827331e-11 -3.041930948846282e-05 2.3453171142800639e-05 1.7450436082391601e-11 -4.6722107160600913e-05 2.6311700985521199e-05 4.6086583409379477e-11 -1.1625169561934808e-09 3.1251946240737698e-05 -2.6271235746423757e-11 -1.6150478691982022e-05 3.1251995074788779e-05 1.0843199650766885e-10 -1.4904149350053619e-05 2.4287077722179631e-05 -3.0293808834118578e-11 -2.0414469344935869e-05 3.1251995074788779e-05 1.0843199650766885e-10 -1.4904149350053619e-05 2.6618553278207949e-05 1.4171650463498574e-10 -1.0157388689485999e-09 2.4287077722179627e-05 -3.0293808834118616e-11 -2.0414469344935869e-05 2.5496154318880622e-05 1.9982534254982882e-10 -1.7328678833984864e-05 3.1251995074788779e-05 1.0843199650766885e-10 -1.4904149350053619e-05 2.4287077722179631e-05 -3.029380883411861e-11 -2.0414469344935866e-05 3.1252016366828531e-05 5.3813470639827331e-11 -3.041930948846282e-05 2.5496154318880622e-05 1.9982534254982882e-10 -1.7328678833984864e-05 3.1251995074788779e-05 1.0843199650766885e-10 -1.4904149350053619e-05 3.1251946240737698e-05 -2.6271235746423734e-11 -1.6150478691982025e-05 3.1252016366828531e-05 5.3813470639827331e-11 -3.041930948846282e-05 2.4287077722179627e-05 -3.0293808834118539e-11 -2.0414469344935873e-05 2.2727343739128474e-05 8.5603175453222143e-11 -8.3438954484414913e-10 2.4287077722179631e-05 -3.0293808834118578e-11 -2.0414469344935869e-05 2.6618553278207945e-05 1.4171650463498574e-10 -1.0157388689439546e-09 2.5496154318880622e-05 1.9982534254982882e-10 -1.7328678833984864e-05 2.2727343739128474e-05 8.5603175453222143e-11 -8.3438954484414913e-10 2.139411376498231e-05 1.2777955030572232e-10 -2.9153124341201486e-05 2.4287077722179631e-05 -3.0293808834118565e-11 -2.0414469344935873e-05 2.5496154318880622e-05 1.9982534254982882e-10 -1.7328678833984864e-05 3.1252017399873587e-05 1.9519848383650632e-10 -2.9126043883794671e-05 3.1251995074788779e-05 1.0843199650766885e-10 -1.4904149350053619e-05 3.1252016366828531e-05 5.3813470639827331e-11 -3.041930948846282e-05 2.5496154318880622e-05 1.9982534254982882e-10 -1.7328678833984864e-05 2.2727343739128474e-05 8.5603175453222143e-11 -8.3438954484414913e-10 2.1039071816155517e-05 -7.7462011278651348e-12 -1.0244491804357833e-09 2.6311700985521199e-05 4.6086583409379477e-11 -1.1625169561942278e-09 2.4287077722179631e-05 -3.0293808834118578e-11 -2.0414469344935869e-05 2.6311700985521199e-05 4.6086583409379477e-11 -1.1625169561934808e-09 3.1251995074788779e-05 1.0843199650766884e-10 -1.4904149350053619e-05 2.6618553278207949e-05 1.4171650463498574e-10 -1.0157388689430737e-09 2.4287077722179631e-05 -3.0293808834118578e-11 -2.0414469344935869e-05 2.2727343739128474e-05 8.5603175453222143e-11 -8.3438954484414913e-10 2.6311700985521199e-05 4.6086583409379477e-11 -1.1625169561936072e-09 2.6618553278207949e-05 1.4171650463498574e-10 -1.0157388689427002e-09 2.4287077722179631e-05 -3.0293808834118578e-11 -2.0414469344935869e-05 2.2045997096802222e-05 1.6380920842954689e-10 -1.2740149891162176e-09 2.2727343739128474e-05 8.5603175453222143e-11 -8.3438954484414913e-10 2.6618553278207949e-05 1.4171650463498574e-10 -1.0157388689439536e-09 2.5496154318880622e-05 1.9982534254982882e-10 -1.7328678833984868e-05 3.1251995074788779e-05 1.0843199650766885e-10 -1.4904149350053619e-05 2.6618553278207949e-05 1.4171650463498574e-10 -1.0157388689413829e-09 3.1251943950739686e-05 1.7074123516209493e-10 -1.179422009390033e-09 3.1251779105552977e-05 9.577009622692816e-11 -1.3148070120597017e-09 3.1251995074788779e-05 1.0843199650766885e-10 -1.4904149350053619e-05 2.5496154318880619e-05 1.998253425498288e-10 -1.7328678833984864e-05 3.1251943950739686e-05 1.7074123516209493e-10 -1.1794220093898798e-09 2.6618553278207949e-05 1.4171650463498574e-10 -1.0157388689456142e-09 2.6311700985521199e-05 4.6086583409379477e-11 -1.1625169561934808e-09 2.6618553278207949e-05 1.4171650463498574e-10 -1.0157388689430737e-09 3.1251995074788779e-05 1.0843199650766885e-10 -1.4904149350053619e-05 3.1251779105552977e-05 9.577009622692816e-11 -1.3148070120597017e-09 3.1251779105552977e-05 9.577009622692816e-11 -1.3148070120597017e-09 3.1251995074788779e-05 1.0843199650766885e-10 -1.4904149350053619e-05 2.6311700985521199e-05 4.6086583409379477e-11 -1.1625169561934808e-09 3.1251946240737698e-05 -2.6271235746423711e-11 -1.6150478691982025e-05 3.1251739442848568e-05 -2.6622672183683445e-11 -1.5970008727670251e-09 3.1251779105552977e-05 9.577009622692816e-11 -1.3148070120597017e-09 2.6311700985521199e-05 4.6086583409379477e-11 -1.1625169561934808e-09 3.1251946240737698e-05 -2.6271235746423711e-11 -1.6150478691982025e-05 2.5264151485487139e-05 -1.3032927141877567e-10 -1.4003688676684483e-09 2.6676464160308499e-05 -1.737524577302638e-10 -9.8943494228996955e-10 3.125199363601053e-05 -8.4147187430474238e-11 -1.5872649875518769e-05 2.1494439294210849e-05 -1.2730347762149303e-10 -2.9406957153264253e-05 2.5264151485487139e-05 -1.3032927141877567e-10 -1.4003688676684483e-09 3.1251739442848562e-05 -2.6622672183683487e-11 -1.5970008727714741e-09 2.6311700985521199e-05 4.6086583409379457e-11 -1.1625169561943345e-09 3.1251946240737698e-05 -2.6271235746423711e-11 -1.6150478691982025e-05 3.1251739442848568e-05 -2.6622672183683445e-11 -1.5970008727670251e-09 2.5264151485487139e-05 -1.3032927141877567e-10 -1.4003688676684483e-09 3.125199363601053e-05 -8.4147187430474213e-11 -1.5872649875518769e-05 3.1251946240737698e-05 -2.6271235746423711e-11 -1.6150478691982025e-05 2.5264151485487139e-05 -1.3032927141877567e-10 -1.4003688676684483e-09 2.1494439294210852e-05 -1.2730347762149311e-10 -2.9406957153264253e-05 3.125199363601053e-05 -8.4147187430474226e-11 -1.5872649875518765e-05 2.4287077722179634e-05 -3.0293808834118552e-11 -2.0414469344935866e-05 2.6311700985521199e-05 4.6086583409379477e-11 -1.1625169561934808e-09 2.1039071816155517e-05 -7.7462011278651284e-12 -1.0244491804362854e-09 2.5264151485487139e-05 -1.3032927141877567e-10 -1.4003688676684483e-09 2.4287077722179631e-05 -3.0293808834118578e-11 -2.0414469344935869e-05 2.6311700985521199e-05 4.6086583409379477e-11 -1.1625169561934808e-09 2.5264151485487139e-05 -1.3032927141877567e-10 -1.4003688676684483e-09 3.1251946240737704e-05 -2.6271235746423724e-11 -1.6150478691982025e-05 2.4287077722179631e-05 -3.0293808834118578e-11 -2.0414469344935869e-05 2.5264151485487139e-05 -1.3032927141877567e-10 -1.4003688676684483e-09 3.125199363601053e-05 -8.41471874304742e-11 -1.5872649875518762e-05 3.1251946240737698e-05 -2.6271235746423711e-11 -1.6150478691982025e-05 2.4287077722179631e-05 -3.0293808834118578e-11 -2.0414469344935869e-05 3.125199363601053e-05 -8.4147187430474213e-11 -1.5872649875518769e-05 3.1252009906481788e-05 -8.8539073524996852e-11 -3.0868094374283219e-05 3.1251946240737698e-05 -2.6271235746423715e-11 -1.6150478691982028e-05 2.4287077722179631e-05 -3.0293808834118584e-11 -2.0414469344935873e-05 3.125199363601053e-05 -8.4147187430474213e-11 -1.5872649875518769e-05 2.5264151485487143e-05 -1.3032927141877567e-10 -1.4003688676686542e-09 3.1251739442848568e-05 -2.6622672183683445e-11 -1.5970008727670251e-09 3.1251793801667928e-05 -2.0906050607674297e-10 -1.3635349229510125e-09 3.125199363601053e-05 -8.4147187430474213e-11 -1.5872649875518769e-05 2.5264151485487143e-05 -1.303292714187757e-10 -1.4003688676727649e-09 3.1251793801667928e-05 -2.0906050607674297e-10 -1.3635349229510125e-09 2.6676464160308499e-05 -1.737524577302638e-10 -9.8943494228996955e-10 3.1251793801667928e-05 -2.0906050607674297e-10 -1.3635349229510125e-09 3.1252059710168957e-05 -1.7500055350643525e-10 -1.3726916451151582e-05 3.125199363601053e-05 -8.4147187430474213e-11 -1.5872649875518769e-05 2.6676464160308499e-05 -1.737524577302638e-10 -9.8943494228996955e-10 2.5957303085036658e-05 -3.0337018251389301e-10 -2.8142966010618702e-05 2.6676479182216682e-05 -2.2888840537259058e-10 -1.3726865755815395e-05 2.1436489022735564e-05 -3.6630132873162694e-10 -1.6171604407132384e-05 2.1494439294210852e-05 -1.2730347762149308e-10 -2.9406957153264253e-05 2.5264151485487139e-05 -1.3032927141877567e-10 -1.4003688676684483e-09 2.1683024281659412e-05 -2.2243793355772203e-10 -1.1986876359722383e-09 2.6676464160308499e-05 -1.737524577302638e-10 -9.8943494228996955e-10 2.1494439294210852e-05 -1.2730347762149305e-10 -2.9406957153264249e-05 3.1252014305155806e-05 -1.7159744231604686e-10 -2.9635747849816863e-05 3.125199363601053e-05 -8.4147187430474213e-11 -1.5872649875518769e-05 3.1252059710168957e-05 -1.7500055350643525e-10 -1.3726916451151582e-05 2.1494439294210852e-05 -1.2730347762149305e-10 -2.9406957153264253e-05 3.1252059710168957e-05 -1.7500055350643525e-10 -1.3726916451151582e-05 3.125199363601053e-05 -8.4147187430474213e-11 -1.5872649875518769e-05 2.6676464160308503e-05 -1.7375245773026383e-10 -9.8943494229186213e-10 2.1494439294210855e-05 -1.27303477621493e-10 -2.9406957153264246e-05 3.1252059710168957e-05 -1.7500055350643525e-10 -1.3726916451151582e-05 2.6676479182216682e-05 -2.2888840537259063e-10 -1.3726865755815398e-05 2.5957303085036654e-05 -3.0337018251389301e-10 -2.8142966010618695e-05 2.1494439294210855e-05 -1.2730347762149318e-10 -2.9406957153264263e-05 3.1252059710168957e-05 -1.7500055350643525e-10 -1.3726916451151582e-05 2.6676464160308499e-05 -1.737524577302638e-10 -9.8943494229035873e-10 2.6676479182216682e-05 -2.2888840537259058e-10 -1.3726865755815395e-05 2.1494439294210855e-05 -1.2730347762149308e-10 -2.9406957153264246e-05 2.1683024281659412e-05 -2.2243793355772203e-10 -1.1986876359727568e-09 2.6676479182216682e-05 -2.2888840537259058e-10 -1.3726865755815396e-05 2.6676464160308499e-05 -1.737524577302638e-10 -9.8943494228996955e-10 2.1494439294210852e-05 -1.2730347762149305e-10 -2.9406957153264253e-05 2.6676479182216682e-05 -2.2888840537259058e-10 -1.3726865755815395e-05 2.5957303085036658e-05 -3.0337018251389301e-10 -2.8142966010618702e-05 3.1251901867374675e-05 -3.0911602677589984e-10 -1.8750876842459306e-05 3.1252059710168957e-05 -1.7500055350643525e-10 -1.3726916451151582e-05 2.5957303085036658e-05 -3.0337018251389301e-10 -2.8142966010618702e-05 3.1252014305155806e-05 -1.7159744231604686e-10 -2.9635747849816863e-05 3.1251901867374675e-05 -3.0911602677589984e-10 -1.8750876842459306e-05 3.1252059710168957e-05 -1.7500055350643525e-10 -1.3726916451151582e-05 2.6676464160308499e-05 -1.737524577302638e-10 -9.8943494228996955e-10 3.1251837791740214e-05 -3.3872421470173439e-10 -1.301557092504443e-09 2.6676479182216682e-05 -2.2888840537259058e-10 -1.3726865755815395e-05 2.5001725927798752e-05 -3.1832516123945588e-10 -1.211878262500165e-09 2.6676479182216682e-05 -2.2888840537259058e-10 -1.3726865755815395e-05 3.1251901867374675e-05 -3.0911602677589984e-10 -1.8750876842459306e-05 3.1251837791740208e-05 -3.3872421470173434e-10 -1.3015570925031048e-09 3.1252059710168957e-05 -1.7500055350643525e-10 -1.3726916451151582e-05 3.1251837791740214e-05 -3.3872421470173439e-10 -1.301557092504443e-09 3.1252059710168957e-05 -1.7500055350643525e-10 -1.3726916451151582e-05 3.1251793801667921e-05 -2.0906050607674294e-10 -1.3635349229499016e-09 2.6676464160308499e-05 -1.737524577302638e-10 -9.8943494228996955e-10 3.1252059710168957e-05 -1.7500055350643525e-10 -1.3726916451151582e-05 3.1251837791740208e-05 -3.3872421470173434e-10 -1.3015570925033321e-09 2.6676479182216682e-05 -2.2888840537259058e-10 -1.3726865755815395e-05 2.6676464160308499e-05 -1.737524577302638e-10 -9.8943494228996955e-10 2.1436489022735564e-05 -3.6630132873162694e-10 -1.6171604407132384e-05 2.1683024281659412e-05 -2.2243793355772203e-10 -1.1986876359727568e-09 2.6676479182216682e-05 -2.2888840537259066e-10 -1.3726865755815393e-05 2.5001725927798752e-05 -3.1832516123945588e-10 -1.211878262500165e-09 2.6676464160308499e-05 -1.737524577302638e-10 -9.8943494228996955e-10 2.6676479182216682e-05 -2.2888840537259058e-10 -1.3726865755815395e-05 2.1683024281659412e-05 -2.2243793355772203e-10 -1.1986876359733122e-09 2.5001725927798752e-05 -3.1832516123945588e-10 -1.211878262500165e-09 2.1436489022735564e-05 -3.6630132873162694e-10 -1.6171604407132384e-05 2.1494439294210855e-05 -1.2730347762149303e-10 -2.940695715326426e-05 2.1683024281659408e-05 -2.2243793355772203e-10 -1.1986876359705499e-09 1.5638557697210283e-05 -2.1717704494888222e-10 -2.11734444851686e-05 2.1436489022735564e-05 -3.6630132873162694e-10 -1.6171604407132384e-05 2.6676479182216682e-05 -2.2888840537259058e-10 -1.3726865755815395e-05 2.1683024281659412e-05 -2.2243793355772203e-10 -1.198687635972319e-09 2.1494439294210849e-05 -1.2730347762149298e-10 -2.9406957153264256e-05 2.1683024281659412e-05 -2.2243793355772203e-10 -1.1986876359727568e-09 2.1436489022735564e-05 -3.6630132873162694e-10 -1.617160440713238e-05 1.875128239425245e-05 -2.9955861271432919e-10 -1.3680770782467825e-09 2.5001725927798752e-05 -3.1832516123945588e-10 -1.211878262500165e-09 1.543597164672789e-05 -3.0158500085422833e-10 -1.2411370088641572e-05 1.2500837365116817e-05 -3.2551890321684459e-10 -1.6298269848355721e-09 1.5928202697905011e-05 -1.9231572627623468e-10 -1.1798400389091704e-09 1.875128239425245e-05 -2.9955861271432919e-10 -1.3680770782467825e-09 1.5928202697905011e-05 -1.9231572627623468e-10 -1.1798400389091704e-09 2.1683024281659412e-05 -2.2243793355772203e-10 -1.1986876359727568e-09 2.1436489022735564e-05 -3.6630132873162694e-10 -1.6171604407132384e-05 1.875128239425245e-05 -2.9955861271432919e-10 -1.3680770782467825e-09 2.1436489022735564e-05 -3.6630132873162694e-10 -1.6171604407132384e-05 1.543597164672789e-05 -3.0158500085422833e-10 -1.2411370088641572e-05 1.5928202697905011e-05 -1.9231572627623468e-10 -1.1798400389091704e-09 1.875128239425245e-05 -2.9955861271432919e-10 -1.3680770782467825e-09 1.4903608652116738e-05 -3.692257276761122e-10 -2.9757922028204959e-05 2.1436489022735564e-05 -3.6630132873162694e-10 -1.6171604407132384e-05 1.543597164672789e-05 -3.0158500085422833e-10 -1.2411370088641572e-05 1.5638557697210287e-05 -2.1717704494888214e-10 -2.1173444485168604e-05 1.543597164672789e-05 -3.0158500085422833e-10 -1.2411370088641572e-05 2.1436489022735564e-05 -3.6630132873162694e-10 -1.6171604407132384e-05 1.5928202697905011e-05 -1.9231572627623468e-10 -1.1798400389091704e-09 1.5638557697210287e-05 -2.1717704494888214e-10 -2.1173444485168604e-05 1.5928202697905011e-05 -1.9231572627623468e-10 -1.1798400389091704e-09 2.1436489022735568e-05 -3.6630132873162699e-10 -1.617160440713238e-05 2.1683024281659412e-05 -2.2243793355772203e-10 -1.1986876359727568e-09 1.5638557697210287e-05 -2.1717704494888211e-10 -2.1173444485168604e-05 1.9078466057711964e-05 -1.101400814659156e-10 -1.1190285352708717e-09 1.5928202697905011e-05 -1.9231572627623468e-10 -1.1798400389091704e-09 2.1683024281659412e-05 -2.2243793355772203e-10 -1.1986876359727568e-09 1.5638557697210287e-05 -2.1717704494888214e-10 -2.1173444485168604e-05 1.9078466057711964e-05 -1.101400814659156e-10 -1.1190285352708717e-09 2.1494439294210849e-05 -1.2730347762149303e-10 -2.9406957153264249e-05 2.5264151485487139e-05 -1.3032927141877567e-10 -1.4003688676684483e-09 2.4287077722179631e-05 -3.0293808834118578e-11 -2.0414469344935869e-05 1.9078466057711964e-05 -1.101400814659156e-10 -1.1190285352708717e-09 2.1683024281659412e-05 -2.2243793355772203e-10 -1.1986876359727568e-09 2.1494439294210852e-05 -1.2730347762149308e-10 -2.9406957153264249e-05 1.5638557697210287e-05 -2.1717704494888214e-10 -2.1173444485168604e-05 2.5264151485487139e-05 -1.3032927141877567e-10 -1.4003688676684483e-09 1.9078466057711964e-05 -1.101400814659156e-10 -1.1190285352719087e-09 2.1683024281659412e-05 -2.2243793355772203e-10 -1.1986876359727568e-09 2.1494439294210852e-05 -1.2730347762149303e-10 -2.9406957153264249e-05 1.9078466057711964e-05 -1.101400814659156e-10 -1.1190285352708717e-09 1.4317302933629028e-05 -1.1966122122557283e-10 -1.0177412497310061e-09 1.5928202697905011e-05 -1.9231572627623468e-10 -1.1798400389084503e-09 1.5638557697210287e-05 -2.1717704494888214e-10 -2.1173444485168604e-05 1.4317302933629028e-05 -1.1966122122557283e-10 -1.0177412497310061e-09 1.9078466057711964e-05 -1.101400814659156e-10 -1.1190285352708717e-09 1.5638686040922115e-05 -2.109935811915278e-11 -2.3403614258015267e-05 1.5638557697210287e-05 -2.1717704494888214e-10 -2.1173444485168604e-05 2.4287077722179631e-05 -3.0293808834118578e-11 -2.0414469344935869e-05 1.9078466057711964e-05 -1.101400814659156e-10 -1.1190285352717034e-09 1.5638686040922111e-05 -2.1099358119152771e-11 -2.3403614258015267e-05 2.1039071816155517e-05 -7.7462011278651381e-12 -1.0244491804363047e-09 2.1494439294210852e-05 -1.2730347762149305e-10 -2.9406957153264253e-05 1.5638686040922115e-05 -2.109935811915278e-11 -2.3403614258015267e-05 1.907846605771196e-05 -1.101400814659156e-10 -1.1190285352726073e-09 1.563855769721029e-05 -2.1717704494888209e-10 -2.11734444851686e-05 2.4287077722179631e-05 -3.0293808834118578e-11 -2.0414469344935869e-05 1.5638686040922115e-05 -2.109935811915278e-11 -2.3403614258015267e-05 1.9078466057711964e-05 -1.1014008146591559e-10 -1.1190285352700215e-09 2.1494439294210852e-05 -1.2730347762149305e-10 -2.9406957153264253e-05 1.6239127197677614e-05 2.3256091103425088e-11 -1.3010129882821782e-09 1.9078466057711964e-05 -1.101400814659156e-10 -1.1190285352707087e-09 2.1039071816155517e-05 -7.7462011278651381e-12 -1.0244491804364676e-09 1.5638686040922115e-05 -2.109935811915278e-11 -2.3403614258015267e-05 1.4317302933629028e-05 -1.1966122122557283e-10 -1.0177412497310061e-09 1.9078466057711964e-05 -1.101400814659156e-10 -1.1190285352708717e-09 1.6239127197677614e-05 2.3256091103425088e-11 -1.3010129882821782e-09 1.5638686040922115e-05 -2.109935811915278e-11 -2.3403614258015267e-05 1.9078466057711964e-05 -1.101400814659156e-10 -1.1190285352708717e-09 2.5264151485487139e-05 -1.3032927141877567e-10 -1.4003688676684483e-09 2.103907181615552e-05 -7.7462011278651542e-12 -1.0244491804381181e-09 2.4287077722179631e-05 -3.0293808834118578e-11 -2.0414469344935869e-05 2.1494439294210852e-05 -1.2730347762149305e-10 -2.9406957153264253e-05 2.3453171142800636e-05 1.7450436082391604e-11 -4.6722107160600913e-05 1.5626080314932658e-05 -1.8184047746446243e-12 -4.6875184481376282e-05 1.564908019721353e-05 -1.6205830801956775e-10 -4.9581342359516047e-05 2.3453171142800636e-05 1.7450436082391611e-11 -4.6722107160600913e-05 1.564908019721353e-05 -1.6205830801956777e-10 -4.9581342359516047e-05 2.1494439294210849e-05 -1.2730347762149305e-10 -2.9406957153264249e-05 2.436849928348957e-05 -1.7852400812414227e-10 -4.6888989085895959e-05 1.5626080314932658e-05 -1.8184047746446237e-12 -4.6875184481376282e-05 2.3453171142800636e-05 1.7450436082391611e-11 -4.6722107160600913e-05 2.1494439294210849e-05 -1.2730347762149298e-10 -2.9406957153264249e-05 1.5638686040922111e-05 -2.1099358119152751e-11 -2.3403614258015257e-05 2.1494439294210852e-05 -1.2730347762149305e-10 -2.9406957153264253e-05 1.5638686040922111e-05 -2.1099358119152783e-11 -2.3403614258015267e-05 2.3453171142800636e-05 1.7450436082391611e-11 -4.6722107160600913e-05 2.4287077722179631e-05 -3.0293808834118578e-11 -2.0414469344935869e-05 1.564908019721353e-05 -1.6205830801956777e-10 -4.9581342359516047e-05 1.5638686040922108e-05 -2.1099358119152793e-11 -2.3403614258015271e-05 2.1494439294210849e-05 -1.2730347762149305e-10 -2.9406957153264253e-05 1.5638557697210287e-05 -2.1717704494888222e-10 -2.1173444485168607e-05 1.5626080314932658e-05 -1.8184047746446237e-12 -4.6875184481376282e-05 2.1494439294210849e-05 -1.2730347762149305e-10 -2.9406957153264253e-05 1.564908019721353e-05 -1.6205830801956777e-10 -4.9581342359516047e-05 1.5638686040922111e-05 -2.1099358119152787e-11 -2.3403614258015261e-05 2.5957303085036658e-05 -3.0337018251389301e-10 -2.8142966010618702e-05 2.1494439294210852e-05 -1.2730347762149305e-10 -2.9406957153264253e-05 2.0892771730171086e-05 -3.3362549203329523e-10 -3.6124690786743693e-05 2.436849928348957e-05 -1.7852400812414229e-10 -4.6888989085895966e-05 2.1436489022735564e-05 -3.6630132873162694e-10 -1.6171604407132384e-05 2.0892771730171086e-05 -3.3362549203329523e-10 -3.6124690786743693e-05 2.5957303085036658e-05 -3.0337018251389301e-10 -2.8142966010618702e-05 2.1494439294210852e-05 -1.2730347762149305e-10 -2.9406957153264253e-05 2.0892771730171086e-05 -3.3362549203329523e-10 -3.6124690786743693e-05 1.4903608652116738e-05 -3.692257276761122e-10 -2.9757922028204959e-05 1.5649080197213533e-05 -1.6205830801956782e-10 -4.958134235951604e-05 1.5638557697210287e-05 -2.1717704494888216e-10 -2.117344448516861e-05 2.1554531994967465e-05 -2.5665886626030198e-10 -5.0793742719481721e-05 2.0892771730171086e-05 -3.3362549203329523e-10 -3.6124690786743693e-05 1.564908019721353e-05 -1.620583080195678e-10 -4.9581342359516047e-05 2.436849928348957e-05 -1.7852400812414229e-10 -4.6888989085895966e-05 2.1436489022735564e-05 -3.6630132873162694e-10 -1.6171604407132384e-05 2.0892771730171086e-05 -3.3362549203329523e-10 -3.6124690786743693e-05 2.1494439294210852e-05 -1.2730347762149305e-10 -2.9406957153264256e-05 1.5638557697210283e-05 -2.1717704494888219e-10 -2.1173444485168604e-05 2.0892771730171086e-05 -3.3362549203329523e-10 -3.6124690786743693e-05 1.5649080197213527e-05 -1.6205830801956777e-10 -4.958134235951604e-05 2.1494439294210859e-05 -1.2730347762149303e-10 -2.9406957153264253e-05 1.5638557697210287e-05 -2.1717704494888211e-10 -2.117344448516861e-05 2.1494439294210852e-05 -1.2730347762149305e-10 -2.9406957153264253e-05 1.564908019721353e-05 -1.6205830801956777e-10 -4.958134235951604e-05 2.0892771730171086e-05 -3.3362549203329523e-10 -3.6124690786743693e-05 2.436849928348957e-05 -1.7852400812414229e-10 -4.6888989085895966e-05 2.1436489022735564e-05 -3.6630132873162694e-10 -1.6171604407132384e-05 1.4903608652116738e-05 -3.692257276761122e-10 -2.9757922028204959e-05 2.0892771730171086e-05 -3.3362549203329523e-10 -3.6124690786743693e-05 1.563855769721029e-05 -2.1717704494888216e-10 -2.1173444485168604e-05 1.5626071302713204e-05 -3.190984609223168e-10 -4.5036316080773629e-05 2.0892771730171086e-05 -3.3362549203329523e-10 -3.6124690786743693e-05 1.4903608652116738e-05 -3.692257276761122e-10 -2.9757922028204959e-05 1.564908019721353e-05 -1.6205830801956777e-10 -4.9581342359516047e-05 1.5626071302713204e-05 -3.190984609223168e-10 -4.5036316080773629e-05 2.1554531994967465e-05 -2.5665886626030198e-10 -5.0793742719481721e-05 2.0892771730171086e-05 -3.3362549203329523e-10 -3.6124690786743693e-05 1.564908019721353e-05 -1.6205830801956777e-10 -4.9581342359516047e-05 2.0892771730171086e-05 -3.3362549203329523e-10 -3.6124690786743693e-05 2.1554531994967461e-05 -2.5665886626030198e-10 -5.0793742719481721e-05 2.6106481687239849e-05 -3.0295750478771744e-10 -4.5965932726599716e-05 2.436849928348957e-05 -1.7852400812414229e-10 -4.6888989085895966e-05 3.1252014305155806e-05 -1.7159744231604686e-10 -2.9635747849816863e-05 2.1494439294210852e-05 -1.2730347762149305e-10 -2.9406957153264253e-05 2.5957303085036658e-05 -3.0337018251389296e-10 -2.8142966010618698e-05 2.436849928348957e-05 -1.7852400812414227e-10 -4.6888989085895966e-05 3.1252014305155806e-05 -1.7159744231604686e-10 -2.9635747849816863e-05 3.1252059710168957e-05 -1.7500055350643525e-10 -1.3726916451151582e-05 2.5957303085036658e-05 -3.0337018251389301e-10 -2.8142966010618702e-05 2.1494439294210852e-05 -1.2730347762149305e-10 -2.9406957153264253e-05 2.6106481687239849e-05 -3.0295750478771744e-10 -4.5965932726599716e-05 2.5957303085036658e-05 -3.0337018251389301e-10 -2.8142966010618702e-05 2.0892771730171086e-05 -3.3362549203329523e-10 -3.6124690786743693e-05 2.4368499283489567e-05 -1.7852400812414227e-10 -4.6888989085895959e-05 2.6106481687239849e-05 -3.0295750478771744e-10 -4.5965932726599716e-05 3.1252014305155806e-05 -1.7159744231604683e-10 -2.9635747849816863e-05 2.5957303085036658e-05 -3.0337018251389301e-10 -2.8142966010618702e-05 2.4368499283489574e-05 -1.7852400812414232e-10 -4.6888989085895972e-05 2.5957303085036658e-05 -3.0337018251389301e-10 -2.8142966010618702e-05 2.6106481687239849e-05 -3.0295750478771734e-10 -4.5965932726599723e-05 3.125189126569388e-05 -3.6346775157948312e-10 -3.7500538490101939e-05 3.1252014305155806e-05 -1.7159744231604686e-10 -2.9635747849816863e-05 2.6106481687239849e-05 -3.0295750478771744e-10 -4.5965932726599716e-05 3.1251989379071837e-05 -2.3044250861377058e-10 -4.778172081904615e-05 3.1251913013361715e-05 -4.0354299146462793e-10 -5.6250205325166454e-05 3.125189126569388e-05 -3.6346775157948307e-10 -3.7500538490101939e-05 3.125189126569388e-05 -3.6346775157948307e-10 -3.7500538490101939e-05 2.6106481687239849e-05 -3.0295750478771744e-10 -4.5965932726599716e-05 3.125198937907185e-05 -2.3044250861377063e-10 -4.7781720819046157e-05 3.1252014305155806e-05 -1.7159744231604686e-10 -2.9635747849816863e-05 3.1252014305155806e-05 -1.7159744231604686e-10 -2.9635747849816863e-05 3.1251891265693873e-05 -3.6346775157948302e-10 -3.7500538490101939e-05 2.5957303085036658e-05 -3.0337018251389301e-10 -2.8142966010618702e-05 3.1251901867374675e-05 -3.0911602677589984e-10 -1.8750876842459306e-05 3.1252033840428552e-05 -1.2734589923485754e-10 -4.2949502914496701e-05 3.1252014305155806e-05 -1.7159744231604686e-10 -2.9635747849816863e-05 3.1251989379071843e-05 -2.3044250861377063e-10 -4.778172081904615e-05 2.436849928348957e-05 -1.7852400812414229e-10 -4.6888989085895966e-05 2.6106481687239849e-05 -3.0295750478771744e-10 -4.5965932726599716e-05 3.1251989379071843e-05 -2.3044250861377066e-10 -4.7781720819046157e-05 3.1252014305155799e-05 -1.7159744231604683e-10 -2.9635747849816863e-05 2.4368499283489567e-05 -1.7852400812414227e-10 -4.6888989085895952e-05 3.1252009906481788e-05 -8.8539073524996852e-11 -3.0868094374283219e-05 2.1494439294210852e-05 -1.2730347762149308e-10 -2.9406957153264256e-05 2.3453171142800636e-05 1.7450436082391569e-11 -4.67221071606009e-05 2.4287077722179631e-05 -3.0293808834118578e-11 -2.0414469344935869e-05 3.1252009906481788e-05 -8.8539073524996852e-11 -3.0868094374283219e-05 3.1252014305155806e-05 -1.7159744231604686e-10 -2.9635747849816863e-05 3.1252033840428552e-05 -1.2734589923485754e-10 -4.2949502914496701e-05 2.1494439294210852e-05 -1.2730347762149305e-10 -2.9406957153264253e-05 3.1252033840428552e-05 -1.2734589923485754e-10 -4.2949502914496701e-05 2.3453171142800636e-05 1.7450436082391614e-11 -4.6722107160600927e-05 2.1494439294210849e-05 -1.2730347762149303e-10 -2.9406957153264249e-05 2.4368499283489567e-05 -1.7852400812414227e-10 -4.6888989085895972e-05 3.125199363601053e-05 -8.4147187430474213e-11 -1.5872649875518769e-05 3.1252014305155806e-05 -1.7159744231604686e-10 -2.963574784981686e-05 3.1252009906481788e-05 -8.8539073524996852e-11 -3.0868094374283219e-05 2.1494439294210852e-05 -1.2730347762149305e-10 -2.9406957153264253e-05 3.1252033840428552e-05 -1.2734589923485754e-10 -4.2949502914496701e-05 2.1494439294210852e-05 -1.2730347762149305e-10 -2.9406957153264249e-05 3.1252014305155806e-05 -1.7159744231604686e-10 -2.9635747849816863e-05 2.4368499283489577e-05 -1.7852400812414234e-10 -4.6888989085895979e-05 3.125199363601053e-05 -8.4147187430474213e-11 -1.5872649875518769e-05 2.1494439294210852e-05 -1.2730347762149305e-10 -2.9406957153264249e-05 3.1252009906481788e-05 -8.8539073524996852e-11 -3.0868094374283219e-05 2.4287077722179627e-05 -3.0293808834118532e-11 -2.0414469344935866e-05 3.1252009906481788e-05 -8.8539073524996852e-11 -3.0868094374283219e-05 2.1494439294210852e-05 -1.2730347762149305e-10 -2.9406957153264253e-05 3.1252033840428552e-05 -1.2734589923485754e-10 -4.2949502914496701e-05 2.3453171142800639e-05 1.7450436082391543e-11 -4.6722107160600913e-05 3.1252016366828531e-05 5.3813470639827331e-11 -3.041930948846282e-05 3.1251946240737698e-05 -2.6271235746423711e-11 -1.6150478691982025e-05 3.1252009906481788e-05 -8.8539073524996852e-11 -3.0868094374283219e-05 2.4287077722179631e-05 -3.0293808834118578e-11 -2.0414469344935869e-05 3.1252009906481788e-05 -8.8539073524996852e-11 -3.0868094374283219e-05 3.1252033840428552e-05 -1.2734589923485754e-10 -4.2949502914496701e-05 3.1251919081902987e-05 4.4602931712029499e-13 -4.871425293634746e-05 2.3453171142800639e-05 1.7450436082391617e-11 -4.6722107160600913e-05 3.1252068087313231e-05 -1.1435002163444771e-10 -5.6205533371042646e-05 2.3453171142800636e-05 1.7450436082391611e-11 -4.6722107160600913e-05 2.1483646799798912e-05 -1.268934540794627e-10 -6.4446204909271516e-05 2.4382763659361646e-05 -5.2529538505066792e-12 -7.3142699487648859e-05 3.1252068087313231e-05 -1.1435002163444771e-10 -5.6205533371042646e-05 3.1252084068558482e-05 -8.2624500136398317e-11 -6.8178965631876933e-05 2.1483646799798912e-05 -1.2689345407946275e-10 -6.444620490927153e-05 2.5501729756884846e-05 -1.6534318596721295e-10 -7.6499308779775905e-05 3.1252068087313231e-05 -1.1435002163444771e-10 -5.6205533371042646e-05 3.1252020727542876e-05 2.137005047926653e-11 -6.3113058246727947e-05 3.1251919081902987e-05 4.4602931712029499e-13 -4.871425293634746e-05 2.3453171142800636e-05 1.7450436082391611e-11 -4.6722107160600913e-05 3.1252068087313231e-05 -1.1435002163444771e-10 -5.6205533371042646e-05 2.3453171142800636e-05 1.7450436082391611e-11 -4.6722107160600913e-05 3.1252033840428552e-05 -1.2734589923485754e-10 -4.2949502914496701e-05 2.4368499283489567e-05 -1.7852400812414227e-10 -4.6888989085895966e-05 2.1483646799798912e-05 -1.268934540794627e-10 -6.4446204909271516e-05 2.4368499283489567e-05 -1.7852400812414227e-10 -4.6888989085895966e-05 3.1252068087313231e-05 -1.143500216344477e-10 -5.6205533371042646e-05 2.5501729756884846e-05 -1.6534318596721292e-10 -7.6499308779775905e-05 3.1252068087313231e-05 -1.1435002163444771e-10 -5.6205533371042646e-05 2.1483646799798912e-05 -1.268934540794627e-10 -6.4446204909271516e-05 2.3453171142800636e-05 1.7450436082391588e-11 -4.6722107160600913e-05 2.4368499283489567e-05 -1.7852400812414227e-10 -4.6888989085895959e-05 3.1252020727542876e-05 2.137005047926653e-11 -6.3113058246727947e-05 2.3453171142800632e-05 1.7450436082391604e-11 -4.6722107160600913e-05 3.1252068087313231e-05 -1.1435002163444771e-10 -5.6205533371042646e-05 2.4382763659361643e-05 -5.2529538505066776e-12 -7.3142699487648859e-05 3.1252084068558482e-05 -8.2624500136398317e-11 -6.8178965631876933e-05 3.1252068087313231e-05 -1.1435002163444771e-10 -5.6205533371042646e-05 2.1483646799798908e-05 -1.2689345407946277e-10 -6.4446204909271516e-05 2.4382763659361646e-05 -5.2529538505065887e-12 -7.3142699487648846e-05 3.1252068087313231e-05 -1.1435002163444771e-10 -5.6205533371042646e-05 3.1251919081902987e-05 4.4602931712029499e-13 -4.871425293634746e-05 3.1252033840428552e-05 -1.2734589923485754e-10 -4.2949502914496701e-05 2.3453171142800636e-05 1.7450436082391611e-11 -4.6722107160600913e-05 3.1252084068558482e-05 -8.2624500136398317e-11 -6.8178965631876933e-05 3.1252020727542876e-05 2.1370050479266527e-11 -6.3113058246727947e-05 3.1252068087313231e-05 -1.1435002163444771e-10 -5.6205533371042646e-05 2.4382763659361646e-05 -5.2529538505066792e-12 -7.3142699487648859e-05 3.1252068087313231e-05 -1.1435002163444771e-10 -5.6205533371042646e-05 3.1252067106816596e-05 -1.9969452456558235e-10 -6.6155401013253385e-05 3.1252084068558482e-05 -8.2624500136398317e-11 -6.8178965631876933e-05 2.5501729756884846e-05 -1.6534318596721292e-10 -7.6499308779775905e-05 3.1252068087313231e-05 -1.1435002163444771e-10 -5.6205533371042646e-05 3.1252033840428552e-05 -1.2734589923485754e-10 -4.2949502914496701e-05 3.1251989379071843e-05 -2.3044250861377063e-10 -4.778172081904615e-05 2.436849928348957e-05 -1.7852400812414229e-10 -4.6888989085895966e-05 3.1251989379071843e-05 -2.3044250861377063e-10 -4.778172081904615e-05 2.5461185439630186e-05 -3.2728400344216655e-10 -6.4607713842522677e-05 3.1252067106816596e-05 -1.9969452456558235e-10 -6.6155401013253385e-05 2.436849928348957e-05 -1.7852400812414227e-10 -4.6888989085895966e-05 2.5461185439630183e-05 -3.2728400344216655e-10 -6.460771384252269e-05 2.4368499283489567e-05 -1.7852400812414232e-10 -4.6888989085895959e-05 2.1483646799798915e-05 -1.2689345407946264e-10 -6.4446204909271502e-05 2.5501729756884846e-05 -1.6534318596721292e-10 -7.6499308779775905e-05 2.5461185439630183e-05 -3.2728400344216655e-10 -6.460771384252269e-05 3.1252067106816596e-05 -1.9969452456558235e-10 -6.6155401013253385e-05 2.436849928348957e-05 -1.7852400812414232e-10 -4.6888989085895966e-05 2.5501729756884846e-05 -1.6534318596721292e-10 -7.6499308779775905e-05 3.1252067106816596e-05 -1.9969452456558235e-10 -6.6155401013253385e-05 3.1252068087313231e-05 -1.1435002163444771e-10 -5.6205533371042646e-05 2.436849928348957e-05 -1.7852400812414229e-10 -4.6888989085895966e-05 2.5501729756884846e-05 -1.6534318596721292e-10 -7.6499308779775905e-05 3.1251989379071843e-05 -2.3044250861377063e-10 -4.778172081904615e-05 3.1252067106816596e-05 -1.9969452456558235e-10 -6.6155401013253385e-05 3.1252068087313231e-05 -1.1435002163444771e-10 -5.6205533371042646e-05 2.436849928348957e-05 -1.7852400812414229e-10 -4.6888989085895966e-05 3.1252067106816596e-05 -1.9969452456558235e-10 -6.6155401013253385e-05 2.5461185439630183e-05 -3.2728400344216655e-10 -6.460771384252269e-05 3.1251913013361715e-05 -4.0354299146462793e-10 -5.6250205325166454e-05 3.1252023970115326e-05 -3.2956610911807949e-10 -7.4999916876127083e-05 2.5461185439630183e-05 -3.2728400344216655e-10 -6.460771384252269e-05 3.1251913013361715e-05 -4.0354299146462793e-10 -5.6250205325166454e-05 3.1251989379071843e-05 -2.3044250861377063e-10 -4.778172081904615e-05 3.1252067106816596e-05 -1.9969452456558235e-10 -6.6155401013253385e-05 3.1251989379071843e-05 -2.3044250861377063e-10 -4.778172081904615e-05 3.1251913013361708e-05 -4.0354299146462793e-10 -5.6250205325166454e-05 2.5461185439630183e-05 -3.2728400344216655e-10 -6.460771384252269e-05 2.6106481687239842e-05 -3.0295750478771739e-10 -4.596593272659971e-05 2.5461185439630183e-05 -3.2728400344216655e-10 -6.460771384252269e-05 2.6106481687239849e-05 -3.0295750478771744e-10 -4.5965932726599716e-05 2.1554531994967465e-05 -2.5665886626030198e-10 -5.0793742719481721e-05 2.436849928348957e-05 -1.7852400812414229e-10 -4.6888989085895966e-05 2.5461185439630183e-05 -3.2728400344216655e-10 -6.460771384252269e-05 3.1251989379071843e-05 -2.3044250861377063e-10 -4.778172081904615e-05 2.6106481687239849e-05 -3.0295750478771744e-10 -4.5965932726599716e-05 2.436849928348957e-05 -1.7852400812414229e-10 -4.6888989085895966e-05 2.1554531994967465e-05 -2.5665886626030198e-10 -5.0793742719481721e-05 1.8757636417862942e-05 -3.7000714308790392e-10 -6.3329757798831284e-05 2.1483646799798912e-05 -1.268934540794627e-10 -6.4446204909271516e-05 1.564908019721353e-05 -1.6205830801956777e-10 -4.9581342359516054e-05 1.8757636417862942e-05 -3.7000714308790392e-10 -6.3329757798831284e-05 2.5461185439630183e-05 -3.2728400344216655e-10 -6.460771384252269e-05 2.1554531994967465e-05 -2.5665886626030198e-10 -5.0793742719481721e-05 2.1483646799798912e-05 -1.268934540794627e-10 -6.4446204909271516e-05 2.5461185439630183e-05 -3.2728400344216655e-10 -6.460771384252269e-05 2.1554531994967465e-05 -2.5665886626030198e-10 -5.0793742719481721e-05 2.1483646799798912e-05 -1.268934540794627e-10 -6.4446204909271502e-05 2.436849928348957e-05 -1.7852400812414227e-10 -4.6888989085895972e-05 2.1703996155614531e-05 -3.0167045950455938e-10 -7.8843288528729883e-05 2.1483646799798912e-05 -1.268934540794627e-10 -6.4446204909271516e-05 1.8757636417862945e-05 -3.7000714308790392e-10 -6.3329757798831284e-05 1.5652595167277467e-05 -1.9175261860363514e-10 -7.320410195551853e-05 2.1483646799798912e-05 -1.268934540794627e-10 -6.4446204909271516e-05 2.1554531994967465e-05 -2.5665886626030198e-10 -5.0793742719481728e-05 1.5649080197213527e-05 -1.6205830801956775e-10 -4.958134235951604e-05 2.436849928348957e-05 -1.7852400812414229e-10 -4.6888989085895966e-05 2.1483646799798912e-05 -1.268934540794627e-10 -6.4446204909271516e-05 1.5649080197213527e-05 -1.6205830801956772e-10 -4.958134235951604e-05 1.8757636417862942e-05 -3.7000714308790392e-10 -6.3329757798831284e-05 1.5652595167277467e-05 -1.9175261860363514e-10 -7.320410195551853e-05 1.8757636417862942e-05 -3.7000714308790392e-10 -6.3329757798831284e-05 2.5461185439630183e-05 -3.2728400344216655e-10 -6.460771384252269e-05 2.1483646799798912e-05 -1.268934540794627e-10 -6.4446204909271516e-05 2.5501729756884846e-05 -1.6534318596721292e-10 -7.6499308779775905e-05 2.1554531994967465e-05 -2.5665886626030198e-10 -5.0793742719481721e-05 1.5626071302713204e-05 -3.190984609223168e-10 -4.5036316080773629e-05 1.8757636417862942e-05 -3.7000714308790392e-10 -6.3329757798831284e-05 1.564908019721353e-05 -1.6205830801956785e-10 -4.9581342359516047e-05 1.5626080314932658e-05 -1.8184047746446237e-12 -4.6875184481376282e-05 2.1483646799798912e-05 -1.268934540794627e-10 -6.4446204909271502e-05 1.5568688300201734e-05 1.4850811990033232e-11 -7.0354987618031408e-05 1.564908019721353e-05 -1.6205830801956777e-10 -4.9581342359516047e-05 2.1483646799798912e-05 -1.268934540794627e-10 -6.4446204909271516e-05 1.5626080314932658e-05 -1.8184047746446354e-12 -4.6875184481376269e-05 2.3453171142800639e-05 1.7450436082391604e-11 -4.6722107160600906e-05 1.5649080197213527e-05 -1.620583080195678e-10 -4.958134235951602e-05 2.1483646799798912e-05 -1.268934540794627e-10 -6.4446204909271516e-05 2.3453171142800636e-05 1.7450436082391649e-11 -4.672210716060092e-05 1.5626080314932658e-05 -1.8184047746446237e-12 -4.6875184481376282e-05 1.556868830020174e-05 1.4850811990033223e-11 -7.0354987618031421e-05 2.3453171142800636e-05 1.7450436082391611e-11 -4.6722107160600913e-05 1.5568688300201737e-05 1.4850811990033187e-11 -7.0354987618031421e-05 2.1483646799798912e-05 -1.268934540794627e-10 -6.4446204909271516e-05 2.4382763659361646e-05 -5.2529538505066792e-12 -7.3142699487648859e-05 1.5568688300201737e-05 1.4850811990033213e-11 -7.0354987618031408e-05 1.564908019721353e-05 -1.6205830801956777e-10 -4.9581342359516047e-05 2.1483646799798912e-05 -1.268934540794627e-10 -6.4446204909271516e-05 1.5652595167277467e-05 -1.9175261860363514e-10 -7.320410195551853e-05 2.1483646799798912e-05 -1.268934540794627e-10 -6.4446204909271516e-05 1.5649080197213527e-05 -1.6205830801956775e-10 -4.958134235951604e-05 2.3453171142800636e-05 1.7450436082391604e-11 -4.6722107160600913e-05 2.436849928348957e-05 -1.7852400812414229e-10 -4.6888989085895966e-05 1.4317483688277223e-05 -1.3079467995322866e-10 -9.3749112535157394e-05 1.5568688300201737e-05 1.4850811990033213e-11 -7.0354987618031408e-05 1.8736591826119831e-05 -1.1181711622583001e-10 -9.3749181058548891e-05 1.5652595167277467e-05 -1.9175261860363514e-10 -7.320410195551853e-05 1.8736591826119831e-05 -1.1181711622583001e-10 -9.3749181058548891e-05 2.1483646799798912e-05 -1.2689345407946267e-10 -6.4446204909271502e-05 2.2728113427257123e-05 -6.7613513710271873e-11 -9.3749285684049333e-05 2.5501729756884846e-05 -1.6534318596721292e-10 -7.6499308779775905e-05 1.8736591826119831e-05 -1.1181711622583001e-10 -9.3749181058548891e-05 2.1483646799798912e-05 -1.268934540794627e-10 -6.4446204909271516e-05 1.5568688300201737e-05 1.4850811990033158e-11 -7.0354987618031408e-05 2.4382763659361646e-05 -5.2529538505066792e-12 -7.3142699487648859e-05 1.8736591826119831e-05 -1.1181711622583001e-10 -9.3749181058548891e-05 1.5652595167277467e-05 -1.9175261860363514e-10 -7.320410195551853e-05 2.1483646799798912e-05 -1.2689345407946275e-10 -6.4446204909271516e-05 2.5501729756884846e-05 -1.6534318596721292e-10 -7.6499308779775905e-05 1.8736591826119831e-05 -1.1181711622583001e-10 -9.3749181058548891e-05 1.556868830020174e-05 1.4850811990033194e-11 -7.0354987618031408e-05 2.1483646799798912e-05 -1.2689345407946264e-10 -6.4446204909271516e-05 1.5652595167277467e-05 -1.9175261860363514e-10 -7.320410195551853e-05 1.8736591826119831e-05 -1.1181711622583001e-10 -9.3749181058548891e-05 2.2728113427257123e-05 -6.7613513710271873e-11 -9.374928568404932e-05 2.1483646799798912e-05 -1.268934540794627e-10 -6.4446204909271516e-05 2.4382763659361646e-05 -5.2529538505066792e-12 -7.3142699487648859e-05 1.8736591826119831e-05 -1.1181711622583001e-10 -9.3749181058548891e-05 1.5568688300201737e-05 1.4850811990033213e-11 -7.0354987618031408e-05 2.103932455088974e-05 1.687860277071574e-11 -9.3749223387239452e-05 2.4382763659361646e-05 -5.2529538505066792e-12 -7.3142699487648859e-05 2.205352778793359e-05 -2.0134417163516354e-10 -9.3749257164635696e-05 1.8736591826119831e-05 -1.1181711622583001e-10 -9.3749181058548891e-05 2.2728113427257123e-05 -6.7613513710271873e-11 -9.374928568404932e-05 2.5501729756884846e-05 -1.6534318596721292e-10 -7.6499308779775905e-05 1.8736591826119831e-05 -1.1181711622583001e-10 -9.3749181058548891e-05 2.1039324550889744e-05 1.6878602770715737e-11 -9.3749223387239452e-05 2.2728113427257123e-05 -6.7613513710271873e-11 -9.374928568404932e-05 2.4382763659361646e-05 -5.2529538505066792e-12 -7.3142699487648859e-05 1.4317483688277223e-05 -1.3079467995322866e-10 -9.3749112535157394e-05 1.6239262543165724e-05 -3.7217378545422953e-12 -9.3749144281367019e-05 1.8736591826119831e-05 -1.1181711622583001e-10 -9.3749181058548891e-05 1.5568688300201737e-05 1.4850811990033213e-11 -7.0354987618031408e-05 2.1039324550889744e-05 1.6878602770715737e-11 -9.3749223387239452e-05 1.8736591826119827e-05 -1.1181711622583e-10 -9.3749181058548891e-05 1.6239262543165727e-05 -3.7217378545422921e-12 -9.3749144281367019e-05 1.5568688300201737e-05 1.4850811990033213e-11 -7.0354987618031408e-05 1.8736591826119831e-05 -1.1181711622583001e-10 -9.3749181058548891e-05 1.5928385978244819e-05 -2.4243671857715444e-10 -9.3749135679585446e-05 1.4317483688277223e-05 -1.3079467995322866e-10 -9.3749112535157394e-05 1.5652595167277467e-05 -1.9175261860363514e-10 -7.320410195551853e-05 1.5928385978244819e-05 -2.4243671857715444e-10 -9.3749135679585446e-05 2.205352778793359e-05 -2.0134417163516354e-10 -9.3749257164635696e-05 2.1703996155614531e-05 -3.0167045950455938e-10 -7.884328852872987e-05 1.5652595167277463e-05 -1.9175261860363514e-10 -7.3204101955518517e-05 2.1483646799798912e-05 -1.268934540794627e-10 -6.4446204909271516e-05 1.5652595167277467e-05 -1.9175261860363514e-10 -7.320410195551853e-05 2.1703996155614531e-05 -3.0167045950455938e-10 -7.8843288528729883e-05 2.5501729756884846e-05 -1.6534318596721292e-10 -7.6499308779775905e-05 2.205352778793359e-05 -2.0134417163516354e-10 -9.3749257164635696e-05 2.1703996155614531e-05 -3.0167045950455938e-10 -7.8843288528729897e-05 1.5652595167277467e-05 -1.9175261860363514e-10 -7.320410195551853e-05 2.5501729756884846e-05 -1.653431859672129e-10 -7.6499308779775892e-05 2.205352778793359e-05 -2.0134417163516354e-10 -9.3749257164635696e-05 1.5652595167277467e-05 -1.9175261860363514e-10 -7.320410195551853e-05 1.8736591826119831e-05 -1.1181711622583001e-10 -9.3749181058548891e-05 2.5501729756884846e-05 -1.6534318596721287e-10 -7.6499308779775892e-05 2.205352778793359e-05 -2.0134417163516354e-10 -9.3749257164635696e-05 1.5928385978244819e-05 -2.4243671857715444e-10 -9.3749135679585446e-05 1.8736591826119831e-05 -1.1181711622583001e-10 -9.3749181058548891e-05 1.5652595167277467e-05 -1.9175261860363516e-10 -7.3204101955518544e-05 1.8757636417862942e-05 -3.7000714308790392e-10 -6.3329757798831284e-05 2.1483646799798905e-05 -1.2689345407946254e-10 -6.444620490927153e-05 2.1703996155614531e-05 -3.0167045950455938e-10 -7.8843288528729883e-05 2.5501729756884846e-05 -1.6534318596721292e-10 -7.6499308779775905e-05 2.1703996155614531e-05 -3.0167045950455938e-10 -7.8843288528729883e-05 1.8757636417862942e-05 -3.7000714308790392e-10 -6.3329757798831284e-05 1.5575072441061039e-05 -3.3051342271930163e-10 -7.7600001663623899e-05 1.5652595167277467e-05 -1.9175261860363514e-10 -7.320410195551853e-05 2.1703996155614531e-05 -3.0167045950455938e-10 -7.8843288528729883e-05 1.5575072441061039e-05 -3.3051342271930163e-10 -7.7600001663623899e-05 1.5928385978244819e-05 -2.4243671857715444e-10 -9.3749135679585446e-05 1.5652595167277467e-05 -1.9175261860363514e-10 -7.320410195551853e-05 1.8751497393940516e-05 -3.6127215564279432e-10 -9.374920609221381e-05 1.5575072441061039e-05 -3.3051342271930163e-10 -7.7600001663623899e-05 1.5928385978244819e-05 -2.4243671857715444e-10 -9.3749135679585446e-05 2.1703996155614531e-05 -3.0167045950455938e-10 -7.8843288528729883e-05 1.5928385978244819e-05 -2.4243671857715444e-10 -9.3749135679585446e-05 1.2500975217039917e-05 -3.866649459058127e-10 -9.3749127700539989e-05 1.5575072441061039e-05 -3.3051342271930168e-10 -7.7600001663623899e-05 1.8751497393940516e-05 -3.6127215564279432e-10 -9.374920609221381e-05 1.5928385978244819e-05 -2.4243671857715444e-10 -9.3749135679585446e-05 2.205352778793359e-05 -2.0134417163516354e-10 -9.3749257164635696e-05 1.8751497393940516e-05 -3.6127215564279427e-10 -9.3749206092213797e-05 2.1703996155614531e-05 -3.0167045950455938e-10 -7.8843288528729883e-05 2.205352778793359e-05 -2.0134417163516354e-10 -9.3749257164635696e-05 1.8751497393940516e-05 -3.6127215564279432e-10 -9.374920609221381e-05 2.1703996155614531e-05 -3.0167045950455938e-10 -7.8843288528729883e-05 2.5002012016853094e-05 -2.9345047950308378e-10 -9.3749388651328283e-05 1.8757636417862942e-05 -3.7000714308790392e-10 -6.3329757798831284e-05 2.1703996155614531e-05 -3.0167045950455938e-10 -7.8843288528729897e-05 2.5461185439630183e-05 -3.2728400344216655e-10 -6.460771384252269e-05 2.5501729756884846e-05 -1.6534318596721292e-10 -7.6499308779775905e-05 2.205352778793359e-05 -2.0134417163516354e-10 -9.3749257164635696e-05 2.6676794693411375e-05 -2.1010721148601368e-10 -9.3749444729562543e-05 2.1703996155614531e-05 -3.0167045950455933e-10 -7.8843288528729883e-05 2.550172975688485e-05 -1.653431859672129e-10 -7.6499308779775905e-05 2.6676794693411375e-05 -2.1010721148601368e-10 -9.3749444729562543e-05 2.205352778793359e-05 -2.0134417163516354e-10 -9.3749257164635696e-05 2.6618872006731991e-05 -1.2954090228836195e-10 -9.3749447812047914e-05 2.5501729756884846e-05 -1.6534318596721292e-10 -7.6499308779775905e-05 3.1252067106816596e-05 -1.9969452456558235e-10 -6.6155401013253385e-05 2.5461185439630183e-05 -3.2728400344216655e-10 -6.4607713842522704e-05 2.6676657903798677e-05 -2.4295099147795197e-10 -8.0023760594374432e-05 2.5501729756884843e-05 -1.653431859672129e-10 -7.6499308779775892e-05 2.1703996155614531e-05 -3.0167045950455938e-10 -7.8843288528729883e-05 2.6676657903798677e-05 -2.4295099147795197e-10 -8.0023760594374432e-05 2.5461185439630183e-05 -3.2728400344216655e-10 -6.460771384252269e-05 2.5501729756884846e-05 -1.6534318596721292e-10 -7.6499308779775905e-05 2.667665790379868e-05 -2.4295099147795197e-10 -8.0023760594374432e-05 2.1703996155614531e-05 -3.0167045950455938e-10 -7.8843288528729883e-05 2.6676794693411375e-05 -2.1010721148601368e-10 -9.3749444729562543e-05 2.5501729756884846e-05 -1.6534318596721292e-10 -7.6499308779775905e-05 2.5002012016853094e-05 -2.9345047950308378e-10 -9.3749388651328283e-05 2.1703996155614528e-05 -3.0167045950455938e-10 -7.884328852872987e-05 2.205352778793359e-05 -2.0134417163516354e-10 -9.3749257164635696e-05 2.6676794693411375e-05 -2.1010721148601368e-10 -9.3749444729562543e-05 2.5002012016853094e-05 -2.9345047950308378e-10 -9.3749388651328283e-05 2.6676657903798684e-05 -2.4295099147795197e-10 -8.0023760594374432e-05 2.1703996155614531e-05 -3.0167045950455938e-10 -7.8843288528729883e-05 2.6676794693411375e-05 -2.1010721148601368e-10 -9.3749444729562543e-05 3.1252283481207202e-05 -3.3281166222377293e-10 -9.3749748519695797e-05 3.1252142396310345e-05 -2.0326019067429315e-10 -8.0023907150549234e-05 2.6676657903798677e-05 -2.4295099147795197e-10 -8.0023760594374432e-05 2.6676794693411375e-05 -2.1010721148601368e-10 -9.3749444729562543e-05 2.5002012016853094e-05 -2.9345047950308378e-10 -9.3749388651328283e-05 3.1252283481207202e-05 -3.3281166222377293e-10 -9.374974851969581e-05 2.667665790379868e-05 -2.4295099147795197e-10 -8.0023760594374432e-05 2.6676794693411375e-05 -2.1010721148601368e-10 -9.3749444729562543e-05 2.6676794693411375e-05 -2.1010721148601368e-10 -9.3749444729562543e-05 3.1252283481207202e-05 -3.3281166222377293e-10 -9.3749748519695797e-05 3.1252142396310345e-05 -2.0326019067429315e-10 -8.0023907150549234e-05 3.125228581872236e-05 -1.803682547605756e-10 -9.3749703549086746e-05 2.667665790379868e-05 -2.4295099147795197e-10 -8.0023760594374432e-05 3.1252142396310351e-05 -2.0326019067429315e-10 -8.0023907150549234e-05 3.1252283481207202e-05 -3.3281166222377293e-10 -9.3749748519695797e-05 3.1252023970115326e-05 -3.2956610911807949e-10 -7.4999916876127083e-05 2.667665790379868e-05 -2.4295099147795197e-10 -8.0023760594374432e-05 2.5461185439630183e-05 -3.2728400344216655e-10 -6.460771384252269e-05 3.1252067106816596e-05 -1.9969452456558238e-10 -6.6155401013253385e-05 3.1252023970115326e-05 -3.2956610911807949e-10 -7.4999916876127083e-05 3.1252067106816596e-05 -1.9969452456558235e-10 -6.6155401013253385e-05 3.1252142396310345e-05 -2.0326019067429313e-10 -8.0023907150549234e-05 2.667665790379868e-05 -2.4295099147795197e-10 -8.0023760594374432e-05 3.1252023970115326e-05 -3.2956610911807949e-10 -7.4999916876127083e-05 3.1252142396310345e-05 -2.0326019067429315e-10 -8.0023907150549234e-05 3.1252131577221224e-05 -1.1744793730292022e-10 -7.9850185017035319e-05 3.1252067106816596e-05 -1.9969452456558235e-10 -6.6155401013253385e-05 2.5501729756884846e-05 -1.6534318596721292e-10 -7.6499308779775905e-05 3.1252067106816596e-05 -1.9969452456558235e-10 -6.6155401013253385e-05 2.667665790379868e-05 -2.4295099147795197e-10 -8.0023760594374432e-05 3.1252142396310345e-05 -2.0326019067429315e-10 -8.0023907150549234e-05 2.5501729756884846e-05 -1.6534318596721292e-10 -7.6499308779775905e-05 2.6676794693411375e-05 -2.1010721148601368e-10 -9.3749444729562543e-05 2.6618872006731988e-05 -1.2954090228836192e-10 -9.3749447812047914e-05 3.125228581872236e-05 -1.803682547605756e-10 -9.3749703549086746e-05 2.5501729756884846e-05 -1.6534318596721292e-10 -7.6499308779775905e-05 3.1252142396310345e-05 -2.0326019067429315e-10 -8.0023907150549234e-05 2.6676794693411375e-05 -2.1010721148601368e-10 -9.3749444729562543e-05 3.125228581872236e-05 -1.803682547605756e-10 -9.3749703549086746e-05 2.5501729756884846e-05 -1.6534318596721292e-10 -7.6499308779775905e-05 3.1252142396310345e-05 -2.0326019067429315e-10 -8.0023907150549234e-05 3.125228581872236e-05 -1.803682547605756e-10 -9.3749703549086746e-05 3.1252131577221224e-05 -1.1744793730292022e-10 -7.9850185017035319e-05 2.5501729756884846e-05 -1.6534318596721292e-10 -7.6499308779775905e-05 2.667665790379868e-05 -2.4295099147795197e-10 -8.0023760594374432e-05 2.6676794693411375e-05 -2.1010721148601368e-10 -9.3749444729562543e-05 3.1252142396310345e-05 -2.0326019067429315e-10 -8.0023907150549234e-05 2.5501729756884853e-05 -1.6534318596721298e-10 -7.6499308779775905e-05 3.125228581872236e-05 -1.803682547605756e-10 -9.3749703549086746e-05 3.1252131577221224e-05 -1.1744793730292022e-10 -7.9850185017035332e-05 2.6618872006731991e-05 -1.2954090228836198e-10 -9.3749447812047914e-05 3.1252238849693731e-05 -5.7178664254292001e-11 -9.3749709035420776e-05 3.125228581872236e-05 -1.803682547605756e-10 -9.3749703549086746e-05 2.6618872006731991e-05 -1.2954090228836192e-10 -9.3749447812047928e-05 3.1252131577221224e-05 -1.1744793730292022e-10 -7.9850185017035319e-05 2.5501729756884843e-05 -1.6534318596721295e-10 -7.6499308779775905e-05 3.1252131577221224e-05 -1.1744793730292022e-10 -7.9850185017035319e-05 2.6618872006731991e-05 -1.2954090228836192e-10 -9.3749447812047928e-05 2.4382763659361646e-05 -5.2529538505066768e-12 -7.3142699487648859e-05 2.5501729756884853e-05 -1.6534318596721292e-10 -7.6499308779775919e-05 2.1483646799798912e-05 -1.268934540794627e-10 -6.4446204909271516e-05 2.4382763659361646e-05 -5.2529538505066905e-12 -7.3142699487648859e-05 2.2728113427257123e-05 -6.7613513710271912e-11 -9.3749285684049333e-05 2.5501729756884846e-05 -1.6534318596721292e-10 -7.6499308779775905e-05 3.1252084068558482e-05 -8.2624500136398317e-11 -6.8178965631876933e-05 3.1252131577221224e-05 -1.1744793730292022e-10 -7.9850185017035319e-05 2.4382763659361646e-05 -5.2529538505066759e-12 -7.3142699487648859e-05 2.5501729756884839e-05 -1.6534318596721295e-10 -7.6499308779775905e-05 2.6618872006731991e-05 -1.2954090228836195e-10 -9.3749447812047914e-05 2.2728113427257123e-05 -6.7613513710271873e-11 -9.374928568404932e-05 2.4382763659361646e-05 -5.2529538505066792e-12 -7.3142699487648859e-05 2.5501729756884843e-05 -1.6534318596721292e-10 -7.6499308779775905e-05 3.1252084068558482e-05 -8.2624500136398317e-11 -6.8178965631876933e-05 2.4382763659361649e-05 -5.2529538505066646e-12 -7.3142699487648859e-05 2.1483646799798915e-05 -1.2689345407946272e-10 -6.4446204909271502e-05 2.5501729756884843e-05 -1.6534318596721292e-10 -7.6499308779775905e-05 2.6618872006731991e-05 -1.2954090228836195e-10 -9.3749447812047914e-05 3.1252131577221224e-05 -1.1744793730292019e-10 -7.9850185017035319e-05 3.1252103543918507e-05 -8.5383824937589841e-12 -7.8929801364530672e-05 3.1252238849693731e-05 -5.7178664254292001e-11 -9.3749709035420776e-05 2.2728113427257123e-05 -6.7613513710271873e-11 -9.374928568404932e-05 2.6618872006731988e-05 -1.2954090228836195e-10 -9.3749447812047901e-05 2.205352778793359e-05 -2.0134417163516354e-10 -9.3749257164635696e-05 2.5501729756884846e-05 -1.6534318596721292e-10 -7.6499308779775905e-05 3.1252067106816596e-05 -1.9969452456558235e-10 -6.6155401013253385e-05 3.1252131577221224e-05 -1.1744793730292022e-10 -7.9850185017035319e-05 3.1252084068558482e-05 -8.2624500136398317e-11 -6.8178965631876933e-05 2.5501729756884846e-05 -1.6534318596721292e-10 -7.6499308779775905e-05 2.6618872006731991e-05 -1.2954090228836195e-10 -9.3749447812047914e-05 3.1252103543918507e-05 -8.538382493758976e-12 -7.8929801364530658e-05 3.1252131577221224e-05 -1.1744793730292022e-10 -7.9850185017035319e-05 2.4382763659361646e-05 -5.2529538505066792e-12 -7.3142699487648859e-05 3.1252131577221224e-05 -1.1744793730292022e-10 -7.9850185017035319e-05 3.1252103543918507e-05 -8.5383824937590035e-12 -7.8929801364530672e-05 3.1252084068558482e-05 -8.2624500136398317e-11 -6.8178965631876933e-05 2.4382763659361646e-05 -5.2529538505066792e-12 -7.3142699487648859e-05 3.1252084068558482e-05 -8.2624500136398317e-11 -6.8178965631876933e-05 3.1252103543918507e-05 -8.538382493758989e-12 -7.8929801364530672e-05 3.1252020727542876e-05 2.137005047926653e-11 -6.3113058246727947e-05 2.4382763659361646e-05 -5.2529538505066792e-12 -7.3142699487648859e-05 2.2728113427257123e-05 -6.7613513710271873e-11 -9.374928568404932e-05 2.1039324550889744e-05 1.6878602770715734e-11 -9.3749223387239452e-05 2.6312058661971753e-05 -4.338849510244028e-12 -9.3749436575250343e-05 2.4382763659361646e-05 -5.2529538505066792e-12 -7.3142699487648859e-05 2.6312058661971753e-05 -4.3388495102440296e-12 -9.3749436575250357e-05 2.6618872006731991e-05 -1.2954090228836195e-10 -9.3749447812047914e-05 2.2728113427257123e-05 -6.7613513710271873e-11 -9.374928568404932e-05 2.4382763659361646e-05 -5.2529538505066792e-12 -7.3142699487648859e-05 2.6312058661971753e-05 -4.3388495102440296e-12 -9.3749436575250357e-05 3.1252103543918507e-05 -8.5383824937589841e-12 -7.8929801364530672e-05 2.6618872006731991e-05 -1.2954090228836195e-10 -9.3749447812047914e-05 2.4382763659361646e-05 -5.2529538505066792e-12 -7.3142699487648859e-05 3.1252238849693731e-05 -5.7178664254292001e-11 -9.3749709035420776e-05 3.1252103543918507e-05 -8.5383824937589841e-12 -7.8929801364530672e-05 2.6312058661971753e-05 -4.3388495102440296e-12 -9.3749436575250357e-05 3.1252249420118116e-05 6.9342684511180844e-11 -9.3749694361665604e-05 3.1252103543918507e-05 -8.5383824937589841e-12 -7.8929801364530672e-05 2.6312058661971753e-05 -4.3388495102440054e-12 -9.374943657525037e-05 2.6618872006731995e-05 -1.2954090228836198e-10 -9.3749447812047914e-05 3.1252238849693731e-05 -5.7178664254292001e-11 -9.3749709035420776e-05 2.5264438065733523e-05 1.1353865933757208e-10 -9.3749355087478816e-05 2.4382763659361653e-05 -5.2529538505066961e-12 -7.3142699487648859e-05 2.1454401121991506e-05 1.1098150929947306e-10 -6.4358466206845233e-05 2.4277781440997355e-05 1.8845388524866817e-10 -7.6560402502516125e-05 2.5264438065733523e-05 1.1353865933757208e-10 -9.3749355087478816e-05 3.1252118467735471e-05 1.1624344337371867e-10 -7.578728461034698e-05 2.4382763659361646e-05 -5.2529538505066792e-12 -7.3142699487648859e-05 2.4277781440997355e-05 1.8845388524866817e-10 -7.6560402502516125e-05 3.1252249420118116e-05 6.9342684511180844e-11 -9.3749694361665604e-05 3.1252103543918507e-05 -8.5383824937589841e-12 -7.8929801364530672e-05 2.6312058661971753e-05 -4.3388495102440296e-12 -9.3749436575250357e-05 3.1252118467735471e-05 1.1624344337371867e-10 -7.5787284610346993e-05 2.1454401121991513e-05 1.1098150929947299e-10 -6.4358466206845206e-05 2.4382763659361646e-05 -5.2529538505066703e-12 -7.3142699487648873e-05 3.1252118467735471e-05 1.1624344337371868e-10 -7.5787284610347007e-05 2.4277781440997355e-05 1.8845388524866817e-10 -7.6560402502516138e-05 2.6312058661971753e-05 -4.3388495102440296e-12 -9.3749436575250357e-05 3.1252249420118116e-05 6.9342684511180844e-11 -9.3749694361665604e-05 3.1252118467735471e-05 1.1624344337371867e-10 -7.5787284610346993e-05 2.5264438065733523e-05 1.1353865933757208e-10 -9.3749355087478816e-05 3.1252249420118116e-05 6.9342684511180844e-11 -9.3749694361665604e-05 3.1252118467735471e-05 1.1624344337371867e-10 -7.5787284610346993e-05 2.5264438065733523e-05 1.1353865933757208e-10 -9.3749355087478816e-05 3.1252247819806144e-05 1.7160963172082529e-10 -9.3749687752722665e-05 2.6312058661971753e-05 -4.3388495102440296e-12 -9.3749436575250357e-05 2.1039324550889744e-05 1.6878602770715737e-11 -9.3749223387239452e-05 2.5264438065733523e-05 1.1353865933757208e-10 -9.3749355087478816e-05 2.4382763659361646e-05 -5.2529538505066792e-12 -7.3142699487648859e-05 2.6312058661971753e-05 -4.3388495102440296e-12 -9.3749436575250357e-05 2.5264438065733523e-05 1.1353865933757208e-10 -9.3749355087478816e-05 3.1252118467735471e-05 1.1624344337371867e-10 -7.5787284610346993e-05 2.4382763659361646e-05 -5.2529538505066792e-12 -7.3142699487648859e-05 3.1252118467735471e-05 1.1624344337371867e-10 -7.5787284610346993e-05 3.1252020727542876e-05 2.1370050479266524e-11 -6.3113058246727933e-05 3.1252103543918507e-05 -8.5383824937589841e-12 -7.8929801364530672e-05 2.4382763659361646e-05 -5.2529538505066792e-12 -7.3142699487648859e-05 3.1252118467735471e-05 1.1624344337371867e-10 -7.5787284610346993e-05 3.1252103543918507e-05 -8.5383824937589841e-12 -7.8929801364530672e-05 2.6312058661971753e-05 -4.3388495102440248e-12 -9.3749436575250357e-05 2.4382763659361646e-05 -5.2529538505066792e-12 -7.3142699487648859e-05 3.1252052957208631e-05 1.2861695222915877e-10 -5.7203172511974799e-05 2.4382763659361643e-05 -5.2529538505067293e-12 -7.3142699487648859e-05 2.3453171142800636e-05 1.745043608239162e-11 -4.6722107160600913e-05 3.1252020727542876e-05 2.137005047926653e-11 -6.3113058246727947e-05 3.1252052957208631e-05 1.2861695222915877e-10 -5.7203172511974799e-05 2.3453171142800636e-05 1.7450436082391588e-11 -4.6722107160600913e-05 2.145440112199151e-05 1.1098150929947301e-10 -6.4358466206845192e-05 2.4181251484316225e-05 2.1011976552006299e-10 -4.6715031483825796e-05 3.1252052957208631e-05 1.2861695222915877e-10 -5.7203172511974799e-05 2.1454401121991517e-05 1.1098150929947301e-10 -6.4358466206845206e-05 3.1252084658755929e-05 2.0913210759559546e-10 -6.5026468870844613e-05 2.4181251484316225e-05 2.1011976552006296e-10 -4.6715031483825796e-05 3.1252118467735471e-05 1.1624344337371867e-10 -7.5787284610346993e-05 3.1252052957208637e-05 1.2861695222915877e-10 -5.7203172511974799e-05 2.145440112199151e-05 1.1098150929947306e-10 -6.4358466206845206e-05 2.4277781440997355e-05 1.8845388524866817e-10 -7.6560402502516125e-05 3.1252052957208631e-05 1.2861695222915877e-10 -5.7203172511974799e-05 3.1252017182579258e-05 1.2414435662582901e-10 -4.2949481011648411e-05 2.3453171142800636e-05 1.7450436082391611e-11 -4.6722107160600913e-05 2.4181251484316225e-05 2.1011976552006296e-10 -4.6715031483825789e-05 2.3453171142800636e-05 1.7450436082391611e-11 -4.6722107160600913e-05 2.4382763659361643e-05 -5.2529538505066873e-12 -7.3142699487648859e-05 3.1252052957208631e-05 1.2861695222915877e-10 -5.7203172511974799e-05 2.1454401121991513e-05 1.1098150929947299e-10 -6.4358466206845206e-05 3.1252118467735471e-05 1.1624344337371867e-10 -7.5787284610346993e-05 2.1454401121991513e-05 1.1098150929947299e-10 -6.4358466206845206e-05 3.1252052957208631e-05 1.2861695222915877e-10 -5.7203172511974799e-05 2.4382763659361646e-05 -5.2529538505066792e-12 -7.3142699487648859e-05 3.1252020727542876e-05 2.137005047926653e-11 -6.3113058246727947e-05 3.1252118467735477e-05 1.1624344337371866e-10 -7.5787284610347007e-05 3.1252052957208631e-05 1.2861695222915877e-10 -5.7203172511974799e-05 2.4382763659361646e-05 -5.2529538505066776e-12 -7.3142699487648859e-05 3.1252052957208631e-05 1.2861695222915877e-10 -5.7203172511974799e-05 3.1251919081902987e-05 4.4602931712029499e-13 -4.871425293634746e-05 3.1252020727542876e-05 2.1370050479266527e-11 -6.3113058246727947e-05 2.3453171142800636e-05 1.7450436082391611e-11 -4.6722107160600913e-05 3.1252052957208631e-05 1.2861695222915877e-10 -5.7203172511974799e-05 3.1252017182579258e-05 1.2414435662582901e-10 -4.2949481011648411e-05 3.1251919081902987e-05 4.4602931712028878e-13 -4.871425293634746e-05 2.3453171142800636e-05 1.7450436082391611e-11 -4.6722107160600913e-05 3.1252052957208631e-05 1.2861695222915877e-10 -5.7203172511974799e-05 3.1251967302286396e-05 2.0129947167824207e-10 -4.7628452021229636e-05 3.1252017182579258e-05 1.2414435662582901e-10 -4.2949481011648411e-05 2.4181251484316229e-05 2.1011976552006296e-10 -4.6715031483825796e-05 3.1252084658755929e-05 2.0913210759559546e-10 -6.5026468870844613e-05 2.4181251484316229e-05 2.1011976552006296e-10 -4.6715031483825796e-05 2.1454401121991517e-05 1.1098150929947286e-10 -6.4358466206845206e-05 2.4277781440997355e-05 1.8845388524866817e-10 -7.6560402502516125e-05 2.1454401121991513e-05 1.1098150929947299e-10 -6.4358466206845206e-05 2.4181251484316225e-05 2.1011976552006293e-10 -4.6715031483825796e-05 2.5422497777468704e-05 3.2068568404808155e-10 -6.4144611964690024e-05 2.4277781440997361e-05 1.8845388524866817e-10 -7.6560402502516138e-05 3.1252084658755929e-05 2.0913210759559546e-10 -6.5026468870844613e-05 2.145440112199151e-05 1.1098150929947302e-10 -6.4358466206845192e-05 3.1252052957208631e-05 1.2861695222915877e-10 -5.7203172511974799e-05 2.4277781440997355e-05 1.8845388524866817e-10 -7.6560402502516125e-05 3.1252118467735471e-05 1.1624344337371867e-10 -7.5787284610346993e-05 3.1252084658755929e-05 2.0913210759559546e-10 -6.5026468870844613e-05 3.1252052957208631e-05 1.2861695222915877e-10 -5.7203172511974799e-05 2.4277781440997355e-05 1.8845388524866817e-10 -7.6560402502516125e-05 3.1252084658755929e-05 2.0913210759559546e-10 -6.5026468870844613e-05 2.5422497777468701e-05 3.206856840480816e-10 -6.4144611964690024e-05 2.4181251484316229e-05 2.1011976552006296e-10 -4.6715031483825796e-05 2.4277781440997355e-05 1.8845388524866817e-10 -7.6560402502516125e-05 3.1251967302286396e-05 2.0129947167824209e-10 -4.7628452021229636e-05 3.1252052957208631e-05 1.2861695222915877e-10 -5.7203172511974799e-05 3.1252084658755929e-05 2.0913210759559546e-10 -6.5026468870844613e-05 2.4181251484316229e-05 2.1011976552006296e-10 -4.6715031483825796e-05 3.1252084658755929e-05 2.0913210759559546e-10 -6.5026468870844613e-05 2.7115119147521616e-05 3.0053750879676323e-10 -4.7445441774464013e-05 3.1251967302286396e-05 2.0129947167824209e-10 -4.7628452021229636e-05 2.4181251484316229e-05 2.1011976552006296e-10 -4.6715031483825796e-05 3.1251963172166084e-05 3.260127411831963e-10 -5.6250185875921349e-05 3.1251967302286396e-05 2.0129947167824209e-10 -4.7628452021229636e-05 3.1252084658755929e-05 2.0913210759559546e-10 -6.5026468870844613e-05 2.7115119147521616e-05 3.0053750879676318e-10 -4.744544177446402e-05 2.7115119147521616e-05 3.0053750879676318e-10 -4.744544177446402e-05 3.1251963172166084e-05 3.260127411831963e-10 -5.6250185875921349e-05 3.1251967302286396e-05 2.0129947167824209e-10 -4.7628452021229636e-05 3.1251943104064404e-05 2.985970859555082e-10 -3.7500499194013793e-05 3.1252084658755929e-05 2.0913210759559546e-10 -6.5026468870844613e-05 2.5422497777468701e-05 3.206856840480816e-10 -6.4144611964690024e-05 3.1251963172166084e-05 3.260127411831963e-10 -5.6250185875921349e-05 2.7115119147521612e-05 3.0053750879676307e-10 -4.7445441774464006e-05 2.7115119147521616e-05 3.0053750879676318e-10 -4.744544177446402e-05 2.5422497777468701e-05 3.2068568404808155e-10 -6.4144611964690024e-05 2.1326566786003624e-05 3.7196031928624105e-10 -4.9040896565364117e-05 2.4181251484316229e-05 2.1011976552006296e-10 -4.6715031483825796e-05 2.5422497777468701e-05 3.206856840480816e-10 -6.4144611964690024e-05 2.7115119147521616e-05 3.0053750879676318e-10 -4.744544177446402e-05 3.1252084658755929e-05 2.0913210759559549e-10 -6.5026468870844613e-05 2.4181251484316229e-05 2.1011976552006296e-10 -4.6715031483825796e-05 3.1252084658755929e-05 2.0913210759559546e-10 -6.5026468870844613e-05 2.5422497777468701e-05 3.2068568404808165e-10 -6.4144611964690038e-05 3.1252005859914e-05 3.5492890447332161e-10 -7.4999897246150158e-05 3.1251963172166084e-05 3.260127411831963e-10 -5.6250185875921349e-05 3.1252005859914e-05 3.5492890447332161e-10 -7.4999897246150158e-05 2.6676643388270717e-05 2.3751336724406908e-10 -8.002375403362661e-05 2.5422497777468701e-05 3.206856840480816e-10 -6.4144611964690024e-05 3.1252084658755929e-05 2.0913210759559546e-10 -6.5026468870844613e-05 2.667664338827072e-05 2.3751336724406908e-10 -8.002375403362661e-05 3.1252084658755922e-05 2.0913210759559546e-10 -6.5026468870844626e-05 3.1252140135539523e-05 1.9931295148233598e-10 -8.0023884138596621e-05 2.4277781440997355e-05 1.8845388524866819e-10 -7.6560402502516125e-05 2.667664338827072e-05 2.3751336724406908e-10 -8.002375403362661e-05 3.1252005859914e-05 3.5492890447332161e-10 -7.4999897246150158e-05 3.1252140135539517e-05 1.9931295148233598e-10 -8.0023884138596607e-05 3.1252084658755936e-05 2.0913210759559552e-10 -6.5026468870844626e-05 2.6676778112715686e-05 2.1776051129409696e-10 -9.3749453539902438e-05 3.1252264897155262e-05 3.2540157501561543e-10 -9.3749726322363568e-05 3.1252247819806144e-05 1.7160963172082529e-10 -9.3749687752722665e-05 3.1252140135539523e-05 1.9931295148233598e-10 -8.0023884138596621e-05 2.6676778112715686e-05 2.1776051129409696e-10 -9.3749453539902438e-05 2.5001976276453465e-05 3.0861302980729068e-10 -9.3749377193670801e-05 3.1252264897155262e-05 3.2540157501561543e-10 -9.3749726322363568e-05 2.667664338827072e-05 2.3751336724406908e-10 -8.002375403362661e-05 3.1252005859914e-05 3.5492890447332161e-10 -7.4999897246150158e-05 3.1252140135539523e-05 1.9931295148233598e-10 -8.0023884138596621e-05 3.1252264897155262e-05 3.2540157501561543e-10 -9.3749726322363568e-05 2.667664338827072e-05 2.3751336724406908e-10 -8.002375403362661e-05 3.1252140135539523e-05 1.9931295148233598e-10 -8.0023884138596621e-05 2.6676778112715686e-05 2.1776051129409698e-10 -9.3749453539902452e-05 3.1252264897155262e-05 3.2540157501561543e-10 -9.3749726322363568e-05 2.667664338827072e-05 2.3751336724406908e-10 -8.002375403362661e-05 2.6676778112715686e-05 2.1776051129409696e-10 -9.3749453539902438e-05 3.1252247819806144e-05 1.7160963172082529e-10 -9.3749687752722665e-05 3.1252118467735477e-05 1.1624344337371867e-10 -7.5787284610346993e-05 3.1252140135539523e-05 1.9931295148233598e-10 -8.0023884138596621e-05 3.1252247819806144e-05 1.7160963172082529e-10 -9.3749687752722665e-05 3.1252118467735471e-05 1.1624344337371867e-10 -7.5787284610346993e-05 2.526443806573352e-05 1.135386593375721e-10 -9.3749355087478802e-05 2.6676778112715686e-05 2.1776051129409696e-10 -9.3749453539902438e-05 2.6676778112715686e-05 2.1776051129409696e-10 -9.3749453539902438e-05 3.1252140135539523e-05 1.9931295148233598e-10 -8.0023884138596621e-05 3.1252118467735464e-05 1.1624344337371867e-10 -7.5787284610346993e-05 2.4277781440997355e-05 1.8845388524866814e-10 -7.6560402502516125e-05 3.1252118467735471e-05 1.1624344337371867e-10 -7.5787284610346993e-05 3.1252140135539523e-05 1.9931295148233598e-10 -8.0023884138596621e-05 3.1252084658755929e-05 2.0913210759559546e-10 -6.5026468870844613e-05 2.4277781440997355e-05 1.8845388524866817e-10 -7.6560402502516125e-05 2.1677181878855942e-05 2.2599756877979884e-10 -9.3749238940923877e-05 2.6676778112715686e-05 2.1776051129409696e-10 -9.3749453539902438e-05 2.5264438065733523e-05 1.1353865933757208e-10 -9.3749355087478816e-05 2.4277781440997355e-05 1.8845388524866817e-10 -7.6560402502516125e-05 2.5264438065733523e-05 1.1353865933757208e-10 -9.3749355087478816e-05 2.6676778112715686e-05 2.1776051129409696e-10 -9.3749453539902438e-05 3.1252118467735464e-05 1.1624344337371867e-10 -7.5787284610346993e-05 2.4277781440997355e-05 1.8845388524866817e-10 -7.6560402502516125e-05 2.6676778112715686e-05 2.1776051129409696e-10 -9.3749453539902438e-05 2.5001976276453468e-05 3.0861302980729068e-10 -9.3749377193670801e-05 2.667664338827072e-05 2.3751336724406908e-10 -8.002375403362661e-05 2.4277781440997355e-05 1.8845388524866817e-10 -7.6560402502516125e-05 2.1870854452104305e-05 3.0265764314498494e-10 -7.7866206329356015e-05 2.667664338827072e-05 2.3751336724406908e-10 -8.002375403362661e-05 2.5001976276453468e-05 3.0861302980729068e-10 -9.3749377193670801e-05 2.4277781440997355e-05 1.8845388524866817e-10 -7.6560402502516125e-05 2.6676778112715686e-05 2.1776051129409696e-10 -9.3749453539902438e-05 2.1677181878855942e-05 2.2599756877979884e-10 -9.3749238940923877e-05 2.5001976276453468e-05 3.0861302980729068e-10 -9.3749377193670801e-05 2.4277781440997355e-05 1.8845388524866817e-10 -7.6560402502516125e-05 3.1252140135539523e-05 1.9931295148233598e-10 -8.0023884138596621e-05 2.6676778112715686e-05 2.1776051129409696e-10 -9.3749453539902452e-05 2.6676643388270717e-05 2.3751336724406908e-10 -8.0023754033626597e-05 2.4277781440997351e-05 1.8845388524866817e-10 -7.6560402502516125e-05 2.667664338827072e-05 2.3751336724406908e-10 -8.002375403362661e-05 2.1870854452104302e-05 3.0265764314498494e-10 -7.7866206329356015e-05 2.5422497777468701e-05 3.206856840480816e-10 -6.4144611964690024e-05 2.4277781440997358e-05 1.8845388524866817e-10 -7.6560402502516125e-05 2.5422497777468701e-05 3.206856840480816e-10 -6.4144611964690024e-05 3.1252084658755922e-05 2.0913210759559546e-10 -6.5026468870844613e-05 2.667664338827072e-05 2.3751336724406908e-10 -8.002375403362661e-05 2.4277781440997355e-05 1.8845388524866817e-10 -7.6560402502516125e-05 2.1677181878855942e-05 2.2599756877979884e-10 -9.3749238940923877e-05 1.5598389599468821e-05 1.7154995436455024e-10 -7.3026479297763793e-05 2.1870854452104305e-05 3.0265764314498499e-10 -7.7866206329356015e-05 2.4277781440997355e-05 1.8845388524866817e-10 -7.6560402502516125e-05 2.1677181878855942e-05 2.2599756877979884e-10 -9.3749238940923877e-05 1.9069166843464811e-05 1.1624393202363857e-10 -9.3749180599590499e-05 1.5598389599468825e-05 1.7154995436455026e-10 -7.3026479297763806e-05 2.4277781440997355e-05 1.8845388524866817e-10 -7.6560402502516125e-05 2.5422497777468701e-05 3.206856840480816e-10 -6.4144611964690024e-05 2.1870854452104305e-05 3.0265764314498494e-10 -7.7866206329356015e-05 1.913677596149287e-05 2.7545463272505498e-10 -6.3597393931455416e-05 2.4277781440997355e-05 1.8845388524866817e-10 -7.6560402502516125e-05 1.913677596149287e-05 2.7545463272505498e-10 -6.3597393931455416e-05 2.1870854452104305e-05 3.0265764314498499e-10 -7.7866206329356015e-05 1.5598389599468825e-05 1.7154995436455026e-10 -7.3026479297763806e-05 2.4277781440997355e-05 1.8845388524866817e-10 -7.6560402502516125e-05 2.1677181878855942e-05 2.2599756877979884e-10 -9.3749238940923877e-05 2.1870854452104308e-05 3.0265764314498494e-10 -7.7866206329356015e-05 2.5001976276453468e-05 3.0861302980729068e-10 -9.3749377193670801e-05 2.4277781440997355e-05 1.8845388524866817e-10 -7.6560402502516125e-05 1.5929321065174646e-05 3.0165976391624968e-10 -7.8313533412780058e-05 1.875148840461377e-05 3.6413524462307474e-10 -9.3749219018564149e-05 2.1677181878855946e-05 2.2599756877979879e-10 -9.3749238940923877e-05 2.1870854452104305e-05 3.0265764314498494e-10 -7.7866206329356015e-05 2.1870854452104305e-05 3.0265764314498494e-10 -7.7866206329356015e-05 1.8751488404613773e-05 3.6413524462307474e-10 -9.3749219018564149e-05 2.1677181878855942e-05 2.2599756877979884e-10 -9.3749238940923877e-05 2.5001976276453468e-05 3.0861302980729068e-10 -9.3749377193670801e-05 2.5264438065733523e-05 1.1353865933757208e-10 -9.3749355087478816e-05 1.9069166843464811e-05 1.1624393202363857e-10 -9.3749180599590499e-05 2.1677181878855942e-05 2.2599756877979884e-10 -9.3749238940923877e-05 2.4277781440997355e-05 1.8845388524866817e-10 -7.6560402502516125e-05 1.5877286155039304e-05 2.3830266645841106e-10 -9.3749132268340554e-05 2.1677181878855942e-05 2.2599756877979884e-10 -9.3749238940923877e-05 1.9069166843464811e-05 1.1624393202363857e-10 -9.3749180599590499e-05 1.5598389599468825e-05 1.7154995436455026e-10 -7.3026479297763806e-05 1.5877286155039304e-05 2.3830266645841106e-10 -9.3749132268340554e-05 1.5929321065174646e-05 3.0165976391624968e-10 -7.8313533412780045e-05 2.1677181878855942e-05 2.2599756877979884e-10 -9.3749238940923877e-05 1.5598389599468825e-05 1.7154995436455026e-10 -7.3026479297763806e-05 1.875148840461377e-05 3.6413524462307474e-10 -9.3749219018564149e-05 1.5877286155039304e-05 2.3830266645841106e-10 -9.3749132268340554e-05 1.25009816927358e-05 4.0427347434164019e-10 -9.3749142178783097e-05 1.5929321065174646e-05 3.0165976391624968e-10 -7.8313533412780058e-05 2.1677181878855942e-05 2.2599756877979884e-10 -9.3749238940923877e-05 1.5877286155039304e-05 2.3830266645841106e-10 -9.3749132268340554e-05 1.875148840461377e-05 3.6413524462307474e-10 -9.3749219018564149e-05 1.5929321065174643e-05 3.0165976391624968e-10 -7.8313533412780045e-05 2.1677181878855942e-05 2.2599756877979884e-10 -9.3749238940923877e-05 1.5929321065174646e-05 3.0165976391624968e-10 -7.8313533412780058e-05 2.1870854452104305e-05 3.0265764314498494e-10 -7.7866206329356015e-05 1.5598389599468821e-05 1.7154995436455024e-10 -7.3026479297763806e-05 1.5929321065174646e-05 3.0165976391624968e-10 -7.8313533412780058e-05 1.913677596149287e-05 2.7545463272505498e-10 -6.3597393931455416e-05 2.1870854452104305e-05 3.0265764314498494e-10 -7.7866206329356015e-05 1.5598389599468825e-05 1.7154995436455026e-10 -7.3026479297763806e-05 1.913677596149287e-05 2.7545463272505498e-10 -6.3597393931455416e-05 1.5621076143583316e-05 1.5831230720709936e-10 -4.9657000194535959e-05 2.1454401121991513e-05 1.1098150929947297e-10 -6.4358466206845206e-05 1.5598389599468825e-05 1.7154995436455026e-10 -7.3026479297763806e-05 1.913677596149287e-05 2.7545463272505498e-10 -6.3597393931455416e-05 1.5621076143583316e-05 1.5831230720709939e-10 -4.9657000194535952e-05 2.1326566786003624e-05 3.7196031928624105e-10 -4.9040896565364117e-05 2.4181251484316229e-05 2.1011976552006296e-10 -4.6715031483825796e-05 1.913677596149287e-05 2.7545463272505498e-10 -6.3597393931455416e-05 1.4319825871007317e-05 2.6679511547609115e-10 -6.4658885024395692e-05 1.5621076143583319e-05 1.5831230720709936e-10 -4.9657000194535966e-05 1.5598389599468825e-05 1.7154995436455026e-10 -7.3026479297763806e-05 1.4319825871007317e-05 2.6679511547609115e-10 -6.4658885024395692e-05 1.913677596149287e-05 2.7545463272505498e-10 -6.3597393931455416e-05 1.5929321065174646e-05 3.0165976391624968e-10 -7.8313533412780058e-05 1.5598389599468825e-05 1.7154995436455026e-10 -7.3026479297763806e-05 1.913677596149287e-05 2.7545463272505498e-10 -6.3597393931455416e-05 2.145440112199151e-05 1.1098150929947297e-10 -6.4358466206845192e-05 1.5621076143583319e-05 1.5831230720709936e-10 -4.9657000194535959e-05 2.4181251484316229e-05 2.1011976552006296e-10 -4.6715031483825796e-05 2.5422497777468701e-05 3.206856840480816e-10 -6.4144611964690024e-05 1.913677596149287e-05 2.7545463272505498e-10 -6.3597393931455416e-05 2.145440112199151e-05 1.1098150929947297e-10 -6.4358466206845192e-05 2.4277781440997355e-05 1.8845388524866817e-10 -7.6560402502516125e-05 1.913677596149287e-05 2.7545463272505498e-10 -6.3597393931455416e-05 1.5598389599468825e-05 1.7154995436455026e-10 -7.3026479297763806e-05 2.1454401121991513e-05 1.1098150929947296e-10 -6.4358466206845192e-05 2.4277781440997355e-05 1.8845388524866817e-10 -7.6560402502516125e-05 2.5422497777468701e-05 3.206856840480816e-10 -6.4144611964690024e-05 2.1454401121991513e-05 1.10981509299473e-10 -6.435846620684522e-05 1.913677596149287e-05 2.7545463272505498e-10 -6.3597393931455416e-05 2.4181251484316229e-05 2.1011976552006293e-10 -4.6715031483825803e-05 2.5422497777468701e-05 3.206856840480816e-10 -6.4144611964690024e-05 1.913677596149287e-05 2.7545463272505498e-10 -6.3597393931455416e-05 2.1326566786003624e-05 3.7196031928624095e-10 -4.9040896565364117e-05 2.4181251484316229e-05 2.1011976552006296e-10 -4.6715031483825796e-05 1.913677596149287e-05 2.7545463272505498e-10 -6.3597393931455416e-05 1.4319825871007317e-05 2.6679511547609115e-10 -6.4658885024395692e-05 1.6239093534900631e-05 3.163835001395912e-10 -4.6875224519034137e-05 1.5621076143583319e-05 1.5831230720709931e-10 -4.9657000194535959e-05 1.913677596149287e-05 2.7545463272505498e-10 -6.3597393931455416e-05 1.6239093534900631e-05 3.163835001395912e-10 -4.6875224519034137e-05 2.1326566786003624e-05 3.7196031928624105e-10 -4.9040896565364117e-05 1.5621076143583323e-05 1.5831230720709936e-10 -4.9657000194535966e-05 2.1454401121991513e-05 1.1098150929947299e-10 -6.4358466206845206e-05 1.5621076143583319e-05 1.5831230720709934e-10 -4.9657000194535959e-05 1.5568688300201737e-05 1.4850811990033216e-11 -7.0354987618031408e-05 1.5598389599468825e-05 1.7154995436455026e-10 -7.3026479297763806e-05 2.1454401121991513e-05 1.1098150929947299e-10 -6.4358466206845206e-05 1.5626080314932658e-05 -1.818404774644655e-12 -4.6875184481376275e-05 2.3453171142800632e-05 1.7450436082391624e-11 -4.6722107160600906e-05 1.5568688300201737e-05 1.4850811990033213e-11 -7.0354987618031408e-05 2.1454401121991513e-05 1.1098150929947299e-10 -6.4358466206845206e-05 1.5568688300201737e-05 1.4850811990033213e-11 -7.0354987618031408e-05 2.3453171142800636e-05 1.7450436082391611e-11 -4.6722107160600913e-05 2.4382763659361646e-05 -5.2529538505066792e-12 -7.3142699487648859e-05 1.5626080314932658e-05 -1.8184047746446237e-12 -4.6875184481376282e-05 2.1454401121991513e-05 1.1098150929947301e-10 -6.4358466206845192e-05 2.3453171142800636e-05 1.7450436082391611e-11 -4.6722107160600913e-05 1.5621076143583319e-05 1.5831230720709936e-10 -4.9657000194535959e-05 2.3453171142800636e-05 1.7450436082391611e-11 -4.6722107160600913e-05 1.5621076143583319e-05 1.5831230720709934e-10 -4.9657000194535966e-05 2.1454401121991513e-05 1.1098150929947299e-10 -6.4358466206845206e-05 2.4181251484316235e-05 2.1011976552006304e-10 -4.6715031483825803e-05 2.1454401121991513e-05 1.1098150929947299e-10 -6.4358466206845206e-05 1.5626080314932655e-05 -1.8184047746446073e-12 -4.6875184481376282e-05 1.5568688300201737e-05 1.4850811990033213e-11 -7.0354987618031408e-05 1.5621076143583316e-05 1.5831230720709939e-10 -4.9657000194535952e-05 2.4382763659361646e-05 -5.2529538505066792e-12 -7.3142699487648859e-05 1.9069166843464808e-05 1.1624393202363849e-10 -9.3749180599590499e-05 1.5568688300201737e-05 1.4850811990033219e-11 -7.0354987618031408e-05 2.1039324550889747e-05 1.6878602770715792e-11 -9.3749223387239452e-05 2.4382763659361646e-05 -5.2529538505066792e-12 -7.3142699487648859e-05 1.5568688300201737e-05 1.4850811990033219e-11 -7.0354987618031408e-05 1.9069166843464811e-05 1.1624393202363857e-10 -9.3749180599590499e-05 2.1454401121991513e-05 1.1098150929947296e-10 -6.4358466206845206e-05 1.9069166843464811e-05 1.1624393202363857e-10 -9.3749180599590499e-05 2.1454401121991513e-05 1.1098150929947293e-10 -6.4358466206845206e-05 2.5264438065733523e-05 1.1353865933757208e-10 -9.3749355087478816e-05 2.4382763659361646e-05 -5.2529538505066485e-12 -7.3142699487648859e-05 2.1454401121991513e-05 1.1098150929947299e-10 -6.4358466206845206e-05 1.5598389599468825e-05 1.7154995436455026e-10 -7.3026479297763806e-05 1.9069166843464811e-05 1.1624393202363858e-10 -9.3749180599590485e-05 2.4277781440997351e-05 1.8845388524866819e-10 -7.6560402502516125e-05 2.1454401121991513e-05 1.1098150929947299e-10 -6.4358466206845206e-05 1.556868830020174e-05 1.485081199003321e-11 -7.0354987618031421e-05 1.9069166843464811e-05 1.1624393202363856e-10 -9.3749180599590499e-05 1.5598389599468825e-05 1.7154995436455026e-10 -7.3026479297763806e-05 2.5264438065733523e-05 1.1353865933757208e-10 -9.3749355087478816e-05 2.1454401121991513e-05 1.1098150929947296e-10 -6.4358466206845192e-05 1.9069166843464811e-05 1.1624393202363857e-10 -9.3749180599590499e-05 2.4277781440997355e-05 1.8845388524866817e-10 -7.6560402502516125e-05 2.1039324550889744e-05 1.6878602770715737e-11 -9.3749223387239452e-05 1.9069166843464811e-05 1.1624393202363857e-10 -9.3749180599590499e-05 2.5264438065733523e-05 1.1353865933757208e-10 -9.3749355087478816e-05 2.4382763659361646e-05 -5.2529538505066792e-12 -7.3142699487648859e-05 1.4317476891681842e-05 1.2308858459179646e-10 -9.3749109036101667e-05 1.9069166843464811e-05 1.1624393202363857e-10 -9.3749180599590499e-05 1.5568688300201737e-05 1.4850811990033213e-11 -7.0354987618031408e-05 1.5598389599468825e-05 1.7154995436455026e-10 -7.3026479297763806e-05 1.5877286155039304e-05 2.3830266645841106e-10 -9.3749132268340554e-05 1.9069166843464811e-05 1.1624393202363857e-10 -9.3749180599590499e-05 1.4317476891681842e-05 1.2308858459179646e-10 -9.3749109036101667e-05 1.5598389599468825e-05 1.7154995436455026e-10 -7.3026479297763806e-05 1.6239262543165727e-05 -3.7217378545422921e-12 -9.3749144281367019e-05 1.4317476891681842e-05 1.2308858459179646e-10 -9.3749109036101667e-05 1.9069166843464811e-05 1.1624393202363857e-10 -9.3749180599590499e-05 1.5568688300201737e-05 1.4850811990033213e-11 -7.0354987618031408e-05 2.1039324550889744e-05 1.6878602770715737e-11 -9.3749223387239452e-05 1.6239262543165727e-05 -3.7217378545422953e-12 -9.3749144281367019e-05 1.9069166843464811e-05 1.1624393202363857e-10 -9.3749180599590499e-05 1.5568688300201737e-05 1.4850811990033213e-11 -7.0354987618031408e-05 9.737853376873871e-06 1.1936676360041654e-10 -6.4238857938108527e-05 6.8267295487136984e-06 -7.4069462377025475e-13 -7.278232372080546e-05 1.0140355794177804e-05 6.6866787859724868e-11 -9.3749077119824551e-05 5.7672892105087986e-06 1.6348621601241423e-10 -7.6511854528055467e-05 1.0289953380024111e-05 -7.0221846007789014e-11 -9.3749078776139366e-05 1.0140355794177804e-05 6.6866787859724868e-11 -9.3749077119824551e-05 1.6239262543165727e-05 -3.7217378545422921e-12 -9.3749144281367019e-05 1.5568688300201737e-05 1.4850811990033213e-11 -7.0354987618031394e-05 1.4317476891681842e-05 1.2308858459179646e-10 -9.3749109036101667e-05 9.737853376873871e-06 1.1936676360041654e-10 -6.4238857938108527e-05 9.7092354432794625e-06 2.119628384677571e-10 -9.3749073837692321e-05 1.5598389599468825e-05 1.7154995436455026e-10 -7.3026479297763806e-05 1.0289953380024111e-05 -7.0221846007789014e-11 -9.3749078776139366e-05 1.0140355794177804e-05 6.6866787859724868e-11 -9.3749077119824551e-05 1.556868830020174e-05 1.4850811990033216e-11 -7.0354987618031394e-05 6.8267295487137009e-06 -7.4069462377023051e-13 -7.278232372080546e-05 1.4317476891681842e-05 1.2308858459179646e-10 -9.3749109036101667e-05 1.5568688300201737e-05 1.48508119900332e-11 -7.0354987618031408e-05 9.737853376873871e-06 1.1936676360041654e-10 -6.4238857938108527e-05 1.5598389599468825e-05 1.7154995436455026e-10 -7.3026479297763806e-05 1.0140355794177804e-05 6.6866787859724868e-11 -9.3749077119824551e-05 9.7378533768738727e-06 1.1936676360041651e-10 -6.4238857938108513e-05 1.5568688300201737e-05 1.4850811990033248e-11 -7.0354987618031394e-05 6.8267295487136992e-06 -7.4069462377022981e-13 -7.278232372080546e-05 1.4317476891681842e-05 1.2308858459179646e-10 -9.3749109036101667e-05 1.6239262543165727e-05 -3.7217378545422921e-12 -9.3749144281367019e-05 1.0140355794177804e-05 6.6866787859724868e-11 -9.3749077119824551e-05 1.5568688300201737e-05 1.4850811990033213e-11 -7.0354987618031408e-05 9.7092354432794625e-06 2.119628384677571e-10 -9.3749073837692321e-05 1.4317476891681842e-05 1.2308858459179646e-10 -9.3749109036101667e-05 1.0140355794177804e-05 6.6866787859724868e-11 -9.3749077119824551e-05 9.737853376873871e-06 1.1936676360041654e-10 -6.4238857938108527e-05 1.4317476891681842e-05 1.2308858459179646e-10 -9.3749109036101667e-05 1.0140355794177804e-05 6.6866787859724868e-11 -9.3749077119824551e-05 9.737853376873871e-06 1.1936676360041654e-10 -6.4238857938108527e-05 1.5568688300201737e-05 1.4850811990033213e-11 -7.0354987618031408e-05 1.0140355794177804e-05 6.6866787859724868e-11 -9.3749077119824551e-05 9.7092354432794608e-06 2.1196283846775707e-10 -9.3749073837692321e-05 9.737853376873871e-06 1.1936676360041654e-10 -6.4238857938108513e-05 5.7672892105087994e-06 1.6348621601241426e-10 -7.6511854528055467e-05 9.737853376873871e-06 1.1936676360041654e-10 -6.4238857938108527e-05 1.5626080314932658e-05 -1.8184047746446091e-12 -4.6875184481376275e-05 7.7409119284633939e-06 2.107960624277241e-11 -4.2280071442435221e-05 1.5621076143583319e-05 1.5831230720709936e-10 -4.9657000194535952e-05 9.737853376873871e-06 1.1936676360041654e-10 -6.4238857938108527e-05 1.5568688300201737e-05 1.4850811990033216e-11 -7.0354987618031408e-05 1.5626080314932662e-05 -1.8184047746445924e-12 -4.6875184481376275e-05 1.5621076143583319e-05 1.5831230720709936e-10 -4.9657000194535959e-05 9.737853376873871e-06 1.1936676360041654e-10 -6.4238857938108527e-05 1.5621076143583323e-05 1.5831230720709936e-10 -4.9657000194535966e-05 7.7409119284633939e-06 2.1079606242772471e-11 -4.2280071442435221e-05 7.0370189175575336e-06 1.8515466585758746e-10 -4.5175736099429966e-05 1.5626080314932658e-05 -1.8184047746446237e-12 -4.6875184481376282e-05 9.737853376873871e-06 1.1936676360041654e-10 -6.4238857938108527e-05 7.7409119284633939e-06 2.1079606242772439e-11 -4.2280071442435221e-05 6.8267295487136992e-06 -7.4069462377022981e-13 -7.278232372080546e-05 9.737853376873871e-06 1.1936676360041654e-10 -6.4238857938108527e-05 1.5626080314932658e-05 -1.8184047746446423e-12 -4.6875184481376282e-05 1.5568688300201737e-05 1.4850811990033213e-11 -7.0354987618031408e-05 6.8267295487136975e-06 -7.4069462377025949e-13 -7.2782323720805447e-05 1.5568688300201737e-05 1.4850811990033213e-11 -7.0354987618031408e-05 1.5621076143583319e-05 1.5831230720709936e-10 -4.9657000194535959e-05 9.737853376873871e-06 1.1936676360041654e-10 -6.4238857938108527e-05 1.5598389599468825e-05 1.7154995436455026e-10 -7.3026479297763806e-05 1.0140744429619037e-05 3.6841823348515685e-10 -5.6268861464972617e-05 1.4319825871007317e-05 2.6679511547609115e-10 -6.4658885024395692e-05 9.737853376873871e-06 1.1936676360041654e-10 -6.4238857938108527e-05 1.5621076143583316e-05 1.5831230720709936e-10 -4.9657000194535972e-05 1.4319825871007317e-05 2.6679511547609115e-10 -6.4658885024395692e-05 9.7147926992552547e-06 3.2600941657610226e-10 -7.6377575420129247e-05 1.0140744429619037e-05 3.6841823348515685e-10 -5.6268861464972617e-05 9.737853376873871e-06 1.1936676360041654e-10 -6.4238857938108527e-05 1.4319825871007317e-05 2.6679511547609115e-10 -6.4658885024395692e-05 9.737853376873871e-06 1.1936676360041654e-10 -6.4238857938108527e-05 1.5621076143583319e-05 1.5831230720709936e-10 -4.9657000194535959e-05 1.5598389599468825e-05 1.7154995436455026e-10 -7.3026479297763806e-05 1.0140744429619037e-05 3.6841823348515685e-10 -5.6268861464972617e-05 9.737853376873871e-06 1.1936676360041654e-10 -6.4238857938108527e-05 9.7147926992552564e-06 3.2600941657610221e-10 -7.6377575420129233e-05 5.7672892105087994e-06 1.6348621601241426e-10 -7.6511854528055467e-05 1.0140744429619037e-05 3.6841823348515685e-10 -5.6268861464972617e-05 1.5621076143583316e-05 1.5831230720709936e-10 -4.9657000194535966e-05 9.737853376873871e-06 1.1936676360041654e-10 -6.423885793810854e-05 7.0370189175575353e-06 1.8515466585758759e-10 -4.5175736099429972e-05 1.4319825871007317e-05 2.6679511547609115e-10 -6.4658885024395692e-05 9.7147926992552564e-06 3.2600941657610226e-10 -7.6377575420129247e-05 9.7378533768738676e-06 1.1936676360041649e-10 -6.4238857938108513e-05 1.5598389599468825e-05 1.7154995436455026e-10 -7.3026479297763806e-05 1.029025647750221e-05 3.5333082014125923e-10 -3.7140415860400776e-05 1.5621076143583323e-05 1.5831230720709936e-10 -4.9657000194535959e-05 1.0140744429619037e-05 3.6841823348515685e-10 -5.6268861464972617e-05 7.0370189175575336e-06 1.8515466585758749e-10 -4.5175736099429972e-05 1.0140744429619037e-05 3.6841823348515685e-10 -5.6268861464972617e-05 9.7378533768738727e-06 1.1936676360041654e-10 -6.423885793810854e-05 4.9691204257632456e-06 3.0221488711430128e-10 -6.5106858757653241e-05 7.0370189175575336e-06 1.8515466585758751e-10 -4.5175736099429966e-05 1.029025647750221e-05 3.5333082014125923e-10 -3.7140415860400776e-05 1.6239093534900631e-05 3.163835001395912e-10 -4.6875224519034137e-05 1.0140744429619037e-05 3.6841823348515685e-10 -5.6268861464972617e-05 1.5621076143583319e-05 1.5831230720709936e-10 -4.9657000194535959e-05 1.0140744429619037e-05 3.6841823348515685e-10 -5.6268861464972617e-05 1.6239093534900631e-05 3.163835001395912e-10 -4.6875224519034137e-05 1.4319825871007317e-05 2.6679511547609115e-10 -6.4658885024395692e-05 1.5621076143583319e-05 1.5831230720709941e-10 -4.9657000194535959e-05 1.4319825871007317e-05 2.6679511547609115e-10 -6.4658885024395692e-05 1.5929321065174646e-05 3.0165976391624968e-10 -7.8313533412780058e-05 9.7147926992552547e-06 3.2600941657610226e-10 -7.6377575420129247e-05 1.5598389599468825e-05 1.7154995436455026e-10 -7.3026479297763806e-05 9.7147926992552547e-06 3.2600941657610226e-10 -7.6377575420129247e-05 1.5598389599468828e-05 1.7154995436455024e-10 -7.3026479297763793e-05 9.7092354432794625e-06 2.119628384677571e-10 -9.3749073837692321e-05 5.7672892105087994e-06 1.6348621601241426e-10 -7.6511854528055467e-05 9.7147926992552547e-06 3.2600941657610226e-10 -7.6377575420129247e-05 9.7378533768738693e-06 1.1936676360041659e-10 -6.4238857938108527e-05 1.5598389599468825e-05 1.7154995436455013e-10 -7.3026479297763806e-05 5.7672892105087994e-06 1.6348621601241426e-10 -7.6511854528055467e-05 1.5877286155039304e-05 2.3830266645841106e-10 -9.3749132268340554e-05 9.714792699255253e-06 3.2600941657610226e-10 -7.6377575420129247e-05 1.5929321065174646e-05 3.0165976391624968e-10 -7.8313533412780058e-05 1.5598389599468825e-05 1.7154995436455026e-10 -7.3026479297763806e-05 9.7092354432794625e-06 2.119628384677571e-10 -9.3749073837692321e-05 1.5598389599468821e-05 1.7154995436455031e-10 -7.3026479297763793e-05 9.737853376873871e-06 1.1936676360041649e-10 -6.423885793810854e-05 5.7672892105087994e-06 1.6348621601241426e-10 -7.6511854528055467e-05 9.7147926992552547e-06 3.2600941657610226e-10 -7.6377575420129247e-05 1.25009816927358e-05 4.0427347434164019e-10 -9.3749142178783097e-05 1.5877286155039304e-05 2.3830266645841106e-10 -9.3749132268340554e-05 1.5929321065174646e-05 3.0165976391624968e-10 -7.8313533412780058e-05 9.7147926992552547e-06 3.2600941657610226e-10 -7.6377575420129247e-05 1.25009816927358e-05 4.0427347434164019e-10 -9.3749142178783097e-05 9.7092354432794625e-06 2.119628384677571e-10 -9.3749073837692321e-05 1.5877286155039304e-05 2.3830266645841106e-10 -9.3749132268340554e-05 9.7147926992552547e-06 3.2600941657610226e-10 -7.6377575420129247e-05 1.5877286155039304e-05 2.3830266645841106e-10 -9.3749132268340554e-05 9.7092354432794625e-06 2.119628384677571e-10 -9.3749073837692321e-05 1.5598389599468825e-05 1.7154995436455021e-10 -7.3026479297763793e-05 1.4317476891681842e-05 1.2308858459179646e-10 -9.3749109036101667e-05 9.7092354432794625e-06 2.119628384677571e-10 -9.3749073837692321e-05 1.5877286155039304e-05 2.3830266645841106e-10 -9.3749132268340554e-05 1.5598389599468825e-05 1.7154995436455026e-10 -7.3026479297763806e-05 1.25009816927358e-05 4.0427347434164019e-10 -9.3749142178783097e-05 6.2504801581264348e-06 3.2986034078657003e-10 -9.3749090229985796e-05 9.7147926992552547e-06 3.2600941657610226e-10 -7.6377575420129247e-05 9.7092354432794625e-06 2.119628384677571e-10 -9.3749073837692321e-05 4.9691204257632456e-06 3.0221488711430128e-10 -6.5106858757653241e-05 9.7147926992552547e-06 3.2600941657610226e-10 -7.6377575420129247e-05 4.5756554679818082e-06 2.4310157352864851e-10 -8.0023421244842423e-05 5.7672892105087994e-06 1.6348621601241426e-10 -7.6511854528055467e-05 9.7147926992552547e-06 3.2600941657610226e-10 -7.6377575420129247e-05 9.7092354432794625e-06 2.119628384677571e-10 -9.3749073837692321e-05 4.5756554679818082e-06 2.4310157352864851e-10 -8.0023421244842423e-05 5.7672892105087994e-06 1.6348621601241426e-10 -7.6511854528055467e-05 9.7147926992552547e-06 3.2600941657610226e-10 -7.6377575420129247e-05 6.250480158126434e-06 3.2986034078656992e-10 -9.3749090229985796e-05 4.5756554679818082e-06 2.4310157352864851e-10 -8.0023421244842423e-05 9.7092354432794625e-06 2.119628384677571e-10 -9.3749073837692321e-05 4.5756737574049381e-06 2.1203571495649822e-10 -9.3749045334339418e-05 4.5756554679818082e-06 2.4310157352864851e-10 -8.0023421244842423e-05 6.2504801581264348e-06 3.2986034078657003e-10 -9.3749090229985796e-05 9.7092354432794625e-06 2.119628384677571e-10 -9.3749073837692321e-05 9.7092354432794625e-06 2.119628384677571e-10 -9.3749073837692321e-05 4.9681441423517619e-06 1.1927690482106312e-10 -9.374905838923526e-05 4.5756737574049381e-06 2.1203571495649822e-10 -9.3749045334339418e-05 5.7672892105087994e-06 1.6348621601241426e-10 -7.6511854528055467e-05 4.5756737574049381e-06 2.1203571495649822e-10 -9.3749045334339418e-05 4.5756554679818082e-06 2.4310157352864851e-10 -8.002342124484241e-05 9.7092354432794625e-06 2.1196283846775707e-10 -9.3749073837692308e-05 5.7672892105087994e-06 1.6348621601241423e-10 -7.6511854528055467e-05 -2.8024047364589378e-15 2.0125635336343108e-10 -8.0023413289419888e-05 1.5354381446102464e-15 1.1700933411315371e-10 -7.9849712477799456e-05 1.7245741447523537e-15 1.9060400715138037e-10 -6.6133150323416704e-05 5.7672892105087994e-06 1.6348621601241426e-10 -7.6511854528055467e-05 4.9691204257632456e-06 3.0221488711430128e-10 -6.5106858757653241e-05 -2.8024045208977315e-15 2.0125635336343102e-10 -8.0023413289419888e-05 1.7245743135108471e-15 1.9060400715138032e-10 -6.613315032341669e-05 5.7672892105087986e-06 1.6348621601241423e-10 -7.6511854528055467e-05 5.7672892105087994e-06 1.6348621601241426e-10 -7.6511854528055467e-05 5.6652787087650728e-15 1.785884175024808e-10 -9.3749046346751211e-05 4.9681441423517594e-06 1.1927690482106317e-10 -9.3749058389235246e-05 4.5756737574049381e-06 2.120357149564982e-10 -9.3749045334339418e-05 4.5756554679818082e-06 2.4310157352864851e-10 -8.0023421244842423e-05 4.5756737574049381e-06 2.1203571495649822e-10 -9.3749045334339432e-05 -2.8024047364589378e-15 2.0125635336343108e-10 -8.0023413289419888e-05 5.7672892105087994e-06 1.6348621601241426e-10 -7.6511854528055467e-05 -2.8024047364589378e-15 2.0125635336343108e-10 -8.0023413289419888e-05 5.6652777068940598e-15 1.7858841750248085e-10 -9.3749046346751211e-05 1.5354381446102464e-15 1.1700933411315371e-10 -7.9849712477799456e-05 5.7672892105087994e-06 1.6348621601241426e-10 -7.6511854528055467e-05 -2.8024047364589378e-15 2.0125635336343108e-10 -8.0023413289419888e-05 4.5756737574049381e-06 2.1203571495649822e-10 -9.3749045334339418e-05 5.6652779044672862e-15 1.7858841750248085e-10 -9.3749046346751225e-05 5.7672892105087994e-06 1.6348621601241426e-10 -7.6511854528055467e-05 5.6926172289185588e-15 3.3273691319125667e-10 -9.3749065663027221e-05 -2.8024049348971568e-15 2.012563533634311e-10 -8.0023413289419888e-05 4.5756737574049381e-06 2.1203571495649822e-10 -9.3749045334339418e-05 5.6652776701715024e-15 1.7858841750248085e-10 -9.3749046346751211e-05 -2.8024047364589378e-15 2.0125635336343108e-10 -8.0023413289419888e-05 4.5756554679818082e-06 2.4310157352864846e-10 -8.002342124484241e-05 5.6926172289185588e-15 3.3273691319125667e-10 -9.3749065663027221e-05 4.5756737574049381e-06 2.1203571495649822e-10 -9.3749045334339418e-05 6.2504801581264348e-06 3.2986034078657003e-10 -9.3749090229985796e-05 5.6926173644538608e-15 3.3273691319125672e-10 -9.3749065663027221e-05 4.5756554679818082e-06 2.4310157352864851e-10 -8.0023421244842423e-05 4.5756737574049381e-06 2.1203571495649822e-10 -9.3749045334339418e-05 4.5756554679818082e-06 2.4310157352864851e-10 -8.0023421244842423e-05 5.6926172289185588e-15 3.3273691319125667e-10 -9.3749065663027221e-05 1.5202527439067854e-15 2.9325572288498521e-10 -7.4999480745943168e-05 -2.8024047364589378e-15 2.0125635336343108e-10 -8.0023413289419888e-05 4.5756554679818082e-06 2.4310157352864851e-10 -8.0023421244842423e-05 -2.8024047351915294e-15 2.0125635336343108e-10 -8.0023413289419888e-05 4.9691204257632456e-06 3.0221488711430128e-10 -6.5106858757653241e-05 5.7672892105087994e-06 1.6348621601241426e-10 -7.6511854528055467e-05 4.9691204257632456e-06 3.0221488711430128e-10 -6.5106858757653241e-05 1.5202515485482312e-15 2.9325572288498531e-10 -7.4999480745943181e-05 1.7245741447523537e-15 1.9060400715138037e-10 -6.6133150323416704e-05 -2.8024047364589378e-15 2.0125635336343108e-10 -8.0023413289419888e-05 1.5202531141960601e-15 2.9325572288498526e-10 -7.4999480745943181e-05 4.9691204257632456e-06 3.0221488711430128e-10 -6.5106858757653241e-05 4.5756554679818082e-06 2.4310157352864851e-10 -8.0023421244842423e-05 -2.8024047364589378e-15 2.0125635336343108e-10 -8.0023413289419888e-05 1.7245741447523537e-15 1.9060400715138037e-10 -6.6133150323416704e-05 4.9905326876374805e-15 3.6113738913022994e-10 -5.6249922113651789e-05 1.5202531141960601e-15 2.9325572288498526e-10 -7.4999480745943181e-05 4.9691204257632456e-06 3.0221488711430128e-10 -6.5106858757653241e-05 9.737853376873871e-06 1.1936676360041654e-10 -6.4238857938108527e-05 7.0370189175575353e-06 1.8515466585758751e-10 -4.5175736099429979e-05 1.7245729743614968e-15 1.9060400715138032e-10 -6.6133150323416704e-05 5.7672892105088003e-06 1.6348621601241426e-10 -7.6511854528055467e-05 1.7245741447523537e-15 1.9060400715138037e-10 -6.6133150323416704e-05 -5.7576614244068889e-15 2.3844198964716474e-10 -4.7628253778089057e-05 4.9905326876374805e-15 3.6113738913022994e-10 -5.6249922113651789e-05 4.9691204257632456e-06 3.0221488711430128e-10 -6.5106858757653241e-05 4.9691204257632456e-06 3.0221488711430128e-10 -6.5106858757653241e-05 9.737853376873871e-06 1.1936676360041659e-10 -6.4238857938108513e-05 1.0140744429619037e-05 3.6841823348515685e-10 -5.6268861464972617e-05 5.7672892105087994e-06 1.6348621601241426e-10 -7.6511854528055467e-05 4.9691204257632456e-06 3.0221488711430128e-10 -6.5106858757653241e-05 7.0370189175575396e-06 1.8515466585758749e-10 -4.5175736099429972e-05 9.7378533768738659e-06 1.1936676360041654e-10 -6.423885793810854e-05 5.7672892105087994e-06 1.6348621601241426e-10 -7.6511854528055467e-05 4.9691204257632456e-06 3.0221488711430128e-10 -6.5106858757653241e-05 1.7245755507795659e-15 1.9060400715138032e-10 -6.6133150323416704e-05 7.0370189175575345e-06 1.8515466585758749e-10 -4.5175736099429972e-05 5.7672892105087986e-06 1.6348621601241423e-10 -7.6511854528055467e-05 4.9691204257632456e-06 3.0221488711430128e-10 -6.5106858757653241e-05 1.0140744429619037e-05 3.6841823348515685e-10 -5.626886146497261e-05 9.7147926992552547e-06 3.2600941657610226e-10 -7.6377575420129247e-05 5.7672892105087994e-06 1.6348621601241426e-10 -7.6511854528055467e-05 1.0140744429619037e-05 3.6841823348515685e-10 -5.6268861464972617e-05 4.9691204257632456e-06 3.0221488711430128e-10 -6.5106858757653241e-05 5.3835348999161541e-06 3.3029254117405797e-10 -4.6721921269590402e-05 7.0370189175575345e-06 1.8515466585758749e-10 -4.5175736099429972e-05 -5.7576621575272888e-15 2.3844198964716474e-10 -4.7628253778089057e-05 5.3835348999161549e-06 3.3029254117405797e-10 -4.6721921269590402e-05 4.9691204257632456e-06 3.0221488711430128e-10 -6.5106858757653241e-05 7.0370189175575345e-06 1.8515466585758749e-10 -4.5175736099429972e-05 4.9905326876374805e-15 3.6113738913022994e-10 -5.6249922113651789e-05 5.2044513072489748e-15 3.8700914533399093e-10 -3.750037897751236e-05 5.3835348999161541e-06 3.3029254117405797e-10 -4.6721921269590402e-05 -5.7576621575272888e-15 2.3844198964716474e-10 -4.7628253778089057e-05 -5.7576621575272888e-15 2.3844198964716474e-10 -4.7628253778089057e-05 5.3835348999161558e-06 3.3029254117405797e-10 -4.6721921269590402e-05 4.9905326876374805e-15 3.6113738913022994e-10 -5.6249922113651789e-05 4.9691204257632456e-06 3.0221488711430128e-10 -6.5106858757653241e-05 -5.7576621575272888e-15 2.3844198964716474e-10 -4.7628253778089057e-05 4.9691204257632456e-06 3.0221488711430128e-10 -6.5106858757653241e-05 1.7245741447523537e-15 1.9060400715138037e-10 -6.6133150323416704e-05 7.0370189175575345e-06 1.8515466585758749e-10 -4.5175736099429972e-05 -1.5162335372135728e-15 1.0576212219351867e-10 -5.6197655793460738e-05 -5.7576621575272888e-15 2.3844198964716474e-10 -4.7628253778089057e-05 1.7245741447523537e-15 1.9060400715138037e-10 -6.6133150323416704e-05 7.0370189175575345e-06 1.8515466585758749e-10 -4.5175736099429972e-05 -1.5162335372135728e-15 1.0576212219351867e-10 -5.6197655793460738e-05 1.7245742835771974e-15 1.9060400715138037e-10 -6.6133150323416704e-05 9.737853376873871e-06 1.1936676360041651e-10 -6.4238857938108513e-05 7.0370189175575345e-06 1.8515466585758749e-10 -4.5175736099429972e-05 -1.5162335372135728e-15 1.0576212219351867e-10 -5.6197655793460738e-05 9.7378533768738676e-06 1.1936676360041639e-10 -6.423885793810854e-05 1.724574382322877e-15 1.906040071513804e-10 -6.613315032341669e-05 5.7672892105087994e-06 1.6348621601241418e-10 -7.651185452805548e-05 -1.5162335372135728e-15 1.0576212219351867e-10 -5.6197655793460738e-05 1.7245741447523537e-15 1.9060400715138037e-10 -6.6133150323416704e-05 1.7379735828193205e-15 6.5713693961425012e-11 -6.8177062920277097e-05 5.767289210508802e-06 1.6348621601241426e-10 -7.6511854528055467e-05 -1.5162335372135728e-15 1.0576212219351867e-10 -5.6197655793460738e-05 7.7409119284633939e-06 2.1079606242772403e-11 -4.2280071442435215e-05 9.737853376873871e-06 1.1936676360041654e-10 -6.4238857938108527e-05 6.8267295487136992e-06 -7.4069462377025434e-13 -7.278232372080546e-05 -1.5162335372135728e-15 1.0576212219351867e-10 -5.6197655793460738e-05 1.7379735828193205e-15 6.5713693961425012e-11 -6.8177062920277097e-05 9.7378533768738693e-06 1.1936676360041659e-10 -6.4238857938108527e-05 5.7672892105088011e-06 1.6348621601241426e-10 -7.6511854528055467e-05 -1.5162335372135728e-15 1.0576212219351867e-10 -5.6197655793460738e-05 2.091826304863119e-15 -1.9175442949751212e-11 -6.3112746578246234e-05 -4.2893915564510345e-15 2.9898242751294917e-12 -4.8714039270935687e-05 6.8267295487137009e-06 -7.4069462377022405e-13 -7.278232372080546e-05 1.7379735828193205e-15 6.5713693961425012e-11 -6.8177062920277097e-05 -1.5162335372135728e-15 1.0576212219351867e-10 -5.6197655793460738e-05 9.737853376873871e-06 1.1936676360041654e-10 -6.4238857938108527e-05 6.8267295487136992e-06 -7.4069462377022981e-13 -7.278232372080546e-05 -1.5162335372135728e-15 1.0576212219351867e-10 -5.6197655793460738e-05 9.737853376873871e-06 1.1936676360041654e-10 -6.4238857938108527e-05 7.7409119284633939e-06 2.107960624277239e-11 -4.2280071442435215e-05 7.0370189175575345e-06 1.8515466585758749e-10 -4.5175736099429972e-05 -1.5162335372135728e-15 1.0576212219351867e-10 -5.6197655793460738e-05 -4.2893911781035554e-15 2.9898242751294892e-12 -4.8714039270935687e-05 7.7409119284633939e-06 2.1079606242772439e-11 -4.2280071442435221e-05 6.8267295487137009e-06 -7.4069462377028151e-13 -7.278232372080546e-05 1.264960660816916e-15 1.2037577063664569e-10 -4.2810756485915724e-05 -5.7576621588760564e-15 2.3844198964716474e-10 -4.7628253778089057e-05 -1.5162335372135728e-15 1.0576212219351867e-10 -5.6197655793460738e-05 7.0370189175575345e-06 1.8515466585758749e-10 -4.5175736099429972e-05 -1.5162335372135728e-15 1.0576212219351867e-10 -5.6197655793460738e-05 -4.2893911781035554e-15 2.9898242751294892e-12 -4.8714039270935687e-05 1.264960660816916e-15 1.2037577063664569e-10 -4.2810756485915724e-05 7.7409119284633939e-06 2.1079606242772439e-11 -4.2280071442435221e-05 1.7379735828193205e-15 6.5713693961425012e-11 -6.8177062920277097e-05 2.091826304863119e-15 -1.9175442949751212e-11 -6.3112746578246234e-05 -1.5162332890253028e-15 1.0576212219351867e-10 -5.6197655793460732e-05 6.8267295487136992e-06 -7.4069462377022981e-13 -7.278232372080546e-05 -1.7011790391408551e-17 5.0286214216809136e-12 -7.892931854561987e-05 1.5354381446102464e-15 1.1700933411315371e-10 -7.9849712477799456e-05 4.9681441423517619e-06 1.1927690482106312e-10 -9.374905838923526e-05 6.8267295487137e-06 -7.4069462377020951e-13 -7.2782323720805447e-05 1.7379735828193205e-15 6.5713693961425012e-11 -6.8177062920277097e-05 6.8267295487136992e-06 -7.4069462377023758e-13 -7.278232372080546e-05 9.737853376873871e-06 1.1936676360041654e-10 -6.4238857938108527e-05 5.7672892105088003e-06 1.6348621601241428e-10 -7.6511854528055467e-05 4.9681441423517619e-06 1.1927690482106312e-10 -9.374905838923526e-05 6.8267295487136992e-06 -7.4069462377022648e-13 -7.2782323720805447e-05 1.535436798652311e-15 1.1700933411315369e-10 -7.9849712477799456e-05 5.7672892105087994e-06 1.6348621601241423e-10 -7.6511854528055467e-05 -1.7011790391408551e-17 5.0286214216809136e-12 -7.892931854561987e-05 2.091826304863119e-15 -1.9175442949751212e-11 -6.3112746578246234e-05 1.7379735828193205e-15 6.5713693961425012e-11 -6.8177062920277097e-05 6.8267295487137009e-06 -7.4069462377023062e-13 -7.2782323720805447e-05 -1.7011790391408551e-17 5.0286214216809136e-12 -7.892931854561987e-05 1.7379735828193205e-15 6.5713693961425012e-11 -6.8177062920277097e-05 1.5354381446102464e-15 1.1700933411315371e-10 -7.9849712477799456e-05 6.8267295487137009e-06 -7.4069462377022981e-13 -7.2782323720805474e-05 4.9681441423517619e-06 1.1927690482106312e-10 -9.374905838923526e-05 1.0140355794177804e-05 6.6866787859724855e-11 -9.3749077119824551e-05 6.8267295487136992e-06 -7.4069462377022435e-13 -7.278232372080546e-05 5.7672892105087986e-06 1.6348621601241426e-10 -7.6511854528055467e-05 1.7379735828193205e-15 6.5713693961425012e-11 -6.8177062920277097e-05 1.5354381163293001e-15 1.1700933411315371e-10 -7.9849712477799456e-05 6.8267295487136984e-06 -7.406946237702291e-13 -7.278232372080546e-05 5.7672892105088011e-06 1.6348621601241431e-10 -7.6511854528055467e-05 1.7245741447523537e-15 1.9060400715138037e-10 -6.6133150323416704e-05 1.5354381446102464e-15 1.1700933411315371e-10 -7.9849712477799456e-05 1.7379734359290923e-15 6.5713693961425012e-11 -6.8177062920277097e-05 5.7672892105087994e-06 1.6348621601241426e-10 -7.6511854528055467e-05 4.9681441423517619e-06 1.1927690482106312e-10 -9.374905838923526e-05 1.0140355794177804e-05 6.6866787859724868e-11 -9.3749077119824551e-05 5.3835897181461062e-06 3.6612224625548998e-13 -9.3749057344499876e-05 6.8267295487136992e-06 -7.4069462377022981e-13 -7.278232372080546e-05 4.9681441423517619e-06 1.1927690482106312e-10 -9.374905838923526e-05 5.383589718146107e-06 3.6612224625550472e-13 -9.3749057344499889e-05 -1.7011790391408551e-17 5.0286214216809136e-12 -7.892931854561987e-05 6.8267295487136992e-06 -7.4069462377022981e-13 -7.278232372080546e-05 1.0140355794177804e-05 6.6866787859724868e-11 -9.3749077119824551e-05 4.9681441423517619e-06 1.1927690482106312e-10 -9.374905838923526e-05 9.7092354432794642e-06 2.119628384677571e-10 -9.3749073837692321e-05 5.7672892105087994e-06 1.6348621601241426e-10 -7.6511854528055467e-05 5.7672892105087994e-06 1.6348621601241426e-10 -7.6511854528055467e-05 4.9681441423517611e-06 1.1927690482106317e-10 -9.374905838923526e-05 5.6652787035283688e-15 1.7858841750248083e-10 -9.3749046346751211e-05 1.5354381446102464e-15 1.1700933411315371e-10 -7.9849712477799456e-05 1.5354381446102464e-15 1.1700933411315371e-10 -7.9849712477799456e-05 -1.701180104889553e-17 5.0286214216809136e-12 -7.892931854561987e-05 4.9681441423517619e-06 1.1927690482106312e-10 -9.374905838923526e-05 4.4409205157358434e-15 6.0452838030342696e-11 -9.3749058181007416e-05 4.9681441423517619e-06 1.1927690482106312e-10 -9.374905838923526e-05 5.6652776701715024e-15 1.7858841750248085e-10 -9.3749046346751211e-05 1.535437736075417e-15 1.1700933411315371e-10 -7.9849712477799456e-05 4.4409205157358434e-15 6.0452838030342696e-11 -9.3749058181007416e-05 4.4409205157358434e-15 6.0452838030342696e-11 -9.3749058181007416e-05 -1.7011790391408551e-17 5.0286214216809136e-12 -7.892931854561987e-05 4.9681441423517619e-06 1.1927690482106312e-10 -9.374905838923526e-05 5.383589718146107e-06 3.6612224625550472e-13 -9.3749057344499889e-05 -1.7011790391408551e-17 5.0286214216809136e-12 -7.892931854561987e-05 4.4409205157358434e-15 6.0452838030342696e-11 -9.3749058181007416e-05 5.2837127004236036e-15 -6.0600743371301239e-11 -9.3749056758216115e-05 5.383589718146107e-06 3.6612224625550472e-13 -9.3749057344499889e-05 5.383589718146107e-06 3.6612224625550472e-13 -9.3749057344499889e-05 5.2837130151452091e-15 -6.0600743371301239e-11 -9.3749056758216101e-05 -1.7010866424134789e-17 5.0286214216808781e-12 -7.892931854561987e-05 1.8412142821817954e-15 -1.1215182775649843e-10 -7.5786840912727888e-05 5.2837130151452091e-15 -6.0600743371301239e-11 -9.3749056758216101e-05 5.383589718146107e-06 3.6612224625550472e-13 -9.3749057344499889e-05 5.2909559984556187e-06 -1.1709104527130062e-10 -9.3749050816219478e-05 1.8412160752773728e-15 -1.1215182775649844e-10 -7.5786840912727888e-05 -3.6621253008165052e-15 -2.0903977962374401e-10 -8.0023407905097628e-05 1.8412160752773728e-15 -1.1215182775649844e-10 -7.5786840912727888e-05 5.2909559984556187e-06 -1.1709104527130059e-10 -9.3749050816219464e-05 9.8215644100248744e-06 -1.2020642600215334e-10 -6.4463322282354567e-05 5.2909559984556187e-06 -1.1709104527130062e-10 -9.3749050816219478e-05 9.821564410024871e-06 -1.2020642600215326e-10 -6.4463322282354567e-05 1.8412163279533645e-15 -1.1215182775649844e-10 -7.5786840912727901e-05 6.8267295487136984e-06 -7.4069462377022637e-13 -7.278232372080546e-05 -1.7011790391408551e-17 5.0286214216809136e-12 -7.892931854561987e-05 1.8412161729654479e-15 -1.1215182775649844e-10 -7.5786840912727888e-05 2.091826304863119e-15 -1.9175442949751212e-11 -6.3112746578246234e-05 6.8267295487137009e-06 -7.4069462377023001e-13 -7.2782323720805447e-05 -1.7011790391408551e-17 5.0286214216809136e-12 -7.892931854561987e-05 5.3835897181461062e-06 3.6612224625550659e-13 -9.3749057344499889e-05 1.8412161903483668e-15 -1.1215182775649844e-10 -7.5786840912727888e-05 6.8267295487137e-06 -7.4069462377022748e-13 -7.278232372080546e-05 1.8412160752773728e-15 -1.1215182775649844e-10 -7.5786840912727888e-05 5.2909559984556187e-06 -1.1709104527130062e-10 -9.3749050816219478e-05 5.2837130151452091e-15 -6.0600743371301239e-11 -9.3749056758216101e-05 6.2755005590015721e-15 -1.7918803988463928e-10 -9.3749049698073049e-05 5.383589718146107e-06 3.6612224625550472e-13 -9.3749057344499889e-05 1.0289953380024111e-05 -7.0221846007789014e-11 -9.3749078776139366e-05 5.2909559984556187e-06 -1.1709104527130062e-10 -9.3749050816219478e-05 6.8267295487136992e-06 -7.4069462377022981e-13 -7.278232372080546e-05 5.383589718146107e-06 3.6612224625550472e-13 -9.3749057344499889e-05 5.2909559984556187e-06 -1.1709104527130062e-10 -9.3749050816219478e-05 1.841217314947587e-15 -1.1215182775649844e-10 -7.5786840912727888e-05 6.8267295487136984e-06 -7.4069462377023021e-13 -7.2782323720805447e-05 9.8791372809660628e-06 -2.0711890699193706e-10 -9.3749069957343629e-05 5.2909559984556187e-06 -1.1709104527130062e-10 -9.3749050816219478e-05 1.0289953380024111e-05 -7.0221846007789014e-11 -9.3749078776139366e-05 9.8215644100248693e-06 -1.2020642600215326e-10 -6.4463322282354567e-05 1.0140355794177804e-05 6.6866787859724868e-11 -9.3749077119824551e-05 1.0289953380024111e-05 -7.0221846007789014e-11 -9.3749078776139366e-05 5.383589718146107e-06 3.6612224625550472e-13 -9.3749057344499889e-05 6.8267295487136992e-06 -7.4069462377022981e-13 -7.278232372080546e-05 1.4317483688277223e-05 -1.3079467995322866e-10 -9.3749112535157394e-05 9.8215644100248676e-06 -1.2020642600215326e-10 -6.4463322282354567e-05 1.5568688300201737e-05 1.4850811990033213e-11 -7.0354987618031408e-05 1.565259516727747e-05 -1.9175261860363514e-10 -7.3204101955518544e-05 1.0289953380024111e-05 -7.0221846007789014e-11 -9.3749078776139366e-05 1.556868830020174e-05 1.4850811990033223e-11 -7.0354987618031421e-05 9.8215644100248693e-06 -1.2020642600215329e-10 -6.4463322282354567e-05 6.8267295487137e-06 -7.4069462377026121e-13 -7.278232372080546e-05 9.8791372809660628e-06 -2.0711890699193706e-10 -9.3749069957343629e-05 1.0289953380024111e-05 -7.0221846007789027e-11 -9.3749078776139366e-05 1.4317483688277223e-05 -1.3079467995322866e-10 -9.3749112535157394e-05 9.8215644100248676e-06 -1.2020642600215326e-10 -6.4463322282354567e-05 1.4317483688277223e-05 -1.3079467995322866e-10 -9.3749112535157394e-05 9.8791372809660645e-06 -2.0711890699193708e-10 -9.3749069957343629e-05 9.8215644100248693e-06 -1.2020642600215329e-10 -6.4463322282354567e-05 1.5652595167277467e-05 -1.9175261860363516e-10 -7.3204101955518517e-05 1.0289953380024111e-05 -7.0221846007789014e-11 -9.3749078776139366e-05 1.4317483688277223e-05 -1.3079467995322866e-10 -9.3749112535157394e-05 9.8215644100248693e-06 -1.2020642600215329e-10 -6.4463322282354567e-05 1.556868830020174e-05 1.4850811990033271e-11 -7.0354987618031408e-05 1.0289953380024111e-05 -7.0221846007789014e-11 -9.3749078776139366e-05 9.8215644100248693e-06 -1.2020642600215329e-10 -6.4463322282354567e-05 5.2909559984556187e-06 -1.1709104527130062e-10 -9.3749050816219478e-05 6.8267295487137009e-06 -7.4069462377027898e-13 -7.2782323720805474e-05 1.0289953380024111e-05 -7.0221846007789014e-11 -9.3749078776139366e-05 1.6239262543165727e-05 -3.7217378545422873e-12 -9.3749144281367019e-05 1.4317483688277223e-05 -1.3079467995322866e-10 -9.3749112535157394e-05 1.5568688300201737e-05 1.4850811990033213e-11 -7.0354987618031408e-05 9.8215644100248693e-06 -1.2020642600215329e-10 -6.4463322282354567e-05 1.5568688300201734e-05 1.4850811990033236e-11 -7.0354987618031394e-05 1.5626080314932658e-05 -1.8184047746446118e-12 -4.6875184481376282e-05 6.8267295487136984e-06 -7.4069462377021719e-13 -7.2782323720805447e-05 7.7409119284633939e-06 2.1079606242772439e-11 -4.2280071442435221e-05 1.5649080197213527e-05 -1.6205830801956777e-10 -4.958134235951604e-05 9.8215644100248659e-06 -1.2020642600215329e-10 -6.4463322282354567e-05 6.9032058486159813e-06 -1.5973986522696947e-10 -4.6879649301062965e-05 9.8215644100248693e-06 -1.2020642600215329e-10 -6.4463322282354567e-05 1.564908019721353e-05 -1.6205830801956777e-10 -4.9581342359516047e-05 1.5568688300201734e-05 1.4850811990033187e-11 -7.0354987618031394e-05 1.5652595167277467e-05 -1.9175261860363514e-10 -7.320410195551853e-05 1.5626080314932658e-05 -1.8184047746446237e-12 -4.6875184481376282e-05 9.8215644100248693e-06 -1.2020642600215329e-10 -6.4463322282354567e-05 7.7409119284633939e-06 2.1079606242772439e-11 -4.2280071442435221e-05 1.564908019721353e-05 -1.6205830801956777e-10 -4.9581342359516047e-05 1.5626080314932658e-05 -1.8184047746446237e-12 -4.6875184481376282e-05 1.556868830020174e-05 1.4850811990033213e-11 -7.0354987618031408e-05 9.821564410024871e-06 -1.2020642600215332e-10 -6.4463322282354567e-05 1.564908019721353e-05 -1.6205830801956777e-10 -4.9581342359516047e-05 1.5626080314932658e-05 -1.8184047746446237e-12 -4.6875184481376282e-05 7.7409119284633939e-06 2.1079606242772439e-11 -4.2280071442435221e-05 9.8215644100248693e-06 -1.2020642600215332e-10 -6.4463322282354554e-05 6.8267295487136992e-06 -7.4069462377022981e-13 -7.278232372080546e-05 6.8267295487136992e-06 -7.4069462377022981e-13 -7.278232372080546e-05 9.8215644100248693e-06 -1.2020642600215329e-10 -6.4463322282354567e-05 -4.2893910147655323e-15 2.9898242751294872e-12 -4.8714039270935687e-05 7.7409119284633905e-06 2.107960624277241e-11 -4.2280071442435221e-05 -2.3467340287482563e-15 -1.0874590927930872e-10 -4.2949300631835607e-05 7.7409119284633922e-06 2.1079606242772445e-11 -4.2280071442435221e-05 2.658470150550273e-15 -1.1475505912891447e-10 -5.7231464187926678e-05 6.9032058486159787e-06 -1.5973986522696947e-10 -4.6879649301062965e-05 2.6584700663514055e-15 -1.1475505912891447e-10 -5.7231464187926678e-05 -4.2893911781035554e-15 2.9898242751294892e-12 -4.8714039270935687e-05 9.8215644100248693e-06 -1.2020642600215324e-10 -6.4463322282354567e-05 7.7409119284633939e-06 2.1079606242772439e-11 -4.2280071442435221e-05 6.8267295487136992e-06 -7.4069462377022981e-13 -7.278232372080546e-05 2.6584725787331193e-15 -1.1475505912891442e-10 -5.7231464187926671e-05 -4.2893911781035554e-15 2.9898242751294892e-12 -4.8714039270935687e-05 9.8215644100248693e-06 -1.2020642600215329e-10 -6.4463322282354567e-05 2.6584700663514055e-15 -1.1475505912891447e-10 -5.7231464187926678e-05 7.7409119284633939e-06 2.1079606242772429e-11 -4.2280071442435215e-05 9.8215644100248693e-06 -1.2020642600215329e-10 -6.4463322282354567e-05 6.9032058486159787e-06 -1.597398652269695e-10 -4.6879649301062958e-05 6.8267295487136992e-06 -7.4069462377022981e-13 -7.278232372080546e-05 -4.2893911781035554e-15 2.9898242751294892e-12 -4.8714039270935687e-05 2.6584698262708845e-15 -1.1475505912891442e-10 -5.7231464187926678e-05 2.091826304863119e-15 -1.9175442949751212e-11 -6.3112746578246234e-05 -4.8702296920474533e-15 -2.3376967144663104e-10 -6.5044388154729383e-05 2.6584700663514055e-15 -1.1475505912891447e-10 -5.7231464187926678e-05 9.8215644100248693e-06 -1.2020642600215326e-10 -6.4463322282354567e-05 6.9032058486159787e-06 -1.5973986522696947e-10 -4.6879649301062965e-05 2.6584700663514055e-15 -1.1475505912891447e-10 -5.7231464187926678e-05 1.8412160752773728e-15 -1.1215182775649844e-10 -7.5786840912727888e-05 9.8215644100248693e-06 -1.2020642600215329e-10 -6.4463322282354567e-05 6.8267295487136984e-06 -7.4069462377027797e-13 -7.278232372080546e-05 -4.8702296920474533e-15 -2.3376967144663104e-10 -6.5044388154729383e-05 2.6584700663514055e-15 -1.1475505912891447e-10 -5.7231464187926678e-05 1.8412162477864558e-15 -1.1215182775649844e-10 -7.5786840912727888e-05 9.8215644100248693e-06 -1.2020642600215329e-10 -6.4463322282354567e-05 -2.3467340287482563e-15 -1.0874590927930872e-10 -4.2949300631835607e-05 -4.2893911781035554e-15 2.9898242751294892e-12 -4.8714039270935687e-05 2.6584700663514055e-15 -1.1475505912891447e-10 -5.7231464187926678e-05 7.7409119284633939e-06 2.1079606242772439e-11 -4.2280071442435221e-05 2.6584700663514055e-15 -1.1475505912891447e-10 -5.7231464187926678e-05 2.0918264175457273e-15 -1.9175442949751212e-11 -6.3112746578246234e-05 1.8412163760063461e-15 -1.1215182775649845e-10 -7.5786840912727888e-05 6.8267295487136958e-06 -7.4069462377019315e-13 -7.278232372080546e-05 2.6584700663514055e-15 -1.1475505912891447e-10 -5.7231464187926678e-05 -5.4650658373802926e-15 -2.3725793323064358e-10 -4.7781479647208462e-05 -2.3467341514665352e-15 -1.0874590927930872e-10 -4.2949300631835607e-05 6.9032058486159804e-06 -1.5973986522696944e-10 -4.6879649301062965e-05 -4.8702296920474533e-15 -2.3376967144663104e-10 -6.5044388154729383e-05 4.5756553539036124e-06 -2.4289551756280906e-10 -8.0023423439875695e-05 5.8813439525931586e-06 -3.1568683134839494e-10 -6.4091133999207557e-05 9.8215644100248693e-06 -1.2020642600215329e-10 -6.4463322282354567e-05 -4.8702296920474533e-15 -2.3376967144663104e-10 -6.5044388154729383e-05 9.8215644100248693e-06 -1.2020642600215329e-10 -6.4463322282354567e-05 5.8813439525931595e-06 -3.1568683134839494e-10 -6.4091133999207543e-05 6.9032058486159787e-06 -1.5973986522696947e-10 -4.6879649301062965e-05 -4.8702296920474533e-15 -2.3376967144663104e-10 -6.5044388154729383e-05 5.8813439525931586e-06 -3.1568683134839499e-10 -6.4091133999207557e-05 -5.4650658373802926e-15 -2.3725793323064358e-10 -4.7781479647208462e-05 6.9032058486159787e-06 -1.5973986522696947e-10 -4.6879649301062965e-05 -4.8702296920474533e-15 -2.3376967144663104e-10 -6.5044388154729383e-05 -5.4650658373802926e-15 -2.3725793323064358e-10 -4.7781479647208462e-05 2.6584698490622097e-15 -1.1475505912891447e-10 -5.7231464187926678e-05 6.9032058486159787e-06 -1.5973986522696947e-10 -4.6879649301062965e-05 1.0256943030088736e-14 -3.4466109119540877e-10 -7.4999468305092599e-05 9.7044452581437711e-15 -4.0660759860004641e-10 -5.6249920007074988e-05 -4.8702296920474533e-15 -2.3376967144663104e-10 -6.5044388154729383e-05 5.8813439525931595e-06 -3.1568683134839499e-10 -6.4091133999207557e-05 9.7044452581437711e-15 -4.0660759860004641e-10 -5.6249920007074988e-05 -4.8702296920474533e-15 -2.3376967144663104e-10 -6.5044388154729383e-05 5.8813439525931595e-06 -3.1568683134839499e-10 -6.4091133999207557e-05 -5.4650658373802926e-15 -2.3725793323064358e-10 -4.7781479647208462e-05 5.8813439525931595e-06 -3.1568683134839499e-10 -6.4091133999207557e-05 5.1161892602844377e-06 -2.9973492244648184e-10 -4.5812526089942187e-05 9.7044452581437711e-15 -4.0660759860004641e-10 -5.6249920007074988e-05 -5.4650658373802926e-15 -2.3725793323064358e-10 -4.7781479647208462e-05 5.8813439525931595e-06 -3.1568683134839499e-10 -6.4091133999207557e-05 9.6976445600722697e-06 -2.5740277653551457e-10 -5.0793657663276336e-05 5.1161892602844377e-06 -2.9973492244648184e-10 -4.5812526089942187e-05 6.9032058486159787e-06 -1.5973986522696947e-10 -4.6879649301062965e-05 -5.4650658373802926e-15 -2.3725793323064358e-10 -4.7781479647208462e-05 5.8813439525931586e-06 -3.1568683134839499e-10 -6.4091133999207557e-05 5.1161892602844377e-06 -2.9973492244648184e-10 -4.5812526089942187e-05 6.9032058486159796e-06 -1.5973986522696939e-10 -4.6879649301062958e-05 9.3990713300098539e-06 -3.038104746519374e-10 -7.7877844752871414e-05 1.2380872586018708e-05 -3.5027083986477866e-10 -6.2881168223854399e-05 5.8813439525931595e-06 -3.1568683134839499e-10 -6.4091133999207557e-05 9.8215644100248693e-06 -1.2020642600215329e-10 -6.4463322282354567e-05 9.6976445600722697e-06 -2.5740277653551457e-10 -5.0793657663276336e-05 9.821564410024871e-06 -1.2020642600215332e-10 -6.4463322282354567e-05 1.5649080197213527e-05 -1.620583080195678e-10 -4.9581342359516061e-05 6.9032058486159787e-06 -1.5973986522696944e-10 -4.6879649301062958e-05 1.2380872586018708e-05 -3.5027083986477866e-10 -6.2881168223854399e-05 9.6976445600722697e-06 -2.5740277653551457e-10 -5.0793657663276336e-05 9.8215644100248693e-06 -1.2020642600215324e-10 -6.4463322282354554e-05 1.564908019721353e-05 -1.6205830801956769e-10 -4.958134235951604e-05 1.2380872586018708e-05 -3.5027083986477866e-10 -6.2881168223854399e-05 9.8215644100248693e-06 -1.2020642600215329e-10 -6.4463322282354567e-05 9.3990713300098539e-06 -3.038104746519374e-10 -7.7877844752871414e-05 1.5652595167277467e-05 -1.9175261860363514e-10 -7.320410195551853e-05 5.8813439525931595e-06 -3.1568683134839499e-10 -6.4091133999207557e-05 9.8215644100248693e-06 -1.2020642600215324e-10 -6.4463322282354567e-05 9.6976445600722697e-06 -2.5740277653551457e-10 -5.0793657663276336e-05 6.9032058486159787e-06 -1.5973986522696947e-10 -4.6879649301062965e-05 1.8757636417862942e-05 -3.7000714308790392e-10 -6.3329757798831284e-05 1.5649080197213527e-05 -1.6205830801956777e-10 -4.958134235951604e-05 1.2380872586018708e-05 -3.5027083986477866e-10 -6.2881168223854399e-05 1.5652595167277467e-05 -1.9175261860363514e-10 -7.320410195551853e-05 9.6976445600722697e-06 -2.5740277653551457e-10 -5.0793657663276336e-05 5.8813439525931603e-06 -3.1568683134839499e-10 -6.4091133999207557e-05 1.2380872586018708e-05 -3.5027083986477866e-10 -6.2881168223854399e-05 9.8215644100248693e-06 -1.2020642600215329e-10 -6.4463322282354567e-05 1.2380872586018708e-05 -3.5027083986477866e-10 -6.2881168223854399e-05 1.564908019721353e-05 -1.6205830801956772e-10 -4.9581342359516047e-05 9.8215644100248693e-06 -1.2020642600215324e-10 -6.4463322282354554e-05 1.5652595167277467e-05 -1.9175261860363514e-10 -7.320410195551853e-05 1.2380872586018708e-05 -3.5027083986477866e-10 -6.2881168223854399e-05 1.8757636417862942e-05 -3.7000714308790392e-10 -6.3329757798831284e-05 1.5626071302713204e-05 -3.190984609223168e-10 -4.5036316080773622e-05 1.564908019721353e-05 -1.6205830801956775e-10 -4.9581342359516054e-05 1.2380872586018708e-05 -3.5027083986477866e-10 -6.2881168223854399e-05 1.5626071302713204e-05 -3.190984609223168e-10 -4.5036316080773629e-05 9.6976445600722697e-06 -2.5740277653551457e-10 -5.0793657663276336e-05 1.564908019721353e-05 -1.6205830801956775e-10 -4.9581342359516054e-05 1.5575072441061039e-05 -3.3051342271930163e-10 -7.7600001663623899e-05 1.8757636417862942e-05 -3.7000714308790392e-10 -6.3329757798831284e-05 1.2380872586018708e-05 -3.5027083986477866e-10 -6.2881168223854399e-05 1.5652595167277467e-05 -1.9175261860363514e-10 -7.320410195551853e-05 9.3990713300098539e-06 -3.038104746519374e-10 -7.7877844752871414e-05 4.5756854981429027e-06 -2.031564949376372e-10 -9.3749040110042037e-05 9.8791372809660628e-06 -2.0711890699193706e-10 -9.3749069957343629e-05 9.8215644100248693e-06 -1.2020642600215329e-10 -6.4463322282354567e-05 9.3990713300098539e-06 -3.038104746519374e-10 -7.7877844752871414e-05 9.8215644100248693e-06 -1.2020642600215329e-10 -6.4463322282354567e-05 9.8791372809660611e-06 -2.0711890699193708e-10 -9.3749069957343629e-05 1.5652595167277463e-05 -1.9175261860363514e-10 -7.320410195551853e-05 9.3990713300098539e-06 -3.038104746519374e-10 -7.7877844752871414e-05 9.8791372809660628e-06 -2.0711890699193706e-10 -9.3749069957343642e-05 1.5575072441061039e-05 -3.3051342271930163e-10 -7.7600001663623899e-05 1.5652595167277467e-05 -1.9175261860363519e-10 -7.3204101955518544e-05 1.2380872586018708e-05 -3.5027083986477866e-10 -6.2881168223854399e-05 9.3990713300098539e-06 -3.038104746519374e-10 -7.7877844752871414e-05 1.5575072441061039e-05 -3.3051342271930163e-10 -7.7600001663623899e-05 1.5652595167277467e-05 -1.9175261860363514e-10 -7.320410195551853e-05 9.8791372809660628e-06 -2.0711890699193706e-10 -9.3749069957343629e-05 1.2500975217039917e-05 -3.866649459058127e-10 -9.3749127700539989e-05 1.5575072441061039e-05 -3.3051342271930163e-10 -7.7600001663623899e-05 1.5928385978244819e-05 -2.4243671857715444e-10 -9.3749135679585446e-05 1.2500975217039917e-05 -3.866649459058127e-10 -9.3749127700539989e-05 1.5575072441061039e-05 -3.3051342271930163e-10 -7.7600001663623899e-05 9.3990713300098539e-06 -3.038104746519374e-10 -7.7877844752871414e-05 9.8791372809660628e-06 -2.0711890699193706e-10 -9.3749069957343629e-05 9.8791372809660628e-06 -2.0711890699193706e-10 -9.3749069957343629e-05 1.5928385978244819e-05 -2.4243671857715444e-10 -9.3749135679585446e-05 1.5575072441061039e-05 -3.3051342271930163e-10 -7.7600001663623899e-05 1.5652595167277467e-05 -1.9175261860363519e-10 -7.320410195551853e-05 1.4317483688277223e-05 -1.3079467995322866e-10 -9.3749112535157394e-05 1.5928385978244819e-05 -2.4243671857715444e-10 -9.3749135679585446e-05 9.8791372809660628e-06 -2.0711890699193706e-10 -9.3749069957343629e-05 1.5652595167277467e-05 -1.9175261860363514e-10 -7.320410195551853e-05 1.2500975217039917e-05 -3.866649459058127e-10 -9.3749127700539989e-05 9.3990713300098539e-06 -3.038104746519374e-10 -7.7877844752871414e-05 6.2504801076288073e-06 -3.0281305292009036e-10 -9.3749070247296546e-05 9.8791372809660628e-06 -2.0711890699193706e-10 -9.3749069957343629e-05 -3.6621253008165052e-15 -2.0903977962374401e-10 -8.0023407905097628e-05 -4.8702294212294188e-15 -2.3376967144663098e-10 -6.5044388154729369e-05 1.8412160752773728e-15 -1.1215182775649844e-10 -7.5786840912727888e-05 9.821564410024871e-06 -1.2020642600215326e-10 -6.4463322282354567e-05 5.2909559984556187e-06 -1.1709104527130062e-10 -9.3749050816219478e-05 9.8791372809660628e-06 -2.0711890699193706e-10 -9.3749069957343629e-05 4.5756854981429027e-06 -2.031564949376372e-10 -9.3749040110042037e-05 9.8215644100248693e-06 -1.2020642600215329e-10 -6.4463322282354567e-05 4.5756854981429027e-06 -2.031564949376372e-10 -9.3749040110042037e-05 6.2504801076288056e-06 -3.0281305292009036e-10 -9.3749070247296546e-05 4.5756553539036116e-06 -2.4289551756280901e-10 -8.0023423439875695e-05 9.3990713300098539e-06 -3.038104746519374e-10 -7.7877844752871414e-05 4.5756854981429027e-06 -2.031564949376372e-10 -9.3749040110042037e-05 9.3990713300098556e-06 -3.0381047465193745e-10 -7.7877844752871414e-05 4.5756553539036116e-06 -2.4289551756280901e-10 -8.0023423439875695e-05 9.8215644100248727e-06 -1.2020642600215337e-10 -6.4463322282354567e-05 4.5756854981429027e-06 -2.031564949376372e-10 -9.3749040110042037e-05 6.2504801076288073e-06 -3.0281305292009036e-10 -9.3749070247296546e-05 9.3990713300098539e-06 -3.038104746519374e-10 -7.7877844752871414e-05 9.8791372809660628e-06 -2.0711890699193706e-10 -9.3749069957343629e-05 5.8813439525931595e-06 -3.1568683134839499e-10 -6.4091133999207557e-05 4.5756553539036116e-06 -2.4289551756280901e-10 -8.0023423439875695e-05 9.3990713300098539e-06 -3.038104746519374e-10 -7.7877844752871414e-05 9.8215644100248693e-06 -1.2020642600215324e-10 -6.4463322282354567e-05 -3.6621253008165052e-15 -2.0903977962374401e-10 -8.0023407905097628e-05 5.2909559984556161e-06 -1.1709104527130057e-10 -9.3749050816219491e-05 4.5756854981429036e-06 -2.0315649493763722e-10 -9.3749040110042037e-05 9.821564410024871e-06 -1.2020642600215326e-10 -6.4463322282354554e-05 4.5756854981429027e-06 -2.031564949376372e-10 -9.3749040110042037e-05 4.5756553539036116e-06 -2.4289551756280901e-10 -8.0023423439875695e-05 -3.6621253008165052e-15 -2.0903977962374401e-10 -8.0023407905097628e-05 9.8215644100248693e-06 -1.2020642600215329e-10 -6.4463322282354567e-05 -4.8702296920474533e-15 -2.3376967144663104e-10 -6.5044388154729383e-05 -3.6621253008165052e-15 -2.0903977962374401e-10 -8.0023407905097628e-05 4.5756553539036116e-06 -2.4289551756280901e-10 -8.0023423439875695e-05 9.8215644100248676e-06 -1.2020642600215329e-10 -6.4463322282354554e-05 6.2755005590015721e-15 -1.7918803988463928e-10 -9.3749049698073049e-05 1.8412160752773728e-15 -1.1215182775649844e-10 -7.5786840912727888e-05 5.2909559984556187e-06 -1.1709104527130062e-10 -9.3749050816219478e-05 -3.6621253008165052e-15 -2.0903977962374401e-10 -8.0023407905097628e-05 4.5756854981429027e-06 -2.031564949376372e-10 -9.3749040110042037e-05 6.2755003645491568e-15 -1.7918803988463926e-10 -9.3749049698073036e-05 5.2909559984556187e-06 -1.1709104527130062e-10 -9.3749050816219478e-05 -3.6621253008165052e-15 -2.0903977962374401e-10 -8.0023407905097628e-05 -4.8702296920474533e-15 -2.3376967144663104e-10 -6.5044388154729383e-05 4.5756553539036124e-06 -2.4289551756280906e-10 -8.0023423439875695e-05 1.0256943030088736e-14 -3.4466109119540877e-10 -7.4999468305092599e-05 5.8813439525931603e-06 -3.1568683134839489e-10 -6.409113399920757e-05 -3.6621253008165052e-15 -2.0903977962374401e-10 -8.0023407905097628e-05 4.5756553539036124e-06 -2.4289551756280896e-10 -8.0023423439875682e-05 1.0256943030088736e-14 -3.4466109119540877e-10 -7.4999468305092599e-05 -4.8702296920474533e-15 -2.3376967144663104e-10 -6.5044388154729383e-05 5.9913722711935936e-15 -3.2675005044159321e-10 -9.3749059269313917e-05 6.2755005590015745e-15 -1.7918803988463928e-10 -9.3749049698073063e-05 4.5756854981429027e-06 -2.031564949376372e-10 -9.3749040110042037e-05 -3.6621253008165052e-15 -2.0903977962374401e-10 -8.0023407905097628e-05 4.5756553539036116e-06 -2.4289551756280901e-10 -8.0023423439875695e-05 1.0256942995947416e-14 -3.4466109119540877e-10 -7.4999468305092599e-05 5.9913722711935936e-15 -3.2675005044159321e-10 -9.3749059269313917e-05 -3.6621253008165052e-15 -2.0903977962374401e-10 -8.0023407905097628e-05 5.9913722711935936e-15 -3.2675005044159321e-10 -9.3749059269313917e-05 4.5756854981429027e-06 -2.031564949376372e-10 -9.3749040110042051e-05 6.2504801076288073e-06 -3.0281305292009036e-10 -9.3749070247296546e-05 4.5756553539036116e-06 -2.4289551756280901e-10 -8.0023423439875695e-05 4.5756553539036116e-06 -2.4289551756280901e-10 -8.0023423439875695e-05 5.9913722711935936e-15 -3.2675005044159321e-10 -9.3749059269313917e-05 4.5756854981429027e-06 -2.031564949376372e-10 -9.3749040110042037e-05 -3.6621253008165052e-15 -2.0903977962374401e-10 -8.0023407905097628e-05 
</DataArray>
</PointData>
<CellData Scalars="" Vectors="" Tensors="stress,">
<DataArray type="Float64" Name="stress" NumberOfComponents="9" format="ascii">
0.35702116907259551 -0.0057594251069009589 -0.050229190968519438 -0.0057594251069009589 -2499.7557935254881 -0.048469184277114108 -0.050229190968519438 -0.048469184277114108 -9999.5749791360377 0.38909453440965081 0.010890337629810058 0.072791359907349529 0.010890337629810058 -2499.7511404727593 0.034568350227252798 0.072791359907349529 0.034568350227252798 -9999.5741801471595 0.37651919467225525 0.012511521034048706 0.0039845417573020625 0.012511521034048706 -2499.6929105815921 0.13567877941338685 0.0039845417573020625 0.13567877941338685 -9999.4975924029932 0.39749471271394321 0.020772206722044981 0.013869866839741007 0.020772206722044981 -2499.7167350600484 0.023893315012077587 0.013869866839741007 0.023893315012077587 -9999.5674019902817 0.36806346369121457 -0.00059126583670940022 0.0062117076017784711 -0.00059126583670940022 -2499.740654351559 -0.032595306989833261 0.0062117076017784711 -0.032595306989833261 -9999.6350844554145 0.37967048496648204 -0.019506239993198105 -0.034722915956763245 -0.019506239993198105 -2499.7288730067903 -0.00023364365370071027 -0.034722915956763245 -0.00023364365370071027 -9999.6328936511272 0.35889837840545624 0.010088249211364045 0.042166822379613222 0.010088249211364045 -2499.7782376243467 0.063643385547038633 0.042166822379613222 0.063643385547038633 -9999.6641305506382 0.34036946611695384 -0.025378860532939307 -0.031062618421401567 -0.025378860532939307 -2499.79425472005 0.042023242560844665 -0.031062618421401567 0.042023242560844665 -9999.7325332064138 0.34057145209635564 -0.0027977406673917581 0.017349791371998435 -0.0027977406673917581 -2499.771931494126 -0.022523763029710153 0.017349791371998435 -0.022523763029710153 -9999.7243229742053 0.31176129411051079 0.0018239028721601883 0.0047379408445067384 0.0018239028721601883 -2499.836127975635 0.020837870515151735 0.0047379408445067384 0.020837870515151735 -9999.7803499723159 0.35473917328619109 0.0096479791344411241 -0.0052473699979600497 0.0096479791344411241 -2499.7735684055233 -0.017474030554240016 -0.0052473699979600497 -0.017474030554240016 -9999.6611641796935 0.36142512345304567 0.013179178014697042 0.0039404745375577477 0.013179178014697042 -2499.7689782112684 -0.0081295737963955617 0.0039404745375577477 -0.0081295737963955617 -9999.6619059574678 0.36593730743834385 0.0042931770699610183 0.0044689368987747002 0.0042931770699610183 -2499.7545468409403 0.0057544581545698748 0.0044689368987747002 0.0057544581545698748 -9999.6622156778376 0.38039766326642166 0.014182370878775922 0.055109841858438813 0.014182370878775922 -2499.7418783228068 -0.0104557773797751 0.055109841858438813 -0.0104557773797751 -9999.6182469028736 0.38980347292221679 0.0062076518388950227 0.043082881319243663 0.0062076518388950227 -2499.7483252201478 -0.044896639740020949 0.043082881319243663 -0.044896639740020949 -9999.5578005645348 0.39439813302856236 0.012231287781813358 -0.057560747666911105 0.012231287781813358 -2499.6772695130185 0.090234510612614671 -0.057560747666911105 0.090234510612614671 -9999.450680550337 0.39780223439652218 -0.0016501449582191213 -0.022120194706985785 -0.0016501449582191213 -2499.7118970760453 0.11740739448168824 -0.022120194706985785 0.11740739448168824 -9999.5253218318285 0.44540634934594886 0.0079155837975239396 -0.037367417779552992 0.0079155837975239396 -2499.696230048808 0.059551199334740568 -0.037367417779552992 0.059551199334740568 -9999.5002621561853 0.33842382789134717 -0.010109605117592561 -0.065955283990319913 -0.010109605117592561 -2499.7608807710221 0.01684034364643594 -0.065955283990319913 0.01684034364643594 -9999.6505129641882 0.36676538578871032 -0.014441967694006665 0.017011207613904844 -0.014441967694006665 -2499.7510401542004 0.01736394888218129 0.017011207613904844 0.01736394888218129 -9999.6391944970073 0.36513217953415733 0.012403048960806722 0.0219935550721857 0.012403048960806722 -2499.7789457875842 0.031747876535064279 0.0219935550721857 0.031747876535064279 -9999.6755212122807 0.36152392302528824 0.0034064364197708098 0.025539653712578339 0.0034064364197708098 -2499.7749145656126 0.043345414056312037 0.025539653712578339 0.043345414056312037 -9999.6817870762279 0.43422577454408384 0.006254124506657098 0.01968182852623751 0.006254124506657098 -2499.6914922958867 0.093156770407443135 0.01968182852623751 0.093156770407443135 -9999.4771604751604 0.39986688271119419 -0.0032426813563026027 0.0089718680487749225 -0.0032426813563026027 -2499.69495487125 0.084723602489641114 0.0089718680487749225 0.084723602489641114 -9999.4469596896906 0.35489080158777142 0.004557278801530569 -0.0024338034754691762 0.004557278801530569 -2499.7492921536664 0.0096689030183370051 -0.0024338034754691762 0.0096689030183370051 -9999.5765967729094 0.34751850532120443 0.0036910026699530502 0.0026253183959852322 0.0036910026699530502 -2499.7702708076554 0.023961972383858665 0.0026253183959852322 0.023961972383858665 -9999.6103400093634 0.37293945703186182 -0.0027628726138798319 -0.0029386476535364636 -0.0027628726138798319 -2499.7669416698964 0.0075971645946992794 -0.0029386476535364636 0.0075971645946992794 -9999.616614494098 0.35654028719545749 0.0045971043553666539 -0.012759510841533483 0.0045971043553666539 -2499.7623547521016 0.0043865117388577346 -0.012759510841533483 0.0043865117388577346 -9999.6390835958864 0.37365800534189475 -0.0021925878372460635 -0.0030126709507385385 -0.0021925878372460635 -2499.757291322253 0.0012131648686590779 -0.0030126709507385385 0.0012131648686590779 -9999.6235267102529 0.36130005024324419 -0.018832274369960818 -0.0050794050207514374 -0.018832274369960818 -2499.7398356977324 0.014830628621439246 -0.0050794050207514374 0.014830628621439246 -9999.6471909252814 0.36575931815059448 -0.010425783900563472 0.0067540969498622871 -0.010425783900563472 -2499.7616102993106 0.0070493287155386497 0.0067540969498622871 0.0070493287155386497 -9999.6488354165995 0.37922616348657812 -0.00046172274274668135 -0.024875834363228932 -0.00046172274274668135 -2499.7404869846623 0.015114121465103381 -0.024875834363228932 0.015114121465103381 -9999.590767419988 0.37394035750929788 -0.0094670377846395176 0.011572436029382516 -0.0094670377846395176 -2499.743450180843 0.016151504628510338 0.011572436029382516 0.016151504628510338 -9999.5954023848954 0.37561072537184259 -0.018540669169830409 -0.0019752819098357577 -0.018540669169830409 -2499.715730846598 0.028313846290529909 -0.0019752819098357577 0.028313846290529909 -9999.5870918221081 0.37081087844308058 -0.009432183361664688 -0.0013992320450597617 -0.009432183361664688 -2499.7492951221338 0.0056066461693262681 -0.0013992320450597617 0.0056066461693262681 -9999.6124172711425 0.36404851045244868 -0.014993714266484354 0.001313567898250767 -0.014993714266484354 -2499.7587752452628 0.016403892659582198 0.001313567898250767 0.016403892659582198 -9999.6237679795668 0.37173685416746594 0.0083600236073097869 -0.005600909390977904 0.0083600236073097869 -2499.7541290402532 0.0074092538670811336 -0.005600909390977904 0.0074092538670811336 -9999.6141667327865 0.3588410830243447 0.0055567622012208454 -0.013804788855850347 0.0055567622012208454 -2499.7599428006079 0.0033692733777570538 -0.013804788855850347 0.0033692733777570538 -9999.6366911908517 0.35852983771007985 -0.00065927205384274691 -0.0049055667559514404 -0.00065927205384274691 -2499.7623431901238 -0.0027328405431035208 -0.0049055667559514404 -0.0027328405431035208 -9999.6604260294716 0.37079132910776025 0.00032721916448431171 -0.0048248406556012924 0.00032721916448431171 -2499.7527886663834 0.00093080184797145193 -0.0048248406556012924 0.00093080184797145193 -9999.6312473130001 0.36910075648302154 -0.00056760366858350526 -0.0042968510476271149 -0.00056760366858350526 -2499.7521340481326 -0.00017664741449152643 -0.0042968510476271149 -0.00017664741449152643 -9999.6284351198483 0.38658045603369828 0.019901559361262075 -0.0023675498214288382 0.019901559361262075 -2499.7150763606696 -0.0079104328524408629 -0.0023675498214288382 -0.0079104328524408629 -9999.6124257159572 0.38562770399767032 0.01434027853175282 -0.001832184357681399 0.01434027853175282 -2499.716339365883 0.0039873181831353577 -0.001832184357681399 0.0039873181831353577 -9999.618202923135 0.38133797054979368 0.017873864570760144 -0.0008958069747677655 0.017873864570760144 -2499.7253706056144 -0.0023298119176615728 -0.0008958069747677655 -0.0023298119176615728 -9999.6231139991432 0.38072095607731171 0.0081678314118201617 -0.0018793648450809997 0.0081678314118201617 -2499.7316885224686 -0.0074153730975012877 -0.0018793648450809997 -0.0074153730975012877 -9999.6259888363948 0.36748080673680761 0.0064040308489543077 -0.0035910862252421794 0.0064040308489543077 -2499.7576494415766 -0.0062023790778766852 -0.0035910862252421794 -0.0062023790778766852 -9999.6354737882666 0.37483101677207742 0.0051001946666483812 -0.0014701379714097129 0.0051001946666483812 -2499.7313845282915 -0.012667258892179234 -0.0014701379714097129 -0.012667258892179234 -9999.6295735005988 0.37675209192775583 0.00044041858794765035 0.00038062873409216991 0.00044041858794765035 -2499.7371888553575 -0.019884602039383026 0.00038062873409216991 -0.019884602039383026 -9999.6038052687818 0.36886067690647906 1.0265065407348561e-05 0.0013133323545844178 1.0265065407348561e-05 -2499.7546230027183 -0.0028945878311787965 0.0013133323545844178 -0.0028945878311787965 -9999.6250758340429 0.37089563363224443 0.00064427325745565651 0.00017238013606402092 0.00064427325745565651 -2499.7437423424562 -0.014016238233352851 0.00017238013606402092 -0.014016238233352851 -9999.6206756924221 0.37684041223246822 0.0021648221483572291 -0.001455057639077495 0.0021648221483572291 -2499.7489591546209 -0.0072788458660397737 -0.001455057639077495 -0.0072788458660397737 -9999.5970116493863 0.37370704894101436 -3.6143346154313854e-05 0.0027403827828038629 -3.6143346154313854e-05 -2499.7467489627193 -0.0076382541819839389 0.0027403827828038629 -0.0076382541819839389 -9999.6069199452413 0.37068704317607626 0.0024498057699078191 -0.0011136044198565287 0.0024498057699078191 -2499.7586088831008 -0.012995838855658803 -0.0011136044198565287 -0.012995838855658803 -9999.6148500858253 0.36661594183533452 -2.7482493313978756e-05 -0.00088822837051338865 -2.7482493313978756e-05 -2499.7518575123668 -0.0076557731463253731 -0.00088822837051338865 -0.0076557731463253731 -9999.6348678190097 0.37576388326488086 -8.3479844816859283e-05 0.00039379789996019099 -8.3479844816859283e-05 -2499.745262258265 -0.0050659698754316196 0.00039379789996019099 -0.0050659698754316196 -9999.6015873017859 0.35864248831012446 -0.0053580671061605363 0.0066149496938123775 -0.0053580671061605363 -2499.757872734323 9.3706599272991298e-05 0.0066149496938123775 9.3706599272991298e-05 -9999.6449115986889 0.3589681721055058 -0.0011868983803176225 0.0068388205118026235 -0.0011868983803176225 -2499.7568358200024 -0.004084155312511939 0.0068388205118026235 -0.004084155312511939 -9999.6060010506353 0.36708994617310964 -0.011041126860667853 0.0050612782429197978 -0.011041126860667853 -2499.7440880123604 0.0019170357290931861 0.0050612782429197978 0.0019170357290931861 -9999.6427808721801 0.37120017808047123 -0.0015802511829726947 0.00065890420046343934 -0.0015802511829726947 -2499.7530956077007 -0.0033393350804544752 0.00065890420046343934 -0.0033393350804544752 -9999.6342157166764 0.3625562428333069 -0.0052603623734427327 0.0048790784546781651 -0.0052603623734427327 -2499.7661037269154 0.0029108062876730401 0.0048790784546781651 0.0029108062876730401 -9999.6467059441075 0.37294242084226426 -0.0029783699530932101 -0.0023582840549352113 -0.0029783699530932101 -2499.754696059691 -0.0042831994096559356 -0.0023582840549352113 -0.0042831994096559356 -9999.6297508702555 0.34685273351783508 0.0027089689857368033 0.067083081883538398 0.0027089689857368033 -2499.7693140203278 -0.074845173141511623 0.067083081883538398 -0.074845173141511623 -9999.6317773440696 0.37945193730138271 0.0014225071190187442 0.0062107410431053722 0.0014225071190187442 -2499.7246431479457 -0.012224038700182405 0.0062107410431053722 -0.012224038700182405 -9999.5569586927122 0.33860501387880504 -0.013337638568332439 -0.0072130191533688048 -0.013337638568332439 -2499.7709500623696 -0.0012354702371339954 -0.0072130191533688048 -0.0012354702371339954 -9999.7270116061391 0.37324342770898511 0.010202805630221783 0.097814975082396699 0.010202805630221783 -2499.7378539298938 -0.0289823745191298 0.097814975082396699 -0.0289823745191298 -9999.5844621565157 0.3778022494925608 0.0068116684477266438 -0.032067397180981061 0.0068116684477266438 -2499.7405751641318 -0.019933073622723896 -0.032067397180981061 -0.019933073622723896 -9999.5952476033526 0.36707049632877897 -0.0058155243959342427 0.028487786637015233 -0.0058155243959342427 -2499.7353510490302 0.050668040260916314 0.028487786637015233 0.050668040260916314 -9999.6723977312504 0.36893538329297826 -0.00028609842149487702 0.0087202156114472018 -0.00028609842149487702 -2499.7444743725691 0.0024808640673654736 0.0087202156114472018 0.0024808640673654736 -9999.5776803665594 0.37377827566615451 0.0089013242333522494 -0.030867572240231539 0.0089013242333522494 -2499.7406392354574 -0.020893939758799107 -0.030867572240231539 -0.020893939758799107 -9999.5968910781939 0.40256674549027593 0.0080543967448306972 0.018352585519666564 0.0080543967448306972 -2499.7261292747894 -0.016128004150433833 0.018352585519666564 -0.016128004150433833 -9999.5875051635303 0.37950568015639874 0.019006767110171071 0.056341438441027597 0.019006767110171071 -2499.73607218498 -0.084166654779291583 0.056341438441027597 -0.084166654779291583 -9999.60871794778 0.35491492819483028 -0.0099295198764600603 0.009547366325477924 -0.0099295198764600603 -2499.77455681026 -0.056622476769121022 0.009547366325477924 -0.056622476769121022 -9999.6521847965269 0.35616530391078527 -0.0016184532491434922 0.0077593059486389393 -0.0016184532491434922 -2499.7656968030287 -0.0062228019614849472 0.0077593059486389393 -0.0062228019614849472 -9999.6534887020116 0.37504108022721994 0.00023457665539074819 0.018417898591906123 0.00023457665539074819 -2499.7451156709049 -0.019781098734227953 0.018417898591906123 -0.019781098734227953 -9999.6285204594187 0.38740721986232529 0.00042216321971436099 -0.029254432711556422 0.00042216321971436099 -2499.7337540306289 -0.019112318305539645 -0.029254432711556422 -0.019112318305539645 -9999.5954107765319 0.38906228086547107 0.0055789483582863036 0.039094283934305973 0.0055789483582863036 -2499.7266131398042 -0.047761768285218775 0.039094283934305973 -0.047761768285218775 -9999.5558799768623 0.40505061271437626 1.9583852916248146e-05 0.064565100524353547 1.9583852916248146e-05 -2499.7295877535798 -0.0098735695141840552 0.064565100524353547 -0.0098735695141840552 -9999.488948662598 0.36527716801811039 -0.00080651412676366026 0.017413619841590844 -0.00080651412676366026 -2499.7767045460787 -0.0098818992259381844 0.017413619841590844 -0.0098818992259381844 -9999.6377580151729 0.38210229138803697 0.002137044910269234 0.010515923572711472 0.002137044910269234 -2499.7611783268849 -0.022730122137062381 0.010515923572711472 -0.022730122137062381 -9999.5943737260241 0.3977664549155302 0.00027966630202556388 0.039925329538660737 0.00027966630202556388 -2499.6923482146913 0.022112156268404182 0.039925329538660737 0.022112156268404182 -9999.5443760934777 0.41379651254722194 0.0053282835202153114 0.06537214552803397 0.0053282835202153114 -2499.6983878988704 -0.015513554365865434 0.06537214552803397 -0.015513554365865434 -9999.4796098872612 0.38209825995568281 0.0033322454750930302 0.0023802330129001348 0.0033322454750930302 -2499.7550259391555 0.013163771911422373 0.0023802330129001348 0.013163771911422373 -9999.6110351793486 0.3612323319805455 0.0043149142452191414 0.010226380078393049 0.0043149142452191414 -2499.7747119012274 0.0086175267447288206 0.010226380078393049 0.0086175267447288206 -9999.666287732216 0.38787206931068868 -0.006306845124994756 0.042959548966256894 -0.006306845124994756 -2499.7281465977371 0.014858476994526193 0.042959548966256894 0.014858476994526193 -9999.5527733709296 0.38443359730672455 0.0022737562930892005 -0.056094705213126872 0.0022737562930892005 -2499.7582075892565 0.0032266106204588141 -0.056094705213126872 0.0032266106204588141 -9999.6213894180764 0.38273634765209863 -0.0099788870758680728 0.042284515149049184 -0.0099788870758680728 -2499.7421705527822 0.015844497316265915 0.042284515149049184 0.015844497316265915 -9999.5546969262359 0.37408184227043856 -0.0077290476137785412 0.027162339681342185 -0.0077290476137785412 -2499.740709804033 0.041574729701868984 0.027162339681342185 0.041574729701868984 -9999.6000159790347 0.38199916428220604 0.0075355988051237534 -0.043293867391972024 0.0075355988051237534 -2499.7403310291543 0.020076970808433875 -0.043293867391972024 0.020076970808433875 -9999.6467506578665 0.39876066098895535 0.0045508841514462 -0.048036265843833414 0.0045508841514462 -2499.7318568781884 0.022144323588051351 -0.048036265843833414 0.022144323588051351 -9999.5854948211545 0.37415997632660947 0.0071093981543279283 0.01870206077956027 0.0071093981543279283 -2499.749742648803 0.02597596909433264 0.01870206077956027 0.02597596909433264 -9999.6343169392749 0.39041744582118554 -0.0020740039917867825 0.0028276054476918944 -0.0020740039917867825 -2499.7337548570545 0.014805778047048079 0.0028276054476918944 0.014805778047048079 -9999.6072181022992 0.3854162663774332 0.0018480781136849817 0.0090826568848569877 0.0018480781136849817 -2499.7494251261651 0.024401269915983903 0.0090826568848569877 0.024401269915983903 -9999.592875308801 0.36744121919309691 0.0017308443195565575 0.017094759257361147 0.0017308443195565575 -2499.7650421691933 0.025228641899019522 0.017094759257361147 0.025228641899019522 -9999.6386153950243 0.35336747754945463 0.010150866259611415 0.00027321656671119854 0.010150866259611415 -2499.7594059483476 0.011699519837748085 0.00027321656671119854 0.011699519837748085 -9999.6352457745088 0.37790457473511196 0.00086249025027374448 -0.0049855240636134113 0.00086249025027374448 -2499.7569719322928 -7.6472727670306995e-05 -0.0049855240636134113 -7.6472727670306995e-05 -9999.5990659716299 0.37963908457959405 -0.0018229673695882437 -0.0033653172874892334 -0.0018229673695882437 -2499.7402710171568 0.01525493527992694 -0.0033653172874892334 0.01525493527992694 -9999.6229822224977 0.36186610670574737 0.0016138029060938181 -0.010536940073620826 0.0016138029060938181 -2499.7615211841271 0.014065201976336539 -0.010536940073620826 0.014065201976336539 -9999.6184371779691 0.39961156269146159 0.0016553544122197719 0.0062948180025159672 0.0016553544122197719 -2499.7384541273314 0.0018544162112448248 0.0062948180025159672 0.0018544162112448248 -9999.5470623475921 0.3657938696878773 0.0012035119938595198 0.0069331603599493974 0.0012035119938595198 -2499.7492189498598 0.0063493289399048081 0.0069331603599493974 0.0063493289399048081 -9999.622795415853 0.37326224823755183 -0.0036811569228672194 -0.00056614493325923831 -0.0036811569228672194 -2499.7522705643123 0.0099133936901125708 -0.00056614493325923831 0.0099133936901125708 -9999.6018933249161 0.36969064126787998 0.001162636462792666 -1.0466871572134551e-05 0.001162636462792666 -2499.7616563819665 -0.00057594374291625172 -1.0466871572134551e-05 -0.00057594374291625172 -9999.6094885173552 0.37668187482995563 0.0015173593542431971 7.9878900578478351e-06 0.0015173593542431971 -2499.7410307304417 0.0032628862900310196 7.9878900578478351e-06 0.0032628862900310196 -9999.6021501939467 0.37439287138022337 0.0023937536131346041 0.0011871252909259056 0.0023937536131346041 -2499.7433579007893 0.0018765666100080125 0.0011871252909259056 0.0018765666100080125 -9999.6134345326755 0.37408117318955192 0.00099078080785441891 -0.001630938060770859 0.00099078080785441891 -2499.7412980548088 0.011915002614500736 -0.001630938060770859 0.011915002614500736 -9999.61929730884 0.37727681692831538 0.0022725149269016559 0.00038038032926124288 0.0022725149269016559 -2499.7413616790373 0.0045722784670942929 0.00038038032926124288 0.0045722784670942929 -9999.6042823666721 0.36919451937228587 0.0096176864153465543 -0.011817291984698386 0.0096176864153465543 -2499.7481453302103 0.00052060810412513092 -0.011817291984698386 0.00052060810412513092 -9999.6258497862091 0.37605447440455464 -0.0022377208366825534 -0.005789048513634043 -0.0022377208366825534 -2499.7515094687565 0.0028710640663121012 -0.005789048513634043 0.0028710640663121012 -9999.6267129433527 0.36757398136614938 -0.0019304142531139309 -0.0015951620771375019 -0.0019304142531139309 -2499.7545932758467 0.0034801057900040178 -0.0015951620771375019 0.0034801057900040178 -9999.6314801826811 0.37280007363915502 -0.00010747713097975647 0.00031581061102770036 -0.00010747713097975647 -2499.7378536412798 0.009768947620614199 0.00031581061102770036 0.009768947620614199 -9999.6278737423017 0.3811961718420207 -0.015103300999614051 0.00030793389396421844 -0.015103300999614051 -2499.7126112754067 -5.6289039093826432e-05 0.00030793389396421844 -5.6289039093826432e-05 -9999.6170309647787 0.38648579748405609 -0.015175328217175016 -0.0034317676454520551 -0.015175328217175016 -2499.712707314251 0.0014552825832652161 -0.0034317676454520551 0.0014552825832652161 -9999.6111365339057 0.37613054437757398 -0.001761540165354708 -0.0060207406622794224 -0.001761540165354708 -2499.7508005339751 0.0035990080687042791 -0.0060207406622794224 0.0035990080687042791 -9999.623152054437 0.37003068583427989 0.0092020019203981479 -0.01193586223780585 0.0092020019203981479 -2499.7455762610311 0.0020434636389836669 -0.01193586223780585 0.0020434636389836669 -9999.623147467466 0.3835885212224639 -0.010026445361416836 -0.0021042488060629694 -0.010026445361416836 -2499.7293694430982 0.013574772816355107 -0.0021042488060629694 0.013574772816355107 -9999.6218433993345 0.36410896235429391 -0.0024232168436831292 0.0049461571161373286 -0.0024232168436831292 -2499.764104822365 -0.0062696251961824601 0.0049461571161373286 -0.0062696251961824601 -9999.664990901525 0.3674092701430709 -0.010180164947040157 0.00013415858484222554 -0.010180164947040157 -2499.7705473472352 0.0039559468518746144 0.00013415858484222554 0.0039559468518746144 -9999.6460752996645 0.36474131975637647 -0.0049896578830386229 0.015997377560524551 -0.0049896578830386229 -2499.7141384714159 -0.12502551913123972 0.015997377560524551 -0.12502551913123972 -9999.5557220503561 0.39804406249277235 -0.018234764974902756 0.0084829169068143528 -0.018234764974902756 -2499.7239710234471 -0.026169348388975777 0.0084829169068143528 -0.026169348388975777 -9999.5705316256026 0.34459663302004628 -0.0066107252988617041 0.04662432754821566 -0.0066107252988617041 -2499.7859386156501 -0.068570840395295818 0.04662432754821566 -0.068570840395295818 -9999.6855339597369 0.36080974316928405 -0.0077447006217327141 0.067659162809790868 -0.0077447006217327141 -2499.7572424569862 -0.041294480875571138 0.067659162809790868 -0.041294480875571138 -9999.6125001799046 0.36585463373785387 0.00032155790705103854 0.0068973878960605361 0.00032155790705103854 -2499.7574397723461 0.016696292048720807 0.0068973878960605361 0.016696292048720807 -9999.6704919219937 0.33151975027112712 -0.011030139358841153 0.034072196685196121 -0.011030139358841153 -2499.7830764155578 0.051860390640940668 0.034072196685196121 0.051860390640940668 -9999.7123893798071 0.30591145885045989 -0.0046624569133435871 0.0063047350286069559 -0.0046624569133435871 -2499.8428510735375 -0.019137606016101927 0.0063047350286069559 -0.019137606016101927 -9999.8191890658945 0.35333977040409081 -0.0073283873857648146 0.0058160283570032334 -0.0073283873857648146 -2499.7602311062592 0.0098184820576534548 0.0058160283570032334 0.0098184820576534548 -9999.6634424797339 0.33897351433870426 -0.0030471321659034968 0.029376105129358621 -0.0030471321659034968 -2499.7859901331785 0.058560591673483486 0.029376105129358621 0.058560591673483486 -9999.7374392608053 0.37147802684739872 -0.0043575259853461355 -0.0080700327280283091 -0.0043575259853461355 -2499.7579987453164 0.0056763939119264251 -0.0080700327280283091 0.0056763939119264251 -9999.6546638596301 0.38070533318909838 -0.0020962346777085201 -0.00075675855850931839 -0.0020962346777085201 -2499.7433430469737 0.027086055039035273 -0.00075675855850931839 0.027086055039035273 -9999.6364896379455 0.34122733166077523 0.0077478623543970311 -0.082946950683435716 0.0077478623543970311 -2499.8157790301821 -0.036232946841209923 -0.082946950683435716 -0.036232946841209923 -9999.7657327246307 0.3773966389017005 0.0075867295642477808 -0.064467358336498359 0.0075867295642477808 -2499.7581800793423 0.049137390392193392 -0.064467358336498359 0.049137390392193392 -9999.6726352581136 0.38034485346452129 -0.004877240955974263 -0.075240625824831472 -0.004877240955974263 -2499.739326751429 -0.086779276635265801 -0.075240625824831472 -0.086779276635265801 -9999.6476188895285 0.38128579628119041 0.0012895492933495678 -0.011871218625401525 0.0012895492933495678 -2499.7029538955517 -0.04213068732587999 -0.011871218625401525 -0.04213068732587999 -9999.5768405868439 0.35955432282571564 0.015833490671088288 -0.026436671710939663 0.015833490671088288 -2499.7704688727226 -0.0065161650663867476 -0.026436671710939663 -0.0065161650663867476 -9999.6425497699602 0.36316000335091303 0.012293007503093749 -0.026186380699527945 0.012293007503093749 -2499.7618832389212 0.0086062138334455085 -0.026186380699527945 0.0086062138334455085 -9999.6350119529016 0.37145405213050253 -0.010099465763490682 -0.011131597658277315 -0.010099465763490682 -2499.7716282908077 0.014841653850908187 -0.011131597658277315 0.014841653850908187 -9999.6412260461311 0.34549415802030126 0.0045449618548178035 -0.012312912118886743 0.0045449618548178035 -2499.769545147903 -0.022091080475547642 -0.012312912118886743 -0.022091080475547642 -9999.6892666780568 0.36962249674161285 0.025388168253080518 0.00085122653695179906 0.025388168253080518 -2499.7609512397635 0.015719052003987599 0.00085122653695179906 0.015719052003987599 -9999.5850344165265 0.37432813223608719 0.0054953543997137248 -0.00015227866833811277 0.0054953543997137248 -2499.7399802553509 -0.027035935225057983 -0.00015227866833811277 -0.027035935225057983 -9999.596848858826 0.4353890583993234 0.001546932930474032 -0.036337351491780245 0.001546932930474032 -2499.695155164779 -0.044219681672860972 -0.036337351491780245 -0.044219681672860972 -9999.5399597350624 0.36069647830800022 0.0007372255143718383 0.0087225535047537051 0.0007372255143718383 -2499.7599277387772 -0.015494618060074572 0.0087225535047537051 -0.015494618060074572 -9999.6246718991097 0.35650711040761962 0.0043974973601023162 0.017180346199559549 0.0043974973601023162 -2499.7376377574947 -0.079759934342442662 0.017180346199559549 -0.079759934342442662 -9999.6582265596735 0.41259347479397912 -0.010160629599634244 0.0020959263982696652 -0.010160629599634244 -2499.6876982401845 -0.089995759794845975 0.0020959263982696652 -0.089995759794845975 -9999.4939463089031 0.4228529629035605 -0.0028941955786973561 0.015731973519849007 -0.0028941955786973561 -2499.6671241081531 -0.077619181261235071 0.015731973519849007 -0.077619181261235071 -9999.4709619714649 0.36352624925189048 -0.0081818685969487076 -0.0055514943605885492 -0.0081818685969487076 -2499.7773043444849 -0.040951692034923326 -0.0055514943605885492 -0.040951692034923326 -9999.5952062659089 0.35253160749471135 -0.0059452947181956733 -0.0051119642602088788 -0.0059452947181956733 -2499.7827467754869 -0.030621190474448667 -0.0051119642602088788 -0.030621190474448667 -9999.6366489657485 0.37466257883806975 5.1794771732019407e-05 -0.00070570896241406444 5.1794771732019407e-05 -2499.7370023492849 -0.0057029354047699599 -0.00070570896241406444 -0.0057029354047699599 -9999.6258413168634 0.35076421946541814 0.0070736971932831537 -0.0057900899419109919 0.0070736971932831537 -2499.7467009153766 -0.0013178960032291798 -0.0057900899419109919 -0.0013178960032291798 -9999.6316987741975 0.36654116462432285 -0.02575412347592819 0.0004895098090855754 -0.02575412347592819 -2499.7451538355053 -0.0010450019185554993 0.0004895098090855754 -0.0010450019185554993 -9999.5981856521958 0.36536021697384058 0.00044302758279644167 0.0023247869507940777 0.00044302758279644167 -2499.7737359589428 -0.03578639337513323 0.0023247869507940777 -0.03578639337513323 -9999.6296001100309 0.35879054421525325 0.0051205302869643879 -0.014761065334823797 0.0051205302869643879 -2499.7372876770451 -0.0048099813185444873 -0.014761065334823797 -0.0048099813185444873 -9999.5957507933344 0.36940658303819873 0.011525919074437056 0.0053223372333377483 0.011525919074437056 -2499.7911281580105 -0.014219169610669269 0.0053223372333377483 -0.014219169610669269 -9999.6526577452896 0.3648799522088666 -0.022530357005457007 -0.0013612199772978784 -0.022530357005457007 -2499.7582941940591 0.0090217184852008359 -0.0013612199772978784 0.0090217184852008359 -9999.630995669273 0.37664712627798735 0.0073613589705606997 -0.017030707847879967 0.0073613589705606997 -2499.740421006084 -0.0041733239941095235 -0.017030707847879967 -0.0041733239941095235 -9999.5917858109915 0.38248567152186297 0.0081318109092723828 -0.0050944397607963765 0.0081318109092723828 -2499.7401031830886 -2.1305904738255776e-06 -0.0050944397607963765 -2.1305904738255776e-06 -9999.6119452474522 0.36973136296410303 -0.019706957750930565 -0.0018182386411353946 -0.019706957750930565 -2499.7391755936819 0.016666533427269314 -0.0018182386411353946 0.016666533427269314 -9999.6215618713504 0.36726795671256696 -0.002174999886004985 0.00083267251920915442 -0.002174999886004985 -2499.7525788838257 0.0038742178103348124 0.00083267251920915442 0.0038742178103348124 -9999.6377315102545 0.36647374363656127 -0.00099177202187705695 0.0040820665790874955 -0.00099177202187705695 -2499.7586262998402 -0.00025377734073117608 0.0040820665790874955 -0.00025377734073117608 -9999.6430037744649 0.36873378704785864 -0.002483851495732933 0.0025527709584594049 -0.002483851495732933 -2499.7543043001951 0.0015710499355918728 0.0025527709584594049 0.0015710499355918728 -9999.6399365827838 0.35938655712288892 -0.003545202606973389 0.0082546466010171571 -0.003545202606973389 -2499.751169676756 0.0043794515302124637 0.0082546466010171571 0.0043794515302124637 -9999.6063352212859 0.38003864799384246 -0.0033019256324358535 0.005131465157319326 -0.0033019256324358535 -2499.730105527703 -0.0026172675279667601 0.005131465157319326 -0.0026172675279667601 -9999.5453536988789 0.36202937079860931 -0.0023657365729082766 0.11409160961733406 -0.0023657365729082766 -2499.7391899215472 0.035553098779407849 0.11409160961733406 0.035553098779407849 -9999.6163120836791 0.36714218569181867 0.0030301179729848166 -0.015522925816640054 0.0030301179729848166 -2499.7456193550433 0.01329581270010749 -0.015522925816640054 0.01329581270010749 -9999.5593986200893 0.35434766072251023 -0.00100878434647334 0.097843174772378916 -0.00100878434647334 -2499.7583314738854 0.061855517812091421 0.097843174772378916 0.061855517812091421 -9999.6391874429755 0.37257056936823574 0.011382474056373992 -0.0036888443564748741 0.011382474056373992 -2499.7226960942126 0.026094036172366941 -0.0036888443564748741 0.026094036172366941 -9999.569801942871 0.35834769345331097 0.0088940020167164735 0.024041313209636428 0.0088940020167164735 -2499.7420253902474 -0.068451146070856339 0.024041313209636428 -0.068451146070856339 -9999.68212814254 0.34277032177283218 0.0094330004835508144 -0.018888989262904943 0.0094330004835508144 -2499.7766595426519 -0.0016108404765873274 -0.018888989262904943 -0.0016108404765873274 -9999.7371922519669 0.39397052650656406 0.0045839122307174658 -0.025050815459040532 0.0045839122307174658 -2499.7307215553069 -0.011721796039711352 -0.025050815459040532 -0.011721796039711352 -9999.5964754453653 0.39547922294968885 -0.0064214630200492007 0.070528598583520397 -0.0064214630200492007 -2499.7346532444117 0.087891405295434821 0.070528598583520397 0.087891405295434821 -9999.5500070521775 0.3191477862476404 0.0028054082197013679 0.081850962692442408 0.0028054082197013679 -2499.7661572967509 0.05691027352168021 0.081850962692442408 0.05691027352168021 -9999.7870228611355 0.36800074171844699 -0.0037148570992210214 0.0015238828586916497 -0.0037148570992210214 -2499.75785577533 0.010748290829269536 0.0015238828586916497 0.010748290829269536 -9999.7112905386421 0.31913666175432809 0.0060347153335193835 0.00014455130877877309 0.0060347153335193835 -2499.7863947850592 -0.0025753643003554316 0.00014455130877877309 -0.0025753643003554316 -9999.757784192032 0.33221922176562657 -0.0082821323639038474 0.06679592046241889 -0.0082821323639038474 -2499.7561516694877 0.031722861433924554 0.06679592046241889 0.031722861433924554 -9999.5882305963605 0.35135716042600507 0.0012651480847968855 0.021533231203648029 0.0012651480847968855 -2499.7707151537552 -0.0049522226290719118 0.021533231203648029 -0.0049522226290719118 -9999.7291413400399 0.35657681443444744 0.0009282696114648924 0.0050350282153885928 0.0009282696114648924 -2499.7858881025077 0.0006945307304704329 0.0050350282153885928 0.0006945307304704329 -9999.7280840764051 0.34819252312183835 -0.00072769423759550672 0.0073596002807789773 -0.00072769423759550672 -2499.7613923090598 -0.023296375823520066 0.0073596002807789773 -0.023296375823520066 -9999.713909095557 0.36573064481399342 -0.010135195669384076 1.4464255689086714e-05 -0.010135195669384076 -2499.7511887699757 0.064393364527088215 1.4464255689086714e-05 0.064393364527088215 -9999.5818801832866 0.33684439279068101 0.0039522905052284847 0.029120775266392229 0.0039522905052284847 -2499.782778762386 -0.059939547259091341 0.029120775266392229 -0.059939547259091341 -9999.7305467735878 0.36001748368789777 0.0061345707386174942 -0.01029112937471429 0.0061345707386174942 -2499.7347798043879 -0.070514097312843194 -0.01029112937471429 -0.070514097312843194 -9999.6445809339675 0.36121304088965189 0.0028422800729625639 0.013406904692378624 0.0028422800729625639 -2499.7828516700934 -0.075533251515627509 0.013406904692378624 -0.075533251515627509 -9999.6480372918613 0.30411662154756414 0.0055885332969490267 0.072597390625323499 0.0055885332969490267 -2499.8185075557153 0.02095819458576248 0.072597390625323499 0.02095819458576248 -9999.8340074221724 0.38401426239761349 0.0055926767584773152 0.0030690110748992083 0.0055926767584773152 -2499.7413456721788 -0.0071631251928465645 0.0030690110748992083 -0.0071631251928465645 -9999.6299248409741 0.37873826667055255 0.0011096481030847163 0.0022022362713585153 0.0011096481030847163 -2499.7511316940117 -0.00037851780962228077 0.0022022362713585153 -0.00037851780962228077 -9999.6397587973261 0.37995541020836754 0.0046373199739837331 0.00571082656234978 0.0046373199739837331 -2499.7488556859921 0.0007263648217303853 0.00571082656234978 0.0007263648217303853 -9999.6375399766148 0.37773943268757648 0.0034429579541780451 -0.0065951291815053992 0.0034429579541780451 -2499.7457763175139 0.011316477674427006 -0.0065951291815053992 0.011316477674427006 -9999.6405540129053 0.35953004320845139 -0.0010793629327527539 -0.013241363792985794 -0.0010793629327527539 -2499.7543032861518 -0.0011422327497712104 -0.013241363792985794 -0.0011422327497712104 -9999.6722649924595 0.38145469970640988 -0.0030671679827019281 0.0030945009280003433 -0.0030671679827019281 -2499.7458077682468 0.0065293098853089759 0.0030945009280003433 0.0065293098853089759 -9999.6682589106531 0.38696995299437731 0.004068300742935336 0.0014594007498658357 0.004068300742935336 -2499.7284324723023 -0.0040921957170212409 0.0014594007498658357 -0.0040921957170212409 -9999.630855950023 0.36819793097947695 -0.00058242296758702697 -0.0091319937502021276 -0.00058242296758702697 -2499.7605977128032 -0.00075572063997242367 -0.0091319937502021276 -0.00075572063997242367 -9999.6688642238478 0.35289872684870716 -0.0034082933723608259 0.0071954303289203381 -0.0034082933723608259 -2499.7669989609003 -0.014985828102112464 0.0071954303289203381 -0.014985828102112464 -9999.6870343944138 0.36231199982194084 0.00142795684902116 -0.011599216166359838 0.00142795684902116 -2499.75509318082 -0.01367322513669933 -0.011599216166359838 -0.01367322513669933 -9999.6563428798418 0.37823936448057793 0.004987145389705714 -0.0070919860154390335 0.004987145389705714 -2499.7307797171225 0.00088670556306169601 -0.0070919860154390335 0.00088670556306169601 -9999.6171216386047 0.35821764137835999 0.0044453190212433869 0.0079806912969502264 0.0044453190212433869 -2499.7631038479658 -0.006495888410029238 0.0079806912969502264 -0.006495888410029238 -9999.688884789266 0.36000394179427531 0.022965223807653683 -0.0070437796326245916 0.022965223807653683 -2499.7860180906828 -0.01594524138909037 -0.0070437796326245916 -0.01594524138909037 -9999.6574730168504 0.36002494836429833 0.0044069505681894449 0.00069673485529619938 0.0044069505681894449 -2499.7596500705313 -0.011519370966425413 0.00069673485529619938 -0.011519370966425413 -9999.6791186059854 0.37142371701975208 -0.0036693776424088637 -0.0060148161155666457 -0.0036693776424088637 -2499.7528372653942 -0.017374739851902632 -0.0060148161155666457 -0.017374739851902632 -9999.6462260169283 0.37770429761167179 0.012864596658358984 -0.0082818656010203995 0.012864596658358984 -2499.7495093314947 -0.0023419684539476293 -0.0082818656010203995 -0.0023419684539476293 -9999.6215604836834 0.37821842499261038 0.022990081094505982 -0.0066616660624276847 0.022990081094505982 -2499.7491465769358 0.0030977555197750917 -0.0066616660624276847 0.0030977555197750917 -9999.6190990348077 0.380727730898343 0.0089395045759147196 0.006645406153438671 0.0089395045759147196 -2499.7298782561479 0.0067239745767437853 0.006645406153438671 0.0067239745767437853 -9999.6298762743645 0.38339045393786364 0.024178514767729767 -0.011224041114473948 0.024178514767729767 -2499.7590138345272 -0.030829227641334001 -0.011224041114473948 -0.030829227641334001 -9999.5927351825976 0.36210389642928931 -0.0002621441632761662 -0.0051987409073035451 -0.0002621441632761662 -2499.7640437206474 -0.016238376142609923 -0.0051987409073035451 -0.016238376142609923 -9999.6020205577715 0.3868979965213839 -0.0049176557730878125 0.012779835762103176 -0.0049176557730878125 -2499.748595554915 -0.027506692683573419 0.012779835762103176 -0.027506692683573419 -9999.5712117463809 0.3738455713496478 -0.0053693551131096251 0.005341879903426161 -0.0053693551131096251 -2499.7597845150112 -0.025623329038353404 0.005341879903426161 -0.025623329038353404 -9999.6066158562462 0.34904818354607414 -0.00069742879126985253 -0.0087693585281414244 -0.00069742879126985253 -2499.7827513759439 -0.031330451905887458 -0.0087693585281414244 -0.031330451905887458 -9999.6367074680256 0.36528519776607027 0.0045287677084062464 0.0040488971299055265 0.0045287677084062464 -2499.7789199131175 -0.069082239637282328 0.0040488971299055265 -0.069082239637282328 -9999.6280929818895 0.41087100714798908 0.0038551510116164173 -0.014589677427466086 0.0038551510116164173 -2499.701790047694 -0.092744787849559529 -0.014589677427466086 -0.092744787849559529 -9999.4716606643051 0.43289615640254353 -0.0099751395275121252 -0.014132501801132791 -0.0099751395275121252 -2499.6796399567074 -0.096927083688967353 -0.014132501801132791 -0.096927083688967353 -9999.4642940957438 0.36274486006368534 -0.0092144352899468998 -0.0099602669881875272 -0.0092144352899468998 -2499.7586113819771 -0.070617706595314994 -0.0099602669881875272 -0.070617706595314994 -9999.6498472273888 0.37033081408026192 -0.01845953512154511 -0.0063124731935886302 -0.01845953512154511 -2499.7410642334403 -0.029862397590932233 -0.0063124731935886302 -0.029862397590932233 -9999.6233677552045 0.4262966732935638 -0.0032329487690095568 0.04429173078442239 -0.0032329487690095568 -2499.6963064644592 -0.046642560364409336 0.04429173078442239 -0.046642560364409336 -9999.566361749552 0.43093674722191816 -0.012905040675737115 -0.018513917931684859 -0.012905040675737115 -2499.672279112217 -0.083020239282835195 -0.018513917931684859 -0.083020239282835195 -9999.4565825576556 0.39683088993479032 0.0037034686682913542 0.01372158196681994 0.0037034686682913542 -2499.7341236016691 -0.023418428671902802 0.01372158196681994 -0.023418428671902802 -9999.5652802234636 0.37571249737493417 -0.015600697420114953 0.042403987217312533 -0.015600697420114953 -2499.788576066419 0.011969999534358067 0.042403987217312533 0.011969999534358067 -9999.6600070798158 0.31506706032405418 -0.02064538413166524 0.040470990998301204 -0.02064538413166524 -2499.8630543336835 -0.036824682465066871 0.040470990998301204 -0.036824682465066871 -9999.8381172507779 0.26293209505325876 0.0065036498027103012 -0.014585029131467309 0.0065036498027103012 -2499.8380751354121 0.022008291608472064 -0.014585029131467309 0.022008291608472064 -9999.7206718652778 0.38175216573313264 0.003074503717201596 0.026655968394607044 0.003074503717201596 -2499.7775928666197 -0.11452806615693589 0.026655968394607044 -0.11452806615693589 -9999.6201107019315 0.38546155729175219 0.029415399161947034 0.095275931130070018 0.029415399161947034 -2499.7127054193106 -0.065849819411641961 0.095275931130070018 -0.065849819411641961 -9999.4854334202191 0.31078851554730136 0.019348260951746292 0.099676052179167959 0.019348260951746292 -2499.7959611545434 0.033709266953074163 0.099676052179167959 0.033709266953074163 -9999.7324765626217 0.31842934363976383 0.0037630370258316462 0.10050057325724993 0.0037630370258316462 -2499.795561970428 0.013511290993392322 0.10050057325724993 0.013511290993392322 -9999.7486925749472 0.26311470848395402 0.0038826060306000124 -0.019561538532798295 0.0038826060306000124 -2499.8056748947738 0.001949260479136683 -0.019561538532798295 0.001949260479136683 -9999.7142199329792 0.27400399401426512 -0.0050701689020248436 -0.018305309624338406 -0.0050701689020248436 -2499.7903747750433 -0.0048978134245771798 -0.018305309624338406 -0.0048978134245771798 -9999.7123903904503 0.21753910607480975 0.027876537137279417 -0.035978049536879553 0.027876537137279417 -2499.8419809862371 0.06894315928548167 -0.035978049536879553 0.06894315928548167 -9999.7978740267099 0.27808828539718888 0.0050479345303871478 0.007799589491014558 0.0050479345303871478 -2499.801122858185 -0.0035394902029111108 0.007799589491014558 -0.0035394902029111108 -9999.7065842838874 0.20298343947570174 0.0015869584338928239 -0.015901174183454714 0.0015869584338928239 -2499.9120263181376 -0.026903536765530589 -0.015901174183454714 -0.026903536765530589 -9999.8969381658862 0.16933034628027599 -0.00022217088280731406 -0.064453620527031075 -0.00022217088280731406 -2499.8633047900598 0.031610570094827518 -0.064453620527031075 0.031610570094827518 -9999.8628062297848 0.18929618165854861 -0.0080105358290397909 -0.035375441221224893 -0.0080105358290397909 -2499.8506524421086 -0.083908370726396522 -0.035375441221224893 -0.083908370726396522 -9999.7774207672592 0.19448695613571482 -0.010321977126238172 -0.0098433554659127231 -0.010321977126238172 -2499.7779650702969 -0.024627986304494698 -0.0098433554659127231 -0.024627986304494698 -9999.6490463413411 0.21412907726519781 -0.017404106052541037 -0.056584430105531741 -0.017404106052541037 -2499.7839537520549 -0.041766484617440175 -0.056584430105531741 -0.041766484617440175 -9999.6870912398808 0.19696012701706422 0.0047776449032063129 0.0022656911151083814 0.0047776449032063129 -2499.7998088332479 -0.1431393348122634 0.0022656911151083814 -0.1431393348122634 -9999.6257185322629 0.17039476138393184 -0.018467864783638974 -0.017115299006945861 -0.018467864783638974 -2499.8445664344299 0.026168675422013621 -0.017115299006945861 0.026168675422013621 -9999.7443572413813 0.16830480162025196 -0.03590909844114288 -0.023955775940976309 -0.03590909844114288 -2499.8183795600935 -0.0021639248088831664 -0.023955775940976309 -0.0021639248088831664 -9999.7445628680962 0.20328426583910186 -0.032408159616165048 -0.002140973670520907 -0.032408159616165048 -2499.8184465516815 -0.0082775492571727227 -0.002140973670520907 -0.0082775492571727227 -9999.7184655501987 0.33864773059599429 0.0029503743190209125 0.005836865393575863 0.0029503743190209125 -2499.761368832319 -0.011943922935643059 0.005836865393575863 -0.011943922935643059 -9999.6868340754772 0.27206000690512155 -0.0025247040906326637 -0.015030519869696946 -0.0025247040906326637 -2499.78225618242 -0.010737873656580632 -0.015030519869696946 -0.010737873656580632 -9999.7149163417034 0.26733650424012012 0.024563643448316901 -0.020730082775571645 0.024563643448316901 -2499.7550965592263 0.012333406524703605 -0.020730082775571645 0.012333406524703605 -9999.712908988944 0.28956691335474716 -0.0050667764879125422 -0.0019673488404805539 -0.0050667764879125422 -2499.7911661245662 -0.016738452990466612 -0.0019673488404805539 -0.016738452990466612 -9999.6958082046549 0.35215634937776485 -0.015469383080704113 -0.010463792110385839 -0.015469383080704113 -2499.7679383041905 -0.014567066962626996 -0.010463792110385839 -0.014567066962626996 -9999.6721363099132 0.19265830963649933 -0.03199428995851343 0.0072792637483871658 -0.03199428995851343 -2499.8127422556181 -0.015565378236260585 0.0072792637483871658 -0.015565378236260585 -9999.7266008167753 0.1309714765593526 -0.013365719495418232 -0.019170614860740898 -0.013365719495418232 -2499.8528079418256 -0.0006840455985184235 -0.019170614860740898 -0.0006840455985184235 -9999.7716193152628 0.23410979218579087 0.011145579317695838 -0.025310002312835422 0.011145579317695838 -2499.8270078503642 -0.0027705838883775868 -0.025310002312835422 -0.0027705838883775868 -9999.7387191011694 0.25201302436835249 -0.01657786149073423 -0.023819752939743921 -0.01657786149073423 -2499.8168313417327 0.0042642188109311974 -0.023819752939743921 0.0042642188109311974 -9999.7336675326987 0.26891779916195446 0.001931488228716631 -0.019368451236005058 0.001931488228716631 -2499.7912352508056 0.012957491161884604 -0.019368451236005058 0.012957491161884604 -9999.7138086977575 0.29144798393826932 -0.0085863911801820694 -0.0084743087327296962 -0.0085863911801820694 -2499.7798914563787 -0.0042753602929224144 -0.0084743087327296962 -0.0042753602929224144 -9999.7049665813083 0.28839844598314812 0.0027471318347148267 -0.0085963169808564999 0.0027471318347148267 -2499.7873830734852 0.012222176710565691 -0.0085963169808564999 0.012222176710565691 -9999.7108765511857 0.2901685467822972 -0.0040879724876507102 -0.0060628231549344491 -0.0040879724876507102 -2499.7753494895278 0.001319539896940114 -0.0060628231549344491 0.001319539896940114 -9999.6917438919718 0.28943979377982032 -0.0020886499181796293 -0.010788642688567052 -0.0020886499181796293 -2499.7919870165315 0.0062951347463240381 -0.010788642688567052 0.0062951347463240381 -9999.7230184744494 0.29125115846545668 -0.014121800875092532 -0.01253585483345887 -0.014121800875092532 -2499.7719350770949 -0.00013109033898217604 -0.01253585483345887 -0.00013109033898217604 -9999.698910600473 0.28939362073833763 -0.0028453862065941282 -0.026330124417057732 -0.0028453862065941282 -2499.7940565610952 -0.003355242941609049 -0.026330124417057732 -0.003355242941609049 -9999.7250720646844 0.29471482893632128 -0.0029345457918940384 -0.028307748201086724 -0.0029345457918940384 -2499.7728414622361 0.002878486485542453 -0.028307748201086724 0.002878486485542453 -9999.7207750169455 0.23197225882540806 0.017385520761079607 -0.027951290481723845 0.017385520761079607 -2499.8079784915008 0.001679723116922105 -0.027951290481723845 0.001679723116922105 -9999.7341759725787 0.23444598953074092 0.001212846739421881 -0.035476326413117931 0.001212846739421881 -2499.8010400062735 0.012584344462993613 -0.035476326413117931 0.012584344462993613 -9999.7184542421346 0.23816710969458654 0.0088257989627160902 -0.019331432388298708 0.0088257989627160902 -2499.8028907725079 0.0084547632151270591 -0.019331432388298708 0.0084547632151270591 -9999.7155476296484 0.24089506556219931 -0.0031726902198469381 -0.011084708821272216 -0.0031726902198469381 -2499.7991130991727 -0.0012483358518693422 -0.011084708821272216 -0.0012483358518693422 -9999.7749164101988 0.2598523765407208 -0.0014752055360097334 -0.0071061744311009534 -0.0014752055360097334 -2499.778756986504 0.0093419125141736004 -0.0071061744311009534 0.0093419125141736004 -9999.7208141053816 0.24498317906454758 0.012213071966121243 -0.015886182685790118 0.012213071966121243 -2499.7950098568099 0.024425447718272153 -0.015886182685790118 0.024425447718272153 -9999.7014735929988 0.29562448522233353 -0.0071555831136122204 -0.052045076085505571 -0.0071555831136122204 -2499.7878235611838 0.0035301478687870258 -0.052045076085505571 0.0035301478687870258 -9999.7862077829541 0.33170440725129424 -0.0075523973580980813 -0.035496286304805835 -0.0075523973580980813 -2499.7813065235041 -0.00091952871639477962 -0.035496286304805835 -0.00091952871639477962 -9999.7923653457165 0.24958840289127693 -0.0072419311985846696 -0.0077585784447364858 -0.0072419311985846696 -2499.8036817925176 0.0051003043145101401 -0.0077585784447364858 0.0051003043145101401 -9999.7290650449377 0.30678592580898112 0.015020036194223357 -0.035363013472252569 0.015020036194223357 -2499.7893152831766 0.063535334657323334 -0.035363013472252569 0.063535334657323334 -9999.7054325556655 0.23749910670812824 0.011826473866232558 -0.029493842129340919 0.011826473866232558 -2499.8220946054621 0.021554406662602332 -0.029493842129340919 0.021554406662602332 -9999.7270392474529 0.28627082362481815 0.0097899768026770834 -0.068765785782109956 0.0097899768026770834 -2499.8146210547957 0.023641370675876544 -0.068765785782109956 0.023641370675876544 -9999.7464157922441 0.32350218820374721 0.008754048738130786 0.014637877044979208 0.008754048738130786 -2499.7905569377654 -0.080612019890957232 0.014637877044979208 -0.080612019890957232 -9999.6493082563666 0.17524579666040299 0.030678474917073883 -0.027692083172035781 0.030678474917073883 -2499.8419661062494 0.021350086455979994 -0.027692083172035781 0.021350086455979994 -9999.6930524995259 0.23036868195385268 -0.015420129605264567 -0.018688050017280175 -0.015420129605264567 -2499.8210649044654 -0.024543159369410483 -0.018688050017280175 -0.024543159369410483 -9999.760789404836 0.1292796601299912 0.01099293728438271 -0.0090563489854592616 0.01099293728438271 -2499.8460420786787 0.025361972234851714 -0.0090563489854592616 0.025361972234851714 -9999.7161889140061 0.13659170533810538 0.010846337788872789 -0.0048435285850700893 0.010846337788872789 -2499.8222668288304 0.010422819642826653 -0.0048435285850700893 0.010422819642826653 -9999.691818693831 0.16281662350320403 0.0068561342418265326 -0.026512422604633046 0.0068561342418265326 -2499.806095128416 0.042542530807119505 -0.026512422604633046 0.042542530807119505 -9999.6319826739891 0.29636758961441956 0.0037374794036490735 -0.019513486970936356 0.0037374794036490735 -2499.8064462763896 -0.097070895778756494 -0.019513486970936356 -0.097070895778756494 -9999.6435195205995 0.16625609732727753 0.012173868183356355 -0.022179231736584898 0.012173868183356355 -2499.7777630850437 0.040622172213482632 -0.022179231736584898 0.040622172213482632 -9999.6301029518654 0.19105852032225812 0.00619629239573871 0.0077269778771551501 0.00619629239573871 -2499.8135804873109 0.0054564998231398931 0.0077269778771551501 0.0054564998231398931 -9999.5635277985002 0.31040142931772152 0.020261731502854041 -0.011381394075385742 0.020261731502854041 -2499.7808056221661 0.029559112992501468 -0.011381394075385742 0.029559112992501468 -9999.6226851183528 0.32973528412776432 -0.0024562603888514563 -0.030767847700504045 -0.0024562603888514563 -2499.7504294571891 0.046227898165140391 -0.030767847700504045 0.046227898165140391 -9999.6890425015044 0.2494204220206484 -0.0027465894940410292 -0.019349140275153331 -0.0027465894940410292 -2499.7709525072423 0.04127756652815151 -0.019349140275153331 0.04127756652815151 -9999.6999931101418 0.26414980683557587 -0.0071470619651290779 -0.0050753283749145339 -0.0071470619651290779 -2499.8092814912952 0.02162623191251356 -0.0050753283749145339 0.02162623191251356 -9999.6170632387675 0.23831798108699331 -0.010578179621414989 -0.015192261370884808 -0.010578179621414989 -2499.832361394816 0.0047414051391569956 -0.015192261370884808 0.0047414051391569956 -9999.6861349071278 0.18185241649061534 -0.0048217426518319933 0.032598535500990775 -0.0048217426518319933 -2499.773841986761 -0.038893431321917027 0.032598535500990775 -0.038893431321917027 -9999.6420960313226 0.17779561868018334 -0.030226541400168058 -0.0033001226926647476 -0.030226541400168058 -2499.8282013395806 -0.08647570069332583 -0.0033001226926647476 -0.08647570069332583 -9999.559725546962 0.15601194602140822 -0.043803426812098811 -0.026054415589656488 -0.043803426812098811 -2499.827916390595 -0.019033258432045841 -0.026054415589656488 -0.019033258432045841 -9999.6779321869199 0.35136511032067119 0.031946156894007413 0.018905937707586418 0.031946156894007413 -2499.7411350024549 -0.0034818095341506705 0.018905937707586418 -0.0034818095341506705 -9999.6846089131068 0.36707058786851121 0.013534760598100777 0.048707746223811937 0.013534760598100777 -2499.762644859542 -0.078373771868879061 0.048707746223811937 -0.078373771868879061 -9999.5544192334746 0.27779590384216135 -0.011913680096890224 -0.031949194673416059 -0.011913680096890224 -2499.7945549255032 -0.037638750510723185 -0.031949194673416059 -0.037638750510723185 -9999.6991374458485 0.27124856146383536 -0.013984553366527055 -0.029161115574424912 -0.013984553366527055 -2499.8151363658803 -0.033163135833092383 -0.029161115574424912 -0.033163135833092383 -9999.7742931192661 0.30482085987165419 -0.0083457511519168491 -0.008255241195911367 -0.0083457511519168491 -2499.8026260039474 -0.020492008558903763 -0.008255241195911367 -0.020492008558903763 -9999.7212869026625 0.26512195461054944 -0.00072339883892752303 -0.021517988696132306 -0.00072339883892752303 -2499.8537218380029 0.0091341786412613146 -0.021517988696132306 0.0091341786412613146 -9999.8193672500838 0.31287442048096636 0.014268488866187359 0.060457026685298842 0.014268488866187359 -2499.8072873082233 0.041278063282334188 0.060457026685298842 0.041278063282334188 -9999.72682052048 0.17790089539312248 0.028557196344695002 -0.013963257466457435 0.028557196344695002 -2499.8230067528298 -0.022755995913030347 -0.013963257466457435 -0.022755995913030347 -9999.757723235236 0.15353856256660947 0.03017615524375265 -0.030503149210744596 0.03017615524375265 -2499.8156949481731 -0.0078017067139626306 -0.030503149210744596 -0.0078017067139626306 -9999.7552294027864 0.19629854073478048 0.0029705104821295264 -0.0067813899913364839 0.0029705104821295264 -2499.7664644062811 0.093265481719637139 -0.0067813899913364839 0.093265481719637139 -9999.6720692807921 0.19585202449591121 0.023728051779939131 -0.0083665949951939877 0.023728051779939131 -2499.7745980502868 0.013253160678232234 -0.0083665949951939877 0.013253160678232234 -9999.6823292105728 0.15017609737206811 -0.027936394918102632 -0.02824166663999722 -0.027936394918102632 -2499.8110073179232 0.0064018282643330537 -0.02824166663999722 0.0064018282643330537 -9999.6535327863112 0.21721481336694123 0.013088250072169606 -0.017195129484996657 0.013088250072169606 -2499.8101617445941 0.050544936754887165 -0.017195129484996657 0.050544936754887165 -9999.7568295772744 0.36439569099831515 0.023698147219493627 0.0038757574445177148 0.023698147219493627 -2499.7038750092183 0.024202161362603836 0.0038757574445177148 0.024202161362603836 -9999.6436211805431 0.32663877400028352 0.0024415686979532714 0.047359653429012223 0.0024415686979532714 -2499.7602258172374 0.058934226446483773 0.047359653429012223 0.058934226446483773 -9999.7058518985687 0.36638330987524625 0.0061790324513109479 -0.0068668690691993106 0.0061790324513109479 -2499.7451022579694 0.00521309257455016 -0.0068668690691993106 0.00521309257455016 -9999.6654045662108 0.35138823593160851 0.035471277671372883 0.016462725569567738 0.035471277671372883 -2499.7511054697598 0.0056024944096861873 0.016462725569567738 0.0056024944096861873 -9999.6689946975766 0.37524091418468802 -0.0092917806535378969 0.026537703204720819 -0.0092917806535378969 -2499.7597333251647 0.010130858670997306 0.026537703204720819 0.010130858670997306 -9999.6263700777963 0.41436214038393793 0.0050099464143318201 0.044399077901001671 0.0050099464143318201 -2499.7051724121466 0.078866250870166049 0.044399077901001671 0.078866250870166049 -9999.5274372993426 0.38057904609042065 -0.0093340736224488442 -0.0063285067322447642 -0.0093340736224488442 -2499.7421235809197 0.031827996870222419 -0.0063285067322447642 0.031827996870222419 -9999.5768651766975 0.38717635727503324 -0.010297522216086985 0.014975019446159948 -0.010297522216086985 -2499.7555905200811 0.048146549977997666 0.014975019446159948 0.048146549977997666 -9999.6096165181752 0.40123272822893341 -0.0065110809045296689 0.022527411090550231 -0.0065110809045296689 -2499.7304847471964 0.0070586468959845661 0.022527411090550231 0.0070586468959845661 -9999.5548712350355 0.36225286172248161 -0.0054737783582954067 0.025409004025050308 -0.0054737783582954067 -2499.7772011079146 0.03061478573772547 0.025409004025050308 0.03061478573772547 -9999.6753460036907 0.35353163919398867 -0.005877962500611773 -0.0032255147983075716 -0.005877962500611773 -2499.7645294426034 0.0026901245782937622 -0.0032255147983075716 0.0026901245782937622 -9999.6627959873458 0.35220141379704728 -0.0099200048644906835 -0.002334015117792021 -0.0099200048644906835 -2499.7661318432747 0.0079547306222029768 -0.002334015117792021 0.0079547306222029768 -9999.6663420449222 0.3541130837761699 0.0029030831070339875 -0.049790842158671467 0.0029030831070339875 -2499.7688627682287 0.038016850123312906 -0.049790842158671467 0.038016850123312906 -9999.6523854844381 0.36597188055975494 0.0027118997546255255 -0.006630492218391737 0.0027118997546255255 -2499.7511867628182 0.011360628865304534 -0.006630492218391737 0.011360628865304534 -9999.6736446965915 0.3570409917770121 -0.0075034050601267485 -0.050538012243854791 -0.0075034050601267485 -2499.7575191429733 -0.010615644181180717 -0.050538012243854791 -0.010615644181180717 -9999.650774085163 0.34899119325518768 -0.0036233933128634551 -0.026812875842774538 -0.0036233933128634551 -2499.7831037894175 0.025191623423130194 -0.026812875842774538 0.025191623423130194 -9999.682481652304 0.34429968370795905 -0.0031787078926722653 -0.02407213383457929 -0.0031787078926722653 -2499.7666007813223 -0.0033369924999533396 -0.02407213383457929 -0.0033369924999533396 -9999.7169833363423 0.36496914490502463 -0.0092510568391197291 0.0033802875892868095 -0.0092510568391197291 -2499.7659802201101 0.020955446523788279 0.0033802875892868095 0.020955446523788279 -9999.7254571071517 0.36905963754418281 -0.00025519975802786379 0.0019128919402646716 -0.00025519975802786379 -2499.7512858973305 -0.002902786035065219 0.0019128919402646716 -0.002902786035065219 -9999.6791464691396 0.37102056399771755 -0.0035947915191750796 0.0047732152045227849 -0.0035947915191750796 -2499.7730624292662 0.0028512875514934422 0.0047732152045227849 0.0028512875514934422 -9999.6861776058868 0.33894192431671399 0.0042671586217766025 0.060216041300050649 0.0042671586217766025 -2499.7432901395814 -0.008480511606121871 0.060216041300050649 -0.008480511606121871 -9999.5969807264701 0.37334026569033085 0.014914684126573208 -0.03192296095848797 0.014914684126573208 -2499.7364702650475 -0.055756533248338902 -0.03192296095848797 -0.055756533248338902 -9999.6188862786257 0.35213166436869869 -0.0029720181736511836 -0.044693963332347701 -0.0029720181736511836 -2499.7571897200214 0.042576589439099144 -0.044693963332347701 0.042576589439099144 -9999.6712759434922 0.3758077393476924 -0.00083698198888984467 -0.0071170355788581219 -0.00083698198888984467 -2499.7534574519022 0.0010593363040243275 -0.0071170355788581219 0.0010593363040243275 -9999.646045756841 0.36495316202217509 0.00181365269303373 -0.012298982262109348 0.00181365269303373 -2499.7592517730332 0.0040916333136920002 -0.012298982262109348 0.0040916333136920002 -9999.6555276272884 0.38100835735804139 -0.0034819250605631962 -0.0039907321396412954 -0.0034819250605631962 -2499.746297654262 -0.0030160072597027465 -0.0039907321396412954 -0.0030160072597027465 -9999.6356032967251 0.37610775276880304 -0.0042160275298924145 0.0030927483753657725 -0.0042160275298924145 -2499.7632181039908 0.0090496477371289075 0.0030927483753657725 0.0090496477371289075 -9999.6744924815684 0.38417157405910984 -0.0026856290582868945 -0.0052611603439345345 -0.0026856290582868945 -2499.7383845649074 0.0019068176106884493 -0.0052611603439345345 0.0019068176106884493 -9999.637055742307 0.38646214591199168 -0.0019810053498657584 -0.0017658763399595045 -0.0019810053498657584 -2499.7485791274598 7.2150012272231834e-05 -0.0017658763399595045 7.2150012272231834e-05 -9999.6356595974939 0.35683494943623373 0.0095566242342773368 -0.0040937753865364357 0.0095566242342773368 -2499.76394382748 0.00060748705459445773 -0.0040937753865364357 0.00060748705459445773 -9999.6675558930947 0.36734991366802205 0.014088359281458115 0.00058911422001983738 0.014088359281458115 -2499.7503110674875 0.010816614659688639 0.00058911422001983738 0.010816614659688639 -9999.6402628155884 0.37326039303616199 0.0088093264161794999 0.0010475614919869258 0.0088093264161794999 -2499.7437711064181 0.014521622315442073 0.0010475614919869258 0.014521622315442073 -9999.6450043474997 0.36318308769182295 0.0020459821224857594 -0.0081007573626266094 0.0020459821224857594 -2499.7778183336368 0.020169277587228862 -0.0081007573626266094 0.020169277587228862 -9999.6471771981051 0.37163148421171854 0.003928808571020348 -0.0087322206200042274 0.003928808571020348 -2499.7482522830528 0.010393868246467264 -0.0087322206200042274 0.010393868246467264 -9999.640608398553 0.37122409874200457 0.0050781852106125264 -0.0087290670717266039 0.0050781852106125264 -2499.7509814416612 0.0077362331302310849 -0.0087290670717266039 0.0077362331302310849 -9999.6451096910932 0.36712782609356509 0.0030366496359541077 -0.011727919607437798 0.0030366496359541077 -2499.7546729522637 0.005560952899941185 -0.011727919607437798 0.005560952899941185 -9999.652882696435 0.37679129770185682 0.0082194780317627406 0.00087404322130169021 0.0082194780317627406 -2499.73680812366 0.018934795721179398 0.00087404322130169021 0.018934795721179398 -9999.6344994088249 0.3770113477949053 0.0052324772409451797 -0.0021491080988198519 0.0052324772409451797 -2499.7528542978462 0.013477533238983597 -0.0021491080988198519 0.013477533238983597 -9999.6180212575091 0.37072494559652114 0.008722005559875956 -0.0048437327768624527 0.008722005559875956 -2499.7640517518357 0.021969180381347542 -0.0048437327768624527 0.021969180381347542 -9999.6430079448946 0.35958956060153469 -0.0037876034670164122 -0.011260455767114763 -0.0037876034670164122 -2499.7707924955321 0.022601914430197212 -0.011260455767114763 0.022601914430197212 -9999.645142904159 0.29103689571820723 -0.0031623844672579188 -0.0032354091625848014 -0.0031623844672579188 -2499.7881394892147 -0.00099768794405008521 -0.0032354091625848014 -0.00099768794405008521 -9999.686907918458 0.28194790649217794 -0.0020000229134837025 -0.020950804618678376 -0.0020000229134837025 -2499.797843228187 -0.0047587302119609376 -0.020950804618678376 -0.0047587302119609376 -9999.7191295208795 0.35400605369795812 0.0094508899566486809 -0.0048232634453597711 0.0094508899566486809 -2499.7700763605062 0.0046805742404103512 -0.0048232634453597711 0.0046805742404103512 -9999.6783442664982 0.27721790154996029 0.00037650457134517923 -0.010512690706491412 0.00037650457134517923 -2499.7973500250846 0.0031468854595004814 -0.010512690706491412 0.0031468854595004814 -9999.7039625850248 0.1836716121392783 0.01431966920277121 -0.0045977225017850287 0.01431966920277121 -2499.7825359312824 -0.00085448114350583637 -0.0045977225017850287 -0.00085448114350583637 -9999.7239587244076 0.17464538235526561 0.0020862954506677758 -0.0080910210945148719 0.0020862954506677758 -2499.7957787451287 -0.007738881702607614 -0.0080910210945148719 -0.007738881702607614 -9999.7387008742662 0.16682183571720088 0.00667526912105822 -0.012703594848517241 0.00667526912105822 -2499.7978447893092 -0.0089103600635098701 -0.012703594848517241 -0.0089103600635098701 -9999.7339908075337 0.19004090882754099 0.017441911349515449 -0.010997241091899923 0.017441911349515449 -2499.7956350687532 -0.013348937452065002 -0.010997241091899923 -0.013348937452065002 -9999.7322223886258 0.26250677206917317 0.0082637950405234015 -0.020638892745409976 0.0082637950405234015 -2499.7999039119086 -0.010509466237635934 -0.020638892745409976 -0.010509466237635934 -9999.7105631952127 0.24723635981695224 -0.0094493988969250355 -0.021641764928972407 -0.0094493988969250355 -2499.8117830550054 -0.0061385765093291411 -0.021641764928972407 -0.0061385765093291411 -9999.7158076478772 0.28039565268727529 0.010486842798554052 -0.01843101809674863 0.010486842798554052 -2499.7990093341282 0.016391539239975828 -0.01843101809674863 0.016391539239975828 -9999.7133599457065 0.28475363375764573 -0.00042672208881362056 -0.0060831876462543732 -0.00042672208881362056 -2499.8159502286635 -0.0029239991428084977 -0.0060831876462543732 -0.0029239991428084977 -9999.7090515617892 0.29496419639144733 -0.0012576587524926498 -0.0044207380378793459 -0.0012576587524926498 -2499.7819896622477 0.0042390766939206515 -0.0044207380378793459 0.0042390766939206515 -9999.6756715661868 0.310578272679777 1.2759917136048737e-05 -0.0087547465350326092 1.2759917136048737e-05 -2499.7890241719374 -0.014193884834639903 -0.0087547465350326092 -0.014193884834639903 -9999.6332920602435 0.28577213804601342 -0.0032921682990019931 -0.0047816142523515737 -0.0032921682990019931 -2499.8085411395496 -0.0087183973955688998 -0.0047816142523515737 -0.0087183973955688998 -9999.6976701893855 0.28575686679732826 0.013136484741587507 -0.021890965534680618 0.013136484741587507 -2499.8113527036871 0.010739024406120734 -0.021890965534680618 0.010739024406120734 -9999.6807408565182 0.29441280356240895 0.0004412576521460105 -0.0060044587480660994 0.0004412576521460105 -2499.7887015448787 0.0092439488480522414 -0.0060044587480660994 0.0092439488480522414 -9999.6882737381384 0.25706371099613534 0.0031230265582752013 -0.0082476524721641908 0.0031230265582752013 -2499.7846101737282 0.011806648203673831 -0.0082476524721641908 0.011806648203673831 -9999.6750962639635 0.22366111727842508 -0.021911706478696252 -0.024128945271513658 -0.021911706478696252 -2499.8094125536472 0.0079309949014714221 -0.024128945271513658 0.0079309949014714221 -9999.714946968521 0.31236022328266699 0.010248631749271375 -0.0096810822878978797 0.010248631749271375 -2499.7766407715662 0.00056205717555712909 -0.0096810822878978797 0.00056205717555712909 -9999.6824696548174 0.30636335863255226 -0.020878979356887709 -0.0099984218754798349 -0.020878979356887709 -2499.8009836422434 -0.0079660413684905507 -0.0099984218754798349 -0.0079660413684905507 -9999.7089640442191 0.20642162196963909 -0.020658035055533021 0.014699474438202742 -0.020658035055533021 -2499.8152167246426 0.0037386017220342183 0.014699474438202742 0.0037386017220342183 -9999.746501206675 0.2811834283868393 -0.001834126118092555 -0.0091733797380584292 -0.001834126118092555 -2499.7949897961034 0.0010969502436637413 -0.0091733797380584292 0.0010969502436637413 -9999.7132361052354 0.3136802568587882 -0.022495265079002052 -0.0097826357755366189 -0.022495265079002052 -2499.7930136766945 0.004764767543747439 -0.0097826357755366189 0.004764767543747439 -9999.6861152709171 0.30312187502113375 -0.001116995286913963 -0.023221674359092503 -0.001116995286913963 -2499.7820167924556 -7.1965259849093854e-06 -0.023221674359092503 -7.1965259849093854e-06 -9999.6835673852693 0.25596932060216204 -0.013636218321302948 -0.01134466186613281 -0.013636218321302948 -2499.7911180635328 -0.00063657173132014577 -0.01134466186613281 -0.00063657173132014577 -9999.7002741710094 0.27903286245054915 0.021479536180098895 -0.033012239111485542 0.021479536180098895 -2499.7961506814281 0.010014208459324436 -0.033012239111485542 0.010014208459324436 -9999.7374170866278 0.21025435572664719 -0.028303952431953508 -0.0011565148952286108 -0.028303952431953508 -2499.8133384016437 0.0041149795879391604 -0.0011565148952286108 0.0041149795879391604 -9999.7370928949022 0.24081931519503996 -0.014276677053642474 -0.020160112899247906 -0.014276677053642474 -2499.8029957617891 0.0022918687282071915 -0.020160112899247906 0.0022918687282071915 -9999.7410411814562 0.22353948883574049 -0.00054711047976188643 -0.032095008136820979 -0.00054711047976188643 -2499.82189750816 0.00082392565855116118 -0.032095008136820979 0.00082392565855116118 -9999.7460364080325 0.26414222298717505 0.012415484869859258 -0.0099565252003230853 0.012415484869859258 -2499.7940011239143 -0.0038023713732400211 -0.0099565252003230853 -0.0038023713732400211 -9999.7152242847151 0.24703936524542769 -0.002775733651142042 -0.0022466633345175069 -0.002775733651142042 -2499.8003800071037 -0.0057038423656194936 -0.0022466633345175069 -0.0057038423656194936 -9999.7330381840729 0.38049746006618079 0.008668276741522575 -0.013932951147580752 0.008668276741522575 -2499.7476007569376 0.0016798841643321794 -0.013932951147580752 0.0016798841643321794 -9999.6575115047472 0.25991597371103126 -0.0027512983518408023 -0.012746902417347883 -0.0027512983518408023 -2499.7889679342752 0.0025133711988019058 -0.012746902417347883 0.0025133711988019058 -9999.6970092183765 0.26239195578091312 0.0092854082157634073 -0.011584953404963017 0.0092854082157634073 -2499.7968429095199 0.01191123162425356 -0.011584953404963017 0.01191123162425356 -9999.6989191547073 0.25221921826755533 0.0079635744957813961 -0.0016401991833845386 0.0079635744957813961 -2499.8073230597784 0.003175333324179519 -0.0016401991833845386 0.003175333324179519 -9999.736551754886 0.18276228586728394 0.010624434656420163 -0.0030907200980436755 0.010624434656420163 -2499.8087274589543 0.014176295549987117 -0.0030907200980436755 0.014176295549987117 -9999.7622667489049 0.18007576618583698 0.0090909256741485665 -0.011361603988916613 0.0090909256741485665 -2499.7854983048055 -0.0025669866572570754 -0.011361603988916613 -0.0025669866572570754 -9999.7479469470891 0.17974210913780553 0.0021922054251130793 -0.011580334526115621 0.0021922054251130793 -2499.7875423706446 -0.0025435010084038367 -0.011580334526115621 -0.0025435010084038367 -9999.716762234053 0.35624263459499161 -0.012988391747579944 -0.00780912501977582 -0.012988391747579944 -2499.7812938782254 -0.004681131355027901 -0.00780912501977582 -0.004681131355027901 -9999.6718614349265 0.24848971028302458 -0.010562011238481505 -0.0071393531725334469 -0.010562011238481505 -2499.8092700364205 -0.0023631748517800588 -0.0071393531725334469 -0.0023631748517800588 -9999.7046215302325 0.37144680002984387 0.018045525172833088 -0.005949269432676374 0.018045525172833088 -2499.7495915507707 -0.023014106058326433 -0.005949269432676374 -0.023014106058326433 -9999.6414405641535 0.37520551091438392 0.0098504185857382145 -0.012253380396941793 0.0098504185857382145 -2499.7457114977879 -0.025669674350865535 -0.012253380396941793 -0.025669674350865535 -9999.6525746962943 0.36580484709520533 -0.015050553444139782 -0.011252640542807057 -0.015050553444139782 -2499.7767780000777 -0.0036675120322797738 -0.011252640542807057 -0.0036675120322797738 -9999.6660650616068 0.3817280112489243 0.0059371414641723429 -0.00623809294665989 0.0059371414641723429 -2499.7434298239041 0.014297385886038683 -0.00623809294665989 0.014297385886038683 -9999.6438128750597 0.35882554546151368 0.00060865160725415493 -0.0053503648396144854 0.00060865160725415493 -2499.7874333433447 0.0036556127743097022 -0.0053503648396144854 0.0036556127743097022 -9999.6586422575529 0.37906572797874105 -0.0012854491427421073 -0.0090729272760654567 -0.0012854491427421073 -2499.7323483316977 -0.0012636897772608791 -0.0090729272760654567 -0.0012636897772608791 -9999.6261909846726 0.37052489493726171 0.0080498191551012458 -0.0098821372459951817 0.0080498191551012458 -2499.7512472036433 0.0020567498398236239 -0.0098821372459951817 0.0020567498398236239 -9999.664404448733 0.37655554552657122 0.020686854454728287 -0.001536656897769717 0.020686854454728287 -2499.7403749109635 -0.017767469005775638 -0.001536656897769717 -0.017767469005775638 -9999.6305081565879 0.37521239586931188 -0.0009898484791839128 -0.0093614201869058888 -0.0009898484791839128 -2499.7509656462989 -0.00023381825485557783 -0.0093614201869058888 -0.00023381825485557783 -9999.6333588035704 0.37177994484591181 -0.0004324827568975907 -0.0037406311575978179 -0.0004324827568975907 -2499.7580562715884 -0.0020645343029173091 -0.0037406311575978179 -0.0020645343029173091 -9999.6573082782015 0.37978084288079117 0.0010913828573493711 -0.0027546093451746856 0.0010913828573493711 -2499.7482468592643 0.0057639136175566819 -0.0027546093451746856 0.0057639136175566819 -9999.6332735117176 0.3738658272268367 0.0020757548704260216 -0.011606033200223465 0.0020757548704260216 -2499.756822831986 -1.8647790057002567e-05 -0.011606033200223465 -1.8647790057002567e-05 -9999.6625933310643 0.37588296261310461 -0.00062215279785781535 -0.0090673831518870429 -0.00062215279785781535 -2499.7472024020972 -0.0021880537733522942 -0.0090673831518870429 -0.0021880537733522942 -9999.6308010325592 0.36813539240210957 0.0016120343488380401 -0.0054542641437365091 0.0016120343488380401 -2499.7575672313542 0.0011729033749361406 -0.0054542641437365091 0.0011729033749361406 -9999.6515126913237 0.41011770839577366 0.00061427666689334564 -0.0029394564487574826 0.00061427666689334564 -2499.7358733070741 0.00011607870874286164 -0.0029394564487574826 0.00011607870874286164 -9999.6221429495417 0.38119195870740441 0.015509322434381034 -0.013810450765049609 0.015509322434381034 -2499.7559634847607 0.00019954530580434948 -0.013810450765049609 0.00019954530580434948 -9999.6439858438971 0.37910948574426584 -0.0017090518916802906 -0.0041650200546428096 -0.0017090518916802906 -2499.7491976088004 -0.0036169611576042371 -0.0041650200546428096 -0.0036169611576042371 -9999.6357932053652 0.37148942380918015 0.0095180941158739089 -0.0075135750375920907 0.0095180941158739089 -2499.7600696472282 0.011478156999146449 -0.0075135750375920907 0.011478156999146449 -9999.6447455430061 0.38851877920797051 0.0013965213702838049 0.00045391290041152388 0.0013965213702838049 -2499.7432081512939 -0.00012754013914673124 0.00045391290041152388 -0.00012754013914673124 -9999.6297002568426 0.40730658598295122 -0.0055629614338347927 -0.011738811281247763 -0.0055629614338347927 -2499.7488082619002 0.0050944501344929449 -0.011738811281247763 0.0050944501344929449 -9999.6380283164999 0.382726151145107 0.0028331926947881515 -0.0005761780048487708 0.0028331926947881515 -2499.7449435397039 0.00033750011425581761 -0.0005761780048487708 0.00033750011425581761 -9999.6268832312962 0.40111853056805558 0.0021447095323081401 0.00045445085561368614 0.0021447095323081401 -2499.7412445989066 -0.0041053560671571176 0.00045445085561368614 -0.0041053560671571176 -9999.6316041691607 0.39727869870330323 0.0029826108999670316 -0.0083245565401739441 0.0029826108999670316 -2499.7472512549321 0.0063430791033169953 -0.0083245565401739441 0.0063430791033169953 -9999.6396075336888 0.40985207337325846 0.00054829613275902273 -0.0030177515145624056 0.00054829613275902273 -2499.7366752875405 -0.00018669354176381603 -0.0030177515145624056 -0.00018669354176381603 -9999.6226036596199 0.40688887038231769 -0.00033411511901878512 -0.0040970200461742934 -0.00033411511901878512 -2499.7382032875448 -0.00071241880323213991 -0.0040970200461742934 -0.00071241880323213991 -9999.6236545286811 0.41395692051082733 -0.00072710417177437175 -0.0025993787203333341 -0.00072710417177437175 -2499.7255160817513 -0.0014854595083306776 -0.0025993787203333341 -0.0014854595083306776 -9999.6184599834742 0.40040771392159513 0.010540234536168647 -0.0064289648153135204 0.010540234536168647 -2499.7482262802951 -0.0023578551390528446 -0.0064289648153135204 -0.0023578551390528446 -9999.626125895702 0.36346583915656083 -6.1454233182966708e-05 -0.013945831742603332 -6.1454233182966708e-05 -2499.7708388354185 -0.0017387184525432531 -0.013945831742603332 -0.0017387184525432531 -9999.6746431701904 0.37202203517517773 0.0029975450170344371 0.00045614006739924662 0.0029975450170344371 -2499.7595938723025 -0.0018174931237808778 0.00045614006739924662 -0.0018174931237808778 -9999.6337742750584 0.37767152713422547 -0.0037791336394883066 -0.00064868791014305316 -0.0037791336394883066 -2499.7442732836553 0.00086543871020694496 -0.00064868791014305316 0.00086543871020694496 -9999.6277764133047 0.40791235440337914 0.0045228296652867093 -0.008177638183497038 0.0045228296652867093 -2499.7329357809231 0.00076086877379566431 -0.008177638183497038 0.00076086877379566431 -9999.6191618054872 0.36750272239441983 -0.010106532141178071 -0.013017691118875518 -0.010106532141178071 -2499.7312370917716 0.027679980419634376 -0.013017691118875518 0.027679980419634376 -9999.6277560315648 0.38838984696667467 0.0062314259433958324 -0.0082719836864271201 0.0062314259433958324 -2499.7437560800445 0.014670952152300742 -0.0082719836864271201 0.014670952152300742 -9999.6413184413686 0.38993548775397358 0.0079687658618704492 -0.0057424653301723083 0.0079687658618704492 -2499.7488346904483 -0.00071727064096194226 -0.0057424653301723083 -0.00071727064096194226 -9999.6280887171015 0.39496504216185713 0.00097063454226915813 0.0015664151906094048 0.00097063454226915813 -2499.7256270331691 -0.0066478277585702017 0.0015664151906094048 -0.0066478277585702017 -9999.62633296485 0.42340236204290704 0.0056645362930621002 0.0024886187020456418 0.0056645362930621002 -2499.7214191341554 -0.0015352990776591469 0.0024886187020456418 -0.0015352990776591469 -9999.6293252362193 0.40898456196009647 0.0012745669730131626 0.0028589369544533838 0.0012745669730131626 -2499.7259034813906 -0.0094392244172922801 0.0028589369544533838 -0.0094392244172922801 -9999.6259143582865 0.40937487210248946 0.0087170248277992843 -0.0059164447338844184 0.0087170248277992843 -2499.7445663071121 0.0025545145999785746 -0.0059164447338844184 0.0025545145999785746 -9999.6471801163279 0.36964799369161483 0.0048643411788485136 -0.0060806518322351621 0.0048643411788485136 -2499.765452947755 0.010337863233871758 -0.0060806518322351621 0.010337863233871758 -9999.6510134165801 0.38850594326868304 -0.00078790896142475267 -0.016258899559034035 -0.00078790896142475267 -2499.7624911371058 0.0090674942439363804 -0.016258899559034035 0.0090674942439363804 -9999.6581498795349 0.38439780991393491 0.00010051437855998838 -0.019473768192256102 0.00010051437855998838 -2499.7692085540548 -0.0032414206980320159 -0.019473768192256102 -0.0032414206980320159 -9999.6714299540836 0.2558663975323725 0.0011194182943413816 -0.0078147623444237979 0.0011194182943413816 -2499.8209902039016 0.023519777783803875 -0.0078147623444237979 0.023519777783803875 -9999.7227636033931 0.35277458859673061 0.011603304035702287 -0.020349190221168101 0.011603304035702287 -2499.7856887843955 0.021352890809794189 -0.020349190221168101 0.021352890809794189 -9999.6867229346535 0.3450293230744137 0.016560492812965628 -0.00061550456291570299 0.016560492812965628 -2499.7976979472223 -0.0023424528044415638 -0.00061550456291570299 -0.0023424528044415638 -9999.6900393051401 0.39453038850842859 -0.0038915097052320685 -0.015031341099529527 -0.0038915097052320685 -2499.7560957056849 0.0022782287069276208 -0.015031341099529527 0.0022782287069276208 -9999.6316741169794 0.35125504334973812 0.011182761342496308 0.0044364390960254241 0.011182761342496308 -2499.7871825850689 -0.0098768567149818409 0.0044364390960254241 -0.0098768567149818409 -9999.6712895073942 0.21265352662521764 -0.011926625458756848 -0.023560078359878389 -0.011926625458756848 -2499.8353733137556 0.0082680525429168483 -0.023560078359878389 0.0082680525429168483 -9999.7759828207054 0.25086394021855085 -0.00036313981025404285 -0.042111159582418622 -0.00036313981025404285 -2499.8064193157661 -0.005654820881318301 -0.042111159582418622 -0.005654820881318301 -9999.7330536315567 0.21163691619949532 -0.0025672948490537556 -0.034990272401046241 -0.0025672948490537556 -2499.821888275048 0.0040886830574891064 -0.034990272401046241 0.0040886830574891064 -9999.8040768313367 0.16517580486106453 -0.010544173449108116 0.0085913336642988725 -0.010544173449108116 -2499.8298405086225 0.0026219039609713946 0.0085913336642988725 0.0026219039609713946 -9999.8319879356131 0.18047030537672981 0.0096150505964730792 0.00033172144321724772 0.0096150505964730792 -2499.7909573846027 0.028136657838331303 0.00033172144321724772 0.028136657838331303 -9999.7344473751127 0.15294791798805818 0.0018811682238483729 -0.0094536203869211022 0.0018811682238483729 -2499.8306846237938 0.0051163366842956748 -0.0094536203869211022 0.0051163366842956748 -9999.7894692303125 0.24092234190902673 -0.0027110852237650293 -0.0200452279059391 -0.0027110852237650293 -2499.8237910542266 0.0097749069884116579 -0.0200452279059391 0.0097749069884116579 -9999.7601599287809 0.22634837823306952 -0.010553003764693893 -0.022657287965557771 -0.010553003764693893 -2499.8518303443784 0.0039880126696516527 -0.022657287965557771 0.0039880126696516527 -9999.7732579807562 0.24186327350616921 -0.0040438342353433035 -0.028717466579109896 -0.0040438342353433035 -2499.8143150345131 -0.002761231836529987 -0.028717466579109896 -0.002761231836529987 -9999.7088925096177 0.22482296675934776 -0.004568650447596986 -0.016040771800362563 -0.004568650447596986 -2499.8325618988047 -0.038452415752544766 -0.016040771800362563 -0.038452415752544766 -9999.7612136290118 0.21567060029701679 -0.0009212320960142531 0.0029928504809504375 -0.0009212320960142531 -2499.841072995092 0.0018765861350402702 0.0029928504809504375 0.0018765861350402702 -9999.8031023751173 0.23214493216801202 -0.0061424395787292446 -0.0017663449434621725 -0.0061424395787292446 -2499.8413777120222 -0.00077777897058695089 -0.0017663449434621725 -0.00077777897058695089 -9999.7268313803834 0.19990747739575454 -0.0064758578152310084 -0.034464072545233648 -0.0064758578152310084 -2499.8423294274799 -0.0014418887549254578 -0.034464072545233648 -0.0014418887549254578 -9999.8156043683339 0.23168278943194309 -0.00081605703148895925 -0.010127870229553082 -0.00081605703148895925 -2499.8248110311215 0.025883691492708749 -0.010127870229553082 0.025883691492708749 -9999.7545800750704 0.24095116566240904 0.00045580479190177742 -0.00044439880548452493 0.00045580479190177742 -2499.8132166187606 -0.0033725051944202278 -0.00044439880548452493 -0.0033725051944202278 -9999.7238406049946 0.34459628811234211 0.0044391469018769045 -0.0068928114014852326 0.0044391469018769045 -2499.7692751710129 0.0027428931607573759 -0.0068928114014852326 0.0027428931607573759 -9999.65886777587 0.2458424786618707 -0.0041386500895186674 -0.023718404720057151 -0.0041386500895186674 -2499.8193171352268 0.0034239901506225578 -0.023718404720057151 0.0034239901506225578 -9999.7613011068206 0.38687295867930516 0.00053433731698840706 -0.025664317583505181 0.00053433731698840706 -2499.7636006754583 -0.0036610415609175107 -0.025664317583505181 -0.0036610415609175107 -9999.6667192344321 0.295826161003788 9.0293799665001721e-05 0.010183556264507843 9.0293799665001721e-05 -2499.7863515386853 0.0070917462635406991 0.010183556264507843 0.0070917462635406991 -9999.6784031194402 0.19034709148399998 -0.0004117313683644104 -0.035718710409128107 -0.0004117313683644104 -2499.847905268005 -0.0037028802926215576 -0.035718710409128107 -0.0037028802926215576 -9999.8139433356409 0.38105221410660306 -0.00030167238037422106 -0.021558754948273418 -0.00030167238037422106 -2499.7550264757483 -0.003502962183119962 -0.021558754948273418 -0.003502962183119962 -9999.6696450647287 0.23968034770223312 0.0013606860710055485 -0.022526188688061666 0.0013606860710055485 -2499.8217764536184 0.0070661242771166144 -0.022526188688061666 0.0070661242771166144 -9999.7555765636498 0.23304928736615693 -0.0028161544502973896 -0.003865477629005909 -0.0028161544502973896 -2499.8164735324717 -0.0050181029267832855 -0.003865477629005909 -0.0050181029267832855 -9999.7295135985805 0.24072562609944725 -0.0063904204812619096 -0.025838718815066386 -0.0063904204812619096 -2499.8224139347258 0.0022053235907151247 -0.025838718815066386 0.0022053235907151247 -9999.7651154090563 0.23817233786940051 -0.010812568013019809 -0.019279858419395168 -0.010812568013019809 -2499.8083586688917 0.00085182593102217652 -0.019279858419395168 0.00085182593102217652 -9999.7710252034522 0.39472070993542729 0.0018637739656726564 -0.023921073207020527 0.0018637739656726564 -2499.7546659309628 -0.00075554000613919925 -0.023921073207020527 -0.00075554000613919925 -9999.6597823852062 0.39075613036402501 0.0027016950665050068 -0.024512458468961995 0.0027016950665050068 -2499.7504498418384 0.001371583404534249 -0.024512458468961995 0.001371583404534249 -9999.6585872987198 0.23666373622290848 0.00098465441244223462 -5.5526634241687134e-05 0.00098465441244223462 -2499.8036217494719 0.0016621615939129697 -5.5526634241687134e-05 0.0016621615939129697 -9999.7176600892708 0.19062068072344118 0.0028522163596318385 -0.031889889962258167 0.0028522163596318385 -2499.8394961100876 0.0047355119349958841 -0.031889889962258167 0.0047355119349958841 -9999.8016478186146 0.18648726425453788 0.0017177810259409888 -0.035289905245008413 0.0017177810259409888 -2499.8386799839209 0.0013389875721259159 -0.035289905245008413 0.0013389875721259159 -9999.8083037023025 0.30616767837636871 -0.0060978677205152515 0.00019456154404906556 -0.0060978677205152515 -2499.7813487212243 0.0013498158823495032 0.00019456154404906556 0.0013498158823495032 -9999.6769537158543 0.2838453052991099 -0.0023496242217460848 -0.0063455139506913838 -0.0023496242217460848 -2499.7877052927934 0.00052674793914775364 -0.0063455139506913838 0.00052674793914775364 -9999.681186313941 0.17906849219252763 0.008689506499232549 -0.035179880906071048 0.008689506499232549 -2499.8407430069365 0.0025837496796157211 -0.035179880906071048 0.0025837496796157211 -9999.8018935311302 0.28876056382796378 -0.0028730818935882273 -0.0013173937368264887 -0.0028730818935882273 -2499.7818512238446 -0.0026876404581344104 -0.0013173937368264887 -0.0026876404581344104 -9999.6657437145404 0.22415817252658599 -0.011472515853172719 -0.046829819559206953 -0.011472515853172719 -2499.8284901976585 0.0056392317419522442 -0.046829819559206953 0.0056392317419522442 -9999.783636803124 0.23445031828759966 -0.0008017475018047681 -0.043062386234851147 -0.0008017475018047681 -2499.8370179479989 0.00027543432588572614 -0.043062386234851147 0.00027543432588572614 -9999.7870560047013 0.39043154562205018 -0.0034703958062233973 -0.021233361108897952 -0.0034703958062233973 -2499.7565216459334 0.0095880496992322151 -0.021233361108897952 0.0095880496992322151 -9999.6617767577409 0.29086018033740402 -0.0086967154853061952 -0.008659604436616064 -0.0086967154853061952 -2499.7901576804707 0.010091650914091588 -0.008659604436616064 0.010091650914091588 -9999.6975497490566 0.23325604820092849 0.0077097258961724676 -0.014679179865197511 0.0077097258961724676 -2499.821218688001 0.0012214262715133373 -0.014679179865197511 0.0012214262715133373 -9999.7745615404201 0.23744565194829192 0.010759443026953391 0.00056553822287241928 0.010759443026953391 -2499.8049383148173 0.0069255163405159692 0.00056553822287241928 0.0069255163405159692 -9999.7172494990482 0.24956240644860372 0.016169169522992563 -0.007977470866535441 0.016169169522992563 -2499.7911013205648 0.0013439195899991319 -0.007977470866535441 0.0013439195899991319 -9999.7013138191323 0.30379913684282656 -0.00078802375410215973 -0.02230618201656398 -0.00078802375410215973 -2499.7697457522891 -0.0039654551155763329 -0.02230618201656398 -0.0039654551155763329 -9999.6796607208016 0.30141359056324291 0.0058020316130693549 -0.017824268506956287 0.0058020316130693549 -2499.7856750424526 -0.0087299563319902518 -0.017824268506956287 -0.0087299563319902518 -9999.6863443239927 0.29170802180851751 0.015112094723482777 -0.014482427233758699 0.015112094723482777 -2499.7959248541429 0.015523096513788914 -0.014482427233758699 0.015523096513788914 -9999.7338430084637 0.28005947928818387 -0.0038667002725715632 -0.0083049718368783942 -0.0038667002725715632 -2499.7853023217776 0.0027122243873236584 -0.0083049718368783942 0.0027122243873236584 -9999.7212578070121 0.30519715257491953 -0.010702056137849705 -0.013044452895883296 -0.010702056137849705 -2499.7800053945548 0.00064643750010873191 -0.013044452895883296 0.00064643750010873191 -9999.6847188760839 0.28947351021847112 -0.009618431071329446 -0.014659882994067175 -0.009618431071329446 -2499.7997696647485 -0.011840921037219232 -0.014659882994067175 -0.011840921037219232 -9999.7344892558431 0.2282099194580951 0.013774553203156667 -0.017949618106285925 0.013774553203156667 -2499.812211909386 -0.0083017470315098763 -0.017949618106285925 -0.0083017470315098763 -9999.7530298583224 0.22507018048418104 0.019127585237904931 0.0059180743319302564 0.019127585237904931 -2499.8060526322934 -0.0029877735742047662 0.0059180743319302564 -0.0029877735742047662 -9999.7362905720365 0.22695547178977904 0.024591610118695578 -0.0056125316505131195 0.024591610118695578 -2499.8109183818797 0.0011096757934865309 -0.0056125316505131195 0.0011096757934865309 -9999.7411766382647 0.25168032467263401 -0.022363454776674646 -0.0065402479231124744 -0.022363454776674646 -2499.8206442985429 0.0081122982383021736 -0.0065402479231124744 0.0081122982383021736 -9999.7361543546504 0.28325354449134466 0.019377810734507568 -0.012143994885263965 0.019377810734507568 -2499.7722460274117 -0.0068667956293211319 -0.012143994885263965 -0.0068667956293211319 -9999.6878964404514 0.36709641125708004 0.0066930954303873885 -0.008889129661838524 0.0066930954303873885 -2499.7658897705514 -0.0077094346270314418 -0.008889129661838524 -0.0077094346270314418 -9999.6651323361802 0.3126169295355794 -0.004950515057517365 0.0071907062429090729 -0.004950515057517365 -2499.7974929293705 0.0023843023736844771 0.0071907062429090729 0.0023843023736844771 -9999.6882036474854 0.26676016604142205 0.0007717765054296305 -0.020645175920435577 0.0007717765054296305 -2499.8149950774095 0.00479661999088421 -0.020645175920435577 0.00479661999088421 -9999.7445036339341 0.28536588907263649 0.0023559349879005535 -0.010644513502484187 0.0023559349879005535 -2499.7881714667092 -0.0074458543149376055 -0.010644513502484187 -0.0074458543149376055 -9999.6911552355741 0.24107517776064924 -0.011079564321299203 0.010637689803843386 -0.011079564321299203 -2499.8264488720833 0.0066148672576673562 0.010637689803843386 0.0066148672576673562 -9999.7420360282158 0.22770534426555145 0.010324709130807352 0.0119077360150186 0.010324709130807352 -2499.8306149465857 -0.00030896314274286851 0.0119077360150186 -0.00030896314274286851 -9999.7462691921191 0.1213252469588042 -0.008611301742526653 0.015069050172314746 -0.008611301742526653 -2499.8392613213782 0.0019384451943551539 0.015069050172314746 0.0019384451943551539 -9999.7750766780591 0.16552823399342742 0.00054358623484518365 -0.0069844308345636819 0.00054358623484518365 -2499.8299991749636 0.0054858785715623526 -0.0069844308345636819 0.0054858785715623526 -9999.759458690336 0.19555867019516882 -0.028851062844092674 -0.020637609473851626 -0.028851062844092674 -2499.8025296413689 0.010913600159256021 -0.020637609473851626 0.010913600159256021 -9999.7267409361593 0.35364577868631386 -0.015409854055937297 0.0016348241933883401 -0.015409854055937297 -2499.7703906484517 -0.0035350628131709527 0.0016348241933883401 -0.0035350628131709527 -9999.6749292490531 0.28860413584925482 0.0021828766841754076 -0.013609061006718548 0.0021828766841754076 -2499.8045985396088 0.0033820935568655841 -0.013609061006718548 0.0033820935568655841 -9999.706844332788 0.20093009176889609 -0.021297386144532554 -0.013207291642174823 -0.021297386144532554 -2499.8087123044388 0.0039603122668268043 -0.013207291642174823 0.0039603122668268043 -9999.7576306428964 0.18971558536031807 -0.01652019164820847 0.0029088475057506002 -0.01652019164820847 -2499.7522427209933 -0.033003956183165428 0.0029088475057506002 -0.033003956183165428 -9999.7230314378321 0.24599818230512938 0.012681437597117626 -0.023214980074044433 0.012681437597117626 -2499.8543037805102 -0.0038793838593846885 -0.023214980074044433 -0.0038793838593846885 -9999.7728400031519 0.14694496064657869 -0.00077410281122739996 -0.016378025238736882 -0.00077410281122739996 -2499.8095932955785 -0.0040842037205948145 -0.016378025238736882 -0.0040842037205948145 -9999.7870764061954 0.19711296968671377 0.0020651666711135053 -0.036141588654572843 0.0020651666711135053 -2499.8270121970745 -0.0040242642644443549 -0.036141588654572843 -0.0040242642644443549 -9999.8127456445945 0.26368092869961401 -0.0081299861613028934 -0.044506032420031261 -0.0081299861613028934 -2499.799666592502 0.015953980093399878 -0.044506032420031261 0.015953980093399878 -9999.7228510633722 0.1682474704903143 0.012195029843500488 0.012255083544005174 0.012195029843500488 -2499.8135182824644 -0.0099124963599024341 0.012255083544005174 -0.0099124963599024341 -9999.8258557850131 0.21238232999530737 0.0081248219020484611 -0.019588989960539038 0.0081248219020484611 -2499.8429678145876 -0.0049643740567262284 -0.019588989960539038 -0.0049643740567262284 -9999.7834767542445 0.18426136918242264 -0.0079404307799348234 -0.033406295779059292 -0.0079404307799348234 -2499.8581363888206 0.0051920046134910081 -0.033406295779059292 0.0051920046134910081 -9999.8115258623366 0.2156841570558754 0.011286171102338052 -0.048065194469018024 0.011286171102338052 -2499.8278484279217 -0.0095174389607564081 -0.048065194469018024 -0.0095174389607564081 -9999.7788528575329 0.26199004914451507 -0.0092417168386623449 0.0085710377170471475 -0.0092417168386623449 -2499.8189441279501 0.0024961435628938489 0.0085710377170471475 0.0024961435628938489 -9999.7232019233634 0.26056055079243379 0.00036586015358158058 -0.022786631516282796 0.00036586015358158058 -2499.8241766466308 -0.0010842270939974696 -0.022786631516282796 -0.0010842270939974696 -9999.7625817577209 0.39116341846602154 -0.0030819090966760988 -0.023810144167327962 -0.0030819090966760988 -2499.7520822239203 -0.0064184753864537925 -0.023810144167327962 -0.0064184753864537925 -9999.6543288432003 0.30025972378098231 0.010196034010915563 -0.005036586642745533 0.010196034010915563 -2499.7884016890621 -0.010683309721571277 -0.005036586642745533 -0.010683309721571277 -9999.693701905584 0.34111572425899794 -0.02318547903461305 -0.016221912173932651 -0.02318547903461305 -2499.7935144122785 0.013676368747837842 -0.016221912173932651 0.013676368747837842 -9999.6849720843456 0.34386051715409849 -0.020208066873790433 0.00080170829551207135 -0.020208066873790433 -2499.7917218049042 0.006282097116127261 0.00080170829551207135 0.006282097116127261 -9999.6679992497811 0.38664592238274054 -0.0014587652463541097 -0.025066354512091493 -0.0014587652463541097 -2499.7608233980463 0.0042136263218708336 -0.025066354512091493 0.0042136263218708336 -9999.6622834269292 0.24653112929445342 0.0071106250734071404 0.0065119697082991479 0.0071106250734071404 -2499.8470955547928 0.0019983158617833396 0.0065119697082991479 0.0019983158617833396 -9999.7333741814364 0.34705455541916308 -0.013290580151365194 -0.017044653338416538 -0.013290580151365194 -2499.7864736789415 -0.021183157194172964 -0.017044653338416538 -0.021183157194172964 -9999.6892739673931 0.28140538312709396 0.00070776668170324797 -0.0063718269157106988 0.00070776668170324797 -2499.8155675963872 -0.024824096610245761 -0.0063718269157106988 -0.024824096610245761 -9999.7163849830176 0.37375705009435478 0.0001213201420011828 -0.000165480869327439 0.0001213201420011828 -2499.7549704669073 0.00124868139391765 -0.000165480869327439 0.00124868139391765 -9999.6299221496956 0.37740662124815572 0.0027378696028064128 -0.0009001953021652298 0.0027378696028064128 -2499.7409548261367 0.0021261154815874761 -0.0009001953021652298 0.0021261154815874761 -9999.6263062258149 0.37363348695180321 0.01105443843849481 -0.0012419777358445572 0.01105443843849481 -2499.7483223999698 0.0019298445549793541 -0.0012419777358445572 0.0019298445549793541 -9999.6461977893814 0.37219963027291669 0.00061037574309603937 -0.0070974541049508844 0.00061037574309603937 -2499.7591874245554 0.0052616179345932323 -0.0070974541049508844 0.0052616179345932323 -9999.640839742875 0.38912922822964902 0.00046185516412381583 -0.011178562977875117 0.00046185516412381583 -2499.7560672198197 -0.0050533522007754073 -0.011178562977875117 -0.0050533522007754073 -9999.6403532430995 0.39135477497620741 -0.00027858477985095997 0.00047840342631388921 -0.00027858477985095997 -2499.723369271911 0.0067439246031426592 0.00047840342631388921 0.0067439246031426592 -9999.6291074693836 0.39661268656163884 -0.0086248088691119329 -0.0051876336765417363 -0.0086248088691119329 -2499.7431817370871 -0.0053827390765945893 -0.0051876336765417363 -0.0053827390765945893 -9999.6461111631506 0.39493182041042019 -0.00068221360128490878 -0.0068959712742753254 -0.00068221360128490878 -2499.7395412189144 0.0077572966620209627 -0.0068959712742753254 0.0077572966620209627 -9999.6347948332623 0.41170608600623382 -0.0048036096208453278 -0.0073458955546357174 -0.0048036096208453278 -2499.728714089284 0.0019548304262571037 -0.0073458955546357174 0.0019548304262571037 -9999.6187964715064 0.40511725604483217 -0.0030335732274161102 -0.0077675371107801539 -0.0030335732274161102 -2499.7497018103259 0.0012554191816889215 -0.0077675371107801539 0.0012554191816889215 -9999.624015311907 0.41689803873669007 -0.0056004771948051923 0.0024322652097907849 -0.0056004771948051923 -2499.7152721351922 0.0070166298828553408 0.0024322652097907849 0.0070166298828553408 -9999.6305594675505 0.41230980087493663 0.00059162665677240018 -0.0040464812119864746 0.00059162665677240018 -2499.7216707854132 0.0084658806736115366 -0.0040464812119864746 0.0084658806736115366 -9999.6229523808142 0.38234321336494759 -0.0013388000276615963 -0.00019265304598548028 -0.0013388000276615963 -2499.7559904354202 -0.0015826105318410555 -0.00019265304598548028 -0.0015826105318410555 -9999.6323460131243 0.37777874428866198 0.00038237526454466819 -0.0066623888706089929 0.00038237526454466819 -2499.7619712681972 0.00263255315439892 -0.0066623888706089929 0.00263255315439892 -9999.6430191255786 0.37253687715747219 -0.0040905026306596384 -0.008258166761152097 -0.0040905026306596384 -2499.7644127506755 -0.0043006858090848255 -0.008258166761152097 -0.0043006858090848255 -9999.6325623036937 0.37548607566122882 0.00082227600494237663 -0.002532749578676885 0.00082227600494237663 -2499.7309056469917 -0.02961215474169876 -0.002532749578676885 -0.02961215474169876 -9999.6346661778189 0.37203863060494768 0.00086316169650459997 -0.0057928483606701775 0.00086316169650459997 -2499.7712960319877 -0.0051733920508922893 -0.0057928483606701775 -0.0051733920508922893 -9999.6340551481844 0.37561003926384728 0.0032909141073530759 -0.0015230589453949506 0.0032909141073530759 -2499.7613262019804 0.0028873806877527386 -0.0015230589453949506 0.0028873806877527386 -9999.6329248915717 0.36254361215196695 0.002325798470506988 -6.2580439589510206e-05 0.002325798470506988 -2499.7690146985142 -0.010289038675409756 -6.2580439589510206e-05 -0.010289038675409756 -9999.6548610660575 0.36292184363264823 0.0082053788578291213 -0.0053412978541018674 0.0082053788578291213 -2499.7691702492848 -0.009381717376868437 -0.0053412978541018674 -0.009381717376868437 -9999.6694377023523 0.3680529337234475 -0.0014018583736696323 -0.011176960728334961 -0.0014018583736696323 -2499.7699990457004 -0.0016203740715354797 -0.011176960728334961 -0.0016203740715354797 -9999.6570276278435 0.36474023798109556 0.0081782163962923812 -0.0058831249694435428 0.0081782163962923812 -2499.7673569642011 -0.0087334028464169933 -0.0058831249694435428 -0.0087334028464169933 -9999.6641197784993 0.38284484728865209 0.01127836817328072 -0.0089975156545847312 0.01127836817328072 -2499.721061112914 -0.028158973969766521 -0.0089975156545847312 -0.028158973969766521 -9999.6388700742609 0.37709919712142437 0.0016540863892113592 -0.0082837885172466486 0.0016540863892113592 -2499.7531915010477 -0.014791387203331396 -0.0082837885172466486 -0.014791387203331396 -9999.6301276450431 0.36606875351390045 0.016555889669855231 -0.00097558948073128704 0.016555889669855231 -2499.7645632512686 -0.023290362331863435 -0.00097558948073128704 -0.023290362331863435 -9999.6439463959468 0.37835355491006339 -0.0008683925101339602 -0.0060685865018967888 -0.0008683925101339602 -2499.7491960921907 0.00035504325205693021 -0.0060685865018967888 0.00035504325205693021 -9999.6287736891718 0.38112278272274125 -0.0021146887227859613 -0.00071621728034187981 -0.0021146887227859613 -2499.7508133368574 -0.0072457239675713936 -0.00071621728034187981 -0.0072457239675713936 -9999.6295031188965 0.37119397517562902 -0.0027261674412887866 -0.011857183302709018 -0.0027261674412887866 -2499.7615491824681 0.0019300257617942407 -0.011857183302709018 0.0019300257617942407 -9999.663925390596 0.37557065563396463 -0.0013404745892193304 -0.0024697572205241158 -0.0013404745892193304 -2499.75365522833 -0.00092709223281417508 -0.0024697572205241158 -0.00092709223281417508 -9999.6476813634763 0.37215980912924351 -0.0015691828623686475 -0.0018487565648683812 -0.0015691828623686475 -2499.7440069537529 -0.0045484976026273216 -0.0018487565648683812 -0.0045484976026273216 -9999.6440467938774 0.3791696846440118 -0.0022436990337457476 -0.0066713326468743617 -0.0022436990337457476 -2499.7490419372534 -0.00065933274709095713 -0.0066713326468743617 -0.00065933274709095713 -9999.6317196149739 0.38010749454770121 -0.0048250877471621061 0.00027618610874924343 -0.0048250877471621061 -2499.7452007471275 0.0021799548194394447 0.00027618610874924343 0.0021799548194394447 -9999.627984884537 0.37921858887602866 0.0014818923664783852 -0.0032940607541149802 0.0014818923664783852 -2499.7509613532566 0.0077393425708578434 -0.0032940607541149802 0.0077393425708578434 -9999.6376240940117 0.38978086470928019 0.0038301990422897197 -0.015349075421937641 0.0038301990422897197 -2499.7508757172668 -0.00083796083163178992 -0.015349075421937641 -0.00083796083163178992 -9999.6434933957426 0.37479339909350529 -0.0073627275451135059 -0.0053394901406136341 -0.0073627275451135059 -2499.7572434634449 -0.0085712009677081369 -0.0053394901406136341 -0.0085712009677081369 -9999.6421894992927 0.38744967486536552 -0.0010503837952715589 0.0018689389944483992 -0.0010503837952715589 -2499.7484071799804 0.0026289150537195383 0.0018689389944483992 0.0026289150537195383 -9999.6323946142729 0.38951437173176373 -0.012960183574545625 -0.015692188391540185 -0.012960183574545625 -2499.7535055173275 0.0023333012104558293 -0.015692188391540185 0.0023333012104558293 -9999.6440739936043 0.39263641208890476 -0.0031844347325767006 -0.0095399097990593873 -0.0031844347325767006 -2499.7456144032949 -0.0034728592754618148 -0.0095399097990593873 -0.0034728592754618148 -9999.6382256489524 0.40936041681015922 -0.00088882225764756132 -0.0029734163330203955 -0.00088882225764756132 -2499.7406674507956 0.0026509365470701596 -0.0029734163330203955 0.0026509365470701596 -9999.6232434097947 0.414913677601362 -0.0011354347576074952 -0.0033371003228239715 -0.0011354347576074952 -2499.7225995116733 0.0039734353376843501 -0.0033371003228239715 0.0039734353376843501 -9999.6186418703292 0.41084611135011073 -0.0013227107224258669 -0.002630349434184609 -0.0013227107224258669 -2499.7358723897451 0.001670739550718281 -0.002630349434184609 0.001670739550718281 -9999.621724945966 0.40789793012663722 -0.0007245193518950737 -0.0048426720841234783 -0.0007245193518950737 -2499.7366839547958 0.002862118180928519 -0.0048426720841234783 0.002862118180928519 -9999.6217858966775 0.38979983702165555 0.0023697732185355772 0.0045177464289736236 0.0023697732185355772 -2499.748086185054 -0.00042812553692783695 0.0045177464289736236 -0.00042812553692783695 -9999.6234151211938 0.40862811250372033 -0.0013670214082077789 0.0024696162290638313 -0.0013670214082077789 -2499.7366941095788 0.00038860722690969851 0.0024696162290638313 0.00038860722690969851 -9999.6239704215695 0.38800218870983372 -0.0078787404232418638 0.0042418015254952479 -0.0078787404232418638 -2499.7441587412477 0.003083545459958259 0.0042418015254952479 0.003083545459958259 -9999.624003801564 0.38814850803919398 -0.0015618532262867747 0.0029481358560587978 -0.0015618532262867747 -2499.7406881041716 0.00053213503304050391 0.0029481358560587978 0.00053213503304050391 -9999.6194664487957 0.37712272236967692 -0.0021486957689453856 0.006210741727045388 -0.0021486957689453856 -2499.7500038616727 0.0021124413615325466 0.006210741727045388 0.0021124413615325466 -9999.628719948978 0.38639499918008369 8.0476741929461911e-05 0.0021933299431111664 8.0476741929461911e-05 -2499.7432782022579 0.001931273134687217 0.0021933299431111664 0.001931273134687217 -9999.6216478310071 0.40693867099616909 -0.0025900963918451987 0.0042175983835477382 -0.0025900963918451987 -2499.7381709858346 0.0039155021322585526 0.0042175983835477382 0.0039155021322585526 -9999.6240595564304 0.40602371842305729 -0.00061245881753387195 0.00014115918020252138 -0.00061245881753387195 -2499.7349227212862 0.00086282622214639559 0.00014115918020252138 0.00086282622214639559 -9999.6153746545788 0.39594053224618619 0.0044675001017643896 0.0018897553427450475 0.0044675001017643896 -2499.7406829293827 4.2627596485544927e-05 0.0018897553427450475 4.2627596485544927e-05 -9999.6197615782476 0.39594224252300592 0.006442172479764724 0.0053716229049314279 0.006442172479764724 -2499.7371147561826 0.0010260569529236818 0.0053716229049314279 0.0010260569529236818 -9999.6187399714036 0.37566965500627703 -0.002089940820731012 0.0021488795127879712 -0.002089940820731012 -2499.7463146980363 -0.0018512575970817124 0.0021488795127879712 -0.0018512575970817124 -9999.6179462374312 0.37913544648017705 -0.0020346991115235101 0.00085013066382089164 -0.0020346991115235101 -2499.7490165341142 -0.00065955229911196511 0.00085013066382089164 -0.00065955229911196511 -9999.6315832754008 0.37299432738063842 -0.0016092483732460805 1.1157677363371477e-05 -0.0016092483732460805 -2499.7458875649522 -8.0670161878515501e-05 1.1157677363371477e-05 -8.0670161878515501e-05 -9999.6212067751858 0.37574984496768593 -0.0010380115722694629 0.0015428006713591458 -0.0010380115722694629 -2499.7467558975522 -0.0009810459305299446 0.0015428006713591458 -0.0009810459305299446 -9999.619698319475 0.38302231720808777 -0.00052830237807989294 0.00087301269377348945 -0.00052830237807989294 -2499.7475951560227 -0.00044749425978807267 0.00087301269377348945 -0.00044749425978807267 -9999.6303196024692 0.38193418288210523 -0.00093325742888344596 0.0027000321897503454 -0.00093325742888344596 -2499.7479820091467 0.00031783681697561406 0.0027000321897503454 0.00031783681697561406 -9999.6275005125135 0.37462635219071672 -0.016693166973679546 0.00034790607878676383 -0.016693166973679546 -2499.7458493958748 -0.022705299978952098 0.00034790607878676383 -0.022705299978952098 -9999.6301262724301 0.38306663334697078 -0.023959201002574183 -0.0028363810142764123 -0.023959201002574183 -2499.7327143713865 -0.011433456691520405 -0.0028363810142764123 -0.011433456691520405 -9999.6170536785721 0.37612270460522268 0.0013187679327605305 0.0047436756631213939 0.0013187679327605305 -2499.7699593377947 -0.0032981093390844762 0.0047436756631213939 -0.0032981093390844762 -9999.6331566885419 0.38738921836716145 -0.0011938667573041448 0.0016384862174163572 -0.0011938667573041448 -2499.7325457761362 -0.010089426887361697 0.0016384862174163572 -0.010089426887361697 -9999.615235433208 0.37722909088370216 -0.0017412998551668071 -5.8749023992277216e-05 -0.0017412998551668071 -2499.7301629578833 -0.0014493983610464056 -5.8749023992277216e-05 -0.0014493983610464056 -9999.6199883865083 0.38450543839280726 -0.0068386582643524575 0.0018379217472102027 -0.0068386582643524575 -2499.7555768630882 0.01002300789423316 0.0018379217472102027 0.01002300789423316 -9999.6193862098953 0.38162840745212634 -0.0010982801937415854 -0.0032836934042279609 -0.0010982801937415854 -2499.7284638194078 -0.0010615973314997973 -0.0032836934042279609 -0.0010615973314997973 -9999.6091411182442 0.38251701623175904 0.01206251577831545 -0.0029733641249549692 0.01206251577831545 -2499.7345037612913 -0.0082005169726926397 -0.0029733641249549692 -0.0082005169726926397 -9999.6175540328331 0.37155329206871102 -0.0094234335711784883 -0.0046641126882605022 -0.0094234335711784883 -2499.745110811009 -0.0021623182965413434 -0.0046641126882605022 -0.0021623182965413434 -9999.6159002441855 0.37458971641353855 -0.019015245144933787 -0.0013036504697083728 -0.019015245144933787 -2499.7501319494841 -0.021818486782649416 -0.0013036504697083728 -0.021818486782649416 -9999.6238325345403 0.38775830090708041 -0.0055056615388029972 0.00084266692465462256 -0.0055056615388029972 -2499.7592353463606 0.006236494455151842 0.00084266692465462256 0.006236494455151842 -9999.6329090750078 0.39238911939446552 0.00013369450500070809 0.0053350097023212584 0.00013369450500070809 -2499.7347494010583 0.0027260520455456572 0.0053350097023212584 0.0027260520455456572 -9999.6153645802151 0.38927627872180892 -0.00085431317056064611 0.0019694627681019483 -0.00085431317056064611 -2499.7359382198119 -0.0070062771901575616 0.0019694627681019483 -0.0070062771901575616 -9999.6230047913996 0.38887341845838819 -0.0055521022501008356 0.0031303614250646206 -0.0055521022501008356 -2499.7550370204244 0.00090503439787426032 0.0031303614250646206 0.00090503439787426032 -9999.6302121833687 0.3775679185782792 -0.0043562286083163142 0.0063912694040482165 -0.0043562286083163142 -2499.7819704502836 0.0014828929706709459 0.0063912694040482165 0.0014828929706709459 -9999.6288714098555 0.3988806827510416 -0.0092192016814093836 0.0013708612495975103 -0.0092192016814093836 -2499.7178626291497 0.010093327919094008 0.0013708612495975103 0.010093327919094008 -9999.6296701531719 0.41077261499594897 0.00021634297063102131 0.0011623248974501621 0.00021634297063102131 -2499.700364692857 0.0069308131896832492 0.0011623248974501621 0.0069308131896832492 -9999.6234520698017 0.40251914098553243 0.0042731171894694279 0.0033896833347171196 0.0042731171894694279 -2499.732152968887 -0.00041535510717949364 0.0033896833347171196 -0.00041535510717949364 -9999.6216904153953 0.40439222486747894 0.0016872286782606966 0.0037381217116490006 0.0016872286782606966 -2499.7273738930435 0.0015871746945776977 0.0037381217116490006 0.0015871746945776977 -9999.6215904938217 0.41465867158331093 0.012495669812012528 -0.00016521364523214288 0.012495669812012528 -2499.7172394824411 -1.48817925946787e-05 -0.00016521364523214288 -1.48817925946787e-05 -9999.6271950864029 0.38206920694574364 0.016054600509494553 -0.003287934991021757 0.016054600509494553 -2499.7620536866816 -0.014294261291070143 -0.003287934991021757 -0.014294261291070143 -9999.6244279635866 0.38651933391884086 0.016853298371709999 0.0041791459284468147 0.016853298371709999 -2499.7630022644207 -0.006926531274075387 0.0041791459284468147 -0.006926531274075387 -9999.6232768656191 0.39599329723569099 0.016325587548574452 -0.0031872163708612788 0.016325587548574452 -2499.7085850160602 0.0064611436573613901 -0.0031872163708612788 0.0064611436573613901 -9999.6267209136931 0.4099201662120322 0.0043049322696743358 -0.0067330886813579127 0.0043049322696743358 -2499.7304583900204 0.012196588901133509 -0.0067330886813579127 0.012196588901133509 -9999.6281077578096 0.41161586525777238 0.0042972813872478657 -0.00040273893682751805 0.0042972813872478657 -2499.741158585919 0.0045522797045123298 -0.00040273893682751805 0.0045522797045123298 -9999.6138809645417 0.40427169886424963 0.0035597921932053189 -0.001878481912171992 0.0035597921932053189 -2499.7689765312371 0.00444418460392626 -0.001878481912171992 0.00444418460392626 -9999.6191966091574 0.38881077385667595 0.00021479956850630616 -0.0014793680929869879 0.00021479956850630616 -2499.7524097365458 -0.0026119542591231948 -0.0014793680929869879 -0.0026119542591231948 -9999.6182036151076 0.38733008575036365 -0.0018254179425102462 -0.0010703384559747064 -0.0018254179425102462 -2499.7508014678915 -0.0036444398665480549 -0.0010703384559747064 -0.0036444398665480549 -9999.617555477269 0.40528070394793758 -0.00089234052592165186 0.0045818484395567793 -0.00089234052592165186 -2499.7436989050075 0.0041042450502573047 0.0045818484395567793 0.0041042450502573047 -9999.6137536012975 0.38205688378366176 -0.0025271059898857584 0.0022440313805418555 -0.0025271059898857584 -2499.777824104076 0.0044738364085787907 0.0022440313805418555 0.0044738364085787907 -9999.6250600736894 0.38741758588457742 0.0013275823320018643 -0.00173927685682429 0.0013275823320018643 -2499.7539395969861 0.0030258821316238027 -0.00173927685682429 0.0030258821316238027 -9999.622251998182 0.39598358976672898 0.0067231329113435004 0.0011844995642604772 0.0067231329113435004 -2499.7512865275867 0.0047767272808414418 0.0011844995642604772 0.0047767272808414418 -9999.6177632892832 0.40867835945391562 -0.0021464760055899743 0.0016929610064835288 -0.0021464760055899743 -2499.7242959683717 0.0012282026254979428 0.0016929610064835288 0.0012282026254979428 -9999.6141592243002 0.39256166345330712 -0.013269147766215583 0.0041897589399013668 -0.013269147766215583 -2499.7526691026669 0.009853219711658312 0.0041897589399013668 0.009853219711658312 -9999.6252806109696 0.39978722531304811 -0.0018616825356456562 -0.0012029972094751429 -0.0018616825356456562 -2499.7274720214809 0.013446223227219889 -0.0012029972094751429 0.013446223227219889 -9999.6336839725263 0.38800430045557732 -0.016591105739860161 -0.0011908547749044374 -0.016591105739860161 -2499.7405877207257 0.0069144609587965533 -0.0011908547749044374 0.0069144609587965533 -9999.6306043724035 0.38359902919876276 -0.0052651339982175208 0.0013180997793824645 -0.0052651339982175208 -2499.7703551306681 -0.015294279912268394 0.0013180997793824645 -0.015294279912268394 -9999.6252335354875 0.37948351250088308 -0.00058576951851834619 -0.0028213510340719949 -0.00058576951851834619 -2499.7512809041145 -0.0030479575543722603 -0.0028213510340719949 -0.0030479575543722603 -9999.6202893445879 0.38132840944308555 -0.0068313484214496331 7.5526530054048635e-05 -0.0068313484214496331 -2499.761992816937 -0.014472388829744887 7.5526530054048635e-05 -0.014472388829744887 -9999.6239270666483 0.38328840045505785 -0.0067560380301587702 -0.0033452204588684253 -0.0067560380301587702 -2499.7382892088772 -0.011954008930842974 -0.0033452204588684253 -0.011954008930842974 -9999.6180663231207 0.38436131948037655 0.0037972286561113733 0.0040162455043173395 0.0037972286561113733 -2499.7477934463077 0.0011115058441646397 0.0040162455043173395 0.0011115058441646397 -9999.6208537634084 0.38796244876925812 -0.011799193052233647 -0.0033440229672123678 -0.011799193052233647 -2499.7242596461201 -0.0034631070047907997 -0.0033440229672123678 -0.0034631070047907997 -9999.6133851880695 0.38667406529566506 0.023190513118848802 -0.0032192123944696505 0.023190513118848802 -2499.7229812129226 0.0097149776720470982 -0.0032192123944696505 0.0097149776720470982 -9999.6223062335484 0.37154715994438448 -0.0020518834766149741 -0.00020243102335371077 -0.0020518834766149741 -2499.7563503734664 -0.0039564815288031241 -0.00020243102335371077 -0.0039564815288031241 -9999.6271480679097 0.38086719809507485 -0.0005808458373792319 0.0032480686495546252 -0.0005808458373792319 -2499.7525470558958 -0.0032895144886424532 0.0032480686495546252 -0.0032895144886424532 -9999.6229487969067 0.3789103057297325 0.012177873677273549 -0.00075697250031225849 0.012177873677273549 -2499.7553696505329 -0.0079072850057855248 -0.00075697250031225849 -0.0079072850057855248 -9999.6234387684235 0.38116079957580951 0.013336886196762494 -0.0031981005504349014 0.013336886196762494 -2499.7370533540652 -0.0075292079427526915 -0.0031981005504349014 -0.0075292079427526915 -9999.6164566532898 0.37220173745527063 -0.0031740573777620795 0.0015914575606075232 -0.0031740573777620795 -2499.7495014052033 -0.0075067931247758679 0.0015914575606075232 -0.0075067931247758679 -9999.6209772018065 0.38058602360160876 -0.010212567014949228 -0.0025706223805173067 -0.010212567014949228 -2499.7245222153588 -0.0052908525649399962 -0.0025706223805173067 -0.0052908525649399962 -9999.6075521189705 0.38434930759649433 -0.012641184830476007 -0.00091079189223819412 -0.012641184830476007 -2499.7228001955227 -0.0053449761344381841 -0.00091079189223819412 -0.0053449761344381841 -9999.6117024248779 0.37239029792283418 -0.0006277099960752125 -0.00075595675843942445 -0.0006277099960752125 -2499.7497384547887 -0.0064339541668232414 -0.00075595675843942445 -0.0064339541668232414 -9999.6243188795634 0.37306925816119474 -0.0020405618947070825 -0.00055309726212726673 -0.0020405618947070825 -2499.7428162086089 -0.0044440200790631934 -0.00055309726212726673 -0.0044440200790631934 -9999.6218413054739 0.37782676753522537 -0.0015877851297405781 0.0017560418405082601 -0.0015877851297405781 -2499.74765980141 -0.00085985630994400708 0.0017560418405082601 -0.00085985630994400708 -9999.6237593184524 0.37717946604607278 -0.0045408439026547003 0.0056439629952365067 -0.0045408439026547003 -2499.7453653078592 -0.0027789504420070443 0.0056439629952365067 -0.0027789504420070443 -9999.619300894512 0.39215854388748994 -0.0004511133175378948 -0.0018986673094332218 -0.0004511133175378948 -2499.7433049458523 -0.0014582296098524239 -0.0018986673094332218 -0.0014582296098524239 -9999.6139077663829 0.37738582011024846 -0.00010355354403244442 0.0031431697668722336 -0.00010355354403244442 -2499.7477363889766 -0.0016385900235036388 0.0031431697668722336 -0.0016385900235036388 -9999.6193096132156 0.3778559746024257 0.0045390730588070636 8.873320211932878e-05 0.0045390730588070636 -2499.7505739067547 -0.0020998164291086141 8.873320211932878e-05 -0.0020998164291086141 -9999.6195691792091 0.38866797695482092 0.00017709335512996617 -0.00069961516601324547 0.00017709335512996617 -2499.7437393953242 -0.0012570130984386196 -0.00069961516601324547 -0.0012570130984386196 -9999.617623899605 0.38276313327878597 -0.0040096608578132978 -0.0033491692920506466 -0.0040096608578132978 -2499.7480641370239 -0.0029494379377865698 -0.0033491692920506466 -0.0029494379377865698 -9999.6188312262566 0.37738836689641175 0.00069070815815116832 0.0030371223022029881 0.00069070815815116832 -2499.7445861995329 -0.00033171598624903709 0.0030371223022029881 -0.00033171598624903709 -9999.6231983104481 0.37399145365634467 -0.0017825182052726722 0.0027502281222950842 -0.0017825182052726722 -2499.7478731330684 -0.0018189392667409265 0.0027502281222950842 -0.0018189392667409265 -9999.6202650313317 0.38033523474769027 -0.00015441915824706415 0.0004129901981286821 -0.00015441915824706415 -2499.7281566434467 0.0044131506774647278 0.0004129901981286821 0.0044131506774647278 -9999.6074301185945 0.37094871148292441 0.00068224979484355578 -0.0011272992005615379 0.00068224979484355578 -2499.7490303997147 -0.001661500682530459 -0.0011272992005615379 -0.001661500682530459 -9999.6170825455702 0.38910892715648515 0.00072841496178130535 -0.0011403768185118679 0.00072841496178130535 -2499.7440956093942 -0.0019899533544958103 -0.0011403768185118679 -0.0019899533544958103 -9999.6155080954049 0.39092165847068827 0.00020367094728230737 0.004195938614429906 0.00020367094728230737 -2499.7482418590607 0.00062812896396735596 0.004195938614429906 0.00062812896396735596 -9999.6215815033793 0.38394429229083471 -7.1175353231363574e-06 0.0050387365910751214 -7.1175353231363574e-06 -2499.7475404538782 -0.0028922315032104962 0.0050387365910751214 -0.0028922315032104962 -9999.6158364616058 0.39139346096089866 0.0005376477172698256 0.0041585286708141211 0.0005376477172698256 -2499.7485225799155 0.0010548360169195803 0.0041585286708141211 0.0010548360169195803 -9999.6221468451113 0.38838812044559745 0.00014771250842157978 -0.0010643865898600779 0.00014771250842157978 -2499.7458926479885 -0.00052854468594887294 -0.0010643865898600779 -0.00052854468594887294 -9999.6165999777877 0.38756146026753413 -3.7011955255358717e-05 -0.0011471793859527679 -3.7011955255358717e-05 -2499.7479170528786 -0.0013055466079094913 -0.0011471793859527679 -0.0013055466079094913 -9999.6178829699857 0.40544317582680378 0.001404047433471502 0.0018036817346001044 0.001404047433471502 -2499.7441307106419 0.00081472121564729605 0.0018036817346001044 0.00081472121564729605 -9999.6190119846324 0.38901147147589654 0.00078132198682311083 -0.0015759687685203971 0.00078132198682311083 -2499.7474914097493 -0.0010846448967640754 -0.0015759687685203971 -0.0010846448967640754 -9999.6178447801976 0.39102869142152485 -0.00057288764334863934 -0.0012289882070035674 -0.00057288764334863934 -2499.7443903097665 -0.0013750873404205777 -0.0012289882070035674 -0.0013750873404205777 -9999.6173483544771 0.40626266747131012 0.0017574599453433757 0.0016489154913870152 0.0017574599453433757 -2499.7420504007168 8.6780983110656962e-05 0.0016489154913870152 8.6780983110656962e-05 -9999.6177896522131 0.39110317124686844 0.00060168721898957815 0.0037241114805510733 0.00060168721898957815 -2499.7468117125336 0.00013560529623646289 0.0037241114805510733 0.00013560529623646289 -9999.6211333711763 0.40950835779585759 0.0035448835482396121 0.0022135844192234799 0.0035448835482396121 -2499.7331692908301 0.0032633608534524683 0.0022135844192234799 0.0032633608534524683 -9999.6144714430775 0.39701931020135817 -0.004614700105794645 0.0015279761355486698 -0.004614700105794645 -2499.7471445518895 0.0024769099472905509 0.0015279761355486698 0.0024769099472905509 -9999.6188400873762 0.40551981622047606 0.00066751609977809198 7.2967370215337723e-05 0.00066751609977809198 -2499.7446001874523 0.00055751140689608292 7.2967370215337723e-05 0.00055751140689608292 -9999.6217008527747 0.40710513490557787 0.00075718779307308928 -0.0014583606389351189 0.00075718779307308928 -2499.743316735432 0.0030319163379317615 -0.0014583606389351189 0.0030319163379317615 -9999.6166432355749 0.40501396835497872 0.00093407374664822144 -0.00024152341211447492 0.00093407374664822144 -2499.7434394897409 0.00028052422203472815 -0.00024152341211447492 0.00028052422203472815 -9999.6215385740616 0.40399334076209925 0.00033175686441093438 2.7573438273975626e-05 0.00033175686441093438 -2499.743927190968 0.00024096832203213125 2.7573438273975626e-05 0.00024096832203213125 -9999.6218092674426 0.40401896267030679 0.00038912735189712382 -7.4457888331380673e-05 0.00038912735189712382 -2499.7441042723785 0.00034761353163048625 -7.4457888331380673e-05 0.00034761353163048625 -9999.6215318676659 0.4064721299946541 -0.0007416798467786978 0.0011921010645892238 -0.0007416798467786978 -2499.7438540443618 -0.00072984916550922208 0.0011921010645892238 -0.00072984916550922208 -9999.619547261871 0.38792832883336814 0.0015883252910244196 0.0048576184444755199 0.0015883252910244196 -2499.7509206020422 -9.0725229256349849e-05 0.0048576184444755199 -9.0725229256349849e-05 -9999.6205078996099 0.38978430568772637 0.00027802534918324606 0.0048261016261221812 0.00027802534918324606 -2499.7450582151578 0.0012177134412922896 0.0048261016261221812 0.0012177134412922896 -9999.6184097558871 0.3883333406465681 0.00015189283628770471 -0.0010506018134037731 0.00015189283628770471 -2499.7463808752273 -0.0011197553599231469 -0.0010506018134037731 -0.0011197553599231469 -9999.6163309571566 0.39072730447878712 -0.0005447104519417142 0.0036968280383007368 -0.0005447104519417142 -2499.7473902102793 5.4762522950113635e-05 0.0036968280383007368 5.4762522950113635e-05 -9999.6213758195154 0.40879305839916924 0.00055733444603730739 0.00057691186339070555 0.00055733444603730739 -2499.7431863987367 -0.00079041310527827591 0.00057691186339070555 -0.00079041310527827591 -9999.618713246382 0.40672590329995728 -0.0038090878110560947 0.00029840820388926659 -0.0038090878110560947 -2499.7434838709487 -0.0013630166577058844 0.00029840820388926659 -0.0013630166577058844 -9999.6187804795481 0.39134769411248271 -0.0005645765332378623 0.0045258276386448415 -0.0005645765332378623 -2499.7479993060315 -0.00079080469299697143 0.0045258276386448415 -0.00079080469299697143 -9999.6209896619366 0.40815561851741222 -0.0047682177623072954 0.0032592812549410155 -0.0047682177623072954 -2499.7357096547985 -0.0018026851139438804 0.0032592812549410155 -0.0018026851139438804 -9999.6167316503379 0.41121533116347564 -0.0011902039419641754 0.0013175556159694679 -0.0011902039419641754 -2499.733721866447 0.00049690338119035005 0.0013175556159694679 0.00049690338119035005 -9999.6147111800165 0.37660171880452253 -0.0025634143069378779 0.0046275863041955745 -0.0025634143069378779 -2499.7460556207507 -0.00014973162069509272 0.0046275863041955745 -0.00014973162069509272 -9999.6285873968045 0.38570731774007072 -0.0023421781552389986 0.0026587330376059981 -0.0023421781552389986 -2499.7462059488339 -0.0024726774445298361 0.0026587330376059981 -0.0024726774445298361 -9999.6242707529163 0.4077891910001199 -0.0018429980938257651 -0.0016614240885246545 -0.0018429980938257651 -2499.7362212583157 -0.0015823874084617273 -0.0016614240885246545 -0.0015823874084617273 -9999.6165683572144 0.39010253737069434 0.0044665044098132663 0.0017794627037801547 0.0044665044098132663 -2499.7398246392222 -0.0018692342564463615 0.0017794627037801547 -0.0018692342564463615 -9999.6225588792186 0.39775169209315209 -0.0067059985615106057 0.00064412044957862236 -0.0067059985615106057 -2499.7405935777097 -0.00013631159526994452 0.00064412044957862236 -0.00013631159526994452 -9999.621188798239 0.40141057893606558 -0.00090004572151174773 0.0027138687501064851 -0.00090004572151174773 -2499.744530648135 -0.001258115611562971 0.0027138687501064851 -0.001258115611562971 -9999.6205969580606 0.4067821310400177 -0.00050886022245349646 0.0041122938600892667 -0.00050886022245349646 -2499.7371294016393 -0.0022930018640181515 0.0041122938600892667 -0.0022930018640181515 -9999.6256935164638 0.38342686421606231 -0.0018763543527476122 0.0012164519666839624 -0.0018763543527476122 -2499.7480719535824 -0.0018412279223412042 0.0012164519666839624 -0.0018412279223412042 -9999.6298968384945 0.37551244054839117 -0.0025133202317928066 0.00026477168557903497 -0.0025133202317928066 -2499.7512074108349 -0.0031254991754394723 0.00026477168557903497 -0.0031254991754394723 -9999.6192987510731 0.38228491997324454 -0.0021597962998216574 0.00012783348120137816 -0.0021597962998216574 -2499.7451018754637 -0.0021083086558064679 0.00012783348120137816 -0.0021083086558064679 -9999.6286646631197 0.37688937920484022 -0.0017741053544761583 0.0018517243063342903 -0.0017741053544761583 -2499.7459246191393 -6.3945808506105095e-06 0.0018517243063342903 -6.3945808506105095e-06 -9999.6141486089655 0.37950672665328966 -0.00080292304120930386 -0.00079874714356265031 -0.00080292304120930386 -2499.7494931523775 -0.00020079265777894761 -0.00079874714356265031 -0.00020079265777894761 -9999.6317699082883 0.37502501759445295 -0.0025725457732256973 0.0013330230175370161 -0.0025725457732256973 -2499.7478377361949 -0.0022917748065083288 0.0013330230175370161 -0.0022917748065083288 -9999.6203930554293 0.37449629420734709 -0.0012894438035935857 0.0027584630643104902 -0.0012894438035935857 -2499.7460863574179 -0.0014381628416231251 0.0027584630643104902 -0.0014381628416231251 -9999.6196387508498 0.37117962468937549 1.1330894949743153e-07 -0.00040361881929129595 1.1330894949743153e-07 -2499.7533580029053 -0.0045517204998759553 -0.00040361881929129595 -0.0045517204998759553 -9999.6188137662903 0.37622689340787474 0.0053928023914783293 0.0083549734208645532 0.0053928023914783293 -2499.7472993030278 -0.0026695928254412138 0.0083549734208645532 -0.0026695928254412138 -9999.6212185162294 0.38321103228190623 0.0011248045228701743 -2.9573666324722581e-05 0.0011248045228701743 -2499.7435052911878 -0.0015715039826318389 -2.9573666324722581e-05 -0.0015715039826318389 -9999.6160835006522 0.37711949356889818 0.00046121501917759534 0.003329300543782665 0.00046121501917759534 -2499.7530027342236 -0.0050197912160001579 0.003329300543782665 -0.0050197912160001579 -9999.6231036503486 0.3889666034556285 5.8157523496929486e-05 -0.00045398224028758705 5.8157523496929486e-05 -2499.7424269218664 -0.0022101739614299731 -0.00045398224028758705 -0.0022101739614299731 -9999.6177434178535 0.38118361791384814 0.0033226814447951973 0.0022816522143784823 0.0033226814447951973 -2499.7421597992998 -0.0057571403194742743 0.0022816522143784823 -0.0057571403194742743 -9999.6213813885843 0.38260765293068744 0.0019373049045369405 -0.0016897901611514499 0.0019373049045369405 -2499.7469648076049 0.00068387296778382733 -0.0016897901611514499 0.00068387296778382733 -9999.6202021210211 0.38800301268565818 -0.0001597694762401989 -0.0017097047402785392 -0.0001597694762401989 -2499.7304013077282 0.0010473664369783364 -0.0017097047402785392 0.0010473664369783364 -9999.6147035562826 0.3701960385478742 -0.00019894204399906884 -0.0013470420972225838 -0.00019894204399906884 -2499.7505900526485 -0.003594846776650229 -0.0013470420972225838 -0.003594846776650229 -9999.6185407467783 0.38844190328018158 -0.00054597042156638619 -0.00049232457786274608 -0.00054597042156638619 -2499.7441839400963 -0.00078459340875269845 -0.00049232457786274608 -0.00078459340875269845 -9999.6180921142004 0.38251190360097098 0.0050176433989698906 -0.0018133788271370577 0.0050176433989698906 -2499.7225090582178 -0.008482785518935998 -0.0018133788271370577 -0.008482785518935998 -9999.6077243147447 0.37778072457240341 0.004504890384355054 0.0022582725996471709 0.004504890384355054 -2499.754316492531 0.01727934901646222 0.0022582725996471709 0.01727934901646222 -9999.6281839637268 0.3797016846601764 0.0037652214790519301 0.0028092198905937948 0.0037652214790519301 -2499.7512656726904 -0.0054601058299112992 0.0028092198905937948 -0.0054601058299112992 -9999.6237140322992 0.37333017771308619 0.0045706858164527679 -0.0026846704513445729 0.0045706858164527679 -2499.7439461103595 -0.0014007890122229583 -0.0026846704513445729 -0.0014007890122229583 -9999.6286165403071 0.37421181902649892 0.0060181415447951823 -0.0029384558765741531 0.0060181415447951823 -2499.7368259288551 -0.00039425309842044953 -0.0029384558765741531 -0.00039425309842044953 -9999.6266054640291 0.39108228008626611 0.01381521797213689 -0.002838976764905965 0.01381521797213689 -2499.7147231987674 0.0096250813912774902 -0.002838976764905965 0.0096250813912774902 -9999.6050593034888 0.3929991130844428 0.018904983829819817 -0.00074301541553722927 0.018904983829819817 -2499.6995410596883 0.00090464200548012741 -0.00074301541553722927 0.00090464200548012741 -9999.6125740969219 0.39071708590381604 0.022512506932999873 -0.0010761151388578583 0.022512506932999873 -2499.7087504401952 -0.0045099790277163265 -0.0010761151388578583 -0.0045099790277163265 -9999.6084244052472 0.36968797548979637 0.012247379373692718 -0.0060811594194092322 0.012247379373692718 -2499.7583641598048 -0.0036662872116721701 -0.0060811594194092322 -0.0036662872116721701 -9999.6244410401159 0.37130498517853994 0.006472318976593526 -0.0021004322834414779 0.006472318976593526 -2499.7543160894866 -0.0039591522081536823 -0.0021004322834414779 -0.0039591522081536823 -9999.6242833322849 0.38135434119067213 -0.0051606128510518906 -0.0013943499052402331 -0.0051606128510518906 -2499.7418083590655 0.0098613385762291728 -0.0013943499052402331 0.0098613385762291728 -9999.6224624023707 0.36723218877341424 -0.0019543609153267194 1.5450936189154163e-05 -0.0019543609153267194 -2499.7731936197106 0.0030421393703363719 1.5450936189154163e-05 0.0030421393703363719 -9999.630325780352 0.37400791277741519 -0.015082311807531891 -0.0014191088148436393 -0.015082311807531891 -2499.7467941068599 -0.016068094912952802 -0.0014191088148436393 -0.016068094912952802 -9999.6245832614022 0.38964143755401892 -0.004381049539146302 -0.00083367403203737922 -0.004381049539146302 -2499.7394789885602 0.0096331837594334502 -0.00083367403203737922 0.0096331837594334502 -9999.6216400221165 0.37864380739029002 0.011664105288879515 -0.0028583906150743132 0.011664105288879515 -2499.7589528728795 -0.0056224000595648249 -0.0028583906150743132 -0.0056224000595648249 -9999.621640935522 0.38625092397160188 -0.0018882847927508121 -0.001705593837300512 -0.0018882847927508121 -2499.7316506824063 0.0017549059466546169 -0.001705593837300512 0.0017549059466546169 -9999.6234277462281 0.38345040578678891 -0.0069881472214473467 -0.0044453836562752258 -0.0069881472214473467 -2499.7369565252284 -0.021552910131504177 -0.0044453836562752258 -0.021552910131504177 -9999.616978721202 0.38806460086379957 0.0011648016311701127 0.0012344111273705494 0.0011648016311701127 -2499.7354169981245 0.00024653137188579421 0.0012344111273705494 0.00024653137188579421 -9999.6242662855402 0.38150516390669509 -0.0025983569459566303 -0.003195350797369656 -0.0025983569459566303 -2499.7446634472435 -0.0057387973056393093 -0.003195350797369656 -0.0057387973056393093 -9999.6297514890721 0.37213526192681456 -0.01679823185901845 -0.00036888884096697439 -0.01679823185901845 -2499.7415492461823 -0.014347370020914241 -0.00036888884096697439 -0.014347370020914241 -9999.6240136442939 0.38323210781436501 -0.0032827055035954955 0.0006936255103937583 -0.0032827055035954955 -2499.7434290144311 0.010150613585210522 0.0006936255103937583 0.010150613585210522 -9999.6231533617829 0.40357655130992498 -0.0040044355861947123 0.0032065782443169155 -0.0040044355861947123 -2499.746211577165 9.7479356554686092e-05 0.0032065782443169155 9.7479356554686092e-05 -9999.6171266036908 0.38393943556030763 -0.00042240433828064083 0.0014529300588037586 -0.00042240433828064083 -2499.7532026725635 0.00011529445066571498 0.0014529300588037586 0.00011529445066571498 -9999.6236465031361 0.39334937809690018 -0.0045674026135308693 0.0029429204041377943 -0.0045674026135308693 -2499.7461230927256 -0.001066687262209598 0.0029429204041377943 -0.001066687262209598 -9999.6204326847292 0.3944686778322648 -0.0051043750859676162 -0.00048452841110702138 -0.0051043750859676162 -2499.7398138789849 0.010739750554421335 -0.00048452841110702138 0.010739750554421335 -9999.6217534429561 0.41511449597601313 0.0015153345568109586 0.0025836764034465887 0.0015153345568109586 -2499.7095245880409 -0.0078296704959939234 0.0025836764034465887 -0.0078296704959939234 -9999.6241978747203 0.39890190383994195 -0.0041062587740555573 0.0021333534914447227 -0.0041062587740555573 -2499.7177231098813 -0.0084722268875339068 0.0021333534914447227 -0.0084722268875339068 -9999.6265142423908 0.40608169164624996 -0.0023217757399195799 0.0040645939609476045 -0.0023217757399195799 -2499.7431950467108 -0.00045951448737469036 0.0040645939609476045 -0.00045951448737469036 -9999.6237970182156 0.4094342208445596 -0.0045611786031623455 0.0032612668328511063 -0.0045611786031623455 -2499.7299830019438 0.00039910943542054156 0.0032612668328511063 0.00039910943542054156 -9999.6198947290541 0.40988770123840368 -0.012980354074615556 -0.0022446092079917435 -0.012980354074615556 -2499.7267353108818 -0.002587826646049507 -0.0022446092079917435 -0.002587826646049507 -9999.6239326543728 0.38371380430066893 0.0027104321732610223 -0.0011969262013735715 0.0027104321732610223 -2499.7460259796017 0.0077572771624545567 -0.0011969262013735715 0.0077572771624545567 -9999.616237881788 0.40476548649894539 -0.007250053186120313 0.0028946928468940314 -0.007250053186120313 -2499.7457220473552 -0.0035919174260925502 0.0028946928468940314 -0.0035919174260925502 -9999.62056986073 0.38293617281033221 -0.014192921708647402 -0.00046103246131679043 -0.014192921708647402 -2499.7595405606071 -0.0038665318952553207 -0.00046103246131679043 -0.0038665318952553207 -9999.6301265097281 0.38640412334552821 -0.016035122122462546 0.0020242575770907933 -0.016035122122462546 -2499.7584032228124 -0.0064573501003906131 0.0020242575770907933 -0.0064573501003906131 -9999.6203158198041 0.40021044985769549 -0.0020584971928057916 -0.00016015020810300484 -0.0020584971928057916 -2499.7448081479706 0.0012701991636276944 -0.00016015020810300484 0.0012701991636276944 -9999.6261371916917 0.39169682388092042 -0.013943959392353877 -0.0014336393542180303 -0.013943959392353877 -2499.7315628979741 0.014771620391911711 -0.0014336393542180303 0.014771620391911711 -9999.6216846067982 0.39092044394146797 0.0004041154413351733 0.0062099961360218003 0.0004041154413351733 -2499.7513290499219 -0.0012738384893964394 0.0062099961360218003 -0.0012738384893964394 -9999.6189329108311 0.38223579551549847 0.0043901301597587808 0.0049195026085726568 0.0043901301597587808 -2499.7785101698196 -0.00013346832429306232 0.0049195026085726568 -0.00013346832429306232 -9999.6240673639095 0.37775542659426264 0.0051287921798964589 -0.0026276753133060993 0.0051287921798964589 -2499.7710900483034 0.0095472292750855559 -0.0026276753133060993 0.0095472292750855559 -9999.6233510451184 0.40730061676913465 0.0012543249915059965 0.00088813182082958519 0.0012543249915059965 -2499.7470120914095 -0.0020310014406277332 0.00088813182082958519 -0.0020310014406277332 -9999.620845300029 0.40874136511047254 0.00068263700563042304 0.0018352508122916333 0.00068263700563042304 -2499.7475280455801 -0.0029259309012559243 0.0018352508122916333 -0.0029259309012559243 -9999.6196373447019 0.39956891128895222 0.02233264764512519 -0.0020615937664842932 0.02233264764512519 -2499.6985191709173 0.015873154090513708 -0.0020615937664842932 0.015873154090513708 -9999.6116667293827 0.39994824794848682 0.024335807219767421 -0.0075620309653459117 0.024335807219767421 -2499.7174488447126 0.0061440848630809342 -0.0075620309653459117 0.0061440848630809342 -9999.6056350829094 0.41531029148609377 0.0042540420267527593 0.003322856457089074 0.0042540420267527593 -2499.7267135840666 -0.0007323937606997788 0.003322856457089074 -0.0007323937606997788 -9999.6172886488785 0.39441234858168173 0.026488202078841696 -0.0047484965216426644 0.026488202078841696 -2499.7186811074607 0.0030787423565925565 -0.0047484965216426644 0.0030787423565925565 -9999.6265493003739 0.40139915728286724 0.0092914739327767462 0.0015358924283646047 0.0092914739327767462 -2499.7326835116728 -0.010692077972635161 0.0015358924283646047 -0.010692077972635161 -9999.621923082057 0.39778169015880849 0.016374876847084909 0.0046142167866491945 0.016374876847084909 -2499.7520182303397 -0.0059117765649716603 0.0046142167866491945 -0.0059117765649716603 -9999.6209343461669 
</DataArray>
</CellData>
</Piece>
</UnstructuredGrid>
</VTKFile>
