<?xml version="1.0"?>
<VTKFile type="UnstructuredGrid" version="0.1" byte_order="LittleEndian">
<UnstructuredGrid>
<Piece NumberOfPoints="2876" NumberOfCells="719">
<Points>
<DataArray type="Float64" NumberOfComponents="3" format="ascii">
0.14641016151452901 0.14641016151487049 0 0.31610726166346748 0.18804489794572149 0 0.312576188949791 0.31458070521983672 0.3125761889497819 0.16929708765618309 0.30074819035915368 0 0 0 0 0 0.14641016151432179 0.14641016151432179 0 0.20000000000083221 0 0.14641016151452901 0.14641016151487049 0 0 0 0 0.14641016151452901 0.14641016151487049 0 0.1464101615145241 0 0.14641016151486561 0.19999999999955789 0 0 0 0 0 0 0 0.20000000000083221 0 0.14641016151432179 0.14641016151432179 0.1464101615145241 0 0.14641016151486561 0 0.14641016151432179 0.14641016151432179 0 0.18804489794560331 0.31610726166461361 0.312576188949791 0.31458070521983672 0.3125761889497819 0 0.30074819035869899 0.1692970876565193 0.1464101615145241 0 0.14641016151486561 0.31578456131778371 0 0.1865278143482666 0.16938214347656569 0 0.30011357660650623 0.312576188949791 0.31458070521983672 0.3125761889497819 0 0 0 0 0.14641016151432179 0.14641016151432179 0.14641016151452901 0.14641016151487049 0 0.1464101615145241 0 0.14641016151486561 0.14641016151452901 0.14641016151487049 0 0.1464101615145241 0 0.14641016151486561 0.31578456131778371 0 0.1865278143482666 0.312576188949791 0.31458070521983672 0.3125761889497819 0 0.14641016151432179 0.14641016151432179 0.14641016151452901 0.14641016151487049 0 0.312576188949791 0.31458070521983672 0.3125761889497819 0 0.30074819035869899 0.1692970876565193 0 0.14641016151432179 0.14641016151432179 0.14641016151452901 0.14641016151487049 0 0.1464101615145241 0 0.14641016151486561 0.312576188949791 0.31458070521983672 0.3125761889497819 0 0.14641016151432179 0.14641016151432179 0.1464101615145241 0 0.14641016151486561 0.16938214347656569 0 0.30011357660650623 0.312576188949791 0.31458070521983672 0.3125761889497819 0 0 0.20000000000083221 0 0.14641016151432179 0.14641016151432179 0.1464101615145241 0 0.14641016151486561 0.16938214347656569 0 0.30011357660650623 0 0 0.20000000000083221 0 0.14641016151432179 0.14641016151432179 0.16938214347656569 0 0.30011357660650623 0 0.18804489794560331 0.31610726166461361 0 0.14641016151432179 0.14641016151432179 0 0.20000000000083221 0 0.14641016151452901 0.14641016151487049 0 0 0.30074819035869899 0.1692970876565193 0 0.20000000000083221 0 0.14641016151452901 0.14641016151487049 0 0.16929708765618309 0.30074819035915368 0 0 0.30074819035869899 0.1692970876565193 0.14641016151452901 0.14641016151487049 0 0.19999999999955789 0 0 0.31610726166346748 0.18804489794572149 0 0.31578456131778371 0 0.1865278143482666 0.14641016151452901 0.14641016151487049 0 0.1464101615145241 0 0.14641016151486561 0.19999999999955789 0 0 0.31578456131778371 0 0.1865278143482666 0.19999999999955789 0 0 0.31610726166346748 0.18804489794572149 0 0.3999999999989749 0 0 0.31578456131778371 0 0.1865278143482666 0.14641016151452901 0.14641016151487049 0 0.31610726166346748 0.18804489794572149 0 0.31578456131778371 0 0.1865278143482666 0.312576188949791 0.31458070521983672 0.3125761889497819 0.31610726166346748 0.18804489794572149 0 0.31578456131778371 0 0.1865278143482666 0.312576188949791 0.31458070521983672 0.3125761889497819 0.5003997205654479 0.21136633249797621 0.2258422409314382 0.31610726166346748 0.18804489794572149 0 0.49391845158624981 0 0.1323760430705655 0.5003997205654479 0.21136633249797621 0.2258422409314382 0.50966790549376417 0.16275515618023731 0 0.31610726166346748 0.18804489794572149 0 0.45812322962036273 0.31024977578535839 0 0.5003997205654479 0.21136633249797621 0.2258422409314382 0.50966790549376417 0.16275515618023731 0 0.31610726166346748 0.18804489794572149 0 0.3999999999989749 0 0 0.49391845158624981 0 0.1323760430705655 0.50966790549376417 0.16275515618023731 0 0.31610726166346748 0.18804489794572149 0 0.3999999999989749 0 0 0.49391845158624981 0 0.1323760430705655 0.31578456131778371 0 0.1865278143482666 0.49391845158624981 0 0.1323760430705655 0.31578456131778371 0 0.1865278143482666 0.47688326899416439 0 0.31741132792405607 0.5003997205654479 0.21136633249797621 0.2258422409314382 0.31610726166346748 0.18804489794572149 0 0.49391845158624981 0 0.1323760430705655 0.31578456131778371 0 0.1865278143482666 0.5003997205654479 0.21136633249797621 0.2258422409314382 0.32146143392436449 0 0.38738071487621961 0.50073570207385831 0.24848280280289631 0.52886631355986169 0.22088738526309029 0.22111069116742441 0.50004796911802929 0.31030302876556398 0 0.54179813558513157 0.32146143392436449 0 0.38738071487621961 0.16938214347656569 0 0.30011357660650623 0.312576188949791 0.31458070521983672 0.3125761889497819 0.22088738526309029 0.22111069116742441 0.50004796911802929 0.32146143392436449 0 0.38738071487621961 0.312576188949791 0.31458070521983672 0.3125761889497819 0.50073570207385831 0.24848280280289631 0.52886631355986169 0.22088738526309029 0.22111069116742441 0.50004796911802929 0.47688326899416439 0 0.31741132792405607 0.32146143392436449 0 0.38738071487621961 0.5003997205654479 0.21136633249797621 0.2258422409314382 0.50073570207385831 0.24848280280289631 0.52886631355986169 0.32146143392436449 0 0.38738071487621961 0.312576188949791 0.31458070521983672 0.3125761889497819 0.5003997205654479 0.21136633249797621 0.2258422409314382 0.50073570207385831 0.24848280280289631 0.52886631355986169 0.31578456131778371 0 0.1865278143482666 0.32146143392436449 0 0.38738071487621961 0.16938214347656569 0 0.30011357660650623 0.312576188949791 0.31458070521983672 0.3125761889497819 0.31578456131778371 0 0.1865278143482666 0.32146143392436449 0 0.38738071487621961 0.312576188949791 0.31458070521983672 0.3125761889497819 0.5003997205654479 0.21136633249797621 0.2258422409314382 0.31578456131778371 0 0.1865278143482666 0.47688326899416439 0 0.31741132792405607 0.32146143392436449 0 0.38738071487621961 0.5003997205654479 0.21136633249797621 0.2258422409314382 0.32146143392436449 0 0.38738071487621961 0.50000000000250922 0 0.48038475773043671 0.50073570207385831 0.24848280280289631 0.52886631355986169 0.31030302876556398 0 0.54179813558513157 0.47688326899416439 0 0.31741132792405607 0.32146143392436449 0 0.38738071487621961 0.50000000000250922 0 0.48038475773043671 0.50073570207385831 0.24848280280289631 0.52886631355986169 0.32146143392436449 0 0.38738071487621961 0.16370661204827031 0 0.4886650857430957 0.22088738526309029 0.22111069116742441 0.50004796911802929 0.31030302876556398 0 0.54179813558513157 0.32146143392436449 0 0.38738071487621961 0.16370661204827031 0 0.4886650857430957 0.16938214347656569 0 0.30011357660650623 0.22088738526309029 0.22111069116742441 0.50004796911802929 0 0.14641016151432179 0.14641016151432179 0.16938214347656569 0 0.30011357660650623 0 0.18804489794560331 0.31610726166461361 0.312576188949791 0.31458070521983672 0.3125761889497819 0.16370661204827031 0 0.4886650857430957 0.16938214347656569 0 0.30011357660650623 0 0.18804489794560331 0.31610726166461361 0.22088738526309029 0.22111069116742441 0.50004796911802929 0.16938214347656569 0 0.30011357660650623 0 0.18804489794560331 0.31610726166461361 0.312576188949791 0.31458070521983672 0.3125761889497819 0.22088738526309029 0.22111069116742441 0.50004796911802929 0.16370661204827031 0 0.4886650857430957 0 0 0.40000000000166441 0 0.16275515618034081 0.50966790549591257 0 0 0.60000000000138687 0.16370661204827031 0 0.4886650857430957 0 0 0.40000000000166441 0.16938214347656569 0 0.30011357660650623 0 0.18804489794560331 0.31610726166461361 0.16370661204827031 0 0.4886650857430957 0 0 0.40000000000166441 0 0.18804489794560331 0.31610726166461361 0 0.16275515618034081 0.50966790549591257 0 0 0.20000000000083221 0 0 0.40000000000166441 0.16938214347656569 0 0.30011357660650623 0 0.18804489794560331 0.31610726166461361 0.16370661204827031 0 0.4886650857430957 0 0.18804489794560331 0.31610726166461361 0.22088738526309029 0.22111069116742441 0.50004796911802929 0 0.16275515618034081 0.50966790549591257 0 0.18804489794560331 0.31610726166461361 0 0.31024977578556651 0.45812322962166352 0.22088738526309029 0.22111069116742441 0.50004796911802929 0 0.16275515618034081 0.50966790549591257 0 0.18804489794560331 0.31610726166461361 0 0.39615100178029522 0.32925244736138171 0.312576188949791 0.31458070521983672 0.3125761889497819 0 0.30074819035869899 0.1692970876565193 0 0.31024977578556651 0.45812322962166352 0.312576188949791 0.31458070521983672 0.3125761889497819 0.24769234054476261 0.52242103280823293 0.45098450226372488 0.22088738526309029 0.22111069116742441 0.50004796911802929 0 0.18804489794560331 0.31610726166461361 0 0.31024977578556651 0.45812322962166352 0 0.39615100178029522 0.32925244736138171 0.312576188949791 0.31458070521983672 0.3125761889497819 0 0.39615100178029522 0.32925244736138171 0.312576188949791 0.31458070521983672 0.3125761889497819 0.22345881830598399 0.5062398304147856 0.22345881830602041 0.24769234054476261 0.52242103280823293 0.45098450226372488 0 0.31024977578556651 0.45812322962166352 0 0.39615100178029522 0.32925244736138171 0.312576188949791 0.31458070521983672 0.3125761889497819 0.24769234054476261 0.52242103280823293 0.45098450226372488 0 0.39615100178029522 0.32925244736138171 0.312576188949791 0.31458070521983672 0.3125761889497819 0 0.30074819035869899 0.1692970876565193 0.22345881830598399 0.5062398304147856 0.22345881830602041 0 0.18804489794560331 0.31610726166461361 0 0.31024977578556651 0.45812322962166352 0.312576188949791 0.31458070521983672 0.3125761889497819 0.22088738526309029 0.22111069116742441 0.50004796911802929 0 0.31024977578556651 0.45812322962166352 0 0.39615100178029522 0.32925244736138171 0.24769234054476261 0.52242103280823293 0.45098450226372488 0 0.50000000000237477 0.51961524226909872 0.312576188949791 0.31458070521983672 0.3125761889497819 0.5004045312576143 0.47050700646456922 0.24963111222780321 0.50000000000001332 0.49999999999999561 0.49999999999999561 0.50073570207385831 0.24848280280289631 0.52886631355986169 0.312576188949791 0.31458070521983672 0.3125761889497819 0.22345881830598399 0.5062398304147856 0.22345881830602041 0.24769234054476261 0.52242103280823293 0.45098450226372488 0.5004045312576143 0.47050700646456922 0.24963111222780321 0.312576188949791 0.31458070521983672 0.3125761889497819 0.5003997205654479 0.21136633249797621 0.2258422409314382 0.5004045312576143 0.47050700646456922 0.24963111222780321 0.50073570207385831 0.24848280280289631 0.52886631355986169 0.312576188949791 0.31458070521983672 0.3125761889497819 0.24769234054476261 0.52242103280823293 0.45098450226372488 0.50000000000001332 0.49999999999999561 0.49999999999999561 0.50073570207385831 0.24848280280289631 0.52886631355986169 0.312576188949791 0.31458070521983672 0.3125761889497819 0.24769234054476261 0.52242103280823293 0.45098450226372488 0.5004045312576143 0.47050700646456922 0.24963111222780321 0.50000000000001332 0.49999999999999561 0.49999999999999561 0.312576188949791 0.31458070521983672 0.3125761889497819 0.24769234054476261 0.52242103280823293 0.45098450226372488 0.50073570207385831 0.24848280280289631 0.52886631355986169 0.22088738526309029 0.22111069116742441 0.50004796911802929 0.312576188949791 0.31458070521983672 0.3125761889497819 0.45812322962036273 0.31024977578535839 0 0.32925244736090059 0.39615100178043078 0 0.5004045312576143 0.47050700646456922 0.24963111222780321 0.32925244736090059 0.39615100178043078 0 0.22345881830598399 0.5062398304147856 0.22345881830602041 0.32446581821364329 0.60020898676454815 0 0.5004045312576143 0.47050700646456922 0.24963111222780321 0.312576188949791 0.31458070521983672 0.3125761889497819 0.45812322962036273 0.31024977578535839 0 0.5003997205654479 0.21136633249797621 0.2258422409314382 0.5004045312576143 0.47050700646456922 0.24963111222780321 0.31610726166346748 0.18804489794572149 0 0.312576188949791 0.31458070521983672 0.3125761889497819 0.45812322962036273 0.31024977578535839 0 0.32925244736090059 0.39615100178043078 0 0.312576188949791 0.31458070521983672 0.3125761889497819 0.32925244736090059 0.39615100178043078 0 0.16929708765618309 0.30074819035915368 0 0.22345881830598399 0.5062398304147856 0.22345881830602041 0.31610726166346748 0.18804489794572149 0 0.312576188949791 0.31458070521983672 0.3125761889497819 0.45812322962036273 0.31024977578535839 0 0.5003997205654479 0.21136633249797621 0.2258422409314382 0.312576188949791 0.31458070521983672 0.3125761889497819 0.32925244736090059 0.39615100178043078 0 0.22345881830598399 0.5062398304147856 0.22345881830602041 0.5004045312576143 0.47050700646456922 0.24963111222780321 0.31610726166346748 0.18804489794572149 0 0.312576188949791 0.31458070521983672 0.3125761889497819 0.32925244736090059 0.39615100178043078 0 0.16929708765618309 0.30074819035915368 0 0.32925244736090059 0.39615100178043078 0 0.32446581821364329 0.60020898676454815 0 0.51961524226956368 0.5000000000025091 0 0.5004045312576143 0.47050700646456922 0.24963111222780321 0.45812322962036273 0.31024977578535839 0 0.32925244736090059 0.39615100178043078 0 0.51961524226956368 0.5000000000025091 0 0.5004045312576143 0.47050700646456922 0.24963111222780321 0.14641016151452901 0.14641016151487049 0 0.312576188949791 0.31458070521983672 0.3125761889497819 0.16929708765618309 0.30074819035915368 0 0 0.30074819035869899 0.1692970876565193 0.312576188949791 0.31458070521983672 0.3125761889497819 0.16929708765618309 0.30074819035915368 0 0 0.30074819035869899 0.1692970876565193 0.22345881830598399 0.5062398304147856 0.22345881830602041 0.17226134197279269 0.49836539647922029 0 0.16929708765618309 0.30074819035915368 0 0 0.49836539647891548 0.17226134197271731 0.22345881830598399 0.5062398304147856 0.22345881830602041 0.32925244736090059 0.39615100178043078 0 0.17226134197279269 0.49836539647922029 0 0.16929708765618309 0.30074819035915368 0 0.22345881830598399 0.5062398304147856 0.22345881830602041 0 0.20000000000083221 0 0.16929708765618309 0.30074819035915368 0 0 0.30074819035869899 0.1692970876565193 0 0.40000000000166441 0 0.16929708765618309 0.30074819035915368 0 0 0.30074819035869899 0.1692970876565193 0 0.49836539647891548 0.17226134197271731 0 0.40000000000166441 0 0.16929708765618309 0.30074819035915368 0 0 0.30074819035869899 0.1692970876565193 0 0.49836539647891548 0.17226134197271731 0.22345881830598399 0.5062398304147856 0.22345881830602041 0 0.39615100178029522 0.32925244736138171 0 0.30074819035869899 0.1692970876565193 0 0.49836539647891548 0.17226134197271731 0.22345881830598399 0.5062398304147856 0.22345881830602041 0.17226134197279269 0.49836539647922029 0 0 0.49836539647891548 0.17226134197271731 0 0.40000000000166441 0 0 0.60000000000138687 0 0.17226134197279269 0.49836539647922029 0 0.16929708765618309 0.30074819035915368 0 0 0.49836539647891548 0.17226134197271731 0 0.40000000000166441 0 0.22345881830598399 0.5062398304147856 0.22345881830602041 0 0.69449451837103049 0.15896804272139439 0 0.60020898676435996 0.32446581821286191 0.19259015428765269 0.77719169076434647 0.19259015428773721 0.1589680427220837 0.69449451837091269 0 0.22345881830598399 0.5062398304147856 0.22345881830602041 0 0.69449451837103049 0.15896804272139439 0.19259015428765269 0.77719169076434647 0.19259015428773721 0.17226134197279269 0.49836539647922029 0 0 0.60000000000138687 0 0.1589680427220837 0.69449451837091269 0 0 0.69449451837103049 0.15896804272139439 0.1589680427220837 0.69449451837091269 0 0.22345881830598399 0.5062398304147856 0.22345881830602041 0.19259015428765269 0.77719169076434647 0.19259015428773721 0.32446581821364329 0.60020898676454815 0 0.17226134197279269 0.49836539647922029 0 0 0.49836539647891548 0.17226134197271731 0 0.60000000000138687 0 0 0.69449451837103049 0.15896804272139439 0 0.60000000000138687 0 0.1589680427220837 0.69449451837091269 0 0 0.69449451837103049 0.15896804272139439 0 0.79999999999999982 0 0.1589680427220837 0.69449451837091269 0 0.19259015428765269 0.77719169076434647 0.19259015428773721 0.31067093463127438 0.81480288849489035 0 0.32446581821364329 0.60020898676454815 0 0.17226134197279269 0.49836539647922029 0 0.1589680427220837 0.69449451837091269 0 0.22345881830598399 0.5062398304147856 0.22345881830602041 0.32446581821364329 0.60020898676454815 0 0.17226134197279269 0.49836539647922029 0 0.1589680427220837 0.69449451837091269 0 0.22345881830598399 0.5062398304147856 0.22345881830602041 0 0.69449451837103049 0.15896804272139439 0 0.69449451837103049 0.15896804272139439 0 0.60020898676435996 0.32446581821286191 0 0.81480288849496429 0.31067093462946233 0.19259015428765269 0.77719169076434647 0.19259015428773721 0 0.49836539647891548 0.17226134197271731 0.22345881830598399 0.5062398304147856 0.22345881830602041 0 0.69449451837103049 0.15896804272139439 0 0.60020898676435996 0.32446581821286191 0.17226134197279269 0.49836539647922029 0 0 0.49836539647891548 0.17226134197271731 0.22345881830598399 0.5062398304147856 0.22345881830602041 0 0.69449451837103049 0.15896804272139439 0 0.60020898676435996 0.32446581821286191 0.22516916914780419 0.77057994845201627 0.48187244075707292 0.19259015428765269 0.77719169076434647 0.19259015428773721 0.35848654557803328 0.70013656506632282 0.30029870175293161 0 0.39615100178029522 0.32925244736138171 0.22345881830598399 0.5062398304147856 0.22345881830602041 0 0.60020898676435996 0.32446581821286191 0.24769234054476261 0.52242103280823293 0.45098450226372488 0 0.60020898676435996 0.32446581821286191 0 0.81480288849496429 0.31067093462946233 0.22516916914780419 0.77057994845201627 0.48187244075707292 0.19259015428765269 0.77719169076434647 0.19259015428773721 0.22345881830598399 0.5062398304147856 0.22345881830602041 0 0.60020898676435996 0.32446581821286191 0.19259015428765269 0.77719169076434647 0.19259015428773721 0.35848654557803328 0.70013656506632282 0.30029870175293161 0 0.39615100178029522 0.32925244736138171 0 0.49836539647891548 0.17226134197271731 0.22345881830598399 0.5062398304147856 0.22345881830602041 0 0.60020898676435996 0.32446581821286191 0 0.60020898676435996 0.32446581821286191 0.24769234054476261 0.52242103280823293 0.45098450226372488 0.22516916914780419 0.77057994845201627 0.48187244075707292 0.35848654557803328 0.70013656506632282 0.30029870175293161 0.22345881830598399 0.5062398304147856 0.22345881830602041 0 0.60020898676435996 0.32446581821286191 0.24769234054476261 0.52242103280823293 0.45098450226372488 0.35848654557803328 0.70013656506632282 0.30029870175293161 0 0.39615100178029522 0.32925244736138171 0 0.60020898676435996 0.32446581821286191 0.24769234054476261 0.52242103280823293 0.45098450226372488 0 0.50000000000237477 0.51961524226909872 0 0.60020898676435996 0.32446581821286191 0.24769234054476261 0.52242103280823293 0.45098450226372488 0 0.68801781652248195 0.45664527743358641 0 0.50000000000237477 0.51961524226909872 0.24769234054476261 0.52242103280823293 0.45098450226372488 0 0.68801781652248195 0.45664527743358641 0.22516916914780419 0.77057994845201627 0.48187244075707292 0 0.66416205381430016 0.59944234540882957 0 0.60020898676435996 0.32446581821286191 0 0.68801781652248195 0.45664527743358641 0 0.81480288849496429 0.31067093462946233 0.22516916914780419 0.77057994845201627 0.48187244075707292 0 0.60020898676435996 0.32446581821286191 0.24769234054476261 0.52242103280823293 0.45098450226372488 0 0.68801781652248195 0.45664527743358641 0.22516916914780419 0.77057994845201627 0.48187244075707292 0.22516916914780419 0.77057994845201627 0.48187244075707292 0.16929708765615539 1 0.30074819035677097 0.19259015428765269 0.77719169076434647 0.19259015428773721 0.32926555316115258 1 0.39615987727515128 0 0.81480288849496429 0.31067093462946233 0.22516916914780419 0.77057994845201627 0.48187244075707292 0.16929708765615539 1 0.30074819035677097 0.19259015428765269 0.77719169076434647 0.19259015428773721 0 0.81480288849496429 0.31067093462946233 0.22516916914780419 0.77057994845201627 0.48187244075707292 0.17226134197293 1 0.49836539647645101 0 0.83630110503664845 0.50803330197135654 0 0.68801781652248195 0.45664527743358641 0 0.81480288849496429 0.31067093462946233 0.22516916914780419 0.77057994845201627 0.48187244075707292 0 0.83630110503664845 0.50803330197135654 0 0.81480288849496429 0.31067093462946233 0 1 0.3999999999989749 0.17226134197293 1 0.49836539647645101 0 0.83630110503664845 0.50803330197135654 0 0.81480288849496429 0.31067093462946233 0 1 0.3999999999989749 0.17226134197293 1 0.49836539647645101 0.16929708765615539 1 0.30074819035677097 0 0.81480288849496429 0.31067093462946233 0.22516916914780419 0.77057994845201627 0.48187244075707292 0.17226134197293 1 0.49836539647645101 0.16929708765615539 1 0.30074819035677097 0.22516916914780419 0.77057994845201627 0.48187244075707292 0.17226134197293 1 0.49836539647645101 0.16929708765615539 1 0.30074819035677097 0.32926555316115258 1 0.39615987727515128 0 0.81480288849496429 0.31067093462946233 0 1 0.3999999999989749 0.16929708765615539 1 0.30074819035677097 0 1 0.19999999999955789 0 0.81480288849496429 0.31067093462946233 0.16929708765615539 1 0.30074819035677097 0 1 0.19999999999955789 0 0.85358983848655678 0.14641016151332509 0.16929708765615539 1 0.30074819035677097 0 1 0.19999999999955789 0 0.85358983848655678 0.14641016151332509 0.14641016151352521 1 0.1464101615131837 0 1 0 0.14641016151479211 0.85358983848543113 0 0.20000000000083221 1 0 0.14641016151352521 1 0.1464101615131837 0 1 0.19999999999955789 0 1 0 0 0.85358983848655678 0.14641016151332509 0.14641016151352521 1 0.1464101615131837 0 1 0 0 0.85358983848655678 0.14641016151332509 0.14641016151479211 0.85358983848543113 0 0.14641016151352521 1 0.1464101615131837 0 1 0 0 0.79999999999999982 0 0 0.85358983848655678 0.14641016151332509 0.14641016151479211 0.85358983848543113 0 0.1589680427220837 0.69449451837091269 0 0 0.69449451837103049 0.15896804272139439 0 0.85358983848655678 0.14641016151332509 0.19259015428765269 0.77719169076434647 0.19259015428773721 0.1589680427220837 0.69449451837091269 0 0 0.79999999999999982 0 0 0.85358983848655678 0.14641016151332509 0.14641016151479211 0.85358983848543113 0 0 0.85358983848655678 0.14641016151332509 0.19259015428765269 0.77719169076434647 0.19259015428773721 0.14641016151479211 0.85358983848543113 0 0.14641016151352521 1 0.1464101615131837 0.1589680427220837 0.69449451837091269 0 0 0.69449451837103049 0.15896804272139439 0 0.79999999999999982 0 0 0.85358983848655678 0.14641016151332509 0.1589680427220837 0.69449451837091269 0 0 0.85358983848655678 0.14641016151332509 0.19259015428765269 0.77719169076434647 0.19259015428773721 0.14641016151479211 0.85358983848543113 0 0 0.81480288849496429 0.31067093462946233 0.16929708765615539 1 0.30074819035677097 0 0.85358983848655678 0.14641016151332509 0.19259015428765269 0.77719169076434647 0.19259015428773721 0 0.69449451837103049 0.15896804272139439 0 0.81480288849496429 0.31067093462946233 0 0.85358983848655678 0.14641016151332509 0.19259015428765269 0.77719169076434647 0.19259015428773721 0.19259015428765269 0.77719169076434647 0.19259015428773721 0.14641016151479211 0.85358983848543113 0 0.14641016151352521 1 0.1464101615131837 0.31067093463127438 0.81480288849489035 0 0.1589680427220837 0.69449451837091269 0 0.19259015428765269 0.77719169076434647 0.19259015428773721 0.14641016151479211 0.85358983848543113 0 0.31067093463127438 0.81480288849489035 0 0.14641016151479211 0.85358983848543113 0 0.20000000000083221 1 0 0.14641016151352521 1 0.1464101615131837 0.31067093463127438 0.81480288849489035 0 0.20000000000083221 1 0 0.14641016151352521 1 0.1464101615131837 0.31635851157303152 1 0.18818969570840721 0.31067093463127438 0.81480288849489035 0 0.19259015428765269 0.77719169076434647 0.19259015428773721 0.14641016151352521 1 0.1464101615131837 0.31635851157303152 1 0.18818969570840721 0.31067093463127438 0.81480288849489035 0 0.16929708765615539 1 0.30074819035677097 0.19259015428765269 0.77719169076434647 0.19259015428773721 0.14641016151352521 1 0.1464101615131837 0.31635851157303152 1 0.18818969570840721 0.16929708765615539 1 0.30074819035677097 0 0.85358983848655678 0.14641016151332509 0.19259015428765269 0.77719169076434647 0.19259015428773721 0.14641016151352521 1 0.1464101615131837 0.19259015428765269 0.77719169076434647 0.19259015428773721 0.31635851157303152 1 0.18818969570840721 0.35848654557803328 0.70013656506632282 0.30029870175293161 0.52894546611500048 0.79133000140429866 0.2082794184507949 0.19259015428765269 0.77719169076434647 0.19259015428773721 0.31067093463127438 0.81480288849489035 0 0.35848654557803328 0.70013656506632282 0.30029870175293161 0.52894546611500048 0.79133000140429866 0.2082794184507949 0.19259015428765269 0.77719169076434647 0.19259015428773721 0.31635851157303152 1 0.18818969570840721 0.31067093463127438 0.81480288849489035 0 0.52894546611500048 0.79133000140429866 0.2082794184507949 0.20000000000083221 1 0 0.31635851157303152 1 0.18818969570840721 0.31067093463127438 0.81480288849489035 0 0.40000000000166441 1 0 0.31635851157303152 1 0.18818969570840721 0.31067093463127438 0.81480288849489035 0 0.50803330197353713 0.83630110503668265 0 0.52894546611500048 0.79133000140429866 0.2082794184507949 0.31067093463127438 0.81480288849489035 0 0.45664527743509797 0.68801781652245086 0 0.50803330197353713 0.83630110503668265 0 0.52894546611500048 0.79133000140429866 0.2082794184507949 0.31635851157303152 1 0.18818969570840721 0.40000000000166441 1 0 0.51133491425992716 1 0.16370661204795281 0.50803330197353713 0.83630110503668265 0 0.31635851157303152 1 0.18818969570840721 0.31067093463127438 0.81480288849489035 0 0.40000000000166441 1 0 0.50803330197353713 0.83630110503668265 0 0.31635851157303152 1 0.18818969570840721 0.45820186441796368 1 0.31030302876579191 0.51133491425992716 1 0.16370661204795281 0.52894546611500048 0.79133000140429866 0.2082794184507949 0.31635851157303152 1 0.18818969570840721 0.51133491425992716 1 0.16370661204795281 0.50803330197353713 0.83630110503668265 0 0.52894546611500048 0.79133000140429866 0.2082794184507949 0.22516916914780419 0.77057994845201627 0.48187244075707292 0.32926555316115258 1 0.39615987727515128 0.35848654557803328 0.70013656506632282 0.30029870175293161 0.49983993748706529 0.75039103705932653 0.52967335724801234 0.22516916914780419 0.77057994845201627 0.48187244075707292 0.19259015428765269 0.77719169076434647 0.19259015428773721 0.32926555316115258 1 0.39615987727515128 0.35848654557803328 0.70013656506632282 0.30029870175293161 0.31635851157303152 1 0.18818969570840721 0.45820186441796368 1 0.31030302876579191 0.32926555316115258 1 0.39615987727515128 0.35848654557803328 0.70013656506632282 0.30029870175293161 0.31635851157303152 1 0.18818969570840721 0.45820186441796368 1 0.31030302876579191 0.35848654557803328 0.70013656506632282 0.30029870175293161 0.52894546611500048 0.79133000140429866 0.2082794184507949 0.19259015428765269 0.77719169076434647 0.19259015428773721 0.31635851157303152 1 0.18818969570840721 0.32926555316115258 1 0.39615987727515128 0.35848654557803328 0.70013656506632282 0.30029870175293161 0.45820186441796368 1 0.31030302876579191 0.35848654557803328 0.70013656506632282 0.30029870175293161 0.52894546611500048 0.79133000140429866 0.2082794184507949 0.49983993748706529 0.75039103705932653 0.52967335724801234 0.45820186441796368 1 0.31030302876579191 0.32926555316115258 1 0.39615987727515128 0.35848654557803328 0.70013656506632282 0.30029870175293161 0.49983993748706529 0.75039103705932653 0.52967335724801234 0.16929708765615539 1 0.30074819035677097 0.19259015428765269 0.77719169076434647 0.19259015428773721 0.31635851157303152 1 0.18818969570840721 0.32926555316115258 1 0.39615987727515128 0.22516916914780419 0.77057994845201627 0.48187244075707292 0.17226134197293 1 0.49836539647645101 0.32926555316115258 1 0.39615987727515128 0.32448110831226962 1 0.6002015905153204 0.45820186441796368 1 0.31030302876579191 0.32926555316115258 1 0.39615987727515128 0.51961524227008238 1 0.49999999999872219 0.49983993748706529 0.75039103705932653 0.52967335724801234 0.24769234054476261 0.52242103280823293 0.45098450226372488 0.22516916914780419 0.77057994845201627 0.48187244075707292 0.35848654557803328 0.70013656506632282 0.30029870175293161 0.49983993748706529 0.75039103705932653 0.52967335724801234 0.24769234054476261 0.52242103280823293 0.45098450226372488 0.35848654557803328 0.70013656506632282 0.30029870175293161 0.5004045312576143 0.47050700646456922 0.24963111222780321 0.50000000000001332 0.49999999999999561 0.49999999999999561 0.24769234054476261 0.52242103280823293 0.45098450226372488 0.35848654557803328 0.70013656506632282 0.30029870175293161 0.50000000000001332 0.49999999999999561 0.49999999999999561 0.49983993748706529 0.75039103705932653 0.52967335724801234 0.22345881830598399 0.5062398304147856 0.22345881830602041 0.24769234054476261 0.52242103280823293 0.45098450226372488 0.35848654557803328 0.70013656506632282 0.30029870175293161 0.5004045312576143 0.47050700646456922 0.24963111222780321 0.22345881830598399 0.5062398304147856 0.22345881830602041 0.35848654557803328 0.70013656506632282 0.30029870175293161 0.32446581821364329 0.60020898676454815 0 0.5004045312576143 0.47050700646456922 0.24963111222780321 0.31067093463127438 0.81480288849489035 0 0.35848654557803328 0.70013656506632282 0.30029870175293161 0.32446581821364329 0.60020898676454815 0 0.45664527743509797 0.68801781652245086 0 0.22345881830598399 0.5062398304147856 0.22345881830602041 0.19259015428765269 0.77719169076434647 0.19259015428773721 0.35848654557803328 0.70013656506632282 0.30029870175293161 0.32446581821364329 0.60020898676454815 0 0.35848654557803328 0.70013656506632282 0.30029870175293161 0.32446581821364329 0.60020898676454815 0 0.45664527743509797 0.68801781652245086 0 0.5004045312576143 0.47050700646456922 0.24963111222780321 0.19259015428765269 0.77719169076434647 0.19259015428773721 0.31067093463127438 0.81480288849489035 0 0.35848654557803328 0.70013656506632282 0.30029870175293161 0.32446581821364329 0.60020898676454815 0 0.31067093463127438 0.81480288849489035 0 0.35848654557803328 0.70013656506632282 0.30029870175293161 0.45664527743509797 0.68801781652245086 0 0.52894546611500048 0.79133000140429866 0.2082794184507949 0.35848654557803328 0.70013656506632282 0.30029870175293161 0.45664527743509797 0.68801781652245086 0 0.52894546611500048 0.79133000140429866 0.2082794184507949 0.5004045312576143 0.47050700646456922 0.24963111222780321 0.32925244736090059 0.39615100178043078 0 0.17226134197279269 0.49836539647922029 0 0.22345881830598399 0.5062398304147856 0.22345881830602041 0.32446581821364329 0.60020898676454815 0 0.32446581821364329 0.60020898676454815 0 0.45664527743509797 0.68801781652245086 0 0.51961524226956368 0.5000000000025091 0 0.5004045312576143 0.47050700646456922 0.24963111222780321 0.59944234541082553 0.66416205381394655 0 0.72722573386132172 0.60922248848163563 0 0.68456408135056701 0.68607101396845627 0.31096060989957619 0.77713227489941183 0.50036915849493024 0.21774643624003751 0.59944234541082553 0.66416205381394655 0 0.68456408135056701 0.68607101396845627 0.31096060989957619 0.77713227489941183 0.50036915849493024 0.21774643624003751 0.5004045312576143 0.47050700646456922 0.24963111222780321 0.45664527743509797 0.68801781652245086 0 0.59944234541082553 0.66416205381394655 0 0.52894546611500048 0.79133000140429866 0.2082794184507949 0.5004045312576143 0.47050700646456922 0.24963111222780321 0.51961524226956368 0.5000000000025091 0 0.59944234541082553 0.66416205381394655 0 0.67320508075660079 0.46954769941202479 0 0.5004045312576143 0.47050700646456922 0.24963111222780321 0.59944234541082553 0.66416205381394655 0 0.68456408135056701 0.68607101396845627 0.31096060989957619 0.52894546611500048 0.79133000140429866 0.2082794184507949 0.5004045312576143 0.47050700646456922 0.24963111222780321 0.59944234541082553 0.66416205381394655 0 0.77713227489941183 0.50036915849493024 0.21774643624003751 0.67320508075660079 0.46954769941202479 0 0.5004045312576143 0.47050700646456922 0.24963111222780321 0.59944234541082553 0.66416205381394655 0 0.68456408135056701 0.68607101396845627 0.31096060989957619 0.52894546611500048 0.79133000140429866 0.2082794184507949 0.81582077266975173 0.77657922508894406 0.18483084990574741 0.45664527743509797 0.68801781652245086 0 0.51961524226956368 0.5000000000025091 0 0.59944234541082553 0.66416205381394655 0 0.5004045312576143 0.47050700646456922 0.24963111222780321 0.59944234541082553 0.66416205381394655 0 0.72722573386132172 0.60922248848163563 0 0.68456408135056701 0.68607101396845627 0.31096060989957619 0.81582077266975173 0.77657922508894406 0.18483084990574741 0.45664527743509797 0.68801781652245086 0 0.59944234541082553 0.66416205381394655 0 0.50803330197353713 0.83630110503668265 0 0.52894546611500048 0.79133000140429866 0.2082794184507949 0.59944234541082553 0.66416205381394655 0 0.72722573386132172 0.60922248848163563 0 0.7054234997318658 0.80860557108880304 0 0.81582077266975173 0.77657922508894406 0.18483084990574741 0.59944234541082553 0.66416205381394655 0 0.72722573386132172 0.60922248848163563 0 0.77713227489941183 0.50036915849493024 0.21774643624003751 0.67320508075660079 0.46954769941202479 0 0.35848654557803328 0.70013656506632282 0.30029870175293161 0.68456408135056701 0.68607101396845627 0.31096060989957619 0.52894546611500048 0.79133000140429866 0.2082794184507949 0.5004045312576143 0.47050700646456922 0.24963111222780321 0.35848654557803328 0.70013656506632282 0.30029870175293161 0.68456408135056701 0.68607101396845627 0.31096060989957619 0.50000000000001332 0.49999999999999561 0.49999999999999561 0.49983993748706529 0.75039103705932653 0.52967335724801234 0.35848654557803328 0.70013656506632282 0.30029870175293161 0.68456408135056701 0.68607101396845627 0.31096060989957619 0.5004045312576143 0.47050700646456922 0.24963111222780321 0.50000000000001332 0.49999999999999561 0.49999999999999561 0.68456408135056701 0.68607101396845627 0.31096060989957619 0.7504488434426726 0.53051757989633308 0.49836643074154852 0.5004045312576143 0.47050700646456922 0.24963111222780321 0.50000000000001332 0.49999999999999561 0.49999999999999561 0.68456408135056701 0.68607101396845627 0.31096060989957619 0.77374673111774417 0.78860835645735528 0.49829081152968557 0.7504488434426726 0.53051757989633308 0.49836643074154852 0.49983993748706529 0.75039103705932653 0.52967335724801234 0.68456408135056701 0.68607101396845627 0.31096060989957619 0.7504488434426726 0.53051757989633308 0.49836643074154852 0.77713227489941183 0.50036915849493024 0.21774643624003751 0.5004045312576143 0.47050700646456922 0.24963111222780321 0.35848654557803328 0.70013656506632282 0.30029870175293161 0.68456408135056701 0.68607101396845627 0.31096060989957619 0.52894546611500048 0.79133000140429866 0.2082794184507949 0.49983993748706529 0.75039103705932653 0.52967335724801234 0.68456408135056701 0.68607101396845627 0.31096060989957619 0.7504488434426726 0.53051757989633308 0.49836643074154852 0.50000000000001332 0.49999999999999561 0.49999999999999561 0.49983993748706529 0.75039103705932653 0.52967335724801234 0.68456408135056701 0.68607101396845627 0.31096060989957619 0.61068558124908323 1 0.33127740899601937 0.52894546611500048 0.79133000140429866 0.2082794184507949 0.81582077266975173 0.77657922508894406 0.18483084990574741 0.68456408135056701 0.68607101396845627 0.31096060989957619 0.61068558124908323 1 0.33127740899601937 0.77374673111774417 0.78860835645735528 0.49829081152968557 0.49983993748706529 0.75039103705932653 0.52967335724801234 0.61068558124908323 1 0.33127740899601937 0.77374673111774417 0.78860835645735528 0.49829081152968557 0.68240285647621723 1 0.52310058211166854 0.49983993748706529 0.75039103705932653 0.52967335724801234 0.68456408135056701 0.68607101396845627 0.31096060989957619 0.61068558124908323 1 0.33127740899601937 0.81582077266975173 0.77657922508894406 0.18483084990574741 0.82751535738810444 1 0.31407731390515509 0.45820186441796368 1 0.31030302876579191 0.61068558124908323 1 0.33127740899601937 0.52894546611500048 0.79133000140429866 0.2082794184507949 0.49983993748706529 0.75039103705932653 0.52967335724801234 0.68456408135056701 0.68607101396845627 0.31096060989957619 0.61068558124908323 1 0.33127740899601937 0.82751535738810444 1 0.31407731390515509 0.77374673111774417 0.78860835645735528 0.49829081152968557 0.68456408135056701 0.68607101396845627 0.31096060989957619 0.61068558124908323 1 0.33127740899601937 0.52894546611500048 0.79133000140429866 0.2082794184507949 0.49983993748706529 0.75039103705932653 0.52967335724801234 0.51961524227008238 1 0.49999999999872219 0.61068558124908323 1 0.33127740899601937 0.68240285647621723 1 0.52310058211166854 0.49983993748706529 0.75039103705932653 0.52967335724801234 0.45820186441796368 1 0.31030302876579191 0.51961524227008238 1 0.49999999999872219 0.61068558124908323 1 0.33127740899601937 0.49983993748706529 0.75039103705932653 0.52967335724801234 0.61068558124908323 1 0.33127740899601937 0.82751535738810444 1 0.31407731390515509 0.77374673111774417 0.78860835645735528 0.49829081152968557 0.68240285647621723 1 0.52310058211166854 0.45820186441796368 1 0.31030302876579191 0.61068558124908323 1 0.33127740899601937 0.51133491425992716 1 0.16370661204795281 0.52894546611500048 0.79133000140429866 0.2082794184507949 0.61068558124908323 1 0.33127740899601937 0.51133491425992716 1 0.16370661204795281 0.52894546611500048 0.79133000140429866 0.2082794184507949 0.69988642339594154 1 0.16938214347578889 0.61068558124908323 1 0.33127740899601937 0.52894546611500048 0.79133000140429866 0.2082794184507949 0.69988642339594154 1 0.16938214347578889 0.81582077266975173 0.77657922508894406 0.18483084990574741 0.52894546611500048 0.79133000140429866 0.2082794184507949 0.7054234997318658 0.80860557108880304 0 0.69988642339594154 1 0.16938214347578889 0.81582077266975173 0.77657922508894406 0.18483084990574741 0.51133491425992716 1 0.16370661204795281 0.50803330197353713 0.83630110503668265 0 0.52894546611500048 0.79133000140429866 0.2082794184507949 0.69988642339594154 1 0.16938214347578889 0.59944234541082553 0.66416205381394655 0 0.52894546611500048 0.79133000140429866 0.2082794184507949 0.7054234997318658 0.80860557108880304 0 0.81582077266975173 0.77657922508894406 0.18483084990574741 0.51133491425992716 1 0.16370661204795281 0.60000000000138687 1 0 0.50803330197353713 0.83630110503668265 0 0.69988642339594154 1 0.16938214347578889 0.40000000000166441 1 0 0.51133491425992716 1 0.16370661204795281 0.60000000000138687 1 0 0.50803330197353713 0.83630110503668265 0 0.59944234541082553 0.66416205381394655 0 0.50803330197353713 0.83630110503668265 0 0.52894546611500048 0.79133000140429866 0.2082794184507949 0.7054234997318658 0.80860557108880304 0 0.50803330197353713 0.83630110503668265 0 0.52894546611500048 0.79133000140429866 0.2082794184507949 0.7054234997318658 0.80860557108880304 0 0.69988642339594154 1 0.16938214347578889 0.60000000000138687 1 0 0.7054234997318658 0.80860557108880304 0 0.69988642339594154 1 0.16938214347578889 0.79999999999999982 1 0 0.60000000000138687 1 0 0.50803330197353713 0.83630110503668265 0 0.7054234997318658 0.80860557108880304 0 0.69988642339594154 1 0.16938214347578889 0.61068558124908323 1 0.33127740899601937 0.69988642339594154 1 0.16938214347578889 0.81582077266975173 0.77657922508894406 0.18483084990574741 0.82751535738810444 1 0.31407731390515509 0.69988642339594154 1 0.16938214347578889 0.85358983848665693 1 0.14641016151322461 0.81582077266975173 0.77657922508894406 0.18483084990574741 0.82751535738810444 1 0.31407731390515509 0.69988642339594154 1 0.16938214347578889 0.85358983848665693 1 0.14641016151322461 0.85358983848666903 0.85358983848666903 0 0.81582077266975173 0.77657922508894406 0.18483084990574741 0.85358983848665693 1 0.14641016151322461 0.81582077266975173 0.77657922508894406 0.18483084990574741 1 0.85358983848655678 0.14641016151332509 0.82751535738810444 1 0.31407731390515509 0.69988642339594154 1 0.16938214347578889 0.85358983848665693 1 0.14641016151322461 0.79999999999999982 1 0 0.85358983848666903 0.85358983848666903 0 0.7054234997318658 0.80860557108880304 0 0.69988642339594154 1 0.16938214347578889 0.79999999999999982 1 0 0.85358983848666903 0.85358983848666903 0 0.7054234997318658 0.80860557108880304 0 0.85358983848666903 0.85358983848666903 0 0.81582077266975173 0.77657922508894406 0.18483084990574741 0.85173693729186062 0.69992182039541118 0 0.7054234997318658 0.80860557108880304 0 0.69988642339594154 1 0.16938214347578889 0.85358983848666903 0.85358983848666903 0 0.81582077266975173 0.77657922508894406 0.18483084990574741 0.81582077266975173 0.77657922508894406 0.18483084990574741 1 0.85358983848655678 0.14641016151332509 1 0.8148028884949543 0.31067093462944562 1 0.69449451837101916 0.15896804272136739 0.81582077266975173 0.77657922508894406 0.18483084990574741 1 0.85358983848655678 0.14641016151332509 0.82751535738810444 1 0.31407731390515509 1 0.8148028884949543 0.31067093462944562 0.85358983848666903 0.85358983848666903 0 0.81582077266975173 0.77657922508894406 0.18483084990574741 1 0.85358983848655678 0.14641016151332509 1 0.79999999999999982 0 0.81582077266975173 0.77657922508894406 0.18483084990574741 1 0.85358983848655678 0.14641016151332509 1 0.79999999999999982 0 1 0.69449451837101916 0.15896804272136739 0.85358983848665693 1 0.14641016151322461 0.85358983848666903 0.85358983848666903 0 0.81582077266975173 0.77657922508894406 0.18483084990574741 1 0.85358983848655678 0.14641016151332509 0.85358983848666903 0.85358983848666903 0 0.81582077266975173 0.77657922508894406 0.18483084990574741 1 0.79999999999999982 0 0.85173693729186062 0.69992182039541118 0 0.85358983848665693 1 0.14641016151322461 0.85358983848666903 0.85358983848666903 0 1 0.85358983848655678 0.14641016151332509 1 1 0 0.85358983848665693 1 0.14641016151322461 1 0.85358983848655678 0.14641016151332509 1 1 0 1 1 0.19999999999955789 0.85358983848666903 0.85358983848666903 0 1 0.85358983848655678 0.14641016151332509 1 0.79999999999999982 0 1 1 0 0.85358983848665693 1 0.14641016151322461 0.79999999999999982 1 0 0.85358983848666903 0.85358983848666903 0 1 1 0 0.85358983848665693 1 0.14641016151322461 1 0.85358983848655678 0.14641016151332509 1 1 0.19999999999955789 0.82751535738810444 1 0.31407731390515509 1 0.85358983848655678 0.14641016151332509 1 1 0.19999999999955789 0.82751535738810444 1 0.31407731390515509 1 0.8148028884949543 0.31067093462944562 1 1 0.19999999999955789 0.82751535738810444 1 0.31407731390515509 1 1 0.3999999999989749 1 0.8148028884949543 0.31067093462944562 0.68456408135056701 0.68607101396845627 0.31096060989957619 0.81582077266975173 0.77657922508894406 0.18483084990574741 0.82751535738810444 1 0.31407731390515509 0.77374673111774417 0.78860835645735528 0.49829081152968557 0.81582077266975173 0.77657922508894406 0.18483084990574741 0.82751535738810444 1 0.31407731390515509 0.77374673111774417 0.78860835645735528 0.49829081152968557 1 0.8148028884949543 0.31067093462944562 0.68456408135056701 0.68607101396845627 0.31096060989957619 0.81582077266975173 0.77657922508894406 0.18483084990574741 0.77374673111774417 0.78860835645735528 0.49829081152968557 1 0.8148028884949543 0.31067093462944562 0.82751535738810444 1 0.31407731390515509 0.77374673111774417 0.78860835645735528 0.49829081152968557 1 0.8148028884949543 0.31067093462944562 0.86762395692956074 1 0.5060815484123421 0.82751535738810444 1 0.31407731390515509 0.77374673111774417 0.78860835645735528 0.49829081152968557 0.86762395692956074 1 0.5060815484123421 0.68240285647621723 1 0.52310058211166854 0.82751535738810444 1 0.31407731390515509 1 1 0.3999999999989749 1 0.8148028884949543 0.31067093462944562 0.86762395692956074 1 0.5060815484123421 1 1 0.3999999999989749 1 0.8148028884949543 0.31067093462944562 1 0.83630110503662825 0.50803330197135588 0.86762395692956074 1 0.5060815484123421 0.77374673111774417 0.78860835645735528 0.49829081152968557 1 0.8148028884949543 0.31067093462944562 1 0.83630110503662825 0.50803330197135588 0.86762395692956074 1 0.5060815484123421 0.77374673111774417 0.78860835645735528 0.49829081152968557 1 0.8148028884949543 0.31067093462944562 1 0.68975022421527898 0.45812322962078778 1 0.83630110503662825 0.50803330197135588 0.7504488434426726 0.53051757989633308 0.49836643074154852 1 0.60020898676431722 0.32446581821274012 0.77713227489941183 0.50036915849493024 0.21774643624003751 1 0.39615100178016449 0.32925244736082498 0.68456408135056701 0.68607101396845627 0.31096060989957619 1 0.68975022421527898 0.45812322962078778 0.7504488434426726 0.53051757989633308 0.49836643074154852 1 0.60020898676431722 0.32446581821274012 0.68456408135056701 0.68607101396845627 0.31096060989957619 0.77374673111774417 0.78860835645735528 0.49829081152968557 1 0.8148028884949543 0.31067093462944562 1 0.68975022421527898 0.45812322962078778 0.68456408135056701 0.68607101396845627 0.31096060989957619 0.77374673111774417 0.78860835645735528 0.49829081152968557 1 0.68975022421527898 0.45812322962078778 0.7504488434426726 0.53051757989633308 0.49836643074154852 0.68456408135056701 0.68607101396845627 0.31096060989957619 1 0.8148028884949543 0.31067093462944562 1 0.68975022421527898 0.45812322962078778 1 0.60020898676431722 0.32446581821274012 0.68456408135056701 0.68607101396845627 0.31096060989957619 0.7504488434426726 0.53051757989633308 0.49836643074154852 1 0.60020898676431722 0.32446581821274012 0.77713227489941183 0.50036915849493024 0.21774643624003751 0.68456408135056701 0.68607101396845627 0.31096060989957619 0.81582077266975173 0.77657922508894406 0.18483084990574741 1 0.8148028884949543 0.31067093462944562 1 0.60020898676431722 0.32446581821274012 0.68456408135056701 0.68607101396845627 0.31096060989957619 0.81582077266975173 0.77657922508894406 0.18483084990574741 1 0.60020898676431722 0.32446581821274012 0.77713227489941183 0.50036915849493024 0.21774643624003751 1 0.68975022421527898 0.45812322962078778 0.7504488434426726 0.53051757989633308 0.49836643074154852 1 0.60020898676431722 0.32446581821274012 1 0.50000000000229983 0.51961524226898759 0.7504488434426726 0.53051757989633308 0.49836643074154852 1 0.60020898676431722 0.32446581821274012 1 0.39615100178016449 0.32925244736082498 1 0.50000000000229983 0.51961524226898759 1 0.69449451837101916 0.15896804272136739 0.77713227489941183 0.50036915849493024 0.21774643624003751 0.84191918937744659 0.51186163305076127 0 1 0.49836539647890021 0.17226134197269399 0.81582077266975173 0.77657922508894406 0.18483084990574741 1 0.69449451837101916 0.15896804272136739 0.77713227489941183 0.50036915849493024 0.21774643624003751 0.85173693729186062 0.69992182039541118 0 0.81582077266975173 0.77657922508894406 0.18483084990574741 1 0.60020898676431722 0.32446581821274012 1 0.69449451837101916 0.15896804272136739 0.77713227489941183 0.50036915849493024 0.21774643624003751 1 0.60020898676431722 0.32446581821274012 1 0.69449451837101916 0.15896804272136739 0.77713227489941183 0.50036915849493024 0.21774643624003751 1 0.49836539647890021 0.17226134197269399 0.72722573386132172 0.60922248848163563 0 0.81582077266975173 0.77657922508894406 0.18483084990574741 0.77713227489941183 0.50036915849493024 0.21774643624003751 0.85173693729186062 0.69992182039541118 0 0.72722573386132172 0.60922248848163563 0 0.68456408135056701 0.68607101396845627 0.31096060989957619 0.81582077266975173 0.77657922508894406 0.18483084990574741 0.77713227489941183 0.50036915849493024 0.21774643624003751 0.81582077266975173 0.77657922508894406 0.18483084990574741 1 0.8148028884949543 0.31067093462944562 1 0.60020898676431722 0.32446581821274012 1 0.69449451837101916 0.15896804272136739 0.72722573386132172 0.60922248848163563 0 0.77713227489941183 0.50036915849493024 0.21774643624003751 0.84191918937744659 0.51186163305076127 0 0.67320508075660079 0.46954769941202479 0 1 0.69449451837101916 0.15896804272136739 0.77713227489941183 0.50036915849493024 0.21774643624003751 0.84191918937744659 0.51186163305076127 0 0.85173693729186062 0.69992182039541118 0 0.72722573386132172 0.60922248848163563 0 0.77713227489941183 0.50036915849493024 0.21774643624003751 0.84191918937744659 0.51186163305076127 0 0.85173693729186062 0.69992182039541118 0 0.72722573386132172 0.60922248848163563 0 0.7054234997318658 0.80860557108880304 0 0.81582077266975173 0.77657922508894406 0.18483084990574741 0.85173693729186062 0.69992182039541118 0 1 0.79999999999999982 0 1 0.69449451837101916 0.15896804272136739 0.85173693729186062 0.69992182039541118 0 1 0.60000000000138687 0 0.81582077266975173 0.77657922508894406 0.18483084990574741 1 0.79999999999999982 0 1 0.69449451837101916 0.15896804272136739 0.85173693729186062 0.69992182039541118 0 1 0.69449451837101916 0.15896804272136739 0.84191918937744659 0.51186163305076127 0 0.85173693729186062 0.69992182039541118 0 1 0.60000000000138687 0 1 0.69449451837101916 0.15896804272136739 0.84191918937744659 0.51186163305076127 0 1 0.60000000000138687 0 1 0.49836539647890021 0.17226134197269399 0.84191918937744659 0.51186163305076127 0 1 0.60000000000138687 0 1 0.40000000000166441 0 1 0.49836539647890021 0.17226134197269399 1 0.30074819035868428 0.16929708765640439 0.80839867011859301 0.31807971531731721 0 0.85358983848570813 0.1464101615143738 0 0.68777432594363841 0.31447353261427252 0.31366778418247038 0.84191918937744659 0.51186163305076127 0 1 0.40000000000166441 0 1 0.49836539647890021 0.17226134197269399 0.80839867011859301 0.31807971531731721 0 1 0.40000000000166441 0 1 0.49836539647890021 0.17226134197269399 1 0.30074819035868428 0.16929708765640439 0.80839867011859301 0.31807971531731721 0 0.77713227489941183 0.50036915849493024 0.21774643624003751 1 0.30074819035868428 0.16929708765640439 0.80839867011859301 0.31807971531731721 0 0.68777432594363841 0.31447353261427252 0.31366778418247038 0.77713227489941183 0.50036915849493024 0.21774643624003751 0.84191918937744659 0.51186163305076127 0 0.80839867011859301 0.31807971531731721 0 0.67320508075660079 0.46954769941202479 0 0.77713227489941183 0.50036915849493024 0.21774643624003751 0.84191918937744659 0.51186163305076127 0 1 0.49836539647890021 0.17226134197269399 0.80839867011859301 0.31807971531731721 0 0.77713227489941183 0.50036915849493024 0.21774643624003751 1 0.49836539647890021 0.17226134197269399 1 0.30074819035868428 0.16929708765640439 0.80839867011859301 0.31807971531731721 0 0.77713227489941183 0.50036915849493024 0.21774643624003751 1 0.49836539647890021 0.17226134197269399 1 0.30074819035868428 0.16929708765640439 1 0.39615100178016449 0.32925244736082498 1 0.40000000000166441 0 1 0.30074819035868428 0.16929708765640439 0.80839867011859301 0.31807971531731721 0 1 0.20000000000083221 0 1 0.30074819035868428 0.16929708765640439 0.80839867011859301 0.31807971531731721 0 1 0.20000000000083221 0 0.85358983848570813 0.1464101615143738 0 1 0.30074819035868428 0.16929708765640439 1 0.20000000000083221 0 1 0.14641016151453831 0.14641016151419689 0.85358983848570813 0.1464101615143738 0 0.85358983848650494 0 0.1464101615132356 0.68592116352011878 0 0.1724872797865501 0.68777432594363841 0.31447353261427252 0.31366778418247038 0.83057691269884504 0 0.30018449338884379 0.80839867011859301 0.31807971531731721 0 0.85358983848570813 0.1464101615143738 0 0.69380980079964416 0.1619694349440581 0 0.68777432594363841 0.31447353261427252 0.31366778418247038 1 0.30074819035868428 0.16929708765640439 1 0.14641016151453831 0.14641016151419689 0.68777432594363841 0.31447353261427252 0.31366778418247038 1 0.18804489794556911 0.3161072616634244 1 0.30074819035868428 0.16929708765640439 1 0.14641016151453831 0.14641016151419689 0.85358983848570813 0.1464101615143738 0 0.68777432594363841 0.31447353261427252 0.31366778418247038 1 0.14641016151453831 0.14641016151419689 0.85358983848650494 0 0.1464101615132356 0.68777432594363841 0.31447353261427252 0.31366778418247038 0.83057691269884504 0 0.30018449338884379 1 0.14641016151453831 0.14641016151419689 0.85358983848650494 0 0.1464101615132356 0.85358983848570813 0.1464101615143738 0 0.68777432594363841 0.31447353261427252 0.31366778418247038 0.85358983848650494 0 0.1464101615132356 0.85358983848570813 0.1464101615143738 0 0.69380980079964416 0.1619694349440581 0 0.68777432594363841 0.31447353261427252 0.31366778418247038 1 0.14641016151453831 0.14641016151419689 1 0 0.19999999999955789 0.85358983848650494 0 0.1464101615132356 0.83057691269884504 0 0.30018449338884379 1 0.14641016151453831 0.14641016151419689 1 0 0.19999999999955789 0.83057691269884504 0 0.30018449338884379 1 0.18804489794556911 0.3161072616634244 1 0 0 0.79999999999947335 0 0 0.85358983848650494 0 0.1464101615132356 0.85358983848570813 0.1464101615143738 0 1 0.14641016151453831 0.14641016151419689 1 0 0.19999999999955789 1 0 0 0.85358983848650494 0 0.1464101615132356 1 0.20000000000083221 0 1 0.14641016151453831 0.14641016151419689 1 0 0 0.85358983848570813 0.1464101615143738 0 1 0.14641016151453831 0.14641016151419689 1 0 0 0.85358983848650494 0 0.1464101615132356 0.85358983848570813 0.1464101615143738 0 0.79999999999947335 0 0 0.85358983848650494 0 0.1464101615132356 0.69380980079964416 0.1619694349440581 0 0.68592116352011878 0 0.1724872797865501 0.79999999999947335 0 0 0.85358983848650494 0 0.1464101615132356 0.85358983848570813 0.1464101615143738 0 0.69380980079964416 0.1619694349440581 0 0.69380980079964416 0.1619694349440581 0 0.68592116352011878 0 0.1724872797865501 0.5003997205654479 0.21136633249797621 0.2258422409314382 0.68777432594363841 0.31447353261427252 0.31366778418247038 0.85358983848650494 0 0.1464101615132356 0.69380980079964416 0.1619694349440581 0 0.68592116352011878 0 0.1724872797865501 0.68777432594363841 0.31447353261427252 0.31366778418247038 0.79999999999947335 0 0 0.69380980079964416 0.1619694349440581 0 0.68592116352011878 0 0.1724872797865501 0.59999999999894682 0 0 0.3999999999989749 0 0 0.49391845158624981 0 0.1323760430705655 0.59999999999894682 0 0 0.50966790549376417 0.16275515618023731 0 0.69380980079964416 0.1619694349440581 0 0.68592116352011878 0 0.1724872797865501 0.59999999999894682 0 0 0.50966790549376417 0.16275515618023731 0 0.49391845158624981 0 0.1323760430705655 0.68592116352011878 0 0.1724872797865501 0.59999999999894682 0 0 0.50966790549376417 0.16275515618023731 0 0.49391845158624981 0 0.1323760430705655 0.47688326899416439 0 0.31741132792405607 0.68592116352011878 0 0.1724872797865501 0.5003997205654479 0.21136633249797621 0.2258422409314382 0.49391845158624981 0 0.1323760430705655 0.68592116352011878 0 0.1724872797865501 0.5003997205654479 0.21136633249797621 0.2258422409314382 0.50966790549376417 0.16275515618023731 0 0.69380980079964416 0.1619694349440581 0 0.68592116352011878 0 0.1724872797865501 0.5003997205654479 0.21136633249797621 0.2258422409314382 0.50966790549376417 0.16275515618023731 0 0.69380980079964416 0.1619694349440581 0 0.5003997205654479 0.21136633249797621 0.2258422409314382 0.50966790549376417 0.16275515618023731 0 0.6104699881764214 0.32043363027358418 0 0.77713227489941183 0.50036915849493024 0.21774643624003751 0.80839867011859301 0.31807971531731721 0 0.6104699881764214 0.32043363027358418 0 0.68777432594363841 0.31447353261427252 0.31366778418247038 0.69380980079964416 0.1619694349440581 0 0.5003997205654479 0.21136633249797621 0.2258422409314382 0.6104699881764214 0.32043363027358418 0 0.68777432594363841 0.31447353261427252 0.31366778418247038 0.80839867011859301 0.31807971531731721 0 0.69380980079964416 0.1619694349440581 0 0.6104699881764214 0.32043363027358418 0 0.68777432594363841 0.31447353261427252 0.31366778418247038 0.45812322962036273 0.31024977578535839 0 0.5003997205654479 0.21136633249797621 0.2258422409314382 0.50966790549376417 0.16275515618023731 0 0.6104699881764214 0.32043363027358418 0 0.45812322962036273 0.31024977578535839 0 0.5003997205654479 0.21136633249797621 0.2258422409314382 0.6104699881764214 0.32043363027358418 0 0.5004045312576143 0.47050700646456922 0.24963111222780321 0.77713227489941183 0.50036915849493024 0.21774643624003751 0.6104699881764214 0.32043363027358418 0 0.67320508075660079 0.46954769941202479 0 0.5004045312576143 0.47050700646456922 0.24963111222780321 0.5003997205654479 0.21136633249797621 0.2258422409314382 0.6104699881764214 0.32043363027358418 0 0.5004045312576143 0.47050700646456922 0.24963111222780321 0.68777432594363841 0.31447353261427252 0.31366778418247038 0.77713227489941183 0.50036915849493024 0.21774643624003751 0.6104699881764214 0.32043363027358418 0 0.5004045312576143 0.47050700646456922 0.24963111222780321 0.68777432594363841 0.31447353261427252 0.31366778418247038 0.51961524226956368 0.5000000000025091 0 0.6104699881764214 0.32043363027358418 0 0.67320508075660079 0.46954769941202479 0 0.5004045312576143 0.47050700646456922 0.24963111222780321 0.45812322962036273 0.31024977578535839 0 0.51961524226956368 0.5000000000025091 0 0.6104699881764214 0.32043363027358418 0 0.5004045312576143 0.47050700646456922 0.24963111222780321 0.77713227489941183 0.50036915849493024 0.21774643624003751 0.80839867011859301 0.31807971531731721 0 0.6104699881764214 0.32043363027358418 0 0.67320508075660079 0.46954769941202479 0 0.7504488434426726 0.53051757989633308 0.49836643074154852 0.50000000000001332 0.49999999999999561 0.49999999999999561 0.68777432594363841 0.31447353261427252 0.31366778418247038 0.50073570207385831 0.24848280280289631 0.52886631355986169 0.7504488434426726 0.53051757989633308 0.49836643074154852 0.68777432594363841 0.31447353261427252 0.31366778418247038 0.77973766487723961 0.22090161127815711 0.50014622462635805 0.50073570207385831 0.24848280280289631 0.52886631355986169 0.7504488434426726 0.53051757989633308 0.49836643074154852 0.5004045312576143 0.47050700646456922 0.24963111222780321 0.50000000000001332 0.49999999999999561 0.49999999999999561 0.68777432594363841 0.31447353261427252 0.31366778418247038 0.7504488434426726 0.53051757989633308 0.49836643074154852 0.77713227489941183 0.50036915849493024 0.21774643624003751 0.5004045312576143 0.47050700646456922 0.24963111222780321 0.68777432594363841 0.31447353261427252 0.31366778418247038 0.5003997205654479 0.21136633249797621 0.2258422409314382 0.5004045312576143 0.47050700646456922 0.24963111222780321 0.68777432594363841 0.31447353261427252 0.31366778418247038 0.50073570207385831 0.24848280280289631 0.52886631355986169 0.5004045312576143 0.47050700646456922 0.24963111222780321 0.50000000000001332 0.49999999999999561 0.49999999999999561 0.68777432594363841 0.31447353261427252 0.31366778418247038 0.50073570207385831 0.24848280280289631 0.52886631355986169 0.68777432594363841 0.31447353261427252 0.31366778418247038 0.66852282575985944 0 0.3853248791658106 0.83057691269884504 0 0.30018449338884379 0.77973766487723961 0.22090161127815711 0.50014622462635805 0.68592116352011878 0 0.1724872797865501 0.68777432594363841 0.31447353261427252 0.31366778418247038 0.66852282575985944 0 0.3853248791658106 0.83057691269884504 0 0.30018449338884379 0.47688326899416439 0 0.31741132792405607 0.5003997205654479 0.21136633249797621 0.2258422409314382 0.66852282575985944 0 0.3853248791658106 0.50073570207385831 0.24848280280289631 0.52886631355986169 0.66852282575985944 0 0.3853248791658106 0.77973766487723961 0.22090161127815711 0.50014622462635805 0.68969697123394857 0 0.54179813558228873 0.50073570207385831 0.24848280280289631 0.52886631355986169 0.68592116352011878 0 0.1724872797865501 0.5003997205654479 0.21136633249797621 0.2258422409314382 0.68777432594363841 0.31447353261427252 0.31366778418247038 0.66852282575985944 0 0.3853248791658106 0.5003997205654479 0.21136633249797621 0.2258422409314382 0.68777432594363841 0.31447353261427252 0.31366778418247038 0.66852282575985944 0 0.3853248791658106 0.50073570207385831 0.24848280280289631 0.52886631355986169 0.68777432594363841 0.31447353261427252 0.31366778418247038 0.66852282575985944 0 0.3853248791658106 0.77973766487723961 0.22090161127815711 0.50014622462635805 0.50073570207385831 0.24848280280289631 0.52886631355986169 0.47688326899416439 0 0.31741132792405607 0.68592116352011878 0 0.1724872797865501 0.5003997205654479 0.21136633249797621 0.2258422409314382 0.66852282575985944 0 0.3853248791658106 0.47688326899416439 0 0.31741132792405607 0.50000000000250922 0 0.48038475773043671 0.66852282575985944 0 0.3853248791658106 0.50073570207385831 0.24848280280289631 0.52886631355986169 0.50000000000250922 0 0.48038475773043671 0.66852282575985944 0 0.3853248791658106 0.68969697123394857 0 0.54179813558228873 0.50073570207385831 0.24848280280289631 0.52886631355986169 0.66852282575985944 0 0.3853248791658106 0.83534964916824084 0 0.4902996892628636 0.77973766487723961 0.22090161127815711 0.50014622462635805 0.68969697123394857 0 0.54179813558228873 0.68777432594363841 0.31447353261427252 0.31366778418247038 0.83057691269884504 0 0.30018449338884379 1 0.18804489794556911 0.3161072616634244 0.77973766487723961 0.22090161127815711 0.50014622462635805 1 0.14641016151453831 0.14641016151419689 0.68777432594363841 0.31447353261427252 0.31366778418247038 0.83057691269884504 0 0.30018449338884379 1 0.18804489794556911 0.3161072616634244 0.66852282575985944 0 0.3853248791658106 0.83057691269884504 0 0.30018449338884379 0.83534964916824084 0 0.4902996892628636 0.77973766487723961 0.22090161127815711 0.50014622462635805 0.83057691269884504 0 0.30018449338884379 0.83534964916824084 0 0.4902996892628636 1 0.18804489794556911 0.3161072616634244 0.77973766487723961 0.22090161127815711 0.50014622462635805 0.83057691269884504 0 0.30018449338884379 0.83534964916824084 0 0.4902996892628636 1 0 0.3999999999989749 1 0.18804489794556911 0.3161072616634244 0.83534964916824084 0 0.4902996892628636 1 0 0.3999999999989749 1 0.162755156180173 0.50966790549372887 1 0 0.59999999999894682 0.83534964916824084 0 0.4902996892628636 1 0 0.3999999999989749 1 0.18804489794556911 0.3161072616634244 1 0.162755156180173 0.50966790549372887 1 0 0.19999999999955789 0.83057691269884504 0 0.30018449338884379 1 0 0.3999999999989749 1 0.18804489794556911 0.3161072616634244 1 0.18804489794556911 0.3161072616634244 1 0.31024977578542368 0.45812322962028301 1 0.162755156180173 0.50966790549372887 0.77973766487723961 0.22090161127815711 0.50014622462635805 0.83534964916824084 0 0.4902996892628636 1 0.18804489794556911 0.3161072616634244 1 0.162755156180173 0.50966790549372887 0.77973766487723961 0.22090161127815711 0.50014622462635805 0.7504488434426726 0.53051757989633308 0.49836643074154852 0.77713227489941183 0.50036915849493024 0.21774643624003751 0.68777432594363841 0.31447353261427252 0.31366778418247038 1 0.39615100178016449 0.32925244736082498 0.68777432594363841 0.31447353261427252 0.31366778418247038 1 0.18804489794556911 0.3161072616634244 1 0.31024977578542368 0.45812322962028301 1 0.39615100178016449 0.32925244736082498 0.7504488434426726 0.53051757989633308 0.49836643074154852 0.68777432594363841 0.31447353261427252 0.31366778418247038 1 0.31024977578542368 0.45812322962028301 0.77973766487723961 0.22090161127815711 0.50014622462635805 1 0.30074819035868428 0.16929708765640439 0.68777432594363841 0.31447353261427252 0.31366778418247038 1 0.18804489794556911 0.3161072616634244 1 0.39615100178016449 0.32925244736082498 0.68777432594363841 0.31447353261427252 0.31366778418247038 1 0.18804489794556911 0.3161072616634244 1 0.31024977578542368 0.45812322962028301 0.77973766487723961 0.22090161127815711 0.50014622462635805 0.77713227489941183 0.50036915849493024 0.21774643624003751 1 0.30074819035868428 0.16929708765640439 0.68777432594363841 0.31447353261427252 0.31366778418247038 1 0.39615100178016449 0.32925244736082498 0.7504488434426726 0.53051757989633308 0.49836643074154852 0.68777432594363841 0.31447353261427252 0.31366778418247038 1 0.31024977578542368 0.45812322962028301 1 0.39615100178016449 0.32925244736082498 1 0.60020898676431722 0.32446581821274012 0.77713227489941183 0.50036915849493024 0.21774643624003751 1 0.49836539647890021 0.17226134197269399 1 0.39615100178016449 0.32925244736082498 0.7504488434426726 0.53051757989633308 0.49836643074154852 1 0.31024977578542368 0.45812322962028301 1 0.39615100178016449 0.32925244736082498 1 0.50000000000229983 0.51961524226898759 0.7504488434426726 0.53051757989633308 0.49836643074154852 1 0.33579115324550912 0.59952339316293046 0.68742751001967084 0.31250796680084852 0.687427510020161 0.78019141325921404 0.49972466465542442 0.78019141325930785 1 0.39076805646076263 0.7272421105028648 1 0.33579115324550912 0.59952339316293046 0.68742751001967084 0.31250796680084852 0.687427510020161 0.81599560342209843 0.22280203704001911 0.81599560342233202 0.7504488434426726 0.53051757989633308 0.49836643074154852 1 0.33579115324550912 0.59952339316293046 1 0.53045230059030524 0.6732050807565132 1 0.50000000000229983 0.51961524226898759 0.7504488434426726 0.53051757989633308 0.49836643074154852 1 0.31024977578542368 0.45812322962028301 1 0.33579115324550912 0.59952339316293046 0.77973766487723961 0.22090161127815711 0.50014622462635805 1 0.33579115324550912 0.59952339316293046 0.77973766487723961 0.22090161127815711 0.50014622462635805 0.68742751001967084 0.31250796680084852 0.687427510020161 0.81599560342209843 0.22280203704001911 0.81599560342233202 0.7504488434426726 0.53051757989633308 0.49836643074154852 1 0.33579115324550912 0.59952339316293046 0.77973766487723961 0.22090161127815711 0.50014622462635805 0.68742751001967084 0.31250796680084852 0.687427510020161 0.7504488434426726 0.53051757989633308 0.49836643074154852 1 0.33579115324550912 0.59952339316293046 0.78019141325921404 0.49972466465542442 0.78019141325930785 1 0.53045230059030524 0.6732050807565132 1 0.39076805646076263 0.7272421105028648 1 0.33579115324550912 0.59952339316293046 0.68742751001967084 0.31250796680084852 0.687427510020161 0.78019141325921404 0.49972466465542442 0.78019141325930785 0.7504488434426726 0.53051757989633308 0.49836643074154852 1 0.31024977578542368 0.45812322962028301 1 0.33579115324550912 0.59952339316293046 1 0.50000000000229983 0.51961524226898759 1 0.39076805646076263 0.7272421105028648 1 0.33579115324550912 0.59952339316293046 0.78019141325921404 0.49972466465542442 0.78019141325930785 1 0.53045230059030524 0.6732050807565132 1 0.39076805646076263 0.7272421105028648 1 0.33579115324550912 0.59952339316293046 1 0.1912596090855686 0.70565701451953711 0.81599560342209843 0.22280203704001911 0.81599560342233202 1 0.31024977578542368 0.45812322962028301 1 0.33579115324550912 0.59952339316293046 1 0.162755156180173 0.50966790549372887 0.77973766487723961 0.22090161127815711 0.50014622462635805 1 0.162755156180173 0.50966790549372887 1 0.1912596090855686 0.70565701451953711 0.81469961246449951 0 0.68914937826112133 0.77973766487723961 0.22090161127815711 0.50014622462635805 0.81469961246449951 0 0.68914937826112133 0.77973766487723961 0.22090161127815711 0.50014622462635805 0.68742751001967084 0.31250796680084852 0.687427510020161 0.81599560342209843 0.22280203704001911 0.81599560342233202 1 0.1912596090855686 0.70565701451953711 0.81469961246449951 0 0.68914937826112133 0.77973766487723961 0.22090161127815711 0.50014622462635805 0.81599560342209843 0.22280203704001911 0.81599560342233202 1 0.33579115324550912 0.59952339316293046 1 0.1912596090855686 0.70565701451953711 0.77973766487723961 0.22090161127815711 0.50014622462635805 0.81599560342209843 0.22280203704001911 0.81599560342233202 1 0.33579115324550912 0.59952339316293046 1 0.162755156180173 0.50966790549372887 1 0.1912596090855686 0.70565701451953711 0.77973766487723961 0.22090161127815711 0.50014622462635805 1 0.1912596090855686 0.70565701451953711 1 0 0.59999999999894682 0.81469961246449951 0 0.68914937826112133 1 0 0.79999999999947335 1 0.162755156180173 0.50966790549372887 1 0.1912596090855686 0.70565701451953711 1 0 0.59999999999894682 0.81469961246449951 0 0.68914937826112133 0.83534964916824084 0 0.4902996892628636 1 0.162755156180173 0.50966790549372887 1 0 0.59999999999894682 0.81469961246449951 0 0.68914937826112133 0.83534964916824084 0 0.4902996892628636 0.81469961246449951 0 0.68914937826112133 0.77973766487723961 0.22090161127815711 0.50014622462635805 0.68969697123394857 0 0.54179813558228873 0.83534964916824084 0 0.4902996892628636 1 0.162755156180173 0.50966790549372887 0.81469961246449951 0 0.68914937826112133 0.77973766487723961 0.22090161127815711 0.50014622462635805 0.68969697123394857 0 0.54179813558228873 0.6002015905170176 0 0.67551889168744117 0.50073570207385831 0.24848280280289631 0.52886631355986169 0.68742751001967084 0.31250796680084852 0.687427510020161 0.81469961246449951 0 0.68914937826112133 0.68969697123394857 0 0.54179813558228873 0.6002015905170176 0 0.67551889168744117 0.68742751001967084 0.31250796680084852 0.687427510020161 0.81469961246449951 0 0.68914937826112133 0.77973766487723961 0.22090161127815711 0.50014622462635805 0.68969697123394857 0 0.54179813558228873 0.68742751001967084 0.31250796680084852 0.687427510020161 0.6002015905170176 0 0.67551889168744117 0.68742751001967084 0.31250796680084852 0.687427510020161 0.50084626324420545 0.22238844715913 0.78084811589659187 0.69447607299129699 0 0.84099946107689361 0.77973766487723961 0.22090161127815711 0.50014622462635805 0.68969697123394857 0 0.54179813558228873 0.50073570207385831 0.24848280280289631 0.52886631355986169 0.68742751001967084 0.31250796680084852 0.687427510020161 0.6002015905170176 0 0.67551889168744117 0.50073570207385831 0.24848280280289631 0.52886631355986169 0.68742751001967084 0.31250796680084852 0.687427510020161 0.50084626324420545 0.22238844715913 0.78084811589659187 0.81469961246449951 0 0.68914937826112133 0.6002015905170176 0 0.67551889168744117 0.68742751001967084 0.31250796680084852 0.687427510020161 0.81599560342209843 0.22280203704001911 0.81599560342233202 0.50000000000250922 0 0.48038475773043671 0.68969697123394857 0 0.54179813558228873 0.6002015905170176 0 0.67551889168744117 0.50073570207385831 0.24848280280289631 0.52886631355986169 0.50000000000001332 0.49999999999999561 0.49999999999999561 0.50073570207385831 0.24848280280289631 0.52886631355986169 0.68742751001967084 0.31250796680084852 0.687427510020161 0.49816183246753282 0.5307146639261795 0.75045686993209071 0.7504488434426726 0.53051757989633308 0.49836643074154852 0.50000000000001332 0.49999999999999561 0.49999999999999561 0.50073570207385831 0.24848280280289631 0.52886631355986169 0.68742751001967084 0.31250796680084852 0.687427510020161 0.7504488434426726 0.53051757989633308 0.49836643074154852 0.50000000000001332 0.49999999999999561 0.49999999999999561 0.68742751001967084 0.31250796680084852 0.687427510020161 0.49816183246753282 0.5307146639261795 0.75045686993209071 0.7504488434426726 0.53051757989633308 0.49836643074154852 0.68742751001967084 0.31250796680084852 0.687427510020161 0.78019141325921404 0.49972466465542442 0.78019141325930785 0.49816183246753282 0.5307146639261795 0.75045686993209071 0.50073570207385831 0.24848280280289631 0.52886631355986169 0.68742751001967084 0.31250796680084852 0.687427510020161 0.50084626324420545 0.22238844715913 0.78084811589659187 0.49816183246753282 0.5307146639261795 0.75045686993209071 0.7504488434426726 0.53051757989633308 0.49836643074154852 0.77973766487723961 0.22090161127815711 0.50014622462635805 0.50073570207385831 0.24848280280289631 0.52886631355986169 0.68742751001967084 0.31250796680084852 0.687427510020161 0.59952339316492498 0.33579115324593939 1 0.50084626324420545 0.22238844715913 0.78084811589659187 0.49816183246753282 0.5307146639261795 0.75045686993209071 0.45812322962173568 0.31024977578554058 1 0.68742751001967084 0.31250796680084852 0.687427510020161 0.72724211050425436 0.39076805646176382 1 0.59952339316492498 0.33579115324593939 1 0.81599560342209843 0.22280203704001911 0.81599560342233202 0.68742751001967084 0.31250796680084852 0.687427510020161 0.59952339316492498 0.33579115324593939 1 0.78019141325921404 0.49972466465542442 0.78019141325930785 0.49816183246753282 0.5307146639261795 0.75045686993209071 0.68742751001967084 0.31250796680084852 0.687427510020161 0.59952339316492498 0.33579115324593939 1 0.50084626324420545 0.22238844715913 0.78084811589659187 0.81599560342209843 0.22280203704001911 0.81599560342233202 0.68742751001967084 0.31250796680084852 0.687427510020161 0.59952339316492498 0.33579115324593939 1 0.50084626324420545 0.22238844715913 0.78084811589659187 0.49816183246753282 0.5307146639261795 0.75045686993209071 0.68742751001967084 0.31250796680084852 0.687427510020161 0.72724211050425436 0.39076805646176382 1 0.59952339316492498 0.33579115324593939 1 0.78019141325921404 0.49972466465542442 0.78019141325930785 0.59952339316492498 0.33579115324593939 1 0.78019141325921404 0.49972466465542442 0.78019141325930785 0.67320508075671459 0.53045230059073867 1 0.49816183246753282 0.5307146639261795 0.75045686993209071 0.72724211050425436 0.39076805646176382 1 0.59952339316492498 0.33579115324593939 1 0.70565701452089868 0.1912596090858541 1 0.81599560342209843 0.22280203704001911 0.81599560342233202 0.72724211050425436 0.39076805646176382 1 0.59952339316492498 0.33579115324593939 1 0.78019141325921404 0.49972466465542442 0.78019141325930785 0.67320508075671459 0.53045230059073867 1 0.59952339316492498 0.33579115324593939 1 0.51961524226934941 0.50000000000250611 1 0.49816183246753282 0.5307146639261795 0.75045686993209071 0.45812322962173568 0.31024977578554058 1 0.59952339316492498 0.33579115324593939 1 0.67320508075671459 0.53045230059073867 1 0.51961524226934941 0.50000000000250611 1 0.49816183246753282 0.5307146639261795 0.75045686993209071 0.59952339316492498 0.33579115324593939 1 0.50966790549576724 0.1627551561802443 1 0.50084626324420545 0.22238844715913 0.78084811589659187 0.45812322962173568 0.31024977578554058 1 0.50966790549576724 0.1627551561802443 1 0.50084626324420545 0.22238844715913 0.78084811589659187 0.69447607299129699 0 0.84099946107689361 0.70565701452089868 0.1912596090858541 1 0.68742751001967084 0.31250796680084852 0.687427510020161 0.50084626324420545 0.22238844715913 0.78084811589659187 0.69447607299129699 0 0.84099946107689361 0.81599560342209843 0.22280203704001911 0.81599560342233202 0.50084626324420545 0.22238844715913 0.78084811589659187 0.69447607299129699 0 0.84099946107689361 0.70565701452089868 0.1912596090858541 1 0.81599560342209843 0.22280203704001911 0.81599560342233202 0.59952339316492498 0.33579115324593939 1 0.50084626324420545 0.22238844715913 0.78084811589659187 0.70565701452089868 0.1912596090858541 1 0.81599560342209843 0.22280203704001911 0.81599560342233202 0.59952339316492498 0.33579115324593939 1 0.50966790549576724 0.1627551561802443 1 0.50084626324420545 0.22238844715913 0.78084811589659187 0.70565701452089868 0.1912596090858541 1 0.6002015905170176 0 0.67551889168744117 0.68742751001967084 0.31250796680084852 0.687427510020161 0.69447607299129699 0 0.84099946107689361 0.81599560342209843 0.22280203704001911 0.81599560342233202 0.6002015905170176 0 0.67551889168744117 0.50084626324420545 0.22238844715913 0.78084811589659187 0.69447607299129699 0 0.84099946107689361 0.49836539647917322 0 0.82773865802723501 0.50966790549576724 0.1627551561802443 1 0.50084626324420545 0.22238844715913 0.78084811589659187 0.69447607299129699 0 0.84099946107689361 0.49836539647917322 0 0.82773865802723501 0.50966790549576724 0.1627551561802443 1 0.60000000000138687 0 1 0.69447607299129699 0 0.84099946107689361 0.49836539647917322 0 0.82773865802723501 0.50966790549576724 0.1627551561802443 1 0.60000000000138687 0 1 0.49836539647917322 0 0.82773865802723501 0.40000000000166441 0 1 0.50966790549576724 0.1627551561802443 1 0.60000000000138687 0 1 0.69447607299129699 0 0.84099946107689361 0.70565701452089868 0.1912596090858541 1 0.60000000000138687 0 1 0.69447607299129699 0 0.84099946107689361 0.70565701452089868 0.1912596090858541 1 0.79999999999999982 0 1 0.81469961246449951 0 0.68914937826112133 0.6002015905170176 0 0.67551889168744117 0.69447607299129699 0 0.84099946107689361 0.81599560342209843 0.22280203704001911 0.81599560342233202 0.69447607299129699 0 0.84099946107689361 0.70565701452089868 0.1912596090858541 1 0.85358983848646974 0.14641016151341191 1 0.81599560342209843 0.22280203704001911 0.81599560342233202 0.70565701452089868 0.1912596090858541 1 0.85358983848646974 0.14641016151341191 1 0.81599560342209843 0.22280203704001911 0.81599560342233202 0.85173693729199718 0.30007817960516198 1 1 0.1912596090855686 0.70565701451953711 0.81469961246449951 0 0.68914937826112133 0.81599560342209843 0.22280203704001911 0.81599560342233202 0.85358983848570524 0 0.85358983848556425 0.81469961246449951 0 0.68914937826112133 0.69447607299129699 0 0.84099946107689361 0.81599560342209843 0.22280203704001911 0.81599560342233202 0.85358983848570524 0 0.85358983848556425 0.69447607299129699 0 0.84099946107689361 0.85358983848646974 0.14641016151341191 1 0.81599560342209843 0.22280203704001911 0.81599560342233202 0.85358983848570524 0 0.85358983848556425 0.69447607299129699 0 0.84099946107689361 0.70565701452089868 0.1912596090858541 1 0.85358983848646974 0.14641016151341191 1 0.79999999999999982 0 1 0.69447607299129699 0 0.84099946107689361 0.85358983848646974 0.14641016151341191 1 0.85358983848570524 0 0.85358983848556425 0.79999999999999982 0 1 0.85358983848646974 0.14641016151341191 1 0.85358983848570524 0 0.85358983848556425 1 0 1 1 0.14641016151333891 0.85358983848640169 0.85358983848646974 0.14641016151341191 1 0.85358983848570524 0 0.85358983848556425 0.79999999999999982 0 1 1 0 1 0.85358983848646974 0.14641016151341191 1 1 0 1 1 0.14641016151333891 0.85358983848640169 1 0.19999999999955789 1 0.85358983848570524 0 0.85358983848556425 1 0 1 1 0 0.79999999999947335 1 0.14641016151333891 0.85358983848640169 1 0.1912596090855686 0.70565701451953711 0.81469961246449951 0 0.68914937826112133 0.85358983848570524 0 0.85358983848556425 1 0 0.79999999999947335 1 0.1912596090855686 0.70565701451953711 0.85358983848570524 0 0.85358983848556425 1 0 0.79999999999947335 1 0.14641016151333891 0.85358983848640169 1 0.1912596090855686 0.70565701451953711 0.81599560342209843 0.22280203704001911 0.81599560342233202 1 0.14641016151333891 0.85358983848640169 1 0.30007817960499339 0.85173693729139244 1 0.1912596090855686 0.70565701451953711 0.81599560342209843 0.22280203704001911 0.81599560342233202 0.85358983848570524 0 0.85358983848556425 1 0.14641016151333891 0.85358983848640169 0.85358983848646974 0.14641016151341191 1 0.81599560342209843 0.22280203704001911 0.81599560342233202 1 0.19999999999955789 1 0.85173693729199718 0.30007817960516198 1 0.85358983848646974 0.14641016151341191 1 0.81599560342209843 0.22280203704001911 0.81599560342233202 1 0.14641016151333891 0.85358983848640169 1 0.19999999999955789 1 0.81599560342209843 0.22280203704001911 0.81599560342233202 1 0.14641016151333891 0.85358983848640169 1 0.19999999999955789 1 1 0.30007817960499339 0.85173693729139244 0.85358983848646974 0.14641016151341191 1 0.81599560342209843 0.22280203704001911 0.81599560342233202 0.85358983848570524 0 0.85358983848556425 1 0.14641016151333891 0.85358983848640169 1 0.19999999999955789 1 0.85173693729199718 0.30007817960516198 1 1 0.30007817960499339 0.85173693729139244 1 0.3999999999989749 1 0.81599560342209843 0.22280203704001911 0.81599560342233202 1 0.19999999999955789 1 0.85173693729199718 0.30007817960516198 1 1 0.30007817960499339 0.85173693729139244 0.81599560342209843 0.22280203704001911 0.81599560342233202 0.85173693729199718 0.30007817960516198 1 1 0.30007817960499339 0.85173693729139244 0.78019141325921404 0.49972466465542442 0.78019141325930785 0.68742751001967084 0.31250796680084852 0.687427510020161 0.72724211050425436 0.39076805646176382 1 0.81599560342209843 0.22280203704001911 0.81599560342233202 0.78019141325921404 0.49972466465542442 0.78019141325930785 1 0.39076805646076263 0.7272421105028648 0.81599560342209843 0.22280203704001911 0.81599560342233202 1 0.30007817960499339 0.85173693729139244 0.78019141325921404 0.49972466465542442 0.78019141325930785 0.72724211050425436 0.39076805646176382 1 0.81599560342209843 0.22280203704001911 0.81599560342233202 0.85173693729199718 0.30007817960516198 1 0.78019141325921404 0.49972466465542442 0.78019141325930785 1 0.39076805646076263 0.7272421105028648 0.68742751001967084 0.31250796680084852 0.687427510020161 0.81599560342209843 0.22280203704001911 0.81599560342233202 0.78019141325921404 0.49972466465542442 0.78019141325930785 0.85173693729199718 0.30007817960516198 1 1 0.30007817960499339 0.85173693729139244 1 0.48813836695007229 0.84191918937727617 1 0.3999999999989749 1 0.72724211050425436 0.39076805646176382 1 0.70565701452089868 0.1912596090858541 1 0.81599560342209843 0.22280203704001911 0.81599560342233202 0.85173693729199718 0.30007817960516198 1 1 0.39076805646076263 0.7272421105028648 1 0.1912596090855686 0.70565701451953711 0.81599560342209843 0.22280203704001911 0.81599560342233202 1 0.30007817960499339 0.85173693729139244 0.85173693729199718 0.30007817960516198 1 1 0.30007817960499339 0.85173693729139244 1 0.48813836695007229 0.84191918937727617 0.78019141325921404 0.49972466465542442 0.78019141325930785 1 0.39076805646076263 0.7272421105028648 1 0.30007817960499339 0.85173693729139244 1 0.48813836695007229 0.84191918937727617 0.78019141325921404 0.49972466465542442 0.78019141325930785 1 0.39076805646076263 0.7272421105028648 1 0.48813836695007229 0.84191918937727617 0.78019141325921404 0.49972466465542442 0.78019141325930785 1 0.53045230059030524 0.6732050807565132 0.72724211050425436 0.39076805646176382 1 0.78019141325921404 0.49972466465542442 0.78019141325930785 0.84191918937756771 0.48813836695034618 1 0.67320508075671459 0.53045230059073867 1 0.72724211050425436 0.39076805646176382 1 0.85173693729199718 0.30007817960516198 1 0.78019141325921404 0.49972466465542442 0.78019141325930785 0.84191918937756771 0.48813836695034618 1 0.85173693729199718 0.30007817960516198 1 1 0.48813836695007229 0.84191918937727617 0.78019141325921404 0.49972466465542442 0.78019141325930785 0.84191918937756771 0.48813836695034618 1 1 0.48813836695007229 0.84191918937727617 0.84191918937756771 0.48813836695034618 1 1 0.3999999999989749 1 1 0.59999999999894682 1 0.85173693729199718 0.30007817960516198 1 1 0.48813836695007229 0.84191918937727617 0.84191918937756771 0.48813836695034618 1 1 0.3999999999989749 1 0.78019141325921404 0.49972466465542442 0.78019141325930785 0.80839867011861499 0.68192028468377774 1 0.77683220420328725 0.81278569633583353 0.81664766512111064 0.68649174659499257 0.68600703198516766 0.6864917465949647 0.78019141325921404 0.49972466465542442 0.78019141325930785 0.80839867011861499 0.68192028468377774 1 1 0.68192028468364885 0.80839867011854549 0.77683220420328725 0.81278569633583353 0.81664766512111064 1 0.48813836695007229 0.84191918937727617 0.84191918937756771 0.48813836695034618 1 1 0.59999999999894682 1 1 0.68192028468364885 0.80839867011854549 0.78019141325921404 0.49972466465542442 0.78019141325930785 1 0.68192028468364885 0.80839867011854549 0.77683220420328725 0.81278569633583353 0.81664766512111064 0.68649174659499257 0.68600703198516766 0.6864917465949647 0.84191918937756771 0.48813836695034618 1 1 0.59999999999894682 1 0.80839867011861499 0.68192028468377774 1 1 0.68192028468364885 0.80839867011854549 1 0.59999999999894682 1 0.80839867011861499 0.68192028468377774 1 1 0.68192028468364885 0.80839867011854549 1 0.79999999999947335 1 0.78019141325921404 0.49972466465542442 0.78019141325930785 0.84191918937756771 0.48813836695034618 1 0.80839867011861499 0.68192028468377774 1 0.67320508075671459 0.53045230059073867 1 0.78019141325921404 0.49972466465542442 0.78019141325930785 0.84191918937756771 0.48813836695034618 1 0.80839867011861499 0.68192028468377774 1 1 0.68192028468364885 0.80839867011854549 1 0.48813836695007229 0.84191918937727617 0.78019141325921404 0.49972466465542442 0.78019141325930785 1 0.68192028468364885 0.80839867011854549 1 0.53045230059030524 0.6732050807565132 1 0.48813836695007229 0.84191918937727617 0.78019141325921404 0.49972466465542442 0.78019141325930785 0.84191918937756771 0.48813836695034618 1 1 0.68192028468364885 0.80839867011854549 0.7504488434426726 0.53051757989633308 0.49836643074154852 0.78019141325921404 0.49972466465542442 0.78019141325930785 1 0.53045230059030524 0.6732050807565132 1 0.67939035495490308 0.61016512164639347 0.77374673111774417 0.78860835645735528 0.49829081152968557 0.7504488434426726 0.53051757989633308 0.49836643074154852 1 0.67939035495490308 0.61016512164639347 0.68649174659499257 0.68600703198516766 0.6864917465949647 0.77374673111774417 0.78860835645735528 0.49829081152968557 1 0.67939035495490308 0.61016512164639347 1 0.83791821520125753 0.69361520514217179 0.68649174659499257 0.68600703198516766 0.6864917465949647 1 0.68192028468364885 0.80839867011854549 1 0.67939035495490308 0.61016512164639347 0.77683220420328725 0.81278569633583353 0.81664766512111064 0.68649174659499257 0.68600703198516766 0.6864917465949647 0.77374673111774417 0.78860835645735528 0.49829081152968557 1 0.68975022421527898 0.45812322962078778 0.7504488434426726 0.53051757989633308 0.49836643074154852 1 0.67939035495490308 0.61016512164639347 0.7504488434426726 0.53051757989633308 0.49836643074154852 0.78019141325921404 0.49972466465542442 0.78019141325930785 1 0.67939035495490308 0.61016512164639347 0.68649174659499257 0.68600703198516766 0.6864917465949647 0.78019141325921404 0.49972466465542442 0.78019141325930785 1 0.68192028468364885 0.80839867011854549 1 0.67939035495490308 0.61016512164639347 0.68649174659499257 0.68600703198516766 0.6864917465949647 0.78019141325921404 0.49972466465542442 0.78019141325930785 1 0.68192028468364885 0.80839867011854549 1 0.53045230059030524 0.6732050807565132 1 0.67939035495490308 0.61016512164639347 0.7504488434426726 0.53051757989633308 0.49836643074154852 1 0.53045230059030524 0.6732050807565132 1 0.50000000000229983 0.51961524226898759 1 0.67939035495490308 0.61016512164639347 1 0.68975022421527898 0.45812322962078778 0.7504488434426726 0.53051757989633308 0.49836643074154852 1 0.50000000000229983 0.51961524226898759 1 0.67939035495490308 0.61016512164639347 0.77374673111774417 0.78860835645735528 0.49829081152968557 1 0.68975022421527898 0.45812322962078778 1 0.67939035495490308 0.61016512164639347 1 0.83630110503662825 0.50803330197135588 0.77374673111774417 0.78860835645735528 0.49829081152968557 1 0.83791821520125753 0.69361520514217179 0.77683220420328725 0.81278569633583353 0.81664766512111064 0.68649174659499257 0.68600703198516766 0.6864917465949647 0.77374673111774417 0.78860835645735528 0.49829081152968557 0.81346205468287114 1 0.68420958956387889 0.77683220420328725 0.81278569633583353 0.81664766512111064 0.68649174659499257 0.68600703198516766 0.6864917465949647 1 0.67939035495490308 0.61016512164639347 1 0.83791821520125753 0.69361520514217179 0.77683220420328725 0.81278569633583353 0.81664766512111064 0.68649174659499257 0.68600703198516766 0.6864917465949647 1 0.68192028468364885 0.80839867011854549 1 0.67939035495490308 0.61016512164639347 1 0.83791821520125753 0.69361520514217179 0.77683220420328725 0.81278569633583353 0.81664766512111064 0.77374673111774417 0.78860835645735528 0.49829081152968557 1 0.83791821520125753 0.69361520514217179 0.81346205468287114 1 0.68420958956387889 0.77683220420328725 0.81278569633583353 0.81664766512111064 0.77374673111774417 0.78860835645735528 0.49829081152968557 1 0.67939035495490308 0.61016512164639347 1 0.83791821520125753 0.69361520514217179 1 0.83630110503662825 0.50803330197135588 0.77374673111774417 0.78860835645735528 0.49829081152968557 1 0.83791821520125753 0.69361520514217179 1 0.83630110503662825 0.50803330197135588 0.86762395692956074 1 0.5060815484123421 1 0.83791821520125753 0.69361520514217179 1 0.83630110503662825 0.50803330197135588 1 1 0.59999999999894682 0.86762395692956074 1 0.5060815484123421 1 1 0.3999999999989749 1 0.83630110503662825 0.50803330197135588 1 1 0.59999999999894682 0.86762395692956074 1 0.5060815484123421 1 0.83791821520125753 0.69361520514217179 1 1 0.59999999999894682 0.86762395692956074 1 0.5060815484123421 0.81346205468287114 1 0.68420958956387889 0.77374673111774417 0.78860835645735528 0.49829081152968557 0.86762395692956074 1 0.5060815484123421 0.81346205468287114 1 0.68420958956387889 0.68240285647621723 1 0.52310058211166854 0.77374673111774417 0.78860835645735528 0.49829081152968557 1 0.83791821520125753 0.69361520514217179 0.86762395692956074 1 0.5060815484123421 0.81346205468287114 1 0.68420958956387889 1 0.83791821520125753 0.69361520514217179 1 1 0.59999999999894682 0.81346205468287114 1 0.68420958956387889 1 1 0.79999999999947335 1 0.83791821520125753 0.69361520514217179 0.81346205468287114 1 0.68420958956387889 1 1 0.79999999999947335 0.85358983848569092 1 0.85358983848569092 1 0.83791821520125753 0.69361520514217179 1 0.85358983848587056 0.85358983848587056 0.77683220420328725 0.81278569633583353 0.81664766512111064 0.85358983848569092 1 0.85358983848569092 1 0.83791821520125753 0.69361520514217179 1 1 0.79999999999947335 1 0.85358983848587056 0.85358983848587056 0.85358983848569092 1 0.85358983848569092 1 1 1 1 0.79999999999947335 1 1 0.85358983848587056 0.85358983848587056 0.85358983848587056 0.85358983848587056 1 1 1 1 0.85358983848587056 0.85358983848587056 1 0.79999999999947335 1 1 0.85358983848569092 1 0.85358983848569092 1 1 0.79999999999947335 1 1 1 1 0.85358983848587056 0.85358983848587056 0.85358983848569092 1 0.85358983848569092 1 1 1 1 0.85358983848587056 0.85358983848587056 0.85358983848587056 0.85358983848587056 1 0.85358983848569092 1 0.85358983848569092 1 0.68192028468364885 0.80839867011854549 1 0.79999999999947335 1 1 0.85358983848587056 0.85358983848587056 0.85358983848587056 0.85358983848587056 1 0.80839867011861499 0.68192028468377774 1 1 0.68192028468364885 0.80839867011854549 1 0.79999999999947335 1 0.85358983848587056 0.85358983848587056 1 1 0.68192028468364885 0.80839867011854549 1 0.85358983848587056 0.85358983848587056 0.77683220420328725 0.81278569633583353 0.81664766512111064 0.85358983848587056 0.85358983848587056 1 1 0.68192028468364885 0.80839867011854549 1 0.83791821520125753 0.69361520514217179 1 0.85358983848587056 0.85358983848587056 0.77683220420328725 0.81278569633583353 0.81664766512111064 0.80839867011861499 0.68192028468377774 1 0.77683220420328725 0.81278569633583353 0.81664766512111064 0.85358983848587056 0.85358983848587056 1 0.69361520514218133 0.83791821520130205 1 0.80839867011861499 0.68192028468377774 1 1 0.68192028468364885 0.80839867011854549 0.77683220420328725 0.81278569633583353 0.81664766512111064 0.85358983848587056 0.85358983848587056 1 0.77683220420328725 0.81278569633583353 0.81664766512111064 0.85358983848587056 0.85358983848587056 1 0.79999999999947335 1 1 0.85358983848569092 1 0.85358983848569092 0.77683220420328725 0.81278569633583353 0.81664766512111064 0.79999999999947335 1 1 0.85358983848569092 1 0.85358983848569092 0.69981550660938663 1 0.83057691269844081 0.77683220420328725 0.81278569633583353 0.81664766512111064 0.85358983848587056 0.85358983848587056 1 0.79999999999947335 1 1 0.69361520514218133 0.83791821520130205 1 1 0.85358983848587056 0.85358983848587056 0.77683220420328725 0.81278569633583353 0.81664766512111064 0.85358983848587056 0.85358983848587056 1 0.85358983848569092 1 0.85358983848569092 0.81346205468287114 1 0.68420958956387889 0.77683220420328725 0.81278569633583353 0.81664766512111064 0.85358983848569092 1 0.85358983848569092 0.69981550660938663 1 0.83057691269844081 1 0.83791821520125753 0.69361520514217179 0.81346205468287114 1 0.68420958956387889 0.77683220420328725 0.81278569633583353 0.81664766512111064 0.85358983848569092 1 0.85358983848569092 0.77683220420328725 0.81278569633583353 0.81664766512111064 0.69981550660938663 1 0.83057691269844081 0.69361520514218133 0.83791821520130205 1 0.49911199724958061 0.77872228561593948 0.77895350115271889 0.77683220420328725 0.81278569633583353 0.81664766512111064 0.69361520514218133 0.83791821520130205 1 0.61016512164652226 0.67939035495506384 1 0.49911199724958061 0.77872228561593948 0.77895350115271889 0.81346205468287114 1 0.68420958956387889 0.77683220420328725 0.81278569633583353 0.81664766512111064 0.69981550660938663 1 0.83057691269844081 0.6123333432449789 1 0.67837347745467769 0.77683220420328725 0.81278569633583353 0.81664766512111064 0.69981550660938663 1 0.83057691269844081 0.6123333432449789 1 0.67837347745467769 0.49911199724958061 0.77872228561593948 0.77895350115271889 0.77683220420328725 0.81278569633583353 0.81664766512111064 0.79999999999947335 1 1 0.69981550660938663 1 0.83057691269844081 0.69361520514218133 0.83791821520130205 1 0.69981550660938663 1 0.83057691269844081 0.69361520514218133 0.83791821520130205 1 0.59999999999894682 1 1 0.50970031073508926 1 0.83534964916803001 0.79999999999947335 1 1 0.69981550660938663 1 0.83057691269844081 0.69361520514218133 0.83791821520130205 1 0.59999999999894682 1 1 0.80839867011861499 0.68192028468377774 1 0.77683220420328725 0.81278569633583353 0.81664766512111064 0.69361520514218133 0.83791821520130205 1 0.61016512164652226 0.67939035495506384 1 0.69361520514218133 0.83791821520130205 1 0.50803330197137353 0.83630110503667787 1 0.61016512164652226 0.67939035495506384 1 0.49911199724958061 0.77872228561593948 0.77895350115271889 0.69361520514218133 0.83791821520130205 1 0.50803330197137353 0.83630110503667787 1 0.50970031073508926 1 0.83534964916803001 0.49911199724958061 0.77872228561593948 0.77895350115271889 0.50803330197137353 0.83630110503667787 1 0.59999999999894682 1 1 0.50970031073508926 1 0.83534964916803001 0.3999999999989749 1 1 0.69361520514218133 0.83791821520130205 1 0.50803330197137353 0.83630110503667787 1 0.59999999999894682 1 1 0.50970031073508926 1 0.83534964916803001 0.69981550660938663 1 0.83057691269844081 0.69361520514218133 0.83791821520130205 1 0.50970031073508926 1 0.83534964916803001 0.49911199724958061 0.77872228561593948 0.77895350115271889 0.69981550660938663 1 0.83057691269844081 0.50970031073508926 1 0.83534964916803001 0.6123333432449789 1 0.67837347745467769 0.49911199724958061 0.77872228561593948 0.77895350115271889 0.6123333432449789 1 0.67837347745467769 0.68649174659499257 0.68600703198516766 0.6864917465949647 0.49983993748706529 0.75039103705932653 0.52967335724801234 0.49911199724958061 0.77872228561593948 0.77895350115271889 0.77374673111774417 0.78860835645735528 0.49829081152968557 0.6123333432449789 1 0.67837347745467769 0.68240285647621723 1 0.52310058211166854 0.49983993748706529 0.75039103705932653 0.52967335724801234 0.6123333432449789 1 0.67837347745467769 0.49983993748706529 0.75039103705932653 0.52967335724801234 0.45820186441573879 1 0.68969697123405882 0.49911199724958061 0.77872228561593948 0.77895350115271889 0.50970031073508926 1 0.83534964916803001 0.6123333432449789 1 0.67837347745467769 0.45820186441573879 1 0.68969697123405882 0.49911199724958061 0.77872228561593948 0.77895350115271889 0.77374673111774417 0.78860835645735528 0.49829081152968557 0.6123333432449789 1 0.67837347745467769 0.68649174659499257 0.68600703198516766 0.6864917465949647 0.49983993748706529 0.75039103705932653 0.52967335724801234 0.81346205468287114 1 0.68420958956387889 0.77683220420328725 0.81278569633583353 0.81664766512111064 0.6123333432449789 1 0.67837347745467769 0.68649174659499257 0.68600703198516766 0.6864917465949647 0.77683220420328725 0.81278569633583353 0.81664766512111064 0.6123333432449789 1 0.67837347745467769 0.68649174659499257 0.68600703198516766 0.6864917465949647 0.49911199724958061 0.77872228561593948 0.77895350115271889 0.77374673111774417 0.78860835645735528 0.49829081152968557 0.81346205468287114 1 0.68420958956387889 0.6123333432449789 1 0.67837347745467769 0.68649174659499257 0.68600703198516766 0.6864917465949647 0.77374673111774417 0.78860835645735528 0.49829081152968557 0.81346205468287114 1 0.68420958956387889 0.6123333432449789 1 0.67837347745467769 0.68240285647621723 1 0.52310058211166854 0.51961524227008238 1 0.49999999999872219 0.6123333432449789 1 0.67837347745467769 0.49983993748706529 0.75039103705932653 0.52967335724801234 0.45820186441573879 1 0.68969697123405882 0.51961524227008238 1 0.49999999999872219 0.6123333432449789 1 0.67837347745467769 0.68240285647621723 1 0.52310058211166854 0.49983993748706529 0.75039103705932653 0.52967335724801234 0.68649174659499257 0.68600703198516766 0.6864917465949647 0.49816183246753282 0.5307146639261795 0.75045686993209071 0.49983993748706529 0.75039103705932653 0.52967335724801234 0.49911199724958061 0.77872228561593948 0.77895350115271889 0.7504488434426726 0.53051757989633308 0.49836643074154852 0.50000000000001332 0.49999999999999561 0.49999999999999561 0.68649174659499257 0.68600703198516766 0.6864917465949647 0.49816183246753282 0.5307146639261795 0.75045686993209071 0.7504488434426726 0.53051757989633308 0.49836643074154852 0.78019141325921404 0.49972466465542442 0.78019141325930785 0.68649174659499257 0.68600703198516766 0.6864917465949647 0.49816183246753282 0.5307146639261795 0.75045686993209071 0.7504488434426726 0.53051757989633308 0.49836643074154852 0.50000000000001332 0.49999999999999561 0.49999999999999561 0.68649174659499257 0.68600703198516766 0.6864917465949647 0.49983993748706529 0.75039103705932653 0.52967335724801234 0.77374673111774417 0.78860835645735528 0.49829081152968557 0.7504488434426726 0.53051757989633308 0.49836643074154852 0.68649174659499257 0.68600703198516766 0.6864917465949647 0.49983993748706529 0.75039103705932653 0.52967335724801234 0.50000000000001332 0.49999999999999561 0.49999999999999561 0.68649174659499257 0.68600703198516766 0.6864917465949647 0.49816183246753282 0.5307146639261795 0.75045686993209071 0.49983993748706529 0.75039103705932653 0.52967335724801234 0.78019141325921404 0.49972466465542442 0.78019141325930785 0.67320508075671459 0.53045230059073867 1 0.61016512164652226 0.67939035495506384 1 0.49816183246753282 0.5307146639261795 0.75045686993209071 0.78019141325921404 0.49972466465542442 0.78019141325930785 0.68649174659499257 0.68600703198516766 0.6864917465949647 0.61016512164652226 0.67939035495506384 1 0.49816183246753282 0.5307146639261795 0.75045686993209071 0.78019141325921404 0.49972466465542442 0.78019141325930785 0.80839867011861499 0.68192028468377774 1 0.68649174659499257 0.68600703198516766 0.6864917465949647 0.61016512164652226 0.67939035495506384 1 0.77683220420328725 0.81278569633583353 0.81664766512111064 0.68649174659499257 0.68600703198516766 0.6864917465949647 0.61016512164652226 0.67939035495506384 1 0.49911199724958061 0.77872228561593948 0.77895350115271889 0.68649174659499257 0.68600703198516766 0.6864917465949647 0.61016512164652226 0.67939035495506384 1 0.49816183246753282 0.5307146639261795 0.75045686993209071 0.49911199724958061 0.77872228561593948 0.77895350115271889 0.80839867011861499 0.68192028468377774 1 0.77683220420328725 0.81278569633583353 0.81664766512111064 0.68649174659499257 0.68600703198516766 0.6864917465949647 0.61016512164652226 0.67939035495506384 1 0.78019141325921404 0.49972466465542442 0.78019141325930785 0.80839867011861499 0.68192028468377774 1 0.67320508075671459 0.53045230059073867 1 0.61016512164652226 0.67939035495506384 1 0.61016512164652226 0.67939035495506384 1 0.45812322962090041 0.68975022421538157 1 0.49816183246753282 0.5307146639261795 0.75045686993209071 0.49911199724958061 0.77872228561593948 0.77895350115271889 0.50803330197137353 0.83630110503667787 1 0.61016512164652226 0.67939035495506384 1 0.45812322962090041 0.68975022421538157 1 0.49911199724958061 0.77872228561593948 0.77895350115271889 0.61016512164652226 0.67939035495506384 1 0.51961524226934941 0.50000000000250611 1 0.45812322962090041 0.68975022421538157 1 0.49816183246753282 0.5307146639261795 0.75045686993209071 0.67320508075671459 0.53045230059073867 1 0.61016512164652226 0.67939035495506384 1 0.51961524226934941 0.50000000000250611 1 0.49816183246753282 0.5307146639261795 0.75045686993209071 0.32446581821293602 0.60020898676440626 1 0.3115891413135391 0.68758981780459771 0.68521708032990558 0.18453958615733529 0.77655623474864555 0.81613222483915937 0.2184393375098648 0.50004596894495223 0.77634962490704662 0.51961524226934941 0.50000000000250611 1 0.32446581821293602 0.60020898676440626 1 0.49816183246753282 0.5307146639261795 0.75045686993209071 0.32925244736146098 0.39615100178034629 1 0.45812322962090041 0.68975022421538157 1 0.3115891413135391 0.68758981780459771 0.68521708032990558 0.49911199724958061 0.77872228561593948 0.77895350115271889 0.31067093462947892 0.81480288849497895 1 0.32446581821293602 0.60020898676440626 1 0.49816183246753282 0.5307146639261795 0.75045686993209071 0.2184393375098648 0.50004596894495223 0.77634962490704662 0.32925244736146098 0.39615100178034629 1 0.45812322962090041 0.68975022421538157 1 0.49816183246753282 0.5307146639261795 0.75045686993209071 0.3115891413135391 0.68758981780459771 0.68521708032990558 0.49911199724958061 0.77872228561593948 0.77895350115271889 0.32446581821293602 0.60020898676440626 1 0.49816183246753282 0.5307146639261795 0.75045686993209071 0.3115891413135391 0.68758981780459771 0.68521708032990558 0.2184393375098648 0.50004596894495223 0.77634962490704662 0.51961524226934941 0.50000000000250611 1 0.45812322962090041 0.68975022421538157 1 0.32446581821293602 0.60020898676440626 1 0.49816183246753282 0.5307146639261795 0.75045686993209071 0.45812322962090041 0.68975022421538157 1 0.32446581821293602 0.60020898676440626 1 0.3115891413135391 0.68758981780459771 0.68521708032990558 0.31067093462947892 0.81480288849497895 1 0.45812322962090041 0.68975022421538157 1 0.32446581821293602 0.60020898676440626 1 0.49816183246753282 0.5307146639261795 0.75045686993209071 0.3115891413135391 0.68758981780459771 0.68521708032990558 0.32446581821293602 0.60020898676440626 1 0.3115891413135391 0.68758981780459771 0.68521708032990558 0.31067093462947892 0.81480288849497895 1 0.18453958615733529 0.77655623474864555 0.81613222483915937 0.24769234054476261 0.52242103280823293 0.45098450226372488 0.50000000000001332 0.49999999999999561 0.49999999999999561 0.3115891413135391 0.68758981780459771 0.68521708032990558 0.49983993748706529 0.75039103705932653 0.52967335724801234 0.50000000000001332 0.49999999999999561 0.49999999999999561 0.49816183246753282 0.5307146639261795 0.75045686993209071 0.3115891413135391 0.68758981780459771 0.68521708032990558 0.49983993748706529 0.75039103705932653 0.52967335724801234 0.24769234054476261 0.52242103280823293 0.45098450226372488 0.22516916914780419 0.77057994845201627 0.48187244075707292 0.3115891413135391 0.68758981780459771 0.68521708032990558 0.49983993748706529 0.75039103705932653 0.52967335724801234 0.24769234054476261 0.52242103280823293 0.45098450226372488 0.50000000000001332 0.49999999999999561 0.49999999999999561 0.3115891413135391 0.68758981780459771 0.68521708032990558 0.2184393375098648 0.50004596894495223 0.77634962490704662 0.50000000000001332 0.49999999999999561 0.49999999999999561 0.49816183246753282 0.5307146639261795 0.75045686993209071 0.3115891413135391 0.68758981780459771 0.68521708032990558 0.2184393375098648 0.50004596894495223 0.77634962490704662 0.49816183246753282 0.5307146639261795 0.75045686993209071 0.3115891413135391 0.68758981780459771 0.68521708032990558 0.49983993748706529 0.75039103705932653 0.52967335724801234 0.49911199724958061 0.77872228561593948 0.77895350115271889 0.3115891413135391 0.68758981780459771 0.68521708032990558 0.49983993748706529 0.75039103705932653 0.52967335724801234 0.32448110831226962 1 0.6002015905153204 0.45820186441573879 1 0.68969697123405882 0.3115891413135391 0.68758981780459771 0.68521708032990558 0.32448110831226962 1 0.6002015905153204 0.45820186441573879 1 0.68969697123405882 0.31085062173747541 1 0.81469961246428202 0.3115891413135391 0.68758981780459771 0.68521708032990558 0.49983993748706529 0.75039103705932653 0.52967335724801234 0.45820186441573879 1 0.68969697123405882 0.49911199724958061 0.77872228561593948 0.77895350115271889 0.3115891413135391 0.68758981780459771 0.68521708032990558 0.32448110831226962 1 0.6002015905153204 0.31085062173747541 1 0.81469961246428202 0.18453958615733529 0.77655623474864555 0.81613222483915937 0.22516916914780419 0.77057994845201627 0.48187244075707292 0.3115891413135391 0.68758981780459771 0.68521708032990558 0.49983993748706529 0.75039103705932653 0.52967335724801234 0.32448110831226962 1 0.6002015905153204 0.3115891413135391 0.68758981780459771 0.68521708032990558 0.45820186441573879 1 0.68969697123405882 0.49911199724958061 0.77872228561593948 0.77895350115271889 0.31085062173747541 1 0.81469961246428202 0.22516916914780419 0.77057994845201627 0.48187244075707292 0.32926555316115258 1 0.39615987727515128 0.49983993748706529 0.75039103705932653 0.52967335724801234 0.32448110831226962 1 0.6002015905153204 0.22516916914780419 0.77057994845201627 0.48187244075707292 0.3115891413135391 0.68758981780459771 0.68521708032990558 0.32448110831226962 1 0.6002015905153204 0.15900053892265181 1 0.69447607299016312 0.32926555316115258 1 0.39615987727515128 0.51961524227008238 1 0.49999999999872219 0.49983993748706529 0.75039103705932653 0.52967335724801234 0.32448110831226962 1 0.6002015905153204 0.51961524227008238 1 0.49999999999872219 0.49983993748706529 0.75039103705932653 0.52967335724801234 0.32448110831226962 1 0.6002015905153204 0.45820186441573879 1 0.68969697123405882 0.50970031073508926 1 0.83534964916803001 0.45820186441573879 1 0.68969697123405882 0.49911199724958061 0.77872228561593948 0.77895350115271889 0.31085062173747541 1 0.81469961246428202 0.49911199724958061 0.77872228561593948 0.77895350115271889 0.31067093462947892 0.81480288849497895 1 0.31085062173747541 1 0.81469961246428202 0.18453958615733529 0.77655623474864555 0.81613222483915937 0.3115891413135391 0.68758981780459771 0.68521708032990558 0.49911199724958061 0.77872228561593948 0.77895350115271889 0.31085062173747541 1 0.81469961246428202 0.18453958615733529 0.77655623474864555 0.81613222483915937 0.50803330197137353 0.83630110503667787 1 0.50970031073508926 1 0.83534964916803001 0.49911199724958061 0.77872228561593948 0.77895350115271889 0.31085062173747541 1 0.81469961246428202 0.3115891413135391 0.68758981780459771 0.68521708032990558 0.49911199724958061 0.77872228561593948 0.77895350115271889 0.31067093462947892 0.81480288849497895 1 0.18453958615733529 0.77655623474864555 0.81613222483915937 0.50803330197137353 0.83630110503667787 1 0.50970031073508926 1 0.83534964916803001 0.3999999999989749 1 1 0.31085062173747541 1 0.81469961246428202 0.50803330197137353 0.83630110503667787 1 0.3999999999989749 1 1 0.31067093462947892 0.81480288849497895 1 0.31085062173747541 1 0.81469961246428202 0.50803330197137353 0.83630110503667787 1 0.49911199724958061 0.77872228561593948 0.77895350115271889 0.31067093462947892 0.81480288849497895 1 0.31085062173747541 1 0.81469961246428202 0.50803330197137353 0.83630110503667787 1 0.45812322962090041 0.68975022421538157 1 0.49911199724958061 0.77872228561593948 0.77895350115271889 0.31067093462947892 0.81480288849497895 1 0.3999999999989749 1 1 0.31067093462947892 0.81480288849497895 1 0.31085062173747541 1 0.81469961246428202 0.19999999999955789 1 1 0.31085062173747541 1 0.81469961246428202 0.1464101615132356 1 0.85358983848650494 0.18453958615733529 0.77655623474864555 0.81613222483915937 0.15900053892265181 1 0.69447607299016312 0.31067093462947892 0.81480288849497895 1 0.31085062173747541 1 0.81469961246428202 0.1464101615132356 1 0.85358983848650494 0.18453958615733529 0.77655623474864555 0.81613222483915937 0.31067093462947892 0.81480288849497895 1 0.31085062173747541 1 0.81469961246428202 0.1464101615132356 1 0.85358983848650494 0.19999999999955789 1 1 0.31067093462947892 0.81480288849497895 1 0.1464101615132356 1 0.85358983848650494 0.19999999999955789 1 1 0.14641016151332509 0.85358983848655678 1 0.31067093462947892 0.81480288849497895 1 0.14641016151332509 0.85358983848655678 1 0.18453958615733529 0.77655623474864555 0.81613222483915937 0.15896804272141651 0.69449451837104537 1 0.31067093462947892 0.81480288849497895 1 0.1464101615132356 1 0.85358983848650494 0.14641016151332509 0.85358983848655678 1 0.18453958615733529 0.77655623474864555 0.81613222483915937 0.18453958615733529 0.77655623474864555 0.81613222483915937 0 0.85358983848682146 0.85358983848668035 0 0.80860557108920617 0.70542349973054763 0 0.69992182039579531 0.85173693729137989 0.18453958615733529 0.77655623474864555 0.81613222483915937 0 0.85358983848682146 0.85358983848668035 0.15900053892265181 1 0.69447607299016312 0 0.80860557108920617 0.70542349973054763 0.14641016151332509 0.85358983848655678 1 0.18453958615733529 0.77655623474864555 0.81613222483915937 0 0.79999999999999982 1 0.15896804272141651 0.69449451837104537 1 0.1464101615132356 1 0.85358983848650494 0.14641016151332509 0.85358983848655678 1 0.18453958615733529 0.77655623474864555 0.81613222483915937 0 0.85358983848682146 0.85358983848668035 0.18453958615733529 0.77655623474864555 0.81613222483915937 0 0.85358983848682146 0.85358983848668035 0 0.79999999999999982 1 0 0.69992182039579531 0.85173693729137989 0.14641016151332509 0.85358983848655678 1 0.18453958615733529 0.77655623474864555 0.81613222483915937 0 0.85358983848682146 0.85358983848668035 0 0.79999999999999982 1 0.14641016151332509 0.85358983848655678 1 0 0.85358983848682146 0.85358983848668035 0 0.79999999999999982 1 0 1 1 0.1464101615132356 1 0.85358983848650494 0.14641016151332509 0.85358983848655678 1 0 0.85358983848682146 0.85358983848668035 0 1 1 0.1464101615132356 1 0.85358983848650494 0.19999999999955789 1 1 0.14641016151332509 0.85358983848655678 1 0 1 1 0.1464101615132356 1 0.85358983848650494 0 0.85358983848682146 0.85358983848668035 0 1 1 0 1 0.79999999999947335 0.1464101615132356 1 0.85358983848650494 0.18453958615733529 0.77655623474864555 0.81613222483915937 0 0.85358983848682146 0.85358983848668035 0.15900053892265181 1 0.69447607299016312 0 0.85358983848682146 0.85358983848668035 0 1 0.79999999999947335 0.15900053892265181 1 0.69447607299016312 0 0.80860557108920617 0.70542349973054763 0.1464101615132356 1 0.85358983848650494 0 0.85358983848682146 0.85358983848668035 0 1 0.79999999999947335 0.15900053892265181 1 0.69447607299016312 0 1 0.79999999999947335 0.15900053892265181 1 0.69447607299016312 0 1 0.59999999999894682 0 0.80860557108920617 0.70542349973054763 0.22516916914780419 0.77057994845201627 0.48187244075707292 0.3115891413135391 0.68758981780459771 0.68521708032990558 0.18453958615733529 0.77655623474864555 0.81613222483915937 0 0.80860557108920617 0.70542349973054763 0.15900053892265181 1 0.69447607299016312 0 1 0.59999999999894682 0 0.83630110503664845 0.50803330197135654 0 0.80860557108920617 0.70542349973054763 0.3115891413135391 0.68758981780459771 0.68521708032990558 0.32448110831226962 1 0.6002015905153204 0.18453958615733529 0.77655623474864555 0.81613222483915937 0.15900053892265181 1 0.69447607299016312 0.22516916914780419 0.77057994845201627 0.48187244075707292 0.3115891413135391 0.68758981780459771 0.68521708032990558 0.18453958615733529 0.77655623474864555 0.81613222483915937 0.15900053892265181 1 0.69447607299016312 0.22516916914780419 0.77057994845201627 0.48187244075707292 0.18453958615733529 0.77655623474864555 0.81613222483915937 0.15900053892265181 1 0.69447607299016312 0 0.80860557108920617 0.70542349973054763 0.32448110831226962 1 0.6002015905153204 0.31085062173747541 1 0.81469961246428202 0.18453958615733529 0.77655623474864555 0.81613222483915937 0.15900053892265181 1 0.69447607299016312 0.22516916914780419 0.77057994845201627 0.48187244075707292 0.17226134197293 1 0.49836539647645101 0.32448110831226962 1 0.6002015905153204 0.15900053892265181 1 0.69447607299016312 0.22516916914780419 0.77057994845201627 0.48187244075707292 0.17226134197293 1 0.49836539647645101 0.15900053892265181 1 0.69447607299016312 0 0.83630110503664845 0.50803330197135654 0 1 0.3999999999989749 0.17226134197293 1 0.49836539647645101 0 1 0.59999999999894682 0 0.83630110503664845 0.50803330197135654 0.17226134197293 1 0.49836539647645101 0.15900053892265181 1 0.69447607299016312 0 1 0.59999999999894682 0 0.83630110503664845 0.50803330197135654 0.22516916914780419 0.77057994845201627 0.48187244075707292 0.15900053892265181 1 0.69447607299016312 0 0.83630110503664845 0.50803330197135654 0 0.80860557108920617 0.70542349973054763 0.22516916914780419 0.77057994845201627 0.48187244075707292 0 0.83630110503664845 0.50803330197135654 0 0.80860557108920617 0.70542349973054763 0 0.66416205381430016 0.59944234540882957 0.22516916914780419 0.77057994845201627 0.48187244075707292 0.3115891413135391 0.68758981780459771 0.68521708032990558 0 0.80860557108920617 0.70542349973054763 0 0.66416205381430016 0.59944234540882957 0.3115891413135391 0.68758981780459771 0.68521708032990558 0.18453958615733529 0.77655623474864555 0.81613222483915937 0 0.80860557108920617 0.70542349973054763 0 0.66416205381430016 0.59944234540882957 0.18453958615733529 0.77655623474864555 0.81613222483915937 0 0.80860557108920617 0.70542349973054763 0 0.66416205381430016 0.59944234540882957 0 0.60922248848335758 0.72722573386012812 0.24769234054476261 0.52242103280823293 0.45098450226372488 0.3115891413135391 0.68758981780459771 0.68521708032990558 0 0.66416205381430016 0.59944234540882957 0.2184393375098648 0.50004596894495223 0.77634962490704662 0.3115891413135391 0.68758981780459771 0.68521708032990558 0.18453958615733529 0.77655623474864555 0.81613222483915937 0 0.66416205381430016 0.59944234540882957 0 0.60922248848335758 0.72722573386012812 0 0.66416205381430016 0.59944234540882957 0 0.50000000000237477 0.51961524226909872 0.2184393375098648 0.50004596894495223 0.77634962490704662 0 0.46954769941369501 0.67320508075638175 0.3115891413135391 0.68758981780459771 0.68521708032990558 0 0.66416205381430016 0.59944234540882957 0 0.60922248848335758 0.72722573386012812 0.2184393375098648 0.50004596894495223 0.77634962490704662 0.24769234054476261 0.52242103280823293 0.45098450226372488 0.22516916914780419 0.77057994845201627 0.48187244075707292 0.3115891413135391 0.68758981780459771 0.68521708032990558 0 0.66416205381430016 0.59944234540882957 0.24769234054476261 0.52242103280823293 0.45098450226372488 0 0.66416205381430016 0.59944234540882957 0 0.50000000000237477 0.51961524226909872 0.2184393375098648 0.50004596894495223 0.77634962490704662 0 0.68801781652248195 0.45664527743358641 0.22516916914780419 0.77057994845201627 0.48187244075707292 0 0.83630110503664845 0.50803330197135654 0 0.66416205381430016 0.59944234540882957 0.24769234054476261 0.52242103280823293 0.45098450226372488 0 0.68801781652248195 0.45664527743358641 0 0.66416205381430016 0.59944234540882957 0 0.50000000000237477 0.51961524226909872 0 0.66416205381430016 0.59944234540882957 0 0.60922248848335758 0.72722573386012812 0.2184393375098648 0.50004596894495223 0.77634962490704662 0 0.46954769941369501 0.67320508075638175 0 0.5118616330515301 0.84191918937737908 0 0.69992182039579531 0.85173693729137989 0.2184393375098648 0.50004596894495223 0.77634962490704662 0.15896804272141651 0.69449451837104537 1 0.3115891413135391 0.68758981780459771 0.68521708032990558 0.18453958615733529 0.77655623474864555 0.81613222483915937 0 0.60922248848335758 0.72722573386012812 0.2184393375098648 0.50004596894495223 0.77634962490704662 0.18453958615733529 0.77655623474864555 0.81613222483915937 0 0.69992182039579531 0.85173693729137989 0.2184393375098648 0.50004596894495223 0.77634962490704662 0.15896804272141651 0.69449451837104537 1 0 0.60922248848335758 0.72722573386012812 0 0.5118616330515301 0.84191918937737908 0.2184393375098648 0.50004596894495223 0.77634962490704662 0 0.46954769941369501 0.67320508075638175 0 0.60922248848335758 0.72722573386012812 0 0.5118616330515301 0.84191918937737908 0 0.69992182039579531 0.85173693729137989 0.2184393375098648 0.50004596894495223 0.77634962490704662 0.32446581821293602 0.60020898676440626 1 0.18453958615733529 0.77655623474864555 0.81613222483915937 0.2184393375098648 0.50004596894495223 0.77634962490704662 0.15896804272141651 0.69449451837104537 1 0.18453958615733529 0.77655623474864555 0.81613222483915937 0 0.60922248848335758 0.72722573386012812 0 0.69992182039579531 0.85173693729137989 0.2184393375098648 0.50004596894495223 0.77634962490704662 0.18453958615733529 0.77655623474864555 0.81613222483915937 0 0.80860557108920617 0.70542349973054763 0 0.60922248848335758 0.72722573386012812 0 0.69992182039579531 0.85173693729137989 0.32446581821293602 0.60020898676440626 1 0.2184393375098648 0.50004596894495223 0.77634962490704662 0.15896804272141651 0.69449451837104537 1 0.17226134197275911 0.49836539647894412 1 0 0.5118616330515301 0.84191918937737908 0.2184393375098648 0.50004596894495223 0.77634962490704662 0.15896804272141651 0.69449451837104537 1 0.17226134197275911 0.49836539647894412 1 0.32446581821293602 0.60020898676440626 1 0.31067093462947892 0.81480288849497895 1 0.18453958615733529 0.77655623474864555 0.81613222483915937 0.15896804272141651 0.69449451837104537 1 0.18453958615733529 0.77655623474864555 0.81613222483915937 0 0.79999999999999982 1 0 0.69992182039579531 0.85173693729137989 0.15896804272141651 0.69449451837104537 1 0 0.5118616330515301 0.84191918937737908 0 0.69992182039579531 0.85173693729137989 0.15896804272141651 0.69449451837104537 1 0 0.60000000000138687 1 0 0.79999999999999982 1 0 0.69992182039579531 0.85173693729137989 0.15896804272141651 0.69449451837104537 1 0 0.60000000000138687 1 0 0.5118616330515301 0.84191918937737908 0.15896804272141651 0.69449451837104537 1 0 0.60000000000138687 1 0.17226134197275911 0.49836539647894412 1 0 0.5118616330515301 0.84191918937737908 0 0.60000000000138687 1 0 0.40000000000166441 1 0.17226134197275911 0.49836539647894412 1 0 0.5118616330515301 0.84191918937737908 0 0.40000000000166441 1 0 0.31807971531776508 0.80839867011913336 0.17226134197275911 0.49836539647894412 1 0 0.40000000000166441 1 0 0.31807971531776508 0.80839867011913336 0.16929708765653109 0.30074819035870082 1 0.17226134197275911 0.49836539647894412 1 0 0.31807971531776508 0.80839867011913336 0.16929708765653109 0.30074819035870082 1 0.31426750628021272 0.31270343261798911 0.68761148188185484 0 0.14641016151490169 0.85358983848532144 0.2184393375098648 0.50004596894495223 0.77634962490704662 0 0.31807971531776508 0.80839867011913336 0.16929708765653109 0.30074819035870082 1 0.31426750628021272 0.31270343261798911 0.68761148188185484 0 0.5118616330515301 0.84191918937737908 0.2184393375098648 0.50004596894495223 0.77634962490704662 0 0.31807971531776508 0.80839867011913336 0 0.46954769941369501 0.67320508075638175 0 0.5118616330515301 0.84191918937737908 0.2184393375098648 0.50004596894495223 0.77634962490704662 0 0.31807971531776508 0.80839867011913336 0.17226134197275911 0.49836539647894412 1 0 0.40000000000166441 1 0 0.31807971531776508 0.80839867011913336 0.16929708765653109 0.30074819035870082 1 0 0.20000000000083221 1 0.2184393375098648 0.50004596894495223 0.77634962490704662 0.16929708765653109 0.30074819035870082 1 0.17226134197275911 0.49836539647894412 1 0.32925244736146098 0.39615100178034629 1 0.2184393375098648 0.50004596894495223 0.77634962490704662 0 0.31807971531776508 0.80839867011913336 0.16929708765653109 0.30074819035870082 1 0.17226134197275911 0.49836539647894412 1 0.16929708765653109 0.30074819035870082 1 0.32925244736146098 0.39615100178034629 1 0.31426750628021272 0.31270343261798911 0.68761148188185484 0.31610726166461628 0.1880448979455934 1 0.32446581821293602 0.60020898676440626 1 0.2184393375098648 0.50004596894495223 0.77634962490704662 0.17226134197275911 0.49836539647894412 1 0.32925244736146098 0.39615100178034629 1 0.50084626324420545 0.22238844715913 0.78084811589659187 0.49816183246753282 0.5307146639261795 0.75045686993209071 0.45812322962173568 0.31024977578554058 1 0.31426750628021272 0.31270343261798911 0.68761148188185484 0.49816183246753282 0.5307146639261795 0.75045686993209071 0.2184393375098648 0.50004596894495223 0.77634962490704662 0.32925244736146098 0.39615100178034629 1 0.31426750628021272 0.31270343261798911 0.68761148188185484 0.32925244736146098 0.39615100178034629 1 0.45812322962173568 0.31024977578554058 1 0.31426750628021272 0.31270343261798911 0.68761148188185484 0.31610726166461628 0.1880448979455934 1 0.50084626324420545 0.22238844715913 0.78084811589659187 0.45812322962173568 0.31024977578554058 1 0.31426750628021272 0.31270343261798911 0.68761148188185484 0.31610726166461628 0.1880448979455934 1 0.49816183246753282 0.5307146639261795 0.75045686993209071 0.32925244736146098 0.39615100178034629 1 0.45812322962173568 0.31024977578554058 1 0.31426750628021272 0.31270343261798911 0.68761148188185484 0.2184393375098648 0.50004596894495223 0.77634962490704662 0.16929708765653109 0.30074819035870082 1 0.32925244736146098 0.39615100178034629 1 0.31426750628021272 0.31270343261798911 0.68761148188185484 0.51961524226934941 0.50000000000250611 1 0.49816183246753282 0.5307146639261795 0.75045686993209071 0.32925244736146098 0.39615100178034629 1 0.45812322962173568 0.31024977578554058 1 0.50000000000001332 0.49999999999999561 0.49999999999999561 0.49816183246753282 0.5307146639261795 0.75045686993209071 0.2184393375098648 0.50004596894495223 0.77634962490704662 0.31426750628021272 0.31270343261798911 0.68761148188185484 0.24769234054476261 0.52242103280823293 0.45098450226372488 0.50073570207385831 0.24848280280289631 0.52886631355986169 0.31426750628021272 0.31270343261798911 0.68761148188185484 0.22088738526309029 0.22111069116742441 0.50004796911802929 0.50073570207385831 0.24848280280289631 0.52886631355986169 0.50084626324420545 0.22238844715913 0.78084811589659187 0.49816183246753282 0.5307146639261795 0.75045686993209071 0.31426750628021272 0.31270343261798911 0.68761148188185484 0.24769234054476261 0.52242103280823293 0.45098450226372488 0.50000000000001332 0.49999999999999561 0.49999999999999561 0.50073570207385831 0.24848280280289631 0.52886631355986169 0.31426750628021272 0.31270343261798911 0.68761148188185484 0.50000000000001332 0.49999999999999561 0.49999999999999561 0.50073570207385831 0.24848280280289631 0.52886631355986169 0.49816183246753282 0.5307146639261795 0.75045686993209071 0.31426750628021272 0.31270343261798911 0.68761148188185484 0.24769234054476261 0.52242103280823293 0.45098450226372488 0.50000000000001332 0.49999999999999561 0.49999999999999561 0.2184393375098648 0.50004596894495223 0.77634962490704662 0.31426750628021272 0.31270343261798911 0.68761148188185484 0.24769234054476261 0.52242103280823293 0.45098450226372488 0 0.50000000000237477 0.51961524226909872 0.2184393375098648 0.50004596894495223 0.77634962490704662 0.31426750628021272 0.31270343261798911 0.68761148188185484 0 0.31024977578556651 0.45812322962166352 0.24769234054476261 0.52242103280823293 0.45098450226372488 0 0.32043363027398297 0.61046998817722586 0.22088738526309029 0.22111069116742441 0.50004796911802929 0.24769234054476261 0.52242103280823293 0.45098450226372488 0 0.50000000000237477 0.51961524226909872 0.31426750628021272 0.31270343261798911 0.68761148188185484 0 0.32043363027398297 0.61046998817722586 0 0.50000000000237477 0.51961524226909872 0.2184393375098648 0.50004596894495223 0.77634962490704662 0.31426750628021272 0.31270343261798911 0.68761148188185484 0 0.32043363027398297 0.61046998817722586 0.24769234054476261 0.52242103280823293 0.45098450226372488 0.31426750628021272 0.31270343261798911 0.68761148188185484 0 0.32043363027398297 0.61046998817722586 0.22088738526309029 0.22111069116742441 0.50004796911802929 0 0.50000000000237477 0.51961524226909872 0.2184393375098648 0.50004596894495223 0.77634962490704662 0 0.46954769941369501 0.67320508075638175 0 0.32043363027398297 0.61046998817722586 0.31426750628021272 0.31270343261798911 0.68761148188185484 0 0.32043363027398297 0.61046998817722586 0.22088738526309029 0.22111069116742441 0.50004796911802929 0 0.16196943494415611 0.69380980080116506 0.2184393375098648 0.50004596894495223 0.77634962490704662 0 0.31807971531776508 0.80839867011913336 0.31426750628021272 0.31270343261798911 0.68761148188185484 0 0.32043363027398297 0.61046998817722586 0 0.31807971531776508 0.80839867011913336 0.31426750628021272 0.31270343261798911 0.68761148188185484 0 0.32043363027398297 0.61046998817722586 0 0.16196943494415611 0.69380980080116506 0 0.31024977578556651 0.45812322962166352 0.24769234054476261 0.52242103280823293 0.45098450226372488 0 0.50000000000237477 0.51961524226909872 0 0.32043363027398297 0.61046998817722586 0.2184393375098648 0.50004596894495223 0.77634962490704662 0 0.31807971531776508 0.80839867011913336 0 0.46954769941369501 0.67320508075638175 0 0.32043363027398297 0.61046998817722586 0 0.31024977578556651 0.45812322962166352 0 0.32043363027398297 0.61046998817722586 0.22088738526309029 0.22111069116742441 0.50004796911802929 0 0.16275515618034081 0.50966790549591257 0.31426750628021272 0.31270343261798911 0.68761148188185484 0 0.16196943494415611 0.69380980080116506 0.18818969570926641 0 0.68364148842842287 0.14641016151479661 0 0.85358983848542624 0.31426750628021272 0.31270343261798911 0.68761148188185484 0.22088738526309029 0.22111069116742441 0.50004796911802929 0 0.16196943494415611 0.69380980080116506 0.18818969570926641 0 0.68364148842842287 0.22088738526309029 0.22111069116742441 0.50004796911802929 0 0.16275515618034081 0.50966790549591257 0 0.16196943494415611 0.69380980080116506 0.18818969570926641 0 0.68364148842842287 0 0.32043363027398297 0.61046998817722586 0.22088738526309029 0.22111069116742441 0.50004796911802929 0 0.16275515618034081 0.50966790549591257 0 0.16196943494415611 0.69380980080116506 0 0.16196943494415611 0.69380980080116506 0.18818969570926641 0 0.68364148842842287 0 0 0.60000000000138687 0 0 0.79999999999999982 0 0.16275515618034081 0.50966790549591257 0 0.16196943494415611 0.69380980080116506 0.18818969570926641 0 0.68364148842842287 0 0 0.60000000000138687 0.16370661204827031 0 0.4886650857430957 0 0.16275515618034081 0.50966790549591257 0.18818969570926641 0 0.68364148842842287 0 0 0.60000000000138687 0.16370661204827031 0 0.4886650857430957 0.22088738526309029 0.22111069116742441 0.50004796911802929 0.18818969570926641 0 0.68364148842842287 0.31030302876556398 0 0.54179813558513157 0.16370661204827031 0 0.4886650857430957 0.22088738526309029 0.22111069116742441 0.50004796911802929 0 0.16275515618034081 0.50966790549591257 0.18818969570926641 0 0.68364148842842287 0.31426750628021272 0.31270343261798911 0.68761148188185484 0.18818969570926641 0 0.68364148842842287 0.39615987727709562 0 0.67073444684008199 0.30074819035913852 0 0.83070291234383831 0.50073570207385831 0.24848280280289631 0.52886631355986169 0.31426750628021272 0.31270343261798911 0.68761148188185484 0.22088738526309029 0.22111069116742441 0.50004796911802929 0.31030302876556398 0 0.54179813558513157 0.50073570207385831 0.24848280280289631 0.52886631355986169 0.31426750628021272 0.31270343261798911 0.68761148188185484 0.31030302876556398 0 0.54179813558513157 0.39615987727709562 0 0.67073444684008199 0.50084626324420545 0.22238844715913 0.78084811589659187 0.31426750628021272 0.31270343261798911 0.68761148188185484 0.39615987727709562 0 0.67073444684008199 0.30074819035913852 0 0.83070291234383831 0.31426750628021272 0.31270343261798911 0.68761148188185484 0.22088738526309029 0.22111069116742441 0.50004796911802929 0.18818969570926641 0 0.68364148842842287 0.31030302876556398 0 0.54179813558513157 0.6002015905170176 0 0.67551889168744117 0.50073570207385831 0.24848280280289631 0.52886631355986169 0.50084626324420545 0.22238844715913 0.78084811589659187 0.39615987727709562 0 0.67073444684008199 0.31426750628021272 0.31270343261798911 0.68761148188185484 0.18818969570926641 0 0.68364148842842287 0.31030302876556398 0 0.54179813558513157 0.39615987727709562 0 0.67073444684008199 0.50073570207385831 0.24848280280289631 0.52886631355986169 0.50084626324420545 0.22238844715913 0.78084811589659187 0.31426750628021272 0.31270343261798911 0.68761148188185484 0.39615987727709562 0 0.67073444684008199 0.50000000000250922 0 0.48038475773043671 0.6002015905170176 0 0.67551889168744117 0.50073570207385831 0.24848280280289631 0.52886631355986169 0.39615987727709562 0 0.67073444684008199 0.50000000000250922 0 0.48038475773043671 0.50073570207385831 0.24848280280289631 0.52886631355986169 0.31030302876556398 0 0.54179813558513157 0.39615987727709562 0 0.67073444684008199 0.6002015905170176 0 0.67551889168744117 0.50084626324420545 0.22238844715913 0.78084811589659187 0.39615987727709562 0 0.67073444684008199 0.49836539647917322 0 0.82773865802723501 0.31426750628021272 0.31270343261798911 0.68761148188185484 0.30074819035913852 0 0.83070291234383831 0.31610726166461628 0.1880448979455934 1 0.14641016151432179 0.14641016151432179 1 0.50084626324420545 0.22238844715913 0.78084811589659187 0.31426750628021272 0.31270343261798911 0.68761148188185484 0.30074819035913852 0 0.83070291234383831 0.31610726166461628 0.1880448979455934 1 0.50084626324420545 0.22238844715913 0.78084811589659187 0.30074819035913852 0 0.83070291234383831 0.49836539647917322 0 0.82773865802723501 0.31610726166461628 0.1880448979455934 1 0.50084626324420545 0.22238844715913 0.78084811589659187 0.39615987727709562 0 0.67073444684008199 0.30074819035913852 0 0.83070291234383831 0.49836539647917322 0 0.82773865802723501 0.50966790549576724 0.1627551561802443 1 0.49836539647917322 0 0.82773865802723501 0.40000000000166441 0 1 0.31610726166461628 0.1880448979455934 1 0.30074819035913852 0 0.83070291234383831 0.49836539647917322 0 0.82773865802723501 0.40000000000166441 0 1 0.31610726166461628 0.1880448979455934 1 0.50966790549576724 0.1627551561802443 1 0.50084626324420545 0.22238844715913 0.78084811589659187 0.49836539647917322 0 0.82773865802723501 0.31610726166461628 0.1880448979455934 1 0.50966790549576724 0.1627551561802443 1 0.50084626324420545 0.22238844715913 0.78084811589659187 0.45812322962173568 0.31024977578554058 1 0.31610726166461628 0.1880448979455934 1 0.30074819035913852 0 0.83070291234383831 0.40000000000166441 0 1 0.31610726166461628 0.1880448979455934 1 0.20000000000083221 0 1 0 0.31807971531776508 0.80839867011913336 0.31426750628021272 0.31270343261798911 0.68761148188185484 0 0.16196943494415611 0.69380980080116506 0 0.14641016151490169 0.85358983848532144 0.16929708765653109 0.30074819035870082 1 0.31426750628021272 0.31270343261798911 0.68761148188185484 0.31610726166461628 0.1880448979455934 1 0.14641016151432179 0.14641016151432179 1 0.30074819035913852 0 0.83070291234383831 0.20000000000083221 0 1 0.14641016151479661 0 0.85358983848542624 0.14641016151432179 0.14641016151432179 1 0.31426750628021272 0.31270343261798911 0.68761148188185484 0.30074819035913852 0 0.83070291234383831 0.14641016151479661 0 0.85358983848542624 0.14641016151432179 0.14641016151432179 1 0.30074819035913852 0 0.83070291234383831 0.31610726166461628 0.1880448979455934 1 0.20000000000083221 0 1 0.14641016151432179 0.14641016151432179 1 0.31426750628021272 0.31270343261798911 0.68761148188185484 0.18818969570926641 0 0.68364148842842287 0.30074819035913852 0 0.83070291234383831 0.14641016151479661 0 0.85358983848542624 0.16929708765653109 0.30074819035870082 1 0.31426750628021272 0.31270343261798911 0.68761148188185484 0.14641016151432179 0.14641016151432179 1 0 0.14641016151490169 0.85358983848532144 0.31426750628021272 0.31270343261798911 0.68761148188185484 0.14641016151479661 0 0.85358983848542624 0.14641016151432179 0.14641016151432179 1 0 0.14641016151490169 0.85358983848532144 0.31426750628021272 0.31270343261798911 0.68761148188185484 0 0.16196943494415611 0.69380980080116506 0.14641016151479661 0 0.85358983848542624 0 0.14641016151490169 0.85358983848532144 0 0.31807971531776508 0.80839867011913336 0.16929708765653109 0.30074819035870082 1 0 0.20000000000083221 1 0 0.14641016151490169 0.85358983848532144 0.16929708765653109 0.30074819035870082 1 0.14641016151432179 0.14641016151432179 1 0 0.20000000000083221 1 0 0.14641016151490169 0.85358983848532144 0 0.16196943494415611 0.69380980080116506 0.18818969570926641 0 0.68364148842842287 0.14641016151479661 0 0.85358983848542624 0 0 0.79999999999999982 0 0.16196943494415611 0.69380980080116506 0.14641016151479661 0 0.85358983848542624 0 0.14641016151490169 0.85358983848532144 0 0 0.79999999999999982 0.14641016151432179 0.14641016151432179 1 0 0.20000000000083221 1 0 0.14641016151490169 0.85358983848532144 0 0 1 0.14641016151479661 0 0.85358983848542624 0 0.14641016151490169 0.85358983848532144 0 0 0.79999999999999982 0 0 1 0.20000000000083221 0 1 0.14641016151479661 0 0.85358983848542624 0.14641016151432179 0.14641016151432179 1 0 0 1 0.14641016151479661 0 0.85358983848542624 0.14641016151432179 0.14641016151432179 1 0 0.14641016151490169 0.85358983848532144 0 0 1 
</DataArray>
</Points>
<Cells>
<DataArray type="UInt32" Name="connectivity" format="ascii">
0 1 2 3 4 5 6 7 8 9 10 11 12 13 14 15 16 17 18 19 20 21 22 23 24 25 26 27 28 29 30 31 32 33 34 35 36 37 38 39 40 41 42 43 44 45 46 47 48 49 50 51 52 53 54 55 56 57 58 59 60 61 62 63 64 65 66 67 68 69 70 71 72 73 74 75 76 77 78 79 80 81 82 83 84 85 86 87 88 89 90 91 92 93 94 95 96 97 98 99 100 101 102 103 104 105 106 107 108 109 110 111 112 113 114 115 116 117 118 119 120 121 122 123 124 125 126 127 128 129 130 131 132 133 134 135 136 137 138 139 140 141 142 143 144 145 146 147 148 149 150 151 152 153 154 155 156 157 158 159 160 161 162 163 164 165 166 167 168 169 170 171 172 173 174 175 176 177 178 179 180 181 182 183 184 185 186 187 188 189 190 191 192 193 194 195 196 197 198 199 200 201 202 203 204 205 206 207 208 209 210 211 212 213 214 215 216 217 218 219 220 221 222 223 224 225 226 227 228 229 230 231 232 233 234 235 236 237 238 239 240 241 242 243 244 245 246 247 248 249 250 251 252 253 254 255 256 257 258 259 260 261 262 263 264 265 266 267 268 269 270 271 272 273 274 275 276 277 278 279 280 281 282 283 284 285 286 287 288 289 290 291 292 293 294 295 296 297 298 299 300 301 302 303 304 305 306 307 308 309 310 311 312 313 314 315 316 317 318 319 320 321 322 323 324 325 326 327 328 329 330 331 332 333 334 335 336 337 338 339 340 341 342 343 344 345 346 347 348 349 350 351 352 353 354 355 356 357 358 359 360 361 362 363 364 365 366 367 368 369 370 371 372 373 374 375 376 377 378 379 380 381 382 383 384 385 386 387 388 389 390 391 392 393 394 395 396 397 398 399 400 401 402 403 404 405 406 407 408 409 410 411 412 413 414 415 416 417 418 419 420 421 422 423 424 425 426 427 428 429 430 431 432 433 434 435 436 437 438 439 440 441 442 443 444 445 446 447 448 449 450 451 452 453 454 455 456 457 458 459 460 461 462 463 464 465 466 467 468 469 470 471 472 473 474 475 476 477 478 479 480 481 482 483 484 485 486 487 488 489 490 491 492 493 494 495 496 497 498 499 500 501 502 503 504 505 506 507 508 509 510 511 512 513 514 515 516 517 518 519 520 521 522 523 524 525 526 527 528 529 530 531 532 533 534 535 536 537 538 539 540 541 542 543 544 545 546 547 548 549 550 551 552 553 554 555 556 557 558 559 560 561 562 563 564 565 566 567 568 569 570 571 572 573 574 575 576 577 578 579 580 581 582 583 584 585 586 587 588 589 590 591 592 593 594 595 596 597 598 599 600 601 602 603 604 605 606 607 608 609 610 611 612 613 614 615 616 617 618 619 620 621 622 623 624 625 626 627 628 629 630 631 632 633 634 635 636 637 638 639 640 641 642 643 644 645 646 647 648 649 650 651 652 653 654 655 656 657 658 659 660 661 662 663 664 665 666 667 668 669 670 671 672 673 674 675 676 677 678 679 680 681 682 683 684 685 686 687 688 689 690 691 692 693 694 695 696 697 698 699 700 701 702 703 704 705 706 707 708 709 710 711 712 713 714 715 716 717 718 719 720 721 722 723 724 725 726 727 728 729 730 731 732 733 734 735 736 737 738 739 740 741 742 743 744 745 746 747 748 749 750 751 752 753 754 755 756 757 758 759 760 761 762 763 764 765 766 767 768 769 770 771 772 773 774 775 776 777 778 779 780 781 782 783 784 785 786 787 788 789 790 791 792 793 794 795 796 797 798 799 800 801 802 803 804 805 806 807 808 809 810 811 812 813 814 815 816 817 818 819 820 821 822 823 824 825 826 827 828 829 830 831 832 833 834 835 836 837 838 839 840 841 842 843 844 845 846 847 848 849 850 851 852 853 854 855 856 857 858 859 860 861 862 863 864 865 866 867 868 869 870 871 872 873 874 875 876 877 878 879 880 881 882 883 884 885 886 887 888 889 890 891 892 893 894 895 896 897 898 899 900 901 902 903 904 905 906 907 908 909 910 911 912 913 914 915 916 917 918 919 920 921 922 923 924 925 926 927 928 929 930 931 932 933 934 935 936 937 938 939 940 941 942 943 944 945 946 947 948 949 950 951 952 953 954 955 956 957 958 959 960 961 962 963 964 965 966 967 968 969 970 971 972 973 974 975 976 977 978 979 980 981 982 983 984 985 986 987 988 989 990 991 992 993 994 995 996 997 998 999 1000 1001 1002 1003 1004 1005 1006 1007 1008 1009 1010 1011 1012 1013 1014 1015 1016 1017 1018 1019 1020 1021 1022 1023 1024 1025 1026 1027 1028 1029 1030 1031 1032 1033 1034 1035 1036 1037 1038 1039 1040 1041 1042 1043 1044 1045 1046 1047 1048 1049 1050 1051 1052 1053 1054 1055 1056 1057 1058 1059 1060 1061 1062 1063 1064 1065 1066 1067 1068 1069 1070 1071 1072 1073 1074 1075 1076 1077 1078 1079 1080 1081 1082 1083 1084 1085 1086 1087 1088 1089 1090 1091 1092 1093 1094 1095 1096 1097 1098 1099 1100 1101 1102 1103 1104 1105 1106 1107 1108 1109 1110 1111 1112 1113 1114 1115 1116 1117 1118 1119 1120 1121 1122 1123 1124 1125 1126 1127 1128 1129 1130 1131 1132 1133 1134 1135 1136 1137 1138 1139 1140 1141 1142 1143 1144 1145 1146 1147 1148 1149 1150 1151 1152 1153 1154 1155 1156 1157 1158 1159 1160 1161 1162 1163 1164 1165 1166 1167 1168 1169 1170 1171 1172 1173 1174 1175 1176 1177 1178 1179 1180 1181 1182 1183 1184 1185 1186 1187 1188 1189 1190 1191 1192 1193 1194 1195 1196 1197 1198 1199 1200 1201 1202 1203 1204 1205 1206 1207 1208 1209 1210 1211 1212 1213 1214 1215 1216 1217 1218 1219 1220 1221 1222 1223 1224 1225 1226 1227 1228 1229 1230 1231 1232 1233 1234 1235 1236 1237 1238 1239 1240 1241 1242 1243 1244 1245 1246 1247 1248 1249 1250 1251 1252 1253 1254 1255 1256 1257 1258 1259 1260 1261 1262 1263 1264 1265 1266 1267 1268 1269 1270 1271 1272 1273 1274 1275 1276 1277 1278 1279 1280 1281 1282 1283 1284 1285 1286 1287 1288 1289 1290 1291 1292 1293 1294 1295 1296 1297 1298 1299 1300 1301 1302 1303 1304 1305 1306 1307 1308 1309 1310 1311 1312 1313 1314 1315 1316 1317 1318 1319 1320 1321 1322 1323 1324 1325 1326 1327 1328 1329 1330 1331 1332 1333 1334 1335 1336 1337 1338 1339 1340 1341 1342 1343 1344 1345 1346 1347 1348 1349 1350 1351 1352 1353 1354 1355 1356 1357 1358 1359 1360 1361 1362 1363 1364 1365 1366 1367 1368 1369 1370 1371 1372 1373 1374 1375 1376 1377 1378 1379 1380 1381 1382 1383 1384 1385 1386 1387 1388 1389 1390 1391 1392 1393 1394 1395 1396 1397 1398 1399 1400 1401 1402 1403 1404 1405 1406 1407 1408 1409 1410 1411 1412 1413 1414 1415 1416 1417 1418 1419 1420 1421 1422 1423 1424 1425 1426 1427 1428 1429 1430 1431 1432 1433 1434 1435 1436 1437 1438 1439 1440 1441 1442 1443 1444 1445 1446 1447 1448 1449 1450 1451 1452 1453 1454 1455 1456 1457 1458 1459 1460 1461 1462 1463 1464 1465 1466 1467 1468 1469 1470 1471 1472 1473 1474 1475 1476 1477 1478 1479 1480 1481 1482 1483 1484 1485 1486 1487 1488 1489 1490 1491 1492 1493 1494 1495 1496 1497 1498 1499 1500 1501 1502 1503 1504 1505 1506 1507 1508 1509 1510 1511 1512 1513 1514 1515 1516 1517 1518 1519 1520 1521 1522 1523 1524 1525 1526 1527 1528 1529 1530 1531 1532 1533 1534 1535 1536 1537 1538 1539 1540 1541 1542 1543 1544 1545 1546 1547 1548 1549 1550 1551 1552 1553 1554 1555 1556 1557 1558 1559 1560 1561 1562 1563 1564 1565 1566 1567 1568 1569 1570 1571 1572 1573 1574 1575 1576 1577 1578 1579 1580 1581 1582 1583 1584 1585 1586 1587 1588 1589 1590 1591 1592 1593 1594 1595 1596 1597 1598 1599 1600 1601 1602 1603 1604 1605 1606 1607 1608 1609 1610 1611 1612 1613 1614 1615 1616 1617 1618 1619 1620 1621 1622 1623 1624 1625 1626 1627 1628 1629 1630 1631 1632 1633 1634 1635 1636 1637 1638 1639 1640 1641 1642 1643 1644 1645 1646 1647 1648 1649 1650 1651 1652 1653 1654 1655 1656 1657 1658 1659 1660 1661 1662 1663 1664 1665 1666 1667 1668 1669 1670 1671 1672 1673 1674 1675 1676 1677 1678 1679 1680 1681 1682 1683 1684 1685 1686 1687 1688 1689 1690 1691 1692 1693 1694 1695 1696 1697 1698 1699 1700 1701 1702 1703 1704 1705 1706 1707 1708 1709 1710 1711 1712 1713 1714 1715 1716 1717 1718 1719 1720 1721 1722 1723 1724 1725 1726 1727 1728 1729 1730 1731 1732 1733 1734 1735 1736 1737 1738 1739 1740 1741 1742 1743 1744 1745 1746 1747 1748 1749 1750 1751 1752 1753 1754 1755 1756 1757 1758 1759 1760 1761 1762 1763 1764 1765 1766 1767 1768 1769 1770 1771 1772 1773 1774 1775 1776 1777 1778 1779 1780 1781 1782 1783 1784 1785 1786 1787 1788 1789 1790 1791 1792 1793 1794 1795 1796 1797 1798 1799 1800 1801 1802 1803 1804 1805 1806 1807 1808 1809 1810 1811 1812 1813 1814 1815 1816 1817 1818 1819 1820 1821 1822 1823 1824 1825 1826 1827 1828 1829 1830 1831 1832 1833 1834 1835 1836 1837 1838 1839 1840 1841 1842 1843 1844 1845 1846 1847 1848 1849 1850 1851 1852 1853 1854 1855 1856 1857 1858 1859 1860 1861 1862 1863 1864 1865 1866 1867 1868 1869 1870 1871 1872 1873 1874 1875 1876 1877 1878 1879 1880 1881 1882 1883 1884 1885 1886 1887 1888 1889 1890 1891 1892 1893 1894 1895 1896 1897 1898 1899 1900 1901 1902 1903 1904 1905 1906 1907 1908 1909 1910 1911 1912 1913 1914 1915 1916 1917 1918 1919 1920 1921 1922 1923 1924 1925 1926 1927 1928 1929 1930 1931 1932 1933 1934 1935 1936 1937 1938 1939 1940 1941 1942 1943 1944 1945 1946 1947 1948 1949 1950 1951 1952 1953 1954 1955 1956 1957 1958 1959 1960 1961 1962 1963 1964 1965 1966 1967 1968 1969 1970 1971 1972 1973 1974 1975 1976 1977 1978 1979 1980 1981 1982 1983 1984 1985 1986 1987 1988 1989 1990 1991 1992 1993 1994 1995 1996 1997 1998 1999 2000 2001 2002 2003 2004 2005 2006 2007 2008 2009 2010 2011 2012 2013 2014 2015 2016 2017 2018 2019 2020 2021 2022 2023 2024 2025 2026 2027 2028 2029 2030 2031 2032 2033 2034 2035 2036 2037 2038 2039 2040 2041 2042 2043 2044 2045 2046 2047 2048 2049 2050 2051 2052 2053 2054 2055 2056 2057 2058 2059 2060 2061 2062 2063 2064 2065 2066 2067 2068 2069 2070 2071 2072 2073 2074 2075 2076 2077 2078 2079 2080 2081 2082 2083 2084 2085 2086 2087 2088 2089 2090 2091 2092 2093 2094 2095 2096 2097 2098 2099 2100 2101 2102 2103 2104 2105 2106 2107 2108 2109 2110 2111 2112 2113 2114 2115 2116 2117 2118 2119 2120 2121 2122 2123 2124 2125 2126 2127 2128 2129 2130 2131 2132 2133 2134 2135 2136 2137 2138 2139 2140 2141 2142 2143 2144 2145 2146 2147 2148 2149 2150 2151 2152 2153 2154 2155 2156 2157 2158 2159 2160 2161 2162 2163 2164 2165 2166 2167 2168 2169 2170 2171 2172 2173 2174 2175 2176 2177 2178 2179 2180 2181 2182 2183 2184 2185 2186 2187 2188 2189 2190 2191 2192 2193 2194 2195 2196 2197 2198 2199 2200 2201 2202 2203 2204 2205 2206 2207 2208 2209 2210 2211 2212 2213 2214 2215 2216 2217 2218 2219 2220 2221 2222 2223 2224 2225 2226 2227 2228 2229 2230 2231 2232 2233 2234 2235 2236 2237 2238 2239 2240 2241 2242 2243 2244 2245 2246 2247 2248 2249 2250 2251 2252 2253 2254 2255 2256 2257 2258 2259 2260 2261 2262 2263 2264 2265 2266 2267 2268 2269 2270 2271 2272 2273 2274 2275 2276 2277 2278 2279 2280 2281 2282 2283 2284 2285 2286 2287 2288 2289 2290 2291 2292 2293 2294 2295 2296 2297 2298 2299 2300 2301 2302 2303 2304 2305 2306 2307 2308 2309 2310 2311 2312 2313 2314 2315 2316 2317 2318 2319 2320 2321 2322 2323 2324 2325 2326 2327 2328 2329 2330 2331 2332 2333 2334 2335 2336 2337 2338 2339 2340 2341 2342 2343 2344 2345 2346 2347 2348 2349 2350 2351 2352 2353 2354 2355 2356 2357 2358 2359 2360 2361 2362 2363 2364 2365 2366 2367 2368 2369 2370 2371 2372 2373 2374 2375 2376 2377 2378 2379 2380 2381 2382 2383 2384 2385 2386 2387 2388 2389 2390 2391 2392 2393 2394 2395 2396 2397 2398 2399 2400 2401 2402 2403 2404 2405 2406 2407 2408 2409 2410 2411 2412 2413 2414 2415 2416 2417 2418 2419 2420 2421 2422 2423 2424 2425 2426 2427 2428 2429 2430 2431 2432 2433 2434 2435 2436 2437 2438 2439 2440 2441 2442 2443 2444 2445 2446 2447 2448 2449 2450 2451 2452 2453 2454 2455 2456 2457 2458 2459 2460 2461 2462 2463 2464 2465 2466 2467 2468 2469 2470 2471 2472 2473 2474 2475 2476 2477 2478 2479 2480 2481 2482 2483 2484 2485 2486 2487 2488 2489 2490 2491 2492 2493 2494 2495 2496 2497 2498 2499 2500 2501 2502 2503 2504 2505 2506 2507 2508 2509 2510 2511 2512 2513 2514 2515 2516 2517 2518 2519 2520 2521 2522 2523 2524 2525 2526 2527 2528 2529 2530 2531 2532 2533 2534 2535 2536 2537 2538 2539 2540 2541 2542 2543 2544 2545 2546 2547 2548 2549 2550 2551 2552 2553 2554 2555 2556 2557 2558 2559 2560 2561 2562 2563 2564 2565 2566 2567 2568 2569 2570 2571 2572 2573 2574 2575 2576 2577 2578 2579 2580 2581 2582 2583 2584 2585 2586 2587 2588 2589 2590 2591 2592 2593 2594 2595 2596 2597 2598 2599 2600 2601 2602 2603 2604 2605 2606 2607 2608 2609 2610 2611 2612 2613 2614 2615 2616 2617 2618 2619 2620 2621 2622 2623 2624 2625 2626 2627 2628 2629 2630 2631 2632 2633 2634 2635 2636 2637 2638 2639 2640 2641 2642 2643 2644 2645 2646 2647 2648 2649 2650 2651 2652 2653 2654 2655 2656 2657 2658 2659 2660 2661 2662 2663 2664 2665 2666 2667 2668 2669 2670 2671 2672 2673 2674 2675 2676 2677 2678 2679 2680 2681 2682 2683 2684 2685 2686 2687 2688 2689 2690 2691 2692 2693 2694 2695 2696 2697 2698 2699 2700 2701 2702 2703 2704 2705 2706 2707 2708 2709 2710 2711 2712 2713 2714 2715 2716 2717 2718 2719 2720 2721 2722 2723 2724 2725 2726 2727 2728 2729 2730 2731 2732 2733 2734 2735 2736 2737 2738 2739 2740 2741 2742 2743 2744 2745 2746 2747 2748 2749 2750 2751 2752 2753 2754 2755 2756 2757 2758 2759 2760 2761 2762 2763 2764 2765 2766 2767 2768 2769 2770 2771 2772 2773 2774 2775 2776 2777 2778 2779 2780 2781 2782 2783 2784 2785 2786 2787 2788 2789 2790 2791 2792 2793 2794 2795 2796 2797 2798 2799 2800 2801 2802 2803 2804 2805 2806 2807 2808 2809 2810 2811 2812 2813 2814 2815 2816 2817 2818 2819 2820 2821 2822 2823 2824 2825 2826 2827 2828 2829 2830 2831 2832 2833 2834 2835 2836 2837 2838 2839 2840 2841 2842 2843 2844 2845 2846 2847 2848 2849 2850 2851 2852 2853 2854 2855 2856 2857 2858 2859 2860 2861 2862 2863 2864 2865 2866 2867 2868 2869 2870 2871 2872 2873 2874 2875 
</DataArray>
<DataArray type="UInt32" Name="offsets" format="ascii">
4 8 12 16 20 24 28 32 36 40 44 48 52 56 60 64 68 72 76 80 84 88 92 96 100 104 108 112 116 120 124 128 132 136 140 144 148 152 156 160 164 168 172 176 180 184 188 192 196 200 204 208 212 216 220 224 228 232 236 240 244 248 252 256 260 264 268 272 276 280 284 288 292 296 300 304 308 312 316 320 324 328 332 336 340 344 348 352 356 360 364 368 372 376 380 384 388 392 396 400 404 408 412 416 420 424 428 432 436 440 444 448 452 456 460 464 468 472 476 480 484 488 492 496 500 504 508 512 516 520 524 528 532 536 540 544 548 552 556 560 564 568 572 576 580 584 588 592 596 600 604 608 612 616 620 624 628 632 636 640 644 648 652 656 660 664 668 672 676 680 684 688 692 696 700 704 708 712 716 720 724 728 732 736 740 744 748 752 756 760 764 768 772 776 780 784 788 792 796 800 804 808 812 816 820 824 828 832 836 840 844 848 852 856 860 864 868 872 876 880 884 888 892 896 900 904 908 912 916 920 924 928 932 936 940 944 948 952 956 960 964 968 972 976 980 984 988 992 996 1000 1004 1008 1012 1016 1020 1024 1028 1032 1036 1040 1044 1048 1052 1056 1060 1064 1068 1072 1076 1080 1084 1088 1092 1096 1100 1104 1108 1112 1116 1120 1124 1128 1132 1136 1140 1144 1148 1152 1156 1160 1164 1168 1172 1176 1180 1184 1188 1192 1196 1200 1204 1208 1212 1216 1220 1224 1228 1232 1236 1240 1244 1248 1252 1256 1260 1264 1268 1272 1276 1280 1284 1288 1292 1296 1300 1304 1308 1312 1316 1320 1324 1328 1332 1336 1340 1344 1348 1352 1356 1360 1364 1368 1372 1376 1380 1384 1388 1392 1396 1400 1404 1408 1412 1416 1420 1424 1428 1432 1436 1440 1444 1448 1452 1456 1460 1464 1468 1472 1476 1480 1484 1488 1492 1496 1500 1504 1508 1512 1516 1520 1524 1528 1532 1536 1540 1544 1548 1552 1556 1560 1564 1568 1572 1576 1580 1584 1588 1592 1596 1600 1604 1608 1612 1616 1620 1624 1628 1632 1636 1640 1644 1648 1652 1656 1660 1664 1668 1672 1676 1680 1684 1688 1692 1696 1700 1704 1708 1712 1716 1720 1724 1728 1732 1736 1740 1744 1748 1752 1756 1760 1764 1768 1772 1776 1780 1784 1788 1792 1796 1800 1804 1808 1812 1816 1820 1824 1828 1832 1836 1840 1844 1848 1852 1856 1860 1864 1868 1872 1876 1880 1884 1888 1892 1896 1900 1904 1908 1912 1916 1920 1924 1928 1932 1936 1940 1944 1948 1952 1956 1960 1964 1968 1972 1976 1980 1984 1988 1992 1996 2000 2004 2008 2012 2016 2020 2024 2028 2032 2036 2040 2044 2048 2052 2056 2060 2064 2068 2072 2076 2080 2084 2088 2092 2096 2100 2104 2108 2112 2116 2120 2124 2128 2132 2136 2140 2144 2148 2152 2156 2160 2164 2168 2172 2176 2180 2184 2188 2192 2196 2200 2204 2208 2212 2216 2220 2224 2228 2232 2236 2240 2244 2248 2252 2256 2260 2264 2268 2272 2276 2280 2284 2288 2292 2296 2300 2304 2308 2312 2316 2320 2324 2328 2332 2336 2340 2344 2348 2352 2356 2360 2364 2368 2372 2376 2380 2384 2388 2392 2396 2400 2404 2408 2412 2416 2420 2424 2428 2432 2436 2440 2444 2448 2452 2456 2460 2464 2468 2472 2476 2480 2484 2488 2492 2496 2500 2504 2508 2512 2516 2520 2524 2528 2532 2536 2540 2544 2548 2552 2556 2560 2564 2568 2572 2576 2580 2584 2588 2592 2596 2600 2604 2608 2612 2616 2620 2624 2628 2632 2636 2640 2644 2648 2652 2656 2660 2664 2668 2672 2676 2680 2684 2688 2692 2696 2700 2704 2708 2712 2716 2720 2724 2728 2732 2736 2740 2744 2748 2752 2756 2760 2764 2768 2772 2776 2780 2784 2788 2792 2796 2800 2804 2808 2812 2816 2820 2824 2828 2832 2836 2840 2844 2848 2852 2856 2860 2864 2868 2872 2876 
</DataArray>
<DataArray type="UInt32" Name="types" format="ascii">
10 10 10 10 10 10 10 10 10 10 10 10 10 10 10 10 10 10 10 10 10 10 10 10 10 10 10 10 10 10 10 10 10 10 10 10 10 10 10 10 10 10 10 10 10 10 10 10 10 10 10 10 10 10 10 10 10 10 10 10 10 10 10 10 10 10 10 10 10 10 10 10 10 10 10 10 10 10 10 10 10 10 10 10 10 10 10 10 10 10 10 10 10 10 10 10 10 10 10 10 10 10 10 10 10 10 10 10 10 10 10 10 10 10 10 10 10 10 10 10 10 10 10 10 10 10 10 10 10 10 10 10 10 10 10 10 10 10 10 10 10 10 10 10 10 10 10 10 10 10 10 10 10 10 10 10 10 10 10 10 10 10 10 10 10 10 10 10 10 10 10 10 10 10 10 10 10 10 10 10 10 10 10 10 10 10 10 10 10 10 10 10 10 10 10 10 10 10 10 10 10 10 10 10 10 10 10 10 10 10 10 10 10 10 10 10 10 10 10 10 10 10 10 10 10 10 10 10 10 10 10 10 10 10 10 10 10 10 10 10 10 10 10 10 10 10 10 10 10 10 10 10 10 10 10 10 10 10 10 10 10 10 10 10 10 10 10 10 10 10 10 10 10 10 10 10 10 10 10 10 10 10 10 10 10 10 10 10 10 10 10 10 10 10 10 10 10 10 10 10 10 10 10 10 10 10 10 10 10 10 10 10 10 10 10 10 10 10 10 10 10 10 10 10 10 10 10 10 10 10 10 10 10 10 10 10 10 10 10 10 10 10 10 10 10 10 10 10 10 10 10 10 10 10 10 10 10 10 10 10 10 10 10 10 10 10 10 10 10 10 10 10 10 10 10 10 10 10 10 10 10 10 10 10 10 10 10 10 10 10 10 10 10 10 10 10 10 10 10 10 10 10 10 10 10 10 10 10 10 10 10 10 10 10 10 10 10 10 10 10 10 10 10 10 10 10 10 10 10 10 10 10 10 10 10 10 10 10 10 10 10 10 10 10 10 10 10 10 10 10 10 10 10 10 10 10 10 10 10 10 10 10 10 10 10 10 10 10 10 10 10 10 10 10 10 10 10 10 10 10 10 10 10 10 10 10 10 10 10 10 10 10 10 10 10 10 10 10 10 10 10 10 10 10 10 10 10 10 10 10 10 10 10 10 10 10 10 10 10 10 10 10 10 10 10 10 10 10 10 10 10 10 10 10 10 10 10 10 10 10 10 10 10 10 10 10 10 10 10 10 10 10 10 10 10 10 10 10 10 10 10 10 10 10 10 10 10 10 10 10 10 10 10 10 10 10 10 10 10 10 10 10 10 10 10 10 10 10 10 10 10 10 10 10 10 10 10 10 10 10 10 10 10 10 10 10 10 10 10 10 10 10 10 10 10 10 10 10 10 10 10 10 10 10 10 10 10 10 10 10 10 10 10 10 10 10 10 10 10 10 10 10 10 10 10 10 10 10 10 10 10 10 10 10 10 10 10 10 10 10 10 10 10 10 10 10 10 10 10 10 10 10 10 10 10 10 10 10 10 10 10 10 10 10 10 10 10 10 10 10 10 10 10 10 10 10 10 10 10 10 10 10 10 10 10 10 10 10 10 10 10 10 10 10 10 10 10 10 10 
</DataArray>
</Cells>
<PointData Scalars="" Vectors="displacement," Tensors="">
<DataArray type="Float64" Name="displacement" NumberOfComponents="3" format="ascii">
4.5754143445018634e-06 -2.1909595886560864e-10 -9.7080262004856758e-10 9.8784937430551802e-06 -2.1091841550023851e-10 -1.261195546949113e-09 9.7681735882297283e-06 -9.7972325519523893e-11 -2.9305132211414805e-05 5.2906264647450045e-06 -1.4566684157163335e-10 -1.2146687251929301e-09 1.6693655881180749e-14 -3.2502013228028941e-10 -1.3077276013197338e-09 -2.6808385376067767e-14 -2.0328798970962649e-10 -1.3727054305365935e-05 2.0955911849683366e-14 -2.3514216608331989e-10 -1.2115017521570008e-09 4.5754143445018634e-06 -2.1909595886560864e-10 -9.7080262004856758e-10 1.6693655881180749e-14 -3.2502013228028941e-10 -1.3077276013197338e-09 4.5754143445018634e-06 -2.1909595886560864e-10 -9.7080262004856758e-10 4.5754093596773553e-06 -2.3768654796751406e-10 -1.3727079300808591e-05 6.2500364977417857e-06 -3.5502418281663559e-10 -1.3765622918483379e-09 1.6693655881180749e-14 -3.2502013228028941e-10 -1.3077276013197338e-09 6.3516187977137398e-15 -3.0962657735952204e-10 -1.8751129705422083e-05 -2.6808385918180308e-14 -2.0328798970962649e-10 -1.3727054305365932e-05 4.5754093596773562e-06 -2.3768654796751412e-10 -1.3727079300808591e-05 -2.6808385918180308e-14 -2.0328798970962649e-10 -1.3727054305365932e-05 1.0829991390142132e-16 -1.9030432829928208e-10 -2.9636126855457391e-05 9.76817358822973e-06 -9.797232551952388e-11 -2.9305132211414808e-05 -1.2209206428659519e-14 -8.805001301531659e-11 -1.5872804872816541e-05 4.5754093596773562e-06 -2.3768654796751412e-10 -1.3727079300808591e-05 9.868459705327376e-06 -3.205136211942993e-10 -1.7488246678610548e-05 5.2933005426770583e-06 -3.0072394786100708e-10 -2.8136747056792976e-05 9.7681735882297283e-06 -9.7972325519523893e-11 -2.9305132211414805e-05 1.6693655881180749e-14 -3.2502013228028941e-10 -1.3077276013197338e-09 -2.6808385918180308e-14 -2.0328798970962649e-10 -1.3727054305365932e-05 4.5754143445018634e-06 -2.1909595886560864e-10 -9.7080262004856758e-10 4.5754093596773562e-06 -2.3768654796751412e-10 -1.3727079300808591e-05 4.5754143445018634e-06 -2.1909595886560864e-10 -9.7080262004856758e-10 4.5754093596773553e-06 -2.3768654796751412e-10 -1.3727079300808596e-05 9.868459705327376e-06 -3.205136211942993e-10 -1.7488246678610548e-05 9.7681735882297283e-06 -9.7972325519523893e-11 -2.9305132211414805e-05 -2.6808385918180308e-14 -2.0328798970962649e-10 -1.3727054305365932e-05 4.5754143445018634e-06 -2.1909595886560864e-10 -9.7080262004813249e-10 9.76817358822973e-06 -9.7972325519523931e-11 -2.9305132211414812e-05 -1.2209206428659519e-14 -8.805001301531659e-11 -1.5872804872816541e-05 -2.6808385918180308e-14 -2.0328798970962649e-10 -1.3727054305365932e-05 4.5754143445018634e-06 -2.1909595886560864e-10 -9.7080262004818026e-10 4.5754093596773562e-06 -2.3768654796751412e-10 -1.3727079300808591e-05 9.76817358822973e-06 -9.797232551952388e-11 -2.9305132211414812e-05 -2.6808385918180308e-14 -2.0328798970962649e-10 -1.3727054305365932e-05 4.5754093596773562e-06 -2.3768654796751412e-10 -1.3727079300808591e-05 5.2933005426770583e-06 -3.0072394786100703e-10 -2.8136747056792976e-05 9.7681735882297266e-06 -9.7972325519523944e-11 -2.9305132211414815e-05 6.3516195382524543e-15 -3.0962657735952204e-10 -1.8751129705422083e-05 -2.6808385922215259e-14 -2.0328798970962649e-10 -1.3727054305365932e-05 4.5754093596773562e-06 -2.3768654796751412e-10 -1.3727079300808591e-05 5.2933005426770574e-06 -3.0072394786100708e-10 -2.8136747056792976e-05 6.3516195382524543e-15 -3.0962657735952204e-10 -1.8751129705422083e-05 -2.6808386424721621e-14 -2.0328798970962646e-10 -1.3727054305365932e-05 5.2933005426770574e-06 -3.0072394786100708e-10 -2.8136747056792976e-05 1.082996143280188e-16 -1.9030432829928211e-10 -2.9636126855457395e-05 -2.6808385918180308e-14 -2.0328798970962649e-10 -1.3727054305365932e-05 2.0955911849683366e-14 -2.3514216608331989e-10 -1.2115017521570008e-09 4.5754143445018634e-06 -2.1909595886560864e-10 -9.7080262004847846e-10 -1.2209206428659519e-14 -8.805001301531659e-11 -1.5872804872816541e-05 2.0955911849683366e-14 -2.3514216608331989e-10 -1.2115017521570008e-09 4.5754143445018634e-06 -2.1909595886560864e-10 -9.7080262004856758e-10 5.2906264647450045e-06 -1.4566684157163333e-10 -1.2146687251938908e-09 -1.2209206428659519e-14 -8.805001301531659e-11 -1.5872804872816541e-05 4.5754143445018634e-06 -2.1909595886560864e-10 -9.7080262004856758e-10 6.2500364977417857e-06 -3.5502418281663559e-10 -1.3765622918483379e-09 9.8784937430551785e-06 -2.1091841550023851e-10 -1.2611955469510389e-09 9.868459705327376e-06 -3.205136211942993e-10 -1.7488246678610548e-05 4.5754143445018634e-06 -2.1909595886560864e-10 -9.7080262004856758e-10 4.5754093596773562e-06 -2.3768654796751412e-10 -1.3727079300808591e-05 6.2500364977417857e-06 -3.5502418281663559e-10 -1.3765622918483379e-09 9.868459705327376e-06 -3.205136211942993e-10 -1.7488246678610548e-05 6.2500364977417857e-06 -3.5502418281663559e-10 -1.3765622918483379e-09 9.8784937430551785e-06 -2.1091841550023849e-10 -1.2611955469500118e-09 1.2500193891156591e-05 -3.2550076887402193e-10 -1.6298265903386064e-09 9.868459705327376e-06 -3.205136211942993e-10 -1.7488246678610548e-05 4.5754143445018634e-06 -2.1909595886560864e-10 -9.7080262004856758e-10 9.8784937430551802e-06 -2.1091841550023851e-10 -1.2611955469487851e-09 9.8684597053273777e-06 -3.205136211942993e-10 -1.7488246678610548e-05 9.7681735882297283e-06 -9.7972325519523893e-11 -2.9305132211414805e-05 9.8784937430551785e-06 -2.1091841550023849e-10 -1.2611955469500118e-09 9.8684597053273726e-06 -3.2051362119429925e-10 -1.7488246678610548e-05 9.7681735882297283e-06 -9.7972325519523905e-11 -2.9305132211414808e-05 1.5637738625664876e-05 -2.1768092685699378e-10 -2.1173834821930868e-05 9.8784937430551785e-06 -2.1091841550023849e-10 -1.2611955469500118e-09 1.5435160942438474e-05 -3.0156693321099938e-10 -1.2411598613574508e-05 1.5637738625664869e-05 -2.1768092685699372e-10 -2.1173834821930872e-05 1.592736303565521e-05 -1.9350327617698554e-10 -1.1798387556623219e-09 9.8784937430551785e-06 -2.1091841550023849e-10 -1.2611955469500118e-09 1.431655768500523e-05 -1.1975412952237999e-10 -1.0177399350310233e-09 1.5637738625664869e-05 -2.176809268569938e-10 -2.1173834821930879e-05 1.592736303565521e-05 -1.9350327617698554e-10 -1.1798387556623219e-09 9.8784937430551785e-06 -2.1091841550023849e-10 -1.2611955469500118e-09 1.2500193891156591e-05 -3.2550076887402193e-10 -1.6298265903386064e-09 1.5435160942438474e-05 -3.0156693321099933e-10 -1.2411598613574512e-05 1.592736303565521e-05 -1.9350327617698554e-10 -1.1798387556623219e-09 9.8784937430551785e-06 -2.1091841550023849e-10 -1.2611955469500118e-09 1.2500193891156591e-05 -3.2550076887402193e-10 -1.6298265903386064e-09 1.5435160942438471e-05 -3.0156693321099943e-10 -1.2411598613574517e-05 9.868459705327376e-06 -3.205136211942993e-10 -1.7488246678610548e-05 1.5435160942438474e-05 -3.0156693321099943e-10 -1.2411598613574513e-05 9.868459705327376e-06 -3.205136211942993e-10 -1.7488246678610548e-05 1.490282578720786e-05 -3.6920358719350863e-10 -2.9758470960824422e-05 1.5637738625664869e-05 -2.1768092685699375e-10 -2.1173834821930868e-05 9.8784937430551785e-06 -2.1091841550023849e-10 -1.2611955469500118e-09 1.5435160942438471e-05 -3.0156693321099943e-10 -1.2411598613574519e-05 9.868459705327376e-06 -3.205136211942993e-10 -1.7488246678610545e-05 1.5637738625664869e-05 -2.176809268569937e-10 -2.1173834821930872e-05 1.0045844672198145e-05 -2.7785665936302339e-10 -3.631805688424959e-05 1.5648250926865759e-05 -1.6177158776944619e-10 -4.9582261587321873e-05 6.9028532898642826e-06 -1.603046498925949e-10 -4.6880517069063434e-05 9.6971428276637116e-06 -2.5738882460856331e-10 -5.0794599007517052e-05 1.0045844672198145e-05 -2.7785665936302339e-10 -3.631805688424959e-05 5.2933005426770574e-06 -3.0072394786100708e-10 -2.8136747056792976e-05 9.7681735882297283e-06 -9.7972325519523905e-11 -2.9305132211414801e-05 6.9028532898642818e-06 -1.603046498925949e-10 -4.6880517069063434e-05 1.0045844672198145e-05 -2.7785665936302339e-10 -3.631805688424959e-05 9.7681735882297283e-06 -9.7972325519523893e-11 -2.9305132211414805e-05 1.5648250926865762e-05 -1.6177158776944622e-10 -4.9582261587321866e-05 6.9028532898642852e-06 -1.6030464989259498e-10 -4.6880517069063441e-05 1.490282578720786e-05 -3.6920358719350863e-10 -2.9758470960824422e-05 1.0045844672198144e-05 -2.7785665936302339e-10 -3.631805688424959e-05 1.5637738625664869e-05 -2.1768092685699375e-10 -2.1173834821930868e-05 1.5648250926865762e-05 -1.6177158776944622e-10 -4.9582261587321866e-05 1.0045844672198145e-05 -2.7785665936302339e-10 -3.631805688424959e-05 9.76817358822973e-06 -9.7972325519523905e-11 -2.9305132211414801e-05 1.5637738625664866e-05 -2.1768092685699367e-10 -2.1173834821930868e-05 1.5648250926865762e-05 -1.6177158776944622e-10 -4.9582261587321866e-05 9.868459705327376e-06 -3.205136211942993e-10 -1.7488246678610548e-05 1.0045844672198145e-05 -2.7785665936302339e-10 -3.631805688424959e-05 5.2933005426770574e-06 -3.0072394786100708e-10 -2.8136747056792976e-05 9.7681735882297283e-06 -9.7972325519523893e-11 -2.9305132211414805e-05 9.868459705327376e-06 -3.205136211942993e-10 -1.7488246678610548e-05 1.0045844672198145e-05 -2.7785665936302339e-10 -3.631805688424959e-05 9.7681735882297283e-06 -9.7972325519523893e-11 -2.9305132211414805e-05 1.5637738625664869e-05 -2.1768092685699375e-10 -2.1173834821930868e-05 9.868459705327376e-06 -3.205136211942993e-10 -1.7488246678610548e-05 1.490282578720786e-05 -3.6920358719350863e-10 -2.9758470960824422e-05 1.0045844672198145e-05 -2.7785665936302339e-10 -3.631805688424959e-05 1.5637738625664869e-05 -2.1768092685699375e-10 -2.1173834821930868e-05 1.0045844672198145e-05 -2.7785665936302339e-10 -3.631805688424959e-05 1.5625240988077438e-05 -3.1907951723748262e-10 -4.5037149767354777e-05 1.5648250926865762e-05 -1.6177158776944622e-10 -4.9582261587321859e-05 9.6971428276637116e-06 -2.5738882460856331e-10 -5.0794599007517052e-05 1.490282578720786e-05 -3.6920358719350863e-10 -2.9758470960824422e-05 1.0045844672198145e-05 -2.7785665936302339e-10 -3.631805688424959e-05 1.5625240988077438e-05 -3.1907951723748262e-10 -4.5037149767354784e-05 1.5648250926865762e-05 -1.6177158776944622e-10 -4.9582261587321866e-05 1.0045844672198145e-05 -2.7785665936302339e-10 -3.631805688424959e-05 5.1159300676100174e-06 -2.9971958617654876e-10 -4.5813371577604301e-05 6.9028532898642826e-06 -1.603046498925949e-10 -4.6880517069063434e-05 9.6971428276637116e-06 -2.5738882460856331e-10 -5.0794599007517052e-05 1.0045844672198145e-05 -2.7785665936302339e-10 -3.631805688424959e-05 5.1159300676100174e-06 -2.9971958617654876e-10 -4.5813371577604301e-05 5.2933005426770574e-06 -3.0072394786100708e-10 -2.8136747056792976e-05 6.9028532898642826e-06 -1.603046498925949e-10 -4.6880517069063434e-05 -2.6808385918180308e-14 -2.0328798970962649e-10 -1.3727054305365932e-05 5.2933005426770583e-06 -3.0072394786100708e-10 -2.8136747056792973e-05 1.082996143280188e-16 -1.9030432829928211e-10 -2.9636126855457395e-05 9.76817358822973e-06 -9.7972325519523893e-11 -2.9305132211414805e-05 5.1159300676100174e-06 -2.9971958617654876e-10 -4.5813371577604301e-05 5.2933005426770566e-06 -3.0072394786100714e-10 -2.8136747056792976e-05 1.082996143280188e-16 -1.9030432829928211e-10 -2.9636126855457395e-05 6.9028532898642826e-06 -1.603046498925949e-10 -4.6880517069063434e-05 5.2933005426770574e-06 -3.0072394786100708e-10 -2.8136747056792976e-05 1.0829897993420994e-16 -1.9030432829928211e-10 -2.9636126855457402e-05 9.7681735882297266e-06 -9.7972325519523931e-11 -2.9305132211414815e-05 6.9028532898642826e-06 -1.6030464989259488e-10 -4.6880517069063427e-05 5.1159300676100174e-06 -2.9971958617654876e-10 -4.5813371577604301e-05 4.5758787796591103e-15 -3.609448352104995e-10 -3.7501051455739855e-05 -5.3103433372911136e-15 -2.3736034764279675e-10 -4.7782357888152013e-05 9.1012203375258466e-15 -4.0658736911989519e-10 -5.6250952737822587e-05 5.1159300676100174e-06 -2.9971958617654876e-10 -4.5813371577604301e-05 4.5758787796591103e-15 -3.609448352104995e-10 -3.7501051455739855e-05 5.2933005426770574e-06 -3.0072394786100714e-10 -2.8136747056792979e-05 1.082996143280188e-16 -1.9030432829928211e-10 -2.9636126855457395e-05 5.1159300676100174e-06 -2.9971958617654876e-10 -4.5813371577604301e-05 4.5758784414178497e-15 -3.6094483521049955e-10 -3.7501051455739862e-05 1.082996143280188e-16 -1.9030432829928211e-10 -2.9636126855457395e-05 -5.3103433372911136e-15 -2.3736034764279675e-10 -4.7782357888152013e-05 6.3516195382524543e-15 -3.0962657735952204e-10 -1.8751129705422083e-05 4.5758787796591103e-15 -3.609448352104995e-10 -3.7501051455739855e-05 5.2933005426770574e-06 -3.0072394786100708e-10 -2.8136747056792976e-05 1.082996143280188e-16 -1.9030432829928211e-10 -2.9636126855457395e-05 5.1159300676100174e-06 -2.9971958617654876e-10 -4.5813371577604301e-05 1.0830001052353573e-16 -1.9030432829928211e-10 -2.9636126855457391e-05 6.9028532898642826e-06 -1.6030464989259495e-10 -4.6880517069063441e-05 -5.3103433395504428e-15 -2.3736034764279675e-10 -4.7782357888152013e-05 1.082996143280188e-16 -1.9030432829928211e-10 -2.9636126855457395e-05 -2.3907849670387034e-15 -1.085329262797524e-10 -4.2950091863557702e-05 6.9028532898642843e-06 -1.6030464989259485e-10 -4.6880517069063434e-05 -5.3103433372911136e-15 -2.3736034764279675e-10 -4.7782357888152013e-05 1.082996143280188e-16 -1.9030432829928211e-10 -2.9636126855457395e-05 3.9902039772536006e-15 -4.7213864465396866e-11 -3.086854980964008e-05 9.7681735882297283e-06 -9.7972325519523893e-11 -2.9305132211414805e-05 -1.2209206428659519e-14 -8.805001301531659e-11 -1.5872804872816541e-05 -2.3907851375214594e-15 -1.0853292627975237e-10 -4.2950091863557702e-05 9.7681735882297266e-06 -9.7972325519523893e-11 -2.9305132211414795e-05 7.7405176361580994e-06 2.1356117818039067e-11 -4.2280854066793885e-05 6.9028532898642826e-06 -1.603046498925949e-10 -4.6880517069063434e-05 1.082996143280188e-16 -1.9030432829928211e-10 -2.9636126855457395e-05 -2.3907851375214594e-15 -1.0853292627975237e-10 -4.2950091863557702e-05 3.990203630387517e-15 -4.7213864465396866e-11 -3.086854980964008e-05 9.7681735882297283e-06 -9.7972325519523893e-11 -2.9305132211414805e-05 3.990203630387517e-15 -4.7213864465396866e-11 -3.086854980964008e-05 9.7681735882297283e-06 -9.7972325519523893e-11 -2.9305132211414805e-05 6.9832307774928415e-06 1.0572571829687241e-11 -2.0950484582145943e-05 7.7405176361580994e-06 2.1356117818039064e-11 -4.2280854066793885e-05 -2.3907851375214594e-15 -1.0853292627975237e-10 -4.2950091863557702e-05 3.9902035159185964e-15 -4.7213864465396872e-11 -3.086854980964008e-05 9.7681735882297283e-06 -9.7972325519523918e-11 -2.9305132211414805e-05 7.7405176361580994e-06 2.1356117818039067e-11 -4.2280854066793885e-05 3.990203630387517e-15 -4.7213864465396866e-11 -3.086854980964008e-05 9.7681735882297283e-06 -9.7972325519523893e-11 -2.9305132211414805e-05 -1.2209206428659519e-14 -8.805001301531659e-11 -1.5872804872816541e-05 6.9832307774928407e-06 1.0572571829687259e-11 -2.0950484582145943e-05 1.082996143280188e-16 -1.9030432829928211e-10 -2.9636126855457395e-05 -2.3907849301924399e-15 -1.0853292627975239e-10 -4.2950091863557709e-05 9.7681735882297283e-06 -9.7972325519523867e-11 -2.9305132211414801e-05 6.9028532898642835e-06 -1.6030464989259495e-10 -4.6880517069063447e-05 -2.3907851375214594e-15 -1.0853292627975237e-10 -4.2950091863557702e-05 3.9902033893974848e-15 -4.7213864465396872e-11 -3.086854980964008e-05 7.7405176361581011e-06 2.1356117818039064e-11 -4.2280854066793879e-05 -3.3399684647753423e-15 3.8449745753355491e-12 -4.871493405051219e-05 9.7681735882297283e-06 -9.7972325519523893e-11 -2.9305132211414805e-05 1.5637863171853349e-05 -2.0604325639248154e-11 -2.3404046857677577e-05 1.5625249668590368e-05 -1.8999678226954057e-12 -4.6876053609949829e-05 1.5648250926865762e-05 -1.6177158776944622e-10 -4.9582261587321866e-05 9.7681735882297283e-06 -9.7972325519523893e-11 -2.9305132211414805e-05 6.9832307774928407e-06 1.0572571829687264e-11 -2.0950484582145939e-05 7.7405176361580994e-06 2.1356117818039067e-11 -4.2280854066793885e-05 1.5637863171853349e-05 -2.0604325639248151e-11 -2.3404046857677577e-05 9.7681735882297283e-06 -9.7972325519523893e-11 -2.9305132211414805e-05 1.5637738625664869e-05 -2.1768092685699375e-10 -2.1173834821930872e-05 1.5637863171853349e-05 -2.0604325639248151e-11 -2.3404046857677577e-05 1.5648250926865762e-05 -1.6177158776944624e-10 -4.9582261587321866e-05 9.7681735882297283e-06 -9.7972325519523893e-11 -2.9305132211414805e-05 7.7405176361580994e-06 2.1356117818039057e-11 -4.2280854066793885e-05 1.5625249668590371e-05 -1.89996782269543e-12 -4.6876053609949816e-05 1.5648250926865762e-05 -1.6177158776944622e-10 -4.9582261587321866e-05 9.7681735882297283e-06 -9.7972325519523893e-11 -2.9305132211414805e-05 7.7405176361580994e-06 2.1356117818039067e-11 -4.2280854066793885e-05 1.5637863171853349e-05 -2.0604325639248164e-11 -2.3404046857677581e-05 1.5625249668590371e-05 -1.8999678226954805e-12 -4.6876053609949829e-05 9.7681735882297283e-06 -9.7972325519523893e-11 -2.9305132211414805e-05 7.7405176361580994e-06 2.135611781803907e-11 -4.2280854066793879e-05 1.5648250926865762e-05 -1.6177158776944622e-10 -4.9582261587321866e-05 6.9028532898642826e-06 -1.603046498925949e-10 -4.6880517069063434e-05 9.7681735882297283e-06 -9.7972325519523893e-11 -2.9305132211414805e-05 1.431655768500523e-05 -1.1975412952237999e-10 -1.0177399350310233e-09 1.0289320500423253e-05 -7.4849452208714405e-11 -1.4010525547011429e-09 1.5637863171853349e-05 -2.0604325639248132e-11 -2.3404046857677574e-05 1.0289320500423255e-05 -7.4849452208714457e-11 -1.401052554702338e-09 6.9832307774928407e-06 1.0572571829687259e-11 -2.0950484582145943e-05 1.0139751617304881e-05 6.8305938878257557e-11 -1.4693967156541742e-09 1.5637863171853349e-05 -2.0604325639248151e-11 -2.3404046857677577e-05 9.7681735882297283e-06 -9.7972325519523893e-11 -2.9305132211414805e-05 1.431655768500523e-05 -1.1975412952237999e-10 -1.0177399350310233e-09 1.5637738625664869e-05 -2.1768092685699375e-10 -2.1173834821930868e-05 1.5637863171853349e-05 -2.0604325639248151e-11 -2.3404046857677577e-05 9.8784937430551785e-06 -2.1091841550023849e-10 -1.2611955469500118e-09 9.7681735882297283e-06 -9.7972325519523893e-11 -2.9305132211414805e-05 1.431655768500523e-05 -1.1975412952237999e-10 -1.0177399350310233e-09 1.0289320500423255e-05 -7.4849452208714457e-11 -1.401052554702338e-09 9.7681735882297283e-06 -9.7972325519523893e-11 -2.9305132211414805e-05 1.0289320500423258e-05 -7.4849452208714444e-11 -1.4010525546964834e-09 5.2906264647450045e-06 -1.4566684157163335e-10 -1.2146687251929301e-09 6.9832307774928407e-06 1.0572571829687259e-11 -2.0950484582145943e-05 9.8784937430551785e-06 -2.1091841550023849e-10 -1.2611955469500118e-09 9.7681735882297283e-06 -9.7972325519523802e-11 -2.9305132211414808e-05 1.431655768500523e-05 -1.1975412952237999e-10 -1.0177399350310233e-09 1.5637738625664869e-05 -2.176809268569938e-10 -2.1173834821930872e-05 9.7681735882297283e-06 -9.7972325519523893e-11 -2.9305132211414805e-05 1.0289320500423255e-05 -7.484945220871447e-11 -1.4010525546973695e-09 6.9832307774928407e-06 1.0572571829687259e-11 -2.0950484582145943e-05 1.5637863171853349e-05 -2.0604325639248148e-11 -2.3404046857677574e-05 9.8784937430551785e-06 -2.1091841550023849e-10 -1.2611955469500118e-09 9.7681735882297283e-06 -9.7972325519523893e-11 -2.9305132211414805e-05 1.0289320500423255e-05 -7.4849452208714457e-11 -1.401052554702338e-09 5.2906264647450045e-06 -1.4566684157163335e-10 -1.2146687251929301e-09 1.0289320500423255e-05 -7.4849452208714457e-11 -1.401052554702338e-09 1.0139751617304881e-05 6.8305938878257557e-11 -1.4693967156548258e-09 1.6238269024566607e-05 2.4193858494229921e-11 -1.3010114884464273e-09 1.5637863171853349e-05 -2.0604325639248151e-11 -2.3404046857677577e-05 1.431655768500523e-05 -1.1975412952237999e-10 -1.0177399350310233e-09 1.0289320500423255e-05 -7.4849452208714457e-11 -1.401052554702338e-09 1.6238269024566607e-05 2.4193858494229915e-11 -1.3010114884451243e-09 1.5637863171853349e-05 -2.0604325639248151e-11 -2.3404046857677577e-05 4.5754143445018634e-06 -2.1909595886560864e-10 -9.7080262004856758e-10 9.76817358822973e-06 -9.797232551952388e-11 -2.9305132211414805e-05 5.2906264647450045e-06 -1.4566684157163335e-10 -1.2146687251929301e-09 -1.2209206428659519e-14 -8.805001301531659e-11 -1.5872804872816541e-05 9.7681735882297283e-06 -9.7972325519523893e-11 -2.9305132211414805e-05 5.2906264647450028e-06 -1.4566684157163335e-10 -1.2146687251961228e-09 -1.2209204780767977e-14 -8.8050013015316629e-11 -1.5872804872816538e-05 6.9832307774928415e-06 1.0572571829687256e-11 -2.0950484582145939e-05 5.3832560813739625e-06 -1.0152279936353326e-11 -1.3238151920156795e-09 5.2906264647450045e-06 -1.4566684157163335e-10 -1.2146687251929301e-09 -1.1677335632890026e-14 -4.9864569756424645e-12 -1.6150815017599063e-05 6.9832307774928407e-06 1.0572571829687259e-11 -2.0950484582145943e-05 1.0289320500423255e-05 -7.4849452208714457e-11 -1.401052554702338e-09 5.3832560813739625e-06 -1.0152279936353326e-11 -1.3238151920156795e-09 5.2906264647450045e-06 -1.4566684157163335e-10 -1.2146687251929301e-09 6.9832307774928407e-06 1.0572571829687259e-11 -2.0950484582145943e-05 2.0955911849683366e-14 -2.3514216608331989e-10 -1.2115017521570008e-09 5.2906264647450045e-06 -1.4566684157163335e-10 -1.2146687251919623e-09 -1.2209206428659519e-14 -8.805001301531659e-11 -1.5872804872816541e-05 2.5750517688604736e-14 -1.0461051322301024e-10 -1.5463307307531685e-09 5.2906264647450045e-06 -1.4566684157163335e-10 -1.2146687251929301e-09 -1.2209207290091812e-14 -8.8050013015316616e-11 -1.5872804872816541e-05 -1.1677334457827645e-14 -4.9864569756424556e-12 -1.615081501759906e-05 2.5750517688604736e-14 -1.0461051322301024e-10 -1.5463307307531685e-09 5.2906264647450045e-06 -1.4566684157163335e-10 -1.2146687251929301e-09 -1.2209205748267149e-14 -8.805001301531659e-11 -1.5872804872816548e-05 -1.1677334613978588e-14 -4.9864569756424499e-12 -1.6150815017599057e-05 6.9832307774928407e-06 1.0572571829687259e-11 -2.0950484582145943e-05 3.990203630387517e-15 -4.7213864465396866e-11 -3.086854980964008e-05 -1.2209206428659519e-14 -8.805001301531659e-11 -1.5872804872816541e-05 -1.1677335632890026e-14 -4.9864569756424645e-12 -1.6150815017599063e-05 6.9832307774928407e-06 1.0572571829687259e-11 -2.0950484582145943e-05 5.3832560813739625e-06 -1.0152279936353326e-11 -1.3238151920156795e-09 -1.1677336294036941e-14 -4.9864569756424645e-12 -1.615081501759906e-05 2.5750517495749497e-14 -1.0461051322301024e-10 -1.5463307307531685e-09 1.2503176761366048e-14 8.4562063380844848e-11 -1.4435611895930307e-09 5.3832560813739625e-06 -1.0152279936353326e-11 -1.3238151920156795e-09 5.2906264647450045e-06 -1.4566684157163335e-10 -1.2146687251929301e-09 -1.1677335513627994e-14 -4.9864569756424564e-12 -1.6150815017599067e-05 2.5750517688604736e-14 -1.0461051322301024e-10 -1.5463307307531685e-09 6.9832307774928407e-06 1.0572571829687259e-11 -2.0950484582145943e-05 -3.5723348218748314e-15 9.8019827627047919e-11 -1.4904462131580103e-05 6.1772879596180781e-16 5.1657013577988744e-11 -3.0419809487483447e-05 6.0185779585917331e-06 1.500592499898137e-10 -1.8056483631549611e-05 4.9678377819692114e-06 1.1578079055357699e-10 -1.2084222254377189e-09 6.9832307774928415e-06 1.0572571829687264e-11 -2.0950484582145946e-05 -3.5723338523173762e-15 9.8019827627047932e-11 -1.4904462131580113e-05 6.0185779585917331e-06 1.5005924998981367e-10 -1.8056483631549615e-05 5.3832560813739625e-06 -1.0152279936353326e-11 -1.3238151920156795e-09 1.2503176761366048e-14 8.4562063380844848e-11 -1.4435611895930307e-09 4.9678377819692114e-06 1.1578079055357699e-10 -1.2084222254377189e-09 -3.5723338523173762e-15 9.8019827627047932e-11 -1.4904462131580113e-05 4.9678377819692114e-06 1.1578079055357699e-10 -1.2084222254377189e-09 6.9832307774928415e-06 1.057257182968726e-11 -2.0950484582145946e-05 6.0185779585917323e-06 1.5005924998981367e-10 -1.8056483631549615e-05 1.0139751617304881e-05 6.8305938878257557e-11 -1.4693967156541742e-09 5.3832560813739625e-06 -1.0152279936353326e-11 -1.3238151920156795e-09 -1.1677335041096692e-14 -4.9864569756424378e-12 -1.6150815017599063e-05 1.2503176761366048e-14 8.4562063380844848e-11 -1.4435611895930307e-09 -3.5723344499788635e-15 9.8019827627047919e-11 -1.4904462131580114e-05 1.2503176761366048e-14 8.4562063380844848e-11 -1.4435611895930307e-09 4.9678377819692114e-06 1.1578079055357699e-10 -1.2084222254377189e-09 -3.5723338523173762e-15 9.8019827627047932e-11 -1.4904462131580113e-05 5.4755606550879123e-15 2.1568290007034307e-10 -1.1743884490827936e-09 4.9678377819692114e-06 1.1578079055357699e-10 -1.2084222254377189e-09 6.018577958591734e-06 1.500592499898137e-10 -1.8056483631549615e-05 9.7086615158156573e-06 2.2899605945790453e-10 -1.308314551934616e-09 1.0139751617304881e-05 6.8305938878257557e-11 -1.4693967156541742e-09 5.3832560813739625e-06 -1.0152279936353326e-11 -1.3238151920156795e-09 4.9678377819692114e-06 1.1578079055357699e-10 -1.2084222254377189e-09 6.9832307774928407e-06 1.0572571829687259e-11 -2.0950484582145943e-05 1.0139751617304881e-05 6.8305938878257557e-11 -1.4693967156541742e-09 5.3832560813739625e-06 -1.0152279936353326e-11 -1.3238151920156795e-09 4.9678377819692114e-06 1.1578079055357699e-10 -1.2084222254377189e-09 6.9832307774928407e-06 1.0572571829687259e-11 -2.0950484582145943e-05 -3.5723338523173762e-15 9.8019827627047932e-11 -1.4904462131580113e-05 -3.5723338523173762e-15 9.8019827627047932e-11 -1.4904462131580113e-05 6.1772918283012096e-16 5.1657013577988738e-11 -3.0419809487483437e-05 1.201388257558787e-15 2.0141239018286146e-10 -2.9126494801837871e-05 6.0185779585917314e-06 1.5005924998981367e-10 -1.8056483631549615e-05 -1.1677335632890026e-14 -4.9864569756424645e-12 -1.6150815017599063e-05 6.9832307774928407e-06 1.0572571829687259e-11 -2.0950484582145943e-05 -3.5723338523173762e-15 9.8019827627047932e-11 -1.4904462131580113e-05 6.1772918283012096e-16 5.1657013577988738e-11 -3.0419809487483437e-05 5.3832560813739625e-06 -1.0152279936353326e-11 -1.3238151920156795e-09 -1.167733577341672e-14 -4.9864569756424273e-12 -1.6150815017599063e-05 6.9832307774928407e-06 1.0572571829687259e-11 -2.0950484582145943e-05 -3.5723351012885515e-15 9.8019827627047906e-11 -1.4904462131580114e-05 6.1772918283012096e-16 5.1657013577988738e-11 -3.0419809487483437e-05 7.0366591941239962e-06 1.85755016811403e-10 -4.5176572600614766e-05 6.0185779585917331e-06 1.5005924998981365e-10 -1.8056483631549615e-05 1.1202877696184283e-05 1.2372067507045927e-10 -2.8154115309684424e-05 3.990203630387517e-15 -4.7213864465396866e-11 -3.086854980964008e-05 6.9832307774928415e-06 1.0572571829687264e-11 -2.0950484582145936e-05 6.1772918283012096e-16 5.1657013577988738e-11 -3.0419809487483437e-05 7.7405176361580994e-06 2.1356117818039064e-11 -4.2280854066793885e-05 6.1772918283012096e-16 5.1657013577988738e-11 -3.0419809487483437e-05 1.201388257558787e-15 2.0141239018286146e-10 -2.9126494801837871e-05 7.0366591941239962e-06 1.85755016811403e-10 -4.5176572600614773e-05 6.0185779585917323e-06 1.5005924998981367e-10 -1.8056483631549611e-05 6.9832307774928407e-06 1.0572571829687259e-11 -2.0950484582145943e-05 6.1772820294322516e-16 5.1657013577988744e-11 -3.0419809487483441e-05 6.0185779585917323e-06 1.5005924998981367e-10 -1.8056483631549604e-05 1.1202877696184283e-05 1.2372067507045927e-10 -2.8154115309684424e-05 3.990203630387517e-15 -4.7213864465396866e-11 -3.086854980964008e-05 -1.1677335632890026e-14 -4.9864569756424645e-12 -1.6150815017599063e-05 6.9832307774928407e-06 1.0572571829687259e-11 -2.0950484582145943e-05 6.1772918283012096e-16 5.1657013577988738e-11 -3.0419809487483437e-05 6.1772918283012096e-16 5.1657013577988738e-11 -3.0419809487483437e-05 7.7405176361580994e-06 2.1356117818039083e-11 -4.2280854066793892e-05 7.0366591941239979e-06 1.8575501681140297e-10 -4.5176572600614766e-05 1.1202877696184283e-05 1.2372067507045927e-10 -2.8154115309684424e-05 6.9832307774928407e-06 1.0572571829687259e-11 -2.0950484582145943e-05 6.1772781208998627e-16 5.165701357798875e-11 -3.0419809487483437e-05 7.7405176361580994e-06 2.1356117818039067e-11 -4.2280854066793885e-05 1.1202877696184283e-05 1.2372067507045927e-10 -2.8154115309684424e-05 3.990203630387517e-15 -4.7213864465396866e-11 -3.086854980964008e-05 6.1772874510134073e-16 5.1657013577988738e-11 -3.0419809487483437e-05 7.7405176361580994e-06 2.1356117818039067e-11 -4.2280854066793885e-05 -3.3399684647753423e-15 3.8449745753355491e-12 -4.871493405051219e-05 6.1772918283012096e-16 5.1657013577988738e-11 -3.0419809487483437e-05 7.7405176361580994e-06 2.1356117818039067e-11 -4.2280854066793885e-05 6.9234427284704658e-16 1.2076374577864989e-10 -4.2811544436439163e-05 -3.3399684647753423e-15 3.8449745753355491e-12 -4.871493405051219e-05 7.7405176361580994e-06 2.1356117818039067e-11 -4.2280854066793885e-05 6.9234426732002449e-16 1.2076374577864989e-10 -4.2811544436439149e-05 7.036659194123997e-06 1.85755016811403e-10 -4.5176572600614766e-05 -1.6365058957989899e-15 1.0680065002916134e-10 -5.619868627546041e-05 6.1772918283012096e-16 5.1657013577988738e-11 -3.0419809487483437e-05 6.9234427284704658e-16 1.2076374577864989e-10 -4.2811544436439163e-05 1.2013881105107594e-15 2.0141239018286146e-10 -2.9126494801837871e-05 7.036659194123997e-06 1.85755016811403e-10 -4.5176572600614766e-05 6.1772918283012096e-16 5.1657013577988738e-11 -3.0419809487483437e-05 7.7405176361580994e-06 2.1356117818039083e-11 -4.2280854066793885e-05 6.9234427284704658e-16 1.2076374577864989e-10 -4.2811544436439163e-05 7.036659194123997e-06 1.85755016811403e-10 -4.5176572600614773e-05 7.036659194123997e-06 1.85755016811403e-10 -4.5176572600614766e-05 5.2906439811172353e-06 3.0290705686378159e-10 -2.8196265542749877e-05 6.018577958591734e-06 1.5005924998981362e-10 -1.8056483631549604e-05 1.0289730198388485e-05 3.5331138299744579e-10 -3.7141103839258958e-05 1.201388257558787e-15 2.0141239018286146e-10 -2.9126494801837871e-05 7.0366591941239954e-06 1.85755016811403e-10 -4.5176572600614766e-05 5.2906439811172344e-06 3.0290705686378165e-10 -2.819626554274988e-05 6.0185779585917331e-06 1.5005924998981367e-10 -1.8056483631549615e-05 1.201388257558787e-15 2.0141239018286146e-10 -2.9126494801837871e-05 7.0366591941239954e-06 1.8575501681140305e-10 -4.5176572600614773e-05 5.3832614014372179e-06 3.3027566607621414e-10 -4.672278327867079e-05 -5.6429706526122838e-15 2.388813946830469e-10 -4.7629128928160629e-05 6.9234427284704658e-16 1.2076374577864989e-10 -4.2811544436439163e-05 1.201388257558787e-15 2.0141239018286146e-10 -2.9126494801837871e-05 7.036659194123997e-06 1.85755016811403e-10 -4.5176572600614766e-05 -5.6429706526122838e-15 2.388813946830469e-10 -4.7629128928160629e-05 1.201388257558787e-15 2.0141239018286146e-10 -2.9126494801837871e-05 5.0108114507049707e-15 3.8698981741807514e-10 -3.7501071106417872e-05 5.3832614014372196e-06 3.3027566607621403e-10 -4.6722783278670797e-05 -5.6429706526122838e-15 2.388813946830469e-10 -4.7629128928160629e-05 1.201388257558787e-15 2.0141239018286146e-10 -2.9126494801837871e-05 5.0108114507049707e-15 3.8698981741807514e-10 -3.7501071106417872e-05 5.3832614014372188e-06 3.3027566607621403e-10 -4.672278327867079e-05 5.2906439811172353e-06 3.0290705686378159e-10 -2.8196265542749877e-05 1.201388257558787e-15 2.0141239018286146e-10 -2.9126494801837871e-05 7.0366591941239954e-06 1.8575501681140305e-10 -4.517657260061478e-05 5.3832614014372145e-06 3.3027566607621414e-10 -4.672278327867079e-05 5.2906439811172353e-06 3.0290705686378159e-10 -2.8196265542749877e-05 7.036659194123997e-06 1.85755016811403e-10 -4.5176572600614766e-05 5.3832614014372179e-06 3.3027566607621414e-10 -4.672278327867079e-05 5.2906439811172353e-06 3.0290705686378159e-10 -2.8196265542749877e-05 1.0289730198388485e-05 3.5331138299744579e-10 -3.7141103839258964e-05 1.201388257558787e-15 2.0141239018286146e-10 -2.9126494801837871e-05 5.0108111328871446e-15 3.8698981741807519e-10 -3.7501071106417872e-05 5.2906439811172353e-06 3.0290705686378159e-10 -2.8196265542749877e-05 4.3264431513836387e-15 3.030727085043177e-10 -1.8751155376113414e-05 1.201388257558787e-15 2.0141239018286146e-10 -2.9126494801837871e-05 5.2906439811172353e-06 3.0290705686378159e-10 -2.8196265542749877e-05 4.3264431513836387e-15 3.030727085043177e-10 -1.8751155376113414e-05 -1.9338604981325925e-14 2.0841516545886005e-10 -1.3727076655628276e-05 5.2906439811172353e-06 3.0290705686378159e-10 -2.8196265542749877e-05 4.3264432910054943e-15 3.030727085043177e-10 -1.8751155376113411e-05 -1.9338604981325925e-14 2.0841516545886005e-10 -1.3727076655628276e-05 4.57541491830732e-06 2.4269187533608461e-10 -1.3727123729459167e-05 1.3277214630612921e-14 3.2690781755164017e-10 -1.3300833163206979e-09 4.5753873783591928e-06 2.1740228075056507e-10 -9.6842904326818067e-10 6.2500530810420883e-06 3.4402828110389004e-10 -1.3290134753026613e-09 4.57541491830732e-06 2.4269187533608461e-10 -1.3727123729459167e-05 4.3264431513836387e-15 3.030727085043177e-10 -1.8751155376113414e-05 1.3277214630612922e-14 3.2690781755164017e-10 -1.3300833163211044e-09 -1.9338604981325925e-14 2.0841516545886005e-10 -1.3727076655628276e-05 4.57541491830732e-06 2.4269187533608461e-10 -1.3727123729459167e-05 1.3277214630612921e-14 3.2690781755164017e-10 -1.3300833163206979e-09 -1.9338605351592388e-14 2.0841516545886005e-10 -1.3727076655628276e-05 4.5753873783591928e-06 2.1740228075056507e-10 -9.6842904326818067e-10 4.57541491830732e-06 2.4269187533608461e-10 -1.3727123729459167e-05 1.3277214630612921e-14 3.2690781755164017e-10 -1.3300833163206979e-09 5.4755599145527587e-15 2.1568290007034307e-10 -1.174388449080572e-09 -1.9338604981325925e-14 2.0841516545886005e-10 -1.3727076655628276e-05 4.5753873783591928e-06 2.1740228075056507e-10 -9.6842904326818067e-10 4.9678377819692114e-06 1.1578079055357699e-10 -1.2084222254377189e-09 -3.5723338523173762e-15 9.8019827627047932e-11 -1.4904462131580113e-05 -1.9338604981325925e-14 2.0841516545886005e-10 -1.3727076655628276e-05 6.0185779585917331e-06 1.5005924998981367e-10 -1.8056483631549615e-05 4.9678377819692114e-06 1.1578079055357699e-10 -1.2084222254377189e-09 5.4755606550879123e-15 2.1568290007034307e-10 -1.1743884490827936e-09 -1.9338604981325925e-14 2.0841516545886005e-10 -1.3727076655628276e-05 4.5753873783591928e-06 2.1740228075056507e-10 -9.6842904326818067e-10 -1.9338604981325925e-14 2.0841516545886005e-10 -1.3727076655628276e-05 6.018577958591734e-06 1.5005924998981367e-10 -1.8056483631549615e-05 4.5753873783591937e-06 2.1740228075056504e-10 -9.6842904326804688e-10 4.57541491830732e-06 2.4269187533608461e-10 -1.3727123729459167e-05 4.9678377819692114e-06 1.1578079055357699e-10 -1.2084222254377189e-09 -3.5723328442654826e-15 9.8019827627047919e-11 -1.4904462131580114e-05 5.4755606550879123e-15 2.1568290007034307e-10 -1.1743884490827936e-09 -1.9338604981325925e-14 2.0841516545886005e-10 -1.3727076655628276e-05 4.9678377819692114e-06 1.1578079055357699e-10 -1.2084222254377189e-09 -1.9338604981325925e-14 2.0841516545886005e-10 -1.3727076655628276e-05 6.0185779585917331e-06 1.5005924998981367e-10 -1.8056483631549615e-05 4.5753873783591928e-06 2.1740228075056507e-10 -9.6842904326818067e-10 1.201388257558787e-15 2.0141239018286146e-10 -2.9126494801837871e-05 5.2906439811172353e-06 3.0290705686378159e-10 -2.8196265542749877e-05 -1.9338604816702733e-14 2.0841516545886002e-10 -1.3727076655628276e-05 6.0185779585917331e-06 1.5005924998981367e-10 -1.8056483631549615e-05 -3.5723338523173762e-15 9.8019827627047932e-11 -1.4904462131580113e-05 1.201387976073315e-15 2.0141239018286146e-10 -2.9126494801837871e-05 -1.9338604981325925e-14 2.0841516545886005e-10 -1.3727076655628276e-05 6.0185779585917314e-06 1.5005924998981367e-10 -1.8056483631549615e-05 6.0185779585917331e-06 1.5005924998981367e-10 -1.8056483631549615e-05 4.5753873783591945e-06 2.1740228075056507e-10 -9.6842904327336234e-10 4.5754149183073217e-06 2.4269187533608467e-10 -1.3727123729459169e-05 9.7086615158156573e-06 2.2899605945790453e-10 -1.308314551934616e-09 4.9678377819692114e-06 1.1578079055357699e-10 -1.2084222254377189e-09 6.018577958591734e-06 1.500592499898137e-10 -1.8056483631549615e-05 4.5753873783591928e-06 2.1740228075056507e-10 -9.6842904326818067e-10 9.7086615158156573e-06 2.2899605945790453e-10 -1.308314551934616e-09 4.5753873783591928e-06 2.1740228075056507e-10 -9.6842904326818067e-10 6.2500530810420883e-06 3.4402828110389004e-10 -1.3290134753027446e-09 4.57541491830732e-06 2.4269187533608461e-10 -1.3727123729459167e-05 9.7086615158156573e-06 2.2899605945790453e-10 -1.308314551934616e-09 6.2500530810420883e-06 3.4402828110389004e-10 -1.3290134753026613e-09 4.57541491830732e-06 2.4269187533608461e-10 -1.3727123729459167e-05 9.8863883698465649e-06 3.1774417938014791e-10 -1.7644050621610588e-05 9.7086615158156573e-06 2.2899605945790453e-10 -1.308314551934616e-09 6.0185779585917331e-06 1.5005924998981367e-10 -1.8056483631549615e-05 4.57541491830732e-06 2.4269187533608461e-10 -1.3727123729459167e-05 9.8863883698465649e-06 3.1774417938014796e-10 -1.7644050621610588e-05 9.7086615158156573e-06 2.2899605945790453e-10 -1.3083145519333817e-09 5.2906439811172353e-06 3.0290705686378159e-10 -2.8196265542749877e-05 6.0185779585917323e-06 1.5005924998981365e-10 -1.8056483631549615e-05 4.57541491830732e-06 2.4269187533608461e-10 -1.3727123729459167e-05 9.8863883698465649e-06 3.1774417938014796e-10 -1.7644050621610588e-05 5.2906439811172353e-06 3.0290705686378159e-10 -2.8196265542749877e-05 -1.9338604807869643e-14 2.0841516545886008e-10 -1.3727076655628279e-05 6.0185779585917331e-06 1.5005924998981367e-10 -1.8056483631549615e-05 4.57541491830732e-06 2.4269187533608461e-10 -1.3727123729459167e-05 6.0185779585917331e-06 1.5005924998981367e-10 -1.8056483631549615e-05 9.8863883698465649e-06 3.1774417938014801e-10 -1.7644050621610584e-05 1.1202877696184282e-05 1.2372067507045927e-10 -2.815411530968443e-05 1.6529808199604511e-05 2.1277612124329211e-10 -1.9527336660297047e-05 6.0185779585917331e-06 1.5005924998981367e-10 -1.8056483631549615e-05 9.7086615158156573e-06 2.2899605945790453e-10 -1.3083145519323874e-09 1.1202877696184283e-05 1.2372067507045921e-10 -2.8154115309684424e-05 1.6529808199604511e-05 2.1277612124329211e-10 -1.9527336660297047e-05 6.0185779585917331e-06 1.5005924998981367e-10 -1.8056483631549615e-05 9.8863883698465666e-06 3.1774417938014796e-10 -1.7644050621610588e-05 9.7086615158156573e-06 2.2899605945790456e-10 -1.308314551937372e-09 1.6529808199604511e-05 2.1277612124329211e-10 -1.9527336660297047e-05 6.2500530810420883e-06 3.4402828110389004e-10 -1.3290134753026613e-09 9.8863883698465649e-06 3.1774417938014796e-10 -1.7644050621610588e-05 9.7086615158156573e-06 2.2899605945790453e-10 -1.308314551934616e-09 1.2500211396887599e-05 4.0625788752852822e-10 -1.5504548566103225e-09 9.8863883698465649e-06 3.1774417938014796e-10 -1.7644050621610588e-05 9.7086615158156573e-06 2.2899605945790453e-10 -1.308314551934616e-09 1.5876301141273375e-05 2.5295242857026397e-10 -1.2694673652333591e-09 1.6529808199604511e-05 2.1277612124329211e-10 -1.9527336660297047e-05 9.7086615158156573e-06 2.2899605945790453e-10 -1.308314551934616e-09 1.4270400620956382e-05 1.2215698318306444e-10 -9.9612433757221639e-10 1.5876301141273375e-05 2.5295242857026397e-10 -1.2694673652333591e-09 1.6529808199604511e-05 2.1277612124329211e-10 -1.952733666029705e-05 9.8863883698465649e-06 3.1774417938014796e-10 -1.7644050621610588e-05 1.2500211396887599e-05 4.0625788752852822e-10 -1.5504548566103225e-09 1.5979462512552282e-05 2.992247124779355e-10 -1.5348794092345116e-05 1.5876301141273375e-05 2.5295242857026397e-10 -1.2694673652333591e-09 9.8863883698465649e-06 3.1774417938014796e-10 -1.7644050621610588e-05 9.7086615158156573e-06 2.2899605945790448e-10 -1.3083145519386318e-09 1.2500211396887599e-05 4.0625788752852822e-10 -1.5504548566103225e-09 1.5876301141273375e-05 2.5295242857026397e-10 -1.2694673652333591e-09 9.8863883698465649e-06 3.1774417938014796e-10 -1.7644050621610588e-05 1.4319031346073028e-05 2.4237022583673003e-10 -2.9092080825189886e-05 1.5979462512552282e-05 2.992247124779355e-10 -1.5348794092345116e-05 1.6529808199604511e-05 2.1277612124329211e-10 -1.9527336660297047e-05 9.8863883698465649e-06 3.1774417938014796e-10 -1.7644050621610588e-05 1.5979462512552282e-05 2.992247124779355e-10 -1.5348794092345116e-05 1.5876301141273375e-05 2.5295242857026402e-10 -1.2694673652323551e-09 1.6529808199604511e-05 2.1277612124329211e-10 -1.9527336660297047e-05 7.036659194123997e-06 1.85755016811403e-10 -4.5176572600614766e-05 1.0289730198388484e-05 3.5331138299744579e-10 -3.7141103839258958e-05 1.1202877696184282e-05 1.2372067507045927e-10 -2.8154115309684424e-05 1.5620248336732474e-05 1.5892853230410741e-10 -4.965792170392222e-05 7.036659194123997e-06 1.85755016811403e-10 -4.5176572600614766e-05 6.0185779585917306e-06 1.500592499898137e-10 -1.8056483631549608e-05 1.0289730198388485e-05 3.5331138299744579e-10 -3.7141103839258964e-05 1.1202877696184283e-05 1.2372067507045927e-10 -2.8154115309684427e-05 9.8863883698465649e-06 3.1774417938014796e-10 -1.7644050621610588e-05 1.4319031346073028e-05 2.4237022583673003e-10 -2.9092080825189886e-05 1.0289730198388485e-05 3.5331138299744579e-10 -3.7141103839258958e-05 1.1202877696184282e-05 1.2372067507045919e-10 -2.8154115309684424e-05 9.8863883698465649e-06 3.1774417938014796e-10 -1.7644050621610588e-05 1.4319031346073028e-05 2.4237022583673003e-10 -2.9092080825189886e-05 1.1202877696184282e-05 1.2372067507045919e-10 -2.8154115309684424e-05 1.6529808199604507e-05 2.1277612124329206e-10 -1.9527336660297057e-05 6.0185779585917331e-06 1.5005924998981367e-10 -1.8056483631549615e-05 9.8863883698465649e-06 3.1774417938014796e-10 -1.7644050621610588e-05 1.0289730198388484e-05 3.5331138299744579e-10 -3.7141103839258958e-05 1.1202877696184283e-05 1.2372067507045924e-10 -2.815411530968442e-05 1.4319031346073028e-05 2.4237022583673003e-10 -2.9092080825189886e-05 1.1202877696184283e-05 1.2372067507045924e-10 -2.815411530968443e-05 1.6529808199604511e-05 2.1277612124329211e-10 -1.9527336660297047e-05 1.5620248336732471e-05 1.5892853230410736e-10 -4.965792170392222e-05 1.4319031346073028e-05 2.4237022583673003e-10 -2.9092080825189886e-05 1.0289730198388485e-05 3.5331138299744579e-10 -3.7141103839258958e-05 1.1202877696184283e-05 1.2372067507045921e-10 -2.8154115309684424e-05 1.5620248336732471e-05 1.5892853230410739e-10 -4.9657921703922213e-05 5.2906439811172353e-06 3.0290705686378159e-10 -2.8196265542749877e-05 6.0185779585917323e-06 1.5005924998981365e-10 -1.8056483631549615e-05 9.8863883698465649e-06 3.1774417938014796e-10 -1.7644050621610588e-05 1.0289730198388485e-05 3.5331138299744579e-10 -3.7141103839258958e-05 7.036659194123997e-06 1.85755016811403e-10 -4.5176572600614766e-05 5.3832614014372188e-06 3.3027566607621414e-10 -4.672278327867079e-05 1.0289730198388484e-05 3.5331138299744579e-10 -3.7141103839258951e-05 1.014021612804723e-05 3.6839812174984976e-10 -5.6269905578780949e-05 1.4319031346073028e-05 2.4237022583673003e-10 -2.9092080825189886e-05 1.0289730198388485e-05 3.5331138299744579e-10 -3.7141103839258958e-05 1.6238228634169552e-05 3.1636475771148152e-10 -4.6876091640029247e-05 1.5620248336732474e-05 1.5892853230410741e-10 -4.965792170392222e-05 7.7405176361580994e-06 2.1356117818039067e-11 -4.2280854066793885e-05 7.036659194123997e-06 1.85755016811403e-10 -4.5176572600614766e-05 1.1202877696184282e-05 1.2372067507045927e-10 -2.8154115309684424e-05 1.5620248336732474e-05 1.5892853230410744e-10 -4.965792170392222e-05 7.7405176361580994e-06 2.1356117818039067e-11 -4.2280854066793885e-05 1.1202877696184282e-05 1.2372067507045929e-10 -2.8154115309684427e-05 1.5637863171853349e-05 -2.0604325639248119e-11 -2.3404046857677587e-05 1.5625249668590371e-05 -1.8999678226954744e-12 -4.6876053609949809e-05 7.7405176361580994e-06 2.1356117818039067e-11 -4.2280854066793885e-05 1.1202877696184283e-05 1.2372067507045927e-10 -2.8154115309684424e-05 1.5625249668590371e-05 -1.8999678226954805e-12 -4.6876053609949829e-05 1.5620248336732474e-05 1.5892853230410734e-10 -4.9657921703922206e-05 6.9832307774928407e-06 1.0572571829687259e-11 -2.0950484582145943e-05 7.7405176361580994e-06 2.1356117818039064e-11 -4.2280854066793885e-05 1.1202877696184285e-05 1.2372067507045927e-10 -2.8154115309684424e-05 1.5637863171853349e-05 -2.0604325639248151e-11 -2.3404046857677577e-05 6.9832307774928407e-06 1.0572571829687259e-11 -2.0950484582145943e-05 1.1202877696184283e-05 1.2372067507045927e-10 -2.8154115309684424e-05 1.0139751617304879e-05 6.830593887825757e-11 -1.4693967156540791e-09 1.5637863171853349e-05 -2.0604325639248151e-11 -2.3404046857677577e-05 9.7086615158156573e-06 2.2899605945790453e-10 -1.308314551934616e-09 1.1202877696184283e-05 1.2372067507045924e-10 -2.815411530968443e-05 1.0139751617304879e-05 6.8305938878257531e-11 -1.4693967156532494e-09 1.4270400620956381e-05 1.2215698318306444e-10 -9.9612433756909316e-10 6.9832307774928407e-06 1.0572571829687259e-11 -2.0950484582145943e-05 6.0185779585917297e-06 1.500592499898137e-10 -1.8056483631549611e-05 1.1202877696184283e-05 1.2372067507045927e-10 -2.8154115309684424e-05 1.0139751617304881e-05 6.8305938878257557e-11 -1.4693967156536144e-09 1.1202877696184283e-05 1.2372067507045927e-10 -2.8154115309684424e-05 1.0139751617304881e-05 6.8305938878257557e-11 -1.4693967156541742e-09 1.4270400620956381e-05 1.2215698318306444e-10 -9.9612433756909316e-10 1.5637863171853349e-05 -2.0604325639248151e-11 -2.3404046857677577e-05 6.0185779585917331e-06 1.5005924998981367e-10 -1.8056483631549615e-05 9.7086615158156573e-06 2.2899605945790453e-10 -1.3083145519350195e-09 1.1202877696184283e-05 1.2372067507045929e-10 -2.8154115309684427e-05 1.0139751617304881e-05 6.8305938878257557e-11 -1.4693967156541742e-09 9.7086615158156573e-06 2.2899605945790453e-10 -1.308314551934616e-09 1.1202877696184285e-05 1.2372067507045932e-10 -2.8154115309684427e-05 1.4270400620956381e-05 1.2215698318306444e-10 -9.9612433756909316e-10 1.6529808199604511e-05 2.1277612124329211e-10 -1.952733666029705e-05 1.1202877696184283e-05 1.2372067507045927e-10 -2.8154115309684424e-05 1.4270400620956381e-05 1.2215698318306444e-10 -9.9612433756909316e-10 1.6529808199604511e-05 2.1277612124329211e-10 -1.9527336660297047e-05 1.5637863171853349e-05 -2.0604325639248151e-11 -2.3404046857677577e-05 1.0289320500423255e-05 -7.4849452208714457e-11 -1.401052554702338e-09 5.3832560813739625e-06 -1.0152279936353326e-11 -1.3238151920156795e-09 6.9832307774928407e-06 1.0572571829687256e-11 -2.0950484582145943e-05 1.0139751617304881e-05 6.8305938878257557e-11 -1.4693967156541742e-09 1.0139751617304881e-05 6.8305938878257557e-11 -1.4693967156541742e-09 1.4270400620956381e-05 1.2215698318306444e-10 -9.9612433756909316e-10 1.6238269024566607e-05 2.4193858494229944e-11 -1.3010114884492227e-09 1.5637863171853349e-05 -2.0604325639248151e-11 -2.3404046857677577e-05 1.8732836732598548e-05 1.1052980034161243e-10 -9.9363901759352322e-10 2.2726082388179479e-05 8.4779867204249658e-11 -8.3438634093048222e-10 2.1392929229366818e-05 1.2404452169207975e-10 -2.9153652148326342e-05 2.4285709382443776e-05 -3.1081212633783781e-11 -2.0414831181569601e-05 1.8732836732598548e-05 1.1052980034161243e-10 -9.9363901759352322e-10 2.1392929229366821e-05 1.2404452169207977e-10 -2.9153652148326339e-05 2.4285709382443773e-05 -3.1081212633783781e-11 -2.0414831181569601e-05 1.5637863171853349e-05 -2.0604325639248151e-11 -2.3404046857677577e-05 1.4270400620956381e-05 1.2215698318306444e-10 -9.9612433756909316e-10 1.8732836732598548e-05 1.1052980034161243e-10 -9.9363901759378172e-10 1.6529808199604507e-05 2.1277612124329208e-10 -1.9527336660297043e-05 1.5637863171853349e-05 -2.0604325639248183e-11 -2.3404046857677581e-05 1.6238269024566607e-05 2.4193858494229921e-11 -1.3010114884464273e-09 1.8732836732598548e-05 1.1052980034161243e-10 -9.9363901759353273e-10 2.1037917771579297e-05 -6.946307938600156e-12 -1.0244452386373887e-09 1.5637863171853349e-05 -2.0604325639248151e-11 -2.3404046857677577e-05 1.8732836732598548e-05 1.1052980034161243e-10 -9.9363901759352322e-10 2.1392929229366818e-05 1.2404452169207975e-10 -2.9153652148326339e-05 1.6529808199604507e-05 2.1277612124329214e-10 -1.952733666029705e-05 1.5637863171853349e-05 -2.0604325639248115e-11 -2.3404046857677577e-05 1.8732836732598548e-05 1.1052980034161243e-10 -9.9363901759352322e-10 2.4285709382443773e-05 -3.1081212633783814e-11 -2.0414831181569598e-05 2.1037917771579297e-05 -6.946307938600156e-12 -1.0244452386374294e-09 1.5637863171853349e-05 -2.0604325639248151e-11 -2.3404046857677577e-05 1.8732836732598548e-05 1.1052980034161243e-10 -9.9363901759352322e-10 2.1392929229366821e-05 1.2404452169207972e-10 -2.9153652148326342e-05 1.6529808199604511e-05 2.1277612124329219e-10 -1.9527336660297047e-05 2.5494708326880294e-05 1.9450882671136891e-10 -1.7328988326997371e-05 1.4270400620956381e-05 1.2215698318306444e-10 -9.9612433756909316e-10 1.6238269024566607e-05 2.4193858494229921e-11 -1.3010114884464273e-09 1.8732836732598548e-05 1.1052980034161243e-10 -9.9363901759352322e-10 1.5637863171853349e-05 -2.0604325639248154e-11 -2.3404046857677584e-05 1.8732836732598548e-05 1.1052980034161243e-10 -9.9363901759352322e-10 2.2726082388179479e-05 8.4779867204249696e-11 -8.3438634092934474e-10 2.1392929229366818e-05 1.240445216920798e-10 -2.9153652148326339e-05 2.5494708326880294e-05 1.9450882671136888e-10 -1.7328988326997371e-05 1.4270400620956381e-05 1.2215698318306444e-10 -9.9612433756909316e-10 1.8732836732598548e-05 1.1052980034161243e-10 -9.9363901759337971e-10 1.5876301141273375e-05 2.5295242857026397e-10 -1.2694673652349209e-09 1.6529808199604511e-05 2.1277612124329211e-10 -1.9527336660297043e-05 1.8732836732598548e-05 1.1052980034161243e-10 -9.9363901759352322e-10 2.2726082388179479e-05 8.4779867204249709e-11 -8.3438634092886911e-10 2.2044780016885424e-05 1.6126849613268472e-10 -1.274011379082934e-09 2.5494708326880294e-05 1.9450882671136888e-10 -1.7328988326997371e-05 1.8732836732598548e-05 1.1052980034161243e-10 -9.9363901759352322e-10 2.2726082388179479e-05 8.4779867204249696e-11 -8.3438634093176073e-10 2.428570938244377e-05 -3.1081212633783872e-11 -2.0414831181569598e-05 2.1037917771579297e-05 -6.946307938600156e-12 -1.0244452386374294e-09 1.1202877696184283e-05 1.2372067507045927e-10 -2.8154115309684424e-05 2.1392929229366818e-05 1.2404452169207975e-10 -2.9153652148326342e-05 1.6529808199604511e-05 2.1277612124329211e-10 -1.9527336660297047e-05 1.5637863171853349e-05 -2.0604325639248151e-11 -2.3404046857677577e-05 1.1202877696184283e-05 1.2372067507045927e-10 -2.8154115309684424e-05 2.1392929229366818e-05 1.2404452169207975e-10 -2.9153652148326342e-05 1.5625249668590371e-05 -1.8999678226954595e-12 -4.6876053609949823e-05 1.5620248336732474e-05 1.5892853230410741e-10 -4.965792170392222e-05 1.1202877696184283e-05 1.2372067507045927e-10 -2.8154115309684424e-05 2.1392929229366818e-05 1.2404452169207975e-10 -2.9153652148326342e-05 1.5637863171853349e-05 -2.0604325639248151e-11 -2.3404046857677574e-05 1.5625249668590371e-05 -1.8999678226954558e-12 -4.6876053609949829e-05 2.1392929229366818e-05 1.2404452169207975e-10 -2.9153652148326342e-05 2.3451851269578411e-05 1.7115798000033762e-11 -4.6722951340685182e-05 1.5637863171853353e-05 -2.0604325639248183e-11 -2.3404046857677574e-05 1.5625249668590371e-05 -1.8999678226954595e-12 -4.6876053609949823e-05 2.1392929229366818e-05 1.2404452169207975e-10 -2.9153652148326342e-05 2.4179893218210666e-05 2.0373381593022464e-10 -4.6715871005661743e-05 2.3451851269578411e-05 1.7115798000033762e-11 -4.6722951340685182e-05 1.5620248336732474e-05 1.5892853230410741e-10 -4.965792170392222e-05 2.1392929229366818e-05 1.2404452169207975e-10 -2.9153652148326342e-05 2.3451851269578407e-05 1.7115798000033771e-11 -4.6722951340685182e-05 2.4285709382443773e-05 -3.108121263378384e-11 -2.0414831181569601e-05 1.5637863171853346e-05 -2.0604325639248183e-11 -2.3404046857677574e-05 1.1202877696184283e-05 1.2372067507045927e-10 -2.8154115309684424e-05 2.1392929229366818e-05 1.2404452169207975e-10 -2.9153652148326342e-05 1.6529808199604511e-05 2.1277612124329211e-10 -1.9527336660297047e-05 1.5620248336732474e-05 1.5892853230410741e-10 -4.965792170392222e-05 2.1392929229366818e-05 1.2404452169207975e-10 -2.9153652148326342e-05 2.3451851269578411e-05 1.7115798000033762e-11 -4.6722951340685182e-05 1.5625249668590371e-05 -1.8999678226954595e-12 -4.6876053609949823e-05 1.5620248336732474e-05 1.5892853230410741e-10 -4.965792170392222e-05 2.1392929229366818e-05 1.2404452169207975e-10 -2.9153652148326342e-05 1.9084201496551732e-05 3.3583962022556131e-10 -3.1058447451679448e-05 1.6529808199604511e-05 2.1277612124329211e-10 -1.952733666029705e-05 2.5494708326880294e-05 1.9450882671136888e-10 -1.7328988326997371e-05 2.1392929229366818e-05 1.2404452169207975e-10 -2.9153652148326342e-05 1.9084201496551736e-05 3.3583962022556131e-10 -3.1058447451679454e-05 2.4179893218210669e-05 2.0373381593022466e-10 -4.6715871005661743e-05 1.5620248336732474e-05 1.5892853230410741e-10 -4.965792170392222e-05 1.9084201496551736e-05 3.3583962022556131e-10 -3.1058447451679454e-05 2.4179893218210666e-05 2.0373381593022464e-10 -4.6715871005661743e-05 2.1325389936570392e-05 3.7193463259570716e-10 -4.9041789962515107e-05 1.5620248336732478e-05 1.5892853230410747e-10 -4.9657921703922213e-05 2.1392929229366818e-05 1.2404452169207975e-10 -2.9153652148326342e-05 1.9084201496551736e-05 3.3583962022556131e-10 -3.1058447451679454e-05 2.5494708326880294e-05 1.9450882671136888e-10 -1.7328988326997371e-05 2.586015941951251e-05 3.7039415365645861e-10 -2.9445910002695055e-05 1.4319031346073028e-05 2.4237022583673003e-10 -2.9092080825189886e-05 1.9084201496551736e-05 3.3583962022556131e-10 -3.1058447451679454e-05 1.6529808199604511e-05 2.1277612124329211e-10 -1.9527336660297047e-05 1.5620248336732474e-05 1.5892853230410741e-10 -4.965792170392222e-05 2.1392929229366818e-05 1.2404452169207975e-10 -2.9153652148326342e-05 1.9084201496551736e-05 3.3583962022556131e-10 -3.1058447451679454e-05 2.5860159419512506e-05 3.7039415365645866e-10 -2.9445910002695041e-05 2.4179893218210666e-05 2.0373381593022464e-10 -4.6715871005661743e-05 2.1392929229366818e-05 1.2404452169207975e-10 -2.9153652148326342e-05 1.9084201496551732e-05 3.3583962022556131e-10 -3.1058447451679448e-05 1.6529808199604511e-05 2.1277612124329208e-10 -1.952733666029705e-05 1.5620248336732474e-05 1.5892853230410741e-10 -4.965792170392222e-05 1.6238228634169552e-05 3.1636475771148152e-10 -4.6876091640029247e-05 1.9084201496551736e-05 3.3583962022556131e-10 -3.1058447451679454e-05 2.1325389936570392e-05 3.7193463259570716e-10 -4.9041789962515107e-05 1.5620248336732474e-05 1.5892853230410739e-10 -4.9657921703922226e-05 1.4319031346073028e-05 2.4237022583673003e-10 -2.9092080825189886e-05 1.6238228634169552e-05 3.1636475771148152e-10 -4.6876091640029247e-05 1.9084201496551736e-05 3.3583962022556131e-10 -3.1058447451679454e-05 1.5620248336732474e-05 1.5892853230410741e-10 -4.965792170392222e-05 1.9084201496551736e-05 3.3583962022556131e-10 -3.1058447451679454e-05 2.5860159419512506e-05 3.7039415365645866e-10 -2.9445910002695048e-05 2.4179893218210666e-05 2.0373381593022464e-10 -4.6715871005661743e-05 2.1325389936570392e-05 3.7193463259570716e-10 -4.9041789962515107e-05 1.4319031346073028e-05 2.4237022583673003e-10 -2.9092080825189886e-05 1.9084201496551736e-05 3.3583962022556131e-10 -3.1058447451679454e-05 1.5979462512552282e-05 2.992247124779355e-10 -1.5348794092345116e-05 1.6529808199604511e-05 2.1277612124329211e-10 -1.9527336660297047e-05 1.9084201496551736e-05 3.3583962022556131e-10 -3.1058447451679454e-05 1.5979462512552282e-05 2.9922471247793545e-10 -1.5348794092345112e-05 1.6529808199604511e-05 2.1277612124329216e-10 -1.9527336660297047e-05 2.1871719710378308e-05 3.0346990577842636e-10 -1.588090889206785e-05 1.9084201496551736e-05 3.3583962022556131e-10 -3.1058447451679454e-05 1.6529808199604514e-05 2.1277612124329211e-10 -1.9527336660297047e-05 2.1871719710378308e-05 3.0346990577842636e-10 -1.588090889206785e-05 2.5494708326880294e-05 1.9450882671136888e-10 -1.7328988326997371e-05 1.6529808199604511e-05 2.1277612124329211e-10 -1.9527336660297047e-05 2.204478001688542e-05 1.6126849613268469e-10 -1.2740113790792309e-09 2.1871719710378308e-05 3.0346990577842636e-10 -1.588090889206785e-05 2.5494708326880294e-05 1.9450882671136888e-10 -1.7328988326997371e-05 1.5979462512552282e-05 2.992247124779355e-10 -1.5348794092345116e-05 1.5876301141273375e-05 2.5295242857026397e-10 -1.2694673652333591e-09 1.6529808199604511e-05 2.1277612124329211e-10 -1.9527336660297043e-05 2.1871719710378308e-05 3.0346990577842636e-10 -1.588090889206785e-05 1.8732836732598548e-05 1.1052980034161243e-10 -9.9363901759352322e-10 1.6529808199604507e-05 2.1277612124329211e-10 -1.952733666029705e-05 2.2044780016885424e-05 1.6126849613268472e-10 -1.274011379082934e-09 2.5494708326880294e-05 1.9450882671136888e-10 -1.7328988326997374e-05 1.5979462512552282e-05 2.992247124779355e-10 -1.5348794092345116e-05 1.8750284741693625e-05 3.6020152129185196e-10 -1.6139308703035269e-09 1.5876301141273375e-05 2.5295242857026397e-10 -1.2694673652333591e-09 2.1871719710378308e-05 3.0346990577842636e-10 -1.588090889206785e-05 1.2500211396887599e-05 4.0625788752852822e-10 -1.5504548566103225e-09 1.5979462512552279e-05 2.992247124779355e-10 -1.5348794092345116e-05 1.8750284741693621e-05 3.6020152129185196e-10 -1.6139308703021682e-09 1.5876301141273375e-05 2.5295242857026397e-10 -1.2694673652333591e-09 1.8732836732598548e-05 1.1052980034161243e-10 -9.9363901759352322e-10 1.5876301141273375e-05 2.5295242857026397e-10 -1.2694673652333591e-09 1.6529808199604511e-05 2.1277612124329211e-10 -1.952733666029705e-05 2.2044780016885424e-05 1.6126849613268472e-10 -1.274011379082934e-09 1.5876301141273375e-05 2.5295242857026397e-10 -1.2694673652333591e-09 1.6529808199604511e-05 2.1277612124329211e-10 -1.9527336660297047e-05 2.2044780016885424e-05 1.6126849613268472e-10 -1.274011379082934e-09 2.1871719710378308e-05 3.0346990577842641e-10 -1.588090889206785e-05 1.8750284741693625e-05 3.6020152129185196e-10 -1.6139308703035269e-09 2.2044780016885424e-05 1.6126849613268469e-10 -1.2740113790819738e-09 2.1871719710378308e-05 3.0346990577842636e-10 -1.588090889206785e-05 2.5000369332918023e-05 3.0968176345964092e-10 -1.3249247391053866e-09 1.8750284741693625e-05 3.6020152129185196e-10 -1.6139308703035269e-09 1.5876301141273378e-05 2.5295242857026397e-10 -1.2694673652324583e-09 2.2044780016885424e-05 1.6126849613268472e-10 -1.274011379082934e-09 2.1871719710378308e-05 3.0346990577842636e-10 -1.588090889206785e-05 1.9084201496551736e-05 3.3583962022556131e-10 -3.1058447451679454e-05 2.1871719710378304e-05 3.0346990577842636e-10 -1.588090889206785e-05 2.5494708326880294e-05 1.9450882671136888e-10 -1.7328988326997371e-05 2.5860159419512506e-05 3.7039415365645861e-10 -2.9445910002695045e-05 2.1871719710378308e-05 3.0346990577842636e-10 -1.588090889206785e-05 2.667500633021031e-05 2.278850026966922e-10 -1.3727124456291395e-05 2.5494708326880294e-05 1.9450882671136891e-10 -1.7328988326997374e-05 2.5860159419512506e-05 3.7039415365645861e-10 -2.9445910002695045e-05 2.1871719710378308e-05 3.0346990577842636e-10 -1.588090889206785e-05 2.667500633021031e-05 2.2788500269669217e-10 -1.3727124456291394e-05 2.6674968213262242e-05 2.2905429900410786e-10 -9.0106753774945132e-10 2.5494708326880294e-05 1.9450882671136891e-10 -1.7328988326997361e-05 2.667500633021031e-05 2.2788500269669217e-10 -1.3727124456291394e-05 2.5494708326880294e-05 1.9450882671136888e-10 -1.7328988326997368e-05 3.1250354242386327e-05 2.0685632537713986e-10 -1.3727117933216294e-05 2.5860159419512506e-05 3.7039415365645861e-10 -2.9445910002695045e-05 2.1871719710378308e-05 3.0346990577842636e-10 -1.588090889206785e-05 2.667500633021031e-05 2.2788500269669217e-10 -1.3727124456291394e-05 2.5000369332918023e-05 3.0968176345964092e-10 -1.3249247391053866e-09 2.6674968213262242e-05 2.2905429900410786e-10 -9.0106753774561568e-10 2.2044780016885424e-05 1.6126849613268472e-10 -1.274011379082934e-09 2.1871719710378311e-05 3.0346990577842636e-10 -1.588090889206785e-05 2.5000369332918023e-05 3.0968176345964092e-10 -1.3249247391053866e-09 2.6674968213262242e-05 2.2905429900410786e-10 -9.0106753774561568e-10 2.2044780016885424e-05 1.6126849613268472e-10 -1.274011379082934e-09 2.6674968213262242e-05 2.2905429900410786e-10 -9.010675377464956e-10 2.5494708326880298e-05 1.9450882671136891e-10 -1.7328988326997374e-05 2.6617045305498722e-05 1.3630285436451021e-10 -1.0157322967371107e-09 2.2044780016885424e-05 1.6126849613268472e-10 -1.274011379082934e-09 2.1871719710378308e-05 3.0346990577842641e-10 -1.5880908892067854e-05 2.6674968213262239e-05 2.2905429900410784e-10 -9.0106753774613619e-10 2.5494708326880294e-05 1.9450882671136891e-10 -1.7328988326997371e-05 2.5494708326880294e-05 1.9450882671136888e-10 -1.7328988326997371e-05 3.1250354242386327e-05 2.0685632537713986e-10 -1.3727117933216292e-05 3.1250303349208526e-05 2.0936141486059012e-10 -2.9126548588398346e-05 3.1250306315973157e-05 1.078113211804229e-10 -1.4904418236582142e-05 2.5494708326880294e-05 1.9450882671136888e-10 -1.7328988326997371e-05 3.1250354242386327e-05 2.0685632537713986e-10 -1.3727117933216296e-05 2.5860159419512506e-05 3.7039415365645856e-10 -2.9445910002695041e-05 3.1250303349208526e-05 2.0936141486059012e-10 -2.9126548588398346e-05 2.6674968213262242e-05 2.2905429900410786e-10 -9.0106753774561568e-10 2.5494708326880291e-05 1.9450882671136891e-10 -1.7328988326997368e-05 3.1250354242386327e-05 2.0685632537713986e-10 -1.3727117933216294e-05 3.1250263322423695e-05 1.7686008476507059e-10 -1.179444617194458e-09 2.5494708326880294e-05 1.9450882671136888e-10 -1.7328988326997371e-05 3.1250354242386327e-05 2.0685632537713986e-10 -1.3727117933216292e-05 3.1250263322423695e-05 1.7686008476507059e-10 -1.1794446172041956e-09 3.1250306315973157e-05 1.0781132118042291e-10 -1.4904418236582138e-05 2.667500633021031e-05 2.2788500269669217e-10 -1.3727124456291394e-05 2.6674968213262242e-05 2.2905429900410786e-10 -9.0106753774519796e-10 2.5494708326880298e-05 1.9450882671136888e-10 -1.7328988326997374e-05 3.1250354242386327e-05 2.0685632537713986e-10 -1.3727117933216294e-05 2.6674968213262242e-05 2.2905429900410786e-10 -9.0106753774561568e-10 2.5494708326880294e-05 1.9450882671136885e-10 -1.7328988326997368e-05 3.1250263322423695e-05 1.7686008476507059e-10 -1.179444617194458e-09 2.6617045305498722e-05 1.3630285436451021e-10 -1.0157322967371107e-09 2.667500633021031e-05 2.2788500269669217e-10 -1.3727124456291394e-05 2.6674968213262242e-05 2.2905429900410786e-10 -9.0106753774561568e-10 3.1250354242386327e-05 2.0685632537713986e-10 -1.3727117933216294e-05 3.1250212899632454e-05 3.3931435076420128e-10 -1.3635078275026652e-09 2.667500633021031e-05 2.2788500269669217e-10 -1.3727124456291394e-05 3.1250354242386327e-05 2.0685632537713986e-10 -1.3727117933216294e-05 3.1250212899632454e-05 3.3931435076420128e-10 -1.3635078275026652e-09 3.1250307766123649e-05 3.1732667039897597e-10 -1.8751199525165687e-05 2.6674968213262242e-05 2.2905429900410786e-10 -9.0106753774561568e-10 3.1250354242386327e-05 2.0685632537713986e-10 -1.3727117933216292e-05 3.1250263322423695e-05 1.7686008476507059e-10 -1.179444617194458e-09 3.1250212899632454e-05 3.3931435076420128e-10 -1.3635078275026652e-09 2.667500633021031e-05 2.2788500269669217e-10 -1.3727124456291394e-05 2.5000369332918023e-05 3.0968176345964092e-10 -1.3249247391053866e-09 2.6674968213262246e-05 2.2905429900410789e-10 -9.0106753774486098e-10 3.1250212899632454e-05 3.3931435076420128e-10 -1.3635078275026652e-09 2.667500633021031e-05 2.2788500269669217e-10 -1.3727124456291394e-05 3.1250354242386327e-05 2.0685632537713986e-10 -1.3727117933216294e-05 3.1250307766123649e-05 3.1732667039897597e-10 -1.8751199525165687e-05 2.5860159419512506e-05 3.7039415365645861e-10 -2.9445910002695045e-05 3.1250354242386327e-05 2.0685632537713986e-10 -1.3727117933216294e-05 3.1250307766123642e-05 3.1732667039897592e-10 -1.8751199525165687e-05 2.5860159419512506e-05 3.7039415365645861e-10 -2.9445910002695041e-05 3.1250303349208526e-05 2.0936141486059012e-10 -2.9126548588398346e-05 3.1250307766123649e-05 3.1732667039897597e-10 -1.8751199525165687e-05 2.5860159419512506e-05 3.7039415365645861e-10 -2.9445910002695045e-05 3.1250299565338465e-05 2.9859694846779685e-10 -3.7501151581490238e-05 3.1250303349208526e-05 2.0936141486059012e-10 -2.9126548588398346e-05 2.1392929229366818e-05 1.2404452169207975e-10 -2.9153652148326342e-05 2.5494708326880294e-05 1.9450882671136888e-10 -1.7328988326997371e-05 2.5860159419512506e-05 3.7039415365645861e-10 -2.9445910002695045e-05 2.4179893218210666e-05 2.0373381593022464e-10 -4.6715871005661743e-05 2.5494708326880294e-05 1.9450882671136888e-10 -1.7328988326997371e-05 2.586015941951251e-05 3.7039415365645851e-10 -2.9445910002695041e-05 2.4179893218210669e-05 2.0373381593022466e-10 -4.6715871005661743e-05 3.1250303349208526e-05 2.0936141486059012e-10 -2.9126548588398346e-05 2.1392929229366818e-05 1.2404452169207975e-10 -2.9153652148326342e-05 2.5494708326880294e-05 1.9450882671136888e-10 -1.7328988326997371e-05 2.4179893218210662e-05 2.0373381593022479e-10 -4.6715871005661736e-05 3.1250303349208526e-05 2.0936141486059007e-10 -2.9126548588398343e-05 2.5860159419512506e-05 3.7039415365645861e-10 -2.9445910002695045e-05 2.4179893218210666e-05 2.0373381593022464e-10 -4.6715871005661743e-05 3.1250303349208526e-05 2.0936141486059012e-10 -2.9126548588398346e-05 2.7113566650667909e-05 3.0051971500263166e-10 -4.7446280988094872e-05 2.5860159419512506e-05 3.7039415365645861e-10 -2.9445910002695045e-05 2.4179893218210666e-05 2.0373381593022464e-10 -4.6715871005661743e-05 2.7113566650667909e-05 3.0051971500263166e-10 -4.7446280988094872e-05 2.1325389936570392e-05 3.7193463259570716e-10 -4.9041789962515107e-05 2.5860159419512506e-05 3.7039415365645861e-10 -2.9445910002695045e-05 3.1250299565338465e-05 2.9859694846779685e-10 -3.7501151581490245e-05 3.1250303349208526e-05 2.0936141486059012e-10 -2.9126548588398346e-05 2.7113566650667909e-05 3.0051971500263166e-10 -4.7446280988094872e-05 3.1250299565338465e-05 2.9859694846779685e-10 -3.7501151581490238e-05 3.1250303349208526e-05 2.0936141486059012e-10 -2.9126548588398346e-05 3.1250310445072129e-05 2.1041672404241382e-10 -4.7629270880728947e-05 2.7113566650667909e-05 3.0051971500263166e-10 -4.7446280988094872e-05 2.4179893218210666e-05 2.0373381593022464e-10 -4.6715871005661743e-05 3.1250303349208526e-05 2.0936141486059014e-10 -2.9126548588398343e-05 3.1250310445072129e-05 2.1041672404241379e-10 -4.7629270880728954e-05 2.7113566650667909e-05 3.0051971500263166e-10 -4.7446280988094872e-05 2.4179893218210666e-05 2.0373381593022464e-10 -4.6715871005661743e-05 3.1250303349208526e-05 2.0936141486059012e-10 -2.9126548588398346e-05 3.1250310039193016e-05 1.2038371872797218e-10 -4.2950212802557911e-05 3.1250310445072129e-05 2.1041672404241382e-10 -4.7629270880728947e-05 2.3451851269578411e-05 1.7115798000033762e-11 -4.6722951340685182e-05 3.1250314701131664e-05 4.9656320588754443e-11 -3.0419841165217183e-05 2.4285709382443776e-05 -3.108121263378384e-11 -2.0414831181569601e-05 3.1250313913301773e-05 -8.7790221224781814e-11 -3.0868632599519958e-05 2.1392929229366818e-05 1.2404452169207975e-10 -2.9153652148326342e-05 3.1250310039193016e-05 1.203837187279722e-10 -4.2950212802557911e-05 2.3451851269578411e-05 1.7115798000033762e-11 -4.6722951340685182e-05 3.1250314701131664e-05 4.9656320588754494e-11 -3.0419841165217183e-05 2.1392929229366818e-05 1.2404452169207975e-10 -2.9153652148326342e-05 2.4179893218210666e-05 2.0373381593022461e-10 -4.6715871005661743e-05 3.1250303349208526e-05 2.0936141486059009e-10 -2.9126548588398343e-05 3.1250310039193016e-05 1.2038371872797223e-10 -4.2950212802557911e-05 2.1392929229366818e-05 1.2404452169207975e-10 -2.9153652148326342e-05 2.4179893218210666e-05 2.0373381593022464e-10 -4.6715871005661743e-05 3.1250310039193016e-05 1.2038371872797223e-10 -4.2950212802557911e-05 2.3451851269578411e-05 1.7115798000033762e-11 -4.6722951340685182e-05 2.1392929229366818e-05 1.2404452169207975e-10 -2.9153652148326342e-05 3.1250303349208526e-05 2.093614148605902e-10 -2.9126548588398353e-05 3.1250310039193016e-05 1.2038371872797223e-10 -4.2950212802557911e-05 3.1250314701131664e-05 4.9656320588754494e-11 -3.0419841165217183e-05 2.1392929229366818e-05 1.2404452169207975e-10 -2.9153652148326342e-05 2.3451851269578407e-05 1.7115798000033775e-11 -4.6722951340685182e-05 3.1250314701131664e-05 4.9656320588754468e-11 -3.041984116521718e-05 2.4285709382443773e-05 -3.1081212633783846e-11 -2.0414831181569598e-05 2.1392929229366818e-05 1.2404452169207975e-10 -2.9153652148326342e-05 2.5494708326880298e-05 1.9450882671136885e-10 -1.7328988326997371e-05 3.1250303349208526e-05 2.0936141486059012e-10 -2.9126548588398346e-05 3.1250314701131664e-05 4.9656320588754481e-11 -3.0419841165217177e-05 2.1392929229366818e-05 1.2404452169207975e-10 -2.9153652148326342e-05 2.5494708326880291e-05 1.9450882671136885e-10 -1.7328988326997374e-05 3.1250314701131664e-05 4.9656320588754481e-11 -3.0419841165217173e-05 2.4285709382443773e-05 -3.1081212633783827e-11 -2.0414831181569608e-05 3.1250310039193016e-05 1.2038371872797223e-10 -4.2950212802557911e-05 2.3451851269578411e-05 1.7115798000033762e-11 -4.6722951340685182e-05 3.1250314701131664e-05 4.9656320588754494e-11 -3.0419841165217183e-05 3.1250304251419578e-05 -4.3724609213557935e-12 -4.8715092842504813e-05 2.3451851269578411e-05 1.7115798000033762e-11 -4.6722951340685182e-05 3.1250314701131664e-05 4.9656320588754449e-11 -3.0419841165217187e-05 3.125031391330178e-05 -8.7790221224781814e-11 -3.0868632599519964e-05 3.1250304251419578e-05 -4.3724609213557935e-12 -4.8715092842504813e-05 3.1250306315973157e-05 1.078113211804229e-10 -1.4904418236582142e-05 2.4285709382443773e-05 -3.1081212633783846e-11 -2.0414831181569608e-05 2.6310200300043936e-05 3.7071973031684775e-11 -1.1625131278392113e-09 3.1250281574258004e-05 -2.7004673448968104e-11 -1.6150772120704449e-05 2.5494708326880294e-05 1.9450882671136888e-10 -1.7328988326997371e-05 3.1250306315973157e-05 1.078113211804229e-10 -1.4904418236582142e-05 2.4285709382443773e-05 -3.1081212633783833e-11 -2.0414831181569601e-05 2.6617045305498722e-05 1.3630285436451021e-10 -1.0157322967371107e-09 2.5494708326880294e-05 1.9450882671136888e-10 -1.7328988326997371e-05 3.1250314701131657e-05 4.9656320588754455e-11 -3.0419841165217173e-05 3.1250306315973157e-05 1.078113211804229e-10 -1.4904418236582142e-05 2.4285709382443773e-05 -3.1081212633783833e-11 -2.0414831181569601e-05 3.1250314701131664e-05 4.9656320588754494e-11 -3.0419841165217183e-05 3.1250306315973157e-05 1.078113211804229e-10 -1.4904418236582142e-05 2.4285709382443773e-05 -3.1081212633783814e-11 -2.0414831181569601e-05 3.1250281574258004e-05 -2.7004673448968104e-11 -1.6150772120704449e-05 2.2726082388179479e-05 8.4779867204249696e-11 -8.3438634092934474e-10 2.5494708326880294e-05 1.9450882671136888e-10 -1.7328988326997371e-05 2.4285709382443773e-05 -3.1081212633783833e-11 -2.0414831181569601e-05 2.6617045305498722e-05 1.3630285436451021e-10 -1.0157322967371107e-09 2.2726082388179479e-05 8.4779867204249696e-11 -8.3438634092934474e-10 2.1392929229366818e-05 1.2404452169207972e-10 -2.9153652148326345e-05 2.5494708326880294e-05 1.9450882671136888e-10 -1.7328988326997371e-05 2.428570938244377e-05 -3.1081212633783814e-11 -2.0414831181569601e-05 2.5494708326880294e-05 1.9450882671136888e-10 -1.7328988326997371e-05 3.1250303349208526e-05 2.0936141486059012e-10 -2.9126548588398346e-05 3.1250314701131664e-05 4.9656320588754552e-11 -3.041984116521718e-05 3.1250306315973157e-05 1.078113211804229e-10 -1.4904418236582142e-05 2.2726082388179479e-05 8.4779867204249696e-11 -8.3438634092934474e-10 2.4285709382443773e-05 -3.1081212633783833e-11 -2.0414831181569601e-05 2.6310200300043936e-05 3.7071973031684781e-11 -1.1625131278452419e-09 2.1037917771579297e-05 -6.946307938600156e-12 -1.0244452386374294e-09 3.1250306315973157e-05 1.078113211804229e-10 -1.4904418236582142e-05 2.428570938244377e-05 -3.1081212633783852e-11 -2.0414831181569608e-05 2.6310200300043936e-05 3.7071973031684775e-11 -1.1625131278418796e-09 2.6617045305498722e-05 1.3630285436451018e-10 -1.0157322967365682e-09 2.2726082388179479e-05 8.4779867204249696e-11 -8.3438634092934474e-10 2.4285709382443773e-05 -3.1081212633783833e-11 -2.0414831181569601e-05 2.6310200300043936e-05 3.7071973031684781e-11 -1.1625131278452419e-09 2.6617045305498722e-05 1.3630285436451021e-10 -1.0157322967371107e-09 2.2726082388179479e-05 8.4779867204249696e-11 -8.3438634092934474e-10 2.2044780016885424e-05 1.6126849613268472e-10 -1.274011379082934e-09 2.5494708326880294e-05 1.9450882671136885e-10 -1.7328988326997371e-05 2.6617045305498722e-05 1.3630285436451021e-10 -1.0157322967371107e-09 3.1250263322423695e-05 1.7686008476507059e-10 -1.179444617194458e-09 3.125030631597315e-05 1.078113211804229e-10 -1.4904418236582145e-05 2.6617045305498722e-05 1.3630285436451021e-10 -1.0157322967371107e-09 3.1250159127950902e-05 9.2904686972303455e-11 -1.3148224810299698e-09 2.5494708326880294e-05 1.9450882671136888e-10 -1.7328988326997371e-05 3.1250263322423688e-05 1.7686008476507054e-10 -1.1794446171978669e-09 3.125030631597315e-05 1.0781132118042291e-10 -1.4904418236582142e-05 2.6617045305498722e-05 1.3630285436451021e-10 -1.0157322967371107e-09 3.1250306315973157e-05 1.078113211804229e-10 -1.4904418236582142e-05 2.6310200300043936e-05 3.7071973031684781e-11 -1.1625131278452419e-09 2.6617045305498722e-05 1.3630285436451018e-10 -1.0157322967402912e-09 3.1250159127950902e-05 9.2904686972303455e-11 -1.3148224810299698e-09 3.1250306315973157e-05 1.078113211804229e-10 -1.4904418236582142e-05 2.6310200300043936e-05 3.7071973031684781e-11 -1.1625131278452419e-09 3.1250159127950902e-05 9.2904686972303455e-11 -1.3148224810299642e-09 3.1250281574258004e-05 -2.7004673448968104e-11 -1.6150772120704449e-05 2.6310200300043936e-05 3.7071973031684781e-11 -1.1625131278452419e-09 3.1250159127950902e-05 9.2904686972303455e-11 -1.3148224810299698e-09 3.1250121969426489e-05 -3.0012863352809702e-11 -1.597019365388587e-09 3.1250281574258004e-05 -2.7004673448968104e-11 -1.6150772120704449e-05 3.1250283963982957e-05 -8.5451984217853234e-11 -1.5872939983488981e-05 2.5262709154559565e-05 -1.2658053893435034e-10 -1.4003618522397066e-09 2.6674933639661919e-05 -1.6728473167864665e-10 -9.8943313514752308e-10 2.1493248894429351e-05 -1.2335939293340605e-10 -2.9407485185387202e-05 2.6310200300043936e-05 3.7071973031684781e-11 -1.1625131278452419e-09 3.1250121969426489e-05 -3.0012863352809702e-11 -1.597019365388587e-09 3.1250281574258004e-05 -2.7004673448968091e-11 -1.6150772120704449e-05 2.5262709154559565e-05 -1.2658053893435032e-10 -1.4003618522356255e-09 3.1250121969426489e-05 -3.0012863352809702e-11 -1.597019365388587e-09 3.1250281574258004e-05 -2.7004673448968104e-11 -1.6150772120704449e-05 3.1250283963982957e-05 -8.5451984217853234e-11 -1.5872939983488981e-05 2.5262709154559565e-05 -1.2658053893435032e-10 -1.4003618522356255e-09 2.4285709382443773e-05 -3.1081212633783833e-11 -2.0414831181569601e-05 3.1250283963982957e-05 -8.5451984217853195e-11 -1.5872939983488988e-05 2.5262709154559565e-05 -1.2658053893435032e-10 -1.4003618522349997e-09 2.1493248894429354e-05 -1.2335939293340605e-10 -2.9407485185387206e-05 2.4285709382443773e-05 -3.1081212633783833e-11 -2.0414831181569601e-05 2.6310200300043936e-05 3.7071973031684723e-11 -1.1625131278450808e-09 2.5262709154559561e-05 -1.2658053893435027e-10 -1.4003618522295792e-09 2.1037917771579297e-05 -6.946307938600156e-12 -1.0244452386374294e-09 2.4285709382443773e-05 -3.1081212633783833e-11 -2.0414831181569601e-05 2.6310200300043936e-05 3.7071973031684716e-11 -1.1625131278465931e-09 3.1250281574258004e-05 -2.700467344896813e-11 -1.6150772120704449e-05 2.5262709154559565e-05 -1.2658053893435027e-10 -1.4003618522316215e-09 2.4285709382443773e-05 -3.1081212633783833e-11 -2.0414831181569601e-05 3.1250281574258004e-05 -2.7004673448968104e-11 -1.6150772120704449e-05 3.1250283963982957e-05 -8.5451984217853247e-11 -1.5872939983488984e-05 2.5262709154559565e-05 -1.2658053893435032e-10 -1.4003618522356255e-09 2.4285709382443773e-05 -3.1081212633783833e-11 -2.0414831181569601e-05 3.1250281574258004e-05 -2.7004673448968104e-11 -1.6150772120704449e-05 3.1250283963982957e-05 -8.5451984217853273e-11 -1.5872939983488984e-05 3.125031391330178e-05 -8.7790221224781853e-11 -3.0868632599519964e-05 3.1250121969426489e-05 -3.0012863352809702e-11 -1.597019365388587e-09 3.1250283963982957e-05 -8.5451984217853234e-11 -1.5872939983488981e-05 2.5262709154559565e-05 -1.2658053893435032e-10 -1.4003618522356255e-09 3.1250146264440644e-05 -2.2092572317111965e-10 -1.3635492169935531e-09 3.1250283963982957e-05 -8.5451984217853234e-11 -1.5872939983488981e-05 2.5262709154559568e-05 -1.2658053893435032e-10 -1.4003618522399423e-09 3.1250146264440644e-05 -2.2092572317111965e-10 -1.3635492169935531e-09 2.6674933639661919e-05 -1.6728473167864665e-10 -9.8943313514703236e-10 3.1250283963982957e-05 -8.5451984217853234e-11 -1.5872939983488981e-05 3.1250146264440644e-05 -2.2092572317111965e-10 -1.3635492169935531e-09 3.1250328134475023e-05 -1.8646485640337952e-10 -1.3727160199794922e-05 2.6674933639661919e-05 -1.6728473167864665e-10 -9.8943313514703236e-10 2.6674957593967394e-05 -2.2887328680720702e-10 -1.3727105380495484e-05 2.143531282411758e-05 -3.6627707205195022e-10 -1.6171896825594099e-05 2.1493248894429354e-05 -1.2335939293340605e-10 -2.9407485185387206e-05 2.5955826102172205e-05 -3.0334939792308251e-10 -2.8143461490416006e-05 2.5262709154559565e-05 -1.2658053893435032e-10 -1.4003618522356255e-09 2.6674933639661919e-05 -1.6728473167864665e-10 -9.8943313514703236e-10 2.1681826373713715e-05 -2.2255876838485045e-10 -1.1986838603044948e-09 2.1493248894429354e-05 -1.2335939293340605e-10 -2.9407485185387202e-05 3.1250283963982957e-05 -8.5451984217853234e-11 -1.5872939983488981e-05 3.1250328134475023e-05 -1.8646485640337952e-10 -1.3727160199794922e-05 2.1493248894429354e-05 -1.2335939293340605e-10 -2.9407485185387206e-05 3.1250310030544234e-05 -1.8648309338483289e-10 -2.963625972687341e-05 3.1250283963982957e-05 -8.5451984217853234e-11 -1.5872939983488981e-05 3.1250328134475023e-05 -1.8646485640337952e-10 -1.3727160199794922e-05 2.6674933639661916e-05 -1.6728473167864665e-10 -9.8943313514795136e-10 2.1493248894429361e-05 -1.2335939293340605e-10 -2.9407485185387209e-05 3.1250328134475023e-05 -1.8646485640337952e-10 -1.3727160199794922e-05 2.6674957593967394e-05 -2.2887328680720707e-10 -1.3727105380495487e-05 2.1493248894429354e-05 -1.2335939293340615e-10 -2.9407485185387209e-05 2.5955826102172202e-05 -3.0334939792308246e-10 -2.8143461490415999e-05 3.1250328134475023e-05 -1.8646485640337952e-10 -1.3727160199794922e-05 2.6674957593967394e-05 -2.2887328680720702e-10 -1.3727105380495485e-05 2.6674933639661919e-05 -1.6728473167864665e-10 -9.8943313514742155e-10 2.1493248894429358e-05 -1.2335939293340607e-10 -2.9407485185387199e-05 2.6674957593967394e-05 -2.2887328680720702e-10 -1.3727105380495484e-05 2.6674933639661919e-05 -1.6728473167864665e-10 -9.8943313514703236e-10 2.1681826373713715e-05 -2.2255876838485045e-10 -1.1986838603044948e-09 2.1493248894429354e-05 -1.2335939293340605e-10 -2.9407485185387206e-05 3.1250328134475023e-05 -1.8646485640337952e-10 -1.3727160199794922e-05 3.1250271156704167e-05 -3.091140536172138e-10 -1.8751215684889085e-05 2.6674957593967394e-05 -2.2887328680720702e-10 -1.3727105380495484e-05 2.5955826102172198e-05 -3.0334939792308246e-10 -2.8143461490415999e-05 3.1250328134475023e-05 -1.8646485640337952e-10 -1.3727160199794922e-05 3.1250271156704167e-05 -3.091140536172138e-10 -1.8751215684889085e-05 2.5955826102172205e-05 -3.0334939792308251e-10 -2.8143461490416006e-05 3.1250310030544234e-05 -1.8648309338483289e-10 -2.963625972687341e-05 3.1250154030508272e-05 -3.3872330152004985e-10 -1.3015745666598815e-09 2.5000317440430951e-05 -3.1830102276087377e-10 -1.2118707834607734e-09 2.6674957593967394e-05 -2.2887328680720702e-10 -1.3727105380495484e-05 2.6674933639661919e-05 -1.6728473167864665e-10 -9.8943313514703236e-10 3.1250328134475023e-05 -1.8646485640337952e-10 -1.3727160199794922e-05 3.1250271156704167e-05 -3.091140536172138e-10 -1.8751215684889085e-05 3.1250154030508272e-05 -3.3872330152004985e-10 -1.3015745666598815e-09 2.6674957593967394e-05 -2.2887328680720702e-10 -1.3727105380495484e-05 3.1250146264440644e-05 -2.2092572317111965e-10 -1.3635492169935531e-09 3.1250328134475023e-05 -1.8646485640337952e-10 -1.3727160199794922e-05 3.1250154030508272e-05 -3.3872330152004985e-10 -1.3015745666598815e-09 2.6674933639661919e-05 -1.6728473167864665e-10 -9.8943313514703236e-10 3.1250328134475023e-05 -1.8646485640337952e-10 -1.3727160199794922e-05 3.1250154030508265e-05 -3.387233015200498e-10 -1.3015745666587706e-09 2.6674957593967394e-05 -2.2887328680720702e-10 -1.3727105380495484e-05 2.6674933639661919e-05 -1.6728473167864665e-10 -9.8943313514703236e-10 2.5000317440430951e-05 -3.1830102276087377e-10 -1.211870783462995e-09 2.6674957593967394e-05 -2.2887328680720702e-10 -1.3727105380495484e-05 2.1681826373713715e-05 -2.2255876838485045e-10 -1.1986838603044948e-09 2.143531282411758e-05 -3.6627707205195027e-10 -1.6171896825594099e-05 2.5000317440430951e-05 -3.1830102276087377e-10 -1.211870783462995e-09 2.6674957593967394e-05 -2.2887328680720702e-10 -1.3727105380495484e-05 2.6674933639661919e-05 -1.6728473167864665e-10 -9.894331351477671e-10 2.1681826373713715e-05 -2.2255876838485045e-10 -1.1986838603044948e-09 2.1681826373713715e-05 -2.2255876838485045e-10 -1.1986838603044948e-09 2.143531282411758e-05 -3.6627707205195027e-10 -1.6171896825594099e-05 1.5637738625664869e-05 -2.1768092685699375e-10 -2.1173834821930868e-05 2.1493248894429354e-05 -1.2335939293340605e-10 -2.9407485185387206e-05 2.6674957593967394e-05 -2.2887328680720702e-10 -1.3727105380495484e-05 2.1681826373713715e-05 -2.2255876838485045e-10 -1.1986838603044948e-09 2.143531282411758e-05 -3.6627707205195027e-10 -1.6171896825594099e-05 2.1493248894429354e-05 -1.2335939293340605e-10 -2.9407485185387206e-05 2.5000317440430951e-05 -3.1830102276087377e-10 -1.211870783462995e-09 2.1681826373713715e-05 -2.2255876838485045e-10 -1.1986838603044948e-09 2.143531282411758e-05 -3.6627707205195027e-10 -1.6171896825594099e-05 1.8750275468263206e-05 -2.9953935462308311e-10 -1.3680736034484745e-09 1.2500193891156591e-05 -3.2550076887402193e-10 -1.6298265903386064e-09 1.5435160942438474e-05 -3.0156693321099943e-10 -1.2411598613574513e-05 1.8750275468263206e-05 -2.9953935462308311e-10 -1.3680736034484745e-09 1.592736303565521e-05 -1.9350327617698554e-10 -1.1798387556623219e-09 2.1681826373713715e-05 -2.2255876838485045e-10 -1.1986838603044948e-09 2.1435312824117576e-05 -3.6627707205195027e-10 -1.6171896825594095e-05 1.8750275468263206e-05 -2.9953935462308311e-10 -1.3680736034484745e-09 1.592736303565521e-05 -1.9350327617698554e-10 -1.1798387556623219e-09 1.5435160942438474e-05 -3.0156693321099943e-10 -1.2411598613574513e-05 2.143531282411758e-05 -3.6627707205195027e-10 -1.6171896825594099e-05 1.8750275468263206e-05 -2.9953935462308311e-10 -1.3680736034484745e-09 1.592736303565521e-05 -1.9350327617698554e-10 -1.1798387556623219e-09 1.5435160942438474e-05 -3.0156693321099943e-10 -1.2411598613574513e-05 1.490282578720786e-05 -3.6920358719350863e-10 -2.9758470960824422e-05 2.143531282411758e-05 -3.6627707205195027e-10 -1.6171896825594099e-05 1.5637738625664869e-05 -2.1768092685699375e-10 -2.1173834821930868e-05 1.5435160942438474e-05 -3.0156693321099943e-10 -1.2411598613574513e-05 2.143531282411758e-05 -3.6627707205195027e-10 -1.6171896825594099e-05 1.5637738625664869e-05 -2.1768092685699375e-10 -2.1173834821930868e-05 1.592736303565521e-05 -1.9350327617698554e-10 -1.1798387556623219e-09 2.1681826373713715e-05 -2.2255876838485045e-10 -1.1986838603044948e-09 2.143531282411758e-05 -3.6627707205195022e-10 -1.6171896825594099e-05 1.5637738625664869e-05 -2.1768092685699375e-10 -2.1173834821930868e-05 1.592736303565521e-05 -1.9350327617698554e-10 -1.1798387556623219e-09 2.1681826373713715e-05 -2.2255876838485045e-10 -1.1986838603044948e-09 1.5637738625664869e-05 -2.1768092685699375e-10 -2.1173834821930868e-05 1.592736303565521e-05 -1.9350327617698554e-10 -1.1798387556623219e-09 1.9077435625959185e-05 -1.0851249296592209e-10 -1.1190265681995906e-09 2.4285709382443773e-05 -3.1081212633783833e-11 -2.0414831181569601e-05 2.5262709154559561e-05 -1.2658053893435032e-10 -1.4003618522340942e-09 1.9077435625959185e-05 -1.0851249296592208e-10 -1.119026568198848e-09 2.1493248894429354e-05 -1.2335939293340605e-10 -2.9407485185387206e-05 2.1681826373713715e-05 -2.2255876838485045e-10 -1.1986838603044948e-09 1.5637738625664869e-05 -2.1768092685699375e-10 -2.1173834821930868e-05 1.9077435625959185e-05 -1.0851249296592209e-10 -1.1190265681995906e-09 2.1493248894429354e-05 -1.2335939293340605e-10 -2.9407485185387206e-05 2.5262709154559565e-05 -1.2658053893435032e-10 -1.4003618522356255e-09 2.1681826373713715e-05 -2.2255876838485045e-10 -1.1986838603045891e-09 1.9077435625959185e-05 -1.0851249296592209e-10 -1.1190265681995906e-09 2.1493248894429351e-05 -1.2335939293340602e-10 -2.9407485185387202e-05 1.431655768500523e-05 -1.1975412952237999e-10 -1.0177399350310233e-09 1.5637738625664869e-05 -2.1768092685699375e-10 -2.1173834821930868e-05 1.592736303565521e-05 -1.9350327617698554e-10 -1.1798387556623219e-09 1.9077435625959185e-05 -1.0851249296592209e-10 -1.1190265681995906e-09 1.431655768500523e-05 -1.1975412952237999e-10 -1.0177399350310233e-09 1.5637738625664869e-05 -2.1768092685699375e-10 -2.1173834821930868e-05 1.9077435625959185e-05 -1.0851249296592209e-10 -1.1190265681995906e-09 1.5637863171853349e-05 -2.0604325639248151e-11 -2.3404046857677577e-05 2.4285709382443773e-05 -3.1081212633783833e-11 -2.0414831181569601e-05 1.9077435625959185e-05 -1.0851249296592209e-10 -1.1190265682004225e-09 2.1037917771579297e-05 -6.946307938600156e-12 -1.0244452386374294e-09 1.5637863171853349e-05 -2.0604325639248151e-11 -2.3404046857677577e-05 1.5637738625664869e-05 -2.1768092685699375e-10 -2.1173834821930868e-05 1.9077435625959181e-05 -1.0851249296592209e-10 -1.1190265681989737e-09 1.5637863171853346e-05 -2.060432563924807e-11 -2.3404046857677577e-05 2.1493248894429354e-05 -1.2335939293340605e-10 -2.9407485185387202e-05 2.4285709382443773e-05 -3.1081212633783833e-11 -2.0414831181569601e-05 1.9077435625959188e-05 -1.0851249296592209e-10 -1.1190265681990446e-09 1.5637863171853349e-05 -2.0604325639248151e-11 -2.3404046857677577e-05 2.1493248894429351e-05 -1.2335939293340605e-10 -2.9407485185387206e-05 1.6238269024566607e-05 2.4193858494229921e-11 -1.3010114884464273e-09 1.9077435625959185e-05 -1.0851249296592209e-10 -1.1190265681994276e-09 2.1037917771579297e-05 -6.946307938600156e-12 -1.0244452386375924e-09 1.5637863171853349e-05 -2.0604325639248151e-11 -2.3404046857677577e-05 1.431655768500523e-05 -1.1975412952237999e-10 -1.0177399350310233e-09 1.6238269024566607e-05 2.4193858494229921e-11 -1.3010114884464695e-09 1.9077435625959185e-05 -1.0851249296592209e-10 -1.1190265681995906e-09 1.5637863171853349e-05 -2.0604325639248151e-11 -2.3404046857677577e-05 2.4285709382443773e-05 -3.1081212633783833e-11 -2.0414831181569601e-05 2.5262709154559565e-05 -1.2658053893435032e-10 -1.4003618522356255e-09 1.9077435625959188e-05 -1.0851249296592207e-10 -1.1190265681987679e-09 2.1037917771579297e-05 -6.946307938600156e-12 -1.0244452386374294e-09 2.3451851269578411e-05 1.7115798000033762e-11 -4.6722951340685182e-05 1.5625249668590371e-05 -1.8999678226954595e-12 -4.6876053609949823e-05 2.1493248894429354e-05 -1.2335939293340605e-10 -2.9407485185387206e-05 1.5648250926865762e-05 -1.6177158776944622e-10 -4.9582261587321866e-05 2.3451851269578411e-05 1.7115798000033762e-11 -4.6722951340685182e-05 2.1493248894429354e-05 -1.2335939293340605e-10 -2.9407485185387206e-05 2.4367126907436321e-05 -1.7508082184266826e-10 -4.6889832070553379e-05 1.5648250926865762e-05 -1.6177158776944622e-10 -4.9582261587321866e-05 2.3451851269578411e-05 1.7115798000033762e-11 -4.6722951340685182e-05 1.5637863171853353e-05 -2.0604325639248128e-11 -2.340404685767757e-05 1.5625249668590371e-05 -1.8999678226955152e-12 -4.6876053609949829e-05 2.1493248894429354e-05 -1.2335939293340605e-10 -2.9407485185387206e-05 2.3451851269578411e-05 1.7115798000033762e-11 -4.6722951340685182e-05 2.4285709382443776e-05 -3.1081212633783827e-11 -2.0414831181569601e-05 1.5637863171853349e-05 -2.0604325639248141e-11 -2.3404046857677587e-05 2.1493248894429354e-05 -1.2335939293340605e-10 -2.9407485185387206e-05 1.5637738625664869e-05 -2.1768092685699375e-10 -2.1173834821930868e-05 1.5637863171853349e-05 -2.0604325639248122e-11 -2.3404046857677581e-05 2.1493248894429354e-05 -1.2335939293340605e-10 -2.9407485185387206e-05 1.5648250926865759e-05 -1.6177158776944619e-10 -4.9582261587321873e-05 1.5637863171853349e-05 -2.0604325639248151e-11 -2.3404046857677577e-05 1.5625249668590371e-05 -1.8999678226954187e-12 -4.6876053609949829e-05 2.1493248894429354e-05 -1.2335939293340605e-10 -2.9407485185387206e-05 1.5648250926865762e-05 -1.6177158776944622e-10 -4.9582261587321866e-05 2.1493248894429354e-05 -1.2335939293340605e-10 -2.9407485185387206e-05 2.0891626145656503e-05 -3.3360348871653514e-10 -3.6125347974598453e-05 2.5955826102172202e-05 -3.0334939792308256e-10 -2.8143461490416012e-05 2.4367126907436321e-05 -1.7508082184266823e-10 -4.6889832070553386e-05 2.143531282411758e-05 -3.6627707205195027e-10 -1.6171896825594099e-05 2.1493248894429351e-05 -1.23359392933406e-10 -2.9407485185387206e-05 2.0891626145656503e-05 -3.3360348871653514e-10 -3.6125347974598453e-05 2.5955826102172205e-05 -3.0334939792308251e-10 -2.8143461490416006e-05 1.490282578720786e-05 -3.6920358719350863e-10 -2.9758470960824422e-05 1.5637738625664869e-05 -2.1768092685699375e-10 -2.1173834821930868e-05 2.0891626145656503e-05 -3.3360348871653514e-10 -3.6125347974598453e-05 1.5648250926865762e-05 -1.6177158776944622e-10 -4.9582261587321866e-05 2.0891626145656503e-05 -3.3360348871653514e-10 -3.6125347974598453e-05 2.4367126907436324e-05 -1.7508082184266823e-10 -4.6889832070553379e-05 2.1553335857433155e-05 -2.5664131924662447e-10 -5.0794670075533236e-05 1.5648250926865759e-05 -1.6177158776944619e-10 -4.9582261587321866e-05 2.143531282411758e-05 -3.6627707205195027e-10 -1.6171896825594099e-05 1.5637738625664862e-05 -2.1768092685699378e-10 -2.1173834821930868e-05 2.1493248894429358e-05 -1.23359392933406e-10 -2.9407485185387206e-05 2.0891626145656503e-05 -3.3360348871653514e-10 -3.6125347974598453e-05 1.5637738625664869e-05 -2.1768092685699375e-10 -2.1173834821930868e-05 2.1493248894429351e-05 -1.2335939293340605e-10 -2.9407485185387206e-05 2.08916261456565e-05 -3.3360348871653509e-10 -3.6125347974598453e-05 1.5648250926865762e-05 -1.6177158776944622e-10 -4.9582261587321873e-05 2.1493248894429354e-05 -1.2335939293340605e-10 -2.9407485185387206e-05 2.0891626145656503e-05 -3.3360348871653514e-10 -3.6125347974598453e-05 2.4367126907436321e-05 -1.7508082184266823e-10 -4.6889832070553386e-05 1.5648250926865766e-05 -1.6177158776944624e-10 -4.9582261587321859e-05 1.490282578720786e-05 -3.6920358719350863e-10 -2.9758470960824422e-05 2.143531282411758e-05 -3.6627707205195027e-10 -1.6171896825594099e-05 1.5637738625664873e-05 -2.1768092685699378e-10 -2.1173834821930868e-05 2.0891626145656503e-05 -3.3360348871653514e-10 -3.6125347974598453e-05 1.490282578720786e-05 -3.6920358719350863e-10 -2.9758470960824422e-05 1.5625240988077442e-05 -3.1907951723748262e-10 -4.5037149767354777e-05 2.0891626145656503e-05 -3.3360348871653514e-10 -3.6125347974598453e-05 1.5648250926865762e-05 -1.6177158776944622e-10 -4.9582261587321866e-05 1.5625240988077438e-05 -3.1907951723748262e-10 -4.5037149767354777e-05 2.0891626145656503e-05 -3.3360348871653514e-10 -3.6125347974598453e-05 2.1553335857433155e-05 -2.5664131924662447e-10 -5.0794670075533236e-05 1.5648250926865762e-05 -1.6177158776944622e-10 -4.9582261587321866e-05 2.0891626145656503e-05 -3.3360348871653514e-10 -3.6125347974598453e-05 2.6104987509020061e-05 -3.0293615844115771e-10 -4.5966742151898259e-05 2.4367126907436321e-05 -1.7508082184266823e-10 -4.6889832070553386e-05 2.1553335857433155e-05 -2.5664131924662447e-10 -5.0794670075533236e-05 2.1493248894429354e-05 -1.2335939293340605e-10 -2.9407485185387206e-05 2.5955826102172205e-05 -3.0334939792308246e-10 -2.8143461490416006e-05 3.1250310030544234e-05 -1.8648309338483289e-10 -2.963625972687341e-05 2.4367126907436321e-05 -1.7508082184266823e-10 -4.6889832070553386e-05 3.1250328134475023e-05 -1.8646485640337952e-10 -1.3727160199794922e-05 2.1493248894429354e-05 -1.2335939293340612e-10 -2.9407485185387209e-05 2.5955826102172205e-05 -3.0334939792308251e-10 -2.8143461490416006e-05 3.1250310030544234e-05 -1.8648309338483289e-10 -2.963625972687341e-05 2.0891626145656503e-05 -3.3360348871653514e-10 -3.6125347974598453e-05 2.5955826102172205e-05 -3.0334939792308251e-10 -2.8143461490416006e-05 2.6104987509020061e-05 -3.0293615844115771e-10 -4.5966742151898259e-05 2.4367126907436321e-05 -1.7508082184266823e-10 -4.6889832070553386e-05 2.5955826102172205e-05 -3.0334939792308251e-10 -2.8143461490416006e-05 2.6104987509020061e-05 -3.0293615844115771e-10 -4.5966742151898259e-05 3.1250310030544234e-05 -1.8648309338483289e-10 -2.963625972687341e-05 2.4367126907436321e-05 -1.7508082184266823e-10 -4.6889832070553386e-05 2.5955826102172205e-05 -3.0334939792308251e-10 -2.8143461490416006e-05 2.6104987509020061e-05 -3.0293615844115761e-10 -4.5966742151898266e-05 3.1250259015461789e-05 -3.6346553886094399e-10 -3.7501190625250698e-05 3.1250310030544234e-05 -1.8648309338483289e-10 -2.963625972687341e-05 2.6104987509020061e-05 -3.0293615844115771e-10 -4.5966742151898259e-05 3.1250259015461789e-05 -3.6346553886094394e-10 -3.7501190625250698e-05 3.1250313606030834e-05 -2.3928946503792716e-10 -4.7782543948903495e-05 3.1250283133142549e-05 -4.0353875920806792e-10 -5.625117197485655e-05 2.6104987509020061e-05 -3.0293615844115771e-10 -4.5966742151898259e-05 3.1250259015461796e-05 -3.6346553886094399e-10 -3.7501190625250704e-05 3.1250310030544234e-05 -1.8648309338483289e-10 -2.963625972687341e-05 3.1250313606030827e-05 -2.3928946503792722e-10 -4.7782543948903495e-05 3.1250271156704167e-05 -3.091140536172138e-10 -1.8751215684889085e-05 2.5955826102172205e-05 -3.0334939792308251e-10 -2.8143461490416006e-05 3.1250259015461789e-05 -3.6346553886094394e-10 -3.7501190625250698e-05 3.1250310030544234e-05 -1.8648309338483289e-10 -2.963625972687341e-05 3.1250310030544234e-05 -1.8648309338483289e-10 -2.963625972687341e-05 3.1250319944070993e-05 -1.2600336994754372e-10 -4.2950239391568208e-05 3.1250313606030834e-05 -2.3928946503792727e-10 -4.7782543948903502e-05 2.4367126907436321e-05 -1.7508082184266823e-10 -4.6889832070553386e-05 2.6104987509020061e-05 -3.0293615844115771e-10 -4.5966742151898259e-05 3.1250310030544227e-05 -1.8648309338483286e-10 -2.963625972687341e-05 3.1250313606030834e-05 -2.3928946503792732e-10 -4.7782543948903516e-05 2.4367126907436321e-05 -1.7508082184266823e-10 -4.6889832070553379e-05 2.3451851269578411e-05 1.7115798000033762e-11 -4.6722951340685182e-05 2.4285709382443773e-05 -3.1081212633783814e-11 -2.0414831181569598e-05 2.1493248894429354e-05 -1.2335939293340605e-10 -2.9407485185387206e-05 3.1250313913301773e-05 -8.7790221224781853e-11 -3.0868632599519964e-05 2.1493248894429354e-05 -1.2335939293340605e-10 -2.9407485185387206e-05 3.1250310030544234e-05 -1.8648309338483289e-10 -2.963625972687341e-05 3.1250319944070993e-05 -1.2600336994754372e-10 -4.2950239391568208e-05 3.125031391330178e-05 -8.7790221224781853e-11 -3.0868632599519964e-05 2.3451851269578411e-05 1.7115798000033762e-11 -4.6722951340685182e-05 2.1493248894429354e-05 -1.2335939293340607e-10 -2.9407485185387216e-05 3.1250319944070993e-05 -1.2600336994754369e-10 -4.2950239391568194e-05 2.4367126907436317e-05 -1.7508082184266823e-10 -4.6889832070553379e-05 3.1250283963982957e-05 -8.5451984217853234e-11 -1.5872939983488981e-05 2.1493248894429354e-05 -1.2335939293340605e-10 -2.9407485185387202e-05 3.1250310030544234e-05 -1.8648309338483289e-10 -2.9636259726873413e-05 3.125031391330178e-05 -8.7790221224781853e-11 -3.0868632599519964e-05 2.1493248894429354e-05 -1.2335939293340605e-10 -2.9407485185387206e-05 3.1250310030544234e-05 -1.8648309338483289e-10 -2.963625972687341e-05 3.1250319944070993e-05 -1.2600336994754375e-10 -4.2950239391568215e-05 2.4367126907436321e-05 -1.7508082184266821e-10 -4.6889832070553386e-05 2.4285709382443773e-05 -3.1081212633783833e-11 -2.0414831181569601e-05 3.1250283963982957e-05 -8.5451984217853221e-11 -1.5872939983488974e-05 2.1493248894429354e-05 -1.2335939293340605e-10 -2.9407485185387206e-05 3.125031391330178e-05 -8.7790221224781853e-11 -3.0868632599519964e-05 2.3451851269578411e-05 1.7115798000033762e-11 -4.6722951340685182e-05 2.1493248894429354e-05 -1.2335939293340605e-10 -2.9407485185387202e-05 3.1250319944070993e-05 -1.2600336994754372e-10 -4.2950239391568208e-05 3.125031391330178e-05 -8.7790221224781866e-11 -3.0868632599519978e-05 3.1250314701131664e-05 4.9656320588754494e-11 -3.0419841165217183e-05 2.4285709382443773e-05 -3.1081212633783833e-11 -2.0414831181569601e-05 3.1250281574258004e-05 -2.7004673448968104e-11 -1.6150772120704449e-05 3.125031391330178e-05 -8.7790221224781853e-11 -3.0868632599519964e-05 2.3451851269578411e-05 1.7115798000033762e-11 -4.6722951340685182e-05 3.1250319944070986e-05 -1.2600336994754375e-10 -4.2950239391568194e-05 3.125031391330178e-05 -8.7790221224781866e-11 -3.0868632599519971e-05 3.1250304251419571e-05 -4.3724609213557539e-12 -4.8715092842504799e-05 2.3451851269578411e-05 1.7115798000033762e-11 -4.6722951340685182e-05 3.1250337656829791e-05 -1.1274659492435642e-10 -5.6206492593350431e-05 2.1482446993922499e-05 -1.2496174627632536e-10 -6.4447386416124333e-05 2.4381358621765211e-05 -4.9667038473414977e-12 -7.3144022947291124e-05 3.1250363807519843e-05 -7.33773643321989e-11 -6.8180115844063049e-05 3.1250337656829791e-05 -1.1274659492435642e-10 -5.6206492593350431e-05 2.1482446993922503e-05 -1.2496174627632536e-10 -6.4447386416124333e-05 2.5500251711869159e-05 -1.6618977478431165e-10 -7.6500683162136076e-05 2.3451851269578411e-05 1.7115798000033762e-11 -4.6722951340685182e-05 3.1250337656829791e-05 -1.127465949243564e-10 -5.6206492593350445e-05 3.125033547202268e-05 2.0302024063278796e-11 -6.3114134656688488e-05 3.1250304251419578e-05 -4.3724609213557935e-12 -4.8715092842504813e-05 2.3451851269578411e-05 1.7115798000033762e-11 -4.6722951340685182e-05 3.1250319944071e-05 -1.2600336994754367e-10 -4.2950239391568208e-05 3.1250337656829791e-05 -1.1274659492435642e-10 -5.6206492593350431e-05 2.4367126907436321e-05 -1.7508082184266826e-10 -4.68898320705534e-05 3.1250337656829791e-05 -1.1274659492435642e-10 -5.6206492593350431e-05 2.4367126907436321e-05 -1.7508082184266823e-10 -4.6889832070553386e-05 2.1482446993922503e-05 -1.2496174627632538e-10 -6.4447386416124333e-05 2.5500251711869155e-05 -1.6618977478431155e-10 -7.6500683162136063e-05 2.3451851269578411e-05 1.7115798000033762e-11 -4.6722951340685182e-05 3.1250337656829791e-05 -1.1274659492435642e-10 -5.6206492593350431e-05 2.4367126907436321e-05 -1.7508082184266823e-10 -4.6889832070553386e-05 2.1482446993922503e-05 -1.2496174627632536e-10 -6.4447386416124333e-05 2.3451851269578411e-05 1.7115798000033762e-11 -4.6722951340685182e-05 3.1250337656829797e-05 -1.1274659492435638e-10 -5.6206492593350431e-05 2.4381358621765211e-05 -4.9667038473415195e-12 -7.3144022947291124e-05 3.125033547202268e-05 2.0302024063278796e-11 -6.3114134656688488e-05 3.1250363807519843e-05 -7.33773643321989e-11 -6.8180115844063049e-05 3.1250337656829791e-05 -1.1274659492435642e-10 -5.6206492593350431e-05 2.1482446993922499e-05 -1.2496174627632541e-10 -6.4447386416124333e-05 2.4381358621765211e-05 -4.9667038473414201e-12 -7.3144022947291111e-05 2.3451851269578411e-05 1.7115798000033762e-11 -4.6722951340685182e-05 3.1250319944070993e-05 -1.260033699475438e-10 -4.2950239391568201e-05 3.1250337656829791e-05 -1.1274659492435642e-10 -5.6206492593350431e-05 3.1250304251419578e-05 -4.3724609213557628e-12 -4.871509284250482e-05 3.1250363807519843e-05 -7.33773643321989e-11 -6.8180115844063049e-05 3.1250337656829791e-05 -1.1274659492435642e-10 -5.6206492593350431e-05 2.4381358621765211e-05 -4.9667038473414896e-12 -7.3144022947291124e-05 3.125033547202268e-05 2.0302024063278864e-11 -6.3114134656688488e-05 3.1250363807519843e-05 -7.33773643321989e-11 -6.8180115844063049e-05 3.1250337656829791e-05 -1.1274659492435642e-10 -5.6206492593350431e-05 3.1250352941523379e-05 -2.1113547572832029e-10 -6.6156519726029447e-05 2.5500251711869148e-05 -1.661897747843116e-10 -7.6500683162136063e-05 3.1250319944070993e-05 -1.2600336994754372e-10 -4.2950239391568208e-05 3.1250337656829791e-05 -1.1274659492435642e-10 -5.6206492593350431e-05 3.1250313606030834e-05 -2.3928946503792727e-10 -4.7782543948903502e-05 2.4367126907436321e-05 -1.7508082184266823e-10 -4.6889832070553386e-05 3.1250313606030834e-05 -2.3928946503792727e-10 -4.7782543948903502e-05 3.1250352941523379e-05 -2.1113547572832029e-10 -6.6156519726029447e-05 2.5459716635478303e-05 -3.2726127050134402e-10 -6.4608867339071416e-05 2.4367126907436321e-05 -1.7508082184266821e-10 -4.6889832070553386e-05 2.54597166354783e-05 -3.2726127050134402e-10 -6.4608867339071416e-05 2.4367126907436317e-05 -1.7508082184266826e-10 -4.6889832070553379e-05 2.1482446993922506e-05 -1.2496174627632531e-10 -6.444738641612432e-05 2.5500251711869155e-05 -1.661897747843116e-10 -7.6500683162136063e-05 3.1250352941523379e-05 -2.1113547572832029e-10 -6.6156519726029447e-05 2.54597166354783e-05 -3.2726127050134402e-10 -6.460886733907143e-05 2.4367126907436321e-05 -1.7508082184266823e-10 -4.6889832070553386e-05 2.5500251711869152e-05 -1.661897747843116e-10 -7.6500683162136063e-05 3.1250337656829791e-05 -1.1274659492435642e-10 -5.6206492593350431e-05 3.1250352941523379e-05 -2.1113547572832029e-10 -6.6156519726029447e-05 2.4367126907436321e-05 -1.7508082184266823e-10 -4.6889832070553386e-05 2.5500251711869155e-05 -1.661897747843116e-10 -7.6500683162136063e-05 3.1250337656829791e-05 -1.1274659492435642e-10 -5.6206492593350431e-05 3.1250313606030834e-05 -2.3928946503792727e-10 -4.7782543948903502e-05 3.1250352941523379e-05 -2.1113547572832029e-10 -6.6156519726029447e-05 2.4367126907436321e-05 -1.7508082184266823e-10 -4.6889832070553386e-05 3.1250352941523379e-05 -2.1113547572832029e-10 -6.6156519726029447e-05 3.1250283133142549e-05 -4.0353875920806792e-10 -5.625117197485655e-05 2.54597166354783e-05 -3.2726127050134402e-10 -6.4608867339071416e-05 3.1250344892493973e-05 -3.2956358942118224e-10 -7.5001159201197034e-05 3.1250313606030834e-05 -2.3928946503792727e-10 -4.7782543948903502e-05 3.1250352941523379e-05 -2.1113547572832029e-10 -6.6156519726029447e-05 3.1250283133142549e-05 -4.0353875920806792e-10 -5.625117197485655e-05 2.54597166354783e-05 -3.2726127050134402e-10 -6.4608867339071416e-05 2.6104987509020061e-05 -3.0293615844115771e-10 -4.5966742151898259e-05 3.1250313606030834e-05 -2.3928946503792722e-10 -4.7782543948903502e-05 3.1250283133142549e-05 -4.0353875920806792e-10 -5.625117197485655e-05 2.54597166354783e-05 -3.2726127050134402e-10 -6.4608867339071416e-05 2.6104987509020061e-05 -3.0293615844115771e-10 -4.5966742151898259e-05 2.54597166354783e-05 -3.2726127050134402e-10 -6.4608867339071416e-05 2.4367126907436317e-05 -1.7508082184266823e-10 -4.6889832070553379e-05 2.1553335857433155e-05 -2.5664131924662447e-10 -5.0794670075533236e-05 2.6104987509020061e-05 -3.0293615844115771e-10 -4.5966742151898259e-05 3.1250313606030834e-05 -2.3928946503792727e-10 -4.7782543948903509e-05 2.54597166354783e-05 -3.2726127050134402e-10 -6.4608867339071416e-05 2.4367126907436321e-05 -1.7508082184266826e-10 -4.6889832070553386e-05 2.1553335857433155e-05 -2.5664131924662447e-10 -5.0794670075533236e-05 1.8756607837184754e-05 -3.6998383870952322e-10 -6.3330935304123584e-05 1.5648250926865759e-05 -1.6177158776944622e-10 -4.9582261587321866e-05 2.1482446993922503e-05 -1.2496174627632533e-10 -6.4447386416124333e-05 2.54597166354783e-05 -3.2726127050134402e-10 -6.4608867339071416e-05 2.1553335857433151e-05 -2.5664131924662441e-10 -5.0794670075533236e-05 1.8756607837184754e-05 -3.6998383870952322e-10 -6.3330935304123584e-05 2.1482446993922503e-05 -1.2496174627632536e-10 -6.4447386416124333e-05 2.54597166354783e-05 -3.2726127050134402e-10 -6.4608867339071416e-05 2.4367126907436321e-05 -1.7508082184266821e-10 -4.6889832070553393e-05 2.1553335857433155e-05 -2.5664131924662447e-10 -5.0794670075533236e-05 2.1482446993922503e-05 -1.2496174627632533e-10 -6.444738641612432e-05 1.8756607837184754e-05 -3.6998383870952322e-10 -6.3330935304123584e-05 2.1482446993922503e-05 -1.2496174627632533e-10 -6.4447386416124333e-05 1.5651745605378535e-05 -1.9234266517002272e-10 -7.3205476020850045e-05 2.1702754145474045e-05 -3.0165051192770056e-10 -7.8844744599911344e-05 2.4367126907436321e-05 -1.7508082184266823e-10 -4.6889832070553386e-05 2.1553335857433155e-05 -2.5664131924662441e-10 -5.0794670075533236e-05 1.5648250926865762e-05 -1.6177158776944622e-10 -4.9582261587321866e-05 2.1482446993922499e-05 -1.2496174627632533e-10 -6.444738641612432e-05 1.8756607837184754e-05 -3.6998383870952322e-10 -6.3330935304123584e-05 1.5648250926865762e-05 -1.6177158776944622e-10 -4.9582261587321866e-05 2.1482446993922503e-05 -1.2496174627632533e-10 -6.4447386416124333e-05 1.5651745605378535e-05 -1.9234266517002272e-10 -7.3205476020850045e-05 2.54597166354783e-05 -3.2726127050134402e-10 -6.4608867339071416e-05 1.8756607837184754e-05 -3.6998383870952317e-10 -6.3330935304123584e-05 2.1482446993922503e-05 -1.2496174627632536e-10 -6.4447386416124333e-05 2.5500251711869155e-05 -1.661897747843116e-10 -7.6500683162136063e-05 1.5625240988077438e-05 -3.1907951723748262e-10 -4.5037149767354777e-05 2.1553335857433155e-05 -2.5664131924662447e-10 -5.0794670075533236e-05 1.8756607837184754e-05 -3.6998383870952322e-10 -6.3330935304123584e-05 1.5648250926865762e-05 -1.6177158776944622e-10 -4.9582261587321866e-05 1.5625249668590371e-05 -1.8999678226954595e-12 -4.6876053609949823e-05 1.5648250926865762e-05 -1.6177158776944622e-10 -4.9582261587321866e-05 2.1482446993922503e-05 -1.2496174627632536e-10 -6.4447386416124333e-05 1.5567843262399224e-05 1.4990089604168995e-11 -7.0356301486268813e-05 2.3451851269578411e-05 1.7115798000033762e-11 -4.6722951340685182e-05 1.5625249668590371e-05 -1.8999678226954595e-12 -4.6876053609949823e-05 1.5648250926865762e-05 -1.6177158776944622e-10 -4.9582261587321866e-05 2.1482446993922503e-05 -1.2496174627632536e-10 -6.4447386416124333e-05 2.3451851269578411e-05 1.7115798000033762e-11 -4.6722951340685182e-05 1.5625249668590371e-05 -1.8999678226954502e-12 -4.6876053609949816e-05 2.1482446993922503e-05 -1.2496174627632536e-10 -6.4447386416124333e-05 1.5567843262399224e-05 1.499008960416893e-11 -7.03563014862688e-05 2.3451851269578411e-05 1.7115798000033762e-11 -4.6722951340685182e-05 2.1482446993922503e-05 -1.2496174627632536e-10 -6.4447386416124333e-05 2.4381358621765211e-05 -4.9667038473414977e-12 -7.3144022947291124e-05 1.5567843262399231e-05 1.4990089604168963e-11 -7.03563014862688e-05 1.5648250926865762e-05 -1.6177158776944622e-10 -4.9582261587321866e-05 2.1482446993922506e-05 -1.2496174627632533e-10 -6.4447386416124333e-05 1.5651745605378531e-05 -1.9234266517002272e-10 -7.3205476020850045e-05 1.5567843262399224e-05 1.4990089604168988e-11 -7.03563014862688e-05 2.3451851269578411e-05 1.7115798000033762e-11 -4.6722951340685182e-05 2.4367126907436321e-05 -1.7508082184266823e-10 -4.6889832070553393e-05 1.5648250926865762e-05 -1.6177158776944622e-10 -4.9582261587321866e-05 2.1482446993922503e-05 -1.2496174627632536e-10 -6.4447386416124333e-05 1.8735514670539235e-05 -1.1173455014788264e-10 -9.3750948011504288e-05 1.5651745605378535e-05 -1.9234266517002272e-10 -7.3205476020850058e-05 1.5567843262399221e-05 1.4990089604169005e-11 -7.03563014862688e-05 1.431669578320205e-05 -1.3145605812148519e-10 -9.3750865619880966e-05 2.1482446993922503e-05 -1.2496174627632536e-10 -6.4447386416124333e-05 2.2726759444664672e-05 -7.0912729007619764e-11 -9.3751019541776743e-05 1.8735514670539235e-05 -1.1173455014788264e-10 -9.3750948011504288e-05 2.5500251711869155e-05 -1.661897747843116e-10 -7.6500683162136063e-05 2.1482446993922503e-05 -1.2496174627632536e-10 -6.4447386416124333e-05 1.8735514670539235e-05 -1.1173455014788267e-10 -9.3750948011504302e-05 2.4381358621765208e-05 -4.9667038473414993e-12 -7.3144022947291111e-05 1.5567843262399224e-05 1.4990089604168995e-11 -7.03563014862688e-05 2.1482446993922503e-05 -1.2496174627632536e-10 -6.4447386416124333e-05 1.8735514670539235e-05 -1.117345501478826e-10 -9.3750948011504302e-05 1.5651745605378535e-05 -1.9234266517002272e-10 -7.3205476020850045e-05 2.5500251711869155e-05 -1.661897747843116e-10 -7.6500683162136063e-05 2.1482446993922503e-05 -1.2496174627632536e-10 -6.4447386416124333e-05 1.8735514670539235e-05 -1.1173455014788264e-10 -9.3750948011504302e-05 1.5651745605378535e-05 -1.9234266517002272e-10 -7.3205476020850045e-05 1.5567843262399221e-05 1.4990089604168995e-11 -7.0356301486268786e-05 2.1482446993922503e-05 -1.2496174627632536e-10 -6.4447386416124333e-05 2.2726759444664679e-05 -7.0912729007619893e-11 -9.375101954177673e-05 1.8735514670539235e-05 -1.1173455014788264e-10 -9.3750948011504288e-05 2.4381358621765208e-05 -4.9667038473415017e-12 -7.3144022947291124e-05 1.8735514670539235e-05 -1.1173455014788264e-10 -9.3750948011504288e-05 2.4381358621765211e-05 -4.9667038473414977e-12 -7.3144022947291124e-05 2.1038093465492931e-05 1.6836653881084752e-11 -9.3750983641495867e-05 1.5567843262399224e-05 1.4990089604168988e-11 -7.03563014862688e-05 2.2726759444664672e-05 -7.0912729007619816e-11 -9.375101954177673e-05 1.8735514670539235e-05 -1.1173455014788264e-10 -9.3750948011504288e-05 2.2052222583424851e-05 -1.9724084128330581e-10 -9.3751005467160867e-05 2.5500251711869155e-05 -1.661897747843116e-10 -7.6500683162136063e-05 2.2726759444664672e-05 -7.0912729007619816e-11 -9.375101954177673e-05 1.8735514670539235e-05 -1.1173455014788264e-10 -9.3750948011504288e-05 2.4381358621765211e-05 -4.9667038473414977e-12 -7.3144022947291124e-05 2.1038093465492931e-05 1.6836653881084752e-11 -9.3750983641495867e-05 1.8735514670539235e-05 -1.1173455014788264e-10 -9.3750948011504288e-05 1.6238358289680608e-05 -3.7326168161214016e-12 -9.3750900404311157e-05 1.5567843262399224e-05 1.4990089604168995e-11 -7.0356301486268813e-05 1.431669578320205e-05 -1.3145605812148519e-10 -9.3750865619880966e-05 1.8735514670539235e-05 -1.1173455014788264e-10 -9.3750948011504288e-05 2.1038093465492931e-05 1.6836653881084758e-11 -9.3750983641495853e-05 1.6238358289680608e-05 -3.7326168161214138e-12 -9.3750900404311157e-05 1.5567843262399224e-05 1.4990089604168988e-11 -7.03563014862688e-05 1.8735514670539235e-05 -1.1173455014788264e-10 -9.3750948011504288e-05 1.5927496455618184e-05 -2.4239306131396246e-10 -9.3750897834653035e-05 1.5651745605378535e-05 -1.9234266517002272e-10 -7.3205476020850045e-05 1.431669578320205e-05 -1.3145605812148519e-10 -9.3750865619880966e-05 1.5927496455618184e-05 -2.4239306131396246e-10 -9.3750897834653035e-05 1.5651745605378531e-05 -1.9234266517002275e-10 -7.3205476020850045e-05 2.1702754145474045e-05 -3.0165051192770056e-10 -7.8844744599911344e-05 2.2052222583424851e-05 -1.9724084128330581e-10 -9.3751005467160867e-05 2.1482446993922503e-05 -1.2496174627632536e-10 -6.4447386416124333e-05 1.5651745605378535e-05 -1.9234266517002272e-10 -7.3205476020850045e-05 2.1702754145474045e-05 -3.0165051192770056e-10 -7.8844744599911344e-05 2.5500251711869155e-05 -1.661897747843116e-10 -7.6500683162136063e-05 1.5651745605378535e-05 -1.9234266517002272e-10 -7.3205476020850045e-05 2.1702754145474042e-05 -3.0165051192770056e-10 -7.8844744599911344e-05 2.2052222583424851e-05 -1.9724084128330584e-10 -9.3751005467160867e-05 2.5500251711869155e-05 -1.661897747843116e-10 -7.6500683162136063e-05 1.8735514670539235e-05 -1.1173455014788264e-10 -9.3750948011504288e-05 1.5651745605378535e-05 -1.9234266517002272e-10 -7.3205476020850045e-05 2.2052222583424851e-05 -1.9724084128330581e-10 -9.3751005467160867e-05 2.5500251711869155e-05 -1.661897747843116e-10 -7.6500683162136063e-05 1.8735514670539235e-05 -1.1173455014788264e-10 -9.3750948011504288e-05 1.5927496455618184e-05 -2.4239306131396246e-10 -9.3750897834653035e-05 1.5651745605378535e-05 -1.9234266517002272e-10 -7.3205476020850045e-05 2.2052222583424851e-05 -1.9724084128330581e-10 -9.3751005467160867e-05 1.8756607837184754e-05 -3.6998383870952322e-10 -6.3330935304123584e-05 2.1482446993922496e-05 -1.249617462763252e-10 -6.4447386416124347e-05 2.1702754145474045e-05 -3.0165051192770056e-10 -7.8844744599911344e-05 2.5500251711869155e-05 -1.661897747843116e-10 -7.6500683162136063e-05 1.8756607837184754e-05 -3.6998383870952322e-10 -6.3330935304123584e-05 1.5651745605378535e-05 -1.9234266517002272e-10 -7.3205476020850045e-05 2.1702754145474049e-05 -3.0165051192770056e-10 -7.8844744599911344e-05 1.5574217527082471e-05 -3.3049402306628432e-10 -7.7601455638268005e-05 1.5927496455618184e-05 -2.4239306131396246e-10 -9.3750897834653035e-05 1.5651745605378531e-05 -1.9234266517002275e-10 -7.3205476020850045e-05 2.1702754145474045e-05 -3.0165051192770056e-10 -7.8844744599911344e-05 1.5574217527082471e-05 -3.3049402306628432e-10 -7.7601455638268005e-05 1.5927496455618184e-05 -2.4239306131396246e-10 -9.3750897834653035e-05 1.8750424953334052e-05 -3.6125096233014473e-10 -9.3750970122340481e-05 2.1702754145474045e-05 -3.0165051192770056e-10 -7.8844744599911344e-05 1.5574217527082471e-05 -3.3049402306628432e-10 -7.7601455638268005e-05 1.5927496455618184e-05 -2.4239306131396246e-10 -9.3750897834653035e-05 1.8750424953334056e-05 -3.6125096233014478e-10 -9.3750970122340494e-05 1.5574217527082471e-05 -3.3049402306628432e-10 -7.7601455638268005e-05 1.2500306858094301e-05 -3.8664393901486661e-10 -9.3750867991639923e-05 1.5927496455618184e-05 -2.4239306131396246e-10 -9.3750897834653035e-05 1.8750424953334052e-05 -3.6125096233014473e-10 -9.3750970122340481e-05 2.1702754145474045e-05 -3.0165051192770056e-10 -7.8844744599911344e-05 2.2052222583424851e-05 -1.9724084128330581e-10 -9.3751005467160867e-05 1.8750424953334052e-05 -3.6125096233014473e-10 -9.3750970122340481e-05 2.1702754145474045e-05 -3.0165051192770056e-10 -7.8844744599911344e-05 2.2052222583424851e-05 -1.9724084128330584e-10 -9.3751005467160881e-05 2.5000475776011448e-05 -2.9343051794380568e-10 -9.375108458793471e-05 2.54597166354783e-05 -3.2726127050134402e-10 -6.4608867339071416e-05 1.8756607837184754e-05 -3.6998383870952322e-10 -6.3330935304123584e-05 2.1702754145474045e-05 -3.0165051192770056e-10 -7.8844744599911344e-05 2.5500251711869155e-05 -1.661897747843116e-10 -7.6500683162136063e-05 2.1702754145474045e-05 -3.0165051192770056e-10 -7.8844744599911344e-05 2.2052222583424851e-05 -1.9724084128330581e-10 -9.3751005467160867e-05 2.667515272556019e-05 -2.0389337807875556e-10 -9.3751095399600265e-05 2.5500251711869155e-05 -1.661897747843116e-10 -7.6500683162136063e-05 2.2052222583424851e-05 -1.9724084128330581e-10 -9.3751005467160867e-05 2.6675152725560193e-05 -2.0389337807875559e-10 -9.3751095399600279e-05 2.5500251711869155e-05 -1.6618977478431157e-10 -7.6500683162136049e-05 2.6617243017188827e-05 -1.2310903646324561e-10 -9.3751099590615611e-05 3.1250352941523379e-05 -2.1113547572832029e-10 -6.6156519726029447e-05 2.54597166354783e-05 -3.2726127050134402e-10 -6.460886733907143e-05 2.5500251711869155e-05 -1.661897747843116e-10 -7.6500683162136063e-05 2.6675085480871264e-05 -2.4293482226378253e-10 -8.0025162241296563e-05 2.54597166354783e-05 -3.2726127050134402e-10 -6.4608867339071416e-05 2.1702754145474045e-05 -3.0165051192770056e-10 -7.8844744599911344e-05 2.5500251711869155e-05 -1.661897747843116e-10 -7.6500683162136063e-05 2.6675085480871264e-05 -2.4293482226378253e-10 -8.0025162241296563e-05 2.1702754145474045e-05 -3.0165051192770056e-10 -7.8844744599911344e-05 2.6675152725560186e-05 -2.0389337807875559e-10 -9.3751095399600265e-05 2.5500251711869155e-05 -1.661897747843116e-10 -7.6500683162136063e-05 2.6675085480871264e-05 -2.4293482226378253e-10 -8.0025162241296563e-05 2.1702754145474045e-05 -3.0165051192770056e-10 -7.8844744599911344e-05 2.2052222583424851e-05 -1.9724084128330581e-10 -9.3751005467160867e-05 2.667515272556019e-05 -2.0389337807875556e-10 -9.3751095399600265e-05 2.5000475776011448e-05 -2.9343051794380568e-10 -9.375108458793471e-05 2.1702754145474045e-05 -3.0165051192770056e-10 -7.8844744599911344e-05 2.6675152725560186e-05 -2.0389337807875559e-10 -9.3751095399600265e-05 2.6675085480871264e-05 -2.4293482226378253e-10 -8.0025162241296563e-05 2.5000475776011448e-05 -2.9343051794380568e-10 -9.375108458793471e-05 2.667515272556019e-05 -2.0389337807875556e-10 -9.3751095399600265e-05 2.6675085480871264e-05 -2.4293482226378248e-10 -8.0025162241296549e-05 3.1250446262871492e-05 -3.3280797481130706e-10 -9.3751194303035051e-05 3.1250406376624843e-05 -2.1183375483347346e-10 -8.0025217964452999e-05 2.667515272556019e-05 -2.0389337807875556e-10 -9.3751095399600265e-05 2.6675085480871264e-05 -2.4293482226378253e-10 -8.0025162241296563e-05 2.5000475776011448e-05 -2.9343051794380568e-10 -9.375108458793471e-05 3.1250446262871492e-05 -3.3280797481130706e-10 -9.3751194303035051e-05 2.667515272556019e-05 -2.0389337807875556e-10 -9.3751095399600265e-05 3.1250446262871492e-05 -3.3280797481130706e-10 -9.3751194303035051e-05 3.1250406376624843e-05 -2.1183375483347348e-10 -8.0025217964453012e-05 3.1250463206873724e-05 -1.804792315527756e-10 -9.375117701254193e-05 2.6675085480871264e-05 -2.4293482226378253e-10 -8.0025162241296563e-05 3.1250446262871492e-05 -3.3280797481130706e-10 -9.3751194303035051e-05 3.1250344892493973e-05 -3.2956358942118224e-10 -7.5001159201197034e-05 3.1250406376624843e-05 -2.1183375483347348e-10 -8.0025217964453012e-05 3.1250352941523379e-05 -2.1113547572832029e-10 -6.6156519726029447e-05 2.54597166354783e-05 -3.2726127050134402e-10 -6.4608867339071416e-05 2.6675085480871264e-05 -2.4293482226378253e-10 -8.0025162241296563e-05 3.1250344892493973e-05 -3.2956358942118224e-10 -7.5001159201197034e-05 3.1250352941523379e-05 -2.1113547572832029e-10 -6.6156519726029447e-05 2.667508548087126e-05 -2.4293482226378253e-10 -8.0025162241296576e-05 3.1250344892493973e-05 -3.2956358942118224e-10 -7.5001159201197034e-05 3.1250406376624843e-05 -2.1183375483347348e-10 -8.0025217964453012e-05 3.1250352941523379e-05 -2.1113547572832029e-10 -6.6156519726029447e-05 2.5500251711869155e-05 -1.661897747843116e-10 -7.6500683162136063e-05 3.1250406376624843e-05 -2.1183375483347348e-10 -8.0025217964453012e-05 3.1250396761358584e-05 -1.2179353956441326e-10 -7.9851508095620717e-05 3.1250352941523379e-05 -2.1113547572832029e-10 -6.6156519726029447e-05 2.5500251711869155e-05 -1.661897747843116e-10 -7.6500683162136063e-05 2.6675085480871264e-05 -2.4293482226378253e-10 -8.0025162241296549e-05 3.1250406376624843e-05 -2.1183375483347348e-10 -8.0025217964453012e-05 2.667515272556019e-05 -2.0389337807875556e-10 -9.3751095399600265e-05 2.5500251711869155e-05 -1.6618977478431162e-10 -7.6500683162136049e-05 3.1250463206873724e-05 -1.804792315527756e-10 -9.375117701254193e-05 2.6617243017188827e-05 -1.2310903646324561e-10 -9.3751099590615611e-05 2.667515272556019e-05 -2.0389337807875556e-10 -9.3751095399600265e-05 2.5500251711869155e-05 -1.6618977478431157e-10 -7.6500683162136063e-05 3.1250406376624843e-05 -2.1183375483347348e-10 -8.0025217964453012e-05 3.1250463206873724e-05 -1.804792315527756e-10 -9.375117701254193e-05 2.5500251711869155e-05 -1.661897747843116e-10 -7.6500683162136063e-05 3.1250406376624843e-05 -2.1183375483347348e-10 -8.0025217964453012e-05 3.1250463206873724e-05 -1.804792315527756e-10 -9.3751177012541944e-05 3.1250396761358584e-05 -1.2179353956441326e-10 -7.9851508095620717e-05 2.667515272556019e-05 -2.0389337807875556e-10 -9.3751095399600265e-05 2.5500251711869155e-05 -1.661897747843116e-10 -7.6500683162136063e-05 2.667508548087126e-05 -2.4293482226378253e-10 -8.0025162241296563e-05 3.1250406376624843e-05 -2.1183375483347351e-10 -8.0025217964453012e-05 3.1250463206873724e-05 -1.804792315527756e-10 -9.375117701254193e-05 2.6617243017188827e-05 -1.2310903646324564e-10 -9.3751099590615611e-05 3.1250396761358584e-05 -1.2179353956441326e-10 -7.9851508095620717e-05 3.1250453433843093e-05 -6.1115755543783691e-11 -9.3751178915074559e-05 2.5500251711869155e-05 -1.661897747843116e-10 -7.6500683162136063e-05 3.1250463206873724e-05 -1.8047923155277565e-10 -9.3751177012541944e-05 2.6617243017188824e-05 -1.2310903646324564e-10 -9.3751099590615611e-05 3.1250396761358584e-05 -1.2179353956441326e-10 -7.9851508095620717e-05 2.5500251711869155e-05 -1.661897747843116e-10 -7.6500683162136063e-05 2.6617243017188827e-05 -1.2310903646324561e-10 -9.3751099590615598e-05 3.1250396761358584e-05 -1.2179353956441326e-10 -7.9851508095620717e-05 2.4381358621765211e-05 -4.9667038473414977e-12 -7.3144022947291124e-05 2.1482446993922503e-05 -1.2496174627632536e-10 -6.4447386416124333e-05 2.2726759444664672e-05 -7.0912729007619842e-11 -9.375101954177673e-05 2.5500251711869155e-05 -1.661897747843116e-10 -7.6500683162136063e-05 2.4381358621765211e-05 -4.9667038473415106e-12 -7.3144022947291124e-05 3.1250363807519843e-05 -7.33773643321989e-11 -6.8180115844063049e-05 2.5500251711869152e-05 -1.6618977478431165e-10 -7.6500683162136063e-05 3.1250396761358584e-05 -1.2179353956441326e-10 -7.9851508095620717e-05 2.4381358621765211e-05 -4.9667038473414977e-12 -7.3144022947291124e-05 2.2726759444664672e-05 -7.0912729007619816e-11 -9.375101954177673e-05 2.5500251711869159e-05 -1.661897747843116e-10 -7.6500683162136063e-05 2.6617243017188827e-05 -1.2310903646324561e-10 -9.3751099590615611e-05 2.4381358621765211e-05 -4.9667038473414977e-12 -7.3144022947291124e-05 3.1250363807519843e-05 -7.33773643321989e-11 -6.8180115844063049e-05 2.1482446993922499e-05 -1.2496174627632536e-10 -6.4447386416124333e-05 2.5500251711869152e-05 -1.661897747843116e-10 -7.6500683162136063e-05 2.4381358621765214e-05 -4.9667038473414791e-12 -7.3144022947291124e-05 2.6617243017188827e-05 -1.2310903646324561e-10 -9.3751099590615611e-05 3.1250396761358584e-05 -1.2179353956441323e-10 -7.9851508095620717e-05 3.1250387106685222e-05 -7.9009865139864794e-12 -7.8931092616240151e-05 3.1250453433843093e-05 -6.1115755543783691e-11 -9.3751178915074559e-05 2.2726759444664672e-05 -7.0912729007619816e-11 -9.375101954177673e-05 2.2052222583424851e-05 -1.9724084128330579e-10 -9.3751005467160867e-05 2.5500251711869155e-05 -1.6618977478431162e-10 -7.6500683162136063e-05 2.6617243017188827e-05 -1.2310903646324561e-10 -9.3751099590615611e-05 3.1250363807519843e-05 -7.33773643321989e-11 -6.8180115844063049e-05 3.1250352941523379e-05 -2.1113547572832029e-10 -6.6156519726029447e-05 2.5500251711869152e-05 -1.661897747843116e-10 -7.6500683162136076e-05 3.1250396761358584e-05 -1.2179353956441326e-10 -7.9851508095620717e-05 2.6617243017188827e-05 -1.2310903646324561e-10 -9.3751099590615611e-05 3.1250396761358591e-05 -1.2179353956441323e-10 -7.9851508095620717e-05 3.1250387106685222e-05 -7.9009865139864907e-12 -7.8931092616240164e-05 2.4381358621765211e-05 -4.9667038473414977e-12 -7.3144022947291124e-05 3.1250363807519843e-05 -7.33773643321989e-11 -6.8180115844063049e-05 3.1250396761358584e-05 -1.2179353956441326e-10 -7.9851508095620717e-05 3.1250387106685222e-05 -7.9009865139864794e-12 -7.8931092616240151e-05 2.4381358621765211e-05 -4.9667038473414977e-12 -7.3144022947291124e-05 3.1250363807519843e-05 -7.33773643321989e-11 -6.8180115844063049e-05 3.1250387106685222e-05 -7.9009865139864842e-12 -7.8931092616240151e-05 2.4381358621765211e-05 -4.9667038473414936e-12 -7.3144022947291124e-05 3.125033547202268e-05 2.0302024063278864e-11 -6.3114134656688488e-05 2.2726759444664672e-05 -7.0912729007619816e-11 -9.375101954177673e-05 2.4381358621765208e-05 -4.9667038473415066e-12 -7.3144022947291124e-05 2.6310439027022341e-05 -9.3441090820150568e-12 -9.3751093724068034e-05 2.1038093465492931e-05 1.6836653881084752e-11 -9.3750983641495867e-05 2.2726759444664672e-05 -7.0912729007619816e-11 -9.375101954177673e-05 2.6617243017188827e-05 -1.2310903646324561e-10 -9.3751099590615611e-05 2.4381358621765211e-05 -4.9667038473414977e-12 -7.3144022947291124e-05 2.6310439027022341e-05 -9.3441090820150535e-12 -9.3751093724068034e-05 2.6617243017188827e-05 -1.2310903646324561e-10 -9.3751099590615611e-05 3.1250387106685222e-05 -7.9009865139864794e-12 -7.8931092616240151e-05 2.4381358621765211e-05 -4.9667038473414977e-12 -7.3144022947291124e-05 2.6310439027022341e-05 -9.3441090820150535e-12 -9.3751093724068034e-05 3.1250387106685222e-05 -7.9009865139864794e-12 -7.8931092616240151e-05 2.6310439027022345e-05 -9.3441090820150535e-12 -9.3751093724068034e-05 3.1250453433843093e-05 -6.1115755543783691e-11 -9.3751178915074559e-05 3.1250451562097753e-05 6.0869496077586555e-11 -9.375117277253531e-05 2.6617243017188827e-05 -1.2310903646324561e-10 -9.3751099590615611e-05 3.1250387106685222e-05 -7.9009865139864632e-12 -7.8931092616240151e-05 2.6310439027022341e-05 -9.3441090820150535e-12 -9.3751093724068034e-05 3.1250453433843093e-05 -6.1115755543783691e-11 -9.3751178915074559e-05 2.4381358621765211e-05 -4.9667038473414977e-12 -7.3144022947291124e-05 2.5262908994879919e-05 1.1062123530710157e-10 -9.3751060761881126e-05 2.4276382446611594e-05 1.849712568121065e-10 -7.6561788016098867e-05 2.1453201810785605e-05 1.0912086044367033e-10 -6.4359652562802594e-05 2.4381358621765211e-05 -4.9667038473414977e-12 -7.3144022947291124e-05 2.5262908994879919e-05 1.1062123530710157e-10 -9.3751060761881126e-05 3.1250375586883786e-05 1.1425815377556156e-10 -7.5788534445547605e-05 2.4276382446611594e-05 1.849712568121065e-10 -7.6561788016098867e-05 3.1250387106685222e-05 -7.9009865139864794e-12 -7.8931092616240151e-05 2.6310439027022341e-05 -9.3441090820150535e-12 -9.3751093724068034e-05 3.1250451562097753e-05 6.0869496077586555e-11 -9.375117277253531e-05 3.1250375586883792e-05 1.1425815377556156e-10 -7.5788534445547619e-05 2.4381358621765211e-05 -4.9667038473414977e-12 -7.3144022947291124e-05 3.1250375586883792e-05 1.1425815377556157e-10 -7.5788534445547605e-05 2.4276382446611594e-05 1.849712568121065e-10 -7.6561788016098867e-05 2.1453201810785608e-05 1.0912086044367034e-10 -6.4359652562802594e-05 2.6310439027022341e-05 -9.3441090820150535e-12 -9.3751093724068034e-05 3.1250451562097753e-05 6.0869496077586555e-11 -9.375117277253531e-05 2.5262908994879919e-05 1.1062123530710157e-10 -9.3751060761881126e-05 3.1250375586883792e-05 1.1425815377556156e-10 -7.5788534445547619e-05 3.1250451562097753e-05 6.0869496077586555e-11 -9.375117277253531e-05 2.5262908994879919e-05 1.1062123530710157e-10 -9.3751060761881126e-05 3.1250375586883792e-05 1.1425815377556156e-10 -7.5788534445547619e-05 3.1250449911267585e-05 1.8256602067864627e-10 -9.375116465649485e-05 2.4381358621765211e-05 -4.9667038473414977e-12 -7.3144022947291124e-05 2.6310439027022341e-05 -9.3441090820150535e-12 -9.3751093724068034e-05 2.5262908994879916e-05 1.1062123530710154e-10 -9.3751060761881126e-05 2.1038093465492928e-05 1.6836653881084774e-11 -9.3750983641495853e-05 2.4381358621765211e-05 -4.9667038473414977e-12 -7.3144022947291124e-05 2.6310439027022345e-05 -9.3441090820150503e-12 -9.3751093724068034e-05 2.5262908994879919e-05 1.1062123530710157e-10 -9.3751060761881126e-05 3.1250375586883792e-05 1.1425815377556155e-10 -7.5788534445547619e-05 3.1250387106685222e-05 -7.9009865139864794e-12 -7.8931092616240151e-05 2.4381358621765211e-05 -4.9667038473414977e-12 -7.3144022947291124e-05 3.1250375586883792e-05 1.1425815377556156e-10 -7.5788534445547619e-05 3.125033547202268e-05 2.0302024063278864e-11 -6.3114134656688488e-05 3.1250387106685222e-05 -7.9009865139864794e-12 -7.8931092616240151e-05 2.4381358621765211e-05 -4.9667038473415001e-12 -7.3144022947291124e-05 2.6310439027022341e-05 -9.3441090820150535e-12 -9.3751093724068034e-05 3.1250375586883792e-05 1.1425815377556156e-10 -7.5788534445547619e-05 2.3451851269578411e-05 1.7115798000033762e-11 -4.6722951340685182e-05 2.4381358621765208e-05 -4.9667038473414993e-12 -7.3144022947291124e-05 3.125033547202268e-05 2.0302024063278796e-11 -6.3114134656688488e-05 3.1250325548742315e-05 1.2307284873692245e-10 -5.7204140082054263e-05 2.4179893218210666e-05 2.0373381593022464e-10 -4.6715871005661743e-05 2.3451851269578411e-05 1.7115798000033742e-11 -4.6722951340685175e-05 3.1250325548742315e-05 1.2307284873692242e-10 -5.720414008205427e-05 2.1453201810785608e-05 1.0912086044367034e-10 -6.4359652562802594e-05 2.4179893218210666e-05 2.0373381593022464e-10 -4.6715871005661743e-05 3.1250325548742315e-05 1.230728487369224e-10 -5.720414008205427e-05 3.1250346312046112e-05 2.2335500277932505e-10 -6.5027576534357391e-05 2.1453201810785605e-05 1.0912086044367034e-10 -6.435965256280258e-05 3.1250375586883792e-05 1.1425815377556156e-10 -7.5788534445547619e-05 3.1250325548742322e-05 1.2307284873692245e-10 -5.720414008205427e-05 2.4276382446611594e-05 1.849712568121065e-10 -7.6561788016098867e-05 2.1453201810785608e-05 1.0912086044367034e-10 -6.4359652562802594e-05 2.4179893218210666e-05 2.0373381593022464e-10 -4.6715871005661743e-05 3.1250310039193023e-05 1.2038371872797223e-10 -4.2950212802557904e-05 2.3451851269578414e-05 1.7115798000033736e-11 -4.6722951340685182e-05 3.1250325548742315e-05 1.2307284873692247e-10 -5.7204140082054277e-05 2.3451851269578411e-05 1.7115798000033762e-11 -4.6722951340685182e-05 2.4381358621765208e-05 -4.966703847341505e-12 -7.3144022947291124e-05 3.1250325548742315e-05 1.2307284873692245e-10 -5.720414008205427e-05 2.1453201810785608e-05 1.0912086044367034e-10 -6.4359652562802594e-05 2.4381358621765211e-05 -4.9667038473414977e-12 -7.3144022947291124e-05 3.1250375586883786e-05 1.1425815377556156e-10 -7.5788534445547605e-05 3.1250325548742315e-05 1.2307284873692247e-10 -5.720414008205427e-05 2.1453201810785608e-05 1.0912086044367034e-10 -6.4359652562802594e-05 2.4381358621765211e-05 -4.9667038473414977e-12 -7.3144022947291124e-05 3.1250375586883792e-05 1.1425815377556158e-10 -7.5788534445547619e-05 3.125033547202268e-05 2.0302024063278825e-11 -6.3114134656688488e-05 3.1250325548742315e-05 1.2307284873692245e-10 -5.7204140082054277e-05 2.3451851269578411e-05 1.7115798000033762e-11 -4.6722951340685182e-05 3.125033547202268e-05 2.0302024063278864e-11 -6.3114134656688488e-05 3.1250304251419578e-05 -4.3724609213557935e-12 -4.8715092842504813e-05 3.1250325548742315e-05 1.2307284873692245e-10 -5.720414008205427e-05 3.1250310039193016e-05 1.2038371872797223e-10 -4.2950212802557911e-05 2.3451851269578411e-05 1.7115798000033758e-11 -4.6722951340685182e-05 3.1250304251419578e-05 -4.3724609213557935e-12 -4.8715092842504813e-05 3.1250325548742315e-05 1.2307284873692245e-10 -5.720414008205427e-05 2.4179893218210666e-05 2.0373381593022464e-10 -4.6715871005661743e-05 3.1250310039193016e-05 1.2038371872797218e-10 -4.2950212802557911e-05 3.1250325548742315e-05 1.2307284873692245e-10 -5.720414008205427e-05 3.1250310445072129e-05 2.1041672404241379e-10 -4.7629270880728947e-05 2.4179893218210666e-05 2.0373381593022464e-10 -4.6715871005661743e-05 3.1250346312046112e-05 2.2335500277932505e-10 -6.5027576534357391e-05 2.4276382446611594e-05 1.8497125681210652e-10 -7.6561788016098867e-05 2.1453201810785608e-05 1.0912086044367029e-10 -6.435965256280258e-05 2.4179893218210666e-05 2.0373381593022464e-10 -4.6715871005661743e-05 2.542103302775032e-05 3.206620650093368e-10 -6.4145752723660126e-05 2.4276382446611597e-05 1.8497125681210647e-10 -7.6561788016098881e-05 2.1453201810785608e-05 1.0912086044367037e-10 -6.4359652562802594e-05 3.1250325548742315e-05 1.2307284873692245e-10 -5.720414008205427e-05 3.1250346312046112e-05 2.2335500277932505e-10 -6.5027576534357391e-05 2.427638244661159e-05 1.8497125681210655e-10 -7.6561788016098867e-05 2.1453201810785608e-05 1.0912086044367034e-10 -6.4359652562802594e-05 3.1250375586883792e-05 1.1425815377556156e-10 -7.5788534445547619e-05 3.1250325548742315e-05 1.2307284873692245e-10 -5.720414008205427e-05 3.1250346312046112e-05 2.2335500277932505e-10 -6.5027576534357391e-05 2.4276382446611594e-05 1.849712568121065e-10 -7.6561788016098867e-05 2.4179893218210666e-05 2.0373381593022464e-10 -4.6715871005661743e-05 3.1250346312046112e-05 2.2335500277932505e-10 -6.5027576534357391e-05 2.5421033027750324e-05 3.206620650093368e-10 -6.4145752723660126e-05 2.4276382446611594e-05 1.849712568121065e-10 -7.6561788016098867e-05 2.4179893218210666e-05 2.0373381593022464e-10 -4.6715871005661743e-05 3.1250325548742309e-05 1.2307284873692242e-10 -5.7204140082054263e-05 3.1250346312046112e-05 2.2335500277932505e-10 -6.5027576534357391e-05 3.1250310445072129e-05 2.1041672404241379e-10 -4.7629270880728947e-05 2.4179893218210666e-05 2.0373381593022464e-10 -4.6715871005661743e-05 3.1250346312046112e-05 2.2335500277932505e-10 -6.5027576534357391e-05 3.1250310445072122e-05 2.1041672404241379e-10 -4.7629270880728947e-05 2.7113566650667909e-05 3.0051971500263166e-10 -4.7446280988094879e-05 3.1250346312046112e-05 2.2335500277932505e-10 -6.5027576534357391e-05 3.1250310445072129e-05 2.1041672404241382e-10 -4.7629270880728947e-05 3.12503086059088e-05 3.260118505448112e-10 -5.6251155855533612e-05 2.7113566650667906e-05 3.0051971500263161e-10 -4.7446280988094872e-05 3.1250299565338465e-05 2.9859694846779685e-10 -3.7501151581490238e-05 3.1250310445072136e-05 2.1041672404241385e-10 -4.7629270880728941e-05 3.12503086059088e-05 3.260118505448112e-10 -5.6251155855533612e-05 2.7113566650667909e-05 3.0051971500263166e-10 -4.7446280988094872e-05 3.1250346312046112e-05 2.2335500277932505e-10 -6.5027576534357391e-05 3.1250308605908793e-05 3.260118505448112e-10 -5.6251155855533612e-05 2.7113566650667909e-05 3.0051971500263161e-10 -4.7446280988094865e-05 2.542103302775032e-05 3.206620650093368e-10 -6.4145752723660126e-05 2.4179893218210666e-05 2.0373381593022464e-10 -4.6715871005661743e-05 2.7113566650667912e-05 3.0051971500263161e-10 -4.7446280988094879e-05 2.5421033027750327e-05 3.2066206500933686e-10 -6.4145752723660126e-05 2.1325389936570392e-05 3.7193463259570716e-10 -4.9041789962515114e-05 2.4179893218210666e-05 2.0373381593022464e-10 -4.6715871005661743e-05 3.1250346312046112e-05 2.2335500277932505e-10 -6.5027576534357391e-05 2.7113566650667909e-05 3.0051971500263166e-10 -4.7446280988094872e-05 2.5421033027750324e-05 3.206620650093368e-10 -6.4145752723660126e-05 3.1250346312046112e-05 2.2335500277932505e-10 -6.5027576534357391e-05 3.12503086059088e-05 3.2601185054481115e-10 -5.6251155855533612e-05 2.5421033027750327e-05 3.206620650093368e-10 -6.4145752723660126e-05 3.1250328712022439e-05 3.5492670283548127e-10 -7.5001145081734789e-05 3.1250346312046112e-05 2.2335500277932505e-10 -6.5027576534357391e-05 2.5421033027750327e-05 3.206620650093368e-10 -6.4145752723660126e-05 3.1250328712022439e-05 3.5492670283548132e-10 -7.5001145081734775e-05 2.6675079236958877e-05 2.3749721291678653e-10 -8.0025156989196864e-05 3.1250346312046112e-05 2.2335500277932505e-10 -6.5027576534357391e-05 3.125040223459291e-05 2.1005822122852992e-10 -8.0025202728891217e-05 2.4276382446611594e-05 1.849712568121065e-10 -7.6561788016098867e-05 2.667507923695887e-05 2.3749721291678632e-10 -8.0025156989196864e-05 3.1250346312046112e-05 2.2335500277932505e-10 -6.5027576534357391e-05 3.1250328712022439e-05 3.5492670283548127e-10 -7.5001145081734789e-05 3.125040223459291e-05 2.1005822122852992e-10 -8.0025202728891217e-05 2.6675079236958881e-05 2.3749721291678648e-10 -8.0025156989196864e-05 3.1250434863509725e-05 3.2539739062013678e-10 -9.3751180867711695e-05 3.1250449911267585e-05 1.8256602067864627e-10 -9.375116465649485e-05 3.125040223459291e-05 2.1005822122852992e-10 -8.0025202728891217e-05 2.6675140356534034e-05 2.1371460411436374e-10 -9.3751089422798353e-05 3.1250434863509725e-05 3.2539739062013678e-10 -9.3751180867711695e-05 2.6675140356534034e-05 2.1371460411436374e-10 -9.3751089422798353e-05 2.5000455613505631e-05 3.0859247538686568e-10 -9.3751075851789494e-05 2.6675079236958874e-05 2.3749721291678637e-10 -8.0025156989196864e-05 3.1250328712022439e-05 3.5492670283548127e-10 -7.5001145081734789e-05 3.1250434863509725e-05 3.2539739062013683e-10 -9.3751180867711695e-05 3.125040223459291e-05 2.1005822122852992e-10 -8.0025202728891217e-05 2.6675079236958874e-05 2.3749721291678637e-10 -8.0025156989196864e-05 3.1250434863509725e-05 3.2539739062013678e-10 -9.3751180867711695e-05 3.125040223459291e-05 2.1005822122852992e-10 -8.0025202728891217e-05 2.6675140356534034e-05 2.1371460411436374e-10 -9.3751089422798353e-05 2.6675079236958874e-05 2.3749721291678637e-10 -8.0025156989196864e-05 3.1250375586883792e-05 1.1425815377556156e-10 -7.5788534445547619e-05 3.1250449911267585e-05 1.8256602067864624e-10 -9.375116465649485e-05 3.125040223459291e-05 2.1005822122852992e-10 -8.0025202728891217e-05 2.6675140356534034e-05 2.1371460411436374e-10 -9.3751089422798353e-05 2.5262908994879919e-05 1.1062123530710157e-10 -9.3751060761881126e-05 3.1250375586883792e-05 1.1425815377556156e-10 -7.5788534445547619e-05 3.1250449911267585e-05 1.8256602067864627e-10 -9.375116465649485e-05 2.6675140356534034e-05 2.1371460411436374e-10 -9.3751089422798353e-05 3.1250375586883792e-05 1.1425815377556156e-10 -7.5788534445547619e-05 3.125040223459291e-05 2.1005822122852992e-10 -8.0025202728891217e-05 2.4276382446611594e-05 1.849712568121065e-10 -7.6561788016098867e-05 2.6675140356534034e-05 2.1371460411436374e-10 -9.3751089422798353e-05 3.1250375586883792e-05 1.1425815377556156e-10 -7.5788534445547619e-05 3.1250346312046112e-05 2.2335500277932505e-10 -6.5027576534357391e-05 3.125040223459291e-05 2.1005822122852992e-10 -8.0025202728891217e-05 2.4276382446611594e-05 1.849712568121065e-10 -7.6561788016098867e-05 2.5262908994879919e-05 1.1062123530710157e-10 -9.3751060761881126e-05 2.427638244661159e-05 1.8497125681210647e-10 -7.6561788016098854e-05 2.6675140356534034e-05 2.1371460411436374e-10 -9.3751089422798353e-05 2.1675908995880697e-05 2.2479133896266232e-10 -9.3750994345783231e-05 2.5262908994879919e-05 1.1062123530710157e-10 -9.3751060761881126e-05 3.1250375586883792e-05 1.1425815377556157e-10 -7.5788534445547632e-05 2.4276382446611594e-05 1.849712568121065e-10 -7.6561788016098867e-05 2.6675140356534034e-05 2.1371460411436374e-10 -9.3751089422798353e-05 2.4276382446611594e-05 1.849712568121065e-10 -7.6561788016098867e-05 2.6675140356534034e-05 2.1371460411436374e-10 -9.3751089422798353e-05 2.5000455613505631e-05 3.0859247538686568e-10 -9.3751075851789494e-05 2.6675079236958874e-05 2.3749721291678632e-10 -8.0025156989196864e-05 2.4276382446611594e-05 1.849712568121065e-10 -7.6561788016098867e-05 2.5000455613505631e-05 3.0859247538686568e-10 -9.3751075851789494e-05 2.6675079236958874e-05 2.3749721291678632e-10 -8.002515698919685e-05 2.1869605149058722e-05 3.0263829849922944e-10 -7.7867640374130464e-05 2.4276382446611594e-05 1.849712568121065e-10 -7.6561788016098867e-05 2.6675140356534034e-05 2.1371460411436374e-10 -9.3751089422798353e-05 2.5000455613505631e-05 3.0859247538686568e-10 -9.375107585178948e-05 2.1675908995880697e-05 2.2479133896266232e-10 -9.3750994345783231e-05 3.125040223459291e-05 2.1005822122852992e-10 -8.0025202728891217e-05 2.4276382446611594e-05 1.849712568121065e-10 -7.6561788016098881e-05 2.6675140356534034e-05 2.1371460411436374e-10 -9.3751089422798353e-05 2.6675079236958874e-05 2.3749721291678632e-10 -8.0025156989196864e-05 2.5421033027750324e-05 3.206620650093368e-10 -6.4145752723660126e-05 2.4276382446611594e-05 1.849712568121065e-10 -7.6561788016098867e-05 2.667507923695887e-05 2.3749721291678632e-10 -8.002515698919685e-05 2.1869605149058719e-05 3.0263829849922944e-10 -7.786764037413045e-05 3.1250346312046112e-05 2.2335500277932505e-10 -6.5027576534357391e-05 2.5421033027750324e-05 3.206620650093368e-10 -6.4145752723660126e-05 2.4276382446611594e-05 1.849712568121065e-10 -7.6561788016098867e-05 2.6675079236958874e-05 2.3749721291678637e-10 -8.002515698919685e-05 2.4276382446611594e-05 1.849712568121065e-10 -7.6561788016098867e-05 2.1869605149058719e-05 3.0263829849922944e-10 -7.786764037413045e-05 2.1675908995880697e-05 2.2479133896266232e-10 -9.3750994345783231e-05 1.5597543463871365e-05 1.7157971204692012e-10 -7.3027847587850224e-05 2.4276382446611594e-05 1.849712568121065e-10 -7.6561788016098867e-05 2.1675908995880697e-05 2.2479133896266232e-10 -9.3750994345783231e-05 1.9068068933079203e-05 1.1644202825165791e-10 -9.3750947843635341e-05 1.5597543463871361e-05 1.7157971204692007e-10 -7.3027847587850211e-05 2.5421033027750324e-05 3.206620650093368e-10 -6.4145752723660126e-05 2.4276382446611594e-05 1.849712568121065e-10 -7.6561788016098867e-05 2.1869605149058719e-05 3.0263829849922944e-10 -7.786764037413045e-05 1.9135724536516398e-05 2.754371243600026e-10 -6.3598568143562425e-05 2.4276382446611594e-05 1.849712568121065e-10 -7.6561788016098867e-05 2.1869605149058719e-05 3.0263829849922944e-10 -7.786764037413045e-05 1.9135724536516398e-05 2.754371243600026e-10 -6.3598568143562425e-05 1.5597543463871365e-05 1.7157971204692012e-10 -7.3027847587850224e-05 2.4276382446611594e-05 1.849712568121065e-10 -7.6561788016098867e-05 2.5000455613505634e-05 3.0859247538686573e-10 -9.3751075851789507e-05 2.1869605149058719e-05 3.0263829849922944e-10 -7.786764037413045e-05 2.1675908995880697e-05 2.2479133896266232e-10 -9.3750994345783231e-05 2.1869605149058719e-05 3.0263829849922944e-10 -7.786764037413045e-05 2.1675908995880697e-05 2.2479133896266232e-10 -9.3750994345783231e-05 1.8750414999164257e-05 3.6411338936111765e-10 -9.3750987627627889e-05 1.5928444150862496e-05 3.0164204000460449e-10 -7.8314999518802139e-05 2.5000455613505631e-05 3.0859247538686568e-10 -9.3751075851789494e-05 2.1869605149058719e-05 3.0263829849922944e-10 -7.786764037413045e-05 2.1675908995880697e-05 2.2479133896266232e-10 -9.3750994345783231e-05 1.8750414999164257e-05 3.6411338936111765e-10 -9.3750987627627889e-05 2.5262908994879919e-05 1.1062123530710157e-10 -9.3751060761881126e-05 2.4276382446611597e-05 1.8497125681210647e-10 -7.6561788016098867e-05 2.1675908995880697e-05 2.2479133896266232e-10 -9.3750994345783231e-05 1.9068068933079206e-05 1.1644202825165791e-10 -9.3750947843635341e-05 2.1675908995880697e-05 2.2479133896266232e-10 -9.3750994345783231e-05 1.5876403451632256e-05 2.385656244104543e-10 -9.3750889062166662e-05 1.9068068933079206e-05 1.1644202825165791e-10 -9.3750947843635341e-05 1.5597543463871365e-05 1.7157971204692012e-10 -7.3027847587850224e-05 2.1675908995880697e-05 2.2479133896266232e-10 -9.3750994345783231e-05 1.5876403451632256e-05 2.385656244104543e-10 -9.3750889062166662e-05 1.5928444150862496e-05 3.016420400046046e-10 -7.8314999518802139e-05 1.5597543463871365e-05 1.7157971204692012e-10 -7.3027847587850224e-05 1.5876403451632256e-05 2.385656244104543e-10 -9.3750889062166662e-05 1.8750414999164257e-05 3.6411338936111765e-10 -9.3750987627627889e-05 1.5928444150862496e-05 3.0164204000460449e-10 -7.8314999518802139e-05 1.2500310280645499e-05 4.042514271264039e-10 -9.3750884410273303e-05 2.1675908995880697e-05 2.2479133896266232e-10 -9.3750994345783231e-05 1.5876403451632256e-05 2.385656244104543e-10 -9.3750889062166662e-05 1.8750414999164257e-05 3.6411338936111765e-10 -9.3750987627627889e-05 1.5928444150862492e-05 3.0164204000460449e-10 -7.8314999518802126e-05 2.1869605149058719e-05 3.0263829849922944e-10 -7.786764037413045e-05 2.1675908995880697e-05 2.2479133896266229e-10 -9.3750994345783231e-05 1.5928444150862496e-05 3.0164204000460449e-10 -7.8314999518802139e-05 1.5597543463871368e-05 1.7157971204692012e-10 -7.3027847587850224e-05 2.1869605149058719e-05 3.0263829849922944e-10 -7.786764037413045e-05 1.5928444150862496e-05 3.0164204000460449e-10 -7.8314999518802139e-05 1.9135724536516398e-05 2.754371243600026e-10 -6.3598568143562425e-05 1.5597543463871365e-05 1.7157971204692009e-10 -7.3027847587850224e-05 1.9135724536516398e-05 2.754371243600026e-10 -6.3598568143562425e-05 2.1453201810785608e-05 1.0912086044367034e-10 -6.435965256280258e-05 1.5620248336732478e-05 1.5892853230410744e-10 -4.9657921703922226e-05 1.5597543463871365e-05 1.7157971204692012e-10 -7.3027847587850224e-05 2.4179893218210666e-05 2.0373381593022464e-10 -4.6715871005661743e-05 1.9135724536516398e-05 2.754371243600025e-10 -6.3598568143562425e-05 2.1325389936570392e-05 3.7193463259570716e-10 -4.9041789962515107e-05 1.5620248336732474e-05 1.5892853230410741e-10 -4.965792170392222e-05 1.9135724536516398e-05 2.754371243600026e-10 -6.3598568143562425e-05 1.5620248336732471e-05 1.5892853230410741e-10 -4.965792170392222e-05 1.4319058922331173e-05 2.6677979989391276e-10 -6.4660089409495277e-05 1.5597543463871365e-05 1.7157971204692012e-10 -7.3027847587850224e-05 1.5928444150862496e-05 3.0164204000460449e-10 -7.8314999518802139e-05 1.9135724536516398e-05 2.754371243600026e-10 -6.3598568143562425e-05 1.4319058922331173e-05 2.6677979989391276e-10 -6.4660089409495277e-05 1.5597543463871361e-05 1.7157971204692012e-10 -7.3027847587850211e-05 2.4179893218210666e-05 2.0373381593022464e-10 -4.6715871005661743e-05 1.9135724536516394e-05 2.754371243600026e-10 -6.3598568143562425e-05 2.1453201810785608e-05 1.0912086044367035e-10 -6.4359652562802594e-05 1.5620248336732474e-05 1.5892853230410741e-10 -4.965792170392222e-05 2.5421033027750324e-05 3.206620650093368e-10 -6.4145752723660126e-05 2.4276382446611594e-05 1.849712568121065e-10 -7.6561788016098867e-05 1.9135724536516398e-05 2.754371243600026e-10 -6.3598568143562425e-05 2.1453201810785608e-05 1.0912086044367034e-10 -6.4359652562802594e-05 2.4276382446611594e-05 1.849712568121065e-10 -7.6561788016098867e-05 1.9135724536516394e-05 2.754371243600026e-10 -6.3598568143562412e-05 2.1453201810785608e-05 1.0912086044367033e-10 -6.4359652562802607e-05 1.5597543463871368e-05 1.7157971204692012e-10 -7.3027847587850224e-05 2.4179893218210666e-05 2.0373381593022464e-10 -4.6715871005661743e-05 2.5421033027750324e-05 3.206620650093368e-10 -6.4145752723660126e-05 1.9135724536516401e-05 2.754371243600026e-10 -6.3598568143562425e-05 2.1453201810785605e-05 1.0912086044367035e-10 -6.435965256280258e-05 2.4179893218210666e-05 2.0373381593022464e-10 -4.6715871005661743e-05 2.5421033027750324e-05 3.206620650093368e-10 -6.4145752723660126e-05 1.9135724536516398e-05 2.754371243600026e-10 -6.3598568143562425e-05 2.1325389936570392e-05 3.7193463259570721e-10 -4.9041789962515107e-05 1.6238228634169552e-05 3.1636475771148152e-10 -4.6876091640029247e-05 1.9135724536516398e-05 2.754371243600026e-10 -6.3598568143562425e-05 1.5620248336732474e-05 1.5892853230410739e-10 -4.9657921703922226e-05 1.4319058922331173e-05 2.6677979989391276e-10 -6.4660089409495277e-05 1.6238228634169552e-05 3.1636475771148152e-10 -4.6876091640029247e-05 1.9135724536516398e-05 2.754371243600026e-10 -6.3598568143562425e-05 2.1325389936570392e-05 3.7193463259570716e-10 -4.9041789962515107e-05 1.5620248336732474e-05 1.5892853230410739e-10 -4.965792170392222e-05 2.1453201810785608e-05 1.0912086044367034e-10 -6.4359652562802594e-05 1.5567843262399224e-05 1.4990089604168988e-11 -7.03563014862688e-05 1.5620248336732474e-05 1.5892853230410741e-10 -4.965792170392222e-05 1.5597543463871365e-05 1.7157971204692012e-10 -7.3027847587850224e-05 2.3451851269578411e-05 1.7115798000033762e-11 -4.6722951340685182e-05 1.5625249668590371e-05 -1.8999678226954595e-12 -4.6876053609949823e-05 2.1453201810785608e-05 1.0912086044367034e-10 -6.4359652562802594e-05 1.5567843262399221e-05 1.4990089604169079e-11 -7.03563014862688e-05 2.3451851269578411e-05 1.7115798000033762e-11 -4.6722951340685182e-05 2.4381358621765211e-05 -4.9667038473414977e-12 -7.3144022947291124e-05 2.1453201810785608e-05 1.0912086044367034e-10 -6.4359652562802594e-05 1.5567843262399228e-05 1.4990089604169021e-11 -7.03563014862688e-05 2.3451851269578411e-05 1.7115798000033762e-11 -4.6722951340685182e-05 1.5625249668590371e-05 -1.8999678226954372e-12 -4.6876053609949816e-05 2.1453201810785608e-05 1.0912086044367034e-10 -6.4359652562802594e-05 1.5620248336732474e-05 1.5892853230410741e-10 -4.965792170392222e-05 2.4179893218210666e-05 2.0373381593022464e-10 -4.6715871005661743e-05 2.3451851269578414e-05 1.7115798000033736e-11 -4.6722951340685182e-05 2.1453201810785608e-05 1.0912086044367034e-10 -6.4359652562802594e-05 1.5620248336732471e-05 1.5892853230410739e-10 -4.9657921703922213e-05 1.5625249668590371e-05 -1.8999678226954595e-12 -4.6876053609949823e-05 2.1453201810785605e-05 1.0912086044367035e-10 -6.435965256280258e-05 1.5567843262399221e-05 1.4990089604168982e-11 -7.03563014862688e-05 1.5620248336732474e-05 1.5892853230410741e-10 -4.965792170392222e-05 2.4381358621765211e-05 -4.9667038473414977e-12 -7.3144022947291124e-05 2.1038093465492935e-05 1.6836653881084829e-11 -9.3750983641495867e-05 1.9068068933079206e-05 1.1644202825165783e-10 -9.3750947843635355e-05 1.5567843262399224e-05 1.4990089604168988e-11 -7.03563014862688e-05 2.4381358621765211e-05 -4.9667038473414977e-12 -7.3144022947291124e-05 2.1453201810785608e-05 1.0912086044367033e-10 -6.4359652562802594e-05 1.9068068933079206e-05 1.1644202825165791e-10 -9.3750947843635341e-05 1.5567843262399224e-05 1.4990089604169001e-11 -7.03563014862688e-05 2.4381358621765211e-05 -4.9667038473414977e-12 -7.3144022947291124e-05 2.5262908994879923e-05 1.1062123530710158e-10 -9.3751060761881126e-05 2.1453201810785608e-05 1.0912086044367034e-10 -6.4359652562802594e-05 1.9068068933079206e-05 1.1644202825165791e-10 -9.3750947843635341e-05 2.4276382446611594e-05 1.849712568121065e-10 -7.6561788016098867e-05 2.1453201810785605e-05 1.0912086044367035e-10 -6.435965256280258e-05 1.906806893307921e-05 1.1644202825165794e-10 -9.3750947843635341e-05 1.5597543463871365e-05 1.7157971204692009e-10 -7.3027847587850224e-05 2.1453201810785608e-05 1.0912086044367034e-10 -6.4359652562802594e-05 1.9068068933079203e-05 1.1644202825165788e-10 -9.3750947843635328e-05 1.5567843262399224e-05 1.4990089604168985e-11 -7.03563014862688e-05 1.5597543463871365e-05 1.7157971204692012e-10 -7.3027847587850224e-05 2.5262908994879919e-05 1.1062123530710157e-10 -9.3751060761881126e-05 2.4276382446611594e-05 1.849712568121065e-10 -7.6561788016098867e-05 2.1453201810785605e-05 1.0912086044367026e-10 -6.435965256280258e-05 1.9068068933079206e-05 1.1644202825165791e-10 -9.3750947843635341e-05 2.4381358621765211e-05 -4.9667038473414977e-12 -7.3144022947291124e-05 2.5262908994879919e-05 1.1062123530710154e-10 -9.375106076188114e-05 2.1038093465492928e-05 1.6836653881084771e-11 -9.3750983641495867e-05 1.9068068933079206e-05 1.1644202825165783e-10 -9.3750947843635341e-05 1.9068068933079206e-05 1.1644202825165791e-10 -9.3750947843635341e-05 1.4316690084816207e-05 1.2415799769080354e-10 -9.375085997533388e-05 1.5567843262399224e-05 1.4990089604168988e-11 -7.03563014862688e-05 1.5597543463871365e-05 1.7157971204692017e-10 -7.3027847587850224e-05 1.5876403451632256e-05 2.385656244104543e-10 -9.3750889062166662e-05 1.9068068933079206e-05 1.1644202825165791e-10 -9.3750947843635341e-05 1.4316690084816207e-05 1.2415799769080354e-10 -9.375085997533388e-05 1.5597543463871365e-05 1.7157971204692012e-10 -7.3027847587850224e-05 1.9068068933079206e-05 1.1644202825165791e-10 -9.3750947843635341e-05 1.6238358289680608e-05 -3.7326168161214016e-12 -9.3750900404311157e-05 1.4316690084816207e-05 1.2415799769080354e-10 -9.375085997533388e-05 1.5567843262399224e-05 1.4990089604168988e-11 -7.03563014862688e-05 2.1038093465492931e-05 1.6836653881084752e-11 -9.3750983641495867e-05 1.9068068933079206e-05 1.1644202825165791e-10 -9.3750947843635341e-05 1.6238358289680608e-05 -3.7326168161214016e-12 -9.3750900404311157e-05 1.5567843262399224e-05 1.4990089604168988e-11 -7.03563014862688e-05 1.0139817177954355e-05 6.6844239496186381e-11 -9.3750805782791147e-05 9.7373434694897375e-06 1.1973180202448351e-10 -6.4240046833553523e-05 5.766988203116105e-06 1.6289527741675749e-10 -7.6513256428256698e-05 6.8263720875835952e-06 -1.0035969975739812e-12 -7.2783662350562429e-05 1.6238358289680608e-05 -3.7326168161214016e-12 -9.3750900404311157e-05 1.0139817177954355e-05 6.6844239496186381e-11 -9.3750805782791147e-05 1.5567843262399224e-05 1.4990089604168988e-11 -7.03563014862688e-05 1.0289405598456125e-05 -6.9568017161645759e-11 -9.3750809039444137e-05 1.4316690084816207e-05 1.2415799769080354e-10 -9.375085997533388e-05 9.7373434694897375e-06 1.1973180202448351e-10 -6.4240046833553523e-05 1.5597543463871365e-05 1.7157971204692012e-10 -7.3027847587850224e-05 9.7087182021360831e-06 2.1191474975159113e-10 -9.3750801284098116e-05 1.0139817177954355e-05 6.6844239496186381e-11 -9.3750805782791147e-05 1.5567843262399224e-05 1.4990089604168988e-11 -7.03563014862688e-05 6.8263720875835952e-06 -1.0035969975739812e-12 -7.2783662350562429e-05 1.0289405598456125e-05 -6.9568017161645759e-11 -9.3750809039444137e-05 1.4316690084816207e-05 1.2415799769080354e-10 -9.375085997533388e-05 1.5567843262399224e-05 1.4990089604168976e-11 -7.03563014862688e-05 9.7373434694897375e-06 1.1973180202448351e-10 -6.4240046833553523e-05 1.5597543463871365e-05 1.7157971204692012e-10 -7.3027847587850224e-05 1.0139817177954355e-05 6.6844239496186381e-11 -9.3750805782791147e-05 1.5567843262399224e-05 1.4990089604169027e-11 -7.03563014862688e-05 9.7373434694897392e-06 1.1973180202448349e-10 -6.424004683355351e-05 6.8263720875835952e-06 -1.0035969975739812e-12 -7.2783662350562429e-05 1.6238358289680608e-05 -3.7326168161214016e-12 -9.3750900404311157e-05 1.4316690084816207e-05 1.2415799769080354e-10 -9.375085997533388e-05 1.0139817177954355e-05 6.6844239496186381e-11 -9.3750805782791147e-05 1.5567843262399224e-05 1.4990089604168988e-11 -7.03563014862688e-05 1.4316690084816207e-05 1.2415799769080354e-10 -9.375085997533388e-05 1.0139817177954355e-05 6.6844239496186381e-11 -9.3750805782791147e-05 9.7373434694897375e-06 1.1973180202448351e-10 -6.4240046833553523e-05 9.7087182021360831e-06 2.1191474975159113e-10 -9.3750801284098116e-05 1.4316690084816207e-05 1.2415799769080354e-10 -9.375085997533388e-05 1.0139817177954355e-05 6.6844239496186381e-11 -9.3750805782791147e-05 1.5567843262399224e-05 1.4990089604168988e-11 -7.03563014862688e-05 9.7373434694897375e-06 1.1973180202448351e-10 -6.4240046833553523e-05 1.0139817177954355e-05 6.6844239496186381e-11 -9.3750805782791147e-05 9.7373434694897375e-06 1.1973180202448351e-10 -6.4240046833553523e-05 9.7087182021360831e-06 2.1191474975159113e-10 -9.3750801284098116e-05 5.766988203116105e-06 1.6289527741675749e-10 -7.6513256428256698e-05 7.7405176361580994e-06 2.1356117818039067e-11 -4.2280854066793885e-05 1.5625249668590371e-05 -1.8999678226954385e-12 -4.6876053609949823e-05 9.7373434694897375e-06 1.1973180202448351e-10 -6.4240046833553523e-05 1.5620248336732474e-05 1.5892853230410734e-10 -4.965792170392222e-05 1.5625249668590371e-05 -1.8999678226954595e-12 -4.6876053609949823e-05 1.5567843262399228e-05 1.4990089604168982e-11 -7.03563014862688e-05 9.7373434694897375e-06 1.1973180202448351e-10 -6.4240046833553523e-05 1.5620248336732474e-05 1.5892853230410741e-10 -4.965792170392222e-05 7.7405176361580994e-06 2.1356117818039067e-11 -4.2280854066793885e-05 7.036659194123997e-06 1.85755016811403e-10 -4.5176572600614766e-05 9.7373434694897375e-06 1.1973180202448351e-10 -6.4240046833553537e-05 1.5620248336732474e-05 1.5892853230410741e-10 -4.965792170392222e-05 7.7405176361580994e-06 2.1356117818039067e-11 -4.2280854066793885e-05 1.5625249668590371e-05 -1.8999678226954481e-12 -4.6876053609949823e-05 9.7373434694897375e-06 1.1973180202448351e-10 -6.4240046833553523e-05 6.8263720875835952e-06 -1.0035969975739812e-12 -7.2783662350562429e-05 1.5625249668590371e-05 -1.8999678226954595e-12 -4.6876053609949823e-05 1.5567843262399228e-05 1.499008960416903e-11 -7.03563014862688e-05 9.7373434694897375e-06 1.1973180202448351e-10 -6.4240046833553523e-05 6.8263720875835943e-06 -1.0035969975739879e-12 -7.2783662350562429e-05 1.5567843262399224e-05 1.4990089604168988e-11 -7.03563014862688e-05 9.7373434694897375e-06 1.1973180202448351e-10 -6.4240046833553523e-05 1.5620248336732474e-05 1.5892853230410741e-10 -4.965792170392222e-05 1.5597543463871365e-05 1.7157971204692012e-10 -7.3027847587850224e-05 9.7373434694897375e-06 1.1973180202448351e-10 -6.4240046833553523e-05 1.5620248336732474e-05 1.5892853230410741e-10 -4.965792170392222e-05 1.0140216128047233e-05 3.6839812174984976e-10 -5.6269905578780949e-05 1.4319058922331176e-05 2.6677979989391266e-10 -6.4660089409495291e-05 9.7373434694897375e-06 1.1973180202448351e-10 -6.4240046833553523e-05 1.0140216128047233e-05 3.6839812174984976e-10 -5.6269905578780949e-05 1.4319058922331173e-05 2.6677979989391276e-10 -6.4660089409495277e-05 9.7142784135994044e-06 3.2599198273412579e-10 -7.6378986687507095e-05 9.7373434694897375e-06 1.1973180202448351e-10 -6.4240046833553523e-05 1.5620248336732474e-05 1.5892853230410741e-10 -4.9657921703922213e-05 1.4319058922331173e-05 2.6677979989391276e-10 -6.4660089409495277e-05 1.5597543463871365e-05 1.7157971204692012e-10 -7.3027847587850224e-05 9.7373434694897375e-06 1.1973180202448351e-10 -6.4240046833553523e-05 1.0140216128047235e-05 3.6839812174984976e-10 -5.6269905578780949e-05 9.7142784135994044e-06 3.2599198273412579e-10 -7.6378986687507095e-05 5.766988203116105e-06 1.6289527741675749e-10 -7.6513256428256698e-05 7.036659194123997e-06 1.85755016811403e-10 -4.5176572600614766e-05 9.7373434694897375e-06 1.1973180202448351e-10 -6.4240046833553523e-05 1.5620248336732474e-05 1.5892853230410741e-10 -4.965792170392222e-05 1.0140216128047233e-05 3.6839812174984976e-10 -5.6269905578780949e-05 9.7373434694897375e-06 1.1973180202448351e-10 -6.4240046833553523e-05 1.4319058922331173e-05 2.6677979989391276e-10 -6.4660089409495277e-05 1.5597543463871365e-05 1.7157971204692009e-10 -7.3027847587850224e-05 9.7142784135994044e-06 3.2599198273412579e-10 -7.6378986687507095e-05 7.036659194123997e-06 1.85755016811403e-10 -4.5176572600614766e-05 1.0289730198388485e-05 3.5331138299744584e-10 -3.7141103839258951e-05 1.5620248336732471e-05 1.5892853230410739e-10 -4.965792170392222e-05 1.0140216128047231e-05 3.6839812174984976e-10 -5.6269905578780955e-05 7.036659194123997e-06 1.85755016811403e-10 -4.5176572600614766e-05 9.7373434694897375e-06 1.1973180202448349e-10 -6.4240046833553523e-05 1.0140216128047233e-05 3.6839812174984976e-10 -5.6269905578780949e-05 4.9688647251078263e-06 3.0219947948388392e-10 -6.5108052793671331e-05 1.0289730198388485e-05 3.5331138299744579e-10 -3.7141103839258958e-05 1.6238228634169552e-05 3.1636475771148152e-10 -4.6876091640029247e-05 1.5620248336732474e-05 1.5892853230410741e-10 -4.965792170392222e-05 1.0140216128047233e-05 3.6839812174984976e-10 -5.6269905578780949e-05 1.6238228634169552e-05 3.1636475771148152e-10 -4.6876091640029247e-05 1.5620248336732474e-05 1.5892853230410739e-10 -4.9657921703922226e-05 1.0140216128047231e-05 3.6839812174984981e-10 -5.6269905578780949e-05 1.4319058922331173e-05 2.6677979989391276e-10 -6.4660089409495277e-05 1.5928444150862496e-05 3.0164204000460449e-10 -7.8314999518802139e-05 1.4319058922331173e-05 2.6677979989391276e-10 -6.4660089409495277e-05 1.5597543463871361e-05 1.7157971204692012e-10 -7.3027847587850211e-05 9.7142784135994044e-06 3.2599198273412579e-10 -7.6378986687507095e-05 1.5597543463871365e-05 1.7157971204692012e-10 -7.3027847587850224e-05 9.7087182021360831e-06 2.1191474975159113e-10 -9.3750801284098116e-05 9.7142784135994044e-06 3.2599198273412579e-10 -7.6378986687507095e-05 5.766988203116105e-06 1.6289527741675749e-10 -7.6513256428256698e-05 9.7373434694897375e-06 1.1973180202448351e-10 -6.4240046833553523e-05 1.5597543463871361e-05 1.7157971204692009e-10 -7.3027847587850238e-05 9.7142784135994061e-06 3.2599198273412584e-10 -7.6378986687507082e-05 5.766988203116105e-06 1.6289527741675749e-10 -7.6513256428256698e-05 1.5876403451632256e-05 2.385656244104543e-10 -9.3750889062166662e-05 1.5928444150862496e-05 3.0164204000460449e-10 -7.8314999518802139e-05 1.5597543463871365e-05 1.7157971204692012e-10 -7.3027847587850224e-05 9.7142784135994044e-06 3.2599198273412579e-10 -7.6378986687507095e-05 9.7373434694897375e-06 1.1973180202448351e-10 -6.4240046833553523e-05 1.5597543463871365e-05 1.7157971204692012e-10 -7.3027847587850224e-05 9.7087182021360831e-06 2.1191474975159113e-10 -9.3750801284098116e-05 5.766988203116105e-06 1.6289527741675749e-10 -7.6513256428256698e-05 1.5876403451632256e-05 2.385656244104543e-10 -9.3750889062166662e-05 1.5928444150862496e-05 3.0164204000460449e-10 -7.8314999518802139e-05 1.2500310280645499e-05 4.042514271264039e-10 -9.3750884410273303e-05 9.7142784135994044e-06 3.2599198273412579e-10 -7.6378986687507095e-05 1.5876403451632256e-05 2.385656244104543e-10 -9.3750889062166662e-05 1.2500310280645499e-05 4.042514271264039e-10 -9.3750884410273303e-05 9.7087182021360831e-06 2.1191474975159113e-10 -9.3750801284098116e-05 9.7142784135994044e-06 3.2599198273412579e-10 -7.6378986687507095e-05 1.5876403451632256e-05 2.385656244104543e-10 -9.3750889062166662e-05 1.5597543463871365e-05 1.7157971204692012e-10 -7.3027847587850224e-05 9.7087182021360831e-06 2.1191474975159113e-10 -9.3750801284098116e-05 9.7142784135994044e-06 3.2599198273412579e-10 -7.6378986687507095e-05 1.5876403451632256e-05 2.385656244104543e-10 -9.3750889062166662e-05 1.4316690084816207e-05 1.2415799769080354e-10 -9.375085997533388e-05 1.5597543463871365e-05 1.7157971204692012e-10 -7.3027847587850224e-05 9.7087182021360831e-06 2.1191474975159113e-10 -9.3750801284098116e-05 1.2500310280645499e-05 4.042514271264039e-10 -9.3750884410273303e-05 9.7087182021360831e-06 2.1191474975159111e-10 -9.3750801284098116e-05 9.7142784135994027e-06 3.2599198273412574e-10 -7.6378986687507082e-05 6.2501594877445377e-06 3.2984278774308375e-10 -9.37507969986549e-05 9.7142784135994044e-06 3.2599198273412579e-10 -7.6378986687507095e-05 4.5754178662154137e-06 2.4308945894992276e-10 -8.0024878725695674e-05 5.766988203116105e-06 1.6289527741675749e-10 -7.6513256428256698e-05 4.9688647251078271e-06 3.0219947948388392e-10 -6.5108052793671331e-05 9.7087182021360831e-06 2.1191474975159113e-10 -9.3750801284098116e-05 9.7142784135994044e-06 3.2599198273412579e-10 -7.6378986687507082e-05 4.5754178662154137e-06 2.4308945894992276e-10 -8.0024878725695674e-05 5.766988203116105e-06 1.6289527741675749e-10 -7.6513256428256698e-05 9.7087182021360831e-06 2.1191474975159113e-10 -9.3750801284098116e-05 9.7142784135994044e-06 3.2599198273412579e-10 -7.6378986687507095e-05 4.5754178662154137e-06 2.4308945894992276e-10 -8.0024878725695674e-05 6.2501594877445377e-06 3.2984278774308375e-10 -9.37507969986549e-05 9.7087182021360831e-06 2.1191474975159113e-10 -9.3750801284098116e-05 4.5754178662154137e-06 2.4308945894992276e-10 -8.0024878725695674e-05 6.2501594877445377e-06 3.2984278774308375e-10 -9.37507969986549e-05 4.5754367547058474e-06 2.1163164556062128e-10 -9.3750745040702217e-05 9.7087182021360831e-06 2.1191474975159113e-10 -9.3750801284098116e-05 4.5754367547058474e-06 2.1163164556062128e-10 -9.3750745040702217e-05 5.766988203116105e-06 1.6289527741675749e-10 -7.6513256428256698e-05 4.9678872692757514e-06 1.1855352031321782e-10 -9.3750760812340159e-05 9.7087182021360831e-06 2.1191474975159113e-10 -9.3750801284098116e-05 4.5754178662154137e-06 2.4308945894992276e-10 -8.0024878725695674e-05 4.5754367547058474e-06 2.1163164556062128e-10 -9.3750745040702217e-05 5.766988203116105e-06 1.6289527741675749e-10 -7.6513256428256698e-05 5.766988203116105e-06 1.6289527741675749e-10 -7.6513256428256698e-05 -3.4594260740347535e-15 2.016999827836854e-10 -8.0024865825844212e-05 1.5574913071056192e-15 1.9162596662730196e-10 -6.6134357942064295e-05 1.1806768915399981e-15 1.1678059131695128e-10 -7.9851162399952147e-05 5.766988203116105e-06 1.6289527741675749e-10 -7.6513256428256698e-05 -3.4594262268344583e-15 2.0169998278368538e-10 -8.0024865825844212e-05 4.9688647251078271e-06 3.0219947948388392e-10 -6.5108052793671318e-05 1.5574915473483875e-15 1.9162596662730196e-10 -6.6134357942064295e-05 4.5754367547058474e-06 2.1163164556062128e-10 -9.3750745040702217e-05 5.7669882031161042e-06 1.6289527741675751e-10 -7.6513256428256685e-05 6.2266718107235735e-15 1.7848970164657025e-10 -9.375073717151658e-05 4.9678872692757514e-06 1.1855352031321782e-10 -9.3750760812340159e-05 4.5754178662154137e-06 2.4308945894992276e-10 -8.0024878725695674e-05 4.5754367547058474e-06 2.1163164556062128e-10 -9.375074504070223e-05 5.766988203116105e-06 1.6289527741675749e-10 -7.6513256428256698e-05 -3.4594260740347535e-15 2.016999827836854e-10 -8.0024865825844212e-05 5.766988203116105e-06 1.6289527741675749e-10 -7.6513256428256698e-05 -3.4594260740347535e-15 2.016999827836854e-10 -8.0024865825844212e-05 6.2266718107235735e-15 1.7848970164657025e-10 -9.375073717151658e-05 1.1806768915399987e-15 1.1678059131695128e-10 -7.9851162399952147e-05 4.5754367547058474e-06 2.1163164556062128e-10 -9.3750745040702217e-05 5.7669882031161059e-06 1.6289527741675746e-10 -7.6513256428256698e-05 -3.4594260740347535e-15 2.016999827836854e-10 -8.0024865825844212e-05 6.2266718107235735e-15 1.7848970164657025e-10 -9.375073717151658e-05 4.5754367547058474e-06 2.1163164556062128e-10 -9.3750745040702217e-05 -3.4594260740347535e-15 2.016999827836854e-10 -8.0024865825844212e-05 6.2266718107235735e-15 1.7848970164657025e-10 -9.375073717151658e-05 6.2375325328142571e-15 3.3271982132966118e-10 -9.3750754392191499e-05 4.5754178662154137e-06 2.4308945894992276e-10 -8.0024878725695674e-05 4.5754367547058474e-06 2.1163164556062126e-10 -9.375074504070223e-05 -3.4594260740347535e-15 2.016999827836854e-10 -8.0024865825844212e-05 6.2375325328142571e-15 3.3271982132966118e-10 -9.3750754392191499e-05 4.5754178662154137e-06 2.4308945894992276e-10 -8.0024878725695674e-05 6.2501594877445377e-06 3.2984278774308375e-10 -9.37507969986549e-05 4.5754367547058474e-06 2.1163164556062128e-10 -9.3750745040702217e-05 6.2375325328142571e-15 3.3271982132966118e-10 -9.3750754392191499e-05 4.5754178662154137e-06 2.4308945894992276e-10 -8.0024878725695674e-05 -3.4594260740347535e-15 2.016999827836854e-10 -8.0024865825844212e-05 6.2375325328142571e-15 3.3271982132966118e-10 -9.3750754392191499e-05 1.2496967910098959e-15 2.9324080501814331e-10 -7.5000845270317465e-05 4.5754178662154137e-06 2.4308945894992276e-10 -8.0024878725695674e-05 5.766988203116105e-06 1.6289527741675749e-10 -7.6513256428256698e-05 -3.4594260740347535e-15 2.016999827836854e-10 -8.0024865825844212e-05 4.9688647251078271e-06 3.0219947948388392e-10 -6.5108052793671331e-05 -3.4594260740347535e-15 2.016999827836854e-10 -8.0024865825844212e-05 1.2496967910098959e-15 2.9324080501814331e-10 -7.5000845270317465e-05 4.9688647251078271e-06 3.0219947948388392e-10 -6.5108052793671331e-05 1.5574915473483875e-15 1.9162596662730196e-10 -6.6134357942064295e-05 4.5754178662154137e-06 2.4308945894992276e-10 -8.0024878725695674e-05 -3.4594260437354996e-15 2.016999827836854e-10 -8.0024865825844212e-05 1.2496967910098959e-15 2.9324080501814331e-10 -7.5000845270317465e-05 4.9688647251078271e-06 3.0219947948388392e-10 -6.5108052793671331e-05 1.2496967910098959e-15 2.9324080501814331e-10 -7.5000845270317465e-05 4.9688647251078271e-06 3.0219947948388392e-10 -6.5108052793671331e-05 4.3788936052614543e-15 3.6111942681325271e-10 -5.625095387899631e-05 1.5574915473483875e-15 1.9162596662730196e-10 -6.6134357942064295e-05 7.036659194123997e-06 1.85755016811403e-10 -4.5176572600614766e-05 9.7373434694897375e-06 1.1973180202448351e-10 -6.4240046833553523e-05 5.766988203116105e-06 1.6289527741675749e-10 -7.6513256428256698e-05 1.5574915473483875e-15 1.9162596662730196e-10 -6.6134357942064295e-05 4.9688647251078271e-06 3.0219947948388392e-10 -6.5108052793671331e-05 4.3788936052614543e-15 3.6111942681325271e-10 -5.625095387899631e-05 -5.6429713696813925e-15 2.3888139468304684e-10 -4.7629128928160629e-05 1.5574920990031855e-15 1.9162596662730188e-10 -6.6134357942064281e-05 9.7373434694897375e-06 1.1973180202448351e-10 -6.4240046833553523e-05 1.0140216128047233e-05 3.6839812174984976e-10 -5.6269905578780949e-05 5.7669882031161033e-06 1.6289527741675741e-10 -7.6513256428256698e-05 4.9688647251078313e-06 3.0219947948388408e-10 -6.5108052793671345e-05 7.036659194123997e-06 1.85755016811403e-10 -4.5176572600614766e-05 9.7373434694897375e-06 1.1973180202448351e-10 -6.4240046833553523e-05 5.766988203116105e-06 1.6289527741675749e-10 -7.6513256428256698e-05 4.9688647251078246e-06 3.0219947948388392e-10 -6.5108052793671318e-05 7.036659194123997e-06 1.85755016811403e-10 -4.5176572600614766e-05 5.766988203116105e-06 1.6289527741675749e-10 -7.6513256428256698e-05 4.9688647251078271e-06 3.0219947948388392e-10 -6.5108052793671331e-05 1.5574915473483875e-15 1.9162596662730196e-10 -6.6134357942064295e-05 1.0140216128047233e-05 3.6839812174984976e-10 -5.6269905578780949e-05 9.7142784135994044e-06 3.2599198273412579e-10 -7.6378986687507095e-05 5.766988203116105e-06 1.6289527741675749e-10 -7.6513256428256698e-05 4.9688647251078271e-06 3.0219947948388392e-10 -6.5108052793671331e-05 7.036659194123997e-06 1.85755016811403e-10 -4.5176572600614766e-05 5.3832614014372188e-06 3.3027566607621414e-10 -4.672278327867079e-05 1.0140216128047233e-05 3.6839812174984976e-10 -5.6269905578780949e-05 4.9688647251078271e-06 3.0219947948388392e-10 -6.5108052793671331e-05 7.036659194123997e-06 1.85755016811403e-10 -4.5176572600614766e-05 5.3832614014372171e-06 3.3027566607621414e-10 -4.6722783278670783e-05 4.9688647251078271e-06 3.0219947948388392e-10 -6.5108052793671331e-05 -5.6429695024118124e-15 2.388813946830469e-10 -4.7629128928160636e-05 5.0108114507049707e-15 3.8698981741807514e-10 -3.7501071106417872e-05 5.3832614014372162e-06 3.3027566607621408e-10 -4.672278327867079e-05 4.3788936052614543e-15 3.6111942681325271e-10 -5.625095387899631e-05 -5.6429706526122838e-15 2.388813946830469e-10 -4.7629128928160629e-05 5.3832614014372162e-06 3.3027566607621408e-10 -4.672278327867079e-05 4.9688647251078271e-06 3.0219947948388398e-10 -6.5108052793671331e-05 4.3788936052614543e-15 3.6111942681325271e-10 -5.625095387899631e-05 -5.6429700624382928e-15 2.388813946830469e-10 -4.7629128928160636e-05 7.036659194123997e-06 1.85755016811403e-10 -4.5176572600614766e-05 4.9688647251078263e-06 3.0219947948388392e-10 -6.5108052793671345e-05 -5.6429706526122838e-15 2.388813946830469e-10 -4.7629128928160629e-05 1.5574915473483875e-15 1.9162596662730196e-10 -6.6134357942064295e-05 7.036659194123997e-06 1.85755016811403e-10 -4.5176572600614766e-05 -5.6429698059513271e-15 2.3888139468304684e-10 -4.7629128928160636e-05 1.5574927111194468e-15 1.9162596662730198e-10 -6.6134357942064295e-05 -1.6365071497323186e-15 1.0680065002916131e-10 -5.6198686275460396e-05 7.036659194123997e-06 1.85755016811403e-10 -4.5176572600614766e-05 9.7373434694897375e-06 1.1973180202448351e-10 -6.4240046833553523e-05 1.5574919585022271e-15 1.9162596662730201e-10 -6.6134357942064295e-05 -1.6365078386444013e-15 1.0680065002916128e-10 -5.6198686275460396e-05 9.7373434694897375e-06 1.1973180202448351e-10 -6.4240046833553523e-05 5.7669882031161059e-06 1.6289527741675754e-10 -7.6513256428256698e-05 1.5574915473483875e-15 1.9162596662730196e-10 -6.6134357942064295e-05 -1.6365071497323156e-15 1.0680065002916134e-10 -5.6198686275460396e-05 5.766988203116105e-06 1.6289527741675749e-10 -7.6513256428256698e-05 1.5574924914287122e-15 1.9162596662730198e-10 -6.6134357942064281e-05 -1.6365069663110643e-15 1.0680065002916132e-10 -5.6198686275460383e-05 1.4408041001536899e-15 6.5837403122703179e-11 -6.8178307449381204e-05 7.7405176361580994e-06 2.1356117818039067e-11 -4.2280854066793885e-05 9.7373434694897375e-06 1.1973180202448351e-10 -6.4240046833553523e-05 -1.6365063027292792e-15 1.0680065002916137e-10 -5.6198686275460396e-05 6.826372087583596e-06 -1.0035969975740067e-12 -7.2783662350562429e-05 9.7373434694897375e-06 1.1973180202448351e-10 -6.4240046833553523e-05 5.766988203116105e-06 1.6289527741675746e-10 -7.6513256428256698e-05 -1.6365076354240562e-15 1.0680065002916133e-10 -5.6198686275460389e-05 1.4408053806823034e-15 6.5837403122703205e-11 -6.8178307449381177e-05 -1.6365071497323156e-15 1.0680065002916134e-10 -5.6198686275460396e-05 -3.3399684647753423e-15 3.8449745753355491e-12 -4.871493405051219e-05 6.8263720875835969e-06 -1.0035969975740055e-12 -7.2783662350562429e-05 1.1097261221001383e-15 -1.941326258158e-11 -6.3113901888497888e-05 9.7373434694897375e-06 1.1973180202448351e-10 -6.4240046833553523e-05 -1.6365080515528045e-15 1.068006500291614e-10 -5.619868627546041e-05 1.4408051328483441e-15 6.5837403122703257e-11 -6.8178307449381163e-05 6.8263720875835943e-06 -1.0035969975740186e-12 -7.2783662350562429e-05 7.7405176361580994e-06 2.1356117818039067e-11 -4.2280854066793885e-05 7.036659194123997e-06 1.85755016811403e-10 -4.5176572600614766e-05 9.7373434694897375e-06 1.1973180202448351e-10 -6.4240046833553523e-05 -1.6365071497323156e-15 1.0680065002916134e-10 -5.6198686275460396e-05 7.7405176361580994e-06 2.1356117818039067e-11 -4.2280854066793885e-05 -1.6365050305791264e-15 1.0680065002916141e-10 -5.6198686275460396e-05 -3.3399684647753423e-15 3.8449745753355491e-12 -4.871493405051219e-05 6.8263720875835943e-06 -1.0035969975740123e-12 -7.2783662350562429e-05 6.9234427284704658e-16 1.2076374577864989e-10 -4.2811544436439163e-05 7.036659194123997e-06 1.85755016811403e-10 -4.5176572600614766e-05 -5.6429706526122838e-15 2.388813946830469e-10 -4.7629128928160629e-05 -1.6365071497323156e-15 1.0680065002916134e-10 -5.6198686275460396e-05 7.7405176361580994e-06 2.1356117818039067e-11 -4.2280854066793885e-05 6.9234305220876761e-16 1.2076374577864986e-10 -4.2811544436439156e-05 -1.6365048002167529e-15 1.0680065002916133e-10 -5.619868627546041e-05 -3.3399684647753423e-15 3.8449745753355491e-12 -4.871493405051219e-05 -1.6365071497323156e-15 1.0680065002916134e-10 -5.6198686275460396e-05 1.4408048483964992e-15 6.5837403122703205e-11 -6.8178307449381177e-05 6.8263720875835986e-06 -1.0035969975739883e-12 -7.2783662350562429e-05 1.1097261221001383e-15 -1.941326258158e-11 -6.3113901888497888e-05 -5.3827730216129728e-16 4.581435176658699e-12 -7.8930752105276541e-05 1.1806768915399987e-15 1.1678059131695128e-10 -7.9851162399952147e-05 6.826372087583596e-06 -1.003596997573962e-12 -7.2783662350562415e-05 4.9678872692757522e-06 1.1855352031321782e-10 -9.3750760812340146e-05 9.7373434694897375e-06 1.1973180202448351e-10 -6.4240046833553523e-05 5.7669882031161059e-06 1.6289527741675749e-10 -7.6513256428256698e-05 1.4408051621169636e-15 6.5837403122703218e-11 -6.8178307449381177e-05 6.826372087583596e-06 -1.0035969975740079e-12 -7.2783662350562429e-05 5.766988203116105e-06 1.6289527741675749e-10 -7.6513256428256698e-05 1.1806768915399987e-15 1.1678059131695128e-10 -7.9851162399952147e-05 6.8263720875835952e-06 -1.0035969975739909e-12 -7.2783662350562429e-05 4.9678872692757514e-06 1.1855352031321779e-10 -9.3750760812340146e-05 1.4408053806823034e-15 6.5837403122703205e-11 -6.8178307449381177e-05 -5.3827730216129728e-16 4.581435176658699e-12 -7.8930752105276541e-05 6.8263720875835952e-06 -1.0035969975739774e-12 -7.2783662350562429e-05 1.1097261221001383e-15 -1.941326258158e-11 -6.3113901888497888e-05 1.4408053806823034e-15 6.5837403122703205e-11 -6.8178307449381177e-05 -5.3827725952780881e-16 4.5814351766587006e-12 -7.8930752105276541e-05 1.1806768915399987e-15 1.1678059131695128e-10 -7.9851162399952147e-05 6.8263720875835952e-06 -1.0035969975739812e-12 -7.2783662350562429e-05 1.0139817177954355e-05 6.6844239496186381e-11 -9.3750805782791147e-05 5.766988203116105e-06 1.6289527741675749e-10 -7.6513256428256698e-05 6.8263720875835952e-06 -1.0035969975739812e-12 -7.2783662350562429e-05 4.9678872692757514e-06 1.1855352031321782e-10 -9.3750760812340159e-05 5.766988203116105e-06 1.6289527741675749e-10 -7.6513256428256698e-05 1.4408058008156916e-15 6.5837403122703231e-11 -6.817830744938115e-05 1.1806773203455658e-15 1.1678059131695126e-10 -7.9851162399952147e-05 6.8263720875835952e-06 -1.0035969975739812e-12 -7.2783662350562429e-05 5.766988203116105e-06 1.6289527741675749e-10 -7.6513256428256698e-05 1.5574928940378479e-15 1.9162596662730196e-10 -6.6134357942064281e-05 1.4408075154303634e-15 6.5837403122703179e-11 -6.8178307449381163e-05 1.1806768915399987e-15 1.1678059131695131e-10 -7.9851162399952161e-05 1.0139817177954355e-05 6.6844239496186381e-11 -9.3750805782791147e-05 6.8263720875835952e-06 -1.0035969975739812e-12 -7.2783662350562429e-05 4.9678872692757514e-06 1.1855352031321782e-10 -9.3750760812340159e-05 5.3833129094661941e-06 8.0535408795214539e-14 -9.3750759533475084e-05 -5.3827730216129728e-16 4.581435176658699e-12 -7.8930752105276541e-05 6.826372087583596e-06 -1.003596997573961e-12 -7.2783662350562415e-05 4.9678872692757522e-06 1.1855352031321782e-10 -9.3750760812340159e-05 5.3833129094661941e-06 8.0535408795236577e-14 -9.3750759533475084e-05 1.0139817177954355e-05 6.6844239496186381e-11 -9.3750805782791147e-05 9.7087182021360831e-06 2.1191474975159113e-10 -9.3750801284098116e-05 5.766988203116105e-06 1.6289527741675749e-10 -7.6513256428256698e-05 4.9678872692757514e-06 1.1855352031321782e-10 -9.3750760812340159e-05 5.766988203116105e-06 1.6289527741675749e-10 -7.6513256428256698e-05 6.2266732106824476e-15 1.784897016465702e-10 -9.3750737171516594e-05 1.1806768915399987e-15 1.1678059131695128e-10 -7.9851162399952147e-05 4.9678872692757497e-06 1.1855352031321787e-10 -9.3750760812340159e-05 -5.3827730216129728e-16 4.581435176658699e-12 -7.8930752105276541e-05 1.1806768915399987e-15 1.1678059131695128e-10 -7.9851162399952147e-05 4.9678872692757514e-06 1.1855352031321782e-10 -9.3750760812340159e-05 4.9734575380513564e-15 5.9932425381791032e-11 -9.3750749680480267e-05 6.2266718107235735e-15 1.7848970164657025e-10 -9.375073717151658e-05 1.1806768915399987e-15 1.1678059131695128e-10 -7.9851162399952147e-05 4.9678872692757514e-06 1.1855352031321782e-10 -9.3750760812340159e-05 4.9734575380513564e-15 5.9932425381791032e-11 -9.3750749680480267e-05 -5.3827730216129728e-16 4.581435176658699e-12 -7.8930752105276541e-05 4.9678872692757514e-06 1.1855352031321782e-10 -9.3750760812340159e-05 4.9734575380513564e-15 5.9932425381791032e-11 -9.3750749680480267e-05 5.3833129094661941e-06 8.0535408795234191e-14 -9.375075953347507e-05 -5.3827730216129728e-16 4.581435176658699e-12 -7.8930752105276541e-05 4.9734575380513564e-15 5.9932425381791032e-11 -9.3750749680480267e-05 5.9554216364282813e-15 -6.0919365883039263e-11 -9.3750748489616277e-05 5.3833129094661941e-06 8.0535408795214539e-14 -9.3750759533475084e-05 -5.3827730216129728e-16 4.581435176658699e-12 -7.8930752105276541e-05 5.9554219511337048e-15 -6.0919365883039263e-11 -9.3750748489616263e-05 1.4367842336366753e-15 -1.1220455092119339e-10 -7.5788219930339023e-05 5.3833129094661933e-06 8.0535408795213189e-14 -9.3750759533475084e-05 5.9554219511337048e-15 -6.0919365883039263e-11 -9.3750748489616263e-05 1.4367842336366753e-15 -1.1220455092119339e-10 -7.5788219930339023e-05 5.2906818504149369e-06 -1.1754297719865078e-10 -9.3750755763133962e-05 5.3833129094661941e-06 8.0535408795214539e-14 -9.3750759533475084e-05 1.4367842336366753e-15 -1.1220455092119339e-10 -7.5788219930339023e-05 5.2906818504149369e-06 -1.1754297719865078e-10 -9.3750755763133962e-05 9.8210502178948869e-06 -1.1995729596301532e-10 -6.4464515990458231e-05 -4.0426000338067823e-15 -2.0929587784884763e-10 -8.0024861201888806e-05 6.8263720875835952e-06 -1.0035969975739812e-12 -7.2783662350562429e-05 1.4367815638434709e-15 -1.1220455092119341e-10 -7.5788219930339009e-05 5.2906818504149369e-06 -1.1754297719865078e-10 -9.3750755763133962e-05 9.8210502178948869e-06 -1.1995729596301534e-10 -6.4464515990458245e-05 -5.3827730216129728e-16 4.581435176658699e-12 -7.8930752105276541e-05 6.8263720875835969e-06 -1.0035969975739808e-12 -7.2783662350562429e-05 1.4367842336366753e-15 -1.1220455092119339e-10 -7.5788219930339023e-05 1.1097261221001383e-15 -1.941326258158e-11 -6.3113901888497888e-05 -5.3827730216129728e-16 4.581435176658699e-12 -7.8930752105276541e-05 6.826372087583596e-06 -1.003596997573978e-12 -7.2783662350562415e-05 1.4367842336366753e-15 -1.1220455092119339e-10 -7.5788219930339023e-05 5.3833129094661941e-06 8.0535408795217442e-14 -9.375075953347507e-05 5.9554219511337048e-15 -6.0919365883039263e-11 -9.3750748489616263e-05 1.4367839158165743e-15 -1.122045509211934e-10 -7.5788219930339023e-05 5.2906818504149369e-06 -1.1754297719865078e-10 -9.3750755763133962e-05 6.5798888244355565e-15 -1.7959232305897645e-10 -9.3750742564660818e-05 6.8263720875835952e-06 -1.0035969975739812e-12 -7.2783662350562429e-05 5.2906818504149369e-06 -1.1754297719865078e-10 -9.3750755763133962e-05 5.3833129094661941e-06 8.0535408795214539e-14 -9.3750759533475084e-05 1.0289405598456123e-05 -6.9568017161645759e-11 -9.3750809039444137e-05 6.8263720875835952e-06 -1.0035969975739812e-12 -7.2783662350562429e-05 1.4367814642874896e-15 -1.1220455092119337e-10 -7.5788219930338996e-05 5.2906818504149369e-06 -1.1754297719865078e-10 -9.3750755763133962e-05 5.3833129094661941e-06 8.0535408795214539e-14 -9.3750759533475084e-05 5.2906818504149369e-06 -1.1754297719865078e-10 -9.3750755763133962e-05 1.0289405598456125e-05 -6.9568017161645759e-11 -9.3750809039444137e-05 9.8210502178948869e-06 -1.1995729596301534e-10 -6.4464515990458245e-05 9.8786135939174945e-06 -2.0798744873770384e-10 -9.3750799459136317e-05 1.0139817177954355e-05 6.6844239496186381e-11 -9.3750805782791147e-05 6.8263720875835952e-06 -1.0035969975739812e-12 -7.2783662350562429e-05 5.3833129094661941e-06 8.0535408795222605e-14 -9.3750759533475084e-05 1.0289405598456125e-05 -6.9568017161645759e-11 -9.3750809039444137e-05 1.5651745605378535e-05 -1.9234266517002272e-10 -7.3205476020850045e-05 1.5567843262399224e-05 1.4990089604168982e-11 -7.0356301486268813e-05 1.431669578320205e-05 -1.3145605812148519e-10 -9.3750865619880966e-05 9.8210502178948869e-06 -1.1995729596301534e-10 -6.4464515990458245e-05 1.5567843262399224e-05 1.4990089604168988e-11 -7.03563014862688e-05 6.8263720875835952e-06 -1.0035969975739812e-12 -7.2783662350562429e-05 1.0289405598456125e-05 -6.9568017161645772e-11 -9.3750809039444151e-05 9.8210502178948869e-06 -1.1995729596301529e-10 -6.4464515990458245e-05 1.0289405598456125e-05 -6.9568017161645759e-11 -9.3750809039444137e-05 1.431669578320205e-05 -1.3145605812148519e-10 -9.3750865619880966e-05 9.8210502178948852e-06 -1.1995729596301534e-10 -6.4464515990458231e-05 9.8786135939174945e-06 -2.0798744873770384e-10 -9.3750799459136317e-05 1.5651745605378535e-05 -1.9234266517002272e-10 -7.3205476020850045e-05 1.431669578320205e-05 -1.3145605812148519e-10 -9.3750865619880966e-05 9.8210502178948852e-06 -1.1995729596301532e-10 -6.4464515990458231e-05 9.8786135939174962e-06 -2.0798744873770381e-10 -9.3750799459136317e-05 1.5567843262399224e-05 1.4990089604168988e-11 -7.03563014862688e-05 1.0289405598456122e-05 -6.956801716164572e-11 -9.3750809039444137e-05 1.431669578320205e-05 -1.3145605812148519e-10 -9.3750865619880966e-05 9.8210502178948869e-06 -1.1995729596301534e-10 -6.4464515990458245e-05 6.8263720875835952e-06 -1.0035969975739812e-12 -7.2783662350562429e-05 5.2906818504149369e-06 -1.1754297719865078e-10 -9.3750755763133962e-05 1.0289405598456123e-05 -6.9568017161645772e-11 -9.3750809039444124e-05 9.8210502178948869e-06 -1.1995729596301534e-10 -6.4464515990458245e-05 1.6238358289680608e-05 -3.7326168161214016e-12 -9.3750900404311157e-05 1.5567843262399224e-05 1.4990089604168992e-11 -7.03563014862688e-05 1.0289405598456125e-05 -6.9568017161645759e-11 -9.3750809039444137e-05 1.431669578320205e-05 -1.3145605812148519e-10 -9.3750865619880966e-05 1.5625249668590371e-05 -1.8999678226954595e-12 -4.6876053609949823e-05 1.5567843262399228e-05 1.4990089604168937e-11 -7.0356301486268827e-05 6.8263720875835943e-06 -1.0035969975739818e-12 -7.2783662350562429e-05 9.8210502178948869e-06 -1.1995729596301534e-10 -6.4464515990458245e-05 7.7405176361580994e-06 2.1356117818039067e-11 -4.2280854066793885e-05 1.5648250926865759e-05 -1.6177158776944622e-10 -4.9582261587321859e-05 9.8210502178948836e-06 -1.1995729596301534e-10 -6.4464515990458245e-05 6.9028532898642852e-06 -1.603046498925949e-10 -4.6880517069063434e-05 1.5648250926865762e-05 -1.6177158776944622e-10 -4.9582261587321866e-05 1.5651745605378538e-05 -1.9234266517002277e-10 -7.3205476020850058e-05 1.5567843262399224e-05 1.4990089604168982e-11 -7.0356301486268813e-05 9.8210502178948869e-06 -1.1995729596301534e-10 -6.4464515990458245e-05 7.7405176361580994e-06 2.1356117818039067e-11 -4.2280854066793885e-05 1.5625249668590368e-05 -1.8999678226955023e-12 -4.6876053609949809e-05 1.5648250926865766e-05 -1.6177158776944619e-10 -4.9582261587321859e-05 9.8210502178948869e-06 -1.1995729596301532e-10 -6.4464515990458245e-05 1.5625249668590371e-05 -1.8999678226954595e-12 -4.6876053609949823e-05 1.5648250926865762e-05 -1.6177158776944622e-10 -4.9582261587321866e-05 1.5567843262399224e-05 1.4990089604168995e-11 -7.03563014862688e-05 9.8210502178948869e-06 -1.1995729596301534e-10 -6.4464515990458245e-05 7.7405176361580994e-06 2.1356117818039067e-11 -4.2280854066793885e-05 1.5625249668590368e-05 -1.899967822695434e-12 -4.6876053609949823e-05 6.8263720875835952e-06 -1.0035969975739344e-12 -7.2783662350562415e-05 9.8210502178948852e-06 -1.1995729596301542e-10 -6.4464515990458231e-05 7.7405176361580994e-06 2.1356117818039067e-11 -4.2280854066793885e-05 -3.3399684647753423e-15 3.8449745753355491e-12 -4.871493405051219e-05 6.8263720875835943e-06 -1.003596997573937e-12 -7.2783662350562415e-05 9.8210502178948852e-06 -1.1995729596301534e-10 -6.4464515990458231e-05 -2.3907851375214594e-15 -1.0853292627975237e-10 -4.2950091863557702e-05 7.7405176361580977e-06 2.1356117818039076e-11 -4.2280854066793885e-05 1.7528146142686357e-15 -1.1535810959820659e-10 -5.7232514881600819e-05 6.9028532898642826e-06 -1.603046498925949e-10 -4.6880517069063434e-05 7.7405176361580994e-06 2.1356117818039067e-11 -4.2280854066793885e-05 -3.3399695485012398e-15 3.8449745753354481e-12 -4.8714934050512176e-05 9.8210502178948869e-06 -1.1995729596301539e-10 -6.4464515990458231e-05 1.7528132700091863e-15 -1.153581095982065e-10 -5.7232514881600832e-05 -3.3399684647753423e-15 3.8449745753355491e-12 -4.871493405051219e-05 6.8263720875835952e-06 -1.0035969975739812e-12 -7.2783662350562429e-05 9.8210502178948869e-06 -1.1995729596301534e-10 -6.4464515990458245e-05 1.7528145300740748e-15 -1.1535810959820659e-10 -5.7232514881600819e-05 7.7405176361580994e-06 2.1356117818039067e-11 -4.2280854066793885e-05 9.8210502178948852e-06 -1.1995729596301532e-10 -6.4464515990458258e-05 1.7528136190451148e-15 -1.1535810959820657e-10 -5.7232514881600826e-05 6.9028532898642843e-06 -1.603046498925949e-10 -4.6880517069063434e-05 -3.3399684647753423e-15 3.8449745753355491e-12 -4.871493405051219e-05 6.8263720875835952e-06 -1.0035969975739812e-12 -7.2783662350562429e-05 1.1097261221001383e-15 -1.941326258158e-11 -6.3113901888497888e-05 1.7528145300740748e-15 -1.1535810959820659e-10 -5.7232514881600819e-05 9.8210502178948869e-06 -1.1995729596301534e-10 -6.4464515990458245e-05 1.7528147929883387e-15 -1.1535810959820667e-10 -5.7232514881600819e-05 6.9028532898642826e-06 -1.6030464989259488e-10 -4.6880517069063434e-05 -4.9209578862493717e-15 -2.3415668165742659e-10 -6.5045576787401408e-05 6.8263720875835952e-06 -1.0035969975739812e-12 -7.2783662350562429e-05 1.4367843413684207e-15 -1.122045509211934e-10 -7.5788219930339023e-05 9.8210502178948869e-06 -1.1995729596301534e-10 -6.4464515990458245e-05 1.7528158700970231e-15 -1.1535810959820659e-10 -5.7232514881600826e-05 1.4367842336366753e-15 -1.1220455092119339e-10 -7.5788219930339023e-05 9.8210502178948869e-06 -1.1995729596301534e-10 -6.4464515990458245e-05 1.7528148305931884e-15 -1.1535810959820657e-10 -5.7232514881600826e-05 -4.9209578862493717e-15 -2.3415668165742659e-10 -6.5045576787401408e-05 -2.3907851375214594e-15 -1.0853292627975237e-10 -4.2950091863557702e-05 7.7405176361580994e-06 2.1356117818039067e-11 -4.2280854066793885e-05 -3.3399684647753423e-15 3.8449745753355491e-12 -4.871493405051219e-05 1.7528145300740748e-15 -1.1535810959820659e-10 -5.7232514881600819e-05 6.8263720875835952e-06 -1.0035969975739812e-12 -7.2783662350562429e-05 1.4367833055709468e-15 -1.1220455092119339e-10 -7.5788219930339023e-05 1.1097261221001383e-15 -1.941326258158e-11 -6.3113901888497888e-05 1.7528137721945279e-15 -1.1535810959820655e-10 -5.7232514881600826e-05 -2.3907851375214594e-15 -1.0853292627975237e-10 -4.2950091863557702e-05 1.7528145300740748e-15 -1.1535810959820659e-10 -5.7232514881600819e-05 6.9028532898642826e-06 -1.603046498925949e-10 -4.6880517069063434e-05 -5.3103433372911136e-15 -2.3736034764279675e-10 -4.7782357888152013e-05 9.8210502178948869e-06 -1.1995729596301534e-10 -6.4464515990458245e-05 -4.9209570976409382e-15 -2.3415668165742665e-10 -6.5045576787401381e-05 5.881040251065106e-06 -3.1567040294084554e-10 -6.4092312119480742e-05 4.575416124160555e-06 -2.4288295376967748e-10 -8.0024884586573036e-05 9.8210502178948869e-06 -1.1995729596301534e-10 -6.4464515990458245e-05 6.9028532898642826e-06 -1.6030464989259488e-10 -4.6880517069063441e-05 -4.9209578862493717e-15 -2.3415668165742659e-10 -6.5045576787401408e-05 5.8810402510651077e-06 -3.1567040294084543e-10 -6.4092312119480756e-05 6.9028532898642826e-06 -1.603046498925949e-10 -4.6880517069063434e-05 -5.310342860820841e-15 -2.373603476427968e-10 -4.7782357888152013e-05 -4.9209578862493717e-15 -2.3415668165742659e-10 -6.5045576787401408e-05 5.881040251065106e-06 -3.1567040294084543e-10 -6.4092312119480756e-05 1.7528145300740748e-15 -1.1535810959820659e-10 -5.7232514881600819e-05 6.902853289864286e-06 -1.603046498925949e-10 -4.6880517069063434e-05 -5.3103433372911136e-15 -2.3736034764279675e-10 -4.7782357888152013e-05 -4.9209578862493717e-15 -2.3415668165742659e-10 -6.5045576787401408e-05 -4.9209578862493717e-15 -2.3415668165742659e-10 -6.5045576787401408e-05 5.8810402510651043e-06 -3.1567040294084543e-10 -6.4092312119480756e-05 9.1012203375258466e-15 -4.0658736911989519e-10 -5.6250952737822587e-05 9.3674268360793469e-15 -3.4464396163854075e-10 -7.5000835354490245e-05 -5.3103433372911136e-15 -2.3736034764279675e-10 -4.7782357888152013e-05 -4.9209578862493717e-15 -2.3415668165742659e-10 -6.5045576787401408e-05 5.881040251065106e-06 -3.1567040294084543e-10 -6.4092312119480756e-05 9.1012203375258466e-15 -4.0658736911989519e-10 -5.6250952737822587e-05 5.1159300676100174e-06 -2.9971958617654876e-10 -4.5813371577604301e-05 -5.3103433372911136e-15 -2.3736034764279675e-10 -4.7782357888152013e-05 5.881040251065106e-06 -3.1567040294084543e-10 -6.4092312119480756e-05 9.1012203375258466e-15 -4.0658736911989519e-10 -5.6250952737822587e-05 5.1159300676100174e-06 -2.9971958617654876e-10 -4.5813371577604301e-05 6.9028532898642826e-06 -1.603046498925949e-10 -4.6880517069063434e-05 5.881040251065106e-06 -3.1567040294084538e-10 -6.4092312119480756e-05 9.6971428276637116e-06 -2.5738882460856331e-10 -5.0794599007517052e-05 5.1159300676100174e-06 -2.9971958617654876e-10 -4.5813371577604301e-05 6.9028532898642826e-06 -1.603046498925949e-10 -4.6880517069063434e-05 -5.3103434515943104e-15 -2.3736034764279675e-10 -4.7782357888152013e-05 5.881040251065106e-06 -3.1567040294084543e-10 -6.4092312119480756e-05 9.8210502178948869e-06 -1.1995729596301534e-10 -6.4464515990458245e-05 5.8810402510651052e-06 -3.1567040294084543e-10 -6.4092312119480756e-05 1.2380216437080235e-05 -3.5025148022830033e-10 -6.2882337885788141e-05 9.3985731108426599e-06 -3.0379448547039256e-10 -7.7879282451970698e-05 1.5648250926865762e-05 -1.6177158776944622e-10 -4.9582261587321866e-05 9.8210502178948869e-06 -1.1995729596301534e-10 -6.4464515990458245e-05 6.9028532898642826e-06 -1.603046498925949e-10 -4.6880517069063434e-05 9.6971428276637099e-06 -2.5738882460856326e-10 -5.0794599007517045e-05 1.5648250926865762e-05 -1.6177158776944622e-10 -4.9582261587321866e-05 9.8210502178948869e-06 -1.1995729596301537e-10 -6.4464515990458245e-05 9.6971428276637116e-06 -2.5738882460856326e-10 -5.0794599007517052e-05 1.2380216437080237e-05 -3.5025148022830043e-10 -6.2882337885788154e-05 1.5651745605378535e-05 -1.9234266517002272e-10 -7.3205476020850045e-05 9.8210502178948869e-06 -1.1995729596301534e-10 -6.4464515990458245e-05 1.2380216437080235e-05 -3.5025148022830033e-10 -6.2882337885788141e-05 9.3985731108426599e-06 -3.037944854703925e-10 -7.7879282451970684e-05 9.8210502178948869e-06 -1.1995729596301534e-10 -6.4464515990458245e-05 6.9028532898642835e-06 -1.603046498925949e-10 -4.6880517069063434e-05 5.8810402510651035e-06 -3.1567040294084548e-10 -6.4092312119480756e-05 9.6971428276637116e-06 -2.5738882460856331e-10 -5.0794599007517052e-05 1.8756607837184754e-05 -3.6998383870952322e-10 -6.3330935304123584e-05 1.5648250926865759e-05 -1.6177158776944622e-10 -4.9582261587321859e-05 1.5651745605378535e-05 -1.9234266517002272e-10 -7.3205476020850045e-05 1.2380216437080235e-05 -3.5025148022830033e-10 -6.2882337885788141e-05 9.8210502178948869e-06 -1.1995729596301534e-10 -6.4464515990458245e-05 5.8810402510651052e-06 -3.1567040294084554e-10 -6.4092312119480756e-05 9.6971428276637099e-06 -2.5738882460856321e-10 -5.0794599007517045e-05 1.2380216437080235e-05 -3.5025148022830038e-10 -6.2882337885788154e-05 1.5648250926865762e-05 -1.6177158776944622e-10 -4.9582261587321866e-05 1.5651745605378535e-05 -1.923426651700227e-10 -7.3205476020850058e-05 9.8210502178948869e-06 -1.1995729596301537e-10 -6.4464515990458245e-05 1.2380216437080237e-05 -3.5025148022830043e-10 -6.2882337885788154e-05 1.5625240988077438e-05 -3.1907951723748262e-10 -4.5037149767354777e-05 1.8756607837184754e-05 -3.6998383870952322e-10 -6.3330935304123584e-05 1.5648250926865762e-05 -1.6177158776944622e-10 -4.9582261587321866e-05 1.2380216437080235e-05 -3.5025148022830033e-10 -6.2882337885788141e-05 1.5625240988077438e-05 -3.1907951723748262e-10 -4.5037149767354777e-05 1.5648250926865762e-05 -1.6177158776944622e-10 -4.9582261587321866e-05 9.6971428276637116e-06 -2.5738882460856331e-10 -5.0794599007517045e-05 1.2380216437080235e-05 -3.5025148022830033e-10 -6.2882337885788141e-05 1.8756607837184754e-05 -3.6998383870952322e-10 -6.3330935304123584e-05 1.5651745605378535e-05 -1.9234266517002272e-10 -7.3205476020850045e-05 1.2380216437080235e-05 -3.5025148022830033e-10 -6.2882337885788141e-05 1.5574217527082471e-05 -3.3049402306628432e-10 -7.7601455638268005e-05 9.8210502178948869e-06 -1.1995729596301534e-10 -6.4464515990458245e-05 9.3985731108426599e-06 -3.0379448547039256e-10 -7.7879282451970698e-05 9.8786135939174945e-06 -2.0798744873770384e-10 -9.3750799459136317e-05 4.5754484152052168e-06 -2.0386481023929162e-10 -9.375074425152883e-05 1.5651745605378535e-05 -1.9234266517002272e-10 -7.3205476020850045e-05 9.8210502178948869e-06 -1.1995729596301534e-10 -6.4464515990458245e-05 9.3985731108426599e-06 -3.037944854703925e-10 -7.7879282451970684e-05 9.8786135939174945e-06 -2.0798744873770384e-10 -9.3750799459136317e-05 1.5651745605378535e-05 -1.9234266517002272e-10 -7.3205476020850045e-05 9.3985731108426616e-06 -3.037944854703925e-10 -7.7879282451970698e-05 1.5574217527082468e-05 -3.3049402306628427e-10 -7.7601455638268005e-05 9.8786135939174945e-06 -2.0798744873770384e-10 -9.3750799459136317e-05 1.5651745605378535e-05 -1.9234266517002272e-10 -7.3205476020850045e-05 1.2380216437080235e-05 -3.5025148022830033e-10 -6.2882337885788141e-05 9.3985731108426633e-06 -3.0379448547039261e-10 -7.7879282451970698e-05 1.5574217527082471e-05 -3.3049402306628432e-10 -7.7601455638268019e-05 1.5927496455618184e-05 -2.4239306131396246e-10 -9.3750897834653035e-05 1.5574217527082471e-05 -3.3049402306628432e-10 -7.7601455638268005e-05 1.2500306858094302e-05 -3.8664393901486666e-10 -9.3750867991639937e-05 9.8786135939174945e-06 -2.0798744873770384e-10 -9.3750799459136317e-05 9.3985731108426599e-06 -3.0379448547039256e-10 -7.7879282451970698e-05 1.5574217527082471e-05 -3.3049402306628432e-10 -7.7601455638268005e-05 1.2500306858094301e-05 -3.8664393901486661e-10 -9.3750867991639923e-05 9.8786135939174945e-06 -2.0798744873770384e-10 -9.3750799459136317e-05 1.5927496455618184e-05 -2.4239306131396246e-10 -9.3750897834653035e-05 1.5651745605378535e-05 -1.9234266517002272e-10 -7.3205476020850045e-05 1.5574217527082471e-05 -3.3049402306628432e-10 -7.7601455638268005e-05 9.8786135939174945e-06 -2.0798744873770384e-10 -9.3750799459136317e-05 1.5927496455618184e-05 -2.4239306131396246e-10 -9.3750897834653035e-05 1.5651745605378531e-05 -1.9234266517002272e-10 -7.3205476020850045e-05 1.431669578320205e-05 -1.3145605812148519e-10 -9.3750865619880966e-05 9.8786135939174945e-06 -2.0798744873770384e-10 -9.3750799459136317e-05 9.3985731108426599e-06 -3.0379448547039256e-10 -7.7879282451970698e-05 1.2500306858094301e-05 -3.8664393901486661e-10 -9.3750867991639923e-05 9.8786135939174945e-06 -2.0798744873770384e-10 -9.3750799459136317e-05 6.2501599514008321e-06 -3.0279703508473282e-10 -9.3750776904953607e-05 1.4367842336366753e-15 -1.1220455092119339e-10 -7.5788219930339023e-05 9.8210502178948869e-06 -1.1995729596301534e-10 -6.4464515990458245e-05 -4.9209574354707021e-15 -2.3415668165742659e-10 -6.5045576787401408e-05 -4.0426000338067823e-15 -2.0929587784884763e-10 -8.0024861201888806e-05 5.2906818504149369e-06 -1.1754297719865078e-10 -9.3750755763133962e-05 9.8210502178948886e-06 -1.1995729596301534e-10 -6.4464515990458245e-05 9.8786135939174945e-06 -2.0798744873770384e-10 -9.3750799459136317e-05 4.5754484152052168e-06 -2.0386481023929162e-10 -9.375074425152883e-05 9.3985731108426599e-06 -3.0379448547039256e-10 -7.7879282451970698e-05 6.2501599514008321e-06 -3.0279703508473282e-10 -9.3750776904953607e-05 4.575416124160555e-06 -2.4288295376967748e-10 -8.0024884586573036e-05 4.5754484152052168e-06 -2.0386481023929162e-10 -9.375074425152883e-05 9.8210502178948869e-06 -1.1995729596301534e-10 -6.4464515990458245e-05 9.3985731108426599e-06 -3.0379448547039256e-10 -7.7879282451970698e-05 4.575416124160555e-06 -2.4288295376967748e-10 -8.0024884586573023e-05 4.5754484152052253e-06 -2.0386481023929175e-10 -9.3750744251528857e-05 9.3985731108426599e-06 -3.0379448547039256e-10 -7.7879282451970698e-05 9.8786135939174945e-06 -2.0798744873770384e-10 -9.3750799459136317e-05 6.2501599514008321e-06 -3.0279703508473282e-10 -9.3750776904953607e-05 4.5754484152052168e-06 -2.0386481023929162e-10 -9.375074425152883e-05 9.8210502178948869e-06 -1.1995729596301534e-10 -6.4464515990458245e-05 5.8810402510651086e-06 -3.1567040294084559e-10 -6.4092312119480729e-05 9.3985731108426599e-06 -3.0379448547039256e-10 -7.7879282451970698e-05 4.575416124160555e-06 -2.4288295376967748e-10 -8.0024884586573036e-05 5.2906818504149369e-06 -1.1754297719865078e-10 -9.3750755763133962e-05 9.8210502178948869e-06 -1.1995729596301532e-10 -6.4464515990458245e-05 4.5754484152052168e-06 -2.0386481023929162e-10 -9.375074425152883e-05 -4.0426000338067823e-15 -2.0929587784884763e-10 -8.0024861201888806e-05 9.8210502178948869e-06 -1.1995729596301534e-10 -6.4464515990458245e-05 4.5754161241605524e-06 -2.4288295376967753e-10 -8.0024884586573023e-05 4.5754484152052177e-06 -2.0386481023929157e-10 -9.375074425152883e-05 -4.042605833333938e-15 -2.0929587784884766e-10 -8.0024861201888792e-05 9.8210502178948869e-06 -1.1995729596301534e-10 -6.4464515990458245e-05 -4.9209578862493717e-15 -2.3415668165742659e-10 -6.5045576787401408e-05 4.575416124160555e-06 -2.4288295376967748e-10 -8.0024884586573036e-05 -4.04260446440052e-15 -2.0929587784884753e-10 -8.0024861201888806e-05 1.4367842336366753e-15 -1.1220455092119339e-10 -7.5788219930339023e-05 5.2906818504149369e-06 -1.1754297719865078e-10 -9.3750755763133962e-05 6.5798888244355565e-15 -1.7959232305897645e-10 -9.3750742564660818e-05 -4.0426000338067823e-15 -2.0929587784884763e-10 -8.0024861201888806e-05 5.2906818504149369e-06 -1.1754297719865078e-10 -9.3750755763133962e-05 4.5754484152052168e-06 -2.0386481023929162e-10 -9.375074425152883e-05 6.5798886213803054e-15 -1.7959232305897645e-10 -9.3750742564660818e-05 -4.0426000338067823e-15 -2.0929587784884763e-10 -8.0024861201888806e-05 -4.9209578862493717e-15 -2.3415668165742659e-10 -6.5045576787401408e-05 5.881040251065106e-06 -3.1567040294084533e-10 -6.4092312119480769e-05 4.5754161241605558e-06 -2.4288295376967753e-10 -8.0024884586573036e-05 9.3674268360793469e-15 -3.4464396163854075e-10 -7.5000835354490245e-05 -4.9209578862493717e-15 -2.3415668165742659e-10 -6.5045576787401408e-05 4.575416124160555e-06 -2.4288295376967748e-10 -8.0024884586573036e-05 -4.0426000338067823e-15 -2.0929587784884761e-10 -8.0024861201888806e-05 9.3674268360793469e-15 -3.4464396163854075e-10 -7.5000835354490245e-05 4.5754484152052168e-06 -2.0386481023929162e-10 -9.375074425152883e-05 6.5798886379128168e-15 -1.7959232305897645e-10 -9.3750742564660818e-05 -4.0426002854039684e-15 -2.0929587784884766e-10 -8.0024861201888806e-05 6.5807351058105292e-15 -3.2673349029184163e-10 -9.3750749670708393e-05 4.575416124160555e-06 -2.4288295376967748e-10 -8.0024884586573036e-05 -4.0425999655277194e-15 -2.0929587784884761e-10 -8.0024861201888806e-05 9.3674268360793469e-15 -3.4464396163854075e-10 -7.5000835354490245e-05 6.5807351058105292e-15 -3.2673349029184163e-10 -9.3750749670708393e-05 6.2501599514008321e-06 -3.0279703508473282e-10 -9.3750776904953607e-05 4.575416124160555e-06 -2.4288295376967748e-10 -8.0024884586573036e-05 4.5754484152052168e-06 -2.0386481023929162e-10 -9.375074425152883e-05 6.5807351058105292e-15 -3.2673349029184163e-10 -9.3750749670708393e-05 4.575416124160555e-06 -2.4288295376967748e-10 -8.0024884586573036e-05 4.5754484152052168e-06 -2.0386481023929162e-10 -9.375074425152883e-05 -4.0426000338067823e-15 -2.0929587784884763e-10 -8.0024861201888806e-05 6.5807351058105292e-15 -3.2673349029184163e-10 -9.3750749670708393e-05 
</DataArray>
</PointData>
<CellData Scalars="" Vectors="" Tensors="effective_stress,">
<DataArray type="Float64" Name="effective_stress" NumberOfComponents="9" format="ascii">
0.093784459664971592 -0.0056404502867838449 -0.050372471015230846 -0.0056404502867838449 -2499.8899051357898 -0.048509022957539949 -0.050372471015230846 -0.048509022957539949 -9999.8479312670734 0.13434840917617788 0.010964281563548152 0.072791709454180176 0.010964281563548152 -2499.882580536701 0.034527416434750241 0.072791709454180176 0.034527416434750241 -9999.8444264883728 0.12006432696717501 0.013143896132275706 0.0040158887937686849 0.013143896132275706 -2499.8246484328929 0.13567734388428362 0.0040158887937686849 0.13567734388428362 -9999.7680563831291 0.14102690339586843 0.020771451399116139 0.013862399376648682 0.020771451399116139 -2499.8487770542806 0.023772046769863664 0.013862399376648682 0.023772046769863664 -9999.8379264090927 0.10905762695642807 -0.00058768126863767423 0.0060809927756508841 -0.00058768126863767423 -2499.8728104783613 -0.03276752675355965 0.0060809927756508841 -0.03276752675355965 -9999.9055301935969 0.11665148406336812 -0.019462477495424957 -0.034551093936443067 -0.019462477495424957 -2499.8628840389656 -0.00029470111758200801 -0.034551093936443067 -0.00029470111758200801 -9999.9054999796135 0.10332475084078396 0.010445577913004177 0.041923492198293388 0.010445577913004177 -2499.9098702088168 0.063528640581580476 0.041923492198293388 0.063528640581580476 -9999.9344900023025 0.077698766505818639 -0.025101412925652537 -0.031438413284490707 -0.025101412925652537 -2499.9281604576722 0.041958515723763412 -0.031438413284490707 0.041958515723763412 -10000.005184159192 0.082697492009856433 -0.0026152183883685117 0.016279431894417939 -0.0026152183883685117 -2499.9039497506728 -0.022671549822007364 0.016279431894417939 -0.022671549822007364 -9999.9953959723862 0.054281457966681046 0.0015557419640093604 0.0038487968788558646 0.0015557419640093604 -2499.9683781271638 0.020721632526147005 0.0038487968788558646 0.020721632526147005 -10000.051367639386 0.096359748591737571 0.0090426586453876568 -0.0052314846479930566 0.0090426586453876568 -2499.9061015171383 -0.017577245026132005 -0.0052314846479930566 -0.017577245026132005 -9999.932269871817 0.10486483829117788 0.013144249766973357 0.0038424939507422096 0.013144249766973357 -2499.9010426816476 -0.0082457337971391098 0.0038424939507422096 -0.0082457337971391098 -9999.9324319396401 0.10946846485603601 0.0043021693361287097 0.0043089437467642711 0.0043021693361287097 -2499.8864199345899 0.005719270982353919 0.0043089437467642711 0.005719270982353919 -9999.932009508686 0.1257836681866138 0.014310323020404995 0.055094557053735116 0.014310323020404995 -2499.8728904955187 -0.010485205469649372 0.055094557053735116 -0.010485205469649372 -9999.8883922279256 0.13471448786958717 0.0059840015399754629 0.043269225382671347 0.0059840015399754629 -2499.8797962025174 -0.044820270610711477 0.043269225382671347 -0.044820270610711477 -9999.8282425759044 0.13140873217207627 0.012088870673671301 -0.058126240528963924 0.012088870673671301 -2499.8112009010792 0.090223337298428741 -0.058126240528963924 0.090223337298428741 -9999.7234476201138 0.13543110254386193 -0.0017364145352112281 -0.022857621159346309 -0.0017364145352112281 -2499.8456179735949 0.117388374981374 -0.022857621159346309 0.117388374981374 -9999.797805555052 0.17700633866661519 0.0088711474594024148 -0.036810904111260867 0.0088711474594024148 -2499.8319356988586 0.059550952927245493 -0.036810904111260867 0.059550952927245493 -9999.7748258125193 0.075110212251274788 -0.0098735165312989481 -0.066140950088879435 -0.0098735165312989481 -2499.895010938591 0.016778368047198455 -0.066140950088879435 0.016778368047198455 -9999.9234665769982 0.090226946402111707 -0.014334925520845233 0.017151933838249533 -0.014334925520845233 -2499.8895783104495 0.017303589913250761 0.017151933838249533 0.017303589913250761 -9999.9165485246831 0.085291564072241449 0.012374145919550543 0.022698482369994999 0.012374145919550543 -2499.9187161735531 0.031834618478273 0.022698482369994999 0.031834618478273 -9999.9532313043837 0.082377123004456293 0.0042870284435108721 0.026071076583848579 0.0042870284435108721 -2499.9134804740347 0.043410771730203662 0.026071076583848579 0.043410771730203662 -9999.9590518880359 0.15407418888052024 0.0051496318589813184 0.019047796688668794 0.0051496318589813184 -2499.8312040002229 0.093353399030796494 0.019047796688668794 0.093353399030796494 -9999.7547603793828 0.1212042658480641 -0.0038339733764604367 0.0082739214458342758 -0.0038339733764604367 -2499.8339874768908 0.084862280164543336 0.0082739214458342758 0.084862280164543336 -9999.7245694929843 0.076719185650290456 0.0052816176569947249 -0.0025007795597957738 0.0052816176569947249 -2499.8884367714536 0.0096532570678391494 -0.0025007795597957738 0.0096532570678391494 -9999.8540116443583 0.069691077091647458 0.0041716135115122781 0.0030036383600418048 0.0041716135115122781 -2499.909295346713 0.023928070416786795 0.0030036383600418048 0.023928070416786795 -9999.8879768353745 0.099739903849695111 -0.0034738517594340335 -0.0051824729557665705 -0.0034738517594340335 -2499.9045538767223 0.0076934053822697024 -0.0051824729557665705 0.0076934053822697024 -9999.8933425955511 0.093008195834045182 0.0047897301515961131 -0.014124862958851736 0.0047897301515961131 -2499.8966516447672 0.0043295263508298376 -0.014124862958851736 0.0043295263508298376 -9999.9121837863167 0.10075885392052442 -0.0024223837571508179 -0.0061654608352910145 -0.0024223837571508179 -2499.8946720289159 0.00120732932282408 -0.0061654608352910145 0.00120732932282408 -9999.8997432253236 0.081131736409588484 -0.018401590225497071 -0.0059634258500409487 -0.018401590225497071 -2499.8798993786704 0.014675763362902217 -0.0059634258500409487 0.014675763362902217 -9999.9267062472209 0.087105410178992315 -0.010434911558185661 0.0056580115174256207 -0.010434911558185661 -2499.9010758974691 0.0070901071044318087 0.0056580115174256207 0.0070901071044318087 -9999.9278833299577 0.1144520956071915 -0.00014872184294277557 -0.025511792008728662 -0.00014872184294277557 -2499.8751848978613 0.015112624374978623 -0.025511792008728662 0.015112624374978623 -9999.8643708299151 0.097225986214624527 -0.0093039024542645524 0.011579742419598915 -0.0093039024542645524 -2499.8821418907191 0.01616325291094256 0.011579742419598915 0.01616325291094256 -9999.873026834819 0.097002191762840084 -0.017781733078968354 -0.0017504949173599016 -0.017781733078968354 -2499.8552100922971 0.028149901445431169 -0.0017504949173599016 0.028149901445431169 -9999.8654008445155 0.091273080119208316 -0.0086258465202140519 -0.0034293347107450245 -0.0086258465202140519 -2499.8887482608443 0.0054122019996611925 -0.0034293347107450245 0.0054122019996611925 -9999.8911234461921 0.083332144500673166 -0.014288708847491137 -4.7923695092322305e-06 -0.014288708847491137 -2499.8988590587505 0.016277833934509545 -4.7923695092322305e-06 0.016277833934509545 -9999.9038198019298 0.10547647391467763 0.0085043300068445918 -0.0083863081472372869 0.0085043300068445918 -2499.8896031029453 0.0071990580781857716 -0.0083863081472372869 0.0071990580781857716 -9999.888753990359 0.095213554977817694 0.0054803537606916627 -0.015140046941723995 0.0054803537606916627 -2499.8940879792572 0.003012034854691592 -0.015140046941723995 0.003012034854691592 -9999.9085952450732 0.10010423645326227 -0.001209559592141524 -0.0049187168010575988 -0.001209559592141524 -2499.8947275425512 -0.0027849952430187841 -0.0049187168010575988 -0.0027849952430187841 -9999.9308343766334 0.11242609888543598 -0.00018251933541369239 -0.0061479857949962025 -0.00018251933541369239 -2499.8851969712041 0.00058487938622420188 -0.0061479857949962025 0.00058487938622420188 -9999.9014046416269 0.11021596289356239 -0.0010685558309006175 -0.0052392103968941228 -0.0010685558309006175 -2499.8849129641167 -0.000237585257423234 -0.0052392103968941228 -0.000237585257423234 -9999.8999784459011 0.12842200544582738 0.019900797892371105 -0.0029550553699664306 0.019900797892371105 -2499.8466327101232 -0.0077579199687534128 -0.0029550553699664306 -0.0077579199687534128 -9999.8801937305434 0.12783487983779196 0.013980845742311128 -0.0027699277147803514 0.013980845742311128 -2499.84860708005 0.0039815833588363603 -0.0027699277147803514 0.0039815833588363603 -9999.8881534403627 0.12292446713399841 0.017823405917698029 -0.0013786043136860826 0.017823405917698029 -2499.8573053952896 -0.00195551575961872 -0.0013786043136860826 -0.00195551575961872 -9999.8915232549189 0.12427439676503127 0.0081676156314405834 -0.0020581649287123582 0.0081676156314405834 -2499.8635582071147 -0.0074549356950228685 -0.0020581649287123582 -0.0074549356950228685 -9999.8956960724645 0.10776840689322853 0.0059453933485387189 -0.0046611035686510149 0.0059453933485387189 -2499.8900737172562 -0.0063572156564077886 -0.0046611035686510149 -0.0063572156564077886 -9999.904502807105 0.11502035252487985 0.0049879175023406254 -0.0024711312598810764 0.0049879175023406254 -2499.8632515600566 -0.012855700315412832 -0.0024711312598810764 -0.012855700315412832 -9999.8985082809995 0.11784502651698858 0.00044510433654872258 0.00019757017747679129 0.00044510433654872258 -2499.8692515324383 -0.019926664698971308 0.00019757017747679129 -0.019926664698971308 -9999.8739492100449 0.10821550576292793 -7.5382541609315262e-05 -8.2452354035922326e-05 -7.5382541609315262e-05 -2499.8876462029057 -0.0029198285164966364 -8.2452354035922326e-05 -0.0029198285164966364 -9999.8976515024297 0.11225515581190848 0.00065789292090646413 -2.4168457457562909e-07 0.00065789292090646413 -2499.8755690582866 -0.013833704465469054 -2.4168457457562909e-07 -0.013833704465469054 -9999.8899892608188 0.11758598849974078 0.0023564380867688636 -0.0025420650247269805 0.0023564380867688636 -2499.8813096787335 -0.0073422851746727247 -0.0025420650247269805 -0.0073422851746727247 -9999.8682562266367 0.11450959437570418 -0.00032966779792388242 0.0022617179349708749 -0.00032966779792388242 -2499.8790537371751 -0.0078606313900309033 0.0022617179349708749 -0.0078606313900309033 -9999.8771143240247 0.11205695510807345 0.0029418737836867169 -0.0015702144033866716 0.0029418737836867169 -2499.8906415642609 -0.012949714112437505 -0.0015702144033866716 -0.012949714112437505 -9999.8850387983657 0.10693522655037668 0.00042929773328760114 -0.0017749838343661395 0.00042929773328760114 -2499.8839711418896 -0.0069538115476461826 -0.0017749838343661395 -0.0069538115476461826 -9999.9059354071815 0.11636802544671809 -0.00013304740524292815 -0.00049170818601851352 -0.00013304740524292815 -2499.8771564058488 -0.0045297590386326192 -0.00049170818601851352 -0.0045297590386326192 -9999.8705299413741 0.07948271700956866 -0.0057294006405346001 0.0054290181387841585 -0.0057294006405346001 -2499.8975978331482 -2.5969873604481108e-05 0.0054290181387841585 -2.5969873604481108e-05 -9999.9239761438221 0.084637305481805925 -0.0029632096842362697 0.006791369760321686 -0.0029632096842362697 -2499.8941916626354 -0.0040087104130179796 0.006791369760321686 -0.0040087104130179796 -9999.8823883009154 0.087916280341232778 -0.011435908773811542 0.0039976831412786851 -0.011435908773811542 -2499.8832898905075 0.0018875151657766764 0.0039976831412786851 0.0018875151657766764 -9999.9218773147841 0.095264060519184568 -0.0023436062856563734 -0.0017235321279258642 -0.0023436062856563734 -2499.8914716248737 -0.00316069841846911 -0.0017235321279258642 -0.00316069841846911 -9999.9114037913168 0.085757085030309099 -0.0066706233210622563 0.0035503965664247517 -0.0066706233210622563 -2499.9043961537272 0.0030378235833268263 0.0035503965664247517 0.0030378235833268263 -9999.9249045808847 0.10002604682267702 -0.0028288094538157574 -0.0053397036435853806 -0.0028288094538157574 -2499.8916770149458 -0.0042193525869151927 -0.0053397036435853806 -0.0042193525869151927 -9999.9058667724676 0.069067359970404141 0.0022602918519936061 0.066838626198659767 0.0022602918519936061 -2499.9078870761923 -0.074714812377806084 0.066838626198659767 -0.074714812377806084 -9999.909392107129 0.10641755025721977 0.0019035971315881717 0.0046523115388481528 0.0019035971315881717 -2499.86153726865 -0.012212068837243351 0.0046523115388481528 -0.012212068837243351 -9999.8329535913144 0.061073395352877924 -0.013855209537853592 -0.0071633135598858644 -0.013855209537853592 -2499.9092295832024 -0.0014116771963017527 -0.0071633135598858644 -0.0014116771963017527 -10000.004150967945 0.096368450427461255 0.010202538460344161 0.097652125594417383 0.010202538460344161 -2499.8765453467786 -0.029017540781964557 0.097652125594417383 -0.029017540781964557 -9999.8619688222934 0.11367054929110054 0.0066105201296208591 -0.032039272658039408 0.0066105201296208591 -2499.874737464952 -0.019959121400461299 -0.032039272658039408 -0.019959121400461299 -9999.8684458695134 0.09046608685935098 -0.0058952329663197883 0.028604098728010285 -0.0058952329663197883 -2499.8737324090207 0.050304757962749136 0.028604098728010285 0.050304757962749136 -9999.9494409473809 0.094622213417892453 -0.0022790551142036351 0.0081911801134992857 -0.0022790551142036351 -2499.8818407508925 0.0025468619437560847 0.0081911801134992857 0.0025468619437560847 -9999.8541636214741 0.10972670370602805 0.0086616265943346982 -0.030873161571804253 0.0086616265943346982 -2499.8750613486659 -0.020927955294597667 -0.030873161571804253 -0.020927955294597667 -9999.8701245991124 0.12122072640522674 0.0085443394203240548 0.018608325688885763 0.0085443394203240548 -2499.8657314940742 -0.016170592046125105 0.018608325688885763 -0.016170592046125105 -9999.8660383078295 0.10064010445830718 0.017983012857327986 0.056483193091987322 0.017983012857327986 -2499.8747693565406 -0.084207163418929226 0.056483193091987322 -0.084207163418929226 -9999.8864047488987 0.096649295914858158 -0.010092918606988233 0.0087042225277400576 -0.010092918606988233 -2499.9070127707068 -0.056653796723765026 0.0087042225277400576 -0.056653796723765026 -9999.9235384389231 0.097952723123967189 -0.001294760693094992 0.0069012606811327259 -0.001294760693094992 -2499.897874584276 -0.0062560589576605707 0.0069012606811327259 -0.0062560589576605707 -9999.924759614667 0.11755362506073652 0.00021219842665475106 0.017861553867533075 0.00021219842665475106 -2499.8769723495184 -0.019844834431687275 0.017861553867533075 -0.019844834431687275 -9999.8995516401465 0.12303928870460368 0.00034416042654938916 -0.029351410104474118 0.00034416042654938916 -2499.8678905169013 -0.019154464181088321 -0.029351410104474118 -0.019154464181088321 -9999.8686942282729 0.13351991065281216 0.0056055882245023333 0.039094474042521199 0.0056055882245023333 -2499.8579549455308 -0.047747978060375174 0.039094474042521199 -0.047747978060375174 -9999.8264029984966 0.14947987574580363 3.6558367590262819e-05 0.064553333876874286 3.6558367590262819e-05 -2499.8609902413518 -0.0098895527042620213 0.064553333876874286 -0.0098895527042620213 -9999.7595236280231 0.1077796490444598 -0.00079311233126347553 0.016809042535442131 -0.00079311233126347553 -2499.9086992334551 -0.0099125755868598731 0.016809042535442131 -0.0099125755868598731 -9999.9087770338629 0.12467841004240654 0.0021502563705486704 0.010457191126079124 0.0021502563705486704 -2499.8927931099051 -0.022811698524037638 0.010457191126079124 -0.022811698524037638 -9999.8639532063717 0.14208418682746898 0.00032663062883287602 0.039925334612016028 0.00032663062883287602 -2499.823637607914 0.022082719901705017 0.039925334612016028 0.022082719901705017 -9999.8149797716942 0.15818873162379682 0.0053317513548819563 0.065398416338535492 0.0053317513548819563 -2499.8296635629567 -0.015540719360978145 0.065398416338535492 -0.015540719360978145 -9999.7501913474298 0.12560767244258386 0.0039053731995167956 0.0025353688160976162 0.0039053731995167956 -2499.88670022424 0.012931165204463468 0.0025353688160976162 0.012931165204463468 -9999.8810768281364 0.10484179601508004 0.0048041112593527231 0.0097736748139141127 0.0048041112593527231 -2499.9065572789104 0.0084611920215138525 0.0097736748139141127 0.0084611920215138525 -9999.9372099203811 0.13236557767004342 -0.0062365280069945524 0.042895500021541855 -0.0062365280069945524 -2499.859674723743 0.014883819827815115 0.042895500021541855 0.014883819827815115 -9999.8230725812336 0.1226840943815907 0.0027537521253751009 -0.056115701576080201 0.0027537521253751009 -2499.8918104131149 0.0030426590635772438 -0.056115701576080201 0.0030426590635772438 -9999.8941178219993 0.12709230084328738 -0.0099470263298052242 0.042348402668949348 -0.0099470263298052242 -2499.8734734731797 0.015907991516542097 0.042348402668949348 0.015907991516542097 -9999.8251349023631 0.11871348918505234 -0.0077343495432573468 0.027162557904781948 -0.0077343495432573468 -2499.8723375964223 0.041632539074679398 0.027162557904781948 0.041632539074679398 -9999.8703055482547 0.11938356876932738 0.0075516853260323147 -0.042998565779385656 0.0075516853260323147 -2499.8743349393822 0.02004295576329157 -0.042998565779385656 0.02004295576329157 -9999.919977311265 0.13629629900509677 0.0045585808265281771 -0.048287238917548825 0.0045585808265281771 -2499.8657185196212 0.022076775774229871 -0.048287238917548825 0.022076775774229871 -9999.8582337071966 0.11685560850833099 0.0070822134709194774 0.018014743913226994 0.0070822134709194774 -2499.8819058012132 0.025940913382271447 0.018014743913226994 0.025940913382271447 -9999.9053191840794 0.13496624746085217 -0.0021635074639001009 0.0026460395069989318 -0.0021635074639001009 -2499.8649217131338 0.014571211321708688 0.0026460395069989318 0.014571211321708688 -9999.8769293890236 0.12789251109552424 0.0018629683689557548 0.0090482241826066456 0.0018629683689557548 -2499.881077026449 0.024474642223253795 0.0090482241826066456 0.024474642223253795 -9999.8628168301875 0.10992781155721332 0.0017032143358328713 0.016535453072918926 0.0017032143358328713 -2499.8969718007688 0.025274789983086521 0.016535453072918926 0.025274789983086521 -9999.9096791301235 0.090127784023707136 0.012147254923249627 -0.00091426078415679513 0.012147254923249627 -2499.8931776682412 0.011476373490950209 -0.00091426078415679513 0.011476373490950209 -9999.9077580325666 0.1188961355610445 0.00088257399684057687 -0.0060801729964623519 0.00088257399684057687 -2499.8893646191946 -0.0001169352516114941 -0.0060801729964623519 -0.0001169352516114941 -9999.8702605764738 0.1216572903240376 -0.0019069910124133449 -0.0049061394836371619 -0.0019069910124133449 -2499.8723006030791 0.01516031237335369 -0.0049061394836371619 0.01516031237335369 -9999.8937065157279 0.10000059614048951 0.0016434695788784138 -0.01381710847681461 0.0016434695788784138 -2499.894870663336 0.0139665582962607 -0.01381710847681461 0.0139665582962607 -9999.890009432127 0.14218512925071991 0.0016673985186005905 0.0062389947452174965 0.0016673985186005905 -2499.8700566291809 0.001762553962180391 0.0062389947452174965 0.001762553962180391 -9999.816663960175 0.10457970053084864 0.00093131083397996611 0.0070921165606705472 0.00093131083397996611 -2499.8824725744216 0.0063675700428120763 0.0070921165606705472 0.0063675700428120763 -9999.8950251180322 0.11274129053720117 -0.0049739397372321019 -0.0014847878510408918 -0.0049739397372321019 -2499.8853692776211 0.0099723037128569558 -0.0014847878510408918 0.0099723037128569558 -9999.8736678014175 0.11049420179188019 0.0011151441764324951 -0.00080367949431092711 0.0011151441764324951 -2499.8933689027745 -0.00041661932507963684 -0.00080367949431092711 -0.00041661932507963684 -9999.8778152807463 0.11729849275707238 0.0014629139380326964 -0.00079164553608279675 0.0014629139380326964 -2499.8731811499938 0.0032382524968852522 -0.00079164553608279675 0.0032382524968852522 -9999.8707865924043 0.11497567965307098 0.0021839124424996733 0.0002547867287603367 0.0021839124424996733 -2499.8750771383002 0.0017604735062377586 0.0002547867287603367 0.0017604735062377586 -9999.8811887467964 0.11409404316373184 0.0010020932902193025 -0.002565404754022893 0.0010020932902193025 -2499.8733641973845 0.011867335378155985 -0.002565404754022893 0.011867335378155985 -9999.8881533585991 0.11760965684788971 0.0020457520485006597 -0.00034127653088944498 0.0020457520485006597 -2499.873270798138 0.0043521621828404022 -0.00034127653088944498 0.0043521621828404022 -9999.8727206725271 0.10571086670393015 0.0094854146223067454 -0.013159788228222169 0.0094854146223067454 -2499.8823424930069 0.00069593755301866622 -0.013159788228222169 0.00069593755301866622 -9999.8984751162589 0.11811360755655187 -0.0020648075491422127 -0.0072752881167161831 -0.0020648075491422127 -2499.8838573449348 0.0030539696833784546 -0.0072752881167161831 0.0030539696833784546 -9999.8975060176981 0.10784271542797796 -0.00161182499605525 -0.0026198586365353549 -0.00161182499605525 -2499.886915902508 0.0037251236335578142 -0.0026198586365353549 0.0037251236335578142 -9999.8999470597628 0.11293583769656834 -7.4541289808435079e-05 -0.00070886964203964453 -7.4541289808435079e-05 -2499.8698887339469 0.0098762137404264649 -0.00070886964203964453 0.0098762137404264649 -9999.8962680568038 0.12244235584330454 -0.015113174968255476 -0.00023503041757066967 -0.015113174968255476 -2499.8445498693818 -0.00027953500102739781 -0.00023503041757066967 -0.00027953500102739781 -9999.8850302241517 0.1284025188861051 -0.014783813449374086 -0.0043702202256099554 -0.014783813449374086 -2499.844883123159 0.0015641055624655564 -0.0043702202256099554 0.0015641055624655564 -9999.8808439145978 0.11761563067011593 -0.0012267635135057992 -0.0072746350588204223 -0.0012267635135057992 -2499.8831514554249 0.0039981700822409039 -0.0072746350588204223 0.0039981700822409039 -9999.8929992135782 0.10634020929344956 0.0093216606752120207 -0.013201191044572624 0.0093216606752120207 -2499.879661659766 0.0024342187812180782 -0.013201191044572624 0.0024342187812180782 -9999.894720738017 0.12680102274271121 -0.010026146014334679 -0.0023084006165845494 -0.010026146014334679 -2499.8611990978766 0.013745614252911764 -0.0023084006165845494 0.013745614252911764 -9999.891464698343 0.10704056698887143 -0.0024456867404757041 0.0049227525219066592 -0.0024456867404757041 -2499.8961698092653 -0.0062421629727396066 0.0049227525219066592 -0.0062421629727396066 -9999.9355008644325 0.11119458191660669 -0.0099885578345511386 -0.00035632763183457428 -0.0099885578345511386 -2499.9023527443906 0.0039793763780835434 -0.00035632763183457428 0.0039793763780835434 -9999.9165405791464 0.10840667486172606 -0.0050369221019471999 0.016199047584531945 -0.0050369221019471999 -2499.8461372972138 -0.12502413267579923 0.016199047584531945 -0.12502413267579923 -9999.8263714810691 0.14234845699296844 -0.018234080831258451 0.0084952155643804872 -0.018234080831258451 -2499.8556408320751 -0.026124840920147108 0.0084952155643804872 -0.026124840920147108 -9999.8409695130413 0.088630123247867232 -0.0065099611792384243 0.046730062621918478 -0.0065099611792384243 -2499.9177699369848 -0.068565073560193923 0.046730062621918478 -0.068565073560193923 -9999.9561200727621 0.10463363020107863 -0.007670925197835736 0.067659460950331096 -0.007670925197835736 -2499.8890286486394 -0.041266784535508888 0.067659460950331096 -0.041266784535508888 -9999.8831980597224 0.10998073127257157 0.00026796889582592076 0.0066300843977842305 0.00026796889582592076 -2499.8893684395189 0.016641074171388937 0.0066300843977842305 0.016641074171388937 -9999.9413682641007 0.075666946031386878 -0.011229518178995805 0.03416721008422588 -0.011229518178995805 -2499.9146505612184 0.051873843640390715 0.03416721008422588 0.051873843640390715 -9999.982953486835 0.049990089151719985 -0.0046320025981060678 0.0063460362962359795 -0.0046320025981060678 -2499.9746536914872 -0.019059187031416513 0.0063460362962359795 -0.019059187031416513 -10000.090015962756 0.097920189519300038 -0.0073391760735936548 0.0057733072158043797 -0.0073391760735936548 -2499.8919271780896 0.0098058682851842605 0.0057733072158043797 0.0098058682851842605 -9999.9338694719972 0.082770697204316207 -0.0033019738263108563 0.029275311994338221 -0.0033019738263108563 -2499.9177718143101 0.058514989602759693 0.029275311994338221 0.058514989602759693 -10000.008444400364 0.11553796826763119 -0.0047278882108374477 -0.0083039129349344876 -0.0047278882108374477 -2499.8896390770633 0.0058278813085053116 -0.0083039129349344876 0.0058278813085053116 -9999.9247138976389 0.12503119201892332 -0.0021435067460316669 -0.00096696340460766805 -0.0021435067460316669 -2499.8750227199339 0.027064720867656433 -0.00096696340460766805 0.027064720867656433 -9999.9065797107032 0.079595001519721278 0.0074857769440210553 -0.08246860113342741 0.0074857769440210553 -2499.949482659315 -0.036141227670530622 -0.08246860113342741 -0.036141227670530622 -10000.038510251225 0.11567796499777411 0.0072154916239829808 -0.064065850747705155 0.0072154916239829808 -2499.8918112188426 0.049095443084610751 -0.064065850747705155 0.049095443084610751 -9999.9455445770636 0.119370273000573 -0.0043478407802971658 -0.075604683241123349 -0.0043478407802971658 -2499.8728830375417 -0.086773803026949023 -0.075604683241123349 -0.086773803026949023 -9999.9198177741509 0.1187964111020392 0.0015011773365509046 -0.012348230537554628 0.0015011773365509046 -2499.8370161831535 -0.042085220162955572 -0.012348230537554628 -0.042085220162955572 -9999.8494766797376 0.096513296514805641 0.015391923475840766 -0.026217622725324269 0.015391923475840766 -2499.9046199455033 -0.0064071310359055944 -0.026217622725324269 -0.0064071310359055944 -9999.9156710568568 0.10050185452382721 0.011785807995278313 -0.026317884256968682 0.011785807995278313 -2499.8957863651071 0.0088028805299700252 -0.026317884256968682 0.0088028805299700252 -9999.9076272738293 0.11608726207714426 -0.010195127874454646 -0.011803210866673908 -0.010195127874454646 -2499.9030906584599 0.015008776653985478 -0.011803210866673908 0.015008776653985478 -9999.9113412802053 0.06997850945481332 0.0063820829271580594 -0.007103779405952082 0.0063820829271580594 -2499.9079915177708 -0.022009679831853646 -0.007103779405952082 -0.022009679831853646 -9999.9674804601855 0.096825717436786363 0.017574102748209707 -0.0021282116395013873 0.017574102748209707 -2499.8987530237528 0.016318554764438886 -0.0021282116395013873 0.016318554764438886 -9999.8608745693127 0.10026165421209043 0.0070328803296870919 -0.0015534075632785971 0.0070328803296870919 -2499.8776337669724 -0.027102519109803325 -0.0015534075632785971 -0.027102519109803325 -9999.8732603347289 0.16791164997475277 0.00075615501246448225 -0.03585100077294362 0.00075615501246448225 -2499.8308489774408 -0.044218762159954184 -0.03585100077294362 -0.044218762159954184 -9999.8141360616664 0.083609865010657813 0.0011467230438457579 0.00799099032877848 0.0011467230438457579 -2499.8986960935404 -0.015756675043121504 0.00799099032877848 -0.015756675043121504 -9999.9013058857963 0.079950592452860292 0.0031994117342212108 0.016050851100017832 0.0031994117342212108 -2499.8763546741725 -0.079745580922744475 0.016050851100017832 -0.079745580922744475 -9999.9345502357501 0.13177571416008504 -0.010180760915787124 0.00092317862117852201 -0.010180760915787124 -2499.8271691508212 -0.089748796787370744 0.00092317862117852201 -0.089748796787370744 -9999.7719876457086 0.14551817526630434 -0.0022689392857092941 0.014745219701248202 -0.0022689392857092941 -2499.8058681117482 -0.077699817872633609 0.014745219701248202 -0.077699817872633609 -9999.7483647633308 0.083325338447139075 -0.0084333389118603636 -0.0043103108546347357 -0.0084333389118603636 -2499.9168932849598 -0.040960271974199713 -0.0043103108546347357 -0.040960271974199713 -9999.8737317340638 0.072067465294367139 -0.0065961877373986906 -0.0056288453526462945 -0.0065961877373986906 -2499.9221224357016 -0.030489068341466918 -0.0056288453526462945 -0.030489068341466918 -9999.9141688358923 0.10212044527270336 0.00066623559129805332 -0.0037083516317579779 0.00066623559129805332 -2499.8743776858082 -0.0055655134420931063 -0.0037083516317579779 -0.0055655134420931063 -9999.9021847123331 0.084913409827436226 0.0073063750789251029 -0.0067898971137765329 0.0073063750789251029 -2499.8816716964584 -0.0012620186698768521 -0.0067898971137765329 -0.0012620186698768521 -9999.9051854375302 0.089898896601880551 -0.025942220865273043 0.00040575463572167791 -0.025942220865273043 -2499.8838375646355 -0.00091880885565842618 0.00040575463572167791 -0.00091880885565842618 -9999.876005905493 0.086020361878127005 0.00046528971035016131 0.0032954436405816523 0.00046528971035016131 -2499.9132813361184 -0.035598752561668334 0.0032954436405816523 -0.035598752561668334 -9999.9083298041132 0.092080560169051751 0.0053085364664685955 -0.015290723429643549 0.0053085364664685955 -2499.8726543379689 -0.0047112959964579204 -0.015290723429643549 -0.0047112959964579204 -9999.8702213610413 0.087211295553970558 0.011893478806060908 0.0048348798827646533 0.011893478806060908 -2499.9318612445159 -0.013914481571191573 0.0048348798827646533 -0.013914481571191573 -9999.9331928937336 0.086216513589533861 -0.022464114065521758 -0.0025024670076163602 -0.022464114065521758 -2499.8979070696287 0.0092895748407499923 -0.0025024670076163602 0.0092895748407499923 -9999.9103597561789 0.11239377818583307 0.0071056655839713337 -0.017913557074280106 0.0071056655839713337 -2499.8749706696881 -0.003906751825070387 -0.017913557074280106 -0.003906751825070387 -9999.8653910132452 0.11555128673535364 0.0081612728371043067 -0.0081584741310507525 0.0081612728371043067 -2499.8759304201394 0.000311203062324239 -0.0081584741310507525 0.000311203062324239 -9999.8872420382031 0.089843080940227082 -0.020351421164786269 -0.0035117222914777813 -0.020351421164786269 -2499.8792302300744 0.017060374339962436 -0.0035117222914777813 0.017060374339962436 -9999.9008724828691 0.094518566727856523 -0.0024531308955399525 -0.0019135634111080435 -0.0024531308955399525 -2499.8897259423557 0.00388631778090609 -0.0019135634111080435 0.00388631778090609 -9999.9139997832044 0.090353455874719657 0.00014928661796755548 0.0023923573944557575 0.00014928661796755548 -2499.8973083491928 -0.00061442178639481426 0.0023923573944557575 -0.00061442178639481426 -9999.9209781919744 0.093136042222795368 -0.0018945774344657641 0.0002655908613178326 -0.0018945774344657641 -2499.8922669251015 0.0015384377920781844 0.0002655908613178326 0.0015384377920781844 -9999.9171927651369 0.086293444814685927 -0.0019946669993830893 0.0078874331024962885 -0.0019946669993830893 -2499.8885268161789 0.0042302440547246078 0.0078874331024962885 0.0042302440547246078 -9999.8823622671825 0.10711774727201373 -0.0015503117009266192 0.0041504370738039142 -0.0015503117009266192 -2499.8674094550502 -0.002815389244005928 0.0041504370738039142 -0.002815389244005928 -9999.8215838737888 0.087028573771724377 -0.0026890135414306127 0.11374272497235938 -0.0026890135414306127 -2499.8772503206064 0.035504973643640463 0.11374272497235938 0.035504973643640463 -9999.8933336126192 0.10052749013435036 0.0031943422597009241 -0.016253414449257875 0.0031943422597009241 -2499.8808032008301 0.013123340208156326 -0.016253414449257875 0.013123340208156326 -9999.8335345407995 0.077264996505732597 -0.00026497547887316462 0.097321195070207978 -0.00026497547887316462 -2499.8971159924631 0.061665054666264041 0.097321195070207978 0.061665054666264041 -9999.9168153871105 0.10529854330321517 0.011265372250550451 -0.0042198678868374806 0.011265372250550451 -2499.858188234663 0.026051157873929254 -0.0042198678868374806 0.026051157873929254 -9999.8443050124151 0.079994900717451856 0.0072027450540004707 0.023792733900791063 0.0072027450540004707 -2499.8813264544324 -0.068036977308111091 0.023792733900791063 -0.068036977308111091 -9999.9600051646103 0.061381581346836356 0.0092796282949542189 -0.01931799712292559 0.0092796282949542189 -2499.9168938670095 -0.0015284515980056312 -0.01931799712292559 -0.0015284515980056312 -10000.01584616812 0.1305935994341911 0.005017711120268711 -0.025238279411912395 0.005017711120268711 -2499.8644428011567 -0.01176970407575223 -0.025238279411912395 -0.01176970407575223 -9999.8694073868628 0.11625464531152829 -0.0045237874734259933 0.071024576092200087 -0.0045237874734259933 -2499.8741502871067 0.087813252986333745 0.071024576092200087 0.087813252986333745 -9999.8279835315207 0.0071689172534661338 0.0021598360224531253 0.079623880038525385 0.0021598360224531253 -2499.9168777813356 0.054241260803792102 0.079623880038525385 0.054241260803792102 -10000.071296722637 0.061386507066686136 -0.0028131829895465645 0.0020095930485695135 -0.0028131829895465645 -2499.9072446873151 0.010265642476497305 0.0020095930485695135 0.010265642476497305 -9999.9966043060595 0.029219718237527559 0.0059661476318819866 -5.8163220955975703e-05 0.0059661476318819866 -2499.9292631571934 -0.002337141833777423 -5.8163220955975703e-05 -0.002337141833777423 -10000.03879937109 0.032679167457445146 -0.006203182659391699 0.066815184234260111 -0.006203182659391699 -2499.9031619366342 0.031601258943356636 0.066815184234260111 0.031601258943356636 -9999.8731643292413 0.047483961437706057 0.00093966311559834717 0.021451585002978391 0.00093966311559834717 -2499.9177222015883 -0.0049622902888586395 0.021451585002978391 -0.0049622902888586395 -10000.012949304051 0.05095530490279998 0.0019817346569211735 0.0056194217295342241 0.0019817346569211735 -2499.9339089353721 0.0014175784747294529 0.0056194217295342241 0.0014175784747294529 -10000.010764855797 0.0397017059378868 -0.0028194524840043193 0.0072611791151757643 -0.0028194524840043193 -2499.9094877402113 -0.024022411954774725 0.0072611791151757643 -0.024022411954774725 -9999.9986134180544 0.075648867264590081 -0.0098512673644437915 9.3802462671099818e-05 -0.0098512673644437915 -2499.8946775772083 0.064266469935828574 9.3802462671099818e-05 0.064266469935828574 -9999.8635690074752 0.024954162046697093 0.0038608365596995257 0.028256463943534982 0.0038608365596995257 -2499.9338086953985 -0.059208863997355365 0.028256463943534982 -0.059208863997355365 -10000.016477875673 0.070257435359053488 0.0062596676826917625 -0.010645613195747666 0.0062596676826917625 -2499.8777033148567 -0.070462693069307913 -0.010645613195747666 -0.070462693069307913 -9999.9252569318269 0.050434421201316582 0.0026677172427767779 0.012336020582657356 0.0026677172427767779 -2499.9320699088698 -0.076087623622283801 0.012336020582657356 -0.076087623622283801 -9999.9304859627082 -0.0054647454763708525 0.0059558621799177779 0.071768128889005869 0.0059558621799177779 -2499.9670543755142 0.020813998130366218 0.071768128889005869 0.020813998130366218 -10000.114715027639 0.092345953008134529 0.0043787519938775395 -0.0045535727103001022 0.0043787519938775395 -2499.8840421747968 -0.0077006574761071533 -0.0045535727103001022 -0.0077006574761071533 -9999.9074985154875 0.083251671513608017 0.00080284494046866273 0.0056526383974073724 0.00080284494046866273 -2499.89656359733 -7.623009878443554e-06 0.0056526383974073724 -7.623009878443554e-06 -9999.9266825694194 0.084797571386843629 0.001393223401788841 0.0062529577784289359 0.001393223401788841 -2499.8947286473294 0.0015261164569437824 0.0062529577784289359 0.0015261164569437824 -9999.9223964056328 0.072827344046345388 0.0035502675833977478 -0.0043197336945013376 0.0035502675833977478 -2499.8960670508832 0.010346459080210479 -0.0043197336945013376 0.010346459080210479 -9999.9284065711799 0.056916389531124878 -0.00088281925467370223 -0.0098738560182027868 -0.00088281925467370223 -2499.9032499479144 -0.00048982431621880096 -0.0098738560182027868 -0.00048982431621880096 -9999.9568423684632 0.075252199076402349 -0.0026036507294715174 0.0047884560531201714 -0.0026036507294715174 -2499.8955425279501 0.0064787263193011313 0.0047884560531201714 0.0064787263193011313 -9999.953518098393 0.094035625956166768 0.01176513050640565 0.0027991442847508097 0.01176513050640565 -2499.8705901574031 -0.0061317758154473267 0.0027991442847508097 -0.0061317758154473267 -9999.9149331493572 0.064663211737752135 -0.0001028364189200816 -0.0065359978078731729 -0.0001028364189200816 -2499.9076782449656 -0.00019410026106925216 -0.0065359978078731729 -0.00019410026106925216 -9999.9538687557924 0.045542200726231385 -0.0033136062752692208 0.008934704549574235 -0.0033136062752692208 -2499.9140235032155 -0.015368950909760315 0.008934704549574235 -0.015368950909760315 -9999.9708698492304 0.060636180157416675 0.0017169651294581811 -0.0083608462409756612 0.0017169651294581811 -2499.9008037094563 -0.013562715422494875 -0.0083608462409756612 -0.013562715422494875 -9999.9398263594849 0.07627921377252278 0.0048105544323904653 -0.0044464506299846107 0.0048105544323904653 -2499.8758479735948 0.00099286851036595181 -0.0044464506299846107 0.00099286851036595181 -9999.9023616071972 0.041720849330886267 0.0047521326638633454 0.0066679165456662304 0.0047521326638633454 -2499.9121294461675 -0.0058447017486287223 0.0066679165456662304 -0.0058447017486287223 -9999.9728129658288 0.067882283058679604 0.022414215333521028 -0.0067295445900299455 0.022414215333521028 -2499.9299466990778 -0.015298903556868026 -0.0067295445900299455 -0.015298903556868026 -9999.9409030849729 0.04452784236309526 0.0043046062337773246 0.0053043924954181421 0.0043046062337773246 -2499.9084651142566 -0.012543483844808634 0.0053043924954181421 -0.012543483844808634 -9999.9639862578661 0.066765800358552951 -0.0031825547549856042 -0.0046456001564365579 -0.0031825547549856042 -2499.9000959241239 -0.01726048153955162 -0.0046456001564365579 -0.01726048153955162 -9999.9335075385952 0.079342604774865322 0.012739909254975146 -0.0068610791950050043 0.012739909254975146 -2499.895319317613 -0.0021098909883221495 -0.0068610791950050043 -0.0021098909883221495 -9999.9054222746345 0.085492756773874135 0.022831960165334148 -0.0058582376259437297 0.022831960165334148 -2499.8937280676369 0.0033569074557817657 -0.0058582376259437297 0.0033569074557817657 -9999.9036829061079 0.064324702671001432 0.0073498358244621703 0.0093376163040375104 0.0073498358244621703 -2499.8779245025744 0.0055220899594132788 0.0093376163040375104 0.0055220899594132788 -9999.9176902741165 0.091769574968566303 0.023288500786763519 -0.010350341811317776 0.023288500786763519 -2499.9021544768093 -0.030667209753573843 -0.010350341811317776 -0.030667209753573843 -9999.8740444211835 0.063118094996525542 -0.0010406395776854649 -0.003520852889323578 -0.0010406395776854649 -2499.9093479129851 -0.016046160011740085 -0.003520852889323578 -0.016046160011740085 -9999.8846183816386 0.07948319670026649 -0.0041857076191057392 0.013433604875444871 -0.0041857076191057392 -2499.8950895750395 -0.028201481887208502 0.013433604875444871 -0.028201481887208502 -9999.8552670038553 0.066627055379512967 -0.0047061752507649192 0.0051943015810138604 -0.0047061752507649192 -2499.9058655836043 -0.025967497750798429 0.0051943015810138604 -0.025967497750798429 -9999.8895674759206 0.0497601924678861 -0.0017698606854538862 -0.0084635417993013107 -0.0017698606854538862 -2499.9284193077406 -0.03117897549137183 -0.0084635417993013107 -0.03117897549137183 -9999.9205672843673 0.057021761108671853 0.0030584178237045706 0.0035706484773072589 0.0030584178237045706 -2499.926888538489 -0.070227014351758044 0.0035706484773072589 -0.070227014351758044 -9999.9120242559475 0.11225686842726645 0.0044632930602998555 -0.01597807383586769 0.0044632930602998555 -2499.8467850157385 -0.093115219613537192 -0.01597807383586769 -0.093115219613537192 -9999.7540037281433 0.14541046470581984 -0.011517789044393031 -0.014108486963440303 -0.011517789044393031 -2499.8211647394678 -0.096925770558424662 -0.014108486963440303 -0.096925770558424662 -9999.7438830311075 0.058548396510130087 -0.011714598920597279 -0.01038283862212408 -0.011714598920597279 -2499.9064563173183 -0.070567243758169473 -0.01038283862212408 -0.070567243758169473 -9999.9353626746361 0.067683693379990473 -0.018784349454812166 -0.0062250538543366929 -0.018784349454812166 -2499.886865824305 -0.029087721264204447 -0.0062250538543366929 -0.029087721264204447 -9999.9076747626641 0.11903522640644115 -0.0030648912719387009 0.044102027519441478 -0.0030648912719387009 -2499.8427811376773 -0.046641568380032472 0.044102027519441478 -0.046641568380032472 -9999.8502604921887 0.12943077941508818 -0.012026567994271598 -0.019876520073494913 -0.012026567994271598 -2499.8174013402986 -0.082791913036675963 -0.019876520073494913 -0.082791913036675963 -9999.7387046132426 0.080380606363178231 0.0033088552558699635 0.013434579330350971 0.0033088552558699635 -2499.8822436493815 -0.023228489761550009 0.013434579330350971 -0.023228489761550009 -9999.8507873467988 0.064822072018614563 -0.015080799093249121 0.040836428726379381 -0.015080799093249121 -2499.9351218105749 0.012377300815614944 0.040836428726379381 0.012377300815614944 -9999.9447843755752 0.0084068981768723461 -0.019403546014920205 0.043873616517601022 -0.019403546014920205 -2500.0066849703808 -0.035847984021074808 0.043873616517601022 -0.035847984021074808 -10000.115846761841 0.038512080167492968 0.0058938332044413348 -0.013183469062141739 0.0058938332044413348 -2499.9570977605226 0.023102996963643818 -0.013183469062141739 0.023102996963643818 -9999.9775525969671 0.074509142538911 0.0053295807986854932 0.028951919502581254 0.0053295807986854932 -2499.9209781876384 -0.11344002855984114 0.028951919502581254 -0.11344002855984114 -9999.8988452332123 0.070293633701785319 0.030120094533765684 0.093447848701795011 0.030120094533765684 -2499.860716948629 -0.066341785749267801 0.093447848701795011 -0.066341785749267801 -9999.7716921842657 -0.00018039595952540344 0.016201111608977387 0.098320965855446904 0.016201111608977387 -2499.943667445566 0.033516438551241395 0.098320965855446904 0.033516438551241395 -10000.014595109353 0.0049793321072684193 0.0032980713579688573 0.10037843998952667 0.0032980713579688573 -2499.9433720856819 0.012633313530841406 0.10037843998952667 0.012633313530841406 -10000.032172505385 0.038653637705806432 0.0047124585387540233 -0.023912492096769711 0.0047124585387540233 -2499.9165774615071 0.0066714133881760063 -0.023912492096769711 0.0066714133881760063 -9999.9592041948017 0.044709882937240764 -0.0020927681015617643 -0.020876926125311002 -0.0020927681015617643 -2499.9102878535109 -0.0048222492860077182 -0.020876926125311002 -0.0048222492860077182 -9999.9632250583491 0.0077675082131107853 0.018192062788565392 -0.033882611637657184 0.018192062788565392 -2499.9545722953571 0.072131129985099296 -0.033882611637657184 0.072131129985099296 -10000.042799337063 0.053388730241067606 0.0057294075683492832 0.0056271717087383877 0.0057294075683492832 -2499.9134177778487 -0.00085618690764022176 0.0056271717087383877 -0.00085618690764022176 -9999.9553748452527 -0.017375444665617579 0.0016457904031762088 -0.0098679230995912803 0.0016457904031762088 -2500.0281921435721 -0.025270755747669682 -0.0098679230995912803 -0.025270755747669682 -10000.146785244789 -0.031189019104383819 -0.00020805497245255863 -0.058476110600045719 -0.00020805497245255863 -2499.9743116462942 0.032136469419043745 -0.058476110600045719 0.032136469419043745 -10000.108141854027 -0.009388663409910819 -0.0019116748248545895 -0.03776479720561543 -0.0019116748248545895 -2499.9619097822692 -0.08231541987824692 -0.03776479720561543 -0.08231541987824692 -10000.017594204819 0.030547934570222424 0.0064032677178543496 -0.00060178876537975157 0.0064032677178543496 -2499.8831778872263 -0.025754762910764839 -0.00060178876537975157 -0.025754762910764839 -9999.8811661779782 0.020367715060389188 -0.01245180510266862 -0.060997394407018887 -0.01245180510266862 -2499.8950077472145 -0.0405099943846704 -0.060997394407018887 -0.0405099943846704 -9999.9253072359188 -0.025007889061543803 0.017307200665063929 -0.0086835569065110141 0.017307200665063929 -2499.9140403970632 -0.14314096560639766 -0.0086835569065110141 -0.14314096560639766 -9999.8731245880354 0.010540751531152637 0.00048628245898657899 -0.013009671340114437 0.00048628245898657899 -2499.9501495466056 0.025992022262926184 -0.013009671340114437 0.025992022262926184 -9999.9820495153217 0.0034749574842862785 -0.015108837404355653 -0.021760495473245101 -0.015108837404355653 -2499.924150784741 -0.0028679122469839058 -0.021760495473245101 -0.0028679122469839058 -9999.9758232647237 0.029686413569834258 -0.014810219418894655 -0.0040414660061287577 -0.014810219418894655 -2499.9274974463824 -0.0090437576200201875 -0.0040414660061287577 -0.0090437576200201875 -9999.9504809478094 0.042050429659866495 -0.0015827806603624164 0.0085748796627740376 -0.0015827806603624164 -2499.9017409692578 -0.012351148698144243 0.0085748796627740376 -0.012351148698144243 -9999.9645807097568 0.026965733343786269 -0.0037146607250160626 -0.0080949563662215951 -0.0037146607250160626 -2499.9072972997383 -0.01059515915665088 -0.0080949563662215951 -0.01059515915665088 -9999.9753336600006 0.026365804774968638 0.0015457899675032152 -0.012000462016658275 0.0015457899675032152 -2499.8987160123506 0.010559641332292813 -0.012000462016658275 0.010559641332292813 -9999.9765801461617 0.033348059549098252 -0.010511193748128346 0.00067798343934555305 -0.010511193748128346 -2499.9209989799228 -0.01683966326618247 0.00067798343934555305 -0.01683966326618247 -9999.9573858256808 0.04424049828776333 -0.016344737775388002 -0.0029094072597217746 -0.016344737775388002 -2499.9115548118989 -0.014556347099642153 -0.0029094072597217746 -0.014556347099642153 -9999.9507278599922 0.022207487651030533 -0.012949890495434907 0.0030445002585111069 -0.012949890495434907 -2499.9216347836045 -0.01568715534722287 0.0030445002585111069 -0.01568715534722287 -9999.9611274140043 0.0074020967585965991 -0.0037705391961689316 -0.0031481878577324096 -0.0037705391961689316 -2499.9435754108099 -0.0026636200809662114 -0.0031481878577324096 -0.0026636200809662114 -9999.9840392980368 0.01987354764992233 -0.0010138277964656384 -0.0055970086505112704 -0.0010138277964656384 -2499.9408146232163 -0.0042747914776555263 -0.0055970086505112704 -0.0042747914776555263 -9999.9797756014596 0.026447404037753586 -0.0044656016998268315 -0.0064942768758555758 -0.0044656016998268315 -2499.9236113326042 0.0006436646781367017 -0.0064942768758555758 0.0006436646781367017 -9999.9753421742607 0.019552835726926787 0.00060598753883382706 -0.015590481537856249 0.00060598753883382706 -2499.9225695445866 0.012778896891177283 -0.015590481537856249 0.012778896891177283 -9999.9801978647411 0.033300093222351279 -0.0057552963971871573 -0.0082611697525862837 -0.0057552963971871573 -2499.9097475306726 0.0021463274861162063 -0.0082611697525862837 0.0021463274861162063 -9999.9617405729496 0.03069674444031989 -0.0019076626366659587 -0.0066490449121374695 -0.0019076626366659587 -2499.9101866320007 0.0043674940861819778 -0.0066490449121374695 0.0043674940861819778 -9999.971169750208 0.03034488839966798 -0.0043104817976724382 -0.0063130499652288563 -0.0043104817976724382 -2499.9110017864955 0.0013466513528328505 -0.0063130499652288563 0.0013466513528328505 -9999.9651142196872 0.033467769219896581 -0.0034742682026210597 -0.0084644526573356416 -0.0034742682026210597 -2499.9089913232947 0.0053447310247065616 -0.0084644526573356416 0.0053447310247065616 -9999.9678752794898 0.031678229834142257 -0.0064374982613025159 -0.010116173538108342 -0.0064374982613025159 -2499.9063787907176 -0.0001704174765109201 -0.010116173538108342 -0.0001704174765109201 -9999.968685023885 0.027469318860767089 -0.0035668723346968618 -0.01116738250675553 -0.0035668723346968618 -2499.9155958769875 0.0013698810498681269 -0.01116738250675553 0.0013698810498681269 -9999.985987165448 0.027795131346920243 -0.003484770725878549 -0.012384352115532238 -0.003484770725878549 -2499.9085490856037 0.0019129613615405106 -0.012384352115532238 0.0019129613615405106 -9999.9902060317982 0.020184147959298571 0.00027006311058460134 -0.012303942632570397 0.00027006311058460134 -2499.9191688935762 0.0044340664826449938 -0.012303942632570397 0.0044340664826449938 -9999.969297640444 0.023641756992219598 -0.00027394885954934152 -0.011989767132945417 -0.00027394885954934152 -2499.9160999119313 0.011746540870632316 -0.011989767132945417 0.011746540870632316 -9999.9581233180907 0.017157036446974416 0.004848926812968956 -0.01191130490087744 0.004848926812968956 -2499.9207734042857 0.010549043408445868 -0.01191130490087744 0.010549043408445868 -9999.9673960356195 0.012535890394094779 -0.0056299168295933302 -0.0074625257517296414 -0.0056299168295933302 -2499.9217852411639 -0.0010861987579648541 -0.0074625257517296414 -0.0010861987579648541 -10000.030162533543 0.029446647439954177 -0.0051843001721031106 -0.012675077740368579 -0.0051843001721031106 -2499.9002360840414 0.0080116505887417588 -0.012675077740368579 0.0080116505887417588 -9999.9675373096052 0.018380520788696231 0.0067129126052372749 -0.022636533488821442 0.0067129126052372749 -2499.9127076978498 0.024278493892779807 -0.022636533488821442 0.024278493892779807 -9999.9452989086785 -0.0084382207797268211 -0.0086652424182454765 -0.053501038822169 -0.0086652424182454765 -2499.9350066599895 0.0031254135111588588 -0.053501038822169 0.0031254135111588588 -10000.065889391146 0.021387096081525669 -0.0079051704852694804 -0.034366995143955137 -0.0079051704852694804 -2499.9313949471789 -0.0019460383664409164 -0.034366995143955137 -0.0019460383664409164 -10000.075932003194 0.026525923978169885 -0.0071132095014987858 -0.011946475495278719 -0.0071132095014987858 -2499.9107066454526 0.0072129772912603585 -0.011946475495278719 0.0072129772912603585 -9999.9689781554098 -0.0066341904808717017 0.013740884260387574 -0.035529186846628952 0.013740884260387574 -2499.9368171300061 0.064343594405203458 -0.035529186846628952 0.064343594405203458 -9999.986838202025 0.0012374481141370561 0.012979778219959454 -0.022963723197637703 0.012979778219959454 -2499.9432733918056 0.023080634342960232 -0.022963723197637703 0.023080634342960232 -9999.9832876303499 -0.022884204305005276 0.010365445876482422 -0.068467224723965603 0.010365445876482422 -2499.9596493511613 0.024570826535676271 -0.068467224723965603 0.024570826535676271 -10000.026136190751 0.017926042149085386 0.0078226038993377892 0.012544303721478245 0.0078226038993377892 -2499.9383182439124 -0.080616758285698517 0.012544303721478245 -0.080616758285698517 -9999.9300925277803 -0.0057895761663093459 0.020446811334143934 -0.037795464860198108 0.020446811334143934 -2499.9426218039139 0.020845392219531605 -0.037795464860198108 0.020845392219531605 -9999.9326084350796 0.014533556211045406 -0.0083067961299627263 -0.017600182662814379 -0.0083067961299627263 -2499.9327483420648 -0.024410742334702307 -0.017600182662814379 -0.024410742334702307 -10000.010879809817 -0.028269579723220251 0.012182327369556881 -0.026384465369199972 0.012182327369556881 -2499.9417810082873 0.02550846597990529 -0.026384465369199972 0.02550846597990529 -9999.9486475295162 -0.012012185053663416 0.006518583753690025 -0.018902449358620288 0.006518583753690025 -2499.9169070459593 0.011356202950082661 -0.018902449358620288 0.011356202950082661 -9999.9223647443487 0.0050722471714834683 0.0078527435043601393 -0.037190132227299055 0.0078527435043601393 -2499.9038178778783 0.043100115190199406 -0.037190132227299055 0.043100115190199406 -9999.866178859329 0.040054815224721096 0.0069514614069646078 -0.012223086548601714 0.0069514614069646078 -2499.9392745225759 -0.09759670316861957 -0.012223086548601714 -0.09759670316861957 -9999.9099326905343 -0.0062103126439775336 0.0056034326086672991 -0.029615696303985778 0.0056034326086672991 -2499.8875171970526 0.04270495733405491 -0.029615696303985778 0.04270495733405491 -9999.8709870288458 0.0011428647133016057 0.014014178824689597 -0.008729122894409469 0.014014178824689597 -2499.9221547938578 0.0063649661105955602 -0.008729122894409469 0.0063649661105955602 -9999.8089825209136 0.052789061819112248 0.015482601758663429 -0.0042810762552107917 0.015482601758663429 -2499.9137970882275 0.030474992781364563 -0.0042810762552107917 0.030474992781364563 -9999.8893397500487 0.012671841760748384 -0.0019286359541353085 -0.030957949004460916 -0.0019286359541353085 -2499.9066527690406 0.047097188780940928 -0.030957949004460916 0.047097188780940928 -9999.9735393204974 0.025653617131345893 -0.0056174402200826765 -0.0118652363373658 -0.0056174402200826765 -2499.8972732986726 0.0429669619945382 -0.0118652363373658 0.0429669619945382 -9999.9546754586027 0.036966102534673695 0.0018016221568541704 -0.0081893944493221169 0.0018016221568541704 -2499.929293653759 0.020989162454257852 -0.0081893944493221169 0.020989162454257852 -9999.8712300482821 0.015674833307457448 -0.0013358579361123814 -0.017637814977888411 -0.0013358579361123814 -2499.947753469708 0.0054508702463493819 -0.017637814977888411 0.0054508702463493819 -9999.9261492669157 -0.0023970137731293695 -0.001024061505176279 0.014334738921023091 -0.001024061505176279 -2499.8764319407683 -0.037407841999140434 0.014334738921023091 -0.037407841999140434 -9999.8851564689357 -0.00058615709993950493 -0.023516910262876466 -0.024570883621684969 -0.023516910262876466 -2499.9381037409303 -0.082920966024336018 -0.024570883621684969 -0.082920966024336018 -9999.8031485074771 -0.014205906339611829 -0.041106614770668071 -0.045122511976216084 -0.041106614770668071 -2499.9229251541883 -0.020045422771545418 -0.045122511976216084 -0.020045422771545418 -9999.9125702621859 0.038111253318675153 0.030958860625260147 0.020457560769045813 0.030958860625260147 -2499.8883644860853 -0.0037391631035461614 0.020457560769045813 -0.0037391631035461614 -9999.9652537258953 0.049314459578909009 0.013757088736487649 0.0487441425497806 0.013757088736487649 -2499.914000809059 -0.077723463453620883 0.0487441425497806 -0.077723463453620883 -9999.8400410307058 0.026453168338775868 -0.0082567029476493699 -0.025268671530284337 -0.0082567029476493699 -2499.9124041520708 -0.041888626494028358 -0.025268671530284337 -0.041888626494028358 -9999.947757356862 0.01984012061757312 -0.011379892794636528 -0.021646077145760501 -0.011379892794636528 -2499.9349484480576 -0.038326877193071596 -0.021646077145760501 -0.038326877193071596 -10000.032886601159 0.044264598961490265 -0.0037616870513548818 -0.0061890725241937616 -0.0037616870513548818 -2499.9355031436053 -0.022103762374626967 -0.0061890725241937616 -0.022103762374626967 -9999.9859873178175 0.010835055609277333 0.0013826333077491502 -0.013872976320726593 0.0013826333077491502 -2499.9832051094686 0.0060721467198163737 -0.013872976320726593 0.0060721467198163737 -10000.081962979843 -0.0027043129862249771 0.013991175573987271 0.060695775967502641 0.013991175573987271 -2499.9528093786043 0.039813763123675017 0.060695775967502641 0.039813763123675017 -10000.008912901758 0.010952722474030452 0.0034745650370817879 -0.0097968251843667531 0.0034745650370817879 -2499.9316377220157 -0.021277873214330612 -0.0097968251843667531 -0.021277873214330612 -9999.9939757397296 -0.00085172962008073227 0.0070264673914789029 -0.019164791413004423 0.0070264673914789029 -2499.9181077034036 -0.0052243401864870975 -0.019164791413004423 -0.0052243401864870975 -9999.9790364782348 -0.032570553364621446 -0.010222800905710358 -0.017534670636489724 -0.010222800905710358 -2499.8816997125759 0.09326499475341643 -0.017534670636489724 0.09326499475341643 -9999.9217626226055 0.02386535448126087 5.1116556719799089e-05 -5.9567787502601277e-05 5.1116556719799089e-05 -2499.8854571137867 0.014429770037999626 -5.9567787502601277e-05 0.014429770037999626 -9999.9224531217642 -0.022650275170858686 -0.024831586174266715 -0.048554253247088452 -0.024831586174266715 -2499.9193375314394 0.0056433350574726648 -0.048554253247088452 0.0056433350574726648 -9999.8902950072807 0.0016485796132725827 0.0028849837355484631 -0.02307249602941347 0.0028849837355484631 -2499.9278617052128 0.047536606555912742 -0.02307249602941347 0.047536606555912742 -10000.005215835314 0.050533036957176591 0.021607309347094483 0.0054583287042078155 0.021607309347094483 -2499.8527984272641 0.025696214951949514 0.0054583287042078155 0.025696214951949514 -9999.9250782720119 0.011676884705036319 0.0014362025763115793 0.047035872677921337 0.0014362025763115793 -2499.9058804143933 0.05828690540974743 0.047035872677921337 0.05828690540974743 -9999.9846772598867 0.063595402689315961 0.0053738745929546895 -0.0046868245467521774 0.0053738745929546895 -2499.890114982813 0.0058788159217328939 -0.0046868245467521774 0.0058788159217328939 -9999.9459579952418 0.037101632535723184 0.034195277685349204 0.018586936707322366 0.034195277685349204 -2499.8999232254555 0.0062519067141693085 0.018586936707322366 0.0062519067141693085 -9999.9533703348516 0.066455539592034235 -0.0099403078086508709 0.02728997410031006 -0.0099403078086508709 -2499.907964473729 0.010131142101738072 0.02728997410031006 0.010131142101738072 -9999.9101576704816 0.12694063672057415 0.0057737289766775224 0.045440344425667578 0.0057737289766775224 -2499.8478060441576 0.078865874570874572 0.045440344425667578 0.078865874570874572 -9999.8075856239429 0.079112213381533153 -0.011191197650137354 -0.0068137919094873323 -0.011191197650137354 -2499.8882703936533 0.031713850532976096 -0.0068137919094873323 0.031713850532976096 -9999.8583017256078 0.091087795285587969 -0.011277880667924896 0.014451258029616262 -0.011277880667924896 -2499.9006017751494 0.048676761438196381 0.014451258029616262 0.048676761438196381 -9999.8906135165234 0.10415326605487962 -0.0053344890776376719 0.022691302644489042 -0.0053344890776376719 -2499.8758821752581 0.0069850016161581152 0.022691302644489042 0.0069850016161581152 -9999.8383890547611 0.064344810579759742 -0.0049253158876000815 0.026920092157789628 -0.0049253158876000815 -2499.9229907211934 0.030654140595659574 0.026920092157789628 0.030654140595659574 -9999.9589298101164 0.051248277797786956 -0.0065313551665703018 -0.0025860932377678725 -0.0065313551665703018 -2499.9110166530195 0.0016596944950202364 -0.0025860932377678725 0.0016596944950202364 -9999.9472095714682 0.050190138594277699 -0.0083349971393918108 -0.0021706697457922336 -0.0083349971393918108 -2499.9113867258684 0.0079637547454246005 -0.0021706697457922336 0.0079637547454246005 -9999.9509950340016 0.036001344011765468 0.0051078772831904826 -0.049633419856007777 0.0051078772831904826 -2499.9227914862399 0.039206032962283643 -0.049633419856007777 0.039206032962283643 -9999.9386971765725 0.061281588582914992 0.0038104199317367006 -0.0056593254844301555 0.0038104199317367006 -2499.8960828663508 0.012517935328105523 -0.0056593254844301555 0.012517935328105523 -9999.9554702852729 0.040595186214432033 -0.0085801571337204181 -0.050445770141390844 -0.0085801571337204181 -2499.906103106202 -0.010415019666210501 -0.050445770141390844 -0.010415019666210501 -9999.9353739833678 0.055779028155587052 -0.0037511513698991333 -0.026118785581895232 -0.0037511513698991333 -2499.9257460132421 0.025234454006620111 -0.026118785581895232 0.025234454006620111 -9999.9642818661305 0.050747508972790456 -0.0033823662583008884 -0.023409358275387149 -0.0033823662583008884 -2499.9101605214355 -0.003591435587622982 -0.023409358275387149 -0.003591435587622982 -9999.9992894288771 0.060146775760813398 -0.0093447789412870689 0.0042911135078611551 -0.0093447789412870689 -2499.9129927606036 0.019697344020414675 0.0042911135078611551 0.019697344020414675 -10000.007267609028 0.065702939592483744 8.2554238580549721e-05 0.0034801133824657882 8.2554238580549721e-05 -2499.8973434969389 -0.0030901300859511593 0.0034801133824657882 -0.0030901300859511593 -9999.9614748422628 0.065644221282127546 -0.0045412860141955756 0.0062438112553309111 -0.0045412860141955756 -2499.922385688717 0.0026668655882531311 0.0062438112553309111 0.0026668655882531311 -9999.9697272424764 0.037860962893319083 0.0035096247742250519 0.059852630731073331 0.0035096247742250519 -2499.8903720292928 -0.0085794543059946327 0.059852630731073331 -0.0085794543059946327 -9999.88231740841 0.079367740398538444 0.015832274720442911 -0.031974897256896173 0.015832274720442911 -2499.8804802185568 -0.055784541994307921 -0.031974897256896173 -0.055784541994307921 -9999.9016780423462 0.035601002940921528 -0.0006951991811433131 -0.04460157413868221 -0.0006951991811433131 -2499.9080813299743 0.042139450771082831 -0.04460157413868221 0.042139450771082831 -9999.9543079653231 0.071790623601373227 -0.0014154293089984093 -0.0044870968764598729 -0.0014154293089984093 -2499.9016140244976 0.00029555766468547517 -0.0044870968764598729 0.00029555766468547517 -9999.9332097279967 0.060948351856950467 0.0015665050186824715 -0.0094068023545332835 0.0015665050186824715 -2499.9081465624135 0.0033810489328516269 -0.0094068023545332835 0.0033810489328516269 -9999.9425273542529 0.076073007673471693 -0.0035757068588727955 -0.0018203458055268129 -0.0035757068588727955 -2499.8966051295856 -0.0029426393966787145 -0.0018203458055268129 -0.0029426393966787145 -9999.92377460241 0.070254390253353449 -0.0049460149635809957 0.0049958551710460597 -0.0049460149635809957 -2499.9132121730045 0.0084844607827108121 0.0049958551710460597 0.0084844607827108121 -9999.9595705685497 0.079176401412041741 -0.0023311449328968 -0.0030748108861189394 -0.0023311449328968 -2499.8861958610914 0.0018767304788980255 -0.0030748108861189394 0.0018767304788980255 -9999.9247689814783 0.081118799004684661 -0.001868835722388041 0.00037316752423066646 -0.001868835722388041 -2499.8970251192486 -3.6648481909651309e-05 0.00037316752423066646 -3.6648481909651309e-05 -9999.9234397998298 0.044154617404274177 0.0090898437769975811 0.00033914245159394341 0.0090898437769975811 -2499.912846528001 0.0011913127655134303 0.00033914245159394341 0.0011913127655134303 -9999.9557164418111 0.052692954536610159 0.013204257780509002 0.0036867399967377423 0.013204257780509002 -2499.8993470101132 0.011450003728214142 0.0036867399967377423 0.011450003728214142 -9999.926737653499 0.077786602644664526 0.0096913832332114411 0.0017989203493016248 0.0096913832332114411 -2499.8888974120782 0.01418569822135396 0.0017989203493016248 0.01418569822135396 -9999.9295612843853 0.059545403555830489 0.0020333735165347401 -0.0066206287747263559 0.0020333735165347401 -2499.9243269948893 0.020699977770163969 -0.0066206287747263559 0.020699977770163969 -9999.9336694826707 0.06857831989236729 0.0035433747163486663 -0.0071266117738559842 0.0035433747163486663 -2499.8935947297205 0.011158911300753971 -0.0071266117738559842 0.011158911300753971 -9999.9236294236634 0.067532431739891763 0.0045748602276820677 -0.0066702657904897933 0.0045748602276820677 -2499.8975344667906 0.0080983790890059026 -0.0066702657904897933 0.0080983790890059026 -9999.9323140308534 0.064040458309136739 0.0023475000833628433 -0.0089939785821115947 0.0023475000833628433 -2499.900690069765 0.0058507197384187748 -0.0089939785821115947 0.0058507197384187748 -9999.9382728903129 0.081596519442427962 0.0095910274355458028 0.0021017440494688344 0.0095910274355458028 -2499.8810847720306 0.019123552208384353 0.0021017440494688344 0.019123552208384353 -9999.9154138293343 0.080729958385745704 0.0058103749206482452 -0.00081734962805057876 0.0058103749206482452 -2499.8983087594124 0.013399262603343232 -0.00081734962805057876 0.013399262603343232 -9999.9039903686535 0.072443455850589089 0.0096230806455284909 -0.0047149093988991808 0.0096230806455284909 -2499.9096523284024 0.021736971258178528 -0.0047149093988991808 0.021736971258178528 -9999.9275620608059 0.042697157368820626 -0.0024155266049566346 -0.0054193037685763557 -0.0024155266049566346 -2499.9214993372389 0.021562544648077164 -0.0054193037685763557 0.021562544648077164 -9999.9372760854785 0.034049341480567819 0.0023702647416375877 -0.0047162921526364698 0.0023702647416375877 -2499.921776784885 -0.00015325865706472541 -0.0047162921526364698 -0.00015325865706472541 -9999.9566781641188 0.029973075862471887 0.0030885170245497674 -0.013994999819260556 0.0030885170245497674 -2499.9257673403254 -0.0057261323349848681 -0.013994999819260556 -0.0057261323349848681 -9999.9719051325173 0.040610861553432187 0.010777709918464738 -0.0012239803090778878 0.010777709918464738 -2499.9170112022248 0.0028487741910794284 -0.0012239803090778878 0.0028487741910794284 -9999.958883926698 0.027826492027315908 0.0038761710866913428 -0.0080513897319178795 0.0038761710866913428 -2499.9251594126222 0.0012471052223190782 -0.0080513897319178795 0.0012471052223190782 -9999.9636825586185 0.0092676743139747941 -0.0022270827193790477 -0.0053769284913869342 -0.0022270827193790477 -2499.8931839121683 -0.00050981668937311042 -0.0053769284913869342 -0.00050981668937311042 -9999.9604790009544 0.0097179848635278177 -0.008934035655947116 -0.0039031307596815168 -0.008934035655947116 -2499.8984901211697 -0.0073781705905275885 -0.0039031307596815168 -0.0073781705905275885 -9999.962867838316 0.0060506964509841055 -0.006322236025235347 -0.0055521379845231422 -0.006322236025235347 -2499.901602004069 -0.006814890415625996 -0.0055521379845231422 -0.006814890415625996 -9999.9605315289118 0.014786029159949976 0.0019794518357043739 -0.011375508433957293 0.0019794518357043739 -2499.9042706655964 -0.01146781287570775 -0.011375508433957293 -0.01146781287570775 -9999.9598413672429 0.028897031985252397 -0.0018327014354433541 -0.0092198500060476363 -0.0018327014354433541 -2499.9116214928681 -0.0077530452672363026 -0.0092198500060476363 -0.0077530452672363026 -9999.9573491306728 0.023097601390531963 -0.0033857698013262938 -0.0087141925578180235 -0.0033857698013262938 -2499.9295578279521 -0.0065950645703196642 -0.0087141925578180235 -0.0065950645703196642 -9999.9626459986412 0.022108701702109101 0.0031541432614898921 -0.014459316502325237 0.0031541432614898921 -2499.933026377626 0.015864160974842889 -0.014459316502325237 0.015864160974842889 -9999.9825988233715 0.03020243903483788 0.00017199925556207231 -0.0082986409370278125 0.00017199925556207231 -2499.934666064164 -0.0019548882373783272 -0.0082986409370278125 -0.0019548882373783272 -9999.9580888820565 0.032896314414756489 -0.00076474785792898445 -0.005785062414361164 -0.00076474785792898445 -2499.9176855846945 0.0039837411077314755 -0.005785062414361164 0.0039837411077314755 -9999.9512813828151 0.056505529677451705 0.00029121428458509825 -0.0041196721845153661 0.00029121428458509825 -2499.90636890003 -0.016712719840143109 -0.0041196721845153661 -0.016712719840143109 -9999.8794886332744 0.028060234202712309 -0.001170932265263977 -0.0058240276543983782 -0.001170932265263977 -2499.9313868208574 -0.0019262959558545845 -0.0058240276543983782 -0.0019262959558545845 -9999.9612819230115 0.030071192576542671 0.0083721156261425018 -0.014592970517696813 0.0083721156261425018 -2499.9401169514235 0.013934725604258347 -0.014592970517696813 0.013934725604258347 -9999.9355648001583 0.036246141510673624 -0.00015687951327206066 -0.0087459739133919356 -0.00015687951327206066 -2499.9191963562989 0.0047181390345940599 -0.0087459739133919356 0.0047181390345940599 -9999.9465059134927 0.028603899055724469 0.0017531953157080347 -0.017566030353123097 0.0017531953157080347 -2499.905004197572 0.011372124259651173 -0.017566030353123097 0.011372124259651173 -9999.9185364816476 0.023241228575898276 -0.004064709861745338 -0.011426982489865622 -0.004064709861745338 -2499.9209019756745 0.0058396606946189422 -0.011426982489865622 0.0058396606946189422 -9999.9493131807867 0.036074210833248799 0.0033231995491400206 -0.0061754065741297381 0.0033231995491400206 -2499.9157679558139 -1.9308936316519976e-06 -0.0061754065741297381 -1.9308936316519976e-06 -9999.9589465022655 0.034539711451543553 -0.0036420718579773005 -0.0043302133071847493 -0.0036420718579773005 -2499.9261946597826 0.0020889537627226673 -0.0043302133071847493 0.0020889537627226673 -9999.9673675992781 0.014173991497955285 -0.0040565648982938407 -0.0013052396661805687 -0.0040565648982938407 -2499.9229006660935 0.0040837040041878936 -0.0013052396661805687 0.0040837040041878936 -9999.9750574166392 0.027882686644488786 -0.001209280733506915 -0.0067439851682138396 -0.001209280733506915 -2499.9227872700567 0.0014298821633929037 -0.0067439851682138396 0.0014298821633929037 -9999.9661150816482 0.033872336332933628 -0.0074507935171616909 -0.0060192574455868453 -0.0074507935171616909 -2499.931317735929 0.0053789622961630812 -0.0060192574455868453 0.0053789622961630812 -9999.9615269590286 0.034019117012576316 -0.00067613812897288593 -0.010242986019875389 -0.00067613812897288593 -2499.9182737620449 0.0002326523663214175 -0.010242986019875389 0.0002326523663214175 -9999.9545748585369 0.02136928230072499 -0.0025861587301268915 -0.0053003975772298872 -0.0025861587301268915 -2499.9168077370477 0.0014330122867249884 -0.0053003975772298872 0.0014330122867249884 -9999.9627846630447 0.029930532919024699 0.0049132545923584381 -0.0087462863639302668 0.0049132545923584381 -2499.9235320096759 0.0042118545861740131 -0.0087462863639302668 0.0042118545861740131 -9999.9710145602585 0.015290477300823113 -0.0054304751853458417 -0.0042832652598008281 -0.0054304751853458417 -2499.9239034292054 0.0029733057708654087 -0.0042832652598008281 0.0029733057708654087 -9999.9703399107057 0.021564929027590551 -0.0031012985275015552 -0.0046847746998537332 -0.0031012985275015552 -2499.9200997708922 0.0037145747392060002 -0.0046847746998537332 0.0037145747392060002 -9999.9728198625235 0.019901162769201619 -0.0034115532751940458 -0.0085065409584785812 -0.0034115532751940458 -2499.9188244348834 0.0016259056483249879 -0.0085065409584785812 0.0016259056483249879 -9999.9708934246009 0.029634177417392493 -0.0003690599818439444 -0.0058916086327371886 -0.0003690599818439444 -2499.907349506273 -0.0028108370497648139 -0.0058916086327371886 -0.0028108370497648139 -9999.960345094285 0.023082097102701482 -0.003098247841312695 -0.0027518850583874155 -0.003098247841312695 -2499.9162032293571 -0.0010364914169258554 -0.0027518850583874155 -0.0010364914169258554 -9999.9706798718416 0.067065416280456702 0.0095087094493623223 -0.010408375936094671 0.0095087094493623223 -2499.8971455065348 0.00026764749964058865 -0.010408375936094671 0.00026764749964058865 -9999.9436451080783 0.025674267375507043 -0.0025219163260342715 -0.0056541429894423345 -0.0025219163260342715 -2499.9129772724946 0.0017519915309094358 -0.0056541429894423345 0.0017519915309094358 -9999.9588736144506 0.025912369161233073 -0.0021266355113330991 -0.0051207636643084697 -0.0021266355113330991 -2499.91256463848 0.0052026938828930724 -0.0051207636643084697 0.0052026938828930724 -9999.9589185318364 0.02303535075225227 -0.0027246149301306324 -0.0019536043491825694 -0.0027246149301306324 -2499.91615996775 0.0020785857459486579 -0.0019536043491825694 0.0020785857459486579 -9999.9718205714598 0.0067198168508184608 -0.0015714920687668193 0.00087773929499235237 -0.0015714920687668193 -2499.910547544272 0.012831623633246636 0.00087773929499235237 0.012831623633246636 -9999.9695700774173 0.0046375125823487906 -0.0054685077244877867 -0.0058996156622015405 -0.0054685077244877867 -2499.8904485999446 -0.0011075158381572692 -0.0058996156622015405 -0.0011075158381572692 -9999.9694624100666 0.007079655342749902 -0.0082184397510869159 -0.0026032418700197013 -0.0082184397510869159 -2499.8965265107381 -0.005258362438326003 -0.0026032418700197013 -0.005258362438326003 -9999.9582821628537 0.039215279422933236 -0.011694055467985368 -0.0031171365262707695 -0.011694055467985368 -2499.9308892793233 -0.0056418079479954031 -0.0031171365262707695 -0.0056418079479954031 -9999.9594146234977 0.021712436771736066 -0.0039745094218250829 -0.0013307699355209479 -0.0039745094218250829 -2499.9303748310776 -0.0040552165328335832 -0.0013307699355209479 -0.0040552165328335832 -9999.9630175188231 0.066626245416955499 0.018078756192207113 -0.0033700536396281677 0.018078756192207113 -2499.8985825345435 -0.02191496249724878 -0.0033700536396281677 -0.02191496249724878 -9999.9344699140383 0.061149715596911847 0.010941806058641375 -0.0080226324171235319 0.010941806058641375 -2499.8956791096134 -0.026026434446976054 -0.0080226324171235319 -0.026026434446976054 -9999.9408320172552 0.051097390643917606 -0.013792824451763126 -0.007549584051957936 -0.013792824451763126 -2499.9259836927176 -0.0047539058596157702 -0.007549584051957936 -0.0047539058596157702 -9999.9521850794936 0.07543090590115753 0.0065900382298187607 -0.0073697665739018703 0.0065900382298187607 -2499.8921681058055 0.014685236969398829 -0.0073697665739018703 0.014685236969398829 -9999.9339757295747 0.054365541340303025 0.00070014387827969319 -0.0030839947407912405 0.00070014387827969319 -2499.9350388787407 0.0038152303284277878 -0.0030839947407912405 0.0038152303284277878 -9999.948397899032 0.077615504411369329 -0.0013152877105500858 -0.0075711639237852069 -0.0013152877105500858 -2499.8805478584545 -0.00047522438080704887 -0.0075711639237852069 -0.00047522438080704887 -9999.9188761117803 0.056136245821107877 0.0091743841929649746 -0.0049842546261515963 0.0091743841929649746 -2499.9014348876008 0.00097312996689424835 -0.0049842546261515963 0.00097312996689424835 -9999.9533581916185 0.074018189667185652 0.02132281676854357 0.00090322020787425572 0.02132281676854357 -2499.8893507397843 -0.017427812447749602 0.00090322020787425572 -0.017427812447749602 -9999.924302749554 0.073850150474754628 -0.0014180418295146697 -0.0079851856899040285 -0.0014180418295146697 -2499.898878283273 -0.00035603892297331186 -0.0079851856899040285 -0.00035603892297331186 -9999.9231218233508 0.067265768797369674 -0.001066795559052258 -0.0015141614852467455 -0.001066795559052258 -2499.9064385965576 -0.0016935699204623234 -0.0015141614852467455 -0.0016935699204623234 -9999.9462651939102 0.074707679013954476 -0.00070483212804226035 -0.0018027705334588973 -0.00070483212804226035 -2499.8981495395283 0.0051883836058550514 -0.0018027705334588973 0.0051883836058550514 -9999.9243223608864 0.067067593268120618 -0.00052954674419860301 -0.0096611770713934675 -0.00052954674419860301 -2499.9057784521219 0.00073517548480594996 -0.0096611770713934675 0.00073517548480594996 -9999.947971642363 0.074307781419520325 -0.00058565603034431695 -0.0074867450098281552 -0.00058565603034431695 -2499.8955839939072 -0.0015766017950227251 -0.0074867450098281552 -0.0015766017950227251 -9999.9236075294903 0.063114568594755838 0.0014219703298462547 -0.003110254868715856 0.0014219703298462547 -2499.9073635432724 0.0010630743322224134 -0.003110254868715856 0.0010630743322224134 -9999.9411985636762 0.09473204059577256 0.00024414644192698176 -0.01146697863805457 0.00024414644192698176 -2499.8876232455641 0.00094616797173330269 -0.01146697863805457 0.00094616797173330269 -9999.9147068136299 0.057384860987440334 0.0080243235102421227 -0.010298223110112303 0.0080243235102421227 -2499.9132106798079 -0.0014604648749809712 -0.010298223110112303 -0.0014604648749809712 -9999.9436584940522 0.068834375482765608 -0.0032735815801661662 -0.0038925392709643347 -0.0032735815801661662 -2499.9021298071034 -0.0011639850499705062 -0.0038925392709643347 -0.0011639850499705062 -9999.9347118808528 0.062988357909034676 0.010816370552100947 -0.0061190593496576184 0.010816370552100947 -2499.908882148763 0.0051789624685625313 -0.0061190593496576184 0.0051789624685625313 -9999.9396157228766 0.081307433269103058 0.0011396185275774559 -0.0016418418244938948 0.0011396185275774559 -2499.8945975302536 0.00032070984343590681 -0.0016418418244938948 0.00032070984343590681 -9999.9289128502642 0.069389511394547299 -0.0019470776013599349 -0.011160737309182878 -0.0019470776013599349 -2499.9077972549294 0.0047442040086025372 -0.011160737309182878 0.0047442040086025372 -9999.9424175712775 0.069756484914250905 0.0011006715189081377 -0.00054618093963654246 0.0011006715189081377 -2499.9001209457874 -0.0008084156420409272 -0.00054618093963654246 -0.0008084156420409272 -9999.9342847923399 0.06489535172295291 0.0012848173224567945 -0.0043614785045065219 0.0012848173224567945 -2499.9073035774854 -0.0016785273728601169 -0.0043614785045065219 -0.0016785273728601169 -9999.9452522473584 0.062421325454124599 0.0031477281697206774 -0.0076882408902747557 0.0031477281697206774 -2499.9065938569929 0.0025686937442515045 -0.0076882408902747557 0.0025686937442515045 -9999.94660418903 0.092845670510655509 0.0028593862905408537 -0.0092262319740257226 0.0028593862905408537 -2499.8891222837456 0.00045140950533095747 -0.0092262319740257226 0.00045140950533095747 -9999.9161173689354 0.080604523383954074 0.00029828777596150463 -0.0076404237515816931 0.00029828777596150463 -2499.8940480521906 0.0011892611018993193 -0.0076404237515816931 0.0011892611018993193 -9999.9205057336731 0.098509966073834221 -0.0014719075096293541 -0.010979931514157215 -0.0014719075096293541 -2499.8778873801821 -0.00038499764559674077 -0.010979931514157215 -0.00038499764559674077 -9999.9113915121161 0.07682168462088157 0.0071648718525310559 -0.0083509347132348921 0.0071648718525310559 -2499.9021282610593 -0.0039896214420878096 -0.0083509347132348921 -0.0039896214420878096 -9999.9241771123179 0.061675522192672361 -0.00018099385535084826 -0.014592955380976491 -0.00018099385535084826 -2499.9155305226159 0.00053623727217200212 -0.014592955380976491 0.00053623727217200212 -9999.9481458499649 0.060031665814676671 0.0023057432239826509 -0.0008192645927920239 0.0023057432239826509 -2499.9141422716039 0.00072104439459508285 -0.0008192645927920239 0.00072104439459508285 -9999.940322923354 0.064031506499304669 0.0013515749825222731 -0.00098692340725392569 0.0013515749825222731 -2499.9027201182435 0.0026994866275344975 -0.00098692340725392569 0.0026994866275344975 -9999.9359147638061 0.080898514343061834 0.0061541741143504858 -0.0086189360918069724 0.0061541741143504858 -2499.8909712344266 -0.0020712684745376464 -0.0086189360918069724 -0.0020712684745376464 -9999.9197330116167 0.052012918698892463 -0.010557177941748444 -0.0045711245038546622 -0.010557177941748444 -2499.8853143416745 0.02668289760913467 -0.0045711245038546622 0.02668289760913467 -9999.9339435015427 0.083031194886643789 0.0066203665068170214 -0.010855679644009797 0.0066203665068170214 -2499.8923547824725 0.014282117266702699 -0.010855679644009797 0.014282117266702699 -9999.9292564774114 0.082562739941749896 0.0089923537210087334 -0.0052014950815646444 0.0089923537210087334 -2499.8989988525946 -0.0013141691470082151 -0.0052014950815646444 -0.0013141691470082151 -9999.9204697005953 0.084211090636017616 0.0022583488566671472 0.0021010344498790801 0.0022583488566671472 -2499.8790137866872 -0.0036195436787238577 0.0021010344498790801 -0.0036195436787238577 -9999.9291817198537 0.11176359116871026 0.0057654037959737892 -0.0050881976821983699 0.0057654037959737892 -2499.8714141574637 -0.0037091941467224387 -0.0050881976821983699 -0.0037091941467224387 -9999.9177219747035 0.079806205816566944 6.8536054157915249e-05 -0.002167272505175788 6.8536054157915249e-05 -2499.8851186895445 -0.0071054528289096197 -0.002167272505175788 -0.0071054528289096197 -9999.9379030492782 0.062566977194364881 0.01127975321228087 -0.0047557086072629318 0.01127975321228087 -2499.904146360961 -0.0016793935064924881 -0.0047557086072629318 -0.0016793935064924881 -9999.94723117174 0.051654159720783355 0.0065289244618675262 -0.0019981185953383829 0.0065289244618675262 -2499.9202063788871 0.011910251665540272 -0.0019981185953383829 0.011910251665540272 -9999.9504770378699 0.051726438199693803 0.0044770400324503313 -0.0071089502630456991 0.0044770400324503313 -2499.9205969556533 0.0041013010250026127 -0.0071089502630456991 0.0041013010250026127 -9999.9510606486147 0.047923725274813478 0.0029792148641099806 -0.0092874113361176569 0.0029792148641099806 -2499.9248257344425 -0.0017707433871692047 -0.0092874113361176569 -0.0017707433871692047 -9999.9580632770194 0.018990812412084779 0.0043346522694075601 -0.0029456862084771274 0.0043346522694075601 -2499.9439206445932 0.020845792545514996 -0.0029456862084771274 0.020845792545514996 -9999.9733767237922 0.03996367982836091 0.013650187440883151 -0.0072056977151078172 0.013650187440883151 -2499.933580465553 0.018484458056263975 -0.0072056977151078172 0.018484458056263975 -9999.9639260522672 0.035318945750987041 0.016412157924033624 -0.00076010156044503674 0.016412157924033624 -2499.9440983131008 -0.0036576942020474235 -0.00076010156044503674 -0.0036576942020474235 -9999.9668655430105 0.047975438690627925 0.0010845457446449734 -0.0022864388120069634 0.0010845457446449734 -2499.9202892019093 0.004065034918312449 -0.0022864388120069634 0.004065034918312449 -9999.9552447267633 0.035219972036429681 0.012122335542203258 0.003975512266606529 0.012122335542203258 -2499.9368616909924 -0.0046391876312554814 0.003975512266606529 -0.0046391876312554814 -9999.9708965028403 0.012815776128263678 -0.009624347133236389 -0.0064880197551246965 -0.009624347133236389 -2499.9378222897121 -0.0052936788724764483 -0.0064880197551246965 -0.0052936788724764483 -9999.9826903972207 0.0098818855440185871 -0.00721846905945598 -0.0042284582377760671 -0.00721846905945598 -2499.9236235955941 -0.011600409706261416 -0.0042284582377760671 -0.011600409706261416 -9999.9778225822956 0.017937243719643448 -0.0013655737129949636 -0.0092768965769209899 -0.0013655737129949636 -2499.9147895592578 0.00087307573630823754 -0.0092768965769209899 0.00087307573630823754 -9999.9817529672728 -4.8882684495765716e-06 -0.014527974552368574 0.0055965512510738336 -0.014527974552368574 -2499.9182768160154 -0.0011951808337471448 0.0055965512510738336 -0.0011951808337471448 -9999.9971213203899 0.0071254518425121205 -0.0060411698883943432 0.0032026888875407167 -0.0060411698883943432 -2499.8984736459515 0.021912003445322625 0.0032026888875407167 0.021912003445322625 -9999.9672314682739 0.000804577528469963 -0.010157215064798584 0.0055272249464906054 -0.010157215064798584 -2499.9222780284945 0.0054456542056868784 0.0055272249464906054 0.0054456542056868784 -9999.9800551429798 0.02457064780901419 -0.0039127611640820577 -0.002803258194035152 -0.0039127611640820577 -2499.92834092462 0.007055112044326961 -0.002803258194035152 0.007055112044326961 -9999.973147369401 0.017467087960540084 -0.0050031045425083381 -0.0017546348499308806 -0.0050031045425083381 -2499.9570308062648 0.0049336140082232305 -0.0017546348499308806 0.0049336140082232305 -9999.9814199913526 0.020989151595131261 -0.0030139394986388231 -0.004604874249707791 -0.0030139394986388231 -2499.9343834396968 -0.00056191383191617206 -0.004604874249707791 -0.00056191383191617206 -9999.9686496160502 0.019482859574054601 -0.0042655720713093565 -0.0030052068341319682 -0.0042655720713093565 -2499.9365856755867 -0.0065124809116241522 -0.0030052068341319682 -0.0065124809116241522 -9999.9769236948487 0.020017292281409027 -0.0024949284052416931 0.00040436889139527921 -0.0024949284052416931 -2499.932013540003 6.5450894908281043e-05 0.00040436889139527921 6.5450894908281043e-05 -9999.9824458863877 0.017720069578444964 -0.0036581307918811742 0.0012094617959519383 -0.0036581307918811742 -2499.9575425418966 -0.00067888761395806796 0.0012094617959519383 -0.00067888761395806796 -9999.9750832536229 0.017405588396286475 -0.0013183851234225153 -0.0045375446698017186 -0.0013183851234225153 -2499.9319297367001 -9.9194392532808706e-05 -0.0045375446698017186 -9.9194392532808706e-05 -9999.9838514872245 0.02071445100591518 -0.0013184631240765222 -0.0011514582838572096 -0.0013184631240765222 -2499.9311507994244 0.0037440529231389519 -0.0011514582838572096 0.0037440529231389519 -9999.9753541036844 0.020540316880669707 0.00013529133929789816 -0.00047638134765293216 0.00013529133929789816 -2499.9297851860351 0.00020873080757155549 -0.00047638134765293216 0.00020873080757155549 -9999.9720193041612 0.040490671643055975 0.0035667282878859728 -0.0048359402735513868 0.0035667282878859728 -2499.9185389052664 0.0016368118340324145 -0.0048359402735513868 0.0016368118340324145 -9999.9523872728168 0.022522573368405574 -0.00092322687606378388 -0.0060660647650365718 -0.00092322687606378388 -2499.930352395435 0.0018441776137478882 -0.0060660647650365718 0.0018441776137478882 -9999.9781392819386 0.049273814814114303 0.0012113520816793314 -0.011560039361029339 0.0012113520816793314 -2499.9187411294351 -0.00072717028524493799 -0.011560039361029339 -0.00072717028524493799 -9999.9567743299267 0.031808592862944352 0.00055618153784450883 5.5315157624136191e-05 0.00055618153784450883 -2499.9234301606994 0.0046473585844069021 5.5315157624136191e-05 0.0046473585844069021 -9999.963270215776 0.015859675841056742 -0.00081517014629266769 -0.0054376160878746305 -0.00081517014629266769 -2499.9317671171993 0.00025564148700141232 -0.0054376160878746305 0.00025564148700141232 -9999.9851973997138 0.048392524315204355 0.0013904578976171381 -0.010693612162867794 0.0013904578976171381 -2499.9140490834488 -0.001539828445402236 -0.010693612162867794 -0.001539828445402236 -9999.9561829305894 0.024602679961390095 -0.0016201515926745173 -0.0055855991849966813 -0.0016201515926745173 -2499.9192139468723 0.0055347496736430912 -0.0055855991849966813 0.0055347496736430912 -9999.9730766527791 0.018545527367678005 -0.00058603059501627201 -0.0015439300459547667 -0.00058603059501627201 -2499.9278325507694 0.00075181910324317869 -0.0015439300459547667 0.00075181910324317869 -9999.9722812534819 0.021181066311328323 -0.0014215407495268726 -0.00689215350394079 -0.0014215407495268726 -2499.9283635306983 0.0024908688064897433 -0.00689215350394079 0.0024908688064897433 -9999.9780168520447 0.020339206719654612 -0.0028732529984185728 -0.0045455406775545271 -0.0028732529984185728 -2499.9229239556844 0.0020619889437512029 -0.0045455406775545271 0.0020619889437512029 -9999.9804730835531 0.050893319072201848 0.00032799497971598354 -0.012122276737500215 0.00032799497971598354 -2499.912948564137 0.00070418576069641858 -0.012122276737500215 0.00070418576069641858 -9999.9543739068686 0.049193342611033586 0.0013828992327813746 -0.011787024481236585 0.0013828992327813746 -2499.9160394978844 0.00013267491522128694 -0.011787024481236585 0.00013267491522128694 -9999.9557916816229 0.017627604291192256 0.00064637086312147258 -0.00031727987334306818 0.00064637086312147258 -2499.9282194132284 0.00065449505200376734 -0.00031727987334306818 0.00065449505200376734 -9999.9728255950176 0.013555515182815725 0.00012824397441245968 -0.0042969781334250001 0.00012824397441245968 -2499.9317040618553 0.0013659401702170726 -0.0042969781334250001 0.0013659401702170726 -9999.984342265845 0.013371596898650751 0.00039294278035663724 -0.0047085613005037885 0.00039294278035663724 -2499.9326509934908 0.00016405528458562912 -0.0047085613005037885 0.00016405528458562912 -9999.9861615792324 0.026683424055590876 -0.0040308088774496237 -0.00041069240251090378 -0.0040308088774496237 -2499.9236633543915 0.0017102328185956139 -0.00041069240251090378 0.0017102328185956139 -9999.9622247220796 0.027156942771398462 -0.00032843162695082861 -0.00066646117920754477 -0.00032843162695082861 -2499.9232009982752 0.0011416005709179444 -0.00066646117920754477 0.0011416005709179444 -9999.9619000216153 0.012422061905454029 0.00036641067366930541 -0.005092270277600619 0.00036641067366930541 -2499.9302474387532 0.0011893275986949448 -0.005092270277600619 0.0011893275986949448 -9999.9848887043408 0.027606240422755945 -0.00024302601788019486 -0.00074441555329940456 -0.00024302601788019486 -2499.9221866080625 -0.0013157839580344444 -0.00074441555329940456 -0.0013157839580344444 -9999.9611402284645 0.019959480914621963 -0.0028208276326442266 -0.0075480572359083453 -0.0028208276326442266 -2499.9282627825232 0.0024371515683014877 -0.0075480572359083453 0.0024371515683014877 -9999.981015736128 0.022391607974896033 -0.00031026419409747874 -0.0069701563961643842 -0.00031026419409747874 -2499.9290685044625 0.00088384203627356328 -0.0069701563961643842 0.00088384203627356328 -9999.9820586750284 0.048997488986060489 -0.0017033783522054152 -0.01153895135212224 -0.0017033783522054152 -2499.9146864904669 0.0029008464484832075 -0.01153895135212224 0.0029008464484832075 -9999.9553793445393 0.027594028916610114 -0.0018384242697293447 -0.0023890833799669053 -0.0018384242697293447 -2499.9226990551224 0.0039070692923814931 -0.0023890833799669053 0.0039070692923814931 -9999.9677445529869 0.018358692463152693 0.00062602937956421974 -0.0036681932188002975 0.00062602937956421974 -2499.9281685888545 0.0012283918404136784 -0.0036681932188002975 0.0012283918404136784 -9999.9825357241789 0.018815334389728378 0.001218488630215147 -0.0002153644737745708 0.001218488630215147 -2499.9249907314897 0.0026446131832926767 -0.0002153644737745708 0.0026446131832926767 -9999.9715211526254 0.020477436429700901 0.0013183762916455558 -0.0048220472758657706 0.0013183762916455558 -2499.9168564651977 0.0012405370962369489 -0.0048220472758657706 0.0012405370962369489 -9999.9630800174673 0.034194792571724975 -0.0011411001017301633 -0.0082113312182627851 -0.0011411001017301633 -2499.9078122974952 -0.0039973401561610444 -0.0082113312182627851 -0.0039973401561610444 -9999.9533255653369 0.034950285356899258 0.0029168082871344463 -0.0056355873366555898 0.0029168082871344463 -2499.9108231893197 -0.0052151236122881528 -0.0056355873366555898 -0.0052151236122881528 -9999.9546736391858 0.028871842971994965 0.0035530961080104846 -0.0036717105285788421 0.0035530961080104846 -2499.9241558776021 0.0018770858641801169 -0.0036717105285788421 0.0018770858641801169 -9999.9735412730006 0.028830139901401708 -0.0041924958033502189 -0.0056315664628527884 -0.0041924958033502189 -2499.912891772663 0.0021587604016701789 -0.0056315664628527884 0.0021587604016701789 -9999.971041146433 0.030776621300674378 -0.0033260342326509908 -0.005998889850161504 -0.0033260342326509908 -2499.9193625240691 0.00093159381322038826 -0.005998889850161504 0.00093159381322038826 -9999.9610890617951 0.028201550686873134 -0.001565122406927728 -0.0036987278363085352 -0.001565122406927728 -2499.9255618008833 -0.0032415890727861552 -0.0036987278363085352 -0.0032415890727861552 -9999.9738968236215 0.01826524692842213 0.0014336033489452654 -0.0044199328631293611 0.0014336033489452654 -2499.9225898296809 -0.0024762514240137534 -0.0044199328631293611 -0.0024762514240137534 -9999.9756632861609 0.0176707798013922 0.00061795887969871106 -0.0025966974208131433 0.00061795887969871106 -2499.9185739851914 0.0010491610883036628 -0.0025966974208131433 0.0010491610883036628 -9999.9717001263907 0.017141583972261287 0.002255258835849522 -0.0061331431418238935 0.002255258835849522 -2499.9218913437999 0.0033952337007576716 -0.0061331431418238935 0.0033952337007576716 -9999.9759800665634 0.025649518322666154 -0.0051814778884164518 -0.0039614617608094704 -0.0051814778884164518 -2499.927881434201 0.0053081797268532682 -0.0039614617608094704 0.0053081797268532682 -9999.974985903491 0.028212456179062428 0.0070503251606229026 -0.0033693362274789251 0.0070503251606229026 -2499.9136522669532 -0.0071975395694607869 -0.0033693362274789251 -0.0071975395694607869 -9999.9586214427327 0.058408536387275944 0.002045079688381593 -0.0049470360900158994 0.002045079688381593 -2499.9104351583073 -0.0054325619557857863 -0.0049470360900158994 -0.0054325619557857863 -9999.9505217149599 0.036313100350525929 -0.0002678191276540183 -0.00029446868575178087 -0.0002678191276540183 -2499.9121554880767 -0.003794415462834877 -0.00029446868575178087 -0.003794415462834877 -9999.9618519224387 0.02727995299721897 0.0026618345023809581 -0.004705208035375108 0.0026618345023809581 -2499.9203710885454 5.2647501433966681e-05 -0.004705208035375108 5.2647501433966681e-05 -9999.9729354944557 0.029124333141226089 0.00092345028808997476 -0.0030806936229055282 0.00092345028808997476 -2499.9186345289536 -0.0058155228807663661 -0.0030806936229055282 -0.0058155228807663661 -9999.9598691297106 0.023067452842951752 -0.0028021750521227892 -0.00010428887526359176 -0.0028021750521227892 -2499.9287921568794 0.0050841621468862286 -0.00010428887526359176 0.0050841621468862286 -9999.9776880875615 0.018383126733539257 -0.0013176255298025918 0.00090883247366946307 -0.0013176255298025918 -2499.9419782493001 0.00028404500699252822 0.00090883247366946307 0.00028404500699252822 -9999.9820502954353 0.0012856072520293083 0.0010740446327145159 0.0020520767684502061 0.0010740446327145159 -2499.9283893944953 0.0010992045954481 0.0020520767684502061 0.0010992045954481 -9999.9829465926614 0.011949390467634657 0.0023476608086576561 -0.0036382296111696633 0.0023476608086576561 -2499.9294789232245 0.0042442747972017969 -0.0036382296111696633 0.0042442747972017969 -9999.9815194061885 0.015861559557379223 -0.0032640605247503465 -0.0051284177170600742 -0.0032640605247503465 -2499.9155099159507 0.0070142640915946686 -0.0051284177170600742 0.0070142640915946686 -9999.9638633501017 0.0440702016103387 -0.015738016812940556 0.0021666844750143355 -0.015738016812940556 -2499.9143712419091 -0.0035484610671119299 0.0021666844750143355 -0.0035484610671119299 -9999.9533190740531 0.027416834400355583 -0.0026278270389734348 -0.0047575755706930067 -0.0026278270389734348 -2499.9352913175062 0.0027107809173685382 -0.0047575755706930067 0.0027107809173685382 -9999.9672416076355 0.013622878544993 -0.0032250777840516567 -0.0061895210683360347 -0.0032250777840516567 -2499.9175566389804 0.0058421076355443802 -0.0061895210683360347 0.0058421076355443802 -9999.9705965160247 0.011044139824662125 0.0083478838121570156 0.0061802891686966177 0.0083478838121570156 -2499.8653076184673 -0.024133471184541122 0.0061802891686966177 -0.024133471184541122 -9999.9615084166217 0.016649059830569968 0.0040155147793576856 -0.00092985698438496911 0.0040155147793576856 -2499.9663456786993 -0.006719937824527733 -0.00092985698438496911 -0.006719937824527733 -9999.9895501263964 -0.0031586975237587467 0.015086965624671392 0.0052343187198857777 0.015086965624671392 -2499.9031678956017 -0.0046205256985558663 0.0052343187198857777 -0.0046205256985558663 -9999.9798523420104 0.014987082864536205 -0.001063520854009542 -0.0098170341370860115 -0.001063520854009542 -2499.9213099959343 -0.00029727026776527055 -0.0098170341370860115 -0.00029727026776527055 -9999.9858898064995 0.01624231173627777 0.0012162473354188352 -0.0064497432176722214 0.0012162473354188352 -2499.9211550399959 0.016673761609126814 -0.0064497432176722214 0.016673761609126814 -9999.9723756883322 -0.0022206520989129785 0.017604725986280823 0.0089252960169687867 0.017604725986280823 -2499.9057327156206 -0.0057145515929732937 0.0089252960169687867 -0.0057145515929732937 -9999.9948813056981 0.01107343706098618 0.0076160208429864804 -0.0059334822162782075 0.0076160208429864804 -2499.9461121010063 0.0062634074402012629 -0.0059334822162782075 0.0062634074402012629 -9999.9855657243315 0.016375203877032618 0.0021383354112987293 -0.0060857829121232498 0.0021383354112987293 -2499.9367866396296 0.0020077897024748381 -0.0060857829121232498 0.0020077897024748381 -9999.9851581859111 0.019250706835009623 0.0023440717796113716 -0.0067466970413079252 0.0023440717796113716 -2499.9300023782325 -0.0016575961453781929 -0.0067466970413079252 -0.0016575961453781929 -9999.978795491872 0.028932835914019961 0.002055018877449963 0.00096836573129621684 0.002055018877449963 -2499.9302569348438 0.0015622872278981959 0.00096836573129621684 0.0015622872278981959 -9999.969848852561 0.028445339765312383 0.003674425174392433 -0.0016979412066575605 0.003674425174392433 -2499.9278191048161 -0.0044684047443297459 -0.0016979412066575605 -0.0044684047443297459 -9999.9778341519705 0.049085955861301045 -0.0051266450096016589 -0.0084202621001168154 -0.0051266450096016589 -2499.9121132431565 0.0023869521719461773 -0.0084202621001168154 0.0023869521719461773 -9999.9515950245768 0.031033505134473671 0.0025981866306052613 -0.00022512183932121843 0.0025981866306052613 -2499.9242552070173 -0.0016673101272317581 -0.00022512183932121843 -0.0016673101272317581 -9999.9650082586886 0.02771228963683825 -0.021660493468922903 0.00023559086184832267 -0.021660493468922903 -2499.9408732569464 0.0090411180972296279 0.00023559086184832267 0.0090411180972296279 -9999.9704529644805 0.032821350358972268 -0.019583288072644256 0.0027749489818233997 -0.019583288072644256 -2499.9426175028611 0.0092714249476557598 0.0027749489818233997 0.0092714249476557598 -9999.9679470604715 0.048113725937582785 -0.0036027002832151531 -0.0082426731751183979 -0.0036027002832151531 -2499.9155338708915 -0.001755931303705438 -0.0082426731751183979 -0.001755931303705438 -9999.9507009697554 0.01781665868111304 0.0025199420713879761 0.0016895850349101238 0.0025199420713879761 -2499.9664259695019 0.0003579296353564132 0.0016895850349101238 0.0003579296353564132 -9999.9804413007751 0.037812118589499732 -0.014424884172762137 -0.0032746418582974002 -0.014424884172762137 -2499.9317018394358 -0.019225291221118823 -0.0032746418582974002 -0.019225291221118823 -9999.9683449922959 0.022421372173994314 -0.0036717927328806556 -0.0010612253918225178 -0.0036717927328806556 -2499.9460804899973 -0.021905955994952819 -0.0010612253918225178 -0.021905955994952819 -9999.9765513696912 0.061752406593768683 -0.00019001780693202186 -0.00023371755560219754 -0.00019001780693202186 -2499.9088986871348 9.5514590157108614e-05 -0.00023371755560219754 9.5514590157108614e-05 -9999.9384909678156 0.065788794019681518 -0.00076121778941292545 -0.00038332484837155789 -0.00076121778941292545 -2499.8962517372984 0.0011114654234916088 -0.00038332484837155789 0.0011114654234916088 -9999.9351372414167 0.054858237104781438 0.0096376923101285233 0.0027015261493943399 0.0096376923101285233 -2499.9014974157035 0.00062942506156105082 0.0027015261493943399 0.00062942506156105082 -9999.9475170270998 0.063834681038315466 0.00010020795774568284 -0.0062471604524034774 0.00010020795774568284 -2499.9091795671366 0.0037775471282657236 -0.0062471604524034774 0.0037775471282657236 -9999.9370721337837 0.052543367361067794 -0.0032911110126635015 -0.0054309857623593416 -0.0032911110126635015 -2499.9154216975057 -0.0024569132074248046 -0.0054309857623593416 -0.0024569132074248046 -9999.946752652846 0.080101425877728616 0.0036282806529308875 0.00061171892957645468 0.0036282806529308875 -2499.877102182716 0.0062765860348008573 0.00061171892957645468 0.0062765860348008573 -9999.9357065831573 0.057803872732620221 -0.011061093082713407 -0.0023691388123552315 -0.011061093082713407 -2499.9025026698509 -0.00056137676438083872 -0.0023691388123552315 -0.00056137676438083872 -9999.9475104890698 0.05929763847416325 0.00034884304174928257 -0.0066377585171721876 0.00034884304174928257 -2499.9011791784433 0.0043953173826594139 -0.0066377585171721876 0.0043953173826594139 -9999.9454767764582 0.08816434051914257 -0.0049973813265816319 -0.010325877752421775 -0.0049973813265816319 -2499.8844334960231 0.0049015761651389766 -0.010325877752421775 0.0049015761651389766 -9999.916247239431 0.082456247788286419 -0.0041196955867025195 -0.010493125410036441 -0.0041196955867025195 -2499.9041949310431 0.0015529957654507598 -0.010493125410036441 0.0015529957654507598 -9999.9192470368725 0.10503587179118767 -0.0070303893442634352 -0.0064853335024963599 -0.0070303893442634352 -2499.8664761904129 0.0070923446091910591 -0.0064853335024963599 0.0070923446091910591 -9999.9228173616975 0.086437068075611023 0.00092590088963984943 -0.0053301447628655296 0.00092590088963984943 -2499.8791172236124 0.0055687807434878778 -0.0053301447628655296 0.0055687807434878778 -9999.9279538282644 0.072093324750312604 -0.0010662323330128416 -0.0034959825012492729 -0.0010662323330128416 -2499.9090279991851 -0.00070778791996417567 -0.0034959825012492729 -0.00070778791996417567 -9999.9347543874792 0.071066015349060763 0.00032677122137052044 -0.0085736108939613587 0.00032677122137052044 -2499.9116557496527 0.0028431566697690869 -0.0085736108939613587 0.0028431566697690869 -9999.9349593773659 0.070921718235695153 -0.0038317174106487634 -0.0077796220866730437 -0.0038317174106487634 -2499.9124079084122 -0.0038418817334786581 -0.0077796220866730437 -0.0038418817334786581 -9999.9243280439659 0.071872678450745298 0.00062232581521564148 -0.0014719345435878495 0.00062232581521564148 -2499.8771520582814 -0.030365285421794397 -0.0014719345435878495 -0.030365285421794397 -9999.9235637698148 0.078019455229878076 0.00023433298577413319 -0.0063248800279325224 0.00023433298577413319 -2499.9172985406494 -0.0041282670335931471 -0.0063248800279325224 -0.0041282670335931471 -9999.9235925056964 0.080486721746638068 0.0022908119128550175 -0.0030302947125164792 0.0022908119128550175 -2499.9082259045881 0.0036285280039010104 -0.0030302947125164792 0.0036285280039010104 -9999.9253159840446 0.057586980324231263 0.00178262592003239 0.0015802504731254885 0.00178262592003239 -2499.9184147448213 -0.0092014966610349802 0.0015802504731254885 -0.0092014966610349802 -9999.9477088515796 0.04789289924519835 0.007579157447845571 -0.00044529142280680389 0.007579157447845571 -2499.9195738385024 -0.0083012483137281379 -0.00044529142280680389 -0.0083012483137281379 -9999.9582300574693 0.065042163010730292 -0.0018114291556633882 -0.011534089273482095 -0.0018114291556633882 -2499.915355037002 -0.00055690442604827695 -0.011534089273482095 -0.00055690442604827695 -9999.9365780873159 0.050076368359441403 0.0074829129735605781 -0.001861563306761127 0.0074829129735605781 -2499.9173768967084 -0.0058351126390334684 -0.001861563306761127 -0.0058351126390334684 -9999.9520870788838 0.069413068054927862 0.010698912645280823 -0.0050805128070692263 0.010698912645280823 -2499.8679592896387 -0.026586156573102926 -0.0050805128070692263 -0.026586156573102926 -9999.925058784218 0.084531576450899593 0.0011821819067548145 -0.0089402582798356889 0.0011821819067548145 -2499.8978199181283 -0.014638074937465717 -0.0089402582798356889 -0.014638074937465717 -9999.915057227412 0.066198727077789954 0.016403647150937756 0.00046179753735486884 0.016403647150937756 -2499.9119408368933 -0.023264753019248019 0.00046179753735486884 -0.023264753019248019 -9999.9325721590285 0.076508313701197039 -0.00083423936123134049 -0.0060687144732582965 -0.00083423936123134049 -2499.8975700613064 -0.00030050579152884893 -0.0060687144732582965 -0.00030050579152884893 -9999.9203740262165 0.074290182485128753 0.00050647754369859425 -0.00029653119531758421 0.00050647754369859425 -2499.9017006908944 -0.007894110569395707 -0.00029653119531758421 -0.007894110569395707 -9999.9212096898154 0.065611614060799184 6.0073644279879778e-05 -0.0096844455856626155 6.0073644279879778e-05 -2499.9105481206489 -0.00039679584097029874 -0.0096844455856626155 -0.00039679584097029874 -9999.9497689599011 0.06942398666524241 -0.00083156702667098971 -0.00039834643121139379 -0.00083156702667098971 -2499.9030334926756 -0.0012851935734943254 -0.00039834643121139379 -0.0012851935734943254 -9999.9407379965924 0.066067788932741678 -0.0013897643858206202 0.00014034963351150509 -0.0013897643858206202 -2499.8961915447735 -0.0041010157258369873 0.00014034963351150509 -0.0041010157258369873 -9999.9381216169204 0.077651689327012718 -0.0019974915229339155 -0.0067038987763226032 -0.0019974915229339155 -2499.8965994095729 -0.00059149909247935284 -0.0067038987763226032 -0.00059149909247935284 -9999.9215214407905 0.068618387352216814 -0.0022141951586429989 0.00019971221809100825 -0.0022141951586429989 -2499.8996976925309 0.0031254303712557885 0.00019971221809100825 0.0031254303712557885 -9999.9352773431328 0.070261929871321627 0.0029720373295930029 -0.0036128772662777919 0.0029720373295930029 -2499.903428291826 0.0037571723560176906 -0.0036128772662777919 0.0037571723560176906 -9999.9349296963173 0.057107514386188996 -0.00053147631104564011 -0.011235441892495146 -0.00053147631104564011 -2499.9110915391648 -0.00081058453361038119 -0.011235441892495146 -0.00081058453361038119 -9999.9444435312962 0.065941695997935312 -0.008353147545658874 -0.0050728774931485532 -0.008353147545658874 -2499.9092676885148 -0.0015902932373137446 -0.0050728774931485532 -0.0015902932373137446 -9999.9383746705953 0.07998098349708016 -0.00056900734079778567 -0.0017750323313521221 -0.00056900734079778567 -2499.9000236641086 0.0024733381615078542 -0.0017750323313521221 0.0024733381615078542 -9999.9310201145818 0.056988544389241724 -0.0061997369580456332 -0.011395500823709881 -0.0061997369580456332 -2499.9121911504799 0.0037221740867607878 -0.011395500823709881 0.0037221740867607878 -9999.9445438850216 0.057544156295989524 -0.0048623889397629329 -0.0076957024975854438 -0.0048623889397629329 -2499.907133569126 -0.00044621423512580805 -0.0076957024975854438 -0.00044621423512580805 -9999.9472047034942 0.093592999823158607 -0.0005030492172841748 -0.011494063945406197 -0.0005030492172841748 -2499.8928893646189 0.0021025156202085782 -0.011494063945406197 0.0021025156202085782 -9999.9160438023464 0.099479845997848315 0.00028719409608327778 -0.011387029884645017 0.00028719409608327778 -2499.8748438153962 0.0039274427654163446 -0.011387029884645017 0.0039274427654163446 -9999.9107969874021 0.094536372160291648 -0.0033469117347503033 -0.0096077223170141224 -0.0033469117347503033 -2499.887928664506 0.0013806917504552985 -0.0096077223170141224 0.0013806917504552985 -9999.9152093821831 0.081643666653690161 -0.00098437620329046988 -0.0076998237236693967 -0.00098437620329046988 -2499.8926847747571 0.00069459980659303255 -0.0076998237236693967 0.00069459980659303255 -9999.9200980866954 0.1216321922656789 0.0027301631522938163 0.00044009837074554525 0.0027301631522938163 -2499.8830877754103 -0.00019576715385483112 0.00044009837074554525 -0.00019576715385483112 -9999.8951501958363 0.11332701627634378 -0.0013944282651905619 -0.0061101449900888838 -0.0013944282651905619 -2499.8824134625256 0.00053763214964419603 -0.0061101449900888838 0.00053763214964419603 -9999.9102052871385 0.1034810585415471 -0.0060906626785438324 -0.002238368342659669 -0.0060906626785438324 -2499.8860046285035 0.0052064663286728319 -0.002238368342659669 0.0052064663286728319 -9999.9037878712061 0.11042564389208565 -0.0013220990725789973 0.00068374008878890891 -0.0013220990725789973 -2499.8792957784362 0.00084411595162237063 0.00068374008878890891 0.00084411595162237063 -9999.8948666860033 0.094714095552262734 -0.0019265325219732336 0.0010717443365138024 -0.0019265325219732336 -2499.8909437236052 0.0015472222312382655 0.0010717443365138024 0.0015472222312382655 -9999.9097265268465 0.10811028220405206 0.0022747294578841968 -0.00079828314665064681 0.0022747294578841968 -2499.8814093563237 0.0019709990538103739 -0.00079828314665064681 0.0019709990538103739 -9999.896894491756 0.11277197553499718 -0.0018821199142208794 -0.0048655595201125834 -0.0018821199142208794 -2499.8824793403965 0.003035608189748018 -0.0048655595201125834 0.003035608189748018 -9999.9098674834022 0.11635698362351832 -0.0010539534982773324 -0.0072367332177236676 -0.0010539534982773324 -2499.8770204098455 0.00061149589237174951 -0.0072367332177236676 0.00061149589237174951 -9999.8942544345009 0.10800740566628519 0.0027455197519231471 -0.0041651901592558715 0.0027455197519231471 -2499.8820787236637 -0.0026224289476886042 -0.0041651901592558715 -0.0026224289476886042 -9999.8999278134361 0.12643721439212641 0.0063688137244800949 0.00091116033945581876 0.0063688137244800949 -2499.8725503495843 0.00097378058057984163 0.00091116033945581876 0.00097378058057984163 -9999.8910909743154 0.10001862151966634 -0.0015538755774852061 0.00049843594706544536 -0.0015538755774852061 -2499.8840029184939 -0.0020797322449652711 0.00049843594706544536 -0.0020797322449652711 -9999.8942323808587 0.097594251046530189 -0.0012461997021844945 -0.0039625754689041059 -0.0012461997021844945 -2499.8899391336631 -0.00058658195302996319 -0.0039625754689041059 -0.00058658195302996319 -9999.9148211378888 0.099655015701500815 -0.0021006505786268573 -0.0011531462878338061 -0.0021006505786268573 -2499.882993005871 -0.00020875290783806122 -0.0011531462878338061 -0.00020875290783806122 -9999.8968563219842 0.10102602473307343 -0.00019537933609382858 -0.00056172352515204693 -0.00019537933609382858 -2499.8836572344426 -0.0021277332853060216 -0.00056172352515204693 -0.0021277332853060216 -9999.893792041421 0.10195736291370849 0.00039669285684593289 -0.004952634175424464 0.00039669285684593289 -2499.8882386934465 -0.0015085562226886395 -0.004952634175424464 -0.0015085562226886395 -9999.9130397133395 0.099257101941475412 -0.00049477296920302956 -0.0026947907235808088 -0.00049477296920302956 -2499.8899837248437 -0.0003133782374789007 -0.0026947907235808088 -0.0003133782374789007 -9999.9127617858067 0.095479823801724706 -0.016850373372373745 -0.0032465062486153329 -0.016850373372373745 -2499.8858434961039 -0.023269223129773309 -0.0032465062486153329 -0.023269223129773309 -9999.910315483492 0.10396345813387597 -0.023920212368727149 -0.0067129318558727391 -0.023920212368727149 -2499.8716110678015 -0.011478698146675015 -0.0067129318558727391 -0.011478698146675015 -9999.8930452609857 0.093823119255830534 0.0013816425718841778 -0.00093531397760671098 0.0013816425718841778 -2499.9119958069823 -0.0031567480245939805 -0.00093531397760671098 -0.0031567480245939805 -9999.9185529466376 0.11608358040757594 -0.00093843956736272549 -0.00377498608577298 -0.00093843956736272549 -2499.8689333830334 -0.01007603300467963 -0.00377498608577298 -0.01007603300467963 -9999.8889211482128 0.10368396197327456 -0.0014096587305846575 -0.00088849644080468693 -0.0014096587305846575 -2499.8677352126074 -0.0018363991939622792 -0.00088849644080468693 -0.0018363991939622792 -9999.8960164055006 0.10227240202402754 -0.0065971989721648333 -0.0040381161215918837 -0.0065971989721648333 -2499.8965865582559 0.010625957437696343 -0.0040381161215918837 0.010625957437696343 -9999.9008758155105 0.10844973709026817 -0.000143879446718502 -0.0055035845039128617 -0.000143879446718502 -2499.8663529910955 -0.0011457946657174034 -0.0055035845039128617 -0.0011457946657174034 -9999.8864621079847 0.11451446533556009 0.01208950101442726 -0.0067931091871287208 0.01208950101442726 -2499.8694587226096 -0.008166343980064994 -0.0067931091871287208 -0.008166343980064994 -9999.8887349993693 0.091509078980379854 -0.010060558267058178 -0.0062671821970070596 -0.010060558267058178 -2499.8852675693306 -0.0017796814922803605 -0.0062671821970070596 -0.0017796814922803605 -9999.895465202917 0.093173510465931031 -0.019650256068094882 -0.003607149155868683 -0.019650256068094882 -2499.8916808516587 -0.021544423693057979 -0.003607149155868683 -0.021544423693057979 -9999.9075949382313 0.099773661818289838 -0.006435410312604195 -0.0074365632644912694 -0.006435410312604195 -2499.9022966990806 0.0067158839410694782 -0.0074365632644912694 0.0067158839410694782 -9999.9170857053141 0.11634715180935018 0.0012086437259626187 0.0018297769656783203 0.0012086437259626187 -2499.8721009873962 0.0028030288167428807 0.0018297769656783203 0.0028030288167428807 -9999.8892821679583 0.1107570742497046 0.0004933245114352152 -0.0067981890597366146 0.0004933245114352152 -2499.8744944929786 -0.0072412411827826872 -0.0067981890597366146 -0.0072412411827826872 -9999.8994770695426 0.1008090382545106 -0.0067892035352544663 -0.0039711839071969735 -0.0067892035352544663 -2499.8979510397076 0.0013555505527165224 -0.0039711839071969735 0.0013555505527165224 -9999.9135987640802 0.10188976864810684 -0.011680593871891668 0.0044994755353400251 -0.011680593871891668 -2499.9205895306513 0.00060614321409957483 0.0044994755353400251 0.00060614321409957483 -9999.9025161168756 0.10997479441539326 -0.005815085524717406 -0.0011928423482459038 -0.005815085524717406 -2499.8607600175274 0.011141585682707955 -0.0011928423482459038 0.011141585682707955 -9999.9116577182504 0.11910091928075417 0.0028451272541886452 -0.0028969227605557535 0.0028451272541886452 -2499.8433917815528 0.0065557121597521473 -0.0028969227605557535 0.0065557121597521473 -9999.9036271573859 0.11141316353041475 0.0020078257391853947 -0.0054342618141163257 0.0020078257391853947 -2499.8755531124725 -0.001822564587200759 -0.0054342618141163257 -0.001822564587200759 -9999.9045531050451 0.11207916473665591 0.00079217039526884026 -0.0056336546549573541 0.00079217039526884026 -2499.8722648384123 0.0021352425055738422 -0.0056336546549573541 0.0021352425055738422 -9999.9063322862785 0.13618818586473935 0.013031755177701637 -0.0074271047160436865 0.013031755177701637 -2499.8554011684955 0.00021225139244052116 -0.0074271047160436865 0.00021225139244052116 -9999.9014319264134 0.11311775535068591 0.0160198085063172 -0.0085842637890891638 0.0160198085063172 -2499.8958184178773 -0.013850159236426407 -0.0085842637890891638 -0.013850159236426407 -9999.8915684751846 0.11650022321009601 0.016832603486012631 -0.0013277272705636278 0.016832603486012631 -2499.8978787055585 -0.0062585560935985995 -0.0013277272705636278 -0.0062585560935985995 -9999.8936882620546 0.12888877467048587 0.018813639252866041 -0.0058800939250431838 0.018813639252866041 -2499.8419163880208 0.0082502048499009106 -0.0058800939250431838 0.0082502048499009106 -9999.8929987829979 0.14096612365392502 0.0063590106592466972 -0.01125516901811352 0.0063590106592466972 -2499.863713329185 0.012657380841119448 -0.01125516901811352 0.012657380841119448 -9999.8928533933904 0.14045124813310395 0.0040067764815796773 -0.0072021171863525524 0.0040067764815796773 -2499.8754729515913 0.0047307521817856468 -0.0072021171863525524 0.0047307521817856468 -9999.8808616089955 0.13327834648225689 0.003389424030236776 -0.0087573849414184224 0.003389424030236776 -2499.9031084207236 0.0044503045264718821 -0.0087573849414184224 0.0044503045264718821 -9999.8859404076575 0.12709816012011288 2.1957635288470667e-05 -0.0038829814011478447 2.1957635288470667e-05 -2499.8832773095428 -0.0027048005285905674 -0.0038829814011478447 -0.0027048005285905674 -9999.8817368133787 0.1258339929900103 -0.001504073917481967 -0.0033971474213103647 -0.001504073917481967 -2499.8822409870136 -0.0029688089234696236 -0.0033971474213103647 -0.0029688089234696236 -9999.8817176019147 0.14569707647933683 -0.0011138631008776913 0.0025323516947537428 -0.0011138631008776913 -2499.8737201882595 0.0045698664071096573 0.0025323516947537428 0.0045698664071096573 -9999.8749713902871 0.12134422801591427 -0.002542762853722548 0.00055810821140767075 -0.002542762853722548 -2499.9081915342204 0.0051242831841591396 0.00055810821140767075 0.0051242831841591396 -9999.8865667776245 0.1267954448267119 0.0011597350556100654 -0.0039263715570996283 0.0011597350556100654 -2499.8837199059217 0.0030461672722594813 -0.0039263715570996283 0.0030461672722594813 -9999.8825113843995 0.13611670398495335 0.007143111834255679 -0.00095051202697504777 0.007143111834255679 -2499.8808320396838 0.004482367992750369 -0.00095051202697504777 0.004482367992750369 -9999.87807085643 0.14949502629588096 -0.0022358787309990531 -0.00088661351492191898 -0.0022358787309990531 -2499.8539456644985 0.0015051266527734697 -0.00088661351492191898 0.0015051266527734697 -9999.8737379236554 0.13270264049060643 -0.013465935596458319 0.0020968224889656994 -0.013465935596458319 -2499.8828825922847 0.01056083364164806 0.0020968224889656994 0.01056083364164806 -9999.8861816097269 0.14070418675873952 -0.001245469715886599 -0.004030924890685128 -0.001245469715886599 -2499.8580754253253 0.012835896611250064 -0.004030924890685128 0.012835896611250064 -9999.8980708692798 0.12829591919580707 -0.016590015438970686 -0.0028534361899801297 -0.016590015438970686 -2499.8707189840679 0.0072259275639225962 -0.0028534361899801297 0.0072259275639225962 -9999.8901666785532 0.12156716627941933 -0.005140904432346341 -0.0014568430856343184 -0.005140904432346341 -2499.9017719393305 -0.014496944148049806 -0.0014568430856343184 -0.014496944148049806 -9999.889593685788 0.12026125347620109 -0.00065637868309272387 -0.0037848414249310736 -0.00065637868309272387 -2499.8821774812659 -0.003294768637715606 -0.0037848414249310736 -0.003294768637715606 -9999.8830115939054 0.12077076925561414 -0.0070394582436413104 -0.0016170818444152246 -0.0070394582436413104 -2499.8933898387022 -0.014699844145070529 -0.0016170818444152246 -0.014699844145070529 -9999.887707899441 0.12353896141758014 -0.0067558124725735844 -0.0046235986392275663 -0.0067558124725735844 -2499.8698188937706 -0.011859312528031296 -0.0046235986392275663 -0.011859312528031296 -9999.8822656189805 0.12346562052175614 0.0070037946678916455 0.0022243750718189403 0.0070037946678916455 -2499.8818281275253 0.0036015941659570672 0.0022243750718189403 0.0036015941659570672 -9999.8891467288231 0.12738967757650244 -0.0118550680649766 -0.0041023217963811476 -0.0118550680649766 -2499.8565089701569 -0.0037563816331385169 -0.0041023217963811476 -0.0037563816331385169 -9999.8801590303956 0.12046971523523098 0.023165020114845558 -0.0059466101301950403 0.023165020114845558 -2499.857028141163 0.0095904127492758562 -0.0059466101301950403 0.0095904127492758562 -9999.8907488505938 0.10246376534610135 -0.0019849170880314529 -0.0045152576931286603 -0.0019849170880314529 -2499.891232287564 -0.0042740941571537405 -0.0045152576931286603 -0.0042740941571537405 -9999.8982505306976 0.11893051448964798 -0.00057259402773034151 0.0010088110502692871 -0.00057259402773034151 -2499.8851322861196 -0.0033424457978981081 0.0010088110502692871 -0.0033424457978981081 -9999.8911588050887 0.10989375029998882 0.011760986265612478 -0.0052603210006054724 0.011760986265612478 -2499.8905333304474 -0.0084010736718482804 -0.0052603210006054724 -0.0084010736718482804 -9999.89610862671 0.11401905016828096 0.013122371231265369 -0.006492768736279686 0.013122371231265369 -2499.8716462976154 -0.0076577677059503912 -0.006492768736279686 -0.0076577677059503912 -9999.8866080432854 0.11266576891819113 -0.0028257637810820413 -4.7449875637539662e-05 -0.0028257637810820413 -2499.8814932827081 -0.0072998855953301245 -4.7449875637539662e-05 -0.0072998855953301245 -9999.8883255767651 0.12202369697297399 -0.010212283928410448 -0.0032296605504598119 -0.010212283928410448 -2499.8562929471464 -0.0053978651594661642 -0.0032296605504598119 -0.0053978651594661642 -9999.8749536030773 0.12472970918327064 -0.012252280769883953 -0.0021629570401273668 -0.012252280769883953 -2499.8548120787018 -0.0055457735725212842 -0.0021629570401273668 -0.0055457735725212842 -9999.8790109258407 0.11282722034229664 -0.00092828738956437021 -0.0018107807097749173 -0.00092828738956437021 -2499.8817148317248 -0.0065164642473973799 -0.0018107807097749173 -0.0065164642473973799 -9999.890696585946 0.11395353766988592 -0.0020237126582041878 -0.0014090086360738496 -0.0020237126582041878 -2499.8742917021773 -0.0039936705688887741 -0.0014090086360738496 -0.0039936705688887741 -9999.8878006396699 0.11417799311902854 -0.0006233447067996653 -0.0013050893503532279 -0.0006233447067996653 -2499.8810149003143 0.00012998933016206138 -0.0013050893503532279 0.00012998933016206138 -9999.8935554135478 0.11390500951529248 -0.0048216967348622148 0.0041647090829428635 -0.0048216967348622148 -2499.876780846178 -0.0031965253183443565 0.0041647090829428635 -0.0031965253183443565 -9999.8854656935728 0.1296120079314278 -0.00064206552859947565 -0.0038208494443097152 -0.00064206552859947565 -2499.8750490291386 -0.001595316320162965 -0.0038208494443097152 -0.001595316320162965 -9999.8798999395003 0.11396398860506451 -0.0010769180980451688 0.00034218148880427179 -0.0010769180980451688 -2499.8808486772314 -0.002359380961934221 0.00034218148880427179 -0.002359380961934221 -9999.8897624255151 0.11435944485128857 0.00476586349672347 -0.0017156413700831763 0.00476586349672347 -2499.8830828703285 -0.0023244716358021833 -0.0017156413700831763 -0.0023244716358021833 -9999.8860073166943 0.1246004328768322 0.00026794216915235636 -0.0022153827267175075 0.00026794216915235636 -2499.8765592249601 -0.0015738121210233658 -0.0022153827267175075 -0.0015738121210233658 -9999.8865056391442 0.11957882563365274 -0.0040197315993260405 -0.005330132284143474 -0.0040197315993260405 -2499.8803358525365 -0.0027809406674350612 -0.005330132284143474 -0.0027809406674350612 -9999.8847131354487 0.113875288694544 0.00052660501735312532 -0.00031886223860055907 0.00052660501735312532 -2499.8782012328757 -0.00056190682767010003 -0.00031886223860055907 -0.00056190682767010003 -9999.8945704706148 0.1134810360163101 -0.0013239097258769185 0.00069491918839048594 -0.0013239097258769185 -2499.8801100109613 -0.001686342150605924 0.00069491918839048594 -0.001686342150605924 -9999.8894975025505 0.12064641100550944 -0.000119022484081653 -0.0006079660027751288 -0.000119022484081653 -2499.8601331311893 0.0046079097601250396 -0.0006079660027751288 0.0046079097601250396 -9999.8751814206917 0.11194223972734108 0.00064079689992826484 -0.0018381228583166376 0.00064079689992826484 -2499.8807688725287 -0.0015133953038457548 -0.0018381228583166376 -0.0015133953038457548 -9999.8846236561894 0.12605220729983557 0.00079627266570628024 -0.0031780530798641848 0.00079627266570628024 -2499.8758705772116 -0.0018854909048968693 -0.0031780530798641848 -0.0018854909048968693 -9999.8813886128046 0.12956345023849281 0.00016670738029179316 0.0025418341419936041 0.00016670738029179316 -2499.8789762006927 0.00044518100071400113 0.0025418341419936041 0.00044518100071400113 -9999.8836927305747 0.12038071109782322 9.414727949280232e-05 0.00328500392697606 9.414727949280232e-05 -2499.8802057793655 -0.0029162776845623739 0.00328500392697606 -0.0029162776845623739 -9999.8828753887065 0.13014451866183663 0.00056061407976913235 0.0024654825419929693 0.00056061407976913235 -2499.8795224934438 0.0010142087353415263 0.0024654825419929693 0.0010142087353415263 -9999.8844228104645 0.12619314600124198 0.00016384798153959565 -0.0034824137410396361 0.00016384798153959565 -2499.8769014757472 -0.00065224344871239737 -0.0034824137410396361 -0.00065224344871239737 -9999.8797994792476 0.12528744200062647 -4.6176091323424557e-05 -0.003564390597603051 -4.6176091323424557e-05 -2499.8791677875943 -0.0014953998379496625 -0.003564390597603051 -0.0014953998379496625 -9999.8811563301933 0.13432097395889286 0.0013592173072131397 -0.0047373581983265467 0.0013592173072131397 -2499.8788852567086 0.0004010518914583372 -0.0047373581983265467 0.0004010518914583372 -9999.8866501453886 0.12691504983558843 0.00088009443440266542 -0.0040568332597104018 0.00088009443440266542 -2499.8789946293018 -0.0011068820076616248 -0.0040568332597104018 -0.0011068820076616248 -9999.8813100296284 0.12933735681872349 -0.00075961722799473136 -0.0036484423490037443 -0.00075961722799473136 -2499.8752807674173 -0.0014258365799832973 -0.0036484423490037443 -0.0014258365799832973 -9999.8807732804999 0.1345224216220231 0.001309050885583841 -0.0046830023802613141 0.001309050885583841 -2499.8771092449151 -0.00038921601662877947 -0.0046830023802613141 -0.00038921601662877947 -9999.8854754645508 0.12995724824577337 0.00027864763016934881 0.0023987030344869709 0.00027864763016934881 -2499.877757612292 -6.5858250309247524e-05 0.0023987030344869709 -6.5858250309247524e-05 -9999.8828981201441 0.13817061543886666 0.003309777771219484 -0.0043191122276766691 0.003309777771219484 -2499.8678374218161 0.0030736458245428366 -0.0043191122276766691 0.0030736458245428366 -9999.8818698367395 0.13674722376708814 -0.0052291559293958234 -0.00061749241467623506 -0.0052291559293958234 -2499.8773355138164 0.0031157655794231687 -0.00061749241467623506 0.0031157655794231687 -9999.8800384431561 0.14643682941823499 0.00058742721904091709 -0.0026307585758331697 0.00058742721904091709 -2499.874314879642 0.00043662086682161316 -0.0026307585758331697 0.00043662086682161316 -9999.8819651516897 0.14819923869254126 0.00065598780540134308 -0.0042869658936979249 0.00065598780540134308 -2499.8727833811663 0.0031450084752577823 -0.0042869658936979249 0.0031450084752577823 -9999.8764473158881 0.14641664167902491 0.00063314266258762317 -0.0026872988237300888 0.00063314266258762317 -2499.8733046159232 8.672156764077954e-05 -0.0026872988237300888 8.672156764077954e-05 -9999.8815101803339 0.14582951861848414 0.00036244549997493491 -0.0024269361747428775 0.00036244549997493491 -2499.8736185529287 0.00029132665440556593 -0.0024269361747428775 0.00029132665440556593 -9999.8820073128591 0.14581152944083442 0.0004410178417061189 -0.0025237667869077995 0.0004410178417061189 -2499.8739136910535 0.00036249091135687195 -0.0025237667869077995 0.00036249091135687195 -9999.8817865301207 0.14740006278680085 -0.00032405436755342351 -0.0017620210783206858 -0.00032405436755342351 -2499.8738149541823 -0.00020003003373858519 -0.0017620210783206858 -0.00020003003373858519 -9999.8806572838585 0.1257798231902143 0.001712696471395493 0.0033866993202309459 0.001712696471395493 -2499.8824774766863 -0.00033832451299531385 0.0033866993202309459 -0.00033832451299531385 -9999.884833941529 0.12749816709037987 0.00014553385735185595 0.0033281791356785106 0.00014553385735185595 -2499.8769124490773 0.00063574569867341779 0.0033281791356785106 0.00063574569867341779 -9999.8828908495816 0.12587618472207396 0.00017230701913924012 -0.003472811584288138 0.00017230701913924012 -2499.8780760085283 -0.00099036049914502655 -0.003472811584288138 -0.00099036049914502655 -9999.879892924655 0.12962582695035962 -0.00068211428033071377 0.0023915160081742215 -0.00068211428033071377 -2499.8783026997444 0.00012652269151658402 0.0023915160081742215 0.00012652269151658402 -9999.8831075055277 0.1491087765816701 0.00053595460864607966 -0.0024122356644511456 0.00053595460864607966 -2499.8732896963074 -0.00062621148754260503 -0.0024122356644511456 -0.00062621148754260503 -9999.8796134761615 0.13418630013256916 -0.0030580667421403335 -0.0061862461989221629 -0.0030580667421403335 -2499.878521735729 -0.00065432658612962769 -0.0061862461989221629 -0.00065432658612962769 -9999.8866902246664 0.1286921836926922 -0.0001876673430901517 0.0026626425060385372 -0.0001876673430901517 -2499.8791792054708 -0.00020995489467168227 0.0026626425060385372 -0.00020995489467168227 -9999.8834009646707 0.1352707888927398 -0.004983250558640899 -0.0041707345790200634 -0.004983250558640899 -2499.8715506306417 -0.0015688769053667784 -0.0041707345790200634 -0.0015688769053667784 -9999.890069920837 0.1378342189873365 -0.00085495965084128947 -0.0055441017721022945 -0.00085495965084128947 -2499.8695118603682 0.00067213825241196901 -0.0055441017721022945 0.00067213825241196901 -9999.8832006440789 0.094111526077995222 -0.0029374466894813815 -0.0010060373042506399 -0.0029374466894813815 -2499.8867531528554 0.00064938899072330969 -0.0010060373042506399 0.00064938899072330969 -9999.9097573216568 0.10833275914956175 -0.00416462232195628 -0.00061902224217647017 -0.00416462232195628 -2499.884679596571 -0.0022893010773259448 -0.00061902224217647017 -0.0022893010773259448 -9999.8997247780935 0.11619692829208361 -0.0019740137414691293 -0.0093001383411319694 -0.0019740137414691293 -2499.878237382497 -0.0013134705804986879 -0.0093001383411319694 -0.0013134705804986879 -9999.8960959490705 0.10420352424171142 0.0018535247877283674 -0.0049820936146716122 0.0018535247877283674 -2499.8809750778719 -0.0039144010661402717 -0.0049820936146716122 -0.0039144010661402717 -9999.9027194163064 0.10847947268484859 -0.0053682663950171752 -0.0060046503276680596 -0.0053682663950171752 -2499.882536123494 0.002336523168196436 -0.0060046503276680596 0.002336523168196436 -9999.9017436444556 0.12968000681121339 -0.0015154721100089762 -0.0035328781405041809 -0.0015154721100089762 -2499.880438733132 -0.0027172442023584154 -0.0035328781405041809 -0.0027172442023584154 -9999.8926149426734 0.11260326905994589 -0.0010764175496745208 -0.0051684851459867787 -0.0010764175496745208 -2499.8813927293058 -0.0009063387660717126 -0.0051684851459867787 -0.0009063387660717126 -9999.9107835670238 0.10255137883405041 -0.0028019444746045178 -0.0046481933486575144 -0.0028019444746045178 -2499.8894122690704 -0.00063882356516842265 -0.0046481933486575144 -0.00063882356516842265 -9999.9134345172552 0.10191342005236947 -0.0020152421750112802 -0.00070313541527866619 -0.0020152421750112802 -2499.8883818871018 -0.0030403732243939885 -0.00070313541527866619 -0.0030403732243939885 -9999.8955305964391 0.09887519202226791 -0.0025795687087373891 -0.0053904280939605087 -0.0025795687087373891 -2499.8874424170235 -0.0015592531364490014 -0.0053904280939605087 -0.0015592531364490014 -9999.9154278364131 0.10051226044197392 -0.0024063396689492601 0.00024651961439303705 -0.0024063396689492601 -2499.8845064656616 -5.4052552513894625e-05 0.00024651961439303705 -5.4052552513894625e-05 -9999.8914584165759 0.097954021763044352 -0.0015141290693172667 -0.0051657556905411184 -0.0015141290693172667 -2499.8908322218776 -0.00034663655907252178 -0.0051657556905411184 -0.00034663655907252178 -9999.9150367712627 0.099845526696299203 -0.0035938190676572143 -0.00073852064895163494 -0.0035938190676572143 -2499.8853596845629 -0.0011322845221002353 -0.00073852064895163494 -0.0011322845221002353 -9999.8943177727833 0.11368984179432573 -0.00017564417868099163 0.00068672443205741729 -0.00017564417868099163 -2499.8789313397647 -0.00055077438810258172 0.00068672443205741729 -0.00055077438810258172 -9999.8889779634483 0.11175264955886632 6.6942924247925112e-05 -0.0012261177007530932 6.6942924247925112e-05 -2499.8850440454944 -0.0044919005695192027 -0.0012261177007530932 -0.0044919005695192027 -9999.8869488602322 0.11353768176559242 0.003458997707591718 0.0034096463605237659 0.003458997707591718 -2499.87970291698 -0.0026399160888104234 0.0034096463605237659 -0.0026399160888104234 -9999.8939998277201 0.11918963838434138 0.0013151193233629267 -0.0015812725469004363 0.0013151193233629267 -2499.8763349079672 -0.0015075602877914207 -0.0015812725469004363 -0.0015075602877914207 -9999.8849040313107 0.1134579918707459 0.00045122020274966125 -3.0094503699729103e-05 0.00045122020274966125 -2499.8865631229564 -0.0047635779301344883 -3.0094503699729103e-05 -0.0047635779301344883 -9999.8948321662028 0.1250341705417668 0.000141274365491122 -0.002088849696519901 0.000141274365491122 -2499.8750436125047 -0.0020094428291486111 -0.002088849696519901 -0.0020094428291486111 -9999.8862874061469 0.11776121888760827 0.0025299312163039349 -0.00084840853605783195 0.0025299312163039349 -2499.8754323149478 -0.0067037492863164516 -0.00084840853605783195 -0.0067037492863164516 -9999.8911806702799 0.11978879608250281 0.0020031161698592127 -0.003616446721025568 0.0020031161698592127 -2499.8791327388371 0.00029715280470554717 -0.003616446721025568 0.00029715280470554717 -9999.8848434986721 0.12531508832256577 -7.8680952786541964e-05 -0.0036271282656912263 -7.8680952786541964e-05 -2499.8621885871084 0.0010811535430548247 -0.0036271282656912263 0.0010811535430548247 -9999.8792045796235 0.11124002498218033 -0.00037429095374784567 -0.0021388263539847685 -0.00037429095374784567 -2499.8817778409084 -0.0035689990345417755 -0.0021388263539847685 -0.0035689990345417755 -9999.8864292843064 0.12576769101906393 -0.00061053827450078743 -0.0027091571573691908 -0.00061053827450078743 -2499.8758420165977 -0.00082001621376548428 -0.0027091571573691908 -0.00082001621376548428 -9999.8825594831505 0.12287980192093073 0.0049216707906839068 -0.0028289984320508665 0.0049216707906839068 -2499.8544321794043 -0.0089035365290328627 -0.0028289984320508665 -0.0089035365290328627 -9999.8758888513585 0.11526894046619418 0.0039425920248117394 -0.00034517556480295752 0.0039425920248117394 -2499.8865296476579 0.016866122377905413 -0.00034517556480295752 0.016866122377905413 -9999.8944841011107 0.11573315903797265 0.0032288974047103361 -0.00071009847852110397 0.0032288974047103361 -2499.8848856011732 -0.0057241331287514186 -0.00071009847852110397 -0.0057241331287514186 -9999.8941553072655 0.11372616886114173 0.0051533652896473096 -0.0038084768293629168 0.0051533652896473096 -2499.8758297237773 -0.0011354291873431066 -0.0038084768293629168 -0.0011354291873431066 -9999.8950461163549 0.11516525316801562 0.0059545118139224511 -0.0038087872048890858 0.0059545118139224511 -2499.8683589025859 -0.0010989321635861415 -0.0038087872048890858 -0.0010989321635861415 -9999.8928183699754 0.13046216235488828 0.013814855210227375 -0.0040240039234049618 0.013814855210227375 -2499.846439625755 0.0098491718053992372 -0.0040240039234049618 0.0098491718053992372 -9999.8703027646916 0.13185618561987411 0.01893193684581608 -0.001679847471677931 0.01893193684581608 -2499.8317090721966 0.0013906699787185062 -0.001679847471677931 0.0013906699787185062 -9999.8794571523267 0.13031448092874598 0.021909002953879847 -0.0027689690832630731 0.021909002953879847 -2499.8410740976897 -0.0043734737919294275 -0.0027689690832630731 -0.0043734737919294275 -9999.8770169242816 0.10392825816279583 0.012434502646655646 -0.0084309940848470433 0.012434502646655646 -2499.8925993237367 -0.0038079730861682037 -0.0084309940848470433 -0.0038079730861682037 -9999.8945736085261 0.11168489707051776 0.0060803493969197762 -0.0042194399464960952 0.0060803493969197762 -2499.8865059336731 -0.0042168991834614644 -0.0042194399464960952 -0.0042168991834614644 -9999.892523410741 0.10924652277390123 -0.0047172458973377667 -0.0050019299583254906 -0.0047172458973377667 -2499.8781595946202 0.009798090151548422 -0.0050019299583254906 0.009798090151548422 -9999.8960551157943 0.093591560235381621 -0.0024329895397372618 -0.00050096745468408699 -0.0024329895397372618 -2499.9108034041942 0.003286140936324955 -0.00050096745468408699 0.003286140936324955 -9999.9067816967399 0.096351549313112628 -0.014913119178371986 -0.0040861756478989264 -0.014913119178371986 -2499.8861255662359 -0.015564980336421286 -0.0040861756478989264 -0.015564980336421286 -9999.904585574739 0.10814114041750145 -0.0047252275995380844 -0.0076317660696076928 -0.0047252275995380844 -2499.8796464364113 0.0091401075469548232 -0.0076317660696076928 0.0091401075469548232 -9999.9007841008352 0.11095481256097628 0.011673546373403815 -0.0060815382003056584 0.011673546373403815 -2499.8938500379454 -0.005869674851965101 -0.0060815382003056584 -0.005869674851965101 -9999.8932711917405 0.095085162322448014 -0.0008133763795689225 -0.0046258894271886675 -0.0008133763795689225 -2499.8770201253151 0.00057524516614648746 -0.0046258894271886675 0.00057524516614648746 -9999.9133341205452 0.11056077438661305 -0.0064813647842008049 -0.0097604571710689925 -0.0064813647842008049 -2499.8738813817927 -0.02159668245985813 -0.0097604571710689925 -0.02159668245985813 -9999.8920834356104 0.10485834481232814 0.00096764493257328957 -0.0044820164466727874 0.00096764493257328957 -2499.8779177871775 0.00026917257491732016 -0.0044820164466727874 0.00026917257491732016 -9999.9111527607747 0.092201598437895882 -0.0015912911201684116 -0.0062681679555680603 -0.0015912911201684116 -2499.8880087613379 -0.0057460714390344947 -0.0062681679555680603 -0.0057460714390344947 -9999.9142592348544 0.092203126570893801 -0.016138438815132446 -0.0020130564216742641 -0.016138438815132446 -2499.881882127529 -0.014320888819383981 -0.0020130564216742641 -0.014320888819383981 -9999.9058424862087 0.091771162737131817 -0.0021717972200442979 -0.0023025210740570401 -0.0021717972200442979 -2499.8892357909972 0.009226016092725331 -0.0023025210740570401 0.009226016092725331 -9999.9138221960893 0.13187958498042462 -0.0034076142398655404 -0.0033669008844299242 -0.0034076142398655404 -2499.8825731401303 5.1000179155380465e-05 -0.0033669008844299242 5.1000179155380465e-05 -9999.890454981909 0.10153197651197843 0.00028244495588603848 -0.0034033615179396293 0.00028244495588603848 -2499.893151152708 -1.9414239432080649e-05 -0.0034033615179396293 -1.9414239432080649e-05 -9999.9006636470876 0.10805270977652981 -0.0030437581614242148 -0.0025377101871981722 -0.0030437581614242148 -2499.8872357505061 -0.001164173146662506 -0.0025377101871981722 -0.001164173146662506 -9999.8983415289331 0.10798917130341579 -0.0040950245096102872 -0.0084275580757093849 -0.0040950245096102872 -2499.8820064040938 0.01048335559971747 -0.0084275580757093849 0.01048335559971747 -9999.9029468602712 0.11657545467278396 -0.0014477772024926311 -0.0043486060058057774 -0.0014477772024926311 -2499.8562646787286 -0.0084896724092686782 -0.0043486060058057774 -0.0084896724092686782 -9999.9115029231616 0.11325451565062394 -0.0055278391273432172 -8.5658823138601292e-05 -0.0055278391273432172 -2499.8594133219085 -0.0081075711859739386 -8.5658823138601292e-05 -0.0081075711859739386 -9999.9057386290588 0.10887657643581861 -0.0011829894651407755 -0.0067363905836828053 -0.0011829894651407755 -2499.8896374085421 -0.00083151417896942803 -0.0067363905836828053 -0.00083151417896942803 -9999.9114204483722 0.11243184723025479 -0.003197293637926063 -0.0074049897739314474 -0.003197293637926063 -2499.8763571759682 0.00057866902443493018 -0.0074049897739314474 0.00057866902443493018 -9999.9070758398084 0.1332271432820562 -0.013274285903106038 -0.0083430599624989554 -0.013274285903106038 -2499.8644923324264 -0.0032931640562310349 -0.0083430599624989554 -0.0032931640562310349 -9999.8964124293634 0.12116152049566153 0.0027645553304871118 -0.0030839210012345575 0.0027645553304871118 -2499.8775704699528 0.0076577305790124228 -0.0030839210012345575 0.0076577305790124228 -9999.880438445507 0.1335666028844571 -0.0068787959372098931 -0.0039024022553348914 -0.0068787959372098931 -2499.881448424343 -0.0030015691336302552 -0.0039024022553348914 -0.0030015691336302552 -9999.8930241660782 0.11667697328994109 -0.015937893672121325 -0.0017989863772527315 -0.015937893672121325 -2499.892641303004 -0.0045219810490380041 -0.0017989863772527315 -0.0045219810490380041 -9999.894294932812 0.11783903473406099 -0.015283292818512623 -0.0020327021861703543 -0.015283292818512623 -2499.8927487986148 -0.005928014851633634 -0.0020327021861703543 -0.005928014851633634 -9999.8887259502444 0.13181483251901227 -0.0039126057588460203 -0.003659581794636324 -0.0039126057588460203 -2499.8793936984875 -0.00010084108362207189 -0.003659581794636324 -0.00010084108362207189 -9999.8941410827756 0.12216119721415453 -0.01370569187994157 -0.0067558333175838925 -0.01370569187994157 -2499.8663859283988 0.01522565719915292 -0.0067558333175838925 0.01522565719915292 -9999.8917357068931 0.1288476705631183 0.00044702594974651427 0.0045750195458822418 0.00044702594974651427 -2499.8827878560833 -0.0012698636110144434 0.0045750195458822418 -0.0012698636110144434 -9999.8833967679711 0.11998139398292551 0.0045164900368060909 0.0033132457101601176 0.0045164900368060909 -2499.9103730593151 -0.00021563563859672286 0.0033132457101601176 -0.00021563563859672286 -9999.8887147140777 0.11526234297343763 0.0051483726902647343 -0.0046483528049066081 0.0051483726902647343 -2499.902735902826 0.0097103651805809932 -0.0046483528049066081 0.0097103651805809932 -9999.8874969691315 0.14753649139129266 0.001223169835668135 -0.0020080717804376036 0.001223169835668135 -2499.8771625327317 -0.0020129290423938073 -0.0020080717804376036 -0.0020129290423938073 -9999.8820179604445 0.14896012532699388 0.00062591029514185575 -0.0011584356798266526 0.00062591029514185575 -2499.8776144347139 -0.0027584861986724718 -0.0011584356798266526 -0.0027584861986724718 -9999.8809487577528 0.13737889478761645 0.021794831421214161 -0.0040967396380438004 0.021794831421214161 -2499.8307929962957 0.01606406747669098 -0.0040967396380438004 0.01606406747669098 -9999.8775666344118 0.13759667164049461 0.024325709478334817 -0.0090418676518311258 0.024325709478334817 -2499.8492507153605 0.0068335752512211911 -0.0090418676518311258 0.0068335752512211911 -9999.8696543788756 0.15563780039428821 0.0041401140404169964 6.2240050283435266e-05 0.0041401140404169964 -2499.8570096781741 -0.001235109430126613 6.2240050283435266e-05 -0.001235109430126613 -9999.8779588475663 0.13359140414468129 0.026487027183780702 -0.006785052066334174 0.026487027183780702 -2499.8489339699427 0.0031864114016570966 -0.006785052066334174 0.0031864114016570966 -9999.8859937505113 0.14322233512393723 0.0085503047839846497 -0.00038778127054683864 0.0085503047839846497 -2499.8631934692803 -0.01119370512333262 -0.00038778127054683864 -0.01119370512333262 -9999.8838067783909 0.13686652151955059 0.016605683518106106 0.0019583596968004713 0.016605683518106106 -2499.8830737369863 -0.0067776190426229732 0.0019583596968004713 -0.0067776190426229732 -9999.8828840066999 
</DataArray>
</CellData>
</Piece>
</UnstructuredGrid>
</VTKFile>
