<?xml version="1.0"?>
<VTKFile type="UnstructuredGrid" version="0.1" byte_order="LittleEndian">
<UnstructuredGrid>
<Piece NumberOfPoints="2876" NumberOfCells="719">
<Points>
<DataArray type="Float64" NumberOfComponents="3" format="ascii">
0.31610726166346748 0.18804489794572149 0 0.16929708765618309 0.30074819035915368 0 0.14641016151452901 0.14641016151487049 0 0.312576188949791 0.31458070521983672 0.3125761889497819 0 0.20000000000083221 0 0 0 0 0.14641016151452901 0.14641016151487049 0 0 0.14641016151432179 0.14641016151432179 0 0 0 0.19999999999955789 0 0 0.14641016151452901 0.14641016151487049 0 0.1464101615145241 0 0.14641016151486561 0 0.14641016151432179 0.14641016151432179 0 0 0.20000000000083221 0 0 0 0.1464101615145241 0 0.14641016151486561 0 0.14641016151432179 0.14641016151432179 0 0.30074819035869899 0.1692970876565193 0 0.18804489794560331 0.31610726166461361 0.312576188949791 0.31458070521983672 0.3125761889497819 0.31578456131778371 0 0.1865278143482666 0.1464101615145241 0 0.14641016151486561 0.16938214347656569 0 0.30011357660650623 0.312576188949791 0.31458070521983672 0.3125761889497819 0 0.14641016151432179 0.14641016151432179 0 0 0 0.14641016151452901 0.14641016151487049 0 0.1464101615145241 0 0.14641016151486561 0.14641016151452901 0.14641016151487049 0 0.1464101615145241 0 0.14641016151486561 0.31578456131778371 0 0.1865278143482666 0.312576188949791 0.31458070521983672 0.3125761889497819 0.14641016151452901 0.14641016151487049 0 0 0.30074819035869899 0.1692970876565193 0 0.14641016151432179 0.14641016151432179 0.312576188949791 0.31458070521983672 0.3125761889497819 0.14641016151452901 0.14641016151487049 0 0 0.14641016151432179 0.14641016151432179 0.1464101615145241 0 0.14641016151486561 0.312576188949791 0.31458070521983672 0.3125761889497819 0 0.14641016151432179 0.14641016151432179 0.16938214347656569 0 0.30011357660650623 0.1464101615145241 0 0.14641016151486561 0.312576188949791 0.31458070521983672 0.3125761889497819 0.1464101615145241 0 0.14641016151486561 0 0.14641016151432179 0.14641016151432179 0 0 0.20000000000083221 0.16938214347656569 0 0.30011357660650623 0 0.18804489794560331 0.31610726166461361 0 0 0.20000000000083221 0 0.14641016151432179 0.14641016151432179 0.16938214347656569 0 0.30011357660650623 0 0.14641016151432179 0.14641016151432179 0.14641016151452901 0.14641016151487049 0 0 0.20000000000083221 0 0 0.30074819035869899 0.1692970876565193 0 0.30074819035869899 0.1692970876565193 0.14641016151452901 0.14641016151487049 0 0 0.20000000000083221 0 0.16929708765618309 0.30074819035915368 0 0.19999999999955789 0 0 0.14641016151452901 0.14641016151487049 0 0.31578456131778371 0 0.1865278143482666 0.31610726166346748 0.18804489794572149 0 0.19999999999955789 0 0 0.14641016151452901 0.14641016151487049 0 0.1464101615145241 0 0.14641016151486561 0.31578456131778371 0 0.1865278143482666 0.31578456131778371 0 0.1865278143482666 0.3999999999989749 0 0 0.19999999999955789 0 0 0.31610726166346748 0.18804489794572149 0 0.31578456131778371 0 0.1865278143482666 0.31610726166346748 0.18804489794572149 0 0.14641016151452901 0.14641016151487049 0 0.312576188949791 0.31458070521983672 0.3125761889497819 0.31610726166346748 0.18804489794572149 0 0.312576188949791 0.31458070521983672 0.3125761889497819 0.31578456131778371 0 0.1865278143482666 0.5003997205654479 0.21136633249797621 0.2258422409314382 0.31610726166346748 0.18804489794572149 0 0.49391845158624981 0 0.1323760430705655 0.50966790549376417 0.16275515618023731 0 0.5003997205654479 0.21136633249797621 0.2258422409314382 0.31610726166346748 0.18804489794572149 0 0.50966790549376417 0.16275515618023731 0 0.45812322962036273 0.31024977578535839 0 0.5003997205654479 0.21136633249797621 0.2258422409314382 0.49391845158624981 0 0.1323760430705655 0.3999999999989749 0 0 0.31610726166346748 0.18804489794572149 0 0.50966790549376417 0.16275515618023731 0 0.49391845158624981 0 0.1323760430705655 0.3999999999989749 0 0 0.31578456131778371 0 0.1865278143482666 0.31610726166346748 0.18804489794572149 0 0.31578456131778371 0 0.1865278143482666 0.47688326899416439 0 0.31741132792405607 0.49391845158624981 0 0.1323760430705655 0.5003997205654479 0.21136633249797621 0.2258422409314382 0.31610726166346748 0.18804489794572149 0 0.31578456131778371 0 0.1865278143482666 0.49391845158624981 0 0.1323760430705655 0.5003997205654479 0.21136633249797621 0.2258422409314382 0.31030302876556398 0 0.54179813558513157 0.50073570207385831 0.24848280280289631 0.52886631355986169 0.32146143392436449 0 0.38738071487621961 0.22088738526309029 0.22111069116742441 0.50004796911802929 0.32146143392436449 0 0.38738071487621961 0.312576188949791 0.31458070521983672 0.3125761889497819 0.16938214347656569 0 0.30011357660650623 0.22088738526309029 0.22111069116742441 0.50004796911802929 0.32146143392436449 0 0.38738071487621961 0.50073570207385831 0.24848280280289631 0.52886631355986169 0.312576188949791 0.31458070521983672 0.3125761889497819 0.22088738526309029 0.22111069116742441 0.50004796911802929 0.32146143392436449 0 0.38738071487621961 0.50073570207385831 0.24848280280289631 0.52886631355986169 0.47688326899416439 0 0.31741132792405607 0.5003997205654479 0.21136633249797621 0.2258422409314382 0.32146143392436449 0 0.38738071487621961 0.312576188949791 0.31458070521983672 0.3125761889497819 0.50073570207385831 0.24848280280289631 0.52886631355986169 0.5003997205654479 0.21136633249797621 0.2258422409314382 0.32146143392436449 0 0.38738071487621961 0.31578456131778371 0 0.1865278143482666 0.16938214347656569 0 0.30011357660650623 0.312576188949791 0.31458070521983672 0.3125761889497819 0.31578456131778371 0 0.1865278143482666 0.312576188949791 0.31458070521983672 0.3125761889497819 0.32146143392436449 0 0.38738071487621961 0.5003997205654479 0.21136633249797621 0.2258422409314382 0.31578456131778371 0 0.1865278143482666 0.32146143392436449 0 0.38738071487621961 0.47688326899416439 0 0.31741132792405607 0.5003997205654479 0.21136633249797621 0.2258422409314382 0.31030302876556398 0 0.54179813558513157 0.50000000000250922 0 0.48038475773043671 0.32146143392436449 0 0.38738071487621961 0.50073570207385831 0.24848280280289631 0.52886631355986169 0.32146143392436449 0 0.38738071487621961 0.50000000000250922 0 0.48038475773043671 0.47688326899416439 0 0.31741132792405607 0.50073570207385831 0.24848280280289631 0.52886631355986169 0.16370661204827031 0 0.4886650857430957 0.31030302876556398 0 0.54179813558513157 0.32146143392436449 0 0.38738071487621961 0.22088738526309029 0.22111069116742441 0.50004796911802929 0.16370661204827031 0 0.4886650857430957 0.32146143392436449 0 0.38738071487621961 0.16938214347656569 0 0.30011357660650623 0.22088738526309029 0.22111069116742441 0.50004796911802929 0.16938214347656569 0 0.30011357660650623 0 0.14641016151432179 0.14641016151432179 0 0.18804489794560331 0.31610726166461361 0.312576188949791 0.31458070521983672 0.3125761889497819 0 0.18804489794560331 0.31610726166461361 0.16370661204827031 0 0.4886650857430957 0.16938214347656569 0 0.30011357660650623 0.22088738526309029 0.22111069116742441 0.50004796911802929 0 0.18804489794560331 0.31610726166461361 0.16938214347656569 0 0.30011357660650623 0.312576188949791 0.31458070521983672 0.3125761889497819 0.22088738526309029 0.22111069116742441 0.50004796911802929 0 0 0.40000000000166441 0 0 0.60000000000138687 0.16370661204827031 0 0.4886650857430957 0 0.16275515618034081 0.50966790549591257 0 0 0.40000000000166441 0 0.18804489794560331 0.31610726166461361 0.16370661204827031 0 0.4886650857430957 0.16938214347656569 0 0.30011357660650623 0.16370661204827031 0 0.4886650857430957 0 0.18804489794560331 0.31610726166461361 0 0 0.40000000000166441 0 0.16275515618034081 0.50966790549591257 0 0.18804489794560331 0.31610726166461361 0 0 0.40000000000166441 0 0 0.20000000000083221 0.16938214347656569 0 0.30011357660650623 0 0.18804489794560331 0.31610726166461361 0 0.16275515618034081 0.50966790549591257 0.16370661204827031 0 0.4886650857430957 0.22088738526309029 0.22111069116742441 0.50004796911802929 0 0.18804489794560331 0.31610726166461361 0 0.31024977578556651 0.45812322962166352 0 0.16275515618034081 0.50966790549591257 0.22088738526309029 0.22111069116742441 0.50004796911802929 0 0.30074819035869899 0.1692970876565193 0 0.39615100178029522 0.32925244736138171 0 0.18804489794560331 0.31610726166461361 0.312576188949791 0.31458070521983672 0.3125761889497819 0 0.31024977578556651 0.45812322962166352 0.312576188949791 0.31458070521983672 0.3125761889497819 0.24769234054476261 0.52242103280823293 0.45098450226372488 0.22088738526309029 0.22111069116742441 0.50004796911802929 0 0.18804489794560331 0.31610726166461361 0 0.39615100178029522 0.32925244736138171 0 0.31024977578556651 0.45812322962166352 0.312576188949791 0.31458070521983672 0.3125761889497819 0 0.39615100178029522 0.32925244736138171 0.24769234054476261 0.52242103280823293 0.45098450226372488 0.312576188949791 0.31458070521983672 0.3125761889497819 0.22345881830598399 0.5062398304147856 0.22345881830602041 0 0.31024977578556651 0.45812322962166352 0.312576188949791 0.31458070521983672 0.3125761889497819 0 0.39615100178029522 0.32925244736138171 0.24769234054476261 0.52242103280823293 0.45098450226372488 0 0.30074819035869899 0.1692970876565193 0 0.39615100178029522 0.32925244736138171 0.312576188949791 0.31458070521983672 0.3125761889497819 0.22345881830598399 0.5062398304147856 0.22345881830602041 0 0.18804489794560331 0.31610726166461361 0.312576188949791 0.31458070521983672 0.3125761889497819 0 0.31024977578556651 0.45812322962166352 0.22088738526309029 0.22111069116742441 0.50004796911802929 0 0.31024977578556651 0.45812322962166352 0 0.39615100178029522 0.32925244736138171 0 0.50000000000237477 0.51961524226909872 0.24769234054476261 0.52242103280823293 0.45098450226372488 0.50000000000001332 0.49999999999999561 0.49999999999999561 0.50073570207385831 0.24848280280289631 0.52886631355986169 0.312576188949791 0.31458070521983672 0.3125761889497819 0.5004045312576143 0.47050700646456922 0.24963111222780321 0.24769234054476261 0.52242103280823293 0.45098450226372488 0.5004045312576143 0.47050700646456922 0.24963111222780321 0.312576188949791 0.31458070521983672 0.3125761889497819 0.22345881830598399 0.5062398304147856 0.22345881830602041 0.312576188949791 0.31458070521983672 0.3125761889497819 0.5004045312576143 0.47050700646456922 0.24963111222780321 0.50073570207385831 0.24848280280289631 0.52886631355986169 0.5003997205654479 0.21136633249797621 0.2258422409314382 0.50000000000001332 0.49999999999999561 0.49999999999999561 0.24769234054476261 0.52242103280823293 0.45098450226372488 0.312576188949791 0.31458070521983672 0.3125761889497819 0.50073570207385831 0.24848280280289631 0.52886631355986169 0.312576188949791 0.31458070521983672 0.3125761889497819 0.24769234054476261 0.52242103280823293 0.45098450226372488 0.50000000000001332 0.49999999999999561 0.49999999999999561 0.5004045312576143 0.47050700646456922 0.24963111222780321 0.312576188949791 0.31458070521983672 0.3125761889497819 0.50073570207385831 0.24848280280289631 0.52886631355986169 0.24769234054476261 0.52242103280823293 0.45098450226372488 0.22088738526309029 0.22111069116742441 0.50004796911802929 0.32925244736090059 0.39615100178043078 0 0.312576188949791 0.31458070521983672 0.3125761889497819 0.45812322962036273 0.31024977578535839 0 0.5004045312576143 0.47050700646456922 0.24963111222780321 0.32925244736090059 0.39615100178043078 0 0.5004045312576143 0.47050700646456922 0.24963111222780321 0.32446581821364329 0.60020898676454815 0 0.22345881830598399 0.5062398304147856 0.22345881830602041 0.45812322962036273 0.31024977578535839 0 0.5004045312576143 0.47050700646456922 0.24963111222780321 0.312576188949791 0.31458070521983672 0.3125761889497819 0.5003997205654479 0.21136633249797621 0.2258422409314382 0.45812322962036273 0.31024977578535839 0 0.32925244736090059 0.39615100178043078 0 0.31610726166346748 0.18804489794572149 0 0.312576188949791 0.31458070521983672 0.3125761889497819 0.16929708765618309 0.30074819035915368 0 0.312576188949791 0.31458070521983672 0.3125761889497819 0.32925244736090059 0.39615100178043078 0 0.22345881830598399 0.5062398304147856 0.22345881830602041 0.31610726166346748 0.18804489794572149 0 0.45812322962036273 0.31024977578535839 0 0.312576188949791 0.31458070521983672 0.3125761889497819 0.5003997205654479 0.21136633249797621 0.2258422409314382 0.32925244736090059 0.39615100178043078 0 0.312576188949791 0.31458070521983672 0.3125761889497819 0.5004045312576143 0.47050700646456922 0.24963111222780321 0.22345881830598399 0.5062398304147856 0.22345881830602041 0.32925244736090059 0.39615100178043078 0 0.16929708765618309 0.30074819035915368 0 0.31610726166346748 0.18804489794572149 0 0.312576188949791 0.31458070521983672 0.3125761889497819 0.32446581821364329 0.60020898676454815 0 0.32925244736090059 0.39615100178043078 0 0.51961524226956368 0.5000000000025091 0 0.5004045312576143 0.47050700646456922 0.24963111222780321 0.51961524226956368 0.5000000000025091 0 0.32925244736090059 0.39615100178043078 0 0.45812322962036273 0.31024977578535839 0 0.5004045312576143 0.47050700646456922 0.24963111222780321 0 0.30074819035869899 0.1692970876565193 0.14641016151452901 0.14641016151487049 0 0.16929708765618309 0.30074819035915368 0 0.312576188949791 0.31458070521983672 0.3125761889497819 0 0.30074819035869899 0.1692970876565193 0.312576188949791 0.31458070521983672 0.3125761889497819 0.16929708765618309 0.30074819035915368 0 0.22345881830598399 0.5062398304147856 0.22345881830602041 0.17226134197279269 0.49836539647922029 0 0 0.49836539647891548 0.17226134197271731 0.16929708765618309 0.30074819035915368 0 0.22345881830598399 0.5062398304147856 0.22345881830602041 0.17226134197279269 0.49836539647922029 0 0.16929708765618309 0.30074819035915368 0 0.32925244736090059 0.39615100178043078 0 0.22345881830598399 0.5062398304147856 0.22345881830602041 0 0.30074819035869899 0.1692970876565193 0 0.20000000000083221 0 0 0.40000000000166441 0 0.16929708765618309 0.30074819035915368 0 0 0.30074819035869899 0.1692970876565193 0 0.40000000000166441 0 0 0.49836539647891548 0.17226134197271731 0.16929708765618309 0.30074819035915368 0 0 0.30074819035869899 0.1692970876565193 0.16929708765618309 0.30074819035915368 0 0 0.49836539647891548 0.17226134197271731 0.22345881830598399 0.5062398304147856 0.22345881830602041 0 0.30074819035869899 0.1692970876565193 0 0.49836539647891548 0.17226134197271731 0 0.39615100178029522 0.32925244736138171 0.22345881830598399 0.5062398304147856 0.22345881830602041 0 0.49836539647891548 0.17226134197271731 0 0.40000000000166441 0 0 0.60000000000138687 0 0.17226134197279269 0.49836539647922029 0 0.16929708765618309 0.30074819035915368 0 0 0.40000000000166441 0 0 0.49836539647891548 0.17226134197271731 0.17226134197279269 0.49836539647922029 0 0 0.69449451837103049 0.15896804272139439 0 0.60020898676435996 0.32446581821286191 0.22345881830598399 0.5062398304147856 0.22345881830602041 0.19259015428765269 0.77719169076434647 0.19259015428773721 0.1589680427220837 0.69449451837091269 0 0 0.69449451837103049 0.15896804272139439 0.22345881830598399 0.5062398304147856 0.22345881830602041 0.19259015428765269 0.77719169076434647 0.19259015428773721 0 0.69449451837103049 0.15896804272139439 0.17226134197279269 0.49836539647922029 0 0 0.60000000000138687 0 0.1589680427220837 0.69449451837091269 0 0.32446581821364329 0.60020898676454815 0 0.1589680427220837 0.69449451837091269 0 0.22345881830598399 0.5062398304147856 0.22345881830602041 0.19259015428765269 0.77719169076434647 0.19259015428773721 0 0.60000000000138687 0 0 0.49836539647891548 0.17226134197271731 0.17226134197279269 0.49836539647922029 0 0 0.69449451837103049 0.15896804272139439 0 0.69449451837103049 0.15896804272139439 0 0.60000000000138687 0 0 0.79999999999999982 0 0.1589680427220837 0.69449451837091269 0 0.31067093463127438 0.81480288849489035 0 0.1589680427220837 0.69449451837091269 0 0.32446581821364329 0.60020898676454815 0 0.19259015428765269 0.77719169076434647 0.19259015428773721 0.32446581821364329 0.60020898676454815 0 0.1589680427220837 0.69449451837091269 0 0.17226134197279269 0.49836539647922029 0 0.22345881830598399 0.5062398304147856 0.22345881830602041 0.1589680427220837 0.69449451837091269 0 0 0.69449451837103049 0.15896804272139439 0.17226134197279269 0.49836539647922029 0 0.22345881830598399 0.5062398304147856 0.22345881830602041 0 0.69449451837103049 0.15896804272139439 0 0.81480288849496429 0.31067093462946233 0 0.60020898676435996 0.32446581821286191 0.19259015428765269 0.77719169076434647 0.19259015428773721 0 0.49836539647891548 0.17226134197271731 0 0.69449451837103049 0.15896804272139439 0 0.60020898676435996 0.32446581821286191 0.22345881830598399 0.5062398304147856 0.22345881830602041 0 0.49836539647891548 0.17226134197271731 0.17226134197279269 0.49836539647922029 0 0 0.69449451837103049 0.15896804272139439 0.22345881830598399 0.5062398304147856 0.22345881830602041 0 0.60020898676435996 0.32446581821286191 0.22516916914780419 0.77057994845201627 0.48187244075707292 0.35848654557803328 0.70013656506632282 0.30029870175293161 0.19259015428765269 0.77719169076434647 0.19259015428773721 0 0.60020898676435996 0.32446581821286191 0.24769234054476261 0.52242103280823293 0.45098450226372488 0 0.39615100178029522 0.32925244736138171 0.22345881830598399 0.5062398304147856 0.22345881830602041 0 0.60020898676435996 0.32446581821286191 0 0.81480288849496429 0.31067093462946233 0.22516916914780419 0.77057994845201627 0.48187244075707292 0.19259015428765269 0.77719169076434647 0.19259015428773721 0.35848654557803328 0.70013656506632282 0.30029870175293161 0.22345881830598399 0.5062398304147856 0.22345881830602041 0 0.60020898676435996 0.32446581821286191 0.19259015428765269 0.77719169076434647 0.19259015428773721 0 0.49836539647891548 0.17226134197271731 0 0.60020898676435996 0.32446581821286191 0 0.39615100178029522 0.32925244736138171 0.22345881830598399 0.5062398304147856 0.22345881830602041 0 0.60020898676435996 0.32446581821286191 0.24769234054476261 0.52242103280823293 0.45098450226372488 0.35848654557803328 0.70013656506632282 0.30029870175293161 0.22516916914780419 0.77057994845201627 0.48187244075707292 0.35848654557803328 0.70013656506632282 0.30029870175293161 0.24769234054476261 0.52242103280823293 0.45098450226372488 0 0.60020898676435996 0.32446581821286191 0.22345881830598399 0.5062398304147856 0.22345881830602041 0 0.39615100178029522 0.32925244736138171 0 0.60020898676435996 0.32446581821286191 0 0.50000000000237477 0.51961524226909872 0.24769234054476261 0.52242103280823293 0.45098450226372488 0 0.68801781652248195 0.45664527743358641 0 0.50000000000237477 0.51961524226909872 0 0.60020898676435996 0.32446581821286191 0.24769234054476261 0.52242103280823293 0.45098450226372488 0 0.66416205381430016 0.59944234540882957 0.24769234054476261 0.52242103280823293 0.45098450226372488 0 0.68801781652248195 0.45664527743358641 0.22516916914780419 0.77057994845201627 0.48187244075707292 0 0.60020898676435996 0.32446581821286191 0 0.81480288849496429 0.31067093462946233 0 0.68801781652248195 0.45664527743358641 0.22516916914780419 0.77057994845201627 0.48187244075707292 0 0.68801781652248195 0.45664527743358641 0.24769234054476261 0.52242103280823293 0.45098450226372488 0 0.60020898676435996 0.32446581821286191 0.22516916914780419 0.77057994845201627 0.48187244075707292 0.16929708765615539 1 0.30074819035677097 0.32926555316115258 1 0.39615987727515128 0.22516916914780419 0.77057994845201627 0.48187244075707292 0.19259015428765269 0.77719169076434647 0.19259015428773721 0 0.81480288849496429 0.31067093462946233 0.16929708765615539 1 0.30074819035677097 0.22516916914780419 0.77057994845201627 0.48187244075707292 0.19259015428765269 0.77719169076434647 0.19259015428773721 0.17226134197293 1 0.49836539647645101 0 0.83630110503664845 0.50803330197135654 0 0.81480288849496429 0.31067093462946233 0.22516916914780419 0.77057994845201627 0.48187244075707292 0 0.68801781652248195 0.45664527743358641 0 0.81480288849496429 0.31067093462946233 0 0.83630110503664845 0.50803330197135654 0.22516916914780419 0.77057994845201627 0.48187244075707292 0.17226134197293 1 0.49836539647645101 0 1 0.3999999999989749 0 0.81480288849496429 0.31067093462946233 0 0.83630110503664845 0.50803330197135654 0 0.81480288849496429 0.31067093462946233 0.16929708765615539 1 0.30074819035677097 0 1 0.3999999999989749 0.17226134197293 1 0.49836539647645101 0.17226134197293 1 0.49836539647645101 0 0.81480288849496429 0.31067093462946233 0.16929708765615539 1 0.30074819035677097 0.22516916914780419 0.77057994845201627 0.48187244075707292 0.17226134197293 1 0.49836539647645101 0.16929708765615539 1 0.30074819035677097 0.32926555316115258 1 0.39615987727515128 0.22516916914780419 0.77057994845201627 0.48187244075707292 0 1 0.3999999999989749 0 1 0.19999999999955789 0.16929708765615539 1 0.30074819035677097 0 0.81480288849496429 0.31067093462946233 0.16929708765615539 1 0.30074819035677097 0 1 0.19999999999955789 0 0.85358983848655678 0.14641016151332509 0 0.81480288849496429 0.31067093462946233 0.14641016151352521 1 0.1464101615131837 0 1 0.19999999999955789 0 0.85358983848655678 0.14641016151332509 0.16929708765615539 1 0.30074819035677097 0.20000000000083221 1 0 0 1 0 0.14641016151479211 0.85358983848543113 0 0.14641016151352521 1 0.1464101615131837 0 0.85358983848655678 0.14641016151332509 0 1 0 0 1 0.19999999999955789 0.14641016151352521 1 0.1464101615131837 0 0.85358983848655678 0.14641016151332509 0.14641016151479211 0.85358983848543113 0 0 1 0 0.14641016151352521 1 0.1464101615131837 0.14641016151479211 0.85358983848543113 0 0 1 0 0 0.79999999999999982 0 0 0.85358983848655678 0.14641016151332509 0 0.85358983848655678 0.14641016151332509 0 0.69449451837103049 0.15896804272139439 0.1589680427220837 0.69449451837091269 0 0.19259015428765269 0.77719169076434647 0.19259015428773721 0 0.79999999999999982 0 0.1589680427220837 0.69449451837091269 0 0.14641016151479211 0.85358983848543113 0 0 0.85358983848655678 0.14641016151332509 0.14641016151352521 1 0.1464101615131837 0 0.85358983848655678 0.14641016151332509 0.14641016151479211 0.85358983848543113 0 0.19259015428765269 0.77719169076434647 0.19259015428773721 0.1589680427220837 0.69449451837091269 0 0 0.79999999999999982 0 0 0.69449451837103049 0.15896804272139439 0 0.85358983848655678 0.14641016151332509 0.1589680427220837 0.69449451837091269 0 0.14641016151479211 0.85358983848543113 0 0 0.85358983848655678 0.14641016151332509 0.19259015428765269 0.77719169076434647 0.19259015428773721 0.16929708765615539 1 0.30074819035677097 0 0.81480288849496429 0.31067093462946233 0 0.85358983848655678 0.14641016151332509 0.19259015428765269 0.77719169076434647 0.19259015428773721 0 0.85358983848655678 0.14641016151332509 0 0.81480288849496429 0.31067093462946233 0 0.69449451837103049 0.15896804272139439 0.19259015428765269 0.77719169076434647 0.19259015428773721 0.14641016151352521 1 0.1464101615131837 0.14641016151479211 0.85358983848543113 0 0.31067093463127438 0.81480288849489035 0 0.19259015428765269 0.77719169076434647 0.19259015428773721 0.1589680427220837 0.69449451837091269 0 0.31067093463127438 0.81480288849489035 0 0.14641016151479211 0.85358983848543113 0 0.19259015428765269 0.77719169076434647 0.19259015428773721 0.14641016151479211 0.85358983848543113 0 0.31067093463127438 0.81480288849489035 0 0.20000000000083221 1 0 0.14641016151352521 1 0.1464101615131837 0.31635851157303152 1 0.18818969570840721 0.20000000000083221 1 0 0.31067093463127438 0.81480288849489035 0 0.14641016151352521 1 0.1464101615131837 0.31067093463127438 0.81480288849489035 0 0.31635851157303152 1 0.18818969570840721 0.14641016151352521 1 0.1464101615131837 0.19259015428765269 0.77719169076434647 0.19259015428773721 0.31635851157303152 1 0.18818969570840721 0.16929708765615539 1 0.30074819035677097 0.14641016151352521 1 0.1464101615131837 0.19259015428765269 0.77719169076434647 0.19259015428773721 0.14641016151352521 1 0.1464101615131837 0.16929708765615539 1 0.30074819035677097 0 0.85358983848655678 0.14641016151332509 0.19259015428765269 0.77719169076434647 0.19259015428773721 0.35848654557803328 0.70013656506632282 0.30029870175293161 0.19259015428765269 0.77719169076434647 0.19259015428773721 0.31635851157303152 1 0.18818969570840721 0.52894546611500048 0.79133000140429866 0.2082794184507949 0.31067093463127438 0.81480288849489035 0 0.19259015428765269 0.77719169076434647 0.19259015428773721 0.35848654557803328 0.70013656506632282 0.30029870175293161 0.52894546611500048 0.79133000140429866 0.2082794184507949 0.31067093463127438 0.81480288849489035 0 0.31635851157303152 1 0.18818969570840721 0.19259015428765269 0.77719169076434647 0.19259015428773721 0.52894546611500048 0.79133000140429866 0.2082794184507949 0.31067093463127438 0.81480288849489035 0 0.40000000000166441 1 0 0.20000000000083221 1 0 0.31635851157303152 1 0.18818969570840721 0.31067093463127438 0.81480288849489035 0 0.50803330197353713 0.83630110503668265 0 0.31635851157303152 1 0.18818969570840721 0.52894546611500048 0.79133000140429866 0.2082794184507949 0.45664527743509797 0.68801781652245086 0 0.50803330197353713 0.83630110503668265 0 0.31067093463127438 0.81480288849489035 0 0.52894546611500048 0.79133000140429866 0.2082794184507949 0.51133491425992716 1 0.16370661204795281 0.31635851157303152 1 0.18818969570840721 0.40000000000166441 1 0 0.50803330197353713 0.83630110503668265 0 0.31635851157303152 1 0.18818969570840721 0.31067093463127438 0.81480288849489035 0 0.40000000000166441 1 0 0.50803330197353713 0.83630110503668265 0 0.51133491425992716 1 0.16370661204795281 0.45820186441796368 1 0.31030302876579191 0.31635851157303152 1 0.18818969570840721 0.52894546611500048 0.79133000140429866 0.2082794184507949 0.51133491425992716 1 0.16370661204795281 0.31635851157303152 1 0.18818969570840721 0.50803330197353713 0.83630110503668265 0 0.52894546611500048 0.79133000140429866 0.2082794184507949 0.32926555316115258 1 0.39615987727515128 0.35848654557803328 0.70013656506632282 0.30029870175293161 0.49983993748706529 0.75039103705932653 0.52967335724801234 0.22516916914780419 0.77057994845201627 0.48187244075707292 0.35848654557803328 0.70013656506632282 0.30029870175293161 0.22516916914780419 0.77057994845201627 0.48187244075707292 0.32926555316115258 1 0.39615987727515128 0.19259015428765269 0.77719169076434647 0.19259015428773721 0.31635851157303152 1 0.18818969570840721 0.45820186441796368 1 0.31030302876579191 0.32926555316115258 1 0.39615987727515128 0.35848654557803328 0.70013656506632282 0.30029870175293161 0.45820186441796368 1 0.31030302876579191 0.35848654557803328 0.70013656506632282 0.30029870175293161 0.31635851157303152 1 0.18818969570840721 0.52894546611500048 0.79133000140429866 0.2082794184507949 0.31635851157303152 1 0.18818969570840721 0.35848654557803328 0.70013656506632282 0.30029870175293161 0.32926555316115258 1 0.39615987727515128 0.19259015428765269 0.77719169076434647 0.19259015428773721 0.45820186441796368 1 0.31030302876579191 0.49983993748706529 0.75039103705932653 0.52967335724801234 0.35848654557803328 0.70013656506632282 0.30029870175293161 0.52894546611500048 0.79133000140429866 0.2082794184507949 0.45820186441796368 1 0.31030302876579191 0.32926555316115258 1 0.39615987727515128 0.35848654557803328 0.70013656506632282 0.30029870175293161 0.49983993748706529 0.75039103705932653 0.52967335724801234 0.31635851157303152 1 0.18818969570840721 0.32926555316115258 1 0.39615987727515128 0.16929708765615539 1 0.30074819035677097 0.19259015428765269 0.77719169076434647 0.19259015428773721 0.32926555316115258 1 0.39615987727515128 0.32448110831226962 1 0.6002015905153204 0.17226134197293 1 0.49836539647645101 0.22516916914780419 0.77057994845201627 0.48187244075707292 0.45820186441796368 1 0.31030302876579191 0.51961524227008238 1 0.49999999999872219 0.32926555316115258 1 0.39615987727515128 0.49983993748706529 0.75039103705932653 0.52967335724801234 0.24769234054476261 0.52242103280823293 0.45098450226372488 0.49983993748706529 0.75039103705932653 0.52967335724801234 0.35848654557803328 0.70013656506632282 0.30029870175293161 0.22516916914780419 0.77057994845201627 0.48187244075707292 0.35848654557803328 0.70013656506632282 0.30029870175293161 0.50000000000001332 0.49999999999999561 0.49999999999999561 0.24769234054476261 0.52242103280823293 0.45098450226372488 0.5004045312576143 0.47050700646456922 0.24963111222780321 0.35848654557803328 0.70013656506632282 0.30029870175293161 0.24769234054476261 0.52242103280823293 0.45098450226372488 0.50000000000001332 0.49999999999999561 0.49999999999999561 0.49983993748706529 0.75039103705932653 0.52967335724801234 0.35848654557803328 0.70013656506632282 0.30029870175293161 0.5004045312576143 0.47050700646456922 0.24963111222780321 0.24769234054476261 0.52242103280823293 0.45098450226372488 0.22345881830598399 0.5062398304147856 0.22345881830602041 0.35848654557803328 0.70013656506632282 0.30029870175293161 0.32446581821364329 0.60020898676454815 0 0.5004045312576143 0.47050700646456922 0.24963111222780321 0.22345881830598399 0.5062398304147856 0.22345881830602041 0.31067093463127438 0.81480288849489035 0 0.32446581821364329 0.60020898676454815 0 0.45664527743509797 0.68801781652245086 0 0.35848654557803328 0.70013656506632282 0.30029870175293161 0.32446581821364329 0.60020898676454815 0 0.22345881830598399 0.5062398304147856 0.22345881830602041 0.35848654557803328 0.70013656506632282 0.30029870175293161 0.19259015428765269 0.77719169076434647 0.19259015428773721 0.32446581821364329 0.60020898676454815 0 0.45664527743509797 0.68801781652245086 0 0.35848654557803328 0.70013656506632282 0.30029870175293161 0.5004045312576143 0.47050700646456922 0.24963111222780321 0.31067093463127438 0.81480288849489035 0 0.32446581821364329 0.60020898676454815 0 0.35848654557803328 0.70013656506632282 0.30029870175293161 0.19259015428765269 0.77719169076434647 0.19259015428773721 0.45664527743509797 0.68801781652245086 0 0.31067093463127438 0.81480288849489035 0 0.35848654557803328 0.70013656506632282 0.30029870175293161 0.52894546611500048 0.79133000140429866 0.2082794184507949 0.35848654557803328 0.70013656506632282 0.30029870175293161 0.5004045312576143 0.47050700646456922 0.24963111222780321 0.45664527743509797 0.68801781652245086 0 0.52894546611500048 0.79133000140429866 0.2082794184507949 0.17226134197279269 0.49836539647922029 0 0.32925244736090059 0.39615100178043078 0 0.32446581821364329 0.60020898676454815 0 0.22345881830598399 0.5062398304147856 0.22345881830602041 0.32446581821364329 0.60020898676454815 0 0.51961524226956368 0.5000000000025091 0 0.45664527743509797 0.68801781652245086 0 0.5004045312576143 0.47050700646456922 0.24963111222780321 0.72722573386132172 0.60922248848163563 0 0.68456408135056701 0.68607101396845627 0.31096060989957619 0.59944234541082553 0.66416205381394655 0 0.77713227489941183 0.50036915849493024 0.21774643624003751 0.68456408135056701 0.68607101396845627 0.31096060989957619 0.5004045312576143 0.47050700646456922 0.24963111222780321 0.59944234541082553 0.66416205381394655 0 0.77713227489941183 0.50036915849493024 0.21774643624003751 0.59944234541082553 0.66416205381394655 0 0.45664527743509797 0.68801781652245086 0 0.5004045312576143 0.47050700646456922 0.24963111222780321 0.52894546611500048 0.79133000140429866 0.2082794184507949 0.51961524226956368 0.5000000000025091 0 0.67320508075660079 0.46954769941202479 0 0.59944234541082553 0.66416205381394655 0 0.5004045312576143 0.47050700646456922 0.24963111222780321 0.59944234541082553 0.66416205381394655 0 0.5004045312576143 0.47050700646456922 0.24963111222780321 0.68456408135056701 0.68607101396845627 0.31096060989957619 0.52894546611500048 0.79133000140429866 0.2082794184507949 0.59944234541082553 0.66416205381394655 0 0.5004045312576143 0.47050700646456922 0.24963111222780321 0.67320508075660079 0.46954769941202479 0 0.77713227489941183 0.50036915849493024 0.21774643624003751 0.59944234541082553 0.66416205381394655 0 0.52894546611500048 0.79133000140429866 0.2082794184507949 0.68456408135056701 0.68607101396845627 0.31096060989957619 0.81582077266975173 0.77657922508894406 0.18483084990574741 0.59944234541082553 0.66416205381394655 0 0.45664527743509797 0.68801781652245086 0 0.51961524226956368 0.5000000000025091 0 0.5004045312576143 0.47050700646456922 0.24963111222780321 0.59944234541082553 0.66416205381394655 0 0.68456408135056701 0.68607101396845627 0.31096060989957619 0.72722573386132172 0.60922248848163563 0 0.81582077266975173 0.77657922508894406 0.18483084990574741 0.45664527743509797 0.68801781652245086 0 0.59944234541082553 0.66416205381394655 0 0.50803330197353713 0.83630110503668265 0 0.52894546611500048 0.79133000140429866 0.2082794184507949 0.59944234541082553 0.66416205381394655 0 0.72722573386132172 0.60922248848163563 0 0.7054234997318658 0.80860557108880304 0 0.81582077266975173 0.77657922508894406 0.18483084990574741 0.72722573386132172 0.60922248848163563 0 0.59944234541082553 0.66416205381394655 0 0.67320508075660079 0.46954769941202479 0 0.77713227489941183 0.50036915849493024 0.21774643624003751 0.68456408135056701 0.68607101396845627 0.31096060989957619 0.5004045312576143 0.47050700646456922 0.24963111222780321 0.35848654557803328 0.70013656506632282 0.30029870175293161 0.52894546611500048 0.79133000140429866 0.2082794184507949 0.68456408135056701 0.68607101396845627 0.31096060989957619 0.35848654557803328 0.70013656506632282 0.30029870175293161 0.50000000000001332 0.49999999999999561 0.49999999999999561 0.49983993748706529 0.75039103705932653 0.52967335724801234 0.50000000000001332 0.49999999999999561 0.49999999999999561 0.35848654557803328 0.70013656506632282 0.30029870175293161 0.68456408135056701 0.68607101396845627 0.31096060989957619 0.5004045312576143 0.47050700646456922 0.24963111222780321 0.50000000000001332 0.49999999999999561 0.49999999999999561 0.68456408135056701 0.68607101396845627 0.31096060989957619 0.7504488434426726 0.53051757989633308 0.49836643074154852 0.5004045312576143 0.47050700646456922 0.24963111222780321 0.68456408135056701 0.68607101396845627 0.31096060989957619 0.49983993748706529 0.75039103705932653 0.52967335724801234 0.7504488434426726 0.53051757989633308 0.49836643074154852 0.77374673111774417 0.78860835645735528 0.49829081152968557 0.7504488434426726 0.53051757989633308 0.49836643074154852 0.5004045312576143 0.47050700646456922 0.24963111222780321 0.68456408135056701 0.68607101396845627 0.31096060989957619 0.77713227489941183 0.50036915849493024 0.21774643624003751 0.35848654557803328 0.70013656506632282 0.30029870175293161 0.49983993748706529 0.75039103705932653 0.52967335724801234 0.68456408135056701 0.68607101396845627 0.31096060989957619 0.52894546611500048 0.79133000140429866 0.2082794184507949 0.50000000000001332 0.49999999999999561 0.49999999999999561 0.7504488434426726 0.53051757989633308 0.49836643074154852 0.68456408135056701 0.68607101396845627 0.31096060989957619 0.49983993748706529 0.75039103705932653 0.52967335724801234 0.68456408135056701 0.68607101396845627 0.31096060989957619 0.52894546611500048 0.79133000140429866 0.2082794184507949 0.61068558124908323 1 0.33127740899601937 0.81582077266975173 0.77657922508894406 0.18483084990574741 0.61068558124908323 1 0.33127740899601937 0.49983993748706529 0.75039103705932653 0.52967335724801234 0.68456408135056701 0.68607101396845627 0.31096060989957619 0.77374673111774417 0.78860835645735528 0.49829081152968557 0.61068558124908323 1 0.33127740899601937 0.68240285647621723 1 0.52310058211166854 0.49983993748706529 0.75039103705932653 0.52967335724801234 0.77374673111774417 0.78860835645735528 0.49829081152968557 0.82751535738810444 1 0.31407731390515509 0.68456408135056701 0.68607101396845627 0.31096060989957619 0.61068558124908323 1 0.33127740899601937 0.81582077266975173 0.77657922508894406 0.18483084990574741 0.45820186441796368 1 0.31030302876579191 0.61068558124908323 1 0.33127740899601937 0.49983993748706529 0.75039103705932653 0.52967335724801234 0.52894546611500048 0.79133000140429866 0.2082794184507949 0.61068558124908323 1 0.33127740899601937 0.68456408135056701 0.68607101396845627 0.31096060989957619 0.82751535738810444 1 0.31407731390515509 0.77374673111774417 0.78860835645735528 0.49829081152968557 0.68456408135056701 0.68607101396845627 0.31096060989957619 0.49983993748706529 0.75039103705932653 0.52967335724801234 0.61068558124908323 1 0.33127740899601937 0.52894546611500048 0.79133000140429866 0.2082794184507949 0.61068558124908323 1 0.33127740899601937 0.68240285647621723 1 0.52310058211166854 0.51961524227008238 1 0.49999999999872219 0.49983993748706529 0.75039103705932653 0.52967335724801234 0.51961524227008238 1 0.49999999999872219 0.45820186441796368 1 0.31030302876579191 0.61068558124908323 1 0.33127740899601937 0.49983993748706529 0.75039103705932653 0.52967335724801234 0.68240285647621723 1 0.52310058211166854 0.61068558124908323 1 0.33127740899601937 0.82751535738810444 1 0.31407731390515509 0.77374673111774417 0.78860835645735528 0.49829081152968557 0.51133491425992716 1 0.16370661204795281 0.61068558124908323 1 0.33127740899601937 0.45820186441796368 1 0.31030302876579191 0.52894546611500048 0.79133000140429866 0.2082794184507949 0.51133491425992716 1 0.16370661204795281 0.69988642339594154 1 0.16938214347578889 0.61068558124908323 1 0.33127740899601937 0.52894546611500048 0.79133000140429866 0.2082794184507949 0.69988642339594154 1 0.16938214347578889 0.61068558124908323 1 0.33127740899601937 0.52894546611500048 0.79133000140429866 0.2082794184507949 0.81582077266975173 0.77657922508894406 0.18483084990574741 0.69988642339594154 1 0.16938214347578889 0.52894546611500048 0.79133000140429866 0.2082794184507949 0.7054234997318658 0.80860557108880304 0 0.81582077266975173 0.77657922508894406 0.18483084990574741 0.69988642339594154 1 0.16938214347578889 0.51133491425992716 1 0.16370661204795281 0.50803330197353713 0.83630110503668265 0 0.52894546611500048 0.79133000140429866 0.2082794184507949 0.59944234541082553 0.66416205381394655 0 0.7054234997318658 0.80860557108880304 0 0.52894546611500048 0.79133000140429866 0.2082794184507949 0.81582077266975173 0.77657922508894406 0.18483084990574741 0.60000000000138687 1 0 0.69988642339594154 1 0.16938214347578889 0.51133491425992716 1 0.16370661204795281 0.50803330197353713 0.83630110503668265 0 0.51133491425992716 1 0.16370661204795281 0.40000000000166441 1 0 0.60000000000138687 1 0 0.50803330197353713 0.83630110503668265 0 0.50803330197353713 0.83630110503668265 0 0.59944234541082553 0.66416205381394655 0 0.7054234997318658 0.80860557108880304 0 0.52894546611500048 0.79133000140429866 0.2082794184507949 0.69988642339594154 1 0.16938214347578889 0.50803330197353713 0.83630110503668265 0 0.7054234997318658 0.80860557108880304 0 0.52894546611500048 0.79133000140429866 0.2082794184507949 0.60000000000138687 1 0 0.79999999999999982 1 0 0.69988642339594154 1 0.16938214347578889 0.7054234997318658 0.80860557108880304 0 0.50803330197353713 0.83630110503668265 0 0.60000000000138687 1 0 0.69988642339594154 1 0.16938214347578889 0.7054234997318658 0.80860557108880304 0 0.69988642339594154 1 0.16938214347578889 0.82751535738810444 1 0.31407731390515509 0.61068558124908323 1 0.33127740899601937 0.81582077266975173 0.77657922508894406 0.18483084990574741 0.82751535738810444 1 0.31407731390515509 0.69988642339594154 1 0.16938214347578889 0.85358983848665693 1 0.14641016151322461 0.81582077266975173 0.77657922508894406 0.18483084990574741 0.69988642339594154 1 0.16938214347578889 0.85358983848666903 0.85358983848666903 0 0.85358983848665693 1 0.14641016151322461 0.81582077266975173 0.77657922508894406 0.18483084990574741 0.85358983848665693 1 0.14641016151322461 1 0.85358983848655678 0.14641016151332509 0.82751535738810444 1 0.31407731390515509 0.81582077266975173 0.77657922508894406 0.18483084990574741 0.85358983848666903 0.85358983848666903 0 0.85358983848665693 1 0.14641016151322461 0.79999999999999982 1 0 0.69988642339594154 1 0.16938214347578889 0.69988642339594154 1 0.16938214347578889 0.79999999999999982 1 0 0.85358983848666903 0.85358983848666903 0 0.7054234997318658 0.80860557108880304 0 0.85358983848666903 0.85358983848666903 0 0.7054234997318658 0.80860557108880304 0 0.85173693729186062 0.69992182039541118 0 0.81582077266975173 0.77657922508894406 0.18483084990574741 0.69988642339594154 1 0.16938214347578889 0.7054234997318658 0.80860557108880304 0 0.85358983848666903 0.85358983848666903 0 0.81582077266975173 0.77657922508894406 0.18483084990574741 1 0.85358983848655678 0.14641016151332509 1 0.69449451837101916 0.15896804272136739 1 0.8148028884949543 0.31067093462944562 0.81582077266975173 0.77657922508894406 0.18483084990574741 0.82751535738810444 1 0.31407731390515509 1 0.85358983848655678 0.14641016151332509 1 0.8148028884949543 0.31067093462944562 0.81582077266975173 0.77657922508894406 0.18483084990574741 1 0.85358983848655678 0.14641016151332509 0.85358983848666903 0.85358983848666903 0 1 0.79999999999999982 0 0.81582077266975173 0.77657922508894406 0.18483084990574741 1 0.79999999999999982 0 0.81582077266975173 0.77657922508894406 0.18483084990574741 1 0.69449451837101916 0.15896804272136739 1 0.85358983848655678 0.14641016151332509 0.85358983848666903 0.85358983848666903 0 1 0.85358983848655678 0.14641016151332509 0.85358983848665693 1 0.14641016151322461 0.81582077266975173 0.77657922508894406 0.18483084990574741 0.85358983848666903 0.85358983848666903 0 0.85173693729186062 0.69992182039541118 0 1 0.79999999999999982 0 0.81582077266975173 0.77657922508894406 0.18483084990574741 1 0.85358983848655678 0.14641016151332509 0.85358983848665693 1 0.14641016151322461 1 1 0 0.85358983848666903 0.85358983848666903 0 1 1 0.19999999999955789 0.85358983848665693 1 0.14641016151322461 1 1 0 1 0.85358983848655678 0.14641016151332509 1 1 0 1 0.85358983848655678 0.14641016151332509 0.85358983848666903 0.85358983848666903 0 1 0.79999999999999982 0 0.79999999999999982 1 0 1 1 0 0.85358983848665693 1 0.14641016151322461 0.85358983848666903 0.85358983848666903 0 0.82751535738810444 1 0.31407731390515509 0.85358983848665693 1 0.14641016151322461 1 1 0.19999999999955789 1 0.85358983848655678 0.14641016151332509 1 1 0.19999999999955789 1 0.8148028884949543 0.31067093462944562 0.82751535738810444 1 0.31407731390515509 1 0.85358983848655678 0.14641016151332509 1 1 0.3999999999989749 1 0.8148028884949543 0.31067093462944562 0.82751535738810444 1 0.31407731390515509 1 1 0.19999999999955789 0.82751535738810444 1 0.31407731390515509 0.77374673111774417 0.78860835645735528 0.49829081152968557 0.68456408135056701 0.68607101396845627 0.31096060989957619 0.81582077266975173 0.77657922508894406 0.18483084990574741 1 0.8148028884949543 0.31067093462944562 0.77374673111774417 0.78860835645735528 0.49829081152968557 0.82751535738810444 1 0.31407731390515509 0.81582077266975173 0.77657922508894406 0.18483084990574741 1 0.8148028884949543 0.31067093462944562 0.68456408135056701 0.68607101396845627 0.31096060989957619 0.77374673111774417 0.78860835645735528 0.49829081152968557 0.81582077266975173 0.77657922508894406 0.18483084990574741 1 0.8148028884949543 0.31067093462944562 0.86762395692956074 1 0.5060815484123421 0.82751535738810444 1 0.31407731390515509 0.77374673111774417 0.78860835645735528 0.49829081152968557 0.68240285647621723 1 0.52310058211166854 0.82751535738810444 1 0.31407731390515509 0.86762395692956074 1 0.5060815484123421 0.77374673111774417 0.78860835645735528 0.49829081152968557 0.86762395692956074 1 0.5060815484123421 1 1 0.3999999999989749 1 0.8148028884949543 0.31067093462944562 0.82751535738810444 1 0.31407731390515509 1 1 0.3999999999989749 1 0.83630110503662825 0.50803330197135588 0.86762395692956074 1 0.5060815484123421 1 0.8148028884949543 0.31067093462944562 1 0.8148028884949543 0.31067093462944562 1 0.83630110503662825 0.50803330197135588 0.86762395692956074 1 0.5060815484123421 0.77374673111774417 0.78860835645735528 0.49829081152968557 1 0.8148028884949543 0.31067093462944562 1 0.68975022421527898 0.45812322962078778 1 0.83630110503662825 0.50803330197135588 0.77374673111774417 0.78860835645735528 0.49829081152968557 1 0.39615100178016449 0.32925244736082498 0.7504488434426726 0.53051757989633308 0.49836643074154852 1 0.60020898676431722 0.32446581821274012 0.77713227489941183 0.50036915849493024 0.21774643624003751 1 0.68975022421527898 0.45812322962078778 0.68456408135056701 0.68607101396845627 0.31096060989957619 1 0.60020898676431722 0.32446581821274012 0.7504488434426726 0.53051757989633308 0.49836643074154852 1 0.8148028884949543 0.31067093462944562 0.68456408135056701 0.68607101396845627 0.31096060989957619 1 0.68975022421527898 0.45812322962078778 0.77374673111774417 0.78860835645735528 0.49829081152968557 1 0.68975022421527898 0.45812322962078778 0.68456408135056701 0.68607101396845627 0.31096060989957619 0.7504488434426726 0.53051757989633308 0.49836643074154852 0.77374673111774417 0.78860835645735528 0.49829081152968557 1 0.68975022421527898 0.45812322962078778 1 0.8148028884949543 0.31067093462944562 1 0.60020898676431722 0.32446581821274012 0.68456408135056701 0.68607101396845627 0.31096060989957619 0.68456408135056701 0.68607101396845627 0.31096060989957619 1 0.60020898676431722 0.32446581821274012 0.7504488434426726 0.53051757989633308 0.49836643074154852 0.77713227489941183 0.50036915849493024 0.21774643624003751 1 0.8148028884949543 0.31067093462944562 1 0.60020898676431722 0.32446581821274012 0.68456408135056701 0.68607101396845627 0.31096060989957619 0.81582077266975173 0.77657922508894406 0.18483084990574741 1 0.60020898676431722 0.32446581821274012 0.77713227489941183 0.50036915849493024 0.21774643624003751 0.68456408135056701 0.68607101396845627 0.31096060989957619 0.81582077266975173 0.77657922508894406 0.18483084990574741 1 0.50000000000229983 0.51961524226898759 1 0.68975022421527898 0.45812322962078778 1 0.60020898676431722 0.32446581821274012 0.7504488434426726 0.53051757989633308 0.49836643074154852 1 0.39615100178016449 0.32925244736082498 1 0.50000000000229983 0.51961524226898759 1 0.60020898676431722 0.32446581821274012 0.7504488434426726 0.53051757989633308 0.49836643074154852 0.84191918937744659 0.51186163305076127 0 1 0.49836539647890021 0.17226134197269399 1 0.69449451837101916 0.15896804272136739 0.77713227489941183 0.50036915849493024 0.21774643624003751 1 0.69449451837101916 0.15896804272136739 0.85173693729186062 0.69992182039541118 0 0.77713227489941183 0.50036915849493024 0.21774643624003751 0.81582077266975173 0.77657922508894406 0.18483084990574741 1 0.69449451837101916 0.15896804272136739 0.77713227489941183 0.50036915849493024 0.21774643624003751 1 0.60020898676431722 0.32446581821274012 0.81582077266975173 0.77657922508894406 0.18483084990574741 1 0.69449451837101916 0.15896804272136739 1 0.49836539647890021 0.17226134197269399 1 0.60020898676431722 0.32446581821274012 0.77713227489941183 0.50036915849493024 0.21774643624003751 0.72722573386132172 0.60922248848163563 0 0.77713227489941183 0.50036915849493024 0.21774643624003751 0.85173693729186062 0.69992182039541118 0 0.81582077266975173 0.77657922508894406 0.18483084990574741 0.72722573386132172 0.60922248848163563 0 0.68456408135056701 0.68607101396845627 0.31096060989957619 0.77713227489941183 0.50036915849493024 0.21774643624003751 0.81582077266975173 0.77657922508894406 0.18483084990574741 1 0.8148028884949543 0.31067093462944562 1 0.69449451837101916 0.15896804272136739 1 0.60020898676431722 0.32446581821274012 0.81582077266975173 0.77657922508894406 0.18483084990574741 0.72722573386132172 0.60922248848163563 0 0.67320508075660079 0.46954769941202479 0 0.84191918937744659 0.51186163305076127 0 0.77713227489941183 0.50036915849493024 0.21774643624003751 0.84191918937744659 0.51186163305076127 0 1 0.69449451837101916 0.15896804272136739 0.85173693729186062 0.69992182039541118 0 0.77713227489941183 0.50036915849493024 0.21774643624003751 0.72722573386132172 0.60922248848163563 0 0.84191918937744659 0.51186163305076127 0 0.85173693729186062 0.69992182039541118 0 0.77713227489941183 0.50036915849493024 0.21774643624003751 0.7054234997318658 0.80860557108880304 0 0.72722573386132172 0.60922248848163563 0 0.85173693729186062 0.69992182039541118 0 0.81582077266975173 0.77657922508894406 0.18483084990574741 1 0.69449451837101916 0.15896804272136739 0.85173693729186062 0.69992182039541118 0 1 0.79999999999999982 0 1 0.60000000000138687 0 1 0.69449451837101916 0.15896804272136739 0.81582077266975173 0.77657922508894406 0.18483084990574741 1 0.79999999999999982 0 0.85173693729186062 0.69992182039541118 0 0.84191918937744659 0.51186163305076127 0 0.85173693729186062 0.69992182039541118 0 1 0.69449451837101916 0.15896804272136739 1 0.60000000000138687 0 1 0.60000000000138687 0 1 0.69449451837101916 0.15896804272136739 0.84191918937744659 0.51186163305076127 0 1 0.49836539647890021 0.17226134197269399 1 0.40000000000166441 0 1 0.60000000000138687 0 0.84191918937744659 0.51186163305076127 0 1 0.49836539647890021 0.17226134197269399 0.80839867011859301 0.31807971531731721 0 0.85358983848570813 0.1464101615143738 0 1 0.30074819035868428 0.16929708765640439 0.68777432594363841 0.31447353261427252 0.31366778418247038 0.80839867011859301 0.31807971531731721 0 1 0.40000000000166441 0 0.84191918937744659 0.51186163305076127 0 1 0.49836539647890021 0.17226134197269399 1 0.40000000000166441 0 0.80839867011859301 0.31807971531731721 0 1 0.30074819035868428 0.16929708765640439 1 0.49836539647890021 0.17226134197269399 0.80839867011859301 0.31807971531731721 0 0.68777432594363841 0.31447353261427252 0.31366778418247038 1 0.30074819035868428 0.16929708765640439 0.77713227489941183 0.50036915849493024 0.21774643624003751 0.84191918937744659 0.51186163305076127 0 0.67320508075660079 0.46954769941202479 0 0.80839867011859301 0.31807971531731721 0 0.77713227489941183 0.50036915849493024 0.21774643624003751 0.84191918937744659 0.51186163305076127 0 0.80839867011859301 0.31807971531731721 0 1 0.49836539647890021 0.17226134197269399 0.77713227489941183 0.50036915849493024 0.21774643624003751 0.80839867011859301 0.31807971531731721 0 1 0.30074819035868428 0.16929708765640439 1 0.49836539647890021 0.17226134197269399 0.77713227489941183 0.50036915849493024 0.21774643624003751 1 0.30074819035868428 0.16929708765640439 1 0.39615100178016449 0.32925244736082498 1 0.49836539647890021 0.17226134197269399 0.77713227489941183 0.50036915849493024 0.21774643624003751 1 0.30074819035868428 0.16929708765640439 0.80839867011859301 0.31807971531731721 0 1 0.40000000000166441 0 1 0.20000000000083221 0 1 0.30074819035868428 0.16929708765640439 0.80839867011859301 0.31807971531731721 0 1 0.20000000000083221 0 0.85358983848570813 0.1464101615143738 0 1 0.20000000000083221 0 1 0.14641016151453831 0.14641016151419689 1 0.30074819035868428 0.16929708765640439 0.85358983848570813 0.1464101615143738 0 0.83057691269884504 0 0.30018449338884379 0.85358983848650494 0 0.1464101615132356 0.68592116352011878 0 0.1724872797865501 0.68777432594363841 0.31447353261427252 0.31366778418247038 0.80839867011859301 0.31807971531731721 0 0.69380980079964416 0.1619694349440581 0 0.85358983848570813 0.1464101615143738 0 0.68777432594363841 0.31447353261427252 0.31366778418247038 1 0.18804489794556911 0.3161072616634244 1 0.30074819035868428 0.16929708765640439 1 0.14641016151453831 0.14641016151419689 0.68777432594363841 0.31447353261427252 0.31366778418247038 1 0.14641016151453831 0.14641016151419689 1 0.30074819035868428 0.16929708765640439 0.85358983848570813 0.1464101615143738 0 0.68777432594363841 0.31447353261427252 0.31366778418247038 1 0.14641016151453831 0.14641016151419689 0.85358983848650494 0 0.1464101615132356 0.83057691269884504 0 0.30018449338884379 0.68777432594363841 0.31447353261427252 0.31366778418247038 1 0.14641016151453831 0.14641016151419689 0.85358983848570813 0.1464101615143738 0 0.85358983848650494 0 0.1464101615132356 0.68777432594363841 0.31447353261427252 0.31366778418247038 0.69380980079964416 0.1619694349440581 0 0.85358983848650494 0 0.1464101615132356 0.85358983848570813 0.1464101615143738 0 0.68777432594363841 0.31447353261427252 0.31366778418247038 0.85358983848650494 0 0.1464101615132356 0.83057691269884504 0 0.30018449338884379 1 0 0.19999999999955789 1 0.14641016151453831 0.14641016151419689 0.83057691269884504 0 0.30018449338884379 1 0.18804489794556911 0.3161072616634244 1 0 0.19999999999955789 1 0.14641016151453831 0.14641016151419689 0.85358983848570813 0.1464101615143738 0 1 0 0 0.85358983848650494 0 0.1464101615132356 0.79999999999947335 0 0 0.85358983848650494 0 0.1464101615132356 1 0 0.19999999999955789 1 0 0 1 0.14641016151453831 0.14641016151419689 1 0 0 1 0.14641016151453831 0.14641016151419689 1 0.20000000000083221 0 0.85358983848570813 0.1464101615143738 0 1 0.14641016151453831 0.14641016151419689 1 0 0 0.85358983848650494 0 0.1464101615132356 0.85358983848570813 0.1464101615143738 0 0.68592116352011878 0 0.1724872797865501 0.69380980079964416 0.1619694349440581 0 0.85358983848650494 0 0.1464101615132356 0.79999999999947335 0 0 0.85358983848570813 0.1464101615143738 0 0.85358983848650494 0 0.1464101615132356 0.69380980079964416 0.1619694349440581 0 0.79999999999947335 0 0 0.68592116352011878 0 0.1724872797865501 0.68777432594363841 0.31447353261427252 0.31366778418247038 0.69380980079964416 0.1619694349440581 0 0.5003997205654479 0.21136633249797621 0.2258422409314382 0.68592116352011878 0 0.1724872797865501 0.85358983848650494 0 0.1464101615132356 0.69380980079964416 0.1619694349440581 0 0.68777432594363841 0.31447353261427252 0.31366778418247038 0.69380980079964416 0.1619694349440581 0 0.68592116352011878 0 0.1724872797865501 0.59999999999894682 0 0 0.79999999999947335 0 0 0.49391845158624981 0 0.1323760430705655 0.3999999999989749 0 0 0.50966790549376417 0.16275515618023731 0 0.59999999999894682 0 0 0.50966790549376417 0.16275515618023731 0 0.69380980079964416 0.1619694349440581 0 0.68592116352011878 0 0.1724872797865501 0.59999999999894682 0 0 0.68592116352011878 0 0.1724872797865501 0.49391845158624981 0 0.1323760430705655 0.50966790549376417 0.16275515618023731 0 0.59999999999894682 0 0 0.47688326899416439 0 0.31741132792405607 0.68592116352011878 0 0.1724872797865501 0.49391845158624981 0 0.1323760430705655 0.5003997205654479 0.21136633249797621 0.2258422409314382 0.49391845158624981 0 0.1323760430705655 0.68592116352011878 0 0.1724872797865501 0.50966790549376417 0.16275515618023731 0 0.5003997205654479 0.21136633249797621 0.2258422409314382 0.50966790549376417 0.16275515618023731 0 0.68592116352011878 0 0.1724872797865501 0.69380980079964416 0.1619694349440581 0 0.5003997205654479 0.21136633249797621 0.2258422409314382 0.6104699881764214 0.32043363027358418 0 0.50966790549376417 0.16275515618023731 0 0.69380980079964416 0.1619694349440581 0 0.5003997205654479 0.21136633249797621 0.2258422409314382 0.6104699881764214 0.32043363027358418 0 0.68777432594363841 0.31447353261427252 0.31366778418247038 0.80839867011859301 0.31807971531731721 0 0.77713227489941183 0.50036915849493024 0.21774643624003751 0.6104699881764214 0.32043363027358418 0 0.69380980079964416 0.1619694349440581 0 0.68777432594363841 0.31447353261427252 0.31366778418247038 0.5003997205654479 0.21136633249797621 0.2258422409314382 0.80839867011859301 0.31807971531731721 0 0.6104699881764214 0.32043363027358418 0 0.69380980079964416 0.1619694349440581 0 0.68777432594363841 0.31447353261427252 0.31366778418247038 0.6104699881764214 0.32043363027358418 0 0.45812322962036273 0.31024977578535839 0 0.50966790549376417 0.16275515618023731 0 0.5003997205654479 0.21136633249797621 0.2258422409314382 0.45812322962036273 0.31024977578535839 0 0.6104699881764214 0.32043363027358418 0 0.5004045312576143 0.47050700646456922 0.24963111222780321 0.5003997205654479 0.21136633249797621 0.2258422409314382 0.77713227489941183 0.50036915849493024 0.21774643624003751 0.6104699881764214 0.32043363027358418 0 0.5004045312576143 0.47050700646456922 0.24963111222780321 0.67320508075660079 0.46954769941202479 0 0.68777432594363841 0.31447353261427252 0.31366778418247038 0.5004045312576143 0.47050700646456922 0.24963111222780321 0.6104699881764214 0.32043363027358418 0 0.5003997205654479 0.21136633249797621 0.2258422409314382 0.77713227489941183 0.50036915849493024 0.21774643624003751 0.5004045312576143 0.47050700646456922 0.24963111222780321 0.6104699881764214 0.32043363027358418 0 0.68777432594363841 0.31447353261427252 0.31366778418247038 0.51961524226956368 0.5000000000025091 0 0.6104699881764214 0.32043363027358418 0 0.67320508075660079 0.46954769941202479 0 0.5004045312576143 0.47050700646456922 0.24963111222780321 0.45812322962036273 0.31024977578535839 0 0.6104699881764214 0.32043363027358418 0 0.51961524226956368 0.5000000000025091 0 0.5004045312576143 0.47050700646456922 0.24963111222780321 0.6104699881764214 0.32043363027358418 0 0.80839867011859301 0.31807971531731721 0 0.67320508075660079 0.46954769941202479 0 0.77713227489941183 0.50036915849493024 0.21774643624003751 0.68777432594363841 0.31447353261427252 0.31366778418247038 0.7504488434426726 0.53051757989633308 0.49836643074154852 0.50000000000001332 0.49999999999999561 0.49999999999999561 0.50073570207385831 0.24848280280289631 0.52886631355986169 0.7504488434426726 0.53051757989633308 0.49836643074154852 0.50073570207385831 0.24848280280289631 0.52886631355986169 0.68777432594363841 0.31447353261427252 0.31366778418247038 0.77973766487723961 0.22090161127815711 0.50014622462635805 0.50000000000001332 0.49999999999999561 0.49999999999999561 0.7504488434426726 0.53051757989633308 0.49836643074154852 0.68777432594363841 0.31447353261427252 0.31366778418247038 0.5004045312576143 0.47050700646456922 0.24963111222780321 0.68777432594363841 0.31447353261427252 0.31366778418247038 0.5004045312576143 0.47050700646456922 0.24963111222780321 0.7504488434426726 0.53051757989633308 0.49836643074154852 0.77713227489941183 0.50036915849493024 0.21774643624003751 0.50073570207385831 0.24848280280289631 0.52886631355986169 0.5004045312576143 0.47050700646456922 0.24963111222780321 0.68777432594363841 0.31447353261427252 0.31366778418247038 0.5003997205654479 0.21136633249797621 0.2258422409314382 0.50000000000001332 0.49999999999999561 0.49999999999999561 0.68777432594363841 0.31447353261427252 0.31366778418247038 0.50073570207385831 0.24848280280289631 0.52886631355986169 0.5004045312576143 0.47050700646456922 0.24963111222780321 0.83057691269884504 0 0.30018449338884379 0.68777432594363841 0.31447353261427252 0.31366778418247038 0.66852282575985944 0 0.3853248791658106 0.77973766487723961 0.22090161127815711 0.50014622462635805 0.68592116352011878 0 0.1724872797865501 0.66852282575985944 0 0.3853248791658106 0.83057691269884504 0 0.30018449338884379 0.68777432594363841 0.31447353261427252 0.31366778418247038 0.66852282575985944 0 0.3853248791658106 0.47688326899416439 0 0.31741132792405607 0.50073570207385831 0.24848280280289631 0.52886631355986169 0.5003997205654479 0.21136633249797621 0.2258422409314382 0.68969697123394857 0 0.54179813558228873 0.66852282575985944 0 0.3853248791658106 0.50073570207385831 0.24848280280289631 0.52886631355986169 0.77973766487723961 0.22090161127815711 0.50014622462635805 0.68592116352011878 0 0.1724872797865501 0.66852282575985944 0 0.3853248791658106 0.68777432594363841 0.31447353261427252 0.31366778418247038 0.5003997205654479 0.21136633249797621 0.2258422409314382 0.66852282575985944 0 0.3853248791658106 0.50073570207385831 0.24848280280289631 0.52886631355986169 0.68777432594363841 0.31447353261427252 0.31366778418247038 0.5003997205654479 0.21136633249797621 0.2258422409314382 0.68777432594363841 0.31447353261427252 0.31366778418247038 0.50073570207385831 0.24848280280289631 0.52886631355986169 0.66852282575985944 0 0.3853248791658106 0.77973766487723961 0.22090161127815711 0.50014622462635805 0.68592116352011878 0 0.1724872797865501 0.47688326899416439 0 0.31741132792405607 0.66852282575985944 0 0.3853248791658106 0.5003997205654479 0.21136633249797621 0.2258422409314382 0.50000000000250922 0 0.48038475773043671 0.66852282575985944 0 0.3853248791658106 0.47688326899416439 0 0.31741132792405607 0.50073570207385831 0.24848280280289631 0.52886631355986169 0.50000000000250922 0 0.48038475773043671 0.68969697123394857 0 0.54179813558228873 0.66852282575985944 0 0.3853248791658106 0.50073570207385831 0.24848280280289631 0.52886631355986169 0.66852282575985944 0 0.3853248791658106 0.68969697123394857 0 0.54179813558228873 0.83534964916824084 0 0.4902996892628636 0.77973766487723961 0.22090161127815711 0.50014622462635805 1 0.18804489794556911 0.3161072616634244 0.68777432594363841 0.31447353261427252 0.31366778418247038 0.83057691269884504 0 0.30018449338884379 0.77973766487723961 0.22090161127815711 0.50014622462635805 1 0.18804489794556911 0.3161072616634244 1 0.14641016151453831 0.14641016151419689 0.83057691269884504 0 0.30018449338884379 0.68777432594363841 0.31447353261427252 0.31366778418247038 0.83534964916824084 0 0.4902996892628636 0.83057691269884504 0 0.30018449338884379 0.66852282575985944 0 0.3853248791658106 0.77973766487723961 0.22090161127815711 0.50014622462635805 0.83534964916824084 0 0.4902996892628636 1 0.18804489794556911 0.3161072616634244 0.83057691269884504 0 0.30018449338884379 0.77973766487723961 0.22090161127815711 0.50014622462635805 0.83057691269884504 0 0.30018449338884379 0.83534964916824084 0 0.4902996892628636 1 0 0.3999999999989749 1 0.18804489794556911 0.3161072616634244 0.83534964916824084 0 0.4902996892628636 1 0.162755156180173 0.50966790549372887 1 0 0.59999999999894682 1 0 0.3999999999989749 1 0 0.3999999999989749 0.83534964916824084 0 0.4902996892628636 1 0.162755156180173 0.50966790549372887 1 0.18804489794556911 0.3161072616634244 1 0.18804489794556911 0.3161072616634244 1 0 0.3999999999989749 0.83057691269884504 0 0.30018449338884379 1 0 0.19999999999955789 1 0.31024977578542368 0.45812322962028301 1 0.18804489794556911 0.3161072616634244 1 0.162755156180173 0.50966790549372887 0.77973766487723961 0.22090161127815711 0.50014622462635805 0.83534964916824084 0 0.4902996892628636 1 0.162755156180173 0.50966790549372887 1 0.18804489794556911 0.3161072616634244 0.77973766487723961 0.22090161127815711 0.50014622462635805 1 0.39615100178016449 0.32925244736082498 0.68777432594363841 0.31447353261427252 0.31366778418247038 0.7504488434426726 0.53051757989633308 0.49836643074154852 0.77713227489941183 0.50036915849493024 0.21774643624003751 1 0.39615100178016449 0.32925244736082498 1 0.18804489794556911 0.3161072616634244 1 0.31024977578542368 0.45812322962028301 0.68777432594363841 0.31447353261427252 0.31366778418247038 1 0.31024977578542368 0.45812322962028301 0.7504488434426726 0.53051757989633308 0.49836643074154852 0.68777432594363841 0.31447353261427252 0.31366778418247038 0.77973766487723961 0.22090161127815711 0.50014622462635805 1 0.30074819035868428 0.16929708765640439 1 0.18804489794556911 0.3161072616634244 1 0.39615100178016449 0.32925244736082498 0.68777432594363841 0.31447353261427252 0.31366778418247038 1 0.31024977578542368 0.45812322962028301 0.68777432594363841 0.31447353261427252 0.31366778418247038 1 0.18804489794556911 0.3161072616634244 0.77973766487723961 0.22090161127815711 0.50014622462635805 1 0.30074819035868428 0.16929708765640439 0.68777432594363841 0.31447353261427252 0.31366778418247038 1 0.39615100178016449 0.32925244736082498 0.77713227489941183 0.50036915849493024 0.21774643624003751 1 0.39615100178016449 0.32925244736082498 0.68777432594363841 0.31447353261427252 0.31366778418247038 1 0.31024977578542368 0.45812322962028301 0.7504488434426726 0.53051757989633308 0.49836643074154852 1 0.60020898676431722 0.32446581821274012 1 0.49836539647890021 0.17226134197269399 1 0.39615100178016449 0.32925244736082498 0.77713227489941183 0.50036915849493024 0.21774643624003751 1 0.39615100178016449 0.32925244736082498 1 0.31024977578542368 0.45812322962028301 1 0.50000000000229983 0.51961524226898759 0.7504488434426726 0.53051757989633308 0.49836643074154852 1 0.33579115324550912 0.59952339316293046 0.7504488434426726 0.53051757989633308 0.49836643074154852 0.68742751001967084 0.31250796680084852 0.687427510020161 0.78019141325921404 0.49972466465542442 0.78019141325930785 1 0.33579115324550912 0.59952339316293046 1 0.39076805646076263 0.7272421105028648 0.68742751001967084 0.31250796680084852 0.687427510020161 0.81599560342209843 0.22280203704001911 0.81599560342233202 1 0.33579115324550912 0.59952339316293046 1 0.53045230059030524 0.6732050807565132 1 0.50000000000229983 0.51961524226898759 0.7504488434426726 0.53051757989633308 0.49836643074154852 1 0.33579115324550912 0.59952339316293046 0.7504488434426726 0.53051757989633308 0.49836643074154852 1 0.31024977578542368 0.45812322962028301 0.77973766487723961 0.22090161127815711 0.50014622462635805 0.68742751001967084 0.31250796680084852 0.687427510020161 0.77973766487723961 0.22090161127815711 0.50014622462635805 1 0.33579115324550912 0.59952339316293046 0.81599560342209843 0.22280203704001911 0.81599560342233202 1 0.33579115324550912 0.59952339316293046 0.68742751001967084 0.31250796680084852 0.687427510020161 0.7504488434426726 0.53051757989633308 0.49836643074154852 0.77973766487723961 0.22090161127815711 0.50014622462635805 1 0.53045230059030524 0.6732050807565132 0.7504488434426726 0.53051757989633308 0.49836643074154852 1 0.33579115324550912 0.59952339316293046 0.78019141325921404 0.49972466465542442 0.78019141325930785 1 0.39076805646076263 0.7272421105028648 1 0.33579115324550912 0.59952339316293046 0.68742751001967084 0.31250796680084852 0.687427510020161 0.78019141325921404 0.49972466465542442 0.78019141325930785 1 0.33579115324550912 0.59952339316293046 1 0.50000000000229983 0.51961524226898759 1 0.31024977578542368 0.45812322962028301 0.7504488434426726 0.53051757989633308 0.49836643074154852 1 0.39076805646076263 0.7272421105028648 1 0.53045230059030524 0.6732050807565132 1 0.33579115324550912 0.59952339316293046 0.78019141325921404 0.49972466465542442 0.78019141325930785 1 0.33579115324550912 0.59952339316293046 1 0.1912596090855686 0.70565701451953711 1 0.39076805646076263 0.7272421105028648 0.81599560342209843 0.22280203704001911 0.81599560342233202 1 0.33579115324550912 0.59952339316293046 1 0.31024977578542368 0.45812322962028301 1 0.162755156180173 0.50966790549372887 0.77973766487723961 0.22090161127815711 0.50014622462635805 1 0.162755156180173 0.50966790549372887 0.81469961246449951 0 0.68914937826112133 1 0.1912596090855686 0.70565701451953711 0.77973766487723961 0.22090161127815711 0.50014622462635805 0.81469961246449951 0 0.68914937826112133 0.77973766487723961 0.22090161127815711 0.50014622462635805 0.68742751001967084 0.31250796680084852 0.687427510020161 0.81599560342209843 0.22280203704001911 0.81599560342233202 0.81469961246449951 0 0.68914937826112133 1 0.1912596090855686 0.70565701451953711 0.77973766487723961 0.22090161127815711 0.50014622462635805 0.81599560342209843 0.22280203704001911 0.81599560342233202 1 0.1912596090855686 0.70565701451953711 1 0.33579115324550912 0.59952339316293046 0.77973766487723961 0.22090161127815711 0.50014622462635805 0.81599560342209843 0.22280203704001911 0.81599560342233202 1 0.162755156180173 0.50966790549372887 1 0.1912596090855686 0.70565701451953711 1 0.33579115324550912 0.59952339316293046 0.77973766487723961 0.22090161127815711 0.50014622462635805 1 0.1912596090855686 0.70565701451953711 0.81469961246449951 0 0.68914937826112133 1 0 0.59999999999894682 1 0 0.79999999999947335 0.81469961246449951 0 0.68914937826112133 1 0 0.59999999999894682 1 0.162755156180173 0.50966790549372887 1 0.1912596090855686 0.70565701451953711 1 0.162755156180173 0.50966790549372887 1 0 0.59999999999894682 0.81469961246449951 0 0.68914937826112133 0.83534964916824084 0 0.4902996892628636 0.81469961246449951 0 0.68914937826112133 0.83534964916824084 0 0.4902996892628636 0.68969697123394857 0 0.54179813558228873 0.77973766487723961 0.22090161127815711 0.50014622462635805 0.81469961246449951 0 0.68914937826112133 1 0.162755156180173 0.50966790549372887 0.83534964916824084 0 0.4902996892628636 0.77973766487723961 0.22090161127815711 0.50014622462635805 0.68969697123394857 0 0.54179813558228873 0.6002015905170176 0 0.67551889168744117 0.68742751001967084 0.31250796680084852 0.687427510020161 0.50073570207385831 0.24848280280289631 0.52886631355986169 0.6002015905170176 0 0.67551889168744117 0.81469961246449951 0 0.68914937826112133 0.68969697123394857 0 0.54179813558228873 0.68742751001967084 0.31250796680084852 0.687427510020161 0.81469961246449951 0 0.68914937826112133 0.68969697123394857 0 0.54179813558228873 0.68742751001967084 0.31250796680084852 0.687427510020161 0.77973766487723961 0.22090161127815711 0.50014622462635805 0.69447607299129699 0 0.84099946107689361 0.68742751001967084 0.31250796680084852 0.687427510020161 0.6002015905170176 0 0.67551889168744117 0.50084626324420545 0.22238844715913 0.78084811589659187 0.68742751001967084 0.31250796680084852 0.687427510020161 0.68969697123394857 0 0.54179813558228873 0.50073570207385831 0.24848280280289631 0.52886631355986169 0.77973766487723961 0.22090161127815711 0.50014622462635805 0.68742751001967084 0.31250796680084852 0.687427510020161 0.50073570207385831 0.24848280280289631 0.52886631355986169 0.6002015905170176 0 0.67551889168744117 0.50084626324420545 0.22238844715913 0.78084811589659187 0.6002015905170176 0 0.67551889168744117 0.81469961246449951 0 0.68914937826112133 0.68742751001967084 0.31250796680084852 0.687427510020161 0.81599560342209843 0.22280203704001911 0.81599560342233202 0.68969697123394857 0 0.54179813558228873 0.50000000000250922 0 0.48038475773043671 0.6002015905170176 0 0.67551889168744117 0.50073570207385831 0.24848280280289631 0.52886631355986169 0.50000000000001332 0.49999999999999561 0.49999999999999561 0.68742751001967084 0.31250796680084852 0.687427510020161 0.49816183246753282 0.5307146639261795 0.75045686993209071 0.50073570207385831 0.24848280280289631 0.52886631355986169 0.68742751001967084 0.31250796680084852 0.687427510020161 0.50000000000001332 0.49999999999999561 0.49999999999999561 0.7504488434426726 0.53051757989633308 0.49836643074154852 0.50073570207385831 0.24848280280289631 0.52886631355986169 0.68742751001967084 0.31250796680084852 0.687427510020161 0.7504488434426726 0.53051757989633308 0.49836643074154852 0.50000000000001332 0.49999999999999561 0.49999999999999561 0.49816183246753282 0.5307146639261795 0.75045686993209071 0.7504488434426726 0.53051757989633308 0.49836643074154852 0.49816183246753282 0.5307146639261795 0.75045686993209071 0.68742751001967084 0.31250796680084852 0.687427510020161 0.78019141325921404 0.49972466465542442 0.78019141325930785 0.49816183246753282 0.5307146639261795 0.75045686993209071 0.50073570207385831 0.24848280280289631 0.52886631355986169 0.68742751001967084 0.31250796680084852 0.687427510020161 0.50084626324420545 0.22238844715913 0.78084811589659187 0.68742751001967084 0.31250796680084852 0.687427510020161 0.50073570207385831 0.24848280280289631 0.52886631355986169 0.7504488434426726 0.53051757989633308 0.49836643074154852 0.77973766487723961 0.22090161127815711 0.50014622462635805 0.45812322962173568 0.31024977578554058 1 0.49816183246753282 0.5307146639261795 0.75045686993209071 0.59952339316492498 0.33579115324593939 1 0.50084626324420545 0.22238844715913 0.78084811589659187 0.59952339316492498 0.33579115324593939 1 0.68742751001967084 0.31250796680084852 0.687427510020161 0.72724211050425436 0.39076805646176382 1 0.81599560342209843 0.22280203704001911 0.81599560342233202 0.59952339316492498 0.33579115324593939 1 0.68742751001967084 0.31250796680084852 0.687427510020161 0.49816183246753282 0.5307146639261795 0.75045686993209071 0.78019141325921404 0.49972466465542442 0.78019141325930785 0.59952339316492498 0.33579115324593939 1 0.50084626324420545 0.22238844715913 0.78084811589659187 0.68742751001967084 0.31250796680084852 0.687427510020161 0.81599560342209843 0.22280203704001911 0.81599560342233202 0.59952339316492498 0.33579115324593939 1 0.49816183246753282 0.5307146639261795 0.75045686993209071 0.68742751001967084 0.31250796680084852 0.687427510020161 0.50084626324420545 0.22238844715913 0.78084811589659187 0.59952339316492498 0.33579115324593939 1 0.72724211050425436 0.39076805646176382 1 0.68742751001967084 0.31250796680084852 0.687427510020161 0.78019141325921404 0.49972466465542442 0.78019141325930785 0.59952339316492498 0.33579115324593939 1 0.49816183246753282 0.5307146639261795 0.75045686993209071 0.67320508075671459 0.53045230059073867 1 0.78019141325921404 0.49972466465542442 0.78019141325930785 0.70565701452089868 0.1912596090858541 1 0.59952339316492498 0.33579115324593939 1 0.72724211050425436 0.39076805646176382 1 0.81599560342209843 0.22280203704001911 0.81599560342233202 0.59952339316492498 0.33579115324593939 1 0.67320508075671459 0.53045230059073867 1 0.72724211050425436 0.39076805646176382 1 0.78019141325921404 0.49972466465542442 0.78019141325930785 0.45812322962173568 0.31024977578554058 1 0.51961524226934941 0.50000000000250611 1 0.59952339316492498 0.33579115324593939 1 0.49816183246753282 0.5307146639261795 0.75045686993209071 0.67320508075671459 0.53045230059073867 1 0.59952339316492498 0.33579115324593939 1 0.51961524226934941 0.50000000000250611 1 0.49816183246753282 0.5307146639261795 0.75045686993209071 0.59952339316492498 0.33579115324593939 1 0.50966790549576724 0.1627551561802443 1 0.45812322962173568 0.31024977578554058 1 0.50084626324420545 0.22238844715913 0.78084811589659187 0.50966790549576724 0.1627551561802443 1 0.70565701452089868 0.1912596090858541 1 0.69447607299129699 0 0.84099946107689361 0.50084626324420545 0.22238844715913 0.78084811589659187 0.68742751001967084 0.31250796680084852 0.687427510020161 0.50084626324420545 0.22238844715913 0.78084811589659187 0.69447607299129699 0 0.84099946107689361 0.81599560342209843 0.22280203704001911 0.81599560342233202 0.70565701452089868 0.1912596090858541 1 0.69447607299129699 0 0.84099946107689361 0.50084626324420545 0.22238844715913 0.78084811589659187 0.81599560342209843 0.22280203704001911 0.81599560342233202 0.70565701452089868 0.1912596090858541 1 0.50084626324420545 0.22238844715913 0.78084811589659187 0.59952339316492498 0.33579115324593939 1 0.81599560342209843 0.22280203704001911 0.81599560342233202 0.70565701452089868 0.1912596090858541 1 0.50966790549576724 0.1627551561802443 1 0.59952339316492498 0.33579115324593939 1 0.50084626324420545 0.22238844715913 0.78084811589659187 0.6002015905170176 0 0.67551889168744117 0.68742751001967084 0.31250796680084852 0.687427510020161 0.69447607299129699 0 0.84099946107689361 0.81599560342209843 0.22280203704001911 0.81599560342233202 0.69447607299129699 0 0.84099946107689361 0.6002015905170176 0 0.67551889168744117 0.49836539647917322 0 0.82773865802723501 0.50084626324420545 0.22238844715913 0.78084811589659187 0.69447607299129699 0 0.84099946107689361 0.49836539647917322 0 0.82773865802723501 0.50966790549576724 0.1627551561802443 1 0.50084626324420545 0.22238844715913 0.78084811589659187 0.60000000000138687 0 1 0.49836539647917322 0 0.82773865802723501 0.50966790549576724 0.1627551561802443 1 0.69447607299129699 0 0.84099946107689361 0.50966790549576724 0.1627551561802443 1 0.40000000000166441 0 1 0.49836539647917322 0 0.82773865802723501 0.60000000000138687 0 1 0.50966790549576724 0.1627551561802443 1 0.70565701452089868 0.1912596090858541 1 0.60000000000138687 0 1 0.69447607299129699 0 0.84099946107689361 0.70565701452089868 0.1912596090858541 1 0.60000000000138687 0 1 0.69447607299129699 0 0.84099946107689361 0.79999999999999982 0 1 0.6002015905170176 0 0.67551889168744117 0.69447607299129699 0 0.84099946107689361 0.81469961246449951 0 0.68914937826112133 0.81599560342209843 0.22280203704001911 0.81599560342233202 0.70565701452089868 0.1912596090858541 1 0.85358983848646974 0.14641016151341191 1 0.69447607299129699 0 0.84099946107689361 0.81599560342209843 0.22280203704001911 0.81599560342233202 0.85358983848646974 0.14641016151341191 1 0.70565701452089868 0.1912596090858541 1 0.85173693729199718 0.30007817960516198 1 0.81599560342209843 0.22280203704001911 0.81599560342233202 1 0.1912596090855686 0.70565701451953711 0.81469961246449951 0 0.68914937826112133 0.85358983848570524 0 0.85358983848556425 0.81599560342209843 0.22280203704001911 0.81599560342233202 0.69447607299129699 0 0.84099946107689361 0.85358983848570524 0 0.85358983848556425 0.81469961246449951 0 0.68914937826112133 0.81599560342209843 0.22280203704001911 0.81599560342233202 0.85358983848570524 0 0.85358983848556425 0.69447607299129699 0 0.84099946107689361 0.85358983848646974 0.14641016151341191 1 0.81599560342209843 0.22280203704001911 0.81599560342233202 0.79999999999999982 0 1 0.69447607299129699 0 0.84099946107689361 0.70565701452089868 0.1912596090858541 1 0.85358983848646974 0.14641016151341191 1 0.79999999999999982 0 1 0.85358983848570524 0 0.85358983848556425 0.69447607299129699 0 0.84099946107689361 0.85358983848646974 0.14641016151341191 1 1 0 1 1 0.14641016151333891 0.85358983848640169 0.85358983848570524 0 0.85358983848556425 0.85358983848646974 0.14641016151341191 1 0.79999999999999982 0 1 1 0 1 0.85358983848570524 0 0.85358983848556425 0.85358983848646974 0.14641016151341191 1 0.85358983848646974 0.14641016151341191 1 1 0 1 1 0.14641016151333891 0.85358983848640169 1 0.19999999999955789 1 0.85358983848570524 0 0.85358983848556425 1 0.14641016151333891 0.85358983848640169 1 0 1 1 0 0.79999999999947335 0.85358983848570524 0 0.85358983848556425 0.81469961246449951 0 0.68914937826112133 1 0.1912596090855686 0.70565701451953711 1 0 0.79999999999947335 1 0.1912596090855686 0.70565701451953711 1 0.14641016151333891 0.85358983848640169 0.85358983848570524 0 0.85358983848556425 1 0 0.79999999999947335 1 0.14641016151333891 0.85358983848640169 1 0.30007817960499339 0.85173693729139244 1 0.1912596090855686 0.70565701451953711 0.81599560342209843 0.22280203704001911 0.81599560342233202 1 0.1912596090855686 0.70565701451953711 0.85358983848570524 0 0.85358983848556425 1 0.14641016151333891 0.85358983848640169 0.81599560342209843 0.22280203704001911 0.81599560342233202 0.85358983848646974 0.14641016151341191 1 0.85173693729199718 0.30007817960516198 1 1 0.19999999999955789 1 0.81599560342209843 0.22280203704001911 0.81599560342233202 1 0.14641016151333891 0.85358983848640169 0.85358983848646974 0.14641016151341191 1 1 0.19999999999955789 1 0.81599560342209843 0.22280203704001911 0.81599560342233202 1 0.14641016151333891 0.85358983848640169 1 0.19999999999955789 1 1 0.30007817960499339 0.85173693729139244 0.81599560342209843 0.22280203704001911 0.81599560342233202 0.85358983848570524 0 0.85358983848556425 0.85358983848646974 0.14641016151341191 1 1 0.14641016151333891 0.85358983848640169 0.81599560342209843 0.22280203704001911 0.81599560342233202 1 0.19999999999955789 1 1 0.30007817960499339 0.85173693729139244 0.85173693729199718 0.30007817960516198 1 1 0.3999999999989749 1 1 0.19999999999955789 1 0.85173693729199718 0.30007817960516198 1 1 0.30007817960499339 0.85173693729139244 0.81599560342209843 0.22280203704001911 0.81599560342233202 1 0.30007817960499339 0.85173693729139244 0.85173693729199718 0.30007817960516198 1 0.78019141325921404 0.49972466465542442 0.78019141325930785 0.81599560342209843 0.22280203704001911 0.81599560342233202 0.68742751001967084 0.31250796680084852 0.687427510020161 0.78019141325921404 0.49972466465542442 0.78019141325930785 0.72724211050425436 0.39076805646176382 1 0.81599560342209843 0.22280203704001911 0.81599560342233202 1 0.39076805646076263 0.7272421105028648 1 0.30007817960499339 0.85173693729139244 0.78019141325921404 0.49972466465542442 0.78019141325930785 0.81599560342209843 0.22280203704001911 0.81599560342233202 0.85173693729199718 0.30007817960516198 1 0.72724211050425436 0.39076805646176382 1 0.78019141325921404 0.49972466465542442 0.78019141325930785 0.81599560342209843 0.22280203704001911 0.81599560342233202 1 0.39076805646076263 0.7272421105028648 0.78019141325921404 0.49972466465542442 0.78019141325930785 0.68742751001967084 0.31250796680084852 0.687427510020161 0.81599560342209843 0.22280203704001911 0.81599560342233202 0.85173693729199718 0.30007817960516198 1 1 0.30007817960499339 0.85173693729139244 1 0.48813836695007229 0.84191918937727617 1 0.3999999999989749 1 0.72724211050425436 0.39076805646176382 1 0.85173693729199718 0.30007817960516198 1 0.70565701452089868 0.1912596090858541 1 0.81599560342209843 0.22280203704001911 0.81599560342233202 1 0.1912596090855686 0.70565701451953711 1 0.30007817960499339 0.85173693729139244 1 0.39076805646076263 0.7272421105028648 0.81599560342209843 0.22280203704001911 0.81599560342233202 0.85173693729199718 0.30007817960516198 1 1 0.48813836695007229 0.84191918937727617 1 0.30007817960499339 0.85173693729139244 0.78019141325921404 0.49972466465542442 0.78019141325930785 1 0.30007817960499339 0.85173693729139244 1 0.48813836695007229 0.84191918937727617 1 0.39076805646076263 0.7272421105028648 0.78019141325921404 0.49972466465542442 0.78019141325930785 1 0.39076805646076263 0.7272421105028648 1 0.48813836695007229 0.84191918937727617 1 0.53045230059030524 0.6732050807565132 0.78019141325921404 0.49972466465542442 0.78019141325930785 0.72724211050425436 0.39076805646176382 1 0.67320508075671459 0.53045230059073867 1 0.84191918937756771 0.48813836695034618 1 0.78019141325921404 0.49972466465542442 0.78019141325930785 0.84191918937756771 0.48813836695034618 1 0.85173693729199718 0.30007817960516198 1 0.72724211050425436 0.39076805646176382 1 0.78019141325921404 0.49972466465542442 0.78019141325930785 0.84191918937756771 0.48813836695034618 1 1 0.48813836695007229 0.84191918937727617 0.85173693729199718 0.30007817960516198 1 0.78019141325921404 0.49972466465542442 0.78019141325930785 1 0.3999999999989749 1 1 0.48813836695007229 0.84191918937727617 0.84191918937756771 0.48813836695034618 1 1 0.59999999999894682 1 1 0.48813836695007229 0.84191918937727617 0.84191918937756771 0.48813836695034618 1 0.85173693729199718 0.30007817960516198 1 1 0.3999999999989749 1 0.80839867011861499 0.68192028468377774 1 0.78019141325921404 0.49972466465542442 0.78019141325930785 0.68649174659499257 0.68600703198516766 0.6864917465949647 0.77683220420328725 0.81278569633583353 0.81664766512111064 0.80839867011861499 0.68192028468377774 1 1 0.68192028468364885 0.80839867011854549 0.78019141325921404 0.49972466465542442 0.78019141325930785 0.77683220420328725 0.81278569633583353 0.81664766512111064 1 0.59999999999894682 1 1 0.48813836695007229 0.84191918937727617 0.84191918937756771 0.48813836695034618 1 1 0.68192028468364885 0.80839867011854549 0.68649174659499257 0.68600703198516766 0.6864917465949647 0.78019141325921404 0.49972466465542442 0.78019141325930785 1 0.68192028468364885 0.80839867011854549 0.77683220420328725 0.81278569633583353 0.81664766512111064 0.84191918937756771 0.48813836695034618 1 1 0.59999999999894682 1 1 0.68192028468364885 0.80839867011854549 0.80839867011861499 0.68192028468377774 1 1 0.59999999999894682 1 1 0.68192028468364885 0.80839867011854549 0.80839867011861499 0.68192028468377774 1 1 0.79999999999947335 1 0.84191918937756771 0.48813836695034618 1 0.67320508075671459 0.53045230059073867 1 0.80839867011861499 0.68192028468377774 1 0.78019141325921404 0.49972466465542442 0.78019141325930785 0.84191918937756771 0.48813836695034618 1 0.80839867011861499 0.68192028468377774 1 1 0.68192028468364885 0.80839867011854549 0.78019141325921404 0.49972466465542442 0.78019141325930785 1 0.68192028468364885 0.80839867011854549 1 0.53045230059030524 0.6732050807565132 1 0.48813836695007229 0.84191918937727617 0.78019141325921404 0.49972466465542442 0.78019141325930785 1 0.68192028468364885 0.80839867011854549 1 0.48813836695007229 0.84191918937727617 0.84191918937756771 0.48813836695034618 1 0.78019141325921404 0.49972466465542442 0.78019141325930785 1 0.67939035495490308 0.61016512164639347 0.78019141325921404 0.49972466465542442 0.78019141325930785 0.7504488434426726 0.53051757989633308 0.49836643074154852 1 0.53045230059030524 0.6732050807565132 1 0.67939035495490308 0.61016512164639347 0.7504488434426726 0.53051757989633308 0.49836643074154852 0.68649174659499257 0.68600703198516766 0.6864917465949647 0.77374673111774417 0.78860835645735528 0.49829081152968557 1 0.67939035495490308 0.61016512164639347 0.68649174659499257 0.68600703198516766 0.6864917465949647 1 0.83791821520125753 0.69361520514217179 0.77374673111774417 0.78860835645735528 0.49829081152968557 1 0.68192028468364885 0.80839867011854549 1 0.67939035495490308 0.61016512164639347 0.68649174659499257 0.68600703198516766 0.6864917465949647 0.77683220420328725 0.81278569633583353 0.81664766512111064 1 0.67939035495490308 0.61016512164639347 1 0.68975022421527898 0.45812322962078778 0.7504488434426726 0.53051757989633308 0.49836643074154852 0.77374673111774417 0.78860835645735528 0.49829081152968557 0.7504488434426726 0.53051757989633308 0.49836643074154852 0.78019141325921404 0.49972466465542442 0.78019141325930785 1 0.67939035495490308 0.61016512164639347 0.68649174659499257 0.68600703198516766 0.6864917465949647 1 0.68192028468364885 0.80839867011854549 0.68649174659499257 0.68600703198516766 0.6864917465949647 1 0.67939035495490308 0.61016512164639347 0.78019141325921404 0.49972466465542442 0.78019141325930785 1 0.53045230059030524 0.6732050807565132 1 0.68192028468364885 0.80839867011854549 1 0.67939035495490308 0.61016512164639347 0.78019141325921404 0.49972466465542442 0.78019141325930785 1 0.67939035495490308 0.61016512164639347 1 0.50000000000229983 0.51961524226898759 1 0.53045230059030524 0.6732050807565132 0.7504488434426726 0.53051757989633308 0.49836643074154852 1 0.67939035495490308 0.61016512164639347 1 0.68975022421527898 0.45812322962078778 1 0.50000000000229983 0.51961524226898759 0.7504488434426726 0.53051757989633308 0.49836643074154852 1 0.67939035495490308 0.61016512164639347 1 0.83630110503662825 0.50803330197135588 1 0.68975022421527898 0.45812322962078778 0.77374673111774417 0.78860835645735528 0.49829081152968557 1 0.83791821520125753 0.69361520514217179 0.77374673111774417 0.78860835645735528 0.49829081152968557 0.68649174659499257 0.68600703198516766 0.6864917465949647 0.77683220420328725 0.81278569633583353 0.81664766512111064 0.68649174659499257 0.68600703198516766 0.6864917465949647 0.77374673111774417 0.78860835645735528 0.49829081152968557 0.81346205468287114 1 0.68420958956387889 0.77683220420328725 0.81278569633583353 0.81664766512111064 1 0.83791821520125753 0.69361520514217179 0.68649174659499257 0.68600703198516766 0.6864917465949647 1 0.67939035495490308 0.61016512164639347 0.77683220420328725 0.81278569633583353 0.81664766512111064 1 0.68192028468364885 0.80839867011854549 1 0.83791821520125753 0.69361520514217179 1 0.67939035495490308 0.61016512164639347 0.77683220420328725 0.81278569633583353 0.81664766512111064 1 0.83791821520125753 0.69361520514217179 0.81346205468287114 1 0.68420958956387889 0.77374673111774417 0.78860835645735528 0.49829081152968557 0.77683220420328725 0.81278569633583353 0.81664766512111064 1 0.83630110503662825 0.50803330197135588 1 0.67939035495490308 0.61016512164639347 1 0.83791821520125753 0.69361520514217179 0.77374673111774417 0.78860835645735528 0.49829081152968557 1 0.83791821520125753 0.69361520514217179 0.86762395692956074 1 0.5060815484123421 1 0.83630110503662825 0.50803330197135588 0.77374673111774417 0.78860835645735528 0.49829081152968557 1 1 0.59999999999894682 1 0.83630110503662825 0.50803330197135588 1 0.83791821520125753 0.69361520514217179 0.86762395692956074 1 0.5060815484123421 0.86762395692956074 1 0.5060815484123421 1 1 0.59999999999894682 1 0.83630110503662825 0.50803330197135588 1 1 0.3999999999989749 1 0.83791821520125753 0.69361520514217179 0.81346205468287114 1 0.68420958956387889 1 1 0.59999999999894682 0.86762395692956074 1 0.5060815484123421 0.86762395692956074 1 0.5060815484123421 0.81346205468287114 1 0.68420958956387889 0.68240285647621723 1 0.52310058211166854 0.77374673111774417 0.78860835645735528 0.49829081152968557 0.81346205468287114 1 0.68420958956387889 0.86762395692956074 1 0.5060815484123421 1 0.83791821520125753 0.69361520514217179 0.77374673111774417 0.78860835645735528 0.49829081152968557 1 0.83791821520125753 0.69361520514217179 0.81346205468287114 1 0.68420958956387889 1 1 0.79999999999947335 1 1 0.59999999999894682 1 1 0.79999999999947335 0.85358983848569092 1 0.85358983848569092 0.81346205468287114 1 0.68420958956387889 1 0.83791821520125753 0.69361520514217179 0.85358983848569092 1 0.85358983848569092 1 0.83791821520125753 0.69361520514217179 1 0.85358983848587056 0.85358983848587056 0.77683220420328725 0.81278569633583353 0.81664766512111064 0.85358983848569092 1 0.85358983848569092 1 1 0.79999999999947335 1 0.85358983848587056 0.85358983848587056 1 0.83791821520125753 0.69361520514217179 0.85358983848587056 0.85358983848587056 1 1 1 1 1 0.79999999999947335 1 1 0.85358983848587056 0.85358983848587056 0.85358983848587056 0.85358983848587056 1 0.79999999999947335 1 1 1 1 1 0.85358983848569092 1 0.85358983848569092 1 1 0.79999999999947335 1 0.85358983848587056 0.85358983848587056 1 1 1 0.85358983848569092 1 0.85358983848569092 1 0.85358983848587056 0.85358983848587056 0.85358983848587056 0.85358983848587056 1 1 1 1 0.85358983848569092 1 0.85358983848569092 0.85358983848587056 0.85358983848587056 1 1 0.79999999999947335 1 1 0.68192028468364885 0.80839867011854549 1 0.85358983848587056 0.85358983848587056 1 0.79999999999947335 1 1 0.68192028468364885 0.80839867011854549 0.80839867011861499 0.68192028468377774 1 0.85358983848587056 0.85358983848587056 1 0.85358983848587056 0.85358983848587056 1 1 0.85358983848587056 0.85358983848587056 1 0.68192028468364885 0.80839867011854549 0.77683220420328725 0.81278569633583353 0.81664766512111064 1 0.68192028468364885 0.80839867011854549 1 0.85358983848587056 0.85358983848587056 1 0.83791821520125753 0.69361520514217179 0.77683220420328725 0.81278569633583353 0.81664766512111064 0.69361520514218133 0.83791821520130205 1 0.85358983848587056 0.85358983848587056 1 0.80839867011861499 0.68192028468377774 1 0.77683220420328725 0.81278569633583353 0.81664766512111064 0.80839867011861499 0.68192028468377774 1 0.85358983848587056 0.85358983848587056 1 1 0.68192028468364885 0.80839867011854549 0.77683220420328725 0.81278569633583353 0.81664766512111064 0.85358983848587056 0.85358983848587056 1 0.79999999999947335 1 1 0.85358983848569092 1 0.85358983848569092 0.77683220420328725 0.81278569633583353 0.81664766512111064 0.69981550660938663 1 0.83057691269844081 0.85358983848569092 1 0.85358983848569092 0.79999999999947335 1 1 0.77683220420328725 0.81278569633583353 0.81664766512111064 0.85358983848587056 0.85358983848587056 1 0.69361520514218133 0.83791821520130205 1 0.79999999999947335 1 1 0.77683220420328725 0.81278569633583353 0.81664766512111064 1 0.85358983848587056 0.85358983848587056 0.85358983848587056 0.85358983848587056 1 0.85358983848569092 1 0.85358983848569092 0.77683220420328725 0.81278569633583353 0.81664766512111064 0.85358983848569092 1 0.85358983848569092 0.69981550660938663 1 0.83057691269844081 0.81346205468287114 1 0.68420958956387889 0.77683220420328725 0.81278569633583353 0.81664766512111064 0.81346205468287114 1 0.68420958956387889 1 0.83791821520125753 0.69361520514217179 0.85358983848569092 1 0.85358983848569092 0.77683220420328725 0.81278569633583353 0.81664766512111064 0.69361520514218133 0.83791821520130205 1 0.49911199724958061 0.77872228561593948 0.77895350115271889 0.69981550660938663 1 0.83057691269844081 0.77683220420328725 0.81278569633583353 0.81664766512111064 0.69361520514218133 0.83791821520130205 1 0.61016512164652226 0.67939035495506384 1 0.49911199724958061 0.77872228561593948 0.77895350115271889 0.77683220420328725 0.81278569633583353 0.81664766512111064 0.81346205468287114 1 0.68420958956387889 0.69981550660938663 1 0.83057691269844081 0.6123333432449789 1 0.67837347745467769 0.77683220420328725 0.81278569633583353 0.81664766512111064 0.6123333432449789 1 0.67837347745467769 0.69981550660938663 1 0.83057691269844081 0.49911199724958061 0.77872228561593948 0.77895350115271889 0.77683220420328725 0.81278569633583353 0.81664766512111064 0.69361520514218133 0.83791821520130205 1 0.69981550660938663 1 0.83057691269844081 0.79999999999947335 1 1 0.77683220420328725 0.81278569633583353 0.81664766512111064 0.50970031073508926 1 0.83534964916803001 0.59999999999894682 1 1 0.69361520514218133 0.83791821520130205 1 0.69981550660938663 1 0.83057691269844081 0.69981550660938663 1 0.83057691269844081 0.59999999999894682 1 1 0.69361520514218133 0.83791821520130205 1 0.79999999999947335 1 1 0.80839867011861499 0.68192028468377774 1 0.61016512164652226 0.67939035495506384 1 0.69361520514218133 0.83791821520130205 1 0.77683220420328725 0.81278569633583353 0.81664766512111064 0.50803330197137353 0.83630110503667787 1 0.69361520514218133 0.83791821520130205 1 0.61016512164652226 0.67939035495506384 1 0.49911199724958061 0.77872228561593948 0.77895350115271889 0.50803330197137353 0.83630110503667787 1 0.50970031073508926 1 0.83534964916803001 0.69361520514218133 0.83791821520130205 1 0.49911199724958061 0.77872228561593948 0.77895350115271889 0.59999999999894682 1 1 0.50803330197137353 0.83630110503667787 1 0.3999999999989749 1 1 0.50970031073508926 1 0.83534964916803001 0.69361520514218133 0.83791821520130205 1 0.50803330197137353 0.83630110503667787 1 0.59999999999894682 1 1 0.50970031073508926 1 0.83534964916803001 0.69361520514218133 0.83791821520130205 1 0.50970031073508926 1 0.83534964916803001 0.69981550660938663 1 0.83057691269844081 0.49911199724958061 0.77872228561593948 0.77895350115271889 0.50970031073508926 1 0.83534964916803001 0.6123333432449789 1 0.67837347745467769 0.69981550660938663 1 0.83057691269844081 0.49911199724958061 0.77872228561593948 0.77895350115271889 0.6123333432449789 1 0.67837347745467769 0.49983993748706529 0.75039103705932653 0.52967335724801234 0.68649174659499257 0.68600703198516766 0.6864917465949647 0.49911199724958061 0.77872228561593948 0.77895350115271889 0.6123333432449789 1 0.67837347745467769 0.49983993748706529 0.75039103705932653 0.52967335724801234 0.68240285647621723 1 0.52310058211166854 0.77374673111774417 0.78860835645735528 0.49829081152968557 0.6123333432449789 1 0.67837347745467769 0.45820186441573879 1 0.68969697123405882 0.49983993748706529 0.75039103705932653 0.52967335724801234 0.49911199724958061 0.77872228561593948 0.77895350115271889 0.45820186441573879 1 0.68969697123405882 0.6123333432449789 1 0.67837347745467769 0.50970031073508926 1 0.83534964916803001 0.49911199724958061 0.77872228561593948 0.77895350115271889 0.6123333432449789 1 0.67837347745467769 0.68649174659499257 0.68600703198516766 0.6864917465949647 0.49983993748706529 0.75039103705932653 0.52967335724801234 0.77374673111774417 0.78860835645735528 0.49829081152968557 0.81346205468287114 1 0.68420958956387889 0.6123333432449789 1 0.67837347745467769 0.68649174659499257 0.68600703198516766 0.6864917465949647 0.77683220420328725 0.81278569633583353 0.81664766512111064 0.6123333432449789 1 0.67837347745467769 0.49911199724958061 0.77872228561593948 0.77895350115271889 0.68649174659499257 0.68600703198516766 0.6864917465949647 0.77683220420328725 0.81278569633583353 0.81664766512111064 0.81346205468287114 1 0.68420958956387889 0.68649174659499257 0.68600703198516766 0.6864917465949647 0.6123333432449789 1 0.67837347745467769 0.77374673111774417 0.78860835645735528 0.49829081152968557 0.81346205468287114 1 0.68420958956387889 0.6123333432449789 1 0.67837347745467769 0.68240285647621723 1 0.52310058211166854 0.77374673111774417 0.78860835645735528 0.49829081152968557 0.6123333432449789 1 0.67837347745467769 0.45820186441573879 1 0.68969697123405882 0.51961524227008238 1 0.49999999999872219 0.49983993748706529 0.75039103705932653 0.52967335724801234 0.6123333432449789 1 0.67837347745467769 0.51961524227008238 1 0.49999999999872219 0.68240285647621723 1 0.52310058211166854 0.49983993748706529 0.75039103705932653 0.52967335724801234 0.68649174659499257 0.68600703198516766 0.6864917465949647 0.49983993748706529 0.75039103705932653 0.52967335724801234 0.49816183246753282 0.5307146639261795 0.75045686993209071 0.49911199724958061 0.77872228561593948 0.77895350115271889 0.68649174659499257 0.68600703198516766 0.6864917465949647 0.50000000000001332 0.49999999999999561 0.49999999999999561 0.7504488434426726 0.53051757989633308 0.49836643074154852 0.49816183246753282 0.5307146639261795 0.75045686993209071 0.68649174659499257 0.68600703198516766 0.6864917465949647 0.49816183246753282 0.5307146639261795 0.75045686993209071 0.7504488434426726 0.53051757989633308 0.49836643074154852 0.78019141325921404 0.49972466465542442 0.78019141325930785 0.50000000000001332 0.49999999999999561 0.49999999999999561 0.68649174659499257 0.68600703198516766 0.6864917465949647 0.7504488434426726 0.53051757989633308 0.49836643074154852 0.49983993748706529 0.75039103705932653 0.52967335724801234 0.7504488434426726 0.53051757989633308 0.49836643074154852 0.49983993748706529 0.75039103705932653 0.52967335724801234 0.68649174659499257 0.68600703198516766 0.6864917465949647 0.77374673111774417 0.78860835645735528 0.49829081152968557 0.68649174659499257 0.68600703198516766 0.6864917465949647 0.50000000000001332 0.49999999999999561 0.49999999999999561 0.49816183246753282 0.5307146639261795 0.75045686993209071 0.49983993748706529 0.75039103705932653 0.52967335724801234 0.78019141325921404 0.49972466465542442 0.78019141325930785 0.61016512164652226 0.67939035495506384 1 0.49816183246753282 0.5307146639261795 0.75045686993209071 0.67320508075671459 0.53045230059073867 1 0.78019141325921404 0.49972466465542442 0.78019141325930785 0.49816183246753282 0.5307146639261795 0.75045686993209071 0.61016512164652226 0.67939035495506384 1 0.68649174659499257 0.68600703198516766 0.6864917465949647 0.61016512164652226 0.67939035495506384 1 0.68649174659499257 0.68600703198516766 0.6864917465949647 0.80839867011861499 0.68192028468377774 1 0.78019141325921404 0.49972466465542442 0.78019141325930785 0.68649174659499257 0.68600703198516766 0.6864917465949647 0.49911199724958061 0.77872228561593948 0.77895350115271889 0.61016512164652226 0.67939035495506384 1 0.77683220420328725 0.81278569633583353 0.81664766512111064 0.68649174659499257 0.68600703198516766 0.6864917465949647 0.49816183246753282 0.5307146639261795 0.75045686993209071 0.61016512164652226 0.67939035495506384 1 0.49911199724958061 0.77872228561593948 0.77895350115271889 0.80839867011861499 0.68192028468377774 1 0.68649174659499257 0.68600703198516766 0.6864917465949647 0.61016512164652226 0.67939035495506384 1 0.77683220420328725 0.81278569633583353 0.81664766512111064 0.67320508075671459 0.53045230059073867 1 0.61016512164652226 0.67939035495506384 1 0.80839867011861499 0.68192028468377774 1 0.78019141325921404 0.49972466465542442 0.78019141325930785 0.45812322962090041 0.68975022421538157 1 0.61016512164652226 0.67939035495506384 1 0.49816183246753282 0.5307146639261795 0.75045686993209071 0.49911199724958061 0.77872228561593948 0.77895350115271889 0.50803330197137353 0.83630110503667787 1 0.61016512164652226 0.67939035495506384 1 0.45812322962090041 0.68975022421538157 1 0.49911199724958061 0.77872228561593948 0.77895350115271889 0.51961524226934941 0.50000000000250611 1 0.45812322962090041 0.68975022421538157 1 0.61016512164652226 0.67939035495506384 1 0.49816183246753282 0.5307146639261795 0.75045686993209071 0.67320508075671459 0.53045230059073867 1 0.51961524226934941 0.50000000000250611 1 0.61016512164652226 0.67939035495506384 1 0.49816183246753282 0.5307146639261795 0.75045686993209071 0.3115891413135391 0.68758981780459771 0.68521708032990558 0.2184393375098648 0.50004596894495223 0.77634962490704662 0.32446581821293602 0.60020898676440626 1 0.18453958615733529 0.77655623474864555 0.81613222483915937 0.32925244736146098 0.39615100178034629 1 0.32446581821293602 0.60020898676440626 1 0.51961524226934941 0.50000000000250611 1 0.49816183246753282 0.5307146639261795 0.75045686993209071 0.45812322962090041 0.68975022421538157 1 0.3115891413135391 0.68758981780459771 0.68521708032990558 0.31067093462947892 0.81480288849497895 1 0.49911199724958061 0.77872228561593948 0.77895350115271889 0.32925244736146098 0.39615100178034629 1 0.32446581821293602 0.60020898676440626 1 0.49816183246753282 0.5307146639261795 0.75045686993209071 0.2184393375098648 0.50004596894495223 0.77634962490704662 0.45812322962090041 0.68975022421538157 1 0.49816183246753282 0.5307146639261795 0.75045686993209071 0.3115891413135391 0.68758981780459771 0.68521708032990558 0.49911199724958061 0.77872228561593948 0.77895350115271889 0.32446581821293602 0.60020898676440626 1 0.3115891413135391 0.68758981780459771 0.68521708032990558 0.49816183246753282 0.5307146639261795 0.75045686993209071 0.2184393375098648 0.50004596894495223 0.77634962490704662 0.45812322962090041 0.68975022421538157 1 0.51961524226934941 0.50000000000250611 1 0.32446581821293602 0.60020898676440626 1 0.49816183246753282 0.5307146639261795 0.75045686993209071 0.31067093462947892 0.81480288849497895 1 0.45812322962090041 0.68975022421538157 1 0.32446581821293602 0.60020898676440626 1 0.3115891413135391 0.68758981780459771 0.68521708032990558 0.45812322962090041 0.68975022421538157 1 0.32446581821293602 0.60020898676440626 1 0.3115891413135391 0.68758981780459771 0.68521708032990558 0.49816183246753282 0.5307146639261795 0.75045686993209071 0.32446581821293602 0.60020898676440626 1 0.31067093462947892 0.81480288849497895 1 0.3115891413135391 0.68758981780459771 0.68521708032990558 0.18453958615733529 0.77655623474864555 0.81613222483915937 0.3115891413135391 0.68758981780459771 0.68521708032990558 0.50000000000001332 0.49999999999999561 0.49999999999999561 0.24769234054476261 0.52242103280823293 0.45098450226372488 0.49983993748706529 0.75039103705932653 0.52967335724801234 0.3115891413135391 0.68758981780459771 0.68521708032990558 0.49816183246753282 0.5307146639261795 0.75045686993209071 0.50000000000001332 0.49999999999999561 0.49999999999999561 0.49983993748706529 0.75039103705932653 0.52967335724801234 0.3115891413135391 0.68758981780459771 0.68521708032990558 0.49983993748706529 0.75039103705932653 0.52967335724801234 0.24769234054476261 0.52242103280823293 0.45098450226372488 0.22516916914780419 0.77057994845201627 0.48187244075707292 0.50000000000001332 0.49999999999999561 0.49999999999999561 0.3115891413135391 0.68758981780459771 0.68521708032990558 0.24769234054476261 0.52242103280823293 0.45098450226372488 0.2184393375098648 0.50004596894495223 0.77634962490704662 0.3115891413135391 0.68758981780459771 0.68521708032990558 0.50000000000001332 0.49999999999999561 0.49999999999999561 0.49816183246753282 0.5307146639261795 0.75045686993209071 0.2184393375098648 0.50004596894495223 0.77634962490704662 0.49816183246753282 0.5307146639261795 0.75045686993209071 0.49983993748706529 0.75039103705932653 0.52967335724801234 0.3115891413135391 0.68758981780459771 0.68521708032990558 0.49911199724958061 0.77872228561593948 0.77895350115271889 0.32448110831226962 1 0.6002015905153204 0.45820186441573879 1 0.68969697123405882 0.3115891413135391 0.68758981780459771 0.68521708032990558 0.49983993748706529 0.75039103705932653 0.52967335724801234 0.45820186441573879 1 0.68969697123405882 0.31085062173747541 1 0.81469961246428202 0.32448110831226962 1 0.6002015905153204 0.3115891413135391 0.68758981780459771 0.68521708032990558 0.45820186441573879 1 0.68969697123405882 0.3115891413135391 0.68758981780459771 0.68521708032990558 0.49983993748706529 0.75039103705932653 0.52967335724801234 0.49911199724958061 0.77872228561593948 0.77895350115271889 0.32448110831226962 1 0.6002015905153204 0.3115891413135391 0.68758981780459771 0.68521708032990558 0.31085062173747541 1 0.81469961246428202 0.18453958615733529 0.77655623474864555 0.81613222483915937 0.32448110831226962 1 0.6002015905153204 0.49983993748706529 0.75039103705932653 0.52967335724801234 0.3115891413135391 0.68758981780459771 0.68521708032990558 0.22516916914780419 0.77057994845201627 0.48187244075707292 0.45820186441573879 1 0.68969697123405882 0.31085062173747541 1 0.81469961246428202 0.3115891413135391 0.68758981780459771 0.68521708032990558 0.49911199724958061 0.77872228561593948 0.77895350115271889 0.32926555316115258 1 0.39615987727515128 0.49983993748706529 0.75039103705932653 0.52967335724801234 0.32448110831226962 1 0.6002015905153204 0.22516916914780419 0.77057994845201627 0.48187244075707292 0.32448110831226962 1 0.6002015905153204 0.3115891413135391 0.68758981780459771 0.68521708032990558 0.15900053892265181 1 0.69447607299016312 0.22516916914780419 0.77057994845201627 0.48187244075707292 0.32926555316115258 1 0.39615987727515128 0.51961524227008238 1 0.49999999999872219 0.32448110831226962 1 0.6002015905153204 0.49983993748706529 0.75039103705932653 0.52967335724801234 0.32448110831226962 1 0.6002015905153204 0.51961524227008238 1 0.49999999999872219 0.45820186441573879 1 0.68969697123405882 0.49983993748706529 0.75039103705932653 0.52967335724801234 0.45820186441573879 1 0.68969697123405882 0.50970031073508926 1 0.83534964916803001 0.31085062173747541 1 0.81469961246428202 0.49911199724958061 0.77872228561593948 0.77895350115271889 0.31085062173747541 1 0.81469961246428202 0.49911199724958061 0.77872228561593948 0.77895350115271889 0.31067093462947892 0.81480288849497895 1 0.18453958615733529 0.77655623474864555 0.81613222483915937 0.31085062173747541 1 0.81469961246428202 0.3115891413135391 0.68758981780459771 0.68521708032990558 0.49911199724958061 0.77872228561593948 0.77895350115271889 0.18453958615733529 0.77655623474864555 0.81613222483915937 0.50803330197137353 0.83630110503667787 1 0.31085062173747541 1 0.81469961246428202 0.50970031073508926 1 0.83534964916803001 0.49911199724958061 0.77872228561593948 0.77895350115271889 0.31067093462947892 0.81480288849497895 1 0.49911199724958061 0.77872228561593948 0.77895350115271889 0.3115891413135391 0.68758981780459771 0.68521708032990558 0.18453958615733529 0.77655623474864555 0.81613222483915937 0.31085062173747541 1 0.81469961246428202 0.3999999999989749 1 1 0.50803330197137353 0.83630110503667787 1 0.50970031073508926 1 0.83534964916803001 0.31085062173747541 1 0.81469961246428202 0.3999999999989749 1 1 0.31067093462947892 0.81480288849497895 1 0.50803330197137353 0.83630110503667787 1 0.31085062173747541 1 0.81469961246428202 0.50803330197137353 0.83630110503667787 1 0.31067093462947892 0.81480288849497895 1 0.49911199724958061 0.77872228561593948 0.77895350115271889 0.45812322962090041 0.68975022421538157 1 0.31067093462947892 0.81480288849497895 1 0.50803330197137353 0.83630110503667787 1 0.49911199724958061 0.77872228561593948 0.77895350115271889 0.3999999999989749 1 1 0.19999999999955789 1 1 0.31085062173747541 1 0.81469961246428202 0.31067093462947892 0.81480288849497895 1 0.15900053892265181 1 0.69447607299016312 0.31085062173747541 1 0.81469961246428202 0.1464101615132356 1 0.85358983848650494 0.18453958615733529 0.77655623474864555 0.81613222483915937 0.31085062173747541 1 0.81469961246428202 0.31067093462947892 0.81480288849497895 1 0.1464101615132356 1 0.85358983848650494 0.18453958615733529 0.77655623474864555 0.81613222483915937 0.31085062173747541 1 0.81469961246428202 0.19999999999955789 1 1 0.1464101615132356 1 0.85358983848650494 0.31067093462947892 0.81480288849497895 1 0.14641016151332509 0.85358983848655678 1 0.1464101615132356 1 0.85358983848650494 0.19999999999955789 1 1 0.31067093462947892 0.81480288849497895 1 0.31067093462947892 0.81480288849497895 1 0.15896804272141651 0.69449451837104537 1 0.14641016151332509 0.85358983848655678 1 0.18453958615733529 0.77655623474864555 0.81613222483915937 0.14641016151332509 0.85358983848655678 1 0.1464101615132356 1 0.85358983848650494 0.31067093462947892 0.81480288849497895 1 0.18453958615733529 0.77655623474864555 0.81613222483915937 0 0.85358983848682146 0.85358983848668035 0 0.69992182039579531 0.85173693729137989 0 0.80860557108920617 0.70542349973054763 0.18453958615733529 0.77655623474864555 0.81613222483915937 0.15900053892265181 1 0.69447607299016312 0 0.85358983848682146 0.85358983848668035 0 0.80860557108920617 0.70542349973054763 0.18453958615733529 0.77655623474864555 0.81613222483915937 0.18453958615733529 0.77655623474864555 0.81613222483915937 0 0.79999999999999982 1 0.15896804272141651 0.69449451837104537 1 0.14641016151332509 0.85358983848655678 1 0.1464101615132356 1 0.85358983848650494 0.14641016151332509 0.85358983848655678 1 0 0.85358983848682146 0.85358983848668035 0.18453958615733529 0.77655623474864555 0.81613222483915937 0 0.85358983848682146 0.85358983848668035 0 0.79999999999999982 1 0 0.69992182039579531 0.85173693729137989 0.18453958615733529 0.77655623474864555 0.81613222483915937 0 0.85358983848682146 0.85358983848668035 0.14641016151332509 0.85358983848655678 1 0 0.79999999999999982 1 0.18453958615733529 0.77655623474864555 0.81613222483915937 0 1 1 0 0.85358983848682146 0.85358983848668035 0.14641016151332509 0.85358983848655678 1 0 0.79999999999999982 1 0 0.85358983848682146 0.85358983848668035 0.1464101615132356 1 0.85358983848650494 0 1 1 0.14641016151332509 0.85358983848655678 1 0.19999999999955789 1 1 0 1 1 0.1464101615132356 1 0.85358983848650494 0.14641016151332509 0.85358983848655678 1 0.1464101615132356 1 0.85358983848650494 0 1 1 0 1 0.79999999999947335 0 0.85358983848682146 0.85358983848668035 0.1464101615132356 1 0.85358983848650494 0 0.85358983848682146 0.85358983848668035 0.15900053892265181 1 0.69447607299016312 0.18453958615733529 0.77655623474864555 0.81613222483915937 0.15900053892265181 1 0.69447607299016312 0 1 0.79999999999947335 0 0.80860557108920617 0.70542349973054763 0 0.85358983848682146 0.85358983848668035 0 1 0.79999999999947335 0.15900053892265181 1 0.69447607299016312 0.1464101615132356 1 0.85358983848650494 0 0.85358983848682146 0.85358983848668035 0 0.80860557108920617 0.70542349973054763 0 1 0.59999999999894682 0 1 0.79999999999947335 0.15900053892265181 1 0.69447607299016312 0.3115891413135391 0.68758981780459771 0.68521708032990558 0.22516916914780419 0.77057994845201627 0.48187244075707292 0 0.80860557108920617 0.70542349973054763 0.18453958615733529 0.77655623474864555 0.81613222483915937 0 0.80860557108920617 0.70542349973054763 0 0.83630110503664845 0.50803330197135654 0 1 0.59999999999894682 0.15900053892265181 1 0.69447607299016312 0.15900053892265181 1 0.69447607299016312 0.3115891413135391 0.68758981780459771 0.68521708032990558 0.32448110831226962 1 0.6002015905153204 0.18453958615733529 0.77655623474864555 0.81613222483915937 0.15900053892265181 1 0.69447607299016312 0.22516916914780419 0.77057994845201627 0.48187244075707292 0.3115891413135391 0.68758981780459771 0.68521708032990558 0.18453958615733529 0.77655623474864555 0.81613222483915937 0.15900053892265181 1 0.69447607299016312 0 0.80860557108920617 0.70542349973054763 0.22516916914780419 0.77057994845201627 0.48187244075707292 0.18453958615733529 0.77655623474864555 0.81613222483915937 0.15900053892265181 1 0.69447607299016312 0.32448110831226962 1 0.6002015905153204 0.31085062173747541 1 0.81469961246428202 0.18453958615733529 0.77655623474864555 0.81613222483915937 0.32448110831226962 1 0.6002015905153204 0.15900053892265181 1 0.69447607299016312 0.17226134197293 1 0.49836539647645101 0.22516916914780419 0.77057994845201627 0.48187244075707292 0 0.83630110503664845 0.50803330197135654 0.17226134197293 1 0.49836539647645101 0.15900053892265181 1 0.69447607299016312 0.22516916914780419 0.77057994845201627 0.48187244075707292 0 1 0.59999999999894682 0 1 0.3999999999989749 0.17226134197293 1 0.49836539647645101 0 0.83630110503664845 0.50803330197135654 0 0.83630110503664845 0.50803330197135654 0.17226134197293 1 0.49836539647645101 0 1 0.59999999999894682 0.15900053892265181 1 0.69447607299016312 0 0.83630110503664845 0.50803330197135654 0.15900053892265181 1 0.69447607299016312 0 0.80860557108920617 0.70542349973054763 0.22516916914780419 0.77057994845201627 0.48187244075707292 0 0.66416205381430016 0.59944234540882957 0 0.83630110503664845 0.50803330197135654 0 0.80860557108920617 0.70542349973054763 0.22516916914780419 0.77057994845201627 0.48187244075707292 0 0.66416205381430016 0.59944234540882957 0 0.80860557108920617 0.70542349973054763 0.3115891413135391 0.68758981780459771 0.68521708032990558 0.22516916914780419 0.77057994845201627 0.48187244075707292 0 0.66416205381430016 0.59944234540882957 0.3115891413135391 0.68758981780459771 0.68521708032990558 0 0.80860557108920617 0.70542349973054763 0.18453958615733529 0.77655623474864555 0.81613222483915937 0 0.66416205381430016 0.59944234540882957 0 0.80860557108920617 0.70542349973054763 0 0.60922248848335758 0.72722573386012812 0.18453958615733529 0.77655623474864555 0.81613222483915937 0 0.66416205381430016 0.59944234540882957 0.24769234054476261 0.52242103280823293 0.45098450226372488 0.3115891413135391 0.68758981780459771 0.68521708032990558 0.2184393375098648 0.50004596894495223 0.77634962490704662 0 0.66416205381430016 0.59944234540882957 0 0.60922248848335758 0.72722573386012812 0.3115891413135391 0.68758981780459771 0.68521708032990558 0.18453958615733529 0.77655623474864555 0.81613222483915937 0 0.66416205381430016 0.59944234540882957 0 0.46954769941369501 0.67320508075638175 0 0.50000000000237477 0.51961524226909872 0.2184393375098648 0.50004596894495223 0.77634962490704662 0 0.60922248848335758 0.72722573386012812 0 0.66416205381430016 0.59944234540882957 0.3115891413135391 0.68758981780459771 0.68521708032990558 0.2184393375098648 0.50004596894495223 0.77634962490704662 0 0.66416205381430016 0.59944234540882957 0.3115891413135391 0.68758981780459771 0.68521708032990558 0.24769234054476261 0.52242103280823293 0.45098450226372488 0.22516916914780419 0.77057994845201627 0.48187244075707292 0 0.66416205381430016 0.59944234540882957 0 0.50000000000237477 0.51961524226909872 0.24769234054476261 0.52242103280823293 0.45098450226372488 0.2184393375098648 0.50004596894495223 0.77634962490704662 0 0.68801781652248195 0.45664527743358641 0 0.83630110503664845 0.50803330197135654 0 0.66416205381430016 0.59944234540882957 0.22516916914780419 0.77057994845201627 0.48187244075707292 0 0.66416205381430016 0.59944234540882957 0 0.50000000000237477 0.51961524226909872 0 0.68801781652248195 0.45664527743358641 0.24769234054476261 0.52242103280823293 0.45098450226372488 0 0.60922248848335758 0.72722573386012812 0 0.46954769941369501 0.67320508075638175 0 0.66416205381430016 0.59944234540882957 0.2184393375098648 0.50004596894495223 0.77634962490704662 0 0.5118616330515301 0.84191918937737908 0 0.69992182039579531 0.85173693729137989 0.15896804272141651 0.69449451837104537 1 0.2184393375098648 0.50004596894495223 0.77634962490704662 0 0.60922248848335758 0.72722573386012812 0.2184393375098648 0.50004596894495223 0.77634962490704662 0.3115891413135391 0.68758981780459771 0.68521708032990558 0.18453958615733529 0.77655623474864555 0.81613222483915937 0.15896804272141651 0.69449451837104537 1 0.2184393375098648 0.50004596894495223 0.77634962490704662 0 0.69992182039579531 0.85173693729137989 0.18453958615733529 0.77655623474864555 0.81613222483915937 0 0.5118616330515301 0.84191918937737908 0 0.46954769941369501 0.67320508075638175 0 0.60922248848335758 0.72722573386012812 0.2184393375098648 0.50004596894495223 0.77634962490704662 0 0.5118616330515301 0.84191918937737908 0 0.60922248848335758 0.72722573386012812 0 0.69992182039579531 0.85173693729137989 0.2184393375098648 0.50004596894495223 0.77634962490704662 0.15896804272141651 0.69449451837104537 1 0.32446581821293602 0.60020898676440626 1 0.2184393375098648 0.50004596894495223 0.77634962490704662 0.18453958615733529 0.77655623474864555 0.81613222483915937 0 0.60922248848335758 0.72722573386012812 0 0.69992182039579531 0.85173693729137989 0.2184393375098648 0.50004596894495223 0.77634962490704662 0.18453958615733529 0.77655623474864555 0.81613222483915937 0 0.80860557108920617 0.70542349973054763 0 0.69992182039579531 0.85173693729137989 0 0.60922248848335758 0.72722573386012812 0.18453958615733529 0.77655623474864555 0.81613222483915937 0.15896804272141651 0.69449451837104537 1 0.32446581821293602 0.60020898676440626 1 0.17226134197275911 0.49836539647894412 1 0.2184393375098648 0.50004596894495223 0.77634962490704662 0.15896804272141651 0.69449451837104537 1 0.17226134197275911 0.49836539647894412 1 0 0.5118616330515301 0.84191918937737908 0.2184393375098648 0.50004596894495223 0.77634962490704662 0.32446581821293602 0.60020898676440626 1 0.15896804272141651 0.69449451837104537 1 0.31067093462947892 0.81480288849497895 1 0.18453958615733529 0.77655623474864555 0.81613222483915937 0.18453958615733529 0.77655623474864555 0.81613222483915937 0.15896804272141651 0.69449451837104537 1 0 0.79999999999999982 1 0 0.69992182039579531 0.85173693729137989 0 0.69992182039579531 0.85173693729137989 0 0.5118616330515301 0.84191918937737908 0.15896804272141651 0.69449451837104537 1 0 0.60000000000138687 1 0.15896804272141651 0.69449451837104537 1 0 0.79999999999999982 1 0 0.69992182039579531 0.85173693729137989 0 0.60000000000138687 1 0 0.60000000000138687 1 0 0.5118616330515301 0.84191918937737908 0.15896804272141651 0.69449451837104537 1 0.17226134197275911 0.49836539647894412 1 0 0.5118616330515301 0.84191918937737908 0 0.60000000000138687 1 0 0.40000000000166441 1 0.17226134197275911 0.49836539647894412 1 0.17226134197275911 0.49836539647894412 1 0 0.40000000000166441 1 0 0.5118616330515301 0.84191918937737908 0 0.31807971531776508 0.80839867011913336 0 0.40000000000166441 1 0.17226134197275911 0.49836539647894412 1 0.16929708765653109 0.30074819035870082 1 0 0.31807971531776508 0.80839867011913336 0 0.14641016151490169 0.85358983848532144 0 0.31807971531776508 0.80839867011913336 0.16929708765653109 0.30074819035870082 1 0.31426750628021272 0.31270343261798911 0.68761148188185484 0.16929708765653109 0.30074819035870082 1 0.31426750628021272 0.31270343261798911 0.68761148188185484 0 0.31807971531776508 0.80839867011913336 0.2184393375098648 0.50004596894495223 0.77634962490704662 0 0.5118616330515301 0.84191918937737908 0 0.31807971531776508 0.80839867011913336 0 0.46954769941369501 0.67320508075638175 0.2184393375098648 0.50004596894495223 0.77634962490704662 0 0.5118616330515301 0.84191918937737908 0.17226134197275911 0.49836539647894412 1 0 0.31807971531776508 0.80839867011913336 0.2184393375098648 0.50004596894495223 0.77634962490704662 0 0.31807971531776508 0.80839867011913336 0.16929708765653109 0.30074819035870082 1 0 0.40000000000166441 1 0 0.20000000000083221 1 0.17226134197275911 0.49836539647894412 1 0.32925244736146098 0.39615100178034629 1 0.16929708765653109 0.30074819035870082 1 0.2184393375098648 0.50004596894495223 0.77634962490704662 0.17226134197275911 0.49836539647894412 1 0.16929708765653109 0.30074819035870082 1 0 0.31807971531776508 0.80839867011913336 0.2184393375098648 0.50004596894495223 0.77634962490704662 0.31610726166461628 0.1880448979455934 1 0.16929708765653109 0.30074819035870082 1 0.32925244736146098 0.39615100178034629 1 0.31426750628021272 0.31270343261798911 0.68761148188185484 0.32446581821293602 0.60020898676440626 1 0.32925244736146098 0.39615100178034629 1 0.17226134197275911 0.49836539647894412 1 0.2184393375098648 0.50004596894495223 0.77634962490704662 0.45812322962173568 0.31024977578554058 1 0.31426750628021272 0.31270343261798911 0.68761148188185484 0.49816183246753282 0.5307146639261795 0.75045686993209071 0.50084626324420545 0.22238844715913 0.78084811589659187 0.32925244736146098 0.39615100178034629 1 0.49816183246753282 0.5307146639261795 0.75045686993209071 0.31426750628021272 0.31270343261798911 0.68761148188185484 0.2184393375098648 0.50004596894495223 0.77634962490704662 0.31610726166461628 0.1880448979455934 1 0.32925244736146098 0.39615100178034629 1 0.45812322962173568 0.31024977578554058 1 0.31426750628021272 0.31270343261798911 0.68761148188185484 0.45812322962173568 0.31024977578554058 1 0.31610726166461628 0.1880448979455934 1 0.31426750628021272 0.31270343261798911 0.68761148188185484 0.50084626324420545 0.22238844715913 0.78084811589659187 0.32925244736146098 0.39615100178034629 1 0.45812322962173568 0.31024977578554058 1 0.31426750628021272 0.31270343261798911 0.68761148188185484 0.49816183246753282 0.5307146639261795 0.75045686993209071 0.32925244736146098 0.39615100178034629 1 0.31426750628021272 0.31270343261798911 0.68761148188185484 0.16929708765653109 0.30074819035870082 1 0.2184393375098648 0.50004596894495223 0.77634962490704662 0.32925244736146098 0.39615100178034629 1 0.51961524226934941 0.50000000000250611 1 0.45812322962173568 0.31024977578554058 1 0.49816183246753282 0.5307146639261795 0.75045686993209071 0.31426750628021272 0.31270343261798911 0.68761148188185484 0.49816183246753282 0.5307146639261795 0.75045686993209071 0.50000000000001332 0.49999999999999561 0.49999999999999561 0.2184393375098648 0.50004596894495223 0.77634962490704662 0.24769234054476261 0.52242103280823293 0.45098450226372488 0.50073570207385831 0.24848280280289631 0.52886631355986169 0.31426750628021272 0.31270343261798911 0.68761148188185484 0.22088738526309029 0.22111069116742441 0.50004796911802929 0.31426750628021272 0.31270343261798911 0.68761148188185484 0.50073570207385831 0.24848280280289631 0.52886631355986169 0.49816183246753282 0.5307146639261795 0.75045686993209071 0.50084626324420545 0.22238844715913 0.78084811589659187 0.50000000000001332 0.49999999999999561 0.49999999999999561 0.31426750628021272 0.31270343261798911 0.68761148188185484 0.24769234054476261 0.52242103280823293 0.45098450226372488 0.50073570207385831 0.24848280280289631 0.52886631355986169 0.50000000000001332 0.49999999999999561 0.49999999999999561 0.49816183246753282 0.5307146639261795 0.75045686993209071 0.31426750628021272 0.31270343261798911 0.68761148188185484 0.50073570207385831 0.24848280280289631 0.52886631355986169 0.50000000000001332 0.49999999999999561 0.49999999999999561 0.24769234054476261 0.52242103280823293 0.45098450226372488 0.31426750628021272 0.31270343261798911 0.68761148188185484 0.2184393375098648 0.50004596894495223 0.77634962490704662 0.2184393375098648 0.50004596894495223 0.77634962490704662 0.31426750628021272 0.31270343261798911 0.68761148188185484 0 0.50000000000237477 0.51961524226909872 0.24769234054476261 0.52242103280823293 0.45098450226372488 0 0.31024977578556651 0.45812322962166352 0.24769234054476261 0.52242103280823293 0.45098450226372488 0 0.32043363027398297 0.61046998817722586 0.22088738526309029 0.22111069116742441 0.50004796911802929 0 0.32043363027398297 0.61046998817722586 0 0.50000000000237477 0.51961524226909872 0.31426750628021272 0.31270343261798911 0.68761148188185484 0.24769234054476261 0.52242103280823293 0.45098450226372488 0.2184393375098648 0.50004596894495223 0.77634962490704662 0 0.32043363027398297 0.61046998817722586 0 0.50000000000237477 0.51961524226909872 0.31426750628021272 0.31270343261798911 0.68761148188185484 0 0.32043363027398297 0.61046998817722586 0.24769234054476261 0.52242103280823293 0.45098450226372488 0.31426750628021272 0.31270343261798911 0.68761148188185484 0.22088738526309029 0.22111069116742441 0.50004796911802929 0.2184393375098648 0.50004596894495223 0.77634962490704662 0 0.50000000000237477 0.51961524226909872 0 0.32043363027398297 0.61046998817722586 0 0.46954769941369501 0.67320508075638175 0 0.16196943494415611 0.69380980080116506 0 0.32043363027398297 0.61046998817722586 0.31426750628021272 0.31270343261798911 0.68761148188185484 0.22088738526309029 0.22111069116742441 0.50004796911802929 0 0.32043363027398297 0.61046998817722586 0 0.31807971531776508 0.80839867011913336 0.31426750628021272 0.31270343261798911 0.68761148188185484 0.2184393375098648 0.50004596894495223 0.77634962490704662 0 0.16196943494415611 0.69380980080116506 0 0.32043363027398297 0.61046998817722586 0 0.31807971531776508 0.80839867011913336 0.31426750628021272 0.31270343261798911 0.68761148188185484 0 0.31024977578556651 0.45812322962166352 0 0.50000000000237477 0.51961524226909872 0 0.32043363027398297 0.61046998817722586 0.24769234054476261 0.52242103280823293 0.45098450226372488 0 0.32043363027398297 0.61046998817722586 0 0.46954769941369501 0.67320508075638175 0 0.31807971531776508 0.80839867011913336 0.2184393375098648 0.50004596894495223 0.77634962490704662 0 0.32043363027398297 0.61046998817722586 0 0.16275515618034081 0.50966790549591257 0 0.31024977578556651 0.45812322962166352 0.22088738526309029 0.22111069116742441 0.50004796911802929 0 0.16196943494415611 0.69380980080116506 0.14641016151479661 0 0.85358983848542624 0.18818969570926641 0 0.68364148842842287 0.31426750628021272 0.31270343261798911 0.68761148188185484 0 0.16196943494415611 0.69380980080116506 0.31426750628021272 0.31270343261798911 0.68761148188185484 0.18818969570926641 0 0.68364148842842287 0.22088738526309029 0.22111069116742441 0.50004796911802929 0 0.16196943494415611 0.69380980080116506 0.18818969570926641 0 0.68364148842842287 0 0.16275515618034081 0.50966790549591257 0.22088738526309029 0.22111069116742441 0.50004796911802929 0 0.16196943494415611 0.69380980080116506 0 0.16275515618034081 0.50966790549591257 0 0.32043363027398297 0.61046998817722586 0.22088738526309029 0.22111069116742441 0.50004796911802929 0 0 0.79999999999999982 0 0 0.60000000000138687 0 0.16196943494415611 0.69380980080116506 0.18818969570926641 0 0.68364148842842287 0 0 0.60000000000138687 0 0.16196943494415611 0.69380980080116506 0.18818969570926641 0 0.68364148842842287 0 0.16275515618034081 0.50966790549591257 0.18818969570926641 0 0.68364148842842287 0.16370661204827031 0 0.4886650857430957 0 0 0.60000000000138687 0 0.16275515618034081 0.50966790549591257 0.18818969570926641 0 0.68364148842842287 0.31030302876556398 0 0.54179813558513157 0.16370661204827031 0 0.4886650857430957 0.22088738526309029 0.22111069116742441 0.50004796911802929 0 0.16275515618034081 0.50966790549591257 0.18818969570926641 0 0.68364148842842287 0.16370661204827031 0 0.4886650857430957 0.22088738526309029 0.22111069116742441 0.50004796911802929 0.30074819035913852 0 0.83070291234383831 0.39615987727709562 0 0.67073444684008199 0.18818969570926641 0 0.68364148842842287 0.31426750628021272 0.31270343261798911 0.68761148188185484 0.31030302876556398 0 0.54179813558513157 0.31426750628021272 0.31270343261798911 0.68761148188185484 0.50073570207385831 0.24848280280289631 0.52886631355986169 0.22088738526309029 0.22111069116742441 0.50004796911802929 0.39615987727709562 0 0.67073444684008199 0.31030302876556398 0 0.54179813558513157 0.31426750628021272 0.31270343261798911 0.68761148188185484 0.50073570207385831 0.24848280280289631 0.52886631355986169 0.39615987727709562 0 0.67073444684008199 0.31426750628021272 0.31270343261798911 0.68761148188185484 0.30074819035913852 0 0.83070291234383831 0.50084626324420545 0.22238844715913 0.78084811589659187 0.18818969570926641 0 0.68364148842842287 0.31426750628021272 0.31270343261798911 0.68761148188185484 0.31030302876556398 0 0.54179813558513157 0.22088738526309029 0.22111069116742441 0.50004796911802929 0.6002015905170176 0 0.67551889168744117 0.50073570207385831 0.24848280280289631 0.52886631355986169 0.39615987727709562 0 0.67073444684008199 0.50084626324420545 0.22238844715913 0.78084811589659187 0.31030302876556398 0 0.54179813558513157 0.18818969570926641 0 0.68364148842842287 0.39615987727709562 0 0.67073444684008199 0.31426750628021272 0.31270343261798911 0.68761148188185484 0.39615987727709562 0 0.67073444684008199 0.50073570207385831 0.24848280280289631 0.52886631355986169 0.31426750628021272 0.31270343261798911 0.68761148188185484 0.50084626324420545 0.22238844715913 0.78084811589659187 0.39615987727709562 0 0.67073444684008199 0.6002015905170176 0 0.67551889168744117 0.50000000000250922 0 0.48038475773043671 0.50073570207385831 0.24848280280289631 0.52886631355986169 0.39615987727709562 0 0.67073444684008199 0.50000000000250922 0 0.48038475773043671 0.31030302876556398 0 0.54179813558513157 0.50073570207385831 0.24848280280289631 0.52886631355986169 0.49836539647917322 0 0.82773865802723501 0.6002015905170176 0 0.67551889168744117 0.39615987727709562 0 0.67073444684008199 0.50084626324420545 0.22238844715913 0.78084811589659187 0.30074819035913852 0 0.83070291234383831 0.14641016151432179 0.14641016151432179 1 0.31610726166461628 0.1880448979455934 1 0.31426750628021272 0.31270343261798911 0.68761148188185484 0.30074819035913852 0 0.83070291234383831 0.31426750628021272 0.31270343261798911 0.68761148188185484 0.31610726166461628 0.1880448979455934 1 0.50084626324420545 0.22238844715913 0.78084811589659187 0.30074819035913852 0 0.83070291234383831 0.31610726166461628 0.1880448979455934 1 0.49836539647917322 0 0.82773865802723501 0.50084626324420545 0.22238844715913 0.78084811589659187 0.39615987727709562 0 0.67073444684008199 0.30074819035913852 0 0.83070291234383831 0.49836539647917322 0 0.82773865802723501 0.50084626324420545 0.22238844715913 0.78084811589659187 0.31610726166461628 0.1880448979455934 1 0.40000000000166441 0 1 0.49836539647917322 0 0.82773865802723501 0.50966790549576724 0.1627551561802443 1 0.40000000000166441 0 1 0.49836539647917322 0 0.82773865802723501 0.30074819035913852 0 0.83070291234383831 0.31610726166461628 0.1880448979455934 1 0.31610726166461628 0.1880448979455934 1 0.50966790549576724 0.1627551561802443 1 0.49836539647917322 0 0.82773865802723501 0.50084626324420545 0.22238844715913 0.78084811589659187 0.45812322962173568 0.31024977578554058 1 0.50966790549576724 0.1627551561802443 1 0.31610726166461628 0.1880448979455934 1 0.50084626324420545 0.22238844715913 0.78084811589659187 0.40000000000166441 0 1 0.30074819035913852 0 0.83070291234383831 0.20000000000083221 0 1 0.31610726166461628 0.1880448979455934 1 0 0.14641016151490169 0.85358983848532144 0 0.16196943494415611 0.69380980080116506 0 0.31807971531776508 0.80839867011913336 0.31426750628021272 0.31270343261798911 0.68761148188185484 0.16929708765653109 0.30074819035870082 1 0.31610726166461628 0.1880448979455934 1 0.14641016151432179 0.14641016151432179 1 0.31426750628021272 0.31270343261798911 0.68761148188185484 0.14641016151432179 0.14641016151432179 1 0.20000000000083221 0 1 0.14641016151479661 0 0.85358983848542624 0.30074819035913852 0 0.83070291234383831 0.14641016151432179 0.14641016151432179 1 0.30074819035913852 0 0.83070291234383831 0.14641016151479661 0 0.85358983848542624 0.31426750628021272 0.31270343261798911 0.68761148188185484 0.14641016151432179 0.14641016151432179 1 0.20000000000083221 0 1 0.30074819035913852 0 0.83070291234383831 0.31610726166461628 0.1880448979455934 1 0.18818969570926641 0 0.68364148842842287 0.14641016151479661 0 0.85358983848542624 0.30074819035913852 0 0.83070291234383831 0.31426750628021272 0.31270343261798911 0.68761148188185484 0 0.14641016151490169 0.85358983848532144 0.16929708765653109 0.30074819035870082 1 0.14641016151432179 0.14641016151432179 1 0.31426750628021272 0.31270343261798911 0.68761148188185484 0.14641016151432179 0.14641016151432179 1 0.14641016151479661 0 0.85358983848542624 0 0.14641016151490169 0.85358983848532144 0.31426750628021272 0.31270343261798911 0.68761148188185484 0 0.16196943494415611 0.69380980080116506 0 0.14641016151490169 0.85358983848532144 0.14641016151479661 0 0.85358983848542624 0.31426750628021272 0.31270343261798911 0.68761148188185484 0 0.20000000000083221 1 0 0.31807971531776508 0.80839867011913336 0.16929708765653109 0.30074819035870082 1 0 0.14641016151490169 0.85358983848532144 0.14641016151432179 0.14641016151432179 1 0 0.20000000000083221 1 0.16929708765653109 0.30074819035870082 1 0 0.14641016151490169 0.85358983848532144 0 0.16196943494415611 0.69380980080116506 0.14641016151479661 0 0.85358983848542624 0 0 0.79999999999999982 0.18818969570926641 0 0.68364148842842287 0 0.14641016151490169 0.85358983848532144 0.14641016151479661 0 0.85358983848542624 0 0 0.79999999999999982 0 0.16196943494415611 0.69380980080116506 0 0 1 0 0.20000000000083221 1 0.14641016151432179 0.14641016151432179 1 0 0.14641016151490169 0.85358983848532144 0.14641016151479661 0 0.85358983848542624 0 0 0.79999999999999982 0 0 1 0 0.14641016151490169 0.85358983848532144 0 0 1 0.14641016151432179 0.14641016151432179 1 0.20000000000083221 0 1 0.14641016151479661 0 0.85358983848542624 0.14641016151479661 0 0.85358983848542624 0 0 1 0.14641016151432179 0.14641016151432179 1 0 0.14641016151490169 0.85358983848532144 
</DataArray>
</Points>
<Cells>
<DataArray type="UInt32" Name="connectivity" format="ascii">
0 1 2 3 4 5 6 7 8 9 10 11 12 13 14 15 16 17 18 19 20 21 22 23 24 25 26 27 28 29 30 31 32 33 34 35 36 37 38 39 40 41 42 43 44 45 46 47 48 49 50 51 52 53 54 55 56 57 58 59 60 61 62 63 64 65 66 67 68 69 70 71 72 73 74 75 76 77 78 79 80 81 82 83 84 85 86 87 88 89 90 91 92 93 94 95 96 97 98 99 100 101 102 103 104 105 106 107 108 109 110 111 112 113 114 115 116 117 118 119 120 121 122 123 124 125 126 127 128 129 130 131 132 133 134 135 136 137 138 139 140 141 142 143 144 145 146 147 148 149 150 151 152 153 154 155 156 157 158 159 160 161 162 163 164 165 166 167 168 169 170 171 172 173 174 175 176 177 178 179 180 181 182 183 184 185 186 187 188 189 190 191 192 193 194 195 196 197 198 199 200 201 202 203 204 205 206 207 208 209 210 211 212 213 214 215 216 217 218 219 220 221 222 223 224 225 226 227 228 229 230 231 232 233 234 235 236 237 238 239 240 241 242 243 244 245 246 247 248 249 250 251 252 253 254 255 256 257 258 259 260 261 262 263 264 265 266 267 268 269 270 271 272 273 274 275 276 277 278 279 280 281 282 283 284 285 286 287 288 289 290 291 292 293 294 295 296 297 298 299 300 301 302 303 304 305 306 307 308 309 310 311 312 313 314 315 316 317 318 319 320 321 322 323 324 325 326 327 328 329 330 331 332 333 334 335 336 337 338 339 340 341 342 343 344 345 346 347 348 349 350 351 352 353 354 355 356 357 358 359 360 361 362 363 364 365 366 367 368 369 370 371 372 373 374 375 376 377 378 379 380 381 382 383 384 385 386 387 388 389 390 391 392 393 394 395 396 397 398 399 400 401 402 403 404 405 406 407 408 409 410 411 412 413 414 415 416 417 418 419 420 421 422 423 424 425 426 427 428 429 430 431 432 433 434 435 436 437 438 439 440 441 442 443 444 445 446 447 448 449 450 451 452 453 454 455 456 457 458 459 460 461 462 463 464 465 466 467 468 469 470 471 472 473 474 475 476 477 478 479 480 481 482 483 484 485 486 487 488 489 490 491 492 493 494 495 496 497 498 499 500 501 502 503 504 505 506 507 508 509 510 511 512 513 514 515 516 517 518 519 520 521 522 523 524 525 526 527 528 529 530 531 532 533 534 535 536 537 538 539 540 541 542 543 544 545 546 547 548 549 550 551 552 553 554 555 556 557 558 559 560 561 562 563 564 565 566 567 568 569 570 571 572 573 574 575 576 577 578 579 580 581 582 583 584 585 586 587 588 589 590 591 592 593 594 595 596 597 598 599 600 601 602 603 604 605 606 607 608 609 610 611 612 613 614 615 616 617 618 619 620 621 622 623 624 625 626 627 628 629 630 631 632 633 634 635 636 637 638 639 640 641 642 643 644 645 646 647 648 649 650 651 652 653 654 655 656 657 658 659 660 661 662 663 664 665 666 667 668 669 670 671 672 673 674 675 676 677 678 679 680 681 682 683 684 685 686 687 688 689 690 691 692 693 694 695 696 697 698 699 700 701 702 703 704 705 706 707 708 709 710 711 712 713 714 715 716 717 718 719 720 721 722 723 724 725 726 727 728 729 730 731 732 733 734 735 736 737 738 739 740 741 742 743 744 745 746 747 748 749 750 751 752 753 754 755 756 757 758 759 760 761 762 763 764 765 766 767 768 769 770 771 772 773 774 775 776 777 778 779 780 781 782 783 784 785 786 787 788 789 790 791 792 793 794 795 796 797 798 799 800 801 802 803 804 805 806 807 808 809 810 811 812 813 814 815 816 817 818 819 820 821 822 823 824 825 826 827 828 829 830 831 832 833 834 835 836 837 838 839 840 841 842 843 844 845 846 847 848 849 850 851 852 853 854 855 856 857 858 859 860 861 862 863 864 865 866 867 868 869 870 871 872 873 874 875 876 877 878 879 880 881 882 883 884 885 886 887 888 889 890 891 892 893 894 895 896 897 898 899 900 901 902 903 904 905 906 907 908 909 910 911 912 913 914 915 916 917 918 919 920 921 922 923 924 925 926 927 928 929 930 931 932 933 934 935 936 937 938 939 940 941 942 943 944 945 946 947 948 949 950 951 952 953 954 955 956 957 958 959 960 961 962 963 964 965 966 967 968 969 970 971 972 973 974 975 976 977 978 979 980 981 982 983 984 985 986 987 988 989 990 991 992 993 994 995 996 997 998 999 1000 1001 1002 1003 1004 1005 1006 1007 1008 1009 1010 1011 1012 1013 1014 1015 1016 1017 1018 1019 1020 1021 1022 1023 1024 1025 1026 1027 1028 1029 1030 1031 1032 1033 1034 1035 1036 1037 1038 1039 1040 1041 1042 1043 1044 1045 1046 1047 1048 1049 1050 1051 1052 1053 1054 1055 1056 1057 1058 1059 1060 1061 1062 1063 1064 1065 1066 1067 1068 1069 1070 1071 1072 1073 1074 1075 1076 1077 1078 1079 1080 1081 1082 1083 1084 1085 1086 1087 1088 1089 1090 1091 1092 1093 1094 1095 1096 1097 1098 1099 1100 1101 1102 1103 1104 1105 1106 1107 1108 1109 1110 1111 1112 1113 1114 1115 1116 1117 1118 1119 1120 1121 1122 1123 1124 1125 1126 1127 1128 1129 1130 1131 1132 1133 1134 1135 1136 1137 1138 1139 1140 1141 1142 1143 1144 1145 1146 1147 1148 1149 1150 1151 1152 1153 1154 1155 1156 1157 1158 1159 1160 1161 1162 1163 1164 1165 1166 1167 1168 1169 1170 1171 1172 1173 1174 1175 1176 1177 1178 1179 1180 1181 1182 1183 1184 1185 1186 1187 1188 1189 1190 1191 1192 1193 1194 1195 1196 1197 1198 1199 1200 1201 1202 1203 1204 1205 1206 1207 1208 1209 1210 1211 1212 1213 1214 1215 1216 1217 1218 1219 1220 1221 1222 1223 1224 1225 1226 1227 1228 1229 1230 1231 1232 1233 1234 1235 1236 1237 1238 1239 1240 1241 1242 1243 1244 1245 1246 1247 1248 1249 1250 1251 1252 1253 1254 1255 1256 1257 1258 1259 1260 1261 1262 1263 1264 1265 1266 1267 1268 1269 1270 1271 1272 1273 1274 1275 1276 1277 1278 1279 1280 1281 1282 1283 1284 1285 1286 1287 1288 1289 1290 1291 1292 1293 1294 1295 1296 1297 1298 1299 1300 1301 1302 1303 1304 1305 1306 1307 1308 1309 1310 1311 1312 1313 1314 1315 1316 1317 1318 1319 1320 1321 1322 1323 1324 1325 1326 1327 1328 1329 1330 1331 1332 1333 1334 1335 1336 1337 1338 1339 1340 1341 1342 1343 1344 1345 1346 1347 1348 1349 1350 1351 1352 1353 1354 1355 1356 1357 1358 1359 1360 1361 1362 1363 1364 1365 1366 1367 1368 1369 1370 1371 1372 1373 1374 1375 1376 1377 1378 1379 1380 1381 1382 1383 1384 1385 1386 1387 1388 1389 1390 1391 1392 1393 1394 1395 1396 1397 1398 1399 1400 1401 1402 1403 1404 1405 1406 1407 1408 1409 1410 1411 1412 1413 1414 1415 1416 1417 1418 1419 1420 1421 1422 1423 1424 1425 1426 1427 1428 1429 1430 1431 1432 1433 1434 1435 1436 1437 1438 1439 1440 1441 1442 1443 1444 1445 1446 1447 1448 1449 1450 1451 1452 1453 1454 1455 1456 1457 1458 1459 1460 1461 1462 1463 1464 1465 1466 1467 1468 1469 1470 1471 1472 1473 1474 1475 1476 1477 1478 1479 1480 1481 1482 1483 1484 1485 1486 1487 1488 1489 1490 1491 1492 1493 1494 1495 1496 1497 1498 1499 1500 1501 1502 1503 1504 1505 1506 1507 1508 1509 1510 1511 1512 1513 1514 1515 1516 1517 1518 1519 1520 1521 1522 1523 1524 1525 1526 1527 1528 1529 1530 1531 1532 1533 1534 1535 1536 1537 1538 1539 1540 1541 1542 1543 1544 1545 1546 1547 1548 1549 1550 1551 1552 1553 1554 1555 1556 1557 1558 1559 1560 1561 1562 1563 1564 1565 1566 1567 1568 1569 1570 1571 1572 1573 1574 1575 1576 1577 1578 1579 1580 1581 1582 1583 1584 1585 1586 1587 1588 1589 1590 1591 1592 1593 1594 1595 1596 1597 1598 1599 1600 1601 1602 1603 1604 1605 1606 1607 1608 1609 1610 1611 1612 1613 1614 1615 1616 1617 1618 1619 1620 1621 1622 1623 1624 1625 1626 1627 1628 1629 1630 1631 1632 1633 1634 1635 1636 1637 1638 1639 1640 1641 1642 1643 1644 1645 1646 1647 1648 1649 1650 1651 1652 1653 1654 1655 1656 1657 1658 1659 1660 1661 1662 1663 1664 1665 1666 1667 1668 1669 1670 1671 1672 1673 1674 1675 1676 1677 1678 1679 1680 1681 1682 1683 1684 1685 1686 1687 1688 1689 1690 1691 1692 1693 1694 1695 1696 1697 1698 1699 1700 1701 1702 1703 1704 1705 1706 1707 1708 1709 1710 1711 1712 1713 1714 1715 1716 1717 1718 1719 1720 1721 1722 1723 1724 1725 1726 1727 1728 1729 1730 1731 1732 1733 1734 1735 1736 1737 1738 1739 1740 1741 1742 1743 1744 1745 1746 1747 1748 1749 1750 1751 1752 1753 1754 1755 1756 1757 1758 1759 1760 1761 1762 1763 1764 1765 1766 1767 1768 1769 1770 1771 1772 1773 1774 1775 1776 1777 1778 1779 1780 1781 1782 1783 1784 1785 1786 1787 1788 1789 1790 1791 1792 1793 1794 1795 1796 1797 1798 1799 1800 1801 1802 1803 1804 1805 1806 1807 1808 1809 1810 1811 1812 1813 1814 1815 1816 1817 1818 1819 1820 1821 1822 1823 1824 1825 1826 1827 1828 1829 1830 1831 1832 1833 1834 1835 1836 1837 1838 1839 1840 1841 1842 1843 1844 1845 1846 1847 1848 1849 1850 1851 1852 1853 1854 1855 1856 1857 1858 1859 1860 1861 1862 1863 1864 1865 1866 1867 1868 1869 1870 1871 1872 1873 1874 1875 1876 1877 1878 1879 1880 1881 1882 1883 1884 1885 1886 1887 1888 1889 1890 1891 1892 1893 1894 1895 1896 1897 1898 1899 1900 1901 1902 1903 1904 1905 1906 1907 1908 1909 1910 1911 1912 1913 1914 1915 1916 1917 1918 1919 1920 1921 1922 1923 1924 1925 1926 1927 1928 1929 1930 1931 1932 1933 1934 1935 1936 1937 1938 1939 1940 1941 1942 1943 1944 1945 1946 1947 1948 1949 1950 1951 1952 1953 1954 1955 1956 1957 1958 1959 1960 1961 1962 1963 1964 1965 1966 1967 1968 1969 1970 1971 1972 1973 1974 1975 1976 1977 1978 1979 1980 1981 1982 1983 1984 1985 1986 1987 1988 1989 1990 1991 1992 1993 1994 1995 1996 1997 1998 1999 2000 2001 2002 2003 2004 2005 2006 2007 2008 2009 2010 2011 2012 2013 2014 2015 2016 2017 2018 2019 2020 2021 2022 2023 2024 2025 2026 2027 2028 2029 2030 2031 2032 2033 2034 2035 2036 2037 2038 2039 2040 2041 2042 2043 2044 2045 2046 2047 2048 2049 2050 2051 2052 2053 2054 2055 2056 2057 2058 2059 2060 2061 2062 2063 2064 2065 2066 2067 2068 2069 2070 2071 2072 2073 2074 2075 2076 2077 2078 2079 2080 2081 2082 2083 2084 2085 2086 2087 2088 2089 2090 2091 2092 2093 2094 2095 2096 2097 2098 2099 2100 2101 2102 2103 2104 2105 2106 2107 2108 2109 2110 2111 2112 2113 2114 2115 2116 2117 2118 2119 2120 2121 2122 2123 2124 2125 2126 2127 2128 2129 2130 2131 2132 2133 2134 2135 2136 2137 2138 2139 2140 2141 2142 2143 2144 2145 2146 2147 2148 2149 2150 2151 2152 2153 2154 2155 2156 2157 2158 2159 2160 2161 2162 2163 2164 2165 2166 2167 2168 2169 2170 2171 2172 2173 2174 2175 2176 2177 2178 2179 2180 2181 2182 2183 2184 2185 2186 2187 2188 2189 2190 2191 2192 2193 2194 2195 2196 2197 2198 2199 2200 2201 2202 2203 2204 2205 2206 2207 2208 2209 2210 2211 2212 2213 2214 2215 2216 2217 2218 2219 2220 2221 2222 2223 2224 2225 2226 2227 2228 2229 2230 2231 2232 2233 2234 2235 2236 2237 2238 2239 2240 2241 2242 2243 2244 2245 2246 2247 2248 2249 2250 2251 2252 2253 2254 2255 2256 2257 2258 2259 2260 2261 2262 2263 2264 2265 2266 2267 2268 2269 2270 2271 2272 2273 2274 2275 2276 2277 2278 2279 2280 2281 2282 2283 2284 2285 2286 2287 2288 2289 2290 2291 2292 2293 2294 2295 2296 2297 2298 2299 2300 2301 2302 2303 2304 2305 2306 2307 2308 2309 2310 2311 2312 2313 2314 2315 2316 2317 2318 2319 2320 2321 2322 2323 2324 2325 2326 2327 2328 2329 2330 2331 2332 2333 2334 2335 2336 2337 2338 2339 2340 2341 2342 2343 2344 2345 2346 2347 2348 2349 2350 2351 2352 2353 2354 2355 2356 2357 2358 2359 2360 2361 2362 2363 2364 2365 2366 2367 2368 2369 2370 2371 2372 2373 2374 2375 2376 2377 2378 2379 2380 2381 2382 2383 2384 2385 2386 2387 2388 2389 2390 2391 2392 2393 2394 2395 2396 2397 2398 2399 2400 2401 2402 2403 2404 2405 2406 2407 2408 2409 2410 2411 2412 2413 2414 2415 2416 2417 2418 2419 2420 2421 2422 2423 2424 2425 2426 2427 2428 2429 2430 2431 2432 2433 2434 2435 2436 2437 2438 2439 2440 2441 2442 2443 2444 2445 2446 2447 2448 2449 2450 2451 2452 2453 2454 2455 2456 2457 2458 2459 2460 2461 2462 2463 2464 2465 2466 2467 2468 2469 2470 2471 2472 2473 2474 2475 2476 2477 2478 2479 2480 2481 2482 2483 2484 2485 2486 2487 2488 2489 2490 2491 2492 2493 2494 2495 2496 2497 2498 2499 2500 2501 2502 2503 2504 2505 2506 2507 2508 2509 2510 2511 2512 2513 2514 2515 2516 2517 2518 2519 2520 2521 2522 2523 2524 2525 2526 2527 2528 2529 2530 2531 2532 2533 2534 2535 2536 2537 2538 2539 2540 2541 2542 2543 2544 2545 2546 2547 2548 2549 2550 2551 2552 2553 2554 2555 2556 2557 2558 2559 2560 2561 2562 2563 2564 2565 2566 2567 2568 2569 2570 2571 2572 2573 2574 2575 2576 2577 2578 2579 2580 2581 2582 2583 2584 2585 2586 2587 2588 2589 2590 2591 2592 2593 2594 2595 2596 2597 2598 2599 2600 2601 2602 2603 2604 2605 2606 2607 2608 2609 2610 2611 2612 2613 2614 2615 2616 2617 2618 2619 2620 2621 2622 2623 2624 2625 2626 2627 2628 2629 2630 2631 2632 2633 2634 2635 2636 2637 2638 2639 2640 2641 2642 2643 2644 2645 2646 2647 2648 2649 2650 2651 2652 2653 2654 2655 2656 2657 2658 2659 2660 2661 2662 2663 2664 2665 2666 2667 2668 2669 2670 2671 2672 2673 2674 2675 2676 2677 2678 2679 2680 2681 2682 2683 2684 2685 2686 2687 2688 2689 2690 2691 2692 2693 2694 2695 2696 2697 2698 2699 2700 2701 2702 2703 2704 2705 2706 2707 2708 2709 2710 2711 2712 2713 2714 2715 2716 2717 2718 2719 2720 2721 2722 2723 2724 2725 2726 2727 2728 2729 2730 2731 2732 2733 2734 2735 2736 2737 2738 2739 2740 2741 2742 2743 2744 2745 2746 2747 2748 2749 2750 2751 2752 2753 2754 2755 2756 2757 2758 2759 2760 2761 2762 2763 2764 2765 2766 2767 2768 2769 2770 2771 2772 2773 2774 2775 2776 2777 2778 2779 2780 2781 2782 2783 2784 2785 2786 2787 2788 2789 2790 2791 2792 2793 2794 2795 2796 2797 2798 2799 2800 2801 2802 2803 2804 2805 2806 2807 2808 2809 2810 2811 2812 2813 2814 2815 2816 2817 2818 2819 2820 2821 2822 2823 2824 2825 2826 2827 2828 2829 2830 2831 2832 2833 2834 2835 2836 2837 2838 2839 2840 2841 2842 2843 2844 2845 2846 2847 2848 2849 2850 2851 2852 2853 2854 2855 2856 2857 2858 2859 2860 2861 2862 2863 2864 2865 2866 2867 2868 2869 2870 2871 2872 2873 2874 2875 
</DataArray>
<DataArray type="UInt32" Name="offsets" format="ascii">
4 8 12 16 20 24 28 32 36 40 44 48 52 56 60 64 68 72 76 80 84 88 92 96 100 104 108 112 116 120 124 128 132 136 140 144 148 152 156 160 164 168 172 176 180 184 188 192 196 200 204 208 212 216 220 224 228 232 236 240 244 248 252 256 260 264 268 272 276 280 284 288 292 296 300 304 308 312 316 320 324 328 332 336 340 344 348 352 356 360 364 368 372 376 380 384 388 392 396 400 404 408 412 416 420 424 428 432 436 440 444 448 452 456 460 464 468 472 476 480 484 488 492 496 500 504 508 512 516 520 524 528 532 536 540 544 548 552 556 560 564 568 572 576 580 584 588 592 596 600 604 608 612 616 620 624 628 632 636 640 644 648 652 656 660 664 668 672 676 680 684 688 692 696 700 704 708 712 716 720 724 728 732 736 740 744 748 752 756 760 764 768 772 776 780 784 788 792 796 800 804 808 812 816 820 824 828 832 836 840 844 848 852 856 860 864 868 872 876 880 884 888 892 896 900 904 908 912 916 920 924 928 932 936 940 944 948 952 956 960 964 968 972 976 980 984 988 992 996 1000 1004 1008 1012 1016 1020 1024 1028 1032 1036 1040 1044 1048 1052 1056 1060 1064 1068 1072 1076 1080 1084 1088 1092 1096 1100 1104 1108 1112 1116 1120 1124 1128 1132 1136 1140 1144 1148 1152 1156 1160 1164 1168 1172 1176 1180 1184 1188 1192 1196 1200 1204 1208 1212 1216 1220 1224 1228 1232 1236 1240 1244 1248 1252 1256 1260 1264 1268 1272 1276 1280 1284 1288 1292 1296 1300 1304 1308 1312 1316 1320 1324 1328 1332 1336 1340 1344 1348 1352 1356 1360 1364 1368 1372 1376 1380 1384 1388 1392 1396 1400 1404 1408 1412 1416 1420 1424 1428 1432 1436 1440 1444 1448 1452 1456 1460 1464 1468 1472 1476 1480 1484 1488 1492 1496 1500 1504 1508 1512 1516 1520 1524 1528 1532 1536 1540 1544 1548 1552 1556 1560 1564 1568 1572 1576 1580 1584 1588 1592 1596 1600 1604 1608 1612 1616 1620 1624 1628 1632 1636 1640 1644 1648 1652 1656 1660 1664 1668 1672 1676 1680 1684 1688 1692 1696 1700 1704 1708 1712 1716 1720 1724 1728 1732 1736 1740 1744 1748 1752 1756 1760 1764 1768 1772 1776 1780 1784 1788 1792 1796 1800 1804 1808 1812 1816 1820 1824 1828 1832 1836 1840 1844 1848 1852 1856 1860 1864 1868 1872 1876 1880 1884 1888 1892 1896 1900 1904 1908 1912 1916 1920 1924 1928 1932 1936 1940 1944 1948 1952 1956 1960 1964 1968 1972 1976 1980 1984 1988 1992 1996 2000 2004 2008 2012 2016 2020 2024 2028 2032 2036 2040 2044 2048 2052 2056 2060 2064 2068 2072 2076 2080 2084 2088 2092 2096 2100 2104 2108 2112 2116 2120 2124 2128 2132 2136 2140 2144 2148 2152 2156 2160 2164 2168 2172 2176 2180 2184 2188 2192 2196 2200 2204 2208 2212 2216 2220 2224 2228 2232 2236 2240 2244 2248 2252 2256 2260 2264 2268 2272 2276 2280 2284 2288 2292 2296 2300 2304 2308 2312 2316 2320 2324 2328 2332 2336 2340 2344 2348 2352 2356 2360 2364 2368 2372 2376 2380 2384 2388 2392 2396 2400 2404 2408 2412 2416 2420 2424 2428 2432 2436 2440 2444 2448 2452 2456 2460 2464 2468 2472 2476 2480 2484 2488 2492 2496 2500 2504 2508 2512 2516 2520 2524 2528 2532 2536 2540 2544 2548 2552 2556 2560 2564 2568 2572 2576 2580 2584 2588 2592 2596 2600 2604 2608 2612 2616 2620 2624 2628 2632 2636 2640 2644 2648 2652 2656 2660 2664 2668 2672 2676 2680 2684 2688 2692 2696 2700 2704 2708 2712 2716 2720 2724 2728 2732 2736 2740 2744 2748 2752 2756 2760 2764 2768 2772 2776 2780 2784 2788 2792 2796 2800 2804 2808 2812 2816 2820 2824 2828 2832 2836 2840 2844 2848 2852 2856 2860 2864 2868 2872 2876 
</DataArray>
<DataArray type="UInt32" Name="types" format="ascii">
10 10 10 10 10 10 10 10 10 10 10 10 10 10 10 10 10 10 10 10 10 10 10 10 10 10 10 10 10 10 10 10 10 10 10 10 10 10 10 10 10 10 10 10 10 10 10 10 10 10 10 10 10 10 10 10 10 10 10 10 10 10 10 10 10 10 10 10 10 10 10 10 10 10 10 10 10 10 10 10 10 10 10 10 10 10 10 10 10 10 10 10 10 10 10 10 10 10 10 10 10 10 10 10 10 10 10 10 10 10 10 10 10 10 10 10 10 10 10 10 10 10 10 10 10 10 10 10 10 10 10 10 10 10 10 10 10 10 10 10 10 10 10 10 10 10 10 10 10 10 10 10 10 10 10 10 10 10 10 10 10 10 10 10 10 10 10 10 10 10 10 10 10 10 10 10 10 10 10 10 10 10 10 10 10 10 10 10 10 10 10 10 10 10 10 10 10 10 10 10 10 10 10 10 10 10 10 10 10 10 10 10 10 10 10 10 10 10 10 10 10 10 10 10 10 10 10 10 10 10 10 10 10 10 10 10 10 10 10 10 10 10 10 10 10 10 10 10 10 10 10 10 10 10 10 10 10 10 10 10 10 10 10 10 10 10 10 10 10 10 10 10 10 10 10 10 10 10 10 10 10 10 10 10 10 10 10 10 10 10 10 10 10 10 10 10 10 10 10 10 10 10 10 10 10 10 10 10 10 10 10 10 10 10 10 10 10 10 10 10 10 10 10 10 10 10 10 10 10 10 10 10 10 10 10 10 10 10 10 10 10 10 10 10 10 10 10 10 10 10 10 10 10 10 10 10 10 10 10 10 10 10 10 10 10 10 10 10 10 10 10 10 10 10 10 10 10 10 10 10 10 10 10 10 10 10 10 10 10 10 10 10 10 10 10 10 10 10 10 10 10 10 10 10 10 10 10 10 10 10 10 10 10 10 10 10 10 10 10 10 10 10 10 10 10 10 10 10 10 10 10 10 10 10 10 10 10 10 10 10 10 10 10 10 10 10 10 10 10 10 10 10 10 10 10 10 10 10 10 10 10 10 10 10 10 10 10 10 10 10 10 10 10 10 10 10 10 10 10 10 10 10 10 10 10 10 10 10 10 10 10 10 10 10 10 10 10 10 10 10 10 10 10 10 10 10 10 10 10 10 10 10 10 10 10 10 10 10 10 10 10 10 10 10 10 10 10 10 10 10 10 10 10 10 10 10 10 10 10 10 10 10 10 10 10 10 10 10 10 10 10 10 10 10 10 10 10 10 10 10 10 10 10 10 10 10 10 10 10 10 10 10 10 10 10 10 10 10 10 10 10 10 10 10 10 10 10 10 10 10 10 10 10 10 10 10 10 10 10 10 10 10 10 10 10 10 10 10 10 10 10 10 10 10 10 10 10 10 10 10 10 10 10 10 10 10 10 10 10 10 10 10 10 10 10 10 10 10 10 10 10 10 10 10 10 10 10 10 10 10 10 10 10 10 10 10 10 10 10 10 10 10 10 10 10 10 10 10 10 10 10 10 10 10 10 10 10 10 10 10 10 10 10 10 10 10 10 10 10 10 10 10 10 10 10 10 10 10 10 10 10 10 10 10 10 10 10 10 10 10 10 10 10 10 10 10 10 10 10 
</DataArray>
</Cells>
<PointData Scalars="" Vectors="displacement," Tensors="">
<DataArray type="Float64" Name="displacement" NumberOfComponents="3" format="ascii">
9.8784937430547143e-06 -2.1091841546710765e-10 -1.2611955469501212e-09 5.2906264647445751e-06 -1.4566684157429362e-10 -1.2146687251928445e-09 4.575414344501362e-06 -2.1909595883512251e-10 -9.7080262004889267e-10 9.7681735882291371e-06 -9.7972325597763003e-11 -2.930513221141513e-05 2.0955912147643735e-14 -2.3514216608494566e-10 -1.2115017521571691e-09 1.6693655567307497e-14 -3.2502013228048514e-10 -1.3077276013207887e-09 4.575414344501362e-06 -2.1909595883512251e-10 -9.7080262004837237e-10 -2.6808385870132929e-14 -2.0328798978833781e-10 -1.3727054305366027e-05 1.6693655567307503e-14 -3.2502013228048514e-10 -1.3077276013196778e-09 6.250036497741275e-06 -3.5502418281637559e-10 -1.3765622918484905e-09 4.575414344501362e-06 -2.1909595883512251e-10 -9.7080262004837237e-10 4.5754093596768107e-06 -2.3768654796719353e-10 -1.3727079300808642e-05 -2.6808385870132929e-14 -2.0328798978833781e-10 -1.3727054305366027e-05 6.3516211039037368e-15 -3.0962657735934114e-10 -1.8751129705422225e-05 1.6693655567307503e-14 -3.2502013228048514e-10 -1.3077276013196778e-09 4.5754093596768107e-06 -2.3768654796719353e-10 -1.3727079300808642e-05 -2.6808385870132929e-14 -2.0328798978833781e-10 -1.3727054305366027e-05 -1.2209206659346452e-14 -8.8050013106222266e-11 -1.5872804872816731e-05 1.0829874722087353e-16 -1.9030432839940715e-10 -2.9636126855457957e-05 9.7681735882291421e-06 -9.7972325597762939e-11 -2.9305132211415123e-05 9.8684597053268356e-06 -3.2051362119452347e-10 -1.748824667861069e-05 4.5754093596768098e-06 -2.3768654796719353e-10 -1.372707930080864e-05 5.2933005426764145e-06 -3.0072394786104415e-10 -2.81367470567934e-05 9.7681735882291371e-06 -9.7972325597763003e-11 -2.930513221141513e-05 -2.6808385870132929e-14 -2.0328798978833781e-10 -1.3727054305366027e-05 1.6693655197038346e-14 -3.2502013228048509e-10 -1.3077276013191223e-09 4.575414344501362e-06 -2.1909595883512251e-10 -9.7080262004837237e-10 4.5754093596768107e-06 -2.3768654796719353e-10 -1.3727079300808642e-05 4.575414344501362e-06 -2.1909595883512251e-10 -9.7080262004837237e-10 4.5754093596768098e-06 -2.3768654796719353e-10 -1.3727079300808647e-05 9.8684597053268356e-06 -3.2051362119452347e-10 -1.748824667861069e-05 9.7681735882291371e-06 -9.7972325597763003e-11 -2.930513221141513e-05 4.575414344501362e-06 -2.1909595883512251e-10 -9.7080262004837237e-10 -1.2209206482608528e-14 -8.8050013106222227e-11 -1.5872804872816728e-05 -2.6808385516355004e-14 -2.0328798978833784e-10 -1.3727054305366028e-05 9.7681735882291371e-06 -9.7972325597763003e-11 -2.930513221141513e-05 4.575414344501362e-06 -2.1909595883512251e-10 -9.7080262004837237e-10 -2.6808385828261774e-14 -2.0328798978833781e-10 -1.3727054305366025e-05 4.5754093596768107e-06 -2.3768654796719353e-10 -1.3727079300808642e-05 9.7681735882291371e-06 -9.7972325597762991e-11 -2.930513221141513e-05 -2.6808385870132929e-14 -2.0328798978833781e-10 -1.3727054305366027e-05 5.2933005426764162e-06 -3.0072394786104415e-10 -2.8136747056793396e-05 4.5754093596768107e-06 -2.3768654796719353e-10 -1.3727079300808642e-05 9.7681735882291388e-06 -9.7972325597763016e-11 -2.9305132211415137e-05 4.5754093596768107e-06 -2.3768654796719353e-10 -1.3727079300808642e-05 -2.6808385808932274e-14 -2.0328798978833781e-10 -1.3727054305366027e-05 6.351620462578397e-15 -3.0962657735934114e-10 -1.8751129705422225e-05 5.2933005426764145e-06 -3.0072394786104415e-10 -2.81367470567934e-05 1.0829874722087353e-16 -1.9030432839940715e-10 -2.9636126855457957e-05 6.351620462578397e-15 -3.0962657735934114e-10 -1.8751129705422225e-05 -2.6808385870132929e-14 -2.0328798978833781e-10 -1.3727054305366027e-05 5.2933005426764145e-06 -3.0072394786104415e-10 -2.81367470567934e-05 -2.6808385870132929e-14 -2.0328798978833781e-10 -1.3727054305366027e-05 4.575414344501362e-06 -2.1909595883512251e-10 -9.7080262004837237e-10 2.0955912147643735e-14 -2.3514216608494566e-10 -1.21150175215708e-09 -1.2209206659346452e-14 -8.8050013106222266e-11 -1.5872804872816731e-05 -1.2209206659346452e-14 -8.8050013106222266e-11 -1.5872804872816731e-05 4.5754143445013628e-06 -2.1909595883512248e-10 -9.7080262005232485e-10 2.0955912147643735e-14 -2.3514216608494566e-10 -1.2115017521571691e-09 5.2906264647445751e-06 -1.4566684157429362e-10 -1.2146687251928445e-09 6.250036497741275e-06 -3.5502418281637559e-10 -1.3765622918484905e-09 4.5754143445013611e-06 -2.1909595883512251e-10 -9.7080262004989997e-10 9.8684597053268356e-06 -3.2051362119452347e-10 -1.748824667861069e-05 9.8784937430547143e-06 -2.1091841546710765e-10 -1.2611955469501212e-09 6.250036497741275e-06 -3.5502418281637559e-10 -1.3765622918484905e-09 4.5754143445013628e-06 -2.1909595883512251e-10 -9.7080262004835934e-10 4.575409359676809e-06 -2.3768654796719348e-10 -1.3727079300808644e-05 9.8684597053268356e-06 -3.2051362119452347e-10 -1.748824667861069e-05 9.8684597053268356e-06 -3.2051362119452347e-10 -1.748824667861069e-05 1.25001938911562e-05 -3.2550076887382201e-10 -1.6298265903395767e-09 6.250036497741275e-06 -3.5502418281637559e-10 -1.3765622918493485e-09 9.8784937430547143e-06 -2.1091841546710765e-10 -1.2611955469501212e-09 9.8684597053268356e-06 -3.2051362119452347e-10 -1.748824667861069e-05 9.8784937430547143e-06 -2.1091841546710765e-10 -1.2611955469501877e-09 4.5754143445013603e-06 -2.1909595883512248e-10 -9.7080262004924174e-10 9.7681735882291354e-06 -9.7972325597762978e-11 -2.9305132211415127e-05 9.8784937430547143e-06 -2.1091841546710765e-10 -1.2611955469501212e-09 9.7681735882291337e-06 -9.7972325597762991e-11 -2.9305132211415133e-05 9.8684597053268356e-06 -3.2051362119452347e-10 -1.748824667861069e-05 1.563773862566453e-05 -2.1768092696346366e-10 -2.117383482193098e-05 9.8784937430547143e-06 -2.1091841546710765e-10 -1.2611955469501212e-09 1.5435160942438105e-05 -3.0156693321104839e-10 -1.2411598613574622e-05 1.5927363035654878e-05 -1.9350327631061737e-10 -1.1798387556620113e-09 1.5637738625664527e-05 -2.1768092696346363e-10 -2.1173834821930984e-05 9.8784937430547143e-06 -2.1091841546710765e-10 -1.2611955469501212e-09 1.5927363035654878e-05 -1.9350327631061737e-10 -1.179838755664892e-09 1.431655768500475e-05 -1.1975412969051856e-10 -1.0177399350306041e-09 1.5637738625664527e-05 -2.1768092696346368e-10 -2.1173834821930984e-05 1.5435160942438105e-05 -3.0156693321104844e-10 -1.2411598613574627e-05 1.25001938911562e-05 -3.2550076887382201e-10 -1.6298265903395767e-09 9.8784937430547177e-06 -2.1091841546710773e-10 -1.2611955469440546e-09 1.5927363035654878e-05 -1.9350327631061737e-10 -1.1798387556620113e-09 1.5435160942438105e-05 -3.0156693321104844e-10 -1.2411598613574627e-05 1.25001938911562e-05 -3.2550076887382201e-10 -1.6298265903395767e-09 9.8684597053268356e-06 -3.2051362119452347e-10 -1.748824667861069e-05 9.8784937430547143e-06 -2.1091841546710773e-10 -1.2611955469484416e-09 9.8684597053268356e-06 -3.2051362119452347e-10 -1.748824667861069e-05 1.4902825787207516e-05 -3.6920358719341164e-10 -2.9758470960824635e-05 1.5435160942438105e-05 -3.0156693321104844e-10 -1.2411598613574627e-05 1.5637738625664527e-05 -2.1768092696346366e-10 -2.117383482193098e-05 9.8784937430547143e-06 -2.1091841546710765e-10 -1.2611955469501212e-09 9.8684597053268356e-06 -3.2051362119452347e-10 -1.7488246678610683e-05 1.5435160942438102e-05 -3.0156693321104839e-10 -1.241159861357463e-05 1.5637738625664527e-05 -2.1768092696346363e-10 -2.1173834821930987e-05 9.6971428276632881e-06 -2.5738882461123314e-10 -5.0794599007517377e-05 1.5648250926865461e-05 -1.6177158778110248e-10 -4.9582261587321805e-05 1.004584467219758e-05 -2.7785665936251545e-10 -3.6318056884250003e-05 6.9028532898638532e-06 -1.6030464980554262e-10 -4.6880517069063928e-05 1.004584467219758e-05 -2.7785665936251545e-10 -3.6318056884250003e-05 9.7681735882291371e-06 -9.7972325597763003e-11 -2.930513221141513e-05 5.2933005426764145e-06 -3.0072394786104415e-10 -2.81367470567934e-05 6.9028532898638523e-06 -1.6030464980554265e-10 -4.6880517069063928e-05 1.004584467219758e-05 -2.7785665936251545e-10 -3.6318056884250003e-05 1.5648250926865464e-05 -1.6177158778110246e-10 -4.9582261587321798e-05 9.7681735882291388e-06 -9.7972325597763016e-11 -2.930513221141513e-05 6.9028532898638532e-06 -1.6030464980554265e-10 -4.6880517069063935e-05 1.004584467219758e-05 -2.7785665936251545e-10 -3.6318056884250003e-05 1.5648250926865461e-05 -1.6177158778110246e-10 -4.9582261587321805e-05 1.4902825787207517e-05 -3.6920358719341169e-10 -2.9758470960824635e-05 1.5637738625664527e-05 -2.1768092696346366e-10 -2.117383482193098e-05 1.004584467219758e-05 -2.7785665936251545e-10 -3.6318056884250003e-05 9.7681735882291388e-06 -9.7972325597763016e-11 -2.9305132211415127e-05 1.5648250926865464e-05 -1.6177158778110248e-10 -4.9582261587321805e-05 1.5637738625664524e-05 -2.176809269634636e-10 -2.1173834821930984e-05 1.004584467219758e-05 -2.7785665936251545e-10 -3.6318056884250003e-05 9.8684597053268339e-06 -3.2051362119452347e-10 -1.7488246678610687e-05 5.2933005426764145e-06 -3.0072394786104415e-10 -2.81367470567934e-05 9.7681735882291371e-06 -9.7972325597763003e-11 -2.930513221141513e-05 9.8684597053268356e-06 -3.2051362119452347e-10 -1.748824667861069e-05 9.7681735882291371e-06 -9.7972325597763003e-11 -2.930513221141513e-05 1.004584467219758e-05 -2.7785665936251545e-10 -3.6318056884250003e-05 1.5637738625664527e-05 -2.1768092696346366e-10 -2.117383482193098e-05 9.8684597053268356e-06 -3.2051362119452347e-10 -1.748824667861069e-05 1.004584467219758e-05 -2.7785665936251545e-10 -3.6318056884250003e-05 1.4902825787207517e-05 -3.6920358719341174e-10 -2.9758470960824635e-05 1.5637738625664527e-05 -2.1768092696346366e-10 -2.117383482193098e-05 9.6971428276632881e-06 -2.5738882461123314e-10 -5.0794599007517377e-05 1.5625240988077201e-05 -3.190795172380481e-10 -4.5037149767354859e-05 1.004584467219758e-05 -2.7785665936251545e-10 -3.6318056884250003e-05 1.5648250926865464e-05 -1.6177158778110254e-10 -4.9582261587321805e-05 1.004584467219758e-05 -2.7785665936251545e-10 -3.6318056884250003e-05 1.5625240988077201e-05 -3.190795172380481e-10 -4.5037149767354859e-05 1.4902825787207516e-05 -3.6920358719341164e-10 -2.9758470960824635e-05 1.5648250926865464e-05 -1.6177158778110248e-10 -4.9582261587321805e-05 5.1159300676095837e-06 -2.9971958617613238e-10 -4.5813371577604965e-05 9.6971428276632881e-06 -2.5738882461123314e-10 -5.0794599007517377e-05 1.004584467219758e-05 -2.7785665936251545e-10 -3.6318056884250003e-05 6.9028532898638532e-06 -1.6030464980554265e-10 -4.6880517069063928e-05 5.1159300676095837e-06 -2.9971958617613238e-10 -4.5813371577604965e-05 1.004584467219758e-05 -2.7785665936251545e-10 -3.6318056884250003e-05 5.2933005426764145e-06 -3.0072394786104415e-10 -2.81367470567934e-05 6.9028532898638532e-06 -1.6030464980554265e-10 -4.6880517069063928e-05 5.2933005426764145e-06 -3.0072394786104415e-10 -2.81367470567934e-05 -2.6808385870132929e-14 -2.0328798978833781e-10 -1.3727054305366027e-05 1.0829842828447494e-16 -1.9030432839940718e-10 -2.9636126855457957e-05 9.7681735882291371e-06 -9.7972325597762991e-11 -2.9305132211415123e-05 1.0829874722087353e-16 -1.9030432839940715e-10 -2.9636126855457957e-05 5.115930067609582e-06 -2.9971958617613243e-10 -4.5813371577604965e-05 5.2933005426764145e-06 -3.0072394786104415e-10 -2.81367470567934e-05 6.9028532898638557e-06 -1.6030464980554262e-10 -4.6880517069063928e-05 1.0829874722087353e-16 -1.9030432839940715e-10 -2.9636126855457957e-05 5.2933005426764137e-06 -3.0072394786104415e-10 -2.81367470567934e-05 9.7681735882291371e-06 -9.7972325597762991e-11 -2.930513221141513e-05 6.9028532898638532e-06 -1.6030464980554262e-10 -4.6880517069063928e-05 4.5758758113788891e-15 -3.6094483521025073e-10 -3.7501051455740716e-05 9.1012213313836208e-15 -4.0658736912092405e-10 -5.6250952737823196e-05 5.1159300676095837e-06 -2.9971958617613238e-10 -4.5813371577604965e-05 -5.310344797328824e-15 -2.3736034749728896e-10 -4.7782357888152759e-05 4.5758758113788891e-15 -3.6094483521025073e-10 -3.7501051455740716e-05 1.0829874722087353e-16 -1.9030432839940715e-10 -2.9636126855457957e-05 5.1159300676095837e-06 -2.9971958617613238e-10 -4.5813371577604965e-05 5.2933005426764145e-06 -3.0072394786104415e-10 -2.81367470567934e-05 5.1159300676095837e-06 -2.9971958617613238e-10 -4.5813371577604965e-05 1.0829917358889144e-16 -1.9030432839940715e-10 -2.9636126855457954e-05 4.575875823835895e-15 -3.6094483521025073e-10 -3.7501051455740716e-05 -5.310344797328824e-15 -2.3736034749728896e-10 -4.7782357888152759e-05 1.0829874722087353e-16 -1.9030432839940715e-10 -2.9636126855457957e-05 4.5758767719006368e-15 -3.6094483521025073e-10 -3.7501051455740716e-05 6.351620462578397e-15 -3.0962657735934114e-10 -1.8751129705422225e-05 5.2933005426764145e-06 -3.0072394786104415e-10 -2.81367470567934e-05 1.0829874722087353e-16 -1.9030432839940715e-10 -2.9636126855457957e-05 -5.310344797328824e-15 -2.3736034749728896e-10 -4.7782357888152759e-05 5.1159300676095837e-06 -2.9971958617613238e-10 -4.5813371577604965e-05 6.9028532898638557e-06 -1.603046498055426e-10 -4.6880517069063928e-05 1.0829874722087353e-16 -1.9030432839940715e-10 -2.9636126855457957e-05 -2.3907843794136639e-15 -1.0853292625280248e-10 -4.2950091863558312e-05 -5.3103445519048011e-15 -2.3736034749728896e-10 -4.7782357888152759e-05 6.9028532898638549e-06 -1.6030464980554262e-10 -4.6880517069063928e-05 -1.2209206659346452e-14 -8.8050013106222266e-11 -1.5872804872816731e-05 3.9902039681795679e-15 -4.7213864510871049e-11 -3.0868549809640527e-05 1.0829874722087353e-16 -1.9030432839940715e-10 -2.9636126855457957e-05 9.7681735882291371e-06 -9.7972325597763003e-11 -2.930513221141513e-05 -2.3907845498964199e-15 -1.0853292625280246e-10 -4.2950091863558312e-05 9.7681735882291354e-06 -9.7972325597763003e-11 -2.930513221141512e-05 7.7405176361575505e-06 2.1356117799336817e-11 -4.2280854066794163e-05 6.9028532898638532e-06 -1.6030464980554265e-10 -4.6880517069063928e-05 1.0829874722087353e-16 -1.9030432839940715e-10 -2.9636126855457957e-05 3.9902043150456514e-15 -4.7213864510871049e-11 -3.0868549809640527e-05 -2.3907845715755502e-15 -1.0853292625280246e-10 -4.2950091863558312e-05 9.7681735882291371e-06 -9.7972325597763003e-11 -2.930513221141513e-05 3.9902039681795679e-15 -4.7213864510871049e-11 -3.0868549809640527e-05 7.7405176361575522e-06 2.135611779933681e-11 -4.2280854066794163e-05 9.7681735882291371e-06 -9.7972325597763003e-11 -2.930513221141513e-05 6.9832307774922969e-06 1.0572571731839295e-11 -2.095048458214621e-05 -2.3907845498964199e-15 -1.0853292625280246e-10 -4.2950091863558312e-05 9.7681735882291371e-06 -9.7972325597763042e-11 -2.9305132211415127e-05 3.9902039681795679e-15 -4.7213864510871049e-11 -3.0868549809640527e-05 7.7405176361575505e-06 2.1356117799336817e-11 -4.2280854066794163e-05 -1.2209206659346452e-14 -8.8050013106222266e-11 -1.5872804872816731e-05 3.9902039681795679e-15 -4.7213864510871049e-11 -3.0868549809640527e-05 9.7681735882291354e-06 -9.7972325597763042e-11 -2.9305132211415133e-05 6.9832307774922943e-06 1.0572571731839261e-11 -2.0950484582146224e-05 1.0829874722087353e-16 -1.9030432839940715e-10 -2.9636126855457957e-05 9.7681735882291371e-06 -9.7972325597762991e-11 -2.930513221141513e-05 -2.3907846304594142e-15 -1.0853292625280244e-10 -4.2950091863558312e-05 6.902853289863854e-06 -1.6030464980554267e-10 -4.6880517069063935e-05 -2.3907845498964199e-15 -1.0853292625280246e-10 -4.2950091863558312e-05 3.9902037271895357e-15 -4.7213864510871055e-11 -3.0868549809640527e-05 -3.3399695230247315e-15 3.8449746987625295e-12 -4.871493405051282e-05 7.7405176361575505e-06 2.1356117799336817e-11 -4.2280854066794163e-05 1.5625249668590073e-05 -1.8999680186084393e-12 -4.6876053609949647e-05 1.5648250926865464e-05 -1.6177158778110248e-10 -4.9582261587321798e-05 9.7681735882291337e-06 -9.7972325597762991e-11 -2.9305132211415123e-05 1.5637863171852967e-05 -2.0604325977710211e-11 -2.3404046857677635e-05 7.7405176361575505e-06 2.1356117799336817e-11 -4.2280854066794163e-05 1.5637863171852967e-05 -2.060432597771024e-11 -2.3404046857677635e-05 9.7681735882291388e-06 -9.7972325597762978e-11 -2.9305132211415127e-05 6.9832307774922969e-06 1.0572571731839305e-11 -2.0950484582146217e-05 9.7681735882291371e-06 -9.7972325597763003e-11 -2.930513221141513e-05 1.5637863171852967e-05 -2.0604325977710208e-11 -2.3404046857677635e-05 1.5648250926865464e-05 -1.6177158778110248e-10 -4.9582261587321805e-05 1.5637738625664527e-05 -2.1768092696346366e-10 -2.1173834821930984e-05 1.5625249668590073e-05 -1.8999680186084393e-12 -4.6876053609949647e-05 7.7405176361575505e-06 2.1356117799336817e-11 -4.2280854066794163e-05 9.7681735882291388e-06 -9.7972325597762991e-11 -2.930513221141512e-05 1.5648250926865464e-05 -1.6177158778110248e-10 -4.9582261587321805e-05 9.7681735882291371e-06 -9.7972325597763003e-11 -2.930513221141513e-05 7.7405176361575505e-06 2.1356117799336817e-11 -4.2280854066794163e-05 1.5625249668590073e-05 -1.8999680186084563e-12 -4.687605360994966e-05 1.5637863171852967e-05 -2.0604325977710208e-11 -2.3404046857677638e-05 9.7681735882291371e-06 -9.7972325597763003e-11 -2.930513221141513e-05 1.5648250926865464e-05 -1.6177158778110248e-10 -4.9582261587321812e-05 7.7405176361575505e-06 2.1356117799336823e-11 -4.2280854066794163e-05 6.9028532898638532e-06 -1.6030464980554265e-10 -4.6880517069063928e-05 1.028932050042266e-05 -7.4849452362604081e-11 -1.4010525547024941e-09 9.7681735882291354e-06 -9.7972325597763042e-11 -2.930513221141513e-05 1.431655768500475e-05 -1.1975412969051856e-10 -1.0177399350307784e-09 1.5637863171852967e-05 -2.0604325977710208e-11 -2.3404046857677638e-05 1.028932050042266e-05 -7.4849452362604081e-11 -1.4010525547024941e-09 1.5637863171852967e-05 -2.0604325977710208e-11 -2.3404046857677638e-05 1.0139751617304158e-05 6.8305938608344594e-11 -1.4693967156542755e-09 6.9832307774922969e-06 1.0572571731839305e-11 -2.0950484582146217e-05 1.431655768500475e-05 -1.1975412969051856e-10 -1.0177399350306041e-09 1.5637863171852967e-05 -2.0604325977710208e-11 -2.3404046857677638e-05 9.7681735882291354e-06 -9.7972325597762952e-11 -2.930513221141513e-05 1.563773862566453e-05 -2.1768092696346368e-10 -2.1173834821930977e-05 1.431655768500475e-05 -1.1975412969051856e-10 -1.0177399350306041e-09 1.028932050042266e-05 -7.4849452362604081e-11 -1.4010525547024941e-09 9.8784937430547143e-06 -2.1091841546710765e-10 -1.2611955469501212e-09 9.7681735882291371e-06 -9.7972325597763003e-11 -2.930513221141513e-05 5.2906264647445751e-06 -1.4566684157429362e-10 -1.2146687251928445e-09 9.7681735882291354e-06 -9.7972325597763003e-11 -2.930513221141513e-05 1.028932050042266e-05 -7.4849452362604081e-11 -1.4010525547024941e-09 6.9832307774922969e-06 1.0572571731839305e-11 -2.0950484582146217e-05 9.8784937430547143e-06 -2.1091841546710765e-10 -1.2611955469501212e-09 1.431655768500475e-05 -1.1975412969051856e-10 -1.0177399350306041e-09 9.7681735882291354e-06 -9.7972325597762978e-11 -2.930513221141513e-05 1.5637738625664527e-05 -2.1768092696346371e-10 -2.1173834821930984e-05 1.028932050042266e-05 -7.4849452362604081e-11 -1.4010525547024941e-09 9.7681735882291388e-06 -9.7972325597763107e-11 -2.930513221141513e-05 1.5637863171852967e-05 -2.0604325977710208e-11 -2.3404046857677638e-05 6.9832307774922986e-06 1.0572571731839344e-11 -2.0950484582146214e-05 1.028932050042266e-05 -7.4849452362604081e-11 -1.4010525547024941e-09 5.2906264647445751e-06 -1.4566684157429364e-10 -1.2146687251924722e-09 9.8784937430547143e-06 -2.1091841546710765e-10 -1.2611955469501212e-09 9.7681735882291354e-06 -9.7972325597763003e-11 -2.9305132211415137e-05 1.0139751617304158e-05 6.8305938608344594e-11 -1.4693967156542755e-09 1.028932050042266e-05 -7.4849452362604081e-11 -1.4010525547024941e-09 1.6238269024566261e-05 2.4193858119925537e-11 -1.3010114884458338e-09 1.5637863171852967e-05 -2.0604325977710208e-11 -2.3404046857677638e-05 1.6238269024566261e-05 2.4193858119925537e-11 -1.3010114884458338e-09 1.028932050042266e-05 -7.4849452362604081e-11 -1.4010525547024941e-09 1.431655768500475e-05 -1.1975412969051856e-10 -1.0177399350306041e-09 1.5637863171852967e-05 -2.0604325977710208e-11 -2.3404046857677638e-05 -1.2209206659346452e-14 -8.8050013106222266e-11 -1.5872804872816731e-05 4.575414344501362e-06 -2.1909595883512251e-10 -9.7080262004837237e-10 5.2906264647445751e-06 -1.4566684157429362e-10 -1.2146687251926155e-09 9.7681735882291371e-06 -9.7972325597763003e-11 -2.930513221141513e-05 -1.2209206659346452e-14 -8.8050013106222266e-11 -1.5872804872816731e-05 9.7681735882291371e-06 -9.7972325597763081e-11 -2.9305132211415133e-05 5.2906264647445751e-06 -1.4566684157429362e-10 -1.2146687251919858e-09 6.983230777492296e-06 1.0572571731839297e-11 -2.0950484582146217e-05 5.383256081373506e-06 -1.015228001474835e-11 -1.3238151920154886e-09 -1.1677336399625034e-14 -4.9864570192296539e-12 -1.6150815017599304e-05 5.2906264647445751e-06 -1.4566684157429362e-10 -1.2146687251928445e-09 6.9832307774922969e-06 1.0572571731839305e-11 -2.0950484582146217e-05 5.383256081373506e-06 -1.015228001474835e-11 -1.3238151920154886e-09 5.2906264647445751e-06 -1.4566684157429362e-10 -1.2146687251928445e-09 1.028932050042266e-05 -7.4849452362604081e-11 -1.4010525547024941e-09 6.9832307774922969e-06 1.0572571731839305e-11 -2.0950484582146217e-05 -1.2209206659346452e-14 -8.8050013106222266e-11 -1.5872804872816731e-05 2.0955912147643735e-14 -2.3514216608494566e-10 -1.2115017521571691e-09 2.575051660699232e-14 -1.046105132362714e-10 -1.5463307307535548e-09 5.2906264647445751e-06 -1.4566684157429362e-10 -1.2146687251928445e-09 -1.2209206659346452e-14 -8.8050013106222266e-11 -1.5872804872816731e-05 2.575051660699232e-14 -1.046105132362714e-10 -1.5463307307535548e-09 -1.1677336719837605e-14 -4.9864570192296499e-12 -1.6150815017599304e-05 5.2906264647445751e-06 -1.4566684157429362e-10 -1.2146687251928445e-09 -1.2209206659346452e-14 -8.8050013106222266e-11 -1.5872804872816731e-05 5.2906264647445751e-06 -1.4566684157429362e-10 -1.2146687251928445e-09 -1.1677336399625034e-14 -4.9864570192296539e-12 -1.6150815017599304e-05 6.9832307774922952e-06 1.0572571731839292e-11 -2.0950484582146214e-05 -1.2209206659346452e-14 -8.8050013106222266e-11 -1.5872804872816731e-05 -1.1677336399625034e-14 -4.9864570192296539e-12 -1.6150815017599304e-05 3.9902038609148342e-15 -4.7213864510871049e-11 -3.0868549809640527e-05 6.9832307774922952e-06 1.0572571731839305e-11 -2.0950484582146221e-05 -1.1677336399625034e-14 -4.9864570192296539e-12 -1.6150815017599304e-05 2.5750516297434352e-14 -1.0461051323627139e-10 -1.5463307307521693e-09 1.2503176990056488e-14 8.4562063322444708e-11 -1.4435611895935535e-09 5.383256081373506e-06 -1.015228001474835e-11 -1.3238151920154886e-09 5.2906264647445751e-06 -1.4566684157429362e-10 -1.2146687251928445e-09 2.575051660699232e-14 -1.046105132362714e-10 -1.5463307307535548e-09 -1.1677336399625034e-14 -4.9864570192296539e-12 -1.6150815017599304e-05 5.383256081373506e-06 -1.015228001474835e-11 -1.3238151920154886e-09 -3.5723331087668176e-15 9.80198276051312e-11 -1.4904462131580374e-05 6.1772961019149111e-16 5.1657013606269584e-11 -3.0419809487483922e-05 6.9832307774922986e-06 1.0572571731839279e-11 -2.0950484582146217e-05 6.0185779585910648e-06 1.5005924998548527e-10 -1.8056483631549811e-05 4.967837781968726e-06 1.1578079055789193e-10 -1.2084222254377067e-09 -3.5723331835043075e-15 9.80198276051312e-11 -1.4904462131580372e-05 6.9832307774922969e-06 1.0572571731839302e-11 -2.0950484582146221e-05 6.0185779585910657e-06 1.5005924998548527e-10 -1.8056483631549814e-05 -3.5723331087668176e-15 9.80198276051312e-11 -1.4904462131580374e-05 5.383256081373506e-06 -1.015228001474835e-11 -1.3238151920154886e-09 1.2503177015906392e-14 8.4562063322444708e-11 -1.4435611895934759e-09 4.967837781968726e-06 1.1578079055789193e-10 -1.2084222254377067e-09 1.0139751617304158e-05 6.8305938608344594e-11 -1.4693967156542755e-09 4.967837781968726e-06 1.1578079055789193e-10 -1.2084222254377067e-09 6.9832307774922977e-06 1.0572571731839308e-11 -2.0950484582146221e-05 6.0185779585910657e-06 1.500592499854853e-10 -1.8056483631549814e-05 1.2503176990056488e-14 8.4562063322444708e-11 -1.4435611895935535e-09 -1.1677336399625034e-14 -4.9864570192296539e-12 -1.6150815017599304e-05 5.383256081373506e-06 -1.0152280014748349e-11 -1.3238151920160252e-09 -3.5723331087668176e-15 9.80198276051312e-11 -1.4904462131580374e-05 -3.5723331087668176e-15 9.80198276051312e-11 -1.4904462131580374e-05 1.2503176990056488e-14 8.4562063322444708e-11 -1.4435611895935535e-09 5.4755609349991851e-15 2.1568290010218627e-10 -1.174388449081874e-09 4.967837781968726e-06 1.1578079055789193e-10 -1.2084222254377067e-09 9.7086615158147916e-06 2.2899605928280025e-10 -1.3083145519344799e-09 4.9678377819687269e-06 1.1578079055789194e-10 -1.2084222254372871e-09 1.0139751617304158e-05 6.8305938608344594e-11 -1.4693967156546978e-09 6.0185779585910657e-06 1.500592499854853e-10 -1.8056483631549814e-05 1.0139751617304158e-05 6.8305938608344594e-11 -1.4693967156542755e-09 4.967837781968726e-06 1.1578079055789193e-10 -1.2084222254377067e-09 5.383256081373506e-06 -1.015228001474835e-11 -1.3238151920154886e-09 6.9832307774922969e-06 1.0572571731839305e-11 -2.0950484582146217e-05 4.967837781968726e-06 1.1578079055789193e-10 -1.2084222254377067e-09 -3.5723332554267316e-15 9.80198276051312e-11 -1.4904462131580372e-05 5.383256081373506e-06 -1.015228001474835e-11 -1.3238151920154886e-09 6.9832307774922969e-06 1.0572571731839305e-11 -2.0950484582146217e-05 -3.5723331087668176e-15 9.80198276051312e-11 -1.4904462131580374e-05 1.2013872886143509e-15 2.0141239028734161e-10 -2.9126494801838271e-05 6.1772961019149111e-16 5.1657013606269584e-11 -3.0419809487483922e-05 6.018577958591064e-06 1.5005924998548532e-10 -1.8056483631549814e-05 -1.1677336399625034e-14 -4.9864570192296539e-12 -1.6150815017599304e-05 -3.5723331087668176e-15 9.80198276051312e-11 -1.4904462131580374e-05 6.1772961019149111e-16 5.1657013606269584e-11 -3.0419809487483922e-05 6.9832307774922969e-06 1.0572571731839305e-11 -2.0950484582146217e-05 -1.1677336399625034e-14 -4.9864570192296539e-12 -1.6150815017599304e-05 5.3832560813735068e-06 -1.0152280014748349e-11 -1.3238151920159284e-09 -3.5723331087668176e-15 9.80198276051312e-11 -1.4904462131580374e-05 6.9832307774922969e-06 1.0572571731839305e-11 -2.0950484582146217e-05 6.1772961019149111e-16 5.1657013606269584e-11 -3.0419809487483922e-05 7.0366591941234117e-06 1.8575501687877699e-10 -4.5176572600615065e-05 1.1202877696183557e-05 1.2372067490208647e-10 -2.8154115309684539e-05 6.0185779585910657e-06 1.5005924998548527e-10 -1.8056483631549811e-05 6.1772961019149111e-16 5.1657013606269584e-11 -3.0419809487483922e-05 7.7405176361575522e-06 2.135611779933681e-11 -4.2280854066794156e-05 3.9902039681795679e-15 -4.7213864510871049e-11 -3.0868549809640527e-05 6.9832307774922994e-06 1.0572571731839313e-11 -2.0950484582146217e-05 6.1772961019149111e-16 5.1657013606269584e-11 -3.0419809487483922e-05 1.2013875700998225e-15 2.0141239028734161e-10 -2.9126494801838271e-05 7.0366591941234117e-06 1.8575501687877699e-10 -4.5176572600615071e-05 6.0185779585910648e-06 1.500592499854853e-10 -1.8056483631549811e-05 1.1202877696183557e-05 1.2372067490208647e-10 -2.8154115309684539e-05 6.9832307774922986e-06 1.0572571731839311e-11 -2.095048458214621e-05 6.177298548335399e-16 5.1657013606269616e-11 -3.0419809487483925e-05 6.0185779585910648e-06 1.500592499854853e-10 -1.8056483631549808e-05 -1.1677336399625034e-14 -4.9864570192296539e-12 -1.6150815017599304e-05 6.177296410730054e-16 5.1657013606269584e-11 -3.0419809487483918e-05 3.9902039681795679e-15 -4.7213864510871049e-11 -3.0868549809640527e-05 6.9832307774922969e-06 1.0572571731839305e-11 -2.0950484582146217e-05 6.1772961019149111e-16 5.1657013606269584e-11 -3.0419809487483922e-05 7.7405176361575505e-06 2.1356117799336833e-11 -4.228085406679417e-05 1.1202877696183557e-05 1.2372067490208647e-10 -2.8154115309684539e-05 7.0366591941234126e-06 1.8575501687877694e-10 -4.5176572600615071e-05 1.1202877696183557e-05 1.2372067490208647e-10 -2.8154115309684539e-05 7.7405176361575505e-06 2.1356117799336843e-11 -4.228085406679417e-05 6.1772866350079512e-16 5.165701360626961e-11 -3.0419809487483925e-05 6.9832307774922994e-06 1.0572571731839297e-11 -2.0950484582146217e-05 3.9902039681795679e-15 -4.7213864510871049e-11 -3.0868549809640527e-05 6.1772917246271087e-16 5.1657013606269584e-11 -3.0419809487483922e-05 -3.3399695230247315e-15 3.8449746987625295e-12 -4.871493405051282e-05 7.7405176361575505e-06 2.1356117799336817e-11 -4.2280854066794163e-05 6.9234318685940081e-16 1.2076374590083457e-10 -4.2811544436439691e-05 -3.3399695230247315e-15 3.8449746987625295e-12 -4.871493405051282e-05 6.1772961019149111e-16 5.1657013606269584e-11 -3.0419809487483922e-05 7.7405176361575505e-06 2.1356117799336817e-11 -4.2280854066794163e-05 -1.6365111670152724e-15 1.0680065026002938e-10 -5.6198686275461121e-05 7.7405176361575505e-06 2.1356117799336788e-11 -4.2280854066794163e-05 6.9234318685940081e-16 1.2076374590083457e-10 -4.2811544436439691e-05 7.0366591941234126e-06 1.8575501687877699e-10 -4.5176572600615065e-05 6.1772961019149111e-16 5.1657013606269584e-11 -3.0419809487483922e-05 1.2013875700998225e-15 2.0141239028734161e-10 -2.9126494801838271e-05 6.9234259866729025e-16 1.2076374590083457e-10 -4.2811544436439684e-05 7.0366591941234126e-06 1.8575501687877699e-10 -4.5176572600615065e-05 6.9234318685940081e-16 1.2076374590083457e-10 -4.2811544436439691e-05 7.7405176361575505e-06 2.1356117799336823e-11 -4.2280854066794163e-05 6.1772961019149111e-16 5.1657013606269584e-11 -3.0419809487483922e-05 7.0366591941234126e-06 1.8575501687877699e-10 -4.5176572600615065e-05 5.2906439811165856e-06 3.0290705686373925e-10 -2.8196265542750243e-05 1.0289730198387576e-05 3.5331138300062196e-10 -3.714110383925912e-05 7.0366591941234126e-06 1.8575501687877699e-10 -4.5176572600615065e-05 6.0185779585910657e-06 1.500592499854853e-10 -1.8056483631549814e-05 1.2013875700998225e-15 2.0141239028734161e-10 -2.9126494801838271e-05 5.2906439811165856e-06 3.0290705686373925e-10 -2.8196265542750239e-05 7.0366591941234126e-06 1.8575501687877699e-10 -4.5176572600615065e-05 6.0185779585910657e-06 1.500592499854853e-10 -1.8056483631549814e-05 5.3832614014366148e-06 3.3027566608130238e-10 -4.6722783278671305e-05 -5.6429712316623067e-15 2.3888139476256485e-10 -4.7629128928161293e-05 1.2013877128683726e-15 2.0141239028734161e-10 -2.9126494801838264e-05 7.0366591941234126e-06 1.8575501687877699e-10 -4.5176572600615058e-05 6.9234318685940081e-16 1.2076374590083457e-10 -4.2811544436439691e-05 1.2013875700998225e-15 2.0141239028734161e-10 -2.9126494801838271e-05 -5.6429695764848559e-15 2.388813947625649e-10 -4.7629128928161293e-05 7.0366591941234126e-06 1.8575501687877699e-10 -4.5176572600615065e-05 5.3832614014366148e-06 3.3027566608130238e-10 -4.6722783278671305e-05 5.0108118369500392e-15 3.8698981741515033e-10 -3.7501071106418394e-05 1.2013880399351173e-15 2.0141239028734161e-10 -2.9126494801838268e-05 -5.6429695764848574e-15 2.3888139476256485e-10 -4.7629128928161286e-05 1.2013875700998225e-15 2.0141239028734161e-10 -2.9126494801838271e-05 5.2906439811165856e-06 3.0290705686373925e-10 -2.8196265542750243e-05 5.0108118369500392e-15 3.8698981741515033e-10 -3.7501071106418394e-05 5.3832614014366157e-06 3.3027566608130233e-10 -4.6722783278671305e-05 5.3832614014366148e-06 3.3027566608130238e-10 -4.6722783278671305e-05 1.2013866720099521e-15 2.0141239028734156e-10 -2.9126494801838264e-05 5.2906439811165856e-06 3.0290705686373925e-10 -2.8196265542750243e-05 7.0366591941234109e-06 1.8575501687877699e-10 -4.5176572600615071e-05 5.3832614014366148e-06 3.3027566608130238e-10 -4.6722783278671305e-05 5.2906439811165856e-06 3.0290705686373925e-10 -2.8196265542750243e-05 1.0289730198387576e-05 3.5331138300062196e-10 -3.714110383925912e-05 7.0366591941234126e-06 1.8575501687877699e-10 -4.5176572600615065e-05 5.0108118369500392e-15 3.8698981741515033e-10 -3.7501071106418394e-05 4.3264418873158383e-15 3.03072708504599e-10 -1.8751155376113665e-05 5.2906439811165856e-06 3.0290705686373925e-10 -2.8196265542750243e-05 1.2013875700998225e-15 2.0141239028734161e-10 -2.9126494801838271e-05 5.2906439811165856e-06 3.0290705686373925e-10 -2.8196265542750243e-05 4.3264406826358533e-15 3.03072708504599e-10 -1.8751155376113662e-05 -1.9338607502952079e-14 2.0841516550298846e-10 -1.3727076655628501e-05 1.2013869827203469e-15 2.0141239028734163e-10 -2.9126494801838271e-05 4.5754149183067186e-06 2.4269187533594162e-10 -1.3727123729459318e-05 4.3264418873158383e-15 3.03072708504599e-10 -1.8751155376113665e-05 -1.9338605757847222e-14 2.0841516550298846e-10 -1.3727076655628501e-05 5.2906439811165856e-06 3.0290705686373925e-10 -2.8196265542750243e-05 6.2500530810413158e-06 3.4402828110429086e-10 -1.3290134753027322e-09 1.3277215368621055e-14 3.269078175514373e-10 -1.3300833163217192e-09 4.5753873783587125e-06 2.1740228069190811e-10 -9.6842904326812153e-10 4.5754149183067186e-06 2.4269187533594162e-10 -1.3727123729459318e-05 -1.9338605787556415e-14 2.0841516550298846e-10 -1.3727076655628499e-05 1.3277215504142742e-14 3.2690781755143736e-10 -1.3300833163206085e-09 4.3264418873158383e-15 3.03072708504599e-10 -1.8751155376113665e-05 4.5754149183067186e-06 2.4269187533594162e-10 -1.3727123729459318e-05 -1.9338605787556415e-14 2.0841516550298846e-10 -1.3727076655628499e-05 4.5753873783587125e-06 2.1740228069190811e-10 -9.6842904326812153e-10 1.3277215504142742e-14 3.2690781755143736e-10 -1.3300833163206085e-09 4.5754149183067186e-06 2.4269187533594162e-10 -1.3727123729459318e-05 4.5753873783587125e-06 2.1740228069190811e-10 -9.6842904326812153e-10 1.3277214981494231e-14 3.2690781755143736e-10 -1.3300833163220168e-09 5.4755605939806316e-15 2.1568290010218627e-10 -1.1743884490828972e-09 -1.9338605787556415e-14 2.0841516550298846e-10 -1.3727076655628499e-05 -1.9338605787556415e-14 2.0841516550298846e-10 -1.3727076655628499e-05 -3.5723331087668176e-15 9.80198276051312e-11 -1.4904462131580374e-05 4.9678377819687269e-06 1.1578079055789192e-10 -1.208422225438263e-09 6.0185779585910657e-06 1.500592499854853e-10 -1.8056483631549814e-05 5.4755605939806316e-15 2.1568290010218627e-10 -1.1743884490828972e-09 4.967837781968726e-06 1.1578079055789193e-10 -1.2084222254377067e-09 4.5753873783587125e-06 2.1740228069190811e-10 -9.6842904326812153e-10 -1.9338605787556415e-14 2.0841516550298846e-10 -1.3727076655628499e-05 4.5754149183067186e-06 2.4269187533594162e-10 -1.3727123729459318e-05 -1.9338605938778488e-14 2.0841516550298846e-10 -1.3727076655628499e-05 4.5753873783587125e-06 2.1740228069190809e-10 -9.6842904326769119e-10 6.0185779585910657e-06 1.5005924998548527e-10 -1.8056483631549811e-05 4.967837781968726e-06 1.1578079055789193e-10 -1.2084222254377067e-09 5.4755605939806316e-15 2.1568290010218627e-10 -1.1743884490828972e-09 -3.5723331087668176e-15 9.80198276051312e-11 -1.4904462131580374e-05 -1.9338605787556415e-14 2.0841516550298846e-10 -1.3727076655628499e-05 4.967837781968726e-06 1.1578079055789193e-10 -1.2084222254377067e-09 4.5753873783587125e-06 2.1740228069190811e-10 -9.6842904326701166e-10 -1.9338605787556415e-14 2.0841516550298846e-10 -1.3727076655628499e-05 6.0185779585910657e-06 1.500592499854853e-10 -1.8056483631549814e-05 5.2906439811165856e-06 3.0290705686373925e-10 -2.8196265542750243e-05 1.2013863062076631e-15 2.0141239028734161e-10 -2.9126494801838268e-05 -1.9338606374935886e-14 2.0841516550298843e-10 -1.3727076655628503e-05 6.0185779585910657e-06 1.500592499854853e-10 -1.8056483631549814e-05 -1.9338605787556415e-14 2.0841516550298846e-10 -1.3727076655628499e-05 1.2013875700998225e-15 2.0141239028734161e-10 -2.9126494801838271e-05 -3.5723331087668176e-15 9.80198276051312e-11 -1.4904462131580374e-05 6.0185779585910657e-06 1.500592499854853e-10 -1.8056483631549814e-05 4.5754149183067186e-06 2.4269187533594162e-10 -1.3727123729459318e-05 4.5753873783587142e-06 2.1740228069190811e-10 -9.6842904327317767e-10 9.7086615158147916e-06 2.2899605928280022e-10 -1.3083145519369311e-09 6.0185779585910657e-06 1.5005924998548527e-10 -1.8056483631549814e-05 4.967837781968726e-06 1.1578079055789193e-10 -1.2084222254377067e-09 9.7086615158147916e-06 2.2899605928280025e-10 -1.3083145519344799e-09 4.5753873783587125e-06 2.1740228069190811e-10 -9.6842904326812153e-10 6.0185779585910657e-06 1.500592499854853e-10 -1.8056483631549814e-05 4.5753873783587125e-06 2.1740228069190811e-10 -9.6842904326812153e-10 9.7086615158147916e-06 2.2899605928280025e-10 -1.3083145519344799e-09 6.2500530810413158e-06 3.4402828110429086e-10 -1.3290134753027322e-09 4.5754149183067186e-06 2.4269187533594162e-10 -1.3727123729459318e-05 9.886388369845601e-06 3.1774417937996603e-10 -1.7644050621610635e-05 6.2500530810413166e-06 3.4402828110429097e-10 -1.3290134753015839e-09 9.7086615158147916e-06 2.2899605928280025e-10 -1.3083145519344799e-09 4.5754149183067186e-06 2.4269187533594162e-10 -1.3727123729459318e-05 9.7086615158147916e-06 2.2899605928280025e-10 -1.3083145519344799e-09 9.886388369845601e-06 3.1774417937996603e-10 -1.7644050621610635e-05 4.5754149183067169e-06 2.4269187533594162e-10 -1.3727123729459315e-05 6.0185779585910665e-06 1.5005924998548527e-10 -1.8056483631549814e-05 9.886388369845601e-06 3.1774417937996603e-10 -1.7644050621610635e-05 5.2906439811165856e-06 3.0290705686373925e-10 -2.8196265542750243e-05 4.5754149183067186e-06 2.4269187533594162e-10 -1.3727123729459318e-05 6.0185779585910657e-06 1.500592499854853e-10 -1.8056483631549814e-05 4.5754149183067186e-06 2.4269187533594162e-10 -1.3727123729459318e-05 5.2906439811165856e-06 3.0290705686373925e-10 -2.8196265542750243e-05 -1.9338605787556415e-14 2.0841516550298846e-10 -1.3727076655628499e-05 6.0185779585910657e-06 1.500592499854853e-10 -1.8056483631549814e-05 1.1202877696183557e-05 1.2372067490208647e-10 -2.8154115309684539e-05 6.0185779585910657e-06 1.500592499854853e-10 -1.8056483631549811e-05 9.886388369845601e-06 3.1774417937996603e-10 -1.7644050621610635e-05 1.6529808199604138e-05 2.1277612088878421e-10 -1.9527336660296955e-05 9.7086615158147916e-06 2.2899605928280025e-10 -1.3083145519344799e-09 6.0185779585910657e-06 1.500592499854853e-10 -1.8056483631549814e-05 1.1202877696183558e-05 1.2372067490208645e-10 -2.8154115309684539e-05 1.6529808199604138e-05 2.1277612088878419e-10 -1.9527336660296959e-05 9.7086615158147916e-06 2.2899605928280025e-10 -1.3083145519344799e-09 9.886388369845601e-06 3.1774417937996608e-10 -1.7644050621610632e-05 6.0185779585910657e-06 1.5005924998548527e-10 -1.8056483631549814e-05 1.6529808199604138e-05 2.1277612088878419e-10 -1.9527336660296955e-05 9.7086615158147916e-06 2.2899605928280025e-10 -1.3083145519344799e-09 1.250021139688683e-05 4.0625788752908693e-10 -1.5504548566101391e-09 6.2500530810413158e-06 3.4402828110429086e-10 -1.3290134753027322e-09 9.886388369845601e-06 3.1774417937996603e-10 -1.7644050621610635e-05 9.7086615158147916e-06 2.2899605928280025e-10 -1.3083145519344799e-09 1.5876301141272982e-05 2.5295242827403141e-10 -1.2694673652362836e-09 9.886388369845601e-06 3.1774417937996603e-10 -1.7644050621610635e-05 1.6529808199604138e-05 2.1277612088878419e-10 -1.9527336660296962e-05 1.4270400620955825e-05 1.2215698275150749e-10 -9.9612433756921786e-10 1.5876301141272982e-05 2.5295242827403147e-10 -1.2694673652334594e-09 9.7086615158147916e-06 2.2899605928280025e-10 -1.3083145519340895e-09 1.6529808199604138e-05 2.1277612088878421e-10 -1.9527336660296952e-05 1.5979462512551923e-05 2.9922471247789611e-10 -1.5348794092345136e-05 9.886388369845601e-06 3.1774417937996603e-10 -1.7644050621610635e-05 1.250021139688683e-05 4.0625788752908693e-10 -1.5504548566071331e-09 1.5876301141272982e-05 2.5295242827403147e-10 -1.2694673652334594e-09 9.886388369845601e-06 3.1774417937996603e-10 -1.7644050621610635e-05 9.7086615158147916e-06 2.289960592828002e-10 -1.3083145519384957e-09 1.250021139688683e-05 4.0625788752908693e-10 -1.5504548566101391e-09 1.5876301141272982e-05 2.5295242827403147e-10 -1.2694673652334594e-09 1.5979462512551923e-05 2.9922471247789611e-10 -1.5348794092345136e-05 1.4319031346072359e-05 2.4237022583645355e-10 -2.9092080825189812e-05 9.886388369845601e-06 3.1774417937996603e-10 -1.7644050621610635e-05 1.6529808199604138e-05 2.1277612088878421e-10 -1.9527336660296955e-05 1.5979462512551923e-05 2.9922471247789611e-10 -1.5348794092345136e-05 9.886388369845601e-06 3.1774417937996603e-10 -1.7644050621610635e-05 1.5876301141272985e-05 2.5295242827403141e-10 -1.2694673652341046e-09 1.6529808199604138e-05 2.1277612088878424e-10 -1.9527336660296955e-05 1.0289730198387576e-05 3.5331138300062196e-10 -3.714110383925912e-05 1.1202877696183557e-05 1.2372067490208645e-10 -2.8154115309684539e-05 1.5620248336732041e-05 1.5892853214294844e-10 -4.9657921703921854e-05 7.0366591941234126e-06 1.8575501687877699e-10 -4.5176572600615065e-05 1.1202877696183557e-05 1.2372067490208647e-10 -2.8154115309684539e-05 7.0366591941234126e-06 1.8575501687877699e-10 -4.5176572600615065e-05 1.0289730198387576e-05 3.5331138300062196e-10 -3.714110383925912e-05 6.0185779585910648e-06 1.500592499854853e-10 -1.8056483631549811e-05 9.886388369845601e-06 3.1774417937996603e-10 -1.7644050621610635e-05 1.4319031346072357e-05 2.4237022583645349e-10 -2.9092080825189812e-05 1.0289730198387576e-05 3.5331138300062196e-10 -3.714110383925912e-05 1.1202877696183555e-05 1.2372067490208639e-10 -2.8154115309684539e-05 1.4319031346072357e-05 2.4237022583645349e-10 -2.9092080825189812e-05 1.1202877696183553e-05 1.2372067490208647e-10 -2.8154115309684539e-05 9.886388369845601e-06 3.1774417937996603e-10 -1.7644050621610635e-05 1.6529808199604138e-05 2.1277612088878421e-10 -1.9527336660296955e-05 9.886388369845601e-06 3.1774417937996603e-10 -1.7644050621610635e-05 1.120287769618356e-05 1.2372067490208645e-10 -2.8154115309684539e-05 1.0289730198387577e-05 3.5331138300062201e-10 -3.714110383925912e-05 6.0185779585910657e-06 1.500592499854853e-10 -1.8056483631549814e-05 1.4319031346072357e-05 2.4237022583645349e-10 -2.9092080825189812e-05 1.5620248336732034e-05 1.5892853214294836e-10 -4.9657921703921847e-05 1.1202877696183557e-05 1.2372067490208645e-10 -2.8154115309684546e-05 1.6529808199604138e-05 2.1277612088878421e-10 -1.9527336660296955e-05 1.4319031346072357e-05 2.4237022583645349e-10 -2.9092080825189812e-05 1.0289730198387576e-05 3.5331138300062196e-10 -3.714110383925912e-05 1.1202877696183557e-05 1.2372067490208642e-10 -2.8154115309684539e-05 1.5620248336732034e-05 1.5892853214294836e-10 -4.965792170392184e-05 9.886388369845601e-06 3.1774417937996603e-10 -1.7644050621610635e-05 1.0289730198387576e-05 3.5331138300062196e-10 -3.714110383925912e-05 5.2906439811165856e-06 3.0290705686373925e-10 -2.8196265542750243e-05 6.0185779585910657e-06 1.500592499854853e-10 -1.8056483631549814e-05 1.0289730198387576e-05 3.5331138300062196e-10 -3.714110383925912e-05 1.0140216128046474e-05 3.6839812175565325e-10 -5.6269905578780942e-05 5.3832614014366148e-06 3.3027566608130238e-10 -4.6722783278671305e-05 7.0366591941234126e-06 1.8575501687877699e-10 -4.5176572600615065e-05 1.4319031346072357e-05 2.4237022583645349e-10 -2.9092080825189812e-05 1.6238228634169173e-05 3.1636475770967729e-10 -4.6876091640028814e-05 1.0289730198387576e-05 3.5331138300062196e-10 -3.714110383925912e-05 1.5620248336732037e-05 1.5892853214294838e-10 -4.9657921703921847e-05 7.7405176361575505e-06 2.1356117799336817e-11 -4.2280854066794163e-05 1.5620248336732034e-05 1.5892853214294836e-10 -4.9657921703921847e-05 1.1202877696183557e-05 1.2372067490208647e-10 -2.8154115309684539e-05 7.0366591941234134e-06 1.8575501687877696e-10 -4.5176572600615065e-05 1.1202877696183557e-05 1.2372067490208647e-10 -2.8154115309684539e-05 1.5625249668590073e-05 -1.8999680186084139e-12 -4.6876053609949653e-05 7.7405176361575505e-06 2.1356117799336817e-11 -4.2280854066794163e-05 1.5637863171852963e-05 -2.0604325977710237e-11 -2.3404046857677631e-05 1.1202877696183557e-05 1.2372067490208647e-10 -2.8154115309684539e-05 7.7405176361575505e-06 2.1356117799336817e-11 -4.2280854066794163e-05 1.5625249668590073e-05 -1.8999680186084506e-12 -4.6876053609949647e-05 1.5620248336732037e-05 1.5892853214294841e-10 -4.9657921703921854e-05 1.1202877696183557e-05 1.2372067490208647e-10 -2.8154115309684539e-05 1.5637863171852967e-05 -2.0604325977710208e-11 -2.3404046857677638e-05 7.7405176361575488e-06 2.1356117799336804e-11 -4.2280854066794156e-05 6.9832307774922969e-06 1.0572571731839305e-11 -2.0950484582146217e-05 1.1202877696183557e-05 1.2372067490208647e-10 -2.8154115309684539e-05 1.0139751617304158e-05 6.8305938608344594e-11 -1.4693967156542755e-09 1.5637863171852967e-05 -2.0604325977710208e-11 -2.3404046857677638e-05 6.9832307774922969e-06 1.0572571731839305e-11 -2.0950484582146217e-05 9.7086615158147916e-06 2.2899605928280025e-10 -1.3083145519344799e-09 1.0139751617304158e-05 6.8305938608344594e-11 -1.4693967156542755e-09 1.4270400620955825e-05 1.2215698275150749e-10 -9.9612433756921786e-10 1.1202877696183557e-05 1.2372067490208647e-10 -2.8154115309684546e-05 1.0139751617304158e-05 6.8305938608344594e-11 -1.4693967156542755e-09 6.9832307774922986e-06 1.0572571731839321e-11 -2.0950484582146221e-05 1.1202877696183557e-05 1.2372067490208647e-10 -2.8154115309684539e-05 6.0185779585910657e-06 1.500592499854853e-10 -1.8056483631549814e-05 1.0139751617304158e-05 6.8305938608344594e-11 -1.4693967156542755e-09 1.4270400620955825e-05 1.2215698275150749e-10 -9.9612433756964737e-10 1.1202877696183557e-05 1.2372067490208647e-10 -2.8154115309684535e-05 1.5637863171852967e-05 -2.0604325977710208e-11 -2.3404046857677638e-05 9.7086615158147916e-06 2.2899605928280025e-10 -1.3083145519344799e-09 1.0139751617304158e-05 6.8305938608344594e-11 -1.4693967156542755e-09 1.1202877696183557e-05 1.2372067490208647e-10 -2.8154115309684539e-05 6.0185779585910657e-06 1.500592499854853e-10 -1.8056483631549814e-05 1.4270400620955825e-05 1.2215698275150749e-10 -9.9612433756921786e-10 9.7086615158147916e-06 2.2899605928280025e-10 -1.3083145519345257e-09 1.1202877696183557e-05 1.2372067490208647e-10 -2.8154115309684539e-05 1.6529808199604138e-05 2.1277612088878419e-10 -1.9527336660296955e-05 1.1202877696183557e-05 1.2372067490208647e-10 -2.8154115309684539e-05 1.5637863171852967e-05 -2.0604325977710208e-11 -2.3404046857677638e-05 1.4270400620955825e-05 1.2215698275150749e-10 -9.9612433756921786e-10 1.6529808199604138e-05 2.1277612088878421e-10 -1.9527336660296955e-05 5.383256081373506e-06 -1.015228001474835e-11 -1.3238151920154886e-09 1.028932050042266e-05 -7.4849452362604081e-11 -1.4010525547024941e-09 1.0139751617304158e-05 6.8305938608344594e-11 -1.4693967156542755e-09 6.9832307774922969e-06 1.0572571731839305e-11 -2.0950484582146217e-05 1.0139751617304158e-05 6.8305938608344594e-11 -1.4693967156542755e-09 1.6238269024566261e-05 2.4193858119925537e-11 -1.3010114884458338e-09 1.4270400620955825e-05 1.2215698275150749e-10 -9.9612433756921786e-10 1.5637863171852967e-05 -2.0604325977710208e-11 -2.3404046857677638e-05 2.2726082388179899e-05 8.4779866612741022e-11 -8.3438634092934722e-10 2.1392929229367187e-05 1.2404452120583863e-10 -2.9153652148326047e-05 1.8732836732598521e-05 1.1052979980495351e-10 -9.9363901759362559e-10 2.4285709382444203e-05 -3.1081213171899292e-11 -2.0414831181569438e-05 2.1392929229367187e-05 1.2404452120583871e-10 -2.9153652148326047e-05 1.5637863171852967e-05 -2.0604325977710224e-11 -2.3404046857677642e-05 1.8732836732598521e-05 1.1052979980495349e-10 -9.936390175928743e-10 2.42857093824442e-05 -3.1081213171899363e-11 -2.0414831181569435e-05 1.8732836732598521e-05 1.1052979980495351e-10 -9.9363901759362559e-10 1.4270400620955825e-05 1.2215698275150749e-10 -9.9612433756994743e-10 1.5637863171852967e-05 -2.0604325977710205e-11 -2.3404046857677642e-05 1.6529808199604138e-05 2.1277612088878424e-10 -1.9527336660296959e-05 1.6238269024566261e-05 2.4193858119925537e-11 -1.3010114884458338e-09 2.1037917771579368e-05 -6.9463084323950706e-12 -1.0244452386388741e-09 1.8732836732598521e-05 1.1052979980495351e-10 -9.9363901759362559e-10 1.5637863171852967e-05 -2.0604325977710208e-11 -2.3404046857677638e-05 1.8732836732598521e-05 1.1052979980495351e-10 -9.9363901759362559e-10 1.5637863171852963e-05 -2.0604325977710211e-11 -2.3404046857677642e-05 2.1392929229367187e-05 1.2404452120583868e-10 -2.9153652148326051e-05 1.6529808199604131e-05 2.1277612088878421e-10 -1.9527336660296959e-05 1.8732836732598521e-05 1.1052979980495351e-10 -9.9363901759362559e-10 1.5637863171852967e-05 -2.0604325977710211e-11 -2.3404046857677638e-05 2.1037917771579368e-05 -6.9463084323950706e-12 -1.0244452386388741e-09 2.42857093824442e-05 -3.1081213171899376e-11 -2.0414831181569432e-05 1.8732836732598521e-05 1.1052979980495351e-10 -9.9363901759362559e-10 1.6529808199604138e-05 2.1277612088878434e-10 -1.9527336660296952e-05 2.1392929229367184e-05 1.2404452120583866e-10 -2.9153652148326047e-05 2.549470832688147e-05 1.9450882622989592e-10 -1.7328988326997147e-05 1.8732836732598521e-05 1.1052979980495351e-10 -9.9363901759362559e-10 1.4270400620955825e-05 1.2215698275150749e-10 -9.9612433756986947e-10 1.6238269024566261e-05 2.4193858119925537e-11 -1.3010114884458338e-09 1.5637863171852967e-05 -2.0604325977710208e-11 -2.3404046857677638e-05 1.8732836732598521e-05 1.1052979980495351e-10 -9.9363901759362559e-10 2.1392929229367187e-05 1.2404452120583871e-10 -2.9153652148326047e-05 2.2726082388179899e-05 8.4779866612741022e-11 -8.3438634092934722e-10 2.549470832688147e-05 1.9450882622989587e-10 -1.7328988326997147e-05 1.4270400620955825e-05 1.2215698275150749e-10 -9.9612433756921786e-10 1.8732836732598521e-05 1.1052979980495351e-10 -9.9363901759348207e-10 1.5876301141272982e-05 2.5295242827403147e-10 -1.2694673652350211e-09 1.6529808199604138e-05 2.1277612088878421e-10 -1.9527336660296952e-05 1.8732836732598521e-05 1.1052979980495351e-10 -9.9363901759362559e-10 2.2726082388179899e-05 8.4779866612741035e-11 -8.3438634092887159e-10 2.2044780016886111e-05 1.6126849569613669e-10 -1.2740113790816109e-09 2.549470832688147e-05 1.9450882622989587e-10 -1.7328988326997147e-05 2.2726082388179899e-05 8.4779866612741022e-11 -8.3438634092934722e-10 1.8732836732598521e-05 1.1052979980495351e-10 -9.9363901759360056e-10 2.1037917771579368e-05 -6.946308432395069e-12 -1.0244452386381272e-09 2.42857093824442e-05 -3.1081213171899369e-11 -2.0414831181569435e-05 2.1392929229367187e-05 1.2404452120583871e-10 -2.9153652148326047e-05 1.563786317185297e-05 -2.0604325977710201e-11 -2.3404046857677631e-05 1.1202877696183557e-05 1.2372067490208647e-10 -2.8154115309684539e-05 1.6529808199604135e-05 2.1277612088878416e-10 -1.9527336660296955e-05 2.1392929229367187e-05 1.2404452120583871e-10 -2.9153652148326047e-05 1.1202877696183553e-05 1.2372067490208645e-10 -2.8154115309684535e-05 1.5625249668590073e-05 -1.8999680186084393e-12 -4.6876053609949647e-05 1.5620248336732037e-05 1.5892853214294838e-10 -4.9657921703921847e-05 1.5625249668590073e-05 -1.8999680186084393e-12 -4.6876053609949647e-05 1.1202877696183557e-05 1.2372067490208647e-10 -2.8154115309684546e-05 2.1392929229367187e-05 1.2404452120583871e-10 -2.9153652148326047e-05 1.563786317185297e-05 -2.0604325977710253e-11 -2.3404046857677642e-05 1.5625249668590073e-05 -1.8999680186084393e-12 -4.6876053609949647e-05 2.1392929229367187e-05 1.2404452120583871e-10 -2.9153652148326047e-05 2.3451851269578777e-05 1.7115797635870108e-11 -4.6722951340684626e-05 1.563786317185297e-05 -2.0604325977710253e-11 -2.3404046857677642e-05 2.1392929229367187e-05 1.2404452120583871e-10 -2.9153652148326047e-05 1.5620248336732037e-05 1.5892853214294838e-10 -4.9657921703921847e-05 2.3451851269578777e-05 1.7115797635870108e-11 -4.6722951340684626e-05 2.4179893218211431e-05 2.0373381566972127e-10 -4.6715871005660903e-05 2.3451851269578777e-05 1.7115797635870108e-11 -4.6722951340684626e-05 1.5637863171852967e-05 -2.0604325977710227e-11 -2.3404046857677648e-05 2.1392929229367187e-05 1.2404452120583871e-10 -2.9153652148326044e-05 2.4285709382444203e-05 -3.1081213171899369e-11 -2.0414831181569435e-05 1.1202877696183557e-05 1.2372067490208647e-10 -2.8154115309684539e-05 1.5620248336732037e-05 1.5892853214294838e-10 -4.9657921703921847e-05 2.1392929229367187e-05 1.2404452120583871e-10 -2.9153652148326047e-05 1.6529808199604138e-05 2.1277612088878421e-10 -1.9527336660296955e-05 1.5625249668590073e-05 -1.8999680186084393e-12 -4.6876053609949647e-05 2.3451851269578777e-05 1.7115797635870101e-11 -4.6722951340684633e-05 2.1392929229367187e-05 1.2404452120583871e-10 -2.9153652148326047e-05 1.5620248336732037e-05 1.5892853214294838e-10 -4.9657921703921847e-05 2.1392929229367187e-05 1.2404452120583871e-10 -2.9153652148326047e-05 1.6529808199604138e-05 2.1277612088878421e-10 -1.9527336660296955e-05 1.9084201496551902e-05 3.3583962022605276e-10 -3.1058447451679116e-05 2.549470832688147e-05 1.9450882622989587e-10 -1.7328988326997147e-05 1.9084201496551902e-05 3.3583962022605276e-10 -3.1058447451679116e-05 1.5620248336732037e-05 1.5892853214294838e-10 -4.9657921703921847e-05 2.1392929229367187e-05 1.2404452120583871e-10 -2.9153652148326047e-05 2.4179893218211431e-05 2.0373381566972127e-10 -4.6715871005660903e-05 1.9084201496551902e-05 3.3583962022605276e-10 -3.1058447451679116e-05 2.1325389936570765e-05 3.7193463259484643e-10 -4.9041789962514287e-05 1.5620248336732041e-05 1.5892853214294841e-10 -4.9657921703921847e-05 2.4179893218211431e-05 2.0373381566972127e-10 -4.6715871005660903e-05 2.5860159419513919e-05 3.7039415365646869e-10 -2.9445910002694509e-05 2.1392929229367184e-05 1.2404452120583866e-10 -2.9153652148326047e-05 1.9084201496551902e-05 3.3583962022605276e-10 -3.1058447451679116e-05 2.549470832688147e-05 1.9450882622989589e-10 -1.7328988326997161e-05 1.4319031346072357e-05 2.4237022583645349e-10 -2.9092080825189812e-05 1.9084201496551902e-05 3.3583962022605276e-10 -3.1058447451679116e-05 1.5620248336732037e-05 1.5892853214294838e-10 -4.9657921703921847e-05 1.6529808199604138e-05 2.1277612088878421e-10 -1.9527336660296955e-05 1.9084201496551902e-05 3.3583962022605276e-10 -3.1058447451679116e-05 2.139292922936719e-05 1.2404452120583868e-10 -2.9153652148326051e-05 2.5860159419513919e-05 3.7039415365646869e-10 -2.9445910002694509e-05 2.4179893218211431e-05 2.0373381566972127e-10 -4.6715871005660903e-05 2.1392929229367187e-05 1.2404452120583871e-10 -2.9153652148326047e-05 1.5620248336732037e-05 1.5892853214294841e-10 -4.9657921703921847e-05 1.9084201496551902e-05 3.3583962022605276e-10 -3.1058447451679116e-05 1.6529808199604138e-05 2.1277612088878421e-10 -1.9527336660296959e-05 1.9084201496551902e-05 3.3583962022605276e-10 -3.1058447451679116e-05 2.1325389936570765e-05 3.7193463259484643e-10 -4.9041789962514294e-05 1.6238228634169173e-05 3.1636475770967729e-10 -4.6876091640028807e-05 1.5620248336732037e-05 1.5892853214294838e-10 -4.9657921703921847e-05 1.6238228634169173e-05 3.1636475770967729e-10 -4.6876091640028814e-05 1.4319031346072357e-05 2.4237022583645349e-10 -2.9092080825189812e-05 1.9084201496551902e-05 3.3583962022605276e-10 -3.1058447451679116e-05 1.5620248336732037e-05 1.5892853214294836e-10 -4.9657921703921854e-05 2.1325389936570765e-05 3.7193463259484643e-10 -4.9041789962514294e-05 1.9084201496551898e-05 3.3583962022605271e-10 -3.1058447451679116e-05 2.5860159419513919e-05 3.7039415365646869e-10 -2.9445910002694509e-05 2.4179893218211431e-05 2.0373381566972127e-10 -4.6715871005660903e-05 1.5979462512551923e-05 2.9922471247789611e-10 -1.5348794092345136e-05 1.9084201496551902e-05 3.3583962022605276e-10 -3.1058447451679116e-05 1.4319031346072357e-05 2.4237022583645349e-10 -2.9092080825189812e-05 1.6529808199604138e-05 2.1277612088878424e-10 -1.9527336660296955e-05 1.5979462512551923e-05 2.9922471247789611e-10 -1.5348794092345136e-05 2.1871719710379063e-05 3.0346990577916679e-10 -1.5880908892067759e-05 1.9084201496551902e-05 3.3583962022605276e-10 -3.1058447451679116e-05 1.6529808199604138e-05 2.1277612088878424e-10 -1.9527336660296955e-05 2.1871719710379063e-05 3.0346990577916679e-10 -1.5880908892067759e-05 1.9084201496551902e-05 3.3583962022605276e-10 -3.1058447451679116e-05 1.6529808199604138e-05 2.1277612088878421e-10 -1.9527336660296959e-05 2.5494708326881466e-05 1.9450882622989587e-10 -1.7328988326997144e-05 2.1871719710379063e-05 3.0346990577916679e-10 -1.5880908892067759e-05 1.6529808199604141e-05 2.1277612088878424e-10 -1.9527336660296955e-05 2.2044780016886111e-05 1.6126849569613669e-10 -1.2740113790817586e-09 2.549470832688147e-05 1.9450882622989587e-10 -1.7328988326997137e-05 2.1871719710379063e-05 3.0346990577916679e-10 -1.5880908892067759e-05 1.5979462512551923e-05 2.9922471247789611e-10 -1.5348794092345136e-05 1.5876301141272982e-05 2.5295242827403152e-10 -1.2694673652265345e-09 1.6529808199604138e-05 2.1277612088878424e-10 -1.9527336660296948e-05 1.8732836732598521e-05 1.1052979980495351e-10 -9.9363901759362559e-10 2.2044780016886111e-05 1.6126849569613669e-10 -1.2740113790816109e-09 1.6529808199604138e-05 2.1277612088878424e-10 -1.9527336660296959e-05 2.549470832688147e-05 1.9450882622989587e-10 -1.7328988326997151e-05 1.8750284741693791e-05 3.6020152129132076e-10 -1.6139308703048923e-09 2.1871719710379063e-05 3.0346990577916679e-10 -1.5880908892067759e-05 1.5979462512551923e-05 2.9922471247789611e-10 -1.5348794092345136e-05 1.5876301141272982e-05 2.5295242827403147e-10 -1.2694673652334594e-09 1.5979462512551923e-05 2.9922471247789611e-10 -1.5348794092345136e-05 1.250021139688683e-05 4.0625788752908693e-10 -1.5504548566115922e-09 1.8750284741693791e-05 3.6020152129132076e-10 -1.6139308703048923e-09 1.5876301141272982e-05 2.5295242827403147e-10 -1.2694673652334594e-09 1.5876301141272982e-05 2.5295242827403147e-10 -1.2694673652334594e-09 1.8732836732598521e-05 1.1052979980495349e-10 -9.9363901759365102e-10 2.2044780016886111e-05 1.6126849569613669e-10 -1.2740113790816109e-09 1.6529808199604138e-05 2.1277612088878421e-10 -1.9527336660296955e-05 2.1871719710379063e-05 3.0346990577916679e-10 -1.5880908892067759e-05 1.5876301141272982e-05 2.5295242827403152e-10 -1.2694673652268083e-09 2.2044780016886111e-05 1.6126849569613671e-10 -1.2740113790790911e-09 1.6529808199604138e-05 2.1277612088878427e-10 -1.9527336660296948e-05 1.8750284741693791e-05 3.6020152129132076e-10 -1.6139308703048923e-09 2.5000369332919304e-05 3.0968176346146326e-10 -1.3249247391021282e-09 2.1871719710379063e-05 3.0346990577916679e-10 -1.5880908892067759e-05 2.2044780016886111e-05 1.6126849569613669e-10 -1.2740113790816109e-09 1.5876301141272982e-05 2.5295242827403147e-10 -1.2694673652334594e-09 1.8750284741693791e-05 3.6020152129132076e-10 -1.6139308703048923e-09 2.1871719710379063e-05 3.0346990577916679e-10 -1.5880908892067769e-05 2.2044780016886111e-05 1.6126849569613669e-10 -1.2740113790816109e-09 2.1871719710379063e-05 3.0346990577916679e-10 -1.5880908892067759e-05 2.5860159419513919e-05 3.7039415365646869e-10 -2.9445910002694509e-05 1.9084201496551902e-05 3.3583962022605276e-10 -3.1058447451679116e-05 2.549470832688147e-05 1.9450882622989592e-10 -1.7328988326997147e-05 2.5860159419513919e-05 3.7039415365646869e-10 -2.9445910002694509e-05 2.1871719710379063e-05 3.0346990577916679e-10 -1.5880908892067759e-05 2.6675006330211865e-05 2.2788500269782481e-10 -1.3727124456291192e-05 2.5494708326881466e-05 1.9450882622989587e-10 -1.7328988326997144e-05 2.1871719710379063e-05 3.0346990577916679e-10 -1.5880908892067759e-05 2.6674968213263723e-05 2.2905429864227285e-10 -9.0106753774668585e-10 2.6675006330211865e-05 2.2788500269782481e-10 -1.3727124456291194e-05 2.549470832688147e-05 1.9450882622989589e-10 -1.7328988326997137e-05 2.6675006330211865e-05 2.2788500269782481e-10 -1.3727124456291194e-05 3.1250354242388014e-05 2.0685632493559733e-10 -1.3727117933216013e-05 2.5860159419513919e-05 3.7039415365646869e-10 -2.9445910002694509e-05 2.549470832688147e-05 1.9450882622989584e-10 -1.7328988326997147e-05 2.6674968213263723e-05 2.2905429864227285e-10 -9.0106753774286386e-10 2.6675006330211865e-05 2.2788500269782481e-10 -1.3727124456291194e-05 2.5000369332919304e-05 3.0968176346146326e-10 -1.3249247391021282e-09 2.1871719710379063e-05 3.0346990577916679e-10 -1.5880908892067759e-05 2.1871719710379063e-05 3.0346990577916679e-10 -1.5880908892067759e-05 2.5000369332919307e-05 3.0968176346146326e-10 -1.3249247391020384e-09 2.6674968213263723e-05 2.2905429864227285e-10 -9.0106753774286386e-10 2.2044780016886111e-05 1.6126849569613669e-10 -1.2740113790816109e-09 2.6674968213263723e-05 2.2905429864227285e-10 -9.0106753774286386e-10 2.2044780016886111e-05 1.6126849569613669e-10 -1.2740113790817993e-09 2.6617045305499762e-05 1.3630285379330984e-10 -1.0157322967403847e-09 2.549470832688147e-05 1.9450882622989587e-10 -1.7328988326997144e-05 2.1871719710379063e-05 3.0346990577916679e-10 -1.5880908892067759e-05 2.2044780016886115e-05 1.6126849569613671e-10 -1.2740113790872486e-09 2.6674968213263723e-05 2.2905429864227285e-10 -9.0106753774494184e-10 2.549470832688147e-05 1.9450882622989589e-10 -1.7328988326997141e-05 3.1250354242388014e-05 2.0685632493559736e-10 -1.3727117933216015e-05 3.1250306315974424e-05 1.0781132048667279e-10 -1.4904418236581901e-05 3.1250303349210132e-05 2.0936141437523507e-10 -2.9126548588397733e-05 2.549470832688147e-05 1.9450882622989587e-10 -1.7328988326997147e-05 2.5860159419513919e-05 3.7039415365646869e-10 -2.9445910002694509e-05 3.1250354242388014e-05 2.0685632493559736e-10 -1.3727117933216015e-05 3.1250303349210132e-05 2.0936141437523507e-10 -2.9126548588397733e-05 2.5494708326881473e-05 1.9450882622989592e-10 -1.7328988326997151e-05 3.1250354242388014e-05 2.0685632493559736e-10 -1.3727117933216015e-05 2.6674968213263723e-05 2.2905429864227285e-10 -9.0106753774286386e-10 3.1250263322425253e-05 1.768600842056128e-10 -1.1794446171960526e-09 2.549470832688147e-05 1.9450882622989587e-10 -1.7328988326997147e-05 3.1250263322425253e-05 1.768600842056128e-10 -1.1794446171960526e-09 2.5494708326881473e-05 1.9450882622989587e-10 -1.7328988326997147e-05 3.1250306315974424e-05 1.0781132048667279e-10 -1.4904418236581901e-05 3.1250354242388014e-05 2.0685632493559736e-10 -1.3727117933216015e-05 2.6674968213263723e-05 2.2905429864227285e-10 -9.0106753774286386e-10 3.1250354242388014e-05 2.0685632493559736e-10 -1.3727117933216016e-05 2.6675006330211865e-05 2.2788500269782481e-10 -1.3727124456291194e-05 2.549470832688147e-05 1.9450882622989587e-10 -1.7328988326997144e-05 2.6674968213263723e-05 2.2905429864227285e-10 -9.0106753774286386e-10 2.6617045305499765e-05 1.3630285379330986e-10 -1.0157322967395047e-09 3.1250263322425253e-05 1.768600842056128e-10 -1.1794446171956126e-09 2.549470832688147e-05 1.9450882622989587e-10 -1.7328988326997144e-05 3.1250354242388014e-05 2.0685632493559736e-10 -1.3727117933216015e-05 2.6675006330211865e-05 2.2788500269782484e-10 -1.3727124456291196e-05 3.1250212899634277e-05 3.3931435076319574e-10 -1.3635078275042532e-09 2.6674968213263723e-05 2.2905429864227285e-10 -9.0106753774286386e-10 3.1250307766125269e-05 3.1732667039875713e-10 -1.875119952516526e-05 2.6675006330211865e-05 2.2788500269782481e-10 -1.3727124456291196e-05 3.1250212899634277e-05 3.3931435076319574e-10 -1.3635078275042532e-09 3.1250354242388014e-05 2.0685632493559736e-10 -1.3727117933216015e-05 3.1250212899634277e-05 3.3931435076319574e-10 -1.3635078275042532e-09 3.1250354242388014e-05 2.0685632493559736e-10 -1.3727117933216015e-05 2.6674968213263723e-05 2.2905429864227285e-10 -9.0106753774286386e-10 3.1250263322425253e-05 1.768600842056128e-10 -1.1794446171960526e-09 2.5000369332919304e-05 3.0968176346146326e-10 -1.3249247391021282e-09 3.1250212899634277e-05 3.3931435076319574e-10 -1.3635078275042532e-09 2.6675006330211865e-05 2.2788500269782481e-10 -1.3727124456291194e-05 2.6674968213263723e-05 2.2905429864227285e-10 -9.0106753774286386e-10 2.5860159419513919e-05 3.7039415365646869e-10 -2.9445910002694509e-05 2.6675006330211865e-05 2.2788500269782481e-10 -1.3727124456291194e-05 3.1250307766125269e-05 3.1732667039875713e-10 -1.875119952516526e-05 3.1250354242388014e-05 2.0685632493559736e-10 -1.3727117933216015e-05 3.1250307766125269e-05 3.1732667039875713e-10 -1.875119952516526e-05 3.1250303349210132e-05 2.0936141437523507e-10 -2.9126548588397733e-05 2.5860159419513916e-05 3.7039415365646869e-10 -2.9445910002694506e-05 3.1250354242388014e-05 2.0685632493559736e-10 -1.3727117933216015e-05 3.1250299565339928e-05 2.9859694846758132e-10 -3.7501151581489337e-05 3.1250303349210132e-05 2.0936141437523507e-10 -2.9126548588397733e-05 2.5860159419513919e-05 3.7039415365646869e-10 -2.9445910002694506e-05 3.1250307766125269e-05 3.1732667039875713e-10 -1.875119952516526e-05 2.5860159419513919e-05 3.7039415365646869e-10 -2.9445910002694509e-05 2.4179893218211431e-05 2.0373381566972127e-10 -4.6715871005660909e-05 2.1392929229367187e-05 1.2404452120583871e-10 -2.9153652148326047e-05 2.5494708326881466e-05 1.9450882622989589e-10 -1.7328988326997151e-05 3.1250303349210132e-05 2.0936141437523507e-10 -2.9126548588397733e-05 2.4179893218211431e-05 2.0373381566972124e-10 -4.6715871005660903e-05 2.5860159419513919e-05 3.7039415365646869e-10 -2.9445910002694509e-05 2.5494708326881466e-05 1.9450882622989587e-10 -1.7328988326997141e-05 3.1250303349210132e-05 2.0936141437523507e-10 -2.9126548588397733e-05 2.139292922936719e-05 1.2404452120583861e-10 -2.9153652148326044e-05 2.4179893218211435e-05 2.0373381566972124e-10 -4.6715871005660909e-05 2.5494708326881466e-05 1.9450882622989582e-10 -1.7328988326997144e-05 3.1250303349210132e-05 2.0936141437523507e-10 -2.9126548588397733e-05 2.7113566650669105e-05 3.0051971500196862e-10 -4.7446280988093829e-05 2.5860159419513919e-05 3.7039415365646874e-10 -2.9445910002694506e-05 2.4179893218211431e-05 2.0373381566972127e-10 -4.6715871005660903e-05 2.1325389936570765e-05 3.7193463259484643e-10 -4.9041789962514294e-05 2.5860159419513919e-05 3.7039415365646869e-10 -2.9445910002694509e-05 2.7113566650669102e-05 3.0051971500196873e-10 -4.7446280988093815e-05 2.4179893218211431e-05 2.0373381566972127e-10 -4.6715871005660903e-05 2.7113566650669102e-05 3.0051971500196873e-10 -4.7446280988093815e-05 3.1250299565339928e-05 2.9859694846758132e-10 -3.7501151581489337e-05 3.1250303349210132e-05 2.0936141437523507e-10 -2.9126548588397733e-05 2.5860159419513919e-05 3.7039415365646869e-10 -2.9445910002694509e-05 3.1250299565339928e-05 2.9859694846758132e-10 -3.7501151581489337e-05 3.1250310445073213e-05 2.1041672371574148e-10 -4.7629270880727782e-05 2.7113566650669102e-05 3.0051971500196873e-10 -4.7446280988093815e-05 3.1250303349210132e-05 2.0936141437523507e-10 -2.9126548588397733e-05 3.1250303349210132e-05 2.0936141437523507e-10 -2.9126548588397733e-05 3.1250310445073213e-05 2.1041672371574148e-10 -4.7629270880727782e-05 2.7113566650669102e-05 3.0051971500196873e-10 -4.7446280988093815e-05 2.4179893218211431e-05 2.0373381566972127e-10 -4.6715871005660903e-05 3.1250303349210132e-05 2.0936141437523507e-10 -2.9126548588397733e-05 3.1250310039194121e-05 1.203837182397783e-10 -4.2950212802557023e-05 3.1250310445073213e-05 2.1041672371574148e-10 -4.7629270880727782e-05 2.4179893218211431e-05 2.0373381566972127e-10 -4.6715871005660903e-05 3.1250313913302308e-05 -8.7790221779524482e-11 -3.0868632599519585e-05 2.3451851269578777e-05 1.7115797635870111e-11 -4.6722951340684619e-05 3.1250314701132708e-05 4.9656319968250658e-11 -3.0419841165216662e-05 2.42857093824442e-05 -3.1081213171899369e-11 -2.0414831181569435e-05 3.1250310039194121e-05 1.203837182397783e-10 -4.2950212802557023e-05 2.1392929229367187e-05 1.2404452120583871e-10 -2.9153652148326047e-05 3.1250314701132708e-05 4.9656319968250658e-11 -3.0419841165216665e-05 2.3451851269578777e-05 1.7115797635870108e-11 -4.6722951340684626e-05 3.1250303349210132e-05 2.0936141437523507e-10 -2.9126548588397733e-05 2.1392929229367187e-05 1.2404452120583863e-10 -2.9153652148326044e-05 3.1250310039194121e-05 1.203837182397783e-10 -4.2950212802557016e-05 2.4179893218211431e-05 2.0373381566972127e-10 -4.6715871005660903e-05 3.1250310039194121e-05 1.203837182397783e-10 -4.2950212802557023e-05 2.1392929229367187e-05 1.2404452120583871e-10 -2.9153652148326047e-05 2.345185126957878e-05 1.711579763587014e-11 -4.6722951340684633e-05 2.4179893218211425e-05 2.0373381566972129e-10 -4.6715871005660903e-05 3.1250310039194121e-05 1.203837182397783e-10 -4.2950212802557023e-05 3.1250303349210132e-05 2.0936141437523507e-10 -2.9126548588397733e-05 3.1250314701132708e-05 4.9656319968250658e-11 -3.0419841165216665e-05 2.1392929229367187e-05 1.2404452120583871e-10 -2.9153652148326047e-05 2.1392929229367187e-05 1.2404452120583871e-10 -2.9153652148326047e-05 3.1250314701132708e-05 4.9656319968250632e-11 -3.0419841165216662e-05 2.3451851269578777e-05 1.7115797635870108e-11 -4.6722951340684626e-05 2.42857093824442e-05 -3.1081213171899382e-11 -2.0414831181569432e-05 3.1250303349210132e-05 2.0936141437523507e-10 -2.9126548588397733e-05 3.1250314701132708e-05 4.9656319968250658e-11 -3.0419841165216665e-05 2.1392929229367184e-05 1.2404452120583871e-10 -2.9153652148326051e-05 2.549470832688147e-05 1.9450882622989587e-10 -1.7328988326997147e-05 3.1250314701132708e-05 4.9656319968250658e-11 -3.0419841165216665e-05 2.42857093824442e-05 -3.1081213171899369e-11 -2.0414831181569435e-05 2.139292922936719e-05 1.2404452120583871e-10 -2.9153652148326057e-05 2.549470832688147e-05 1.9450882622989582e-10 -1.7328988326997154e-05 3.1250304251420045e-05 -4.3724613660548552e-12 -4.8715092842503972e-05 3.1250310039194121e-05 1.203837182397783e-10 -4.2950212802557023e-05 3.1250314701132708e-05 4.9656319968250658e-11 -3.0419841165216665e-05 2.3451851269578777e-05 1.7115797635870108e-11 -4.6722951340684626e-05 3.1250313913302308e-05 -8.7790221779524482e-11 -3.0868632599519585e-05 3.1250304251420045e-05 -4.372461366054869e-12 -4.8715092842503972e-05 3.1250314701132708e-05 4.9656319968250658e-11 -3.0419841165216665e-05 2.345185126957878e-05 1.7115797635870098e-11 -4.6722951340684626e-05 2.6310200300044478e-05 3.7071972436183234e-11 -1.1625131278427692e-09 3.1250281574258681e-05 -2.7004674177558542e-11 -1.615077212070426e-05 3.1250306315974424e-05 1.0781132048667279e-10 -1.4904418236581903e-05 2.42857093824442e-05 -3.1081213171899369e-11 -2.0414831181569435e-05 3.1250306315974424e-05 1.0781132048667279e-10 -1.4904418236581903e-05 2.6617045305499765e-05 1.3630285379330986e-10 -1.0157322967450309e-09 2.4285709382444197e-05 -3.1081213171899408e-11 -2.0414831181569435e-05 2.549470832688147e-05 1.9450882622989587e-10 -1.7328988326997147e-05 3.1250306315974424e-05 1.0781132048667279e-10 -1.4904418236581903e-05 2.42857093824442e-05 -3.1081213171899408e-11 -2.0414831181569432e-05 3.1250314701132708e-05 4.9656319968250658e-11 -3.0419841165216665e-05 2.549470832688147e-05 1.9450882622989587e-10 -1.7328988326997147e-05 3.1250306315974424e-05 1.0781132048667279e-10 -1.4904418236581903e-05 3.1250281574258681e-05 -2.700467417755852e-11 -1.6150772120704263e-05 3.1250314701132708e-05 4.9656319968250658e-11 -3.0419841165216665e-05 2.4285709382444197e-05 -3.108121317189933e-11 -2.0414831181569438e-05 2.2726082388179899e-05 8.4779866612741022e-11 -8.3438634092934722e-10 2.42857093824442e-05 -3.1081213171899369e-11 -2.0414831181569435e-05 2.6617045305499762e-05 1.3630285379330986e-10 -1.0157322967403857e-09 2.549470832688147e-05 1.9450882622989587e-10 -1.7328988326997147e-05 2.2726082388179899e-05 8.4779866612741022e-11 -8.3438634092934722e-10 2.1392929229367187e-05 1.2404452120583868e-10 -2.9153652148326051e-05 2.42857093824442e-05 -3.1081213171899356e-11 -2.0414831181569438e-05 2.549470832688147e-05 1.9450882622989587e-10 -1.7328988326997147e-05 3.1250303349210132e-05 2.0936141437523507e-10 -2.9126548588397733e-05 3.1250306315974424e-05 1.0781132048667279e-10 -1.4904418236581903e-05 3.1250314701132708e-05 4.9656319968250658e-11 -3.0419841165216665e-05 2.549470832688147e-05 1.9450882622989587e-10 -1.7328988326997147e-05 2.2726082388179899e-05 8.4779866612741022e-11 -8.3438634092934722e-10 2.1037917771579368e-05 -6.9463084323950658e-12 -1.0244452386383528e-09 2.6310200300044478e-05 3.7071972436183234e-11 -1.1625131278435162e-09 2.42857093824442e-05 -3.1081213171899369e-11 -2.0414831181569435e-05 2.6310200300044478e-05 3.7071972436183234e-11 -1.1625131278427692e-09 3.1250306315974424e-05 1.0781132048667276e-10 -1.4904418236581903e-05 2.6617045305499765e-05 1.3630285379330986e-10 -1.0157322967395047e-09 2.42857093824442e-05 -3.1081213171899369e-11 -2.0414831181569435e-05 2.2726082388179899e-05 8.4779866612741022e-11 -8.3438634092934722e-10 2.6310200300044478e-05 3.7071972436183234e-11 -1.1625131278428956e-09 2.6617045305499765e-05 1.3630285379330986e-10 -1.0157322967391313e-09 2.42857093824442e-05 -3.1081213171899369e-11 -2.0414831181569435e-05 2.2044780016886111e-05 1.6126849569613669e-10 -1.2740113790816109e-09 2.2726082388179899e-05 8.4779866612741022e-11 -8.3438634092934722e-10 2.6617045305499765e-05 1.3630285379330986e-10 -1.0157322967403847e-09 2.549470832688147e-05 1.9450882622989587e-10 -1.7328988326997151e-05 3.1250306315974424e-05 1.0781132048667279e-10 -1.4904418236581903e-05 2.6617045305499765e-05 1.3630285379330986e-10 -1.015732296737814e-09 3.1250263322425253e-05 1.768600842056128e-10 -1.1794446171962059e-09 3.1250159127951763e-05 9.2904686166356672e-11 -1.3148224810342904e-09 3.1250306315974424e-05 1.0781132048667279e-10 -1.4904418236581903e-05 2.5494708326881466e-05 1.9450882622989584e-10 -1.7328988326997147e-05 3.1250263322425253e-05 1.768600842056128e-10 -1.1794446171960526e-09 2.6617045305499765e-05 1.3630285379330986e-10 -1.0157322967420454e-09 2.6310200300044478e-05 3.7071972436183234e-11 -1.1625131278427692e-09 2.6617045305499765e-05 1.3630285379330986e-10 -1.0157322967395047e-09 3.1250306315974424e-05 1.0781132048667279e-10 -1.4904418236581903e-05 3.1250159127951763e-05 9.2904686166356672e-11 -1.3148224810342904e-09 3.1250159127951763e-05 9.2904686166356672e-11 -1.3148224810342904e-09 3.1250306315974424e-05 1.0781132048667279e-10 -1.4904418236581903e-05 2.6310200300044478e-05 3.7071972436183234e-11 -1.1625131278427692e-09 3.1250281574258681e-05 -2.7004674177558497e-11 -1.6150772120704263e-05 3.1250121969426862e-05 -3.0012864085811077e-11 -1.5970193653893974e-09 3.1250159127951763e-05 9.2904686166356672e-11 -1.3148224810342904e-09 2.6310200300044478e-05 3.7071972436183234e-11 -1.1625131278427692e-09 3.1250281574258681e-05 -2.7004674177558497e-11 -1.6150772120704263e-05 2.526270915455968e-05 -1.2658053937213847e-10 -1.4003618522370691e-09 2.6674933639661817e-05 -1.6728473192319854e-10 -9.8943313514663035e-10 3.1250283963983235e-05 -8.5451984745902861e-11 -1.5872939983488846e-05 2.1493248894429347e-05 -1.2335939325955279e-10 -2.9407485185387097e-05 2.526270915455968e-05 -1.2658053937213847e-10 -1.4003618522370691e-09 3.1250121969426855e-05 -3.0012864085811116e-11 -1.5970193653938466e-09 2.6310200300044478e-05 3.7071972436183215e-11 -1.1625131278436229e-09 3.1250281574258681e-05 -2.7004674177558497e-11 -1.6150772120704263e-05 3.1250121969426862e-05 -3.0012864085811077e-11 -1.5970193653893974e-09 2.526270915455968e-05 -1.2658053937213847e-10 -1.4003618522370691e-09 3.1250283963983235e-05 -8.5451984745902835e-11 -1.5872939983488846e-05 3.1250281574258681e-05 -2.7004674177558497e-11 -1.6150772120704263e-05 2.526270915455968e-05 -1.2658053937213847e-10 -1.4003618522370691e-09 2.1493248894429351e-05 -1.2335939325955284e-10 -2.9407485185387097e-05 3.1250283963983235e-05 -8.5451984745902848e-11 -1.5872939983488842e-05 2.4285709382444203e-05 -3.108121317189935e-11 -2.0414831181569432e-05 2.6310200300044478e-05 3.7071972436183234e-11 -1.1625131278427692e-09 2.1037917771579368e-05 -6.9463084323950617e-12 -1.0244452386388549e-09 2.526270915455968e-05 -1.2658053937213847e-10 -1.4003618522370691e-09 2.42857093824442e-05 -3.1081213171899369e-11 -2.0414831181569435e-05 2.6310200300044478e-05 3.7071972436183234e-11 -1.1625131278427692e-09 2.526270915455968e-05 -1.2658053937213847e-10 -1.4003618522370691e-09 3.1250281574258688e-05 -2.7004674177558507e-11 -1.6150772120704263e-05 2.42857093824442e-05 -3.1081213171899369e-11 -2.0414831181569435e-05 2.526270915455968e-05 -1.2658053937213847e-10 -1.4003618522370691e-09 3.1250283963983235e-05 -8.5451984745902822e-11 -1.5872939983488839e-05 3.1250281574258681e-05 -2.7004674177558497e-11 -1.6150772120704263e-05 2.42857093824442e-05 -3.1081213171899369e-11 -2.0414831181569435e-05 3.1250283963983235e-05 -8.5451984745902835e-11 -1.5872939983488846e-05 3.1250313913302308e-05 -8.7790221779524482e-11 -3.0868632599519585e-05 3.1250281574258681e-05 -2.70046741775585e-11 -1.6150772120704266e-05 2.42857093824442e-05 -3.1081213171899376e-11 -2.0414831181569438e-05 3.1250283963983235e-05 -8.5451984745902835e-11 -1.5872939983488846e-05 2.5262709154559683e-05 -1.2658053937213847e-10 -1.4003618522372751e-09 3.1250121969426862e-05 -3.0012864085811077e-11 -1.5970193653893974e-09 3.1250146264440677e-05 -2.2092572358131317e-10 -1.3635492169943689e-09 3.1250283963983235e-05 -8.5451984745902835e-11 -1.5872939983488846e-05 2.5262709154559683e-05 -1.2658053937213847e-10 -1.400361852241386e-09 3.1250146264440677e-05 -2.2092572358131317e-10 -1.3635492169943689e-09 2.6674933639661817e-05 -1.6728473192319854e-10 -9.8943313514663035e-10 3.1250146264440677e-05 -2.2092572358131317e-10 -1.3635492169943689e-09 3.1250328134475057e-05 -1.8646485666978898e-10 -1.3727160199794854e-05 3.1250283963983235e-05 -8.5451984745902835e-11 -1.5872939983488846e-05 2.6674933639661817e-05 -1.6728473192319854e-10 -9.8943313514663035e-10 2.5955826102172212e-05 -3.0334939792257912e-10 -2.8143461490415951e-05 2.6674957593967286e-05 -2.2887328680537595e-10 -1.3727105380495519e-05 2.1435312824117417e-05 -3.662770720525052e-10 -1.6171896825594204e-05 2.1493248894429351e-05 -1.2335939325955284e-10 -2.9407485185387097e-05 2.526270915455968e-05 -1.2658053937213847e-10 -1.4003618522370691e-09 2.1681826373713566e-05 -2.2255876862658589e-10 -1.1986838603033009e-09 2.6674933639661817e-05 -1.6728473192319854e-10 -9.8943313514663035e-10 2.1493248894429351e-05 -1.2335939325955282e-10 -2.9407485185387094e-05 3.1250310030544437e-05 -1.8648309363942613e-10 -2.9636259726873217e-05 3.1250283963983235e-05 -8.5451984745902835e-11 -1.5872939983488846e-05 3.1250328134475057e-05 -1.8646485666978898e-10 -1.3727160199794854e-05 2.1493248894429351e-05 -1.2335939325955282e-10 -2.9407485185387097e-05 3.1250328134475057e-05 -1.8646485666978898e-10 -1.3727160199794854e-05 3.1250283963983235e-05 -8.5451984745902835e-11 -1.5872939983488846e-05 2.6674933639661821e-05 -1.6728473192319856e-10 -9.8943313514852294e-10 2.1493248894429354e-05 -1.2335939325955276e-10 -2.9407485185387091e-05 3.1250328134475057e-05 -1.8646485666978898e-10 -1.3727160199794854e-05 2.6674957593967286e-05 -2.2887328680537601e-10 -1.3727105380495523e-05 2.5955826102172208e-05 -3.0334939792257902e-10 -2.8143461490415945e-05 2.1493248894429354e-05 -1.2335939325955295e-10 -2.9407485185387108e-05 3.1250328134475057e-05 -1.8646485666978898e-10 -1.3727160199794854e-05 2.6674933639661817e-05 -1.6728473192319854e-10 -9.8943313514701954e-10 2.6674957593967286e-05 -2.2887328680537595e-10 -1.3727105380495519e-05 2.1493248894429354e-05 -1.2335939325955284e-10 -2.9407485185387091e-05 2.1681826373713566e-05 -2.2255876862658589e-10 -1.1986838603038194e-09 2.6674957593967286e-05 -2.2887328680537595e-10 -1.3727105380495521e-05 2.6674933639661817e-05 -1.6728473192319854e-10 -9.8943313514663035e-10 2.1493248894429351e-05 -1.2335939325955282e-10 -2.9407485185387097e-05 2.6674957593967286e-05 -2.2887328680537595e-10 -1.3727105380495519e-05 2.5955826102172212e-05 -3.0334939792257912e-10 -2.8143461490415951e-05 3.1250271156704228e-05 -3.091140536178544e-10 -1.8751215684889068e-05 3.1250328134475057e-05 -1.8646485666978898e-10 -1.3727160199794854e-05 2.5955826102172212e-05 -3.0334939792257912e-10 -2.8143461490415951e-05 3.1250310030544437e-05 -1.8648309363942613e-10 -2.9636259726873217e-05 3.1250271156704228e-05 -3.091140536178544e-10 -1.8751215684889068e-05 3.1250328134475057e-05 -1.8646485666978898e-10 -1.3727160199794854e-05 2.6674933639661817e-05 -1.6728473192319854e-10 -9.8943313514663035e-10 3.1250154030508157e-05 -3.3872330152068006e-10 -1.3015745666598047e-09 2.6674957593967286e-05 -2.2887328680537595e-10 -1.3727105380495519e-05 2.5000317440430781e-05 -3.1830102276152487e-10 -1.2118707834633139e-09 2.6674957593967286e-05 -2.2887328680537595e-10 -1.3727105380495519e-05 3.1250271156704228e-05 -3.091140536178544e-10 -1.8751215684889068e-05 3.125015403050815e-05 -3.3872330152068001e-10 -1.3015745666584666e-09 3.1250328134475057e-05 -1.8646485666978898e-10 -1.3727160199794854e-05 3.1250154030508157e-05 -3.3872330152068006e-10 -1.3015745666598047e-09 3.1250328134475057e-05 -1.8646485666978898e-10 -1.3727160199794854e-05 3.1250146264440671e-05 -2.2092572358131314e-10 -1.363549216993258e-09 2.6674933639661817e-05 -1.6728473192319854e-10 -9.8943313514663035e-10 3.1250328134475057e-05 -1.8646485666978898e-10 -1.3727160199794854e-05 3.125015403050815e-05 -3.3872330152068001e-10 -1.3015745666586938e-09 2.6674957593967286e-05 -2.2887328680537595e-10 -1.3727105380495519e-05 2.6674933639661817e-05 -1.6728473192319854e-10 -9.8943313514663035e-10 2.1435312824117417e-05 -3.662770720525052e-10 -1.6171896825594204e-05 2.1681826373713566e-05 -2.2255876862658589e-10 -1.1986838603038194e-09 2.6674957593967286e-05 -2.2887328680537603e-10 -1.3727105380495518e-05 2.5000317440430781e-05 -3.1830102276152487e-10 -1.2118707834633139e-09 2.6674933639661817e-05 -1.6728473192319854e-10 -9.8943313514663035e-10 2.6674957593967286e-05 -2.2887328680537595e-10 -1.3727105380495519e-05 2.1681826373713566e-05 -2.2255876862658589e-10 -1.1986838603043748e-09 2.5000317440430781e-05 -3.1830102276152487e-10 -1.2118707834633139e-09 2.1435312824117417e-05 -3.662770720525052e-10 -1.6171896825594204e-05 2.1493248894429354e-05 -1.2335939325955279e-10 -2.9407485185387104e-05 2.1681826373713563e-05 -2.2255876862658589e-10 -1.1986838603016123e-09 1.5637738625664524e-05 -2.1768092696346373e-10 -2.1173834821930977e-05 2.1435312824117417e-05 -3.662770720525052e-10 -1.6171896825594204e-05 2.6674957593967286e-05 -2.2887328680537595e-10 -1.3727105380495519e-05 2.1681826373713566e-05 -2.2255876862658589e-10 -1.1986838603033814e-09 2.1493248894429347e-05 -1.2335939325955274e-10 -2.9407485185387101e-05 2.1681826373713566e-05 -2.2255876862658589e-10 -1.1986838603038194e-09 2.1435312824117417e-05 -3.662770720525052e-10 -1.61718968255942e-05 1.8750275468262989e-05 -2.9953935462313145e-10 -1.3680736034486832e-09 2.5000317440430781e-05 -3.1830102276152487e-10 -1.2118707834633139e-09 1.5435160942438105e-05 -3.0156693321104844e-10 -1.2411598613574627e-05 1.2500193891156202e-05 -3.2550076887382201e-10 -1.6298265903375553e-09 1.5927363035654878e-05 -1.9350327631061737e-10 -1.1798387556620113e-09 1.8750275468262989e-05 -2.9953935462313145e-10 -1.3680736034486832e-09 1.5927363035654878e-05 -1.9350327631061737e-10 -1.1798387556620113e-09 2.1681826373713566e-05 -2.2255876862658589e-10 -1.1986838603038194e-09 2.1435312824117417e-05 -3.662770720525052e-10 -1.6171896825594204e-05 1.8750275468262989e-05 -2.9953935462313145e-10 -1.3680736034486832e-09 2.1435312824117417e-05 -3.662770720525052e-10 -1.6171896825594204e-05 1.5435160942438105e-05 -3.0156693321104844e-10 -1.2411598613574627e-05 1.5927363035654878e-05 -1.9350327631061737e-10 -1.1798387556620113e-09 1.8750275468262989e-05 -2.9953935462313145e-10 -1.3680736034486832e-09 1.4902825787207516e-05 -3.6920358719341164e-10 -2.9758470960824635e-05 2.1435312824117417e-05 -3.662770720525052e-10 -1.6171896825594204e-05 1.5435160942438105e-05 -3.0156693321104844e-10 -1.2411598613574627e-05 1.5637738625664527e-05 -2.1768092696346366e-10 -2.117383482193098e-05 1.5435160942438105e-05 -3.0156693321104844e-10 -1.2411598613574627e-05 2.1435312824117417e-05 -3.662770720525052e-10 -1.6171896825594204e-05 1.5927363035654878e-05 -1.9350327631061737e-10 -1.1798387556620113e-09 1.5637738625664527e-05 -2.1768092696346366e-10 -2.117383482193098e-05 1.5927363035654878e-05 -1.9350327631061737e-10 -1.1798387556620113e-09 2.143531282411742e-05 -3.6627707205250525e-10 -1.61718968255942e-05 2.1681826373713566e-05 -2.2255876862658589e-10 -1.1986838603038194e-09 1.5637738625664527e-05 -2.1768092696346363e-10 -2.117383482193098e-05 1.9077435625958992e-05 -1.0851249327425179e-10 -1.1190265682023258e-09 1.5927363035654878e-05 -1.9350327631061737e-10 -1.1798387556620113e-09 2.1681826373713566e-05 -2.2255876862658589e-10 -1.1986838603038194e-09 1.5637738625664527e-05 -2.1768092696346366e-10 -2.117383482193098e-05 1.9077435625958992e-05 -1.0851249327425179e-10 -1.1190265682023258e-09 2.1493248894429347e-05 -1.2335939325955279e-10 -2.9407485185387094e-05 2.526270915455968e-05 -1.2658053937213847e-10 -1.4003618522370691e-09 2.42857093824442e-05 -3.1081213171899369e-11 -2.0414831181569435e-05 1.9077435625958992e-05 -1.0851249327425179e-10 -1.1190265682023258e-09 2.1681826373713566e-05 -2.2255876862658589e-10 -1.1986838603038194e-09 2.1493248894429351e-05 -1.2335939325955284e-10 -2.9407485185387094e-05 1.5637738625664527e-05 -2.1768092696346366e-10 -2.117383482193098e-05 2.526270915455968e-05 -1.2658053937213847e-10 -1.4003618522370691e-09 1.9077435625958992e-05 -1.0851249327425179e-10 -1.1190265682033629e-09 2.1681826373713566e-05 -2.2255876862658589e-10 -1.1986838603038194e-09 2.1493248894429351e-05 -1.2335939325955279e-10 -2.9407485185387094e-05 1.9077435625958992e-05 -1.0851249327425179e-10 -1.1190265682023258e-09 1.431655768500475e-05 -1.1975412969051856e-10 -1.0177399350306041e-09 1.5927363035654878e-05 -1.9350327631061737e-10 -1.1798387556612913e-09 1.5637738625664527e-05 -2.1768092696346366e-10 -2.117383482193098e-05 1.431655768500475e-05 -1.1975412969051856e-10 -1.0177399350306041e-09 1.9077435625958992e-05 -1.0851249327425179e-10 -1.1190265682023258e-09 1.5637863171852967e-05 -2.0604325977710208e-11 -2.3404046857677638e-05 1.5637738625664527e-05 -2.1768092696346366e-10 -2.117383482193098e-05 2.42857093824442e-05 -3.1081213171899369e-11 -2.0414831181569435e-05 1.9077435625958992e-05 -1.0851249327425179e-10 -1.1190265682031578e-09 1.5637863171852963e-05 -2.0604325977710198e-11 -2.3404046857677638e-05 2.1037917771579368e-05 -6.9463084323950706e-12 -1.0244452386388741e-09 2.1493248894429351e-05 -1.2335939325955282e-10 -2.9407485185387097e-05 1.5637863171852967e-05 -2.0604325977710208e-11 -2.3404046857677638e-05 1.9077435625958988e-05 -1.0851249327425179e-10 -1.1190265682040615e-09 1.563773862566453e-05 -2.176809269634636e-10 -2.1173834821930977e-05 2.42857093824442e-05 -3.1081213171899369e-11 -2.0414831181569435e-05 1.5637863171852967e-05 -2.0604325977710208e-11 -2.3404046857677638e-05 1.9077435625958992e-05 -1.0851249327425178e-10 -1.1190265682014757e-09 2.1493248894429351e-05 -1.2335939325955282e-10 -2.9407485185387097e-05 1.6238269024566261e-05 2.4193858119925537e-11 -1.3010114884458338e-09 1.9077435625958992e-05 -1.0851249327425179e-10 -1.1190265682021629e-09 2.1037917771579368e-05 -6.9463084323950706e-12 -1.0244452386390371e-09 1.5637863171852967e-05 -2.0604325977710208e-11 -2.3404046857677638e-05 1.431655768500475e-05 -1.1975412969051856e-10 -1.0177399350306041e-09 1.9077435625958992e-05 -1.0851249327425179e-10 -1.1190265682023258e-09 1.6238269024566261e-05 2.4193858119925537e-11 -1.3010114884458338e-09 1.5637863171852967e-05 -2.0604325977710208e-11 -2.3404046857677638e-05 1.9077435625958992e-05 -1.0851249327425179e-10 -1.1190265682023258e-09 2.526270915455968e-05 -1.2658053937213847e-10 -1.4003618522370691e-09 2.1037917771579371e-05 -6.946308432395086e-12 -1.0244452386406875e-09 2.42857093824442e-05 -3.1081213171899369e-11 -2.0414831181569435e-05 2.1493248894429351e-05 -1.2335939325955282e-10 -2.9407485185387097e-05 2.3451851269578777e-05 1.7115797635870101e-11 -4.6722951340684626e-05 1.5625249668590073e-05 -1.8999680186084405e-12 -4.6876053609949647e-05 1.5648250926865464e-05 -1.6177158778110246e-10 -4.9582261587321805e-05 2.3451851269578777e-05 1.7115797635870108e-11 -4.6722951340684626e-05 1.5648250926865464e-05 -1.6177158778110248e-10 -4.9582261587321805e-05 2.1493248894429347e-05 -1.2335939325955282e-10 -2.9407485185387094e-05 2.4367126907436483e-05 -1.7508082201657505e-10 -4.6889832070552993e-05 1.5625249668590073e-05 -1.8999680186084393e-12 -4.6876053609949647e-05 2.3451851269578777e-05 1.7115797635870108e-11 -4.6722951340684626e-05 2.1493248894429347e-05 -1.2335939325955274e-10 -2.9407485185387094e-05 1.5637863171852963e-05 -2.0604325977710179e-11 -2.3404046857677628e-05 2.1493248894429351e-05 -1.2335939325955282e-10 -2.9407485185387097e-05 1.5637863171852963e-05 -2.0604325977710211e-11 -2.3404046857677638e-05 2.3451851269578777e-05 1.7115797635870108e-11 -4.6722951340684626e-05 2.42857093824442e-05 -3.1081213171899369e-11 -2.0414831181569435e-05 1.5648250926865464e-05 -1.6177158778110248e-10 -4.9582261587321805e-05 1.563786317185296e-05 -2.0604325977710224e-11 -2.3404046857677642e-05 2.1493248894429347e-05 -1.2335939325955282e-10 -2.9407485185387097e-05 1.5637738625664527e-05 -2.1768092696346373e-10 -2.1173834821930984e-05 1.5625249668590073e-05 -1.8999680186084393e-12 -4.6876053609949647e-05 2.1493248894429347e-05 -1.2335939325955282e-10 -2.9407485185387097e-05 1.5648250926865464e-05 -1.6177158778110248e-10 -4.9582261587321805e-05 1.5637863171852963e-05 -2.0604325977710218e-11 -2.3404046857677631e-05 2.5955826102172212e-05 -3.0334939792257912e-10 -2.8143461490415951e-05 2.1493248894429351e-05 -1.2335939325955282e-10 -2.9407485185387097e-05 2.0891626145656453e-05 -3.3360348871642657e-10 -3.6125347974598453e-05 2.4367126907436483e-05 -1.7508082201657507e-10 -4.6889832070553e-05 2.1435312824117417e-05 -3.662770720525052e-10 -1.6171896825594204e-05 2.0891626145656453e-05 -3.3360348871642657e-10 -3.6125347974598453e-05 2.5955826102172212e-05 -3.0334939792257912e-10 -2.8143461490415951e-05 2.1493248894429351e-05 -1.2335939325955282e-10 -2.9407485185387097e-05 2.0891626145656453e-05 -3.3360348871642657e-10 -3.6125347974598453e-05 1.4902825787207516e-05 -3.6920358719341164e-10 -2.9758470960824635e-05 1.5648250926865468e-05 -1.6177158778110254e-10 -4.9582261587321798e-05 1.5637738625664527e-05 -2.1768092696346368e-10 -2.1173834821930987e-05 2.1553335857433199e-05 -2.5664131924519437e-10 -5.0794670075532992e-05 2.0891626145656453e-05 -3.3360348871642657e-10 -3.6125347974598453e-05 1.5648250926865464e-05 -1.6177158778110251e-10 -4.9582261587321805e-05 2.4367126907436483e-05 -1.7508082201657507e-10 -4.6889832070553e-05 2.1435312824117417e-05 -3.662770720525052e-10 -1.6171896825594204e-05 2.0891626145656453e-05 -3.3360348871642657e-10 -3.6125347974598453e-05 2.1493248894429351e-05 -1.2335939325955282e-10 -2.9407485185387101e-05 1.5637738625664524e-05 -2.1768092696346371e-10 -2.117383482193098e-05 2.0891626145656453e-05 -3.3360348871642657e-10 -3.6125347974598453e-05 1.5648250926865461e-05 -1.6177158778110248e-10 -4.9582261587321798e-05 2.1493248894429358e-05 -1.2335939325955279e-10 -2.9407485185387097e-05 1.5637738625664527e-05 -2.1768092696346363e-10 -2.1173834821930987e-05 2.1493248894429351e-05 -1.2335939325955282e-10 -2.9407485185387097e-05 1.5648250926865464e-05 -1.6177158778110248e-10 -4.9582261587321798e-05 2.0891626145656453e-05 -3.3360348871642657e-10 -3.6125347974598453e-05 2.4367126907436483e-05 -1.7508082201657507e-10 -4.6889832070553e-05 2.1435312824117417e-05 -3.662770720525052e-10 -1.6171896825594204e-05 1.4902825787207516e-05 -3.6920358719341164e-10 -2.9758470960824635e-05 2.0891626145656453e-05 -3.3360348871642657e-10 -3.6125347974598453e-05 1.563773862566453e-05 -2.1768092696346368e-10 -2.117383482193098e-05 1.5625240988077201e-05 -3.190795172380481e-10 -4.5037149767354859e-05 2.0891626145656453e-05 -3.3360348871642657e-10 -3.6125347974598453e-05 1.4902825787207516e-05 -3.6920358719341164e-10 -2.9758470960824635e-05 1.5648250926865464e-05 -1.6177158778110248e-10 -4.9582261587321805e-05 1.5625240988077201e-05 -3.190795172380481e-10 -4.5037149767354859e-05 2.1553335857433199e-05 -2.5664131924519437e-10 -5.0794670075532992e-05 2.0891626145656453e-05 -3.3360348871642657e-10 -3.6125347974598453e-05 1.5648250926865464e-05 -1.6177158778110248e-10 -4.9582261587321805e-05 2.0891626145656453e-05 -3.3360348871642657e-10 -3.6125347974598453e-05 2.1553335857433195e-05 -2.5664131924519437e-10 -5.0794670075532992e-05 2.6104987509020234e-05 -3.0293615844292436e-10 -4.5966742151897995e-05 2.4367126907436483e-05 -1.7508082201657507e-10 -4.6889832070553e-05 3.1250310030544437e-05 -1.8648309363942613e-10 -2.9636259726873217e-05 2.1493248894429351e-05 -1.2335939325955282e-10 -2.9407485185387097e-05 2.5955826102172212e-05 -3.0334939792257912e-10 -2.8143461490415948e-05 2.4367126907436483e-05 -1.7508082201657505e-10 -4.6889832070553e-05 3.1250310030544437e-05 -1.8648309363942613e-10 -2.9636259726873217e-05 3.1250328134475057e-05 -1.8646485666978898e-10 -1.3727160199794854e-05 2.5955826102172212e-05 -3.0334939792257912e-10 -2.8143461490415951e-05 2.1493248894429351e-05 -1.2335939325955282e-10 -2.9407485185387097e-05 2.6104987509020234e-05 -3.0293615844292436e-10 -4.5966742151897995e-05 2.5955826102172212e-05 -3.0334939792257912e-10 -2.8143461490415951e-05 2.0891626145656453e-05 -3.3360348871642657e-10 -3.6125347974598453e-05 2.436712690743648e-05 -1.7508082201657505e-10 -4.6889832070552993e-05 2.6104987509020234e-05 -3.0293615844292436e-10 -4.5966742151897995e-05 3.1250310030544437e-05 -1.864830936394261e-10 -2.9636259726873217e-05 2.5955826102172212e-05 -3.0334939792257912e-10 -2.8143461490415951e-05 2.4367126907436487e-05 -1.750808220165751e-10 -4.6889832070553007e-05 2.5955826102172212e-05 -3.0334939792257912e-10 -2.8143461490415951e-05 2.6104987509020234e-05 -3.0293615844292426e-10 -4.5966742151898001e-05 3.1250259015461979e-05 -3.6346553886333914e-10 -3.750119062525046e-05 3.1250310030544437e-05 -1.8648309363942613e-10 -2.9636259726873217e-05 2.6104987509020234e-05 -3.0293615844292436e-10 -4.5966742151897995e-05 3.1250313606031084e-05 -2.3928946518674828e-10 -4.7782543948903008e-05 3.1250283133142786e-05 -4.0353875920804021e-10 -5.6251171974855967e-05 3.1250259015461979e-05 -3.6346553886333909e-10 -3.750119062525046e-05 3.1250259015461979e-05 -3.6346553886333909e-10 -3.750119062525046e-05 2.6104987509020234e-05 -3.0293615844292436e-10 -4.5966742151897995e-05 3.1250313606031098e-05 -2.3928946518674828e-10 -4.7782543948903014e-05 3.1250310030544437e-05 -1.8648309363942613e-10 -2.9636259726873217e-05 3.1250310030544437e-05 -1.8648309363942613e-10 -2.9636259726873217e-05 3.1250259015461972e-05 -3.6346553886333904e-10 -3.750119062525046e-05 2.5955826102172212e-05 -3.0334939792257912e-10 -2.8143461490415951e-05 3.1250271156704228e-05 -3.091140536178544e-10 -1.8751215684889068e-05 3.1250319944071393e-05 -1.2600337031817701e-10 -4.2950239391567686e-05 3.1250310030544437e-05 -1.8648309363942613e-10 -2.9636259726873217e-05 3.1250313606031091e-05 -2.3928946518674833e-10 -4.7782543948903008e-05 2.4367126907436483e-05 -1.7508082201657507e-10 -4.6889832070553e-05 2.6104987509020234e-05 -3.0293615844292436e-10 -4.5966742151897995e-05 3.1250313606031091e-05 -2.3928946518674838e-10 -4.7782543948903014e-05 3.125031003054443e-05 -1.864830936394261e-10 -2.9636259726873217e-05 2.436712690743648e-05 -1.7508082201657505e-10 -4.6889832070552986e-05 3.1250313913302308e-05 -8.7790221779524482e-11 -3.0868632599519585e-05 2.1493248894429351e-05 -1.2335939325955282e-10 -2.9407485185387101e-05 2.3451851269578777e-05 1.7115797635870062e-11 -4.6722951340684612e-05 2.42857093824442e-05 -3.1081213171899369e-11 -2.0414831181569435e-05 3.1250313913302308e-05 -8.7790221779524482e-11 -3.0868632599519585e-05 3.1250310030544437e-05 -1.8648309363942613e-10 -2.9636259726873217e-05 3.1250319944071393e-05 -1.2600337031817701e-10 -4.2950239391567686e-05 2.1493248894429351e-05 -1.2335939325955282e-10 -2.9407485185387097e-05 3.1250319944071393e-05 -1.2600337031817701e-10 -4.2950239391567686e-05 2.3451851269578777e-05 1.7115797635870108e-11 -4.672295134068464e-05 2.1493248894429347e-05 -1.2335939325955279e-10 -2.9407485185387094e-05 2.436712690743648e-05 -1.7508082201657505e-10 -4.6889832070553007e-05 3.1250283963983235e-05 -8.5451984745902835e-11 -1.5872939983488846e-05 3.1250310030544437e-05 -1.8648309363942613e-10 -2.9636259726873213e-05 3.1250313913302308e-05 -8.7790221779524482e-11 -3.0868632599519585e-05 2.1493248894429351e-05 -1.2335939325955282e-10 -2.9407485185387097e-05 3.1250319944071393e-05 -1.2600337031817701e-10 -4.2950239391567686e-05 2.1493248894429351e-05 -1.2335939325955282e-10 -2.9407485185387094e-05 3.1250310030544437e-05 -1.8648309363942613e-10 -2.9636259726873217e-05 2.436712690743649e-05 -1.7508082201657512e-10 -4.6889832070553013e-05 3.1250283963983235e-05 -8.5451984745902835e-11 -1.5872939983488846e-05 2.1493248894429351e-05 -1.2335939325955282e-10 -2.9407485185387094e-05 3.1250313913302308e-05 -8.7790221779524482e-11 -3.0868632599519585e-05 2.4285709382444197e-05 -3.108121317189933e-11 -2.0414831181569432e-05 3.1250313913302308e-05 -8.7790221779524482e-11 -3.0868632599519585e-05 2.1493248894429351e-05 -1.2335939325955282e-10 -2.9407485185387097e-05 3.1250319944071393e-05 -1.2600337031817701e-10 -4.2950239391567686e-05 2.345185126957878e-05 1.711579763587004e-11 -4.6722951340684626e-05 3.1250314701132708e-05 4.9656319968250658e-11 -3.0419841165216665e-05 3.1250281574258681e-05 -2.7004674177558497e-11 -1.6150772120704263e-05 3.1250313913302308e-05 -8.7790221779524482e-11 -3.0868632599519585e-05 2.42857093824442e-05 -3.1081213171899369e-11 -2.0414831181569435e-05 3.1250313913302308e-05 -8.7790221779524482e-11 -3.0868632599519585e-05 3.1250319944071393e-05 -1.2600337031817701e-10 -4.2950239391567686e-05 3.1250304251420045e-05 -4.3724613660548552e-12 -4.8715092842503972e-05 2.345185126957878e-05 1.7115797635870114e-11 -4.6722951340684626e-05 3.1250337656830123e-05 -1.1274659517981073e-10 -5.6206492593349652e-05 2.3451851269578777e-05 1.7115797635870108e-11 -4.6722951340684626e-05 2.1482446993922459e-05 -1.2496174631620037e-10 -6.444738641612375e-05 2.438135862176514e-05 -4.9667039621411612e-12 -7.3144022947290257e-05 3.1250337656830123e-05 -1.1274659517981073e-10 -5.6206492593349652e-05 3.1250363807519999e-05 -7.3377364523434553e-11 -6.8180115844062087e-05 2.1482446993922459e-05 -1.2496174631620043e-10 -6.4447386416123764e-05 2.5500251711869199e-05 -1.661897747827254e-10 -7.6500683162135236e-05 3.1250337656830123e-05 -1.1274659517981073e-10 -5.6206492593349652e-05 3.1250335472023012e-05 2.030202379140873e-11 -6.311413465668735e-05 3.1250304251420045e-05 -4.3724613660548552e-12 -4.8715092842503972e-05 2.3451851269578777e-05 1.7115797635870108e-11 -4.6722951340684626e-05 3.1250337656830123e-05 -1.1274659517981073e-10 -5.6206492593349652e-05 2.3451851269578777e-05 1.7115797635870108e-11 -4.6722951340684626e-05 3.1250319944071393e-05 -1.2600337031817701e-10 -4.2950239391567686e-05 2.436712690743648e-05 -1.7508082201657505e-10 -4.6889832070553e-05 2.1482446993922459e-05 -1.2496174631620037e-10 -6.444738641612375e-05 2.436712690743648e-05 -1.7508082201657505e-10 -4.6889832070553e-05 3.1250337656830123e-05 -1.1274659517981072e-10 -5.6206492593349652e-05 2.5500251711869199e-05 -1.6618977478272538e-10 -7.6500683162135236e-05 3.1250337656830123e-05 -1.1274659517981073e-10 -5.6206492593349652e-05 2.1482446993922459e-05 -1.2496174631620037e-10 -6.444738641612375e-05 2.3451851269578777e-05 1.7115797635870085e-11 -4.6722951340684626e-05 2.436712690743648e-05 -1.7508082201657505e-10 -4.6889832070552993e-05 3.1250335472023012e-05 2.030202379140873e-11 -6.311413465668735e-05 2.3451851269578773e-05 1.7115797635870101e-11 -4.6722951340684626e-05 3.1250337656830123e-05 -1.1274659517981073e-10 -5.6206492593349652e-05 2.4381358621765136e-05 -4.9667039621411596e-12 -7.3144022947290257e-05 3.1250363807519999e-05 -7.3377364523434553e-11 -6.8180115844062087e-05 3.1250337656830123e-05 -1.1274659517981073e-10 -5.6206492593349652e-05 2.1482446993922455e-05 -1.2496174631620043e-10 -6.444738641612375e-05 2.438135862176514e-05 -4.9667039621410837e-12 -7.3144022947290243e-05 3.1250337656830123e-05 -1.1274659517981073e-10 -5.6206492593349652e-05 3.1250304251420045e-05 -4.3724613660548552e-12 -4.8715092842503972e-05 3.1250319944071393e-05 -1.2600337031817701e-10 -4.2950239391567686e-05 2.3451851269578777e-05 1.7115797635870108e-11 -4.6722951340684626e-05 3.1250363807519999e-05 -7.3377364523434553e-11 -6.8180115844062087e-05 3.1250335472023012e-05 2.030202379140873e-11 -6.311413465668735e-05 3.1250337656830123e-05 -1.1274659517981073e-10 -5.6206492593349652e-05 2.438135862176514e-05 -4.9667039621411612e-12 -7.3144022947290257e-05 3.1250337656830123e-05 -1.1274659517981073e-10 -5.6206492593349652e-05 3.1250352941523596e-05 -2.1113547580255809e-10 -6.6156519726028661e-05 3.1250363807519999e-05 -7.3377364523434553e-11 -6.8180115844062087e-05 2.5500251711869199e-05 -1.6618977478272538e-10 -7.6500683162135236e-05 3.1250337656830123e-05 -1.1274659517981073e-10 -5.6206492593349652e-05 3.1250319944071393e-05 -1.2600337031817701e-10 -4.2950239391567686e-05 3.1250313606031091e-05 -2.3928946518674833e-10 -4.7782543948903008e-05 2.4367126907436483e-05 -1.7508082201657507e-10 -4.6889832070553e-05 3.1250313606031091e-05 -2.3928946518674833e-10 -4.7782543948903008e-05 2.5459716635478483e-05 -3.272612705073615e-10 -6.460886733907082e-05 3.1250352941523596e-05 -2.1113547580255809e-10 -6.6156519726028661e-05 2.4367126907436483e-05 -1.7508082201657505e-10 -4.6889832070553e-05 2.5459716635478479e-05 -3.272612705073615e-10 -6.4608867339070833e-05 2.436712690743648e-05 -1.750808220165751e-10 -4.6889832070552993e-05 2.1482446993922462e-05 -1.2496174631620032e-10 -6.4447386416123737e-05 2.5500251711869199e-05 -1.6618977478272538e-10 -7.6500683162135236e-05 2.5459716635478479e-05 -3.272612705073615e-10 -6.4608867339070833e-05 3.1250352941523596e-05 -2.1113547580255809e-10 -6.6156519726028661e-05 2.4367126907436483e-05 -1.750808220165751e-10 -4.6889832070553e-05 2.5500251711869199e-05 -1.6618977478272538e-10 -7.6500683162135236e-05 3.1250352941523596e-05 -2.1113547580255809e-10 -6.6156519726028661e-05 3.1250337656830123e-05 -1.1274659517981073e-10 -5.6206492593349652e-05 2.4367126907436483e-05 -1.7508082201657507e-10 -4.6889832070553e-05 2.5500251711869199e-05 -1.6618977478272538e-10 -7.6500683162135236e-05 3.1250313606031091e-05 -2.3928946518674833e-10 -4.7782543948903008e-05 3.1250352941523596e-05 -2.1113547580255809e-10 -6.6156519726028661e-05 3.1250337656830123e-05 -1.1274659517981073e-10 -5.6206492593349652e-05 2.4367126907436483e-05 -1.7508082201657507e-10 -4.6889832070553e-05 3.1250352941523596e-05 -2.1113547580255809e-10 -6.6156519726028661e-05 2.5459716635478479e-05 -3.272612705073615e-10 -6.4608867339070833e-05 3.1250283133142786e-05 -4.0353875920804021e-10 -5.6251171974855967e-05 3.1250344892494156e-05 -3.2956358942979852e-10 -7.5001159201196221e-05 2.5459716635478479e-05 -3.272612705073615e-10 -6.4608867339070833e-05 3.1250283133142786e-05 -4.0353875920804021e-10 -5.6251171974855967e-05 3.1250313606031091e-05 -2.3928946518674833e-10 -4.7782543948903008e-05 3.1250352941523596e-05 -2.1113547580255809e-10 -6.6156519726028661e-05 3.1250313606031091e-05 -2.3928946518674833e-10 -4.7782543948903008e-05 3.1250283133142779e-05 -4.0353875920804021e-10 -5.6251171974855967e-05 2.5459716635478479e-05 -3.272612705073615e-10 -6.4608867339070833e-05 2.6104987509020227e-05 -3.0293615844292431e-10 -4.5966742151897988e-05 2.5459716635478479e-05 -3.272612705073615e-10 -6.4608867339070833e-05 2.6104987509020234e-05 -3.0293615844292436e-10 -4.5966742151897995e-05 2.1553335857433199e-05 -2.5664131924519437e-10 -5.0794670075532992e-05 2.4367126907436483e-05 -1.7508082201657507e-10 -4.6889832070553e-05 2.5459716635478479e-05 -3.272612705073615e-10 -6.4608867339070833e-05 3.1250313606031091e-05 -2.3928946518674833e-10 -4.7782543948903008e-05 2.6104987509020234e-05 -3.0293615844292436e-10 -4.5966742151897995e-05 2.4367126907436483e-05 -1.7508082201657507e-10 -4.6889832070553e-05 2.1553335857433199e-05 -2.5664131924519437e-10 -5.0794670075532992e-05 1.875660783718468e-05 -3.6998383870866295e-10 -6.3330935304123164e-05 2.1482446993922459e-05 -1.2496174631620037e-10 -6.444738641612375e-05 1.5648250926865464e-05 -1.6177158778110248e-10 -4.9582261587321812e-05 1.875660783718468e-05 -3.6998383870866295e-10 -6.3330935304123164e-05 2.5459716635478479e-05 -3.272612705073615e-10 -6.4608867339070833e-05 2.1553335857433199e-05 -2.5664131924519437e-10 -5.0794670075532992e-05 2.1482446993922459e-05 -1.2496174631620037e-10 -6.444738641612375e-05 2.5459716635478479e-05 -3.272612705073615e-10 -6.4608867339070833e-05 2.1553335857433199e-05 -2.5664131924519437e-10 -5.0794670075532992e-05 2.1482446993922459e-05 -1.2496174631620037e-10 -6.4447386416123737e-05 2.4367126907436483e-05 -1.7508082201657505e-10 -4.6889832070553007e-05 2.1702754145474042e-05 -3.0165051192386363e-10 -7.8844744599910503e-05 2.1482446993922459e-05 -1.2496174631620037e-10 -6.444738641612375e-05 1.8756607837184683e-05 -3.6998383870866295e-10 -6.3330935304123164e-05 1.565174560537825e-05 -1.9234266502301461e-10 -7.320547602084953e-05 2.1482446993922459e-05 -1.2496174631620037e-10 -6.444738641612375e-05 2.1553335857433199e-05 -2.5664131924519437e-10 -5.0794670075532999e-05 1.5648250926865461e-05 -1.6177158778110246e-10 -4.9582261587321798e-05 2.4367126907436483e-05 -1.7508082201657507e-10 -4.6889832070553e-05 2.1482446993922459e-05 -1.2496174631620037e-10 -6.444738641612375e-05 1.5648250926865461e-05 -1.6177158778110243e-10 -4.9582261587321798e-05 1.875660783718468e-05 -3.6998383870866295e-10 -6.3330935304123164e-05 1.565174560537825e-05 -1.9234266502301461e-10 -7.320547602084953e-05 1.875660783718468e-05 -3.6998383870866295e-10 -6.3330935304123164e-05 2.5459716635478479e-05 -3.272612705073615e-10 -6.4608867339070833e-05 2.1482446993922459e-05 -1.2496174631620037e-10 -6.444738641612375e-05 2.5500251711869199e-05 -1.6618977478272538e-10 -7.6500683162135236e-05 2.1553335857433199e-05 -2.5664131924519437e-10 -5.0794670075532992e-05 1.5625240988077201e-05 -3.190795172380481e-10 -4.5037149767354859e-05 1.875660783718468e-05 -3.6998383870866295e-10 -6.3330935304123164e-05 1.5648250926865464e-05 -1.6177158778110256e-10 -4.9582261587321805e-05 1.5625249668590073e-05 -1.8999680186084393e-12 -4.6876053609949647e-05 2.1482446993922459e-05 -1.2496174631620037e-10 -6.4447386416123737e-05 1.5567843262398814e-05 1.4990089660868258e-11 -7.0356301486268353e-05 1.5648250926865464e-05 -1.6177158778110248e-10 -4.9582261587321805e-05 2.1482446993922459e-05 -1.2496174631620037e-10 -6.444738641612375e-05 1.5625249668590073e-05 -1.8999680186084514e-12 -4.6876053609949633e-05 2.345185126957878e-05 1.7115797635870101e-11 -4.6722951340684619e-05 1.5648250926865461e-05 -1.6177158778110251e-10 -4.9582261587321778e-05 2.1482446993922459e-05 -1.2496174631620037e-10 -6.444738641612375e-05 2.3451851269578777e-05 1.7115797635870147e-11 -4.6722951340684633e-05 1.5625249668590073e-05 -1.8999680186084393e-12 -4.6876053609949647e-05 1.5567843262398821e-05 1.4990089660868252e-11 -7.0356301486268366e-05 2.3451851269578777e-05 1.7115797635870108e-11 -4.6722951340684626e-05 1.5567843262398818e-05 1.4990089660868216e-11 -7.0356301486268366e-05 2.1482446993922459e-05 -1.2496174631620037e-10 -6.444738641612375e-05 2.438135862176514e-05 -4.9667039621411612e-12 -7.3144022947290257e-05 1.5567843262398818e-05 1.4990089660868242e-11 -7.0356301486268353e-05 1.5648250926865464e-05 -1.6177158778110248e-10 -4.9582261587321805e-05 2.1482446993922459e-05 -1.2496174631620037e-10 -6.444738641612375e-05 1.565174560537825e-05 -1.9234266502301461e-10 -7.320547602084953e-05 2.1482446993922459e-05 -1.2496174631620037e-10 -6.444738641612375e-05 1.5648250926865461e-05 -1.6177158778110246e-10 -4.9582261587321798e-05 2.3451851269578777e-05 1.7115797635870105e-11 -4.6722951340684626e-05 2.4367126907436483e-05 -1.7508082201657507e-10 -4.6889832070553e-05 1.4316695783201491e-05 -1.3145605776550295e-10 -9.375086561988022e-05 1.5567843262398818e-05 1.4990089660868242e-11 -7.0356301486268353e-05 1.8735514670538869e-05 -1.1173454992435692e-10 -9.3750948011503434e-05 1.565174560537825e-05 -1.9234266502301461e-10 -7.320547602084953e-05 1.8735514670538869e-05 -1.1173454992435692e-10 -9.3750948011503434e-05 2.1482446993922459e-05 -1.2496174631620035e-10 -6.4447386416123737e-05 2.2726759444664395e-05 -7.0912728923031241e-11 -9.3751019541775835e-05 2.5500251711869199e-05 -1.6618977478272538e-10 -7.6500683162135236e-05 1.8735514670538869e-05 -1.1173454992435692e-10 -9.3750948011503434e-05 2.1482446993922459e-05 -1.2496174631620037e-10 -6.444738641612375e-05 1.5567843262398818e-05 1.4990089660868187e-11 -7.0356301486268353e-05 2.438135862176514e-05 -4.9667039621411612e-12 -7.3144022947290257e-05 1.8735514670538869e-05 -1.1173454992435692e-10 -9.3750948011503434e-05 1.565174560537825e-05 -1.9234266502301461e-10 -7.320547602084953e-05 2.1482446993922459e-05 -1.2496174631620043e-10 -6.444738641612375e-05 2.5500251711869199e-05 -1.6618977478272538e-10 -7.6500683162135236e-05 1.8735514670538869e-05 -1.1173454992435692e-10 -9.3750948011503434e-05 1.5567843262398821e-05 1.4990089660868226e-11 -7.0356301486268353e-05 2.1482446993922459e-05 -1.2496174631620032e-10 -6.444738641612375e-05 1.565174560537825e-05 -1.9234266502301461e-10 -7.320547602084953e-05 1.8735514670538869e-05 -1.1173454992435692e-10 -9.3750948011503434e-05 2.2726759444664395e-05 -7.0912728923031253e-11 -9.3751019541775822e-05 2.1482446993922459e-05 -1.2496174631620037e-10 -6.444738641612375e-05 2.438135862176514e-05 -4.9667039621411612e-12 -7.3144022947290257e-05 1.8735514670538869e-05 -1.1173454992435692e-10 -9.3750948011503434e-05 1.5567843262398818e-05 1.4990089660868242e-11 -7.0356301486268353e-05 2.103809346549241e-05 1.6836653954578505e-11 -9.3750983641495027e-05 2.438135862176514e-05 -4.9667039621411612e-12 -7.3144022947290257e-05 2.2052222583424722e-05 -1.9724084113965822e-10 -9.3751005467159797e-05 1.8735514670538869e-05 -1.1173454992435692e-10 -9.3750948011503434e-05 2.2726759444664395e-05 -7.0912728923031241e-11 -9.3751019541775822e-05 2.5500251711869199e-05 -1.6618977478272538e-10 -7.6500683162135236e-05 1.8735514670538869e-05 -1.1173454992435692e-10 -9.3750948011503434e-05 2.1038093465492413e-05 1.6836653954578502e-11 -9.3750983641495027e-05 2.2726759444664395e-05 -7.0912728923031241e-11 -9.3751019541775822e-05 2.438135862176514e-05 -4.9667039621411612e-12 -7.3144022947290257e-05 1.4316695783201491e-05 -1.3145605776550295e-10 -9.375086561988022e-05 1.6238358289679856e-05 -3.7326164822415473e-12 -9.3750900404310534e-05 1.8735514670538869e-05 -1.1173454992435692e-10 -9.3750948011503434e-05 1.5567843262398818e-05 1.4990089660868242e-11 -7.0356301486268353e-05 2.1038093465492413e-05 1.6836653954578502e-11 -9.3750983641495027e-05 1.8735514670538866e-05 -1.1173454992435691e-10 -9.3750948011503434e-05 1.6238358289679859e-05 -3.7326164822415441e-12 -9.3750900404310534e-05 1.5567843262398818e-05 1.4990089660868242e-11 -7.0356301486268353e-05 1.8735514670538869e-05 -1.1173454992435692e-10 -9.3750948011503434e-05 1.5927496455617845e-05 -2.4239306112114728e-10 -9.3750897834651964e-05 1.4316695783201491e-05 -1.3145605776550295e-10 -9.375086561988022e-05 1.565174560537825e-05 -1.9234266502301461e-10 -7.320547602084953e-05 1.5927496455617845e-05 -2.4239306112114728e-10 -9.3750897834651964e-05 2.2052222583424722e-05 -1.9724084113965822e-10 -9.3751005467159797e-05 2.1702754145474042e-05 -3.0165051192386363e-10 -7.884474459991049e-05 1.5651745605378247e-05 -1.9234266502301461e-10 -7.3205476020849516e-05 2.1482446993922459e-05 -1.2496174631620037e-10 -6.444738641612375e-05 1.565174560537825e-05 -1.9234266502301461e-10 -7.320547602084953e-05 2.1702754145474042e-05 -3.0165051192386363e-10 -7.8844744599910503e-05 2.5500251711869199e-05 -1.6618977478272538e-10 -7.6500683162135236e-05 2.2052222583424722e-05 -1.9724084113965822e-10 -9.3751005467159797e-05 2.1702754145474042e-05 -3.0165051192386363e-10 -7.8844744599910517e-05 1.565174560537825e-05 -1.9234266502301461e-10 -7.320547602084953e-05 2.5500251711869199e-05 -1.6618977478272535e-10 -7.6500683162135223e-05 2.2052222583424722e-05 -1.9724084113965822e-10 -9.3751005467159797e-05 1.565174560537825e-05 -1.9234266502301461e-10 -7.320547602084953e-05 1.8735514670538869e-05 -1.1173454992435692e-10 -9.3750948011503434e-05 2.5500251711869199e-05 -1.6618977478272532e-10 -7.6500683162135223e-05 2.2052222583424722e-05 -1.9724084113965822e-10 -9.3751005467159797e-05 1.5927496455617845e-05 -2.4239306112114728e-10 -9.3750897834651964e-05 1.8735514670538869e-05 -1.1173454992435692e-10 -9.3750948011503434e-05 1.565174560537825e-05 -1.9234266502301463e-10 -7.3205476020849543e-05 1.875660783718468e-05 -3.6998383870866295e-10 -6.3330935304123164e-05 2.1482446993922452e-05 -1.2496174631620022e-10 -6.4447386416123764e-05 2.1702754145474042e-05 -3.0165051192386363e-10 -7.8844744599910503e-05 2.5500251711869199e-05 -1.6618977478272538e-10 -7.6500683162135236e-05 2.1702754145474042e-05 -3.0165051192386363e-10 -7.8844744599910503e-05 1.875660783718468e-05 -3.6998383870866295e-10 -6.3330935304123164e-05 1.5574217527082234e-05 -3.3049402307369033e-10 -7.7601455638267436e-05 1.565174560537825e-05 -1.9234266502301461e-10 -7.320547602084953e-05 2.1702754145474042e-05 -3.0165051192386363e-10 -7.8844744599910503e-05 1.5574217527082234e-05 -3.3049402307369033e-10 -7.7601455638267436e-05 1.5927496455617845e-05 -2.4239306112114728e-10 -9.3750897834651964e-05 1.565174560537825e-05 -1.9234266502301461e-10 -7.320547602084953e-05 1.8750424953333886e-05 -3.612509623254236e-10 -9.3750970122339369e-05 1.5574217527082234e-05 -3.3049402307369033e-10 -7.7601455638267436e-05 1.5927496455617845e-05 -2.4239306112114728e-10 -9.3750897834651964e-05 2.1702754145474042e-05 -3.0165051192386363e-10 -7.8844744599910503e-05 1.5927496455617845e-05 -2.4239306112114728e-10 -9.3750897834651964e-05 1.2500306858093601e-05 -3.8664393901389441e-10 -9.3750867991639029e-05 1.5574217527082234e-05 -3.3049402307369038e-10 -7.7601455638267436e-05 1.8750424953333886e-05 -3.612509623254236e-10 -9.3750970122339369e-05 1.5927496455617845e-05 -2.4239306112114728e-10 -9.3750897834651964e-05 2.2052222583424722e-05 -1.9724084113965822e-10 -9.3751005467159797e-05 1.8750424953333886e-05 -3.6125096232542355e-10 -9.3750970122339356e-05 2.1702754145474042e-05 -3.0165051192386363e-10 -7.8844744599910503e-05 2.2052222583424722e-05 -1.9724084113965822e-10 -9.3751005467159797e-05 1.8750424953333886e-05 -3.612509623254236e-10 -9.3750970122339369e-05 2.1702754145474042e-05 -3.0165051192386363e-10 -7.8844744599910503e-05 2.5000475776011475e-05 -2.9343051793468245e-10 -9.3751084587933721e-05 1.875660783718468e-05 -3.6998383870866295e-10 -6.3330935304123164e-05 2.1702754145474042e-05 -3.0165051192386363e-10 -7.8844744599910517e-05 2.5459716635478479e-05 -3.272612705073615e-10 -6.4608867339070833e-05 2.5500251711869199e-05 -1.6618977478272538e-10 -7.6500683162135236e-05 2.2052222583424722e-05 -1.9724084113965822e-10 -9.3751005467159797e-05 2.667515272556019e-05 -2.0389337805724951e-10 -9.3751095399599222e-05 2.1702754145474042e-05 -3.0165051192386358e-10 -7.8844744599910503e-05 2.5500251711869203e-05 -1.6618977478272535e-10 -7.6500683162135236e-05 2.667515272556019e-05 -2.0389337805724951e-10 -9.3751095399599222e-05 2.2052222583424722e-05 -1.9724084113965822e-10 -9.3751005467159797e-05 2.6617243017188657e-05 -1.2310903644963169e-10 -9.3751099590614636e-05 2.5500251711869199e-05 -1.6618977478272538e-10 -7.6500683162135236e-05 3.1250352941523596e-05 -2.1113547580255809e-10 -6.6156519726028661e-05 2.5459716635478479e-05 -3.272612705073615e-10 -6.4608867339070847e-05 2.6675085480871389e-05 -2.4293482227318908e-10 -8.0025162241295696e-05 2.5500251711869196e-05 -1.6618977478272535e-10 -7.6500683162135223e-05 2.1702754145474042e-05 -3.0165051192386363e-10 -7.8844744599910503e-05 2.6675085480871389e-05 -2.4293482227318908e-10 -8.0025162241295696e-05 2.5459716635478479e-05 -3.272612705073615e-10 -6.4608867339070833e-05 2.5500251711869199e-05 -1.6618977478272538e-10 -7.6500683162135236e-05 2.6675085480871392e-05 -2.4293482227318908e-10 -8.0025162241295696e-05 2.1702754145474042e-05 -3.0165051192386363e-10 -7.8844744599910503e-05 2.667515272556019e-05 -2.0389337805724951e-10 -9.3751095399599222e-05 2.5500251711869199e-05 -1.6618977478272538e-10 -7.6500683162135236e-05 2.5000475776011475e-05 -2.9343051793468245e-10 -9.3751084587933721e-05 2.1702754145474039e-05 -3.0165051192386363e-10 -7.884474459991049e-05 2.2052222583424722e-05 -1.9724084113965822e-10 -9.3751005467159797e-05 2.667515272556019e-05 -2.0389337805724951e-10 -9.3751095399599222e-05 2.5000475776011475e-05 -2.9343051793468245e-10 -9.3751084587933721e-05 2.6675085480871396e-05 -2.4293482227318908e-10 -8.0025162241295696e-05 2.1702754145474042e-05 -3.0165051192386363e-10 -7.8844744599910503e-05 2.667515272556019e-05 -2.0389337805724951e-10 -9.3751095399599222e-05 3.1250446262871607e-05 -3.3280797480673399e-10 -9.3751194303034089e-05 3.1250406376624965e-05 -2.1183375483349171e-10 -8.0025217964452104e-05 2.6675085480871389e-05 -2.4293482227318908e-10 -8.0025162241295696e-05 2.667515272556019e-05 -2.0389337805724951e-10 -9.3751095399599222e-05 2.5000475776011475e-05 -2.9343051793468245e-10 -9.3751084587933721e-05 3.1250446262871607e-05 -3.3280797480673399e-10 -9.3751194303034102e-05 2.6675085480871392e-05 -2.4293482227318908e-10 -8.0025162241295696e-05 2.667515272556019e-05 -2.0389337805724951e-10 -9.3751095399599222e-05 2.667515272556019e-05 -2.0389337805724951e-10 -9.3751095399599222e-05 3.1250446262871607e-05 -3.3280797480673399e-10 -9.3751194303034089e-05 3.1250406376624965e-05 -2.1183375483349171e-10 -8.0025217964452104e-05 3.1250463206873703e-05 -1.8047923154392547e-10 -9.3751177012540887e-05 2.6675085480871392e-05 -2.4293482227318908e-10 -8.0025162241295696e-05 3.1250406376624971e-05 -2.1183375483349171e-10 -8.0025217964452104e-05 3.1250446262871607e-05 -3.3280797480673399e-10 -9.3751194303034089e-05 3.1250344892494156e-05 -3.2956358942979852e-10 -7.5001159201196221e-05 2.6675085480871392e-05 -2.4293482227318908e-10 -8.0025162241295696e-05 2.5459716635478479e-05 -3.272612705073615e-10 -6.4608867339070833e-05 3.1250352941523596e-05 -2.1113547580255812e-10 -6.6156519726028661e-05 3.1250344892494156e-05 -3.2956358942979852e-10 -7.5001159201196221e-05 3.1250352941523596e-05 -2.1113547580255809e-10 -6.6156519726028661e-05 3.1250406376624965e-05 -2.1183375483349168e-10 -8.0025217964452104e-05 2.6675085480871392e-05 -2.4293482227318908e-10 -8.0025162241295696e-05 3.1250344892494156e-05 -3.2956358942979852e-10 -7.5001159201196221e-05 3.1250406376624965e-05 -2.1183375483349171e-10 -8.0025217964452104e-05 3.1250396761358611e-05 -1.2179353959244985e-10 -7.9851508095619674e-05 3.1250352941523596e-05 -2.1113547580255809e-10 -6.6156519726028661e-05 2.5500251711869199e-05 -1.6618977478272538e-10 -7.6500683162135236e-05 3.1250352941523596e-05 -2.1113547580255809e-10 -6.6156519726028661e-05 2.6675085480871392e-05 -2.4293482227318908e-10 -8.0025162241295696e-05 3.1250406376624965e-05 -2.1183375483349171e-10 -8.0025217964452104e-05 2.5500251711869199e-05 -1.6618977478272538e-10 -7.6500683162135236e-05 2.667515272556019e-05 -2.0389337805724951e-10 -9.3751095399599222e-05 2.6617243017188654e-05 -1.2310903644963167e-10 -9.3751099590614636e-05 3.1250463206873703e-05 -1.8047923154392547e-10 -9.3751177012540887e-05 2.5500251711869199e-05 -1.6618977478272538e-10 -7.6500683162135236e-05 3.1250406376624965e-05 -2.1183375483349171e-10 -8.0025217964452104e-05 2.667515272556019e-05 -2.0389337805724949e-10 -9.3751095399599222e-05 3.1250463206873703e-05 -1.8047923154392547e-10 -9.3751177012540887e-05 2.5500251711869199e-05 -1.6618977478272538e-10 -7.6500683162135236e-05 3.1250406376624965e-05 -2.1183375483349171e-10 -8.0025217964452104e-05 3.1250463206873703e-05 -1.8047923154392547e-10 -9.3751177012540887e-05 3.1250396761358611e-05 -1.2179353959244985e-10 -7.9851508095619674e-05 2.5500251711869199e-05 -1.6618977478272538e-10 -7.6500683162135236e-05 2.6675085480871392e-05 -2.4293482227318908e-10 -8.0025162241295696e-05 2.667515272556019e-05 -2.0389337805724951e-10 -9.3751095399599222e-05 3.1250406376624965e-05 -2.1183375483349171e-10 -8.0025217964452104e-05 2.5500251711869206e-05 -1.6618977478272543e-10 -7.6500683162135236e-05 3.1250463206873703e-05 -1.8047923154392547e-10 -9.3751177012540887e-05 3.1250396761358611e-05 -1.2179353959244985e-10 -7.9851508095619687e-05 2.6617243017188657e-05 -1.2310903644963172e-10 -9.3751099590614636e-05 3.1250453433842862e-05 -6.1115755561483224e-11 -9.3751178915073394e-05 3.1250463206873703e-05 -1.8047923154392547e-10 -9.3751177012540887e-05 2.6617243017188657e-05 -1.2310903644963167e-10 -9.3751099590614649e-05 3.1250396761358611e-05 -1.2179353959244985e-10 -7.9851508095619674e-05 2.5500251711869196e-05 -1.661897747827254e-10 -7.6500683162135236e-05 3.1250396761358611e-05 -1.2179353959244985e-10 -7.9851508095619674e-05 2.6617243017188657e-05 -1.2310903644963167e-10 -9.3751099590614649e-05 2.438135862176514e-05 -4.9667039621411572e-12 -7.3144022947290257e-05 2.5500251711869206e-05 -1.6618977478272538e-10 -7.650068316213525e-05 2.1482446993922459e-05 -1.2496174631620037e-10 -6.444738641612375e-05 2.438135862176514e-05 -4.9667039621411725e-12 -7.3144022947290257e-05 2.2726759444664395e-05 -7.0912728923031279e-11 -9.3751019541775835e-05 2.5500251711869199e-05 -1.6618977478272538e-10 -7.6500683162135236e-05 3.1250363807519999e-05 -7.3377364523434553e-11 -6.8180115844062087e-05 3.1250396761358611e-05 -1.2179353959244985e-10 -7.9851508095619674e-05 2.438135862176514e-05 -4.9667039621411628e-12 -7.3144022947290257e-05 2.5500251711869192e-05 -1.661897747827254e-10 -7.6500683162135236e-05 2.6617243017188657e-05 -1.2310903644963169e-10 -9.3751099590614636e-05 2.2726759444664395e-05 -7.0912728923031241e-11 -9.3751019541775822e-05 2.438135862176514e-05 -4.9667039621411612e-12 -7.3144022947290257e-05 2.5500251711869196e-05 -1.6618977478272538e-10 -7.6500683162135236e-05 3.1250363807519999e-05 -7.3377364523434553e-11 -6.8180115844062087e-05 2.4381358621765143e-05 -4.9667039621411491e-12 -7.3144022947290257e-05 2.1482446993922462e-05 -1.249617463162004e-10 -6.4447386416123737e-05 2.5500251711869196e-05 -1.6618977478272538e-10 -7.6500683162135236e-05 2.6617243017188657e-05 -1.2310903644963169e-10 -9.3751099590614636e-05 3.1250396761358611e-05 -1.2179353959244982e-10 -7.9851508095619674e-05 3.1250387106685161e-05 -7.9009866313702277e-12 -7.8931092616238972e-05 3.1250453433842862e-05 -6.1115755561483224e-11 -9.3751178915073394e-05 2.2726759444664395e-05 -7.0912728923031241e-11 -9.3751019541775822e-05 2.6617243017188654e-05 -1.2310903644963169e-10 -9.3751099590614622e-05 2.2052222583424722e-05 -1.9724084113965822e-10 -9.3751005467159797e-05 2.5500251711869199e-05 -1.6618977478272538e-10 -7.6500683162135236e-05 3.1250352941523596e-05 -2.1113547580255809e-10 -6.6156519726028661e-05 3.1250396761358611e-05 -1.2179353959244985e-10 -7.9851508095619674e-05 3.1250363807519999e-05 -7.3377364523434553e-11 -6.8180115844062087e-05 2.5500251711869199e-05 -1.6618977478272538e-10 -7.6500683162135236e-05 2.6617243017188657e-05 -1.2310903644963169e-10 -9.3751099590614636e-05 3.1250387106685161e-05 -7.9009866313702164e-12 -7.8931092616238958e-05 3.1250396761358611e-05 -1.2179353959244985e-10 -7.9851508095619674e-05 2.438135862176514e-05 -4.9667039621411612e-12 -7.3144022947290257e-05 3.1250396761358611e-05 -1.2179353959244985e-10 -7.9851508095619674e-05 3.1250387106685161e-05 -7.9009866313702454e-12 -7.8931092616238972e-05 3.1250363807519999e-05 -7.3377364523434553e-11 -6.8180115844062087e-05 2.438135862176514e-05 -4.9667039621411612e-12 -7.3144022947290257e-05 3.1250363807519999e-05 -7.3377364523434553e-11 -6.8180115844062087e-05 3.1250387106685161e-05 -7.9009866313702325e-12 -7.8931092616238972e-05 3.1250335472023012e-05 2.030202379140873e-11 -6.311413465668735e-05 2.438135862176514e-05 -4.9667039621411612e-12 -7.3144022947290257e-05 2.2726759444664395e-05 -7.0912728923031241e-11 -9.3751019541775822e-05 2.1038093465492413e-05 1.6836653954578499e-11 -9.3750983641495027e-05 2.6310439027021986e-05 -9.3441091520763063e-12 -9.3751093724067031e-05 2.438135862176514e-05 -4.9667039621411612e-12 -7.3144022947290257e-05 2.6310439027021986e-05 -9.3441091520763079e-12 -9.3751093724067045e-05 2.6617243017188657e-05 -1.2310903644963169e-10 -9.3751099590614636e-05 2.2726759444664395e-05 -7.0912728923031241e-11 -9.3751019541775822e-05 2.438135862176514e-05 -4.9667039621411612e-12 -7.3144022947290257e-05 2.6310439027021986e-05 -9.3441091520763079e-12 -9.3751093724067045e-05 3.1250387106685161e-05 -7.9009866313702277e-12 -7.8931092616238972e-05 2.6617243017188657e-05 -1.2310903644963169e-10 -9.3751099590614636e-05 2.438135862176514e-05 -4.9667039621411604e-12 -7.3144022947290257e-05 3.1250453433842862e-05 -6.1115755561483224e-11 -9.3751178915073394e-05 3.1250387106685161e-05 -7.9009866313702277e-12 -7.8931092616238972e-05 2.6310439027021986e-05 -9.3441091520763079e-12 -9.3751093724067045e-05 3.1250451562097414e-05 6.0869495873022721e-11 -9.3751172772533955e-05 3.1250387106685161e-05 -7.9009866313702277e-12 -7.8931092616238972e-05 2.6310439027021986e-05 -9.3441091520762853e-12 -9.3751093724067059e-05 2.6617243017188661e-05 -1.2310903644963172e-10 -9.3751099590614636e-05 3.1250453433842862e-05 -6.1115755561483224e-11 -9.3751178915073394e-05 2.5262908994879448e-05 1.1062123515143292e-10 -9.3751060761879988e-05 2.4381358621765147e-05 -4.9667039621411766e-12 -7.3144022947290257e-05 2.1453201810785625e-05 1.0912086029599915e-10 -6.4359652562801686e-05 2.4276382446611489e-05 1.849712567298346e-10 -7.6561788016097607e-05 2.5262908994879448e-05 1.1062123515143292e-10 -9.3751060761879988e-05 3.1250375586883894e-05 1.1425815358801795e-10 -7.5788534445546182e-05 2.438135862176514e-05 -4.9667039621411612e-12 -7.3144022947290257e-05 2.4276382446611489e-05 1.849712567298346e-10 -7.6561788016097607e-05 3.1250451562097414e-05 6.0869495873022721e-11 -9.3751172772533955e-05 3.1250387106685161e-05 -7.9009866313702277e-12 -7.8931092616238972e-05 2.6310439027021986e-05 -9.3441091520763079e-12 -9.3751093724067045e-05 3.1250375586883894e-05 1.1425815358801795e-10 -7.5788534445546195e-05 2.1453201810785632e-05 1.0912086029599907e-10 -6.4359652562801659e-05 2.438135862176514e-05 -4.9667039621411532e-12 -7.3144022947290271e-05 3.1250375586883894e-05 1.1425815358801796e-10 -7.5788534445546209e-05 2.4276382446611489e-05 1.849712567298346e-10 -7.6561788016097621e-05 2.6310439027021986e-05 -9.3441091520763079e-12 -9.3751093724067045e-05 3.1250451562097414e-05 6.0869495873022721e-11 -9.3751172772533955e-05 3.1250375586883894e-05 1.1425815358801795e-10 -7.5788534445546195e-05 2.5262908994879448e-05 1.1062123515143292e-10 -9.3751060761879988e-05 3.1250451562097414e-05 6.0869495873022721e-11 -9.3751172772533955e-05 3.1250375586883894e-05 1.1425815358801795e-10 -7.5788534445546195e-05 2.5262908994879448e-05 1.1062123515143292e-10 -9.3751060761879988e-05 3.1250449911267185e-05 1.8256602045315394e-10 -9.3751164656493116e-05 2.6310439027021986e-05 -9.3441091520763079e-12 -9.3751093724067045e-05 2.1038093465492413e-05 1.6836653954578502e-11 -9.3750983641495027e-05 2.5262908994879448e-05 1.1062123515143292e-10 -9.3751060761879988e-05 2.438135862176514e-05 -4.9667039621411612e-12 -7.3144022947290257e-05 2.6310439027021986e-05 -9.3441091520763079e-12 -9.3751093724067045e-05 2.5262908994879448e-05 1.1062123515143292e-10 -9.3751060761879988e-05 3.1250375586883894e-05 1.1425815358801795e-10 -7.5788534445546195e-05 2.438135862176514e-05 -4.9667039621411612e-12 -7.3144022947290257e-05 3.1250375586883894e-05 1.1425815358801795e-10 -7.5788534445546195e-05 3.1250335472023012e-05 2.0302023791408723e-11 -6.3114134656687336e-05 3.1250387106685161e-05 -7.9009866313702277e-12 -7.8931092616238972e-05 2.438135862176514e-05 -4.9667039621411612e-12 -7.3144022947290257e-05 3.1250375586883894e-05 1.1425815358801795e-10 -7.5788534445546195e-05 3.1250387106685161e-05 -7.9009866313702277e-12 -7.8931092616238972e-05 2.6310439027021986e-05 -9.3441091520763031e-12 -9.3751093724067045e-05 2.438135862176514e-05 -4.9667039621411612e-12 -7.3144022947290257e-05 3.1250325548743e-05 1.2307284842127229e-10 -5.7204140082053009e-05 2.4381358621765136e-05 -4.9667039621412089e-12 -7.3144022947290257e-05 2.3451851269578777e-05 1.7115797635870117e-11 -4.6722951340684626e-05 3.1250335472023012e-05 2.030202379140873e-11 -6.311413465668735e-05 3.1250325548743e-05 1.2307284842127229e-10 -5.7204140082053009e-05 2.3451851269578777e-05 1.7115797635870085e-11 -4.6722951340684626e-05 2.1453201810785628e-05 1.091208602959991e-10 -6.4359652562801645e-05 2.4179893218211428e-05 2.0373381566972129e-10 -4.6715871005660903e-05 3.1250325548743e-05 1.2307284842127229e-10 -5.7204140082053009e-05 2.1453201810785635e-05 1.091208602959991e-10 -6.4359652562801659e-05 3.1250346312046688e-05 2.2335500259364782e-10 -6.5027576534355859e-05 2.4179893218211428e-05 2.0373381566972127e-10 -4.6715871005660903e-05 3.1250375586883894e-05 1.1425815358801795e-10 -7.5788534445546195e-05 3.1250325548743007e-05 1.2307284842127229e-10 -5.7204140082053009e-05 2.1453201810785628e-05 1.0912086029599914e-10 -6.4359652562801659e-05 2.4276382446611489e-05 1.849712567298346e-10 -7.6561788016097607e-05 3.1250325548743e-05 1.2307284842127229e-10 -5.7204140082053009e-05 3.1250310039194121e-05 1.203837182397783e-10 -4.2950212802557023e-05 2.3451851269578777e-05 1.7115797635870108e-11 -4.6722951340684626e-05 2.4179893218211428e-05 2.0373381566972127e-10 -4.6715871005660896e-05 2.3451851269578777e-05 1.7115797635870108e-11 -4.6722951340684626e-05 2.4381358621765136e-05 -4.9667039621411685e-12 -7.3144022947290257e-05 3.1250325548743e-05 1.2307284842127229e-10 -5.7204140082053009e-05 2.1453201810785632e-05 1.0912086029599907e-10 -6.4359652562801659e-05 3.1250375586883894e-05 1.1425815358801795e-10 -7.5788534445546195e-05 2.1453201810785632e-05 1.0912086029599907e-10 -6.4359652562801659e-05 3.1250325548743e-05 1.2307284842127229e-10 -5.7204140082053009e-05 2.438135862176514e-05 -4.9667039621411612e-12 -7.3144022947290257e-05 3.1250335472023012e-05 2.030202379140873e-11 -6.311413465668735e-05 3.1250375586883901e-05 1.1425815358801794e-10 -7.5788534445546209e-05 3.1250325548743e-05 1.2307284842127229e-10 -5.7204140082053009e-05 2.438135862176514e-05 -4.9667039621411596e-12 -7.3144022947290257e-05 3.1250325548743e-05 1.2307284842127229e-10 -5.7204140082053009e-05 3.1250304251420045e-05 -4.3724613660548552e-12 -4.8715092842503972e-05 3.1250335472023012e-05 2.0302023791408727e-11 -6.311413465668735e-05 2.3451851269578777e-05 1.7115797635870108e-11 -4.6722951340684626e-05 3.1250325548743e-05 1.2307284842127229e-10 -5.7204140082053009e-05 3.1250310039194121e-05 1.203837182397783e-10 -4.2950212802557023e-05 3.1250304251420045e-05 -4.3724613660548609e-12 -4.8715092842503972e-05 2.3451851269578777e-05 1.7115797635870108e-11 -4.6722951340684626e-05 3.1250325548743e-05 1.2307284842127229e-10 -5.7204140082053009e-05 3.1250310445073213e-05 2.1041672371574145e-10 -4.7629270880727782e-05 3.1250310039194121e-05 1.203837182397783e-10 -4.2950212802557023e-05 2.4179893218211431e-05 2.0373381566972127e-10 -4.6715871005660903e-05 3.1250346312046688e-05 2.2335500259364782e-10 -6.5027576534355859e-05 2.4179893218211431e-05 2.0373381566972127e-10 -4.6715871005660903e-05 2.1453201810785635e-05 1.0912086029599898e-10 -6.4359652562801659e-05 2.4276382446611489e-05 1.849712567298346e-10 -7.6561788016097607e-05 2.1453201810785632e-05 1.0912086029599907e-10 -6.4359652562801659e-05 2.4179893218211428e-05 2.0373381566972124e-10 -4.6715871005660903e-05 2.5421033027750791e-05 3.2066206500936777e-10 -6.4145752723658811e-05 2.4276382446611495e-05 1.849712567298346e-10 -7.6561788016097621e-05 3.1250346312046688e-05 2.2335500259364782e-10 -6.5027576534355859e-05 2.1453201810785628e-05 1.0912086029599918e-10 -6.4359652562801645e-05 3.1250325548743e-05 1.2307284842127229e-10 -5.7204140082053009e-05 2.4276382446611489e-05 1.849712567298346e-10 -7.6561788016097607e-05 3.1250375586883894e-05 1.1425815358801795e-10 -7.5788534445546195e-05 3.1250346312046688e-05 2.2335500259364782e-10 -6.5027576534355859e-05 3.1250325548743e-05 1.2307284842127229e-10 -5.7204140082053009e-05 2.4276382446611489e-05 1.849712567298346e-10 -7.6561788016097607e-05 3.1250346312046688e-05 2.2335500259364782e-10 -6.5027576534355859e-05 2.5421033027750788e-05 3.2066206500936782e-10 -6.4145752723658811e-05 2.4179893218211431e-05 2.0373381566972127e-10 -4.6715871005660903e-05 2.4276382446611489e-05 1.849712567298346e-10 -7.6561788016097607e-05 3.1250310445073213e-05 2.1041672371574148e-10 -4.7629270880727782e-05 3.1250325548743e-05 1.2307284842127229e-10 -5.7204140082053009e-05 3.1250346312046688e-05 2.2335500259364782e-10 -6.5027576534355859e-05 2.4179893218211431e-05 2.0373381566972127e-10 -4.6715871005660903e-05 3.1250346312046688e-05 2.2335500259364782e-10 -6.5027576534355859e-05 2.7113566650669102e-05 3.0051971500196878e-10 -4.7446280988093808e-05 3.1250310445073213e-05 2.1041672371574148e-10 -4.7629270880727782e-05 2.4179893218211431e-05 2.0373381566972127e-10 -4.6715871005660903e-05 3.1250308605909694e-05 3.260118505474009e-10 -5.6251155855532162e-05 3.1250310445073213e-05 2.1041672371574148e-10 -4.7629270880727782e-05 3.1250346312046688e-05 2.2335500259364782e-10 -6.5027576534355859e-05 2.7113566650669102e-05 3.0051971500196873e-10 -4.7446280988093815e-05 2.7113566650669102e-05 3.0051971500196873e-10 -4.7446280988093815e-05 3.1250308605909694e-05 3.260118505474009e-10 -5.6251155855532162e-05 3.1250310445073213e-05 2.1041672371574148e-10 -4.7629270880727782e-05 3.1250299565339928e-05 2.9859694846758132e-10 -3.7501151581489337e-05 3.1250346312046688e-05 2.2335500259364782e-10 -6.5027576534355859e-05 2.5421033027750788e-05 3.2066206500936782e-10 -6.4145752723658811e-05 3.1250308605909694e-05 3.260118505474009e-10 -5.6251155855532162e-05 2.7113566650669098e-05 3.0051971500196862e-10 -4.7446280988093801e-05 2.7113566650669102e-05 3.0051971500196873e-10 -4.7446280988093815e-05 2.5421033027750788e-05 3.2066206500936777e-10 -6.4145752723658811e-05 2.1325389936570765e-05 3.7193463259484643e-10 -4.9041789962514294e-05 2.4179893218211431e-05 2.0373381566972127e-10 -4.6715871005660903e-05 2.5421033027750788e-05 3.2066206500936782e-10 -6.4145752723658811e-05 2.7113566650669102e-05 3.0051971500196873e-10 -4.7446280988093815e-05 3.1250346312046688e-05 2.2335500259364784e-10 -6.5027576534355859e-05 2.4179893218211431e-05 2.0373381566972127e-10 -4.6715871005660903e-05 3.1250346312046688e-05 2.2335500259364782e-10 -6.5027576534355859e-05 2.5421033027750788e-05 3.2066206500936788e-10 -6.4145752723658824e-05 3.1250328712022629e-05 3.5492670283488079e-10 -7.5001145081733041e-05 3.1250308605909694e-05 3.260118505474009e-10 -5.6251155855532162e-05 3.1250328712022629e-05 3.5492670283488079e-10 -7.5001145081733041e-05 2.667507923695885e-05 2.3749721292149407e-10 -8.0025156989195319e-05 2.5421033027750788e-05 3.2066206500936782e-10 -6.4145752723658811e-05 3.1250346312046688e-05 2.2335500259364782e-10 -6.5027576534355859e-05 2.6675079236958853e-05 2.3749721292149407e-10 -8.0025156989195319e-05 3.1250346312046681e-05 2.2335500259364782e-10 -6.5027576534355873e-05 3.1250402234592951e-05 2.1005822111456896e-10 -8.0025202728889496e-05 2.4276382446611489e-05 1.849712567298346e-10 -7.6561788016097607e-05 2.6675079236958853e-05 2.3749721292149407e-10 -8.0025156989195319e-05 3.1250328712022629e-05 3.5492670283488079e-10 -7.5001145081733041e-05 3.1250402234592944e-05 2.1005822111456896e-10 -8.0025202728889483e-05 3.1250346312046694e-05 2.2335500259364787e-10 -6.5027576534355873e-05 2.6675140356533634e-05 2.1371460398043847e-10 -9.3751089422796808e-05 3.1250434863509379e-05 3.2539739062585921e-10 -9.375118086770977e-05 3.1250449911267185e-05 1.8256602045315394e-10 -9.3751164656493116e-05 3.1250402234592951e-05 2.1005822111456896e-10 -8.0025202728889496e-05 2.6675140356533634e-05 2.1371460398043847e-10 -9.3751089422796808e-05 2.5000455613505177e-05 3.0859247539575425e-10 -9.3751075851787935e-05 3.1250434863509379e-05 3.2539739062585921e-10 -9.375118086770977e-05 2.6675079236958853e-05 2.3749721292149407e-10 -8.0025156989195319e-05 3.1250328712022629e-05 3.5492670283488079e-10 -7.5001145081733041e-05 3.1250402234592951e-05 2.1005822111456896e-10 -8.0025202728889496e-05 3.1250434863509379e-05 3.2539739062585921e-10 -9.375118086770977e-05 2.6675079236958853e-05 2.3749721292149407e-10 -8.0025156989195319e-05 3.1250402234592951e-05 2.1005822111456896e-10 -8.0025202728889496e-05 2.6675140356533634e-05 2.137146039804385e-10 -9.3751089422796822e-05 3.1250434863509379e-05 3.2539739062585921e-10 -9.375118086770977e-05 2.6675079236958853e-05 2.3749721292149407e-10 -8.0025156989195319e-05 2.6675140356533634e-05 2.1371460398043847e-10 -9.3751089422796808e-05 3.1250449911267185e-05 1.8256602045315394e-10 -9.3751164656493116e-05 3.1250375586883901e-05 1.1425815358801795e-10 -7.5788534445546195e-05 3.1250402234592951e-05 2.1005822111456896e-10 -8.0025202728889496e-05 3.1250449911267185e-05 1.8256602045315394e-10 -9.3751164656493116e-05 3.1250375586883894e-05 1.1425815358801795e-10 -7.5788534445546195e-05 2.5262908994879445e-05 1.1062123515143292e-10 -9.3751060761879974e-05 2.6675140356533634e-05 2.1371460398043847e-10 -9.3751089422796808e-05 2.6675140356533634e-05 2.1371460398043847e-10 -9.3751089422796808e-05 3.1250402234592951e-05 2.1005822111456896e-10 -8.0025202728889496e-05 3.1250375586883887e-05 1.1425815358801795e-10 -7.5788534445546195e-05 2.4276382446611489e-05 1.8497125672983457e-10 -7.6561788016097607e-05 3.1250375586883894e-05 1.1425815358801795e-10 -7.5788534445546195e-05 3.1250402234592951e-05 2.1005822111456896e-10 -8.0025202728889496e-05 3.1250346312046688e-05 2.2335500259364782e-10 -6.5027576534355859e-05 2.4276382446611489e-05 1.849712567298346e-10 -7.6561788016097607e-05 2.1675908995879999e-05 2.2479133888375035e-10 -9.3750994345781957e-05 2.6675140356533634e-05 2.1371460398043847e-10 -9.3751089422796808e-05 2.5262908994879448e-05 1.1062123515143292e-10 -9.3751060761879988e-05 2.4276382446611489e-05 1.849712567298346e-10 -7.6561788016097607e-05 2.5262908994879448e-05 1.1062123515143292e-10 -9.3751060761879988e-05 2.6675140356533634e-05 2.1371460398043847e-10 -9.3751089422796808e-05 3.1250375586883887e-05 1.1425815358801795e-10 -7.5788534445546195e-05 2.4276382446611489e-05 1.849712567298346e-10 -7.6561788016097607e-05 2.6675140356533634e-05 2.1371460398043847e-10 -9.3751089422796808e-05 2.500045561350518e-05 3.0859247539575425e-10 -9.3751075851787935e-05 2.6675079236958853e-05 2.3749721292149407e-10 -8.0025156989195319e-05 2.4276382446611489e-05 1.849712567298346e-10 -7.6561788016097607e-05 2.1869605149058441e-05 3.0263829850005621e-10 -7.7867640374129244e-05 2.6675079236958853e-05 2.3749721292149407e-10 -8.0025156989195319e-05 2.500045561350518e-05 3.0859247539575425e-10 -9.3751075851787935e-05 2.4276382446611489e-05 1.849712567298346e-10 -7.6561788016097607e-05 2.6675140356533634e-05 2.1371460398043847e-10 -9.3751089422796808e-05 2.1675908995879999e-05 2.2479133888375035e-10 -9.3750994345781957e-05 2.500045561350518e-05 3.0859247539575425e-10 -9.3751075851787935e-05 2.4276382446611489e-05 1.849712567298346e-10 -7.6561788016097607e-05 3.1250402234592951e-05 2.1005822111456896e-10 -8.0025202728889496e-05 2.6675140356533634e-05 2.1371460398043847e-10 -9.3751089422796822e-05 2.667507923695885e-05 2.3749721292149407e-10 -8.0025156989195305e-05 2.4276382446611485e-05 1.849712567298346e-10 -7.6561788016097607e-05 2.6675079236958853e-05 2.3749721292149407e-10 -8.0025156989195319e-05 2.1869605149058437e-05 3.0263829850005621e-10 -7.7867640374129244e-05 2.5421033027750788e-05 3.2066206500936782e-10 -6.4145752723658811e-05 2.4276382446611492e-05 1.849712567298346e-10 -7.6561788016097607e-05 2.5421033027750788e-05 3.2066206500936782e-10 -6.4145752723658811e-05 3.1250346312046681e-05 2.2335500259364782e-10 -6.5027576534355859e-05 2.6675079236958853e-05 2.3749721292149407e-10 -8.0025156989195319e-05 2.4276382446611489e-05 1.849712567298346e-10 -7.6561788016097607e-05 2.1675908995879999e-05 2.2479133888375035e-10 -9.3750994345781957e-05 1.5597543463870694e-05 1.7157971204915707e-10 -7.3027847587849655e-05 2.1869605149058441e-05 3.0263829850005626e-10 -7.7867640374129244e-05 2.4276382446611489e-05 1.849712567298346e-10 -7.6561788016097607e-05 2.1675908995879999e-05 2.2479133888375035e-10 -9.3750994345781957e-05 1.906806893307841e-05 1.1644202825472525e-10 -9.3750947843634528e-05 1.5597543463870697e-05 1.715797120491571e-10 -7.3027847587849669e-05 2.4276382446611489e-05 1.849712567298346e-10 -7.6561788016097607e-05 2.5421033027750788e-05 3.2066206500936782e-10 -6.4145752723658811e-05 2.1869605149058441e-05 3.0263829850005621e-10 -7.7867640374129244e-05 1.9135724536516221e-05 2.7543712435996543e-10 -6.3598568143561477e-05 2.4276382446611489e-05 1.849712567298346e-10 -7.6561788016097607e-05 1.9135724536516221e-05 2.7543712435996543e-10 -6.3598568143561477e-05 2.1869605149058441e-05 3.0263829850005626e-10 -7.7867640374129244e-05 1.5597543463870697e-05 1.715797120491571e-10 -7.3027847587849669e-05 2.4276382446611489e-05 1.849712567298346e-10 -7.6561788016097607e-05 2.1675908995879999e-05 2.2479133888375035e-10 -9.3750994345781957e-05 2.1869605149058444e-05 3.0263829850005621e-10 -7.7867640374129244e-05 2.500045561350518e-05 3.0859247539575425e-10 -9.3751075851787935e-05 2.4276382446611489e-05 1.849712567298346e-10 -7.6561788016097607e-05 1.5928444150861727e-05 3.0164204000262412e-10 -7.8314999518801516e-05 1.8750414999163186e-05 3.6411338935654065e-10 -9.3750987627626791e-05 2.1675908995880003e-05 2.247913388837503e-10 -9.3750994345781957e-05 2.1869605149058441e-05 3.0263829850005621e-10 -7.7867640374129244e-05 2.1869605149058441e-05 3.0263829850005621e-10 -7.7867640374129244e-05 1.8750414999163189e-05 3.6411338935654065e-10 -9.3750987627626791e-05 2.1675908995879999e-05 2.2479133888375035e-10 -9.3750994345781957e-05 2.500045561350518e-05 3.0859247539575425e-10 -9.3751075851787935e-05 2.5262908994879448e-05 1.1062123515143292e-10 -9.3751060761879988e-05 1.906806893307841e-05 1.1644202825472525e-10 -9.3750947843634528e-05 2.1675908995879999e-05 2.2479133888375035e-10 -9.3750994345781957e-05 2.4276382446611489e-05 1.849712567298346e-10 -7.6561788016097607e-05 1.5876403451630975e-05 2.3856562448159328e-10 -9.3750889062166066e-05 2.1675908995879999e-05 2.2479133888375035e-10 -9.3750994345781957e-05 1.906806893307841e-05 1.1644202825472525e-10 -9.3750947843634528e-05 1.5597543463870697e-05 1.715797120491571e-10 -7.3027847587849669e-05 1.5876403451630975e-05 2.3856562448159328e-10 -9.3750889062166066e-05 1.5928444150861727e-05 3.0164204000262412e-10 -7.8314999518801502e-05 2.1675908995879999e-05 2.2479133888375035e-10 -9.3750994345781957e-05 1.5597543463870697e-05 1.715797120491571e-10 -7.3027847587849669e-05 1.8750414999163186e-05 3.6411338935654065e-10 -9.3750987627626791e-05 1.5876403451630975e-05 2.3856562448159328e-10 -9.3750889062166066e-05 1.2500310280643935e-05 4.0425142712476846e-10 -9.3750884410273344e-05 1.5928444150861727e-05 3.0164204000262412e-10 -7.8314999518801516e-05 2.1675908995879999e-05 2.2479133888375035e-10 -9.3750994345781957e-05 1.5876403451630975e-05 2.3856562448159328e-10 -9.3750889062166066e-05 1.8750414999163186e-05 3.6411338935654065e-10 -9.3750987627626791e-05 1.5928444150861723e-05 3.0164204000262412e-10 -7.8314999518801502e-05 2.1675908995879999e-05 2.2479133888375035e-10 -9.3750994345781957e-05 1.5928444150861727e-05 3.0164204000262412e-10 -7.8314999518801516e-05 2.1869605149058441e-05 3.0263829850005621e-10 -7.7867640374129244e-05 1.5597543463870694e-05 1.7157971204915707e-10 -7.3027847587849669e-05 1.5928444150861727e-05 3.0164204000262412e-10 -7.8314999518801516e-05 1.9135724536516221e-05 2.7543712435996543e-10 -6.3598568143561477e-05 2.1869605149058441e-05 3.0263829850005621e-10 -7.7867640374129244e-05 1.5597543463870697e-05 1.715797120491571e-10 -7.3027847587849669e-05 1.9135724536516221e-05 2.7543712435996543e-10 -6.3598568143561477e-05 1.5620248336732034e-05 1.5892853214294838e-10 -4.9657921703921847e-05 2.1453201810785632e-05 1.0912086029599906e-10 -6.4359652562801659e-05 1.5597543463870697e-05 1.715797120491571e-10 -7.3027847587849669e-05 1.9135724536516221e-05 2.7543712435996543e-10 -6.3598568143561477e-05 1.5620248336732034e-05 1.5892853214294841e-10 -4.965792170392184e-05 2.1325389936570765e-05 3.7193463259484643e-10 -4.9041789962514294e-05 2.4179893218211431e-05 2.0373381566972127e-10 -4.6715871005660903e-05 1.9135724536516221e-05 2.7543712435996543e-10 -6.3598568143561477e-05 1.4319058922330531e-05 2.6677979989892439e-10 -6.4660089409494857e-05 1.5620248336732037e-05 1.5892853214294838e-10 -4.9657921703921854e-05 1.5597543463870697e-05 1.715797120491571e-10 -7.3027847587849669e-05 1.4319058922330531e-05 2.6677979989892439e-10 -6.4660089409494857e-05 1.9135724536516221e-05 2.7543712435996543e-10 -6.3598568143561477e-05 1.5928444150861727e-05 3.0164204000262412e-10 -7.8314999518801516e-05 1.5597543463870697e-05 1.715797120491571e-10 -7.3027847587849669e-05 1.9135724536516221e-05 2.7543712435996543e-10 -6.3598568143561477e-05 2.1453201810785628e-05 1.0912086029599906e-10 -6.4359652562801645e-05 1.5620248336732037e-05 1.5892853214294838e-10 -4.9657921703921847e-05 2.4179893218211431e-05 2.0373381566972127e-10 -4.6715871005660903e-05 2.5421033027750788e-05 3.2066206500936782e-10 -6.4145752723658811e-05 1.9135724536516221e-05 2.7543712435996543e-10 -6.3598568143561477e-05 2.1453201810785628e-05 1.0912086029599906e-10 -6.4359652562801645e-05 2.4276382446611489e-05 1.849712567298346e-10 -7.6561788016097607e-05 1.9135724536516221e-05 2.7543712435996543e-10 -6.3598568143561477e-05 1.5597543463870697e-05 1.715797120491571e-10 -7.3027847587849669e-05 2.1453201810785632e-05 1.0912086029599905e-10 -6.4359652562801645e-05 2.4276382446611489e-05 1.849712567298346e-10 -7.6561788016097607e-05 2.5421033027750788e-05 3.2066206500936782e-10 -6.4145752723658811e-05 2.1453201810785632e-05 1.0912086029599909e-10 -6.4359652562801672e-05 1.9135724536516221e-05 2.7543712435996543e-10 -6.3598568143561477e-05 2.4179893218211431e-05 2.0373381566972124e-10 -4.6715871005660909e-05 2.5421033027750788e-05 3.2066206500936782e-10 -6.4145752723658811e-05 1.9135724536516221e-05 2.7543712435996543e-10 -6.3598568143561477e-05 2.1325389936570765e-05 3.7193463259484632e-10 -4.9041789962514294e-05 2.4179893218211431e-05 2.0373381566972127e-10 -4.6715871005660903e-05 1.9135724536516221e-05 2.7543712435996543e-10 -6.3598568143561477e-05 1.4319058922330531e-05 2.6677979989892439e-10 -6.4660089409494857e-05 1.6238228634169173e-05 3.1636475770967729e-10 -4.6876091640028814e-05 1.5620248336732037e-05 1.5892853214294833e-10 -4.9657921703921847e-05 1.9135724536516221e-05 2.7543712435996543e-10 -6.3598568143561477e-05 1.6238228634169173e-05 3.1636475770967729e-10 -4.6876091640028814e-05 2.1325389936570765e-05 3.7193463259484643e-10 -4.9041789962514294e-05 1.5620248336732041e-05 1.5892853214294838e-10 -4.9657921703921854e-05 2.1453201810785632e-05 1.0912086029599907e-10 -6.4359652562801659e-05 1.5620248336732037e-05 1.5892853214294836e-10 -4.9657921703921847e-05 1.5567843262398818e-05 1.4990089660868245e-11 -7.0356301486268353e-05 1.5597543463870697e-05 1.715797120491571e-10 -7.3027847587849669e-05 2.1453201810785632e-05 1.0912086029599907e-10 -6.4359652562801659e-05 1.5625249668590073e-05 -1.89996801860847e-12 -4.687605360994964e-05 2.3451851269578773e-05 1.7115797635870121e-11 -4.6722951340684619e-05 1.5567843262398818e-05 1.4990089660868242e-11 -7.0356301486268353e-05 2.1453201810785632e-05 1.0912086029599907e-10 -6.4359652562801659e-05 1.5567843262398818e-05 1.4990089660868242e-11 -7.0356301486268353e-05 2.3451851269578777e-05 1.7115797635870108e-11 -4.6722951340684626e-05 2.438135862176514e-05 -4.9667039621411612e-12 -7.3144022947290257e-05 1.5625249668590073e-05 -1.8999680186084393e-12 -4.6876053609949647e-05 2.1453201810785632e-05 1.091208602959991e-10 -6.4359652562801645e-05 2.3451851269578777e-05 1.7115797635870108e-11 -4.6722951340684626e-05 1.5620248336732037e-05 1.5892853214294838e-10 -4.9657921703921847e-05 2.3451851269578777e-05 1.7115797635870108e-11 -4.6722951340684626e-05 1.5620248336732037e-05 1.5892853214294836e-10 -4.9657921703921854e-05 2.1453201810785632e-05 1.0912086029599907e-10 -6.4359652562801659e-05 2.4179893218211438e-05 2.0373381566972134e-10 -4.6715871005660909e-05 2.1453201810785632e-05 1.0912086029599907e-10 -6.4359652562801659e-05 1.562524966859007e-05 -1.8999680186084224e-12 -4.6876053609949647e-05 1.5567843262398818e-05 1.4990089660868242e-11 -7.0356301486268353e-05 1.5620248336732034e-05 1.5892853214294841e-10 -4.965792170392184e-05 2.438135862176514e-05 -4.9667039621411612e-12 -7.3144022947290257e-05 1.9068068933078407e-05 1.1644202825472517e-10 -9.3750947843634528e-05 1.5567843262398818e-05 1.4990089660868248e-11 -7.0356301486268353e-05 2.1038093465492416e-05 1.6836653954578557e-11 -9.3750983641495027e-05 2.438135862176514e-05 -4.9667039621411612e-12 -7.3144022947290257e-05 1.5567843262398818e-05 1.4990089660868248e-11 -7.0356301486268353e-05 1.906806893307841e-05 1.1644202825472525e-10 -9.3750947843634528e-05 2.1453201810785632e-05 1.0912086029599905e-10 -6.4359652562801659e-05 1.906806893307841e-05 1.1644202825472525e-10 -9.3750947843634528e-05 2.1453201810785632e-05 1.0912086029599902e-10 -6.4359652562801659e-05 2.5262908994879448e-05 1.1062123515143292e-10 -9.3751060761879988e-05 2.438135862176514e-05 -4.9667039621411313e-12 -7.3144022947290257e-05 2.1453201810785632e-05 1.0912086029599907e-10 -6.4359652562801659e-05 1.5597543463870697e-05 1.715797120491571e-10 -7.3027847587849669e-05 1.906806893307841e-05 1.1644202825472525e-10 -9.3750947843634515e-05 2.4276382446611485e-05 1.8497125672983462e-10 -7.6561788016097607e-05 2.1453201810785632e-05 1.0912086029599907e-10 -6.4359652562801659e-05 1.5567843262398821e-05 1.4990089660868239e-11 -7.0356301486268366e-05 1.906806893307841e-05 1.1644202825472522e-10 -9.3750947843634528e-05 1.5597543463870697e-05 1.715797120491571e-10 -7.3027847587849669e-05 2.5262908994879448e-05 1.1062123515143292e-10 -9.3751060761879988e-05 2.1453201810785632e-05 1.0912086029599905e-10 -6.4359652562801645e-05 1.906806893307841e-05 1.1644202825472525e-10 -9.3750947843634528e-05 2.4276382446611489e-05 1.849712567298346e-10 -7.6561788016097607e-05 2.1038093465492413e-05 1.6836653954578502e-11 -9.3750983641495027e-05 1.906806893307841e-05 1.1644202825472525e-10 -9.3750947843634528e-05 2.5262908994879448e-05 1.1062123515143292e-10 -9.3751060761879988e-05 2.438135862176514e-05 -4.9667039621411612e-12 -7.3144022947290257e-05 1.4316690084815073e-05 1.2415799789621903e-10 -9.3750859975333609e-05 1.906806893307841e-05 1.1644202825472525e-10 -9.3750947843634528e-05 1.5567843262398818e-05 1.4990089660868242e-11 -7.0356301486268353e-05 1.5597543463870697e-05 1.715797120491571e-10 -7.3027847587849669e-05 1.5876403451630975e-05 2.3856562448159328e-10 -9.3750889062166066e-05 1.906806893307841e-05 1.1644202825472525e-10 -9.3750947843634528e-05 1.4316690084815073e-05 1.2415799789621903e-10 -9.3750859975333609e-05 1.5597543463870697e-05 1.715797120491571e-10 -7.3027847587849669e-05 1.6238358289679859e-05 -3.7326164822415441e-12 -9.3750900404310534e-05 1.4316690084815073e-05 1.2415799789621903e-10 -9.3750859975333609e-05 1.906806893307841e-05 1.1644202825472525e-10 -9.3750947843634528e-05 1.5567843262398818e-05 1.4990089660868242e-11 -7.0356301486268353e-05 2.1038093465492413e-05 1.6836653954578502e-11 -9.3750983641495027e-05 1.6238358289679859e-05 -3.7326164822415473e-12 -9.3750900404310534e-05 1.906806893307841e-05 1.1644202825472525e-10 -9.3750947843634528e-05 1.5567843262398818e-05 1.4990089660868242e-11 -7.0356301486268353e-05 9.7373434694890768e-06 1.197318022062777e-10 -6.4240046833553632e-05 6.8263720875830954e-06 -1.0035965799613991e-12 -7.2783662350562754e-05 1.0139817177953266e-05 6.684424013950382e-11 -9.3750805782791431e-05 5.7669882031154672e-06 1.6289527765572407e-10 -7.651325642825762e-05 1.0289405598455381e-05 -6.9568016606623194e-11 -9.3750809039443853e-05 1.0139817177953266e-05 6.684424013950382e-11 -9.3750805782791431e-05 1.6238358289679859e-05 -3.7326164822415441e-12 -9.3750900404310534e-05 1.5567843262398818e-05 1.4990089660868242e-11 -7.0356301486268339e-05 1.4316690084815073e-05 1.2415799789621903e-10 -9.3750859975333609e-05 9.7373434694890768e-06 1.197318022062777e-10 -6.4240046833553632e-05 9.7087182021347092e-06 2.1191474990974176e-10 -9.3750801284098835e-05 1.5597543463870697e-05 1.715797120491571e-10 -7.3027847587849669e-05 1.0289405598455381e-05 -6.9568016606623194e-11 -9.3750809039443853e-05 1.0139817177953266e-05 6.684424013950382e-11 -9.3750805782791431e-05 1.5567843262398821e-05 1.4990089660868245e-11 -7.0356301486268339e-05 6.826372087583098e-06 -1.0035965799613747e-12 -7.2783662350562754e-05 1.4316690084815073e-05 1.2415799789621903e-10 -9.3750859975333609e-05 1.5567843262398818e-05 1.4990089660868229e-11 -7.0356301486268353e-05 9.7373434694890768e-06 1.197318022062777e-10 -6.4240046833553632e-05 1.5597543463870697e-05 1.715797120491571e-10 -7.3027847587849669e-05 1.0139817177953266e-05 6.684424013950382e-11 -9.3750805782791431e-05 9.7373434694890785e-06 1.1973180220627768e-10 -6.4240046833553618e-05 1.5567843262398818e-05 1.4990089660868277e-11 -7.0356301486268339e-05 6.8263720875830963e-06 -1.0035965799613743e-12 -7.2783662350562754e-05 1.4316690084815073e-05 1.2415799789621903e-10 -9.3750859975333609e-05 1.6238358289679859e-05 -3.7326164822415441e-12 -9.3750900404310534e-05 1.0139817177953266e-05 6.684424013950382e-11 -9.3750805782791431e-05 1.5567843262398818e-05 1.4990089660868242e-11 -7.0356301486268353e-05 9.7087182021347092e-06 2.1191474990974176e-10 -9.3750801284098835e-05 1.4316690084815073e-05 1.2415799789621903e-10 -9.3750859975333609e-05 1.0139817177953266e-05 6.684424013950382e-11 -9.3750805782791431e-05 9.7373434694890768e-06 1.197318022062777e-10 -6.4240046833553632e-05 1.4316690084815073e-05 1.2415799789621903e-10 -9.3750859975333609e-05 1.0139817177953266e-05 6.684424013950382e-11 -9.3750805782791431e-05 9.7373434694890768e-06 1.197318022062777e-10 -6.4240046833553632e-05 1.5567843262398818e-05 1.4990089660868242e-11 -7.0356301486268353e-05 1.0139817177953266e-05 6.684424013950382e-11 -9.3750805782791431e-05 9.7087182021347075e-06 2.1191474990974173e-10 -9.3750801284098835e-05 9.7373434694890768e-06 1.197318022062777e-10 -6.4240046833553618e-05 5.7669882031154681e-06 1.628952776557241e-10 -7.651325642825762e-05 9.7373434694890768e-06 1.197318022062777e-10 -6.4240046833553632e-05 1.5625249668590073e-05 -1.8999680186084248e-12 -4.687605360994964e-05 7.7405176361575505e-06 2.1356117799336788e-11 -4.2280854066794163e-05 1.5620248336732037e-05 1.5892853214294838e-10 -4.965792170392184e-05 9.7373434694890768e-06 1.197318022062777e-10 -6.4240046833553632e-05 1.5567843262398818e-05 1.4990089660868248e-11 -7.0356301486268353e-05 1.5625249668590076e-05 -1.8999680186084078e-12 -4.687605360994964e-05 1.5620248336732037e-05 1.5892853214294838e-10 -4.9657921703921847e-05 9.7373434694890768e-06 1.197318022062777e-10 -6.4240046833553632e-05 1.5620248336732041e-05 1.5892853214294838e-10 -4.9657921703921854e-05 7.7405176361575505e-06 2.1356117799336849e-11 -4.2280854066794163e-05 7.0366591941234117e-06 1.8575501687877696e-10 -4.5176572600615058e-05 1.5625249668590073e-05 -1.8999680186084393e-12 -4.6876053609949647e-05 9.7373434694890768e-06 1.197318022062777e-10 -6.4240046833553632e-05 7.7405176361575505e-06 2.1356117799336817e-11 -4.2280854066794163e-05 6.8263720875830963e-06 -1.0035965799613743e-12 -7.2783662350562754e-05 9.7373434694890768e-06 1.197318022062777e-10 -6.4240046833553632e-05 1.5625249668590073e-05 -1.8999680186084579e-12 -4.6876053609949647e-05 1.5567843262398818e-05 1.4990089660868242e-11 -7.0356301486268353e-05 6.8263720875830946e-06 -1.0035965799614042e-12 -7.2783662350562741e-05 1.5567843262398818e-05 1.4990089660868242e-11 -7.0356301486268353e-05 1.5620248336732037e-05 1.5892853214294838e-10 -4.9657921703921847e-05 9.7373434694890768e-06 1.197318022062777e-10 -6.4240046833553632e-05 1.5597543463870697e-05 1.715797120491571e-10 -7.3027847587849669e-05 1.0140216128046474e-05 3.6839812175565325e-10 -5.6269905578780942e-05 1.4319058922330531e-05 2.6677979989892439e-10 -6.4660089409494857e-05 9.7373434694890768e-06 1.197318022062777e-10 -6.4240046833553632e-05 1.5620248336732034e-05 1.5892853214294838e-10 -4.9657921703921861e-05 1.4319058922330531e-05 2.6677979989892439e-10 -6.4660089409494857e-05 9.714278413598515e-06 3.2599198273580352e-10 -7.6378986687507529e-05 1.0140216128046474e-05 3.6839812175565325e-10 -5.6269905578780942e-05 9.7373434694890768e-06 1.197318022062777e-10 -6.4240046833553632e-05 1.4319058922330531e-05 2.6677979989892439e-10 -6.4660089409494857e-05 9.7373434694890768e-06 1.197318022062777e-10 -6.4240046833553632e-05 1.5620248336732037e-05 1.5892853214294838e-10 -4.9657921703921847e-05 1.5597543463870697e-05 1.715797120491571e-10 -7.3027847587849669e-05 1.0140216128046474e-05 3.6839812175565325e-10 -5.6269905578780942e-05 9.7373434694890768e-06 1.197318022062777e-10 -6.4240046833553632e-05 9.7142784135985167e-06 3.2599198273580347e-10 -7.6378986687507516e-05 5.7669882031154681e-06 1.628952776557241e-10 -7.651325642825762e-05 1.0140216128046474e-05 3.6839812175565325e-10 -5.6269905578780942e-05 1.5620248336732034e-05 1.5892853214294838e-10 -4.9657921703921854e-05 9.7373434694890768e-06 1.197318022062777e-10 -6.4240046833553645e-05 7.0366591941234134e-06 1.8575501687877709e-10 -4.5176572600615065e-05 1.4319058922330531e-05 2.6677979989892439e-10 -6.4660089409494857e-05 9.7142784135985167e-06 3.2599198273580352e-10 -7.6378986687507529e-05 9.7373434694890734e-06 1.1973180220627765e-10 -6.4240046833553618e-05 1.5597543463870697e-05 1.715797120491571e-10 -7.3027847587849669e-05 1.0289730198387576e-05 3.5331138300062196e-10 -3.714110383925912e-05 1.5620248336732041e-05 1.5892853214294838e-10 -4.9657921703921847e-05 1.0140216128046474e-05 3.6839812175565325e-10 -5.6269905578780942e-05 7.0366591941234117e-06 1.8575501687877699e-10 -4.5176572600615065e-05 1.0140216128046474e-05 3.6839812175565325e-10 -5.6269905578780942e-05 9.7373434694890785e-06 1.197318022062777e-10 -6.4240046833553645e-05 4.9688647251072943e-06 3.0219947948425621e-10 -6.5108052793672118e-05 7.0366591941234117e-06 1.8575501687877702e-10 -4.5176572600615058e-05 1.0289730198387576e-05 3.5331138300062196e-10 -3.714110383925912e-05 1.6238228634169173e-05 3.1636475770967729e-10 -4.6876091640028814e-05 1.0140216128046474e-05 3.6839812175565325e-10 -5.6269905578780942e-05 1.5620248336732037e-05 1.5892853214294838e-10 -4.9657921703921847e-05 1.0140216128046474e-05 3.6839812175565325e-10 -5.6269905578780942e-05 1.6238228634169173e-05 3.1636475770967729e-10 -4.6876091640028814e-05 1.4319058922330531e-05 2.6677979989892439e-10 -6.4660089409494857e-05 1.5620248336732037e-05 1.5892853214294844e-10 -4.9657921703921847e-05 1.4319058922330531e-05 2.6677979989892439e-10 -6.4660089409494857e-05 1.5928444150861727e-05 3.0164204000262412e-10 -7.8314999518801516e-05 9.714278413598515e-06 3.2599198273580352e-10 -7.6378986687507529e-05 1.5597543463870697e-05 1.715797120491571e-10 -7.3027847587849669e-05 9.714278413598515e-06 3.2599198273580352e-10 -7.6378986687507529e-05 1.5597543463870701e-05 1.7157971204915707e-10 -7.3027847587849655e-05 9.7087182021347092e-06 2.1191474990974176e-10 -9.3750801284098835e-05 5.7669882031154681e-06 1.628952776557241e-10 -7.651325642825762e-05 9.714278413598515e-06 3.2599198273580352e-10 -7.6378986687507529e-05 9.7373434694890751e-06 1.1973180220627775e-10 -6.4240046833553632e-05 1.5597543463870697e-05 1.7157971204915697e-10 -7.3027847587849669e-05 5.7669882031154681e-06 1.628952776557241e-10 -7.651325642825762e-05 1.5876403451630975e-05 2.3856562448159328e-10 -9.3750889062166066e-05 9.7142784135985133e-06 3.2599198273580352e-10 -7.6378986687507529e-05 1.5928444150861727e-05 3.0164204000262412e-10 -7.8314999518801516e-05 1.5597543463870697e-05 1.715797120491571e-10 -7.3027847587849669e-05 9.7087182021347092e-06 2.1191474990974176e-10 -9.3750801284098835e-05 1.5597543463870694e-05 1.7157971204915715e-10 -7.3027847587849655e-05 9.7373434694890768e-06 1.1973180220627765e-10 -6.4240046833553645e-05 5.7669882031154681e-06 1.628952776557241e-10 -7.651325642825762e-05 9.714278413598515e-06 3.2599198273580352e-10 -7.6378986687507529e-05 1.2500310280643935e-05 4.0425142712476846e-10 -9.3750884410273344e-05 1.5876403451630975e-05 2.3856562448159328e-10 -9.3750889062166066e-05 1.5928444150861727e-05 3.0164204000262412e-10 -7.8314999518801516e-05 9.714278413598515e-06 3.2599198273580352e-10 -7.6378986687507529e-05 1.2500310280643935e-05 4.0425142712476846e-10 -9.3750884410273344e-05 9.7087182021347092e-06 2.1191474990974176e-10 -9.3750801284098835e-05 1.5876403451630975e-05 2.3856562448159328e-10 -9.3750889062166066e-05 9.714278413598515e-06 3.2599198273580352e-10 -7.6378986687507529e-05 1.5876403451630975e-05 2.3856562448159328e-10 -9.3750889062166066e-05 9.7087182021347092e-06 2.1191474990974176e-10 -9.3750801284098835e-05 1.5597543463870697e-05 1.7157971204915705e-10 -7.3027847587849655e-05 1.4316690084815073e-05 1.2415799789621903e-10 -9.3750859975333609e-05 9.7087182021347092e-06 2.1191474990974176e-10 -9.3750801284098835e-05 1.5876403451630975e-05 2.3856562448159328e-10 -9.3750889062166066e-05 1.5597543463870697e-05 1.715797120491571e-10 -7.3027847587849669e-05 1.2500310280643935e-05 4.0425142712476846e-10 -9.3750884410273344e-05 6.2501594877434222e-06 3.2984278773554684e-10 -9.375079699865631e-05 9.714278413598515e-06 3.2599198273580352e-10 -7.6378986687507529e-05 9.7087182021347092e-06 2.1191474990974176e-10 -9.3750801284098835e-05 4.9688647251072943e-06 3.0219947948425621e-10 -6.5108052793672118e-05 9.714278413598515e-06 3.2599198273580352e-10 -7.6378986687507529e-05 4.5754178662149199e-06 2.4308945894555969e-10 -8.0024878725696989e-05 5.7669882031154681e-06 1.628952776557241e-10 -7.651325642825762e-05 9.714278413598515e-06 3.2599198273580352e-10 -7.6378986687507529e-05 9.7087182021347092e-06 2.1191474990974176e-10 -9.3750801284098835e-05 4.5754178662149199e-06 2.4308945894555969e-10 -8.0024878725696989e-05 5.7669882031154681e-06 1.628952776557241e-10 -7.651325642825762e-05 9.714278413598515e-06 3.2599198273580352e-10 -7.6378986687507529e-05 6.2501594877434213e-06 3.2984278773554674e-10 -9.375079699865631e-05 4.5754178662149199e-06 2.4308945894555969e-10 -8.0024878725696989e-05 9.7087182021347092e-06 2.1191474990974176e-10 -9.3750801284098835e-05 4.5754367547051045e-06 2.116316455685504e-10 -9.3750745040704046e-05 4.5754178662149199e-06 2.4308945894555969e-10 -8.0024878725696989e-05 6.2501594877434222e-06 3.2984278773554684e-10 -9.375079699865631e-05 9.7087182021347092e-06 2.1191474990974176e-10 -9.3750801284098835e-05 9.7087182021347092e-06 2.1191474990974176e-10 -9.3750801284098835e-05 4.967887269275e-06 1.1855352113701423e-10 -9.3750760812341799e-05 4.5754367547051045e-06 2.116316455685504e-10 -9.3750745040704046e-05 5.7669882031154681e-06 1.628952776557241e-10 -7.651325642825762e-05 4.5754367547051045e-06 2.116316455685504e-10 -9.3750745040704046e-05 4.5754178662149199e-06 2.4308945894555969e-10 -8.0024878725696975e-05 9.7087182021347092e-06 2.1191474990974173e-10 -9.3750801284098821e-05 5.7669882031154681e-06 1.6289527765572407e-10 -7.651325642825762e-05 -3.4594293374710654e-15 2.0169998279892889e-10 -8.0024865825845785e-05 1.1806812219542671e-15 1.1678059180309326e-10 -7.9851162399953557e-05 1.5574906862935858e-15 1.9162596675894922e-10 -6.6134357942065338e-05 5.7669882031154681e-06 1.628952776557241e-10 -7.651325642825762e-05 4.9688647251072943e-06 3.0219947948425621e-10 -6.5108052793672118e-05 -3.459429121921696e-15 2.0169998279892884e-10 -8.0024865825845785e-05 1.5574908550425001e-15 1.9162596675894917e-10 -6.6134357942065325e-05 5.7669882031154672e-06 1.6289527765572407e-10 -7.651325642825762e-05 5.7669882031154681e-06 1.628952776557241e-10 -7.651325642825762e-05 6.2266691278509299e-15 1.7848970178457672e-10 -9.3750737171518938e-05 4.9678872692749975e-06 1.1855352113701428e-10 -9.3750760812341785e-05 4.5754367547051045e-06 2.1163164556855038e-10 -9.3750745040704046e-05 4.5754178662149199e-06 2.4308945894555969e-10 -8.0024878725696989e-05 4.5754367547051045e-06 2.116316455685504e-10 -9.375074504070406e-05 -3.4594293374710654e-15 2.0169998279892889e-10 -8.0024865825845785e-05 5.7669882031154681e-06 1.628952776557241e-10 -7.651325642825762e-05 -3.4594293374710654e-15 2.0169998279892889e-10 -8.0024865825845785e-05 6.2266681260309744e-15 1.7848970178457678e-10 -9.3750737171518938e-05 1.1806812219542671e-15 1.1678059180309326e-10 -7.9851162399953557e-05 5.7669882031154681e-06 1.628952776557241e-10 -7.651325642825762e-05 -3.4594293374710654e-15 2.0169998279892889e-10 -8.0024865825845785e-05 4.5754367547051045e-06 2.116316455685504e-10 -9.3750745040704046e-05 6.226668323594183e-15 1.7848970178457678e-10 -9.3750737171518952e-05 5.7669882031154681e-06 1.628952776557241e-10 -7.651325642825762e-05 6.2375240084667862e-15 3.3271982133369524e-10 -9.3750754392193207e-05 -3.459429535899006e-15 2.0169998279892892e-10 -8.0024865825845785e-05 4.5754367547051045e-06 2.116316455685504e-10 -9.3750745040704046e-05 6.2266680893103338e-15 1.7848970178457678e-10 -9.3750737171518938e-05 -3.4594293374710654e-15 2.0169998279892889e-10 -8.0024865825845785e-05 4.5754178662149199e-06 2.4308945894555964e-10 -8.0024878725696975e-05 6.2375240084667862e-15 3.3271982133369524e-10 -9.3750754392193207e-05 4.5754367547051045e-06 2.116316455685504e-10 -9.3750745040704046e-05 6.2501594877434222e-06 3.2984278773554684e-10 -9.375079699865631e-05 6.2375241439953175e-15 3.3271982133369529e-10 -9.3750754392193207e-05 4.5754178662149199e-06 2.4308945894555969e-10 -8.0024878725696989e-05 4.5754367547051045e-06 2.116316455685504e-10 -9.3750745040704046e-05 4.5754178662149199e-06 2.4308945894555969e-10 -8.0024878725696989e-05 6.2375240084667862e-15 3.3271982133369524e-10 -9.3750754392193207e-05 1.2496994319202275e-15 2.9324080501811265e-10 -7.5000845270318807e-05 -3.4594293374710654e-15 2.0169998279892889e-10 -8.0024865825845785e-05 4.5754178662149199e-06 2.4308945894555969e-10 -8.0024878725696989e-05 -3.4594293362036984e-15 2.0169998279892889e-10 -8.0024865825845785e-05 4.9688647251072943e-06 3.0219947948425621e-10 -6.5108052793672118e-05 5.7669882031154681e-06 1.628952776557241e-10 -7.651325642825762e-05 4.9688647251072943e-06 3.0219947948425621e-10 -6.5108052793672118e-05 1.2496982366230104e-15 2.9324080501811275e-10 -7.500084527031882e-05 1.5574906862935858e-15 1.9162596675894922e-10 -6.6134357942065338e-05 -3.4594293374710654e-15 2.0169998279892889e-10 -8.0024865825845785e-05 1.2496998021902741e-15 2.932408050181127e-10 -7.500084527031882e-05 4.9688647251072943e-06 3.0219947948425621e-10 -6.5108052793672118e-05 4.5754178662149199e-06 2.4308945894555969e-10 -8.0024878725696989e-05 -3.4594293374710654e-15 2.0169998279892889e-10 -8.0024865825845785e-05 1.5574906862935858e-15 1.9162596675894922e-10 -6.6134357942065338e-05 4.3788928525599135e-15 3.6111942681642712e-10 -5.6250953878997123e-05 1.2496998021902741e-15 2.932408050181127e-10 -7.500084527031882e-05 4.9688647251072943e-06 3.0219947948425621e-10 -6.5108052793672118e-05 9.7373434694890768e-06 1.197318022062777e-10 -6.4240046833553632e-05 7.0366591941234134e-06 1.8575501687877702e-10 -4.5176572600615071e-05 1.5574895159546038e-15 1.9162596675894917e-10 -6.6134357942065338e-05 5.7669882031154689e-06 1.628952776557241e-10 -7.651325642825762e-05 1.5574906862935858e-15 1.9162596675894922e-10 -6.6134357942065338e-05 -5.6429688434021809e-15 2.388813947625649e-10 -4.7629128928161293e-05 4.3788928525599135e-15 3.6111942681642712e-10 -5.6250953878997123e-05 4.9688647251072943e-06 3.0219947948425621e-10 -6.5108052793672118e-05 4.9688647251072943e-06 3.0219947948425621e-10 -6.5108052793672118e-05 9.7373434694890768e-06 1.1973180220627775e-10 -6.4240046833553618e-05 1.0140216128046474e-05 3.6839812175565325e-10 -5.6269905578780942e-05 5.7669882031154681e-06 1.628952776557241e-10 -7.651325642825762e-05 4.9688647251072943e-06 3.0219947948425621e-10 -6.5108052793672118e-05 7.0366591941234177e-06 1.8575501687877699e-10 -4.5176572600615065e-05 9.7373434694890717e-06 1.197318022062777e-10 -6.4240046833553645e-05 5.7669882031154681e-06 1.628952776557241e-10 -7.651325642825762e-05 4.9688647251072943e-06 3.0219947948425621e-10 -6.5108052793672118e-05 1.5574920922469971e-15 1.9162596675894917e-10 -6.6134357942065338e-05 7.0366591941234126e-06 1.8575501687877699e-10 -4.5176572600615065e-05 5.7669882031154672e-06 1.6289527765572407e-10 -7.651325642825762e-05 4.9688647251072943e-06 3.0219947948425621e-10 -6.5108052793672118e-05 1.0140216128046474e-05 3.6839812175565325e-10 -5.6269905578780935e-05 9.714278413598515e-06 3.2599198273580352e-10 -7.6378986687507529e-05 5.7669882031154681e-06 1.628952776557241e-10 -7.651325642825762e-05 1.0140216128046474e-05 3.6839812175565325e-10 -5.6269905578780942e-05 4.9688647251072943e-06 3.0219947948425621e-10 -6.5108052793672118e-05 5.3832614014366148e-06 3.3027566608130238e-10 -4.6722783278671305e-05 7.0366591941234126e-06 1.8575501687877699e-10 -4.5176572600615065e-05 -5.6429695764848559e-15 2.388813947625649e-10 -4.7629128928161293e-05 5.3832614014366157e-06 3.3027566608130238e-10 -4.6722783278671305e-05 4.9688647251072943e-06 3.0219947948425621e-10 -6.5108052793672118e-05 7.0366591941234126e-06 1.8575501687877699e-10 -4.5176572600615065e-05 4.3788928525599135e-15 3.6111942681642712e-10 -5.6250953878997123e-05 5.0108124663548633e-15 3.8698981741515033e-10 -3.7501071106418394e-05 5.3832614014366148e-06 3.3027566608130238e-10 -4.6722783278671305e-05 -5.6429695764848559e-15 2.388813947625649e-10 -4.7629128928161293e-05 -5.6429695764848559e-15 2.388813947625649e-10 -4.7629128928161293e-05 5.3832614014366165e-06 3.3027566608130238e-10 -4.6722783278671305e-05 4.3788928525599135e-15 3.6111942681642712e-10 -5.6250953878997123e-05 4.9688647251072943e-06 3.0219947948425621e-10 -6.5108052793672118e-05 -5.6429695764848559e-15 2.388813947625649e-10 -4.7629128928161293e-05 4.9688647251072943e-06 3.0219947948425621e-10 -6.5108052793672118e-05 1.5574906862935858e-15 1.9162596675894922e-10 -6.6134357942065338e-05 7.0366591941234126e-06 1.8575501687877699e-10 -4.5176572600615065e-05 -1.6365111670152724e-15 1.0680065026002938e-10 -5.6198686275461121e-05 -5.6429695764848559e-15 2.388813947625649e-10 -4.7629128928161293e-05 1.5574906862935858e-15 1.9162596675894922e-10 -6.6134357942065338e-05 7.0366591941234126e-06 1.8575501687877699e-10 -4.5176572600615065e-05 -1.6365111670152724e-15 1.0680065026002938e-10 -5.6198686275461121e-05 1.5574908251109143e-15 1.9162596675894922e-10 -6.6134357942065338e-05 9.7373434694890768e-06 1.1973180220627768e-10 -6.4240046833553618e-05 7.0366591941234126e-06 1.8575501687877699e-10 -4.5176572600615065e-05 -1.6365111670152724e-15 1.0680065026002938e-10 -5.6198686275461121e-05 9.7373434694890734e-06 1.1973180220627755e-10 -6.4240046833553645e-05 1.5574909238510484e-15 1.9162596675894925e-10 -6.6134357942065325e-05 5.7669882031154681e-06 1.6289527765572402e-10 -7.6513256428257633e-05 -1.6365111670152724e-15 1.0680065026002938e-10 -5.6198686275461121e-05 1.5574906862935858e-15 1.9162596675894922e-10 -6.6134357942065338e-05 1.4408016362095349e-15 6.5837403524606574e-11 -6.8178307449382098e-05 5.7669882031154706e-06 1.628952776557241e-10 -7.651325642825762e-05 -1.6365111670152724e-15 1.0680065026002938e-10 -5.6198686275461121e-05 7.7405176361575505e-06 2.1356117799336781e-11 -4.2280854066794156e-05 9.7373434694890768e-06 1.197318022062777e-10 -6.4240046833553632e-05 6.8263720875830963e-06 -1.0035965799613989e-12 -7.2783662350562754e-05 -1.6365111670152724e-15 1.0680065026002938e-10 -5.6198686275461121e-05 1.4408016362095349e-15 6.5837403524606574e-11 -6.8178307449382098e-05 9.7373434694890751e-06 1.1973180220627775e-10 -6.4240046833553632e-05 5.7669882031154697e-06 1.628952776557241e-10 -7.651325642825762e-05 -1.6365111670152724e-15 1.0680065026002938e-10 -5.6198686275461121e-05 1.1097278251017841e-15 -1.94132622523856e-11 -6.3113901888498525e-05 -3.3399699013524e-15 3.844974698762532e-12 -4.871493405051282e-05 6.826372087583098e-06 -1.0035965799613685e-12 -7.2783662350562754e-05 1.4408016362095349e-15 6.5837403524606574e-11 -6.8178307449382098e-05 -1.6365111670152724e-15 1.0680065026002938e-10 -5.6198686275461121e-05 9.7373434694890768e-06 1.197318022062777e-10 -6.4240046833553632e-05 6.8263720875830963e-06 -1.0035965799613743e-12 -7.2783662350562754e-05 -1.6365111670152724e-15 1.0680065026002938e-10 -5.6198686275461121e-05 9.7373434694890768e-06 1.197318022062777e-10 -6.4240046833553632e-05 7.7405176361575505e-06 2.1356117799336768e-11 -4.2280854066794156e-05 7.0366591941234126e-06 1.8575501687877699e-10 -4.5176572600615065e-05 -1.6365111670152724e-15 1.0680065026002938e-10 -5.6198686275461121e-05 -3.3399695230247315e-15 3.8449746987625295e-12 -4.871493405051282e-05 7.7405176361575505e-06 2.1356117799336817e-11 -4.2280854066794163e-05 6.826372087583098e-06 -1.0035965799614266e-12 -7.2783662350562754e-05 6.9234318685940081e-16 1.2076374590083457e-10 -4.2811544436439691e-05 -5.6429695778335548e-15 2.388813947625649e-10 -4.7629128928161293e-05 -1.6365111670152724e-15 1.0680065026002938e-10 -5.6198686275461121e-05 7.0366591941234126e-06 1.8575501687877699e-10 -4.5176572600615065e-05 -1.6365111670152724e-15 1.0680065026002938e-10 -5.6198686275461121e-05 -3.3399695230247315e-15 3.8449746987625295e-12 -4.871493405051282e-05 6.9234318685940081e-16 1.2076374590083457e-10 -4.2811544436439691e-05 7.7405176361575505e-06 2.1356117799336817e-11 -4.2280854066794163e-05 1.4408016362095349e-15 6.5837403524606574e-11 -6.8178307449382098e-05 1.1097278251017841e-15 -1.94132622523856e-11 -6.3113901888498525e-05 -1.6365109188399977e-15 1.0680065026002938e-10 -5.6198686275461114e-05 6.8263720875830963e-06 -1.0035965799613743e-12 -7.2783662350562754e-05 -5.382785919488148e-16 4.5814357869370187e-12 -7.8930752105277409e-05 1.1806812219542671e-15 1.1678059180309326e-10 -7.9851162399953557e-05 4.967887269275e-06 1.1855352113701423e-10 -9.3750760812341799e-05 6.8263720875830971e-06 -1.0035965799613537e-12 -7.2783662350562741e-05 1.4408016362095349e-15 6.5837403524606574e-11 -6.8178307449382098e-05 6.8263720875830963e-06 -1.003596579961382e-12 -7.2783662350562754e-05 9.7373434694890768e-06 1.197318022062777e-10 -6.4240046833553632e-05 5.7669882031154689e-06 1.6289527765572412e-10 -7.651325642825762e-05 4.967887269275e-06 1.1855352113701423e-10 -9.3750760812341799e-05 6.8263720875830963e-06 -1.0035965799613709e-12 -7.2783662350562741e-05 1.1806798760663204e-15 1.1678059180309324e-10 -7.9851162399953557e-05 5.7669882031154681e-06 1.6289527765572407e-10 -7.651325642825762e-05 -5.382785919488148e-16 4.5814357869370187e-12 -7.8930752105277409e-05 1.1097278251017841e-15 -1.94132622523856e-11 -6.3113901888498525e-05 1.4408016362095349e-15 6.5837403524606574e-11 -6.8178307449382098e-05 6.826372087583098e-06 -1.0035965799613749e-12 -7.2783662350562741e-05 -5.382785919488148e-16 4.5814357869370187e-12 -7.8930752105277409e-05 1.4408016362095349e-15 6.5837403524606574e-11 -6.8178307449382098e-05 1.1806812219542671e-15 1.1678059180309326e-10 -7.9851162399953557e-05 6.826372087583098e-06 -1.0035965799613743e-12 -7.2783662350562768e-05 4.967887269275e-06 1.1855352113701423e-10 -9.3750760812341799e-05 1.0139817177953266e-05 6.6844240139503807e-11 -9.3750805782791431e-05 6.8263720875830963e-06 -1.0035965799613689e-12 -7.2783662350562754e-05 5.7669882031154672e-06 1.628952776557241e-10 -7.651325642825762e-05 1.4408016362095349e-15 6.5837403524606574e-11 -6.8178307449382098e-05 1.18068119367481e-15 1.1678059180309326e-10 -7.9851162399953557e-05 6.8263720875830954e-06 -1.0035965799613735e-12 -7.2783662350562754e-05 5.7669882031154697e-06 1.6289527765572415e-10 -7.651325642825762e-05 1.5574906862935858e-15 1.9162596675894922e-10 -6.6134357942065338e-05 1.1806812219542671e-15 1.1678059180309326e-10 -7.9851162399953557e-05 1.4408014893269733e-15 6.5837403524606574e-11 -6.8178307449382098e-05 5.7669882031154681e-06 1.628952776557241e-10 -7.651325642825762e-05 4.967887269275e-06 1.1855352113701423e-10 -9.3750760812341799e-05 1.0139817177953266e-05 6.684424013950382e-11 -9.3750805782791431e-05 5.3833129094655106e-06 8.0536308102363549e-14 -9.3750759533475504e-05 6.8263720875830963e-06 -1.0035965799613743e-12 -7.2783662350562754e-05 4.967887269275e-06 1.1855352113701423e-10 -9.3750760812341799e-05 5.3833129094655114e-06 8.0536308102378241e-14 -9.3750759533475517e-05 -5.382785919488148e-16 4.5814357869370187e-12 -7.8930752105277409e-05 6.8263720875830963e-06 -1.0035965799613743e-12 -7.2783662350562754e-05 1.0139817177953266e-05 6.684424013950382e-11 -9.3750805782791431e-05 4.967887269275e-06 1.1855352113701423e-10 -9.3750760812341799e-05 9.7087182021347109e-06 2.1191474990974176e-10 -9.3750801284098835e-05 5.7669882031154681e-06 1.628952776557241e-10 -7.651325642825762e-05 5.7669882031154681e-06 1.628952776557241e-10 -7.651325642825762e-05 4.9678872692749992e-06 1.1855352113701428e-10 -9.3750760812341799e-05 6.2266691226140839e-15 1.7848970178457675e-10 -9.3750737171518938e-05 1.1806812219542671e-15 1.1678059180309326e-10 -7.9851162399953557e-05 1.1806812219542671e-15 1.1678059180309326e-10 -7.9851162399953557e-05 -5.3827860260575075e-16 4.5814357869370187e-12 -7.8930752105277409e-05 4.967887269275e-06 1.1855352113701423e-10 -9.3750760812341799e-05 4.9734646598246419e-15 5.9932426587708722e-11 -9.3750749680481771e-05 4.967887269275e-06 1.1855352113701423e-10 -9.3750760812341799e-05 6.2266680893103338e-15 1.7848970178457678e-10 -9.3750737171518938e-05 1.1806808134405606e-15 1.1678059180309326e-10 -7.9851162399953557e-05 4.9734646598246419e-15 5.9932426587708722e-11 -9.3750749680481771e-05 4.9734646598246419e-15 5.9932426587708722e-11 -9.3750749680481771e-05 -5.382785919488148e-16 4.5814357869370187e-12 -7.8930752105277409e-05 4.967887269275e-06 1.1855352113701423e-10 -9.3750760812341799e-05 5.3833129094655114e-06 8.0536308102378241e-14 -9.3750759533475517e-05 -5.382785919488148e-16 4.5814357869370187e-12 -7.8930752105277409e-05 4.9734646598246419e-15 5.9932426587708722e-11 -9.3750749680481771e-05 5.9554205813821939e-15 -6.0919365044340975e-11 -9.3750748489616561e-05 5.3833129094655114e-06 8.0536308102378241e-14 -9.3750759533475517e-05 5.3833129094655114e-06 8.0536308102378241e-14 -9.3750759533475517e-05 5.9554208960876174e-15 -6.0919365044340975e-11 -9.3750748489616548e-05 -5.3827766802904884e-16 4.5814357869369831e-12 -7.8930752105277409e-05 1.4367818951881209e-15 -1.1220455065806139e-10 -7.5788219930339633e-05 5.9554208960876174e-15 -6.0919365044340975e-11 -9.3750748489616548e-05 5.3833129094655114e-06 8.0536308102378241e-14 -9.3750759533475517e-05 5.2906818504144126e-06 -1.1754297678743526e-10 -9.3750755763134002e-05 1.4367836881915026e-15 -1.122045506580614e-10 -7.5788219930339633e-05 -4.0425992648886255e-15 -2.0929587774538494e-10 -8.0024861201889212e-05 1.4367836881915026e-15 -1.122045506580614e-10 -7.5788219930339633e-05 5.2906818504144126e-06 -1.1754297678743523e-10 -9.3750755763133989e-05 9.821050217894438e-06 -1.1995729582929836e-10 -6.4464515990458339e-05 5.2906818504144126e-06 -1.1754297678743526e-10 -9.3750755763134002e-05 9.8210502178944346e-06 -1.1995729582929829e-10 -6.4464515990458339e-05 1.4367839408544714e-15 -1.122045506580614e-10 -7.5788219930339646e-05 6.8263720875830954e-06 -1.0035965799613709e-12 -7.2783662350562754e-05 -5.382785919488148e-16 4.5814357869370187e-12 -7.8930752105277409e-05 1.4367837858744623e-15 -1.122045506580614e-10 -7.5788219930339633e-05 1.1097278251017841e-15 -1.94132622523856e-11 -6.3113901888498525e-05 6.826372087583098e-06 -1.0035965799613745e-12 -7.2783662350562741e-05 -5.382785919488148e-16 4.5814357869370187e-12 -7.8930752105277409e-05 5.3833129094655106e-06 8.0536308102380071e-14 -9.3750759533475517e-05 1.4367838032564308e-15 -1.122045506580614e-10 -7.5788219930339633e-05 6.8263720875830971e-06 -1.0035965799613721e-12 -7.2783662350562754e-05 1.4367836881915026e-15 -1.122045506580614e-10 -7.5788219930339633e-05 5.2906818504144126e-06 -1.1754297678743526e-10 -9.3750755763134002e-05 5.9554208960876174e-15 -6.0919365044340975e-11 -9.3750748489616548e-05 6.5798913503470888e-15 -1.7959232287760689e-10 -9.3750742564660967e-05 5.3833129094655114e-06 8.0536308102378241e-14 -9.3750759533475517e-05 1.0289405598455381e-05 -6.9568016606623194e-11 -9.3750809039443853e-05 5.2906818504144126e-06 -1.1754297678743526e-10 -9.3750755763134002e-05 6.8263720875830963e-06 -1.0035965799613743e-12 -7.2783662350562754e-05 5.3833129094655114e-06 8.0536308102378241e-14 -9.3750759533475517e-05 5.2906818504144126e-06 -1.1754297678743526e-10 -9.3750755763134002e-05 1.4367849277962632e-15 -1.122045506580614e-10 -7.5788219930339633e-05 6.8263720875830954e-06 -1.0035965799613747e-12 -7.2783662350562741e-05 9.8786135939167643e-06 -2.0798744852086702e-10 -9.3750799459135775e-05 5.2906818504144126e-06 -1.1754297678743526e-10 -9.3750755763134002e-05 1.0289405598455381e-05 -6.9568016606623194e-11 -9.3750809039443853e-05 9.8210502178944329e-06 -1.1995729582929829e-10 -6.4464515990458339e-05 1.0139817177953266e-05 6.684424013950382e-11 -9.3750805782791431e-05 1.0289405598455381e-05 -6.9568016606623194e-11 -9.3750809039443853e-05 5.3833129094655114e-06 8.0536308102378241e-14 -9.3750759533475517e-05 6.8263720875830963e-06 -1.0035965799613743e-12 -7.2783662350562754e-05 1.4316695783201491e-05 -1.3145605776550295e-10 -9.375086561988022e-05 9.8210502178944312e-06 -1.1995729582929829e-10 -6.4464515990458339e-05 1.5567843262398818e-05 1.4990089660868242e-11 -7.0356301486268353e-05 1.5651745605378253e-05 -1.9234266502301463e-10 -7.3205476020849543e-05 1.0289405598455381e-05 -6.9568016606623194e-11 -9.3750809039443853e-05 1.5567843262398821e-05 1.4990089660868252e-11 -7.0356301486268366e-05 9.8210502178944329e-06 -1.1995729582929831e-10 -6.4464515990458339e-05 6.8263720875830971e-06 -1.0035965799614054e-12 -7.2783662350562754e-05 9.8786135939167643e-06 -2.0798744852086702e-10 -9.3750799459135775e-05 1.0289405598455381e-05 -6.9568016606623207e-11 -9.3750809039443853e-05 1.4316695783201491e-05 -1.3145605776550295e-10 -9.375086561988022e-05 9.8210502178944312e-06 -1.1995729582929829e-10 -6.4464515990458339e-05 1.4316695783201491e-05 -1.3145605776550295e-10 -9.375086561988022e-05 9.878613593916766e-06 -2.0798744852086705e-10 -9.3750799459135775e-05 9.8210502178944329e-06 -1.1995729582929831e-10 -6.4464515990458339e-05 1.565174560537825e-05 -1.9234266502301463e-10 -7.3205476020849516e-05 1.0289405598455381e-05 -6.9568016606623194e-11 -9.3750809039443853e-05 1.4316695783201491e-05 -1.3145605776550295e-10 -9.375086561988022e-05 9.8210502178944329e-06 -1.1995729582929831e-10 -6.4464515990458339e-05 1.5567843262398821e-05 1.49900896608683e-11 -7.0356301486268353e-05 1.0289405598455381e-05 -6.9568016606623194e-11 -9.3750809039443853e-05 9.8210502178944329e-06 -1.1995729582929831e-10 -6.4464515990458339e-05 5.2906818504144126e-06 -1.1754297678743526e-10 -9.3750755763134002e-05 6.826372087583098e-06 -1.0035965799614232e-12 -7.2783662350562768e-05 1.0289405598455381e-05 -6.9568016606623194e-11 -9.3750809039443853e-05 1.6238358289679859e-05 -3.7326164822415392e-12 -9.3750900404310534e-05 1.4316695783201491e-05 -1.3145605776550295e-10 -9.375086561988022e-05 1.5567843262398818e-05 1.4990089660868242e-11 -7.0356301486268353e-05 9.8210502178944329e-06 -1.1995729582929831e-10 -6.4464515990458339e-05 1.5567843262398814e-05 1.4990089660868264e-11 -7.0356301486268339e-05 1.5625249668590073e-05 -1.8999680186084276e-12 -4.6876053609949647e-05 6.8263720875830954e-06 -1.0035965799613618e-12 -7.2783662350562741e-05 7.7405176361575505e-06 2.1356117799336817e-11 -4.2280854066794163e-05 1.5648250926865461e-05 -1.6177158778110248e-10 -4.9582261587321798e-05 9.8210502178944295e-06 -1.1995729582929831e-10 -6.4464515990458339e-05 6.9028532898638557e-06 -1.6030464980554265e-10 -4.6880517069063928e-05 9.8210502178944329e-06 -1.1995729582929831e-10 -6.4464515990458339e-05 1.5648250926865464e-05 -1.6177158778110248e-10 -4.9582261587321805e-05 1.5567843262398814e-05 1.4990089660868216e-11 -7.0356301486268339e-05 1.565174560537825e-05 -1.9234266502301461e-10 -7.320547602084953e-05 1.5625249668590073e-05 -1.8999680186084393e-12 -4.6876053609949647e-05 9.8210502178944329e-06 -1.1995729582929831e-10 -6.4464515990458339e-05 7.7405176361575505e-06 2.1356117799336817e-11 -4.2280854066794163e-05 1.5648250926865464e-05 -1.6177158778110248e-10 -4.9582261587321805e-05 1.5625249668590073e-05 -1.8999680186084393e-12 -4.6876053609949647e-05 1.5567843262398821e-05 1.4990089660868242e-11 -7.0356301486268353e-05 9.8210502178944346e-06 -1.1995729582929834e-10 -6.4464515990458339e-05 1.5648250926865464e-05 -1.6177158778110248e-10 -4.9582261587321805e-05 1.5625249668590073e-05 -1.8999680186084393e-12 -4.6876053609949647e-05 7.7405176361575505e-06 2.1356117799336817e-11 -4.2280854066794163e-05 9.8210502178944329e-06 -1.1995729582929834e-10 -6.4464515990458326e-05 6.8263720875830963e-06 -1.0035965799613743e-12 -7.2783662350562754e-05 6.8263720875830963e-06 -1.0035965799613743e-12 -7.2783662350562754e-05 9.8210502178944329e-06 -1.1995729582929831e-10 -6.4464515990458339e-05 -3.3399693596952597e-15 3.8449746987625279e-12 -4.871493405051282e-05 7.7405176361575471e-06 2.1356117799336791e-11 -4.2280854066794163e-05 -2.3907845498964199e-15 -1.0853292625280246e-10 -4.2950091863558312e-05 7.7405176361575488e-06 2.1356117799336827e-11 -4.2280854066794163e-05 1.7528147207941908e-15 -1.1535810943749576e-10 -5.7232514881601408e-05 6.9028532898638532e-06 -1.6030464980554265e-10 -4.6880517069063928e-05 1.7528146365996298e-15 -1.1535810943749576e-10 -5.7232514881601408e-05 -3.3399695230247315e-15 3.8449746987625295e-12 -4.871493405051282e-05 9.8210502178944329e-06 -1.1995729582929826e-10 -6.4464515990458339e-05 7.7405176361575505e-06 2.1356117799336817e-11 -4.2280854066794163e-05 6.8263720875830963e-06 -1.0035965799613743e-12 -7.2783662350562754e-05 1.7528171488498202e-15 -1.1535810943749571e-10 -5.7232514881601402e-05 -3.3399695230247315e-15 3.8449746987625295e-12 -4.871493405051282e-05 9.8210502178944329e-06 -1.1995729582929831e-10 -6.4464515990458339e-05 1.7528146365996298e-15 -1.1535810943749576e-10 -5.7232514881601408e-05 7.7405176361575505e-06 2.1356117799336807e-11 -4.2280854066794156e-05 9.8210502178944329e-06 -1.1995729582929831e-10 -6.4464515990458339e-05 6.9028532898638532e-06 -1.6030464980554267e-10 -4.6880517069063922e-05 6.8263720875830963e-06 -1.0035965799613743e-12 -7.2783662350562754e-05 -3.3399695230247315e-15 3.8449746987625295e-12 -4.871493405051282e-05 1.7528143965316799e-15 -1.1535810943749571e-10 -5.7232514881601408e-05 1.1097278251017841e-15 -1.94132622523856e-11 -6.3113901888498525e-05 -4.9209576831535999e-15 -2.3415668147635552e-10 -6.5045576787401815e-05 1.7528146365996298e-15 -1.1535810943749576e-10 -5.7232514881601408e-05 9.8210502178944329e-06 -1.1995729582929829e-10 -6.4464515990458339e-05 6.9028532898638532e-06 -1.6030464980554265e-10 -4.6880517069063928e-05 1.7528146365996298e-15 -1.1535810943749576e-10 -5.7232514881601408e-05 1.4367836881915026e-15 -1.122045506580614e-10 -7.5788219930339633e-05 9.8210502178944329e-06 -1.1995729582929831e-10 -6.4464515990458339e-05 6.8263720875830954e-06 -1.0035965799614222e-12 -7.2783662350562754e-05 -4.9209576831535999e-15 -2.3415668147635552e-10 -6.5045576787401815e-05 1.7528146365996298e-15 -1.1535810943749576e-10 -5.7232514881601408e-05 1.4367838606915541e-15 -1.122045506580614e-10 -7.5788219930339633e-05 9.8210502178944329e-06 -1.1995729582929831e-10 -6.4464515990458339e-05 -2.3907845498964199e-15 -1.0853292625280246e-10 -4.2950091863558312e-05 -3.3399695230247315e-15 3.8449746987625295e-12 -4.871493405051282e-05 1.7528146365996298e-15 -1.1535810943749576e-10 -5.7232514881601408e-05 7.7405176361575505e-06 2.1356117799336817e-11 -4.2280854066794163e-05 1.7528146365996298e-15 -1.1535810943749576e-10 -5.7232514881601408e-05 1.1097279377784921e-15 -1.94132622523856e-11 -6.3113901888498525e-05 1.4367839889047295e-15 -1.1220455065806142e-10 -7.5788219930339633e-05 6.8263720875830929e-06 -1.0035965799613374e-12 -7.2783662350562754e-05 1.7528146365996298e-15 -1.1535810943749576e-10 -5.7232514881601408e-05 -5.310344797328824e-15 -2.3736034749728896e-10 -4.7782357888152759e-05 -2.3907846726084314e-15 -1.0853292625280246e-10 -4.2950091863558312e-05 6.9028532898638549e-06 -1.6030464980554262e-10 -4.6880517069063928e-05 -4.9209576831535999e-15 -2.3415668147635552e-10 -6.5045576787401815e-05 4.5754161241602297e-06 -2.4288295377592895e-10 -8.0024884586573267e-05 5.8810402510648028e-06 -3.1567040294029825e-10 -6.4092312119480972e-05 9.8210502178944329e-06 -1.1995729582929831e-10 -6.4464515990458339e-05 -4.9209576831535999e-15 -2.3415668147635552e-10 -6.5045576787401815e-05 9.8210502178944329e-06 -1.1995729582929831e-10 -6.4464515990458339e-05 5.8810402510648036e-06 -3.1567040294029825e-10 -6.4092312119480959e-05 6.9028532898638532e-06 -1.6030464980554265e-10 -4.6880517069063928e-05 -4.9209576831535999e-15 -2.3415668147635552e-10 -6.5045576787401815e-05 5.8810402510648028e-06 -3.156704029402983e-10 -6.4092312119480972e-05 -5.310344797328824e-15 -2.3736034749728896e-10 -4.7782357888152759e-05 6.9028532898638532e-06 -1.6030464980554265e-10 -4.6880517069063928e-05 -4.9209576831535999e-15 -2.3415668147635552e-10 -6.5045576787401815e-05 -5.310344797328824e-15 -2.3736034749728896e-10 -4.7782357888152759e-05 1.7528144193215311e-15 -1.1535810943749576e-10 -5.7232514881601408e-05 6.9028532898638532e-06 -1.6030464980554265e-10 -4.6880517069063928e-05 9.367425572362375e-15 -3.4464396163504534e-10 -7.500083535449053e-05 9.1012213313836208e-15 -4.0658736912092405e-10 -5.6250952737823196e-05 -4.9209576831535999e-15 -2.3415668147635552e-10 -6.5045576787401815e-05 5.8810402510648036e-06 -3.156704029402983e-10 -6.4092312119480972e-05 9.1012213313836208e-15 -4.0658736912092405e-10 -5.6250952737823196e-05 -4.9209576831535999e-15 -2.3415668147635552e-10 -6.5045576787401815e-05 5.8810402510648036e-06 -3.156704029402983e-10 -6.4092312119480972e-05 -5.310344797328824e-15 -2.3736034749728896e-10 -4.7782357888152759e-05 5.8810402510648036e-06 -3.156704029402983e-10 -6.4092312119480972e-05 5.1159300676095837e-06 -2.9971958617613238e-10 -4.5813371577604965e-05 9.1012213313836208e-15 -4.0658736912092405e-10 -5.6250952737823196e-05 -5.310344797328824e-15 -2.3736034749728896e-10 -4.7782357888152759e-05 5.8810402510648036e-06 -3.156704029402983e-10 -6.4092312119480972e-05 9.6971428276632881e-06 -2.5738882461123314e-10 -5.0794599007517377e-05 5.1159300676095837e-06 -2.9971958617613238e-10 -4.5813371577604965e-05 6.9028532898638532e-06 -1.6030464980554265e-10 -4.6880517069063928e-05 -5.310344797328824e-15 -2.3736034749728896e-10 -4.7782357888152759e-05 5.8810402510648028e-06 -3.156704029402983e-10 -6.4092312119480972e-05 5.1159300676095837e-06 -2.9971958617613238e-10 -4.5813371577604965e-05 6.902853289863854e-06 -1.6030464980554257e-10 -4.6880517069063922e-05 9.3985731108421449e-06 -3.0379448547104406e-10 -7.7879282451970671e-05 1.2380216437079893e-05 -3.5025148022504263e-10 -6.2882337885788114e-05 5.8810402510648036e-06 -3.156704029402983e-10 -6.4092312119480972e-05 9.8210502178944329e-06 -1.1995729582929831e-10 -6.4464515990458339e-05 9.6971428276632881e-06 -2.5738882461123314e-10 -5.0794599007517377e-05 9.8210502178944346e-06 -1.1995729582929834e-10 -6.4464515990458339e-05 1.5648250926865461e-05 -1.6177158778110251e-10 -4.9582261587321818e-05 6.9028532898638532e-06 -1.6030464980554262e-10 -4.6880517069063922e-05 1.2380216437079893e-05 -3.5025148022504263e-10 -6.2882337885788114e-05 9.6971428276632881e-06 -2.5738882461123314e-10 -5.0794599007517377e-05 9.8210502178944329e-06 -1.1995729582929826e-10 -6.4464515990458326e-05 1.5648250926865464e-05 -1.6177158778110241e-10 -4.9582261587321798e-05 1.2380216437079893e-05 -3.5025148022504263e-10 -6.2882337885788114e-05 9.8210502178944329e-06 -1.1995729582929831e-10 -6.4464515990458339e-05 9.3985731108421449e-06 -3.0379448547104406e-10 -7.7879282451970671e-05 1.565174560537825e-05 -1.9234266502301461e-10 -7.320547602084953e-05 5.8810402510648036e-06 -3.156704029402983e-10 -6.4092312119480972e-05 9.8210502178944329e-06 -1.1995729582929826e-10 -6.4464515990458339e-05 9.6971428276632881e-06 -2.5738882461123314e-10 -5.0794599007517377e-05 6.9028532898638532e-06 -1.6030464980554265e-10 -4.6880517069063928e-05 1.875660783718468e-05 -3.6998383870866295e-10 -6.3330935304123164e-05 1.5648250926865461e-05 -1.6177158778110248e-10 -4.9582261587321798e-05 1.2380216437079893e-05 -3.5025148022504263e-10 -6.2882337885788114e-05 1.565174560537825e-05 -1.9234266502301461e-10 -7.320547602084953e-05 9.6971428276632881e-06 -2.5738882461123314e-10 -5.0794599007517377e-05 5.8810402510648045e-06 -3.156704029402983e-10 -6.4092312119480972e-05 1.2380216437079893e-05 -3.5025148022504263e-10 -6.2882337885788114e-05 9.8210502178944329e-06 -1.1995729582929831e-10 -6.4464515990458339e-05 1.2380216437079893e-05 -3.5025148022504263e-10 -6.2882337885788114e-05 1.5648250926865464e-05 -1.6177158778110243e-10 -4.9582261587321805e-05 9.8210502178944329e-06 -1.1995729582929826e-10 -6.4464515990458326e-05 1.565174560537825e-05 -1.9234266502301461e-10 -7.320547602084953e-05 1.2380216437079893e-05 -3.5025148022504263e-10 -6.2882337885788114e-05 1.875660783718468e-05 -3.6998383870866295e-10 -6.3330935304123164e-05 1.5625240988077201e-05 -3.190795172380481e-10 -4.5037149767354852e-05 1.5648250926865464e-05 -1.6177158778110246e-10 -4.9582261587321812e-05 1.2380216437079893e-05 -3.5025148022504263e-10 -6.2882337885788114e-05 1.5625240988077201e-05 -3.190795172380481e-10 -4.5037149767354859e-05 9.6971428276632881e-06 -2.5738882461123314e-10 -5.0794599007517377e-05 1.5648250926865464e-05 -1.6177158778110246e-10 -4.9582261587321812e-05 1.5574217527082234e-05 -3.3049402307369033e-10 -7.7601455638267436e-05 1.875660783718468e-05 -3.6998383870866295e-10 -6.3330935304123164e-05 1.2380216437079893e-05 -3.5025148022504263e-10 -6.2882337885788114e-05 1.565174560537825e-05 -1.9234266502301461e-10 -7.320547602084953e-05 9.3985731108421449e-06 -3.0379448547104406e-10 -7.7879282451970671e-05 4.5754484152047171e-06 -2.0386481007961278e-10 -9.3750744251528843e-05 9.8786135939167643e-06 -2.0798744852086702e-10 -9.3750799459135775e-05 9.8210502178944329e-06 -1.1995729582929831e-10 -6.4464515990458339e-05 9.3985731108421449e-06 -3.0379448547104406e-10 -7.7879282451970671e-05 9.8210502178944329e-06 -1.1995729582929831e-10 -6.4464515990458339e-05 9.8786135939167626e-06 -2.0798744852086705e-10 -9.3750799459135775e-05 1.5651745605378247e-05 -1.9234266502301461e-10 -7.320547602084953e-05 9.3985731108421449e-06 -3.0379448547104406e-10 -7.7879282451970671e-05 9.8786135939167643e-06 -2.0798744852086702e-10 -9.3750799459135789e-05 1.5574217527082234e-05 -3.3049402307369033e-10 -7.7601455638267436e-05 1.565174560537825e-05 -1.9234266502301466e-10 -7.3205476020849543e-05 1.2380216437079893e-05 -3.5025148022504263e-10 -6.2882337885788114e-05 9.3985731108421449e-06 -3.0379448547104406e-10 -7.7879282451970671e-05 1.5574217527082234e-05 -3.3049402307369033e-10 -7.7601455638267436e-05 1.565174560537825e-05 -1.9234266502301461e-10 -7.320547602084953e-05 9.8786135939167643e-06 -2.0798744852086702e-10 -9.3750799459135775e-05 1.2500306858093601e-05 -3.8664393901389441e-10 -9.3750867991639029e-05 1.5574217527082234e-05 -3.3049402307369033e-10 -7.7601455638267436e-05 1.5927496455617845e-05 -2.4239306112114728e-10 -9.3750897834651964e-05 1.2500306858093601e-05 -3.8664393901389441e-10 -9.3750867991639029e-05 1.5574217527082234e-05 -3.3049402307369033e-10 -7.7601455638267436e-05 9.3985731108421449e-06 -3.0379448547104406e-10 -7.7879282451970671e-05 9.8786135939167643e-06 -2.0798744852086702e-10 -9.3750799459135775e-05 9.8786135939167643e-06 -2.0798744852086702e-10 -9.3750799459135775e-05 1.5927496455617845e-05 -2.4239306112114728e-10 -9.3750897834651964e-05 1.5574217527082234e-05 -3.3049402307369033e-10 -7.7601455638267436e-05 1.565174560537825e-05 -1.9234266502301466e-10 -7.320547602084953e-05 1.4316695783201491e-05 -1.3145605776550295e-10 -9.375086561988022e-05 1.5927496455617845e-05 -2.4239306112114728e-10 -9.3750897834651964e-05 9.8786135939167643e-06 -2.0798744852086702e-10 -9.3750799459135775e-05 1.565174560537825e-05 -1.9234266502301461e-10 -7.320547602084953e-05 1.2500306858093601e-05 -3.8664393901389441e-10 -9.3750867991639029e-05 9.3985731108421449e-06 -3.0379448547104406e-10 -7.7879282451970671e-05 6.2501599514001527e-06 -3.0279703507952551e-10 -9.3750776904953566e-05 9.8786135939167643e-06 -2.0798744852086702e-10 -9.3750799459135775e-05 -4.0425992648886255e-15 -2.0929587774538494e-10 -8.0024861201889212e-05 -4.9209574123497436e-15 -2.3415668147635546e-10 -6.5045576787401801e-05 1.4367836881915026e-15 -1.122045506580614e-10 -7.5788219930339633e-05 9.8210502178944346e-06 -1.1995729582929829e-10 -6.4464515990458339e-05 5.2906818504144126e-06 -1.1754297678743526e-10 -9.3750755763134002e-05 9.8786135939167643e-06 -2.0798744852086702e-10 -9.3750799459135775e-05 4.5754484152047171e-06 -2.0386481007961278e-10 -9.3750744251528843e-05 9.8210502178944329e-06 -1.1995729582929831e-10 -6.4464515990458339e-05 4.5754484152047171e-06 -2.0386481007961278e-10 -9.3750744251528843e-05 6.2501599514001511e-06 -3.0279703507952551e-10 -9.3750776904953566e-05 4.5754161241602289e-06 -2.428829537759289e-10 -8.0024884586573267e-05 9.3985731108421449e-06 -3.0379448547104406e-10 -7.7879282451970671e-05 4.5754484152047171e-06 -2.0386481007961278e-10 -9.3750744251528843e-05 9.3985731108421466e-06 -3.0379448547104412e-10 -7.7879282451970671e-05 4.5754161241602289e-06 -2.428829537759289e-10 -8.0024884586573267e-05 9.8210502178944363e-06 -1.1995729582929839e-10 -6.4464515990458339e-05 4.5754484152047171e-06 -2.0386481007961278e-10 -9.3750744251528843e-05 6.2501599514001527e-06 -3.0279703507952551e-10 -9.3750776904953566e-05 9.3985731108421449e-06 -3.0379448547104406e-10 -7.7879282451970671e-05 9.8786135939167643e-06 -2.0798744852086702e-10 -9.3750799459135775e-05 5.8810402510648036e-06 -3.156704029402983e-10 -6.4092312119480972e-05 4.5754161241602289e-06 -2.428829537759289e-10 -8.0024884586573267e-05 9.3985731108421449e-06 -3.0379448547104406e-10 -7.7879282451970671e-05 9.8210502178944329e-06 -1.1995729582929826e-10 -6.4464515990458339e-05 -4.0425992648886255e-15 -2.0929587774538494e-10 -8.0024861201889212e-05 5.2906818504144101e-06 -1.1754297678743521e-10 -9.3750755763134016e-05 4.5754484152047179e-06 -2.0386481007961283e-10 -9.3750744251528843e-05 9.8210502178944346e-06 -1.1995729582929829e-10 -6.4464515990458326e-05 4.5754484152047171e-06 -2.0386481007961278e-10 -9.3750744251528843e-05 4.5754161241602289e-06 -2.428829537759289e-10 -8.0024884586573267e-05 -4.0425992648886255e-15 -2.0929587774538494e-10 -8.0024861201889212e-05 9.8210502178944329e-06 -1.1995729582929831e-10 -6.4464515990458339e-05 -4.9209576831535999e-15 -2.3415668147635552e-10 -6.5045576787401815e-05 -4.0425992648886255e-15 -2.0929587774538494e-10 -8.0024861201889212e-05 4.5754161241602289e-06 -2.428829537759289e-10 -8.0024884586573267e-05 9.8210502178944312e-06 -1.1995729582929831e-10 -6.4464515990458326e-05 6.5798913503470888e-15 -1.7959232287760689e-10 -9.3750742564660967e-05 1.4367836881915026e-15 -1.122045506580614e-10 -7.5788219930339633e-05 5.2906818504144126e-06 -1.1754297678743526e-10 -9.3750755763134002e-05 -4.0425992648886255e-15 -2.0929587774538494e-10 -8.0024861201889212e-05 4.5754484152047171e-06 -2.0386481007961278e-10 -9.3750744251528843e-05 6.5798911559047488e-15 -1.7959232287760687e-10 -9.3750742564660953e-05 5.2906818504144126e-06 -1.1754297678743526e-10 -9.3750755763134002e-05 -4.0425992648886255e-15 -2.0929587774538494e-10 -8.0024861201889212e-05 -4.9209576831535999e-15 -2.3415668147635552e-10 -6.5045576787401815e-05 4.5754161241602297e-06 -2.4288295377592895e-10 -8.0024884586573267e-05 9.367425572362375e-15 -3.4464396163504534e-10 -7.500083535449053e-05 5.8810402510648045e-06 -3.156704029402982e-10 -6.4092312119480986e-05 -4.0425992648886255e-15 -2.0929587774538494e-10 -8.0024861201889212e-05 4.5754161241602297e-06 -2.4288295377592885e-10 -8.0024884586573253e-05 9.367425572362375e-15 -3.4464396163504534e-10 -7.500083535449053e-05 -4.9209576831535999e-15 -2.3415668147635552e-10 -6.5045576787401815e-05 6.580739398046695e-15 -3.2673349029088634e-10 -9.3750749670708678e-05 6.5798913503470904e-15 -1.7959232287760689e-10 -9.375074256466098e-05 4.5754484152047171e-06 -2.0386481007961278e-10 -9.3750744251528843e-05 -4.0425992648886255e-15 -2.0929587774538494e-10 -8.0024861201889212e-05 4.5754161241602289e-06 -2.428829537759289e-10 -8.0024884586573267e-05 9.36742553822284e-15 -3.4464396163504534e-10 -7.500083535449053e-05 6.580739398046695e-15 -3.2673349029088634e-10 -9.3750749670708678e-05 -4.0425992648886255e-15 -2.0929587774538494e-10 -8.0024861201889212e-05 6.580739398046695e-15 -3.2673349029088634e-10 -9.3750749670708678e-05 4.5754484152047171e-06 -2.0386481007961278e-10 -9.3750744251528857e-05 6.2501599514001527e-06 -3.0279703507952551e-10 -9.3750776904953566e-05 4.5754161241602289e-06 -2.428829537759289e-10 -8.0024884586573267e-05 4.5754161241602289e-06 -2.428829537759289e-10 -8.0024884586573267e-05 6.580739398046695e-15 -3.2673349029088634e-10 -9.3750749670708678e-05 4.5754484152047171e-06 -2.0386481007961278e-10 -9.3750744251528843e-05 -4.0425992648886255e-15 -2.0929587774538494e-10 -8.0024861201889212e-05 
</DataArray>
</PointData>
<CellData Scalars="" Vectors="" Tensors="stress,">
<DataArray type="Float64" Name="stress" NumberOfComponents="9" format="ascii">
0.093784459627386241 -0.005640450266214507 -0.050372471038945016 -0.005640450266214507 -2499.889905135854 -0.048509022968130477 -0.050372471038945016 -0.048509022968130477 -9999.8479312672043 0.13434840873833309 0.01096428157233896 0.072791709454239517 0.01096428157233896 -2499.8825805368651 0.034527416413540513 0.072791709454239517 0.034527416413540513 -9999.8444264885875 0.12006432665475586 0.013143896097578697 0.0040158887471153371 0.013143896097578697 -2499.8246484329848 0.13567734388441333 0.0040158887471153371 0.13567734388441333 -9999.7680563832655 0.1410269028990333 0.020771451399033095 0.013862399391655345 0.020771451399033095 -2499.848777054523 0.023772046771295144 0.013862399391655345 0.023772046771295144 -9999.8379264093492 0.10905762661968765 -0.00058768126491556653 0.0060809928081653197 -0.00058768126491556653 -2499.8728104785532 -0.032767526766747324 0.0060809928081653197 -0.032767526766747324 -9999.9055301939989 0.11665148397787561 -0.01946247749121538 -0.034551093961226798 -0.01946247749121538 -2499.8628840390857 -0.00029470110212059808 -0.034551093961226798 -0.00029470110212059808 -9999.9054999799082 0.10332475038535449 0.010445577934130458 0.041923492198066015 0.010445577934130458 -2499.9098702089996 0.063528640560662097 0.041923492198066015 0.063528640560662097 -9999.9344900025117 0.077698766487173998 -0.025101412923965727 -0.031438413312571356 -0.025101412923965727 -2499.9281604577081 0.04195851569829756 -0.031438413312571356 0.04195851569829756 -10000.005184159272 0.082697491696762881 -0.0026152183842042681 0.016279431933526212 -0.0026152183842042681 -2499.903949750797 -0.022671549860206142 0.016279431933526212 -0.022671549860206142 -9999.9953959725681 0.054281457596289329 0.0015557420157407027 0.0038487969006837375 0.0015557420157407027 -2499.9683781273297 0.020721632492950448 0.0038487969006837375 0.020721632492950448 -10000.051367639597 0.096359748185818717 0.0090426587048139835 -0.0052314846398076043 0.0090426587048139835 -2499.9061015173766 -0.017577245019310794 -0.0052314846398076043 -0.017577245019310794 -9999.9322698722281 0.10486483772274369 0.01314424976555616 0.0038424939384640311 0.01314424976555616 -2499.9010426819577 -0.0082457338203312247 0.0038424939384640311 -0.0082457338203312247 -9999.9324319400985 0.10946846427668788 0.004302169335654582 0.0043089437403978081 0.004302169335654582 -2499.88641993491 0.0057192709573428147 0.0043089437403978081 0.0057192709573428147 -9999.9320095091716 0.12578366774209826 0.014310323029106229 0.055094557046686532 0.014310323029106229 -2499.8728904956893 -0.010485205510576634 0.055094557046686532 -0.010485205510576634 -9999.888392228162 0.13471448744469885 0.0059840015821489671 0.043269225360981198 0.0059840015821489671 -2499.8797962027147 -0.044820270625699377 0.043269225360981198 -0.044820270625699377 -9999.8282425761736 0.13140873217139834 0.012088870677613807 -0.058126240540419871 0.012088870677613807 -2499.8112009010797 0.09022333729918694 -0.058126240540419871 0.09022333729918694 -9999.7234476201938 0.13543110254158819 -0.0017364145313541884 -0.022857621183902666 -0.0017364145313541884 -2499.8456179735867 0.11738837497546228 -0.022857621183902666 0.11738837497546228 -9999.7978055551011 0.1770063387156332 0.0088711474543881896 -0.036810904132570155 0.0088711474543881896 -2499.8319356988445 0.059550952927259315 -0.036810904132570155 0.059550952927259315 -9999.7748258125812 0.075110212233084894 -0.0098735165291048751 -0.066140950102635543 -0.0098735165291048751 -2499.895010938636 0.016778368026280077 -0.066140950102635543 0.016778368026280077 -9999.9234665771091 0.090226946495825189 -0.01433492553519429 0.017151933845525491 -0.01433492553519429 -2499.8895783104554 0.017303589893089111 0.017151933845525491 0.017303589893089111 -9999.916548524754 0.085291564112139895 0.012374145886911662 0.022698482369094108 0.012374145886911662 -2499.9187161736145 0.031834618496304756 0.022698482369094108 0.031834618496304756 -9999.9532313044419 0.082377123030255461 0.0042870283742864491 0.026071076589855281 0.0042870283742864491 -2499.9134804740988 0.043410771738369491 0.026071076589855281 0.043410771738369491 -9999.9590518880941 0.15407418891901142 0.0051496318208568564 0.019047796677417628 0.0051496318208568564 -2499.831204000257 0.093353399056010478 0.019047796677417628 0.093353399056010478 -9999.7547603794665 0.12120426592127842 -0.0038339733769016462 0.0082739214258253924 -0.0038339733769016462 -2499.833987476869 0.08486228016224473 0.0082739214258253924 0.08486228016224473 -9999.7245694930425 0.076719185732144979 0.0052816176565903053 -0.0025007795507008268 0.0052816176565903053 -2499.8884367714936 0.0096532570773888438 -0.0025007795507008268 0.0096532570773888438 -9999.8540116444019 0.069691077167135518 0.0041716135135442967 0.0030036383523110999 0.0041716135135442967 -2499.9092953467316 0.023928070406782354 0.0030036383523110999 0.023928070406782354 -9999.8879768354091 0.099739903931094887 -0.0034738517623743581 -0.0051824728434439749 -0.0034738517623743581 -2499.9045538766463 0.0076934053859076812 -0.0051824728434439749 0.0076934053859076812 -9999.8933425954383 0.093008195801303373 0.004789730142144219 -0.014124862905191549 0.004789730142144219 -2499.8966516448063 0.0043295263826621522 -0.014124862905191549 0.0043295263826621522 -9999.912183786395 0.10075885396599915 -0.0024223837651580656 -0.0061654607143282192 -0.0024223837651580656 -2499.8946720289077 0.0012073293626144732 -0.0061654607143282192 0.0012073293626144732 -9999.8997432252909 0.081131736595580151 -0.018401590222800378 -0.0059634257841025828 -0.018401590222800378 -2499.8798993786345 0.014675763397917763 -0.0059634257841025828 0.014675763397917763 -9999.9267062471099 0.087105410359981761 -0.010434911562177188 0.0056580115883662074 -0.010434911562177188 -2499.9010758974127 0.0070901071358093759 0.0056580115883662074 0.0070901071358093759 -9999.9278833298449 0.11445209561313163 -0.00014872184674746824 -0.025511791977805842 -0.00014872184674746824 -2499.8751848979232 0.015112624374523875 -0.025511791977805842 0.015112624374523875 -9999.8643708300679 0.097225986294674271 -0.0093039024690751981 0.01157974243415083 -0.0093039024690751981 -2499.8821418907564 0.01616325291043097 0.01157974243415083 0.01616325291043097 -9999.8730268349464 0.097002191849128394 -0.017781733087193441 -0.0017504948973510182 -0.017781733087193441 -2499.8552100923589 0.028149901437700464 -0.0017504948973510182 0.028149901437700464 -9999.8654008446429 0.091273080302926246 -0.0086258465377677153 -0.0034293346107006073 -0.0086258465377677153 -2499.8887482607715 0.0054122020183058339 -0.0034293346107006073 0.0054122020183058339 -9999.8911234460575 0.08333214471986139 -0.014288708860847037 -4.7922903831931762e-06 -0.014288708860847037 -2499.898859058665 0.016277833951789944 -4.7922903831931762e-06 0.016277833951789944 -9999.9038198017915 0.10547647392922954 0.0085043300077926598 -0.0083863080290029757 0.0085043300077926598 -2499.8896031028798 0.0071990580854617292 -0.0083863080290029757 0.0071990580854617292 -9999.8887539902644 0.095213554929614475 0.0054803537600961807 -0.015140046867600176 0.0054803537600961807 -2499.8940879792635 0.0030120348801574437 -0.015140046867600176 0.0030120348801574437 -9999.9085952452151 0.10010423603989693 -0.0012095595327849436 -0.0049187167855961889 -0.0012095595327849436 -2499.8947275428013 -0.0027849952411997947 -0.0049187167855961889 -0.0027849952411997947 -9999.9308343770772 0.11242609849614382 -0.00018251927496540712 -0.006147985704956227 -0.00018251927496540712 -2499.8851969713451 0.00058487940623308532 -0.006147985704956227 0.00058487940623308532 -9999.9014046418779 0.11021596256978228 -0.0010685557721435924 -0.0052392103522151956 -0.0010685557721435924 -2499.8849129642804 -0.00023758522536354576 -0.0052392103522151956 -0.00023758522536354576 -9999.8999784460757 0.12842200521481573 0.019900797892387176 -0.0029550553481385577 0.019900797892387176 -2499.8466327100705 -0.0077579199751198757 -0.0029550553481385577 -0.0077579199751198757 -9999.8801937304597 0.12783487938577309 0.013980845760680323 -0.0027699275979102822 0.013980845760680323 -2499.848607080291 0.0039815834029468533 -0.0027699275979102822 0.0039815834029468533 -9999.8881534406573 0.12292446678839042 0.017823405890565667 -0.00137860424547398 0.017823405890565667 -2499.8573053954224 -0.0019555156577553134 -0.00137860424547398 -0.0019555156577553134 -9999.8915232551153 0.12427439614612013 0.008167615631480718 -0.0020581649105224642 0.008167615631480718 -2499.8635582074739 -0.0074549356961597368 -0.0020581649105224642 -0.0074549356961597368 -9999.8956960730702 0.10776840662470022 0.0059453933581965143 -0.004661103525904764 0.0059453933581965143 -2499.8900737173262 -0.0063572155813744757 -0.004661103525904764 -0.0063572155813744757 -9999.9045028072796 0.1150203522429365 0.0049879174984067652 -0.0024711312216822989 0.0049879174984067652 -2499.8632515602148 -0.012855700240834267 -0.0024711312216822989 -0.012855700240834267 -9999.8985082811942 0.11784502622049331 0.00044510433552363317 0.00019757019617827609 0.00044510433552363317 -2499.8692515325638 -0.019926664667764271 0.00019757019617827609 -0.019926664667764271 -9999.8739492103505 0.10821550550463144 -7.5382550449511199e-05 -8.2452331298554782e-05 -7.5382550449511199e-05 -2499.8876462030203 -0.0029198284619269543 -8.2452331298554782e-05 -0.0029198284619269543 -9999.8976515025424 0.11225515555815946 0.00065789292071534444 -2.4166456569219008e-07 0.00065789292071534444 -2499.8755690583694 -0.013833704413173109 -2.4166456569219008e-07 -0.013833704413173109 -9999.8899892609879 0.11758598825190347 0.0023564380602946341 -0.002542064994258908 0.0023564380602946341 -2499.8813096788158 -0.0073422851428404101 -0.002542064994258908 -0.0073422851428404101 -9999.8682562267313 0.11450959410831274 -0.00032966781348918483 0.0022617179490680428 -0.00032966781348918483 -2499.8790537372934 -0.0078606313327327371 0.0022617179490680428 -0.0078606313327327371 -9999.8771143241866 0.11205695480657596 0.0029418737584059815 -0.0015702143803082436 0.0029418737584059815 -2499.8906415644001 -0.012949714112892252 -0.0015702143803082436 -0.012949714112892252 -9999.8850387986131 0.10693522630117513 0.00042929773891300753 -0.0017749838079907931 0.00042929773891300753 -2499.8839711419869 -0.0069538115039904369 -0.0017749838079907931 -0.0069538115039904369 -9999.9059354073197 0.11636802514840383 -0.00013304742126193231 -0.00049170814327226253 -0.00013304742126193231 -2499.8771564059498 -0.0045297589986148523 -0.00049170814327226253 -0.0045297589986148523 -9999.8705299415815 0.079482717160317407 -0.0057294006636043424 0.0054290182001750509 -0.0057294006636043424 -2499.8975978331441 -2.5969825969696103e-05 0.0054290182001750509 -2.5969825969696103e-05 -9999.9239761436966 0.08463730554058202 -0.0029632097027951203 0.0067913697889707692 -0.0029632097027951203 -2499.894191662655 -0.0040087103704991023 0.0067913697889707692 -0.0040087103704991023 -9999.882388300919 0.087916280482659204 -0.011435908798771465 0.0039976832072170509 -0.011435908798771465 -2499.8832898905453 0.0018875151886277308 0.0039976832072170509 0.0018875151886277308 -9999.9218773147004 0.095264060617409996 -0.0023436063195970145 -0.0017235320328836679 -0.0023436063195970145 -2499.8914716248983 -0.0031606983620804385 -0.0017235320328836679 -0.0031606983620804385 -9999.9114037912623 0.085757085168552294 -0.0066706233434884856 0.003550396643277054 -0.0066706233434884856 -2499.9043961536981 0.0030378236119759094 0.003550396643277054 0.0030378236119759094 -9999.9249045807483 0.10002604687542771 -0.0028288094805873597 -0.005339703532627027 -0.0028288094805873597 -2499.8916770149453 -0.0042193525405309629 -0.005339703532627027 -0.0042193525405309629 -9999.9058667724275 0.069067360024973823 0.0022602918315764364 0.066838626223216124 0.0022602918315764364 -2499.9078870762874 -0.074714812347792758 0.066838626223216124 -0.074714812347792758 -9999.9093921072235 0.10641755025153543 0.0019035970684362787 0.0046523116029675293 0.0019035970684362787 -2499.8615372687368 -0.012212068832809564 0.0046523116029675293 -0.012212068832809564 -9999.8329535914218 0.06107339545474133 -0.013855209569890857 -0.0071633135098636558 -0.013855209569890857 -2499.9092295832793 -0.0014116771858425636 -0.0071633135098636558 -0.0014116771858425636 -10000.004150967998 0.096368450407226192 0.010202538406731673 0.097652125589353406 0.010202538406731673 -2499.8765453469041 -0.029017540782688145 0.097652125589353406 -0.029017540782688145 -9999.8619688224317 0.11367054912363983 0.0066105200921630723 -0.032039272657584661 0.0066105200921630723 -2499.8747374650779 -0.019959121403644531 -0.032039272657584661 -0.019959121403644531 -9999.8684458696916 0.090466086885498953 -0.0058952330330074507 0.028604098747109674 -0.0058952330330074507 -2499.8737324091317 0.050304757940466516 0.028604098747109674 0.050304757940466516 -9999.9494409474864 0.094622213437901337 -0.00227905512612796 0.008191180158064526 -0.00227905512612796 -2499.8818407509657 0.0025468619551247684 0.008191180158064526 0.0025468619551247684 -9999.8541636215796 0.109726703547949 0.0086616265535267578 -0.0308731615790451 0.0086616265535267578 -2499.8750613488392 -0.0209279552949303 -0.0308731615790451 -0.0209279552949303 -9999.8701245992961 0.1212207265671168 0.0085443393630843974 0.01860832568494275 0.0085443393630843974 -2499.8657314940892 -0.016170592045723922 0.01860832568494275 -0.016170592045723922 -9999.8660383078168 0.10064010454607342 0.017983012843510112 0.056483193091699607 0.017983012843510112 -2499.8747693566102 -0.084207163419399877 0.056483193091699607 -0.084207163419399877 -9999.8864047489187 0.09664929560631208 -0.010092918567922229 0.008704222547748941 -0.010092918567922229 -2499.9070127708637 -0.056653796736895856 0.008704222547748941 -0.056653796736895856 -9999.9235384391432 0.09795272282519818 -0.0012947607056973682 0.0069012607025911166 -0.0012947607056973682 -2499.8978745844224 -0.0062560589767599595 0.0069012607025911166 -0.0062560589767599595 -9999.9247596148871 0.11755362469921238 0.00021219841363131239 0.017861553881175496 0.00021219841363131239 -2499.8769723497135 -0.019844834432639402 0.017861553881175496 -0.019844834432639402 -9999.899551640412 0.12303928852634272 0.00034416039258508904 -0.029351410111596532 0.00034416039258508904 -2499.8678905170336 -0.019154464177394005 -0.029351410111596532 -0.019154464177394005 -9999.8686942284749 0.13351991030115945 0.0056055882253668449 0.039094474042082494 0.0056055882253668449 -2499.857954945684 -0.047747978080128095 0.039094474042082494 -0.047747978080128095 -9999.8264029987349 0.14947987540085705 3.6558375663471587e-05 0.064553333871412544 3.6558375663471587e-05 -2499.8609902414742 -0.0098895527266904537 0.064553333871412544 -0.0098895527266904537 -9999.759523628265 0.10777964871931545 -0.00079311233573702467 0.016809042542263342 -0.00079311233573702467 -2499.9086992335647 -0.0099125756211861926 0.016809042542263342 -0.0099125756211861926 -9999.9087770340775 0.12467840970111865 0.0021502563590838218 0.010457191134264576 0.0021502563590838218 -2499.8927931100316 -0.022811698526680857 0.010457191134264576 -0.022811698526680857 -9999.8639532066354 0.14208418644467702 0.00032663061912559981 0.039925334612471552 0.00032663061912559981 -2499.8236376081031 0.022082719899790937 0.039925334612471552 0.022082719899790937 -9999.814979771978 0.15818873124177518 0.0053317513445713801 0.065398416340989834 0.0053317513445713801 -2499.8296635631618 -0.015540719359302013 0.065398416340989834 -0.015540719359302013 -9999.7501913477172 0.12560767204627155 0.0039053731585554433 0.0025353688147333742 0.0039053731585554433 -2499.8867002243642 0.012931165233567299 0.0025353688147333742 0.012931165233567299 -9999.8810768283911 0.10484179560762641 0.0048041112259821564 0.0097736748296028964 0.0048041112259821564 -2499.9065572790437 0.0084611920210591052 0.0097736748296028964 0.0084611920210591052 -9999.9372099206375 0.13236557727932269 -0.0062365280151062893 0.04289550002971973 -0.0062365280151062893 -2499.8596747238716 0.014883819826189582 0.04289550002971973 0.014883819826189582 -9999.8230725815301 0.12268409412718029 0.0027537520345504943 -0.056115701585895295 0.0027537520345504943 -2499.8918104132104 0.0030426590769820905 -0.056115701585895295 0.0030426590769820905 -9999.8941178222012 0.1270923004699398 -0.0099470263312841263 0.042348402664401874 -0.0099470263312841263 -2499.8734734733321 0.015907991514723108 0.042348402664401874 0.015907991514723108 -9999.8251349026468 0.11871348877089588 -0.0077343495382633312 0.027162557905560214 -0.0077343495382633312 -2499.8723375965565 0.041632539073214736 0.027162557905560214 0.041632539073214736 -9999.8703055485548 0.1193835685180602 0.0075516852360789522 -0.042998565790301868 0.0075516852360789522 -2499.8743349394563 0.02004295576574916 -0.042998565790301868 0.02004295576574916 -9999.9199773114451 0.1362962987791434 0.0045585807574360917 -0.048287238918281072 0.0045585807574360917 -2499.8657185196953 0.022076775783759495 -0.048287238918281072 0.022076775783759495 -9999.8582337073949 0.11685560813748452 0.0070822134598009651 0.018014743937783351 0.0070822134598009651 -2499.881905801326 0.025940913378548203 0.018014743937783351 0.025940913378548203 -9999.9053191843286 0.13496624701474502 -0.0021635074708111976 0.0026460395224603417 -0.0021635074708111976 -2499.8649217132715 0.014571211355359992 0.0026460395224603417 0.014571211355359992 -9999.8769293892874 0.12789251074991626 0.0018629683558743014 0.0090482241898826032 0.0018629683558743014 -2499.8810770265882 0.024474642230416066 0.0090482241898826032 0.024474642230416066 -9999.8628168304585 0.10992781121512962 0.0017032143271494319 0.016535453085907648 0.0017032143271494319 -2499.8969718009048 0.02527478997342314 0.016535453085907648 0.02527478997342314 -9999.9096791303691 0.090127783865682431 0.012147254818151067 -0.0009142607307239814 0.012147254818151067 -2499.8931776682075 0.011476373517780303 -0.0009142607307239814 0.011476373517780303 -9999.907758032643 0.11889613529183407 0.00088257398700617188 -0.0060801729550803429 0.00088257398700617188 -2499.8893646192473 -0.00011693524635347785 -0.0060801729550803429 -0.00011693524635347785 -9999.8702605765611 0.12165728995478275 -0.0019069910235248594 -0.0049061394249747536 -0.0019069910235248594 -2499.8723006031742 0.015160312399160603 -0.0049061394249747536 0.015160312399160603 -9999.893706515888 0.10000059592130128 0.0016434695356259618 -0.013817108366993125 0.0016434695356259618 -2499.8948706633951 0.013966558294669085 -0.013817108366993125 0.013966558294669085 -9999.890009432238 0.14218512891511637 0.0016673985063170008 0.0062389947534029488 0.0016673985063170008 -2499.8700566292919 0.0017625539630898857 0.0062389947534029488 0.0017625539630898857 -9999.8166639604333 0.10457970028619457 0.00093131080207132719 0.0070921165763593308 0.00093131080207132719 -2499.8824725744898 0.0063675700766907539 0.0070921165763593308 0.0063675700766907539 -9999.8950251181359 0.11274129026469382 -0.0049739397362381791 -0.0014847878052250962 -0.0049739397362381791 -2499.8853692777366 0.0099723037383228075 -0.0014847878052250962 0.0099723037383228075 -9999.873667801523 0.11049420150629885 0.0011151441596756102 -0.00080367944792669732 0.0011151441596756102 -2499.8933689028527 -0.00041661930632130861 -0.00080367944792669732 -0.00041661930632130861 -9999.8778152809209 0.11729849247421953 0.0014629139207453234 -0.00079164548787957756 0.0014629139207453234 -2499.8731811500847 0.0032382525378125138 -0.00079164548787957756 0.0032382525378125138 -9999.8707865925571 0.11497567931587582 0.0021839124119499564 0.00025478676889179042 0.0021839124119499564 -2499.8750771384266 0.0017604735448912834 0.00025478676889179042 0.0017604735448912834 -9999.8811887470511 0.11409404284313496 0.0010020932725784346 -0.0025654047149146209 0.0010020932725784346 -2499.8733641974668 0.011867335409760926 -0.0025654047149146209 0.011867335409760926 -9999.8881533587555 0.11760965654502797 0.002045752016598925 -0.00034127647813875228 0.002045752016598925 -2499.8732707982217 0.0043521622064872645 -0.00034127647813875228 0.0043521622064872645 -9999.8727206726653 0.10571086644858951 0.0094854146021218534 -0.013159788146822393 0.0094854146021218534 -2499.8823424931188 0.00069593755097230314 -0.013159788146822393 0.00069593755097230314 -9999.8984751164026 0.11811360715182673 -0.0020648075882910982 -0.0072752880630559957 -0.0020648075882910982 -2499.883857345098 0.0030539696767846181 -0.0072752880630559957 0.0030539696767846181 -9999.89750601788 0.10784271502939191 -0.0016118250313525324 -0.0026198585801466834 -0.0016118250313525324 -2499.8869159027054 0.0037251236090014572 -0.0026198585801466834 0.0037251236090014572 -9999.8999470600356 0.11293583732367551 -7.4541294907137789e-05 -0.00070886958928895183 -7.4541294907137789e-05 -2499.8698887341325 0.0098762137185985921 -0.00070886958928895183 0.0098762137185985921 -9999.8962680570748 0.12244235534672043 -0.015113174964901468 -0.00023503038482886041 -0.015113174964901468 -2499.8445498696419 -0.00027953500284638721 -0.00023503038482886041 -0.00027953500284638721 -9999.8850302244718 0.12840251839406847 -0.014783813453666104 -0.0043702201946871355 -0.014783813453666104 -2499.8448831234064 0.0015641055542801041 -0.0043702201946871355 0.0015641055542801041 -9999.8808439148597 0.11761563026662714 -0.0012267635548734515 -0.0072746350106172031 -0.0012267635548734515 -2499.8831514556155 0.0039981700574571732 -0.0072746350106172031 0.0039981700574571732 -9999.8929992138055 0.10634020903660257 0.0093216606552765091 -0.01320119096635608 0.0093216606552765091 -2499.8796616599029 0.0024342187643924262 -0.01320119096635608 0.0024342187643924262 -9999.8947207381934 0.12680102220565459 -0.010026146013956849 -0.0023084006106728339 -0.010026146013956849 -2499.8611990981531 0.013745614252911764 -0.0023084006106728339 0.013745614252911764 -9999.8914646986796 0.10704056647045945 -0.0024456867471777562 0.0049227525200876698 -0.0024456867471777562 -2499.89616980951 -0.0062421629550044599 0.0049227525200876698 -0.0062421629550044599 -9999.9355008647344 0.11119458136909088 -0.0099885578391426498 -0.00035632761455417494 -0.0099885578391426498 -2499.9023527446425 0.0039793763921807113 -0.00035632761455417494 0.0039793763921807113 -9999.9165405794829 0.10840667437241791 -0.0050369221247912183 0.016199047574722847 -0.0050369221247912183 -2499.8461372973611 -0.12502413267592749 0.016199047574722847 -0.12502413267592749 -9999.8263714813311 0.14234845643795779 -0.01823408083130755 0.0084952155730206869 -0.01823408083130755 -2499.8556408323257 -0.026124840909233171 0.0084952155730206869 -0.026124840909233171 -9999.8409695133669 0.088630122755375851 -0.0065099612096419027 0.046730062615552015 -0.0065099612096419027 -2499.917769937178 -0.068565073536319687 0.046730062615552015 -0.068565073536319687 -9999.9561200730604 0.10463362973905532 -0.0076709252200279771 0.067659460950251965 -0.0076709252200279771 -2499.8890286488518 -0.041266784529767953 0.067659460950251965 -0.041266784529767953 -9999.8831980600462 0.10998073083464988 0.00026796889275141483 0.0066300844032411987 0.00026796889275141483 -2499.8893684396526 0.016641074168006753 0.0066300844032411987 0.016641074168006753 -9999.941368264359 0.075666945570446842 -0.011229518206261821 0.034167210087336169 -0.011229518206261821 -2499.9146505614594 0.051873843650088736 0.034167210087336169 0.051873843650088736 -9999.9829534871624 0.049990088677986932 -0.0046320026319935856 0.0063460362998739583 -0.0046320026319935856 -2499.9746536916723 -0.019059187013226619 0.0063460362998739583 -0.019059187013226619 -10000.090015963033 0.097920189104570454 -0.0073391760700326006 0.0057733072189876111 -0.0073391760700326006 -2499.8919271782261 0.0098058682874579972 0.0057733072189876111 0.0098058682874579972 -9999.9338694722919 0.082770696721581771 -0.003301973855341301 0.029275312001118436 -0.003301973855341301 -2499.9177718145479 0.058514989613058788 0.029275312001118436 0.058514989613058788 -10000.008444400657 0.11553796778980541 -0.0047278882371109936 -0.0083039129253847932 -0.0047278882371109936 -2499.8896390772711 0.0058278813135075325 -0.0083039129253847932 0.0058278813135075325 -9999.9247138979226 0.12503119157975107 -0.0021435067538585102 -0.00096696338778201607 -0.0021435067538585102 -2499.8750227200594 0.027064720892667538 -0.00096696338778201607 0.027064720892667538 -9999.906579710947 0.079595001186589798 0.0074857769027893142 -0.082468601153436794 0.0074857769027893142 -2499.9494826594582 -0.036141227652933594 -0.082468601153436794 -0.036141227652933594 -10000.038510251445 0.11567796465078573 0.0072154915849969928 -0.064065850766271054 0.0072154915849969928 -2499.8918112190349 0.049095443096445507 -0.064065850766271054 0.049095443096445507 -9999.9455445773019 0.11937027267231315 -0.004347840844727887 -0.075604683232473602 -0.004347840844727887 -2499.8728830376131 -0.086773803035406577 -0.075604683232473602 -0.086773803035406577 -9999.9198177743529 0.11879641084351533 0.001501177303265766 -0.012348230491170398 0.001501177303265766 -2499.8370161831585 -0.042085220143690094 -0.012348230491170398 -0.042085220143690094 -9999.8494766798794 0.096513296251487191 0.015391923460342839 -0.026217622706326438 0.015391923460342839 -2499.9046199455897 -0.0064071309930113785 -0.026217622706326438 -0.0064071309930113785 -9999.9156710569987 0.10050185420595881 0.01178580798929358 -0.026317884216950915 0.01178580798929358 -2499.8957863652527 0.0088028805344038119 -0.026317884216950915 0.0088028805344038119 -9999.9076272740967 0.11608726157589899 -0.010195127901862874 -0.011803210839389067 -0.010195127901862874 -2499.9030906586695 0.015008776656031841 -0.011803210839389067 0.015008776656031841 -9999.9113412805254 0.069978509603970451 0.0063820828016439499 -0.0071037795223674038 0.0063820828016439499 -2499.9079915176608 -0.022009679799111836 -0.0071037795223674038 -0.022009679799111836 -9999.96748046016 0.096825717492265539 0.017574102916662327 -0.0021282115085341502 0.017574102916662327 -2499.8987530237218 0.016318554777171812 -0.0021282115085341502 0.016318554777171812 -9999.8608745693382 0.10026165432668677 0.0070328802144947397 -0.0015534074791503372 0.0070328802144947397 -2499.8776337668796 -0.027102519087975452 -0.0015534074791503372 -0.027102519087975452 -9999.8732603347235 0.16791165000540786 0.00075615503284601204 -0.035851000814502154 0.00075615503284601204 -2499.8308489773372 -0.044218762160111835 -0.035851000814502154 -0.044218762160111835 -9999.8141360616573 0.083609865351263579 0.0011467230000820911 0.007990990320763558 0.0011467230000820911 -2499.8986960933153 -0.015756675064949377 0.007990990320763558 -0.015756675064949377 -9999.9013058856272 0.079950592798923026 0.0031994117158314142 0.016050851096784113 0.0031994117158314142 -2499.8763546739206 -0.079745580920835571 0.016050851096784113 -0.079745580920835571 -9999.9345502355573 0.13177571460276249 -0.010180760923962541 0.00092317864045002307 -0.010180760923962541 -2499.8271691504856 -0.089748796785076856 0.00092317864045002307 -0.089748796785076856 -9999.771987645534 0.14551817560411964 -0.0022689393425847706 0.014745219703242773 -0.0022689393425847706 -2499.8058681115017 -0.077699817886210693 0.014745219703242773 -0.077699817886210693 -9999.7483647632089 0.083325338901886425 -0.0084333389077455231 -0.004310310887376545 -0.0084333389077455231 -2499.9168932846069 -0.040960271988296881 -0.004310310887376545 -0.040960271988296881 -9999.8737317337909 0.072067465745931258 -0.0065961877255479359 -0.0056288453524757642 -0.0065961877255479359 -2499.9221224353564 -0.030489068356018834 -0.0056288453524757642 -0.030489068356018834 -9999.9141688356558 0.10212044534182496 0.00066623551450386426 -0.0037083514844198362 0.00066623551450386426 -2499.8743776857309 -0.0055655134274275042 -0.0037083514844198362 -0.0055655134274275042 -9999.9021847122167 0.084913409706587117 0.0073063750033030353 -0.0067898970664828084 0.0073063750033030353 -2499.8816716964739 -0.0012620186543017553 -0.0067898970664828084 -0.0012620186543017553 -9999.9051854376048 0.089898896831073216 -0.025942220884760669 0.00040575469938630704 -0.025942220884760669 -2499.8838375645155 -0.00091880884747297387 0.00040575469938630704 -0.00091880884747297387 -9999.8760059054675 0.086020362177805509 0.00046528965006520373 0.0032954436715044721 0.00046528965006520373 -2499.9132813359315 -0.035598752504597542 0.0032954436715044721 -0.035598752504597542 -9999.9083298040041 0.092080560049680571 0.0053085364016027606 -0.015290723376892856 0.0053085364016027606 -2499.8726543379753 -0.0047112959886135286 -0.015290723376892856 -0.0047112959886135286 -9999.8702213611377 0.08721129591413046 0.011893478731208405 0.0048348799500672612 0.011893478731208405 -2499.9318612442648 -0.013914481546180468 0.0048348799500672612 -0.013914481546180468 -9999.9331928934735 0.086216513875115197 -0.022464114086975431 -0.0025024669093909324 -0.022464114086975431 -2499.8979070694518 0.0092895748327919136 -0.0025024669093909324 0.0092895748327919136 -9999.9103597559915 0.11239377793793892 0.0071056655723562151 -0.017913556993335078 0.0071056655723562151 -2499.8749706697877 -0.003906751834165334 -0.017913556993335078 -0.003906751834165334 -9999.865391013398 0.11555128657948899 0.0081612728179928096 -0.0081584739909885684 0.0081612728179928096 -2499.8759304201953 0.00031120304902287899 -0.0081584739909885684 0.00031120304902287899 -9999.8872420381631 0.089843081293111027 -0.020351421160386934 -0.0035117221577820601 -0.020351421160386934 -2499.8792302298598 0.017060374347238394 -0.0035117221577820601 0.017060374347238394 -9999.9008724826217 0.094518566801070847 -0.0024531309421764666 -0.0019135632728648488 -0.0024531309421764666 -2499.889725942292 0.0038863178051542491 -0.0019135632728648488 0.0038863178051542491 -9999.9139997831044 0.090353456012053357 0.00014928654179326611 0.0023923574784134871 0.00014928654179326611 -2499.8973083491082 -0.00061442173910108977 0.0023923574784134871 -0.00061442173910108977 -9999.9209781918307 0.093136042355581594 -0.0018945774925640578 0.00026559096340861288 -0.0018945774925640578 -2499.8922669250233 0.0015384378393719089 0.00026559096340861288 0.0015384378393719089 -9999.9171927649822 0.086293444862803881 -0.0019946670846701631 0.0078874331352380977 -0.0019946670846701631 -2499.8885268161553 0.0042302440836010646 0.0078874331352380977 0.0042302440836010646 -9999.8823622671807 0.1071177472938416 -0.0015503117913944987 0.0041504371251903649 -0.0015503117913944987 -2499.8674094550497 -0.0028153892080808873 0.0041504371251903649 -0.0028153892080808873 -9999.821583873847 0.087028573967018019 -0.0026890136220559732 0.11374272497164234 -0.0026890136220559732 -2499.8772503205146 0.035504973659161748 0.11374272497164234 0.035504973659161748 -9999.8933336125883 0.10052749002954897 0.0031943421945324312 -0.016253414397397137 0.0031943421945324312 -2499.8808032008546 0.013123340236234071 -0.016253414397397137 0.013123340236234071 -9999.8335345408977 0.077264996679332398 -0.00026497554543793264 0.097321195071799593 -0.00026497554543793264 -2499.897115992424 0.061665054680815956 0.097321195071799593 0.061665054680815956 -9999.9168153870887 0.10529854318860998 0.011265372180412757 -0.0042198678374916199 0.011265372180412757 -2499.8581882346743 0.026051157889355636 -0.0042198678374916199 0.026051157889355636 -9999.8443050124952 0.07999490099302875 0.007202745007249961 0.023792733933532872 0.007202745007249961 -2499.8813264542759 -0.068036977258543629 0.023792733933532872 -0.068036977258543629 -9999.9600051645193 0.061381581613204617 0.0092796282562585125 -0.019317997076086613 0.0092796282562585125 -2499.9168938669118 -0.0015284515584426117 -0.019317997076086613 -0.0015284515584426117 -10000.015846168037 0.13059359920225688 0.0050177110590948759 -0.025238279414894121 0.0050177110590948759 -2499.8644428013299 -0.011769704070474896 -0.025238279414894121 -0.011769704070474896 -9999.8694073870865 0.11625464547614683 -0.0045237875295583464 0.071024576088639352 -0.0045237875295583464 -2499.8741502871208 0.087813252986619628 0.071024576088639352 0.087813252986619628 -9999.8279835315079 0.0071689177980260865 0.0021598360743584431 0.079623880042618111 0.0021598360743584431 -2499.9168777811419 0.054241260828348459 0.079623880042618111 0.054241260828348459 -10000.071296722364 0.061386507433439874 -0.0028131829789427958 0.0020095930976822274 -0.0028131829789427958 -2499.9072446872015 0.010265642520153051 0.0020095930976822274 0.010265642520153051 -9999.9966043058776 0.029219718684544205 0.00596614759075391 -5.8163226810847846e-05 0.00596614759075391 -2499.9292631570288 -0.0023371417919406667 -5.8163226810847846e-05 -0.0023371417919406667 -10000.038799370916 0.032679167764399608 -0.0062031826726457566 0.066815184239202241 -0.0062031826726457566 -2499.9031619365983 0.031601258943813687 0.066815184239202241 0.031601258943813687 -9999.8731643291812 0.047483962003752822 0.00093966305836901826 0.021451585056638578 0.00093966305836901826 -2499.9177222013736 -0.0049622902533883462 0.021451585056638578 -0.0049622902533883462 -10000.012949303802 0.050955305244769988 0.0019817346544099453 0.0056194217704614857 0.0019817346544099453 -2499.9339089353002 0.0014175784945109626 0.0056194217704614857 0.0014175784945109626 -10000.01076485566 0.039701706653886504 -0.0028194524719303976 0.0072611791247254587 -0.0028194524719303976 -2499.9094877398543 -0.024022411960231693 0.0072611791247254587 -0.024022411960231693 -9999.9986134177016 0.075648867673407949 -0.0098512673925554468 9.3802468562394214e-05 -0.0098512673925554468 -2499.8946775771392 0.064266469936088033 9.3802468562394214e-05 0.064266469936088033 -9999.8635690073788 0.02495416264105188 0.0038608366413720001 0.028256463943989729 0.0038608366413720001 -2499.9338086951179 -0.059208863978255977 0.028256463943989729 -0.059208863978255977 -10000.016477875362 0.070257435859275574 0.0062596676533507641 -0.010645613208018906 0.0062596676533507641 -2499.8777033145598 -0.07046269306874714 -0.010645613208018906 -0.07046269306874714 -9999.9252569315831 0.050434421796580864 0.0026677173115451855 0.012336020598271574 0.0026677173115451855 -2499.9320699085583 -0.0760876236240286 0.012336020598271574 -0.0760876236240286 -9999.9304859623608 -0.0054647449937874626 0.0059558621939886031 0.071768128874633005 0.0059558621939886031 -2499.9670543753837 0.020813998137108575 0.071768128874633005 0.020813998137108575 -10000.11471502741 0.092345953427866334 0.0043787519560108184 -0.0045535725690228901 0.0043787519560108184 -2499.8840421746372 -0.0077006574481401913 -0.0045535725690228901 -0.0077006574481401913 -9999.9074985152911 0.083251671970174357 0.00080284488257254005 0.0056526384189368173 0.00080284488257254005 -2499.8965635971372 -7.6229607657296583e-06 0.0056526384189368173 -7.6229607657296583e-06 -9999.926682569132 0.084797571828403306 0.0013932233830883513 0.0062529578388534901 0.0013932233830883513 -2499.8947286471571 0.0015261164921867021 0.0062529578388534901 0.0015261164921867021 -9999.9223964053908 0.072827344372853986 0.0035502676107711795 -0.0043197336270850428 0.0035502676107711795 -2499.8960670507836 0.010346459103402594 -0.0043197336270850428 0.010346459103402594 -9999.9284065709835 0.056916390109108761 -0.00088281921970000121 -0.0098738559663615888 -0.00088281921970000121 -2499.9032499476343 -0.00048982423504639883 -0.0098738559663615888 -0.00048982423504639883 -9999.9568423680885 0.075252199458191171 -0.0026036507093745971 0.0047884560881357174 -0.0026036507093745971 -2499.89554252782 0.0064787263593188982 0.0047884560881357174 0.0064787263593188982 -9999.9535180981256 0.094035626405457151 0.01176513036815164 0.0027991443265023008 0.01176513036815164 -2499.8705901571866 -0.0061317757526921923 0.0027991443265023008 -0.0061317757526921923 -9999.9149331490808 0.064663212118830415 -0.00010283646116310404 -0.0065359978025298915 -0.00010283646116310404 -2499.9076782447992 -0.00019410020104260184 -0.0065359978025298915 -0.00019410020104260184 -9999.9538687555196 0.045542201486114209 -0.0033136062614797859 0.0089347045613976661 -0.0033136062614797859 -2499.9140235027749 -0.015368950875995324 0.0089347045613976661 -0.015368950875995324 -9999.9708698487993 0.060636180802248418 0.0017169651261602428 -0.0083608461700350745 0.0017169651261602428 -2499.9008037090471 -0.01356271537702014 -0.0083608461700350745 -0.01356271537702014 -9999.9398263590465 0.076279214400074125 0.0048105544162816739 -0.004446450577233918 0.0048105544162816739 -2499.8758479732314 0.00099286853674129816 -0.004446450577233918 0.00099286853674129816 -9999.9023616067625 0.04172085015943594 0.0047521326948656911 0.0066679165940399798 0.0047521326948656911 -2499.9121294456845 -0.0058447016929221718 0.0066679165940399798 -0.0058447016929221718 -9999.9728129653231 0.067882283802191523 0.022414215340128111 -0.0067295445132344867 0.022414215340128111 -2499.9299466986645 -0.015298903527764196 -0.0067295445132344867 -0.015298903527764196 -9999.9409030845818 0.044527843196192407 0.0043046062648796225 0.0053043925004203629 0.0043046062648796225 -2499.9084651137546 -0.012543483820707024 0.0053043925004203629 -0.012543483820707024 -9999.9639862573094 0.066765801041583472 -0.0031825547513146049 -0.0046456001091428334 -0.0031825547513146049 -2499.9000959237205 -0.017260481498169611 -0.0046456001091428334 -0.017260481498169611 -9999.9335075382314 0.079342605435158475 0.012739909246167275 -0.0068610791404353222 0.012739909246167275 -2499.8953193172811 -0.0021098909764987184 -0.0068610791404353222 -0.0021098909764987184 -9999.9054222742179 0.085492757517840801 0.022831960156496411 -0.005858237573193037 0.022831960156496411 -2499.8937280672835 0.0033569074630577234 -0.005858237573193037 0.0033569074630577234 -9999.903682905695 0.064324703484089696 0.0073498358539127936 0.0093376163031280157 0.0073498358539127936 -2499.8779245021142 0.0055220899630512577 0.0093376163031280157 0.0055220899630512577 -9999.9176902735835 0.091769575746184273 0.023288500806518037 -0.010350341755838599 0.023288500806518037 -2499.9021544763359 -0.030667209759030811 -0.010350341755838599 -0.030667209759030811 -9999.8740444207451 0.063118095847130462 -0.0010406395578815087 -0.0035208528836960795 -0.0010406395578815087 -2499.9093479124713 -0.01604616001532122 -0.0035208528836960795 -0.01604616001532122 -9999.8846183811183 0.079483197504714553 -0.0041857075984148735 0.013433604872716387 -0.0041857075984148735 -2499.8950895745147 -0.028201481901760417 0.013433604872716387 -0.028201481901760417 -9999.855267003335 0.066627056143488517 -0.0047061752274362087 0.0051943015846518392 -0.0047061752274362087 -2499.9058655831122 -0.025967497750343682 0.0051943015846518392 -0.025967497750343682 -9999.8895674755222 0.049760193255679042 -0.0017698606668671544 -0.0084635417917695577 -0.0017698606668671544 -2499.9284193072858 -0.031178975504644768 -0.0084635417917695577 -0.031178975504644768 -9999.9205672840271 0.057021761833766504 0.0030584178462429133 0.0035706484804904903 0.0030584178462429133 -2499.9268885381216 -0.07022701436017087 0.0035706484804904903 -0.07022701436017087 -9999.9120242555909 0.11225686921557099 0.0044632930636423207 -0.01597807381176608 0.0044632930636423207 -2499.8467850152761 -0.093115219627263657 -0.01597807381176608 -0.093115219627263657 -9999.7540037278086 0.14541046533523597 -0.011517789012778695 -0.014108486991034896 -0.011517789012778695 -2499.8211647390685 -0.096925770558557667 -0.014108486991034896 -0.096925770558557667 -9999.743883030862 0.058548397244976513 -0.011714598909654136 -0.010382838633351599 -0.011714598909654136 -2499.9064563169441 -0.070567243757449549 -0.010382838633351599 -0.070567243757449549 -9999.9353626743159 0.067683694155675767 -0.018784349440168532 -0.0062250538650800991 -0.018784349440168532 -2499.8868658238143 -0.029087721252381016 -0.0062250538650800991 -0.029087721252381016 -9999.9076747623039 0.11903522718830573 -0.0030648912573708331 0.044102027528096943 -0.0030648912573708331 -2499.842781137158 -0.046641568380062282 0.044102027528096943 -0.046641568380062282 -9999.8502604918031 0.12943078017738305 -0.012026567998497998 -0.019876520065537029 -0.012026567998497998 -2499.817401339812 -0.082791913026811298 -0.019876520065537029 -0.082791913026811298 -9999.7387046128788 0.080380607220831735 0.0033088552957897741 0.013434579352178844 0.0033088552957897741 -2499.8822436488085 -0.023228489756547788 0.013434579352178844 -0.023228489756547788 -9999.8507873462277 0.064822072816241416 -0.01508079906123961 0.040836428765032906 -0.01508079906123961 -2499.9351218100192 0.012377300819480297 0.040836428765032906 0.012377300819480297 -9999.9447843750168 0.0084068989385741588 -0.019403545981320287 0.043873616541645788 -0.019403545981320287 -2500.006684969856 -0.035847984011525114 0.043873616541645788 -0.035847984011525114 -10000.115846761382 0.038512080597627119 0.0058938332231646337 -0.013183469054183661 0.0058938332231646337 -2499.9570977600815 0.023102996964553313 -0.013183469054183661 0.023102996964553313 -9999.9775525965433 0.07450914330638625 0.0053295808224024521 0.028951919535757042 0.0053295808224024521 -2499.9209781870914 -0.11344002854707469 0.028951919535757042 -0.11344002854707469 -9999.8988452327831 0.070293634446883413 0.030120094546371545 0.093447848702668423 0.030120094546371545 -2499.860716948112 -0.066341785754587962 0.093447848702668423 -0.066341785754587962 -9999.7716921839001 -0.00018039530777969048 0.016201111723573136 0.098320965873615704 0.016201111723573136 -2499.9436674451727 0.033516438550121652 0.098320965873615704 0.033516438550121652 -10000.014595108973 0.0049793328430496331 0.0032980713830718811 0.10037843998418339 0.0032980713830718811 -2499.9433720851825 0.012633313521746459 0.10037843998418339 0.012633313521746459 -10000.032172504971 0.038653638063806284 0.0047124586286618683 -0.02391249206948487 0.0047124586286618683 -2499.9165774611629 0.0066714134101175659 -0.02391249206948487 0.0066714134101175659 -9999.9592041944143 0.044709883371183423 -0.0020927680827546383 -0.020876926108030602 -0.0020927680827546383 -2499.9102878530912 -0.0048222492696368136 -0.020876926108030602 -0.0048222492696368136 -9999.9632250579343 0.0077675085465216398 0.018192062877773755 -0.033882611632861881 0.018192062877773755 -2499.9545722949883 0.072131130023990409 -0.033882611632861881 0.072131130023990409 -10000.042799336727 0.053388730571896303 0.0057294076584554522 0.0056271717257914133 0.0057294076584554522 -2499.9134177775195 -0.00085618688308386481 0.0056271717257914133 -0.00085618688308386481 -9999.9553748449107 -0.017375444269418949 0.0016457904241959538 -0.0098679231041387538 0.0016457904241959538 -2500.0281921431588 -0.025270755739256856 -0.0098679231041387538 -0.025270755739256856 -10000.146785244455 -0.031189018815894087 -0.00020805489452161569 -0.058476110606651588 -0.00020805489452161569 -2499.9743116460204 0.032136469410451299 -0.058476110606651588 0.032136469410451299 -10000.108141853763 -0.009388663041813114 -0.0019116748051120937 -0.037764797204350165 -0.0019116748051120937 -2499.9619097818113 -0.082315419900628226 -0.037764797204350165 -0.082315419900628226 -10000.01759420445 0.030547934883149108 0.0064032677146990784 -0.00060178877555895627 0.0064032677146990784 -2499.8831778867439 -0.025754762901669892 -0.00060178877555895627 -0.025754762901669892 -9999.8811661775671 0.020367715373762307 -0.012451805063027926 -0.060997394394563476 -0.012451805063027926 -2499.8950077467616 -0.04050999439333558 -0.060997394394563476 -0.04050999439333558 -9999.9253072355332 -0.025007888585605542 0.017307200649946439 -0.0086835568697362087 0.017307200649946439 -2499.9140403966035 -0.14314096560610776 -0.0086835568697362087 -0.14314096560610776 -9999.8731245876661 0.010540751819803518 0.0004862824496350282 -0.013009671338295448 0.0004862824496350282 -2499.9501495461313 0.025992022272475879 -0.013009671338295448 0.025992022272475879 -9999.9820495149143 0.0034749577839647827 -0.015108837403576221 -0.021760495465059648 -0.015108837403576221 -2499.924150784283 -0.0028679122206085594 -0.021760495465059648 -0.0028679122206085594 -9999.9758232643289 0.029686413851777615 -0.014810219435318218 -0.0040414659988528001 -0.014810219435318218 -2499.9274974459454 -0.0090437576029671618 -0.0040414659988528001 -0.0090437576029671618 -9999.950480947391 0.042050430367453373 -0.0015827806405213224 0.0085748796927873627 -0.0015827806405213224 -2499.9017409687631 -0.012351148673133139 0.0085748796927873627 -0.012351148673133139 -9999.9645807092365 0.026965733831730176 -0.0037146606960778983 -0.0080949563784997736 -0.0037146606960778983 -2499.9072972993204 -0.010595159128797604 -0.0080949563784997736 -0.010595159128797604 -9999.9753336595713 0.026365805207660742 0.0015457900964240059 -0.012000462040305138 0.0015457900964240059 -2499.8987160119505 0.0105596414032334 -0.012000462040305138 0.0105596414032334 -9999.9765801457543 0.033348059983381972 -0.010511193744599846 0.0006779834138797014 -0.010511193744599846 -2499.9209989795313 -0.016839663237988134 0.0006779834138797014 -0.016839663237988134 -9999.9573858252261 0.044240498938961537 -0.01634473776671852 -0.0029094072815496475 -0.01634473776671852 -2499.9115548114869 -0.014556347090547206 -0.0029094072815496475 -0.014556347090547206 -9999.9507278594901 0.022207487969353679 -0.01294989050041756 0.0030445002403212129 -0.01294989050041756 -2499.9216347831498 -0.01568715533176146 0.0030445002403212129 -0.01568715533176146 -9999.961127413555 0.0074020969523189706 -0.0037705391571128261 -0.003148187920487544 -0.0037705391571128261 -2499.9435754104225 -0.0026636200495886442 -0.003148187920487544 -0.0026636200495886442 -9999.9840392976148 0.01987354796017371 -0.0010138277576872724 -0.0055970087169043836 -0.0010138277576872724 -2499.9408146228802 -0.0042747914394567488 -0.0055970087169043836 -0.0042747914394567488 -9999.979775601023 0.026447404343343806 -0.004465601687260061 -0.0064942769404296996 -0.004465601687260061 -2499.9236113323386 0.00064366474362032022 -0.0064942769404296996 0.00064366474362032022 -9999.9753421738478 0.019552835979993688 0.00060598761973026938 -0.015590481525123323 0.00060598761973026938 -2499.9225695444979 0.012778896943487439 -0.015590481525123323 0.012778896943487439 -9999.9801978645191 0.033300093594334612 -0.0057552963803002878 -0.0082611697180254851 -0.0057552963803002878 -2499.9097475304843 0.0021463275679707294 -0.0082611697180254851 0.0021463275679707294 -9999.9617405726131 0.030696744892338756 -0.0019076625339940912 -0.0066490449121374695 -0.0019076625339940912 -2499.9101866316814 0.0043674941425706493 -0.0066490449121374695 0.0043674941425706493 -9999.9711697497878 0.030344888760737376 -0.004310481767081209 -0.0063130499133876583 -0.004310481767081209 -2499.9110017862804 0.0013466514446918154 -0.0063130499133876583 0.0013466514446918154 -9999.9651142193543 0.033467769690105342 -0.0034742681096586216 -0.008464452677344525 -0.0034742681096586216 -2499.9089913230018 0.0053447310674528126 -0.008464452677344525 0.0053447310674528126 -9999.9678752790624 0.031678230167926813 -0.0064374982442683276 -0.010116173511391935 -0.0064374982442683276 -2499.9063787905998 -0.00017041743831214262 -0.010116173511391935 -0.00017041743831214262 -9999.9686850236285 0.027469319303236261 -0.0035668722452028572 -0.011167382539611026 -0.0035668722452028572 -2499.9155958767224 0.0013698810786308968 -0.011167382539611026 0.0013698810786308968 -9999.9859871650879 0.02779513175255488 -0.0034847706581759858 -0.012384352165895507 -0.0034847706581759858 -2499.908549085404 0.001912961364723742 -0.012384352165895507 0.001912961364723742 -9999.9902060314889 0.020184148155749426 0.00027006321034974898 -0.012303942648941302 0.00027006321034974898 -2499.9191688934479 0.00443406655540457 -0.012303942648941302 0.00443406655540457 -9999.9692976401529 0.023641757163659349 -0.0002739487772357818 -0.011989767156592279 -0.0002739487772357818 -2499.9160999118526 0.011746540930289484 -0.011989767156592279 0.011746540930289484 -9999.9581233178233 0.017157036631033407 0.004848926899863013 -0.011911304893601482 0.004848926899863013 -2499.9207734041825 0.010549043422400928 -0.011911304893601482 0.010549043422400928 -9999.9673960354594 0.012535890650269721 -0.0056299167695613717 -0.0074625257370826148 -0.0056299167695613717 -2499.9217852410093 -0.0010861987389034766 -0.0074625257370826148 -0.0010861987389034766 -10000.03016253332 0.02944664773031036 -0.0051843001061822463 -0.012675077718540706 -0.0051843001061822463 -2499.9002360838481 0.0080116506292142731 -0.012675077718540706 0.0080116506292142731 -9999.9675373092887 0.018380521021754248 0.0067129126967091085 -0.022636533455624885 0.0067129126967091085 -2499.9127076976993 0.024278493931433331 -0.022636533455624885 0.024278493931433331 -9999.9452989083911 -0.0084382203269797174 -0.0086652423272310063 -0.053501038817103108 -0.0086652423272310063 -2499.9350066597854 0.0031254135410563322 -0.053501038817103108 0.0031254135410563322 -10000.065889390882 0.021387096691235286 -0.0079051703964363174 -0.034366995138952916 -0.0079051703964363174 -2499.9313949469297 -0.0019460383421119332 -0.034366995138952916 -0.0019460383421119332 -10000.07593200289 0.026525924290581315 -0.0071132094255877826 -0.011946475464810646 -0.0071132094255877826 -2499.9107066452198 0.0072129773479900905 -0.011946475464810646 0.0072129773479900905 -9999.9689781550696 -0.0066341901738269371 0.013740884304211245 -0.035529186834801163 0.013740884304211245 -2499.9368171299411 0.064343594409081606 -0.035529186834801163 0.064343594409081606 -9999.9868382018558 0.0012374483467283426 0.012979778290015065 -0.022963723171869788 0.012979778290015065 -2499.9432733916883 0.023080634340885808 -0.022963723171869788 0.023080634340885808 -9999.9832876301753 -0.022884203880494169 0.010365445979394906 -0.068467224702380036 0.010365445979394906 -2499.959649350988 0.02457082654630191 -0.068467224702380036 0.02457082654630191 -10000.026136190529 0.017926042675753706 0.0078226039537544964 0.012544303749690955 0.0078226039537544964 -2499.9383182436263 -0.080616758281229717 0.012544303749690955 -0.080616758281229717 -9999.9300925274565 -0.0057895759218260234 0.020446811442278945 -0.037795464841780507 0.020446811442278945 -2499.9426218036606 0.02084539221900425 -0.037795464841780507 0.02084539221900425 -9999.9326084348031 0.014533556514022328 -0.0083067960486012289 -0.017600182658845429 -0.0083067960486012289 -2499.9327483418124 -0.024410742349115888 -0.017600182658845429 -0.024410742349115888 -10000.010879809548 -0.028269579589495386 0.012182327417698256 -0.026384465332177198 0.012182327417698256 -2499.9417810081804 0.025508466002627128 -0.026384465332177198 0.025508466002627128 -9999.9486475292979 -0.012012184957484351 0.0065185838183879317 -0.018902449337929284 0.0065185838183879317 -2499.9169070458674 0.011356202987826691 -0.018902449337929284 0.011356202987826691 -9999.9223647441686 0.0050722472778943484 0.0078527435565602099 -0.037190132214074689 0.0078527435565602099 -2499.9038178778501 0.043100115198852318 -0.037190132214074689 0.043100115198852318 -9999.8661788591853 0.040054815312032588 0.0069514614407608748 -0.012223086535414041 0.0069514614407608748 -2499.9392745226751 -0.097596703162025733 -0.012223086535414041 -0.097596703162025733 -9999.9099326904907 -0.0062103125665089465 0.0056034326426375528 -0.029615696280114637 0.0056034326426375528 -2499.8875171970631 0.042704957349427863 -0.029615696280114637 0.042704957349427863 -9999.8709870287221 0.0011428647630964406 0.014014178859696726 -0.0087291228737740312 0.014014178859696726 -2499.9221547939251 0.0063649661451563588 -0.0087291228737740312 0.0063649661451563588 -9999.8089825208226 0.052789061923704139 0.015482601807912343 -0.0042810762410567804 0.015482601807912343 -2499.9137970882648 0.030474992801828193 -0.0042810762410567804 0.030474992801828193 -9999.8893397499869 0.012671842042891512 -0.001928635896797001 -0.03095794899319966 -0.001928635896797001 -2499.9066527690061 0.047097188786177302 -0.03095794899319966 0.047097188786177302 -9999.9735393203428 0.025653617273292184 -0.0056174401744842877 -0.011865236330777407 -0.0056174401744842877 -2499.8972732986745 0.042966961992078723 -0.011865236330777407 0.042966961992078723 -9999.9546754584862 0.036966102652968402 0.0018016222050974045 -0.0081893944466173707 0.0018016222050974045 -2499.9292936538127 0.020989162475643752 -0.0081893944466173707 0.020989162475643752 -9999.8712300482093 0.015674833464800031 -0.0013358578856692603 -0.017637814947647712 -0.0013358578856692603 -2499.9477534697271 0.0054508702733073733 -0.017637814947647712 0.0054508702733073733 -9999.926149266741 -0.002397013730188996 -0.0010240614719007092 0.014334738939344727 -0.0010240614719007092 -2499.8764319409047 -0.037407841988564894 0.014334738939344727 -0.037407841988564894 -9999.8851564688794 -0.00058615707218095947 -0.023516910235461246 -0.024570883596379073 -0.023516910235461246 -2499.9381037410353 -0.08292096602174831 -0.024570883596379073 -0.08292096602174831 -9999.8031485074134 -0.014205906335291729 -0.041106614729421433 -0.045122511959727718 -0.041106614729421433 -2499.9229251543566 -0.02004542274380583 -0.045122511959727718 -0.02004542274380583 -9999.9125702621677 0.038111253357897112 0.030958860630335414 0.020457560823160748 0.030958860630335414 -2499.8883644861648 -0.0037391630885394989 0.020457560823160748 -0.0037391630885394989 -9999.9652537258444 0.049314459600736882 0.013757088786288584 0.048744142541936736 0.013757088786288584 -2499.9140008091681 -0.077723463442386037 0.048744142541936736 -0.077723463442386037 -9999.8400410306949 0.026453168443822506 -0.0082567029063720446 -0.02526867149026657 -0.0082567029063720446 -2499.9124041522059 -0.04188862646014968 -0.02526867149026657 -0.04188862646014968 -9999.9477573568001 0.019840120669869066 -0.011379892749984457 -0.021646077137575048 -0.011379892749984457 -2499.9349484482209 -0.038326877162205619 -0.021646077137575048 -0.038326877162205619 -10000.032886601162 0.044264599024415929 -0.0037616870626003569 -0.0061890724755357951 -0.0037616870626003569 -2499.9355031437062 -0.02210376236553202 -0.0061890724755357951 -0.02210376236553202 -9999.9859873177647 0.010835055631787327 0.0013826333083843487 -0.013872976295033368 0.0013826333083843487 -2499.9832051096073 0.0060721467493749515 -0.013872976295033368 0.0060721467493749515 -10000.08196297985 -0.0027043129930461873 0.013991175581346695 0.060695775981088218 0.013991175581346695 -2499.952809378744 0.039813763155507331 0.060695775981088218 0.039813763155507331 -10000.00891290178 0.010952722524621095 0.0034745650406541734 -0.0097968251438942389 0.0034745650406541734 -2499.9316377221771 -0.021277873191138497 -0.0097968251438942389 -0.021277873191138497 -9999.9939757396969 -0.00085172956187307136 0.0070264674073884821 -0.019164791366165446 0.0070264674073884821 -2499.918107703541 -0.0052243401446503412 -0.019164791366165446 -0.0052243401446503412 -9999.9790364781984 -0.032570553408044878 -0.010222800892973255 -0.017534670622768173 -0.010222800892973255 -2499.8816997127742 0.093264994754261032 -0.017534670622768173 0.093264994754261032 -9999.9217626226891 0.023865354513532555 5.1116561047517828e-05 -5.9567737965948719e-05 5.1116561047517828e-05 -2499.8854571139686 0.014429770053538959 -5.9567737965948719e-05 0.014429770053538959 -9999.9224531217933 -0.022650275153877963 -0.024831586159525409 -0.048554253235532474 -0.024831586159525409 -2499.9193375316413 0.0056433350665945903 -0.048554253235532474 0.0056433350665945903 -9999.8902950072825 0.0016485796004847286 0.0028849837526900846 -0.023072495993998104 0.0028849837526900846 -2499.9278617053969 0.04753660656710898 -0.023072495993998104 0.04753660656710898 -10000.00521583535 0.050533036930032194 0.021607309360465777 0.005458328729861725 0.021607309360465777 -2499.8527984274433 0.025696214960824304 0.005458328729861725 0.025696214960824304 -9999.9250782721028 0.011676884673428201 0.0014362025823255221 0.047035872690834091 0.0014362025823255221 -2499.9058804145816 0.058286905413182488 0.047035872690834091 0.058286905413182488 -9999.9846772599667 0.063595402823565905 0.0053738745807309918 -0.0046868245026416844 0.0053738745807309918 -2499.8901149828912 0.0058788159592069178 -0.0046868245026416844 0.0058788159592069178 -9999.9459579952254 0.037101632532994699 0.034195277703709719 0.018586936734095616 0.034195277703709719 -2499.8999232255806 0.0062519067528228334 0.018586936734095616 0.0062519067528228334 -9999.9533703348807 0.066455539535349314 -0.0099403077987669855 0.027289974108473447 -0.0099403077987669855 -2499.9079644739231 0.010131142101911794 0.027289974108473447 0.010131142101911794 -9999.9101576706053 0.12694063675796866 0.0057737289679876749 0.045440344407175259 0.0057737289679876749 -2499.8478060442553 0.078865874571267147 0.045440344407175259 0.078865874571267147 -9999.8075856240412 0.079112213430742206 -0.01119119767904579 -0.006813791918047543 -0.01119119767904579 -2499.8882703937752 0.031713850544825728 -0.006813791918047543 0.031713850544825728 -9999.8583017256879 0.091087795364768021 -0.011277880671198396 0.014451258026421748 -0.011277880671198396 -2499.9006017752295 0.048676761442865202 0.014451258026421748 0.048676761442865202 -9999.8906135165944 0.10415326613792786 -0.0053344890782022897 0.022691302659950452 -0.0053344890782022897 -2499.8758821752981 0.0069850016261625569 0.022691302659950452 0.0069850016261625569 -9999.8383890548121 0.064344810665261321 -0.0049253158857002427 0.026920092162981746 -0.0049253158857002427 -2499.9229907212457 0.030654140615752112 0.026920092162981746 0.030654140615752112 -9999.9589298101637 0.051248277854938351 -0.0065313551879678132 -0.0025860932376708945 -0.0065313551879678132 -2499.9110166531332 0.0016596945124547346 -0.0025860932376708945 0.0016596945124547346 -9999.9472095715355 0.050190138661946548 -0.0083349971539042472 -0.0021706697475354919 -0.0083349971539042472 -2499.9113867259366 0.0079637547547361798 -0.0021706697475354919 0.0079637547547361798 -9999.9509950340507 0.036001344188903772 0.0051078773244169874 -0.04963341984549885 0.0051078773244169874 -2499.9227914862536 0.039206032985930506 -0.04963341984549885 0.039206032985930506 -9999.9386971764961 0.061281588722295055 0.0038104199183332105 -0.0056593254389554204 0.0038104199183332105 -2499.8960828663871 0.012517935350388143 -0.0056593254389554204 0.012517935350388143 -9999.9554702852329 0.040595186384052795 -0.008580157138421033 -0.050445770132498298 -0.008580157138421033 -2499.9061031062183 -0.010415019663257252 -0.050445770132498298 -0.010415019663257252 -9999.935373983295 0.055779028344204562 -0.0037511514170794759 -0.026118785579040064 -0.0037511514170794759 -2499.9257460132503 0.025234454014399665 -0.026118785579040064 0.025234454014399665 -9999.9642818661341 0.050747509151278791 -0.0033823662999816358 -0.023409358270271241 -0.0033823662999816358 -2499.9101605214837 -0.0035914355762542982 -0.023409358270271241 -0.0035914355762542982 -9999.999289428888 0.060146776084233328 -0.0093447789427846435 0.0042911135511026419 -0.0093447789427846435 -2499.9129927605918 0.019697344014620477 0.0042911135511026419 0.019697344014620477 -10000.007267608904 0.065702939783363945 8.2554202255315234e-05 0.003480113428850018 8.2554202255315234e-05 -2499.8973434969694 -0.0030901300738150894 0.003480113428850018 -0.0030901300738150894 -9999.9614748422118 0.065644221593629482 -0.0045412860010369 0.0062438112862537309 -0.0045412860010369 -2499.9223856886938 0.0026668655909816152 0.0062438112862537309 0.0026668655909816152 -9999.9697272423764 0.037860963189359609 0.003509624759589062 0.05985263073701319 0.003509624759589062 -2499.8903720292915 -0.0085794543066344264 0.05985263073701319 -0.0085794543066344264 -9999.8823174083609 0.079367740578163648 0.015832274689881683 -0.031974897257745216 0.015832274689881683 -2499.8804802185896 -0.05578454199472746 -0.031974897257745216 -0.05578454199472746 -9999.9016780423335 0.035601003121428221 -0.00069519916319920087 -0.044601574110357166 -0.00069519916319920087 -2499.9080813299975 0.042139450781338961 -0.044601574110357166 0.042139450781338961 -9999.9543079652103 0.071790623936067277 -0.001415429327968135 -0.0044870967776660109 -0.001415429327968135 -2499.9016140244212 0.00029555771925515728 -0.0044870967776660109 0.00029555771925515728 -9999.9332097277675 0.060948352089326363 0.001566505028852451 -0.0094068022845021915 0.001566505028852451 -2499.9081465623744 0.0033810489912866615 -0.0094068022845021915 0.0033810489912866615 -9999.942527354071 0.076073007996455999 -0.0035757068520155051 -0.0018203457401000378 -0.0035757068520155051 -2499.8966051295138 -0.0029426393334688328 -0.0018203457401000378 -0.0029426393334688328 -9999.9237746022281 0.070254390626814711 -0.0049460149504333599 0.004995855205834232 -0.0049460149504333599 -2499.913212172899 0.008484460831823526 0.004995855205834232 0.008484460831823526 -9999.9595705682896 0.079176401615313807 -0.0023311449747276843 -0.0030748108458737988 -0.0023311449747276843 -2499.8861958611087 0.0018767305014080193 -0.0030748108458737988 0.0018767305014080193 -9999.9247689813747 0.081118799246723938 -0.001868835748716114 0.00037316758334782207 -0.001868835748716114 -2499.8970251192131 -3.6648434388553142e-05 0.00037316758334782207 -3.6648434388553142e-05 -9999.9234397996715 0.044154617500680615 0.0090898437929997494 0.00033914252071554074 0.0090898437929997494 -2499.9128465280392 0.0011913127980278659 0.00033914252071554074 0.0011913127980278659 -9999.9557164416656 0.052692954598683173 0.013204257790001603 0.0036867400449409615 0.013204257790001603 -2499.8993470101896 0.011450003745721915 0.0036867400449409615 0.011450003745721915 -9999.9267376534499 0.077786602827927709 0.0096913832243265274 0.0017989203911383811 0.0096913832243265274 -2499.8888974120387 0.014185698258643242 0.0017989203911383811 0.014185698258643242 -9999.9295612842816 0.059545403792526486 0.0020333734887489144 -0.0066206287065142533 0.0020333734887489144 -2499.9243269948283 0.020699977787444368 -0.0066206287065142533 0.020699977787444368 -9999.9336694824469 0.068578320042661289 0.0035433747007252228 -0.0071266117211052915 0.0035433747007252228 -2499.8935947297641 0.011158911316414333 -0.0071266117211052915 0.011158911316414333 -9999.9236294235852 0.067532431930430903 0.0045748601958592872 -0.0066702657568384893 0.0045748601958592872 -2499.8975344668061 0.0080983791214634948 -0.0066702657568384893 0.0080983791214634948 -9999.9323140307479 0.064040458521958499 0.0023475000627669364 -0.0089939785248134285 0.0023475000627669364 -2499.9006900697559 0.005850719785939873 -0.0089939785248134285 0.005850719785939873 -9999.9382728901455 0.081596519601589534 0.0095910274409621715 0.0021017441113144741 0.0095910274409621715 -2499.8810847720169 0.019123552233850205 0.0021017441113144741 0.019123552233850205 -9999.9154138292324 0.080729958574920602 0.0058103749084332801 -0.0008173495748451387 0.0058103749084332801 -2499.8983087593342 0.013399262617895147 -0.0008173495748451387 0.013399262617895147 -9999.9039903685152 0.072443456063410849 0.0096230806326665051 -0.0047149093288680888 0.0096230806326665051 -2499.9096523282988 0.021736971270001959 -0.0047149093288680888 0.021736971270001959 -9999.927562060584 0.042697157522752605 -0.0024155265977223728 -0.0054193037231016206 -0.0024155265977223728 -2499.9214993372343 0.0215625446762715 -0.0054193037231016206 0.0215625446762715 -9999.937276085293 0.034049341587888193 0.0023702647433021555 -0.0047162921130166069 0.0023702647433021555 -2499.9217767849368 -0.0001532586308030659 -0.0047162921130166069 -0.0001532586308030659 -9999.9566781639551 0.029973075932957727 0.0030885170265518638 -0.013994999766509864 0.0030885170265518638 -2499.925767340409 -0.005726132307700027 -0.013994999766509864 -0.005726132307700027 -9999.9719051324537 0.040610861660269393 0.010777709923770223 -0.0012239802381373011 0.010777709923770223 -2499.9170112022425 0.0028487742220022483 -0.0012239802381373011 0.0028487742220022483 -9999.9588839265671 0.027826492146800774 0.0038761710725691879 -0.0080513896937191021 0.0038761710725691879 -2499.9251594126504 0.001247105244146951 -0.0080513896937191021 0.001247105244146951 -9999.9636825584803 0.0092676743743993484 -0.0022270827015981598 -0.0053769284386362415 -0.0022270827015981598 -2499.8931839122633 -0.0005098166793686687 -0.0053769284386362415 -0.0005098166793686687 -9999.9604790008525 0.0097179849244639627 -0.0089340356449201172 -0.0039031307205732446 -0.0089340356449201172 -2499.8984901211998 -0.0073781705732471892 -0.0039031307205732446 -0.0073781705732471892 -9999.9628678381341 0.0060506964991873247 -0.0063222360081000781 -0.005552137944050628 -0.0063222360081000781 -2499.9016020041327 -0.0068148903810651973 -0.005552137944050628 -0.0068148903810651973 -9999.9605315287554 0.014786029234528542 0.0019794518497787059 -0.011375508391211042 0.0019794518497787059 -2499.9042706656846 -0.011467812865930682 -0.011375508391211042 -0.011467812865930682 -9999.9598413671356 0.028897032078020857 -0.0018327014033024114 -0.0092198499623918906 -0.0018327014033024114 -2499.9116214929381 -0.0077530452199425781 -0.0092198499623918906 -0.0077530452199425781 -9999.9573491304964 0.0230976014722728 -0.0033857698040191571 -0.0087141925214382354 -0.0033857698040191571 -2499.9295578279693 -0.0065950645266639185 -0.0087141925214382354 -0.0065950645266639185 -9999.9626459984629 0.022108701893102989 0.003154143297134507 -0.014459316489023877 0.003154143297134507 -2499.9330263775805 0.01586416103054944 -0.014459316489023877 0.01586416103054944 -9999.9825988231732 0.030202439194908948 0.0001719993030696032 -0.0082986409106524661 0.0001719993030696032 -2499.9346660642241 -0.0019548881869013712 -0.0082986409106524661 -0.0019548881869013712 -9999.9580888818746 0.032896314560275641 -0.00076474784698185236 -0.0057850623561535031 -0.00076474784698185236 -2499.9176855846781 0.0039837411613916629 -0.0057850623561535031 0.0039837411613916629 -9999.9512813826332 0.05650552981387591 0.00029121433127442253 -0.0041196721349479049 0.00029121433127442253 -2499.906368900115 -0.016712719777387974 -0.0041196721349479049 -0.016712719777387974 -9999.8794886331598 0.028060234331860556 -0.0011709322482894319 -0.0058240276002834435 -0.0011709322482894319 -2499.9313868209119 -0.0019262959121988388 -0.0058240276002834435 -0.0019262959121988388 -9999.9612819228296 0.030071192735704244 0.0083721156810784032 -0.014592970475064249 0.0083721156810784032 -2499.9401169514194 0.013934725638137024 -0.014592970475064249 0.013934725638137024 -9999.9355648000019 0.036246141698029533 -0.00015687948113463784 -0.0087459738901998207 -0.00015687948113463784 -2499.919196356278 0.0047181390937112155 -0.0087459738901998207 0.0047181390937112155 -9999.9465059132872 0.028603899265362998 0.001753195388898959 -0.017566030308444169 0.001753195388898959 -2499.905004197487 0.011372124326044286 -0.017566030308444169 0.011372124326044286 -9999.9185364814002 0.023241228683218651 -0.0040647098577125829 -0.011426982470766234 -0.0040647098577125829 -2499.9209019756645 0.0058396607782924548 -0.011426982470766234 0.0058396607782924548 -9999.9493131805721 0.036074210938750184 0.0033231995444481313 -0.0061754066014145792 0.0033231995444481313 -2499.9157679558139 -1.9308354239910841e-06 -0.0061754066014145792 -1.9308354239910841e-06 -9999.9589465021345 0.034539711607067147 -0.0036420719132048999 -0.004330213309458486 -0.0036420719132048999 -2499.9261946597289 0.0020889538027404342 -0.004330213309458486 0.0020889538027404342 -9999.9673675990962 0.014173991607094649 -0.0040565649049185788 -0.0013052396589046111 -0.0040565649049185788 -2499.922900666068 0.0040837041042323108 -0.0013052396589046111 0.0040837041042323108 -9999.9750574164354 0.027882686767952691 -0.0012092807233479407 -0.0067439851673043449 -0.0012092807233479407 -2499.9227872700367 0.0014298822270575329 -0.0067439851673043449 0.0014298822270575329 -9999.9661150814427 0.033872336498461664 -0.0074507935433374174 -0.0060192574269422039 -0.0074507935433374174 -2499.9313177358699 0.0053789623398188269 -0.0060192574269422039 0.0053789623398188269 -9999.9615269588467 0.034019117138086585 -0.00067613811554154916 -0.010242986025787104 -0.00067613811554154916 -2499.9182737620376 0.00023265242452907842 -0.010242986025787104 0.00023265242452907842 -9999.9545748583841 0.021369282445448334 -0.002586158714561056 -0.0053003975772298872 -0.002586158714561056 -2499.9168077370141 0.001433012379493448 -0.0053003975772298872 0.001433012379493448 -9999.96278466289 0.029930533039078 0.0049132545828946645 -0.0087462863857581397 0.0049132545828946645 -2499.9235320096614 0.0042118546371057164 -0.0087462863857581397 0.0042118546371057164 -9999.971014560102 0.015290477402231772 -0.0054304751825735697 -0.0042832652352444711 -0.0054304751825735697 -2499.9239034292004 0.0029733058563579107 -0.0042832652352444711 0.0029733058563579107 -9999.9703399105201 0.021564929156738799 -0.0031012985176093813 -0.0046847747089486802 -0.0031012985176093813 -2499.9200997708649 0.003714574828336481 -0.0046847747089486802 0.003714574828336481 -9999.9728198624071 0.019901162802852923 -0.0034115532836521412 -0.0085065409948583692 -0.0034115532836521412 -2499.9188244349098 0.0016259057083516382 -0.0085065409948583692 0.0016259057083516382 -9999.9708934244845 0.029634177520620142 -0.00036905996206092889 -0.0058916086327371886 -0.00036905996206092889 -2499.9073495063171 -0.0028108369788242271 -0.0058916086327371886 -0.0028108369788242271 -9999.9603450940958 0.023082097190354034 -0.0030982478484241488 -0.002751885044744995 -0.0030982478484241488 -2499.9162032293316 -0.0010364913823650568 -0.002751885044744995 -0.0010364913823650568 -9999.9706798716652 0.067065416431432823 0.0095087094147509738 -0.010408375921542756 0.0095087094147509738 -2499.8971455064839 0.00026764753602037672 -0.010408375921542756 0.00026764753602037672 -9999.9436451079018 0.025674267484646407 -0.0025219163439977599 -0.0056541429839853663 -0.0025219163439977599 -2499.9129772724536 0.0017519915681987186 -0.0056541429839853663 0.0017519915681987186 -9999.9588736142869 0.025912369266734459 -0.0021266354999129426 -0.0051207636552135227 -0.0021266354999129426 -2499.9125646385 0.0052026939411007334 -0.0051207636552135227 0.0052026939411007334 -9999.9589185316836 0.023035350845702851 -0.0027246149111941412 -0.0019536043364496436 -0.0027246149111941412 -2499.9161599677764 0.0020785858050658135 -0.0019536043364496436 0.0020785858050658135 -9999.9718205713034 0.0067198169035691535 -0.0015714920660198847 0.00087773930772527819 -0.0015714920660198847 -2499.9105475442611 0.012831623649617541 0.00087773930772527819 0.012831623649617541 -9999.9695700772863 0.0046375126476050355 -0.0054685077144926743 -0.0058996156403736677 -0.0054685077144926743 -2499.8904485999574 -0.0011075158054154599 -0.0058996156403736677 -0.0011075158054154599 -9999.9694624099029 0.0070796554155094782 -0.0082184397437798859 -0.0026032418318209238 -0.0082184397437798859 -2499.896526510769 -0.0052583624219550984 -0.0026032418318209238 -0.0052583624219550984 -9999.9582821626682 0.039215279572090367 -0.011694055461025143 -0.0031171364935289603 -0.011694055461025143 -2499.9308892793142 -0.0056418079202558147 -0.0031171364935289603 -0.0056418079202558147 -9999.959414623283 0.021712436853363215 -0.003974509423411824 -0.0013307699064171175 -0.003974509423411824 -2499.9303748310926 -0.0040552165055487421 -0.0013307699064171175 -0.0040552165055487421 -9999.963017518643 0.066626245665247552 0.018078756177458855 -0.0033700535941534326 0.018078756177458855 -2499.8985825344171 -0.021914962493610801 -0.0033700535941534326 -0.021914962493610801 -9999.9344699137473 0.061149715807914617 0.010941806047871813 -0.0080226323971146485 0.010941806047871813 -2499.8956791095079 -0.026026434436062118 -0.0080226323971146485 -0.026026434436062118 -9999.9408320169969 0.051097390854920377 -0.013792824485178705 -0.007549584024673095 -0.013792824485178705 -2499.9259836926531 -0.0047539058195980033 -0.007549584024673095 -0.0047539058195980033 -9999.9521850792844 0.075430906126712216 0.0065900381876804678 -0.0073697665338841034 0.0065900381876804678 -2499.8921681056745 0.014685236993955186 -0.0073697665338841034 0.014685236993955186 -9999.933975729291 0.054365541574952658 0.00070014384949450281 -0.003083994694861758 0.00070014384949450281 -2499.9350388786679 0.003815230369582423 -0.003083994694861758 0.003815230369582423 -9999.9483978988028 0.077615504656932899 -0.0013152877514561803 -0.007571163874672493 -0.0013152877514561803 -2499.8805478583181 -0.00047522434988422901 -0.007571163874672493 -0.00047522434988422901 -9999.9188761115111 0.056136246017558733 0.0091743841824912346 -0.0049842546293348278 0.0091743841824912346 -2499.9014348875098 0.0009731299914506053 -0.0049842546293348278 0.0009731299914506053 -9999.9533581914147 0.074018189925482147 0.021322816758475589 0.00090322025153000141 0.021322816758475589 -2499.8893507396497 -0.01742781243956415 0.00090322025153000141 -0.01742781243956415 -9999.9243027492557 0.073850150702810424 -0.0014180418651363498 -0.0079851856371533358 -0.0014180418651363498 -2499.8988782832375 -0.0003560388568075723 -0.0079851856371533358 -0.0003560388568075723 -9999.9231218231853 0.067265769142977661 -0.0010667955893976459 -0.0015141614860567643 -0.0010667955893976459 -2499.9064385964775 -0.0016935698640736518 -0.0015141614860567643 -0.0016935698640736518 -9999.9462651936665 0.074707679350467515 -0.00070483212337649355 -0.0018027704954874935 -0.00070483212337649355 -2499.898149539431 0.0051883836586057441 -0.0018027704954874935 0.0051883836586057441 -9999.9243223606718 0.067067593459796626 -0.00052954677344551238 -0.0096611770823074039 -0.00052954677344551238 -2499.9057784520846 0.00073517553391866386 -0.0096611770823074039 0.00073517553391866386 -9999.9479716422029 0.074307781658717431 -0.00058565606868955095 -0.0074867449593511992 -0.00058565606868955095 -2499.8955839938062 -0.0015766017750138417 -0.0074867449593511992 -0.0015766017750138417 -9999.9236075292247 0.063114568822129513 0.0014219703393614745 -0.0031102548400667729 0.0014219703393614745 -2499.9073635432296 0.001063074389094254 -0.0031102548400667729 0.001063074389094254 -9999.9411985634833 0.094732040810413309 0.00024414638711335764 -0.01146697863987356 0.00024414638711335764 -2499.8876232454768 0.00094616800197400153 -0.01146697863987356 0.00094616800197400153 -9999.9147068134298 0.057384861119771813 0.0080243234526255099 -0.010298223111931293 0.0080243234526255099 -2499.9132106798047 -0.0014604648677050136 -0.010298223111931293 -0.0014604648677050136 -9999.943658493914 0.068834375666938286 -0.0032735816255527266 -0.0038925392418605043 -0.0032735816255527266 -2499.9021298070488 -0.0011639850126812235 -0.0038925392418605043 -0.0011639850126812235 -9999.9347118806763 0.062988358080474427 0.010816370516857035 -0.0061190593442006502 0.010816370516857035 -2499.9088821486994 0.00517896250312333 -0.0061190593442006502 0.00517896250312333 -9999.939615722702 0.081307433446909272 0.0011396184885980667 -0.0016418418126704637 0.0011396184885980667 -2499.894597530189 0.00032070986890175845 -0.0016418418126704637 0.00032070986890175845 -9999.9289128500895 0.069389511504596157 -0.0019470776453377467 -0.011160737343743676 -0.0019470776453377467 -2499.9077972548921 0.0047442040850000922 -0.011160737343743676 0.0047442040850000922 -9999.9424175711702 0.069756485061589046 0.001100671439956949 -0.00054618093781755306 0.001100671439956949 -2499.9001209457756 -0.0008084156447694113 -0.00054618093781755306 -0.0008084156447694113 -9999.9342847922417 0.064895351908489829 0.0012848172485124681 -0.0043614784844976384 0.0012848172485124681 -2499.9073035774018 -0.0016785274037829367 -0.0043614784844976384 -0.0016785274037829367 -9999.9452522471329 0.062421325597824762 0.0031477280826594234 -0.0076882409266545437 0.0031477280826594234 -2499.9065938569838 0.002568693755165441 -0.0076882409266545437 0.002568693755165441 -9999.9466041889755 0.092845670735187014 0.0028593861902441661 -0.0092262320104055107 0.0028593861902441661 -2499.8891222836301 0.0004514095180638833 -0.0092262320104055107 0.0004514095180638833 -9999.9161173687971 0.080604523616784718 0.00029828765127417451 -0.0076404237552196719 0.00029828765127417451 -2499.8940480521142 0.0011892611219082028 -0.0076404237552196719 0.0011892611219082028 -9999.9205057335566 0.098509966366691515 -0.001471907590136913 -0.010979931495967321 -0.001471907590136913 -2499.8778873799529 -0.00038499769834743347 -0.010979931495967321 -0.00038499769834743347 -9999.911391511785 0.076821684870083118 0.0071648718245808495 -0.0083509347318795335 0.0071648718245808495 -2499.9021282608628 -0.0039896214584587142 -0.0083509347318795335 -0.0039896214584587142 -9999.9241771119705 0.061675522367295343 -0.00018099389938060727 -0.014592955372791039 -0.00018099389938060727 -2499.9155305224849 0.00053623730309482198 -0.014592955372791039 0.00053623730309482198 -9999.9481458498194 0.060031666027498432 0.0023057431872839027 -0.00081926457642111927 0.0023057431872839027 -2499.9141422714529 0.00072104440369002987 -0.00081926457642111927 0.00072104440369002987 -9999.9403229230957 0.064031506701212493 0.0013515749286641329 -0.00098692339452099986 0.0013515749286641329 -2499.9027201181125 0.002699486613892077 -0.00098692339452099986 0.002699486613892077 -9999.9359147635696 0.080898514584987424 0.0061541740710015216 -0.0086189360981734353 0.0061541740710015216 -2499.8909712342538 -0.0020712685181933921 -0.0086189360981734353 -0.0020712685181933921 -9999.9197330113093 0.052012918877153425 -0.010557177930502842 -0.0045711245184065774 -0.010557177930502842 -2499.8853143415654 0.026682897623686586 -0.0045711245184065774 0.026682897623686586 -9999.9339435011789 0.083031195128569379 0.006620366496873295 -0.01085567960399203 0.006620366496873295 -2499.8923547822706 0.014282117273978656 -0.01085567960399203 0.014282117273978656 -9999.9292564771276 0.082562740217326791 0.0089923537094306841 -0.0052014950491638956 0.0089923537094306841 -2499.8989988523499 -0.0013141691179043846 -0.0052014950491638956 -0.0013141691179043846 -9999.9204697002024 0.08421109092887491 0.0022583488429411408 0.0021010344862588681 0.0022583488429411408 -2499.879013786398 -0.0036195436568959849 0.0021010344862588681 -0.0036195436568959849 -9999.9291817194753 0.11176359163800953 0.0057654038133218566 -0.0050881976858363487 0.0057654038133218566 -2499.8714141571163 -0.0037091941267135553 -0.0050881976858363487 -0.0037091941267135553 -9999.9177219742523 0.079806206060311524 6.8536021371169709e-05 -0.0021672725179087138 6.8536021371169709e-05 -2499.8851186893153 -0.0071054528489185032 -0.0021672725179087138 -0.0071054528489185032 -9999.9379030489654 0.062566977390815737 0.011279753198154621 -0.0047557086472806986 0.011279753198154621 -2499.9041463607828 -0.0016793934973975411 -0.0047557086472806986 -0.0016793934973975411 -9999.9472311715144 0.051654159958161472 0.0065289244422994247 -0.0019981185796495993 0.0065289244422994247 -2499.9202063787443 0.011910251661902294 -0.0019981185796495993 0.011910251661902294 -9999.9504770375534 0.05172643836158386 0.0044770399935873794 -0.0071089502885115508 0.0044770399935873794 -2499.9205969555205 0.0041013010468304856 -0.0071089502885115508 0.0041013010468304856 -9999.9510606484182 0.047923725382133853 0.002979214785772245 -0.0092874113761354238 0.002979214785772245 -2499.9248257343861 -0.0017707433908071835 -0.0092874113761354238 -0.0017707433908071835 -9999.9580632768702 0.018990812543506763 0.0043346522399744479 -0.0029456861975631909 0.0043346522399744479 -2499.9439206445054 0.020845792554609943 -0.0029456861975631909 0.020845792554609943 -9999.9733767235757 0.039963680002983892 0.013650187425733382 -0.0072056977394368005 0.013650187425733382 -2499.9335804654438 0.018484458061720943 -0.0072056977394368005 0.018484458061720943 -9999.9639260520053 0.03531894590560114 0.016412157907034926 -0.00076010157908967813 0.016412157907034926 -2499.9440983130116 -0.0036576941965904552 -0.00076010157908967813 -0.0036576941965904552 -9999.9668655428322 0.04797543882887112 0.0010845456976509016 -0.0022864388265588786 0.0010845456976509016 -2499.9202892018002 0.0040650349510542583 -0.0022864388265588786 0.0040650349510542583 -9999.9552447266033 0.035219972179220349 0.01212233551856947 0.0039755122525093611 0.01212233551856947 -2499.9368616909005 -0.0046391876167035662 0.0039755122525093611 -0.0046391876167035662 -9999.970896502673 0.01281577621375618 -0.0096243471515474119 -0.006488019784228527 -0.0096243471515474119 -2499.9378222896539 -0.0052936788542865543 -0.006488019784228527 -0.0052936788542865543 -9999.9826903971043 0.0098818856349680573 -0.0072184690749179173 -0.0042284582668798976 -0.0072184690749179173 -2499.9236235955323 -0.011600409681705059 -0.0042284582668798976 -0.011600409681705059 -9999.9778225821647 0.017937243766937172 -0.0013655737440505661 -0.0092768966096627992 -0.0013655737440505661 -2499.9147895592178 0.00087307575449813157 -0.0092768966096627992 0.00087307575449813157 -9999.9817529671709 -4.888206603936851e-06 -0.014527974564829571 0.0055965512328839395 -0.014527974564829571 -2499.9182768159699 -0.0011951808173762402 0.0055965512328839395 -0.0011951808173762402 -9999.997121320288 0.0071254519243666437 -0.006041169890292325 0.0032026888766267803 -0.006041169890292325 -2499.898473645917 0.021912003478064435 0.0032026888766267803 0.021912003478064435 -9999.9672314680865 0.00080457757121621398 -0.010157215064102651 0.0055272249192057643 -0.010157215064102651 -2499.9222780284699 0.0054456542384286877 0.0055272249192057643 0.0054456542384286877 -9999.9800551428743 0.024570647885411745 -0.003912761196851966 -0.0028032582049490884 -0.003912761196851966 -2499.9283409245836 0.0070551121024493568 -0.0028032582049490884 0.0070551121024493568 -9999.9731473692591 0.017467088047851576 -0.0050031045628616891 -0.0017546348717587534 -0.0050031045628616891 -2499.9570308062066 0.004933614030960598 -0.0017546348717587534 0.004933614030960598 -9999.9814199912416 0.020989151667890837 -0.0030139395456278834 -0.0046048742733546533 -0.0030139395456278834 -2499.9343834396532 -0.0005619138447059413 -0.0046048742733546533 -0.0005619138447059413 -9999.9686496159266 0.019482859638628724 -0.0042655721091195906 -0.0030052068595978199 -0.0042655721091195906 -2499.9365856755421 -0.006512480915262131 -0.0030052068595978199 -0.006512480915262131 -9999.9769236947068 0.020017292338707193 -0.0024949284341851882 0.0004043688895762898 -0.0024949284341851882 -2499.9320135399876 6.5450938564026728e-05 0.0004043688895762898 6.5450938564026728e-05 -9999.9824458863113 0.017720069668939686 -0.003658130808551794 0.0012094617850380018 -0.003658130808551794 -2499.9575425418243 -0.0006788876071368577 0.0012094617850380018 -0.0006788876071368577 -9999.9750832534737 0.017405588441761211 -0.0013183851692192307 -0.0045375446788966656 -0.0013183851692192307 -2499.931929736691 -9.9194363428978249e-05 -0.0045375446788966656 -9.9194363428978249e-05 -9999.9838514871662 0.020714451069579809 -0.0013184631638244078 -0.0011514582874951884 -0.0013184631638244078 -2499.931150799408 0.0037440529522427823 -0.0011514582874951884 0.0037440529522427823 -9999.9753541036189 0.020540316923870705 0.00013529131807648448 -0.00047638135038141627 0.00013529131807648448 -2499.9297851860501 0.00020873082939942833 -0.00047638135038141627 0.00020873082939942833 -9999.9720193041212 0.040490671803837586 0.0035667282522335933 -0.0048359402499045245 0.0035667282522335933 -2499.9185389052373 0.0016368118758691708 -0.0048359402499045245 0.0016368118758691708 -9999.9523872726932 0.02252257344298414 -0.00092322690707139637 -0.006066064788683434 -0.00092322690707139637 -2499.9303523954186 0.0018441776719555492 -0.006066064788683434 0.0018441776719555492 -9999.9781392818295 0.049273814873231458 0.0012113520252873648 -0.011560039369214792 0.0012113520252873648 -2499.9187411294497 -0.00072717025432211813 -0.011560039369214792 -0.00072717025432211813 -9999.9567743298649 0.031808592982997652 0.00055618150613845427 5.5315185079507501e-05 0.00055618150613845427 -2499.9234301606684 0.0046473586207866902 5.5315185079507501e-05 0.0046473586207866902 -9999.9632702156086 0.015859675830142805 -0.00081517016377942453 -0.0054376161097025033 -0.00081517016377942453 -2499.931767117243 0.00025564153384038946 -0.0054376161097025033 0.00025564153384038946 -9999.9851973996992 0.048392524393420899 0.0013904578376744102 -0.010693612202885561 0.0013904578376744102 -2499.9140490834143 -0.0015398284704133403 -0.010693612202885561 -0.0015398284704133403 -9999.9561829304439 0.024602680008683819 -0.0016201516005049238 -0.0055855992031865753 -0.0016201516005049238 -2499.9192139468923 0.0055347497363982257 -0.0055855992031865753 0.0055347497363982257 -9999.9730766526627 0.01854552741497173 -0.00058603061992909696 -0.0015439300386788091 -0.00058603061992909696 -2499.9278325507839 0.00075181913689448265 -0.0015439300386788091 0.00075181913689448265 -9999.9722812533946 0.021181066393182846 -0.0014215407842097117 -0.0068921535112167476 -0.0014215407842097117 -2499.9283635306856 0.0024908688751565933 -0.0068921535112167476 0.0024908688751565933 -9999.9780168519064 0.020339206819699029 -0.002873252993538045 -0.0045455407125700731 -0.002873252993538045 -2499.9229239556607 0.0020619890401576413 -0.0045455407125700731 0.0020619890401576413 -9999.980473083473 0.050893319139504456 0.00032799488066003347 -0.012122276773880003 0.00032799488066003347 -2499.9129485641552 0.0007041857697913656 -0.012122276773880003 0.0007041857697913656 -9999.9543739068104 0.049193342623766512 0.0013828991556943428 -0.011787024512159405 0.0013828991556943428 -2499.9160394979208 0.00013267493204693892 -0.011787024512159405 0.00013267493204693892 -9999.9557916815902 0.017627604329391033 0.00064637082107601789 -0.00031727987698104698 0.00064637082107601789 -2499.9282194132556 0.00065449506337245111 -0.00031727987698104698 0.00065449506337245111 -9999.9728255949813 0.013555515221014502 0.00012824394590610268 -0.0042969781170540955 0.00012824394590610268 -2499.9317040619317 0.0013659402138728183 -0.0042969781170540955 0.0013659402138728183 -9999.9843422658232 0.013371596909564687 0.00039294274404910387 -0.0047085613150557037 0.00039294274404910387 -2499.9326509935345 0.00016405530118390743 -0.0047085613150557037 0.00016405530118390743 -9999.9861615792252 0.026683424222937902 -0.0040308088252045404 -0.00041069240978686139 -0.0040308088252045404 -2499.9236633543223 0.0017102328511100495 -0.00041069240978686139 0.0017102328511100495 -9999.9622247220395 0.027156942887813784 -0.00032843163727270044 -0.00066646120194491232 -0.00032843163727270044 -2499.9232009982234 0.0011416006109357113 -0.00066646120194491232 0.0011416006109357113 -9999.9619000215753 0.01242206187271222 0.000366410670270911 -0.0050922703103424283 0.000366410670270911 -2499.9302474388041 0.0011893276441696798 -0.0050922703103424283 0.0011893276441696798 -9999.9848887043408 0.027606240542809246 -0.00024302603190163793 -0.00074441556171223056 -0.00024302603190163793 -2499.9221866080188 -0.0013157838766346686 -0.00074441556171223056 -0.0013157838766346686 -9999.9611402283772 0.019959480949182762 -0.002820827672744235 -0.0075480572741071228 -0.002820827672744235 -2499.9282627825669 0.0024371515937673394 -0.0075480572741071228 0.0024371515937673394 -9999.9810157361208 0.022391608057660051 -0.00031026421882772263 -0.0069701564198112465 -0.00031026421882772263 -2499.9290685044325 0.00088384210539516062 -0.0069701564198112465 0.00088384210539516062 -9999.9820586749556 0.04899748907337198 -0.0017033784106068395 -0.011538951374859607 -0.0017033784106068395 -2499.9146864904942 0.0029008465062361211 -0.011538951374859607 0.0029008465062361211 -9999.9553793444938 0.02759402906485775 -0.0018384242838444785 -0.0023890833799669053 -0.0018384242838444785 -2499.922699055116 0.0039070693399025913 -0.0023890833799669053 0.0039070693399025913 -9999.9677445529451 0.018358692557740142 0.00062602938601219167 -0.0036681932579085696 0.00062602938601219167 -2499.9281685888309 0.0012283919313631486 -0.0036681932579085696 0.0012283919313631486 -9999.9825357240843 0.01881533444429806 0.0012184886506746602 -0.00021536447275138926 0.0012184886506746602 -2499.9249907315025 0.0026446132430919533 -0.00021536447275138926 0.0026446132430919533 -9999.9715211525981 0.020477436588407727 0.0013183763514631325 -0.0048220472690445604 0.0013183763514631325 -2499.9168564651063 0.0012405371817294508 -0.0048220472690445604 0.0012405371817294508 -9999.963080017289 0.034194792839116417 -0.0011411000597619774 -0.0082113312569163099 -0.0011411000597619774 -2499.9078122973151 -0.0039973400907911127 -0.0082113312569163099 -0.0039973400907911127 -9999.9533255650567 0.034950285611557774 0.0029168083043525205 -0.0056355873921347666 0.0029168083043525205 -2499.9108231891423 -0.0052151235522615025 -0.0056355873921347666 -0.0052151235522615025 -9999.9546736389166 0.028871843177000756 0.003553096133886859 -0.0036717105978141262 0.003553096133886859 -2499.9241558774988 0.0018770859205687884 -0.0036717105978141262 0.0018770859205687884 -9999.9735412728387 0.028830140217223743 -0.0041924957730242358 -0.0056315665242436808 -0.0041924957730242358 -2499.9128917724438 0.0021587604915112024 -0.0056315665242436808 0.0021587604915112024 -9999.9710411460474 0.030776621559425621 -0.0033260342235144538 -0.0059988898638039245 -0.0033260342235144538 -2499.9193625239377 0.00093159391508379485 -0.0059988898638039245 0.00093159391508379485 -9999.9610890615859 0.028201550884460858 -0.0015651224343748668 -0.0036987279040658905 -0.0015651224343748668 -2499.9255618008001 -0.0032415889854746638 -0.0036987279040658905 -0.0032415889854746638 -9999.9738968234706 0.018265246986629791 0.0014336033776276343 -0.0044199329167895485 0.0014336033776276343 -2499.9225898296445 -0.0024762513512541773 -0.0044199329167895485 -0.0024762513512541773 -9999.975663286059 0.017670779965555994 0.0006179589384723216 -0.0025966974226321327 0.0006179589384723216 -2499.9185739850727 0.0010491611938050482 -0.0025966974226321327 0.0010491611938050482 -9999.9717001261524 0.017141584194632742 0.0022552589197800334 -0.0061331432061706437 0.0022552589197800334 -2499.9218913436412 0.0033952337889786577 -0.0061331432061706437 0.0033952337889786577 -9999.9759800662068 0.025649518614955014 -0.0051814778771260596 -0.0039614618253835943 -0.0051814778771260596 -2499.9278814339614 0.0053081798168932437 -0.0039614618253835943 0.0053081798168932437 -9999.9749859031072 0.028212456407345599 0.007050325186837663 -0.0033693362620397238 0.007050325186837663 -2499.9136522668341 -0.0071975395549088717 -0.0033693362620397238 -0.0071975395549088717 -9999.9586214425053 0.058408536668139277 0.0020450796582436731 -0.004947036191879306 0.0020450796582436731 -2499.9104351580645 -0.0054325618912116624 -0.004947036191879306 -0.0054325618912116624 -9999.9505217147016 0.036313100572442636 -0.00026781911564799366 -0.00029446875669236761 -0.00026781911564799366 -2499.9121554879239 -0.0037944153918942902 -0.00029446875669236761 -0.0037944153918942902 -9999.9618519223295 0.027279953210381791 0.0026618345303471916 -0.0047052080935827689 0.0026618345303471916 -2499.920371088403 5.264757783152163e-05 -0.0047052080935827689 5.264757783152163e-05 -9999.9729354942901 0.029124333392246626 0.00092345030719238538 -0.0030806936638327898 0.00092345030719238538 -2499.9186345287462 -0.0058155228280156734 -0.0030806936638327898 -0.0058155228280156734 -9999.9598691294705 0.023067453101248248 -0.0028021750373028315 -0.00010428893801872618 -0.0028021750373028315 -2499.9287921566902 0.0050841622069128789 -0.00010428893801872618 0.0050841622069128789 -9999.977688087256 0.018383127020868528 -0.0013176254916421014 0.000908832411369076 -0.0013176254916421014 -2499.9419782489927 0.0002840450515577686 0.000908832411369076 0.0002840450515577686 -9999.9820502950952 0.001285607357203844 0.0010740446289009692 0.0020520767247944605 0.0010740446289009692 -2499.9283893942375 0.0010992046491082874 0.0020520767247944605 0.0010992046491082874 -9999.9829465923722 0.011949390631343704 0.0023476608256133569 -0.0036382296866577235 0.0023476608256133569 -2499.9294789228825 0.0042442748072062386 -0.0036382296866577235 0.0042442748072062386 -9999.9815194057956 0.0158615597501921 -0.003264060535401514 -0.0051284178134665126 -0.003264060535401514 -2499.9155099157124 0.0070142641197890043 -0.0051284178134665126 0.0070142641197890043 -9999.9638633497889 0.044070202231068833 -0.01573801680151321 0.0021666844222636428 -0.01573801680151321 -2499.914371241523 -0.0035484610543790041 0.0021666844222636428 -0.0035484610543790041 -9999.953319073622 0.027416834754149022 -0.0026278269848590587 -0.0047575756570950034 -0.0026278269848590587 -2499.9352913172106 0.0027107809328299481 -0.0047575756570950034 0.0027107809328299481 -9999.9672416072881 0.013622878734167898 -0.0032250777860647548 -0.0061895211547380313 -0.0032250777860647548 -2499.917556638753 0.0058421076491868007 -0.0061895211547380313 0.0058421076491868007 -9999.9705965157627 0.011044139942896436 0.0083478837930045999 0.0061802891259503667 0.0083478837930045999 -2499.86530761828 -0.024133471151799313 0.0061802891259503667 -0.024133471151799313 -9999.9615084164398 0.016649060022245976 0.0040155147941441961 -0.00092985704759485088 0.0040155147941441961 -2499.9663456785511 -0.0067199377790529979 -0.00092985704759485088 -0.0067199377790529979 -9999.9895501262017 -0.0031586974109814037 0.015086965620299968 0.0052343186598591274 0.015086965620299968 -2499.9031678954398 -0.0046205256576286047 0.0052343186598591274 -0.0046205256576286047 -9999.9798523418285 0.01498708294093376 -0.0010635208511860991 -0.0098170341916556936 -0.0010635208511860991 -2499.9213099957742 -0.0002972702459373977 -0.0098170341916556936 -0.0002972702459373977 -9999.9858898063831 0.016242311867245007 0.0012162473279643954 -0.0064497432540520094 0.0012162473279643954 -2499.9211550398322 0.016673761637321149 -0.0064497432540520094 0.016673761637321149 -9999.9723756882013 -0.0022206519788596779 0.017604725986657715 0.0089252959805889986 0.017604725986657715 -2499.9057327154733 -0.0057145515702359262 0.0089252959805889986 -0.0057145515702359262 -9999.9948813055307 0.011073437168306555 0.0076160208449427766 -0.0059334822453820379 0.0076160208449427766 -2499.946112100859 0.0062634074656671146 -0.0059334822453820379 0.0062634074656671146 -9999.9855657241933 0.016375203949792194 0.0021383354128740699 -0.006085782960326469 0.0021383354128740699 -2499.9367866395278 0.0020077897461305838 -0.006085782960326469 0.0020077897461305838 -9999.9851581858165 0.019250706889579305 0.0023440717748557383 -0.0067466970776877133 0.0023440717748557383 -2499.9300023781725 -0.001657596087170532 -0.0067466970776877133 -0.001657596087170532 -9999.9787954918065 0.02893283607045305 0.0020550188776378223 0.00096836571901803836 0.0020550188776378223 -2499.9302569347274 0.0015622872806488886 0.00096836571901803836 0.0015622872806488886 -9999.9698488524446 0.028445339950849302 0.0036744251840827788 -0.0016979412794171367 0.0036744251840827788 -2499.9278191046906 -0.0044684046733891591 -0.0016979412794171367 -0.0044684046733891591 -9999.9778341517958 0.049085956117778551 -0.0051266450271865993 -0.0084202621305848879 -0.0051266450271865993 -2499.9121132430337 0.0023869522410677746 -0.0084202621305848879 0.0023869522410677746 -9999.951595024424 0.031033505265440908 0.002598186622964474 -0.00022512184659717605 0.002598186622964474 -2499.9242552069391 -0.001667310055836424 -0.00022512184659717605 -0.001667310055836424 -9999.965008258594 0.027712289881492325 -0.021660493483273188 0.00023559084365842864 -0.021660493483273188 -2499.9408732567672 0.0090411181172385113 0.00023559084365842864 0.0090411181172385113 -9999.9704529643132 0.032821350654558046 -0.019583288068666008 0.0027749489750021894 -0.019583288068666008 -2499.9426175026965 0.0092714249694836326 0.0027749489750021894 0.0092714249694836326 -9999.9679470602714 0.048113726217707153 -0.0036027002867694315 -0.0082426732046769757 -0.0036027002867694315 -2499.9155338706914 -0.0017559312873345334 -0.0082426732046769757 -0.0017559312873345334 -9999.9507009695662 0.017816658843003097 0.002519942084367309 0.001689585022177198 0.002519942084367309 -2499.9664259693654 0.00035792964627034962 0.001689585022177198 0.00035792964627034962 -9999.9804413006459 0.037812118904184899 -0.014424884162337188 -0.0032746419142313243 -0.014424884162337188 -2499.9317018392594 -0.019225291200200445 -0.0032746419142313243 -0.019225291200200445 -9999.9683449920922 0.022421372388180316 -0.0036717927289457962 -0.0010612254500301788 -0.0036717927289457962 -2499.946080489834 -0.021905955964029999 -0.0010612254500301788 -0.021905955964029999 -9999.9765513695111 0.061752406927553238 -0.00019001781294292197 -0.00023371755378320813 -0.00019001781294292197 -2499.9088986869647 9.5514607892255299e-05 -0.00023371755378320813 9.5514607892255299e-05 -9999.9384909675937 0.065788794323452748 -0.00076121782379228592 -0.00038332484109560028 -0.00076121782379228592 -2499.8962517372147 0.0011114654871562379 -0.00038332484109560028 0.0011114654871562379 -9999.935137241242 0.054858237543157884 0.0096376923353740929 0.0027015261202905094 0.0096376923353740929 -2499.9014974154907 0.00062942507975094486 0.0027015261202905094 0.00062942507975094486 -9999.9475170268743 0.063834681338448718 0.00010020794917844911 -0.0062471604342135834 0.00010020794917844911 -2499.9091795669965 0.0037775471628265223 -0.0062471604342135834 0.0037775471628265223 -9999.9370721336381 0.052543367668477003 -0.0032911110040137956 -0.0054309857659973204 -0.0032911110040137956 -2499.9154216973275 -0.0024569131892349105 -0.0054309857659973204 -0.0024569131892349105 -9999.946752652635 0.080101426243345486 0.0036282806184823324 0.00061171892230049707 0.0036282806184823324 -2499.8771021825141 0.0062765860639046878 0.00061171892230049707 0.0062765860639046878 -9999.9357065829026 0.057803873147349805 -0.011061093100938661 -0.0023691388378210831 -0.011061093100938661 -2499.9025026696436 -0.0005613767534669023 -0.0023691388378210831 -0.0005613767534669023 -9999.9475104888406 0.05929763868698501 0.00034884300067337655 -0.0066377585475834167 0.00034884300067337655 -2499.9011791783705 0.0043953174499620218 -0.0066377585475834167 0.0043953174499620218 -9999.9454767763309 0.08816434088475944 -0.0049973813998185667 -0.010325877710585019 -0.0049973813998185667 -2499.8844334959158 0.0049015762197086588 -0.010325877710585019 0.0049015762197086588 -9999.9162472393364 0.082456248162998236 -0.004119695612652333 -0.010493125381941582 -0.004119695612652333 -2499.9041949309267 0.0015529957836406538 -0.010493125381941582 0.0015529957836406538 -9999.9192470367343 0.10503587205676013 -0.0070303893493992159 -0.0064853334042709321 -0.0070303893493992159 -2499.8664761903819 0.0070923446037340909 -0.0064853334042709321 0.0070923446037340909 -9999.9228173616357 0.086437068486702628 0.00092590083820164417 -0.0053301447615865527 0.00092590083820164417 -2499.8791172234523 0.0055687808016955387 -0.0053301447615865527 0.0055687808016955387 -9999.9279538280316 0.072093325077730697 -0.0010662323323622075 -0.00349598247493077 -0.0010662323323622075 -2499.9090279990523 -0.00070778793087811209 -0.00349598247493077 -0.00070778793087811209 -9999.9347543872864 0.071066015651013004 0.00032677122104884937 -0.0085736108558194246 0.00032677122104884937 -2499.9116557495581 0.0028431566806830233 -0.0085736108558194246 0.0028431566806830233 -9999.9349593772858 0.07092171867043362 -0.0038317174179885935 -0.0077796220157324569 -0.0038317174179885935 -2499.9124079082048 -0.0038418816802732181 -0.0077796220157324569 -0.0038418816802732181 -9999.9243280437404 0.071872679064199474 0.00062232579902211232 -0.0014719345344929025 0.00062232579902211232 -2499.8771520579207 -0.03036528541088046 -0.0014719345344929025 -0.03036528541088046 -9999.9235637693891 0.078019455622779788 0.00023433299744227642 -0.006324879918906845 0.00023433299744227642 -2499.9172985404712 -0.0041282669935753802 -0.006324879918906845 -0.0041282669935753802 -9999.9235925054818 0.080486722097703023 0.0022908119068929637 -0.0030302946515803342 0.0022908119068929637 -2499.9082259044699 0.0036285280057199998 -0.0030302946515803342 0.0036285280057199998 -9999.9253159838991 0.057586980901760398 0.0017826259175452754 0.0015802504713064991 0.0017826259175452754 -2499.9184147445421 -0.0092014966141960031 0.0015802504713064991 -0.0092014966141960031 -9999.9477088512067 0.047892899685393786 0.0075791574498541275 -0.00044529148362926207 0.0075791574498541275 -2499.9195738382878 -0.0083012482919571084 -0.00044529148362926207 -0.0083012482919571084 -9999.958230057222 0.06504216331995849 -0.0018114291779759602 -0.011534089277120074 -0.0018114291779759602 -2499.9153550368537 -0.00055690438466626802 -0.011534089277120074 -0.00055690438466626802 -9999.9365780871813 0.050076368830559659 0.0074829129757668271 -0.0018615633333638471 0.0074829129757668271 -2499.9173768964556 -0.0058351125854017027 -0.0018615633333638471 -0.0058351125854017027 -9999.9520870785527 0.069413068560606916 0.010698912638012179 -0.0050805128214506112 0.010698912638012179 -2499.867959289295 -0.026586156558551011 -0.0050805128214506112 -0.026586156558551011 -9999.9250587838178 0.084531576882000081 0.001182181903644961 -0.0089402581580770857 0.001182181903644961 -2499.8978199178873 -0.014638074932918244 -0.0089402581580770857 -0.014638074932918244 -9999.9150572271355 0.066198727748997044 0.016403647138394414 0.0004617975700966781 0.016403647138394414 -2499.9119408365541 -0.023264753008334083 0.0004617975700966781 -0.023264753008334083 -9999.9325721585992 0.076508314057718962 -0.00083423942463681927 -0.0060687144059556886 -0.00083423942463681927 -2499.8975700612009 -0.00030050574969209265 -0.0060687144059556886 -0.00030050574969209265 -9999.9203740260309 0.074290182847107644 0.00050647749168915312 -0.00029653115984729084 0.00050647749168915312 -2499.9017006907634 -0.007894110456618364 -0.00029653115984729084 -0.007894110456618364 -9999.9212096895935 0.06561161427089246 6.0073631602132254e-05 -0.0096844455893005943 6.0073631602132254e-05 -2499.9105481205534 -0.00039679573455941863 -0.0096844455893005943 -0.00039679573455941863 -9999.9497689597138 0.069423987071786541 -0.0008315670725649359 -0.00039834639255786897 -0.0008315670725649359 -2499.9030334924828 -0.0012851935152866645 -0.00039834639255786897 -0.0012851935152866645 -9999.9407379962249 0.066067789507997077 -0.0013897643536924034 0.00014034964897291502 -0.0013897643536924034 -2499.8961915444866 -0.0041010156610354898 0.00014034964897291502 -0.0041010156610354898 -9999.9381216165202 0.077651689678305047 -0.0019974915729519573 -0.0067038986981060589 -0.0019974915729519573 -2499.8965994094242 -0.00059149902790522901 -0.0067038986981060589 -0.00059149902790522901 -9999.921521440554 0.068618387485912535 -0.0022141952438903905 0.00019971222627646057 -0.0022141952438903905 -2499.8996976925555 0.0031254304158210289 0.00019971222627646057 0.0031254304158210289 -9999.935277343051 0.070261930032756936 0.0029720373064652376 -0.003612877292880512 0.0029720373064652376 -2499.903428291811 0.0037571724169538356 -0.003612877292880512 0.0037571724169538356 -9999.9349296962755 0.057107514562289907 -0.00053147633444002582 -0.011235441919353661 -0.00053147633444002582 -2499.9110915391516 -0.00081058447540272027 -0.011235441919353661 -0.00081058447540272027 -9999.9444435312489 0.065941696309437248 -0.0083531475855842391 -0.0050728774767776486 -0.0083531475855842391 -2499.9092676883615 -0.0015902931991149671 -0.0050728774767776486 -0.0015902931991149671 -9999.9383746704552 0.079980983761288371 -0.00056900740394128652 -0.0017750323204381857 -0.00056900740394128652 -2499.9000236640436 0.0024733381869737059 -0.0017750323204381857 0.0024733381869737059 -9999.9310201144945 0.056988544619628101 -0.0061997369875209192 -0.011395500849346263 -0.0061997369875209192 -2499.9121911503203 0.0037221741476969328 -0.011395500849346263 0.0037221741476969328 -9999.9445438849216 0.057544156483345432 -0.0048623890186745636 -0.0076957024830335286 -0.0048623890186745636 -2499.9071335691333 -0.00044621419237955706 -0.0076957024830335286 -0.00044621419237955706 -9999.9472047033851 0.093593000050532282 -0.0005030493035648835 -0.011494063881514194 -0.0005030493035648835 -2499.8928893645871 0.0021025156602263451 -0.011494063881514194 0.0021025156602263451 -9999.9160438023246 0.099479846223403001 0.00028719397340304376 -0.011387029833713314 0.00028719397340304376 -2499.8748438153743 0.0039274428163480479 -0.011387029833713314 0.0039274428163480479 -9999.9107969873585 0.094536372384027345 -0.0033469118445069029 -0.009607722247892525 -0.0033469118445069029 -2499.8879286645406 0.0013806917668262031 -0.009607722247892525 0.0013806917668262031 -9999.9152093821103 0.08164366684104607 -0.00098437630764108743 -0.0076998237373118172 -0.00098437630764108743 -2499.8926847747971 0.00069459986480069347 -0.0076998237373118172 0.00069459986480069347 -9999.9200980866008 0.12163219194280828 0.0027301631411300875 0.00044009848170389887 0.0027301631411300875 -2499.8830877756327 -0.00019576716476876754 0.00044009848170389887 -0.00019576716476876754 -9999.8951501960819 0.11332701640640153 -0.0013944283876110815 -0.0061101449246052653 -0.0013944283876110815 -2499.8824134624356 0.0005376320913796917 -0.0061101449246052653 0.0005376320913796917 -9999.910205287073 0.10348105860157375 -0.0060906627217412711 -0.0022383682262443472 -0.0060906627217412711 -2499.8860046286291 0.0052064662631892134 -0.0022383682262443472 0.0052064662631892134 -9999.9037878713352 0.11042564394210785 -0.0013220991877608847 0.00068374013062566519 -0.0013220991877608847 -2499.8792957783771 0.00084411589995170289 0.00068374013062566519 0.00084411589995170289 -9999.8948666859797 0.094714095697781886 -0.0019265325989881663 0.0010717443910834845 -0.0019265325989881663 -2499.8909437235998 0.0015472222730750218 0.0010717443910834845 0.0015472222730750218 -9999.9097265268538 0.10811028221633023 0.0022747293325506646 -0.00079828311390883755 0.0022747293325506646 -2499.8814093563346 0.001970999090190162 -0.00079828311390883755 0.001970999090190162 -9999.8968944918379 0.11277197559320484 -0.0018821200761117828 -0.004865559414611198 -0.0018821200761117828 -2499.882479340522 0.0030356082179423538 -0.004865559414611198 0.0030356082179423538 -9999.9098674833949 0.11635698354439228 -0.0010539536172216087 -0.0072367330722045153 -0.0010539536172216087 -2499.8770204101593 0.00061149585962994024 -0.0072367330722045153 0.00061149585962994024 -9999.8942544347265 0.10800740567265166 0.0027455195976234998 -0.0041651900864962954 0.0027455195976234998 -2499.8820787238319 -0.0026224288649245864 -0.0041651900864962954 -0.0026224288649245864 -9999.8999278135307 0.12643721389940765 0.0063688136160921158 0.00091116042312933132 0.0063688136160921158 -2499.87255035003 0.00097378054488217458 0.00091116042312933132 0.00097378054488217458 -9999.8910909746664 0.1000186216288057 -0.0015538756332001743 0.00049843600891108508 -0.0015538756332001743 -2499.8840029184657 -0.0020797321685677161 0.00049843600891108508 -0.0020797321685677161 -9999.8942323808551 0.097594251215696204 -0.0012461997632272903 -0.0039625753543077735 -0.0012461997632272903 -2499.8899391335781 -0.00058658188572735526 -0.0039625753543077735 -0.00058658188572735526 -9999.9148211377233 0.09965501577789837 -0.0021006506187254866 -0.0011531462159837247 -0.0021006506187254866 -2499.8829930058341 -0.00020875286008958938 -0.0011531462159837247 -0.00020875286008958938 -9999.8968563219642 0.10102602483220835 -0.00019537942358589214 -0.00056172344920923933 -0.00019537942358589214 -2499.8836572344271 -0.0021277332252793713 -0.00056172344920923933 -0.0021277332252793713 -9999.8937920413882 0.10195736300124736 0.00039669276102181146 -0.0049526340699230786 0.00039669276102181146 -2499.8882386934083 -0.0015085561735759256 -0.0049526340699230786 -0.0015085561735759256 -9999.9130397131939 0.099257102057890734 -0.00049477305324044027 -0.0026947906344503281 -0.00049477305324044027 -2499.8899837248164 -0.00031337819382315502 -0.0026947906344503281 -0.00031337819382315502 -9999.9127617856975 0.095479823936329922 -0.016850373421349058 -0.0032465061494804104 -0.016850373421349058 -2499.8858434960757 -0.023269223067472922 -0.0032465061494804104 -0.023269223067472922 -9999.910315483412 0.10396345818844566 -0.02392021238881039 -0.0067129317030776292 -0.02392021238881039 -2499.8716110678943 -0.011478698159407941 -0.0067129317030776292 -0.011478698159407941 -9999.8930452611676 0.093823119343142025 0.0013816425136045918 -0.00093531389211420901 0.0013816425136045918 -2499.9119958069314 -0.0031567479891236871 -0.00093531389211420901 -0.0031567479891236871 -9999.9185529465467 0.11608358016701459 -0.00093843962180644586 -0.0037749859402538277 -0.00093843962180644586 -2499.8689333832231 -0.010076033019345232 -0.0037749859402538277 -0.010076033019345232 -9999.8889211485221 0.10368396204012242 -0.0014096587940898124 -0.00088849637722887564 -0.0014096587940898124 -2499.8677352126151 -0.0018363991468959284 -0.00088849637722887564 -0.0018363991468959284 -9999.8960164054843 0.1022724020313035 -0.0065971990015045966 -0.0040381159906246467 -0.0065971990015045966 -2499.896586558325 0.010625957397678576 -0.0040381159906246467 0.010625957397678576 -9999.9008758156779 0.10844973716740469 -0.00014387953084403493 -0.0055035843834048137 -0.00014387953084403493 -2499.8663529910382 -0.0011457946711743716 -0.0055035843834048137 -0.0011457946711743716 -9999.8864621078683 0.11451446512182883 0.012089501012492163 -0.0067931090106867487 0.012089501012492163 -2499.8694587227583 -0.0081663439693784312 -0.0067931090106867487 -0.0081663439693784312 -9999.8887349995493 0.091509079324168852 -0.010060558263196219 -0.0062671820587638649 -0.010060558263196219 -2499.8852675691232 -0.001779681486368645 -0.0062671820587638649 -0.001779681486368645 -9999.8954652026878 0.093173510698761675 -0.019650256068625409 -0.0036071490885660751 -0.019650256068625409 -2499.8916808514932 -0.021544423688283132 -0.0036071490885660751 -0.021544423688283132 -9999.9075949380567 0.099773661884682951 -0.0064354103206359856 -0.0074365630971442442 -0.0064354103206359856 -2499.9022966990742 0.0067158839428884676 -0.0074365630971442442 0.0067158839428884676 -9999.9170857053505 0.11634715165018861 0.0012086436628479837 0.0018297770038770977 0.0012086436628479837 -2499.8721009875699 0.0028030288076479337 0.0018297770038770977 0.0028030288076479337 -9999.8892821682384 0.11075707416966907 0.00049332443684972638 -0.0067981888405483915 0.00049332443684972638 -2499.8744944931132 -0.0072412411882396555 -0.0067981888405483915 -0.0072412411882396555 -9999.8994770697464 0.10080903835478239 -0.0067892035283536462 -0.0039711838114726561 -0.0067892035283536462 -2499.8979510396894 0.001355550568405306 -0.0039711838114726561 0.001355550568405306 -9999.9135987640475 0.10188976845529396 -0.011680593644836798 0.0044994755189691205 -0.011680593644836798 -2499.9205895308405 0.00060614322137553245 0.0044994755189691205 0.00060614322137553245 -9999.9025161171594 0.10997479450634273 -0.0058150855670231621 -0.0011928422936762217 -0.0058150855670231621 -2499.8607600175565 0.01114158566633705 -0.0011928422936762217 0.01114158566633705 -9999.9116577182795 0.11910091928075417 0.0028451271867928341 -0.0028969226550543681 0.0028451271867928341 -2499.8433917816583 0.0065557121870369883 -0.0028969226550543681 0.0065557121870369883 -9999.9036271575096 0.11141316355497111 0.0020078257183339123 -0.0054342616610938421 0.0020078257183339123 -2499.8755531125207 -0.0018225645289930981 -0.0054342616610938421 -0.0018225645289930981 -9999.904553105087 0.11207916477360413 0.00079217033323835534 -0.0056336544876103289 0.00079217033323835534 -2499.8722648384883 0.0021352425246732309 -0.0056336544876103289 0.0021352425246732309 -9999.9063322862858 0.13618818551185541 0.013031755180814605 -0.0074271045450586826 0.013031755180814605 -2499.8554011687411 0.00021225140517344698 -0.0074271045450586826 0.00021225140517344698 -9999.9014319266789 0.11311775489957654 0.016019808516565828 -0.008584263596276287 0.016019808516565828 -2499.8958184182229 -0.013850159255525796 -0.008584263596276287 -0.013850159255525796 -9999.8915684756794 0.11650022273533978 0.016832603505495983 -0.0013277271591505269 0.016832603505495983 -2499.8978787058841 -0.0062585561263404088 -0.0013277271591505269 -0.0062585561263404088 -9999.8936882624621 0.12888877416480682 0.018813639234475502 -0.00588009386046906 0.018813639234475502 -2499.8419163883445 0.0082502048098831438 -0.00588009386046906 0.0082502048098831438 -9999.8929987834563 0.14096612303092115 0.0063590106501626165 -0.011255168854404474 0.0063590106501626165 -2499.8637133295188 0.012657380838390964 -0.011255168854404474 0.012657380838390964 -9999.892853393947 0.14045124732365366 0.0040067764592672944 -0.0072021169726212975 0.0040067764592672944 -2499.875472952499 0.0047307521854236256 -0.0072021169726212975 0.0047307521854236256 -9999.8808616097522 0.13327834584924858 0.0033894240680922933 -0.008757384732234641 0.0033894240680922933 -2499.9031084211201 0.0044503045010060305 -0.008757384732234641 0.0044503045010060305 -9999.8859404082687 0.12709815945345326 2.1957631788326049e-05 -0.003882981305650901 2.1957631788326049e-05 -2499.8832773101785 -0.0027048005626966187 -0.003882981305650901 -0.0027048005626966187 -9999.8817368140371 0.12583399240202198 -0.0015040738904970458 -0.0033971473294513999 -0.0015040738904970458 -2499.8822409874233 -0.0029688089762203163 -0.0033971473294513999 -0.0029688089762203163 -9999.881717602495 0.14569707553346234 -0.0011138630760867546 0.0025323517984361388 -0.0011138630760867546 -2499.87372018922 0.0045698664143856149 0.0025323517984361388 0.0045698664143856149 -9999.8749713911384 0.12134422738199646 -0.0025427628150236775 0.00055810825324442703 -0.0025427628150236775 -2499.9081915346324 0.0051242831323179416 0.00055810825324442703 0.0051242831323179416 -9999.8865667783029 0.1267954440545509 0.0011597350487371552 -0.0039263714825210627 0.0011597350487371552 -2499.8837199066611 0.0030461672176897991 -0.0039263714825210627 0.0030461672176897991 -9999.8825113853527 0.13611670316367963 0.0071431117623777102 -0.00095051192874961998 0.0071431117623777102 -2499.8808320403687 0.0044823680473200511 -0.00095051192874961998 0.0044823680473200511 -9999.8780708572849 0.1494950255000731 -0.0022358787576899908 -0.00088661341578699648 -0.0022358787576899908 -2499.8539456649469 0.0015051268019306008 -0.00088661341578699648 0.0015051268019306008 -9999.8737379243685 0.13270263990125386 -0.013465935565463029 0.0020968224707758054 -0.013465935565463029 -2499.8828825925484 0.010560833696217742 0.0020968224707758054 0.010560833696217742 -9999.8861816101416 0.14070418604751467 -0.0012454697391009878 -0.0040309249197889585 -0.0012454697391009878 -2499.8580754256036 0.012835896704928018 -0.0040309249197889585 0.012835896704928018 -9999.8980708696326 0.12829591871741286 -0.016590015439582093 -0.0028534361517813522 -0.016590015439582093 -2499.8707189842844 0.0072259275984833948 -0.0028534361517813522 0.0072259275984833948 -9999.8901666789025 0.12156716570780191 -0.0051409043969808041 -0.0014568429833161645 -0.0051409043969808041 -2499.9017719397038 -0.014496944177153637 -0.0014568429833161645 -0.014496944177153637 -9999.8895936863373 0.12026125291231438 -0.0006563786996755458 -0.0037848413776373491 -0.0006563786996755458 -2499.8821774815842 -0.0032947686613624683 -0.0037848413776373491 -0.0032947686613624683 -9999.883011594502 0.12077076870991732 -0.0070394582429819733 -0.0016170817907550372 -0.0070394582429819733 -2499.8933898389805 -0.014699844134156592 -0.0016170817907550372 -0.014699844134156592 -9999.8877078999576 0.12353896087915928 -0.0067558124724603486 -0.0046235985646490008 -0.0067558124724603486 -2499.8698188940925 -0.011859312538945233 -0.0046235985646490008 -0.011859312538945233 -9999.8822656194679 0.12346561999584083 0.0070037945005189534 0.002224375079094898 0.0070037945005189534 -2499.8818281277163 0.003601593962230254 0.002224375079094898 0.003601593962230254 -9999.8891467291724 0.12738967707537086 -0.011855068070091415 -0.0041023217472684337 -0.011855068070091415 -2499.8565089704362 -0.0037563816204055911 -0.0041023217472684337 -0.0037563816204055911 -9999.8801590307812 0.12046971485688118 0.023165020122105008 -0.0059466100647114217 0.023165020122105008 -2499.8570281413849 0.0095904127902031178 -0.0059466100647114217 0.0095904127902031178 -9999.8907488510595 0.10246376525356027 -0.0019849170979059846 -0.0045152574784879107 -0.0019849170979059846 -2499.8912322877209 -0.0042740941153169842 -0.0045152574784879107 -0.0042740941153169842 -9999.8982505308795 0.11893051401239063 -0.00057259403027391104 0.0010088110957440222 -0.00057259403027391104 -2499.8851322864039 -0.0033424457797082141 0.0010088110957440222 -0.0033424457797082141 -9999.8911588054434 0.10989374997006962 0.011760986261745002 -0.0052603208787331823 0.011760986261745002 -2499.8905333307193 -0.008401073670029291 -0.0052603208787331823 -0.008401073670029291 -9999.8961086270428 0.11401904996819212 0.013122371217196283 -0.0064927685580187244 0.013122371217196283 -2499.8716462977391 -0.0076577677009481704 -0.0064927685580187244 -0.0076577677009481704 -9999.8866080434746 0.11266576851926402 -0.0028257638159330002 -4.7449817429878749e-05 -0.0028257638159330002 -2499.8814932829091 -0.0072998856185222394 -4.7449817429878749e-05 -0.0072998856185222394 -9999.8883255770379 0.12202369647638989 -0.010212283927565222 -0.003229660516808508 -0.010212283927565222 -2499.8562929474019 -0.0053978651612851536 -0.003229660516808508 -0.0053978651612851536 -9999.874953603412 0.12472970870658173 -0.012252280773104599 -0.0021629569973811158 -0.012252280773104599 -2499.8548120789419 -0.00554577358525421 -0.0021629569973811158 -0.00554577358525421 -9999.8790109261536 0.11282721991187827 -0.00092828741706851847 -0.0018107806545231142 -0.00092828741706851847 -2499.8817148319749 -0.0065164642383024329 -0.0018107806545231142 -0.0065164642383024329 -9999.8906965863043 0.11395353724401502 -0.0020237126679235537 -0.0014090085896896198 -0.0020237126679235537 -2499.8742917024574 -0.0039936705934451311 -0.0014090085896896198 -0.0039936705934451311 -9999.8878006400482 0.11417799278933671 -0.00062334472537144917 -0.001305089239622248 -0.00062334472537144917 -2499.8810149005394 0.00012998927468288457 -0.001305089239622248 0.00012998927468288457 -9999.893555413757 0.11390500913694268 -0.0048216966704253249 0.0041647090956757893 -0.0048216966704253249 -2499.8767808465564 -0.003196525252860738 0.0041647090956757893 -0.003196525252860738 -9999.8854656940821 0.12961200739118794 -0.00064206553256357379 -0.0038208493861020543 -0.00064206553256357379 -2499.8750490295042 -0.001595316320162965 -0.0038208493861020543 -0.001595316320162965 -9999.879899939915 0.11396398833858257 -0.0010769181102997325 0.00034218156474707939 -0.0010769181102997325 -2499.8808486773614 -0.0023593809019075707 0.00034218156474707939 -0.0023593809019075707 -9999.8897624256133 0.11435944449840463 0.0047658634264292508 -0.0017156412859549164 0.0047658634264292508 -2499.8830828706232 -0.0023244716685439926 -0.0017156412859549164 -0.0023244716685439926 -9999.886007317089 0.12460043259852682 0.00026794215903702684 -0.0022153826612338889 0.00026794215903702684 -2499.8765592250547 -0.0015738120882815565 -0.0022153826612338889 -0.0015738120882815565 -9999.886505639246 0.11957882526803587 -0.0040197316055983834 -0.0053301321750041097 -0.0040197316055983834 -2499.8803358527712 -0.0027809406637970824 -0.0053301321750041097 -0.0027809406637970824 -9999.8847131358198 0.11387528844807093 0.0005266049860280903 -0.00031886214583209949 0.0005266049860280903 -2499.8782012329311 -0.00056190679151768563 -0.00031886214583209949 -0.00056190679151768563 -9999.8945704706748 0.11348103574709967 -0.0013239097338082447 0.0006949192452339048 -0.0013239097338082447 -2499.8801100110522 -0.0016863421215020935 0.0006949192452339048 -0.0016863421215020935 -9999.8894975026487 0.12064641061806469 -0.0001190224883726998 -0.00060796594880230259 -0.0001190224883726998 -2499.8601331314112 0.004607909771038976 -0.00060796594880230259 0.004607909771038976 -9999.8751814209827 0.11194223941674863 0.00064079688464832411 -0.0018381228182988707 0.00064079688464832411 -2499.8807688726392 -0.0015133952692849562 -0.0018381228182988707 -0.0015133952692849562 -9999.8846236564204 0.12605220694422314 0.00079627265521672527 -0.0031780529789102729 0.00079627265521672527 -2499.8758705773816 -0.0018854909012588905 -0.0031780529789102729 -0.0018854909012588905 -9999.881388613132 0.12956344973645173 0.00016670737812926327 0.0025418341192562366 0.00016670737812926327 -2499.8789762010292 0.00044518099014112522 0.0025418341192562366 0.00044518099014112522 -9999.8836927311022 0.12038071069400758 9.4147239800699526e-05 0.0032850039713707702 9.4147239800699526e-05 -2499.8802057796565 -0.0029162777227611514 0.0032850039713707702 -0.0029162777227611514 -9999.8828753891648 0.13014451803974225 0.00056061403572107288 0.0024654825774632627 0.00056061403572107288 -2499.8795224938767 0.0010142087921849452 0.0024654825774632627 0.0010142087921849452 -9999.8844228111338 0.12619314568109985 0.00016384796495565074 -0.0034824136582756182 0.00016384796495565074 -2499.8769014758964 -0.00065224344871239737 -0.0034824136582756182 -0.00065224344871239737 -9999.8797994794713 0.12528744162409566 -4.6176112619985643e-05 -0.0035643905248434749 -4.6176112619985643e-05 -2499.8791677878471 -0.0014953999016142916 -0.0035643905248434749 -0.0014953999016142916 -9999.8811563305353 0.13432097350232652 0.0013592172117212562 -0.0047373579409395461 0.0013592172117212562 -2499.8788852570724 0.00040105195330397692 -0.0047373579409395461 0.00040105195330397692 -9999.8866501458942 0.12691504933536635 0.0008800943681987021 -0.0040568331223767018 0.0008800943681987021 -2499.878994629642 -0.0011068820112996036 -0.0040568331223767018 -0.0011068820112996036 -9999.8813100301195 0.12933735622391396 -0.00075961724923953589 -0.0036484422453213483 -0.00075961724923953589 -2499.8752807678302 -0.0014258365572459297 -0.0036484422453213483 -0.0014258365572459297 -9999.8807732810674 0.13452242134371772 0.0013090508108486477 -0.0046830022383801406 0.0013090508108486477 -2499.8771092450479 -0.00038921617669984698 -0.0046830022383801406 -0.00038921617669984698 -9999.885475464609 0.12995724790198437 0.00027864759794009525 0.0023987030635908013 0.00027864759794009525 -2499.8777576124539 -6.5858406401275715e-05 0.0023987030635908013 -6.5858406401275715e-05 -9999.8828981202823 0.1381706148495141 0.0033097776120359253 -0.0043191120021219831 0.0033097776120359253 -2499.8678374223637 0.0030736458356841467 -0.0043191120021219831 0.0030736458356841467 -9999.8818698373798 0.13674722289397323 -0.0052291558507678859 -0.00061749233100272249 -0.0052291558507678859 -2499.8773355147714 0.0031157655248534866 -0.00061749233100272249 0.0031157655248534866 -9999.8800384440692 0.14643682870519115 0.00058742714499000412 -0.0026307585358154029 0.00058742714499000412 -2499.8743148800422 0.00043662092730301083 -0.0026307585358154029 0.00043662092730301083 -9999.8819651522208 0.14819923777031363 0.00065598783404077765 -0.0042869658245763276 0.00065598783404077765 -2499.8727833821376 0.0031450083588424604 -0.0042869658245763276 0.0031450083588424604 -9999.8764473167103 0.14641664110422425 0.00063314255326745437 -0.0026872987073147669 0.00063314255326745437 -2499.8733046161888 8.6721494881203398e-05 -0.0026872987073147669 8.6721494881203398e-05 -9999.8815101806067 0.14582951819102163 0.00036244547374576818 -0.0024269360656035133 0.00036244547374576818 -2499.8736185528905 0.00029132651980035007 -0.0024269360656035133 0.00029132651980035007 -9999.8820073130191 0.1458115291188733 0.00044101782426466188 -0.0025237667850888101 0.00044101782426466188 -2499.873913690948 0.0003624909368227236 -0.0025237667850888101 0.0003624909368227236 -9999.8817865299243 0.14740006256579363 -0.00032405444027339136 -0.0017620210583118023 -0.00032405444027339136 -2499.873814953924 -0.00020003003373858519 -0.0017620210583118023 -0.00020003003373858519 -9999.8806572836038 0.1257798230581102 0.0017126964578117968 0.0033866993599076523 0.0017126964578117968 -2499.8824774765753 -0.00033832451094895077 0.0033866993599076523 -0.00033832451094895077 -9999.884833941429 0.12749816695077243 0.00014553382851358024 0.0033281791706940567 0.00014553382851358024 -2499.8769124489822 0.00063574570958735421 0.0033281791706940567 0.00063574570958735421 -9999.8828908494797 0.12587618446741544 0.00017230700249838251 -0.0034728115006146254 0.00017230700249838251 -2499.8780760084719 -0.00099036049368805834 -0.0034728115006146254 -0.00099036049368805834 -9999.8798929248151 0.12962582669206313 -0.00068211427757506249 0.0023915160491014831 -0.00068211427757506249 -2499.8783026996753 0.00012652272334889858 0.0023915160491014831 0.00012652272334889858 -9999.8831075055714 0.14910877641796105 0.00053595458400096385 -0.0024122356207953999 0.00053595458400096385 -2499.87328969596 -0.00062621145480079576 -0.0024122356207953999 -0.00062621145480079576 -9999.8796134759214 0.13418630013256916 -0.0030580667969654293 -0.0061862461134296609 -0.0030580667969654293 -2499.8785217354598 -0.00065432658811914735 -0.0061862461134296609 -0.00065432658811914735 -9999.8866902245718 0.12869218357627688 -0.00018766741736784637 0.0026626425787981134 -0.00018766741736784637 -2499.879179205238 -0.00020995489796860056 0.0026626425787981134 -0.00020995489796860056 -9999.8834009646198 0.13527078884908406 -0.004983250560876647 -0.004170734500803519 -0.004983250560876647 -2499.8715506304434 -0.0015688769271946512 -0.004170734500803519 -0.0015688769271946512 -9999.8900699206533 0.13783421882726543 -0.00085495979743714992 -0.0055441017029806972 -0.00085495979743714992 -2499.8695118603773 0.0006721382177374835 -0.0055441017029806972 0.0006721382177374835 -9999.8832006441153 0.094111526264896384 -0.0029374467284945249 -0.0010060372424050001 -0.0029374467284945249 -2499.886753152774 0.00064938902687572408 -0.0010060372424050001 0.00064938902687572408 -9999.9097573214385 0.10833275923050678 -0.0041646223552685921 -0.00061902216657472309 -0.0041646223552685921 -2499.8846795964855 -0.0022893010336701991 -0.00061902216657472309 -0.0022893010336701991 -9999.8997247779225 0.11619692857675545 -0.0019740137653138645 -0.0093001382774673402 -0.0019740137653138645 -2499.8782373821869 -0.0013134706052824185 -0.0093001382774673402 -0.0013134706052824185 -9999.8960959487777 0.10420352450091741 0.0018535247899478524 -0.0049820935728348559 0.0018535247899478524 -2499.8809750776418 -0.0039144010643212823 -0.0049820935728348559 -0.0039144010643212823 -9999.9027194160153 0.10847947287629722 -0.0053682664660392766 -0.0060046502348996 -0.0053682664660392766 -2499.8825361233589 0.0023365232009382453 -0.0060046502348996 0.0023365232009382453 -9999.9017436442591 0.12968000677392411 -0.0015154721189370125 -0.0035328780795680359 -0.0015154721189370125 -2499.8804387329897 -0.0027172441859875107 -0.0035328780795680359 -0.0027172441859875107 -9999.892614942517 0.11260326916453778 -0.001076417651236946 -0.0051684851041500224 -0.001076417651236946 -2499.8813927292285 -0.00090633877698564902 -0.0051684851041500224 -0.00090633877698564902 -9999.910783566942 0.10255137892704624 -0.0028019445203776652 -0.0046481932513415813 -0.0028019445203776652 -2499.8894122689626 -0.00063882353606459219 -0.0046481932513415813 -0.00063882353606459219 -9999.9134345170969 0.10191342014240945 -0.0020152422093808083 -0.00070313534797605826 -0.0020152422093808083 -2499.8883818870736 -0.0030403731752812746 -0.00070313534797605826 -0.0030403731752812746 -9999.8955305963245 0.098875192174091353 -0.0025795687381054769 -0.0053904279993730597 -0.0025795687381054769 -2499.887442416948 -0.0015592531126458198 -0.0053904279993730597 -0.0015592531126458198 -9999.9154278361748 0.10051226056020823 -0.0024063397010169597 0.00024651968806210789 -0.0024063397010169597 -2499.8845064656789 -5.4052519772085361e-05 0.00024651968806210789 -5.4052519772085361e-05 -9999.8914584164631 0.097954021836244465 -0.0015141290733724604 -0.0051657556359714363 -0.0015141290733724604 -2499.8908322218881 -0.00034663649330468616 -0.0051657556359714363 -0.00034663649330468616 -9999.9150367711336 0.09984552682544745 -0.0035938190989830768 -0.00073852056470968819 -0.0035938190989830768 -2499.8853596844729 -0.0011322844820824685 -0.00073852056470968819 -0.0011322844820824685 -9999.8943177727233 0.11368984156615625 -0.0001756442394921366 0.00068672448469442315 -0.0001756442394921366 -2499.8789313397629 -0.00055077435354178306 0.00068672448469442315 -0.00055077435354178306 -9999.8889779635028 0.11175264930676576 6.6942916599036645e-05 -0.0012261176689207787 6.6942916599036645e-05 -2499.8850440455994 -0.0044919005067640683 -0.0012261176689207787 -0.0044919005067640683 -9999.8869488603123 0.11353768156914157 0.0034589977270119907 0.0034096464864887821 0.0034589977270119907 -2499.8797029170091 -0.0026399160587970982 0.0034096464864887821 -0.0026399160587970982 -9999.893999827771 0.11918963825155515 0.0013151192872498212 -0.0015812725177966058 0.0013151192872498212 -2499.8763349079563 -0.0015075602395882015 -0.0015812725177966058 -0.0015075602395882015 -9999.8849040313617 0.11345799170976534 0.00045122018891943956 -3.0094420935711241e-05 0.00045122018891943956 -2499.8865631230074 -0.0047635778819312691 -3.0094420935711241e-05 -0.0047635778819312691 -9999.8948321661483 0.12503417027983232 0.00014127435137535095 -0.0020888496437692083 0.00014127435137535095 -2499.8750436125392 -0.0020094427800358972 -0.0020888496437692083 -0.0020094427800358972 -9999.8862874062252 0.11776121876755496 0.0025299312208373059 -0.0008484084698920924 0.0025299312208373059 -2499.8754323149406 -0.0067037492817689781 -0.0008484084698920924 -0.0067037492817689781 -9999.8911806701399 0.11978879594849445 0.00200311612300825 -0.0036164466569630349 0.00200311612300825 -2499.879132738758 0.00029715280834352598 -0.0036164466569630349 0.00029715280834352598 -9999.8848434986885 0.12531508814936387 -7.8680961271990202e-05 -0.0036271282060624799 -7.8680961271990202e-05 -2499.8621885871544 0.0010811535203174572 -0.0036271282060624799 0.0010811535203174572 -9999.8792045796945 0.1112400247293408 -0.00037429096828032506 -0.0021388262948676129 -0.00037429096828032506 -2499.8817778409666 -0.0035689990072569344 -0.0021388262948676129 -0.0035689990072569344 -9999.8864292843791 0.12576769077895733 -0.00061053827287512613 -0.0027091570991615299 -0.00061053827287512613 -2499.8758420165832 -0.00082001620194205316 -0.0027091570991615299 -0.00082001620194205316 -9999.8825594832088 0.12287980166911439 0.0049216707873158162 -0.0028289983983995626 0.0049216707873158162 -2499.8544321795398 -0.0089035364553637919 -0.0028289983983995626 -0.0089035364553637919 -9999.875888851464 0.11526894031271695 0.0039425920124867009 -0.00034517554649937665 0.0039425920124867009 -2499.8865296476388 0.01686612236971996 -0.00034517554649937665 0.01686612236971996 -9999.8944841011471 0.11573315894747793 0.0032288973917991943 -0.00071009841559543929 0.0032288973917991943 -2499.8848856010954 -0.0057241331259945127 -0.00071009841559543929 -0.0057241331259945127 -9999.8941553070981 0.11372616873884311 0.0051533652617550482 -0.003808476782978687 0.0051533652617550482 -2499.8758297237009 -0.0011354291737006861 -0.003808476782978687 -0.0011354291737006861 -9999.8950461161694 0.1151652530057774 0.0059545118041241622 -0.0038087871525931405 0.0059545118041241622 -2499.8683589025954 -0.0010989321617671521 -0.0038087871525931405 -0.0010989321617671521 -9999.8928183698372 0.13046216226939578 0.01381485521022642 -0.0040240038670162903 0.01381485521022642 -2499.8464396256222 0.009849171818132163 -0.0040240038670162903 0.009849171818132163 -9999.8703027645242 0.13185618554234679 0.018931936842237426 -0.001679847419836733 0.018931936842237426 -2499.8317090720648 0.0013906699932704214 -0.001679847419836733 0.0013906699932704214 -9999.8794571521285 0.13031448080960217 0.021909002974101893 -0.0027689689995895606 0.021909002974101893 -2499.8410740975778 -0.0043734737755585229 -0.0027689689995895606 -0.0043734737755585229 -9999.877016924067 0.10392825824055762 0.012434502646900075 -0.0084309939920785837 0.012434502646900075 -2499.8925993236135 -0.00380797307479952 -0.0084309939920785837 -0.00380797307479952 -9999.8945736082715 0.11168489693579886 0.0060803494015861555 -0.0042194398629362695 0.0060803494015861555 -2499.8865059336076 -0.004216899167658994 -0.0042194398629362695 -0.004216899167658994 -9999.8925234105445 0.10924652279027214 -0.0047172459113260373 -0.0050019299596897326 -0.0047172459113260373 -2499.8781595945457 0.0097980901482515037 -0.0050019299596897326 0.0097980901482515037 -9999.8960551156997 0.093591560353161185 -0.0024329895524184443 -0.00050096739778382471 -0.0024329895524184443 -2499.9108034040946 0.003286140954514849 -0.00050096739778382471 0.003286140954514849 -9999.9067816965726 0.096351549481369148 -0.014913119200268264 -0.004086175560587435 -0.014913119200268264 -2499.8861255661113 -0.015564980320959876 -0.004086175560587435 -0.015564980320959876 -9999.9045855745171 0.10814114063396119 -0.0047252275918307704 -0.0076317659841151908 -0.0047252275918307704 -2499.8796464362458 0.009140107559687749 -0.0076317659841151908 0.009140107559687749 -9999.9007841005841 0.11095481256506901 0.01167354636494156 -0.0060815381457359763 0.01167354636494156 -2499.8938500378563 -0.005869674853329343 -0.0060815381457359763 -0.005869674853329343 -9999.8932711915586 0.095085162563918857 -0.00081337639521351327 -0.0046258893510753296 -0.00081337639521351327 -2499.8770201251482 0.00057524520980223315 -0.0046258893510753296 0.00057524520980223315 -9999.9133341202578 0.11056077445937262 -0.0064813648013257036 -0.0097604570873954799 -0.0064813648013257036 -2499.8738813816726 -0.021596682463496109 -0.0097604570873954799 -0.021596682463496109 -9999.8920834353703 0.10485834500286728 0.00096764492300081134 -0.0044820163511758437 0.00096764492300081134 -2499.8779177870292 0.00026917260720438207 -0.0044820163511758437 0.00026917260720438207 -9999.9111527605091 0.09220159865617461 -0.0015912911319344797 -0.0062681678712408484 -0.0015912911319344797 -2499.8880087612288 -0.0057460714288026793 -0.0062681678712408484 -0.0057460714288026793 -9999.9142592346143 0.092203126745516784 -0.016138438823941045 -0.0020130563498241827 -0.016138438823941045 -2499.8818821274317 -0.01432088880756055 -0.0020130563498241827 -0.01432088880756055 -9999.9058424859904 0.091771163007251744 -0.0021717972313708006 -0.0023025210066407453 -0.0021717972313708006 -2499.8892357907744 0.0092260160981822992 -0.0023025210066407453 0.0092260160981822992 -9999.9138221957401 0.13187958493836049 -0.0034076142403500309 -0.0033669007959815644 -0.0034076142403500309 -2499.8825731400138 5.1000220992136747e-05 -0.0033669007959815644 5.1000220992136747e-05 -9999.8904549816689 0.10153197677379922 0.00028244494809932796 -0.0034033614629151998 0.00028244494809932796 -2499.8931511524916 -1.9414197367950692e-05 -0.0034033614629151998 -1.9414197367950692e-05 -9999.9006636467493 0.10805271007666306 -0.0030437581799348384 -0.0025377101131027757 -0.0030437581799348384 -2499.8872357502532 -0.0011641731216514017 -0.0025377101131027757 -0.0011641731216514017 -9999.8983415285329 0.10798917156171228 -0.0040950245223732862 -0.0084275579738459783 -0.0040950245223732862 -2499.88200640389 0.010483355601536459 -0.0084275579738459783 0.010483355601536459 -9999.9029468599911 0.11657545511116041 -0.0014477771702431225 -0.0043486059585120529 -0.0014477771702431225 -2499.8562646783666 -0.0084896724329155404 -0.0043486059585120529 -0.0084896724329155404 -9999.9115029226123 0.1132545160016889 -0.0055278391105028912 -8.5658786701969802e-05 -0.0055278391105028912 -2499.8594133215829 -0.0081075712114397902 -8.5658786701969802e-05 -0.0081075712114397902 -9999.9057386285422 0.10887657680541452 -0.0011829894797291372 -0.0067363904920512141 -0.0011829894797291372 -2499.8896374082669 -0.00083151415128668305 -0.0067363904920512141 -0.00083151415128668305 -9999.9114204479556 0.1124318475885957 -0.0031972936704935048 -0.0074049896902579349 -0.0031972936704935048 -2499.8763571756754 0.00057866899442160502 -0.0074049896902579349 0.00057866899442160502 -9999.9070758394446 0.13322714342393738 -0.013274285912024834 -0.0083430598351696972 -0.013274285912024834 -2499.8644923321863 -0.0032931640562310349 -0.0083430598351696972 -0.0032931640562310349 -9999.8964124289996 0.12116152035582672 0.0027645553080677693 -0.0030839209412079072 0.0027645553080677693 -2499.8775704699128 0.0076577305153477937 -0.0030839209412079072 0.0076577305153477937 -9999.880438445527 0.13356660285171529 -0.0068787959380076369 -0.0039024021534714848 -0.0068787959380076369 -2499.881448424132 -0.0030015691227163188 -0.0039024021534714848 -0.0030015691227163188 -9999.8930241658527 0.11667697319717263 -0.015937893643019514 -0.0017989863808907103 -0.015937893643019514 -2499.8926413028857 -0.0045219810381240677 -0.0017989863808907103 -0.0045219810381240677 -9999.8942949327029 0.11783903464493051 -0.015283292822250612 -0.0020327021512684951 -0.015283292822250612 -2499.8927487985438 -0.0059280148252582876 -0.0020327021512684951 -0.0059280148252582876 -9999.8887259501207 0.13181483244807168 -0.0039126057292679164 -0.0036595817437046207 -0.0039126057292679164 -2499.8793936983511 -0.00010084105088026263 -0.0036595817437046207 -0.00010084105088026263 -9999.8941410825937 0.12216119708864426 -0.013705691877146792 -0.0067558332666521892 -0.013705691877146792 -2499.8663859283861 0.015225657185510499 -0.0067558332666521892 0.015225657185510499 -9999.8917357068913 0.12884767040486622 0.00044702594064521817 0.0045750195668006199 0.00044702594064521817 -2499.8827878559296 -0.0012698635969172756 0.0045750195668006199 -0.0012698635969172756 -9999.8833967678729 0.1199813938042098 0.0045164900381161636 0.0033132457160718332 0.0045164900381161636 -2499.9103730592647 -0.0002156356122213765 0.0033132457160718332 -0.0002156356122213765 -9999.8887147139849 0.11526234278812808 0.0051483726980519045 -0.0046483527603413677 0.0051483726980519045 -2499.9027359028405 0.0097103651551151415 -0.0046483527603413677 0.0097103651551151415 -9999.8874969691678 0.14753649113299616 0.0012231698665745652 -0.0020080717386008473 0.0012231698665745652 -2499.8771625326644 -0.0020129290605837014 -0.0020080717386008473 -0.0020129290605837014 -9999.8820179603063 0.14896012507597334 0.00062591032547911971 -0.0011584356489038328 0.00062591032547911971 -2499.877614434572 -0.0027584862109506503 -0.0011584356489038328 -0.0027584862109506503 -9999.8809487575927 0.13737889459480357 0.021794831403133371 -0.0040967396498672315 0.021794831403133371 -2499.8307929962448 0.01606406744576816 -0.0040967396498672315 0.01606406744576816 -9999.8775666344445 0.13759667140948295 0.02432570948208479 -0.0090418676345507265 0.02432570948208479 -2499.8492507153478 0.0068335752021084772 -0.0090418676345507265 0.0068335752021084772 -9999.8696543789265 0.15563780007869354 0.0041401140473449685 6.2240105762612075e-05 0.0041401140473449685 -2499.8570096781405 -0.0012351093937468249 6.2240105762612075e-05 -0.0012351093937468249 -9999.8779588474572 0.13359140390821267 0.026487027181411712 -0.0067850520526917535 0.026487027181411712 -2499.8489339699463 0.0031864113661868032 -0.0067850520526917535 0.0031864113661868032 -9999.8859937505767 0.14322233480925206 0.0085503047837430443 -0.0003877812487189658 0.0085503047837430443 -2499.8631934692385 -0.011193705115147168 -0.0003877812487189658 -0.011193705115147168 -9999.8838067783508 0.13686652126307308 0.016605683500578304 0.0019583597349992488 0.016605683500578304 -2499.8830737369426 -0.0067776190244330792 0.0019583597349992488 -0.0067776190244330792 -9999.8828840066344 
</DataArray>
</CellData>
</Piece>
</UnstructuredGrid>
</VTKFile>
