<?xml version="1.0"?>
<VTKFile type="UnstructuredGrid" version="0.1" byte_order="LittleEndian">
<UnstructuredGrid>
<Piece NumberOfPoints="2876" NumberOfCells="719">
<Points>
<DataArray type="Float64" NumberOfComponents="3" format="ascii">
0.14641016151452901 0.14641016151487049 0 0.31610726166346748 0.18804489794572149 0 0.312576188949791 0.31458070521983672 0.3125761889497819 0.16929708765618309 0.30074819035915368 0 0 0 0 0 0.14641016151432179 0.14641016151432179 0 0.20000000000083221 0 0.14641016151452901 0.14641016151487049 0 0 0 0 0.14641016151452901 0.14641016151487049 0 0.1464101615145241 0 0.14641016151486561 0.19999999999955789 0 0 0 0 0 0 0 0.20000000000083221 0 0.14641016151432179 0.14641016151432179 0.1464101615145241 0 0.14641016151486561 0 0.14641016151432179 0.14641016151432179 0 0.18804489794560331 0.31610726166461361 0.312576188949791 0.31458070521983672 0.3125761889497819 0 0.30074819035869899 0.1692970876565193 0.1464101615145241 0 0.14641016151486561 0.31578456131778371 0 0.1865278143482666 0.16938214347656569 0 0.30011357660650623 0.312576188949791 0.31458070521983672 0.3125761889497819 0 0 0 0 0.14641016151432179 0.14641016151432179 0.14641016151452901 0.14641016151487049 0 0.1464101615145241 0 0.14641016151486561 0.14641016151452901 0.14641016151487049 0 0.1464101615145241 0 0.14641016151486561 0.31578456131778371 0 0.1865278143482666 0.312576188949791 0.31458070521983672 0.3125761889497819 0 0.14641016151432179 0.14641016151432179 0.14641016151452901 0.14641016151487049 0 0.312576188949791 0.31458070521983672 0.3125761889497819 0 0.30074819035869899 0.1692970876565193 0 0.14641016151432179 0.14641016151432179 0.14641016151452901 0.14641016151487049 0 0.1464101615145241 0 0.14641016151486561 0.312576188949791 0.31458070521983672 0.3125761889497819 0 0.14641016151432179 0.14641016151432179 0.1464101615145241 0 0.14641016151486561 0.16938214347656569 0 0.30011357660650623 0.312576188949791 0.31458070521983672 0.3125761889497819 0 0 0.20000000000083221 0 0.14641016151432179 0.14641016151432179 0.1464101615145241 0 0.14641016151486561 0.16938214347656569 0 0.30011357660650623 0 0 0.20000000000083221 0 0.14641016151432179 0.14641016151432179 0.16938214347656569 0 0.30011357660650623 0 0.18804489794560331 0.31610726166461361 0 0.14641016151432179 0.14641016151432179 0 0.20000000000083221 0 0.14641016151452901 0.14641016151487049 0 0 0.30074819035869899 0.1692970876565193 0 0.20000000000083221 0 0.14641016151452901 0.14641016151487049 0 0.16929708765618309 0.30074819035915368 0 0 0.30074819035869899 0.1692970876565193 0.14641016151452901 0.14641016151487049 0 0.19999999999955789 0 0 0.31610726166346748 0.18804489794572149 0 0.31578456131778371 0 0.1865278143482666 0.14641016151452901 0.14641016151487049 0 0.1464101615145241 0 0.14641016151486561 0.19999999999955789 0 0 0.31578456131778371 0 0.1865278143482666 0.19999999999955789 0 0 0.31610726166346748 0.18804489794572149 0 0.3999999999989749 0 0 0.31578456131778371 0 0.1865278143482666 0.14641016151452901 0.14641016151487049 0 0.31610726166346748 0.18804489794572149 0 0.31578456131778371 0 0.1865278143482666 0.312576188949791 0.31458070521983672 0.3125761889497819 0.31610726166346748 0.18804489794572149 0 0.31578456131778371 0 0.1865278143482666 0.312576188949791 0.31458070521983672 0.3125761889497819 0.5003997205654479 0.21136633249797621 0.2258422409314382 0.31610726166346748 0.18804489794572149 0 0.49391845158624981 0 0.1323760430705655 0.5003997205654479 0.21136633249797621 0.2258422409314382 0.50966790549376417 0.16275515618023731 0 0.31610726166346748 0.18804489794572149 0 0.45812322962036273 0.31024977578535839 0 0.5003997205654479 0.21136633249797621 0.2258422409314382 0.50966790549376417 0.16275515618023731 0 0.31610726166346748 0.18804489794572149 0 0.3999999999989749 0 0 0.49391845158624981 0 0.1323760430705655 0.50966790549376417 0.16275515618023731 0 0.31610726166346748 0.18804489794572149 0 0.3999999999989749 0 0 0.49391845158624981 0 0.1323760430705655 0.31578456131778371 0 0.1865278143482666 0.49391845158624981 0 0.1323760430705655 0.31578456131778371 0 0.1865278143482666 0.47688326899416439 0 0.31741132792405607 0.5003997205654479 0.21136633249797621 0.2258422409314382 0.31610726166346748 0.18804489794572149 0 0.49391845158624981 0 0.1323760430705655 0.31578456131778371 0 0.1865278143482666 0.5003997205654479 0.21136633249797621 0.2258422409314382 0.32146143392436449 0 0.38738071487621961 0.50073570207385831 0.24848280280289631 0.52886631355986169 0.22088738526309029 0.22111069116742441 0.50004796911802929 0.31030302876556398 0 0.54179813558513157 0.32146143392436449 0 0.38738071487621961 0.16938214347656569 0 0.30011357660650623 0.312576188949791 0.31458070521983672 0.3125761889497819 0.22088738526309029 0.22111069116742441 0.50004796911802929 0.32146143392436449 0 0.38738071487621961 0.312576188949791 0.31458070521983672 0.3125761889497819 0.50073570207385831 0.24848280280289631 0.52886631355986169 0.22088738526309029 0.22111069116742441 0.50004796911802929 0.47688326899416439 0 0.31741132792405607 0.32146143392436449 0 0.38738071487621961 0.5003997205654479 0.21136633249797621 0.2258422409314382 0.50073570207385831 0.24848280280289631 0.52886631355986169 0.32146143392436449 0 0.38738071487621961 0.312576188949791 0.31458070521983672 0.3125761889497819 0.5003997205654479 0.21136633249797621 0.2258422409314382 0.50073570207385831 0.24848280280289631 0.52886631355986169 0.31578456131778371 0 0.1865278143482666 0.32146143392436449 0 0.38738071487621961 0.16938214347656569 0 0.30011357660650623 0.312576188949791 0.31458070521983672 0.3125761889497819 0.31578456131778371 0 0.1865278143482666 0.32146143392436449 0 0.38738071487621961 0.312576188949791 0.31458070521983672 0.3125761889497819 0.5003997205654479 0.21136633249797621 0.2258422409314382 0.31578456131778371 0 0.1865278143482666 0.47688326899416439 0 0.31741132792405607 0.32146143392436449 0 0.38738071487621961 0.5003997205654479 0.21136633249797621 0.2258422409314382 0.32146143392436449 0 0.38738071487621961 0.50000000000250922 0 0.48038475773043671 0.50073570207385831 0.24848280280289631 0.52886631355986169 0.31030302876556398 0 0.54179813558513157 0.47688326899416439 0 0.31741132792405607 0.32146143392436449 0 0.38738071487621961 0.50000000000250922 0 0.48038475773043671 0.50073570207385831 0.24848280280289631 0.52886631355986169 0.32146143392436449 0 0.38738071487621961 0.16370661204827031 0 0.4886650857430957 0.22088738526309029 0.22111069116742441 0.50004796911802929 0.31030302876556398 0 0.54179813558513157 0.32146143392436449 0 0.38738071487621961 0.16370661204827031 0 0.4886650857430957 0.16938214347656569 0 0.30011357660650623 0.22088738526309029 0.22111069116742441 0.50004796911802929 0 0.14641016151432179 0.14641016151432179 0.16938214347656569 0 0.30011357660650623 0 0.18804489794560331 0.31610726166461361 0.312576188949791 0.31458070521983672 0.3125761889497819 0.16370661204827031 0 0.4886650857430957 0.16938214347656569 0 0.30011357660650623 0 0.18804489794560331 0.31610726166461361 0.22088738526309029 0.22111069116742441 0.50004796911802929 0.16938214347656569 0 0.30011357660650623 0 0.18804489794560331 0.31610726166461361 0.312576188949791 0.31458070521983672 0.3125761889497819 0.22088738526309029 0.22111069116742441 0.50004796911802929 0.16370661204827031 0 0.4886650857430957 0 0 0.40000000000166441 0 0.16275515618034081 0.50966790549591257 0 0 0.60000000000138687 0.16370661204827031 0 0.4886650857430957 0 0 0.40000000000166441 0.16938214347656569 0 0.30011357660650623 0 0.18804489794560331 0.31610726166461361 0.16370661204827031 0 0.4886650857430957 0 0 0.40000000000166441 0 0.18804489794560331 0.31610726166461361 0 0.16275515618034081 0.50966790549591257 0 0 0.20000000000083221 0 0 0.40000000000166441 0.16938214347656569 0 0.30011357660650623 0 0.18804489794560331 0.31610726166461361 0.16370661204827031 0 0.4886650857430957 0 0.18804489794560331 0.31610726166461361 0.22088738526309029 0.22111069116742441 0.50004796911802929 0 0.16275515618034081 0.50966790549591257 0 0.18804489794560331 0.31610726166461361 0 0.31024977578556651 0.45812322962166352 0.22088738526309029 0.22111069116742441 0.50004796911802929 0 0.16275515618034081 0.50966790549591257 0 0.18804489794560331 0.31610726166461361 0 0.39615100178029522 0.32925244736138171 0.312576188949791 0.31458070521983672 0.3125761889497819 0 0.30074819035869899 0.1692970876565193 0 0.31024977578556651 0.45812322962166352 0.312576188949791 0.31458070521983672 0.3125761889497819 0.24769234054476261 0.52242103280823293 0.45098450226372488 0.22088738526309029 0.22111069116742441 0.50004796911802929 0 0.18804489794560331 0.31610726166461361 0 0.31024977578556651 0.45812322962166352 0 0.39615100178029522 0.32925244736138171 0.312576188949791 0.31458070521983672 0.3125761889497819 0 0.39615100178029522 0.32925244736138171 0.312576188949791 0.31458070521983672 0.3125761889497819 0.22345881830598399 0.5062398304147856 0.22345881830602041 0.24769234054476261 0.52242103280823293 0.45098450226372488 0 0.31024977578556651 0.45812322962166352 0 0.39615100178029522 0.32925244736138171 0.312576188949791 0.31458070521983672 0.3125761889497819 0.24769234054476261 0.52242103280823293 0.45098450226372488 0 0.39615100178029522 0.32925244736138171 0.312576188949791 0.31458070521983672 0.3125761889497819 0 0.30074819035869899 0.1692970876565193 0.22345881830598399 0.5062398304147856 0.22345881830602041 0 0.18804489794560331 0.31610726166461361 0 0.31024977578556651 0.45812322962166352 0.312576188949791 0.31458070521983672 0.3125761889497819 0.22088738526309029 0.22111069116742441 0.50004796911802929 0 0.31024977578556651 0.45812322962166352 0 0.39615100178029522 0.32925244736138171 0.24769234054476261 0.52242103280823293 0.45098450226372488 0 0.50000000000237477 0.51961524226909872 0.312576188949791 0.31458070521983672 0.3125761889497819 0.5004045312576143 0.47050700646456922 0.24963111222780321 0.50000000000001332 0.49999999999999561 0.49999999999999561 0.50073570207385831 0.24848280280289631 0.52886631355986169 0.312576188949791 0.31458070521983672 0.3125761889497819 0.22345881830598399 0.5062398304147856 0.22345881830602041 0.24769234054476261 0.52242103280823293 0.45098450226372488 0.5004045312576143 0.47050700646456922 0.24963111222780321 0.312576188949791 0.31458070521983672 0.3125761889497819 0.5003997205654479 0.21136633249797621 0.2258422409314382 0.5004045312576143 0.47050700646456922 0.24963111222780321 0.50073570207385831 0.24848280280289631 0.52886631355986169 0.312576188949791 0.31458070521983672 0.3125761889497819 0.24769234054476261 0.52242103280823293 0.45098450226372488 0.50000000000001332 0.49999999999999561 0.49999999999999561 0.50073570207385831 0.24848280280289631 0.52886631355986169 0.312576188949791 0.31458070521983672 0.3125761889497819 0.24769234054476261 0.52242103280823293 0.45098450226372488 0.5004045312576143 0.47050700646456922 0.24963111222780321 0.50000000000001332 0.49999999999999561 0.49999999999999561 0.312576188949791 0.31458070521983672 0.3125761889497819 0.24769234054476261 0.52242103280823293 0.45098450226372488 0.50073570207385831 0.24848280280289631 0.52886631355986169 0.22088738526309029 0.22111069116742441 0.50004796911802929 0.312576188949791 0.31458070521983672 0.3125761889497819 0.45812322962036273 0.31024977578535839 0 0.32925244736090059 0.39615100178043078 0 0.5004045312576143 0.47050700646456922 0.24963111222780321 0.32925244736090059 0.39615100178043078 0 0.22345881830598399 0.5062398304147856 0.22345881830602041 0.32446581821364329 0.60020898676454815 0 0.5004045312576143 0.47050700646456922 0.24963111222780321 0.312576188949791 0.31458070521983672 0.3125761889497819 0.45812322962036273 0.31024977578535839 0 0.5003997205654479 0.21136633249797621 0.2258422409314382 0.5004045312576143 0.47050700646456922 0.24963111222780321 0.31610726166346748 0.18804489794572149 0 0.312576188949791 0.31458070521983672 0.3125761889497819 0.45812322962036273 0.31024977578535839 0 0.32925244736090059 0.39615100178043078 0 0.312576188949791 0.31458070521983672 0.3125761889497819 0.32925244736090059 0.39615100178043078 0 0.16929708765618309 0.30074819035915368 0 0.22345881830598399 0.5062398304147856 0.22345881830602041 0.31610726166346748 0.18804489794572149 0 0.312576188949791 0.31458070521983672 0.3125761889497819 0.45812322962036273 0.31024977578535839 0 0.5003997205654479 0.21136633249797621 0.2258422409314382 0.312576188949791 0.31458070521983672 0.3125761889497819 0.32925244736090059 0.39615100178043078 0 0.22345881830598399 0.5062398304147856 0.22345881830602041 0.5004045312576143 0.47050700646456922 0.24963111222780321 0.31610726166346748 0.18804489794572149 0 0.312576188949791 0.31458070521983672 0.3125761889497819 0.32925244736090059 0.39615100178043078 0 0.16929708765618309 0.30074819035915368 0 0.32925244736090059 0.39615100178043078 0 0.32446581821364329 0.60020898676454815 0 0.51961524226956368 0.5000000000025091 0 0.5004045312576143 0.47050700646456922 0.24963111222780321 0.45812322962036273 0.31024977578535839 0 0.32925244736090059 0.39615100178043078 0 0.51961524226956368 0.5000000000025091 0 0.5004045312576143 0.47050700646456922 0.24963111222780321 0.14641016151452901 0.14641016151487049 0 0.312576188949791 0.31458070521983672 0.3125761889497819 0.16929708765618309 0.30074819035915368 0 0 0.30074819035869899 0.1692970876565193 0.312576188949791 0.31458070521983672 0.3125761889497819 0.16929708765618309 0.30074819035915368 0 0 0.30074819035869899 0.1692970876565193 0.22345881830598399 0.5062398304147856 0.22345881830602041 0.17226134197279269 0.49836539647922029 0 0.16929708765618309 0.30074819035915368 0 0 0.49836539647891548 0.17226134197271731 0.22345881830598399 0.5062398304147856 0.22345881830602041 0.32925244736090059 0.39615100178043078 0 0.17226134197279269 0.49836539647922029 0 0.16929708765618309 0.30074819035915368 0 0.22345881830598399 0.5062398304147856 0.22345881830602041 0 0.20000000000083221 0 0.16929708765618309 0.30074819035915368 0 0 0.30074819035869899 0.1692970876565193 0 0.40000000000166441 0 0.16929708765618309 0.30074819035915368 0 0 0.30074819035869899 0.1692970876565193 0 0.49836539647891548 0.17226134197271731 0 0.40000000000166441 0 0.16929708765618309 0.30074819035915368 0 0 0.30074819035869899 0.1692970876565193 0 0.49836539647891548 0.17226134197271731 0.22345881830598399 0.5062398304147856 0.22345881830602041 0 0.39615100178029522 0.32925244736138171 0 0.30074819035869899 0.1692970876565193 0 0.49836539647891548 0.17226134197271731 0.22345881830598399 0.5062398304147856 0.22345881830602041 0.17226134197279269 0.49836539647922029 0 0 0.49836539647891548 0.17226134197271731 0 0.40000000000166441 0 0 0.60000000000138687 0 0.17226134197279269 0.49836539647922029 0 0.16929708765618309 0.30074819035915368 0 0 0.49836539647891548 0.17226134197271731 0 0.40000000000166441 0 0.22345881830598399 0.5062398304147856 0.22345881830602041 0 0.69449451837103049 0.15896804272139439 0 0.60020898676435996 0.32446581821286191 0.19259015428765269 0.77719169076434647 0.19259015428773721 0.1589680427220837 0.69449451837091269 0 0.22345881830598399 0.5062398304147856 0.22345881830602041 0 0.69449451837103049 0.15896804272139439 0.19259015428765269 0.77719169076434647 0.19259015428773721 0.17226134197279269 0.49836539647922029 0 0 0.60000000000138687 0 0.1589680427220837 0.69449451837091269 0 0 0.69449451837103049 0.15896804272139439 0.1589680427220837 0.69449451837091269 0 0.22345881830598399 0.5062398304147856 0.22345881830602041 0.19259015428765269 0.77719169076434647 0.19259015428773721 0.32446581821364329 0.60020898676454815 0 0.17226134197279269 0.49836539647922029 0 0 0.49836539647891548 0.17226134197271731 0 0.60000000000138687 0 0 0.69449451837103049 0.15896804272139439 0 0.60000000000138687 0 0.1589680427220837 0.69449451837091269 0 0 0.69449451837103049 0.15896804272139439 0 0.79999999999999982 0 0.1589680427220837 0.69449451837091269 0 0.19259015428765269 0.77719169076434647 0.19259015428773721 0.31067093463127438 0.81480288849489035 0 0.32446581821364329 0.60020898676454815 0 0.17226134197279269 0.49836539647922029 0 0.1589680427220837 0.69449451837091269 0 0.22345881830598399 0.5062398304147856 0.22345881830602041 0.32446581821364329 0.60020898676454815 0 0.17226134197279269 0.49836539647922029 0 0.1589680427220837 0.69449451837091269 0 0.22345881830598399 0.5062398304147856 0.22345881830602041 0 0.69449451837103049 0.15896804272139439 0 0.69449451837103049 0.15896804272139439 0 0.60020898676435996 0.32446581821286191 0 0.81480288849496429 0.31067093462946233 0.19259015428765269 0.77719169076434647 0.19259015428773721 0 0.49836539647891548 0.17226134197271731 0.22345881830598399 0.5062398304147856 0.22345881830602041 0 0.69449451837103049 0.15896804272139439 0 0.60020898676435996 0.32446581821286191 0.17226134197279269 0.49836539647922029 0 0 0.49836539647891548 0.17226134197271731 0.22345881830598399 0.5062398304147856 0.22345881830602041 0 0.69449451837103049 0.15896804272139439 0 0.60020898676435996 0.32446581821286191 0.22516916914780419 0.77057994845201627 0.48187244075707292 0.19259015428765269 0.77719169076434647 0.19259015428773721 0.35848654557803328 0.70013656506632282 0.30029870175293161 0 0.39615100178029522 0.32925244736138171 0.22345881830598399 0.5062398304147856 0.22345881830602041 0 0.60020898676435996 0.32446581821286191 0.24769234054476261 0.52242103280823293 0.45098450226372488 0 0.60020898676435996 0.32446581821286191 0 0.81480288849496429 0.31067093462946233 0.22516916914780419 0.77057994845201627 0.48187244075707292 0.19259015428765269 0.77719169076434647 0.19259015428773721 0.22345881830598399 0.5062398304147856 0.22345881830602041 0 0.60020898676435996 0.32446581821286191 0.19259015428765269 0.77719169076434647 0.19259015428773721 0.35848654557803328 0.70013656506632282 0.30029870175293161 0 0.39615100178029522 0.32925244736138171 0 0.49836539647891548 0.17226134197271731 0.22345881830598399 0.5062398304147856 0.22345881830602041 0 0.60020898676435996 0.32446581821286191 0 0.60020898676435996 0.32446581821286191 0.24769234054476261 0.52242103280823293 0.45098450226372488 0.22516916914780419 0.77057994845201627 0.48187244075707292 0.35848654557803328 0.70013656506632282 0.30029870175293161 0.22345881830598399 0.5062398304147856 0.22345881830602041 0 0.60020898676435996 0.32446581821286191 0.24769234054476261 0.52242103280823293 0.45098450226372488 0.35848654557803328 0.70013656506632282 0.30029870175293161 0 0.39615100178029522 0.32925244736138171 0 0.60020898676435996 0.32446581821286191 0.24769234054476261 0.52242103280823293 0.45098450226372488 0 0.50000000000237477 0.51961524226909872 0 0.60020898676435996 0.32446581821286191 0.24769234054476261 0.52242103280823293 0.45098450226372488 0 0.68801781652248195 0.45664527743358641 0 0.50000000000237477 0.51961524226909872 0.24769234054476261 0.52242103280823293 0.45098450226372488 0 0.68801781652248195 0.45664527743358641 0.22516916914780419 0.77057994845201627 0.48187244075707292 0 0.66416205381430016 0.59944234540882957 0 0.60020898676435996 0.32446581821286191 0 0.68801781652248195 0.45664527743358641 0 0.81480288849496429 0.31067093462946233 0.22516916914780419 0.77057994845201627 0.48187244075707292 0 0.60020898676435996 0.32446581821286191 0.24769234054476261 0.52242103280823293 0.45098450226372488 0 0.68801781652248195 0.45664527743358641 0.22516916914780419 0.77057994845201627 0.48187244075707292 0.22516916914780419 0.77057994845201627 0.48187244075707292 0.16929708765615539 1 0.30074819035677097 0.19259015428765269 0.77719169076434647 0.19259015428773721 0.32926555316115258 1 0.39615987727515128 0 0.81480288849496429 0.31067093462946233 0.22516916914780419 0.77057994845201627 0.48187244075707292 0.16929708765615539 1 0.30074819035677097 0.19259015428765269 0.77719169076434647 0.19259015428773721 0 0.81480288849496429 0.31067093462946233 0.22516916914780419 0.77057994845201627 0.48187244075707292 0.17226134197293 1 0.49836539647645101 0 0.83630110503664845 0.50803330197135654 0 0.68801781652248195 0.45664527743358641 0 0.81480288849496429 0.31067093462946233 0.22516916914780419 0.77057994845201627 0.48187244075707292 0 0.83630110503664845 0.50803330197135654 0 0.81480288849496429 0.31067093462946233 0 1 0.3999999999989749 0.17226134197293 1 0.49836539647645101 0 0.83630110503664845 0.50803330197135654 0 0.81480288849496429 0.31067093462946233 0 1 0.3999999999989749 0.17226134197293 1 0.49836539647645101 0.16929708765615539 1 0.30074819035677097 0 0.81480288849496429 0.31067093462946233 0.22516916914780419 0.77057994845201627 0.48187244075707292 0.17226134197293 1 0.49836539647645101 0.16929708765615539 1 0.30074819035677097 0.22516916914780419 0.77057994845201627 0.48187244075707292 0.17226134197293 1 0.49836539647645101 0.16929708765615539 1 0.30074819035677097 0.32926555316115258 1 0.39615987727515128 0 0.81480288849496429 0.31067093462946233 0 1 0.3999999999989749 0.16929708765615539 1 0.30074819035677097 0 1 0.19999999999955789 0 0.81480288849496429 0.31067093462946233 0.16929708765615539 1 0.30074819035677097 0 1 0.19999999999955789 0 0.85358983848655678 0.14641016151332509 0.16929708765615539 1 0.30074819035677097 0 1 0.19999999999955789 0 0.85358983848655678 0.14641016151332509 0.14641016151352521 1 0.1464101615131837 0 1 0 0.14641016151479211 0.85358983848543113 0 0.20000000000083221 1 0 0.14641016151352521 1 0.1464101615131837 0 1 0.19999999999955789 0 1 0 0 0.85358983848655678 0.14641016151332509 0.14641016151352521 1 0.1464101615131837 0 1 0 0 0.85358983848655678 0.14641016151332509 0.14641016151479211 0.85358983848543113 0 0.14641016151352521 1 0.1464101615131837 0 1 0 0 0.79999999999999982 0 0 0.85358983848655678 0.14641016151332509 0.14641016151479211 0.85358983848543113 0 0.1589680427220837 0.69449451837091269 0 0 0.69449451837103049 0.15896804272139439 0 0.85358983848655678 0.14641016151332509 0.19259015428765269 0.77719169076434647 0.19259015428773721 0.1589680427220837 0.69449451837091269 0 0 0.79999999999999982 0 0 0.85358983848655678 0.14641016151332509 0.14641016151479211 0.85358983848543113 0 0 0.85358983848655678 0.14641016151332509 0.19259015428765269 0.77719169076434647 0.19259015428773721 0.14641016151479211 0.85358983848543113 0 0.14641016151352521 1 0.1464101615131837 0.1589680427220837 0.69449451837091269 0 0 0.69449451837103049 0.15896804272139439 0 0.79999999999999982 0 0 0.85358983848655678 0.14641016151332509 0.1589680427220837 0.69449451837091269 0 0 0.85358983848655678 0.14641016151332509 0.19259015428765269 0.77719169076434647 0.19259015428773721 0.14641016151479211 0.85358983848543113 0 0 0.81480288849496429 0.31067093462946233 0.16929708765615539 1 0.30074819035677097 0 0.85358983848655678 0.14641016151332509 0.19259015428765269 0.77719169076434647 0.19259015428773721 0 0.69449451837103049 0.15896804272139439 0 0.81480288849496429 0.31067093462946233 0 0.85358983848655678 0.14641016151332509 0.19259015428765269 0.77719169076434647 0.19259015428773721 0.19259015428765269 0.77719169076434647 0.19259015428773721 0.14641016151479211 0.85358983848543113 0 0.14641016151352521 1 0.1464101615131837 0.31067093463127438 0.81480288849489035 0 0.1589680427220837 0.69449451837091269 0 0.19259015428765269 0.77719169076434647 0.19259015428773721 0.14641016151479211 0.85358983848543113 0 0.31067093463127438 0.81480288849489035 0 0.14641016151479211 0.85358983848543113 0 0.20000000000083221 1 0 0.14641016151352521 1 0.1464101615131837 0.31067093463127438 0.81480288849489035 0 0.20000000000083221 1 0 0.14641016151352521 1 0.1464101615131837 0.31635851157303152 1 0.18818969570840721 0.31067093463127438 0.81480288849489035 0 0.19259015428765269 0.77719169076434647 0.19259015428773721 0.14641016151352521 1 0.1464101615131837 0.31635851157303152 1 0.18818969570840721 0.31067093463127438 0.81480288849489035 0 0.16929708765615539 1 0.30074819035677097 0.19259015428765269 0.77719169076434647 0.19259015428773721 0.14641016151352521 1 0.1464101615131837 0.31635851157303152 1 0.18818969570840721 0.16929708765615539 1 0.30074819035677097 0 0.85358983848655678 0.14641016151332509 0.19259015428765269 0.77719169076434647 0.19259015428773721 0.14641016151352521 1 0.1464101615131837 0.19259015428765269 0.77719169076434647 0.19259015428773721 0.31635851157303152 1 0.18818969570840721 0.35848654557803328 0.70013656506632282 0.30029870175293161 0.52894546611500048 0.79133000140429866 0.2082794184507949 0.19259015428765269 0.77719169076434647 0.19259015428773721 0.31067093463127438 0.81480288849489035 0 0.35848654557803328 0.70013656506632282 0.30029870175293161 0.52894546611500048 0.79133000140429866 0.2082794184507949 0.19259015428765269 0.77719169076434647 0.19259015428773721 0.31635851157303152 1 0.18818969570840721 0.31067093463127438 0.81480288849489035 0 0.52894546611500048 0.79133000140429866 0.2082794184507949 0.20000000000083221 1 0 0.31635851157303152 1 0.18818969570840721 0.31067093463127438 0.81480288849489035 0 0.40000000000166441 1 0 0.31635851157303152 1 0.18818969570840721 0.31067093463127438 0.81480288849489035 0 0.50803330197353713 0.83630110503668265 0 0.52894546611500048 0.79133000140429866 0.2082794184507949 0.31067093463127438 0.81480288849489035 0 0.45664527743509797 0.68801781652245086 0 0.50803330197353713 0.83630110503668265 0 0.52894546611500048 0.79133000140429866 0.2082794184507949 0.31635851157303152 1 0.18818969570840721 0.40000000000166441 1 0 0.51133491425992716 1 0.16370661204795281 0.50803330197353713 0.83630110503668265 0 0.31635851157303152 1 0.18818969570840721 0.31067093463127438 0.81480288849489035 0 0.40000000000166441 1 0 0.50803330197353713 0.83630110503668265 0 0.31635851157303152 1 0.18818969570840721 0.45820186441796368 1 0.31030302876579191 0.51133491425992716 1 0.16370661204795281 0.52894546611500048 0.79133000140429866 0.2082794184507949 0.31635851157303152 1 0.18818969570840721 0.51133491425992716 1 0.16370661204795281 0.50803330197353713 0.83630110503668265 0 0.52894546611500048 0.79133000140429866 0.2082794184507949 0.22516916914780419 0.77057994845201627 0.48187244075707292 0.32926555316115258 1 0.39615987727515128 0.35848654557803328 0.70013656506632282 0.30029870175293161 0.49983993748706529 0.75039103705932653 0.52967335724801234 0.22516916914780419 0.77057994845201627 0.48187244075707292 0.19259015428765269 0.77719169076434647 0.19259015428773721 0.32926555316115258 1 0.39615987727515128 0.35848654557803328 0.70013656506632282 0.30029870175293161 0.31635851157303152 1 0.18818969570840721 0.45820186441796368 1 0.31030302876579191 0.32926555316115258 1 0.39615987727515128 0.35848654557803328 0.70013656506632282 0.30029870175293161 0.31635851157303152 1 0.18818969570840721 0.45820186441796368 1 0.31030302876579191 0.35848654557803328 0.70013656506632282 0.30029870175293161 0.52894546611500048 0.79133000140429866 0.2082794184507949 0.19259015428765269 0.77719169076434647 0.19259015428773721 0.31635851157303152 1 0.18818969570840721 0.32926555316115258 1 0.39615987727515128 0.35848654557803328 0.70013656506632282 0.30029870175293161 0.45820186441796368 1 0.31030302876579191 0.35848654557803328 0.70013656506632282 0.30029870175293161 0.52894546611500048 0.79133000140429866 0.2082794184507949 0.49983993748706529 0.75039103705932653 0.52967335724801234 0.45820186441796368 1 0.31030302876579191 0.32926555316115258 1 0.39615987727515128 0.35848654557803328 0.70013656506632282 0.30029870175293161 0.49983993748706529 0.75039103705932653 0.52967335724801234 0.16929708765615539 1 0.30074819035677097 0.19259015428765269 0.77719169076434647 0.19259015428773721 0.31635851157303152 1 0.18818969570840721 0.32926555316115258 1 0.39615987727515128 0.22516916914780419 0.77057994845201627 0.48187244075707292 0.17226134197293 1 0.49836539647645101 0.32926555316115258 1 0.39615987727515128 0.32448110831226962 1 0.6002015905153204 0.45820186441796368 1 0.31030302876579191 0.32926555316115258 1 0.39615987727515128 0.51961524227008238 1 0.49999999999872219 0.49983993748706529 0.75039103705932653 0.52967335724801234 0.24769234054476261 0.52242103280823293 0.45098450226372488 0.22516916914780419 0.77057994845201627 0.48187244075707292 0.35848654557803328 0.70013656506632282 0.30029870175293161 0.49983993748706529 0.75039103705932653 0.52967335724801234 0.24769234054476261 0.52242103280823293 0.45098450226372488 0.35848654557803328 0.70013656506632282 0.30029870175293161 0.5004045312576143 0.47050700646456922 0.24963111222780321 0.50000000000001332 0.49999999999999561 0.49999999999999561 0.24769234054476261 0.52242103280823293 0.45098450226372488 0.35848654557803328 0.70013656506632282 0.30029870175293161 0.50000000000001332 0.49999999999999561 0.49999999999999561 0.49983993748706529 0.75039103705932653 0.52967335724801234 0.22345881830598399 0.5062398304147856 0.22345881830602041 0.24769234054476261 0.52242103280823293 0.45098450226372488 0.35848654557803328 0.70013656506632282 0.30029870175293161 0.5004045312576143 0.47050700646456922 0.24963111222780321 0.22345881830598399 0.5062398304147856 0.22345881830602041 0.35848654557803328 0.70013656506632282 0.30029870175293161 0.32446581821364329 0.60020898676454815 0 0.5004045312576143 0.47050700646456922 0.24963111222780321 0.31067093463127438 0.81480288849489035 0 0.35848654557803328 0.70013656506632282 0.30029870175293161 0.32446581821364329 0.60020898676454815 0 0.45664527743509797 0.68801781652245086 0 0.22345881830598399 0.5062398304147856 0.22345881830602041 0.19259015428765269 0.77719169076434647 0.19259015428773721 0.35848654557803328 0.70013656506632282 0.30029870175293161 0.32446581821364329 0.60020898676454815 0 0.35848654557803328 0.70013656506632282 0.30029870175293161 0.32446581821364329 0.60020898676454815 0 0.45664527743509797 0.68801781652245086 0 0.5004045312576143 0.47050700646456922 0.24963111222780321 0.19259015428765269 0.77719169076434647 0.19259015428773721 0.31067093463127438 0.81480288849489035 0 0.35848654557803328 0.70013656506632282 0.30029870175293161 0.32446581821364329 0.60020898676454815 0 0.31067093463127438 0.81480288849489035 0 0.35848654557803328 0.70013656506632282 0.30029870175293161 0.45664527743509797 0.68801781652245086 0 0.52894546611500048 0.79133000140429866 0.2082794184507949 0.35848654557803328 0.70013656506632282 0.30029870175293161 0.45664527743509797 0.68801781652245086 0 0.52894546611500048 0.79133000140429866 0.2082794184507949 0.5004045312576143 0.47050700646456922 0.24963111222780321 0.32925244736090059 0.39615100178043078 0 0.17226134197279269 0.49836539647922029 0 0.22345881830598399 0.5062398304147856 0.22345881830602041 0.32446581821364329 0.60020898676454815 0 0.32446581821364329 0.60020898676454815 0 0.45664527743509797 0.68801781652245086 0 0.51961524226956368 0.5000000000025091 0 0.5004045312576143 0.47050700646456922 0.24963111222780321 0.59944234541082553 0.66416205381394655 0 0.72722573386132172 0.60922248848163563 0 0.68456408135056701 0.68607101396845627 0.31096060989957619 0.77713227489941183 0.50036915849493024 0.21774643624003751 0.59944234541082553 0.66416205381394655 0 0.68456408135056701 0.68607101396845627 0.31096060989957619 0.77713227489941183 0.50036915849493024 0.21774643624003751 0.5004045312576143 0.47050700646456922 0.24963111222780321 0.45664527743509797 0.68801781652245086 0 0.59944234541082553 0.66416205381394655 0 0.52894546611500048 0.79133000140429866 0.2082794184507949 0.5004045312576143 0.47050700646456922 0.24963111222780321 0.51961524226956368 0.5000000000025091 0 0.59944234541082553 0.66416205381394655 0 0.67320508075660079 0.46954769941202479 0 0.5004045312576143 0.47050700646456922 0.24963111222780321 0.59944234541082553 0.66416205381394655 0 0.68456408135056701 0.68607101396845627 0.31096060989957619 0.52894546611500048 0.79133000140429866 0.2082794184507949 0.5004045312576143 0.47050700646456922 0.24963111222780321 0.59944234541082553 0.66416205381394655 0 0.77713227489941183 0.50036915849493024 0.21774643624003751 0.67320508075660079 0.46954769941202479 0 0.5004045312576143 0.47050700646456922 0.24963111222780321 0.59944234541082553 0.66416205381394655 0 0.68456408135056701 0.68607101396845627 0.31096060989957619 0.52894546611500048 0.79133000140429866 0.2082794184507949 0.81582077266975173 0.77657922508894406 0.18483084990574741 0.45664527743509797 0.68801781652245086 0 0.51961524226956368 0.5000000000025091 0 0.59944234541082553 0.66416205381394655 0 0.5004045312576143 0.47050700646456922 0.24963111222780321 0.59944234541082553 0.66416205381394655 0 0.72722573386132172 0.60922248848163563 0 0.68456408135056701 0.68607101396845627 0.31096060989957619 0.81582077266975173 0.77657922508894406 0.18483084990574741 0.45664527743509797 0.68801781652245086 0 0.59944234541082553 0.66416205381394655 0 0.50803330197353713 0.83630110503668265 0 0.52894546611500048 0.79133000140429866 0.2082794184507949 0.59944234541082553 0.66416205381394655 0 0.72722573386132172 0.60922248848163563 0 0.7054234997318658 0.80860557108880304 0 0.81582077266975173 0.77657922508894406 0.18483084990574741 0.59944234541082553 0.66416205381394655 0 0.72722573386132172 0.60922248848163563 0 0.77713227489941183 0.50036915849493024 0.21774643624003751 0.67320508075660079 0.46954769941202479 0 0.35848654557803328 0.70013656506632282 0.30029870175293161 0.68456408135056701 0.68607101396845627 0.31096060989957619 0.52894546611500048 0.79133000140429866 0.2082794184507949 0.5004045312576143 0.47050700646456922 0.24963111222780321 0.35848654557803328 0.70013656506632282 0.30029870175293161 0.68456408135056701 0.68607101396845627 0.31096060989957619 0.50000000000001332 0.49999999999999561 0.49999999999999561 0.49983993748706529 0.75039103705932653 0.52967335724801234 0.35848654557803328 0.70013656506632282 0.30029870175293161 0.68456408135056701 0.68607101396845627 0.31096060989957619 0.5004045312576143 0.47050700646456922 0.24963111222780321 0.50000000000001332 0.49999999999999561 0.49999999999999561 0.68456408135056701 0.68607101396845627 0.31096060989957619 0.7504488434426726 0.53051757989633308 0.49836643074154852 0.5004045312576143 0.47050700646456922 0.24963111222780321 0.50000000000001332 0.49999999999999561 0.49999999999999561 0.68456408135056701 0.68607101396845627 0.31096060989957619 0.77374673111774417 0.78860835645735528 0.49829081152968557 0.7504488434426726 0.53051757989633308 0.49836643074154852 0.49983993748706529 0.75039103705932653 0.52967335724801234 0.68456408135056701 0.68607101396845627 0.31096060989957619 0.7504488434426726 0.53051757989633308 0.49836643074154852 0.77713227489941183 0.50036915849493024 0.21774643624003751 0.5004045312576143 0.47050700646456922 0.24963111222780321 0.35848654557803328 0.70013656506632282 0.30029870175293161 0.68456408135056701 0.68607101396845627 0.31096060989957619 0.52894546611500048 0.79133000140429866 0.2082794184507949 0.49983993748706529 0.75039103705932653 0.52967335724801234 0.68456408135056701 0.68607101396845627 0.31096060989957619 0.7504488434426726 0.53051757989633308 0.49836643074154852 0.50000000000001332 0.49999999999999561 0.49999999999999561 0.49983993748706529 0.75039103705932653 0.52967335724801234 0.68456408135056701 0.68607101396845627 0.31096060989957619 0.61068558124908323 1 0.33127740899601937 0.52894546611500048 0.79133000140429866 0.2082794184507949 0.81582077266975173 0.77657922508894406 0.18483084990574741 0.68456408135056701 0.68607101396845627 0.31096060989957619 0.61068558124908323 1 0.33127740899601937 0.77374673111774417 0.78860835645735528 0.49829081152968557 0.49983993748706529 0.75039103705932653 0.52967335724801234 0.61068558124908323 1 0.33127740899601937 0.77374673111774417 0.78860835645735528 0.49829081152968557 0.68240285647621723 1 0.52310058211166854 0.49983993748706529 0.75039103705932653 0.52967335724801234 0.68456408135056701 0.68607101396845627 0.31096060989957619 0.61068558124908323 1 0.33127740899601937 0.81582077266975173 0.77657922508894406 0.18483084990574741 0.82751535738810444 1 0.31407731390515509 0.45820186441796368 1 0.31030302876579191 0.61068558124908323 1 0.33127740899601937 0.52894546611500048 0.79133000140429866 0.2082794184507949 0.49983993748706529 0.75039103705932653 0.52967335724801234 0.68456408135056701 0.68607101396845627 0.31096060989957619 0.61068558124908323 1 0.33127740899601937 0.82751535738810444 1 0.31407731390515509 0.77374673111774417 0.78860835645735528 0.49829081152968557 0.68456408135056701 0.68607101396845627 0.31096060989957619 0.61068558124908323 1 0.33127740899601937 0.52894546611500048 0.79133000140429866 0.2082794184507949 0.49983993748706529 0.75039103705932653 0.52967335724801234 0.51961524227008238 1 0.49999999999872219 0.61068558124908323 1 0.33127740899601937 0.68240285647621723 1 0.52310058211166854 0.49983993748706529 0.75039103705932653 0.52967335724801234 0.45820186441796368 1 0.31030302876579191 0.51961524227008238 1 0.49999999999872219 0.61068558124908323 1 0.33127740899601937 0.49983993748706529 0.75039103705932653 0.52967335724801234 0.61068558124908323 1 0.33127740899601937 0.82751535738810444 1 0.31407731390515509 0.77374673111774417 0.78860835645735528 0.49829081152968557 0.68240285647621723 1 0.52310058211166854 0.45820186441796368 1 0.31030302876579191 0.61068558124908323 1 0.33127740899601937 0.51133491425992716 1 0.16370661204795281 0.52894546611500048 0.79133000140429866 0.2082794184507949 0.61068558124908323 1 0.33127740899601937 0.51133491425992716 1 0.16370661204795281 0.52894546611500048 0.79133000140429866 0.2082794184507949 0.69988642339594154 1 0.16938214347578889 0.61068558124908323 1 0.33127740899601937 0.52894546611500048 0.79133000140429866 0.2082794184507949 0.69988642339594154 1 0.16938214347578889 0.81582077266975173 0.77657922508894406 0.18483084990574741 0.52894546611500048 0.79133000140429866 0.2082794184507949 0.7054234997318658 0.80860557108880304 0 0.69988642339594154 1 0.16938214347578889 0.81582077266975173 0.77657922508894406 0.18483084990574741 0.51133491425992716 1 0.16370661204795281 0.50803330197353713 0.83630110503668265 0 0.52894546611500048 0.79133000140429866 0.2082794184507949 0.69988642339594154 1 0.16938214347578889 0.59944234541082553 0.66416205381394655 0 0.52894546611500048 0.79133000140429866 0.2082794184507949 0.7054234997318658 0.80860557108880304 0 0.81582077266975173 0.77657922508894406 0.18483084990574741 0.51133491425992716 1 0.16370661204795281 0.60000000000138687 1 0 0.50803330197353713 0.83630110503668265 0 0.69988642339594154 1 0.16938214347578889 0.40000000000166441 1 0 0.51133491425992716 1 0.16370661204795281 0.60000000000138687 1 0 0.50803330197353713 0.83630110503668265 0 0.59944234541082553 0.66416205381394655 0 0.50803330197353713 0.83630110503668265 0 0.52894546611500048 0.79133000140429866 0.2082794184507949 0.7054234997318658 0.80860557108880304 0 0.50803330197353713 0.83630110503668265 0 0.52894546611500048 0.79133000140429866 0.2082794184507949 0.7054234997318658 0.80860557108880304 0 0.69988642339594154 1 0.16938214347578889 0.60000000000138687 1 0 0.7054234997318658 0.80860557108880304 0 0.69988642339594154 1 0.16938214347578889 0.79999999999999982 1 0 0.60000000000138687 1 0 0.50803330197353713 0.83630110503668265 0 0.7054234997318658 0.80860557108880304 0 0.69988642339594154 1 0.16938214347578889 0.61068558124908323 1 0.33127740899601937 0.69988642339594154 1 0.16938214347578889 0.81582077266975173 0.77657922508894406 0.18483084990574741 0.82751535738810444 1 0.31407731390515509 0.69988642339594154 1 0.16938214347578889 0.85358983848665693 1 0.14641016151322461 0.81582077266975173 0.77657922508894406 0.18483084990574741 0.82751535738810444 1 0.31407731390515509 0.69988642339594154 1 0.16938214347578889 0.85358983848665693 1 0.14641016151322461 0.85358983848666903 0.85358983848666903 0 0.81582077266975173 0.77657922508894406 0.18483084990574741 0.85358983848665693 1 0.14641016151322461 0.81582077266975173 0.77657922508894406 0.18483084990574741 1 0.85358983848655678 0.14641016151332509 0.82751535738810444 1 0.31407731390515509 0.69988642339594154 1 0.16938214347578889 0.85358983848665693 1 0.14641016151322461 0.79999999999999982 1 0 0.85358983848666903 0.85358983848666903 0 0.7054234997318658 0.80860557108880304 0 0.69988642339594154 1 0.16938214347578889 0.79999999999999982 1 0 0.85358983848666903 0.85358983848666903 0 0.7054234997318658 0.80860557108880304 0 0.85358983848666903 0.85358983848666903 0 0.81582077266975173 0.77657922508894406 0.18483084990574741 0.85173693729186062 0.69992182039541118 0 0.7054234997318658 0.80860557108880304 0 0.69988642339594154 1 0.16938214347578889 0.85358983848666903 0.85358983848666903 0 0.81582077266975173 0.77657922508894406 0.18483084990574741 0.81582077266975173 0.77657922508894406 0.18483084990574741 1 0.85358983848655678 0.14641016151332509 1 0.8148028884949543 0.31067093462944562 1 0.69449451837101916 0.15896804272136739 0.81582077266975173 0.77657922508894406 0.18483084990574741 1 0.85358983848655678 0.14641016151332509 0.82751535738810444 1 0.31407731390515509 1 0.8148028884949543 0.31067093462944562 0.85358983848666903 0.85358983848666903 0 0.81582077266975173 0.77657922508894406 0.18483084990574741 1 0.85358983848655678 0.14641016151332509 1 0.79999999999999982 0 0.81582077266975173 0.77657922508894406 0.18483084990574741 1 0.85358983848655678 0.14641016151332509 1 0.79999999999999982 0 1 0.69449451837101916 0.15896804272136739 0.85358983848665693 1 0.14641016151322461 0.85358983848666903 0.85358983848666903 0 0.81582077266975173 0.77657922508894406 0.18483084990574741 1 0.85358983848655678 0.14641016151332509 0.85358983848666903 0.85358983848666903 0 0.81582077266975173 0.77657922508894406 0.18483084990574741 1 0.79999999999999982 0 0.85173693729186062 0.69992182039541118 0 0.85358983848665693 1 0.14641016151322461 0.85358983848666903 0.85358983848666903 0 1 0.85358983848655678 0.14641016151332509 1 1 0 0.85358983848665693 1 0.14641016151322461 1 0.85358983848655678 0.14641016151332509 1 1 0 1 1 0.19999999999955789 0.85358983848666903 0.85358983848666903 0 1 0.85358983848655678 0.14641016151332509 1 0.79999999999999982 0 1 1 0 0.85358983848665693 1 0.14641016151322461 0.79999999999999982 1 0 0.85358983848666903 0.85358983848666903 0 1 1 0 0.85358983848665693 1 0.14641016151322461 1 0.85358983848655678 0.14641016151332509 1 1 0.19999999999955789 0.82751535738810444 1 0.31407731390515509 1 0.85358983848655678 0.14641016151332509 1 1 0.19999999999955789 0.82751535738810444 1 0.31407731390515509 1 0.8148028884949543 0.31067093462944562 1 1 0.19999999999955789 0.82751535738810444 1 0.31407731390515509 1 1 0.3999999999989749 1 0.8148028884949543 0.31067093462944562 0.68456408135056701 0.68607101396845627 0.31096060989957619 0.81582077266975173 0.77657922508894406 0.18483084990574741 0.82751535738810444 1 0.31407731390515509 0.77374673111774417 0.78860835645735528 0.49829081152968557 0.81582077266975173 0.77657922508894406 0.18483084990574741 0.82751535738810444 1 0.31407731390515509 0.77374673111774417 0.78860835645735528 0.49829081152968557 1 0.8148028884949543 0.31067093462944562 0.68456408135056701 0.68607101396845627 0.31096060989957619 0.81582077266975173 0.77657922508894406 0.18483084990574741 0.77374673111774417 0.78860835645735528 0.49829081152968557 1 0.8148028884949543 0.31067093462944562 0.82751535738810444 1 0.31407731390515509 0.77374673111774417 0.78860835645735528 0.49829081152968557 1 0.8148028884949543 0.31067093462944562 0.86762395692956074 1 0.5060815484123421 0.82751535738810444 1 0.31407731390515509 0.77374673111774417 0.78860835645735528 0.49829081152968557 0.86762395692956074 1 0.5060815484123421 0.68240285647621723 1 0.52310058211166854 0.82751535738810444 1 0.31407731390515509 1 1 0.3999999999989749 1 0.8148028884949543 0.31067093462944562 0.86762395692956074 1 0.5060815484123421 1 1 0.3999999999989749 1 0.8148028884949543 0.31067093462944562 1 0.83630110503662825 0.50803330197135588 0.86762395692956074 1 0.5060815484123421 0.77374673111774417 0.78860835645735528 0.49829081152968557 1 0.8148028884949543 0.31067093462944562 1 0.83630110503662825 0.50803330197135588 0.86762395692956074 1 0.5060815484123421 0.77374673111774417 0.78860835645735528 0.49829081152968557 1 0.8148028884949543 0.31067093462944562 1 0.68975022421527898 0.45812322962078778 1 0.83630110503662825 0.50803330197135588 0.7504488434426726 0.53051757989633308 0.49836643074154852 1 0.60020898676431722 0.32446581821274012 0.77713227489941183 0.50036915849493024 0.21774643624003751 1 0.39615100178016449 0.32925244736082498 0.68456408135056701 0.68607101396845627 0.31096060989957619 1 0.68975022421527898 0.45812322962078778 0.7504488434426726 0.53051757989633308 0.49836643074154852 1 0.60020898676431722 0.32446581821274012 0.68456408135056701 0.68607101396845627 0.31096060989957619 0.77374673111774417 0.78860835645735528 0.49829081152968557 1 0.8148028884949543 0.31067093462944562 1 0.68975022421527898 0.45812322962078778 0.68456408135056701 0.68607101396845627 0.31096060989957619 0.77374673111774417 0.78860835645735528 0.49829081152968557 1 0.68975022421527898 0.45812322962078778 0.7504488434426726 0.53051757989633308 0.49836643074154852 0.68456408135056701 0.68607101396845627 0.31096060989957619 1 0.8148028884949543 0.31067093462944562 1 0.68975022421527898 0.45812322962078778 1 0.60020898676431722 0.32446581821274012 0.68456408135056701 0.68607101396845627 0.31096060989957619 0.7504488434426726 0.53051757989633308 0.49836643074154852 1 0.60020898676431722 0.32446581821274012 0.77713227489941183 0.50036915849493024 0.21774643624003751 0.68456408135056701 0.68607101396845627 0.31096060989957619 0.81582077266975173 0.77657922508894406 0.18483084990574741 1 0.8148028884949543 0.31067093462944562 1 0.60020898676431722 0.32446581821274012 0.68456408135056701 0.68607101396845627 0.31096060989957619 0.81582077266975173 0.77657922508894406 0.18483084990574741 1 0.60020898676431722 0.32446581821274012 0.77713227489941183 0.50036915849493024 0.21774643624003751 1 0.68975022421527898 0.45812322962078778 0.7504488434426726 0.53051757989633308 0.49836643074154852 1 0.60020898676431722 0.32446581821274012 1 0.50000000000229983 0.51961524226898759 0.7504488434426726 0.53051757989633308 0.49836643074154852 1 0.60020898676431722 0.32446581821274012 1 0.39615100178016449 0.32925244736082498 1 0.50000000000229983 0.51961524226898759 1 0.69449451837101916 0.15896804272136739 0.77713227489941183 0.50036915849493024 0.21774643624003751 0.84191918937744659 0.51186163305076127 0 1 0.49836539647890021 0.17226134197269399 0.81582077266975173 0.77657922508894406 0.18483084990574741 1 0.69449451837101916 0.15896804272136739 0.77713227489941183 0.50036915849493024 0.21774643624003751 0.85173693729186062 0.69992182039541118 0 0.81582077266975173 0.77657922508894406 0.18483084990574741 1 0.60020898676431722 0.32446581821274012 1 0.69449451837101916 0.15896804272136739 0.77713227489941183 0.50036915849493024 0.21774643624003751 1 0.60020898676431722 0.32446581821274012 1 0.69449451837101916 0.15896804272136739 0.77713227489941183 0.50036915849493024 0.21774643624003751 1 0.49836539647890021 0.17226134197269399 0.72722573386132172 0.60922248848163563 0 0.81582077266975173 0.77657922508894406 0.18483084990574741 0.77713227489941183 0.50036915849493024 0.21774643624003751 0.85173693729186062 0.69992182039541118 0 0.72722573386132172 0.60922248848163563 0 0.68456408135056701 0.68607101396845627 0.31096060989957619 0.81582077266975173 0.77657922508894406 0.18483084990574741 0.77713227489941183 0.50036915849493024 0.21774643624003751 0.81582077266975173 0.77657922508894406 0.18483084990574741 1 0.8148028884949543 0.31067093462944562 1 0.60020898676431722 0.32446581821274012 1 0.69449451837101916 0.15896804272136739 0.72722573386132172 0.60922248848163563 0 0.77713227489941183 0.50036915849493024 0.21774643624003751 0.84191918937744659 0.51186163305076127 0 0.67320508075660079 0.46954769941202479 0 1 0.69449451837101916 0.15896804272136739 0.77713227489941183 0.50036915849493024 0.21774643624003751 0.84191918937744659 0.51186163305076127 0 0.85173693729186062 0.69992182039541118 0 0.72722573386132172 0.60922248848163563 0 0.77713227489941183 0.50036915849493024 0.21774643624003751 0.84191918937744659 0.51186163305076127 0 0.85173693729186062 0.69992182039541118 0 0.72722573386132172 0.60922248848163563 0 0.7054234997318658 0.80860557108880304 0 0.81582077266975173 0.77657922508894406 0.18483084990574741 0.85173693729186062 0.69992182039541118 0 1 0.79999999999999982 0 1 0.69449451837101916 0.15896804272136739 0.85173693729186062 0.69992182039541118 0 1 0.60000000000138687 0 0.81582077266975173 0.77657922508894406 0.18483084990574741 1 0.79999999999999982 0 1 0.69449451837101916 0.15896804272136739 0.85173693729186062 0.69992182039541118 0 1 0.69449451837101916 0.15896804272136739 0.84191918937744659 0.51186163305076127 0 0.85173693729186062 0.69992182039541118 0 1 0.60000000000138687 0 1 0.69449451837101916 0.15896804272136739 0.84191918937744659 0.51186163305076127 0 1 0.60000000000138687 0 1 0.49836539647890021 0.17226134197269399 0.84191918937744659 0.51186163305076127 0 1 0.60000000000138687 0 1 0.40000000000166441 0 1 0.49836539647890021 0.17226134197269399 1 0.30074819035868428 0.16929708765640439 0.80839867011859301 0.31807971531731721 0 0.85358983848570813 0.1464101615143738 0 0.68777432594363841 0.31447353261427252 0.31366778418247038 0.84191918937744659 0.51186163305076127 0 1 0.40000000000166441 0 1 0.49836539647890021 0.17226134197269399 0.80839867011859301 0.31807971531731721 0 1 0.40000000000166441 0 1 0.49836539647890021 0.17226134197269399 1 0.30074819035868428 0.16929708765640439 0.80839867011859301 0.31807971531731721 0 0.77713227489941183 0.50036915849493024 0.21774643624003751 1 0.30074819035868428 0.16929708765640439 0.80839867011859301 0.31807971531731721 0 0.68777432594363841 0.31447353261427252 0.31366778418247038 0.77713227489941183 0.50036915849493024 0.21774643624003751 0.84191918937744659 0.51186163305076127 0 0.80839867011859301 0.31807971531731721 0 0.67320508075660079 0.46954769941202479 0 0.77713227489941183 0.50036915849493024 0.21774643624003751 0.84191918937744659 0.51186163305076127 0 1 0.49836539647890021 0.17226134197269399 0.80839867011859301 0.31807971531731721 0 0.77713227489941183 0.50036915849493024 0.21774643624003751 1 0.49836539647890021 0.17226134197269399 1 0.30074819035868428 0.16929708765640439 0.80839867011859301 0.31807971531731721 0 0.77713227489941183 0.50036915849493024 0.21774643624003751 1 0.49836539647890021 0.17226134197269399 1 0.30074819035868428 0.16929708765640439 1 0.39615100178016449 0.32925244736082498 1 0.40000000000166441 0 1 0.30074819035868428 0.16929708765640439 0.80839867011859301 0.31807971531731721 0 1 0.20000000000083221 0 1 0.30074819035868428 0.16929708765640439 0.80839867011859301 0.31807971531731721 0 1 0.20000000000083221 0 0.85358983848570813 0.1464101615143738 0 1 0.30074819035868428 0.16929708765640439 1 0.20000000000083221 0 1 0.14641016151453831 0.14641016151419689 0.85358983848570813 0.1464101615143738 0 0.85358983848650494 0 0.1464101615132356 0.68592116352011878 0 0.1724872797865501 0.68777432594363841 0.31447353261427252 0.31366778418247038 0.83057691269884504 0 0.30018449338884379 0.80839867011859301 0.31807971531731721 0 0.85358983848570813 0.1464101615143738 0 0.69380980079964416 0.1619694349440581 0 0.68777432594363841 0.31447353261427252 0.31366778418247038 1 0.30074819035868428 0.16929708765640439 1 0.14641016151453831 0.14641016151419689 0.68777432594363841 0.31447353261427252 0.31366778418247038 1 0.18804489794556911 0.3161072616634244 1 0.30074819035868428 0.16929708765640439 1 0.14641016151453831 0.14641016151419689 0.85358983848570813 0.1464101615143738 0 0.68777432594363841 0.31447353261427252 0.31366778418247038 1 0.14641016151453831 0.14641016151419689 0.85358983848650494 0 0.1464101615132356 0.68777432594363841 0.31447353261427252 0.31366778418247038 0.83057691269884504 0 0.30018449338884379 1 0.14641016151453831 0.14641016151419689 0.85358983848650494 0 0.1464101615132356 0.85358983848570813 0.1464101615143738 0 0.68777432594363841 0.31447353261427252 0.31366778418247038 0.85358983848650494 0 0.1464101615132356 0.85358983848570813 0.1464101615143738 0 0.69380980079964416 0.1619694349440581 0 0.68777432594363841 0.31447353261427252 0.31366778418247038 1 0.14641016151453831 0.14641016151419689 1 0 0.19999999999955789 0.85358983848650494 0 0.1464101615132356 0.83057691269884504 0 0.30018449338884379 1 0.14641016151453831 0.14641016151419689 1 0 0.19999999999955789 0.83057691269884504 0 0.30018449338884379 1 0.18804489794556911 0.3161072616634244 1 0 0 0.79999999999947335 0 0 0.85358983848650494 0 0.1464101615132356 0.85358983848570813 0.1464101615143738 0 1 0.14641016151453831 0.14641016151419689 1 0 0.19999999999955789 1 0 0 0.85358983848650494 0 0.1464101615132356 1 0.20000000000083221 0 1 0.14641016151453831 0.14641016151419689 1 0 0 0.85358983848570813 0.1464101615143738 0 1 0.14641016151453831 0.14641016151419689 1 0 0 0.85358983848650494 0 0.1464101615132356 0.85358983848570813 0.1464101615143738 0 0.79999999999947335 0 0 0.85358983848650494 0 0.1464101615132356 0.69380980079964416 0.1619694349440581 0 0.68592116352011878 0 0.1724872797865501 0.79999999999947335 0 0 0.85358983848650494 0 0.1464101615132356 0.85358983848570813 0.1464101615143738 0 0.69380980079964416 0.1619694349440581 0 0.69380980079964416 0.1619694349440581 0 0.68592116352011878 0 0.1724872797865501 0.5003997205654479 0.21136633249797621 0.2258422409314382 0.68777432594363841 0.31447353261427252 0.31366778418247038 0.85358983848650494 0 0.1464101615132356 0.69380980079964416 0.1619694349440581 0 0.68592116352011878 0 0.1724872797865501 0.68777432594363841 0.31447353261427252 0.31366778418247038 0.79999999999947335 0 0 0.69380980079964416 0.1619694349440581 0 0.68592116352011878 0 0.1724872797865501 0.59999999999894682 0 0 0.3999999999989749 0 0 0.49391845158624981 0 0.1323760430705655 0.59999999999894682 0 0 0.50966790549376417 0.16275515618023731 0 0.69380980079964416 0.1619694349440581 0 0.68592116352011878 0 0.1724872797865501 0.59999999999894682 0 0 0.50966790549376417 0.16275515618023731 0 0.49391845158624981 0 0.1323760430705655 0.68592116352011878 0 0.1724872797865501 0.59999999999894682 0 0 0.50966790549376417 0.16275515618023731 0 0.49391845158624981 0 0.1323760430705655 0.47688326899416439 0 0.31741132792405607 0.68592116352011878 0 0.1724872797865501 0.5003997205654479 0.21136633249797621 0.2258422409314382 0.49391845158624981 0 0.1323760430705655 0.68592116352011878 0 0.1724872797865501 0.5003997205654479 0.21136633249797621 0.2258422409314382 0.50966790549376417 0.16275515618023731 0 0.69380980079964416 0.1619694349440581 0 0.68592116352011878 0 0.1724872797865501 0.5003997205654479 0.21136633249797621 0.2258422409314382 0.50966790549376417 0.16275515618023731 0 0.69380980079964416 0.1619694349440581 0 0.5003997205654479 0.21136633249797621 0.2258422409314382 0.50966790549376417 0.16275515618023731 0 0.6104699881764214 0.32043363027358418 0 0.77713227489941183 0.50036915849493024 0.21774643624003751 0.80839867011859301 0.31807971531731721 0 0.6104699881764214 0.32043363027358418 0 0.68777432594363841 0.31447353261427252 0.31366778418247038 0.69380980079964416 0.1619694349440581 0 0.5003997205654479 0.21136633249797621 0.2258422409314382 0.6104699881764214 0.32043363027358418 0 0.68777432594363841 0.31447353261427252 0.31366778418247038 0.80839867011859301 0.31807971531731721 0 0.69380980079964416 0.1619694349440581 0 0.6104699881764214 0.32043363027358418 0 0.68777432594363841 0.31447353261427252 0.31366778418247038 0.45812322962036273 0.31024977578535839 0 0.5003997205654479 0.21136633249797621 0.2258422409314382 0.50966790549376417 0.16275515618023731 0 0.6104699881764214 0.32043363027358418 0 0.45812322962036273 0.31024977578535839 0 0.5003997205654479 0.21136633249797621 0.2258422409314382 0.6104699881764214 0.32043363027358418 0 0.5004045312576143 0.47050700646456922 0.24963111222780321 0.77713227489941183 0.50036915849493024 0.21774643624003751 0.6104699881764214 0.32043363027358418 0 0.67320508075660079 0.46954769941202479 0 0.5004045312576143 0.47050700646456922 0.24963111222780321 0.5003997205654479 0.21136633249797621 0.2258422409314382 0.6104699881764214 0.32043363027358418 0 0.5004045312576143 0.47050700646456922 0.24963111222780321 0.68777432594363841 0.31447353261427252 0.31366778418247038 0.77713227489941183 0.50036915849493024 0.21774643624003751 0.6104699881764214 0.32043363027358418 0 0.5004045312576143 0.47050700646456922 0.24963111222780321 0.68777432594363841 0.31447353261427252 0.31366778418247038 0.51961524226956368 0.5000000000025091 0 0.6104699881764214 0.32043363027358418 0 0.67320508075660079 0.46954769941202479 0 0.5004045312576143 0.47050700646456922 0.24963111222780321 0.45812322962036273 0.31024977578535839 0 0.51961524226956368 0.5000000000025091 0 0.6104699881764214 0.32043363027358418 0 0.5004045312576143 0.47050700646456922 0.24963111222780321 0.77713227489941183 0.50036915849493024 0.21774643624003751 0.80839867011859301 0.31807971531731721 0 0.6104699881764214 0.32043363027358418 0 0.67320508075660079 0.46954769941202479 0 0.7504488434426726 0.53051757989633308 0.49836643074154852 0.50000000000001332 0.49999999999999561 0.49999999999999561 0.68777432594363841 0.31447353261427252 0.31366778418247038 0.50073570207385831 0.24848280280289631 0.52886631355986169 0.7504488434426726 0.53051757989633308 0.49836643074154852 0.68777432594363841 0.31447353261427252 0.31366778418247038 0.77973766487723961 0.22090161127815711 0.50014622462635805 0.50073570207385831 0.24848280280289631 0.52886631355986169 0.7504488434426726 0.53051757989633308 0.49836643074154852 0.5004045312576143 0.47050700646456922 0.24963111222780321 0.50000000000001332 0.49999999999999561 0.49999999999999561 0.68777432594363841 0.31447353261427252 0.31366778418247038 0.7504488434426726 0.53051757989633308 0.49836643074154852 0.77713227489941183 0.50036915849493024 0.21774643624003751 0.5004045312576143 0.47050700646456922 0.24963111222780321 0.68777432594363841 0.31447353261427252 0.31366778418247038 0.5003997205654479 0.21136633249797621 0.2258422409314382 0.5004045312576143 0.47050700646456922 0.24963111222780321 0.68777432594363841 0.31447353261427252 0.31366778418247038 0.50073570207385831 0.24848280280289631 0.52886631355986169 0.5004045312576143 0.47050700646456922 0.24963111222780321 0.50000000000001332 0.49999999999999561 0.49999999999999561 0.68777432594363841 0.31447353261427252 0.31366778418247038 0.50073570207385831 0.24848280280289631 0.52886631355986169 0.68777432594363841 0.31447353261427252 0.31366778418247038 0.66852282575985944 0 0.3853248791658106 0.83057691269884504 0 0.30018449338884379 0.77973766487723961 0.22090161127815711 0.50014622462635805 0.68592116352011878 0 0.1724872797865501 0.68777432594363841 0.31447353261427252 0.31366778418247038 0.66852282575985944 0 0.3853248791658106 0.83057691269884504 0 0.30018449338884379 0.47688326899416439 0 0.31741132792405607 0.5003997205654479 0.21136633249797621 0.2258422409314382 0.66852282575985944 0 0.3853248791658106 0.50073570207385831 0.24848280280289631 0.52886631355986169 0.66852282575985944 0 0.3853248791658106 0.77973766487723961 0.22090161127815711 0.50014622462635805 0.68969697123394857 0 0.54179813558228873 0.50073570207385831 0.24848280280289631 0.52886631355986169 0.68592116352011878 0 0.1724872797865501 0.5003997205654479 0.21136633249797621 0.2258422409314382 0.68777432594363841 0.31447353261427252 0.31366778418247038 0.66852282575985944 0 0.3853248791658106 0.5003997205654479 0.21136633249797621 0.2258422409314382 0.68777432594363841 0.31447353261427252 0.31366778418247038 0.66852282575985944 0 0.3853248791658106 0.50073570207385831 0.24848280280289631 0.52886631355986169 0.68777432594363841 0.31447353261427252 0.31366778418247038 0.66852282575985944 0 0.3853248791658106 0.77973766487723961 0.22090161127815711 0.50014622462635805 0.50073570207385831 0.24848280280289631 0.52886631355986169 0.47688326899416439 0 0.31741132792405607 0.68592116352011878 0 0.1724872797865501 0.5003997205654479 0.21136633249797621 0.2258422409314382 0.66852282575985944 0 0.3853248791658106 0.47688326899416439 0 0.31741132792405607 0.50000000000250922 0 0.48038475773043671 0.66852282575985944 0 0.3853248791658106 0.50073570207385831 0.24848280280289631 0.52886631355986169 0.50000000000250922 0 0.48038475773043671 0.66852282575985944 0 0.3853248791658106 0.68969697123394857 0 0.54179813558228873 0.50073570207385831 0.24848280280289631 0.52886631355986169 0.66852282575985944 0 0.3853248791658106 0.83534964916824084 0 0.4902996892628636 0.77973766487723961 0.22090161127815711 0.50014622462635805 0.68969697123394857 0 0.54179813558228873 0.68777432594363841 0.31447353261427252 0.31366778418247038 0.83057691269884504 0 0.30018449338884379 1 0.18804489794556911 0.3161072616634244 0.77973766487723961 0.22090161127815711 0.50014622462635805 1 0.14641016151453831 0.14641016151419689 0.68777432594363841 0.31447353261427252 0.31366778418247038 0.83057691269884504 0 0.30018449338884379 1 0.18804489794556911 0.3161072616634244 0.66852282575985944 0 0.3853248791658106 0.83057691269884504 0 0.30018449338884379 0.83534964916824084 0 0.4902996892628636 0.77973766487723961 0.22090161127815711 0.50014622462635805 0.83057691269884504 0 0.30018449338884379 0.83534964916824084 0 0.4902996892628636 1 0.18804489794556911 0.3161072616634244 0.77973766487723961 0.22090161127815711 0.50014622462635805 0.83057691269884504 0 0.30018449338884379 0.83534964916824084 0 0.4902996892628636 1 0 0.3999999999989749 1 0.18804489794556911 0.3161072616634244 0.83534964916824084 0 0.4902996892628636 1 0 0.3999999999989749 1 0.162755156180173 0.50966790549372887 1 0 0.59999999999894682 0.83534964916824084 0 0.4902996892628636 1 0 0.3999999999989749 1 0.18804489794556911 0.3161072616634244 1 0.162755156180173 0.50966790549372887 1 0 0.19999999999955789 0.83057691269884504 0 0.30018449338884379 1 0 0.3999999999989749 1 0.18804489794556911 0.3161072616634244 1 0.18804489794556911 0.3161072616634244 1 0.31024977578542368 0.45812322962028301 1 0.162755156180173 0.50966790549372887 0.77973766487723961 0.22090161127815711 0.50014622462635805 0.83534964916824084 0 0.4902996892628636 1 0.18804489794556911 0.3161072616634244 1 0.162755156180173 0.50966790549372887 0.77973766487723961 0.22090161127815711 0.50014622462635805 0.7504488434426726 0.53051757989633308 0.49836643074154852 0.77713227489941183 0.50036915849493024 0.21774643624003751 0.68777432594363841 0.31447353261427252 0.31366778418247038 1 0.39615100178016449 0.32925244736082498 0.68777432594363841 0.31447353261427252 0.31366778418247038 1 0.18804489794556911 0.3161072616634244 1 0.31024977578542368 0.45812322962028301 1 0.39615100178016449 0.32925244736082498 0.7504488434426726 0.53051757989633308 0.49836643074154852 0.68777432594363841 0.31447353261427252 0.31366778418247038 1 0.31024977578542368 0.45812322962028301 0.77973766487723961 0.22090161127815711 0.50014622462635805 1 0.30074819035868428 0.16929708765640439 0.68777432594363841 0.31447353261427252 0.31366778418247038 1 0.18804489794556911 0.3161072616634244 1 0.39615100178016449 0.32925244736082498 0.68777432594363841 0.31447353261427252 0.31366778418247038 1 0.18804489794556911 0.3161072616634244 1 0.31024977578542368 0.45812322962028301 0.77973766487723961 0.22090161127815711 0.50014622462635805 0.77713227489941183 0.50036915849493024 0.21774643624003751 1 0.30074819035868428 0.16929708765640439 0.68777432594363841 0.31447353261427252 0.31366778418247038 1 0.39615100178016449 0.32925244736082498 0.7504488434426726 0.53051757989633308 0.49836643074154852 0.68777432594363841 0.31447353261427252 0.31366778418247038 1 0.31024977578542368 0.45812322962028301 1 0.39615100178016449 0.32925244736082498 1 0.60020898676431722 0.32446581821274012 0.77713227489941183 0.50036915849493024 0.21774643624003751 1 0.49836539647890021 0.17226134197269399 1 0.39615100178016449 0.32925244736082498 0.7504488434426726 0.53051757989633308 0.49836643074154852 1 0.31024977578542368 0.45812322962028301 1 0.39615100178016449 0.32925244736082498 1 0.50000000000229983 0.51961524226898759 0.7504488434426726 0.53051757989633308 0.49836643074154852 1 0.33579115324550912 0.59952339316293046 0.68742751001967084 0.31250796680084852 0.687427510020161 0.78019141325921404 0.49972466465542442 0.78019141325930785 1 0.39076805646076263 0.7272421105028648 1 0.33579115324550912 0.59952339316293046 0.68742751001967084 0.31250796680084852 0.687427510020161 0.81599560342209843 0.22280203704001911 0.81599560342233202 0.7504488434426726 0.53051757989633308 0.49836643074154852 1 0.33579115324550912 0.59952339316293046 1 0.53045230059030524 0.6732050807565132 1 0.50000000000229983 0.51961524226898759 0.7504488434426726 0.53051757989633308 0.49836643074154852 1 0.31024977578542368 0.45812322962028301 1 0.33579115324550912 0.59952339316293046 0.77973766487723961 0.22090161127815711 0.50014622462635805 1 0.33579115324550912 0.59952339316293046 0.77973766487723961 0.22090161127815711 0.50014622462635805 0.68742751001967084 0.31250796680084852 0.687427510020161 0.81599560342209843 0.22280203704001911 0.81599560342233202 0.7504488434426726 0.53051757989633308 0.49836643074154852 1 0.33579115324550912 0.59952339316293046 0.77973766487723961 0.22090161127815711 0.50014622462635805 0.68742751001967084 0.31250796680084852 0.687427510020161 0.7504488434426726 0.53051757989633308 0.49836643074154852 1 0.33579115324550912 0.59952339316293046 0.78019141325921404 0.49972466465542442 0.78019141325930785 1 0.53045230059030524 0.6732050807565132 1 0.39076805646076263 0.7272421105028648 1 0.33579115324550912 0.59952339316293046 0.68742751001967084 0.31250796680084852 0.687427510020161 0.78019141325921404 0.49972466465542442 0.78019141325930785 0.7504488434426726 0.53051757989633308 0.49836643074154852 1 0.31024977578542368 0.45812322962028301 1 0.33579115324550912 0.59952339316293046 1 0.50000000000229983 0.51961524226898759 1 0.39076805646076263 0.7272421105028648 1 0.33579115324550912 0.59952339316293046 0.78019141325921404 0.49972466465542442 0.78019141325930785 1 0.53045230059030524 0.6732050807565132 1 0.39076805646076263 0.7272421105028648 1 0.33579115324550912 0.59952339316293046 1 0.1912596090855686 0.70565701451953711 0.81599560342209843 0.22280203704001911 0.81599560342233202 1 0.31024977578542368 0.45812322962028301 1 0.33579115324550912 0.59952339316293046 1 0.162755156180173 0.50966790549372887 0.77973766487723961 0.22090161127815711 0.50014622462635805 1 0.162755156180173 0.50966790549372887 1 0.1912596090855686 0.70565701451953711 0.81469961246449951 0 0.68914937826112133 0.77973766487723961 0.22090161127815711 0.50014622462635805 0.81469961246449951 0 0.68914937826112133 0.77973766487723961 0.22090161127815711 0.50014622462635805 0.68742751001967084 0.31250796680084852 0.687427510020161 0.81599560342209843 0.22280203704001911 0.81599560342233202 1 0.1912596090855686 0.70565701451953711 0.81469961246449951 0 0.68914937826112133 0.77973766487723961 0.22090161127815711 0.50014622462635805 0.81599560342209843 0.22280203704001911 0.81599560342233202 1 0.33579115324550912 0.59952339316293046 1 0.1912596090855686 0.70565701451953711 0.77973766487723961 0.22090161127815711 0.50014622462635805 0.81599560342209843 0.22280203704001911 0.81599560342233202 1 0.33579115324550912 0.59952339316293046 1 0.162755156180173 0.50966790549372887 1 0.1912596090855686 0.70565701451953711 0.77973766487723961 0.22090161127815711 0.50014622462635805 1 0.1912596090855686 0.70565701451953711 1 0 0.59999999999894682 0.81469961246449951 0 0.68914937826112133 1 0 0.79999999999947335 1 0.162755156180173 0.50966790549372887 1 0.1912596090855686 0.70565701451953711 1 0 0.59999999999894682 0.81469961246449951 0 0.68914937826112133 0.83534964916824084 0 0.4902996892628636 1 0.162755156180173 0.50966790549372887 1 0 0.59999999999894682 0.81469961246449951 0 0.68914937826112133 0.83534964916824084 0 0.4902996892628636 0.81469961246449951 0 0.68914937826112133 0.77973766487723961 0.22090161127815711 0.50014622462635805 0.68969697123394857 0 0.54179813558228873 0.83534964916824084 0 0.4902996892628636 1 0.162755156180173 0.50966790549372887 0.81469961246449951 0 0.68914937826112133 0.77973766487723961 0.22090161127815711 0.50014622462635805 0.68969697123394857 0 0.54179813558228873 0.6002015905170176 0 0.67551889168744117 0.50073570207385831 0.24848280280289631 0.52886631355986169 0.68742751001967084 0.31250796680084852 0.687427510020161 0.81469961246449951 0 0.68914937826112133 0.68969697123394857 0 0.54179813558228873 0.6002015905170176 0 0.67551889168744117 0.68742751001967084 0.31250796680084852 0.687427510020161 0.81469961246449951 0 0.68914937826112133 0.77973766487723961 0.22090161127815711 0.50014622462635805 0.68969697123394857 0 0.54179813558228873 0.68742751001967084 0.31250796680084852 0.687427510020161 0.6002015905170176 0 0.67551889168744117 0.68742751001967084 0.31250796680084852 0.687427510020161 0.50084626324420545 0.22238844715913 0.78084811589659187 0.69447607299129699 0 0.84099946107689361 0.77973766487723961 0.22090161127815711 0.50014622462635805 0.68969697123394857 0 0.54179813558228873 0.50073570207385831 0.24848280280289631 0.52886631355986169 0.68742751001967084 0.31250796680084852 0.687427510020161 0.6002015905170176 0 0.67551889168744117 0.50073570207385831 0.24848280280289631 0.52886631355986169 0.68742751001967084 0.31250796680084852 0.687427510020161 0.50084626324420545 0.22238844715913 0.78084811589659187 0.81469961246449951 0 0.68914937826112133 0.6002015905170176 0 0.67551889168744117 0.68742751001967084 0.31250796680084852 0.687427510020161 0.81599560342209843 0.22280203704001911 0.81599560342233202 0.50000000000250922 0 0.48038475773043671 0.68969697123394857 0 0.54179813558228873 0.6002015905170176 0 0.67551889168744117 0.50073570207385831 0.24848280280289631 0.52886631355986169 0.50000000000001332 0.49999999999999561 0.49999999999999561 0.50073570207385831 0.24848280280289631 0.52886631355986169 0.68742751001967084 0.31250796680084852 0.687427510020161 0.49816183246753282 0.5307146639261795 0.75045686993209071 0.7504488434426726 0.53051757989633308 0.49836643074154852 0.50000000000001332 0.49999999999999561 0.49999999999999561 0.50073570207385831 0.24848280280289631 0.52886631355986169 0.68742751001967084 0.31250796680084852 0.687427510020161 0.7504488434426726 0.53051757989633308 0.49836643074154852 0.50000000000001332 0.49999999999999561 0.49999999999999561 0.68742751001967084 0.31250796680084852 0.687427510020161 0.49816183246753282 0.5307146639261795 0.75045686993209071 0.7504488434426726 0.53051757989633308 0.49836643074154852 0.68742751001967084 0.31250796680084852 0.687427510020161 0.78019141325921404 0.49972466465542442 0.78019141325930785 0.49816183246753282 0.5307146639261795 0.75045686993209071 0.50073570207385831 0.24848280280289631 0.52886631355986169 0.68742751001967084 0.31250796680084852 0.687427510020161 0.50084626324420545 0.22238844715913 0.78084811589659187 0.49816183246753282 0.5307146639261795 0.75045686993209071 0.7504488434426726 0.53051757989633308 0.49836643074154852 0.77973766487723961 0.22090161127815711 0.50014622462635805 0.50073570207385831 0.24848280280289631 0.52886631355986169 0.68742751001967084 0.31250796680084852 0.687427510020161 0.59952339316492498 0.33579115324593939 1 0.50084626324420545 0.22238844715913 0.78084811589659187 0.49816183246753282 0.5307146639261795 0.75045686993209071 0.45812322962173568 0.31024977578554058 1 0.68742751001967084 0.31250796680084852 0.687427510020161 0.72724211050425436 0.39076805646176382 1 0.59952339316492498 0.33579115324593939 1 0.81599560342209843 0.22280203704001911 0.81599560342233202 0.68742751001967084 0.31250796680084852 0.687427510020161 0.59952339316492498 0.33579115324593939 1 0.78019141325921404 0.49972466465542442 0.78019141325930785 0.49816183246753282 0.5307146639261795 0.75045686993209071 0.68742751001967084 0.31250796680084852 0.687427510020161 0.59952339316492498 0.33579115324593939 1 0.50084626324420545 0.22238844715913 0.78084811589659187 0.81599560342209843 0.22280203704001911 0.81599560342233202 0.68742751001967084 0.31250796680084852 0.687427510020161 0.59952339316492498 0.33579115324593939 1 0.50084626324420545 0.22238844715913 0.78084811589659187 0.49816183246753282 0.5307146639261795 0.75045686993209071 0.68742751001967084 0.31250796680084852 0.687427510020161 0.72724211050425436 0.39076805646176382 1 0.59952339316492498 0.33579115324593939 1 0.78019141325921404 0.49972466465542442 0.78019141325930785 0.59952339316492498 0.33579115324593939 1 0.78019141325921404 0.49972466465542442 0.78019141325930785 0.67320508075671459 0.53045230059073867 1 0.49816183246753282 0.5307146639261795 0.75045686993209071 0.72724211050425436 0.39076805646176382 1 0.59952339316492498 0.33579115324593939 1 0.70565701452089868 0.1912596090858541 1 0.81599560342209843 0.22280203704001911 0.81599560342233202 0.72724211050425436 0.39076805646176382 1 0.59952339316492498 0.33579115324593939 1 0.78019141325921404 0.49972466465542442 0.78019141325930785 0.67320508075671459 0.53045230059073867 1 0.59952339316492498 0.33579115324593939 1 0.51961524226934941 0.50000000000250611 1 0.49816183246753282 0.5307146639261795 0.75045686993209071 0.45812322962173568 0.31024977578554058 1 0.59952339316492498 0.33579115324593939 1 0.67320508075671459 0.53045230059073867 1 0.51961524226934941 0.50000000000250611 1 0.49816183246753282 0.5307146639261795 0.75045686993209071 0.59952339316492498 0.33579115324593939 1 0.50966790549576724 0.1627551561802443 1 0.50084626324420545 0.22238844715913 0.78084811589659187 0.45812322962173568 0.31024977578554058 1 0.50966790549576724 0.1627551561802443 1 0.50084626324420545 0.22238844715913 0.78084811589659187 0.69447607299129699 0 0.84099946107689361 0.70565701452089868 0.1912596090858541 1 0.68742751001967084 0.31250796680084852 0.687427510020161 0.50084626324420545 0.22238844715913 0.78084811589659187 0.69447607299129699 0 0.84099946107689361 0.81599560342209843 0.22280203704001911 0.81599560342233202 0.50084626324420545 0.22238844715913 0.78084811589659187 0.69447607299129699 0 0.84099946107689361 0.70565701452089868 0.1912596090858541 1 0.81599560342209843 0.22280203704001911 0.81599560342233202 0.59952339316492498 0.33579115324593939 1 0.50084626324420545 0.22238844715913 0.78084811589659187 0.70565701452089868 0.1912596090858541 1 0.81599560342209843 0.22280203704001911 0.81599560342233202 0.59952339316492498 0.33579115324593939 1 0.50966790549576724 0.1627551561802443 1 0.50084626324420545 0.22238844715913 0.78084811589659187 0.70565701452089868 0.1912596090858541 1 0.6002015905170176 0 0.67551889168744117 0.68742751001967084 0.31250796680084852 0.687427510020161 0.69447607299129699 0 0.84099946107689361 0.81599560342209843 0.22280203704001911 0.81599560342233202 0.6002015905170176 0 0.67551889168744117 0.50084626324420545 0.22238844715913 0.78084811589659187 0.69447607299129699 0 0.84099946107689361 0.49836539647917322 0 0.82773865802723501 0.50966790549576724 0.1627551561802443 1 0.50084626324420545 0.22238844715913 0.78084811589659187 0.69447607299129699 0 0.84099946107689361 0.49836539647917322 0 0.82773865802723501 0.50966790549576724 0.1627551561802443 1 0.60000000000138687 0 1 0.69447607299129699 0 0.84099946107689361 0.49836539647917322 0 0.82773865802723501 0.50966790549576724 0.1627551561802443 1 0.60000000000138687 0 1 0.49836539647917322 0 0.82773865802723501 0.40000000000166441 0 1 0.50966790549576724 0.1627551561802443 1 0.60000000000138687 0 1 0.69447607299129699 0 0.84099946107689361 0.70565701452089868 0.1912596090858541 1 0.60000000000138687 0 1 0.69447607299129699 0 0.84099946107689361 0.70565701452089868 0.1912596090858541 1 0.79999999999999982 0 1 0.81469961246449951 0 0.68914937826112133 0.6002015905170176 0 0.67551889168744117 0.69447607299129699 0 0.84099946107689361 0.81599560342209843 0.22280203704001911 0.81599560342233202 0.69447607299129699 0 0.84099946107689361 0.70565701452089868 0.1912596090858541 1 0.85358983848646974 0.14641016151341191 1 0.81599560342209843 0.22280203704001911 0.81599560342233202 0.70565701452089868 0.1912596090858541 1 0.85358983848646974 0.14641016151341191 1 0.81599560342209843 0.22280203704001911 0.81599560342233202 0.85173693729199718 0.30007817960516198 1 1 0.1912596090855686 0.70565701451953711 0.81469961246449951 0 0.68914937826112133 0.81599560342209843 0.22280203704001911 0.81599560342233202 0.85358983848570524 0 0.85358983848556425 0.81469961246449951 0 0.68914937826112133 0.69447607299129699 0 0.84099946107689361 0.81599560342209843 0.22280203704001911 0.81599560342233202 0.85358983848570524 0 0.85358983848556425 0.69447607299129699 0 0.84099946107689361 0.85358983848646974 0.14641016151341191 1 0.81599560342209843 0.22280203704001911 0.81599560342233202 0.85358983848570524 0 0.85358983848556425 0.69447607299129699 0 0.84099946107689361 0.70565701452089868 0.1912596090858541 1 0.85358983848646974 0.14641016151341191 1 0.79999999999999982 0 1 0.69447607299129699 0 0.84099946107689361 0.85358983848646974 0.14641016151341191 1 0.85358983848570524 0 0.85358983848556425 0.79999999999999982 0 1 0.85358983848646974 0.14641016151341191 1 0.85358983848570524 0 0.85358983848556425 1 0 1 1 0.14641016151333891 0.85358983848640169 0.85358983848646974 0.14641016151341191 1 0.85358983848570524 0 0.85358983848556425 0.79999999999999982 0 1 1 0 1 0.85358983848646974 0.14641016151341191 1 1 0 1 1 0.14641016151333891 0.85358983848640169 1 0.19999999999955789 1 0.85358983848570524 0 0.85358983848556425 1 0 1 1 0 0.79999999999947335 1 0.14641016151333891 0.85358983848640169 1 0.1912596090855686 0.70565701451953711 0.81469961246449951 0 0.68914937826112133 0.85358983848570524 0 0.85358983848556425 1 0 0.79999999999947335 1 0.1912596090855686 0.70565701451953711 0.85358983848570524 0 0.85358983848556425 1 0 0.79999999999947335 1 0.14641016151333891 0.85358983848640169 1 0.1912596090855686 0.70565701451953711 0.81599560342209843 0.22280203704001911 0.81599560342233202 1 0.14641016151333891 0.85358983848640169 1 0.30007817960499339 0.85173693729139244 1 0.1912596090855686 0.70565701451953711 0.81599560342209843 0.22280203704001911 0.81599560342233202 0.85358983848570524 0 0.85358983848556425 1 0.14641016151333891 0.85358983848640169 0.85358983848646974 0.14641016151341191 1 0.81599560342209843 0.22280203704001911 0.81599560342233202 1 0.19999999999955789 1 0.85173693729199718 0.30007817960516198 1 0.85358983848646974 0.14641016151341191 1 0.81599560342209843 0.22280203704001911 0.81599560342233202 1 0.14641016151333891 0.85358983848640169 1 0.19999999999955789 1 0.81599560342209843 0.22280203704001911 0.81599560342233202 1 0.14641016151333891 0.85358983848640169 1 0.19999999999955789 1 1 0.30007817960499339 0.85173693729139244 0.85358983848646974 0.14641016151341191 1 0.81599560342209843 0.22280203704001911 0.81599560342233202 0.85358983848570524 0 0.85358983848556425 1 0.14641016151333891 0.85358983848640169 1 0.19999999999955789 1 0.85173693729199718 0.30007817960516198 1 1 0.30007817960499339 0.85173693729139244 1 0.3999999999989749 1 0.81599560342209843 0.22280203704001911 0.81599560342233202 1 0.19999999999955789 1 0.85173693729199718 0.30007817960516198 1 1 0.30007817960499339 0.85173693729139244 0.81599560342209843 0.22280203704001911 0.81599560342233202 0.85173693729199718 0.30007817960516198 1 1 0.30007817960499339 0.85173693729139244 0.78019141325921404 0.49972466465542442 0.78019141325930785 0.68742751001967084 0.31250796680084852 0.687427510020161 0.72724211050425436 0.39076805646176382 1 0.81599560342209843 0.22280203704001911 0.81599560342233202 0.78019141325921404 0.49972466465542442 0.78019141325930785 1 0.39076805646076263 0.7272421105028648 0.81599560342209843 0.22280203704001911 0.81599560342233202 1 0.30007817960499339 0.85173693729139244 0.78019141325921404 0.49972466465542442 0.78019141325930785 0.72724211050425436 0.39076805646176382 1 0.81599560342209843 0.22280203704001911 0.81599560342233202 0.85173693729199718 0.30007817960516198 1 0.78019141325921404 0.49972466465542442 0.78019141325930785 1 0.39076805646076263 0.7272421105028648 0.68742751001967084 0.31250796680084852 0.687427510020161 0.81599560342209843 0.22280203704001911 0.81599560342233202 0.78019141325921404 0.49972466465542442 0.78019141325930785 0.85173693729199718 0.30007817960516198 1 1 0.30007817960499339 0.85173693729139244 1 0.48813836695007229 0.84191918937727617 1 0.3999999999989749 1 0.72724211050425436 0.39076805646176382 1 0.70565701452089868 0.1912596090858541 1 0.81599560342209843 0.22280203704001911 0.81599560342233202 0.85173693729199718 0.30007817960516198 1 1 0.39076805646076263 0.7272421105028648 1 0.1912596090855686 0.70565701451953711 0.81599560342209843 0.22280203704001911 0.81599560342233202 1 0.30007817960499339 0.85173693729139244 0.85173693729199718 0.30007817960516198 1 1 0.30007817960499339 0.85173693729139244 1 0.48813836695007229 0.84191918937727617 0.78019141325921404 0.49972466465542442 0.78019141325930785 1 0.39076805646076263 0.7272421105028648 1 0.30007817960499339 0.85173693729139244 1 0.48813836695007229 0.84191918937727617 0.78019141325921404 0.49972466465542442 0.78019141325930785 1 0.39076805646076263 0.7272421105028648 1 0.48813836695007229 0.84191918937727617 0.78019141325921404 0.49972466465542442 0.78019141325930785 1 0.53045230059030524 0.6732050807565132 0.72724211050425436 0.39076805646176382 1 0.78019141325921404 0.49972466465542442 0.78019141325930785 0.84191918937756771 0.48813836695034618 1 0.67320508075671459 0.53045230059073867 1 0.72724211050425436 0.39076805646176382 1 0.85173693729199718 0.30007817960516198 1 0.78019141325921404 0.49972466465542442 0.78019141325930785 0.84191918937756771 0.48813836695034618 1 0.85173693729199718 0.30007817960516198 1 1 0.48813836695007229 0.84191918937727617 0.78019141325921404 0.49972466465542442 0.78019141325930785 0.84191918937756771 0.48813836695034618 1 1 0.48813836695007229 0.84191918937727617 0.84191918937756771 0.48813836695034618 1 1 0.3999999999989749 1 1 0.59999999999894682 1 0.85173693729199718 0.30007817960516198 1 1 0.48813836695007229 0.84191918937727617 0.84191918937756771 0.48813836695034618 1 1 0.3999999999989749 1 0.78019141325921404 0.49972466465542442 0.78019141325930785 0.80839867011861499 0.68192028468377774 1 0.77683220420328725 0.81278569633583353 0.81664766512111064 0.68649174659499257 0.68600703198516766 0.6864917465949647 0.78019141325921404 0.49972466465542442 0.78019141325930785 0.80839867011861499 0.68192028468377774 1 1 0.68192028468364885 0.80839867011854549 0.77683220420328725 0.81278569633583353 0.81664766512111064 1 0.48813836695007229 0.84191918937727617 0.84191918937756771 0.48813836695034618 1 1 0.59999999999894682 1 1 0.68192028468364885 0.80839867011854549 0.78019141325921404 0.49972466465542442 0.78019141325930785 1 0.68192028468364885 0.80839867011854549 0.77683220420328725 0.81278569633583353 0.81664766512111064 0.68649174659499257 0.68600703198516766 0.6864917465949647 0.84191918937756771 0.48813836695034618 1 1 0.59999999999894682 1 0.80839867011861499 0.68192028468377774 1 1 0.68192028468364885 0.80839867011854549 1 0.59999999999894682 1 0.80839867011861499 0.68192028468377774 1 1 0.68192028468364885 0.80839867011854549 1 0.79999999999947335 1 0.78019141325921404 0.49972466465542442 0.78019141325930785 0.84191918937756771 0.48813836695034618 1 0.80839867011861499 0.68192028468377774 1 0.67320508075671459 0.53045230059073867 1 0.78019141325921404 0.49972466465542442 0.78019141325930785 0.84191918937756771 0.48813836695034618 1 0.80839867011861499 0.68192028468377774 1 1 0.68192028468364885 0.80839867011854549 1 0.48813836695007229 0.84191918937727617 0.78019141325921404 0.49972466465542442 0.78019141325930785 1 0.68192028468364885 0.80839867011854549 1 0.53045230059030524 0.6732050807565132 1 0.48813836695007229 0.84191918937727617 0.78019141325921404 0.49972466465542442 0.78019141325930785 0.84191918937756771 0.48813836695034618 1 1 0.68192028468364885 0.80839867011854549 0.7504488434426726 0.53051757989633308 0.49836643074154852 0.78019141325921404 0.49972466465542442 0.78019141325930785 1 0.53045230059030524 0.6732050807565132 1 0.67939035495490308 0.61016512164639347 0.77374673111774417 0.78860835645735528 0.49829081152968557 0.7504488434426726 0.53051757989633308 0.49836643074154852 1 0.67939035495490308 0.61016512164639347 0.68649174659499257 0.68600703198516766 0.6864917465949647 0.77374673111774417 0.78860835645735528 0.49829081152968557 1 0.67939035495490308 0.61016512164639347 1 0.83791821520125753 0.69361520514217179 0.68649174659499257 0.68600703198516766 0.6864917465949647 1 0.68192028468364885 0.80839867011854549 1 0.67939035495490308 0.61016512164639347 0.77683220420328725 0.81278569633583353 0.81664766512111064 0.68649174659499257 0.68600703198516766 0.6864917465949647 0.77374673111774417 0.78860835645735528 0.49829081152968557 1 0.68975022421527898 0.45812322962078778 0.7504488434426726 0.53051757989633308 0.49836643074154852 1 0.67939035495490308 0.61016512164639347 0.7504488434426726 0.53051757989633308 0.49836643074154852 0.78019141325921404 0.49972466465542442 0.78019141325930785 1 0.67939035495490308 0.61016512164639347 0.68649174659499257 0.68600703198516766 0.6864917465949647 0.78019141325921404 0.49972466465542442 0.78019141325930785 1 0.68192028468364885 0.80839867011854549 1 0.67939035495490308 0.61016512164639347 0.68649174659499257 0.68600703198516766 0.6864917465949647 0.78019141325921404 0.49972466465542442 0.78019141325930785 1 0.68192028468364885 0.80839867011854549 1 0.53045230059030524 0.6732050807565132 1 0.67939035495490308 0.61016512164639347 0.7504488434426726 0.53051757989633308 0.49836643074154852 1 0.53045230059030524 0.6732050807565132 1 0.50000000000229983 0.51961524226898759 1 0.67939035495490308 0.61016512164639347 1 0.68975022421527898 0.45812322962078778 0.7504488434426726 0.53051757989633308 0.49836643074154852 1 0.50000000000229983 0.51961524226898759 1 0.67939035495490308 0.61016512164639347 0.77374673111774417 0.78860835645735528 0.49829081152968557 1 0.68975022421527898 0.45812322962078778 1 0.67939035495490308 0.61016512164639347 1 0.83630110503662825 0.50803330197135588 0.77374673111774417 0.78860835645735528 0.49829081152968557 1 0.83791821520125753 0.69361520514217179 0.77683220420328725 0.81278569633583353 0.81664766512111064 0.68649174659499257 0.68600703198516766 0.6864917465949647 0.77374673111774417 0.78860835645735528 0.49829081152968557 0.81346205468287114 1 0.68420958956387889 0.77683220420328725 0.81278569633583353 0.81664766512111064 0.68649174659499257 0.68600703198516766 0.6864917465949647 1 0.67939035495490308 0.61016512164639347 1 0.83791821520125753 0.69361520514217179 0.77683220420328725 0.81278569633583353 0.81664766512111064 0.68649174659499257 0.68600703198516766 0.6864917465949647 1 0.68192028468364885 0.80839867011854549 1 0.67939035495490308 0.61016512164639347 1 0.83791821520125753 0.69361520514217179 0.77683220420328725 0.81278569633583353 0.81664766512111064 0.77374673111774417 0.78860835645735528 0.49829081152968557 1 0.83791821520125753 0.69361520514217179 0.81346205468287114 1 0.68420958956387889 0.77683220420328725 0.81278569633583353 0.81664766512111064 0.77374673111774417 0.78860835645735528 0.49829081152968557 1 0.67939035495490308 0.61016512164639347 1 0.83791821520125753 0.69361520514217179 1 0.83630110503662825 0.50803330197135588 0.77374673111774417 0.78860835645735528 0.49829081152968557 1 0.83791821520125753 0.69361520514217179 1 0.83630110503662825 0.50803330197135588 0.86762395692956074 1 0.5060815484123421 1 0.83791821520125753 0.69361520514217179 1 0.83630110503662825 0.50803330197135588 1 1 0.59999999999894682 0.86762395692956074 1 0.5060815484123421 1 1 0.3999999999989749 1 0.83630110503662825 0.50803330197135588 1 1 0.59999999999894682 0.86762395692956074 1 0.5060815484123421 1 0.83791821520125753 0.69361520514217179 1 1 0.59999999999894682 0.86762395692956074 1 0.5060815484123421 0.81346205468287114 1 0.68420958956387889 0.77374673111774417 0.78860835645735528 0.49829081152968557 0.86762395692956074 1 0.5060815484123421 0.81346205468287114 1 0.68420958956387889 0.68240285647621723 1 0.52310058211166854 0.77374673111774417 0.78860835645735528 0.49829081152968557 1 0.83791821520125753 0.69361520514217179 0.86762395692956074 1 0.5060815484123421 0.81346205468287114 1 0.68420958956387889 1 0.83791821520125753 0.69361520514217179 1 1 0.59999999999894682 0.81346205468287114 1 0.68420958956387889 1 1 0.79999999999947335 1 0.83791821520125753 0.69361520514217179 0.81346205468287114 1 0.68420958956387889 1 1 0.79999999999947335 0.85358983848569092 1 0.85358983848569092 1 0.83791821520125753 0.69361520514217179 1 0.85358983848587056 0.85358983848587056 0.77683220420328725 0.81278569633583353 0.81664766512111064 0.85358983848569092 1 0.85358983848569092 1 0.83791821520125753 0.69361520514217179 1 1 0.79999999999947335 1 0.85358983848587056 0.85358983848587056 0.85358983848569092 1 0.85358983848569092 1 1 1 1 0.79999999999947335 1 1 0.85358983848587056 0.85358983848587056 0.85358983848587056 0.85358983848587056 1 1 1 1 0.85358983848587056 0.85358983848587056 1 0.79999999999947335 1 1 0.85358983848569092 1 0.85358983848569092 1 1 0.79999999999947335 1 1 1 1 0.85358983848587056 0.85358983848587056 0.85358983848569092 1 0.85358983848569092 1 1 1 1 0.85358983848587056 0.85358983848587056 0.85358983848587056 0.85358983848587056 1 0.85358983848569092 1 0.85358983848569092 1 0.68192028468364885 0.80839867011854549 1 0.79999999999947335 1 1 0.85358983848587056 0.85358983848587056 0.85358983848587056 0.85358983848587056 1 0.80839867011861499 0.68192028468377774 1 1 0.68192028468364885 0.80839867011854549 1 0.79999999999947335 1 0.85358983848587056 0.85358983848587056 1 1 0.68192028468364885 0.80839867011854549 1 0.85358983848587056 0.85358983848587056 0.77683220420328725 0.81278569633583353 0.81664766512111064 0.85358983848587056 0.85358983848587056 1 1 0.68192028468364885 0.80839867011854549 1 0.83791821520125753 0.69361520514217179 1 0.85358983848587056 0.85358983848587056 0.77683220420328725 0.81278569633583353 0.81664766512111064 0.80839867011861499 0.68192028468377774 1 0.77683220420328725 0.81278569633583353 0.81664766512111064 0.85358983848587056 0.85358983848587056 1 0.69361520514218133 0.83791821520130205 1 0.80839867011861499 0.68192028468377774 1 1 0.68192028468364885 0.80839867011854549 0.77683220420328725 0.81278569633583353 0.81664766512111064 0.85358983848587056 0.85358983848587056 1 0.77683220420328725 0.81278569633583353 0.81664766512111064 0.85358983848587056 0.85358983848587056 1 0.79999999999947335 1 1 0.85358983848569092 1 0.85358983848569092 0.77683220420328725 0.81278569633583353 0.81664766512111064 0.79999999999947335 1 1 0.85358983848569092 1 0.85358983848569092 0.69981550660938663 1 0.83057691269844081 0.77683220420328725 0.81278569633583353 0.81664766512111064 0.85358983848587056 0.85358983848587056 1 0.79999999999947335 1 1 0.69361520514218133 0.83791821520130205 1 1 0.85358983848587056 0.85358983848587056 0.77683220420328725 0.81278569633583353 0.81664766512111064 0.85358983848587056 0.85358983848587056 1 0.85358983848569092 1 0.85358983848569092 0.81346205468287114 1 0.68420958956387889 0.77683220420328725 0.81278569633583353 0.81664766512111064 0.85358983848569092 1 0.85358983848569092 0.69981550660938663 1 0.83057691269844081 1 0.83791821520125753 0.69361520514217179 0.81346205468287114 1 0.68420958956387889 0.77683220420328725 0.81278569633583353 0.81664766512111064 0.85358983848569092 1 0.85358983848569092 0.77683220420328725 0.81278569633583353 0.81664766512111064 0.69981550660938663 1 0.83057691269844081 0.69361520514218133 0.83791821520130205 1 0.49911199724958061 0.77872228561593948 0.77895350115271889 0.77683220420328725 0.81278569633583353 0.81664766512111064 0.69361520514218133 0.83791821520130205 1 0.61016512164652226 0.67939035495506384 1 0.49911199724958061 0.77872228561593948 0.77895350115271889 0.81346205468287114 1 0.68420958956387889 0.77683220420328725 0.81278569633583353 0.81664766512111064 0.69981550660938663 1 0.83057691269844081 0.6123333432449789 1 0.67837347745467769 0.77683220420328725 0.81278569633583353 0.81664766512111064 0.69981550660938663 1 0.83057691269844081 0.6123333432449789 1 0.67837347745467769 0.49911199724958061 0.77872228561593948 0.77895350115271889 0.77683220420328725 0.81278569633583353 0.81664766512111064 0.79999999999947335 1 1 0.69981550660938663 1 0.83057691269844081 0.69361520514218133 0.83791821520130205 1 0.69981550660938663 1 0.83057691269844081 0.69361520514218133 0.83791821520130205 1 0.59999999999894682 1 1 0.50970031073508926 1 0.83534964916803001 0.79999999999947335 1 1 0.69981550660938663 1 0.83057691269844081 0.69361520514218133 0.83791821520130205 1 0.59999999999894682 1 1 0.80839867011861499 0.68192028468377774 1 0.77683220420328725 0.81278569633583353 0.81664766512111064 0.69361520514218133 0.83791821520130205 1 0.61016512164652226 0.67939035495506384 1 0.69361520514218133 0.83791821520130205 1 0.50803330197137353 0.83630110503667787 1 0.61016512164652226 0.67939035495506384 1 0.49911199724958061 0.77872228561593948 0.77895350115271889 0.69361520514218133 0.83791821520130205 1 0.50803330197137353 0.83630110503667787 1 0.50970031073508926 1 0.83534964916803001 0.49911199724958061 0.77872228561593948 0.77895350115271889 0.50803330197137353 0.83630110503667787 1 0.59999999999894682 1 1 0.50970031073508926 1 0.83534964916803001 0.3999999999989749 1 1 0.69361520514218133 0.83791821520130205 1 0.50803330197137353 0.83630110503667787 1 0.59999999999894682 1 1 0.50970031073508926 1 0.83534964916803001 0.69981550660938663 1 0.83057691269844081 0.69361520514218133 0.83791821520130205 1 0.50970031073508926 1 0.83534964916803001 0.49911199724958061 0.77872228561593948 0.77895350115271889 0.69981550660938663 1 0.83057691269844081 0.50970031073508926 1 0.83534964916803001 0.6123333432449789 1 0.67837347745467769 0.49911199724958061 0.77872228561593948 0.77895350115271889 0.6123333432449789 1 0.67837347745467769 0.68649174659499257 0.68600703198516766 0.6864917465949647 0.49983993748706529 0.75039103705932653 0.52967335724801234 0.49911199724958061 0.77872228561593948 0.77895350115271889 0.77374673111774417 0.78860835645735528 0.49829081152968557 0.6123333432449789 1 0.67837347745467769 0.68240285647621723 1 0.52310058211166854 0.49983993748706529 0.75039103705932653 0.52967335724801234 0.6123333432449789 1 0.67837347745467769 0.49983993748706529 0.75039103705932653 0.52967335724801234 0.45820186441573879 1 0.68969697123405882 0.49911199724958061 0.77872228561593948 0.77895350115271889 0.50970031073508926 1 0.83534964916803001 0.6123333432449789 1 0.67837347745467769 0.45820186441573879 1 0.68969697123405882 0.49911199724958061 0.77872228561593948 0.77895350115271889 0.77374673111774417 0.78860835645735528 0.49829081152968557 0.6123333432449789 1 0.67837347745467769 0.68649174659499257 0.68600703198516766 0.6864917465949647 0.49983993748706529 0.75039103705932653 0.52967335724801234 0.81346205468287114 1 0.68420958956387889 0.77683220420328725 0.81278569633583353 0.81664766512111064 0.6123333432449789 1 0.67837347745467769 0.68649174659499257 0.68600703198516766 0.6864917465949647 0.77683220420328725 0.81278569633583353 0.81664766512111064 0.6123333432449789 1 0.67837347745467769 0.68649174659499257 0.68600703198516766 0.6864917465949647 0.49911199724958061 0.77872228561593948 0.77895350115271889 0.77374673111774417 0.78860835645735528 0.49829081152968557 0.81346205468287114 1 0.68420958956387889 0.6123333432449789 1 0.67837347745467769 0.68649174659499257 0.68600703198516766 0.6864917465949647 0.77374673111774417 0.78860835645735528 0.49829081152968557 0.81346205468287114 1 0.68420958956387889 0.6123333432449789 1 0.67837347745467769 0.68240285647621723 1 0.52310058211166854 0.51961524227008238 1 0.49999999999872219 0.6123333432449789 1 0.67837347745467769 0.49983993748706529 0.75039103705932653 0.52967335724801234 0.45820186441573879 1 0.68969697123405882 0.51961524227008238 1 0.49999999999872219 0.6123333432449789 1 0.67837347745467769 0.68240285647621723 1 0.52310058211166854 0.49983993748706529 0.75039103705932653 0.52967335724801234 0.68649174659499257 0.68600703198516766 0.6864917465949647 0.49816183246753282 0.5307146639261795 0.75045686993209071 0.49983993748706529 0.75039103705932653 0.52967335724801234 0.49911199724958061 0.77872228561593948 0.77895350115271889 0.7504488434426726 0.53051757989633308 0.49836643074154852 0.50000000000001332 0.49999999999999561 0.49999999999999561 0.68649174659499257 0.68600703198516766 0.6864917465949647 0.49816183246753282 0.5307146639261795 0.75045686993209071 0.7504488434426726 0.53051757989633308 0.49836643074154852 0.78019141325921404 0.49972466465542442 0.78019141325930785 0.68649174659499257 0.68600703198516766 0.6864917465949647 0.49816183246753282 0.5307146639261795 0.75045686993209071 0.7504488434426726 0.53051757989633308 0.49836643074154852 0.50000000000001332 0.49999999999999561 0.49999999999999561 0.68649174659499257 0.68600703198516766 0.6864917465949647 0.49983993748706529 0.75039103705932653 0.52967335724801234 0.77374673111774417 0.78860835645735528 0.49829081152968557 0.7504488434426726 0.53051757989633308 0.49836643074154852 0.68649174659499257 0.68600703198516766 0.6864917465949647 0.49983993748706529 0.75039103705932653 0.52967335724801234 0.50000000000001332 0.49999999999999561 0.49999999999999561 0.68649174659499257 0.68600703198516766 0.6864917465949647 0.49816183246753282 0.5307146639261795 0.75045686993209071 0.49983993748706529 0.75039103705932653 0.52967335724801234 0.78019141325921404 0.49972466465542442 0.78019141325930785 0.67320508075671459 0.53045230059073867 1 0.61016512164652226 0.67939035495506384 1 0.49816183246753282 0.5307146639261795 0.75045686993209071 0.78019141325921404 0.49972466465542442 0.78019141325930785 0.68649174659499257 0.68600703198516766 0.6864917465949647 0.61016512164652226 0.67939035495506384 1 0.49816183246753282 0.5307146639261795 0.75045686993209071 0.78019141325921404 0.49972466465542442 0.78019141325930785 0.80839867011861499 0.68192028468377774 1 0.68649174659499257 0.68600703198516766 0.6864917465949647 0.61016512164652226 0.67939035495506384 1 0.77683220420328725 0.81278569633583353 0.81664766512111064 0.68649174659499257 0.68600703198516766 0.6864917465949647 0.61016512164652226 0.67939035495506384 1 0.49911199724958061 0.77872228561593948 0.77895350115271889 0.68649174659499257 0.68600703198516766 0.6864917465949647 0.61016512164652226 0.67939035495506384 1 0.49816183246753282 0.5307146639261795 0.75045686993209071 0.49911199724958061 0.77872228561593948 0.77895350115271889 0.80839867011861499 0.68192028468377774 1 0.77683220420328725 0.81278569633583353 0.81664766512111064 0.68649174659499257 0.68600703198516766 0.6864917465949647 0.61016512164652226 0.67939035495506384 1 0.78019141325921404 0.49972466465542442 0.78019141325930785 0.80839867011861499 0.68192028468377774 1 0.67320508075671459 0.53045230059073867 1 0.61016512164652226 0.67939035495506384 1 0.61016512164652226 0.67939035495506384 1 0.45812322962090041 0.68975022421538157 1 0.49816183246753282 0.5307146639261795 0.75045686993209071 0.49911199724958061 0.77872228561593948 0.77895350115271889 0.50803330197137353 0.83630110503667787 1 0.61016512164652226 0.67939035495506384 1 0.45812322962090041 0.68975022421538157 1 0.49911199724958061 0.77872228561593948 0.77895350115271889 0.61016512164652226 0.67939035495506384 1 0.51961524226934941 0.50000000000250611 1 0.45812322962090041 0.68975022421538157 1 0.49816183246753282 0.5307146639261795 0.75045686993209071 0.67320508075671459 0.53045230059073867 1 0.61016512164652226 0.67939035495506384 1 0.51961524226934941 0.50000000000250611 1 0.49816183246753282 0.5307146639261795 0.75045686993209071 0.32446581821293602 0.60020898676440626 1 0.3115891413135391 0.68758981780459771 0.68521708032990558 0.18453958615733529 0.77655623474864555 0.81613222483915937 0.2184393375098648 0.50004596894495223 0.77634962490704662 0.51961524226934941 0.50000000000250611 1 0.32446581821293602 0.60020898676440626 1 0.49816183246753282 0.5307146639261795 0.75045686993209071 0.32925244736146098 0.39615100178034629 1 0.45812322962090041 0.68975022421538157 1 0.3115891413135391 0.68758981780459771 0.68521708032990558 0.49911199724958061 0.77872228561593948 0.77895350115271889 0.31067093462947892 0.81480288849497895 1 0.32446581821293602 0.60020898676440626 1 0.49816183246753282 0.5307146639261795 0.75045686993209071 0.2184393375098648 0.50004596894495223 0.77634962490704662 0.32925244736146098 0.39615100178034629 1 0.45812322962090041 0.68975022421538157 1 0.49816183246753282 0.5307146639261795 0.75045686993209071 0.3115891413135391 0.68758981780459771 0.68521708032990558 0.49911199724958061 0.77872228561593948 0.77895350115271889 0.32446581821293602 0.60020898676440626 1 0.49816183246753282 0.5307146639261795 0.75045686993209071 0.3115891413135391 0.68758981780459771 0.68521708032990558 0.2184393375098648 0.50004596894495223 0.77634962490704662 0.51961524226934941 0.50000000000250611 1 0.45812322962090041 0.68975022421538157 1 0.32446581821293602 0.60020898676440626 1 0.49816183246753282 0.5307146639261795 0.75045686993209071 0.45812322962090041 0.68975022421538157 1 0.32446581821293602 0.60020898676440626 1 0.3115891413135391 0.68758981780459771 0.68521708032990558 0.31067093462947892 0.81480288849497895 1 0.45812322962090041 0.68975022421538157 1 0.32446581821293602 0.60020898676440626 1 0.49816183246753282 0.5307146639261795 0.75045686993209071 0.3115891413135391 0.68758981780459771 0.68521708032990558 0.32446581821293602 0.60020898676440626 1 0.3115891413135391 0.68758981780459771 0.68521708032990558 0.31067093462947892 0.81480288849497895 1 0.18453958615733529 0.77655623474864555 0.81613222483915937 0.24769234054476261 0.52242103280823293 0.45098450226372488 0.50000000000001332 0.49999999999999561 0.49999999999999561 0.3115891413135391 0.68758981780459771 0.68521708032990558 0.49983993748706529 0.75039103705932653 0.52967335724801234 0.50000000000001332 0.49999999999999561 0.49999999999999561 0.49816183246753282 0.5307146639261795 0.75045686993209071 0.3115891413135391 0.68758981780459771 0.68521708032990558 0.49983993748706529 0.75039103705932653 0.52967335724801234 0.24769234054476261 0.52242103280823293 0.45098450226372488 0.22516916914780419 0.77057994845201627 0.48187244075707292 0.3115891413135391 0.68758981780459771 0.68521708032990558 0.49983993748706529 0.75039103705932653 0.52967335724801234 0.24769234054476261 0.52242103280823293 0.45098450226372488 0.50000000000001332 0.49999999999999561 0.49999999999999561 0.3115891413135391 0.68758981780459771 0.68521708032990558 0.2184393375098648 0.50004596894495223 0.77634962490704662 0.50000000000001332 0.49999999999999561 0.49999999999999561 0.49816183246753282 0.5307146639261795 0.75045686993209071 0.3115891413135391 0.68758981780459771 0.68521708032990558 0.2184393375098648 0.50004596894495223 0.77634962490704662 0.49816183246753282 0.5307146639261795 0.75045686993209071 0.3115891413135391 0.68758981780459771 0.68521708032990558 0.49983993748706529 0.75039103705932653 0.52967335724801234 0.49911199724958061 0.77872228561593948 0.77895350115271889 0.3115891413135391 0.68758981780459771 0.68521708032990558 0.49983993748706529 0.75039103705932653 0.52967335724801234 0.32448110831226962 1 0.6002015905153204 0.45820186441573879 1 0.68969697123405882 0.3115891413135391 0.68758981780459771 0.68521708032990558 0.32448110831226962 1 0.6002015905153204 0.45820186441573879 1 0.68969697123405882 0.31085062173747541 1 0.81469961246428202 0.3115891413135391 0.68758981780459771 0.68521708032990558 0.49983993748706529 0.75039103705932653 0.52967335724801234 0.45820186441573879 1 0.68969697123405882 0.49911199724958061 0.77872228561593948 0.77895350115271889 0.3115891413135391 0.68758981780459771 0.68521708032990558 0.32448110831226962 1 0.6002015905153204 0.31085062173747541 1 0.81469961246428202 0.18453958615733529 0.77655623474864555 0.81613222483915937 0.22516916914780419 0.77057994845201627 0.48187244075707292 0.3115891413135391 0.68758981780459771 0.68521708032990558 0.49983993748706529 0.75039103705932653 0.52967335724801234 0.32448110831226962 1 0.6002015905153204 0.3115891413135391 0.68758981780459771 0.68521708032990558 0.45820186441573879 1 0.68969697123405882 0.49911199724958061 0.77872228561593948 0.77895350115271889 0.31085062173747541 1 0.81469961246428202 0.22516916914780419 0.77057994845201627 0.48187244075707292 0.32926555316115258 1 0.39615987727515128 0.49983993748706529 0.75039103705932653 0.52967335724801234 0.32448110831226962 1 0.6002015905153204 0.22516916914780419 0.77057994845201627 0.48187244075707292 0.3115891413135391 0.68758981780459771 0.68521708032990558 0.32448110831226962 1 0.6002015905153204 0.15900053892265181 1 0.69447607299016312 0.32926555316115258 1 0.39615987727515128 0.51961524227008238 1 0.49999999999872219 0.49983993748706529 0.75039103705932653 0.52967335724801234 0.32448110831226962 1 0.6002015905153204 0.51961524227008238 1 0.49999999999872219 0.49983993748706529 0.75039103705932653 0.52967335724801234 0.32448110831226962 1 0.6002015905153204 0.45820186441573879 1 0.68969697123405882 0.50970031073508926 1 0.83534964916803001 0.45820186441573879 1 0.68969697123405882 0.49911199724958061 0.77872228561593948 0.77895350115271889 0.31085062173747541 1 0.81469961246428202 0.49911199724958061 0.77872228561593948 0.77895350115271889 0.31067093462947892 0.81480288849497895 1 0.31085062173747541 1 0.81469961246428202 0.18453958615733529 0.77655623474864555 0.81613222483915937 0.3115891413135391 0.68758981780459771 0.68521708032990558 0.49911199724958061 0.77872228561593948 0.77895350115271889 0.31085062173747541 1 0.81469961246428202 0.18453958615733529 0.77655623474864555 0.81613222483915937 0.50803330197137353 0.83630110503667787 1 0.50970031073508926 1 0.83534964916803001 0.49911199724958061 0.77872228561593948 0.77895350115271889 0.31085062173747541 1 0.81469961246428202 0.3115891413135391 0.68758981780459771 0.68521708032990558 0.49911199724958061 0.77872228561593948 0.77895350115271889 0.31067093462947892 0.81480288849497895 1 0.18453958615733529 0.77655623474864555 0.81613222483915937 0.50803330197137353 0.83630110503667787 1 0.50970031073508926 1 0.83534964916803001 0.3999999999989749 1 1 0.31085062173747541 1 0.81469961246428202 0.50803330197137353 0.83630110503667787 1 0.3999999999989749 1 1 0.31067093462947892 0.81480288849497895 1 0.31085062173747541 1 0.81469961246428202 0.50803330197137353 0.83630110503667787 1 0.49911199724958061 0.77872228561593948 0.77895350115271889 0.31067093462947892 0.81480288849497895 1 0.31085062173747541 1 0.81469961246428202 0.50803330197137353 0.83630110503667787 1 0.45812322962090041 0.68975022421538157 1 0.49911199724958061 0.77872228561593948 0.77895350115271889 0.31067093462947892 0.81480288849497895 1 0.3999999999989749 1 1 0.31067093462947892 0.81480288849497895 1 0.31085062173747541 1 0.81469961246428202 0.19999999999955789 1 1 0.31085062173747541 1 0.81469961246428202 0.1464101615132356 1 0.85358983848650494 0.18453958615733529 0.77655623474864555 0.81613222483915937 0.15900053892265181 1 0.69447607299016312 0.31067093462947892 0.81480288849497895 1 0.31085062173747541 1 0.81469961246428202 0.1464101615132356 1 0.85358983848650494 0.18453958615733529 0.77655623474864555 0.81613222483915937 0.31067093462947892 0.81480288849497895 1 0.31085062173747541 1 0.81469961246428202 0.1464101615132356 1 0.85358983848650494 0.19999999999955789 1 1 0.31067093462947892 0.81480288849497895 1 0.1464101615132356 1 0.85358983848650494 0.19999999999955789 1 1 0.14641016151332509 0.85358983848655678 1 0.31067093462947892 0.81480288849497895 1 0.14641016151332509 0.85358983848655678 1 0.18453958615733529 0.77655623474864555 0.81613222483915937 0.15896804272141651 0.69449451837104537 1 0.31067093462947892 0.81480288849497895 1 0.1464101615132356 1 0.85358983848650494 0.14641016151332509 0.85358983848655678 1 0.18453958615733529 0.77655623474864555 0.81613222483915937 0.18453958615733529 0.77655623474864555 0.81613222483915937 0 0.85358983848682146 0.85358983848668035 0 0.80860557108920617 0.70542349973054763 0 0.69992182039579531 0.85173693729137989 0.18453958615733529 0.77655623474864555 0.81613222483915937 0 0.85358983848682146 0.85358983848668035 0.15900053892265181 1 0.69447607299016312 0 0.80860557108920617 0.70542349973054763 0.14641016151332509 0.85358983848655678 1 0.18453958615733529 0.77655623474864555 0.81613222483915937 0 0.79999999999999982 1 0.15896804272141651 0.69449451837104537 1 0.1464101615132356 1 0.85358983848650494 0.14641016151332509 0.85358983848655678 1 0.18453958615733529 0.77655623474864555 0.81613222483915937 0 0.85358983848682146 0.85358983848668035 0.18453958615733529 0.77655623474864555 0.81613222483915937 0 0.85358983848682146 0.85358983848668035 0 0.79999999999999982 1 0 0.69992182039579531 0.85173693729137989 0.14641016151332509 0.85358983848655678 1 0.18453958615733529 0.77655623474864555 0.81613222483915937 0 0.85358983848682146 0.85358983848668035 0 0.79999999999999982 1 0.14641016151332509 0.85358983848655678 1 0 0.85358983848682146 0.85358983848668035 0 0.79999999999999982 1 0 1 1 0.1464101615132356 1 0.85358983848650494 0.14641016151332509 0.85358983848655678 1 0 0.85358983848682146 0.85358983848668035 0 1 1 0.1464101615132356 1 0.85358983848650494 0.19999999999955789 1 1 0.14641016151332509 0.85358983848655678 1 0 1 1 0.1464101615132356 1 0.85358983848650494 0 0.85358983848682146 0.85358983848668035 0 1 1 0 1 0.79999999999947335 0.1464101615132356 1 0.85358983848650494 0.18453958615733529 0.77655623474864555 0.81613222483915937 0 0.85358983848682146 0.85358983848668035 0.15900053892265181 1 0.69447607299016312 0 0.85358983848682146 0.85358983848668035 0 1 0.79999999999947335 0.15900053892265181 1 0.69447607299016312 0 0.80860557108920617 0.70542349973054763 0.1464101615132356 1 0.85358983848650494 0 0.85358983848682146 0.85358983848668035 0 1 0.79999999999947335 0.15900053892265181 1 0.69447607299016312 0 1 0.79999999999947335 0.15900053892265181 1 0.69447607299016312 0 1 0.59999999999894682 0 0.80860557108920617 0.70542349973054763 0.22516916914780419 0.77057994845201627 0.48187244075707292 0.3115891413135391 0.68758981780459771 0.68521708032990558 0.18453958615733529 0.77655623474864555 0.81613222483915937 0 0.80860557108920617 0.70542349973054763 0.15900053892265181 1 0.69447607299016312 0 1 0.59999999999894682 0 0.83630110503664845 0.50803330197135654 0 0.80860557108920617 0.70542349973054763 0.3115891413135391 0.68758981780459771 0.68521708032990558 0.32448110831226962 1 0.6002015905153204 0.18453958615733529 0.77655623474864555 0.81613222483915937 0.15900053892265181 1 0.69447607299016312 0.22516916914780419 0.77057994845201627 0.48187244075707292 0.3115891413135391 0.68758981780459771 0.68521708032990558 0.18453958615733529 0.77655623474864555 0.81613222483915937 0.15900053892265181 1 0.69447607299016312 0.22516916914780419 0.77057994845201627 0.48187244075707292 0.18453958615733529 0.77655623474864555 0.81613222483915937 0.15900053892265181 1 0.69447607299016312 0 0.80860557108920617 0.70542349973054763 0.32448110831226962 1 0.6002015905153204 0.31085062173747541 1 0.81469961246428202 0.18453958615733529 0.77655623474864555 0.81613222483915937 0.15900053892265181 1 0.69447607299016312 0.22516916914780419 0.77057994845201627 0.48187244075707292 0.17226134197293 1 0.49836539647645101 0.32448110831226962 1 0.6002015905153204 0.15900053892265181 1 0.69447607299016312 0.22516916914780419 0.77057994845201627 0.48187244075707292 0.17226134197293 1 0.49836539647645101 0.15900053892265181 1 0.69447607299016312 0 0.83630110503664845 0.50803330197135654 0 1 0.3999999999989749 0.17226134197293 1 0.49836539647645101 0 1 0.59999999999894682 0 0.83630110503664845 0.50803330197135654 0.17226134197293 1 0.49836539647645101 0.15900053892265181 1 0.69447607299016312 0 1 0.59999999999894682 0 0.83630110503664845 0.50803330197135654 0.22516916914780419 0.77057994845201627 0.48187244075707292 0.15900053892265181 1 0.69447607299016312 0 0.83630110503664845 0.50803330197135654 0 0.80860557108920617 0.70542349973054763 0.22516916914780419 0.77057994845201627 0.48187244075707292 0 0.83630110503664845 0.50803330197135654 0 0.80860557108920617 0.70542349973054763 0 0.66416205381430016 0.59944234540882957 0.22516916914780419 0.77057994845201627 0.48187244075707292 0.3115891413135391 0.68758981780459771 0.68521708032990558 0 0.80860557108920617 0.70542349973054763 0 0.66416205381430016 0.59944234540882957 0.3115891413135391 0.68758981780459771 0.68521708032990558 0.18453958615733529 0.77655623474864555 0.81613222483915937 0 0.80860557108920617 0.70542349973054763 0 0.66416205381430016 0.59944234540882957 0.18453958615733529 0.77655623474864555 0.81613222483915937 0 0.80860557108920617 0.70542349973054763 0 0.66416205381430016 0.59944234540882957 0 0.60922248848335758 0.72722573386012812 0.24769234054476261 0.52242103280823293 0.45098450226372488 0.3115891413135391 0.68758981780459771 0.68521708032990558 0 0.66416205381430016 0.59944234540882957 0.2184393375098648 0.50004596894495223 0.77634962490704662 0.3115891413135391 0.68758981780459771 0.68521708032990558 0.18453958615733529 0.77655623474864555 0.81613222483915937 0 0.66416205381430016 0.59944234540882957 0 0.60922248848335758 0.72722573386012812 0 0.66416205381430016 0.59944234540882957 0 0.50000000000237477 0.51961524226909872 0.2184393375098648 0.50004596894495223 0.77634962490704662 0 0.46954769941369501 0.67320508075638175 0.3115891413135391 0.68758981780459771 0.68521708032990558 0 0.66416205381430016 0.59944234540882957 0 0.60922248848335758 0.72722573386012812 0.2184393375098648 0.50004596894495223 0.77634962490704662 0.24769234054476261 0.52242103280823293 0.45098450226372488 0.22516916914780419 0.77057994845201627 0.48187244075707292 0.3115891413135391 0.68758981780459771 0.68521708032990558 0 0.66416205381430016 0.59944234540882957 0.24769234054476261 0.52242103280823293 0.45098450226372488 0 0.66416205381430016 0.59944234540882957 0 0.50000000000237477 0.51961524226909872 0.2184393375098648 0.50004596894495223 0.77634962490704662 0 0.68801781652248195 0.45664527743358641 0.22516916914780419 0.77057994845201627 0.48187244075707292 0 0.83630110503664845 0.50803330197135654 0 0.66416205381430016 0.59944234540882957 0.24769234054476261 0.52242103280823293 0.45098450226372488 0 0.68801781652248195 0.45664527743358641 0 0.66416205381430016 0.59944234540882957 0 0.50000000000237477 0.51961524226909872 0 0.66416205381430016 0.59944234540882957 0 0.60922248848335758 0.72722573386012812 0.2184393375098648 0.50004596894495223 0.77634962490704662 0 0.46954769941369501 0.67320508075638175 0 0.5118616330515301 0.84191918937737908 0 0.69992182039579531 0.85173693729137989 0.2184393375098648 0.50004596894495223 0.77634962490704662 0.15896804272141651 0.69449451837104537 1 0.3115891413135391 0.68758981780459771 0.68521708032990558 0.18453958615733529 0.77655623474864555 0.81613222483915937 0 0.60922248848335758 0.72722573386012812 0.2184393375098648 0.50004596894495223 0.77634962490704662 0.18453958615733529 0.77655623474864555 0.81613222483915937 0 0.69992182039579531 0.85173693729137989 0.2184393375098648 0.50004596894495223 0.77634962490704662 0.15896804272141651 0.69449451837104537 1 0 0.60922248848335758 0.72722573386012812 0 0.5118616330515301 0.84191918937737908 0.2184393375098648 0.50004596894495223 0.77634962490704662 0 0.46954769941369501 0.67320508075638175 0 0.60922248848335758 0.72722573386012812 0 0.5118616330515301 0.84191918937737908 0 0.69992182039579531 0.85173693729137989 0.2184393375098648 0.50004596894495223 0.77634962490704662 0.32446581821293602 0.60020898676440626 1 0.18453958615733529 0.77655623474864555 0.81613222483915937 0.2184393375098648 0.50004596894495223 0.77634962490704662 0.15896804272141651 0.69449451837104537 1 0.18453958615733529 0.77655623474864555 0.81613222483915937 0 0.60922248848335758 0.72722573386012812 0 0.69992182039579531 0.85173693729137989 0.2184393375098648 0.50004596894495223 0.77634962490704662 0.18453958615733529 0.77655623474864555 0.81613222483915937 0 0.80860557108920617 0.70542349973054763 0 0.60922248848335758 0.72722573386012812 0 0.69992182039579531 0.85173693729137989 0.32446581821293602 0.60020898676440626 1 0.2184393375098648 0.50004596894495223 0.77634962490704662 0.15896804272141651 0.69449451837104537 1 0.17226134197275911 0.49836539647894412 1 0 0.5118616330515301 0.84191918937737908 0.2184393375098648 0.50004596894495223 0.77634962490704662 0.15896804272141651 0.69449451837104537 1 0.17226134197275911 0.49836539647894412 1 0.32446581821293602 0.60020898676440626 1 0.31067093462947892 0.81480288849497895 1 0.18453958615733529 0.77655623474864555 0.81613222483915937 0.15896804272141651 0.69449451837104537 1 0.18453958615733529 0.77655623474864555 0.81613222483915937 0 0.79999999999999982 1 0 0.69992182039579531 0.85173693729137989 0.15896804272141651 0.69449451837104537 1 0 0.5118616330515301 0.84191918937737908 0 0.69992182039579531 0.85173693729137989 0.15896804272141651 0.69449451837104537 1 0 0.60000000000138687 1 0 0.79999999999999982 1 0 0.69992182039579531 0.85173693729137989 0.15896804272141651 0.69449451837104537 1 0 0.60000000000138687 1 0 0.5118616330515301 0.84191918937737908 0.15896804272141651 0.69449451837104537 1 0 0.60000000000138687 1 0.17226134197275911 0.49836539647894412 1 0 0.5118616330515301 0.84191918937737908 0 0.60000000000138687 1 0 0.40000000000166441 1 0.17226134197275911 0.49836539647894412 1 0 0.5118616330515301 0.84191918937737908 0 0.40000000000166441 1 0 0.31807971531776508 0.80839867011913336 0.17226134197275911 0.49836539647894412 1 0 0.40000000000166441 1 0 0.31807971531776508 0.80839867011913336 0.16929708765653109 0.30074819035870082 1 0.17226134197275911 0.49836539647894412 1 0 0.31807971531776508 0.80839867011913336 0.16929708765653109 0.30074819035870082 1 0.31426750628021272 0.31270343261798911 0.68761148188185484 0 0.14641016151490169 0.85358983848532144 0.2184393375098648 0.50004596894495223 0.77634962490704662 0 0.31807971531776508 0.80839867011913336 0.16929708765653109 0.30074819035870082 1 0.31426750628021272 0.31270343261798911 0.68761148188185484 0 0.5118616330515301 0.84191918937737908 0.2184393375098648 0.50004596894495223 0.77634962490704662 0 0.31807971531776508 0.80839867011913336 0 0.46954769941369501 0.67320508075638175 0 0.5118616330515301 0.84191918937737908 0.2184393375098648 0.50004596894495223 0.77634962490704662 0 0.31807971531776508 0.80839867011913336 0.17226134197275911 0.49836539647894412 1 0 0.40000000000166441 1 0 0.31807971531776508 0.80839867011913336 0.16929708765653109 0.30074819035870082 1 0 0.20000000000083221 1 0.2184393375098648 0.50004596894495223 0.77634962490704662 0.16929708765653109 0.30074819035870082 1 0.17226134197275911 0.49836539647894412 1 0.32925244736146098 0.39615100178034629 1 0.2184393375098648 0.50004596894495223 0.77634962490704662 0 0.31807971531776508 0.80839867011913336 0.16929708765653109 0.30074819035870082 1 0.17226134197275911 0.49836539647894412 1 0.16929708765653109 0.30074819035870082 1 0.32925244736146098 0.39615100178034629 1 0.31426750628021272 0.31270343261798911 0.68761148188185484 0.31610726166461628 0.1880448979455934 1 0.32446581821293602 0.60020898676440626 1 0.2184393375098648 0.50004596894495223 0.77634962490704662 0.17226134197275911 0.49836539647894412 1 0.32925244736146098 0.39615100178034629 1 0.50084626324420545 0.22238844715913 0.78084811589659187 0.49816183246753282 0.5307146639261795 0.75045686993209071 0.45812322962173568 0.31024977578554058 1 0.31426750628021272 0.31270343261798911 0.68761148188185484 0.49816183246753282 0.5307146639261795 0.75045686993209071 0.2184393375098648 0.50004596894495223 0.77634962490704662 0.32925244736146098 0.39615100178034629 1 0.31426750628021272 0.31270343261798911 0.68761148188185484 0.32925244736146098 0.39615100178034629 1 0.45812322962173568 0.31024977578554058 1 0.31426750628021272 0.31270343261798911 0.68761148188185484 0.31610726166461628 0.1880448979455934 1 0.50084626324420545 0.22238844715913 0.78084811589659187 0.45812322962173568 0.31024977578554058 1 0.31426750628021272 0.31270343261798911 0.68761148188185484 0.31610726166461628 0.1880448979455934 1 0.49816183246753282 0.5307146639261795 0.75045686993209071 0.32925244736146098 0.39615100178034629 1 0.45812322962173568 0.31024977578554058 1 0.31426750628021272 0.31270343261798911 0.68761148188185484 0.2184393375098648 0.50004596894495223 0.77634962490704662 0.16929708765653109 0.30074819035870082 1 0.32925244736146098 0.39615100178034629 1 0.31426750628021272 0.31270343261798911 0.68761148188185484 0.51961524226934941 0.50000000000250611 1 0.49816183246753282 0.5307146639261795 0.75045686993209071 0.32925244736146098 0.39615100178034629 1 0.45812322962173568 0.31024977578554058 1 0.50000000000001332 0.49999999999999561 0.49999999999999561 0.49816183246753282 0.5307146639261795 0.75045686993209071 0.2184393375098648 0.50004596894495223 0.77634962490704662 0.31426750628021272 0.31270343261798911 0.68761148188185484 0.24769234054476261 0.52242103280823293 0.45098450226372488 0.50073570207385831 0.24848280280289631 0.52886631355986169 0.31426750628021272 0.31270343261798911 0.68761148188185484 0.22088738526309029 0.22111069116742441 0.50004796911802929 0.50073570207385831 0.24848280280289631 0.52886631355986169 0.50084626324420545 0.22238844715913 0.78084811589659187 0.49816183246753282 0.5307146639261795 0.75045686993209071 0.31426750628021272 0.31270343261798911 0.68761148188185484 0.24769234054476261 0.52242103280823293 0.45098450226372488 0.50000000000001332 0.49999999999999561 0.49999999999999561 0.50073570207385831 0.24848280280289631 0.52886631355986169 0.31426750628021272 0.31270343261798911 0.68761148188185484 0.50000000000001332 0.49999999999999561 0.49999999999999561 0.50073570207385831 0.24848280280289631 0.52886631355986169 0.49816183246753282 0.5307146639261795 0.75045686993209071 0.31426750628021272 0.31270343261798911 0.68761148188185484 0.24769234054476261 0.52242103280823293 0.45098450226372488 0.50000000000001332 0.49999999999999561 0.49999999999999561 0.2184393375098648 0.50004596894495223 0.77634962490704662 0.31426750628021272 0.31270343261798911 0.68761148188185484 0.24769234054476261 0.52242103280823293 0.45098450226372488 0 0.50000000000237477 0.51961524226909872 0.2184393375098648 0.50004596894495223 0.77634962490704662 0.31426750628021272 0.31270343261798911 0.68761148188185484 0 0.31024977578556651 0.45812322962166352 0.24769234054476261 0.52242103280823293 0.45098450226372488 0 0.32043363027398297 0.61046998817722586 0.22088738526309029 0.22111069116742441 0.50004796911802929 0.24769234054476261 0.52242103280823293 0.45098450226372488 0 0.50000000000237477 0.51961524226909872 0.31426750628021272 0.31270343261798911 0.68761148188185484 0 0.32043363027398297 0.61046998817722586 0 0.50000000000237477 0.51961524226909872 0.2184393375098648 0.50004596894495223 0.77634962490704662 0.31426750628021272 0.31270343261798911 0.68761148188185484 0 0.32043363027398297 0.61046998817722586 0.24769234054476261 0.52242103280823293 0.45098450226372488 0.31426750628021272 0.31270343261798911 0.68761148188185484 0 0.32043363027398297 0.61046998817722586 0.22088738526309029 0.22111069116742441 0.50004796911802929 0 0.50000000000237477 0.51961524226909872 0.2184393375098648 0.50004596894495223 0.77634962490704662 0 0.46954769941369501 0.67320508075638175 0 0.32043363027398297 0.61046998817722586 0.31426750628021272 0.31270343261798911 0.68761148188185484 0 0.32043363027398297 0.61046998817722586 0.22088738526309029 0.22111069116742441 0.50004796911802929 0 0.16196943494415611 0.69380980080116506 0.2184393375098648 0.50004596894495223 0.77634962490704662 0 0.31807971531776508 0.80839867011913336 0.31426750628021272 0.31270343261798911 0.68761148188185484 0 0.32043363027398297 0.61046998817722586 0 0.31807971531776508 0.80839867011913336 0.31426750628021272 0.31270343261798911 0.68761148188185484 0 0.32043363027398297 0.61046998817722586 0 0.16196943494415611 0.69380980080116506 0 0.31024977578556651 0.45812322962166352 0.24769234054476261 0.52242103280823293 0.45098450226372488 0 0.50000000000237477 0.51961524226909872 0 0.32043363027398297 0.61046998817722586 0.2184393375098648 0.50004596894495223 0.77634962490704662 0 0.31807971531776508 0.80839867011913336 0 0.46954769941369501 0.67320508075638175 0 0.32043363027398297 0.61046998817722586 0 0.31024977578556651 0.45812322962166352 0 0.32043363027398297 0.61046998817722586 0.22088738526309029 0.22111069116742441 0.50004796911802929 0 0.16275515618034081 0.50966790549591257 0.31426750628021272 0.31270343261798911 0.68761148188185484 0 0.16196943494415611 0.69380980080116506 0.18818969570926641 0 0.68364148842842287 0.14641016151479661 0 0.85358983848542624 0.31426750628021272 0.31270343261798911 0.68761148188185484 0.22088738526309029 0.22111069116742441 0.50004796911802929 0 0.16196943494415611 0.69380980080116506 0.18818969570926641 0 0.68364148842842287 0.22088738526309029 0.22111069116742441 0.50004796911802929 0 0.16275515618034081 0.50966790549591257 0 0.16196943494415611 0.69380980080116506 0.18818969570926641 0 0.68364148842842287 0 0.32043363027398297 0.61046998817722586 0.22088738526309029 0.22111069116742441 0.50004796911802929 0 0.16275515618034081 0.50966790549591257 0 0.16196943494415611 0.69380980080116506 0 0.16196943494415611 0.69380980080116506 0.18818969570926641 0 0.68364148842842287 0 0 0.60000000000138687 0 0 0.79999999999999982 0 0.16275515618034081 0.50966790549591257 0 0.16196943494415611 0.69380980080116506 0.18818969570926641 0 0.68364148842842287 0 0 0.60000000000138687 0.16370661204827031 0 0.4886650857430957 0 0.16275515618034081 0.50966790549591257 0.18818969570926641 0 0.68364148842842287 0 0 0.60000000000138687 0.16370661204827031 0 0.4886650857430957 0.22088738526309029 0.22111069116742441 0.50004796911802929 0.18818969570926641 0 0.68364148842842287 0.31030302876556398 0 0.54179813558513157 0.16370661204827031 0 0.4886650857430957 0.22088738526309029 0.22111069116742441 0.50004796911802929 0 0.16275515618034081 0.50966790549591257 0.18818969570926641 0 0.68364148842842287 0.31426750628021272 0.31270343261798911 0.68761148188185484 0.18818969570926641 0 0.68364148842842287 0.39615987727709562 0 0.67073444684008199 0.30074819035913852 0 0.83070291234383831 0.50073570207385831 0.24848280280289631 0.52886631355986169 0.31426750628021272 0.31270343261798911 0.68761148188185484 0.22088738526309029 0.22111069116742441 0.50004796911802929 0.31030302876556398 0 0.54179813558513157 0.50073570207385831 0.24848280280289631 0.52886631355986169 0.31426750628021272 0.31270343261798911 0.68761148188185484 0.31030302876556398 0 0.54179813558513157 0.39615987727709562 0 0.67073444684008199 0.50084626324420545 0.22238844715913 0.78084811589659187 0.31426750628021272 0.31270343261798911 0.68761148188185484 0.39615987727709562 0 0.67073444684008199 0.30074819035913852 0 0.83070291234383831 0.31426750628021272 0.31270343261798911 0.68761148188185484 0.22088738526309029 0.22111069116742441 0.50004796911802929 0.18818969570926641 0 0.68364148842842287 0.31030302876556398 0 0.54179813558513157 0.6002015905170176 0 0.67551889168744117 0.50073570207385831 0.24848280280289631 0.52886631355986169 0.50084626324420545 0.22238844715913 0.78084811589659187 0.39615987727709562 0 0.67073444684008199 0.31426750628021272 0.31270343261798911 0.68761148188185484 0.18818969570926641 0 0.68364148842842287 0.31030302876556398 0 0.54179813558513157 0.39615987727709562 0 0.67073444684008199 0.50073570207385831 0.24848280280289631 0.52886631355986169 0.50084626324420545 0.22238844715913 0.78084811589659187 0.31426750628021272 0.31270343261798911 0.68761148188185484 0.39615987727709562 0 0.67073444684008199 0.50000000000250922 0 0.48038475773043671 0.6002015905170176 0 0.67551889168744117 0.50073570207385831 0.24848280280289631 0.52886631355986169 0.39615987727709562 0 0.67073444684008199 0.50000000000250922 0 0.48038475773043671 0.50073570207385831 0.24848280280289631 0.52886631355986169 0.31030302876556398 0 0.54179813558513157 0.39615987727709562 0 0.67073444684008199 0.6002015905170176 0 0.67551889168744117 0.50084626324420545 0.22238844715913 0.78084811589659187 0.39615987727709562 0 0.67073444684008199 0.49836539647917322 0 0.82773865802723501 0.31426750628021272 0.31270343261798911 0.68761148188185484 0.30074819035913852 0 0.83070291234383831 0.31610726166461628 0.1880448979455934 1 0.14641016151432179 0.14641016151432179 1 0.50084626324420545 0.22238844715913 0.78084811589659187 0.31426750628021272 0.31270343261798911 0.68761148188185484 0.30074819035913852 0 0.83070291234383831 0.31610726166461628 0.1880448979455934 1 0.50084626324420545 0.22238844715913 0.78084811589659187 0.30074819035913852 0 0.83070291234383831 0.49836539647917322 0 0.82773865802723501 0.31610726166461628 0.1880448979455934 1 0.50084626324420545 0.22238844715913 0.78084811589659187 0.39615987727709562 0 0.67073444684008199 0.30074819035913852 0 0.83070291234383831 0.49836539647917322 0 0.82773865802723501 0.50966790549576724 0.1627551561802443 1 0.49836539647917322 0 0.82773865802723501 0.40000000000166441 0 1 0.31610726166461628 0.1880448979455934 1 0.30074819035913852 0 0.83070291234383831 0.49836539647917322 0 0.82773865802723501 0.40000000000166441 0 1 0.31610726166461628 0.1880448979455934 1 0.50966790549576724 0.1627551561802443 1 0.50084626324420545 0.22238844715913 0.78084811589659187 0.49836539647917322 0 0.82773865802723501 0.31610726166461628 0.1880448979455934 1 0.50966790549576724 0.1627551561802443 1 0.50084626324420545 0.22238844715913 0.78084811589659187 0.45812322962173568 0.31024977578554058 1 0.31610726166461628 0.1880448979455934 1 0.30074819035913852 0 0.83070291234383831 0.40000000000166441 0 1 0.31610726166461628 0.1880448979455934 1 0.20000000000083221 0 1 0 0.31807971531776508 0.80839867011913336 0.31426750628021272 0.31270343261798911 0.68761148188185484 0 0.16196943494415611 0.69380980080116506 0 0.14641016151490169 0.85358983848532144 0.16929708765653109 0.30074819035870082 1 0.31426750628021272 0.31270343261798911 0.68761148188185484 0.31610726166461628 0.1880448979455934 1 0.14641016151432179 0.14641016151432179 1 0.30074819035913852 0 0.83070291234383831 0.20000000000083221 0 1 0.14641016151479661 0 0.85358983848542624 0.14641016151432179 0.14641016151432179 1 0.31426750628021272 0.31270343261798911 0.68761148188185484 0.30074819035913852 0 0.83070291234383831 0.14641016151479661 0 0.85358983848542624 0.14641016151432179 0.14641016151432179 1 0.30074819035913852 0 0.83070291234383831 0.31610726166461628 0.1880448979455934 1 0.20000000000083221 0 1 0.14641016151432179 0.14641016151432179 1 0.31426750628021272 0.31270343261798911 0.68761148188185484 0.18818969570926641 0 0.68364148842842287 0.30074819035913852 0 0.83070291234383831 0.14641016151479661 0 0.85358983848542624 0.16929708765653109 0.30074819035870082 1 0.31426750628021272 0.31270343261798911 0.68761148188185484 0.14641016151432179 0.14641016151432179 1 0 0.14641016151490169 0.85358983848532144 0.31426750628021272 0.31270343261798911 0.68761148188185484 0.14641016151479661 0 0.85358983848542624 0.14641016151432179 0.14641016151432179 1 0 0.14641016151490169 0.85358983848532144 0.31426750628021272 0.31270343261798911 0.68761148188185484 0 0.16196943494415611 0.69380980080116506 0.14641016151479661 0 0.85358983848542624 0 0.14641016151490169 0.85358983848532144 0 0.31807971531776508 0.80839867011913336 0.16929708765653109 0.30074819035870082 1 0 0.20000000000083221 1 0 0.14641016151490169 0.85358983848532144 0.16929708765653109 0.30074819035870082 1 0.14641016151432179 0.14641016151432179 1 0 0.20000000000083221 1 0 0.14641016151490169 0.85358983848532144 0 0.16196943494415611 0.69380980080116506 0.18818969570926641 0 0.68364148842842287 0.14641016151479661 0 0.85358983848542624 0 0 0.79999999999999982 0 0.16196943494415611 0.69380980080116506 0.14641016151479661 0 0.85358983848542624 0 0.14641016151490169 0.85358983848532144 0 0 0.79999999999999982 0.14641016151432179 0.14641016151432179 1 0 0.20000000000083221 1 0 0.14641016151490169 0.85358983848532144 0 0 1 0.14641016151479661 0 0.85358983848542624 0 0.14641016151490169 0.85358983848532144 0 0 0.79999999999999982 0 0 1 0.20000000000083221 0 1 0.14641016151479661 0 0.85358983848542624 0.14641016151432179 0.14641016151432179 1 0 0 1 0.14641016151479661 0 0.85358983848542624 0.14641016151432179 0.14641016151432179 1 0 0.14641016151490169 0.85358983848532144 0 0 1 
</DataArray>
</Points>
<Cells>
<DataArray type="UInt32" Name="connectivity" format="ascii">
0 1 2 3 4 5 6 7 8 9 10 11 12 13 14 15 16 17 18 19 20 21 22 23 24 25 26 27 28 29 30 31 32 33 34 35 36 37 38 39 40 41 42 43 44 45 46 47 48 49 50 51 52 53 54 55 56 57 58 59 60 61 62 63 64 65 66 67 68 69 70 71 72 73 74 75 76 77 78 79 80 81 82 83 84 85 86 87 88 89 90 91 92 93 94 95 96 97 98 99 100 101 102 103 104 105 106 107 108 109 110 111 112 113 114 115 116 117 118 119 120 121 122 123 124 125 126 127 128 129 130 131 132 133 134 135 136 137 138 139 140 141 142 143 144 145 146 147 148 149 150 151 152 153 154 155 156 157 158 159 160 161 162 163 164 165 166 167 168 169 170 171 172 173 174 175 176 177 178 179 180 181 182 183 184 185 186 187 188 189 190 191 192 193 194 195 196 197 198 199 200 201 202 203 204 205 206 207 208 209 210 211 212 213 214 215 216 217 218 219 220 221 222 223 224 225 226 227 228 229 230 231 232 233 234 235 236 237 238 239 240 241 242 243 244 245 246 247 248 249 250 251 252 253 254 255 256 257 258 259 260 261 262 263 264 265 266 267 268 269 270 271 272 273 274 275 276 277 278 279 280 281 282 283 284 285 286 287 288 289 290 291 292 293 294 295 296 297 298 299 300 301 302 303 304 305 306 307 308 309 310 311 312 313 314 315 316 317 318 319 320 321 322 323 324 325 326 327 328 329 330 331 332 333 334 335 336 337 338 339 340 341 342 343 344 345 346 347 348 349 350 351 352 353 354 355 356 357 358 359 360 361 362 363 364 365 366 367 368 369 370 371 372 373 374 375 376 377 378 379 380 381 382 383 384 385 386 387 388 389 390 391 392 393 394 395 396 397 398 399 400 401 402 403 404 405 406 407 408 409 410 411 412 413 414 415 416 417 418 419 420 421 422 423 424 425 426 427 428 429 430 431 432 433 434 435 436 437 438 439 440 441 442 443 444 445 446 447 448 449 450 451 452 453 454 455 456 457 458 459 460 461 462 463 464 465 466 467 468 469 470 471 472 473 474 475 476 477 478 479 480 481 482 483 484 485 486 487 488 489 490 491 492 493 494 495 496 497 498 499 500 501 502 503 504 505 506 507 508 509 510 511 512 513 514 515 516 517 518 519 520 521 522 523 524 525 526 527 528 529 530 531 532 533 534 535 536 537 538 539 540 541 542 543 544 545 546 547 548 549 550 551 552 553 554 555 556 557 558 559 560 561 562 563 564 565 566 567 568 569 570 571 572 573 574 575 576 577 578 579 580 581 582 583 584 585 586 587 588 589 590 591 592 593 594 595 596 597 598 599 600 601 602 603 604 605 606 607 608 609 610 611 612 613 614 615 616 617 618 619 620 621 622 623 624 625 626 627 628 629 630 631 632 633 634 635 636 637 638 639 640 641 642 643 644 645 646 647 648 649 650 651 652 653 654 655 656 657 658 659 660 661 662 663 664 665 666 667 668 669 670 671 672 673 674 675 676 677 678 679 680 681 682 683 684 685 686 687 688 689 690 691 692 693 694 695 696 697 698 699 700 701 702 703 704 705 706 707 708 709 710 711 712 713 714 715 716 717 718 719 720 721 722 723 724 725 726 727 728 729 730 731 732 733 734 735 736 737 738 739 740 741 742 743 744 745 746 747 748 749 750 751 752 753 754 755 756 757 758 759 760 761 762 763 764 765 766 767 768 769 770 771 772 773 774 775 776 777 778 779 780 781 782 783 784 785 786 787 788 789 790 791 792 793 794 795 796 797 798 799 800 801 802 803 804 805 806 807 808 809 810 811 812 813 814 815 816 817 818 819 820 821 822 823 824 825 826 827 828 829 830 831 832 833 834 835 836 837 838 839 840 841 842 843 844 845 846 847 848 849 850 851 852 853 854 855 856 857 858 859 860 861 862 863 864 865 866 867 868 869 870 871 872 873 874 875 876 877 878 879 880 881 882 883 884 885 886 887 888 889 890 891 892 893 894 895 896 897 898 899 900 901 902 903 904 905 906 907 908 909 910 911 912 913 914 915 916 917 918 919 920 921 922 923 924 925 926 927 928 929 930 931 932 933 934 935 936 937 938 939 940 941 942 943 944 945 946 947 948 949 950 951 952 953 954 955 956 957 958 959 960 961 962 963 964 965 966 967 968 969 970 971 972 973 974 975 976 977 978 979 980 981 982 983 984 985 986 987 988 989 990 991 992 993 994 995 996 997 998 999 1000 1001 1002 1003 1004 1005 1006 1007 1008 1009 1010 1011 1012 1013 1014 1015 1016 1017 1018 1019 1020 1021 1022 1023 1024 1025 1026 1027 1028 1029 1030 1031 1032 1033 1034 1035 1036 1037 1038 1039 1040 1041 1042 1043 1044 1045 1046 1047 1048 1049 1050 1051 1052 1053 1054 1055 1056 1057 1058 1059 1060 1061 1062 1063 1064 1065 1066 1067 1068 1069 1070 1071 1072 1073 1074 1075 1076 1077 1078 1079 1080 1081 1082 1083 1084 1085 1086 1087 1088 1089 1090 1091 1092 1093 1094 1095 1096 1097 1098 1099 1100 1101 1102 1103 1104 1105 1106 1107 1108 1109 1110 1111 1112 1113 1114 1115 1116 1117 1118 1119 1120 1121 1122 1123 1124 1125 1126 1127 1128 1129 1130 1131 1132 1133 1134 1135 1136 1137 1138 1139 1140 1141 1142 1143 1144 1145 1146 1147 1148 1149 1150 1151 1152 1153 1154 1155 1156 1157 1158 1159 1160 1161 1162 1163 1164 1165 1166 1167 1168 1169 1170 1171 1172 1173 1174 1175 1176 1177 1178 1179 1180 1181 1182 1183 1184 1185 1186 1187 1188 1189 1190 1191 1192 1193 1194 1195 1196 1197 1198 1199 1200 1201 1202 1203 1204 1205 1206 1207 1208 1209 1210 1211 1212 1213 1214 1215 1216 1217 1218 1219 1220 1221 1222 1223 1224 1225 1226 1227 1228 1229 1230 1231 1232 1233 1234 1235 1236 1237 1238 1239 1240 1241 1242 1243 1244 1245 1246 1247 1248 1249 1250 1251 1252 1253 1254 1255 1256 1257 1258 1259 1260 1261 1262 1263 1264 1265 1266 1267 1268 1269 1270 1271 1272 1273 1274 1275 1276 1277 1278 1279 1280 1281 1282 1283 1284 1285 1286 1287 1288 1289 1290 1291 1292 1293 1294 1295 1296 1297 1298 1299 1300 1301 1302 1303 1304 1305 1306 1307 1308 1309 1310 1311 1312 1313 1314 1315 1316 1317 1318 1319 1320 1321 1322 1323 1324 1325 1326 1327 1328 1329 1330 1331 1332 1333 1334 1335 1336 1337 1338 1339 1340 1341 1342 1343 1344 1345 1346 1347 1348 1349 1350 1351 1352 1353 1354 1355 1356 1357 1358 1359 1360 1361 1362 1363 1364 1365 1366 1367 1368 1369 1370 1371 1372 1373 1374 1375 1376 1377 1378 1379 1380 1381 1382 1383 1384 1385 1386 1387 1388 1389 1390 1391 1392 1393 1394 1395 1396 1397 1398 1399 1400 1401 1402 1403 1404 1405 1406 1407 1408 1409 1410 1411 1412 1413 1414 1415 1416 1417 1418 1419 1420 1421 1422 1423 1424 1425 1426 1427 1428 1429 1430 1431 1432 1433 1434 1435 1436 1437 1438 1439 1440 1441 1442 1443 1444 1445 1446 1447 1448 1449 1450 1451 1452 1453 1454 1455 1456 1457 1458 1459 1460 1461 1462 1463 1464 1465 1466 1467 1468 1469 1470 1471 1472 1473 1474 1475 1476 1477 1478 1479 1480 1481 1482 1483 1484 1485 1486 1487 1488 1489 1490 1491 1492 1493 1494 1495 1496 1497 1498 1499 1500 1501 1502 1503 1504 1505 1506 1507 1508 1509 1510 1511 1512 1513 1514 1515 1516 1517 1518 1519 1520 1521 1522 1523 1524 1525 1526 1527 1528 1529 1530 1531 1532 1533 1534 1535 1536 1537 1538 1539 1540 1541 1542 1543 1544 1545 1546 1547 1548 1549 1550 1551 1552 1553 1554 1555 1556 1557 1558 1559 1560 1561 1562 1563 1564 1565 1566 1567 1568 1569 1570 1571 1572 1573 1574 1575 1576 1577 1578 1579 1580 1581 1582 1583 1584 1585 1586 1587 1588 1589 1590 1591 1592 1593 1594 1595 1596 1597 1598 1599 1600 1601 1602 1603 1604 1605 1606 1607 1608 1609 1610 1611 1612 1613 1614 1615 1616 1617 1618 1619 1620 1621 1622 1623 1624 1625 1626 1627 1628 1629 1630 1631 1632 1633 1634 1635 1636 1637 1638 1639 1640 1641 1642 1643 1644 1645 1646 1647 1648 1649 1650 1651 1652 1653 1654 1655 1656 1657 1658 1659 1660 1661 1662 1663 1664 1665 1666 1667 1668 1669 1670 1671 1672 1673 1674 1675 1676 1677 1678 1679 1680 1681 1682 1683 1684 1685 1686 1687 1688 1689 1690 1691 1692 1693 1694 1695 1696 1697 1698 1699 1700 1701 1702 1703 1704 1705 1706 1707 1708 1709 1710 1711 1712 1713 1714 1715 1716 1717 1718 1719 1720 1721 1722 1723 1724 1725 1726 1727 1728 1729 1730 1731 1732 1733 1734 1735 1736 1737 1738 1739 1740 1741 1742 1743 1744 1745 1746 1747 1748 1749 1750 1751 1752 1753 1754 1755 1756 1757 1758 1759 1760 1761 1762 1763 1764 1765 1766 1767 1768 1769 1770 1771 1772 1773 1774 1775 1776 1777 1778 1779 1780 1781 1782 1783 1784 1785 1786 1787 1788 1789 1790 1791 1792 1793 1794 1795 1796 1797 1798 1799 1800 1801 1802 1803 1804 1805 1806 1807 1808 1809 1810 1811 1812 1813 1814 1815 1816 1817 1818 1819 1820 1821 1822 1823 1824 1825 1826 1827 1828 1829 1830 1831 1832 1833 1834 1835 1836 1837 1838 1839 1840 1841 1842 1843 1844 1845 1846 1847 1848 1849 1850 1851 1852 1853 1854 1855 1856 1857 1858 1859 1860 1861 1862 1863 1864 1865 1866 1867 1868 1869 1870 1871 1872 1873 1874 1875 1876 1877 1878 1879 1880 1881 1882 1883 1884 1885 1886 1887 1888 1889 1890 1891 1892 1893 1894 1895 1896 1897 1898 1899 1900 1901 1902 1903 1904 1905 1906 1907 1908 1909 1910 1911 1912 1913 1914 1915 1916 1917 1918 1919 1920 1921 1922 1923 1924 1925 1926 1927 1928 1929 1930 1931 1932 1933 1934 1935 1936 1937 1938 1939 1940 1941 1942 1943 1944 1945 1946 1947 1948 1949 1950 1951 1952 1953 1954 1955 1956 1957 1958 1959 1960 1961 1962 1963 1964 1965 1966 1967 1968 1969 1970 1971 1972 1973 1974 1975 1976 1977 1978 1979 1980 1981 1982 1983 1984 1985 1986 1987 1988 1989 1990 1991 1992 1993 1994 1995 1996 1997 1998 1999 2000 2001 2002 2003 2004 2005 2006 2007 2008 2009 2010 2011 2012 2013 2014 2015 2016 2017 2018 2019 2020 2021 2022 2023 2024 2025 2026 2027 2028 2029 2030 2031 2032 2033 2034 2035 2036 2037 2038 2039 2040 2041 2042 2043 2044 2045 2046 2047 2048 2049 2050 2051 2052 2053 2054 2055 2056 2057 2058 2059 2060 2061 2062 2063 2064 2065 2066 2067 2068 2069 2070 2071 2072 2073 2074 2075 2076 2077 2078 2079 2080 2081 2082 2083 2084 2085 2086 2087 2088 2089 2090 2091 2092 2093 2094 2095 2096 2097 2098 2099 2100 2101 2102 2103 2104 2105 2106 2107 2108 2109 2110 2111 2112 2113 2114 2115 2116 2117 2118 2119 2120 2121 2122 2123 2124 2125 2126 2127 2128 2129 2130 2131 2132 2133 2134 2135 2136 2137 2138 2139 2140 2141 2142 2143 2144 2145 2146 2147 2148 2149 2150 2151 2152 2153 2154 2155 2156 2157 2158 2159 2160 2161 2162 2163 2164 2165 2166 2167 2168 2169 2170 2171 2172 2173 2174 2175 2176 2177 2178 2179 2180 2181 2182 2183 2184 2185 2186 2187 2188 2189 2190 2191 2192 2193 2194 2195 2196 2197 2198 2199 2200 2201 2202 2203 2204 2205 2206 2207 2208 2209 2210 2211 2212 2213 2214 2215 2216 2217 2218 2219 2220 2221 2222 2223 2224 2225 2226 2227 2228 2229 2230 2231 2232 2233 2234 2235 2236 2237 2238 2239 2240 2241 2242 2243 2244 2245 2246 2247 2248 2249 2250 2251 2252 2253 2254 2255 2256 2257 2258 2259 2260 2261 2262 2263 2264 2265 2266 2267 2268 2269 2270 2271 2272 2273 2274 2275 2276 2277 2278 2279 2280 2281 2282 2283 2284 2285 2286 2287 2288 2289 2290 2291 2292 2293 2294 2295 2296 2297 2298 2299 2300 2301 2302 2303 2304 2305 2306 2307 2308 2309 2310 2311 2312 2313 2314 2315 2316 2317 2318 2319 2320 2321 2322 2323 2324 2325 2326 2327 2328 2329 2330 2331 2332 2333 2334 2335 2336 2337 2338 2339 2340 2341 2342 2343 2344 2345 2346 2347 2348 2349 2350 2351 2352 2353 2354 2355 2356 2357 2358 2359 2360 2361 2362 2363 2364 2365 2366 2367 2368 2369 2370 2371 2372 2373 2374 2375 2376 2377 2378 2379 2380 2381 2382 2383 2384 2385 2386 2387 2388 2389 2390 2391 2392 2393 2394 2395 2396 2397 2398 2399 2400 2401 2402 2403 2404 2405 2406 2407 2408 2409 2410 2411 2412 2413 2414 2415 2416 2417 2418 2419 2420 2421 2422 2423 2424 2425 2426 2427 2428 2429 2430 2431 2432 2433 2434 2435 2436 2437 2438 2439 2440 2441 2442 2443 2444 2445 2446 2447 2448 2449 2450 2451 2452 2453 2454 2455 2456 2457 2458 2459 2460 2461 2462 2463 2464 2465 2466 2467 2468 2469 2470 2471 2472 2473 2474 2475 2476 2477 2478 2479 2480 2481 2482 2483 2484 2485 2486 2487 2488 2489 2490 2491 2492 2493 2494 2495 2496 2497 2498 2499 2500 2501 2502 2503 2504 2505 2506 2507 2508 2509 2510 2511 2512 2513 2514 2515 2516 2517 2518 2519 2520 2521 2522 2523 2524 2525 2526 2527 2528 2529 2530 2531 2532 2533 2534 2535 2536 2537 2538 2539 2540 2541 2542 2543 2544 2545 2546 2547 2548 2549 2550 2551 2552 2553 2554 2555 2556 2557 2558 2559 2560 2561 2562 2563 2564 2565 2566 2567 2568 2569 2570 2571 2572 2573 2574 2575 2576 2577 2578 2579 2580 2581 2582 2583 2584 2585 2586 2587 2588 2589 2590 2591 2592 2593 2594 2595 2596 2597 2598 2599 2600 2601 2602 2603 2604 2605 2606 2607 2608 2609 2610 2611 2612 2613 2614 2615 2616 2617 2618 2619 2620 2621 2622 2623 2624 2625 2626 2627 2628 2629 2630 2631 2632 2633 2634 2635 2636 2637 2638 2639 2640 2641 2642 2643 2644 2645 2646 2647 2648 2649 2650 2651 2652 2653 2654 2655 2656 2657 2658 2659 2660 2661 2662 2663 2664 2665 2666 2667 2668 2669 2670 2671 2672 2673 2674 2675 2676 2677 2678 2679 2680 2681 2682 2683 2684 2685 2686 2687 2688 2689 2690 2691 2692 2693 2694 2695 2696 2697 2698 2699 2700 2701 2702 2703 2704 2705 2706 2707 2708 2709 2710 2711 2712 2713 2714 2715 2716 2717 2718 2719 2720 2721 2722 2723 2724 2725 2726 2727 2728 2729 2730 2731 2732 2733 2734 2735 2736 2737 2738 2739 2740 2741 2742 2743 2744 2745 2746 2747 2748 2749 2750 2751 2752 2753 2754 2755 2756 2757 2758 2759 2760 2761 2762 2763 2764 2765 2766 2767 2768 2769 2770 2771 2772 2773 2774 2775 2776 2777 2778 2779 2780 2781 2782 2783 2784 2785 2786 2787 2788 2789 2790 2791 2792 2793 2794 2795 2796 2797 2798 2799 2800 2801 2802 2803 2804 2805 2806 2807 2808 2809 2810 2811 2812 2813 2814 2815 2816 2817 2818 2819 2820 2821 2822 2823 2824 2825 2826 2827 2828 2829 2830 2831 2832 2833 2834 2835 2836 2837 2838 2839 2840 2841 2842 2843 2844 2845 2846 2847 2848 2849 2850 2851 2852 2853 2854 2855 2856 2857 2858 2859 2860 2861 2862 2863 2864 2865 2866 2867 2868 2869 2870 2871 2872 2873 2874 2875 
</DataArray>
<DataArray type="UInt32" Name="offsets" format="ascii">
4 8 12 16 20 24 28 32 36 40 44 48 52 56 60 64 68 72 76 80 84 88 92 96 100 104 108 112 116 120 124 128 132 136 140 144 148 152 156 160 164 168 172 176 180 184 188 192 196 200 204 208 212 216 220 224 228 232 236 240 244 248 252 256 260 264 268 272 276 280 284 288 292 296 300 304 308 312 316 320 324 328 332 336 340 344 348 352 356 360 364 368 372 376 380 384 388 392 396 400 404 408 412 416 420 424 428 432 436 440 444 448 452 456 460 464 468 472 476 480 484 488 492 496 500 504 508 512 516 520 524 528 532 536 540 544 548 552 556 560 564 568 572 576 580 584 588 592 596 600 604 608 612 616 620 624 628 632 636 640 644 648 652 656 660 664 668 672 676 680 684 688 692 696 700 704 708 712 716 720 724 728 732 736 740 744 748 752 756 760 764 768 772 776 780 784 788 792 796 800 804 808 812 816 820 824 828 832 836 840 844 848 852 856 860 864 868 872 876 880 884 888 892 896 900 904 908 912 916 920 924 928 932 936 940 944 948 952 956 960 964 968 972 976 980 984 988 992 996 1000 1004 1008 1012 1016 1020 1024 1028 1032 1036 1040 1044 1048 1052 1056 1060 1064 1068 1072 1076 1080 1084 1088 1092 1096 1100 1104 1108 1112 1116 1120 1124 1128 1132 1136 1140 1144 1148 1152 1156 1160 1164 1168 1172 1176 1180 1184 1188 1192 1196 1200 1204 1208 1212 1216 1220 1224 1228 1232 1236 1240 1244 1248 1252 1256 1260 1264 1268 1272 1276 1280 1284 1288 1292 1296 1300 1304 1308 1312 1316 1320 1324 1328 1332 1336 1340 1344 1348 1352 1356 1360 1364 1368 1372 1376 1380 1384 1388 1392 1396 1400 1404 1408 1412 1416 1420 1424 1428 1432 1436 1440 1444 1448 1452 1456 1460 1464 1468 1472 1476 1480 1484 1488 1492 1496 1500 1504 1508 1512 1516 1520 1524 1528 1532 1536 1540 1544 1548 1552 1556 1560 1564 1568 1572 1576 1580 1584 1588 1592 1596 1600 1604 1608 1612 1616 1620 1624 1628 1632 1636 1640 1644 1648 1652 1656 1660 1664 1668 1672 1676 1680 1684 1688 1692 1696 1700 1704 1708 1712 1716 1720 1724 1728 1732 1736 1740 1744 1748 1752 1756 1760 1764 1768 1772 1776 1780 1784 1788 1792 1796 1800 1804 1808 1812 1816 1820 1824 1828 1832 1836 1840 1844 1848 1852 1856 1860 1864 1868 1872 1876 1880 1884 1888 1892 1896 1900 1904 1908 1912 1916 1920 1924 1928 1932 1936 1940 1944 1948 1952 1956 1960 1964 1968 1972 1976 1980 1984 1988 1992 1996 2000 2004 2008 2012 2016 2020 2024 2028 2032 2036 2040 2044 2048 2052 2056 2060 2064 2068 2072 2076 2080 2084 2088 2092 2096 2100 2104 2108 2112 2116 2120 2124 2128 2132 2136 2140 2144 2148 2152 2156 2160 2164 2168 2172 2176 2180 2184 2188 2192 2196 2200 2204 2208 2212 2216 2220 2224 2228 2232 2236 2240 2244 2248 2252 2256 2260 2264 2268 2272 2276 2280 2284 2288 2292 2296 2300 2304 2308 2312 2316 2320 2324 2328 2332 2336 2340 2344 2348 2352 2356 2360 2364 2368 2372 2376 2380 2384 2388 2392 2396 2400 2404 2408 2412 2416 2420 2424 2428 2432 2436 2440 2444 2448 2452 2456 2460 2464 2468 2472 2476 2480 2484 2488 2492 2496 2500 2504 2508 2512 2516 2520 2524 2528 2532 2536 2540 2544 2548 2552 2556 2560 2564 2568 2572 2576 2580 2584 2588 2592 2596 2600 2604 2608 2612 2616 2620 2624 2628 2632 2636 2640 2644 2648 2652 2656 2660 2664 2668 2672 2676 2680 2684 2688 2692 2696 2700 2704 2708 2712 2716 2720 2724 2728 2732 2736 2740 2744 2748 2752 2756 2760 2764 2768 2772 2776 2780 2784 2788 2792 2796 2800 2804 2808 2812 2816 2820 2824 2828 2832 2836 2840 2844 2848 2852 2856 2860 2864 2868 2872 2876 
</DataArray>
<DataArray type="UInt32" Name="types" format="ascii">
10 10 10 10 10 10 10 10 10 10 10 10 10 10 10 10 10 10 10 10 10 10 10 10 10 10 10 10 10 10 10 10 10 10 10 10 10 10 10 10 10 10 10 10 10 10 10 10 10 10 10 10 10 10 10 10 10 10 10 10 10 10 10 10 10 10 10 10 10 10 10 10 10 10 10 10 10 10 10 10 10 10 10 10 10 10 10 10 10 10 10 10 10 10 10 10 10 10 10 10 10 10 10 10 10 10 10 10 10 10 10 10 10 10 10 10 10 10 10 10 10 10 10 10 10 10 10 10 10 10 10 10 10 10 10 10 10 10 10 10 10 10 10 10 10 10 10 10 10 10 10 10 10 10 10 10 10 10 10 10 10 10 10 10 10 10 10 10 10 10 10 10 10 10 10 10 10 10 10 10 10 10 10 10 10 10 10 10 10 10 10 10 10 10 10 10 10 10 10 10 10 10 10 10 10 10 10 10 10 10 10 10 10 10 10 10 10 10 10 10 10 10 10 10 10 10 10 10 10 10 10 10 10 10 10 10 10 10 10 10 10 10 10 10 10 10 10 10 10 10 10 10 10 10 10 10 10 10 10 10 10 10 10 10 10 10 10 10 10 10 10 10 10 10 10 10 10 10 10 10 10 10 10 10 10 10 10 10 10 10 10 10 10 10 10 10 10 10 10 10 10 10 10 10 10 10 10 10 10 10 10 10 10 10 10 10 10 10 10 10 10 10 10 10 10 10 10 10 10 10 10 10 10 10 10 10 10 10 10 10 10 10 10 10 10 10 10 10 10 10 10 10 10 10 10 10 10 10 10 10 10 10 10 10 10 10 10 10 10 10 10 10 10 10 10 10 10 10 10 10 10 10 10 10 10 10 10 10 10 10 10 10 10 10 10 10 10 10 10 10 10 10 10 10 10 10 10 10 10 10 10 10 10 10 10 10 10 10 10 10 10 10 10 10 10 10 10 10 10 10 10 10 10 10 10 10 10 10 10 10 10 10 10 10 10 10 10 10 10 10 10 10 10 10 10 10 10 10 10 10 10 10 10 10 10 10 10 10 10 10 10 10 10 10 10 10 10 10 10 10 10 10 10 10 10 10 10 10 10 10 10 10 10 10 10 10 10 10 10 10 10 10 10 10 10 10 10 10 10 10 10 10 10 10 10 10 10 10 10 10 10 10 10 10 10 10 10 10 10 10 10 10 10 10 10 10 10 10 10 10 10 10 10 10 10 10 10 10 10 10 10 10 10 10 10 10 10 10 10 10 10 10 10 10 10 10 10 10 10 10 10 10 10 10 10 10 10 10 10 10 10 10 10 10 10 10 10 10 10 10 10 10 10 10 10 10 10 10 10 10 10 10 10 10 10 10 10 10 10 10 10 10 10 10 10 10 10 10 10 10 10 10 10 10 10 10 10 10 10 10 10 10 10 10 10 10 10 10 10 10 10 10 10 10 10 10 10 10 10 10 10 10 10 10 10 10 10 10 10 10 10 10 10 10 10 10 10 10 10 10 10 10 10 10 10 10 10 10 10 10 10 10 10 10 10 10 10 10 10 10 10 10 10 10 10 10 10 10 10 10 10 10 10 10 10 10 10 10 10 10 10 10 10 10 10 10 10 10 10 
</DataArray>
</Cells>
<PointData Scalars="" Vectors="displacement," Tensors="">
<DataArray type="Float64" Name="displacement" NumberOfComponents="3" format="ascii">
4.575620485458562e-06 -2.1892342081803759e-10 -9.7080332900328101e-10 9.8789491180238957e-06 -2.1033372401507014e-10 -1.2611971430333398e-09 9.7686314128452067e-06 -9.871903951879631e-11 -2.9304676263877274e-05 5.2908663476210162e-06 -1.4511039931519167e-10 -1.2146706973712348e-09 1.4241660105617364e-14 -3.2503687455659168e-10 -1.3077285920665076e-09 -2.9350580492127959e-14 -2.0271980284692779e-10 -1.3726824476945561e-05 1.8943270168556737e-14 -2.3492368782982135e-10 -1.2115022401244335e-09 4.575620485458562e-06 -2.1892342081803759e-10 -9.7080332900328101e-10 1.4241660105617364e-14 -3.2503687455659168e-10 -1.3077285920665076e-09 4.575620485458562e-06 -2.1892342081803759e-10 -9.7080332900328101e-10 4.5756186671131517e-06 -2.3769946929959074e-10 -1.3726857112178138e-05 6.2503214218619591e-06 -3.5504336976699234e-10 -1.3765647294036179e-09 1.4241660105617364e-14 -3.2503687455659168e-10 -1.3077285920665076e-09 4.0485972954396322e-15 -3.0964298545509982e-10 -1.8750821782527401e-05 -2.9350581034264923e-14 -2.0271980284692779e-10 -1.3726824476945558e-05 4.5756186671131525e-06 -2.376994692995908e-10 -1.3726857112178138e-05 -2.9350581034264923e-14 -2.0271980284692779e-10 -1.3726824476945558e-05 -1.8391364894153905e-15 -1.895727636750174e-10 -2.9635636996504267e-05 9.7686314128452084e-06 -9.8719039518796297e-11 -2.9304676263877277e-05 -1.4801797177588789e-14 -8.751060803593065e-11 -1.5872541037088957e-05 4.5756186671131525e-06 -2.376994692995908e-10 -1.3726857112178138e-05 9.8689161044496708e-06 -3.2053021260063329e-10 -1.7487976158653364e-05 5.2935452106758024e-06 -3.0073961341314693e-10 -2.8136293504327826e-05 9.7686314128452067e-06 -9.871903951879631e-11 -2.9304676263877274e-05 1.4241660105617364e-14 -3.2503687455659168e-10 -1.3077285920665076e-09 -2.9350581034264923e-14 -2.0271980284692779e-10 -1.3726824476945558e-05 4.575620485458562e-06 -2.1892342081803759e-10 -9.7080332900328101e-10 4.5756186671131525e-06 -2.376994692995908e-10 -1.3726857112178138e-05 4.575620485458562e-06 -2.1892342081803759e-10 -9.7080332900328101e-10 4.5756186671131517e-06 -2.376994692995908e-10 -1.3726857112178143e-05 9.8689161044496708e-06 -3.2053021260063329e-10 -1.7487976158653364e-05 9.7686314128452067e-06 -9.871903951879631e-11 -2.9304676263877274e-05 -2.9350581034264923e-14 -2.0271980284692779e-10 -1.3726824476945558e-05 4.575620485458562e-06 -2.1892342081803759e-10 -9.7080332900284591e-10 9.7686314128452084e-06 -9.8719039518796349e-11 -2.930467626387728e-05 -1.4801797177588789e-14 -8.751060803593065e-11 -1.5872541037088957e-05 -2.9350581034264923e-14 -2.0271980284692779e-10 -1.3726824476945558e-05 4.575620485458562e-06 -2.1892342081803759e-10 -9.7080332900289368e-10 4.5756186671131525e-06 -2.376994692995908e-10 -1.3726857112178138e-05 9.7686314128452084e-06 -9.8719039518796297e-11 -2.930467626387728e-05 -2.9350581034264923e-14 -2.0271980284692779e-10 -1.3726824476945558e-05 4.5756186671131525e-06 -2.376994692995908e-10 -1.3726857112178138e-05 5.2935452106758024e-06 -3.0073961341314688e-10 -2.8136293504327826e-05 9.768631412845205e-06 -9.8719039518796362e-11 -2.9304676263877284e-05 4.0485980360122244e-15 -3.0964298545509982e-10 -1.8750821782527401e-05 -2.9350581038300205e-14 -2.0271980284692779e-10 -1.3726824476945558e-05 4.5756186671131525e-06 -2.376994692995908e-10 -1.3726857112178138e-05 5.2935452106758015e-06 -3.0073961341314693e-10 -2.8136293504327826e-05 4.0485980360122244e-15 -3.0964298545509982e-10 -1.8750821782527401e-05 -2.9350581540829644e-14 -2.0271980284692777e-10 -1.3726824476945558e-05 5.2935452106758015e-06 -3.0073961341314693e-10 -2.8136293504327826e-05 -1.8391367890028336e-15 -1.8957276367501743e-10 -2.963563699650427e-05 -2.9350581034264923e-14 -2.0271980284692779e-10 -1.3726824476945558e-05 1.8943270168556737e-14 -2.3492368782982135e-10 -1.2115022401244335e-09 4.575620485458562e-06 -2.1892342081803759e-10 -9.7080332900319188e-10 -1.4801797177588789e-14 -8.751060803593065e-11 -1.5872541037088957e-05 1.8943270168556737e-14 -2.3492368782982135e-10 -1.2115022401244335e-09 4.575620485458562e-06 -2.1892342081803759e-10 -9.7080332900328101e-10 5.2908663476210162e-06 -1.4511039931519165e-10 -1.2146706973721956e-09 -1.4801797177588789e-14 -8.751060803593065e-11 -1.5872541037088957e-05 4.575620485458562e-06 -2.1892342081803759e-10 -9.7080332900328101e-10 6.2503214218619591e-06 -3.5504336976699234e-10 -1.3765647294036179e-09 9.878949118023894e-06 -2.1033372401507014e-10 -1.2611971430352657e-09 9.8689161044496708e-06 -3.2053021260063329e-10 -1.7487976158653364e-05 4.575620485458562e-06 -2.1892342081803759e-10 -9.7080332900328101e-10 4.5756186671131525e-06 -2.376994692995908e-10 -1.3726857112178138e-05 6.2503214218619591e-06 -3.5504336976699234e-10 -1.3765647294036179e-09 9.8689161044496708e-06 -3.2053021260063329e-10 -1.7487976158653364e-05 6.2503214218619591e-06 -3.5504336976699234e-10 -1.3765647294036179e-09 9.878949118023894e-06 -2.1033372401507011e-10 -1.2611971430342385e-09 1.2500770631694391e-05 -3.2551865487265997e-10 -1.6298312782203032e-09 9.8689161044496708e-06 -3.2053021260063329e-10 -1.7487976158653364e-05 4.575620485458562e-06 -2.1892342081803759e-10 -9.7080332900328101e-10 9.8789491180238957e-06 -2.1033372401507014e-10 -1.2611971430330118e-09 9.8689161044496725e-06 -3.2053021260063329e-10 -1.7487976158653364e-05 9.7686314128452067e-06 -9.871903951879631e-11 -2.9304676263877274e-05 9.878949118023894e-06 -2.1033372401507011e-10 -1.2611971430342385e-09 9.8689161044496674e-06 -3.2053021260063324e-10 -1.7487976158653364e-05 9.7686314128452067e-06 -9.8719039518796323e-11 -2.9304676263877277e-05 1.5638472074161017e-05 -2.1739648940378799e-10 -2.1173537326265156e-05 9.878949118023894e-06 -2.1033372401507011e-10 -1.2611971430342385e-09 1.5435874170417609e-05 -3.0158246289131843e-10 -1.2411423166219327e-05 1.563847207416101e-05 -2.1739648940378793e-10 -2.1173537326265159e-05 1.5928102293019531e-05 -1.9230759920185021e-10 -1.1798406967466244e-09 9.878949118023894e-06 -2.1033372401507011e-10 -1.2611971430342385e-09 1.4317220832694591e-05 -1.1877050848856568e-10 -1.0177437396677746e-09 1.563847207416101e-05 -2.1739648940378801e-10 -2.1173537326265166e-05 1.5928102293019531e-05 -1.9230759920185021e-10 -1.1798406967466244e-09 9.878949118023894e-06 -2.1033372401507011e-10 -1.2611971430342385e-09 1.2500770631694391e-05 -3.2551865487265997e-10 -1.6298312782203032e-09 1.5435874170417609e-05 -3.0158246289131838e-10 -1.2411423166219331e-05 1.5928102293019531e-05 -1.9230759920185021e-10 -1.1798406967466244e-09 9.878949118023894e-06 -2.1033372401507011e-10 -1.2611971430342385e-09 1.2500770631694391e-05 -3.2551865487265997e-10 -1.6298312782203032e-09 1.5435874170417606e-05 -3.0158246289131848e-10 -1.2411423166219336e-05 9.8689161044496708e-06 -3.2053021260063329e-10 -1.7487976158653364e-05 1.5435874170417609e-05 -3.0158246289131848e-10 -1.2411423166219332e-05 9.8689161044496708e-06 -3.2053021260063329e-10 -1.7487976158653364e-05 1.4903524049731977e-05 -3.692227584406388e-10 -2.9758047374277314e-05 1.563847207416101e-05 -2.1739648940378796e-10 -2.1173537326265156e-05 9.878949118023894e-06 -2.1033372401507011e-10 -1.2611971430342385e-09 1.5435874170417606e-05 -3.0158246289131848e-10 -1.2411423166219337e-05 9.8689161044496708e-06 -3.2053021260063329e-10 -1.7487976158653361e-05 1.563847207416101e-05 -2.1739648940378791e-10 -2.1173537326265159e-05 1.0046318757326305e-05 -2.7787189418644776e-10 -3.6317496456138513e-05 1.5649015781864109e-05 -1.622829562046691e-10 -4.9581559587152533e-05 6.9031885739609752e-06 -1.6079586038121432e-10 -4.6879764981981213e-05 9.6976195658221885e-06 -2.5740156771759148e-10 -5.0793807950961654e-05 1.0046318757326305e-05 -2.7787189418644776e-10 -3.6317496456138513e-05 5.2935452106758015e-06 -3.0073961341314693e-10 -2.8136293504327826e-05 9.7686314128452067e-06 -9.8719039518796323e-11 -2.930467626387727e-05 6.9031885739609743e-06 -1.6079586038121432e-10 -4.6879764981981213e-05 1.0046318757326305e-05 -2.7787189418644776e-10 -3.6317496456138513e-05 9.7686314128452067e-06 -9.871903951879631e-11 -2.9304676263877274e-05 1.5649015781864112e-05 -1.6228295620466913e-10 -4.9581559587152527e-05 6.9031885739609777e-06 -1.607958603812144e-10 -4.6879764981981219e-05 1.4903524049731977e-05 -3.692227584406388e-10 -2.9758047374277314e-05 1.0046318757326303e-05 -2.7787189418644776e-10 -3.6317496456138513e-05 1.563847207416101e-05 -2.1739648940378796e-10 -2.1173537326265156e-05 1.5649015781864112e-05 -1.6228295620466913e-10 -4.9581559587152527e-05 1.0046318757326305e-05 -2.7787189418644776e-10 -3.6317496456138513e-05 9.7686314128452084e-06 -9.8719039518796323e-11 -2.930467626387727e-05 1.5638472074161007e-05 -2.1739648940378788e-10 -2.1173537326265156e-05 1.5649015781864112e-05 -1.6228295620466913e-10 -4.9581559587152527e-05 9.8689161044496708e-06 -3.2053021260063329e-10 -1.7487976158653364e-05 1.0046318757326305e-05 -2.7787189418644776e-10 -3.6317496456138513e-05 5.2935452106758015e-06 -3.0073961341314693e-10 -2.8136293504327826e-05 9.7686314128452067e-06 -9.871903951879631e-11 -2.9304676263877274e-05 9.8689161044496708e-06 -3.2053021260063329e-10 -1.7487976158653364e-05 1.0046318757326305e-05 -2.7787189418644776e-10 -3.6317496456138513e-05 9.7686314128452067e-06 -9.871903951879631e-11 -2.9304676263877274e-05 1.563847207416101e-05 -2.1739648940378796e-10 -2.1173537326265156e-05 9.8689161044496708e-06 -3.2053021260063329e-10 -1.7487976158653364e-05 1.4903524049731977e-05 -3.692227584406388e-10 -2.9758047374277314e-05 1.0046318757326305e-05 -2.7787189418644776e-10 -3.6317496456138513e-05 1.563847207416101e-05 -2.1739648940378796e-10 -2.1173537326265156e-05 1.0046318757326305e-05 -2.7787189418644776e-10 -3.6317496456138513e-05 1.5625990340109646e-05 -3.1909607908036616e-10 -4.5036512895558497e-05 1.5649015781864112e-05 -1.6228295620466913e-10 -4.958155958715252e-05 9.6976195658221885e-06 -2.5740156771759148e-10 -5.0793807950961654e-05 1.4903524049731977e-05 -3.692227584406388e-10 -2.9758047374277314e-05 1.0046318757326305e-05 -2.7787189418644776e-10 -3.6317496456138513e-05 1.5625990340109646e-05 -3.1909607908036616e-10 -4.5036512895558504e-05 1.5649015781864112e-05 -1.6228295620466913e-10 -4.9581559587152527e-05 1.0046318757326305e-05 -2.7787189418644776e-10 -3.6317496456138513e-05 5.1161760617393231e-06 -2.9973527601356253e-10 -4.5812627991230138e-05 6.9031885739609752e-06 -1.6079586038121432e-10 -4.6879764981981213e-05 9.6976195658221885e-06 -2.5740156771759148e-10 -5.0793807950961654e-05 1.0046318757326305e-05 -2.7787189418644776e-10 -3.6317496456138513e-05 5.1161760617393231e-06 -2.9973527601356253e-10 -4.5812627991230138e-05 5.2935452106758015e-06 -3.0073961341314693e-10 -2.8136293504327826e-05 6.9031885739609752e-06 -1.6079586038121432e-10 -4.6879764981981213e-05 -2.9350581034264923e-14 -2.0271980284692779e-10 -1.3726824476945558e-05 5.2935452106758024e-06 -3.0073961341314693e-10 -2.8136293504327823e-05 -1.8391367890028336e-15 -1.8957276367501743e-10 -2.963563699650427e-05 9.7686314128452084e-06 -9.871903951879631e-11 -2.9304676263877274e-05 5.1161760617393231e-06 -2.9973527601356253e-10 -4.5812627991230138e-05 5.2935452106758007e-06 -3.0073961341314698e-10 -2.8136293504327826e-05 -1.8391367890028336e-15 -1.8957276367501743e-10 -2.963563699650427e-05 6.9031885739609752e-06 -1.6079586038121432e-10 -4.6879764981981213e-05 5.2935452106758015e-06 -3.0073961341314693e-10 -2.8136293504327826e-05 -1.839137423422547e-15 -1.8957276367501743e-10 -2.9635636996504277e-05 9.768631412845205e-06 -9.8719039518796349e-11 -2.9304676263877284e-05 6.9031885739609752e-06 -1.6079586038121429e-10 -4.6879764981981206e-05 5.1161760617393231e-06 -2.9973527601356253e-10 -4.5812627991230138e-05 2.8411164821084479e-15 -3.609634870788798e-10 -3.7500435216590045e-05 -6.9730677009518308e-15 -2.3774173402729518e-10 -4.7781568686663938e-05 1.0013897797206857e-14 -4.0660738170975417e-10 -5.6250025531785973e-05 5.1161760617393231e-06 -2.9973527601356253e-10 -4.5812627991230138e-05 2.8411164821084479e-15 -3.609634870788798e-10 -3.7500435216590045e-05 5.2935452106758015e-06 -3.0073961341314698e-10 -2.8136293504327829e-05 -1.8391367890028336e-15 -1.8957276367501743e-10 -2.963563699650427e-05 5.1161760617393231e-06 -2.9973527601356253e-10 -4.5812627991230138e-05 2.8411161438509229e-15 -3.6096348707887986e-10 -3.7500435216590052e-05 -1.8391367890028336e-15 -1.8957276367501743e-10 -2.963563699650427e-05 -6.9730677009518308e-15 -2.3774173402729518e-10 -4.7781568686663938e-05 4.0485980360122244e-15 -3.0964298545509982e-10 -1.8750821782527401e-05 2.8411164821084479e-15 -3.609634870788798e-10 -3.7500435216590045e-05 5.2935452106758015e-06 -3.0073961341314693e-10 -2.8136293504327826e-05 -1.8391367890028336e-15 -1.8957276367501743e-10 -2.963563699650427e-05 5.1161760617393231e-06 -2.9973527601356253e-10 -4.5812627991230138e-05 -1.8391363927883196e-15 -1.8957276367501743e-10 -2.9635636996504267e-05 6.9031885739609752e-06 -1.6079586038121437e-10 -4.6879764981981219e-05 -6.9730677032109928e-15 -2.3774173402729518e-10 -4.7781568686663938e-05 -1.8391367890028336e-15 -1.8957276367501743e-10 -2.963563699650427e-05 -2.6313292219975357e-15 -1.086825179380596e-10 -4.294938153000757e-05 6.9031885739609769e-06 -1.6079586038121427e-10 -4.6879764981981213e-05 -6.9730677009518308e-15 -2.3774173402729518e-10 -4.7781568686663938e-05 -1.8391367890028336e-15 -1.8957276367501743e-10 -2.963563699650427e-05 2.1465206424550786e-15 -4.7484203334314864e-11 -3.086803867750242e-05 9.7686314128452067e-06 -9.871903951879631e-11 -2.9304676263877274e-05 -1.4801797177588789e-14 -8.751060803593065e-11 -1.5872541037088957e-05 -2.631329392488572e-15 -1.0868251793805958e-10 -4.294938153000757e-05 9.768631412845205e-06 -9.871903951879631e-11 -2.9304676263877264e-05 7.7408888467154043e-06 2.1400440472576621e-11 -4.2280181507588617e-05 6.9031885739609752e-06 -1.6079586038121432e-10 -4.6879764981981213e-05 -1.8391367890028336e-15 -1.8957276367501743e-10 -2.963563699650427e-05 -2.631329392488572e-15 -1.0868251793805958e-10 -4.294938153000757e-05 2.1465202955727378e-15 -4.7484203334314864e-11 -3.086803867750242e-05 9.7686314128452067e-06 -9.871903951879631e-11 -2.9304676263877274e-05 2.1465202955727378e-15 -4.7484203334314864e-11 -3.086803867750242e-05 9.7686314128452067e-06 -9.871903951879631e-11 -2.9304676263877274e-05 6.9835545031663634e-06 1.0423397359959065e-11 -2.0950150144393267e-05 7.7408888467154043e-06 2.1400440472576618e-11 -4.2280181507588617e-05 -2.631329392488572e-15 -1.0868251793805958e-10 -4.294938153000757e-05 2.1465201810978841e-15 -4.7484203334314871e-11 -3.086803867750242e-05 9.7686314128452067e-06 -9.8719039518796336e-11 -2.9304676263877274e-05 7.7408888467154043e-06 2.1400440472576621e-11 -4.2280181507588617e-05 2.1465202955727378e-15 -4.7484203334314864e-11 -3.086803867750242e-05 9.7686314128452067e-06 -9.871903951879631e-11 -2.9304676263877274e-05 -1.4801797177588789e-14 -8.751060803593065e-11 -1.5872541037088957e-05 6.9835545031663625e-06 1.0423397359959084e-11 -2.0950150144393267e-05 -1.8391367890028336e-15 -1.8957276367501743e-10 -2.963563699650427e-05 -2.6313291851481759e-15 -1.0868251793805959e-10 -4.2949381530007577e-05 9.7686314128452067e-06 -9.8719039518796297e-11 -2.930467626387727e-05 6.903188573960976e-06 -1.6079586038121437e-10 -4.6879764981981226e-05 -2.631329392488572e-15 -1.0868251793805958e-10 -4.294938153000757e-05 2.1465200545711484e-15 -4.7484203334314871e-11 -3.086803867750242e-05 7.740888846715406e-06 2.1400440472576618e-11 -4.228018150758861e-05 -6.7683431155888721e-15 4.0493705746180211e-12 -4.8714121995995549e-05 9.7686314128452067e-06 -9.871903951879631e-11 -2.9304676263877274e-05 1.5638595840535126e-05 -2.0842065801033985e-11 -2.3403715355258464e-05 1.5626007469761113e-05 -1.7947186422097878e-12 -4.6875390101611862e-05 1.5649015781864112e-05 -1.6228295620466913e-10 -4.9581559587152527e-05 9.7686314128452067e-06 -9.871903951879631e-11 -2.9304676263877274e-05 6.9835545031663625e-06 1.0423397359959089e-11 -2.0950150144393264e-05 7.7408888467154043e-06 2.1400440472576621e-11 -4.2280181507588617e-05 1.5638595840535126e-05 -2.0842065801033982e-11 -2.3403715355258464e-05 9.7686314128452067e-06 -9.871903951879631e-11 -2.9304676263877274e-05 1.563847207416101e-05 -2.1739648940378796e-10 -2.1173537326265159e-05 1.5638595840535126e-05 -2.0842065801033982e-11 -2.3403715355258464e-05 1.5649015781864112e-05 -1.6228295620466915e-10 -4.9581559587152527e-05 9.7686314128452067e-06 -9.871903951879631e-11 -2.9304676263877274e-05 7.7408888467154043e-06 2.1400440472576611e-11 -4.2280181507588617e-05 1.5626007469761117e-05 -1.7947186422098118e-12 -4.6875390101611849e-05 1.5649015781864112e-05 -1.6228295620466913e-10 -4.9581559587152527e-05 9.7686314128452067e-06 -9.871903951879631e-11 -2.9304676263877274e-05 7.7408888467154043e-06 2.1400440472576621e-11 -4.2280181507588617e-05 1.5638595840535126e-05 -2.0842065801033995e-11 -2.3403715355258468e-05 1.5626007469761117e-05 -1.7947186422098627e-12 -4.6875390101611862e-05 9.7686314128452067e-06 -9.871903951879631e-11 -2.9304676263877274e-05 7.7408888467154043e-06 2.1400440472576624e-11 -4.228018150758861e-05 1.5649015781864112e-05 -1.6228295620466913e-10 -4.9581559587152527e-05 6.9031885739609752e-06 -1.6079586038121432e-10 -4.6879764981981213e-05 9.7686314128452067e-06 -9.871903951879631e-11 -2.9304676263877274e-05 1.4317220832694591e-05 -1.1877050848856568e-10 -1.0177437396677746e-09 1.0289794207172226e-05 -7.5403124792267813e-11 -1.4010547198892769e-09 1.5638595840535126e-05 -2.0842065801033962e-11 -2.3403715355258461e-05 1.0289794207172227e-05 -7.5403124792267865e-11 -1.401054719890472e-09 6.9835545031663625e-06 1.0423397359959084e-11 -2.0950150144393267e-05 1.0140216880563016e-05 6.788009545532211e-11 -1.4693990174246196e-09 1.5638595840535126e-05 -2.0842065801033982e-11 -2.3403715355258464e-05 9.7686314128452067e-06 -9.871903951879631e-11 -2.9304676263877274e-05 1.4317220832694591e-05 -1.1877050848856568e-10 -1.0177437396677746e-09 1.563847207416101e-05 -2.1739648940378796e-10 -2.1173537326265156e-05 1.5638595840535126e-05 -2.0842065801033982e-11 -2.3403715355258464e-05 9.878949118023894e-06 -2.1033372401507011e-10 -1.2611971430342385e-09 9.7686314128452067e-06 -9.871903951879631e-11 -2.9304676263877274e-05 1.4317220832694591e-05 -1.1877050848856568e-10 -1.0177437396677746e-09 1.0289794207172227e-05 -7.5403124792267865e-11 -1.401054719890472e-09 9.7686314128452067e-06 -9.871903951879631e-11 -2.9304676263877274e-05 1.0289794207172231e-05 -7.5403124792267852e-11 -1.4010547198846176e-09 5.2908663476210162e-06 -1.4511039931519167e-10 -1.2146706973712348e-09 6.9835545031663625e-06 1.0423397359959084e-11 -2.0950150144393267e-05 9.878949118023894e-06 -2.1033372401507011e-10 -1.2611971430342385e-09 9.7686314128452067e-06 -9.871903951879622e-11 -2.9304676263877277e-05 1.4317220832694591e-05 -1.1877050848856568e-10 -1.0177437396677746e-09 1.563847207416101e-05 -2.1739648940378801e-10 -2.1173537326265159e-05 9.7686314128452067e-06 -9.871903951879631e-11 -2.9304676263877274e-05 1.0289794207172227e-05 -7.5403124792267878e-11 -1.4010547198855037e-09 6.9835545031663625e-06 1.0423397359959084e-11 -2.0950150144393267e-05 1.5638595840535126e-05 -2.0842065801033978e-11 -2.3403715355258461e-05 9.878949118023894e-06 -2.1033372401507011e-10 -1.2611971430342385e-09 9.7686314128452067e-06 -9.871903951879631e-11 -2.9304676263877274e-05 1.0289794207172227e-05 -7.5403124792267865e-11 -1.401054719890472e-09 5.2908663476210162e-06 -1.4511039931519167e-10 -1.2146706973712348e-09 1.0289794207172227e-05 -7.5403124792267865e-11 -1.401054719890472e-09 1.0140216880563016e-05 6.788009545532211e-11 -1.469399017425271e-09 1.623902355964975e-05 2.3597046368516875e-11 -1.3010143685201314e-09 1.5638595840535126e-05 -2.0842065801033982e-11 -2.3403715355258464e-05 1.4317220832694591e-05 -1.1877050848856568e-10 -1.0177437396677746e-09 1.0289794207172227e-05 -7.5403124792267865e-11 -1.401054719890472e-09 1.623902355964975e-05 2.3597046368516868e-11 -1.3010143685188283e-09 1.5638595840535126e-05 -2.0842065801033982e-11 -2.3403715355258464e-05 4.575620485458562e-06 -2.1892342081803759e-10 -9.7080332900328101e-10 9.7686314128452084e-06 -9.8719039518796297e-11 -2.9304676263877274e-05 5.2908663476210162e-06 -1.4511039931519167e-10 -1.2146706973712348e-09 -1.4801797177588789e-14 -8.751060803593065e-11 -1.5872541037088957e-05 9.7686314128452067e-06 -9.871903951879631e-11 -2.9304676263877274e-05 5.2908663476210145e-06 -1.4511039931519167e-10 -1.2146706973744275e-09 -1.4801795529621736e-14 -8.7510608035930689e-11 -1.5872541037088953e-05 6.9835545031663634e-06 1.0423397359959081e-11 -2.0950150144393264e-05 5.3835011812767699e-06 -1.034381394091929e-11 -1.3238172031968025e-09 5.2908663476210162e-06 -1.4511039931519167e-10 -1.2146706973712348e-09 -1.3971687694909722e-14 -4.8894291287095533e-12 -1.6150548187413943e-05 6.9835545031663625e-06 1.0423397359959084e-11 -2.0950150144393267e-05 1.0289794207172227e-05 -7.5403124792267865e-11 -1.401054719890472e-09 5.3835011812767699e-06 -1.034381394091929e-11 -1.3238172031968025e-09 5.2908663476210162e-06 -1.4511039931519167e-10 -1.2146706973712348e-09 6.9835545031663625e-06 1.0423397359959084e-11 -2.0950150144393267e-05 1.8943270168556737e-14 -2.3492368782982135e-10 -1.2115022401244335e-09 5.2908663476210162e-06 -1.4511039931519167e-10 -1.214670697370267e-09 -1.4801797177588789e-14 -8.751060803593065e-11 -1.5872541037088957e-05 2.2817390742360989e-14 -1.0451193987126069e-10 -1.54633151648899e-09 5.2908663476210162e-06 -1.4511039931519167e-10 -1.2146706973712348e-09 -1.480179803906014e-14 -8.7510608035930676e-11 -1.5872541037088957e-05 -1.3971686519794062e-14 -4.8894291287095444e-12 -1.6150548187413939e-05 2.2817390742360989e-14 -1.0451193987126069e-10 -1.54633151648899e-09 5.2908663476210162e-06 -1.4511039931519167e-10 -1.2146706973712348e-09 -1.4801796497163533e-14 -8.751060803593065e-11 -1.5872541037088964e-05 -1.3971686675952738e-14 -4.8894291287095387e-12 -1.6150548187413936e-05 6.9835545031663625e-06 1.0423397359959084e-11 -2.0950150144393267e-05 2.1465202955727378e-15 -4.7484203334314864e-11 -3.086803867750242e-05 -1.4801797177588789e-14 -8.751060803593065e-11 -1.5872541037088957e-05 -1.3971687694909722e-14 -4.8894291287095533e-12 -1.6150548187413943e-05 6.9835545031663625e-06 1.0423397359959084e-11 -2.0950150144393267e-05 5.3835011812767699e-06 -1.034381394091929e-11 -1.3238172031968025e-09 -1.3971688356086739e-14 -4.8894291287095533e-12 -1.6150548187413939e-05 2.2817390549496968e-14 -1.0451193987126069e-10 -1.54633151648899e-09 9.9060776318836498e-15 8.4398395419629356e-11 -1.4435618472785914e-09 5.3835011812767699e-06 -1.034381394091929e-11 -1.3238172031968025e-09 5.2908663476210162e-06 -1.4511039931519167e-10 -1.2146706973712348e-09 -1.3971687575642378e-14 -4.8894291287095452e-12 -1.6150548187413946e-05 2.2817390742360989e-14 -1.0451193987126069e-10 -1.54633151648899e-09 6.9835545031663625e-06 1.0423397359959084e-11 -2.0950150144393267e-05 -5.8937628861044447e-15 9.7513856213610059e-11 -1.4904214124021723e-05 -1.8345834238276999e-15 5.0873603929225542e-11 -3.0419303355713899e-05 6.018854833819285e-06 1.4989567643685937e-10 -1.8056193251567463e-05 4.9680631765175754e-06 1.151096350599512e-10 -1.2084234794413826e-09 6.9835545031663634e-06 1.0423397359959089e-11 -2.0950150144393271e-05 -5.893761916502949e-15 9.7513856213610072e-11 -1.4904214124021733e-05 6.018854833819285e-06 1.4989567643685934e-10 -1.8056193251567467e-05 5.3835011812767699e-06 -1.034381394091929e-11 -1.3238172031968025e-09 9.9060776318836498e-15 8.4398395419629356e-11 -1.4435618472785914e-09 4.9680631765175754e-06 1.151096350599512e-10 -1.2084234794413826e-09 -5.893761916502949e-15 9.7513856213610072e-11 -1.4904214124021733e-05 4.9680631765175754e-06 1.151096350599512e-10 -1.2084234794413826e-09 6.9835545031663634e-06 1.0423397359959086e-11 -2.0950150144393271e-05 6.0188548338192842e-06 1.4989567643685934e-10 -1.8056193251567467e-05 1.0140216880563016e-05 6.788009545532211e-11 -1.4693990174246196e-09 5.3835011812767699e-06 -1.034381394091929e-11 -1.3238172031968025e-09 -1.3971687103089445e-14 -4.8894291287095274e-12 -1.6150548187413943e-05 9.9060776318836498e-15 8.4398395419629356e-11 -1.4435618472785914e-09 -5.893762514191648e-15 9.7513856213610059e-11 -1.4904214124021734e-05 9.9060776318836498e-15 8.4398395419629356e-11 -1.4435618472785914e-09 4.9680631765175754e-06 1.151096350599512e-10 -1.2084234794413826e-09 -5.893761916502949e-15 9.7513856213610072e-11 -1.4904214124021733e-05 3.4133727309077817e-15 2.1478247613043756e-10 -1.1743892163893347e-09 4.9680631765175754e-06 1.151096350599512e-10 -1.2084234794413826e-09 6.0188548338192859e-06 1.4989567643685937e-10 -1.8056193251567467e-05 9.7091051152245958e-06 2.2762904402258336e-10 -1.3083165408743264e-09 1.0140216880563016e-05 6.788009545532211e-11 -1.4693990174246196e-09 5.3835011812767699e-06 -1.034381394091929e-11 -1.3238172031968025e-09 4.9680631765175754e-06 1.151096350599512e-10 -1.2084234794413826e-09 6.9835545031663625e-06 1.0423397359959084e-11 -2.0950150144393267e-05 1.0140216880563016e-05 6.788009545532211e-11 -1.4693990174246196e-09 5.3835011812767699e-06 -1.034381394091929e-11 -1.3238172031968025e-09 4.9680631765175754e-06 1.151096350599512e-10 -1.2084234794413826e-09 6.9835545031663625e-06 1.0423397359959084e-11 -2.0950150144393267e-05 -5.893761916502949e-15 9.7513856213610072e-11 -1.4904214124021733e-05 -5.893761916502949e-15 9.7513856213610072e-11 -1.4904214124021733e-05 -1.8345830369405976e-15 5.0873603929225536e-11 -3.0419303355713889e-05 -1.4194941103144841e-15 2.0162718965352095e-10 -2.9126012816447077e-05 6.0188548338192833e-06 1.4989567643685934e-10 -1.8056193251567467e-05 -1.3971687694909722e-14 -4.8894291287095533e-12 -1.6150548187413943e-05 6.9835545031663625e-06 1.0423397359959084e-11 -2.0950150144393267e-05 -5.893761916502949e-15 9.7513856213610072e-11 -1.4904214124021733e-05 -1.8345830369405976e-15 5.0873603929225536e-11 -3.0419303355713889e-05 5.3835011812767699e-06 -1.034381394091929e-11 -1.3238172031968025e-09 -1.3971687835442798e-14 -4.8894291287095169e-12 -1.6150548187413943e-05 6.9835545031663625e-06 1.0423397359959084e-11 -2.0950150144393267e-05 -5.8937631655315289e-15 9.7513856213610046e-11 -1.4904214124021734e-05 -1.8345830369405976e-15 5.0873603929225536e-11 -3.0419303355713889e-05 7.0369964762738483e-06 1.8630182230162109e-10 -4.5175849460323019e-05 6.018854833819285e-06 1.4989567643685932e-10 -1.8056193251567467e-05 1.1203404675539148e-05 1.2402564047282399e-10 -2.815368643191307e-05 2.1465202955727378e-15 -4.7484203334314864e-11 -3.086803867750242e-05 6.9835545031663634e-06 1.0423397359959089e-11 -2.0950150144393261e-05 -1.8345830369405976e-15 5.0873603929225536e-11 -3.0419303355713889e-05 7.7408888467154043e-06 2.1400440472576618e-11 -4.2280181507588617e-05 -1.8345830369405976e-15 5.0873603929225536e-11 -3.0419303355713889e-05 -1.4194941103144841e-15 2.0162718965352095e-10 -2.9126012816447077e-05 7.0369964762738483e-06 1.8630182230162109e-10 -4.5175849460323026e-05 6.0188548338192842e-06 1.4989567643685934e-10 -1.8056193251567463e-05 6.9835545031663625e-06 1.0423397359959084e-11 -2.0950150144393267e-05 -1.8345840168718336e-15 5.0873603929225542e-11 -3.0419303355713892e-05 6.0188548338192842e-06 1.4989567643685934e-10 -1.8056193251567456e-05 1.1203404675539148e-05 1.2402564047282399e-10 -2.815368643191307e-05 2.1465202955727378e-15 -4.7484203334314864e-11 -3.086803867750242e-05 -1.3971687694909722e-14 -4.8894291287095533e-12 -1.6150548187413943e-05 6.9835545031663625e-06 1.0423397359959084e-11 -2.0950150144393267e-05 -1.8345830369405976e-15 5.0873603929225536e-11 -3.0419303355713889e-05 -1.8345830369405976e-15 5.0873603929225536e-11 -3.0419303355713889e-05 7.7408888467154043e-06 2.1400440472576637e-11 -4.2280181507588624e-05 7.03699647627385e-06 1.8630182230162107e-10 -4.5175849460323019e-05 1.1203404675539148e-05 1.2402564047282399e-10 -2.815368643191307e-05 6.9835545031663625e-06 1.0423397359959084e-11 -2.0950150144393267e-05 -1.8345844077460086e-15 5.0873603929225549e-11 -3.0419303355713889e-05 7.7408888467154043e-06 2.1400440472576621e-11 -4.2280181507588617e-05 1.1203404675539148e-05 1.2402564047282399e-10 -2.815368643191307e-05 2.1465202955727378e-15 -4.7484203334314864e-11 -3.086803867750242e-05 -1.8345834746903702e-15 5.0873603929225536e-11 -3.0419303355713889e-05 7.7408888467154043e-06 2.1400440472576621e-11 -4.2280181507588617e-05 -6.7683431155888721e-15 4.0493705746180211e-12 -4.8714121995995549e-05 -1.8345830369405976e-15 5.0873603929225536e-11 -3.0419303355713889e-05 7.7408888467154043e-06 2.1400440472576621e-11 -4.2280181507588617e-05 1.4263208885181624e-15 1.206157157391123e-10 -4.281083552826696e-05 -6.7683431155888721e-15 4.0493705746180211e-12 -4.8714121995995549e-05 7.7408888467154043e-06 2.1400440472576621e-11 -4.2280181507588617e-05 1.4263208829908775e-15 1.206157157391123e-10 -4.2810835528266947e-05 7.0369964762738492e-06 1.8630182230162109e-10 -4.5175849460323019e-05 -4.990962290305356e-15 1.0636761240637029e-10 -5.6197752480315272e-05 -1.8345830369405976e-15 5.0873603929225536e-11 -3.0419303355713889e-05 1.4263208885181624e-15 1.206157157391123e-10 -4.281083552826696e-05 -1.41949425736956e-15 2.0162718965352095e-10 -2.9126012816447077e-05 7.0369964762738492e-06 1.8630182230162109e-10 -4.5175849460323019e-05 -1.8345830369405976e-15 5.0873603929225536e-11 -3.0419303355713889e-05 7.7408888467154043e-06 2.1400440472576637e-11 -4.2280181507588617e-05 1.4263208885181624e-15 1.206157157391123e-10 -4.281083552826696e-05 7.0369964762738492e-06 1.8630182230162109e-10 -4.5175849460323026e-05 7.0369964762738492e-06 1.8630182230162109e-10 -4.5175849460323019e-05 5.2908893662061765e-06 3.0292325512699037e-10 -2.8195810911366051e-05 6.0188548338192859e-06 1.4989567643685929e-10 -1.8056193251567456e-05 1.0290216328827696e-05 3.5333005823908092e-10 -3.7140530282860131e-05 -1.4194941103144841e-15 2.0162718965352095e-10 -2.9126012816447077e-05 7.0369964762738475e-06 1.8630182230162109e-10 -4.5175849460323019e-05 5.2908893662061756e-06 3.0292325512699042e-10 -2.8195810911366054e-05 6.018854833819285e-06 1.4989567643685934e-10 -1.8056193251567467e-05 -1.4194941103144841e-15 2.0162718965352095e-10 -2.9126012816447077e-05 7.0369964762738475e-06 1.8630182230162115e-10 -4.5175849460323026e-05 5.3835198419056041e-06 3.3029302805570319e-10 -4.6722024248783616e-05 -7.8321784730502574e-15 2.3945230698647183e-10 -4.7628340732010551e-05 1.4263208885181624e-15 1.206157157391123e-10 -4.281083552826696e-05 -1.4194941103144841e-15 2.0162718965352095e-10 -2.9126012816447077e-05 7.0369964762738492e-06 1.8630182230162109e-10 -4.5175849460323019e-05 -7.8321784730502574e-15 2.3945230698647183e-10 -4.7628340732010551e-05 -1.4194941103144841e-15 2.0162718965352095e-10 -2.9126012816447077e-05 3.6848122760849879e-15 3.8700978124165419e-10 -3.7500454398544511e-05 5.3835198419056058e-06 3.3029302805570309e-10 -4.6722024248783622e-05 -7.8321784730502574e-15 2.3945230698647183e-10 -4.7628340732010551e-05 -1.4194941103144841e-15 2.0162718965352095e-10 -2.9126012816447077e-05 3.6848122760849879e-15 3.8700978124165419e-10 -3.7500454398544511e-05 5.3835198419056049e-06 3.3029302805570309e-10 -4.6722024248783616e-05 5.2908893662061765e-06 3.0292325512699037e-10 -2.8195810911366051e-05 -1.4194941103144841e-15 2.0162718965352095e-10 -2.9126012816447077e-05 7.0369964762738475e-06 1.8630182230162115e-10 -4.5175849460323033e-05 5.3835198419056007e-06 3.3029302805570319e-10 -4.6722024248783616e-05 5.2908893662061765e-06 3.0292325512699037e-10 -2.8195810911366051e-05 7.0369964762738492e-06 1.8630182230162109e-10 -4.5175849460323019e-05 5.3835198419056041e-06 3.3029302805570319e-10 -4.6722024248783616e-05 5.2908893662061765e-06 3.0292325512699037e-10 -2.8195810911366051e-05 1.0290216328827696e-05 3.5333005823908092e-10 -3.7140530282860137e-05 -1.4194941103144841e-15 2.0162718965352095e-10 -2.9126012816447077e-05 3.6848119582524203e-15 3.8700978124165424e-10 -3.7500454398544511e-05 5.2908893662061765e-06 3.0292325512699037e-10 -2.8195810911366051e-05 2.3592366912902347e-15 3.0308847833263507e-10 -1.8750848624116384e-05 -1.4194941103144841e-15 2.0162718965352095e-10 -2.9126012816447077e-05 5.2908893662061765e-06 3.0292325512699037e-10 -2.8195810911366051e-05 2.3592366912902347e-15 3.0308847833263507e-10 -1.8750848624116384e-05 -2.1464712703110729e-14 2.0771989383359759e-10 -1.3726849714683007e-05 5.2908893662061765e-06 3.0292325512699037e-10 -2.8195810911366051e-05 2.3592368309176533e-15 3.0308847833263507e-10 -1.8750848624116381e-05 -2.1464712703110729e-14 2.0771989383359759e-10 -1.3726849714683007e-05 4.5756236310516755e-06 2.4270492572868487e-10 -1.3726903372485775e-05 1.045388775614988e-14 3.269249126557622e-10 -1.3300845526301465e-09 4.5755946782839257e-06 2.1641521522256881e-10 -9.6843018021314698e-10 6.2503371525868492e-06 3.4404658748805046e-10 -1.3290154345889579e-09 4.5756236310516755e-06 2.4270492572868487e-10 -1.3726903372485775e-05 2.3592366912902347e-15 3.0308847833263507e-10 -1.8750848624116384e-05 1.0453887756149882e-14 3.269249126557622e-10 -1.3300845526305531e-09 -2.1464712703110729e-14 2.0771989383359759e-10 -1.3726849714683007e-05 4.5756236310516755e-06 2.4270492572868487e-10 -1.3726903372485775e-05 1.045388775614988e-14 3.269249126557622e-10 -1.3300845526301465e-09 -2.1464713073393913e-14 2.0771989383359759e-10 -1.3726849714683007e-05 4.5755946782839257e-06 2.1641521522256881e-10 -9.6843018021314698e-10 4.5756236310516755e-06 2.4270492572868487e-10 -1.3726903372485775e-05 1.045388775614988e-14 3.269249126557622e-10 -1.3300845526301465e-09 3.4133719903390762e-15 2.1478247613043756e-10 -1.1743892163871131e-09 -2.1464712703110729e-14 2.0771989383359759e-10 -1.3726849714683007e-05 4.5755946782839257e-06 2.1641521522256881e-10 -9.6843018021314698e-10 4.9680631765175754e-06 1.151096350599512e-10 -1.2084234794413826e-09 -5.893761916502949e-15 9.7513856213610072e-11 -1.4904214124021733e-05 -2.1464712703110729e-14 2.0771989383359759e-10 -1.3726849714683007e-05 6.018854833819285e-06 1.4989567643685934e-10 -1.8056193251567467e-05 4.9680631765175754e-06 1.151096350599512e-10 -1.2084234794413826e-09 3.4133727309077817e-15 2.1478247613043756e-10 -1.1743892163893347e-09 -2.1464712703110729e-14 2.0771989383359759e-10 -1.3726849714683007e-05 4.5755946782839257e-06 2.1641521522256881e-10 -9.6843018021314698e-10 -2.1464712703110729e-14 2.0771989383359759e-10 -1.3726849714683007e-05 6.0188548338192859e-06 1.4989567643685934e-10 -1.8056193251567467e-05 4.5755946782839265e-06 2.1641521522256879e-10 -9.6843018021301339e-10 4.5756236310516755e-06 2.4270492572868487e-10 -1.3726903372485775e-05 4.9680631765175754e-06 1.151096350599512e-10 -1.2084234794413826e-09 -5.8937609084053196e-15 9.7513856213610059e-11 -1.4904214124021734e-05 3.4133727309077817e-15 2.1478247613043756e-10 -1.1743892163893347e-09 -2.1464712703110729e-14 2.0771989383359759e-10 -1.3726849714683007e-05 4.9680631765175754e-06 1.151096350599512e-10 -1.2084234794413826e-09 -2.1464712703110729e-14 2.0771989383359759e-10 -1.3726849714683007e-05 6.018854833819285e-06 1.4989567643685934e-10 -1.8056193251567467e-05 4.5755946782839257e-06 2.1641521522256881e-10 -9.6843018021314698e-10 -1.4194941103144841e-15 2.0162718965352095e-10 -2.9126012816447077e-05 5.2908893662061765e-06 3.0292325512699037e-10 -2.8195810911366051e-05 -2.1464712538480018e-14 2.0771989383359756e-10 -1.3726849714683007e-05 6.018854833819285e-06 1.4989567643685934e-10 -1.8056193251567467e-05 -5.893761916502949e-15 9.7513856213610072e-11 -1.4904214124021733e-05 -1.4194943918129052e-15 2.0162718965352095e-10 -2.9126012816447077e-05 -2.1464712703110729e-14 2.0771989383359759e-10 -1.3726849714683007e-05 6.0188548338192833e-06 1.4989567643685934e-10 -1.8056193251567467e-05 6.018854833819285e-06 1.4989567643685934e-10 -1.8056193251567467e-05 4.5755946782839274e-06 2.1641521522256881e-10 -9.6843018021832865e-10 4.5756236310516772e-06 2.4270492572868493e-10 -1.3726903372485777e-05 9.7091051152245958e-06 2.2762904402258336e-10 -1.3083165408743264e-09 4.9680631765175754e-06 1.151096350599512e-10 -1.2084234794413826e-09 6.0188548338192859e-06 1.4989567643685937e-10 -1.8056193251567467e-05 4.5755946782839257e-06 2.1641521522256881e-10 -9.6843018021314698e-10 9.7091051152245958e-06 2.2762904402258336e-10 -1.3083165408743264e-09 4.5755946782839257e-06 2.1641521522256881e-10 -9.6843018021314698e-10 6.2503371525868492e-06 3.4404658748805046e-10 -1.3290154345890412e-09 4.5756236310516755e-06 2.4270492572868487e-10 -1.3726903372485775e-05 9.7091051152245958e-06 2.2762904402258336e-10 -1.3083165408743264e-09 6.2503371525868492e-06 3.4404658748805046e-10 -1.3290154345889579e-09 4.5756236310516755e-06 2.4270492572868487e-10 -1.3726903372485775e-05 9.886844839628814e-06 3.1776111715129437e-10 -1.7643781644732172e-05 9.7091051152245958e-06 2.2762904402258336e-10 -1.3083165408743264e-09 6.018854833819285e-06 1.4989567643685934e-10 -1.8056193251567467e-05 4.5756236310516755e-06 2.4270492572868487e-10 -1.3726903372485775e-05 9.886844839628814e-06 3.1776111715129442e-10 -1.7643781644732172e-05 9.7091051152245958e-06 2.2762904402258336e-10 -1.308316540873092e-09 5.2908893662061765e-06 3.0292325512699037e-10 -2.8195810911366051e-05 6.0188548338192842e-06 1.4989567643685932e-10 -1.8056193251567467e-05 4.5756236310516755e-06 2.4270492572868487e-10 -1.3726903372485775e-05 9.886844839628814e-06 3.1776111715129442e-10 -1.7643781644732172e-05 5.2908893662061765e-06 3.0292325512699037e-10 -2.8195810911366051e-05 -2.1464712529645517e-14 2.0771989383359761e-10 -1.372684971468301e-05 6.018854833819285e-06 1.4989567643685934e-10 -1.8056193251567467e-05 4.5756236310516755e-06 2.4270492572868487e-10 -1.3726903372485775e-05 6.018854833819285e-06 1.4989567643685934e-10 -1.8056193251567467e-05 9.886844839628814e-06 3.1776111715129448e-10 -1.7643781644732169e-05 1.1203404675539146e-05 1.2402564047282399e-10 -2.8153686431913077e-05 1.6530579203325566e-05 2.129652483445044e-10 -1.9527067257495513e-05 6.018854833819285e-06 1.4989567643685934e-10 -1.8056193251567467e-05 9.7091051152245958e-06 2.2762904402258336e-10 -1.3083165408720977e-09 1.1203404675539148e-05 1.2402564047282394e-10 -2.815368643191307e-05 1.6530579203325566e-05 2.129652483445044e-10 -1.9527067257495513e-05 6.018854833819285e-06 1.4989567643685934e-10 -1.8056193251567467e-05 9.8868448396288157e-06 3.1776111715129442e-10 -1.7643781644732172e-05 9.7091051152245958e-06 2.2762904402258339e-10 -1.3083165408770823e-09 1.6530579203325566e-05 2.129652483445044e-10 -1.9527067257495513e-05 6.2503371525868492e-06 3.4404658748805046e-10 -1.3290154345889579e-09 9.886844839628814e-06 3.1776111715129442e-10 -1.7643781644732172e-05 9.7091051152245958e-06 2.2762904402258336e-10 -1.3083165408743264e-09 1.2500788546109388e-05 4.06279154869537e-10 -1.5504576853767594e-09 9.886844839628814e-06 3.1776111715129442e-10 -1.7643781644732172e-05 9.7091051152245958e-06 2.2762904402258336e-10 -1.3083165408743264e-09 1.5877035511968688e-05 2.5364552145672777e-10 -1.269470884357874e-09 1.6530579203325566e-05 2.129652483445044e-10 -1.9527067257495513e-05 9.7091051152245958e-06 2.2762904402258336e-10 -1.3083165408743264e-09 1.4271059849808189e-05 1.2094633348997971e-10 -9.9612777568675498e-10 1.5877035511968688e-05 2.5364552145672777e-10 -1.269470884357874e-09 1.6530579203325566e-05 2.129652483445044e-10 -1.9527067257495517e-05 9.886844839628814e-06 3.1776111715129442e-10 -1.7643781644732172e-05 1.2500788546109388e-05 4.06279154869537e-10 -1.5504576853767594e-09 1.5980201674811307e-05 2.9924029895622559e-10 -1.5348580324725719e-05 1.5877035511968688e-05 2.5364552145672777e-10 -1.269470884357874e-09 9.886844839628814e-06 3.1776111715129442e-10 -1.7643781644732172e-05 9.7091051152245958e-06 2.2762904402258331e-10 -1.3083165408783419e-09 1.2500788546109388e-05 4.06279154869537e-10 -1.5504576853767594e-09 1.5877035511968688e-05 2.5364552145672777e-10 -1.269470884357874e-09 9.886844839628814e-06 3.1776111715129442e-10 -1.7643781644732172e-05 1.4319703188244927e-05 2.4238258087130316e-10 -2.9091662376342204e-05 1.5980201674811307e-05 2.9924029895622559e-10 -1.5348580324725719e-05 1.6530579203325566e-05 2.129652483445044e-10 -1.9527067257495513e-05 9.886844839628814e-06 3.1776111715129442e-10 -1.7643781644732172e-05 1.5980201674811307e-05 2.9924029895622559e-10 -1.5348580324725719e-05 1.5877035511968688e-05 2.5364552145672782e-10 -1.26947088435687e-09 1.6530579203325566e-05 2.129652483445044e-10 -1.9527067257495513e-05 7.0369964762738492e-06 1.8630182230162109e-10 -4.5175849460323019e-05 1.0290216328827694e-05 3.5333005823908092e-10 -3.7140530282860131e-05 1.1203404675539146e-05 1.2402564047282399e-10 -2.815368643191307e-05 1.5621010445398935e-05 1.5873911681243629e-10 -4.9657217105295597e-05 7.0369964762738492e-06 1.8630182230162109e-10 -4.5175849460323019e-05 6.0188548338192825e-06 1.4989567643685937e-10 -1.805619325156746e-05 1.0290216328827696e-05 3.5333005823908092e-10 -3.7140530282860137e-05 1.1203404675539148e-05 1.2402564047282399e-10 -2.8153686431913073e-05 9.886844839628814e-06 3.1776111715129442e-10 -1.7643781644732172e-05 1.4319703188244927e-05 2.4238258087130316e-10 -2.9091662376342204e-05 1.0290216328827696e-05 3.5333005823908092e-10 -3.7140530282860131e-05 1.1203404675539146e-05 1.2402564047282391e-10 -2.815368643191307e-05 9.886844839628814e-06 3.1776111715129442e-10 -1.7643781644732172e-05 1.4319703188244927e-05 2.4238258087130316e-10 -2.9091662376342204e-05 1.1203404675539146e-05 1.2402564047282391e-10 -2.815368643191307e-05 1.6530579203325563e-05 2.1296524834450435e-10 -1.9527067257495523e-05 6.018854833819285e-06 1.4989567643685934e-10 -1.8056193251567467e-05 9.886844839628814e-06 3.1776111715129442e-10 -1.7643781644732172e-05 1.0290216328827694e-05 3.5333005823908092e-10 -3.7140530282860131e-05 1.1203404675539148e-05 1.2402564047282396e-10 -2.8153686431913067e-05 1.4319703188244927e-05 2.4238258087130316e-10 -2.9091662376342204e-05 1.1203404675539148e-05 1.2402564047282396e-10 -2.8153686431913077e-05 1.6530579203325566e-05 2.129652483445044e-10 -1.9527067257495513e-05 1.5621010445398932e-05 1.5873911681243624e-10 -4.9657217105295597e-05 1.4319703188244927e-05 2.4238258087130316e-10 -2.9091662376342204e-05 1.0290216328827696e-05 3.5333005823908092e-10 -3.7140530282860131e-05 1.1203404675539148e-05 1.2402564047282394e-10 -2.815368643191307e-05 1.5621010445398932e-05 1.5873911681243627e-10 -4.965721710529559e-05 5.2908893662061765e-06 3.0292325512699037e-10 -2.8195810911366051e-05 6.0188548338192842e-06 1.4989567643685932e-10 -1.8056193251567467e-05 9.886844839628814e-06 3.1776111715129442e-10 -1.7643781644732172e-05 1.0290216328827696e-05 3.5333005823908092e-10 -3.7140530282860131e-05 7.0369964762738492e-06 1.8630182230162109e-10 -4.5175849460323019e-05 5.3835198419056049e-06 3.3029302805570319e-10 -4.6722024248783616e-05 1.0290216328827694e-05 3.5333005823908092e-10 -3.7140530282860124e-05 1.0140724704036166e-05 3.6841697363233908e-10 -5.6269032973875e-05 1.4319703188244927e-05 2.4238258087130316e-10 -2.9091662376342204e-05 1.0290216328827696e-05 3.5333005823908092e-10 -3.7140530282860131e-05 1.623900966372302e-05 3.1638110635101094e-10 -4.6875438724226105e-05 1.5621010445398935e-05 1.5873911681243629e-10 -4.9657217105295597e-05 7.7408888467154043e-06 2.1400440472576621e-11 -4.2280181507588617e-05 7.0369964762738492e-06 1.8630182230162109e-10 -4.5175849460323019e-05 1.1203404675539146e-05 1.2402564047282399e-10 -2.815368643191307e-05 1.5621010445398935e-05 1.5873911681243632e-10 -4.9657217105295597e-05 7.7408888467154043e-06 2.1400440472576621e-11 -4.2280181507588617e-05 1.1203404675539146e-05 1.2402564047282401e-10 -2.8153686431913073e-05 1.5638595840535126e-05 -2.0842065801033949e-11 -2.3403715355258475e-05 1.5626007469761117e-05 -1.7947186422098566e-12 -4.6875390101611842e-05 7.7408888467154043e-06 2.1400440472576621e-11 -4.2280181507588617e-05 1.1203404675539148e-05 1.2402564047282399e-10 -2.815368643191307e-05 1.5626007469761117e-05 -1.7947186422098623e-12 -4.6875390101611862e-05 1.5621010445398935e-05 1.5873911681243621e-10 -4.9657217105295583e-05 6.9835545031663625e-06 1.0423397359959084e-11 -2.0950150144393267e-05 7.7408888467154043e-06 2.1400440472576618e-11 -4.2280181507588617e-05 1.1203404675539149e-05 1.2402564047282399e-10 -2.815368643191307e-05 1.5638595840535126e-05 -2.0842065801033982e-11 -2.3403715355258464e-05 6.9835545031663625e-06 1.0423397359959084e-11 -2.0950150144393267e-05 1.1203404675539148e-05 1.2402564047282399e-10 -2.815368643191307e-05 1.0140216880563014e-05 6.7880095455322123e-11 -1.4693990174245245e-09 1.5638595840535126e-05 -2.0842065801033982e-11 -2.3403715355258464e-05 9.7091051152245958e-06 2.2762904402258336e-10 -1.3083165408743264e-09 1.1203404675539148e-05 1.2402564047282396e-10 -2.8153686431913077e-05 1.0140216880563014e-05 6.7880095455322084e-11 -1.4693990174236948e-09 1.4271059849808187e-05 1.2094633348997971e-10 -9.9612777568363176e-10 6.9835545031663625e-06 1.0423397359959084e-11 -2.0950150144393267e-05 6.0188548338192816e-06 1.4989567643685937e-10 -1.8056193251567463e-05 1.1203404675539148e-05 1.2402564047282399e-10 -2.815368643191307e-05 1.0140216880563016e-05 6.788009545532211e-11 -1.4693990174240598e-09 1.1203404675539148e-05 1.2402564047282399e-10 -2.815368643191307e-05 1.0140216880563016e-05 6.788009545532211e-11 -1.4693990174246196e-09 1.4271059849808187e-05 1.2094633348997971e-10 -9.9612777568363176e-10 1.5638595840535126e-05 -2.0842065801033982e-11 -2.3403715355258464e-05 6.018854833819285e-06 1.4989567643685934e-10 -1.8056193251567467e-05 9.7091051152245958e-06 2.2762904402258336e-10 -1.3083165408747298e-09 1.1203404675539148e-05 1.2402564047282401e-10 -2.8153686431913073e-05 1.0140216880563016e-05 6.788009545532211e-11 -1.4693990174246196e-09 9.7091051152245958e-06 2.2762904402258336e-10 -1.3083165408743264e-09 1.1203404675539149e-05 1.2402564047282404e-10 -2.8153686431913073e-05 1.4271059849808187e-05 1.2094633348997971e-10 -9.9612777568363176e-10 1.6530579203325566e-05 2.129652483445044e-10 -1.9527067257495517e-05 1.1203404675539148e-05 1.2402564047282399e-10 -2.815368643191307e-05 1.4271059849808187e-05 1.2094633348997971e-10 -9.9612777568363176e-10 1.6530579203325566e-05 2.129652483445044e-10 -1.9527067257495513e-05 1.5638595840535126e-05 -2.0842065801033982e-11 -2.3403715355258464e-05 1.0289794207172227e-05 -7.5403124792267865e-11 -1.401054719890472e-09 5.3835011812767699e-06 -1.034381394091929e-11 -1.3238172031968025e-09 6.9835545031663625e-06 1.0423397359959081e-11 -2.0950150144393267e-05 1.0140216880563016e-05 6.788009545532211e-11 -1.4693990174246196e-09 1.0140216880563016e-05 6.788009545532211e-11 -1.4693990174246196e-09 1.4271059849808187e-05 1.2094633348997971e-10 -9.9612777568363176e-10 1.623902355964975e-05 2.3597046368516897e-11 -1.3010143685229268e-09 1.5638595840535126e-05 -2.0842065801033982e-11 -2.3403715355258464e-05 1.8733697169836139e-05 1.1050350694121709e-10 -9.9363790024084547e-10 2.2727086753133802e-05 8.5860689294057879e-11 -8.3438768956762452e-10 2.1393922628759366e-05 1.244032210352131e-10 -2.9153296300019476e-05 2.4286781129356125e-05 -3.0335703654508175e-11 -2.0414601378496797e-05 1.8733697169836139e-05 1.1050350694121709e-10 -9.9363790024084547e-10 2.1393922628759369e-05 1.2440322103521313e-10 -2.9153296300019473e-05 2.4286781129356121e-05 -3.0335703654508175e-11 -2.0414601378496797e-05 1.5638595840535126e-05 -2.0842065801033982e-11 -2.3403715355258464e-05 1.4271059849808187e-05 1.2094633348997971e-10 -9.9612777568363176e-10 1.8733697169836139e-05 1.1050350694121709e-10 -9.9363790024110417e-10 1.6530579203325563e-05 2.1296524834450437e-10 -1.952706725749551e-05 1.5638595840535126e-05 -2.0842065801034014e-11 -2.3403715355258468e-05 1.623902355964975e-05 2.3597046368516875e-11 -1.3010143685201314e-09 1.8733697169836139e-05 1.1050350694121709e-10 -9.9363790024085498e-10 2.1038870676105789e-05 -8.2989991338490808e-12 -1.0244490022999554e-09 1.5638595840535126e-05 -2.0842065801033982e-11 -2.3403715355258464e-05 1.8733697169836139e-05 1.1050350694121709e-10 -9.9363790024084547e-10 2.1393922628759366e-05 1.244032210352131e-10 -2.9153296300019473e-05 1.6530579203325563e-05 2.1296524834450443e-10 -1.9527067257495517e-05 1.5638595840535126e-05 -2.0842065801033946e-11 -2.3403715355258464e-05 1.8733697169836139e-05 1.1050350694121709e-10 -9.9363790024084547e-10 2.4286781129356121e-05 -3.0335703654508207e-11 -2.0414601378496793e-05 2.1038870676105789e-05 -8.2989991338490808e-12 -1.0244490022999962e-09 1.5638595840535126e-05 -2.0842065801033982e-11 -2.3403715355258464e-05 1.8733697169836139e-05 1.1050350694121709e-10 -9.9363790024084547e-10 2.1393922628759369e-05 1.2440322103521305e-10 -2.9153296300019476e-05 1.6530579203325566e-05 2.1296524834450448e-10 -1.9527067257495513e-05 2.5495804771300949e-05 1.9832890113887091e-10 -1.7328796144820802e-05 1.4271059849808187e-05 1.2094633348997971e-10 -9.9612777568363176e-10 1.623902355964975e-05 2.3597046368516875e-11 -1.3010143685201314e-09 1.8733697169836139e-05 1.1050350694121709e-10 -9.9363790024084547e-10 1.5638595840535126e-05 -2.0842065801033985e-11 -2.3403715355258471e-05 1.8733697169836139e-05 1.1050350694121709e-10 -9.9363790024084547e-10 2.2727086753133802e-05 8.5860689294057918e-11 -8.3438768956648705e-10 2.1393922628759366e-05 1.2440322103521315e-10 -2.9153296300019473e-05 2.5495804771300949e-05 1.9832890113887089e-10 -1.7328796144820802e-05 1.4271059849808187e-05 1.2094633348997971e-10 -9.9612777568363176e-10 1.8733697169836139e-05 1.1050350694121709e-10 -9.9363790024070195e-10 1.5877035511968688e-05 2.5364552145672777e-10 -1.2694708843594358e-09 1.6530579203325566e-05 2.129652483445044e-10 -1.952706725749551e-05 1.8733697169836139e-05 1.1050350694121709e-10 -9.9363790024084547e-10 2.2727086753133802e-05 8.586068929405793e-11 -8.3438768956601142e-10 2.2045765348471149e-05 1.6563338353721133e-10 -1.274013054008755e-09 2.5495804771300949e-05 1.9832890113887089e-10 -1.7328796144820802e-05 1.8733697169836139e-05 1.1050350694121709e-10 -9.9363790024084547e-10 2.2727086753133802e-05 8.5860689294057918e-11 -8.3438768956890303e-10 2.4286781129356118e-05 -3.0335703654508265e-11 -2.0414601378496793e-05 2.1038870676105789e-05 -8.2989991338490808e-12 -1.0244490022999962e-09 1.1203404675539148e-05 1.2402564047282399e-10 -2.815368643191307e-05 2.1393922628759366e-05 1.244032210352131e-10 -2.9153296300019476e-05 1.6530579203325566e-05 2.129652483445044e-10 -1.9527067257495513e-05 1.5638595840535126e-05 -2.0842065801033982e-11 -2.3403715355258464e-05 1.1203404675539148e-05 1.2402564047282399e-10 -2.815368643191307e-05 2.1393922628759366e-05 1.244032210352131e-10 -2.9153296300019476e-05 1.5626007469761117e-05 -1.7947186422098415e-12 -4.6875390101611856e-05 1.5621010445398935e-05 1.5873911681243629e-10 -4.9657217105295597e-05 1.1203404675539148e-05 1.2402564047282399e-10 -2.815368643191307e-05 2.1393922628759366e-05 1.244032210352131e-10 -2.9153296300019476e-05 1.5638595840535126e-05 -2.0842065801033982e-11 -2.3403715355258461e-05 1.5626007469761117e-05 -1.7947186422098376e-12 -4.6875390101611862e-05 2.1393922628759366e-05 1.244032210352131e-10 -2.9153296300019476e-05 2.3452940044532601e-05 1.6515878271425111e-11 -4.6722419229397214e-05 1.563859584053513e-05 -2.0842065801034014e-11 -2.3403715355258461e-05 1.5626007469761117e-05 -1.7947186422098415e-12 -4.6875390101611856e-05 2.1393922628759366e-05 1.244032210352131e-10 -2.9153296300019476e-05 2.4180984082685412e-05 2.068640917991017e-10 -4.6715346053894513e-05 2.3452940044532601e-05 1.6515878271425111e-11 -4.6722419229397214e-05 1.5621010445398935e-05 1.5873911681243629e-10 -4.9657217105295597e-05 2.1393922628759366e-05 1.244032210352131e-10 -2.9153296300019476e-05 2.3452940044532598e-05 1.651587827142512e-11 -4.6722419229397214e-05 2.4286781129356121e-05 -3.0335703654508233e-11 -2.0414601378496797e-05 1.5638595840535123e-05 -2.0842065801034014e-11 -2.3403715355258461e-05 1.1203404675539148e-05 1.2402564047282399e-10 -2.815368643191307e-05 2.1393922628759366e-05 1.244032210352131e-10 -2.9153296300019476e-05 1.6530579203325566e-05 2.129652483445044e-10 -1.9527067257495513e-05 1.5621010445398935e-05 1.5873911681243629e-10 -4.9657217105295597e-05 2.1393922628759366e-05 1.244032210352131e-10 -2.9153296300019476e-05 2.3452940044532601e-05 1.6515878271425111e-11 -4.6722419229397214e-05 1.5626007469761117e-05 -1.7947186422098415e-12 -4.6875390101611856e-05 1.5621010445398935e-05 1.5873911681243629e-10 -4.9657217105295597e-05 2.1393922628759366e-05 1.244032210352131e-10 -2.9153296300019476e-05 1.9085092702061564e-05 3.3585533923032089e-10 -3.1058044808479924e-05 1.6530579203325566e-05 2.129652483445044e-10 -1.9527067257495517e-05 2.5495804771300949e-05 1.9832890113887089e-10 -1.7328796144820802e-05 2.1393922628759366e-05 1.244032210352131e-10 -2.9153296300019476e-05 1.9085092702061567e-05 3.3585533923032089e-10 -3.1058044808479931e-05 2.4180984082685416e-05 2.0686409179910172e-10 -4.6715346053894513e-05 1.5621010445398935e-05 1.5873911681243629e-10 -4.9657217105295597e-05 1.9085092702061567e-05 3.3585533923032089e-10 -3.1058044808479931e-05 2.4180984082685412e-05 2.068640917991017e-10 -4.6715346053894513e-05 2.1326399070200265e-05 3.7194917294151254e-10 -4.9041192557915664e-05 1.5621010445398939e-05 1.5873911681243634e-10 -4.965721710529559e-05 2.1393922628759366e-05 1.244032210352131e-10 -2.9153296300019476e-05 1.9085092702061567e-05 3.3585533923032089e-10 -3.1058044808479931e-05 2.5495804771300949e-05 1.9832890113887089e-10 -1.7328796144820802e-05 2.5861278716113813e-05 3.7040282324158023e-10 -2.9445590630370577e-05 1.4319703188244927e-05 2.4238258087130316e-10 -2.9091662376342204e-05 1.9085092702061567e-05 3.3585533923032089e-10 -3.1058044808479931e-05 1.6530579203325566e-05 2.129652483445044e-10 -1.9527067257495513e-05 1.5621010445398935e-05 1.5873911681243629e-10 -4.9657217105295597e-05 2.1393922628759366e-05 1.244032210352131e-10 -2.9153296300019476e-05 1.9085092702061567e-05 3.3585533923032089e-10 -3.1058044808479931e-05 2.5861278716113809e-05 3.7040282324158029e-10 -2.9445590630370563e-05 2.4180984082685412e-05 2.068640917991017e-10 -4.6715346053894513e-05 2.1393922628759366e-05 1.244032210352131e-10 -2.9153296300019476e-05 1.9085092702061564e-05 3.3585533923032089e-10 -3.1058044808479924e-05 1.6530579203325566e-05 2.1296524834450437e-10 -1.9527067257495517e-05 1.5621010445398935e-05 1.5873911681243629e-10 -4.9657217105295597e-05 1.623900966372302e-05 3.1638110635101094e-10 -4.6875438724226105e-05 1.9085092702061567e-05 3.3585533923032089e-10 -3.1058044808479931e-05 2.1326399070200265e-05 3.7194917294151254e-10 -4.9041192557915664e-05 1.5621010445398935e-05 1.5873911681243627e-10 -4.9657217105295604e-05 1.4319703188244927e-05 2.4238258087130316e-10 -2.9091662376342204e-05 1.623900966372302e-05 3.1638110635101094e-10 -4.6875438724226105e-05 1.9085092702061567e-05 3.3585533923032089e-10 -3.1058044808479931e-05 1.5621010445398935e-05 1.5873911681243629e-10 -4.9657217105295597e-05 1.9085092702061567e-05 3.3585533923032089e-10 -3.1058044808479931e-05 2.5861278716113809e-05 3.7040282324158029e-10 -2.944559063037057e-05 2.4180984082685412e-05 2.068640917991017e-10 -4.6715346053894513e-05 2.1326399070200265e-05 3.7194917294151254e-10 -4.9041192557915664e-05 1.4319703188244927e-05 2.4238258087130316e-10 -2.9091662376342204e-05 1.9085092702061567e-05 3.3585533923032089e-10 -3.1058044808479931e-05 1.5980201674811307e-05 2.9924029895622559e-10 -1.5348580324725719e-05 1.6530579203325566e-05 2.129652483445044e-10 -1.9527067257495513e-05 1.9085092702061567e-05 3.3585533923032089e-10 -3.1058044808479931e-05 1.5980201674811307e-05 2.9924029895622554e-10 -1.5348580324725716e-05 1.6530579203325566e-05 2.1296524834450445e-10 -1.9527067257495513e-05 2.1872709469282009e-05 3.0348207307827447e-10 -1.5880712738093975e-05 1.9085092702061567e-05 3.3585533923032089e-10 -3.1058044808479931e-05 1.653057920332557e-05 2.129652483445044e-10 -1.9527067257495513e-05 2.1872709469282009e-05 3.0348207307827447e-10 -1.5880712738093975e-05 2.5495804771300949e-05 1.9832890113887089e-10 -1.7328796144820802e-05 1.6530579203325566e-05 2.129652483445044e-10 -1.9527067257495513e-05 2.2045765348471146e-05 1.6563338353721131e-10 -1.2740130540050519e-09 2.1872709469282009e-05 3.0348207307827447e-10 -1.5880712738093975e-05 2.5495804771300949e-05 1.9832890113887089e-10 -1.7328796144820802e-05 1.5980201674811307e-05 2.9924029895622559e-10 -1.5348580324725719e-05 1.5877035511968688e-05 2.5364552145672777e-10 -1.269470884357874e-09 1.6530579203325566e-05 2.129652483445044e-10 -1.952706725749551e-05 2.1872709469282009e-05 3.0348207307827447e-10 -1.5880712738093975e-05 1.8733697169836139e-05 1.1050350694121709e-10 -9.9363790024084547e-10 1.6530579203325563e-05 2.129652483445044e-10 -1.9527067257495517e-05 2.2045765348471149e-05 1.6563338353721133e-10 -1.274013054008755e-09 2.5495804771300949e-05 1.9832890113887089e-10 -1.7328796144820806e-05 1.5980201674811307e-05 2.9924029895622559e-10 -1.5348580324725719e-05 1.8751145636585894e-05 3.6021892300262568e-10 -1.6139343264068352e-09 1.5877035511968688e-05 2.5364552145672777e-10 -1.269470884357874e-09 2.1872709469282009e-05 3.0348207307827447e-10 -1.5880712738093975e-05 1.2500788546109388e-05 4.06279154869537e-10 -1.5504576853767594e-09 1.5980201674811304e-05 2.9924029895622559e-10 -1.5348580324725719e-05 1.8751145636585891e-05 3.6021892300262568e-10 -1.6139343264054766e-09 1.5877035511968688e-05 2.5364552145672777e-10 -1.269470884357874e-09 1.8733697169836139e-05 1.1050350694121709e-10 -9.9363790024084547e-10 1.5877035511968688e-05 2.5364552145672777e-10 -1.269470884357874e-09 1.6530579203325566e-05 2.129652483445044e-10 -1.9527067257495517e-05 2.2045765348471149e-05 1.6563338353721133e-10 -1.274013054008755e-09 1.5877035511968688e-05 2.5364552145672777e-10 -1.269470884357874e-09 1.6530579203325566e-05 2.129652483445044e-10 -1.9527067257495513e-05 2.2045765348471149e-05 1.6563338353721133e-10 -1.274013054008755e-09 2.1872709469282009e-05 3.0348207307827452e-10 -1.5880712738093975e-05 1.8751145636585894e-05 3.6021892300262568e-10 -1.6139343264068352e-09 2.2045765348471149e-05 1.6563338353721131e-10 -1.2740130540077949e-09 2.1872709469282009e-05 3.0348207307827447e-10 -1.5880712738093975e-05 2.5001445114674533e-05 3.0969006472710347e-10 -1.3249214575097609e-09 1.8751145636585894e-05 3.6021892300262568e-10 -1.6139343264068352e-09 1.5877035511968692e-05 2.5364552145672777e-10 -1.2694708843569732e-09 2.2045765348471149e-05 1.6563338353721133e-10 -1.274013054008755e-09 2.1872709469282009e-05 3.0348207307827447e-10 -1.5880712738093975e-05 1.9085092702061567e-05 3.3585533923032089e-10 -3.1058044808479931e-05 2.1872709469282005e-05 3.0348207307827447e-10 -1.5880712738093975e-05 2.5495804771300949e-05 1.9832890113887089e-10 -1.7328796144820802e-05 2.5861278716113809e-05 3.7040282324158023e-10 -2.9445590630370567e-05 2.1872709469282009e-05 3.0348207307827447e-10 -1.5880712738093975e-05 2.6676117357428991e-05 2.2788870137416209e-10 -1.3726978041870532e-05 2.5495804771300949e-05 1.9832890113887091e-10 -1.7328796144820806e-05 2.5861278716113809e-05 3.7040282324158023e-10 -2.9445590630370567e-05 2.1872709469282009e-05 3.0348207307827447e-10 -1.5880712738093975e-05 2.6676117357428991e-05 2.2788870137416206e-10 -1.372697804187053e-05 2.6676080667558299e-05 2.3109896612137843e-10 -9.0106477632959395e-10 2.5495804771300949e-05 1.9832890113887091e-10 -1.7328796144820792e-05 2.6676117357428991e-05 2.2788870137416206e-10 -1.372697804187053e-05 2.5495804771300949e-05 1.9832890113887089e-10 -1.7328796144820799e-05 3.125149720013116e-05 2.0372148084127101e-10 -1.3726988745088415e-05 2.5861278716113809e-05 3.7040282324158023e-10 -2.9445590630370567e-05 2.1872709469282009e-05 3.0348207307827447e-10 -1.5880712738093975e-05 2.6676117357428991e-05 2.2788870137416206e-10 -1.372697804187053e-05 2.5001445114674533e-05 3.0969006472710347e-10 -1.3249214575097609e-09 2.6676080667558299e-05 2.3109896612137843e-10 -9.0106477632575831e-10 2.2045765348471149e-05 1.6563338353721133e-10 -1.274013054008755e-09 2.1872709469282012e-05 3.0348207307827447e-10 -1.5880712738093975e-05 2.5001445114674533e-05 3.0969006472710347e-10 -1.3249214575097609e-09 2.6676080667558299e-05 2.3109896612137843e-10 -9.0106477632575831e-10 2.2045765348471149e-05 1.6563338353721133e-10 -1.274013054008755e-09 2.6676080667558299e-05 2.3109896612137843e-10 -9.0106477632663822e-10 2.5495804771300953e-05 1.9832890113887091e-10 -1.7328796144820806e-05 2.6618148361600876e-05 1.4088288408759118e-10 -1.0157298944480755e-09 2.2045765348471149e-05 1.6563338353721133e-10 -1.274013054008755e-09 2.1872709469282009e-05 3.0348207307827452e-10 -1.5880712738093978e-05 2.6676080667558296e-05 2.3109896612137841e-10 -9.0106477632627881e-10 2.5495804771300949e-05 1.9832890113887091e-10 -1.7328796144820802e-05 2.5495804771300949e-05 1.9832890113887089e-10 -1.7328796144820802e-05 3.125149720013116e-05 2.0372148084127101e-10 -1.3726988745088413e-05 3.1251476087192973e-05 1.9994879490619961e-10 -2.912628119160009e-05 3.1251449275496617e-05 1.0684785646097106e-10 -1.4904274575747813e-05 2.5495804771300949e-05 1.9832890113887089e-10 -1.7328796144820802e-05 3.125149720013116e-05 2.0372148084127101e-10 -1.3726988745088417e-05 2.5861278716113809e-05 3.7040282324158018e-10 -2.9445590630370563e-05 3.1251476087192973e-05 1.9994879490619961e-10 -2.912628119160009e-05 2.6676080667558299e-05 2.3109896612137843e-10 -9.0106477632575831e-10 2.5495804771300946e-05 1.9832890113887091e-10 -1.7328796144820799e-05 3.125149720013116e-05 2.0372148084127101e-10 -1.3726988745088415e-05 3.1251397232101301e-05 1.7353454249985164e-10 -1.1794331025557043e-09 2.5495804771300949e-05 1.9832890113887089e-10 -1.7328796144820802e-05 3.125149720013116e-05 2.0372148084127101e-10 -1.3726988745088413e-05 3.1251397232101301e-05 1.7353454249985164e-10 -1.1794331025654416e-09 3.1251449275496617e-05 1.0684785646097106e-10 -1.4904274575747809e-05 2.6676117357428991e-05 2.2788870137416206e-10 -1.372697804187053e-05 2.6676080667558299e-05 2.3109896612137843e-10 -9.0106477632534069e-10 2.5495804771300953e-05 1.9832890113887089e-10 -1.7328796144820806e-05 3.125149720013116e-05 2.0372148084127101e-10 -1.3726988745088415e-05 2.6676080667558299e-05 2.3109896612137843e-10 -9.0106477632575831e-10 2.5495804771300949e-05 1.9832890113887086e-10 -1.7328796144820799e-05 3.1251397232101301e-05 1.7353454249985164e-10 -1.1794331025557043e-09 2.6618148361600876e-05 1.4088288408759118e-10 -1.0157298944480755e-09 2.6676117357428991e-05 2.2788870137416206e-10 -1.372697804187053e-05 2.6676080667558299e-05 2.3109896612137843e-10 -9.0106477632575831e-10 3.125149720013116e-05 2.0372148084127101e-10 -1.3726988745088415e-05 3.125134314402369e-05 3.3931248097474718e-10 -1.3634955716259517e-09 2.6676117357428991e-05 2.2788870137416206e-10 -1.372697804187053e-05 3.125149720013116e-05 2.0372148084127101e-10 -1.3726988745088415e-05 3.125134314402369e-05 3.3931248097474718e-10 -1.3634955716259517e-09 3.1251426426234285e-05 3.1732421748689474e-10 -1.8751015853878696e-05 2.6676080667558299e-05 2.3109896612137843e-10 -9.0106477632575831e-10 3.125149720013116e-05 2.0372148084127101e-10 -1.3726988745088413e-05 3.1251397232101301e-05 1.7353454249985164e-10 -1.1794331025557043e-09 3.125134314402369e-05 3.3931248097474718e-10 -1.3634955716259517e-09 2.6676117357428991e-05 2.2788870137416206e-10 -1.372697804187053e-05 2.5001445114674533e-05 3.0969006472710347e-10 -1.3249214575097609e-09 2.6676080667558303e-05 2.3109896612137846e-10 -9.0106477632500361e-10 3.125134314402369e-05 3.3931248097474718e-10 -1.3634955716259517e-09 2.6676117357428991e-05 2.2788870137416206e-10 -1.372697804187053e-05 3.125149720013116e-05 2.0372148084127101e-10 -1.3726988745088415e-05 3.1251426426234285e-05 3.1732421748689474e-10 -1.8751015853878696e-05 2.5861278716113809e-05 3.7040282324158023e-10 -2.9445590630370567e-05 3.125149720013116e-05 2.0372148084127101e-10 -1.3726988745088415e-05 3.1251426426234279e-05 3.1732421748689468e-10 -1.8751015853878696e-05 2.5861278716113809e-05 3.7040282324158023e-10 -2.9445590630370563e-05 3.1251476087192973e-05 1.9994879490619961e-10 -2.912628119160009e-05 3.1251426426234285e-05 3.1732421748689474e-10 -1.8751015853878696e-05 2.5861278716113809e-05 3.7040282324158023e-10 -2.9445590630370567e-05 3.1251453252021625e-05 2.985939063629557e-10 -3.7500801078122826e-05 3.1251476087192973e-05 1.9994879490619961e-10 -2.912628119160009e-05 2.1393922628759366e-05 1.244032210352131e-10 -2.9153296300019476e-05 2.5495804771300949e-05 1.9832890113887089e-10 -1.7328796144820802e-05 2.5861278716113809e-05 3.7040282324158023e-10 -2.9445590630370567e-05 2.4180984082685412e-05 2.068640917991017e-10 -4.6715346053894513e-05 2.5495804771300949e-05 1.9832890113887089e-10 -1.7328796144820802e-05 2.5861278716113813e-05 3.7040282324158013e-10 -2.9445590630370563e-05 2.4180984082685416e-05 2.068640917991017e-10 -4.6715346053894513e-05 3.1251476087192973e-05 1.9994879490619961e-10 -2.912628119160009e-05 2.1393922628759366e-05 1.244032210352131e-10 -2.9153296300019476e-05 2.5495804771300949e-05 1.9832890113887089e-10 -1.7328796144820802e-05 2.4180984082685409e-05 2.0686409179910185e-10 -4.6715346053894506e-05 3.1251476087192973e-05 1.9994879490619953e-10 -2.9126281191600087e-05 2.5861278716113809e-05 3.7040282324158023e-10 -2.9445590630370567e-05 2.4180984082685412e-05 2.068640917991017e-10 -4.6715346053894513e-05 3.1251476087192973e-05 1.9994879490619961e-10 -2.912628119160009e-05 2.711473388708157e-05 3.0052526843476083e-10 -4.7445799932829649e-05 2.5861278716113809e-05 3.7040282324158023e-10 -2.9445590630370567e-05 2.4180984082685412e-05 2.068640917991017e-10 -4.6715346053894513e-05 2.711473388708157e-05 3.0052526843476083e-10 -4.7445799932829649e-05 2.1326399070200265e-05 3.7194917294151254e-10 -4.9041192557915664e-05 2.5861278716113809e-05 3.7040282324158023e-10 -2.9445590630370567e-05 3.1251453252021625e-05 2.985939063629557e-10 -3.7500801078122833e-05 3.1251476087192973e-05 1.9994879490619961e-10 -2.912628119160009e-05 2.711473388708157e-05 3.0052526843476083e-10 -4.7445799932829649e-05 3.1251453252021625e-05 2.985939063629557e-10 -3.7500801078122826e-05 3.1251476087192973e-05 1.9994879490619961e-10 -2.912628119160009e-05 3.1251494548559801e-05 2.0372646180592222e-10 -4.7628851673572655e-05 2.711473388708157e-05 3.0052526843476083e-10 -4.7445799932829649e-05 2.4180984082685412e-05 2.068640917991017e-10 -4.6715346053894513e-05 3.1251476087192973e-05 1.9994879490619963e-10 -2.9126281191600087e-05 3.1251494548559801e-05 2.037264618059222e-10 -4.7628851673572661e-05 2.711473388708157e-05 3.0052526843476083e-10 -4.7445799932829649e-05 2.4180984082685412e-05 2.068640917991017e-10 -4.6715346053894513e-05 3.1251476087192973e-05 1.9994879490619961e-10 -2.912628119160009e-05 3.1251502216732125e-05 1.2304792723036233e-10 -4.2949831007867552e-05 3.1251494548559801e-05 2.0372646180592222e-10 -4.7628851673572655e-05 2.3452940044532601e-05 1.6515878271425111e-11 -4.6722419229397214e-05 3.1251479812828367e-05 5.0662858266367536e-11 -3.0419555783723546e-05 2.4286781129356125e-05 -3.0335703654508233e-11 -2.0414601378496797e-05 3.1251478303020945e-05 -8.6782535704727825e-11 -3.0868347107320117e-05 2.1393922628759366e-05 1.244032210352131e-10 -2.9153296300019476e-05 3.1251502216732125e-05 1.2304792723036236e-10 -4.2949831007867552e-05 2.3452940044532601e-05 1.6515878271425111e-11 -4.6722419229397214e-05 3.1251479812828367e-05 5.0662858266367587e-11 -3.0419555783723546e-05 2.1393922628759366e-05 1.244032210352131e-10 -2.9153296300019476e-05 2.4180984082685412e-05 2.0686409179910167e-10 -4.6715346053894513e-05 3.1251476087192973e-05 1.9994879490619958e-10 -2.9126281191600087e-05 3.1251502216732125e-05 1.2304792723036238e-10 -4.2949831007867552e-05 2.1393922628759366e-05 1.244032210352131e-10 -2.9153296300019476e-05 2.4180984082685412e-05 2.068640917991017e-10 -4.6715346053894513e-05 3.1251502216732125e-05 1.2304792723036238e-10 -4.2949831007867552e-05 2.3452940044532601e-05 1.6515878271425111e-11 -4.6722419229397214e-05 2.1393922628759366e-05 1.244032210352131e-10 -2.9153296300019476e-05 3.1251476087192973e-05 1.9994879490619968e-10 -2.9126281191600097e-05 3.1251502216732125e-05 1.2304792723036238e-10 -4.2949831007867552e-05 3.1251479812828367e-05 5.0662858266367587e-11 -3.0419555783723546e-05 2.1393922628759366e-05 1.244032210352131e-10 -2.9153296300019476e-05 2.3452940044532598e-05 1.6515878271425124e-11 -4.6722419229397214e-05 3.1251479812828367e-05 5.0662858266367562e-11 -3.0419555783723543e-05 2.4286781129356121e-05 -3.033570365450824e-11 -2.0414601378496793e-05 2.1393922628759366e-05 1.244032210352131e-10 -2.9153296300019476e-05 2.5495804771300953e-05 1.9832890113887086e-10 -1.7328796144820802e-05 3.1251476087192973e-05 1.9994879490619961e-10 -2.912628119160009e-05 3.1251479812828367e-05 5.0662858266367581e-11 -3.0419555783723539e-05 2.1393922628759366e-05 1.244032210352131e-10 -2.9153296300019476e-05 2.5495804771300946e-05 1.9832890113887086e-10 -1.7328796144820806e-05 3.1251479812828367e-05 5.0662858266367575e-11 -3.0419555783723536e-05 2.4286781129356121e-05 -3.033570365450822e-11 -2.0414601378496803e-05 3.1251502216732125e-05 1.2304792723036238e-10 -4.2949831007867552e-05 2.3452940044532601e-05 1.6515878271425111e-11 -4.6722419229397214e-05 3.1251479812828367e-05 5.0662858266367587e-11 -3.0419555783723546e-05 3.125147133197285e-05 -1.2253625675769058e-12 -4.8714659336867115e-05 2.3452940044532601e-05 1.6515878271425111e-11 -4.6722419229397214e-05 3.1251479812828367e-05 5.0662858266367542e-11 -3.0419555783723549e-05 3.1251478303020952e-05 -8.6782535704727825e-11 -3.0868347107320124e-05 3.125147133197285e-05 -1.2253625675769058e-12 -4.8714659336867115e-05 3.1251449275496617e-05 1.0684785646097106e-10 -1.4904274575747813e-05 2.4286781129356121e-05 -3.033570365450824e-11 -2.0414601378496803e-05 2.6311303372097594e-05 4.193334447859409e-11 -1.1625080636213136e-09 3.1251411841761957e-05 -2.641579705224597e-11 -1.6150611047679784e-05 2.5495804771300949e-05 1.9832890113887089e-10 -1.7328796144820802e-05 3.1251449275496617e-05 1.0684785646097106e-10 -1.4904274575747813e-05 2.4286781129356121e-05 -3.0335703654508227e-11 -2.0414601378496797e-05 2.6618148361600876e-05 1.4088288408759118e-10 -1.0157298944480755e-09 2.5495804771300949e-05 1.9832890113887089e-10 -1.7328796144820802e-05 3.1251479812828361e-05 5.0662858266367549e-11 -3.0419555783723536e-05 3.1251449275496617e-05 1.0684785646097106e-10 -1.4904274575747813e-05 2.4286781129356121e-05 -3.0335703654508227e-11 -2.0414601378496797e-05 3.1251479812828367e-05 5.0662858266367587e-11 -3.0419555783723546e-05 3.1251449275496617e-05 1.0684785646097106e-10 -1.4904274575747813e-05 2.4286781129356121e-05 -3.0335703654508207e-11 -2.0414601378496797e-05 3.1251411841761957e-05 -2.641579705224597e-11 -1.6150611047679784e-05 2.2727086753133802e-05 8.5860689294057918e-11 -8.3438768956648705e-10 2.5495804771300949e-05 1.9832890113887089e-10 -1.7328796144820802e-05 2.4286781129356121e-05 -3.0335703654508227e-11 -2.0414601378496797e-05 2.6618148361600876e-05 1.4088288408759118e-10 -1.0157298944480755e-09 2.2727086753133802e-05 8.5860689294057918e-11 -8.3438768956648705e-10 2.1393922628759366e-05 1.2440322103521308e-10 -2.915329630001948e-05 2.5495804771300949e-05 1.9832890113887089e-10 -1.7328796144820802e-05 2.4286781129356118e-05 -3.0335703654508207e-11 -2.0414601378496797e-05 2.5495804771300949e-05 1.9832890113887089e-10 -1.7328796144820802e-05 3.1251476087192973e-05 1.9994879490619961e-10 -2.912628119160009e-05 3.1251479812828367e-05 5.0662858266367646e-11 -3.0419555783723543e-05 3.1251449275496617e-05 1.0684785646097106e-10 -1.4904274575747813e-05 2.2727086753133802e-05 8.5860689294057918e-11 -8.3438768956648705e-10 2.4286781129356121e-05 -3.0335703654508227e-11 -2.0414601378496797e-05 2.6311303372097594e-05 4.1933344478594097e-11 -1.1625080636273441e-09 2.1038870676105789e-05 -8.2989991338490808e-12 -1.0244490022999962e-09 3.1251449275496617e-05 1.0684785646097106e-10 -1.4904274575747813e-05 2.4286781129356118e-05 -3.0335703654508246e-11 -2.0414601378496803e-05 2.6311303372097594e-05 4.193334447859409e-11 -1.1625080636239819e-09 2.6618148361600876e-05 1.4088288408759116e-10 -1.0157298944475331e-09 2.2727086753133802e-05 8.5860689294057918e-11 -8.3438768956648705e-10 2.4286781129356121e-05 -3.0335703654508227e-11 -2.0414601378496797e-05 2.6311303372097594e-05 4.1933344478594097e-11 -1.1625080636273441e-09 2.6618148361600876e-05 1.4088288408759118e-10 -1.0157298944480755e-09 2.2727086753133802e-05 8.5860689294057918e-11 -8.3438768956648705e-10 2.2045765348471149e-05 1.6563338353721133e-10 -1.274013054008755e-09 2.5495804771300949e-05 1.9832890113887086e-10 -1.7328796144820802e-05 2.6618148361600876e-05 1.4088288408759118e-10 -1.0157298944480755e-09 3.1251397232101301e-05 1.7353454249985164e-10 -1.1794331025557043e-09 3.125144927549661e-05 1.0684785646097106e-10 -1.4904274575747816e-05 2.6618148361600876e-05 1.4088288408759118e-10 -1.0157298944480755e-09 3.1251272457611949e-05 9.2239291532438939e-11 -1.31481219234987e-09 2.5495804771300949e-05 1.9832890113887089e-10 -1.7328796144820802e-05 3.1251397232101294e-05 1.7353454249985159e-10 -1.1794331025591129e-09 3.125144927549661e-05 1.0684785646097107e-10 -1.4904274575747813e-05 2.6618148361600876e-05 1.4088288408759118e-10 -1.0157298944480755e-09 3.1251449275496617e-05 1.0684785646097106e-10 -1.4904274575747813e-05 2.6311303372097594e-05 4.1933344478594097e-11 -1.1625080636273441e-09 2.6618148361600876e-05 1.4088288408759116e-10 -1.015729894451256e-09 3.1251272457611949e-05 9.2239291532438939e-11 -1.31481219234987e-09 3.1251449275496617e-05 1.0684785646097106e-10 -1.4904274575747813e-05 2.6311303372097594e-05 4.1933344478594097e-11 -1.1625080636273441e-09 3.1251272457611949e-05 9.2239291532438939e-11 -1.3148121923498644e-09 3.1251411841761957e-05 -2.641579705224597e-11 -1.6150611047679784e-05 2.6311303372097594e-05 4.1933344478594097e-11 -1.1625080636273441e-09 3.1251272457611949e-05 9.2239291532438939e-11 -1.31481219234987e-09 3.1251231506353295e-05 -2.6859424130855277e-11 -1.597005734250814e-09 3.1251411841761957e-05 -2.641579705224597e-11 -1.6150611047679784e-05 3.1251436215754961e-05 -8.4118970740099939e-11 -1.5872784347337608e-05 2.5263797819365574e-05 -1.27064697357843e-10 -1.4003595680211518e-09 2.6676051049183032e-05 -1.6900332118891061e-10 -9.8942912722874934e-10 2.149424354866041e-05 -1.2463509289685412e-10 -2.9407132359758321e-05 2.6311303372097594e-05 4.1933344478594097e-11 -1.1625080636273441e-09 3.1251231506353295e-05 -2.6859424130855277e-11 -1.597005734250814e-09 3.1251411841761957e-05 -2.6415797052245957e-11 -1.6150611047679784e-05 2.5263797819365574e-05 -1.2706469735784298e-10 -1.4003595680170707e-09 3.1251231506353295e-05 -2.6859424130855277e-11 -1.597005734250814e-09 3.1251411841761957e-05 -2.641579705224597e-11 -1.6150611047679784e-05 3.1251436215754961e-05 -8.4118970740099939e-11 -1.5872784347337608e-05 2.5263797819365574e-05 -1.2706469735784298e-10 -1.4003595680170707e-09 2.4286781129356121e-05 -3.0335703654508227e-11 -2.0414601378496797e-05 3.1251436215754961e-05 -8.41189707400999e-11 -1.5872784347337615e-05 2.5263797819365574e-05 -1.2706469735784298e-10 -1.4003595680164449e-09 2.1494243548660414e-05 -1.2463509289685412e-10 -2.9407132359758324e-05 2.4286781129356121e-05 -3.0335703654508227e-11 -2.0414601378496797e-05 2.6311303372097594e-05 4.1933344478594038e-11 -1.162508063627183e-09 2.526379781936557e-05 -1.2706469735784292e-10 -1.4003595680110244e-09 2.1038870676105789e-05 -8.2989991338490808e-12 -1.0244490022999962e-09 2.4286781129356121e-05 -3.0335703654508227e-11 -2.0414601378496797e-05 2.6311303372097594e-05 4.1933344478594032e-11 -1.1625080636286953e-09 3.1251411841761957e-05 -2.6415797052245999e-11 -1.6150611047679784e-05 2.5263797819365574e-05 -1.2706469735784292e-10 -1.4003595680130669e-09 2.4286781129356121e-05 -3.0335703654508227e-11 -2.0414601378496797e-05 3.1251411841761957e-05 -2.641579705224597e-11 -1.6150611047679784e-05 3.1251436215754961e-05 -8.4118970740099952e-11 -1.5872784347337611e-05 2.5263797819365574e-05 -1.2706469735784298e-10 -1.4003595680170707e-09 2.4286781129356121e-05 -3.0335703654508227e-11 -2.0414601378496797e-05 3.1251411841761957e-05 -2.641579705224597e-11 -1.6150611047679784e-05 3.1251436215754961e-05 -8.4118970740099977e-11 -1.5872784347337611e-05 3.1251478303020952e-05 -8.6782535704727864e-11 -3.0868347107320124e-05 3.1251231506353295e-05 -2.6859424130855277e-11 -1.597005734250814e-09 3.1251436215754961e-05 -8.4118970740099939e-11 -1.5872784347337608e-05 2.5263797819365574e-05 -1.2706469735784298e-10 -1.4003595680170707e-09 3.1251273324887845e-05 -2.1227904329288768e-10 -1.3635388483325018e-09 3.1251436215754961e-05 -8.4118970740099939e-11 -1.5872784347337608e-05 2.5263797819365577e-05 -1.2706469735784298e-10 -1.4003595680213876e-09 3.1251273324887845e-05 -2.1227904329288768e-10 -1.3635388483325018e-09 2.6676051049183032e-05 -1.6900332118891061e-10 -9.8942912722825861e-10 3.1251436215754961e-05 -8.4118970740099939e-11 -1.5872784347337608e-05 3.1251273324887845e-05 -2.1227904329288768e-10 -1.3635388483325018e-09 3.1251494871835035e-05 -1.7850285442930295e-10 -1.3727033373902184e-05 2.6676051049183032e-05 -1.6900332118891061e-10 -9.8942912722825861e-10 2.6676084359419654e-05 -2.2887643688962013e-10 -1.3726959163267715e-05 2.1436282205712852e-05 -3.6629257878871962e-10 -1.6171697598220077e-05 2.1494243548660414e-05 -1.2463509289685412e-10 -2.9407132359758324e-05 2.5956945162203843e-05 -3.0335662462741581e-10 -2.8143157583302603e-05 2.5263797819365574e-05 -1.2706469735784298e-10 -1.4003595680170707e-09 2.6676051049183032e-05 -1.6900332118891061e-10 -9.8942912722825861e-10 2.1682804823761167e-05 -2.2385984485897741e-10 -1.1986850090323768e-09 2.1494243548660414e-05 -1.2463509289685412e-10 -2.9407132359758321e-05 3.1251436215754961e-05 -8.4118970740099939e-11 -1.5872784347337608e-05 3.1251494871835035e-05 -1.7850285442930295e-10 -1.3727033373902184e-05 2.1494243548660414e-05 -1.2463509289685412e-10 -2.9407132359758324e-05 3.1251473864268824e-05 -1.7655131346426427e-10 -2.9635986529990901e-05 3.1251436215754961e-05 -8.4118970740099939e-11 -1.5872784347337608e-05 3.1251494871835035e-05 -1.7850285442930295e-10 -1.3727033373902184e-05 2.6676051049183029e-05 -1.6900332118891061e-10 -9.8942912722917761e-10 2.1494243548660421e-05 -1.2463509289685412e-10 -2.9407132359758328e-05 3.1251494871835035e-05 -1.7850285442930295e-10 -1.3727033373902184e-05 2.6676084359419654e-05 -2.2887643688962019e-10 -1.3726959163267719e-05 2.1494243548660414e-05 -1.2463509289685422e-10 -2.9407132359758328e-05 2.595694516220384e-05 -3.0335662462741576e-10 -2.8143157583302596e-05 3.1251494871835035e-05 -1.7850285442930295e-10 -1.3727033373902184e-05 2.6676084359419654e-05 -2.2887643688962013e-10 -1.3726959163267717e-05 2.6676051049183032e-05 -1.6900332118891061e-10 -9.894291272286478e-10 2.1494243548660417e-05 -1.2463509289685414e-10 -2.9407132359758317e-05 2.6676084359419654e-05 -2.2887643688962013e-10 -1.3726959163267715e-05 2.6676051049183032e-05 -1.6900332118891061e-10 -9.8942912722825861e-10 2.1682804823761167e-05 -2.2385984485897741e-10 -1.1986850090323768e-09 2.1494243548660414e-05 -1.2463509289685412e-10 -2.9407132359758324e-05 3.1251494871835035e-05 -1.7850285442930295e-10 -1.3727033373902184e-05 3.1251401540094892e-05 -3.0911154913905512e-10 -1.8751027892327154e-05 2.6676084359419654e-05 -2.2887643688962013e-10 -1.3726959163267715e-05 2.5956945162203837e-05 -3.0335662462741576e-10 -2.8143157583302596e-05 3.1251494871835035e-05 -1.7850285442930295e-10 -1.3727033373902184e-05 3.1251401540094892e-05 -3.0911154913905512e-10 -1.8751027892327154e-05 2.5956945162203843e-05 -3.0335662462741581e-10 -2.8143157583302603e-05 3.1251473864268824e-05 -1.7655131346426427e-10 -2.9635986529990901e-05 3.125129660417023e-05 -3.3872100562439829e-10 -1.3015624851927385e-09 2.5001399592848522e-05 -3.1831081750366481e-10 -1.2118700337984458e-09 2.6676084359419654e-05 -2.2887643688962013e-10 -1.3726959163267715e-05 2.6676051049183032e-05 -1.6900332118891061e-10 -9.8942912722825861e-10 3.1251494871835035e-05 -1.7850285442930295e-10 -1.3727033373902184e-05 3.1251401540094892e-05 -3.0911154913905512e-10 -1.8751027892327154e-05 3.125129660417023e-05 -3.3872100562439829e-10 -1.3015624851927385e-09 2.6676084359419654e-05 -2.2887643688962013e-10 -1.3726959163267715e-05 3.1251273324887845e-05 -2.1227904329288768e-10 -1.3635388483325018e-09 3.1251494871835035e-05 -1.7850285442930295e-10 -1.3727033373902184e-05 3.125129660417023e-05 -3.3872100562439829e-10 -1.3015624851927385e-09 2.6676051049183032e-05 -1.6900332118891061e-10 -9.8942912722825861e-10 3.1251494871835035e-05 -1.7850285442930295e-10 -1.3727033373902184e-05 3.1251296604170223e-05 -3.3872100562439824e-10 -1.3015624851916276e-09 2.6676084359419654e-05 -2.2887643688962013e-10 -1.3726959163267715e-05 2.6676051049183032e-05 -1.6900332118891061e-10 -9.8942912722825861e-10 2.5001399592848522e-05 -3.1831081750366481e-10 -1.2118700338006674e-09 2.6676084359419654e-05 -2.2887643688962013e-10 -1.3726959163267715e-05 2.1682804823761167e-05 -2.2385984485897741e-10 -1.1986850090323768e-09 2.1436282205712852e-05 -3.6629257878871967e-10 -1.6171697598220077e-05 2.5001399592848522e-05 -3.1831081750366481e-10 -1.2118700338006674e-09 2.6676084359419654e-05 -2.2887643688962013e-10 -1.3726959163267715e-05 2.6676051049183032e-05 -1.6900332118891061e-10 -9.8942912722899335e-10 2.1682804823761167e-05 -2.2385984485897741e-10 -1.1986850090323768e-09 2.1682804823761167e-05 -2.2385984485897741e-10 -1.1986850090323768e-09 2.1436282205712852e-05 -3.6629257878871967e-10 -1.6171697598220077e-05 1.563847207416101e-05 -2.1739648940378796e-10 -2.1173537326265156e-05 2.1494243548660414e-05 -1.2463509289685412e-10 -2.9407132359758324e-05 2.6676084359419654e-05 -2.2887643688962013e-10 -1.3726959163267715e-05 2.1682804823761167e-05 -2.2385984485897741e-10 -1.1986850090323768e-09 2.1436282205712852e-05 -3.6629257878871967e-10 -1.6171697598220077e-05 2.1494243548660414e-05 -1.2463509289685412e-10 -2.9407132359758324e-05 2.5001399592848522e-05 -3.1831081750366481e-10 -1.2118700338006674e-09 2.1682804823761167e-05 -2.2385984485897741e-10 -1.1986850090323768e-09 2.1436282205712852e-05 -3.6629257878871967e-10 -1.6171697598220077e-05 1.8751136013462948e-05 -2.9955348163789279e-10 -1.3680769373135204e-09 1.2500770631694391e-05 -3.2551865487265997e-10 -1.6298312782203032e-09 1.5435874170417609e-05 -3.0158246289131848e-10 -1.2411423166219332e-05 1.8751136013462948e-05 -2.9955348163789279e-10 -1.3680769373135204e-09 1.5928102293019531e-05 -1.9230759920185021e-10 -1.1798406967466244e-09 2.1682804823761167e-05 -2.2385984485897741e-10 -1.1986850090323768e-09 2.1436282205712848e-05 -3.6629257878871967e-10 -1.6171697598220073e-05 1.8751136013462948e-05 -2.9955348163789279e-10 -1.3680769373135204e-09 1.5928102293019531e-05 -1.9230759920185021e-10 -1.1798406967466244e-09 1.5435874170417609e-05 -3.0158246289131848e-10 -1.2411423166219332e-05 2.1436282205712852e-05 -3.6629257878871967e-10 -1.6171697598220077e-05 1.8751136013462948e-05 -2.9955348163789279e-10 -1.3680769373135204e-09 1.5928102293019531e-05 -1.9230759920185021e-10 -1.1798406967466244e-09 1.5435874170417609e-05 -3.0158246289131848e-10 -1.2411423166219332e-05 1.4903524049731977e-05 -3.692227584406388e-10 -2.9758047374277314e-05 2.1436282205712852e-05 -3.6629257878871967e-10 -1.6171697598220077e-05 1.563847207416101e-05 -2.1739648940378796e-10 -2.1173537326265156e-05 1.5435874170417609e-05 -3.0158246289131848e-10 -1.2411423166219332e-05 2.1436282205712852e-05 -3.6629257878871967e-10 -1.6171697598220077e-05 1.563847207416101e-05 -2.1739648940378796e-10 -2.1173537326265156e-05 1.5928102293019531e-05 -1.9230759920185021e-10 -1.1798406967466244e-09 2.1682804823761167e-05 -2.2385984485897741e-10 -1.1986850090323768e-09 2.1436282205712852e-05 -3.6629257878871962e-10 -1.6171697598220077e-05 1.563847207416101e-05 -2.1739648940378796e-10 -2.1173537326265156e-05 1.5928102293019531e-05 -1.9230759920185021e-10 -1.1798406967466244e-09 2.1682804823761167e-05 -2.2385984485897741e-10 -1.1986850090323768e-09 1.563847207416101e-05 -2.1739648940378796e-10 -2.1173537326265156e-05 1.5928102293019531e-05 -1.9230759920185021e-10 -1.1798406967466244e-09 1.9078313107114481e-05 -1.1029025016519234e-10 -1.119026772948493e-09 2.4286781129356121e-05 -3.0335703654508227e-11 -2.0414601378496797e-05 2.526379781936557e-05 -1.2706469735784298e-10 -1.4003595680155394e-09 1.9078313107114481e-05 -1.1029025016519233e-10 -1.1190267729477504e-09 2.1494243548660414e-05 -1.2463509289685412e-10 -2.9407132359758324e-05 2.1682804823761167e-05 -2.2385984485897741e-10 -1.1986850090323768e-09 1.563847207416101e-05 -2.1739648940378796e-10 -2.1173537326265156e-05 1.9078313107114481e-05 -1.1029025016519234e-10 -1.119026772948493e-09 2.1494243548660414e-05 -1.2463509289685412e-10 -2.9407132359758324e-05 2.5263797819365574e-05 -1.2706469735784298e-10 -1.4003595680170707e-09 2.1682804823761167e-05 -2.2385984485897741e-10 -1.1986850090324711e-09 1.9078313107114481e-05 -1.1029025016519234e-10 -1.119026772948493e-09 2.149424354866041e-05 -1.2463509289685409e-10 -2.9407132359758321e-05 1.4317220832694591e-05 -1.1877050848856568e-10 -1.0177437396677746e-09 1.563847207416101e-05 -2.1739648940378796e-10 -2.1173537326265156e-05 1.5928102293019531e-05 -1.9230759920185021e-10 -1.1798406967466244e-09 1.9078313107114481e-05 -1.1029025016519234e-10 -1.119026772948493e-09 1.4317220832694591e-05 -1.1877050848856568e-10 -1.0177437396677746e-09 1.563847207416101e-05 -2.1739648940378796e-10 -2.1173537326265156e-05 1.9078313107114481e-05 -1.1029025016519234e-10 -1.119026772948493e-09 1.5638595840535126e-05 -2.0842065801033982e-11 -2.3403715355258464e-05 2.4286781129356121e-05 -3.0335703654508227e-11 -2.0414601378496797e-05 1.9078313107114481e-05 -1.1029025016519234e-10 -1.1190267729493248e-09 2.1038870676105789e-05 -8.2989991338490808e-12 -1.0244490022999962e-09 1.5638595840535126e-05 -2.0842065801033982e-11 -2.3403715355258464e-05 1.563847207416101e-05 -2.1739648940378796e-10 -2.1173537326265156e-05 1.9078313107114478e-05 -1.1029025016519234e-10 -1.1190267729478762e-09 1.5638595840535123e-05 -2.0842065801033898e-11 -2.3403715355258464e-05 2.1494243548660414e-05 -1.2463509289685412e-10 -2.9407132359758321e-05 2.4286781129356121e-05 -3.0335703654508227e-11 -2.0414601378496797e-05 1.9078313107114484e-05 -1.1029025016519234e-10 -1.1190267729479471e-09 1.5638595840535126e-05 -2.0842065801033982e-11 -2.3403715355258464e-05 2.149424354866041e-05 -1.2463509289685412e-10 -2.9407132359758324e-05 1.623902355964975e-05 2.3597046368516875e-11 -1.3010143685201314e-09 1.9078313107114481e-05 -1.1029025016519234e-10 -1.1190267729483301e-09 2.1038870676105789e-05 -8.2989991338490808e-12 -1.0244490023001591e-09 1.5638595840535126e-05 -2.0842065801033982e-11 -2.3403715355258464e-05 1.4317220832694591e-05 -1.1877050848856568e-10 -1.0177437396677746e-09 1.623902355964975e-05 2.3597046368516875e-11 -1.3010143685201735e-09 1.9078313107114481e-05 -1.1029025016519234e-10 -1.119026772948493e-09 1.5638595840535126e-05 -2.0842065801033982e-11 -2.3403715355258464e-05 2.4286781129356121e-05 -3.0335703654508227e-11 -2.0414601378496797e-05 2.5263797819365574e-05 -1.2706469735784298e-10 -1.4003595680170707e-09 1.9078313107114484e-05 -1.1029025016519231e-10 -1.1190267729476704e-09 2.1038870676105789e-05 -8.2989991338490808e-12 -1.0244490022999962e-09 2.3452940044532601e-05 1.6515878271425111e-11 -4.6722419229397214e-05 1.5626007469761117e-05 -1.7947186422098415e-12 -4.6875390101611856e-05 2.1494243548660414e-05 -1.2463509289685412e-10 -2.9407132359758324e-05 1.5649015781864112e-05 -1.6228295620466913e-10 -4.9581559587152527e-05 2.3452940044532601e-05 1.6515878271425111e-11 -4.6722419229397214e-05 2.1494243548660414e-05 -1.2463509289685412e-10 -2.9407132359758324e-05 2.4368225413801612e-05 -1.740401771761114e-10 -4.6889308791873457e-05 1.5649015781864112e-05 -1.6228295620466913e-10 -4.9581559587152527e-05 2.3452940044532601e-05 1.6515878271425111e-11 -4.6722419229397214e-05 1.563859584053513e-05 -2.0842065801033962e-11 -2.3403715355258458e-05 1.5626007469761117e-05 -1.7947186422098974e-12 -4.6875390101611862e-05 2.1494243548660414e-05 -1.2463509289685412e-10 -2.9407132359758324e-05 2.3452940044532601e-05 1.6515878271425111e-11 -4.6722419229397214e-05 2.4286781129356125e-05 -3.033570365450822e-11 -2.0414601378496797e-05 1.5638595840535126e-05 -2.0842065801033972e-11 -2.3403715355258475e-05 2.1494243548660414e-05 -1.2463509289685412e-10 -2.9407132359758324e-05 1.563847207416101e-05 -2.1739648940378796e-10 -2.1173537326265156e-05 1.5638595840535126e-05 -2.0842065801033953e-11 -2.3403715355258468e-05 2.1494243548660414e-05 -1.2463509289685412e-10 -2.9407132359758324e-05 1.5649015781864109e-05 -1.622829562046691e-10 -4.9581559587152533e-05 1.5638595840535126e-05 -2.0842065801033982e-11 -2.3403715355258464e-05 1.5626007469761117e-05 -1.7947186422098007e-12 -4.6875390101611862e-05 2.1494243548660414e-05 -1.2463509289685412e-10 -2.9407132359758324e-05 1.5649015781864112e-05 -1.6228295620466913e-10 -4.9581559587152527e-05 2.1494243548660414e-05 -1.2463509289685412e-10 -2.9407132359758324e-05 2.0892595557638073e-05 -3.3361667974371885e-10 -3.6124899420955609e-05 2.595694516220384e-05 -3.0335662462741586e-10 -2.8143157583302609e-05 2.4368225413801612e-05 -1.7404017717611137e-10 -4.6889308791873464e-05 2.1436282205712852e-05 -3.6629257878871967e-10 -1.6171697598220077e-05 2.149424354866041e-05 -1.2463509289685407e-10 -2.9407132359758324e-05 2.0892595557638073e-05 -3.3361667974371885e-10 -3.6124899420955609e-05 2.5956945162203843e-05 -3.0335662462741581e-10 -2.8143157583302603e-05 1.4903524049731977e-05 -3.692227584406388e-10 -2.9758047374277314e-05 1.563847207416101e-05 -2.1739648940378796e-10 -2.1173537326265156e-05 2.0892595557638073e-05 -3.3361667974371885e-10 -3.6124899420955609e-05 1.5649015781864112e-05 -1.6228295620466913e-10 -4.9581559587152527e-05 2.0892595557638073e-05 -3.3361667974371885e-10 -3.6124899420955609e-05 2.4368225413801616e-05 -1.7404017717611137e-10 -4.6889308791873457e-05 2.155436186723009e-05 -2.5665256131479414e-10 -5.0794053886511723e-05 1.5649015781864109e-05 -1.622829562046691e-10 -4.9581559587152527e-05 2.1436282205712852e-05 -3.6629257878871967e-10 -1.6171697598220077e-05 1.5638472074161004e-05 -2.1739648940378799e-10 -2.1173537326265156e-05 2.1494243548660417e-05 -1.2463509289685407e-10 -2.9407132359758324e-05 2.0892595557638073e-05 -3.3361667974371885e-10 -3.6124899420955609e-05 1.563847207416101e-05 -2.1739648940378796e-10 -2.1173537326265156e-05 2.149424354866041e-05 -1.2463509289685412e-10 -2.9407132359758324e-05 2.0892595557638069e-05 -3.336166797437188e-10 -3.6124899420955609e-05 1.5649015781864112e-05 -1.6228295620466913e-10 -4.9581559587152533e-05 2.1494243548660414e-05 -1.2463509289685412e-10 -2.9407132359758324e-05 2.0892595557638073e-05 -3.3361667974371885e-10 -3.6124899420955609e-05 2.4368225413801612e-05 -1.7404017717611137e-10 -4.6889308791873464e-05 1.5649015781864116e-05 -1.6228295620466915e-10 -4.958155958715252e-05 1.4903524049731977e-05 -3.692227584406388e-10 -2.9758047374277314e-05 2.1436282205712852e-05 -3.6629257878871967e-10 -1.6171697598220077e-05 1.5638472074161014e-05 -2.1739648940378799e-10 -2.1173537326265156e-05 2.0892595557638073e-05 -3.3361667974371885e-10 -3.6124899420955609e-05 1.4903524049731977e-05 -3.692227584406388e-10 -2.9758047374277314e-05 1.5625990340109649e-05 -3.1909607908036616e-10 -4.5036512895558497e-05 2.0892595557638073e-05 -3.3361667974371885e-10 -3.6124899420955609e-05 1.5649015781864112e-05 -1.6228295620466913e-10 -4.9581559587152527e-05 1.5625990340109646e-05 -3.1909607908036616e-10 -4.5036512895558497e-05 2.0892595557638073e-05 -3.3361667974371885e-10 -3.6124899420955609e-05 2.155436186723009e-05 -2.5665256131479414e-10 -5.0794053886511723e-05 1.5649015781864112e-05 -1.6228295620466913e-10 -4.9581559587152527e-05 2.0892595557638073e-05 -3.3361667974371885e-10 -3.6124899420955609e-05 2.6106136545803524e-05 -3.029426250712416e-10 -4.5966262832317766e-05 2.4368225413801612e-05 -1.7404017717611137e-10 -4.6889308791873464e-05 2.155436186723009e-05 -2.5665256131479414e-10 -5.0794053886511723e-05 2.1494243548660414e-05 -1.2463509289685412e-10 -2.9407132359758324e-05 2.5956945162203843e-05 -3.0335662462741576e-10 -2.8143157583302603e-05 3.1251473864268824e-05 -1.7655131346426427e-10 -2.9635986529990901e-05 2.4368225413801612e-05 -1.7404017717611137e-10 -4.6889308791873464e-05 3.1251494871835035e-05 -1.7850285442930295e-10 -1.3727033373902184e-05 2.1494243548660414e-05 -1.246350928968542e-10 -2.9407132359758328e-05 2.5956945162203843e-05 -3.0335662462741581e-10 -2.8143157583302603e-05 3.1251473864268824e-05 -1.7655131346426427e-10 -2.9635986529990901e-05 2.0892595557638073e-05 -3.3361667974371885e-10 -3.6124899420955609e-05 2.5956945162203843e-05 -3.0335662462741581e-10 -2.8143157583302603e-05 2.6106136545803524e-05 -3.029426250712416e-10 -4.5966262832317766e-05 2.4368225413801612e-05 -1.7404017717611137e-10 -4.6889308791873464e-05 2.5956945162203843e-05 -3.0335662462741581e-10 -2.8143157583302603e-05 2.6106136545803524e-05 -3.029426250712416e-10 -4.5966262832317766e-05 3.1251473864268824e-05 -1.7655131346426427e-10 -2.9635986529990901e-05 2.4368225413801612e-05 -1.7404017717611137e-10 -4.6889308791873464e-05 2.5956945162203843e-05 -3.0335662462741581e-10 -2.8143157583302603e-05 2.6106136545803524e-05 -3.029426250712415e-10 -4.5966262832317773e-05 3.1251407349560085e-05 -3.6346284727736483e-10 -3.7500839322250105e-05 3.1251473864268824e-05 -1.7655131346426427e-10 -2.9635986529990901e-05 2.6106136545803524e-05 -3.029426250712416e-10 -4.5966262832317766e-05 3.1251407349560085e-05 -3.6346284727736477e-10 -3.7500839322250105e-05 3.1251502132743313e-05 -2.3467056801939717e-10 -4.7782122664504657e-05 3.1251485165976427e-05 -4.0353736948800622e-10 -5.625068074967649e-05 2.6106136545803524e-05 -3.029426250712416e-10 -4.5966262832317766e-05 3.1251407349560092e-05 -3.6346284727736483e-10 -3.7500839322250112e-05 3.1251473864268824e-05 -1.7655131346426427e-10 -2.9635986529990901e-05 3.1251502132743306e-05 -2.3467056801939722e-10 -4.7782122664504657e-05 3.1251401540094892e-05 -3.0911154913905512e-10 -1.8751027892327154e-05 2.5956945162203843e-05 -3.0335662462741581e-10 -2.8143157583302603e-05 3.1251407349560085e-05 -3.6346284727736477e-10 -3.7500839322250105e-05 3.1251473864268824e-05 -1.7655131346426427e-10 -2.9635986529990901e-05 3.1251473864268824e-05 -1.7655131346426427e-10 -2.9635986529990901e-05 3.1251516522251446e-05 -1.2720085743181127e-10 -4.294985766463589e-05 3.1251502132743313e-05 -2.3467056801939728e-10 -4.7782122664504663e-05 2.4368225413801612e-05 -1.7404017717611137e-10 -4.6889308791873464e-05 2.6106136545803524e-05 -3.029426250712416e-10 -4.5966262832317766e-05 3.1251473864268818e-05 -1.7655131346426425e-10 -2.9635986529990901e-05 3.1251502132743313e-05 -2.3467056801939733e-10 -4.7782122664504677e-05 2.4368225413801612e-05 -1.740401771761114e-10 -4.6889308791873457e-05 2.3452940044532601e-05 1.6515878271425111e-11 -4.6722419229397214e-05 2.4286781129356121e-05 -3.0335703654508207e-11 -2.0414601378496793e-05 2.1494243548660414e-05 -1.2463509289685412e-10 -2.9407132359758324e-05 3.1251478303020945e-05 -8.6782535704727877e-11 -3.0868347107320124e-05 2.1494243548660414e-05 -1.2463509289685412e-10 -2.9407132359758324e-05 3.1251473864268824e-05 -1.7655131346426427e-10 -2.9635986529990901e-05 3.1251516522251446e-05 -1.2720085743181127e-10 -4.294985766463589e-05 3.1251478303020952e-05 -8.6782535704727864e-11 -3.0868347107320124e-05 2.3452940044532601e-05 1.6515878271425111e-11 -4.6722419229397214e-05 2.1494243548660414e-05 -1.2463509289685414e-10 -2.9407132359758334e-05 3.1251516522251446e-05 -1.2720085743181124e-10 -4.2949857664635877e-05 2.4368225413801609e-05 -1.7404017717611137e-10 -4.6889308791873457e-05 3.1251436215754961e-05 -8.4118970740099939e-11 -1.5872784347337608e-05 2.1494243548660414e-05 -1.2463509289685412e-10 -2.9407132359758321e-05 3.1251473864268824e-05 -1.7655131346426427e-10 -2.9635986529990904e-05 3.1251478303020952e-05 -8.6782535704727864e-11 -3.0868347107320124e-05 2.1494243548660414e-05 -1.2463509289685412e-10 -2.9407132359758324e-05 3.1251473864268824e-05 -1.7655131346426427e-10 -2.9635986529990901e-05 3.1251516522251446e-05 -1.2720085743181129e-10 -4.2949857664635897e-05 2.4368225413801612e-05 -1.7404017717611135e-10 -4.6889308791873464e-05 2.4286781129356121e-05 -3.0335703654508227e-11 -2.0414601378496797e-05 3.1251436215754961e-05 -8.4118970740099926e-11 -1.5872784347337601e-05 2.1494243548660414e-05 -1.2463509289685412e-10 -2.9407132359758324e-05 3.1251478303020952e-05 -8.6782535704727864e-11 -3.0868347107320124e-05 2.3452940044532601e-05 1.6515878271425111e-11 -4.6722419229397214e-05 2.1494243548660414e-05 -1.2463509289685412e-10 -2.9407132359758321e-05 3.1251516522251446e-05 -1.2720085743181127e-10 -4.294985766463589e-05 3.1251478303020952e-05 -8.678253570472789e-11 -3.0868347107320137e-05 3.1251479812828367e-05 5.0662858266367587e-11 -3.0419555783723546e-05 2.4286781129356121e-05 -3.0335703654508227e-11 -2.0414601378496797e-05 3.1251411841761957e-05 -2.641579705224597e-11 -1.6150611047679784e-05 3.1251478303020952e-05 -8.6782535704727864e-11 -3.0868347107320124e-05 2.3452940044532601e-05 1.6515878271425111e-11 -4.6722419229397214e-05 3.1251516522251439e-05 -1.2720085743181129e-10 -4.2949857664635877e-05 3.1251478303020952e-05 -8.678253570472789e-11 -3.0868347107320131e-05 3.1251471331972844e-05 -1.2253625675768638e-12 -4.8714659336867101e-05 2.3452940044532601e-05 1.6515878271425111e-11 -4.6722419229397214e-05 3.1251583719883826e-05 -1.1284234126897119e-10 -5.6206013646209695e-05 2.1483520600897275e-05 -1.2496515966928749e-10 -6.4446611094535637e-05 2.4382589182234916e-05 -6.152269077281318e-12 -7.3143239461288134e-05 3.1251673316114692e-05 -7.8389754709841528e-11 -6.8179555164359171e-05 3.1251583719883826e-05 -1.1284234126897119e-10 -5.6206013646209695e-05 2.1483520600897279e-05 -1.2496515966928749e-10 -6.4446611094535637e-05 2.5501533641349881e-05 -1.6657575417567266e-10 -7.649989820593121e-05 2.3452940044532601e-05 1.6515878271425111e-11 -4.6722419229397214e-05 3.1251583719883826e-05 -1.1284234126897119e-10 -5.6206013646209708e-05 3.1251584769381365e-05 2.1393814860015496e-11 -6.3113596784848268e-05 3.125147133197285e-05 -1.2253625675769058e-12 -4.8714659336867115e-05 2.3452940044532601e-05 1.6515878271425111e-11 -4.6722419229397214e-05 3.1251516522251453e-05 -1.2720085743181122e-10 -4.294985766463589e-05 3.1251583719883826e-05 -1.1284234126897119e-10 -5.6206013646209695e-05 2.4368225413801612e-05 -1.7404017717611137e-10 -4.6889308791873478e-05 3.1251583719883826e-05 -1.1284234126897119e-10 -5.6206013646209695e-05 2.4368225413801612e-05 -1.7404017717611137e-10 -4.6889308791873464e-05 2.1483520600897279e-05 -1.2496515966928751e-10 -6.4446611094535637e-05 2.5501533641349878e-05 -1.6657575417567256e-10 -7.6499898205931196e-05 2.3452940044532601e-05 1.6515878271425111e-11 -4.6722419229397214e-05 3.1251583719883826e-05 -1.1284234126897119e-10 -5.6206013646209695e-05 2.4368225413801612e-05 -1.7404017717611137e-10 -4.6889308791873464e-05 2.1483520600897279e-05 -1.2496515966928749e-10 -6.4446611094535637e-05 2.3452940044532601e-05 1.6515878271425111e-11 -4.6722419229397214e-05 3.1251583719883833e-05 -1.1284234126897115e-10 -5.6206013646209695e-05 2.4382589182234916e-05 -6.1522690772813414e-12 -7.3143239461288134e-05 3.1251584769381365e-05 2.1393814860015496e-11 -6.3113596784848268e-05 3.1251673316114692e-05 -7.8389754709841528e-11 -6.8179555164359171e-05 3.1251583719883826e-05 -1.1284234126897119e-10 -5.6206013646209695e-05 2.1483520600897275e-05 -1.2496515966928754e-10 -6.4446611094535637e-05 2.4382589182234916e-05 -6.1522690772812339e-12 -7.314323946128812e-05 2.3452940044532601e-05 1.6515878271425111e-11 -4.6722419229397214e-05 3.1251516522251446e-05 -1.2720085743181135e-10 -4.2949857664635884e-05 3.1251583719883826e-05 -1.1284234126897119e-10 -5.6206013646209695e-05 3.125147133197285e-05 -1.2253625675768741e-12 -4.8714659336867122e-05 3.1251673316114692e-05 -7.8389754709841528e-11 -6.8179555164359171e-05 3.1251583719883826e-05 -1.1284234126897119e-10 -5.6206013646209695e-05 2.4382589182234916e-05 -6.1522690772813099e-12 -7.3143239461288134e-05 3.1251584769381365e-05 2.1393814860015564e-11 -6.3113596784848268e-05 3.1251673316114692e-05 -7.8389754709841528e-11 -6.8179555164359171e-05 3.1251583719883826e-05 -1.1284234126897119e-10 -5.6206013646209695e-05 3.125163892187329e-05 -2.0481797636405877e-10 -6.61559677561115e-05 2.5501533641349871e-05 -1.6657575417567261e-10 -7.6499898205931196e-05 3.1251516522251446e-05 -1.2720085743181127e-10 -4.294985766463589e-05 3.1251583719883826e-05 -1.1284234126897119e-10 -5.6206013646209695e-05 3.1251502132743313e-05 -2.3467056801939728e-10 -4.7782122664504663e-05 2.4368225413801612e-05 -1.7404017717611137e-10 -4.6889308791873464e-05 3.1251502132743313e-05 -2.3467056801939728e-10 -4.7782122664504663e-05 3.125163892187329e-05 -2.0481797636405877e-10 -6.61559677561115e-05 2.546092994834659e-05 -3.2726856215838434e-10 -6.4608198042964259e-05 2.4368225413801612e-05 -1.7404017717611135e-10 -4.6889308791873464e-05 2.5460929948346587e-05 -3.2726856215838434e-10 -6.4608198042964259e-05 2.4368225413801609e-05 -1.7404017717611142e-10 -4.6889308791873457e-05 2.1483520600897282e-05 -1.2496515966928743e-10 -6.4446611094535623e-05 2.5501533641349878e-05 -1.6657575417567261e-10 -7.6499898205931196e-05 3.125163892187329e-05 -2.0481797636405877e-10 -6.61559677561115e-05 2.5460929948346587e-05 -3.2726856215838434e-10 -6.4608198042964273e-05 2.4368225413801612e-05 -1.7404017717611137e-10 -4.6889308791873464e-05 2.5501533641349875e-05 -1.6657575417567261e-10 -7.6499898205931196e-05 3.1251583719883826e-05 -1.1284234126897119e-10 -5.6206013646209695e-05 3.125163892187329e-05 -2.0481797636405877e-10 -6.61559677561115e-05 2.4368225413801612e-05 -1.7404017717611137e-10 -4.6889308791873464e-05 2.5501533641349878e-05 -1.6657575417567261e-10 -7.6499898205931196e-05 3.1251583719883826e-05 -1.1284234126897119e-10 -5.6206013646209695e-05 3.1251502132743313e-05 -2.3467056801939728e-10 -4.7782122664504663e-05 3.125163892187329e-05 -2.0481797636405877e-10 -6.61559677561115e-05 2.4368225413801612e-05 -1.7404017717611137e-10 -4.6889308791873464e-05 3.125163892187329e-05 -2.0481797636405877e-10 -6.61559677561115e-05 3.1251485165976427e-05 -4.0353736948800622e-10 -5.625068074967649e-05 2.5460929948346587e-05 -3.2726856215838434e-10 -6.4608198042964259e-05 3.1251664730573228e-05 -3.2956269098916603e-10 -7.5000562711993558e-05 3.1251502132743313e-05 -2.3467056801939728e-10 -4.7782122664504663e-05 3.125163892187329e-05 -2.0481797636405877e-10 -6.61559677561115e-05 3.1251485165976427e-05 -4.0353736948800622e-10 -5.625068074967649e-05 2.5460929948346587e-05 -3.2726856215838434e-10 -6.4608198042964259e-05 2.6106136545803524e-05 -3.029426250712416e-10 -4.5966262832317766e-05 3.1251502132743313e-05 -2.3467056801939722e-10 -4.7782122664504663e-05 3.1251485165976427e-05 -4.0353736948800622e-10 -5.625068074967649e-05 2.5460929948346587e-05 -3.2726856215838434e-10 -6.4608198042964259e-05 2.6106136545803524e-05 -3.029426250712416e-10 -4.5966262832317766e-05 2.5460929948346587e-05 -3.2726856215838434e-10 -6.4608198042964259e-05 2.4368225413801609e-05 -1.7404017717611137e-10 -4.6889308791873457e-05 2.155436186723009e-05 -2.5665256131479414e-10 -5.0794053886511723e-05 2.6106136545803524e-05 -3.029426250712416e-10 -4.5966262832317766e-05 3.1251502132743313e-05 -2.3467056801939728e-10 -4.778212266450467e-05 2.5460929948346587e-05 -3.2726856215838434e-10 -6.4608198042964259e-05 2.4368225413801612e-05 -1.7404017717611142e-10 -4.6889308791873464e-05 2.155436186723009e-05 -2.5665256131479414e-10 -5.0794053886511723e-05 1.8757564298625887e-05 -3.7000139487643144e-10 -6.3330099726098492e-05 1.5649015781864109e-05 -1.6228295620466913e-10 -4.9581559587152527e-05 2.1483520600897279e-05 -1.2496515966928746e-10 -6.4446611094535637e-05 2.5460929948346587e-05 -3.2726856215838434e-10 -6.4608198042964259e-05 2.1554361867230087e-05 -2.5665256131479409e-10 -5.0794053886511723e-05 1.8757564298625887e-05 -3.7000139487643144e-10 -6.3330099726098492e-05 2.1483520600897279e-05 -1.2496515966928749e-10 -6.4446611094535637e-05 2.5460929948346587e-05 -3.2726856215838434e-10 -6.4608198042964259e-05 2.4368225413801612e-05 -1.7404017717611135e-10 -4.6889308791873471e-05 2.155436186723009e-05 -2.5665256131479414e-10 -5.0794053886511723e-05 2.1483520600897279e-05 -1.2496515966928746e-10 -6.4446611094535623e-05 1.8757564298625887e-05 -3.7000139487643144e-10 -6.3330099726098492e-05 2.1483520600897279e-05 -1.2496515966928746e-10 -6.4446611094535637e-05 1.5652599435545548e-05 -1.9420292206519908e-10 -7.3204429471438229e-05 2.1703919459109116e-05 -3.0166182198191096e-10 -7.8843809058422285e-05 2.4368225413801612e-05 -1.7404017717611137e-10 -4.6889308791873464e-05 2.155436186723009e-05 -2.5665256131479409e-10 -5.0794053886511723e-05 1.5649015781864112e-05 -1.6228295620466913e-10 -4.9581559587152527e-05 2.1483520600897275e-05 -1.2496515966928746e-10 -6.4446611094535623e-05 1.8757564298625887e-05 -3.7000139487643144e-10 -6.3330099726098492e-05 1.5649015781864112e-05 -1.6228295620466913e-10 -4.9581559587152527e-05 2.1483520600897279e-05 -1.2496515966928746e-10 -6.4446611094535637e-05 1.5652599435545548e-05 -1.9420292206519908e-10 -7.3204429471438229e-05 2.5460929948346587e-05 -3.2726856215838434e-10 -6.4608198042964259e-05 1.8757564298625887e-05 -3.7000139487643139e-10 -6.3330099726098492e-05 2.1483520600897279e-05 -1.2496515966928749e-10 -6.4446611094535637e-05 2.5501533641349878e-05 -1.6657575417567261e-10 -7.6499898205931196e-05 1.5625990340109646e-05 -3.1909607908036616e-10 -4.5036512895558497e-05 2.155436186723009e-05 -2.5665256131479414e-10 -5.0794053886511723e-05 1.8757564298625887e-05 -3.7000139487643144e-10 -6.3330099726098492e-05 1.5649015781864112e-05 -1.6228295620466913e-10 -4.9581559587152527e-05 1.5626007469761117e-05 -1.7947186422098415e-12 -4.6875390101611856e-05 1.5649015781864112e-05 -1.6228295620466913e-10 -4.9581559587152527e-05 2.1483520600897279e-05 -1.2496515966928749e-10 -6.4446611094535637e-05 1.5568674751791642e-05 1.5203786409171021e-11 -7.0355303123466337e-05 2.3452940044532601e-05 1.6515878271425111e-11 -4.6722419229397214e-05 1.5626007469761117e-05 -1.7947186422098415e-12 -4.6875390101611856e-05 1.5649015781864112e-05 -1.6228295620466913e-10 -4.9581559587152527e-05 2.1483520600897279e-05 -1.2496515966928749e-10 -6.4446611094535637e-05 2.3452940044532601e-05 1.6515878271425111e-11 -4.6722419229397214e-05 1.5626007469761117e-05 -1.7947186422098322e-12 -4.6875390101611849e-05 2.1483520600897279e-05 -1.2496515966928749e-10 -6.4446611094535637e-05 1.5568674751791642e-05 1.5203786409170956e-11 -7.0355303123466323e-05 2.3452940044532601e-05 1.6515878271425111e-11 -4.6722419229397214e-05 2.1483520600897279e-05 -1.2496515966928749e-10 -6.4446611094535637e-05 2.4382589182234916e-05 -6.152269077281318e-12 -7.3143239461288134e-05 1.5568674751791649e-05 1.5203786409170988e-11 -7.0355303123466323e-05 1.5649015781864112e-05 -1.6228295620466913e-10 -4.9581559587152527e-05 2.1483520600897282e-05 -1.2496515966928746e-10 -6.4446611094535637e-05 1.5652599435545545e-05 -1.9420292206519908e-10 -7.3204429471438229e-05 1.5568674751791642e-05 1.5203786409171014e-11 -7.0355303123466323e-05 2.3452940044532601e-05 1.6515878271425111e-11 -4.6722419229397214e-05 2.4368225413801612e-05 -1.7404017717611137e-10 -4.6889308791873471e-05 1.5649015781864112e-05 -1.6228295620466913e-10 -4.9581559587152527e-05 2.1483520600897279e-05 -1.2496515966928749e-10 -6.4446611094535637e-05 1.8736680667325605e-05 -1.1132919116684162e-10 -9.3749723311073742e-05 1.5652599435545548e-05 -1.9420292206519908e-10 -7.3204429471438243e-05 1.5568674751791639e-05 1.5203786409171034e-11 -7.0355303123466323e-05 1.4317602991286048e-05 -1.2802008014991416e-10 -9.3749494713764257e-05 2.1483520600897279e-05 -1.2496515966928749e-10 -6.4446611094535637e-05 2.2728102934878133e-05 -6.9100725882665417e-11 -9.3749956479501233e-05 1.8736680667325605e-05 -1.1132919116684162e-10 -9.3749723311073742e-05 2.5501533641349878e-05 -1.6657575417567261e-10 -7.6499898205931196e-05 2.1483520600897279e-05 -1.2496515966928749e-10 -6.4446611094535637e-05 1.8736680667325605e-05 -1.1132919116684164e-10 -9.3749723311073755e-05 2.4382589182234913e-05 -6.1522690772813196e-12 -7.314323946128812e-05 1.5568674751791642e-05 1.5203786409171021e-11 -7.0355303123466323e-05 2.1483520600897279e-05 -1.2496515966928749e-10 -6.4446611094535637e-05 1.8736680667325605e-05 -1.1132919116684158e-10 -9.3749723311073755e-05 1.5652599435545548e-05 -1.9420292206519908e-10 -7.3204429471438229e-05 2.5501533641349878e-05 -1.6657575417567261e-10 -7.6499898205931196e-05 2.1483520600897279e-05 -1.2496515966928749e-10 -6.4446611094535637e-05 1.8736680667325605e-05 -1.1132919116684162e-10 -9.3749723311073755e-05 1.5652599435545548e-05 -1.9420292206519908e-10 -7.3204429471438229e-05 1.5568674751791639e-05 1.5203786409171021e-11 -7.0355303123466309e-05 2.1483520600897279e-05 -1.2496515966928749e-10 -6.4446611094535637e-05 2.272810293487814e-05 -6.9100725882665546e-11 -9.374995647950122e-05 1.8736680667325605e-05 -1.1132919116684162e-10 -9.3749723311073742e-05 2.4382589182234913e-05 -6.1522690772813228e-12 -7.3143239461288134e-05 1.8736680667325605e-05 -1.1132919116684162e-10 -9.3749723311073742e-05 2.4382589182234916e-05 -6.152269077281318e-12 -7.3143239461288134e-05 2.1039374752656116e-05 1.7611786279902973e-11 -9.3749835825642218e-05 1.5568674751791642e-05 1.5203786409171014e-11 -7.0355303123466323e-05 2.2728102934878133e-05 -6.9100725882665469e-11 -9.374995647950122e-05 1.8736680667325605e-05 -1.1132919116684162e-10 -9.3749723311073742e-05 2.2053546402268578e-05 -2.0370606480671494e-10 -9.3749903735155233e-05 2.5501533641349878e-05 -1.6657575417567261e-10 -7.6499898205931196e-05 2.2728102934878133e-05 -6.9100725882665469e-11 -9.374995647950122e-05 1.8736680667325605e-05 -1.1132919116684162e-10 -9.3749723311073742e-05 2.4382589182234916e-05 -6.152269077281318e-12 -7.3143239461288134e-05 2.1039374752656116e-05 1.7611786279902973e-11 -9.3749835825642218e-05 1.8736680667325605e-05 -1.1132919116684162e-10 -9.3749723311073742e-05 1.6239391573383386e-05 -2.520939701973677e-12 -9.3749591552643119e-05 1.5568674751791642e-05 1.5203786409171024e-11 -7.0355303123466337e-05 1.4317602991286048e-05 -1.2802008014991416e-10 -9.3749494713764257e-05 1.8736680667325605e-05 -1.1132919116684162e-10 -9.3749723311073742e-05 2.1039374752656116e-05 1.761178627990298e-11 -9.3749835825642205e-05 1.6239391573383386e-05 -2.5209397019736891e-12 -9.3749591552643119e-05 1.5568674751791642e-05 1.5203786409171014e-11 -7.0355303123466323e-05 1.8736680667325605e-05 -1.1132919116684162e-10 -9.3749723311073742e-05 1.5928507061515681e-05 -2.4049568126208564e-10 -9.3749574577935564e-05 1.5652599435545548e-05 -1.9420292206519908e-10 -7.3204429471438229e-05 1.4317602991286048e-05 -1.2802008014991416e-10 -9.3749494713764257e-05 1.5928507061515681e-05 -2.4049568126208564e-10 -9.3749574577935564e-05 1.5652599435545545e-05 -1.9420292206519911e-10 -7.3204429471438229e-05 2.1703919459109116e-05 -3.0166182198191096e-10 -7.8843809058422285e-05 2.2053546402268578e-05 -2.0370606480671494e-10 -9.3749903735155233e-05 2.1483520600897279e-05 -1.2496515966928749e-10 -6.4446611094535637e-05 1.5652599435545548e-05 -1.9420292206519908e-10 -7.3204429471438229e-05 2.1703919459109116e-05 -3.0166182198191096e-10 -7.8843809058422285e-05 2.5501533641349878e-05 -1.6657575417567261e-10 -7.6499898205931196e-05 1.5652599435545548e-05 -1.9420292206519908e-10 -7.3204429471438229e-05 2.1703919459109112e-05 -3.0166182198191096e-10 -7.8843809058422285e-05 2.2053546402268578e-05 -2.0370606480671496e-10 -9.3749903735155233e-05 2.5501533641349878e-05 -1.6657575417567261e-10 -7.6499898205931196e-05 1.8736680667325605e-05 -1.1132919116684162e-10 -9.3749723311073742e-05 1.5652599435545548e-05 -1.9420292206519908e-10 -7.3204429471438229e-05 2.2053546402268578e-05 -2.0370606480671494e-10 -9.3749903735155233e-05 2.5501533641349878e-05 -1.6657575417567261e-10 -7.6499898205931196e-05 1.8736680667325605e-05 -1.1132919116684162e-10 -9.3749723311073742e-05 1.5928507061515681e-05 -2.4049568126208564e-10 -9.3749574577935564e-05 1.5652599435545548e-05 -1.9420292206519908e-10 -7.3204429471438229e-05 2.2053546402268578e-05 -2.0370606480671494e-10 -9.3749903735155233e-05 1.8757564298625887e-05 -3.7000139487643144e-10 -6.3330099726098492e-05 2.1483520600897272e-05 -1.2496515966928733e-10 -6.444661109453565e-05 2.1703919459109116e-05 -3.0166182198191096e-10 -7.8843809058422285e-05 2.5501533641349878e-05 -1.6657575417567261e-10 -7.6499898205931196e-05 1.8757564298625887e-05 -3.7000139487643144e-10 -6.3330099726098492e-05 1.5652599435545548e-05 -1.9420292206519908e-10 -7.3204429471438229e-05 2.1703919459109119e-05 -3.0166182198191096e-10 -7.8843809058422285e-05 1.5575080193548334e-05 -3.3051046181680141e-10 -7.7600347245884528e-05 1.5928507061515681e-05 -2.4049568126208564e-10 -9.3749574577935564e-05 1.5652599435545545e-05 -1.9420292206519911e-10 -7.3204429471438229e-05 2.1703919459109116e-05 -3.0166182198191096e-10 -7.8843809058422285e-05 1.5575080193548334e-05 -3.3051046181680141e-10 -7.7600347245884528e-05 1.5928507061515681e-05 -2.4049568126208564e-10 -9.3749574577935564e-05 1.8751598185904633e-05 -3.6126582533993034e-10 -9.3749734790093178e-05 2.1703919459109116e-05 -3.0166182198191096e-10 -7.8843809058422285e-05 1.5575080193548334e-05 -3.3051046181680141e-10 -7.7600347245884528e-05 1.5928507061515681e-05 -2.4049568126208564e-10 -9.3749574577935564e-05 1.8751598185904636e-05 -3.6126582533993039e-10 -9.3749734790093191e-05 1.5575080193548334e-05 -3.3051046181680141e-10 -7.7600347245884528e-05 1.2501103189152684e-05 -3.8666065782654363e-10 -9.3749450940511291e-05 1.5928507061515681e-05 -2.4049568126208564e-10 -9.3749574577935564e-05 1.8751598185904633e-05 -3.6126582533993034e-10 -9.3749734790093178e-05 2.1703919459109116e-05 -3.0166182198191096e-10 -7.8843809058422285e-05 2.2053546402268578e-05 -2.0370606480671494e-10 -9.3749903735155233e-05 1.8751598185904633e-05 -3.6126582533993034e-10 -9.3749734790093178e-05 2.1703919459109116e-05 -3.0166182198191096e-10 -7.8843809058422285e-05 2.2053546402268578e-05 -2.0370606480671496e-10 -9.3749903735155246e-05 2.5001936740346224e-05 -2.9343918868499022e-10 -9.3750146774556053e-05 2.5460929948346587e-05 -3.2726856215838434e-10 -6.4608198042964259e-05 1.8757564298625887e-05 -3.7000139487643144e-10 -6.3330099726098492e-05 2.1703919459109116e-05 -3.0166182198191096e-10 -7.8843809058422285e-05 2.5501533641349878e-05 -1.6657575417567261e-10 -7.6499898205931196e-05 2.1703919459109116e-05 -3.0166182198191096e-10 -7.8843809058422285e-05 2.2053546402268578e-05 -2.0370606480671494e-10 -9.3749903735155233e-05 2.6676642999795854e-05 -2.0624770333102805e-10 -9.3750227363176465e-05 2.5501533641349878e-05 -1.6657575417567261e-10 -7.6499898205931196e-05 2.2053546402268578e-05 -2.0370606480671494e-10 -9.3749903735155233e-05 2.6676642999795857e-05 -2.0624770333102808e-10 -9.3750227363176479e-05 2.5501533641349878e-05 -1.6657575417567259e-10 -7.6499898205931182e-05 2.661871818696836e-05 -1.2684142401103223e-10 -9.375022370419158e-05 3.125163892187329e-05 -2.0481797636405877e-10 -6.61559677561115e-05 2.5460929948346587e-05 -3.2726856215838434e-10 -6.4608198042964273e-05 2.5501533641349878e-05 -1.6657575417567261e-10 -7.6499898205931196e-05 2.6676419209238005e-05 -2.4293969848712905e-10 -8.0024403126774588e-05 2.5460929948346587e-05 -3.2726856215838434e-10 -6.4608198042964259e-05 2.1703919459109116e-05 -3.0166182198191096e-10 -7.8843809058422285e-05 2.5501533641349878e-05 -1.6657575417567261e-10 -7.6499898205931196e-05 2.6676419209238005e-05 -2.4293969848712905e-10 -8.0024403126774588e-05 2.1703919459109116e-05 -3.0166182198191096e-10 -7.8843809058422285e-05 2.667664299979585e-05 -2.0624770333102808e-10 -9.3750227363176465e-05 2.5501533641349878e-05 -1.6657575417567261e-10 -7.6499898205931196e-05 2.6676419209238005e-05 -2.4293969848712905e-10 -8.0024403126774588e-05 2.1703919459109116e-05 -3.0166182198191096e-10 -7.8843809058422285e-05 2.2053546402268578e-05 -2.0370606480671494e-10 -9.3749903735155233e-05 2.6676642999795854e-05 -2.0624770333102805e-10 -9.3750227363176465e-05 2.5001936740346224e-05 -2.9343918868499022e-10 -9.3750146774556053e-05 2.1703919459109116e-05 -3.0166182198191096e-10 -7.8843809058422285e-05 2.667664299979585e-05 -2.0624770333102808e-10 -9.3750227363176465e-05 2.6676419209238005e-05 -2.4293969848712905e-10 -8.0024403126774588e-05 2.5001936740346224e-05 -2.9343918868499022e-10 -9.3750146774556053e-05 2.6676642999795854e-05 -2.0624770333102805e-10 -9.3750227363176465e-05 2.6676419209238005e-05 -2.42939698487129e-10 -8.0024403126774575e-05 3.1251990813598657e-05 -3.3280831883986924e-10 -9.3750551404990029e-05 3.1251791189642315e-05 -2.0662599146802309e-10 -8.0024602096813384e-05 2.6676642999795854e-05 -2.0624770333102805e-10 -9.3750227363176465e-05 2.6676419209238005e-05 -2.4293969848712905e-10 -8.0024403126774588e-05 2.5001936740346224e-05 -2.9343918868499022e-10 -9.3750146774556053e-05 3.1251990813598657e-05 -3.3280831883986924e-10 -9.3750551404990029e-05 2.6676642999795854e-05 -2.0624770333102805e-10 -9.3750227363176465e-05 3.1251990813598657e-05 -3.3280831883986924e-10 -9.3750551404990029e-05 3.1251791189642315e-05 -2.0662599146802311e-10 -8.0024602096813398e-05 3.1251999466388378e-05 -1.7837742046454967e-10 -9.3750503671478848e-05 2.6676419209238005e-05 -2.4293969848712905e-10 -8.0024403126774588e-05 3.1251990813598657e-05 -3.3280831883986924e-10 -9.3750551404990029e-05 3.1251664730573228e-05 -3.2956269098916603e-10 -7.5000562711993558e-05 3.1251791189642315e-05 -2.0662599146802311e-10 -8.0024602096813398e-05 3.125163892187329e-05 -2.0481797636405877e-10 -6.61559677561115e-05 2.5460929948346587e-05 -3.2726856215838434e-10 -6.4608198042964259e-05 2.6676419209238005e-05 -2.4293969848712905e-10 -8.0024403126774588e-05 3.1251664730573228e-05 -3.2956269098916603e-10 -7.5000562711993558e-05 3.125163892187329e-05 -2.0481797636405877e-10 -6.61559677561115e-05 2.6676419209238002e-05 -2.4293969848712905e-10 -8.0024403126774602e-05 3.1251664730573228e-05 -3.2956269098916603e-10 -7.5000562711993558e-05 3.1251791189642315e-05 -2.0662599146802311e-10 -8.0024602096813398e-05 3.125163892187329e-05 -2.0481797636405877e-10 -6.61559677561115e-05 2.5501533641349878e-05 -1.6657575417567261e-10 -7.6499898205931196e-05 3.1251791189642315e-05 -2.0662599146802311e-10 -8.0024602096813398e-05 3.1251783394985393e-05 -1.1946416326917915e-10 -7.9850881126094657e-05 3.125163892187329e-05 -2.0481797636405877e-10 -6.61559677561115e-05 2.5501533641349878e-05 -1.6657575417567261e-10 -7.6499898205931196e-05 2.6676419209238005e-05 -2.4293969848712905e-10 -8.0024403126774575e-05 3.1251791189642315e-05 -2.0662599146802311e-10 -8.0024602096813398e-05 2.6676642999795854e-05 -2.0624770333102805e-10 -9.3750227363176465e-05 2.5501533641349878e-05 -1.6657575417567264e-10 -7.6499898205931182e-05 3.1251999466388378e-05 -1.7837742046454967e-10 -9.3750503671478848e-05 2.661871818696836e-05 -1.2684142401103223e-10 -9.375022370419158e-05 2.6676642999795854e-05 -2.0624770333102805e-10 -9.3750227363176465e-05 2.5501533641349878e-05 -1.6657575417567259e-10 -7.6499898205931196e-05 3.1251791189642315e-05 -2.0662599146802311e-10 -8.0024602096813398e-05 3.1251999466388378e-05 -1.7837742046454967e-10 -9.3750503671478848e-05 2.5501533641349878e-05 -1.6657575417567261e-10 -7.6499898205931196e-05 3.1251791189642315e-05 -2.0662599146802311e-10 -8.0024602096813398e-05 3.1251999466388378e-05 -1.7837742046454967e-10 -9.3750503671478862e-05 3.1251783394985393e-05 -1.1946416326917915e-10 -7.9850881126094657e-05 2.6676642999795854e-05 -2.0624770333102805e-10 -9.3750227363176465e-05 2.5501533641349878e-05 -1.6657575417567261e-10 -7.6499898205931196e-05 2.6676419209238002e-05 -2.4293969848712905e-10 -8.0024403126774588e-05 3.1251791189642315e-05 -2.0662599146802314e-10 -8.0024602096813398e-05 3.1251999466388378e-05 -1.7837742046454967e-10 -9.3750503671478848e-05 2.661871818696836e-05 -1.2684142401103226e-10 -9.375022370419158e-05 3.1251783394985393e-05 -1.1946416326917915e-10 -7.9850881126094657e-05 3.1251976021723189e-05 -5.7559858125653228e-11 -9.3750513048361026e-05 2.5501533641349878e-05 -1.6657575417567261e-10 -7.6499898205931196e-05 3.1251999466388378e-05 -1.7837742046454972e-10 -9.3750503671478862e-05 2.6618718186968356e-05 -1.2684142401103226e-10 -9.375022370419158e-05 3.1251783394985393e-05 -1.1946416326917915e-10 -7.9850881126094657e-05 2.5501533641349878e-05 -1.6657575417567261e-10 -7.6499898205931196e-05 2.661871818696836e-05 -1.2684142401103223e-10 -9.3750223704191566e-05 3.1251783394985393e-05 -1.1946416326917915e-10 -7.9850881126094657e-05 2.4382589182234916e-05 -6.152269077281318e-12 -7.3143239461288134e-05 2.1483520600897279e-05 -1.2496515966928749e-10 -6.4446611094535637e-05 2.2728102934878133e-05 -6.9100725882665495e-11 -9.374995647950122e-05 2.5501533641349878e-05 -1.6657575417567261e-10 -7.6499898205931196e-05 2.4382589182234916e-05 -6.1522690772813309e-12 -7.3143239461288134e-05 3.1251673316114692e-05 -7.8389754709841528e-11 -6.8179555164359171e-05 2.5501533641349875e-05 -1.6657575417567266e-10 -7.6499898205931196e-05 3.1251783394985393e-05 -1.1946416326917915e-10 -7.9850881126094657e-05 2.4382589182234916e-05 -6.152269077281318e-12 -7.3143239461288134e-05 2.2728102934878133e-05 -6.9100725882665469e-11 -9.374995647950122e-05 2.5501533641349881e-05 -1.6657575417567261e-10 -7.6499898205931196e-05 2.661871818696836e-05 -1.2684142401103223e-10 -9.375022370419158e-05 2.4382589182234916e-05 -6.152269077281318e-12 -7.3143239461288134e-05 3.1251673316114692e-05 -7.8389754709841528e-11 -6.8179555164359171e-05 2.1483520600897275e-05 -1.2496515966928749e-10 -6.4446611094535637e-05 2.5501533641349875e-05 -1.6657575417567261e-10 -7.6499898205931196e-05 2.438258918223492e-05 -6.1522690772813002e-12 -7.3143239461288134e-05 2.661871818696836e-05 -1.2684142401103223e-10 -9.375022370419158e-05 3.1251783394985393e-05 -1.1946416326917912e-10 -7.9850881126094657e-05 3.1251752796008604e-05 -7.9095846008290056e-12 -7.8930485251524067e-05 3.1251976021723189e-05 -5.7559858125653228e-11 -9.3750513048361026e-05 2.2728102934878133e-05 -6.9100725882665469e-11 -9.374995647950122e-05 2.2053546402268578e-05 -2.0370606480671491e-10 -9.3749903735155233e-05 2.5501533641349878e-05 -1.6657575417567264e-10 -7.6499898205931196e-05 2.661871818696836e-05 -1.2684142401103223e-10 -9.375022370419158e-05 3.1251673316114692e-05 -7.8389754709841528e-11 -6.8179555164359171e-05 3.125163892187329e-05 -2.0481797636405877e-10 -6.61559677561115e-05 2.5501533641349875e-05 -1.6657575417567261e-10 -7.649989820593121e-05 3.1251783394985393e-05 -1.1946416326917915e-10 -7.9850881126094657e-05 2.661871818696836e-05 -1.2684142401103223e-10 -9.375022370419158e-05 3.12517833949854e-05 -1.1946416326917912e-10 -7.9850881126094657e-05 3.1251752796008604e-05 -7.9095846008290169e-12 -7.8930485251524081e-05 2.4382589182234916e-05 -6.152269077281318e-12 -7.3143239461288134e-05 3.1251673316114692e-05 -7.8389754709841528e-11 -6.8179555164359171e-05 3.1251783394985393e-05 -1.1946416326917915e-10 -7.9850881126094657e-05 3.1251752796008604e-05 -7.9095846008290056e-12 -7.8930485251524067e-05 2.4382589182234916e-05 -6.152269077281318e-12 -7.3143239461288134e-05 3.1251673316114692e-05 -7.8389754709841528e-11 -6.8179555164359171e-05 3.1251752796008604e-05 -7.9095846008290104e-12 -7.8930485251524067e-05 2.4382589182234916e-05 -6.1522690772813139e-12 -7.3143239461288134e-05 3.1251584769381365e-05 2.1393814860015564e-11 -6.3113596784848268e-05 2.2728102934878133e-05 -6.9100725882665469e-11 -9.374995647950122e-05 2.4382589182234913e-05 -6.1522690772813268e-12 -7.3143239461288134e-05 2.6311916126355959e-05 -7.5662887578686195e-12 -9.3750214620849198e-05 2.1039374752656116e-05 1.7611786279902973e-11 -9.3749835825642218e-05 2.2728102934878133e-05 -6.9100725882665469e-11 -9.374995647950122e-05 2.661871818696836e-05 -1.2684142401103223e-10 -9.375022370419158e-05 2.4382589182234916e-05 -6.152269077281318e-12 -7.3143239461288134e-05 2.6311916126355959e-05 -7.5662887578686163e-12 -9.3750214620849198e-05 2.661871818696836e-05 -1.2684142401103223e-10 -9.375022370419158e-05 3.1251752796008604e-05 -7.9095846008290056e-12 -7.8930485251524067e-05 2.4382589182234916e-05 -6.152269077281318e-12 -7.3143239461288134e-05 2.6311916126355959e-05 -7.5662887578686163e-12 -9.3750214620849198e-05 3.1251752796008604e-05 -7.9095846008290056e-12 -7.8930485251524067e-05 2.6311916126355962e-05 -7.5662887578686163e-12 -9.3750214620849198e-05 3.1251976021723189e-05 -5.7559858125653228e-11 -9.3750513048361026e-05 3.1251981359639191e-05 6.2901703759974066e-11 -9.3750504677393099e-05 2.661871818696836e-05 -1.2684142401103223e-10 -9.375022370419158e-05 3.1251752796008604e-05 -7.909584600828991e-12 -7.8930485251524067e-05 2.6311916126355959e-05 -7.5662887578686163e-12 -9.3750214620849198e-05 3.1251976021723189e-05 -5.7559858125653228e-11 -9.3750513048361026e-05 2.4382589182234916e-05 -6.152269077281318e-12 -7.3143239461288134e-05 2.5264338881529799e-05 1.1285468081277487e-10 -9.3750105500530975e-05 2.4277623572363394e-05 1.8789771911878714e-10 -7.6560964616667493e-05 2.1454278676800655e-05 1.0749162341718584e-10 -6.4358870504225841e-05 2.4382589182234916e-05 -6.152269077281318e-12 -7.3143239461288134e-05 2.5264338881529803e-05 1.1285468081277487e-10 -9.3750105500530975e-05 3.1251727719940768e-05 1.1590254539497204e-10 -7.5787934751601736e-05 2.4277623572363394e-05 1.8789771911878714e-10 -7.6560964616667493e-05 3.1251752796008604e-05 -7.9095846008290056e-12 -7.8930485251524067e-05 2.6311916126355959e-05 -7.5662887578686179e-12 -9.3750214620849198e-05 3.1251981359639191e-05 6.2901703759974066e-11 -9.3750504677393099e-05 3.1251727719940775e-05 1.1590254539497204e-10 -7.5787934751601749e-05 2.4382589182234916e-05 -6.152269077281318e-12 -7.3143239461288134e-05 3.1251727719940775e-05 1.1590254539497206e-10 -7.5787934751601736e-05 2.4277623572363394e-05 1.8789771911878714e-10 -7.6560964616667493e-05 2.1454278676800659e-05 1.0749162341718585e-10 -6.4358870504225841e-05 2.6311916126355959e-05 -7.5662887578686163e-12 -9.3750214620849198e-05 3.1251981359639191e-05 6.2901703759974066e-11 -9.3750504677393099e-05 2.5264338881529803e-05 1.1285468081277487e-10 -9.3750105500530975e-05 3.1251727719940775e-05 1.1590254539497204e-10 -7.5787934751601749e-05 3.1251981359639191e-05 6.2901703759974066e-11 -9.3750504677393099e-05 2.5264338881529803e-05 1.1285468081277487e-10 -9.3750105500530975e-05 3.1251727719940775e-05 1.1590254539497204e-10 -7.5787934751601749e-05 3.1251981992212314e-05 1.7873739135692349e-10 -9.3750498457632675e-05 2.4382589182234916e-05 -6.152269077281318e-12 -7.3143239461288134e-05 2.6311916126355959e-05 -7.5662887578686163e-12 -9.3750214620849198e-05 2.5264338881529799e-05 1.1285468081277484e-10 -9.3750105500530975e-05 2.1039374752656112e-05 1.7611786279902996e-11 -9.3749835825642205e-05 2.4382589182234916e-05 -6.152269077281318e-12 -7.3143239461288134e-05 2.6311916126355962e-05 -7.5662887578686131e-12 -9.3750214620849198e-05 2.5264338881529803e-05 1.1285468081277487e-10 -9.3750105500530975e-05 3.1251727719940775e-05 1.1590254539497203e-10 -7.5787934751601749e-05 3.1251752796008604e-05 -7.9095846008290056e-12 -7.8930485251524067e-05 2.4382589182234916e-05 -6.152269077281318e-12 -7.3143239461288134e-05 3.1251727719940775e-05 1.1590254539497204e-10 -7.5787934751601749e-05 3.1251584769381365e-05 2.1393814860015564e-11 -6.3113596784848268e-05 3.1251752796008604e-05 -7.9095846008290056e-12 -7.8930485251524067e-05 2.4382589182234916e-05 -6.1522690772813204e-12 -7.3143239461288134e-05 2.6311916126355959e-05 -7.5662887578686163e-12 -9.3750214620849198e-05 3.1251727719940775e-05 1.1590254539497204e-10 -7.5787934751601749e-05 2.3452940044532601e-05 1.6515878271425111e-11 -4.6722419229397214e-05 2.4382589182234913e-05 -6.1522690772813204e-12 -7.3143239461288134e-05 3.1251584769381365e-05 2.1393814860015493e-11 -6.3113596784848268e-05 3.1251565433672854e-05 1.2605448973402001e-10 -5.7203657786039689e-05 2.4180984082685412e-05 2.068640917991017e-10 -4.6715346053894513e-05 2.3452940044532601e-05 1.6515878271425091e-11 -4.6722419229397207e-05 3.1251565433672854e-05 1.2605448973401998e-10 -5.7203657786039695e-05 2.1454278676800659e-05 1.0749162341718585e-10 -6.4358870504225841e-05 2.4180984082685412e-05 2.068640917991017e-10 -4.6715346053894513e-05 3.1251565433672854e-05 1.2605448973401996e-10 -5.7203657786039695e-05 3.1251639105908139e-05 2.1346170282452988e-10 -6.502703091870168e-05 2.1454278676800655e-05 1.0749162341718585e-10 -6.4358870504225828e-05 3.1251727719940775e-05 1.1590254539497204e-10 -7.5787934751601749e-05 3.1251565433672861e-05 1.2605448973402001e-10 -5.7203657786039695e-05 2.4277623572363394e-05 1.8789771911878714e-10 -7.6560964616667493e-05 2.1454278676800659e-05 1.0749162341718585e-10 -6.4358870504225841e-05 2.4180984082685412e-05 2.068640917991017e-10 -4.6715346053894513e-05 3.1251502216732132e-05 1.2304792723036238e-10 -4.2949831007867545e-05 2.3452940044532605e-05 1.6515878271425085e-11 -4.6722419229397214e-05 3.1251565433672854e-05 1.2605448973402004e-10 -5.7203657786039702e-05 2.3452940044532601e-05 1.6515878271425111e-11 -4.6722419229397214e-05 2.4382589182234913e-05 -6.1522690772813252e-12 -7.3143239461288134e-05 3.1251565433672854e-05 1.2605448973402001e-10 -5.7203657786039695e-05 2.1454278676800659e-05 1.0749162341718585e-10 -6.4358870504225841e-05 2.4382589182234916e-05 -6.152269077281318e-12 -7.3143239461288134e-05 3.1251727719940768e-05 1.1590254539497204e-10 -7.5787934751601736e-05 3.1251565433672854e-05 1.2605448973402004e-10 -5.7203657786039695e-05 2.1454278676800659e-05 1.0749162341718585e-10 -6.4358870504225841e-05 2.4382589182234916e-05 -6.152269077281318e-12 -7.3143239461288134e-05 3.1251727719940775e-05 1.1590254539497207e-10 -7.5787934751601749e-05 3.1251584769381365e-05 2.1393814860015526e-11 -6.3113596784848268e-05 3.1251565433672854e-05 1.2605448973402001e-10 -5.7203657786039702e-05 2.3452940044532601e-05 1.6515878271425111e-11 -4.6722419229397214e-05 3.1251584769381365e-05 2.1393814860015564e-11 -6.3113596784848268e-05 3.125147133197285e-05 -1.2253625675769058e-12 -4.8714659336867115e-05 3.1251565433672854e-05 1.2605448973402001e-10 -5.7203657786039695e-05 3.1251502216732125e-05 1.2304792723036238e-10 -4.2949831007867552e-05 2.3452940044532601e-05 1.6515878271425107e-11 -4.6722419229397214e-05 3.125147133197285e-05 -1.2253625675769058e-12 -4.8714659336867115e-05 3.1251565433672854e-05 1.2605448973402001e-10 -5.7203657786039695e-05 2.4180984082685412e-05 2.068640917991017e-10 -4.6715346053894513e-05 3.1251502216732125e-05 1.2304792723036233e-10 -4.2949831007867552e-05 3.1251565433672854e-05 1.2605448973402001e-10 -5.7203657786039695e-05 3.1251494548559801e-05 2.037264618059222e-10 -4.7628851673572655e-05 2.4180984082685412e-05 2.068640917991017e-10 -4.6715346053894513e-05 3.1251639105908139e-05 2.1346170282452988e-10 -6.502703091870168e-05 2.4277623572363394e-05 1.8789771911878717e-10 -7.6560964616667493e-05 2.1454278676800659e-05 1.0749162341718578e-10 -6.4358870504225828e-05 2.4180984082685412e-05 2.068640917991017e-10 -4.6715346053894513e-05 2.5422246041192226e-05 3.2066923404287655e-10 -6.4145086866165306e-05 2.4277623572363397e-05 1.8789771911878719e-10 -7.6560964616667507e-05 2.1454278676800659e-05 1.0749162341718587e-10 -6.4358870504225841e-05 3.1251565433672854e-05 1.2605448973402001e-10 -5.7203657786039695e-05 3.1251639105908139e-05 2.1346170282452988e-10 -6.502703091870168e-05 2.4277623572363391e-05 1.8789771911878717e-10 -7.6560964616667493e-05 2.1454278676800659e-05 1.0749162341718585e-10 -6.4358870504225841e-05 3.1251727719940775e-05 1.1590254539497204e-10 -7.5787934751601749e-05 3.1251565433672854e-05 1.2605448973402001e-10 -5.7203657786039695e-05 3.1251639105908139e-05 2.1346170282452988e-10 -6.502703091870168e-05 2.4277623572363394e-05 1.8789771911878714e-10 -7.6560964616667493e-05 2.4180984082685412e-05 2.068640917991017e-10 -4.6715346053894513e-05 3.1251639105908139e-05 2.1346170282452988e-10 -6.502703091870168e-05 2.542224604119223e-05 3.2066923404287655e-10 -6.4145086866165306e-05 2.4277623572363394e-05 1.8789771911878714e-10 -7.6560964616667493e-05 2.4180984082685412e-05 2.068640917991017e-10 -4.6715346053894513e-05 3.1251565433672848e-05 1.2605448973401998e-10 -5.7203657786039689e-05 3.1251639105908139e-05 2.1346170282452988e-10 -6.502703091870168e-05 3.1251494548559801e-05 2.037264618059222e-10 -4.7628851673572655e-05 2.4180984082685412e-05 2.068640917991017e-10 -4.6715346053894513e-05 3.1251639105908139e-05 2.1346170282452988e-10 -6.502703091870168e-05 3.1251494548559795e-05 2.037264618059222e-10 -4.7628851673572655e-05 2.711473388708157e-05 3.0052526843476083e-10 -4.7445799932829656e-05 3.1251639105908139e-05 2.1346170282452988e-10 -6.502703091870168e-05 3.1251494548559801e-05 2.0372646180592222e-10 -4.7628851673572655e-05 3.1251524849691427e-05 3.2600944578455781e-10 -5.6250673098950138e-05 2.7114733887081566e-05 3.0052526843476078e-10 -4.7445799932829649e-05 3.1251453252021625e-05 2.985939063629557e-10 -3.7500801078122826e-05 3.1251494548559808e-05 2.0372646180592225e-10 -4.7628851673572648e-05 3.1251524849691427e-05 3.2600944578455781e-10 -5.6250673098950138e-05 2.711473388708157e-05 3.0052526843476083e-10 -4.7445799932829649e-05 3.1251639105908139e-05 2.1346170282452988e-10 -6.502703091870168e-05 3.1251524849691421e-05 3.2600944578455781e-10 -5.6250673098950138e-05 2.711473388708157e-05 3.0052526843476078e-10 -4.7445799932829643e-05 2.5422246041192226e-05 3.2066923404287655e-10 -6.4145086866165306e-05 2.4180984082685412e-05 2.068640917991017e-10 -4.6715346053894513e-05 2.7114733887081573e-05 3.0052526843476078e-10 -4.7445799932829656e-05 2.5422246041192233e-05 3.206692340428766e-10 -6.4145086866165306e-05 2.1326399070200265e-05 3.7194917294151254e-10 -4.9041192557915671e-05 2.4180984082685412e-05 2.068640917991017e-10 -4.6715346053894513e-05 3.1251639105908139e-05 2.1346170282452988e-10 -6.502703091870168e-05 2.711473388708157e-05 3.0052526843476083e-10 -4.7445799932829649e-05 2.542224604119223e-05 3.2066923404287655e-10 -6.4145086866165306e-05 3.1251639105908139e-05 2.1346170282452988e-10 -6.502703091870168e-05 3.1251524849691427e-05 3.2600944578455776e-10 -5.6250673098950138e-05 2.5422246041192233e-05 3.2066923404287655e-10 -6.4145086866165306e-05 3.1251654469651565e-05 3.5492512928621375e-10 -7.500054520141439e-05 3.1251639105908139e-05 2.1346170282452988e-10 -6.502703091870168e-05 2.5422246041192233e-05 3.2066923404287655e-10 -6.4145086866165306e-05 3.1251654469651565e-05 3.5492512928621381e-10 -7.5000545201414377e-05 2.6676416881614543e-05 2.3750311075704465e-10 -8.0024394649367309e-05 3.1251639105908139e-05 2.1346170282452988e-10 -6.502703091870168e-05 3.1251787939992525e-05 2.027746326513635e-10 -8.0024582611520678e-05 2.4277623572363394e-05 1.8789771911878714e-10 -7.6560964616667493e-05 2.6676416881614536e-05 2.3750311075704444e-10 -8.0024394649367309e-05 3.1251639105908139e-05 2.1346170282452988e-10 -6.502703091870168e-05 3.1251654469651565e-05 3.5492512928621375e-10 -7.500054520141439e-05 3.1251787939992525e-05 2.027746326513635e-10 -8.0024582611520678e-05 2.6676416881614546e-05 2.3750311075704459e-10 -8.0024394649367309e-05 3.125197353506779e-05 3.2539720453904734e-10 -9.3750530455813256e-05 3.1251981992212314e-05 1.7873739135692349e-10 -9.3750498457632675e-05 3.1251787939992525e-05 2.027746326513635e-10 -8.0024582611520678e-05 2.6676624788256129e-05 2.1469134237981127e-10 -9.3750228023038536e-05 3.125197353506779e-05 3.2539720453904734e-10 -9.3750530455813256e-05 2.6676624788256129e-05 2.1469134237981127e-10 -9.3750228023038536e-05 2.5001900731444214e-05 3.0860048435007317e-10 -9.3750125758664254e-05 2.6676416881614539e-05 2.3750311075704449e-10 -8.0024394649367309e-05 3.1251654469651565e-05 3.5492512928621375e-10 -7.500054520141439e-05 3.125197353506779e-05 3.2539720453904739e-10 -9.3750530455813256e-05 3.1251787939992525e-05 2.027746326513635e-10 -8.0024582611520678e-05 2.6676416881614539e-05 2.3750311075704449e-10 -8.0024394649367309e-05 3.125197353506779e-05 3.2539720453904734e-10 -9.3750530455813256e-05 3.1251787939992525e-05 2.027746326513635e-10 -8.0024582611520678e-05 2.6676624788256129e-05 2.1469134237981127e-10 -9.3750228023038536e-05 2.6676416881614539e-05 2.3750311075704449e-10 -8.0024394649367309e-05 3.1251727719940775e-05 1.1590254539497204e-10 -7.5787934751601749e-05 3.1251981992212314e-05 1.7873739135692349e-10 -9.3750498457632675e-05 3.1251787939992525e-05 2.027746326513635e-10 -8.0024582611520678e-05 2.6676624788256129e-05 2.1469134237981127e-10 -9.3750228023038536e-05 2.5264338881529803e-05 1.1285468081277487e-10 -9.3750105500530975e-05 3.1251727719940775e-05 1.1590254539497204e-10 -7.5787934751601749e-05 3.1251981992212314e-05 1.7873739135692349e-10 -9.3750498457632675e-05 2.6676624788256129e-05 2.1469134237981127e-10 -9.3750228023038536e-05 3.1251727719940775e-05 1.1590254539497204e-10 -7.5787934751601749e-05 3.1251787939992525e-05 2.027746326513635e-10 -8.0024582611520678e-05 2.4277623572363394e-05 1.8789771911878714e-10 -7.6560964616667493e-05 2.6676624788256129e-05 2.1469134237981127e-10 -9.3750228023038536e-05 3.1251727719940775e-05 1.1590254539497204e-10 -7.5787934751601749e-05 3.1251639105908139e-05 2.1346170282452988e-10 -6.502703091870168e-05 3.1251787939992525e-05 2.027746326513635e-10 -8.0024582611520678e-05 2.4277623572363394e-05 1.8789771911878714e-10 -7.6560964616667493e-05 2.5264338881529803e-05 1.1285468081277487e-10 -9.3750105500530975e-05 2.4277623572363391e-05 1.8789771911878712e-10 -7.6560964616667479e-05 2.6676624788256129e-05 2.1469134237981127e-10 -9.3750228023038536e-05 2.1677219333736113e-05 2.2904330402915329e-10 -9.3749871873119803e-05 2.5264338881529803e-05 1.1285468081277487e-10 -9.3750105500530975e-05 3.1251727719940775e-05 1.1590254539497206e-10 -7.5787934751601763e-05 2.4277623572363394e-05 1.8789771911878714e-10 -7.6560964616667493e-05 2.6676624788256129e-05 2.1469134237981127e-10 -9.3750228023038536e-05 2.4277623572363394e-05 1.8789771911878714e-10 -7.6560964616667493e-05 2.6676624788256129e-05 2.1469134237981127e-10 -9.3750228023038536e-05 2.5001900731444214e-05 3.0860048435007317e-10 -9.3750125758664254e-05 2.6676416881614539e-05 2.3750311075704444e-10 -8.0024394649367309e-05 2.4277623572363394e-05 1.8789771911878714e-10 -7.6560964616667493e-05 2.5001900731444214e-05 3.0860048435007317e-10 -9.3750125758664254e-05 2.6676416881614539e-05 2.3750311075704444e-10 -8.0024394649367295e-05 2.1870775680849612e-05 3.0264964930633334e-10 -7.7866726837779365e-05 2.4277623572363394e-05 1.8789771911878714e-10 -7.6560964616667493e-05 2.6676624788256129e-05 2.1469134237981127e-10 -9.3750228023038536e-05 2.5001900731444214e-05 3.0860048435007317e-10 -9.375012575866424e-05 2.1677219333736113e-05 2.2904330402915329e-10 -9.3749871873119803e-05 3.1251787939992525e-05 2.027746326513635e-10 -8.0024582611520678e-05 2.4277623572363394e-05 1.8789771911878717e-10 -7.6560964616667507e-05 2.6676624788256129e-05 2.1469134237981127e-10 -9.3750228023038536e-05 2.6676416881614539e-05 2.3750311075704444e-10 -8.0024394649367309e-05 2.542224604119223e-05 3.2066923404287655e-10 -6.4145086866165306e-05 2.4277623572363394e-05 1.8789771911878714e-10 -7.6560964616667493e-05 2.6676416881614536e-05 2.3750311075704444e-10 -8.0024394649367295e-05 2.1870775680849609e-05 3.0264964930633329e-10 -7.7866726837779352e-05 3.1251639105908139e-05 2.1346170282452988e-10 -6.502703091870168e-05 2.542224604119223e-05 3.2066923404287655e-10 -6.4145086866165306e-05 2.4277623572363394e-05 1.8789771911878714e-10 -7.6560964616667493e-05 2.6676416881614539e-05 2.3750311075704454e-10 -8.0024394649367295e-05 2.4277623572363394e-05 1.8789771911878714e-10 -7.6560964616667493e-05 2.1870775680849609e-05 3.0264964930633329e-10 -7.7866726837779352e-05 2.1677219333736113e-05 2.2904330402915329e-10 -9.3749871873119803e-05 1.5598393584324619e-05 1.72431766721881e-10 -7.3026802666175959e-05 2.4277623572363394e-05 1.8789771911878714e-10 -7.6560964616667493e-05 2.1677219333736113e-05 2.2904330402915329e-10 -9.3749871873119803e-05 1.9069250409168251e-05 1.1702676748603541e-10 -9.3749735775896129e-05 1.5598393584324615e-05 1.7243176672188095e-10 -7.3026802666175945e-05 2.542224604119223e-05 3.2066923404287655e-10 -6.4145086866165306e-05 2.4277623572363394e-05 1.8789771911878714e-10 -7.6560964616667493e-05 2.1870775680849609e-05 3.0264964930633329e-10 -7.7866726837779352e-05 1.9136696072295351e-05 2.7545074247189252e-10 -6.3597747562509774e-05 2.4277623572363394e-05 1.8789771911878714e-10 -7.6560964616667493e-05 2.1870775680849609e-05 3.0264964930633329e-10 -7.7866726837779352e-05 1.9136696072295351e-05 2.7545074247189252e-10 -6.3597747562509774e-05 1.5598393584324619e-05 1.72431766721881e-10 -7.3026802666175959e-05 2.4277623572363394e-05 1.8789771911878714e-10 -7.6560964616667493e-05 2.5001900731444218e-05 3.0860048435007322e-10 -9.3750125758664267e-05 2.1870775680849609e-05 3.0264964930633329e-10 -7.7866726837779352e-05 2.1677219333736113e-05 2.2904330402915329e-10 -9.3749871873119803e-05 2.1870775680849609e-05 3.0264964930633329e-10 -7.7866726837779352e-05 2.1677219333736113e-05 2.2904330402915329e-10 -9.3749871873119803e-05 1.8751593706117256e-05 3.6412892477267172e-10 -9.374976059813596e-05 1.5929335036972144e-05 3.0165665805905298e-10 -7.8313893144832093e-05 2.5001900731444214e-05 3.0860048435007317e-10 -9.3750125758664254e-05 2.1870775680849609e-05 3.0264964930633329e-10 -7.7866726837779352e-05 2.1677219333736113e-05 2.2904330402915329e-10 -9.3749871873119803e-05 1.8751593706117256e-05 3.6412892477267172e-10 -9.374976059813596e-05 2.5264338881529803e-05 1.1285468081277487e-10 -9.3750105500530975e-05 2.4277623572363397e-05 1.8789771911878712e-10 -7.6560964616667493e-05 2.1677219333736113e-05 2.2904330402915329e-10 -9.3749871873119803e-05 1.9069250409168254e-05 1.1702676748603541e-10 -9.3749735775896129e-05 2.1677219333736113e-05 2.2904330402915329e-10 -9.3749871873119803e-05 1.5877405932995091e-05 2.3619654820553925e-10 -9.3749560357650011e-05 1.9069250409168254e-05 1.1702676748603541e-10 -9.3749735775896129e-05 1.5598393584324619e-05 1.72431766721881e-10 -7.3026802666175959e-05 2.1677219333736113e-05 2.2904330402915329e-10 -9.3749871873119803e-05 1.5877405932995091e-05 2.3619654820553925e-10 -9.3749560357650011e-05 1.5929335036972144e-05 3.0165665805905304e-10 -7.8313893144832093e-05 1.5598393584324619e-05 1.72431766721881e-10 -7.3026802666175959e-05 1.5877405932995091e-05 2.3619654820553925e-10 -9.3749560357650011e-05 1.8751593706117256e-05 3.6412892477267172e-10 -9.374976059813596e-05 1.5929335036972144e-05 3.0165665805905298e-10 -7.8313893144832093e-05 1.250111544914348e-05 4.0426889917752419e-10 -9.3749477442914102e-05 2.1677219333736113e-05 2.2904330402915329e-10 -9.3749871873119803e-05 1.5877405932995091e-05 2.3619654820553925e-10 -9.3749560357650011e-05 1.8751593706117256e-05 3.6412892477267172e-10 -9.374976059813596e-05 1.592933503697214e-05 3.0165665805905298e-10 -7.831389314483208e-05 2.1870775680849609e-05 3.0264964930633329e-10 -7.7866726837779352e-05 2.1677219333736113e-05 2.2904330402915327e-10 -9.3749871873119803e-05 1.5929335036972144e-05 3.0165665805905298e-10 -7.8313893144832093e-05 1.5598393584324622e-05 1.72431766721881e-10 -7.3026802666175959e-05 2.1870775680849609e-05 3.0264964930633329e-10 -7.7866726837779352e-05 1.5929335036972144e-05 3.0165665805905298e-10 -7.8313893144832093e-05 1.9136696072295351e-05 2.7545074247189252e-10 -6.3597747562509774e-05 1.5598393584324619e-05 1.7243176672188098e-10 -7.3026802666175959e-05 1.9136696072295351e-05 2.7545074247189252e-10 -6.3597747562509774e-05 2.1454278676800659e-05 1.0749162341718585e-10 -6.4358870504225828e-05 1.5621010445398939e-05 1.5873911681243632e-10 -4.9657217105295604e-05 1.5598393584324619e-05 1.72431766721881e-10 -7.3026802666175959e-05 2.4180984082685412e-05 2.068640917991017e-10 -4.6715346053894513e-05 1.9136696072295351e-05 2.7545074247189242e-10 -6.3597747562509774e-05 2.1326399070200265e-05 3.7194917294151254e-10 -4.9041192557915664e-05 1.5621010445398935e-05 1.5873911681243629e-10 -4.9657217105295597e-05 1.9136696072295351e-05 2.7545074247189252e-10 -6.3597747562509774e-05 1.5621010445398932e-05 1.5873911681243629e-10 -4.9657217105295597e-05 1.4319803206948175e-05 2.6679195544691513e-10 -6.4659148310786563e-05 1.5598393584324619e-05 1.72431766721881e-10 -7.3026802666175959e-05 1.5929335036972144e-05 3.0165665805905298e-10 -7.8313893144832093e-05 1.9136696072295351e-05 2.7545074247189252e-10 -6.3597747562509774e-05 1.4319803206948175e-05 2.6679195544691513e-10 -6.4659148310786563e-05 1.5598393584324615e-05 1.72431766721881e-10 -7.3026802666175945e-05 2.4180984082685412e-05 2.068640917991017e-10 -4.6715346053894513e-05 1.9136696072295348e-05 2.7545074247189252e-10 -6.3597747562509774e-05 2.1454278676800659e-05 1.0749162341718586e-10 -6.4358870504225841e-05 1.5621010445398935e-05 1.5873911681243629e-10 -4.9657217105295597e-05 2.542224604119223e-05 3.2066923404287655e-10 -6.4145086866165306e-05 2.4277623572363394e-05 1.8789771911878714e-10 -7.6560964616667493e-05 1.9136696072295351e-05 2.7545074247189252e-10 -6.3597747562509774e-05 2.1454278676800659e-05 1.0749162341718585e-10 -6.4358870504225841e-05 2.4277623572363394e-05 1.8789771911878714e-10 -7.6560964616667493e-05 1.9136696072295348e-05 2.7545074247189252e-10 -6.359774756250976e-05 2.1454278676800659e-05 1.0749162341718584e-10 -6.4358870504225855e-05 1.5598393584324622e-05 1.72431766721881e-10 -7.3026802666175959e-05 2.4180984082685412e-05 2.068640917991017e-10 -4.6715346053894513e-05 2.542224604119223e-05 3.2066923404287655e-10 -6.4145086866165306e-05 1.9136696072295355e-05 2.7545074247189252e-10 -6.3597747562509774e-05 2.1454278676800655e-05 1.0749162341718586e-10 -6.4358870504225828e-05 2.4180984082685412e-05 2.068640917991017e-10 -4.6715346053894513e-05 2.542224604119223e-05 3.2066923404287655e-10 -6.4145086866165306e-05 1.9136696072295351e-05 2.7545074247189252e-10 -6.3597747562509774e-05 2.1326399070200265e-05 3.7194917294151259e-10 -4.9041192557915664e-05 1.623900966372302e-05 3.1638110635101094e-10 -4.6875438724226105e-05 1.9136696072295351e-05 2.7545074247189252e-10 -6.3597747562509774e-05 1.5621010445398935e-05 1.5873911681243627e-10 -4.9657217105295604e-05 1.4319803206948175e-05 2.6679195544691513e-10 -6.4659148310786563e-05 1.623900966372302e-05 3.1638110635101094e-10 -4.6875438724226105e-05 1.9136696072295351e-05 2.7545074247189252e-10 -6.3597747562509774e-05 2.1326399070200265e-05 3.7194917294151254e-10 -4.9041192557915664e-05 1.5621010445398935e-05 1.5873911681243627e-10 -4.9657217105295597e-05 2.1454278676800659e-05 1.0749162341718585e-10 -6.4358870504225841e-05 1.5568674751791642e-05 1.5203786409171014e-11 -7.0355303123466323e-05 1.5621010445398935e-05 1.5873911681243629e-10 -4.9657217105295597e-05 1.5598393584324619e-05 1.72431766721881e-10 -7.3026802666175959e-05 2.3452940044532601e-05 1.6515878271425111e-11 -4.6722419229397214e-05 1.5626007469761117e-05 -1.7947186422098415e-12 -4.6875390101611856e-05 2.1454278676800659e-05 1.0749162341718585e-10 -6.4358870504225841e-05 1.5568674751791639e-05 1.5203786409171105e-11 -7.0355303123466323e-05 2.3452940044532601e-05 1.6515878271425111e-11 -4.6722419229397214e-05 2.4382589182234916e-05 -6.152269077281318e-12 -7.3143239461288134e-05 2.1454278676800659e-05 1.0749162341718585e-10 -6.4358870504225841e-05 1.5568674751791646e-05 1.5203786409171046e-11 -7.0355303123466323e-05 2.3452940044532601e-05 1.6515878271425111e-11 -4.6722419229397214e-05 1.5626007469761117e-05 -1.7947186422098193e-12 -4.6875390101611849e-05 2.1454278676800659e-05 1.0749162341718585e-10 -6.4358870504225841e-05 1.5621010445398935e-05 1.5873911681243629e-10 -4.9657217105295597e-05 2.4180984082685412e-05 2.068640917991017e-10 -4.6715346053894513e-05 2.3452940044532605e-05 1.6515878271425085e-11 -4.6722419229397214e-05 2.1454278676800659e-05 1.0749162341718585e-10 -6.4358870504225841e-05 1.5621010445398932e-05 1.5873911681243627e-10 -4.965721710529559e-05 1.5626007469761117e-05 -1.7947186422098415e-12 -4.6875390101611856e-05 2.1454278676800655e-05 1.0749162341718586e-10 -6.4358870504225828e-05 1.5568674751791639e-05 1.5203786409171008e-11 -7.0355303123466323e-05 1.5621010445398935e-05 1.5873911681243629e-10 -4.9657217105295597e-05 2.4382589182234916e-05 -6.152269077281318e-12 -7.3143239461288134e-05 2.1039374752656119e-05 1.7611786279903051e-11 -9.3749835825642218e-05 1.9069250409168254e-05 1.1702676748603534e-10 -9.3749735775896143e-05 1.5568674751791642e-05 1.5203786409171014e-11 -7.0355303123466323e-05 2.4382589182234916e-05 -6.152269077281318e-12 -7.3143239461288134e-05 2.1454278676800659e-05 1.0749162341718584e-10 -6.4358870504225841e-05 1.9069250409168254e-05 1.1702676748603541e-10 -9.3749735775896129e-05 1.5568674751791642e-05 1.5203786409171027e-11 -7.0355303123466323e-05 2.4382589182234916e-05 -6.152269077281318e-12 -7.3143239461288134e-05 2.5264338881529806e-05 1.1285468081277488e-10 -9.3750105500530975e-05 2.1454278676800659e-05 1.0749162341718585e-10 -6.4358870504225841e-05 1.9069250409168254e-05 1.1702676748603541e-10 -9.3749735775896129e-05 2.4277623572363394e-05 1.8789771911878714e-10 -7.6560964616667493e-05 2.1454278676800655e-05 1.0749162341718586e-10 -6.4358870504225828e-05 1.9069250409168258e-05 1.1702676748603544e-10 -9.3749735775896129e-05 1.5598393584324619e-05 1.7243176672188098e-10 -7.3026802666175959e-05 2.1454278676800659e-05 1.0749162341718585e-10 -6.4358870504225841e-05 1.9069250409168251e-05 1.1702676748603539e-10 -9.3749735775896115e-05 1.5568674751791642e-05 1.5203786409171011e-11 -7.0355303123466323e-05 1.5598393584324619e-05 1.72431766721881e-10 -7.3026802666175959e-05 2.5264338881529803e-05 1.1285468081277487e-10 -9.3750105500530975e-05 2.4277623572363394e-05 1.8789771911878714e-10 -7.6560964616667493e-05 2.1454278676800655e-05 1.0749162341718577e-10 -6.4358870504225828e-05 1.9069250409168254e-05 1.1702676748603541e-10 -9.3749735775896129e-05 2.4382589182234916e-05 -6.152269077281318e-12 -7.3143239461288134e-05 2.5264338881529803e-05 1.1285468081277484e-10 -9.3750105500530989e-05 2.1039374752656112e-05 1.7611786279902993e-11 -9.3749835825642218e-05 1.9069250409168254e-05 1.1702676748603534e-10 -9.3749735775896129e-05 1.9069250409168254e-05 1.1702676748603541e-10 -9.3749735775896129e-05 1.4317593917184347e-05 1.2090610582147732e-10 -9.3749489669856081e-05 1.5568674751791642e-05 1.5203786409171014e-11 -7.0355303123466323e-05 1.5598393584324619e-05 1.7243176672188105e-10 -7.3026802666175959e-05 1.5877405932995091e-05 2.3619654820553925e-10 -9.3749560357650011e-05 1.9069250409168254e-05 1.1702676748603541e-10 -9.3749735775896129e-05 1.4317593917184347e-05 1.2090610582147732e-10 -9.3749489669856081e-05 1.5598393584324619e-05 1.72431766721881e-10 -7.3026802666175959e-05 1.9069250409168254e-05 1.1702676748603541e-10 -9.3749735775896129e-05 1.6239391573383386e-05 -2.520939701973677e-12 -9.3749591552643119e-05 1.4317593917184347e-05 1.2090610582147732e-10 -9.3749489669856081e-05 1.5568674751791642e-05 1.5203786409171014e-11 -7.0355303123466323e-05 2.1039374752656116e-05 1.7611786279902973e-11 -9.3749835825642218e-05 1.9069250409168254e-05 1.1702676748603541e-10 -9.3749735775896129e-05 1.6239391573383386e-05 -2.520939701973677e-12 -9.3749591552643119e-05 1.5568674751791642e-05 1.5203786409171014e-11 -7.0355303123466323e-05 1.0140464031632437e-05 6.724057419934426e-11 -9.3749349845232197e-05 9.7378469232355305e-06 1.2125568621607631e-10 -6.4239040619800796e-05 5.7673090040686748e-06 1.6141367171125202e-10 -7.6512013958453766e-05 6.8267443633000609e-06 -1.2297797992385701e-12 -7.2782490500450175e-05 1.6239391573383386e-05 -2.520939701973677e-12 -9.3749591552643119e-05 1.0140464031632437e-05 6.724057419934426e-11 -9.3749349845232197e-05 1.5568674751791642e-05 1.5203786409171014e-11 -7.0355303123466323e-05 1.029006503953053e-05 -7.0763167134032168e-11 -9.3749357077241026e-05 1.4317593917184347e-05 1.2090610582147732e-10 -9.3749489669856081e-05 9.7378469232355305e-06 1.2125568621607631e-10 -6.4239040619800796e-05 1.5598393584324619e-05 1.72431766721881e-10 -7.3026802666175959e-05 9.7093398312925988e-06 2.1183385172022935e-10 -9.3749343092006086e-05 1.0140464031632437e-05 6.724057419934426e-11 -9.3749349845232197e-05 1.5568674751791642e-05 1.5203786409171014e-11 -7.0355303123466323e-05 6.8267443633000609e-06 -1.2297797992385701e-12 -7.2782490500450175e-05 1.029006503953053e-05 -7.0763167134032168e-11 -9.3749357077241026e-05 1.4317593917184347e-05 1.2090610582147732e-10 -9.3749489669856081e-05 1.5568674751791642e-05 1.5203786409171001e-11 -7.0355303123466323e-05 9.7378469232355305e-06 1.2125568621607631e-10 -6.4239040619800796e-05 1.5598393584324619e-05 1.72431766721881e-10 -7.3026802666175959e-05 1.0140464031632437e-05 6.724057419934426e-11 -9.3749349845232197e-05 1.5568674751791642e-05 1.5203786409171053e-11 -7.0355303123466323e-05 9.7378469232355322e-06 1.2125568621607628e-10 -6.4239040619800783e-05 6.8267443633000609e-06 -1.2297797992385701e-12 -7.2782490500450175e-05 1.6239391573383386e-05 -2.520939701973677e-12 -9.3749591552643119e-05 1.4317593917184347e-05 1.2090610582147732e-10 -9.3749489669856081e-05 1.0140464031632437e-05 6.724057419934426e-11 -9.3749349845232197e-05 1.5568674751791642e-05 1.5203786409171014e-11 -7.0355303123466323e-05 1.4317593917184347e-05 1.2090610582147732e-10 -9.3749489669856081e-05 1.0140464031632437e-05 6.724057419934426e-11 -9.3749349845232197e-05 9.7378469232355305e-06 1.2125568621607631e-10 -6.4239040619800796e-05 9.7093398312925988e-06 2.1183385172022935e-10 -9.3749343092006086e-05 1.4317593917184347e-05 1.2090610582147732e-10 -9.3749489669856081e-05 1.0140464031632437e-05 6.724057419934426e-11 -9.3749349845232197e-05 1.5568674751791642e-05 1.5203786409171014e-11 -7.0355303123466323e-05 9.7378469232355305e-06 1.2125568621607631e-10 -6.4239040619800796e-05 1.0140464031632437e-05 6.724057419934426e-11 -9.3749349845232197e-05 9.7378469232355305e-06 1.2125568621607631e-10 -6.4239040619800796e-05 9.7093398312925988e-06 2.1183385172022935e-10 -9.3749343092006086e-05 5.7673090040686748e-06 1.6141367171125202e-10 -7.6512013958453766e-05 7.7408888467154043e-06 2.1400440472576621e-11 -4.2280181507588617e-05 1.5626007469761117e-05 -1.7947186422098209e-12 -4.6875390101611856e-05 9.7378469232355305e-06 1.2125568621607631e-10 -6.4239040619800796e-05 1.5621010445398935e-05 1.5873911681243621e-10 -4.9657217105295597e-05 1.5626007469761117e-05 -1.7947186422098415e-12 -4.6875390101611856e-05 1.5568674751791646e-05 1.5203786409171008e-11 -7.0355303123466323e-05 9.7378469232355305e-06 1.2125568621607631e-10 -6.4239040619800796e-05 1.5621010445398935e-05 1.5873911681243629e-10 -4.9657217105295597e-05 7.7408888467154043e-06 2.1400440472576621e-11 -4.2280181507588617e-05 7.0369964762738492e-06 1.8630182230162109e-10 -4.5175849460323019e-05 9.7378469232355305e-06 1.2125568621607631e-10 -6.423904061980081e-05 1.5621010445398935e-05 1.5873911681243629e-10 -4.9657217105295597e-05 7.7408888467154043e-06 2.1400440472576621e-11 -4.2280181507588617e-05 1.5626007469761117e-05 -1.7947186422098302e-12 -4.6875390101611856e-05 9.7378469232355305e-06 1.2125568621607631e-10 -6.4239040619800796e-05 6.8267443633000609e-06 -1.2297797992385701e-12 -7.2782490500450175e-05 1.5626007469761117e-05 -1.7947186422098415e-12 -4.6875390101611856e-05 1.5568674751791646e-05 1.5203786409171056e-11 -7.0355303123466323e-05 9.7378469232355305e-06 1.2125568621607631e-10 -6.4239040619800796e-05 6.82674436330006e-06 -1.2297797992385767e-12 -7.2782490500450175e-05 1.5568674751791642e-05 1.5203786409171014e-11 -7.0355303123466323e-05 9.7378469232355305e-06 1.2125568621607631e-10 -6.4239040619800796e-05 1.5621010445398935e-05 1.5873911681243629e-10 -4.9657217105295597e-05 1.5598393584324619e-05 1.72431766721881e-10 -7.3026802666175959e-05 9.7378469232355305e-06 1.2125568621607631e-10 -6.4239040619800796e-05 1.5621010445398935e-05 1.5873911681243629e-10 -4.9657217105295597e-05 1.0140724704036169e-05 3.6841697363233908e-10 -5.6269032973875e-05 1.4319803206948179e-05 2.6679195544691502e-10 -6.4659148310786577e-05 9.7378469232355305e-06 1.2125568621607631e-10 -6.4239040619800796e-05 1.0140724704036169e-05 3.6841697363233908e-10 -5.6269032973875e-05 1.4319803206948175e-05 2.6679195544691513e-10 -6.4659148310786563e-05 9.7148165869364605e-06 3.2600881422020804e-10 -7.6377791868018102e-05 9.7378469232355305e-06 1.2125568621607631e-10 -6.4239040619800796e-05 1.5621010445398935e-05 1.5873911681243629e-10 -4.965721710529559e-05 1.4319803206948175e-05 2.6679195544691513e-10 -6.4659148310786563e-05 1.5598393584324619e-05 1.72431766721881e-10 -7.3026802666175959e-05 9.7378469232355305e-06 1.2125568621607631e-10 -6.4239040619800796e-05 1.0140724704036171e-05 3.6841697363233908e-10 -5.6269032973875e-05 9.7148165869364605e-06 3.2600881422020804e-10 -7.6377791868018102e-05 5.7673090040686748e-06 1.6141367171125202e-10 -7.6512013958453766e-05 7.0369964762738492e-06 1.8630182230162109e-10 -4.5175849460323019e-05 9.7378469232355305e-06 1.2125568621607631e-10 -6.4239040619800796e-05 1.5621010445398935e-05 1.5873911681243629e-10 -4.9657217105295597e-05 1.0140724704036169e-05 3.6841697363233908e-10 -5.6269032973875e-05 9.7378469232355305e-06 1.2125568621607631e-10 -6.4239040619800796e-05 1.4319803206948175e-05 2.6679195544691513e-10 -6.4659148310786563e-05 1.5598393584324619e-05 1.7243176672188098e-10 -7.3026802666175959e-05 9.7148165869364605e-06 3.2600881422020804e-10 -7.6377791868018102e-05 7.0369964762738492e-06 1.8630182230162109e-10 -4.5175849460323019e-05 1.0290216328827696e-05 3.5333005823908097e-10 -3.7140530282860124e-05 1.5621010445398932e-05 1.5873911681243627e-10 -4.9657217105295597e-05 1.0140724704036167e-05 3.6841697363233908e-10 -5.6269032973875007e-05 7.0369964762738492e-06 1.8630182230162109e-10 -4.5175849460323019e-05 9.7378469232355305e-06 1.2125568621607628e-10 -6.4239040619800796e-05 1.0140724704036169e-05 3.6841697363233908e-10 -5.6269032973875e-05 4.9691220823498863e-06 3.0221421336618578e-10 -6.5106988417718017e-05 1.0290216328827696e-05 3.5333005823908092e-10 -3.7140530282860131e-05 1.623900966372302e-05 3.1638110635101094e-10 -4.6875438724226105e-05 1.5621010445398935e-05 1.5873911681243629e-10 -4.9657217105295597e-05 1.0140724704036169e-05 3.6841697363233908e-10 -5.6269032973875e-05 1.623900966372302e-05 3.1638110635101094e-10 -4.6875438724226105e-05 1.5621010445398935e-05 1.5873911681243627e-10 -4.9657217105295604e-05 1.0140724704036167e-05 3.6841697363233913e-10 -5.6269032973875e-05 1.4319803206948175e-05 2.6679195544691513e-10 -6.4659148310786563e-05 1.5929335036972144e-05 3.0165665805905298e-10 -7.8313893144832093e-05 1.4319803206948175e-05 2.6679195544691513e-10 -6.4659148310786563e-05 1.5598393584324615e-05 1.72431766721881e-10 -7.3026802666175945e-05 9.7148165869364605e-06 3.2600881422020804e-10 -7.6377791868018102e-05 1.5598393584324619e-05 1.72431766721881e-10 -7.3026802666175959e-05 9.7093398312925988e-06 2.1183385172022935e-10 -9.3749343092006086e-05 9.7148165869364605e-06 3.2600881422020804e-10 -7.6377791868018102e-05 5.7673090040686748e-06 1.6141367171125202e-10 -7.6512013958453766e-05 9.7378469232355305e-06 1.2125568621607631e-10 -6.4239040619800796e-05 1.5598393584324615e-05 1.7243176672188098e-10 -7.3026802666175972e-05 9.7148165869364622e-06 3.2600881422020809e-10 -7.6377791868018088e-05 5.7673090040686748e-06 1.6141367171125202e-10 -7.6512013958453766e-05 1.5877405932995091e-05 2.3619654820553925e-10 -9.3749560357650011e-05 1.5929335036972144e-05 3.0165665805905298e-10 -7.8313893144832093e-05 1.5598393584324619e-05 1.72431766721881e-10 -7.3026802666175959e-05 9.7148165869364605e-06 3.2600881422020804e-10 -7.6377791868018102e-05 9.7378469232355305e-06 1.2125568621607631e-10 -6.4239040619800796e-05 1.5598393584324619e-05 1.72431766721881e-10 -7.3026802666175959e-05 9.7093398312925988e-06 2.1183385172022935e-10 -9.3749343092006086e-05 5.7673090040686748e-06 1.6141367171125202e-10 -7.6512013958453766e-05 1.5877405932995091e-05 2.3619654820553925e-10 -9.3749560357650011e-05 1.5929335036972144e-05 3.0165665805905298e-10 -7.8313893144832093e-05 1.250111544914348e-05 4.0426889917752419e-10 -9.3749477442914102e-05 9.7148165869364605e-06 3.2600881422020804e-10 -7.6377791868018102e-05 1.5877405932995091e-05 2.3619654820553925e-10 -9.3749560357650011e-05 1.250111544914348e-05 4.0426889917752419e-10 -9.3749477442914102e-05 9.7093398312925988e-06 2.1183385172022935e-10 -9.3749343092006086e-05 9.7148165869364605e-06 3.2600881422020804e-10 -7.6377791868018102e-05 1.5877405932995091e-05 2.3619654820553925e-10 -9.3749560357650011e-05 1.5598393584324619e-05 1.72431766721881e-10 -7.3026802666175959e-05 9.7093398312925988e-06 2.1183385172022935e-10 -9.3749343092006086e-05 9.7148165869364605e-06 3.2600881422020804e-10 -7.6377791868018102e-05 1.5877405932995091e-05 2.3619654820553925e-10 -9.3749560357650011e-05 1.4317593917184347e-05 1.2090610582147732e-10 -9.3749489669856081e-05 1.5598393584324619e-05 1.72431766721881e-10 -7.3026802666175959e-05 9.7093398312925988e-06 2.1183385172022935e-10 -9.3749343092006086e-05 1.250111544914348e-05 4.0426889917752419e-10 -9.3749477442914102e-05 9.7093398312925988e-06 2.1183385172022933e-10 -9.3749343092006086e-05 9.7148165869364588e-06 3.2600881422020798e-10 -7.6377791868018088e-05 6.2505657274741756e-06 3.2985782835621339e-10 -9.3749293461732047e-05 9.7148165869364605e-06 3.2600881422020804e-10 -7.6377791868018102e-05 4.5756748383742027e-06 2.4310077989353092e-10 -8.0023571231327664e-05 5.7673090040686748e-06 1.6141367171125202e-10 -7.6512013958453766e-05 4.9691220823498871e-06 3.0221421336618578e-10 -6.5106988417718017e-05 9.7093398312925988e-06 2.1183385172022935e-10 -9.3749343092006086e-05 9.7148165869364605e-06 3.2600881422020804e-10 -7.6377791868018088e-05 4.5756748383742027e-06 2.4310077989353092e-10 -8.0023571231327664e-05 5.7673090040686748e-06 1.6141367171125202e-10 -7.6512013958453766e-05 9.7093398312925988e-06 2.1183385172022935e-10 -9.3749343092006086e-05 9.7148165869364605e-06 3.2600881422020804e-10 -7.6377791868018102e-05 4.5756748383742027e-06 2.4310077989353092e-10 -8.0023571231327664e-05 6.2505657274741756e-06 3.2985782835621339e-10 -9.3749293461732047e-05 9.7093398312925988e-06 2.1183385172022935e-10 -9.3749343092006086e-05 4.5756748383742027e-06 2.4310077989353092e-10 -8.0023571231327664e-05 6.2505657274741756e-06 3.2985782835621339e-10 -9.3749293461732047e-05 4.5757307172204484e-06 2.1094900756709211e-10 -9.3749229017174473e-05 9.7093398312925988e-06 2.1183385172022935e-10 -9.3749343092006086e-05 4.5757307172204484e-06 2.1094900756709211e-10 -9.3749229017174473e-05 5.7673090040686748e-06 1.6141367171125202e-10 -7.6512013958453766e-05 4.9682066966362275e-06 1.193777605103661e-10 -9.3749246679166419e-05 9.7093398312925988e-06 2.1183385172022935e-10 -9.3749343092006086e-05 4.5756748383742027e-06 2.4310077989353092e-10 -8.0023571231327664e-05 4.5757307172204484e-06 2.1094900756709211e-10 -9.3749229017174473e-05 5.7673090040686748e-06 1.6141367171125202e-10 -7.6512013958453766e-05 5.7673090040686748e-06 1.6141367171125202e-10 -7.6512013958453766e-05 -3.1004504380826247e-15 2.0056293773796467e-10 -8.0023542051591644e-05 5.1953342779601106e-15 1.9049510264970135e-10 -6.6133257534988356e-05 2.5660548160856989e-15 1.1412822185612321e-10 -7.9849844664154688e-05 5.7673090040686748e-06 1.6141367171125202e-10 -7.6512013958453766e-05 -3.1004505908895539e-15 2.0056293773796465e-10 -8.0023542051591644e-05 4.9691220823498871e-06 3.0221421336618578e-10 -6.5106988417718004e-05 5.1953345182162434e-15 1.9049510264970135e-10 -6.6133257534988356e-05 4.5757307172204484e-06 2.1094900756709211e-10 -9.3749229017174473e-05 5.7673090040686739e-06 1.6141367171125205e-10 -7.6512013958453752e-05 1.6319979636930729e-14 1.7781058389191632e-10 -9.3749200737941921e-05 4.9682066966362275e-06 1.193777605103661e-10 -9.3749246679166419e-05 4.5756748383742027e-06 2.4310077989353092e-10 -8.0023571231327664e-05 4.5757307172204484e-06 2.1094900756709211e-10 -9.3749229017174487e-05 5.7673090040686748e-06 1.6141367171125199e-10 -7.6512013958453766e-05 -3.1004504380826247e-15 2.0056293773796467e-10 -8.0023542051591644e-05 5.7673090040686748e-06 1.6141367171125202e-10 -7.6512013958453766e-05 -3.1004504380826247e-15 2.0056293773796467e-10 -8.0023542051591644e-05 1.6319979636930729e-14 1.7781058389191632e-10 -9.3749200737941921e-05 2.5660548160857001e-15 1.1412822185612321e-10 -7.9849844664154688e-05 4.5757307172204484e-06 2.1094900756709211e-10 -9.3749229017174473e-05 5.7673090040686756e-06 1.6141367171125199e-10 -7.6512013958453766e-05 -3.1004504380826247e-15 2.0056293773796467e-10 -8.0023542051591644e-05 1.6319979636930729e-14 1.7781058389191632e-10 -9.3749200737941921e-05 4.5757307172204484e-06 2.1094900756709211e-10 -9.3749229017174473e-05 -3.1004504380826247e-15 2.0056293773796467e-10 -8.0023542051591644e-05 1.6319979636930729e-14 1.7781058389191632e-10 -9.3749200737941921e-05 1.3861218809153022e-14 3.3273440935653387e-10 -9.3749215764651778e-05 4.5756748383742027e-06 2.4310077989353092e-10 -8.0023571231327664e-05 4.5757307172204484e-06 2.1094900756709208e-10 -9.3749229017174487e-05 -3.1004504380826247e-15 2.0056293773796467e-10 -8.0023542051591644e-05 1.3861218809153022e-14 3.3273440935653387e-10 -9.3749215764651778e-05 4.5756748383742027e-06 2.4310077989353092e-10 -8.0023571231327664e-05 6.2505657274741756e-06 3.2985782835621339e-10 -9.3749293461732047e-05 4.5757307172204484e-06 2.1094900756709211e-10 -9.3749229017174473e-05 1.3861218809153022e-14 3.3273440935653387e-10 -9.3749215764651778e-05 4.5756748383742027e-06 2.4310077989353092e-10 -8.0023571231327664e-05 -3.1004504380826247e-15 2.0056293773796467e-10 -8.0023542051591644e-05 1.3861218809153022e-14 3.3273440935653387e-10 -9.3749215764651778e-05 1.2717989206679933e-15 2.9325572779146202e-10 -7.4999608174147671e-05 4.5756748383742027e-06 2.4310077989353092e-10 -8.0023571231327664e-05 5.7673090040686748e-06 1.6141367171125202e-10 -7.6512013958453766e-05 -3.1004504380826247e-15 2.0056293773796467e-10 -8.0023542051591644e-05 4.9691220823498871e-06 3.0221421336618578e-10 -6.5106988417718017e-05 -3.1004504380826247e-15 2.0056293773796467e-10 -8.0023542051591644e-05 1.2717989206679933e-15 2.9325572779146202e-10 -7.4999608174147671e-05 4.9691220823498871e-06 3.0221421336618578e-10 -6.5106988417718017e-05 5.1953345182162434e-15 1.9049510264970135e-10 -6.6133257534988356e-05 4.5756748383742027e-06 2.4310077989353092e-10 -8.0023571231327664e-05 -3.100450407781892e-15 2.0056293773796467e-10 -8.0023542051591644e-05 1.2717989206679933e-15 2.9325572779146202e-10 -7.4999608174147671e-05 4.9691220823498871e-06 3.0221421336618578e-10 -6.5106988417718017e-05 1.2717989206679933e-15 2.9325572779146202e-10 -7.4999608174147671e-05 4.9691220823498871e-06 3.0221421336618578e-10 -6.5106988417718017e-05 4.7818808274405402e-15 3.6113703528971766e-10 -5.6250025289348684e-05 5.1953345182162434e-15 1.9049510264970135e-10 -6.6133257534988356e-05 7.0369964762738492e-06 1.8630182230162109e-10 -4.5175849460323019e-05 9.7378469232355305e-06 1.2125568621607631e-10 -6.4239040619800796e-05 5.7673090040686748e-06 1.6141367171125202e-10 -7.6512013958453766e-05 5.1953345182162434e-15 1.9049510264970135e-10 -6.6133257534988356e-05 4.9691220823498871e-06 3.0221421336618578e-10 -6.5106988417718017e-05 4.7818808274405402e-15 3.6113703528971766e-10 -5.6250025289348684e-05 -7.832179190156504e-15 2.3945230698647178e-10 -4.7628340732010551e-05 5.1953350698996118e-15 1.9049510264970127e-10 -6.6133257534988342e-05 9.7378469232355305e-06 1.2125568621607631e-10 -6.4239040619800796e-05 1.0140724704036169e-05 3.6841697363233908e-10 -5.6269032973875e-05 5.7673090040686731e-06 1.6141367171125194e-10 -7.6512013958453766e-05 4.9691220823498914e-06 3.0221421336618588e-10 -6.5106988417718031e-05 7.0369964762738492e-06 1.8630182230162109e-10 -4.5175849460323019e-05 9.7378469232355305e-06 1.2125568621607631e-10 -6.4239040619800796e-05 5.7673090040686748e-06 1.6141367171125202e-10 -7.6512013958453766e-05 4.9691220823498846e-06 3.0221421336618578e-10 -6.5106988417718004e-05 7.0369964762738492e-06 1.8630182230162109e-10 -4.5175849460323019e-05 5.7673090040686748e-06 1.6141367171125202e-10 -7.6512013958453766e-05 4.9691220823498871e-06 3.0221421336618578e-10 -6.5106988417718017e-05 5.1953345182162434e-15 1.9049510264970135e-10 -6.6133257534988356e-05 1.0140724704036169e-05 3.6841697363233908e-10 -5.6269032973875e-05 9.7148165869364605e-06 3.2600881422020804e-10 -7.6377791868018102e-05 5.7673090040686748e-06 1.6141367171125202e-10 -7.6512013958453766e-05 4.9691220823498871e-06 3.0221421336618578e-10 -6.5106988417718017e-05 7.0369964762738492e-06 1.8630182230162109e-10 -4.5175849460323019e-05 5.3835198419056049e-06 3.3029302805570319e-10 -4.6722024248783616e-05 1.0140724704036169e-05 3.6841697363233908e-10 -5.6269032973875e-05 4.9691220823498871e-06 3.0221421336618578e-10 -6.5106988417718017e-05 7.0369964762738492e-06 1.8630182230162109e-10 -4.5175849460323019e-05 5.3835198419056032e-06 3.3029302805570319e-10 -4.6722024248783609e-05 4.9691220823498871e-06 3.0221421336618578e-10 -6.5106988417718017e-05 -7.8321773227928649e-15 2.3945230698647183e-10 -4.7628340732010558e-05 3.6848122760849879e-15 3.8700978124165419e-10 -3.7500454398544511e-05 5.3835198419056024e-06 3.3029302805570314e-10 -4.6722024248783616e-05 4.7818808274405402e-15 3.6113703528971766e-10 -5.6250025289348684e-05 -7.8321784730502574e-15 2.3945230698647183e-10 -4.7628340732010551e-05 5.3835198419056024e-06 3.3029302805570314e-10 -4.6722024248783616e-05 4.9691220823498871e-06 3.0221421336618583e-10 -6.5106988417718017e-05 4.7818808274405402e-15 3.6113703528971766e-10 -5.6250025289348684e-05 -7.8321778828456995e-15 2.3945230698647183e-10 -4.7628340732010558e-05 7.0369964762738492e-06 1.8630182230162109e-10 -4.5175849460323019e-05 4.9691220823498863e-06 3.0221421336618578e-10 -6.5106988417718031e-05 -7.8321784730502574e-15 2.3945230698647183e-10 -4.7628340732010551e-05 5.1953345182162434e-15 1.9049510264970135e-10 -6.6133257534988356e-05 7.0369964762738492e-06 1.8630182230162109e-10 -4.5175849460323019e-05 -7.8321776263487169e-15 2.3945230698647178e-10 -4.7628340732010558e-05 5.1953356820430887e-15 1.9049510264970138e-10 -6.6133257534988356e-05 -4.9909635442987905e-15 1.0636761240637026e-10 -5.6197752480315259e-05 7.0369964762738492e-06 1.8630182230162109e-10 -4.5175849460323019e-05 9.7378469232355305e-06 1.2125568621607631e-10 -6.4239040619800796e-05 5.195334929387507e-15 1.904951026497014e-10 -6.6133257534988356e-05 -4.990964233240599e-15 1.0636761240637023e-10 -5.6197752480315259e-05 9.7378469232355305e-06 1.2125568621607631e-10 -6.4239040619800796e-05 5.7673090040686756e-06 1.6141367171125205e-10 -7.6512013958453766e-05 5.1953345182162434e-15 1.9049510264970135e-10 -6.6133257534988356e-05 -4.9909635442987826e-15 1.0636761240637031e-10 -5.6197752480315259e-05 5.7673090040686748e-06 1.6141367171125202e-10 -7.6512013958453766e-05 5.1953354623490808e-15 1.9049510264970138e-10 -6.6133257534988342e-05 -4.9909633608673324e-15 1.0636761240637027e-10 -5.6197752480315245e-05 4.4270105485743217e-15 6.4287514199975687e-11 -6.817717851525429e-05 7.7408888467154043e-06 2.1400440472576621e-11 -4.2280181507588617e-05 9.7378469232355305e-06 1.2125568621607631e-10 -6.4239040619800796e-05 -4.9909626972560945e-15 1.0636761240637033e-10 -5.6197752480315259e-05 6.8267443633000617e-06 -1.2297797992385957e-12 -7.2782490500450175e-05 9.7378469232355305e-06 1.2125568621607631e-10 -6.4239040619800796e-05 5.7673090040686748e-06 1.6141367171125199e-10 -7.6512013958453766e-05 -4.9909640300175413e-15 1.0636761240637029e-10 -5.6197752480315252e-05 4.4270118291741602e-15 6.4287514199975713e-11 -6.8177178515254263e-05 -4.9909635442987826e-15 1.0636761240637031e-10 -5.6197752480315259e-05 -6.7683431155888721e-15 4.0493705746180211e-12 -4.8714121995995549e-05 6.8267443633000626e-06 -1.2297797992385943e-12 -7.2782490500450175e-05 4.2739469135680783e-15 -1.9795809915407635e-11 -6.3112861985983041e-05 9.7378469232355305e-06 1.2125568621607631e-10 -6.4239040619800796e-05 -4.9909644461913063e-15 1.0636761240637036e-10 -5.6197752480315272e-05 4.4270115813146807e-15 6.4287514199975751e-11 -6.817717851525425e-05 6.82674436330006e-06 -1.2297797992386078e-12 -7.2782490500450175e-05 7.7408888467154043e-06 2.1400440472576621e-11 -4.2280181507588617e-05 7.0369964762738492e-06 1.8630182230162109e-10 -4.5175849460323019e-05 9.7378469232355305e-06 1.2125568621607631e-10 -6.4239040619800796e-05 -4.9909635442987826e-15 1.0636761240637031e-10 -5.6197752480315259e-05 7.7408888467154043e-06 2.1400440472576621e-11 -4.2280181507588617e-05 -4.990961425053431e-15 1.0636761240637037e-10 -5.6197752480315259e-05 -6.7683431155888721e-15 4.0493705746180211e-12 -4.8714121995995549e-05 6.82674436330006e-06 -1.229779799238601e-12 -7.2782490500450175e-05 1.4263208885181624e-15 1.206157157391123e-10 -4.281083552826696e-05 7.0369964762738492e-06 1.8630182230162109e-10 -4.5175849460323019e-05 -7.8321784730502574e-15 2.3945230698647183e-10 -4.7628340732010551e-05 -4.9909635442987826e-15 1.0636761240637031e-10 -5.6197752480315259e-05 7.7408888467154043e-06 2.1400440472576621e-11 -4.2280181507588617e-05 1.4263196678213477e-15 1.2061571573911228e-10 -4.2810835528266954e-05 -4.9909611946705464e-15 1.0636761240637028e-10 -5.6197752480315272e-05 -6.7683431155888721e-15 4.0493705746180211e-12 -4.8714121995995549e-05 -4.9909635442987826e-15 1.0636761240637031e-10 -5.6197752480315259e-05 4.4270112968593293e-15 6.4287514199975713e-11 -6.8177178515254263e-05 6.8267443633000643e-06 -1.2297797992385767e-12 -7.2782490500450175e-05 4.2739469135680783e-15 -1.9795809915407635e-11 -6.3112861985983041e-05 -2.4265665952676835e-16 2.5377544286116546e-12 -7.8929451281617316e-05 2.5660548160857001e-15 1.1412822185612321e-10 -7.9849844664154688e-05 6.8267443633000617e-06 -1.2297797992385507e-12 -7.2782490500450161e-05 4.9682066966362283e-06 1.193777605103661e-10 -9.3749246679166405e-05 9.7378469232355305e-06 1.2125568621607631e-10 -6.4239040619800796e-05 5.7673090040686756e-06 1.6141367171125202e-10 -7.6512013958453766e-05 4.4270116105887094e-15 6.4287514199975726e-11 -6.8177178515254263e-05 6.8267443633000617e-06 -1.2297797992385975e-12 -7.2782490500450175e-05 5.7673090040686748e-06 1.6141367171125202e-10 -7.6512013958453766e-05 2.5660548160857001e-15 1.1412822185612321e-10 -7.9849844664154688e-05 6.8267443633000609e-06 -1.2297797992385794e-12 -7.2782490500450175e-05 4.9682066966362275e-06 1.1937776051036607e-10 -9.3749246679166405e-05 4.4270118291741602e-15 6.4287514199975713e-11 -6.8177178515254263e-05 -2.4265665952676835e-16 2.5377544286116546e-12 -7.8929451281617316e-05 6.8267443633000609e-06 -1.2297797992385662e-12 -7.2782490500450175e-05 4.2739469135680783e-15 -1.9795809915407635e-11 -6.3112861985983041e-05 4.4270118291741602e-15 6.4287514199975713e-11 -6.8177178515254263e-05 -2.4265661689095486e-16 2.5377544286116566e-12 -7.8929451281617316e-05 2.5660548160857001e-15 1.1412822185612321e-10 -7.9849844664154688e-05 6.8267443633000609e-06 -1.2297797992385701e-12 -7.2782490500450175e-05 1.0140464031632437e-05 6.724057419934426e-11 -9.3749349845232197e-05 5.7673090040686748e-06 1.6141367171125202e-10 -7.6512013958453766e-05 6.8267443633000609e-06 -1.2297797992385701e-12 -7.2782490500450175e-05 4.9682066966362275e-06 1.193777605103661e-10 -9.3749246679166419e-05 5.7673090040686748e-06 1.6141367171125202e-10 -7.6512013958453766e-05 4.4270122493362324e-15 6.4287514199975739e-11 -6.8177178515254236e-05 2.566055244912101e-15 1.1412822185612318e-10 -7.9849844664154688e-05 6.8267443633000609e-06 -1.2297797992385701e-12 -7.2782490500450175e-05 5.7673090040686748e-06 1.6141367171125202e-10 -7.6512013958453766e-05 5.1953358649806166e-15 1.9049510264970135e-10 -6.6133257534988342e-05 4.427013964040971e-15 6.4287514199975674e-11 -6.817717851525425e-05 2.5660548160856993e-15 1.1412822185612322e-10 -7.9849844664154701e-05 1.0140464031632437e-05 6.724057419934426e-11 -9.3749349845232197e-05 6.8267443633000609e-06 -1.2297797992385701e-12 -7.2782490500450175e-05 4.9682066966362275e-06 1.193777605103661e-10 -9.3749246679166419e-05 5.3836555266487481e-06 8.7773847300749947e-14 -9.3749247366912584e-05 -2.4265665952676835e-16 2.5377544286116546e-12 -7.8929451281617316e-05 6.8267443633000617e-06 -1.2297797992385495e-12 -7.2782490500450161e-05 4.9682066966362283e-06 1.193777605103661e-10 -9.3749246679166419e-05 5.3836555266487481e-06 8.7773847300772111e-14 -9.3749247366912584e-05 1.0140464031632437e-05 6.724057419934426e-11 -9.3749349845232197e-05 9.7093398312925988e-06 2.1183385172022935e-10 -9.3749343092006086e-05 5.7673090040686748e-06 1.6141367171125202e-10 -7.6512013958453766e-05 4.9682066966362275e-06 1.193777605103661e-10 -9.3749246679166419e-05 5.7673090040686748e-06 1.6141367171125202e-10 -7.6512013958453766e-05 1.6319981036995845e-14 1.7781058389191627e-10 -9.3749200737941934e-05 2.5660548160857001e-15 1.1412822185612321e-10 -7.9849844664154688e-05 4.9682066966362258e-06 1.1937776051036615e-10 -9.3749246679166419e-05 -2.4265665952676835e-16 2.5377544286116546e-12 -7.8929451281617316e-05 2.5660548160857001e-15 1.1412822185612321e-10 -7.9849844664154688e-05 4.9682066966362275e-06 1.193777605103661e-10 -9.3749246679166419e-05 1.3249345561596162e-14 5.8999020928806051e-11 -9.3749226462942718e-05 1.6319979636930729e-14 1.7781058389191632e-10 -9.3749200737941921e-05 2.5660548160857001e-15 1.1412822185612321e-10 -7.9849844664154688e-05 4.9682066966362275e-06 1.193777605103661e-10 -9.3749246679166419e-05 1.3249345561596162e-14 5.8999020928806051e-11 -9.3749226462942718e-05 -2.4265665952676835e-16 2.5377544286116546e-12 -7.8929451281617316e-05 4.9682066966362275e-06 1.193777605103661e-10 -9.3749246679166419e-05 1.3249345561596162e-14 5.8999020928806051e-11 -9.3749226462942718e-05 5.3836555266487481e-06 8.7773847300769738e-14 -9.3749247366912571e-05 -2.4265665952676835e-16 2.5377544286116546e-12 -7.8929451281617316e-05 1.3249345561596162e-14 5.8999020928806051e-11 -9.3749226462942718e-05 1.6382477078988997e-14 -6.2106574790815199e-11 -9.3749225345079795e-05 5.3836555266487481e-06 8.7773847300749947e-14 -9.3749247366912584e-05 -2.4265665952676835e-16 2.5377544286116546e-12 -7.8929451281617316e-05 1.6382477393714449e-14 -6.2106574790815199e-11 -9.3749225345079781e-05 2.7275378592166139e-15 -1.1169892337147413e-10 -7.5786966207063829e-05 5.3836555266487472e-06 8.7773847300748016e-14 -9.3749247366912584e-05 1.6382477393714449e-14 -6.2106574790815199e-11 -9.3749225345079781e-05 2.7275378592166139e-15 -1.1169892337147413e-10 -7.5786966207063829e-05 5.2910265669851822e-06 -1.1625248526224762e-10 -9.3749242408877476e-05 5.3836555266487481e-06 8.7773847300749947e-14 -9.3749247366912584e-05 2.7275378592166139e-15 -1.1169892337147413e-10 -7.5786966207063829e-05 5.2910265669851822e-06 -1.1625248526224762e-10 -9.3749242408877476e-05 9.8215603600140289e-06 -1.2134451336640074e-10 -6.4463503941759344e-05 -6.322558935769814e-16 -2.0940820673320707e-10 -8.0023534168369005e-05 6.8267443633000609e-06 -1.2297797992385701e-12 -7.2782490500450175e-05 2.7275351892641314e-15 -1.1169892337147415e-10 -7.5786966207063816e-05 5.2910265669851822e-06 -1.162524852622476e-10 -9.3749242408877476e-05 9.8215603600140289e-06 -1.2134451336640077e-10 -6.4463503941759358e-05 -2.4265665952676835e-16 2.5377544286116546e-12 -7.8929451281617316e-05 6.8267443633000626e-06 -1.2297797992385693e-12 -7.2782490500450175e-05 2.7275378592166139e-15 -1.1169892337147413e-10 -7.5786966207063829e-05 4.2739469135680783e-15 -1.9795809915407635e-11 -6.3112861985983041e-05 -2.4265665952676835e-16 2.5377544286116546e-12 -7.8929451281617316e-05 6.8267443633000617e-06 -1.2297797992385666e-12 -7.2782490500450161e-05 2.7275378592166139e-15 -1.1169892337147413e-10 -7.5786966207063829e-05 5.3836555266487481e-06 8.7773847300752573e-14 -9.3749247366912571e-05 1.6382477393714449e-14 -6.2106574790815199e-11 -9.3749225345079781e-05 2.7275375413758056e-15 -1.1169892337147414e-10 -7.5786966207063829e-05 5.2910265669851822e-06 -1.1625248526224762e-10 -9.3749242408877476e-05 1.6234996659344517e-14 -1.7764367798682938e-10 -9.3749215566378712e-05 6.8267443633000609e-06 -1.2297797992385701e-12 -7.2782490500450175e-05 5.2910265669851822e-06 -1.1625248526224762e-10 -9.3749242408877476e-05 5.3836555266487481e-06 8.7773847300749947e-14 -9.3749247366912584e-05 1.0290065039530529e-05 -7.0763167134032168e-11 -9.3749357077241026e-05 6.8267443633000609e-06 -1.2297797992385701e-12 -7.2782490500450175e-05 2.7275350897054628e-15 -1.1169892337147411e-10 -7.5786966207063802e-05 5.2910265669851822e-06 -1.1625248526224762e-10 -9.3749242408877476e-05 5.3836555266487481e-06 8.7773847300749947e-14 -9.3749247366912584e-05 5.2910265669851822e-06 -1.1625248526224762e-10 -9.3749242408877476e-05 1.029006503953053e-05 -7.0763167134032168e-11 -9.3749357077241026e-05 9.8215603600140289e-06 -1.2134451336640077e-10 -6.4463503941759358e-05 9.8792483006919375e-06 -2.0542220547465865e-10 -9.3749338045826804e-05 1.0140464031632437e-05 6.724057419934426e-11 -9.3749349845232197e-05 6.8267443633000609e-06 -1.2297797992385701e-12 -7.2782490500450175e-05 5.3836555266487481e-06 8.7773847300758114e-14 -9.3749247366912584e-05 1.029006503953053e-05 -7.0763167134032168e-11 -9.3749357077241026e-05 1.5652599435545548e-05 -1.9420292206519908e-10 -7.3204429471438229e-05 1.5568674751791642e-05 1.5203786409171008e-11 -7.0355303123466337e-05 1.4317602991286048e-05 -1.2802008014991416e-10 -9.3749494713764257e-05 9.8215603600140289e-06 -1.2134451336640077e-10 -6.4463503941759358e-05 1.5568674751791642e-05 1.5203786409171014e-11 -7.0355303123466323e-05 6.8267443633000609e-06 -1.2297797992385701e-12 -7.2782490500450175e-05 1.029006503953053e-05 -7.0763167134032181e-11 -9.3749357077241039e-05 9.8215603600140289e-06 -1.2134451336640072e-10 -6.4463503941759358e-05 1.029006503953053e-05 -7.0763167134032168e-11 -9.3749357077241026e-05 1.4317602991286048e-05 -1.2802008014991416e-10 -9.3749494713764257e-05 9.8215603600140272e-06 -1.2134451336640077e-10 -6.4463503941759344e-05 9.8792483006919375e-06 -2.0542220547465865e-10 -9.3749338045826804e-05 1.5652599435545548e-05 -1.9420292206519908e-10 -7.3204429471438229e-05 1.4317602991286048e-05 -1.2802008014991416e-10 -9.3749494713764257e-05 9.8215603600140272e-06 -1.2134451336640074e-10 -6.4463503941759344e-05 9.8792483006919392e-06 -2.0542220547465859e-10 -9.3749338045826804e-05 1.5568674751791642e-05 1.5203786409171014e-11 -7.0355303123466323e-05 1.0290065039530527e-05 -7.0763167134032129e-11 -9.3749357077241026e-05 1.4317602991286048e-05 -1.2802008014991416e-10 -9.3749494713764257e-05 9.8215603600140289e-06 -1.2134451336640077e-10 -6.4463503941759358e-05 6.8267443633000609e-06 -1.2297797992385701e-12 -7.2782490500450175e-05 5.2910265669851822e-06 -1.1625248526224762e-10 -9.3749242408877476e-05 1.0290065039530529e-05 -7.0763167134032181e-11 -9.3749357077241012e-05 9.8215603600140289e-06 -1.2134451336640077e-10 -6.4463503941759358e-05 1.6239391573383386e-05 -2.520939701973677e-12 -9.3749591552643119e-05 1.5568674751791642e-05 1.5203786409171017e-11 -7.0355303123466323e-05 1.029006503953053e-05 -7.0763167134032168e-11 -9.3749357077241026e-05 1.4317602991286048e-05 -1.2802008014991416e-10 -9.3749494713764257e-05 1.5626007469761117e-05 -1.7947186422098415e-12 -4.6875390101611856e-05 1.5568674751791646e-05 1.5203786409170962e-11 -7.035530312346635e-05 6.82674436330006e-06 -1.2297797992385707e-12 -7.2782490500450175e-05 9.8215603600140289e-06 -1.2134451336640077e-10 -6.4463503941759358e-05 7.7408888467154043e-06 2.1400440472576621e-11 -4.2280181507588617e-05 1.5649015781864109e-05 -1.6228295620466913e-10 -4.958155958715252e-05 9.8215603600140255e-06 -1.2134451336640077e-10 -6.4463503941759358e-05 6.9031885739609777e-06 -1.6079586038121432e-10 -4.6879764981981213e-05 1.5649015781864112e-05 -1.6228295620466913e-10 -4.9581559587152527e-05 1.5652599435545552e-05 -1.9420292206519913e-10 -7.3204429471438243e-05 1.5568674751791642e-05 1.5203786409171008e-11 -7.0355303123466337e-05 9.8215603600140289e-06 -1.2134451336640077e-10 -6.4463503941759358e-05 7.7408888467154043e-06 2.1400440472576621e-11 -4.2280181507588617e-05 1.5626007469761113e-05 -1.7947186422098837e-12 -4.6875390101611842e-05 1.5649015781864116e-05 -1.622829562046691e-10 -4.958155958715252e-05 9.8215603600140289e-06 -1.2134451336640074e-10 -6.4463503941759358e-05 1.5626007469761117e-05 -1.7947186422098415e-12 -4.6875390101611856e-05 1.5649015781864112e-05 -1.6228295620466913e-10 -4.9581559587152527e-05 1.5568674751791642e-05 1.5203786409171021e-11 -7.0355303123466323e-05 9.8215603600140289e-06 -1.2134451336640077e-10 -6.4463503941759358e-05 7.7408888467154043e-06 2.1400440472576621e-11 -4.2280181507588617e-05 1.5626007469761113e-05 -1.794718642209816e-12 -4.6875390101611856e-05 6.8267443633000609e-06 -1.2297797992385228e-12 -7.2782490500450161e-05 9.8215603600140272e-06 -1.2134451336640085e-10 -6.4463503941759344e-05 7.7408888467154043e-06 2.1400440472576621e-11 -4.2280181507588617e-05 -6.7683431155888721e-15 4.0493705746180211e-12 -4.8714121995995549e-05 6.82674436330006e-06 -1.2297797992385252e-12 -7.2782490500450161e-05 9.8215603600140272e-06 -1.2134451336640077e-10 -6.4463503941759344e-05 -2.631329392488572e-15 -1.0868251793805958e-10 -4.294938153000757e-05 7.7408888467154026e-06 2.1400440472576631e-11 -4.2280181507588617e-05 2.3249060276937372e-15 -1.1504233884177438e-10 -5.7231567795990815e-05 6.9031885739609752e-06 -1.6079586038121432e-10 -4.6879764981981213e-05 7.7408888467154043e-06 2.1400440472576621e-11 -4.2280181507588617e-05 -6.7683441994245385e-15 4.0493705746179234e-12 -4.8714121995995535e-05 9.8215603600140289e-06 -1.2134451336640082e-10 -6.4463503941759344e-05 2.324904683426377e-15 -1.1504233884177429e-10 -5.7231567795990829e-05 -6.7683431155888721e-15 4.0493705746180211e-12 -4.8714121995995549e-05 6.8267443633000609e-06 -1.2297797992385701e-12 -7.2782490500450175e-05 9.8215603600140289e-06 -1.2134451336640077e-10 -6.4463503941759358e-05 2.3249059434950578e-15 -1.1504233884177438e-10 -5.7231567795990815e-05 7.7408888467154043e-06 2.1400440472576621e-11 -4.2280181507588617e-05 9.8215603600140272e-06 -1.2134451336640074e-10 -6.4463503941759371e-05 2.3249050324257795e-15 -1.1504233884177436e-10 -5.7231567795990822e-05 6.9031885739609769e-06 -1.6079586038121432e-10 -4.6879764981981213e-05 -6.7683431155888721e-15 4.0493705746180211e-12 -4.8714121995995549e-05 6.8267443633000609e-06 -1.2297797992385701e-12 -7.2782490500450175e-05 4.2739469135680783e-15 -1.9795809915407635e-11 -6.3112861985983041e-05 2.3249059434950578e-15 -1.1504233884177438e-10 -5.7231567795990815e-05 9.8215603600140289e-06 -1.2134451336640077e-10 -6.4463503941759358e-05 2.3249062064141993e-15 -1.1504233884177446e-10 -5.7231567795990815e-05 6.9031885739609752e-06 -1.6079586038121429e-10 -4.6879764981981213e-05 -5.7818765651343996e-15 -2.3521214508422715e-10 -6.5044498314746505e-05 6.8267443633000609e-06 -1.2297797992385701e-12 -7.2782490500450175e-05 2.7275379669514053e-15 -1.1169892337147414e-10 -7.5786966207063829e-05 9.8215603600140289e-06 -1.2134451336640077e-10 -6.4463503941759358e-05 2.3249072835876118e-15 -1.1504233884177438e-10 -5.7231567795990822e-05 2.7275378592166139e-15 -1.1169892337147413e-10 -7.5786966207063829e-05 9.8215603600140289e-06 -1.2134451336640077e-10 -6.4463503941759358e-05 2.324906244029782e-15 -1.1504233884177436e-10 -5.7231567795990822e-05 -5.7818765651343996e-15 -2.3521214508422715e-10 -6.5044498314746505e-05 -2.631329392488572e-15 -1.0868251793805958e-10 -4.294938153000757e-05 7.7408888467154043e-06 2.1400440472576621e-11 -4.2280181507588617e-05 -6.7683431155888721e-15 4.0493705746180211e-12 -4.8714121995995549e-05 2.3249059434950578e-15 -1.1504233884177438e-10 -5.7231567795990815e-05 6.8267443633000609e-06 -1.2297797992385701e-12 -7.2782490500450175e-05 2.7275369311002743e-15 -1.1169892337147413e-10 -7.5786966207063829e-05 4.2739469135680783e-15 -1.9795809915407635e-11 -6.3112861985983041e-05 2.3249051855741817e-15 -1.1504233884177434e-10 -5.7231567795990822e-05 -2.631329392488572e-15 -1.0868251793805958e-10 -4.294938153000757e-05 2.3249059434950578e-15 -1.1504233884177438e-10 -5.7231567795990815e-05 6.9031885739609752e-06 -1.6079586038121432e-10 -4.6879764981981213e-05 -6.9730677009518308e-15 -2.3774173402729518e-10 -4.7781568686663938e-05 9.8215603600140289e-06 -1.2134451336640077e-10 -6.4463503941759358e-05 -5.7818757764959319e-15 -2.352121450842272e-10 -6.5044498314746477e-05 5.8813431672861789e-06 -3.1568683251972239e-10 -6.4091271712235116e-05 4.5756749451371661e-06 -2.4289480369991395e-10 -8.0023578554110073e-05 9.8215603600140289e-06 -1.2134451336640077e-10 -6.4463503941759358e-05 6.9031885739609752e-06 -1.6079586038121429e-10 -4.6879764981981219e-05 -5.7818765651343996e-15 -2.3521214508422715e-10 -6.5044498314746505e-05 5.8813431672861806e-06 -3.1568683251972229e-10 -6.4091271712235129e-05 6.9031885739609752e-06 -1.6079586038121432e-10 -4.6879764981981213e-05 -6.9730672244569861e-15 -2.3774173402729523e-10 -4.7781568686663938e-05 -5.7818765651343996e-15 -2.3521214508422715e-10 -6.5044498314746505e-05 5.8813431672861789e-06 -3.1568683251972229e-10 -6.4091271712235129e-05 2.3249059434950578e-15 -1.1504233884177438e-10 -5.7231567795990815e-05 6.9031885739609786e-06 -1.6079586038121432e-10 -4.6879764981981213e-05 -6.9730677009518308e-15 -2.3774173402729518e-10 -4.7781568686663938e-05 -5.7818765651343996e-15 -2.3521214508422715e-10 -6.5044498314746505e-05 -5.7818765651343996e-15 -2.3521214508422715e-10 -6.5044498314746505e-05 5.8813431672861772e-06 -3.1568683251972229e-10 -6.4091271712235129e-05 1.0013897797206857e-14 -4.0660738170975417e-10 -5.6250025531785973e-05 1.1934234579607695e-14 -3.4466020026475915e-10 -7.499959682671826e-05 -6.9730677009518308e-15 -2.3774173402729518e-10 -4.7781568686663938e-05 -5.7818765651343996e-15 -2.3521214508422715e-10 -6.5044498314746505e-05 5.8813431672861789e-06 -3.1568683251972229e-10 -6.4091271712235129e-05 1.0013897797206857e-14 -4.0660738170975417e-10 -5.6250025531785973e-05 5.1161760617393231e-06 -2.9973527601356253e-10 -4.5812627991230138e-05 -6.9730677009518308e-15 -2.3774173402729518e-10 -4.7781568686663938e-05 5.8813431672861789e-06 -3.1568683251972229e-10 -6.4091271712235129e-05 1.0013897797206857e-14 -4.0660738170975417e-10 -5.6250025531785973e-05 5.1161760617393231e-06 -2.9973527601356253e-10 -4.5812627991230138e-05 6.9031885739609752e-06 -1.6079586038121432e-10 -4.6879764981981213e-05 5.8813431672861789e-06 -3.1568683251972224e-10 -6.4091271712235129e-05 9.6976195658221885e-06 -2.5740156771759148e-10 -5.0793807950961654e-05 5.1161760617393231e-06 -2.9973527601356253e-10 -4.5812627991230138e-05 6.9031885739609752e-06 -1.6079586038121432e-10 -4.6879764981981213e-05 -6.973067815260414e-15 -2.3774173402729518e-10 -4.7781568686663938e-05 5.8813431672861789e-06 -3.1568683251972229e-10 -6.4091271712235129e-05 9.8215603600140289e-06 -1.2134451336640077e-10 -6.4463503941759358e-05 5.881343167286178e-06 -3.1568683251972229e-10 -6.4091271712235129e-05 1.2380856071070986e-05 -3.5026871565615418e-10 -6.2881390216114043e-05 9.399098775705037e-06 -3.0380917663400638e-10 -7.787805832598387e-05 1.5649015781864112e-05 -1.6228295620466913e-10 -4.9581559587152527e-05 9.8215603600140289e-06 -1.2134451336640077e-10 -6.4463503941759358e-05 6.9031885739609752e-06 -1.6079586038121432e-10 -4.6879764981981213e-05 9.6976195658221868e-06 -2.5740156771759143e-10 -5.0793807950961648e-05 1.5649015781864112e-05 -1.6228295620466913e-10 -4.9581559587152527e-05 9.8215603600140289e-06 -1.2134451336640079e-10 -6.4463503941759358e-05 9.6976195658221885e-06 -2.5740156771759143e-10 -5.0793807950961654e-05 1.2380856071070987e-05 -3.5026871565615428e-10 -6.2881390216114056e-05 1.5652599435545548e-05 -1.9420292206519908e-10 -7.3204429471438229e-05 9.8215603600140289e-06 -1.2134451336640077e-10 -6.4463503941759358e-05 1.2380856071070986e-05 -3.5026871565615418e-10 -6.2881390216114043e-05 9.399098775705037e-06 -3.0380917663400633e-10 -7.7878058325983856e-05 9.8215603600140289e-06 -1.2134451336640077e-10 -6.4463503941759358e-05 6.903188573960976e-06 -1.6079586038121432e-10 -4.6879764981981213e-05 5.8813431672861763e-06 -3.1568683251972234e-10 -6.4091271712235129e-05 9.6976195658221885e-06 -2.5740156771759148e-10 -5.0793807950961654e-05 1.8757564298625887e-05 -3.7000139487643144e-10 -6.3330099726098492e-05 1.5649015781864109e-05 -1.6228295620466913e-10 -4.958155958715252e-05 1.5652599435545548e-05 -1.9420292206519908e-10 -7.3204429471438229e-05 1.2380856071070986e-05 -3.5026871565615418e-10 -6.2881390216114043e-05 9.8215603600140289e-06 -1.2134451336640077e-10 -6.4463503941759358e-05 5.881343167286178e-06 -3.1568683251972239e-10 -6.4091271712235129e-05 9.6976195658221868e-06 -2.5740156771759137e-10 -5.0793807950961648e-05 1.2380856071070986e-05 -3.5026871565615423e-10 -6.2881390216114056e-05 1.5649015781864112e-05 -1.6228295620466913e-10 -4.9581559587152527e-05 1.5652599435545548e-05 -1.9420292206519905e-10 -7.3204429471438243e-05 9.8215603600140289e-06 -1.2134451336640079e-10 -6.4463503941759358e-05 1.2380856071070987e-05 -3.5026871565615428e-10 -6.2881390216114056e-05 1.5625990340109646e-05 -3.1909607908036616e-10 -4.5036512895558497e-05 1.8757564298625887e-05 -3.7000139487643144e-10 -6.3330099726098492e-05 1.5649015781864112e-05 -1.6228295620466913e-10 -4.9581559587152527e-05 1.2380856071070986e-05 -3.5026871565615418e-10 -6.2881390216114043e-05 1.5625990340109646e-05 -3.1909607908036616e-10 -4.5036512895558497e-05 1.5649015781864112e-05 -1.6228295620466913e-10 -4.9581559587152527e-05 9.6976195658221885e-06 -2.5740156771759148e-10 -5.0793807950961648e-05 1.2380856071070986e-05 -3.5026871565615418e-10 -6.2881390216114043e-05 1.8757564298625887e-05 -3.7000139487643144e-10 -6.3330099726098492e-05 1.5652599435545548e-05 -1.9420292206519908e-10 -7.3204429471438229e-05 1.2380856071070986e-05 -3.5026871565615418e-10 -6.2881390216114043e-05 1.5575080193548334e-05 -3.3051046181680141e-10 -7.7600347245884528e-05 9.8215603600140289e-06 -1.2134451336640077e-10 -6.4463503941759358e-05 9.399098775705037e-06 -3.0380917663400638e-10 -7.787805832598387e-05 9.8792483006919375e-06 -2.0542220547465865e-10 -9.3749338045826804e-05 4.5757528018939616e-06 -2.0192756563451942e-10 -9.3749222560251993e-05 1.5652599435545548e-05 -1.9420292206519908e-10 -7.3204429471438229e-05 9.8215603600140289e-06 -1.2134451336640077e-10 -6.4463503941759358e-05 9.399098775705037e-06 -3.0380917663400633e-10 -7.7878058325983856e-05 9.8792483006919375e-06 -2.0542220547465865e-10 -9.3749338045826804e-05 1.5652599435545548e-05 -1.9420292206519908e-10 -7.3204429471438229e-05 9.3990987757050387e-06 -3.0380917663400633e-10 -7.787805832598387e-05 1.5575080193548331e-05 -3.3051046181680136e-10 -7.7600347245884528e-05 9.8792483006919375e-06 -2.0542220547465865e-10 -9.3749338045826804e-05 1.5652599435545548e-05 -1.9420292206519908e-10 -7.3204429471438229e-05 1.2380856071070986e-05 -3.5026871565615418e-10 -6.2881390216114043e-05 9.3990987757050404e-06 -3.0380917663400643e-10 -7.787805832598387e-05 1.5575080193548334e-05 -3.3051046181680141e-10 -7.7600347245884542e-05 1.5928507061515681e-05 -2.4049568126208564e-10 -9.3749574577935564e-05 1.5575080193548334e-05 -3.3051046181680141e-10 -7.7600347245884528e-05 1.2501103189152685e-05 -3.8666065782654368e-10 -9.3749450940511304e-05 9.8792483006919375e-06 -2.0542220547465865e-10 -9.3749338045826804e-05 9.399098775705037e-06 -3.0380917663400638e-10 -7.787805832598387e-05 1.5575080193548334e-05 -3.3051046181680141e-10 -7.7600347245884528e-05 1.2501103189152684e-05 -3.8666065782654363e-10 -9.3749450940511291e-05 9.8792483006919375e-06 -2.0542220547465865e-10 -9.3749338045826804e-05 1.5928507061515681e-05 -2.4049568126208564e-10 -9.3749574577935564e-05 1.5652599435545548e-05 -1.9420292206519908e-10 -7.3204429471438229e-05 1.5575080193548334e-05 -3.3051046181680141e-10 -7.7600347245884528e-05 9.8792483006919375e-06 -2.0542220547465865e-10 -9.3749338045826804e-05 1.5928507061515681e-05 -2.4049568126208564e-10 -9.3749574577935564e-05 1.5652599435545545e-05 -1.9420292206519908e-10 -7.3204429471438229e-05 1.4317602991286048e-05 -1.2802008014991416e-10 -9.3749494713764257e-05 9.8792483006919375e-06 -2.0542220547465865e-10 -9.3749338045826804e-05 9.399098775705037e-06 -3.0380917663400638e-10 -7.787805832598387e-05 1.2501103189152684e-05 -3.8666065782654363e-10 -9.3749450940511291e-05 9.8792483006919375e-06 -2.0542220547465865e-10 -9.3749338045826804e-05 6.2505608318291909e-06 -3.0281117698618351e-10 -9.3749270856672079e-05 2.7275378592166139e-15 -1.1169892337147413e-10 -7.5786966207063829e-05 9.8215603600140289e-06 -1.2134451336640077e-10 -6.4463503941759358e-05 -5.7818761143323136e-15 -2.3521214508422715e-10 -6.5044498314746505e-05 -6.322558935769814e-16 -2.0940820673320707e-10 -8.0023534168369005e-05 5.2910265669851822e-06 -1.1625248526224762e-10 -9.3749242408877476e-05 9.8215603600140306e-06 -1.2134451336640077e-10 -6.4463503941759358e-05 9.8792483006919375e-06 -2.0542220547465865e-10 -9.3749338045826804e-05 4.5757528018939616e-06 -2.0192756563451942e-10 -9.3749222560251993e-05 9.399098775705037e-06 -3.0380917663400638e-10 -7.787805832598387e-05 6.2505608318291909e-06 -3.0281117698618351e-10 -9.3749270856672079e-05 4.5756749451371661e-06 -2.4289480369991395e-10 -8.0023578554110073e-05 4.5757528018939616e-06 -2.0192756563451942e-10 -9.3749222560251993e-05 9.8215603600140289e-06 -1.2134451336640077e-10 -6.4463503941759358e-05 9.399098775705037e-06 -3.0380917663400638e-10 -7.787805832598387e-05 4.5756749451371661e-06 -2.4289480369991395e-10 -8.0023578554110059e-05 4.5757528018939701e-06 -2.0192756563451955e-10 -9.374922256025202e-05 9.399098775705037e-06 -3.0380917663400638e-10 -7.787805832598387e-05 9.8792483006919375e-06 -2.0542220547465865e-10 -9.3749338045826804e-05 6.2505608318291909e-06 -3.0281117698618351e-10 -9.3749270856672079e-05 4.5757528018939616e-06 -2.0192756563451942e-10 -9.3749222560251993e-05 9.8215603600140289e-06 -1.2134451336640077e-10 -6.4463503941759358e-05 5.8813431672861814e-06 -3.1568683251972244e-10 -6.4091271712235102e-05 9.399098775705037e-06 -3.0380917663400638e-10 -7.787805832598387e-05 4.5756749451371661e-06 -2.4289480369991395e-10 -8.0023578554110073e-05 5.2910265669851822e-06 -1.1625248526224762e-10 -9.3749242408877476e-05 9.8215603600140289e-06 -1.2134451336640074e-10 -6.4463503941759358e-05 4.5757528018939616e-06 -2.0192756563451942e-10 -9.3749222560251993e-05 -6.322558935769814e-16 -2.0940820673320707e-10 -8.0023534168369005e-05 9.8215603600140289e-06 -1.2134451336640077e-10 -6.4463503941759358e-05 4.5756749451371636e-06 -2.42894803699914e-10 -8.0023578554110059e-05 4.5757528018939625e-06 -2.0192756563451937e-10 -9.3749222560251993e-05 -6.3226169349167925e-16 -2.0940820673320709e-10 -8.0023534168368991e-05 9.8215603600140289e-06 -1.2134451336640077e-10 -6.4463503941759358e-05 -5.7818765651343996e-15 -2.3521214508422715e-10 -6.5044498314746505e-05 4.5756749451371661e-06 -2.4289480369991395e-10 -8.0023578554110073e-05 -6.3226032442133965e-16 -2.0940820673320696e-10 -8.0023534168369005e-05 2.7275378592166139e-15 -1.1169892337147413e-10 -7.5786966207063829e-05 5.2910265669851822e-06 -1.1625248526224762e-10 -9.3749242408877476e-05 1.6234996659344517e-14 -1.7764367798682938e-10 -9.3749215566378712e-05 -6.322558935769814e-16 -2.0940820673320707e-10 -8.0023534168369005e-05 5.2910265669851822e-06 -1.1625248526224762e-10 -9.3749242408877476e-05 4.5757528018939616e-06 -2.0192756563451942e-10 -9.3749222560251993e-05 1.6234996456276037e-14 -1.7764367798682938e-10 -9.3749215566378712e-05 -6.322558935769814e-16 -2.0940820673320707e-10 -8.0023534168369005e-05 -5.7818765651343996e-15 -2.3521214508422715e-10 -6.5044498314746505e-05 5.8813431672861789e-06 -3.1568683251972218e-10 -6.4091271712235143e-05 4.575674945137167e-06 -2.42894803699914e-10 -8.0023578554110073e-05 1.1934234579607695e-14 -3.4466020026475915e-10 -7.499959682671826e-05 -5.7818765651343996e-15 -2.3521214508422715e-10 -6.5044498314746505e-05 4.5756749451371661e-06 -2.4289480369991395e-10 -8.0023578554110073e-05 -6.3225589357698209e-16 -2.0940820673320704e-10 -8.0023534168369005e-05 1.1934234579607695e-14 -3.4466020026475915e-10 -7.499959682671826e-05 4.5757528018939616e-06 -2.0192756563451942e-10 -9.3749222560251993e-05 1.6234996472809366e-14 -1.7764367798682938e-10 -9.3749215566378712e-05 -6.3225614519090439e-16 -2.0940820673320709e-10 -8.0023534168369005e-05 1.2852325996488615e-14 -3.2674713496268877e-10 -9.3749210504647093e-05 4.5756749451371661e-06 -2.4289480369991395e-10 -8.0023578554110073e-05 -6.322558252940555e-16 -2.0940820673320704e-10 -8.0023534168369005e-05 1.1934234579607695e-14 -3.4466020026475915e-10 -7.499959682671826e-05 1.2852325996488615e-14 -3.2674713496268877e-10 -9.3749210504647093e-05 6.2505608318291909e-06 -3.0281117698618351e-10 -9.3749270856672079e-05 4.5756749451371661e-06 -2.4289480369991395e-10 -8.0023578554110073e-05 4.5757528018939616e-06 -2.0192756563451942e-10 -9.3749222560251993e-05 1.2852325996488615e-14 -3.2674713496268877e-10 -9.3749210504647093e-05 4.5756749451371661e-06 -2.4289480369991395e-10 -8.0023578554110073e-05 4.5757528018939616e-06 -2.0192756563451942e-10 -9.3749222560251993e-05 -6.322558935769814e-16 -2.0940820673320707e-10 -8.0023534168369005e-05 1.2852325996488615e-14 -3.2674713496268877e-10 -9.3749210504647093e-05 
</DataArray>
</PointData>
<CellData Scalars="" Vectors="" Tensors="effective_stress,">
<DataArray type="Float64" Name="effective_stress" NumberOfComponents="9" format="ascii">
0.32843874458000172 -0.0055305634242842003 -0.049409490947573173 -0.0055305634242842003 -2499.7725533078201 -0.048714602689562736 -0.049409490947573173 -0.048714602689562736 -9999.6140612719282 0.36614393179760435 0.010969037674576201 0.072791573371597529 0.010969037674576201 -2499.763329603365 0.034640278497315713 0.072791573371597529 0.034640278497315713 -9999.5996887187102 0.35177609431510359 0.012477519383271407 0.0042148097953021435 0.012477519383271407 -2499.706802891852 0.13567924306919404 0.0042148097953021435 0.13567924306919404 -9999.5289079991198 0.37432490426454024 0.020772374026574184 0.012980985489321029 0.020772374026574184 -2499.7295285658638 0.024977899346140475 0.012980985489321029 0.024977899346140475 -9999.5958278440576 0.34616955328806398 -0.00077088421828479421 0.0025504546083539026 -0.00077088421828479421 -2499.7529009510208 -0.033011516802616825 0.0025504546083539026 -0.033011516802616825 -9999.6628673360756 0.35191812953507906 -0.018887766275075137 -0.037004272294097973 -0.018887766275075137 -2499.7442743522442 -0.0010499771506147226 -0.037004272294097973 -0.0010499771506147226 -9999.6654018573463 0.33543286157964758 0.0099594918203543478 0.041312452747888528 0.0099594918203543478 -2499.7910556000802 0.064626862370005256 0.041312452747888528 0.064626862370005256 -9999.6923920483823 0.31202829738003857 -0.024773243922752659 -0.033101557095051248 -0.024773243922752659 -2499.8100878804171 0.041303537745534413 -0.033101557095051248 0.041303537745534413 -9999.7667072262593 0.31625529609323166 -0.0029936789775376234 0.014965559262009265 -0.0029936789775376234 -2499.7861588558153 -0.022781262124226487 0.014965559262009265 -0.022781262124226487 -9999.7577729650038 0.28731162917870279 0.0018611175174966868 0.0024800798444175598 0.0018611175174966868 -2499.8506116403041 0.020077085555840313 0.0024800798444175598 0.020077085555840313 -9999.8134160858026 0.33070766203729818 0.0095919526847944581 -0.0075598032540256099 0.0095919526847944581 -2499.7875984309853 -0.018340720611831784 -0.0075598032540256099 -0.018340720611831784 -9999.6924563983684 0.33766700672549632 0.013372390337524197 0.0031515045725427626 0.013372390337524197 -2499.7827457484118 -0.0074719855597322749 0.0031515045725427626 -0.0074719855597322749 -9999.6936405457436 0.34401159676326643 0.004302697923923321 0.0026188466745225014 0.004302697923923321 -2499.7671166168575 0.0067270336548972409 0.0026188466745225014 0.0067270336548972409 -9999.6909342455656 0.35733877574079997 0.014290271234656112 0.054921622519032098 0.014290271234656112 -2499.754015034986 -0.010869085635476949 0.054921622519032098 -0.010869085635476949 -9999.6442403532383 0.36651522356169153 0.006379690377999089 0.043046916314012626 0.006379690377999089 -2499.7607148919788 -0.044801959524317647 0.043046916314012626 -0.044801959524317647 -9999.5846794683748 0.3657597510400592 0.012147219402028973 -0.057824427886110558 0.012147219402028973 -2499.6941937647248 0.090176241515222161 -0.057824427886110558 0.090176241515222161 -9999.490577025832 0.36979247028239115 -0.0019583721010360544 -0.024940910579971387 -0.0019583721010360544 -2499.7275554080297 0.11639175938103108 -0.024940910579971387 0.11639175938103108 -9999.560436177926 0.41023699914694589 0.0090928064236203282 -0.036267559112085124 0.0090928064236203282 -2499.7151750185435 0.059551804903640038 -0.036267559112085124 0.059551804903640038 -9999.5422966861715 0.30923513865400309 -0.0093059258655079601 -0.065411016557277435 -0.0093059258655079601 -2499.7782118005098 0.016857597069247277 -0.065411016557277435 0.016857597069247277 -9999.6901087444876 0.32635909841631161 -0.013735552077586768 0.011179189183167182 -0.013735552077586768 -2499.7721478721887 0.01733762938438943 0.011179189183167182 0.01733762938438943 -9999.6826745535254 0.31476936293723473 0.014074180147664352 0.023721351148112746 0.014074180147664352 -2499.8067079548969 0.031427486189642723 0.023721351148112746 0.031427486189642723 -9999.7360148279968 0.31099328510638174 0.0042658031651762185 0.027480192255098734 0.0042658031651762185 -2499.8021849263241 0.043256947142438856 0.027480192255098734 0.043256947142438856 -9999.7423456144879 0.38343053485749778 0.0056796813424946774 0.018633096190695031 0.0056796813424946774 -2499.7188852506674 0.093247032733699928 0.018633096190695031 0.093247032733699928 -9999.5368010018447 0.35065958420864263 -0.0038847156951817841 0.004238235752836772 -0.0038847156951817841 -2499.7197803555155 0.082943372012550753 0.004238235752836772 0.082943372012550753 -9999.4984797687302 0.3048993488355336 0.006376287331293997 -0.0055537716152684879 0.006376287331293997 -2499.7767817781323 0.0093994439653215522 -0.0055537716152684879 0.0093994439653215522 -9999.6361429884855 0.30059934000837529 0.0054718911772039473 0.00042058479004936089 0.0054718911772039473 -2499.7945717235152 0.02220287433874546 0.00042058479004936089 0.02220287433874546 -9999.6607808209301 0.34108456564717926 -0.0034793576168467093 -0.013188425070097765 -0.0034793576168467093 -2499.7851332981609 0.0064520052392254001 -0.013188425070097765 0.0064520052392254001 -9999.6561625492432 0.32967987536176224 0.005025647042071861 -0.017965628524507338 0.005025647042071861 -2499.777722252009 0.005234433072473621 -0.017965628524507338 0.005234433072473621 -9999.6722233529181 0.34023109220379411 -0.0018243391689677299 -0.015201700758552761 -0.0018243391689677299 -2499.7772508726148 0.0010633608092120994 -0.015201700758552761 0.0010633608092120994 -9999.6686304090781 0.31280659731328342 -0.016728815401900771 -0.013296129356149322 -0.016728815401900771 -2499.7670653167961 0.015064374249959656 -0.013296129356149322 0.015064374249959656 -9999.7072105074985 0.32314039863285871 -0.009714722214955035 0.00017067296448658453 -0.009714722214955035 -2499.7870230108438 0.0061691289397458604 0.00017067296448658453 0.0061691289397458604 -9999.7065918264962 0.35008416384781071 -0.00010282835702488113 -0.028767505640644231 -0.00010282835702488113 -2499.7583023128436 0.01544699000669425 -0.028767505640644231 0.01544699000669425 -9999.6315430908817 0.33379350166096344 -0.0090831893704577463 0.006586846385289391 -0.0090831893704577463 -2499.7649052432562 0.016455644743288644 0.006586846385289391 0.016455644743288644 -9999.6397545575801 0.33066091944965592 -0.016827376364617612 -0.0089930331132563879 -0.016827376364617612 -2499.7385080913427 0.030425694178120466 -0.0089930331132563879 0.030425694178120466 -9999.632828389942 0.32722704333536967 -0.0072729630548652793 -0.011958550105191534 -0.0072729630548652793 -2499.771131638423 0.0044708470595651306 -0.011958550105191534 0.0044708470595651306 -9999.655813240046 0.31576944781045313 -0.012768872597999151 -0.0068625626627181191 -0.012768872597999151 -2499.7856581159676 0.016278339322525426 -0.0068625626627181191 0.016278339322525426 -9999.682655391669 0.34785136216851242 0.0085914988577497908 -0.011761454547013273 0.0085914988577497908 -2499.769622077225 0.0078861328388484253 -0.011761454547013273 0.0078861328388484253 -9999.6503427460848 0.33391801453126391 0.0062285777535314238 -0.020152203788256884 0.0062285777535314238 -2499.7738720314419 0.0032227157207671553 -0.020152203788256884 0.0032227157207671553 -9999.6655753787272 0.33662918660456853 -0.00085327305691067744 -0.0084636756537292968 -0.00085327305691067744 -2499.7749581710455 -0.0033198320948031323 -0.0084636756537292968 -0.0033198320948031323 -9999.6881753602611 0.35046668218657828 0.00042563439899291275 -0.0076505572706082603 0.00042563439899291275 -2499.7649849262989 -0.00012600378522620304 -0.0076505572706082603 -0.00012600378522620304 -9999.658286994907 0.34682189410705178 -0.00086708903061926204 -0.0060189341147633968 -0.00086708903061926204 -2499.7652394722463 -0.0008425423106928065 -0.0060189341147633968 -0.0008425423106928065 -9999.6578284892239 0.37084511388820829 0.019901329954076293 -0.0055230975285667228 0.019901329954076293 -2499.7245999961069 -0.0071568219191249227 -0.0055230975285667228 -0.0071568219191249227 -9999.6335963315287 0.36643511197689804 0.014899226686966374 -0.0028861093624072964 0.014899226686966374 -2499.7276724778985 0.0045193831983851851 -0.0028861093624072964 0.0045193831983851851 -9999.6446111610931 0.36526381276053144 0.017944395884524861 -0.0038203842796065146 0.017944395884524861 -2499.7350580247894 -0.0014185633854140178 -0.0038203842796065146 -0.0014185633854140178 -9999.6454781270077 0.35943526669962012 0.0081680616865825451 -0.0041134378689093865 0.0081680616865825451 -2499.7436373972114 -0.0068284537692306913 -0.0041134378689093865 -0.0068284537692306913 -9999.6527675249399 0.35124977460509399 0.0064140040155431163 -0.0084586662396759493 0.0064140040155431163 -2499.767917765068 -0.0072405712564886926 -0.0084586662396759493 -0.0072405712564886926 -9999.6586533561713 0.35904173468043155 0.0049631827523658294 -0.0065600450971032842 0.0049631827523658294 -2499.7406989559577 -0.01284763613512041 -0.0065600450971032842 -0.01284763613512041 -9999.652135725577 0.35514889835121721 0.00033053955297475683 -0.0035213633635464703 0.00033053955297475683 -2499.7494963368708 -0.01982792534249711 -0.0035213633635464703 -0.01982792534249711 -9999.6303640661918 0.34959987630463729 -0.00016920795402559571 -0.00099443623093975475 -0.00016920795402559571 -2499.7662562370988 -0.0030926249846743303 -0.00099443623093975475 -0.0030926249846743303 -9999.6543505761838 0.34977777989570313 0.0005434506395316941 -0.0037107947368895111 0.0005434506395316941 -2499.7555956196184 -0.013744945480539172 -0.0037107947368895111 -0.013744945480539172 -9999.6457474646122 0.35382612216744747 0.0026334584368756342 -0.0041587762091239711 0.0026334584368756342 -2499.7623730609666 -0.0065881475384230725 -0.0041587762091239711 -0.0065881475384230725 -9999.6300024644952 0.35292291840050893 0.00083427092443180001 -0.00084691824349647504 0.00083427092443180001 -2499.7583654037098 -0.0082588959976419574 -0.00084691824349647504 -0.0082588959976419574 -9999.633580000871 0.34838262578659851 0.0022332777426183033 -0.0046310245729728194 0.0022332777426183033 -2499.7712041315303 -0.011745040978894394 -0.0046310245729728194 -0.011745040978894394 -9999.6435906969491 0.34679773399966507 -0.0018564098073347562 -0.0037945726348880271 -0.0018564098073347562 -2499.7634427483235 -0.0064482456873520277 -0.0037945726348880271 -0.0064482456873520277 -9999.6618785716255 0.35886295466752927 -0.00014435998162141289 -0.0057781250352491043 -0.00014435998162141289 -2499.754454051983 -0.0033017526984622236 -0.0057781250352491043 -0.0033017526984622236 -9999.6227292339936 0.31356749930148453 -0.0061593141440202011 0.00091810647700185655 -0.0061593141440202011 -2499.7839375497465 -4.33378172601806e-05 0.00091810647700185655 -4.33378172601806e-05 -9999.7044505396916 0.32164331079053454 -0.0026001791895073432 0.0026996907490683952 -0.0026001791895073432 -2499.7747469989795 -0.004246221158609842 0.0026996907490683952 -0.004246221158609842 -9999.6429865031223 0.32221145516541583 -0.011801823300464209 -0.00077214749126142124 -0.011801823300464209 -2499.7698077635869 0.0021417893958641798 -0.00077214749126142124 0.0021417893958641798 -9999.7015264461443 0.33310168753450853 -0.0028201633586503461 -0.010041442898909736 -0.0028201633586503461 -2499.7743453194316 -0.0027802097101812251 -0.010041442898909736 -0.0027802097101812251 -9999.6817990014788 0.31982196648914396 -0.0072486172109350478 -0.0036608685477403924 -0.0072486172109350478 -2499.7909182190861 0.0061377759225251793 -0.0036608685477403924 0.0061377759225251793 -9999.7063594946649 0.33995267607406277 -0.0029113344266083127 -0.014656499551165325 -0.0029113344266083127 -2499.7736330265648 -0.0042921311351165059 -0.014656499551165325 -0.0042921311351165059 -9999.6744898963552 0.30222165090276576 0.0026338064869520709 0.064649785934761894 0.0026338064869520709 -2499.792956966121 -0.079764532304125169 0.064649785934761894 -0.079764532304125169 -9999.68018872227 0.34036262074710066 0.0016158890480418575 -1.0576006843621144e-05 0.0016158890480418575 -2499.745378483145 -0.012295881838127798 -1.0576006843621144e-05 -0.012295881838127798 -9999.6025106598208 0.29286741797886862 -0.013988934263597604 -0.014376517337495898 -0.013988934263597604 -2499.7958762292201 -0.0013273376762299449 -0.014376517337495898 -0.0013273376762299449 -9999.7818832599769 0.3305118962461524 0.010337543315211115 0.098701964658026525 0.010337543315211115 -2499.7602363704364 -0.029087696747294556 0.098701964658026525 -0.029087696747294556 -9999.6284874980811 0.34820982155247293 0.0060941405212633897 -0.031911586266687664 0.0060941405212633897 -2499.7574802586341 -0.018490705227122817 -0.031911586266687664 -0.018490705227122817 -9999.6337620433569 0.32336841229266611 -0.0062772828530259436 0.024989533670577657 -0.0062772828530259436 -2499.7588061156553 0.055726030635014467 0.024989533670577657 0.055726030635014467 -9999.7223989215418 0.32928147550717313 -0.0023417029031065619 0.0032377122352045262 -0.0023417029031065619 -2499.7648256302077 0.0011997443609743641 0.0032377122352045262 0.0011997443609743641 -9999.6220685890858 0.34359761880573414 0.0083322096380280958 -0.029826461448905661 0.0083322096380280958 -2499.75876390146 -0.021015504218083854 -0.029826461448905661 -0.021015504218083854 -9999.6367142367835 0.35182950860735218 0.0082543873642041896 0.019625149447908496 0.0082543873642041896 -2499.7533836749008 -0.016111914762170783 0.019625149447908496 -0.016111914762170783 -9999.6475011220718 0.33010351287384765 0.018365049000886147 0.057533333869834252 0.018365049000886147 -2499.7639384361491 -0.084180581229230916 0.057533333869834252 -0.084180581229230916 -9999.6685330692453 0.33030371251447832 -0.010061447431756847 0.0072609808007655374 -0.010061447431756847 -2499.7890911054819 -0.056365742310219957 0.0072609808007655374 -0.056365742310219957 -9999.6866718847032 0.33153965396829221 -0.0018107485418210169 0.0054551556239630372 -0.0018107485418210169 -2499.7802498640967 -0.0053202343742668745 0.0054551556239630372 -0.0053202343742668745 -9999.6880330824915 0.35090933632727683 0.00035790700492516355 0.01699354209813464 0.00035790700492516355 -2499.7594186876859 -0.019796297387536299 0.01699354209813464 -0.019796297387536299 -9999.6611853176091 0.35785060177931882 0.00033568115461707695 -0.028655628485998896 0.00033568115461707695 -2499.7501055617468 -0.019098351747686509 -0.028655628485998896 -0.019098351747686509 -9999.6308800801653 0.36586671317063169 0.005699526245623825 0.039094131337113897 0.005699526245623825 -2499.7390120312498 -0.047657940911151053 0.039094131337113897 -0.047657940911151053 -9999.5827383340875 0.38156964796101772 9.1852970070093604e-05 0.064362005656985966 9.1852970070093604e-05 -2499.7424373008052 -0.010164414752539168 0.064362005656985966 -0.010164414752539168 -9999.5164985341817 0.34139917143875209 -0.00084111886281176872 0.016078020664735959 -0.00084111886281176872 -2499.7906820360054 -0.010251621509119957 0.016078020664735959 -0.010251621509119957 -9999.6694378311004 0.36047156453605567 0.0021437852173610177 0.0083577611057989998 0.0021437852173610177 -2499.7730715905464 -0.023286539566015563 0.0083577611057989998 -0.023286539566015563 -9999.619987425951 0.37473372692859164 0.00028928259059120276 0.039925145384060751 0.00028928259059120276 -2499.7049212523852 0.022112335864958144 0.039925145384060751 0.022112335864958144 -9999.5722394070544 0.39038965913529206 0.0055550265162583636 0.065281780571447068 0.0055550265162583636 -2499.7113613726069 -0.015454464481860664 0.065281780571447068 -0.015454464481860664 -9999.5076666354526 0.36130367227497118 0.0036217148522743915 4.1440613131271675e-05 0.0036217148522743915 -2499.766404840831 0.013230854138328141 4.1440613131271675e-05 0.013230854138328141 -9999.635587982757 0.33788117862968647 0.0045749961665265751 0.0086989547901339392 0.0045749961665265751 -2499.7884707558874 0.0087359543276761542 0.0086989547901339392 0.0087359543276761542 -9999.6980416514834 0.36511258942346103 -0.0064714161085317728 0.042995218879070263 -0.0064714161085317728 -2499.7407623408135 0.014858665833776541 0.042995218879070263 0.014858665833776541 -9999.5791465719321 0.35631756117393787 0.0025742892161613514 -0.055203975692946772 0.0025742892161613514 -2499.7738139379348 0.0034980634715381029 -0.055203975692946772 0.0034980634715381029 -9999.6559207136434 0.3598919968080736 -0.010026557132657758 0.042569830216280025 -0.010026557132657758 -2499.7547496429079 0.016271180835701671 0.042569830216280025 0.016271180835701671 -9999.5818009878385 0.35111575745493007 -0.0077743488673826834 0.027162426662048239 -0.0077743488673826834 -2499.7536600703793 0.041633974941493984 0.027162426662048239 0.041633974941493984 -9999.6265242003956 0.35288922100504527 0.0071863928329611165 -0.042256857047384216 0.0071863928329611165 -2499.7567676219846 0.020232283813900603 -0.042256857047384216 0.020232283813900603 -9999.6814322344981 0.36983112542023661 0.0044692963595126395 -0.047480563644108464 0.0044692963595126395 -2499.7482230499436 0.02208709001688651 -0.047480563644108464 0.02208709001688651 -9999.6208109920499 0.34989066282105341 0.0069423994103644075 0.016835381634336954 0.0069423994103644075 -2499.7642639467131 0.025818115721989443 0.016835381634336954 0.025818115721989443 -9999.6667918400781 0.36977054901808515 -0.0021804968650636844 0.00082422003788451548 -0.0021804968650636844 -2499.7447522624057 0.014102635203926184 0.00082422003788451548 0.014102635203926184 -9999.6329425238728 0.36422387541097123 0.0018562410278641622 0.0067892171382482047 0.0018562410278641622 -2499.7609081109031 0.024737353939599416 0.0067892171382482047 0.024737353939599416 -9999.6171460625446 0.34331791946736701 0.0017152831645559498 0.015664963759917327 0.0017152831645559498 -2499.779332838435 0.025541704521856445 0.015664963759917327 0.025541704521856445 -9999.6712985957074 0.32773978478576282 0.011861407819527749 -0.0042524806640358292 0.011861407819527749 -2499.7734164516114 0.013322796193278919 -0.0042524806640358292 0.013322796193278919 -9999.6672988113987 0.35530041860783967 0.0010170252041188793 -0.0075400921532491338 0.0010170252041188793 -2499.7709699061461 0.00033732424037680175 -0.0075400921532491338 0.00033732424037680175 -9999.6320877683665 0.35782869983131604 -0.001773675189659648 -0.0061811263115032489 -0.001773675189659648 -2499.7529527895185 0.014627466294200531 -0.0061811263115032489 0.014627466294200531 -9999.6544118054626 0.33502732382476097 0.0018032420834034266 -0.016262496360923251 0.0018032420834034266 -2499.7776881436803 0.013572186953297205 -0.016262496360923251 0.013572186953297205 -9999.6564195091014 0.37848984424454102 0.0016639001143324223 0.0039897476415262645 0.0016639001143324223 -2499.7498577690435 0.0020883790884909104 0.0039897476415262645 0.0020883790884909104 -9999.5711296040045 0.34314707442172221 0.00071799605678485832 0.0042468431597626477 0.00071799605678485832 -2499.7617520208105 0.0065603703988017514 0.0042468431597626477 0.0065603703988017514 -9999.6514909306406 0.349480293054512 -0.0047692877134037706 -0.0036121580612871185 -0.0047692877134037706 -2499.7664652769035 0.008624167533525906 -0.0036121580612871185 0.008624167533525906 -9999.6347887490138 0.35320018360107497 0.0011402488709456923 -0.0059309940588718746 0.0011402488709456923 -2499.7707519663563 0.00023273547924418381 -0.0059309940588718746 0.00023273547924418381 -9999.6290835928194 0.35925313246207224 0.0014937050931268631 -0.0060030454851585091 0.0014937050931268631 -2499.7511389958627 0.0022974189741944429 -0.0060030454851585091 0.0022974189741944429 -9999.624486067245 0.35783456041099271 0.0022497140165696847 -0.0042445511187452212 0.0022497140165696847 -2499.7518780345054 0.0016032044072744611 -0.0042445511187452212 0.0016032044072744611 -9999.632226286034 0.35575056296875118 0.0010484012308128385 -0.0067553373773989733 0.0010484012308128385 -2499.7511590312752 0.011399822733437759 -0.0067553373773989733 0.011399822733437759 -9999.6428921986844 0.35873563181849022 0.0020943735757556828 -0.0047026626853039488 0.0020943735757556828 -2499.7518554167355 0.0046255724846560042 -0.0047026626853039488 0.0046255724846560042 -9999.6288876682265 0.34381924334093128 0.0091435988425014603 -0.017854018469734001 0.0091435988425014603 -2499.7626769539188 0.00023177663092610601 -0.017854018469734001 0.00023177663092610601 -9999.6576716681357 0.35377989527250975 -0.0024743517252357617 -0.0084313123227275355 -0.0024743517252357617 -2499.7652403190973 0.0031306352955198236 -0.0084313123227275355 0.0031306352955198236 -9999.6585190558999 0.3495204568207555 -0.00155977964058613 -0.0067357273719608202 -0.00155977964058613 -2499.7653225405274 0.0046639861348012346 -0.0067357273719608202 0.0046639861348012346 -9999.6542106691159 0.35493463537932257 -2.2271740717689364e-05 -0.0050896344655484427 -2.2271740717689364e-05 -2499.747371599341 0.0098055432899855077 -0.0050896344655484427 0.0098055432899855077 -9999.6499538382304 0.36455256073350029 -0.015159789936505148 -0.0026800724308486679 -0.015159789936505148 -2499.7226250327367 -0.0010814092493092176 -0.0026800724308486679 -0.0010814092493092176 -9999.638629492667 0.36703044124897133 -0.015631972831163535 -0.0047662481033512449 -0.015631972831163535 -2499.7243556397216 0.00092780747490905924 -0.0047662481033512449 0.00092780747490905924 -9999.6369398952484 0.35470386242377572 -0.0015658756181337469 -0.0093772989021090325 -0.0015658756181337469 -2499.7632270867007 0.0049296767383566475 -0.0093772989021090325 0.0049296767383566475 -9999.6495666108021 0.34542171178600256 0.0090909009669554175 -0.018521034338846221 0.0090909009669554175 -2499.7590671372191 0.0026232290733787522 -0.018521034338846221 0.0026232290733787522 -9999.6505020015884 0.36268305203748241 -0.010026326134362856 -0.0042594178958097473 -0.010026326134362856 -2499.7413576016165 0.012943446763756583 -0.0042594178958097473 0.012943446763756583 -9999.6475558787861 0.34298396336680526 -0.002592022168013311 0.0030224883385017165 -0.002592022168013311 -2499.7759739625058 -0.0068501579125950229 0.0030224883385017165 -0.0068501579125950229 -9999.6917022940179 0.34445769083822597 -0.010352986461755274 -0.00067021396580457804 -0.010352986461755274 -2499.7834736985774 0.003489971137696557 -0.00067021396580457804 0.003489971137696557 -9999.6762268912516 0.33932900682930267 -0.0048579702529382707 0.016406182895752353 -0.0048579702529382707 -2499.7282955443961 -0.1250256517097959 0.016406182895752353 -0.1250256517097959 -9999.5886726421923 0.37495940771583586 -0.018234940071567507 0.0073477225978422211 -0.018234940071567507 -2499.7366851316428 -0.026776216352573101 0.0073477225978422211 -0.026776216352573101 -9999.5997012335811 0.32045359951302999 -0.0063574739775215661 0.046023778902963386 -0.0063574739775215661 -2499.7991367288237 -0.069425167147301181 0.046023778902963386 -0.069425167147301181 -9999.7157500111862 0.33672683264467196 -0.0077619154034094182 0.067659432552655829 -0.0077619154034094182 -2499.7698404621715 -0.041277996737115324 0.067659432552655829 -0.041277996737115324 -9999.6403735543827 0.34285428380189842 0.00038827270950008569 0.0056836566559468338 0.00038827270950008569 -2499.7713118550746 0.016254046432692348 0.0056836566559468338 0.016254046432692348 -9999.7016264832309 0.30758166032752865 -0.011300981893822337 0.034195163009015511 -0.011300981893822337 -2499.7962219415808 0.051958833640169844 0.034195163009015511 0.051958833640169844 -9999.7403636001563 0.28239685529240433 -0.0047685317733369599 0.0055018877372958741 -0.0047685317733369599 -2499.8565877140518 -0.019206155477149878 0.0055018877372958741 -0.019206155477149878 -9999.8510668943381 0.33016803174677989 -0.0073092874901328764 0.0055134370109044539 -0.0073092874901328764 -2499.7731932109568 0.0094859573291614652 0.0055134370109044539 0.0094859573291614652 -9999.6907618672449 0.31528766802247221 -0.0032766279410703196 0.028570050499641009 -0.0032766279410703196 -2499.8000659328563 0.05853377716749486 0.028570050499641009 0.05853377716749486 -9999.7693826437335 0.35025416902237794 -0.0043601166262523874 -0.010206840964201547 -0.0043601166262523874 -2499.7702894828421 0.0052552298793671071 -0.010206840964201547 0.0052552298793671071 -9999.6813893541166 0.35953105552016495 -0.0020966062556151688 -0.0028200392534927232 -0.0020966062556151688 -2499.7555963368513 0.026877316278387298 -0.0028200392534927232 0.026877316278387298 -9999.6630673116979 0.31242469179558047 0.0072083436997849998 -0.081902802166541777 0.0072083436997849998 -2499.8315246106995 -0.036008132139968452 -0.081902802166541777 -0.036008132139968452 -9999.8001048511505 0.34852257945468956 0.007094588032620662 -0.063415934385153472 0.007094588032620662 -2499.774224857621 0.049258623014313496 -0.063415934385153472 0.049258623014313496 -9999.707159976726 0.35242779141124309 -0.004453962433872187 -0.075138276057989339 -0.004453962433872187 -2499.7543044879262 -0.086784696419326124 -0.075138276057989339 -0.086784696419326124 -9999.6814010265789 0.35260136029683053 0.0017919141376964015 -0.014734399444478186 0.0017919141376964015 -2499.7188974699884 -0.04392653660746576 -0.014734399444478186 -0.04392653660746576 -9999.6138058303623 0.32912453395612618 0.015338694540188415 -0.028134149499083182 0.015338694540188415 -2499.7880192205016 -0.0072603808947048418 -0.028134149499083182 -0.0072603808947048418 -9999.6825566257594 0.33607159944074283 0.011774860846792912 -0.029043240758255706 0.011774860846792912 -2499.7763422463854 0.008178931754059704 -0.029043240758255706 0.008178931754059704 -9999.6657406304257 0.34866764536582195 -0.010228649254110503 -0.012320301390900568 -0.010228649254110503 -2499.7847837567701 0.014730774719510009 -0.012320301390900568 0.014730774719510009 -9999.6712553607085 0.30578841478018148 0.0061151435148438932 -0.010095829181409499 0.0061151435148438932 -2499.7894866147544 -0.021598870881007315 -0.010095829181409499 -0.021598870881007315 -9999.7294251759267 0.32996888824845882 0.015823421929620676 -0.0060409910620364826 0.015823421929620676 -2499.7827397289093 0.013059147471722099 -0.0060409910620364826 0.013059147471722099 -9999.6321863685007 0.33360616391360054 0.0067123938869958245 -0.0054171648444025777 0.0067123938869958245 -2499.7616782139194 -0.026673308582530808 -0.0054171648444025777 -0.026673308582530808 -9999.643002874569 0.40122978024916123 0.001328686577974289 -0.035449914417279405 0.001328686577974289 -2499.7141627897231 -0.044219516728057351 -0.035449914417279405 -0.044219516728057351 -9999.5837050823411 0.31355644307268449 0.001390687319668917 0.0085883007760685359 0.001390687319668917 -2499.7859460040577 -0.011318126817513985 0.0085883007760685359 -0.011318126817513985 -9999.6837319817223 0.30891971016808384 0.0034161140190546238 0.017132831077906002 0.0034161140190546238 -2499.7645164883979 -0.079797243234684928 0.017132831077906002 -0.079797243234684928 -9999.719999773366 0.36086683914663809 -0.010313370991113624 -0.0033362657477482571 -0.010313370991113624 -2499.7144307309072 -0.092648519554632214 -0.0033362657477482571 -0.092648519554632214 -9999.5484807327775 0.3794436506766693 -0.0014199074144455176 0.015265146385932904 -0.0014199074144455176 -2499.6895012414739 -0.077520230992643102 0.015265146385932904 -0.077520230992643102 -9999.5178619243925 0.31253481243720671 -0.0090202280640832855 -0.0060517780311784009 -0.0090202280640832855 -2499.8044388606772 -0.040427710464427946 -0.0060517780311784009 -0.040427710464427946 -9999.6527883094313 0.29860503421105022 -0.0075980343187550285 -0.0094091149605901592 -0.0075980343187550285 -2499.8119380008789 -0.030505694901421521 -0.0094091149605901592 -0.030505694901421521 -9999.6993940683406 0.34141057334272773 -8.5751307224504747e-06 -0.012676106406615872 -8.5751307224504747e-06 -2499.7576500869777 -0.0052635180388733716 -0.012676106406615872 -0.0052635180388733716 -9999.6741049191569 0.32266435659653325 0.0070964297902356525 -0.011302530411740008 0.0070964297902356525 -2499.7622495739101 -0.0018211485780739167 -0.011302530411740008 -0.0018211485780739167 -9999.6645847348645 0.32590978324424213 -0.026299566509896809 -0.0062986111288410029 -0.026299566509896809 -2499.7658536703257 -0.0013727181926697085 -0.0062986111288410029 -0.0013727181926697085 -9999.6396962947401 0.31842351904106181 0.00018830570379024109 -0.00070636797318002209 0.00018830570379024109 -2499.7983345201737 -0.036745875122846883 -0.00070636797318002209 -0.036745875122846883 -9999.6805701399298 0.32731728075714273 0.0050365163033551374 -0.01806746991314867 0.0050365163033551374 -2499.7550572033601 -0.0047124769121182908 -0.01806746991314867 -0.0047124769121182908 -9999.6348096264755 0.32038111487781862 0.011097770663977885 0.00063858478733891388 0.011097770663977885 -2499.8186288985321 -0.014338956248138857 0.00063858478733891388 -0.014338956248138857 -9999.7132082940261 0.32211561907661235 -0.023365992301750939 -0.0099474679918785114 -0.023365992301750939 -2499.7826537733945 0.0098228460308291687 -0.0099474679918785114 0.0098228460308291687 -9999.6850059535154 0.34827909499745147 0.0066261747604721838 -0.021272315440910461 0.0066261747604721838 -2499.7569786321883 -0.0035838245298691618 -0.021272315440910461 -0.0035838245298691618 -9999.6296298833677 0.35931743635774183 0.008250716563612169 -0.011539529937181214 0.008250716563612169 -2499.755981962624 0.00024096456479583139 -0.011539529937181214 0.00024096456479583139 -9999.6502920641651 0.32338861147945863 -0.021647125883321017 -0.012417813218235096 -0.021647125883321017 -2499.765634579624 0.016128485067383735 -0.012417813218235096 0.016128485067383735 -9999.6803675067513 0.3340879658180711 -0.0028679518881505779 -0.010980492648741347 -0.0028679518881505779 -2499.7725319095234 0.0039374112527719163 -0.010980492648741347 0.0039374112527719163 -9999.6855750232535 0.32543516149780771 0.0008735153169999526 -0.0055601984149689088 0.0008735153169999526 -2499.783185036481 -0.0027697229506884469 -0.0055601984149689088 -0.0027697229506884469 -9999.700470903892 0.33059827902525285 -0.0015672949865741075 -0.0084015577749596559 -0.0015672949865741075 -2499.7761171196353 0.00140778753120685 -0.0084015577749596559 0.00140778753120685 -9999.6896960258764 0.32312702331901733 -0.0018941022026919057 0.0038429217720477027 -0.0018941022026919057 -2499.769287662697 0.0041814687619989854 0.0038429217720477027 0.0041814687619989854 -9999.6430944539097 0.3416381923260019 -0.0012658413100298169 -0.00018017746697296388 -0.0012658413100298169 -2499.7506790962625 -0.00204443455368164 -0.00018017746697296388 -0.00204443455368164 -9999.5898975249147 0.3205719345092356 -0.0030589790455087251 0.11537854713502554 -0.0030589790455087251 -2499.7618054673185 0.035676352888346335 0.11537854713502554 0.035676352888346335 -9999.6632686594785 0.3363161633462165 0.0032732327424692276 -0.01905376865992775 0.0032732327424692276 -2499.7636663075787 0.012794502269121157 -0.01905376865992775 0.012794502269121157 -9999.6009249749895 0.30944950060677456 -0.00038910075977977346 0.096734496159115224 -0.00038910075977977346 -2499.7823457866934 0.065022839955418021 0.096734496159115224 0.065022839955418021 -9999.68933062617 0.34028187206894889 0.010951261870009919 -0.0068101163010368254 0.010951261870009919 -2499.7418811014368 0.02594839000896787 -0.0068101163010368254 0.02594839000896787 -9999.6122547784635 0.31130045822021657 0.006564041255372105 0.020821870000872877 0.006564041255372105 -2499.7668825735973 -0.072987268312772358 0.020821870000872877 -0.072987268312772358 -9999.7339008462222 0.29035934271996666 0.0091151237875189833 -0.025915176031276133 0.0091151237875189833 -2499.8040198779454 -0.0013191613888920983 -0.025915176031276133 -0.0013191613888920983 -9999.7940941558481 0.36465127793559438 0.004647296091683505 -0.024455137424464396 0.004647296091683505 -2499.7464508892454 -0.011745296599732502 -0.024455137424464396 -0.011745296599732502 -9999.6317298985778 0.3463012147030895 -0.0051520356999183222 0.072003882226603283 -0.0051520356999183222 -2499.762513676118 0.087840800614767678 0.072003882226603283 0.087840800614767678 -9999.6097647646311 0.1930785353004012 0.0071876884626536413 0.086121544935394923 0.0071876884626536413 -2499.824716226819 0.060202389392543409 0.086121544935394923 0.060202389392543409 -9999.8901832095307 0.25603785817713742 0.0030906571657410074 -0.0036049885502507095 0.0030906571657410074 -2499.8101794402505 0.0086965716307076946 -0.0036049885502507095 0.0086965716307076946 -9999.8028301397371 0.2506374616341418 0.0063143528041530927 0.001673882978934671 0.0063143528041530927 -2499.8204926562785 -0.0031942727928253589 0.001673882978934671 -0.0031942727928253589 -9999.8255356894151 0.24136927373638173 -0.0057350631636587691 0.067370135275859305 -0.0057350631636587691 -2499.7976147469149 0.03167319794557609 0.067370135275859305 0.03167319794557609 -9999.6618066491865 0.2641945759370401 0.0010231337916178258 0.012978910927358811 0.0010231337916178258 -2499.8129357576208 -0.0054976463807179243 0.012978910927358811 -0.0054976463807179243 -9999.8110321611966 0.24492722968034286 0.0016481874860348981 -0.0047457840919378214 0.0016481874860348981 -2499.8370818994899 -0.0016909726534777292 -0.0047457840919378214 -0.0016909726534777292 -9999.8206799007457 0.22327009961736621 -0.014521124497708697 0.0061327104085648898 -0.014521124497708697 -2499.8151703537428 -0.020729946395476873 0.0061327104085648898 -0.020729946395476873 -9999.8107128816482 0.29709077054121735 -0.011005411182408532 0.00073455348231227235 -0.011005411182408532 -2499.7855057228426 0.06434716108076409 0.00073455348231227235 0.06434716108076409 -9999.6481171454725 0.19825875928279402 -0.0025457738063347293 0.032390710592380856 -0.0025457738063347293 -2499.8435930613759 -0.063879911048388749 0.032390710592380856 -0.063879911048388749 -9999.8340319321269 0.29180886015683427 0.0073513823790616693 -0.0091292390857743017 0.0073513823790616693 -2499.7683553617717 -0.070518199507436374 -0.0091292390857743017 -0.070518199507436374 -9999.7131841178634 0.22941802963941882 0.0044913759128259838 0.0093744298965166423 0.0044913759128259838 -2499.8427312253953 -0.076473749282979703 0.0093744298965166423 -0.076473749282979703 -9999.7594259713824 0.16942194690065385 0.0042053825230396078 0.072894711380068075 0.0042053825230396078 -2499.879328111635 0.020867528218976084 0.072894711380068075 0.020867528218976084 -9999.9435228674865 0.31332016605119861 0.0040151662379470463 -0.015597038603225144 0.0040151662379470463 -2499.7773588053515 -0.0080228595088556176 -0.015597038603225144 -0.0080228595088556176 -9999.7024330246895 0.30897770727824536 0.00084132414604450576 0.00076366814802497629 0.00084132414604450576 -2499.7849635734692 -1.384004826832097e-05 0.00076366814802497629 -1.384004826832097e-05 -9999.7056359457456 0.30910818691609165 -0.00014057875233036324 -0.00021717328570503014 -0.00014057875233036324 -2499.7842553664605 0.00014588287103833864 -0.00021717328570503014 0.00014588287103833864 -9999.7057177134993 0.28288590400097746 0.0057687022688629802 -0.022143317096379178 0.0057687022688629802 -2499.7907620929154 0.018578989685920533 -0.022143317096379178 0.018578989685920533 -9999.7194624910517 0.2488707176112257 -0.0045226819281044446 -0.031071057080225728 -0.0045226819281044446 -2499.8073480215403 0.00041552774814590521 -0.031071057080225728 0.00041552774814590521 -9999.7705909776832 0.26526809915372951 0.0018757274012541568 0.0014603365930270229 0.0018757274012541568 -2499.8040058427082 0.0073727165797663474 0.0014603365930270229 0.0073727165797663474 -9999.7780631356181 0.3194273271574275 0.016484412830337095 -0.0030652462345699405 0.016484412830337095 -2499.759970741231 -0.0022357696279868833 -0.0030652462345699405 -0.0022357696279868833 -9999.696648266834 0.26896138061965758 0.00025069234523125011 -0.025185123352457595 0.00025069234523125011 -2499.8090671692794 0.00073462344062136253 -0.025185123352457595 0.00073462344062136253 -9999.7634721442864 0.23023200910211017 -0.005833138351893901 0.015345682528277393 -0.005833138351893901 -2499.8217656766828 -0.014538129053221382 0.015345682528277393 -0.014538129053221382 -9999.7875400208832 0.25195075183728477 0.00060583624569024788 -0.030145306922349846 0.00060583624569024788 -2499.8055744366575 -0.015167533571684544 -0.030145306922349846 -0.015167533571684544 -9999.7507896237785 0.26862960397102142 0.0098794474359827321 -0.018430769737278752 0.0098794474359827321 -2499.7804495534556 -5.1532132602005731e-05 -0.018430769737278752 -5.1532132602005731e-05 -9999.709656061088 0.20974594006293046 0.0011077297192008811 0.003777252595682512 0.0011077297192008811 -2499.8297183445202 -0.0065086413139852084 0.003777252595682512 -0.0065086413139852084 -9999.8113013535512 0.29188940065705538 0.020856499955594847 -0.014305727713121996 0.020856499955594847 -2499.8199830334283 -0.016552217954085791 -0.014305727713121996 -0.016552217954085791 -9999.7249739610015 0.21288639306840196 0.0011195373607931491 -0.0043002280169730511 0.0011195373607931491 -2499.8247951769335 -0.0115035479249741 -0.0043002280169730511 -0.0115035479249741 -9999.7969446007919 0.282754612181634 -0.0035973895899176073 -0.013943970621767221 -0.0035973895899176073 -2499.7928983688776 -0.017840420715856453 -0.013943970621767221 -0.017840420715856453 -9999.7204279035941 0.29416308519284939 0.01183061996151763 -0.023512166881118901 0.01183061996151763 -2499.7914421609066 -0.0030300976522994461 -0.023512166881118901 -0.0030300976522994461 -9999.7050641091591 0.3094097015200532 0.02190272083683438 -0.012716474042463233 0.02190272083683438 -2499.7835681729703 0.0023013377331153606 -0.012716474042463233 0.0023013377331153606 -9999.6872900671951 0.23703523678523197 0.0093503322129580707 0.0061516346979715308 0.0093503322129580707 -2499.7919142309856 0.0088535500726720784 0.0061516346979715308 0.0088535500726720784 -9999.7404582440176 0.31515605604545271 0.022520792062050658 -0.01924737161482426 0.022520792062050658 -2499.7932708569824 -0.031225993361204019 -0.01924737161482426 -0.031225993361204019 -9999.661563426178 0.27029380493877397 -0.0016325146116635825 -0.0038462749794234696 -0.0016325146116635825 -2499.8082709879059 -0.016860826039902577 -0.0038462749794234696 -0.016860826039902577 -9999.6871541108485 0.26336101344782037 0.00098523957952603367 0.0073682291408658784 0.00098523957952603367 -2499.8033766230992 -0.027517267203620577 0.0073682291408658784 -0.027517267203620577 -9999.6683100853097 0.24818698595640853 3.8072345099504634e-05 -0.0041451926849731535 3.8072345099504634e-05 -2499.8160896532872 -0.026191907743623233 -0.0041451926849731535 -0.026191907743623233 -9999.7071837243293 0.26134780008112557 -0.0030852390472324853 -0.012356631405964436 -0.0030852390472324853 -2499.8231840922026 -0.03123288159480353 -0.012356631405964436 -0.03123288159480353 -9999.7106502396746 0.23998930435459442 0.0049864159196132511 -0.0058698611564977909 0.0049864159196132511 -2499.8327135423401 -0.065587597656303842 -0.0058698611564977909 -0.065587597656303842 -9999.7265967499789 0.32106759633006732 0.0054961997010772798 -0.022137308115816268 0.0054961997010772798 -2499.7446849921766 -0.090181329911274588 -0.022137308115816268 -0.090181329911274588 -9999.5527672390981 0.36772585601857055 -0.012484131306482224 -0.013116828968091465 -0.012484131306482224 -2499.7126769593783 -0.096926546936689562 -0.013116828968091465 -0.096926546936689562 -9999.5306005869024 0.26242155446041487 -0.01335828419222955 -0.0089525047412917225 -0.01335828419222955 -2499.8023856977879 -0.070617067265591332 -0.0089525047412917225 -0.070617067265591332 -9999.7290287950582 0.27078675593645585 -0.01754146872945123 -0.0047496776271600538 -0.01754146872945123 -2499.7868929139208 -0.033467073294104921 -0.0047496776271600538 -0.033467073294104921 -9999.704616683206 0.29338000407166326 -0.005400335625393847 0.049190714132043956 -0.005400335625393847 -2499.7562102945835 -0.046641361176946006 0.049190714132043956 -0.046641361176946006 -9999.6692259531028 0.32869556904279307 -0.0091843722145805336 -0.019614698299243477 -0.0091843722145805336 -2499.7215392338248 -0.083187390987361581 -0.019614698299243477 -0.083187390987361581 -9999.5491157823362 0.25013935843207946 0.0059069130952504184 0.00038352416231646203 0.0059069130952504184 -2499.7978111346874 -0.025579791964901233 0.00038352416231646203 -0.025579791964901233 -9999.675992014756 0.20215807643216976 -0.016773664359816878 0.040942160938357119 -0.016773664359816878 -2499.864375078273 0.012267255323422432 0.040942160938357119 0.012267255323422432 -9999.7923058181186 0.14345041008573389 -0.02181498883144329 0.038961279153284067 -0.02181498883144329 -2499.9367017591035 -0.03585882360857795 0.038961279153284067 -0.03585882360857795 -9999.9642888122398 0.10915103744264343 0.0060410216484124667 -0.014702913759492731 0.0060410216484124667 -2499.9078798489491 0.022519262976629761 -0.014702913759492731 0.022519262976629761 -9999.846408475556 0.21022970135320956 0.0067599019288498482 0.020524762663616233 0.0067599019288498482 -2499.8489453035495 -0.11585779565643742 0.020524762663616233 -0.11585779565643742 -9999.740862500119 0.21678128491936255 0.03199656580062487 0.093008024567015624 0.03199656580062487 -2499.7828918044152 -0.066583697521143903 0.093008024567015624 -0.066583697521143903 -9999.5998088073466 0.14185407083182461 0.017813551306588748 0.10259366045001662 0.017813551306588748 -2499.8703416933495 0.033540541076190256 0.10259366045001662 0.033540541076190256 -9999.8567785398027 0.15061801965384802 0.0020128635800040623 0.10263880258366953 0.0020128635800040623 -2499.8686780944481 0.015746326768294239 0.10263880258366953 0.015746326768294239 -9999.8703058123065 0.10559262333117658 0.0037164825605778707 -0.022813988013467679 0.0037164825605778707 -2499.873796100891 0.0039814450569792825 -0.022813988013467679 0.0039814450569792825 -9999.8482251397618 0.11495238732186408 -0.0046574992924403417 -0.021640844806825044 -0.0046574992924403417 -2499.8632114590969 -0.0030208246116671944 -0.021640844806825044 -0.0030208246116671944 -9999.8478268105719 0.069364195227683806 0.022237713754771186 -0.036119990131532637 0.022237713754771186 -2499.9088201853592 0.064850904066787007 -0.036119990131532637 0.064850904066787007 -9999.9210107035615 0.12002888732399697 0.0046794127143077128 0.0021208687344369537 0.0046794127143077128 -2499.8688785495692 -0.0014404505773200071 0.0021208687344369537 -0.0014404505773200071 -9999.8385920392539 0.05110194917364197 0.0011126051312454338 -0.016148872563007899 0.0011126051312454338 -2499.9797021686554 -0.025742985116551154 -0.016148872563007899 -0.025742985116551154 -10000.016573504932 0.02994476534281533 0.00045596780768742892 -0.059578252829157505 0.00045596780768742892 -2499.927911670326 0.031906694731949237 -0.059578252829157505 0.031906694731949237 -9999.9772812805313 0.048782353864107703 -0.0045515887331094365 -0.038574921619118574 -0.0045515887331094365 -2499.9170243496883 -0.0806677413111066 -0.038574921619118574 -0.0806677413111066 -9999.8977152001262 0.076935687970944855 0.00061142084423183862 -0.0061846539706493786 0.00061142084423183862 -2499.8409452239625 -0.024314577854511299 -0.0061846539706493786 -0.024314577854511299 -9999.767181558258 0.073104307334925789 -0.01440872115216147 -0.058254653199651396 -0.01440872115216147 -2499.8521284892754 -0.04070105626053111 -0.058254653199651396 -0.04070105626053111 -9999.813174141389 0.047112211869867263 0.011272983898762495 -0.0030394642834671859 0.011272983898762495 -2499.8648195301621 -0.14314067940669067 -0.0030394642834671859 -0.14314067940669067 -9999.7427903206662 0.055803357582590252 -0.0069494731067732234 -0.015495324725179671 -0.0069494731067732234 -2499.9057556647649 0.02604015980659824 -0.015495324725179671 0.02604015980659824 -9999.8582912452912 0.048929973929261905 -0.024472401732479627 -0.025369857667101314 -0.024472401732479627 -2499.8827160208971 -0.0017270206576540659 -0.025369857667101314 -0.0017270206576540659 -9999.8685666748861 0.078541863054852001 -0.022306677441371416 -0.0064380921803603997 -0.022306677441371416 -2499.8835482997847 -0.0071881661551742582 -0.0064380921803603997 -0.0071881661551742582 -9999.8438637585768 0.18833494516638893 0.00018243843530799803 0.0026179389114986407 0.00018243843530799803 -2499.827932313262 -0.012661301931075286 0.0026179389114986407 -0.012661301931075286 -9999.8067018777474 0.11316017722572269 -0.0036549477215583812 -0.018430880992127641 -0.0036549477215583812 -2499.852110276589 -0.011307282481993752 -0.018430880992127641 -0.011307282481993752 -9999.8376800878159 0.10490411633418262 0.027461576449385319 -0.024311245165336004 0.027461576449385319 -2499.8306013794972 0.011585232732613804 -0.024311245165336004 0.011585232732613804 -9999.8379259686772 0.12679655278770952 -0.0065543308811006756 -0.007959464106534142 -0.0065543308811006756 -2499.8646962400717 -0.019575618900489644 -0.007959464106534142 -0.019575618900489644 -9999.8280663348214 0.18505178700388569 -0.017275834763049849 -0.021725019119912758 -0.017275834763049849 -2499.8407262084124 -0.014670792822471412 -0.021725019119912758 -0.014670792822471412 -9999.8023208696795 0.070197672650465393 -0.02154728282640854 0.001662169573137362 -0.02154728282640854 -2499.8762769555251 -0.01505944801010628 0.001662169573137362 -0.01505944801010628 -9999.8480101065143 0.034375884168184712 -0.009009396367583633 -0.015322867187933298 -0.009009396367583633 -2499.9093394906704 0.0009666055666457396 -0.015322867187933298 0.0009666055666457396 -9999.8927108883836 0.095203052004535493 0.0050264543076695319 -0.024041965977176005 0.0050264543076695319 -2499.8946476033479 -0.0043510801897355122 -0.024041965977176005 -0.0043510801897355122 -9999.8723164114654 0.10547199932989315 -0.0087422021067845614 -0.023815385929992772 -0.0087422021067845614 -2499.8843290945597 0.0012282330553716747 -0.023815385929992772 0.0012282330553716747 -9999.8687703528994 0.10601627697462845 0.00097125462030193694 -0.022338269058309379 0.00097125462030193694 -2499.8657709233662 0.013563486287239357 -0.022338269058309379 0.013563486287239357 -9999.8394226920936 0.12982827220002946 -0.0089267148155304267 -0.01072634267848116 -0.0089267148155304267 -2499.8530001690397 -0.006558209994182107 -0.01072634267848116 -0.006558209994182107 -9999.8364587960023 0.13077761102931618 0.0014859055284469711 -0.012765815349666809 0.0014859055284469711 -2499.8558947141851 0.014820863076238311 -0.012765815349666809 0.014820863076238311 -9999.836639693518 0.13340940930720535 -0.0055444898402828447 -0.011270603694811143 -0.0055444898402828447 -2499.8457647986943 0.0020013999564980622 -0.011270603694811143 0.0020013999564980622 -9999.8128352045642 0.12741622264366015 -0.0021023413316009296 -0.012214955954732432 -0.0021023413316009296 -2499.8626817084487 0.0056320450294151669 -0.012214955954732432 0.0056320450294151669 -9999.8582717045265 0.13007596715669933 -0.016509415040794447 -0.01531870823657755 -0.016509415040794447 -2499.8454037193292 0.00046888410815881798 -0.01531870823657755 0.00046888410815881798 -9999.8238336225259 0.13252609620894873 -0.0030792685436947676 -0.030799530752119608 -0.0030792685436947676 -2499.859578192144 -0.0024240382444986608 -0.030799530752119608 -0.0024240382444986608 -9999.8456134728003 0.13591821470708965 -0.0040164100950316282 -0.033132891463196756 -0.0040164100950316282 -2499.8437766406769 0.0022596080766561499 -0.033132891463196756 0.0022596080766561499 -9999.8426422083157 0.08902381658754166 0.0073406720944582315 -0.027051362179918215 0.0073406720944582315 -2499.8762883753616 0.0036239899036445422 -0.027051362179918215 0.0036239899036445422 -9999.8670997794088 0.091959235092872404 0.0004429251393828966 -0.02984329652190354 0.0004429251393828966 -2499.8728202055154 0.012889432143339263 -0.02984329652190354 0.012889432143339263 -9999.8534238670691 0.087721244078807104 0.007055263279577997 -0.018545383283253614 0.007055263279577997 -2499.8709207993275 0.0089401889931650658 -0.018545383283253614 0.0089401889931650658 -9999.8348173034046 0.086623294099100884 -0.0044986371527114804 -0.012400513298142825 -0.0044986371527114804 -2499.868656835823 -0.0015667532677844445 -0.012400513298142825 -0.0015667532677844445 -9999.8967846487612 0.10080163675002041 -0.0031438027256265135 -0.011817480018407878 -0.0031438027256265135 -2499.8521365938327 0.008288548413929675 -0.011817480018407878 0.008288548413929675 -9999.8528393416964 0.087550722753348964 0.0098148650083286007 -0.021038536039668543 0.0098148650083286007 -2499.8680899001556 0.023307215805289161 -0.021038536039668543 0.023307215805289161 -9999.8330404838889 0.12953812964005462 -0.0080751225939072399 -0.048224657557378203 -0.0080751225939072399 -2499.8602845290829 0.0024993880468517776 -0.048224657557378203 0.0024993880468517776 -9999.9080285212749 0.17313760360775632 -0.0081192058495403521 -0.038437865789092029 -0.0081192058495403521 -2499.8502819248833 -0.0010735192613537947 -0.038437865789092029 -0.0010735192613537947 -9999.9065355001039 0.093566971626387385 -0.0072954414947858509 -0.011903907035957673 -0.0072954414947858509 -2499.8712688423889 0.0053645816468019802 -0.011903907035957673 0.0053645816468019802 -9999.858426244773 0.14172346824047372 0.016250233470809471 -0.030711842744951368 0.016250233470809471 -2499.8588462256939 0.064022655197492562 -0.030711842744951368 0.064022655197492562 -9999.8247198155204 0.080512902107263098 0.011786801864513016 -0.029865441583872276 0.011786801864513016 -2499.8897628414488 0.022425536313927491 -0.029865441583872276 0.022425536313927491 -9999.8481932959585 0.11809016909062804 0.0098552038272185956 -0.064503932816883325 0.0098552038272185956 -2499.8848435680684 0.0241687608915723 -0.064503932816883325 0.0241687608915723 -9999.8666553054591 0.15606774191742254 0.0080936795242193757 0.017456651713693316 0.0080936795242193757 -2499.8626130257171 -0.08096552742066454 0.017456651713693316 -0.08096552742066454 -9999.772654271379 0.046461083962441807 0.022789086622155917 -0.032784273720175505 0.022789086622155917 -2499.9025265813707 0.021086887707681745 -0.032784273720175505 0.021086887707681745 -9999.8191579113845 0.081168639030638368 -0.011513168821989751 -0.019506364501445522 -0.011513168821989751 -2499.8870343673148 -0.019958301658563077 -0.019506364501445522 -0.019958301658563077 -9999.8849593268751 0.015916029404355603 0.010633242278885116 -0.018842189688422661 0.010633242278885116 -2499.9029188710215 0.0254247494674259 -0.018842189688422661 0.0254247494674259 -9999.8375202032767 0.027265738934147521 0.0082665318695795548 -0.012623162802128718 0.0082665318695795548 -2499.880122302995 0.010406391254946357 -0.012623162802128718 0.010406391254946357 -9999.8114114869459 0.048225525994894269 0.0076386643593596365 -0.032807835854505085 0.0076386643593596365 -2499.8665373436188 0.042940070975843736 -0.032807835854505085 0.042940070975843736 -9999.7525723317976 0.13637541262914965 0.00528401952012994 -0.022940324878163665 0.00528401952012994 -2499.8775668890012 -0.099000440698773673 -0.022940324878163665 -0.099000440698773673 -9999.7632805387511 0.042235167372642546 0.0083115221868300705 -0.026168670587861459 0.0083115221868300705 -2499.8436370548702 0.041510235767381276 -0.026168670587861459 0.041510235767381276 -9999.7544087562801 0.057010718144738348 0.010273548832039937 -0.00154114144037798 0.010273548832039937 -2499.8791878674574 0.0063952327955121291 -0.00154114144037798 0.0063952327955121291 -9999.6915535341504 0.15031868351115918 0.021164835471974043 -0.01475950256053693 0.021164835471974043 -2499.8519716546225 0.028812403869778791 -0.01475950256053693 0.028812403869778791 -9999.7423779345118 0.1650867509552098 -0.0040069558070681514 -0.026044572787022213 -0.0040069558070681514 -2499.8253393473187 0.046760300246106369 -0.026044572787022213 0.046760300246106369 -9999.8095710112411 0.097736895807732468 -0.0045364858975627106 -0.018536989776191261 -0.0045364858975627106 -2499.8428406613143 0.042903180515374784 -0.018536989776191261 0.042903180515374784 -9999.8203570250189 0.11080258233937318 -0.0026368765317997664 -0.0098896263470020784 -0.0026368765317997664 -2499.8775981656013 0.021833850836587343 -0.0098896263470020784 0.021833850836587343 -9999.7367239152209 0.082530139243317535 -0.0058995592278637144 -0.017674988118415058 -0.0058995592278637144 -2499.9044677533548 0.0060783557391630438 -0.017674988118415058 0.0060783557391630438 -9999.8183542045335 0.050841406050881249 -0.0032996223751789629 0.022374448378580047 -0.0032996223751789629 -2499.8371025437227 -0.038481394899016363 0.022374448378580047 -0.038481394899016363 -9999.7700908192655 0.051049048846362965 -0.026505931813888172 -0.015358457142020887 -0.026505931813888172 -2499.8938659718578 -0.085209684772701355 -0.015358457142020887 -0.085209684772701355 -9999.6872556732851 0.033140547852326563 -0.042773600793524512 -0.036950914031832538 -0.042773600793524512 -2499.8877815982228 -0.018610216460729134 -0.036950914031832538 -0.018610216460729134 -9999.8033096739055 0.19237542858081724 0.032290231201561707 0.017742086377438682 0.032290231201561707 -2499.8106642893536 -0.0021486657979039592 0.017742086377438682 -0.0021486657979039592 -9999.8071168683127 0.19967581141736446 0.01620328803211149 0.05025843106395933 0.01620328803211149 -2499.8331726397578 -0.077851595751636249 0.05025843106395933 -0.077851595751636249 -9999.6697592860492 0.11891346012544091 -0.011369619941372183 -0.03450167628852796 -0.011369619941372183 -2499.8639268612887 -0.038530107027327176 -0.03450167628852796 -0.038530107027327176 -9999.8277648543444 0.11272862337591505 -0.013461288822145206 -0.032421379740299017 -0.013461288822145206 -2499.8819314021607 -0.035290036314393092 -0.032421379740299017 -0.035290036314393092 -9999.8940960663604 0.14007952755127917 -0.0096412199818197777 -0.012180353145140543 -0.0096412199818197777 -2499.8753944687887 -0.020418243939275271 -0.012180353145140543 -0.020418243939275271 -9999.846982818839 0.10306213662420305 -0.0028233742075586552 -0.023727317928432967 -0.0028233742075586552 -2499.9241530532327 0.0079864476635975734 -0.023727317928432967 0.0079864476635975734 -9999.9415575530256 0.14472596443965813 0.013977050295195722 0.063705361923183546 0.013977050295195722 -2499.8756079045534 0.043368065686536283 0.063705361923183546 0.043368065686536283 -9999.8443880897521 0.058524864133687515 0.012764277337047821 -0.015022240886082727 0.012764277337047821 -2499.8829823027399 -0.02311106779916372 -0.015022240886082727 -0.02311106779916372 -9999.8686690782997 0.039647527563829499 0.015874983068289498 -0.028504917427198961 0.015874983068289498 -2499.8752654093687 -0.0089838481721926655 -0.028504917427198961 -0.0089838481721926655 -9999.8696798198034 0.043160711925338546 -0.0050111050329693096 -0.0097670386047059299 -0.0050111050329693096 -2499.8310724180606 0.093265985638756821 -0.0097670386047059299 0.093265985638756821 -9999.7903073447451 0.069238527881153922 0.0090923454667013182 -0.0048855147433641832 0.0090923454667013182 -2499.8394964174586 0.011519893210868021 -0.0048855147433641832 0.011519893210868021 -9999.8057294140999 0.025042106278749726 -0.025735197692951552 -0.038848102045484667 -0.025735197692951552 -2499.8757320527588 0.0060887478416922769 -0.038848102045484667 0.0060887478416922769 -9999.7808542419716 0.06649099747043033 0.0062308996349003769 -0.021141432286277101 0.0062308996349003769 -2499.8791088213957 0.046208247516627859 -0.021141432286277101 0.046208247516627859 -9999.8835765447857 0.20434421034678962 0.02046616771300945 -0.0020993865505261056 0.02046616771300945 -2499.7742563562724 0.021705683911932283 -0.0020993865505261056 0.021705683911932283 -9999.7615522470205 0.15469804597113421 -0.0017026612282547912 0.046599248713730557 -0.0017026612282547912 -2499.8326792100638 0.05834213247057779 0.046599248713730557 0.05834213247057779 -9999.8307551739381 0.26960635503110097 0.0070342890816358413 -0.011501834962473367 0.0070342890816358413 -2499.7918819902288 0.0052946414084544813 -0.011501834962473367 0.0052946414084544813 -9999.7570175406927 0.19558002976145872 0.036437010465177846 0.014691096391686642 0.036437010465177846 -2499.8174851085319 0.0056132185204660345 0.014691096391686642 0.0056132185204660345 -9999.7800236198527 0.2453029683216898 -0.0064918272010730735 0.030452217095592121 -0.0064918272010730735 -2499.8183965863282 0.010130457155956923 0.030452217095592121 0.010130457155956923 -9999.7275502786197 0.35053724254112084 0.0074691766488010486 0.046412080834287051 0.0074691766488010486 -2499.7371358065147 0.078866545793570553 0.046412080834287051 0.078866545793570553 -9999.5914787621878 0.28117282947024735 -0.012706702812740195 -0.0074542941006550123 -0.012706702812740195 -2499.7901255427773 0.031984140448845455 -0.0074542941006550123 0.031984140448845455 -9999.66774599565 0.30123236644870133 -0.011294304246784532 0.0077084206226013807 -0.011294304246784532 -2499.7972180372617 0.045766459976523399 0.0077084206226013807 0.045766459976523399 -9999.690196890213 0.31634916674062197 -0.0038614371497256023 0.018203319547865249 -0.0038614371497256023 -2499.7696134331768 0.0067988056007379782 0.018203319547865249 0.0067988056007379782 -9999.6260810221756 0.27652924467195827 -0.003023964077907307 0.0216763342400106 -0.003023964077907307 -2499.8169414773388 0.030563503097184308 0.0216763342400106 0.030563503097184308 -9999.7483120245233 0.25821863602186745 -0.0063562212346037761 -0.001613156936447202 -0.0063562212346037761 -2499.8087608962023 0.0071836203652302089 -0.001613156936447202 0.0071836203652302089 -9999.741197988762 0.25837344393060724 -0.0070357786639836184 -0.0014634878612251384 -0.0070357786639836184 -2499.8079487791006 0.007867852747311832 -0.0014634878612251384 0.007867852747311832 -9999.741361818662 0.20922958121991542 0.0037247064413055584 -0.045274200787112306 0.0037247064413055584 -2499.8342618439451 0.035947067209235684 -0.045274200787112306 0.035947067209235684 -9999.7609052072748 0.26827176666074593 0.0061896968491681054 -0.011715055803506402 0.0061896968491681054 -2499.796522311306 0.008499177165731453 -0.011715055803506402 0.008499177165731453 -9999.7616951181699 0.21353293564516207 -0.011378843528715869 -0.046070424470744886 -0.011378843528715869 -2499.8184154917817 -0.010414641525184704 -0.046070424470744886 -0.010414641525184704 -9999.7577340074604 0.27718295509754759 -0.0054079145746052833 -0.024629693771217986 -0.0054079145746052833 -2499.8176272640667 0.025109356427530649 -0.024629693771217986 0.025109356427530649 -9999.7501729450578 0.27242144868796458 -0.0043877246164043971 -0.021646585812277408 -0.0043877246164043971 -2499.8012319596737 -0.0032190986189561954 -0.021646585812277408 -0.0032190986189561954 -9999.7844647580423 0.25314530167793237 -0.0095057109808820012 -0.0069699926798421075 -0.0095057109808820012 -2499.8176731817362 0.024120828770492153 -0.0069699926798421075 0.024120828770492153 -9999.8194048396617 0.27917421718848345 -0.00051037800343206943 -0.0062435763447865611 -0.00051037800343206943 -2499.7946174765152 -0.0020736597389543476 -0.0062435763447865611 -0.0020736597389543476 -9999.7630995727086 0.26333194803100923 -0.01057038266030998 -0.00076005979633464449 -0.01057038266030998 -2499.8238071176152 0.0052677645917356131 -0.00076005979633464449 0.0052677645917356131 -9999.7771923072032 0.24532306172659446 0.0019616678225951828 0.06013913197596582 0.0019616678225951828 -2499.7853207538042 -0.0085136208506329525 0.06013913197596582 -0.0085136208506329525 -9999.6713913031708 0.30100146300674169 0.0161645044821177 -0.031028291284065146 0.0161645044821177 -2499.7714571266815 -0.055794257623666202 -0.031028291284065146 -0.055794257623666202 -9999.6862156190382 0.20593747643055296 0.0018315901826771576 -0.043473195328253826 0.0018315901826771576 -2499.8231481768894 0.04239836265307656 -0.043473195328253826 0.04239836265307656 -9999.784951995749 0.27752666577907803 -0.0021486478432058156 -0.021943173822933204 -0.0021486478432058156 -2499.8015783030341 -0.00045339014650380705 -0.021943173822933204 -0.00045339014650380705 -9999.7398552451668 0.25187508739600162 0.0051013697874839718 -0.030118052081888891 0.0051013697874839718 -2499.8139545903914 0.0031015731494790089 -0.030118052081888891 0.0031015731494790089 -9999.7548040941438 0.2893181691783866 -0.0053507621395133447 -0.017294033380835572 -0.0053507621395133447 -2499.7892821142955 -0.01000911486971745 -0.017294033380835572 -0.01000911486971745 -9999.7090130494616 0.26354124152078384 -0.0085188587176765144 0.0027529826526233592 -0.0085188587176765144 -2499.8199265300364 0.0082827552341768751 0.0027529826526233592 0.0082827552341768751 -9999.7825422764727 0.29475298030138219 -0.0030817962757036747 -0.012322969100296177 -0.0030817962757036747 -2499.7789500061263 0.0021310571595449801 -0.012322969100296177 0.0021310571595449801 -9999.7106442813565 0.29655843354021272 -0.0025057020121865975 -0.0091011669937870465 -0.0025057020121865975 -2499.7895855663842 -6.9460912527574692e-05 -0.0091011669937870465 -6.9460912527574692e-05 -9999.7101462038827 0.20338068798628228 0.010993618436493508 -0.0092094919227747596 0.010993618436493508 -2499.8317836797514 -0.00015466085892512638 -0.0092094919227747596 -0.00015466085892512638 -9999.7897848020111 0.21423864461462472 0.014774097367856509 -0.0047348953094115132 0.014774097367856509 -2499.8153194509714 0.010444750919873513 -0.0047348953094115132 0.010444750919873513 -9999.7505674718868 0.29683866941832093 0.011897246235750033 -0.0080656483241909882 0.011897246235750033 -2499.7803155189654 0.014838717500424536 -0.0080656483241909882 0.014838717500424536 -9999.7143580515749 0.24979409859474799 -0.0027413458013950572 -0.019559775039851957 -0.0027413458013950572 -2499.8302128524765 0.020974063623270922 -0.019559775039851957 0.020974063623270922 -9999.7483778580463 0.27413298133615172 0.0042482048172267656 -0.011961739049866082 0.0042482048172267656 -2499.7947394918629 0.010031864273969404 -0.011961739049866082 0.010031864273969404 -9999.7322610514766 0.28096135364557995 0.0052209547099666912 -0.016307401222547924 0.0052209547099666912 -2499.7912966523454 0.0088194605625631084 -0.016307401222547924 0.0088194605625631084 -9999.71911698851 0.25377126018429408 0.0025992495533658823 -0.031081665690180671 0.0025992495533658823 -2499.80657687848 0.0059185657189573249 -0.031081665690180671 0.0059185657189573249 -9999.7505341571705 0.29260764569608 0.012081802255337115 -0.0044699730078718858 0.012081802255337115 -2499.7799593130867 0.016401732549638837 -0.0044699730078718858 0.016401732549638837 -9999.7224987628288 0.29972782652475871 0.0072176361045077075 -0.010113086305864272 0.0072176361045077075 -2499.7892949222451 0.01332304883908364 -0.010113086305864272 0.01332304883908364 -9999.6861353798031 0.28613051131469547 0.010612117143559613 -0.016909786219912348 0.010612117143559613 -2499.8083465563304 0.023413313720084261 -0.016909786219912348 0.023413313720084261 -9999.7352287668728 0.20001504924039182 -0.0026385467994396242 -0.01738657206260541 -0.0026385467994396242 -2499.838052912577 0.022093071534072806 -0.01738657206260541 0.022093071534072806 -9999.7627077845173 0.13154134805154172 -0.0038053359562311628 -0.0061627220699733698 -0.0038053359562311628 -2499.8599204673792 -0.00060236468857510772 -0.0061627220699733698 -0.00060236468857510772 -9999.8127736071547 0.12107497592842265 -0.002635966748059923 -0.023342388577475504 -0.002635966748059923 -2499.8708419953559 -0.0054196365842926753 -0.023342388577475504 -0.0054196365842926753 -9999.8491349840697 0.19729395395734173 0.011394102680438674 -0.01201509172005899 0.011394102680438674 -2499.8394030251766 0.0050923474227602128 -0.01201509172005899 0.0050923474227602128 -9999.8070341917373 0.11367653542686185 0.00016071508359101136 -0.016014269937841163 0.00016071508359101136 -2499.8700738372272 0.004013277812191518 -0.016014269937841163 0.004013277812191518 -9999.8353118458617 0.058286182879555781 0.0038496582040003363 -0.0098632515237113694 0.0038496582040003363 -2499.8464284522115 -0.00053891838524577906 -0.0098632515237113694 -0.00053891838524577906 -9999.8435968034992 0.055995078369960538 -0.0062905687652260248 -0.0089160213838113123 -0.0062905687652260248 -2499.8613822907118 -0.0090357581257194397 -0.0089160213838113123 -0.0090357581257194397 -9999.8720605175949 0.047121243645960931 -0.00088015508194637035 -0.014217926165656536 -0.00088015508194637035 -2499.8631901036679 -0.010832527129423397 -0.014217926165656536 -0.010832527129423397 -9999.8651810864212 0.063989223680437135 0.0068804518418775773 -0.015861833878261677 0.0068804518418775773 -2499.8604359841875 -0.013492701621544256 -0.015861833878261677 -0.013492701621544256 -9999.854826678933 0.10904361554094066 0.0024903347172147185 -0.023428090951711056 0.0024903347172147185 -2499.8699868423319 -0.0091541699912340846 -0.023428090951711056 -0.0091541699912340846 -9999.8504081228293 0.098364139602040268 -0.0082267252417546483 -0.023755702964990633 -0.0082267252417546483 -2499.8827452566234 -0.0059349915982238599 -0.023755702964990633 -0.0059349915982238599 -9999.8550637367935 0.12198872448664133 0.012444865914139911 -0.022009191411598295 0.012444865914139911 -2499.8711402947338 0.016088391446146488 -0.022009191411598295 0.016088391446146488 -9999.8371154415745 0.12295747366806609 0.00046877618742656359 -0.0088950660915543267 0.00046877618742656359 -2499.8879097753734 -0.0032516069968551164 -0.0088950660915543267 -0.0032516069968551164 -9999.8477737026933 0.13742389339495276 -0.000279727862659198 -0.010058861200377578 -0.000279727862659198 -2499.8535445100788 0.0042588936776155606 -0.010058861200377578 0.0042588936776155606 -9999.796945483562 0.15185056390873797 0.00091160263721727555 -0.011354062562531908 0.00091160263721727555 -2499.8578064183421 -0.015409836581056879 -0.011354062562531908 -0.015409836581056879 -9999.7628126469426 0.12663687474559993 -0.0028151670547586632 -0.0092163979129509244 -0.0028151670547586632 -2499.8793319200922 -0.012511801734945038 -0.0092163979129509244 -0.012511801734945038 -9999.8265254535072 0.1254028001194456 0.015119062952140331 -0.024752765538778476 0.015119062952140331 -2499.8845410063245 0.0097248843771922111 -0.024752765538778476 0.0097248843771922111 -9999.8106854272246 0.13340582837190595 0.0018808541792705042 -0.0097545896278461441 0.0018808541792705042 -2499.8626192338006 0.011446665118455712 -0.0097545896278461441 0.011446665118455712 -9999.8215037873597 0.097766491695438162 0.0020980095903175818 -0.014405286772671388 0.0020980095903175818 -2499.8604916537029 0.012213450613671739 -0.014405286772671388 0.012213450613671739 -9999.809672033045 0.088297392626373039 -0.011120698637803393 -0.024901517530452111 -0.011120698637803393 -2499.8763569261655 0.0067945705905003706 -0.024901517530452111 0.0067945705905003706 -9999.8455448424866 0.15334639366119518 0.014528423629859118 -0.014544170788667543 0.014528423629859118 -2499.851779032535 -0.0038968567023403011 -0.014544170788667543 -0.0038968567023403011 -9999.8183675023865 0.15200353837008151 -0.01686942001157677 -0.008366556896817201 -0.01686942001157677 -2499.8719712567809 -0.0049845715911942534 -0.008366556896817201 -0.0049845715911942534 -9999.8538437426923 0.070273512250423664 -0.011386978694658626 0.0038558447322429856 -0.011386978694658626 -2499.8850529373358 0.0054203624113142723 0.0038558447322429856 0.0054203624113142723 -9999.8845946878137 0.11574097068046285 -0.00072417051720818221 -0.013067706559013459 -0.00072417051720818221 -2499.8757143680023 0.0011735100197256543 -0.013067706559013459 0.0011735100197256543 -9999.8633513898458 0.15809374348646088 -0.029679200490923652 -0.014276276479449734 -0.029679200490923652 -2499.86608474884 0.012500143015131471 -0.014276276479449734 0.012500143015131471 -9999.8233165541023 0.14617138854919176 0.00030264255302545583 -0.030591425957027241 0.00030264255302545583 -2499.8538237800494 -0.00099878248795448599 -0.030591425957027241 -0.00099878248795448599 -9999.806768449751 0.098997395389972098 -0.0084284468254461429 -0.013033607379838941 -0.0084284468254461429 -2499.8647611201495 -0.00098575479205464944 -0.013033607379838941 -0.00098575479205464944 -9999.8349994236723 0.12839395050650637 0.018735295539680417 -0.027049756312408135 0.018735295539680417 -2499.8726038263685 0.0084299833288241643 -0.027049756312408135 0.0084299833288241643 -9999.8763595525452 0.072634393299495059 -0.016160626929266099 -0.0060755088361474918 -0.016160626929266099 -2499.8844021227442 0.0052557017843355425 -0.0060755088361474918 0.0052557017843355425 -9999.8783337747082 0.094733375159194111 -0.011972598206326738 -0.014534917117089208 -0.011972598206326738 -2499.8768403334561 0.0046395188528549625 -0.014534917117089208 0.0046395188528549625 -9999.8828287069482 0.081440375050078728 6.5856168845815355e-06 -0.025000529531098437 6.5856168845815355e-06 -2499.8868256995556 -3.6761031878995709e-05 -0.025000529531098437 -3.6761031878995709e-05 -9999.8823598619056 0.10859966327507209 0.0065473046970106058 -0.013091970326058799 0.0065473046970106058 -2499.8662498120143 -0.0033000761832226999 -0.013091970326058799 -0.0033000761832226999 -9999.8610990847847 0.096676739460917815 -0.0035370463022645557 -0.0040426930399917183 -0.0035370463022645557 -2499.8718399737963 -0.0069940911471348954 -0.0040426930399917183 -0.0069940911471348954 -9999.872246879906 0.24984904177563294 0.011603014863019102 -0.026925243764708284 0.011603014863019102 -2499.8114002080611 -6.1745300627080724e-05 -0.026925243764708284 -6.1745300627080724e-05 -9999.7838586086436 0.10375609854054346 -0.0013245130656597583 -0.012778189004166052 -0.0013245130656597583 -2499.8623591986743 0.0016093540398287587 -0.012778189004166052 0.0016093540398287587 -9999.8355975184313 0.1040333945875318 0.0035831240985689586 -0.011379299196050852 0.0035831240985689586 -2499.8676082970187 0.011364074163793703 -0.011379299196050852 0.011364074163793703 -9999.8374239278892 0.097486397842658334 0.00075375926760263764 -0.0023591415792907355 0.00075375926760263764 -2499.8771700142242 0.0020617013269657036 -0.0023591415792907355 0.0020617013269657036 -9999.8765755031782 0.055794889478420373 0.0029713380799061204 -0.003871959953357873 0.0029713380799061204 -2499.8766313054566 0.013905526448070304 -0.003871959953357873 0.013905526448070304 -9999.8961902378505 0.052761418147611039 0.0017573404835828921 -0.012501748342401697 0.0017573404835828921 -2499.8531369629791 -0.0031470164449274307 -0.012501748342401697 -0.0031470164449274307 -9999.8806208715323 0.056191418765592971 -0.0041301051271346451 -0.010368323917646194 -0.0041301051271346451 -2499.8531142897318 -0.0024540858639738872 -0.010368323917646194 -0.0024540858639738872 -9999.8450935623587 0.19448476315756125 -0.011578571017085162 -0.011046232390071964 -0.011578571017085162 -2499.8548799231239 -0.0055618243745811924 -0.011046232390071964 -0.0055618243745811924 -9999.812546038489 0.10048265578552673 -0.0094769581349062881 -0.0066600463678696542 -0.0094769581349062881 -2499.87900996998 -0.0025948618513211841 -0.0066600463678696542 -0.0025948618513211841 -9999.8400658465071 0.27620889055015141 0.017625790895489126 -0.013278611688292585 0.017625790895489126 -2499.7961589360375 -0.024479913824507094 -0.013278611688292585 -0.024479913824507094 -9999.7341485336092 0.24583006400280283 0.01234900620135114 -0.03097265268661431 0.01234900620135114 -2499.8054206786446 -0.025961430768802529 -0.03097265268661431 -0.025961430768802529 -9999.7644915201199 0.21453439364449878 -0.01446835782824784 -0.020568149124301272 -0.01446835782824784 -2499.8455014485089 -0.0027867577146025724 -0.020568149124301272 -0.0027867577146025724 -9999.7944872907956 0.2908214516028238 0.0053515309095563054 -0.025387411686097039 0.0053515309095563054 -2499.7907923489947 0.015143597873247927 -0.025387411686097039 0.015143597873247927 -9999.7429983335205 0.24680569886186277 -0.002289420769440019 -0.0035178447990347195 -0.002289420769440019 -2499.8417529934395 0.0036462333853251039 -0.0035178447990347195 0.0036462333853251039 -9999.7684368687187 0.2956026056472183 -0.0017418784692510951 -0.023711922254733508 -0.0017418784692510951 -2499.7717234306674 -0.0020707868679892272 -0.023711922254733508 -0.0020707868679892272 -9999.7007598244418 0.23267757218127372 0.010422705834985422 -0.019324368930256242 0.010422705834985422 -2499.8182692487462 0.0010464717771014875 -0.019324368930256242 0.0010464717771014875 -9999.7972754447255 0.28592925474731601 0.020736626247579847 -0.0051528490303098806 0.020736626247579847 -2499.7845657268626 -0.016938228956860257 -0.0051528490303098806 -0.016938228956860257 -9999.7162790212096 0.29434206992664258 -0.0009153362814818258 -0.025365693260027911 -0.0009153362814818258 -2499.7896012317706 -0.00044400069873518078 -0.025365693260027911 -0.00044400069873518078 -9999.7074947681394 0.269175383476977 -0.00040129387159060909 -0.0067435104632380671 -0.00040129387159060909 -2499.8100103136294 -0.002691264823624806 -0.0067435104632380671 -0.002691264823624806 -9999.763698914343 0.28660173046955606 -0.0026557890980786784 -0.010924183690121936 -0.0026557890980786784 -2499.7927054907123 0.012293138735913089 -0.010924183690121936 0.012293138735913089 -9999.7138559360792 0.27127329523750632 -0.0015098894929026162 -0.030104036946795532 -0.0015098894929026162 -2499.811830689795 0.00012451026759663364 -0.030104036946795532 0.00012451026759663364 -9999.7752356108813 0.29302921644045909 -0.0014470803691094187 -0.023760730911362771 -0.0014470803691094187 -2499.785611135932 -0.0028987213627260644 -0.023760730911362771 -0.0028987213627260644 -9999.704958581402 0.25660306004101585 0.0051957825871755733 -0.006718816935290306 0.0051957825871755733 -2499.8142567152445 0.00042140591725114973 -0.006718816935290306 0.00042140591725114973 -9999.7603280756884 0.36642039503567503 -0.00057046770286186405 -0.028584840511030052 -0.00057046770286186405 -2499.7616613688133 9.9842605436606391e-05 -0.028584840511030052 9.9842605436606391e-05 -9999.685806499132 0.25172052229663677 0.021998841720761979 -0.032792682268336648 0.021998841720761979 -2499.8170835999508 -0.009211912656610366 -0.032792682268336648 -0.009211912656610366 -9999.7590441684224 0.27552779871484745 -0.0097187506417764653 -0.012639715887416969 -0.0097187506417764653 -2499.8018253393616 -0.0052373622784216423 -0.012639715887416969 -0.0052373622784216423 -9999.7387127124639 0.26426763159724942 0.027853903302239375 -0.019427155017183395 0.027853903302239375 -2499.8096031947189 0.012179278124676785 -0.019427155017183395 0.012179278124676785 -9999.748972702324 0.31420032230562356 0.0019624166269986993 -0.0056703328436924494 0.0019624166269986993 -2499.7839870117782 -0.00133286197342386 -0.0056703328436924494 -0.00133286197342386 -9999.7222022416863 0.29134355081896501 -0.012195695797671711 -0.035531147819710895 -0.012195695797671711 -2499.8081414224953 0.012888650908280397 -0.035531147819710895 0.012888650908280397 -9999.7576568594923 0.27902706516397302 0.00439991887216054 -0.0017486292999819852 0.00439991887216054 -2499.7971962379843 -0.0027839647464134032 -0.0017486292999819852 -0.0027839647464134032 -9999.7333971981479 0.27486990128090838 -0.0011737521357921138 -0.011328689179208595 -0.0011737521357921138 -2499.8069949117926 -0.005269655925076222 -0.011328689179208595 -0.005269655925076222 -9999.7708980752795 0.26524879095086362 0.0068000396748922956 -0.024858751792635303 0.0068000396748922956 -2499.8124361261998 0.0071952182188397273 -0.024858751792635303 0.0071952182188397273 -9999.7717163681409 0.36399527917717478 0.0050690763751664383 -0.024174872964067617 0.0050690763751664383 -2499.7636987390079 0.00099895062885480002 -0.024174872964067617 0.00099895062885480002 -9999.6835433920969 0.32837178545560164 -0.00065942851888213516 -0.022917087342648301 -0.00065942851888213516 -2499.7755250323371 0.0014590492846764391 -0.022917087342648301 0.0014590492846764391 -9999.6954676474561 0.37126317234378803 -0.0046607278442353656 -0.027056799244746799 -0.0046607278442353656 -2499.7521628357508 -0.0010742399790615309 -0.027056799244746799 -0.0010742399790615309 -9999.682353250646 0.31522754556499422 0.012031410249056421 -0.025030113225511741 0.012031410249056421 -2499.7927954768111 -0.0086509032043977641 -0.025030113225511741 -0.0086509032043977641 -9999.7098967455058 0.26156918625201797 -0.0076465390898889131 -0.046423638605119777 -0.0076465390898889131 -2499.8235833566723 -0.0021891981832595775 -0.046423638605119777 -0.0021891981832595775 -9999.7775982530147 0.25542628105358745 0.00063255024211918143 -0.00036286901558924001 0.00063255024211918143 -2499.8195325351717 -0.0014867728168610483 -0.00036286901558924001 -0.0014867728168610483 -9999.7535169477196 0.26327685677460977 -0.005256275806319894 -0.0014428861795749981 -0.005256275806319894 -2499.7994901828115 0.0077134534494689433 -0.0014428861795749981 0.0077134534494689433 -9999.7432619349893 0.32450536022770393 0.0073107457251941829 -0.027078538481873693 0.0073107457251941829 -2499.7731846238366 -0.00040214279761130456 -0.027078538481873693 -0.00040214279761130456 -9999.6980495973457 0.21696768986294046 -0.0075789164092094213 -0.020571093649778049 -0.0075789164092094213 -2499.7971500491731 0.029637698044098215 -0.020571093649778049 0.029637698044098215 -9999.7467621767573 0.31067918809640105 0.0077141986591056921 -0.033293502234300831 0.0077141986591056921 -2499.7866751069705 0.013291247878441936 -0.033293502234300831 0.013291247878441936 -9999.7308712712002 0.31419698603576762 0.012417047860256256 -0.01683624960060115 0.012417047860256256 -2499.7875480830512 -0.00037552438152488321 -0.01683624960060115 -0.00037552438152488321 -9999.7043254664513 0.31469582071622426 -0.0048430651957437065 0.00048183707804128062 -0.0048430651957437065 -2499.7660198672002 -0.0035436903199297376 0.00048183707804128062 -0.0035436903199297376 -9999.7123963566119 0.38929369907782529 0.0076348013375525242 -0.013791430908895563 0.0076348013375525242 -2499.7437043063455 -0.0022714929382345872 -0.013791430908895563 -0.0022714929382345872 -9999.6891144185902 0.32178385771658213 -0.0057277965914735024 -0.0065757168158597779 -0.0057277965914735024 -2499.7730817297543 -0.011306331203741138 -0.0065757168158597779 -0.011306331203741138 -9999.7273162864622 0.27391875117791642 0.010984405722058319 -0.028074002140783705 0.010984405722058319 -2499.8105867154245 0.003250822619520477 -0.028074002140783705 0.003250822619520477 -9999.7708472497325 0.23409216062282212 0.004877792565408638 -0.011697118806523576 0.004877792565408638 -2499.8306423746035 0.0081631469911371823 -0.011697118806523576 0.0081631469911371823 -9999.7739765709048 0.22083519684383646 0.0057772033667363564 -0.031128370485475898 0.0057772033667363564 -2499.8430685054609 0.012899475192170939 -0.031128370485475898 0.012899475192170939 -9999.8034195458458 0.21093373293660989 0.00058425752758923047 -0.037193075714640145 0.00058425752758923047 -2499.8504631624928 -0.0012620182133105118 -0.037193075714640145 -0.0012620182133105118 -9999.8201572416328 0.095982734543213155 0.0033049752264441672 -0.0096498684215475805 0.0033049752264441672 -2499.8983438719806 0.024711303520234651 -0.0096498684215475805 0.024711303520234651 -9999.8690418720507 0.19520089372053917 0.014548715999222084 -0.034520106197305722 0.014548715999222084 -2499.8600468244495 0.020760828478159965 -0.034520106197305722 0.020760828478159965 -9999.8243475550189 0.1811758100084262 0.020339150646639756 -0.0084622892245533876 0.020339150646639756 -2499.8770549599612 -0.0026140745285374578 -0.0084622892245533876 -0.0026140745285374578 -9999.8430959336547 0.21689842472915188 -0.005710711289614593 -0.018326669419366226 -0.005710711289614593 -2499.8386481402413 0.0071772452865843661 -0.018326669419366226 0.0071772452865843661 -9999.788172935383 0.18166843391009024 0.0060494030037830729 0.0059608209892303421 0.0060494030037830729 -2499.8686426884051 -0.0065516727881913539 0.0059608209892303421 -0.0065516727881913539 -9999.8380544617394 0.074955505717298365 -0.0090267410662663895 -0.013605241949335323 -0.0090267410662663895 -2499.9036867595059 0.0048605261672491906 -0.013605241949335323 0.0048605261672491906 -9999.9121930059337 0.086624401449626021 -0.0053281384836220622 -0.02233106344283442 -0.0053281384836220622 -2499.8815985452211 -0.009074954602510843 -0.02233106344283442 -0.009074954602510843 -9999.8800503538405 0.071342234674375504 -0.0019602655616560716 -0.022714330545568373 -0.0019602655616560716 -2499.8868844477365 0.0059592289726424497 -0.022714330545568373 0.0059592289726424497 -9999.9277418223937 0.048665144217011402 -0.013225112138204903 0.0095063805511017563 -0.013225112138204903 -2499.8920719385551 0.00070149488965398632 0.0095063805511017563 0.00070149488965398632 -9999.9551981721306 0.057348409367477871 0.00058424435880118086 -0.0025444010170758702 0.00058424435880118086 -2499.8583574454424 0.027290204565360909 -0.0025444010170758702 0.027290204565360909 -9999.8702011249916 0.039528551675175549 -0.0029385432598195149 -0.0037830956607649568 -0.0029385432598195149 -2499.8943608753361 0.0046368993698706618 -0.0037830956607649568 0.0046368993698706618 -9999.9209036217217 0.093598471094082925 -0.0021032992516967653 -0.015026488599687582 -0.0021032992516967653 -2499.8951998415196 0.009635492715460714 -0.015026488599687582 0.009635492715460714 -9999.902054574286 0.083518400722823571 -0.0058666538603411797 -0.015678517824198934 -0.0058666538603411797 -2499.9230340438298 0.0055175375655380776 -0.015678517824198934 0.0055175375655380776 -9999.9125691538866 0.092081662865894032 -0.0054347424381724352 -0.017427109252821538 -0.0054347424381724352 -2499.8918579485271 -1.052947118296288e-05 -0.017427109252821538 -1.052947118296288e-05 -9999.8662149608499 0.080059796433488373 -0.0045499581020997347 -0.0085887157529214164 -0.0045499581020997347 -2499.9026905240789 -0.02273913624958368 -0.0085887157529214164 -0.02273913624958368 -9999.8999113857062 0.077000264987873379 -0.00050748860529807073 0.0029621988378494279 -0.00050748860529807073 -2499.9053156433984 0.0025592951424187049 0.0029621988378494279 0.0025592951424187049 -9999.9250758449489 0.086499542309866229 -0.0020781645194673931 0.0023537332708656322 -0.0020781645194673931 -2499.9161744276871 0.00091740333255074802 0.0023537332708656322 0.00091740333255074802 -9999.8788655705885 0.073105260074953549 -0.0022823964660691268 -0.02166945330100134 -0.0022823964660691268 -2499.9049199551082 -0.001459156432247255 -0.02166945330100134 -0.001459156432247255 -9999.9344202051798 0.089136558528480236 -0.0015528689137393852 -0.0064497626717638923 -0.0015528689137393852 -2499.8955576898388 0.017723010358167812 -0.0064497626717638923 0.017723010358167812 -9999.893477691352 0.094389308346308098 0.00056372821200582175 -0.00038824929015390808 0.00056372821200582175 -2499.8867862634447 -0.0022656793480564374 -0.00038824929015390808 -0.0022656793480564374 -9999.8726777789725 0.18955720046142233 0.004062885254171561 -0.01368144368098001 0.004062885254171561 -2499.8414438185901 0.0021689134136977373 -0.01368144368098001 0.0021689134136977373 -9999.7916348249855 0.099327332563916571 -0.0028470540878397384 -0.019781710694587673 -0.0028470540878397384 -2499.8911966870091 0.0018692343273869483 -0.019781710694587673 0.0018692343273869483 -9999.9004325032838 0.21489751421995607 0.0016081202241324344 -0.042217813982460939 0.0016081202241324344 -2499.8421440910051 -0.004890289639661205 -0.042217813982460939 -0.004890289639661205 -9999.811971309573 0.14095837978493364 0.0009500104661033568 0.0088908957404782996 0.0009500104661033568 -2499.8640161580133 0.0052817882024100982 0.0088908957404782996 0.0052817882024100982 -9999.8333253620003 0.071587958143936703 -0.00098998320607754896 -0.021408053376944736 -0.00098998320607754896 -2499.9058593942718 -0.0025998958328727895 -0.021408053376944736 -0.0025998958328727895 -9999.9326578629552 0.20784885814282461 0.00027261428273103738 -0.0375552210425667 0.00027261428273103738 -2499.8349203067664 -0.0040406572061328916 -0.0375552210425667 -0.0040406572061328916 -9999.8162935459695 0.093846846757514868 0.0017144723411224513 -0.017621247401621076 0.0017144723411224513 -2499.8884303895284 0.0056701304556554533 -0.017621247401621076 0.0056701304556554533 -9999.8957648070063 0.086862902080611093 -0.0025674239905885822 -0.0036581978220056044 -0.0025674239905885822 -2499.8883467968917 -0.0031256242799599931 -0.0036581978220056044 -0.0031256242799599931 -9999.8770915567766 0.094166513865275192 -0.0050968581334367852 -0.022054252522138995 -0.0050968581334367852 -2499.8924167682435 0.0013875687218387611 -0.022054252522138995 0.0013875687218387611 -9999.9033259923162 0.089504666801076382 -0.0098906427272200444 -0.015448119151642459 -0.0098906427272200444 -2499.8840499307189 0.0020841036821366288 -0.015448119151642459 0.0020841036821366288 -9999.9123828831362 0.22536099651188124 0.00067152871550956329 -0.04411080361387576 0.00067152871550956329 -2499.8318656896372 0.00076472608634503558 -0.04411080361387576 0.00076472608634503558 -9999.8022403231043 0.21786680251170765 0.0031412699153371233 -0.041216172900021775 0.0031412699153371233 -2499.8337063414965 -0.0015505895644309931 -0.041216172900021775 -0.0015505895644309931 -9999.8063491883004 0.086596889032080071 0.0018553285161135771 0.0007794850262143882 0.0018553285161135771 -2499.8830196167874 -0.00018907326011685655 0.0007794850262143882 -0.00018907326011685655 -9999.8727766574593 0.065244792966041132 0.0018501847934591434 -0.017500012496384443 0.0018501847934591434 -2499.9052525675634 0.0025436610885662958 -0.017500012496384443 0.0025436610885662958 -9999.9271781869829 0.064454194529389497 0.0025710195434484068 -0.019607967249612557 0.0025710195434484068 -2499.9032876420169 -0.00044400504089026072 -0.019607967249612557 -0.00044400504089026072 -9999.9321041540097 0.13937236902438599 -0.0052431404571761167 0.0016204679996008053 -0.0052431404571761167 -2499.861384877132 0.0024076362889218217 0.0016204679996008053 0.0024076362889218217 -9999.8311646910224 0.12248389494561707 -0.0028774714216114675 -0.0032152213589142775 -0.0028774714216114675 -2499.8662412603517 0.0018596132576931268 -0.0032152213589142775 0.0018596132576931268 -9999.8344219976025 0.059205246130659361 0.0040659548575053151 -0.020401597001182381 0.0040659548575053151 -2499.9038372817195 0.0023918789811432362 -0.020401597001182381 0.0023918789811432362 -9999.9298670646058 0.12609195710319909 -0.0032824946037823821 0.00058453900692256866 -0.0032824946037823821 -2499.861995794512 -0.00025336252838314977 0.00058453900692256866 -0.00025336252838314977 -9999.8229998648894 0.090876381442285492 -0.0094504319075829953 -0.030771942143474007 -0.0094504319075829953 -2499.893207223804 0.0083355240349192172 -0.030771942143474007 0.0083355240349192172 -9999.9126475290323 0.098497193907860492 -0.00039676243839675482 -0.029797379429510329 -0.00039676243839675482 -2499.8974139242428 8.4382030763663352e-05 -0.029797379429510329 8.4382030763663352e-05 -9999.9198242660823 0.22226768585733225 -0.0032229620702081078 -0.0421562472183723 -0.0032229620702081078 -2499.8330836617724 0.0082840651912192698 -0.0421562472183723 0.0082840651912192698 -9999.8036512370199 0.12427104244443399 -0.0074279998267720616 -0.0080829370781430043 -0.0074279998267720616 -2499.8699405582925 0.012464151483072783 -0.0080829370781430043 0.012464151483072783 -9999.854901062803 0.085889061148918699 0.002972727304791254 -0.012255521021870663 0.002972727304791254 -2499.8936278055844 0.002369199422901147 -0.012255521021870663 0.002369199422901147 -9999.9149980108341 0.087642335407167593 0.0056655446764503131 0.0012139016051833096 0.0056655446764503131 -2499.8816899079852 0.0065811964286695002 0.0012139016051833096 0.0065811964286695002 -9999.8714875760379 0.095811265511656529 0.0073485881513401744 -0.011460746415195899 0.0073485881513401744 -2499.8647389372209 0.002583318007964408 -0.011460746415195899 0.002583318007964408 -9999.8347484395745 0.14423519841875532 -0.0023533768530211857 -0.029622450253555144 -0.0023533768530211857 -2499.8413744499849 -0.0030769695733852132 -0.029622450253555144 -0.0030769695733852132 -9999.802962601967 0.14322075945347024 0.010002200510385256 -0.022587787752854638 0.010002200510385256 -2499.8544899975823 -0.011829027108433365 -0.022587787752854638 -0.011829027108433365 -9999.8164708074219 0.13322279109556234 0.01392456475557541 -0.013412709096883191 0.01392456475557541 -2499.8701010414734 0.013461001819450757 -0.013412709096883191 0.013461001819450757 -9999.8750965484651 0.11437118309368088 -0.0054403939608426728 -0.013465586964684917 -0.0054403939608426728 -2499.8652206748939 0.0030100385535263285 -0.013465586964684917 0.0030100385535263285 -9999.8715127684482 0.14355736551192422 -0.015327365813807586 -0.018414273157759453 -0.015327365813807586 -2499.8552805856762 0.0058596389026206452 -0.018414273157759453 0.0058596389026206452 -9999.8187550605562 0.13047026287870267 -0.0094380991961311653 -0.013506157537449326 -0.0094380991961311653 -2499.8755541371829 -0.0082522390857775463 -0.013506157537449326 -0.0082522390857775463 -9999.8764544526493 0.082633709829678992 0.0086805367124378509 -0.014314460396235518 0.0086805367124378509 -2499.8842563946273 -0.007624048374054837 -0.014314460396235518 -0.007624048374054837 -9999.8906103051631 0.080438301973117632 0.0073292996137168092 -0.00093898802401781722 0.0073292996137168092 -2499.8784226205662 -0.0026940079787891591 -0.00093898802401781722 -0.0026940079787891591 -9999.8764545633967 0.081135373608049122 0.012409099111554836 -0.011264451612305493 0.012409099111554836 -2499.8832452508941 0.001088530872038973 -0.011264451612305493 0.001088530872038973 -9999.8846252971416 0.10153737279040342 -0.012713316487213269 -0.011927258694413467 -0.012713316487213269 -2499.8916332894923 0.0063991827228164766 -0.011927258694413467 0.0063991827228164766 -9999.8806499214897 0.11834780083449914 0.027136137773753823 -0.014387322866241448 0.027136137773753823 -2499.8480222806138 -0.013753017825365532 -0.014387322866241448 -0.013753017825365532 -9999.8240649402578 0.24341236201581751 0.0033595464384683221 -0.022919041948625818 0.0033595464384683221 -2499.8271448016849 -0.0051352662731005694 -0.022919041948625818 -0.0051352662731005694 -9999.7888648873886 0.15361672678045579 -0.0034351957949823736 0.0054259548051049933 -0.0034351957949823736 -2499.8667050039003 -0.00037407402123790234 0.0054259548051049933 -0.00037407402123790234 -9999.8307463238743 0.11252323599092051 0.0020263061688367834 -0.019225904095947044 0.0020263061688367834 -2499.8845344137872 0.0033534188842168078 -0.019225904095947044 0.0033534188842168078 -9999.8835561250344 0.12399061950964096 0.0019625861850189191 -0.013408303064352367 0.0019625861850189191 -2499.8622240864734 -0.0070461379800690338 -0.013408303064352367 -0.0070461379800690338 -9999.8273711200854 0.093180668745844741 -0.0028760841617660529 0.0031000976596260443 -0.0028760841617660529 -2499.894996050074 0.0060610858754444052 0.0031000976596260443 0.0060610858754444052 -9999.883631858509 0.087593487938917747 0.0043416105338048676 0.0045161669595472631 0.0043416105338048676 -2499.9001760972492 -0.00094563915445178282 0.0045161669595472631 -0.00094563915445178282 -9999.8861707897231 0.025025210114606011 -0.0037599296375434299 0.0067104926856700331 -0.0037599296375434299 -2499.8968949371078 0.00061374341021291912 0.0067104926856700331 0.00061374341021291912 -9999.9010282580821 0.057829850034977426 0.003169715032527623 -0.0093789848669985076 0.003169715032527623 -2499.8921940385299 0.0049126949279525434 -0.0093789848669985076 0.0049126949279525434 -9999.8946014620997 0.071111201295934734 -0.015135043959652761 -0.016764464124207734 -0.015135043959652761 -2499.8677422566725 0.011290955023468996 -0.016764464124207734 0.011290955023468996 -9999.8524502449145 0.18660151149697413 -0.018102255611967807 0.0014957983639760641 -0.018102255611967807 -2499.8452139260539 -0.0034014254133580835 0.0014957983639760641 -0.0034014254133580835 -9999.8133172513044 0.12259748332871823 0.00027686608061867207 -0.014082263724048971 0.00027686608061867207 -2499.8804391575159 0.0040605182075523771 -0.014082263724048971 0.0040605182075523771 -9999.8456094541179 0.071229737468456733 -0.0094681699175988634 -0.012975006491615204 -0.0094681699175988634 -2499.876228360934 0.003859013648252585 -0.012975006491615204 0.003859013648252585 -9999.8873008633091 0.064902612579317065 -0.0017605105465088103 0.00080328037074650638 -0.0017605105465088103 -2499.8204167879994 -0.03085422310323338 0.00080328037074650638 -0.03085422310323338 -9999.8602141515876 0.097754542656275589 0.0097312435965896775 -0.017873452118237765 0.0097312435965896775 -2499.9267321965681 -0.0066406262849341147 -0.017873452118237765 -0.0066406262849341147 -9999.9126601438293 0.034083925605955301 0.0076445292569351231 -0.0084003301999473479 0.0076445292569351231 -2499.8726795630646 -0.0029337761679926189 -0.0084003301999473479 -0.0029337761679926189 -9999.9166535474433 0.067688211496715667 -0.00077798753030591805 -0.023829588095395593 -0.00077798753030591805 -2499.8940784422048 -0.0022304890990199056 -0.023829588095395593 -0.0022304890990199056 -9999.9373216066742 0.101466187643382 -0.0026775168032639393 -0.030175141371728387 -0.0026775168032639393 -2499.8738831352603 0.018967028114275308 -0.030175141371728387 0.018967028114275308 -9999.8658593284053 0.046891604531992925 0.016811132219985314 0.010822486739925807 0.016811132219985314 -2499.8773188594769 -0.0075439707652549259 0.010822486739925807 -0.0075439707652549259 -9999.9502339884784 0.071529453964103595 0.0073308877996968516 -0.013235857264589868 0.0073308877996968516 -2499.91188049827 -0.0020025706562591949 -0.013235857264589868 -0.0020025706562591949 -9999.9177184504224 0.063668122034869157 -0.0024190376870936239 -0.019845831673592329 -0.0024190376870936239 -2499.917971905681 0.0034918722158181481 -0.019845831673592329 0.0034918722158181481 -9999.9359513048184 0.085936057492290274 0.0095154390284114196 -0.030341792891704245 0.0095154390284114196 -2499.8954547404664 -0.0099730384499707725 -0.030341792891704245 -0.0099730384499707725 -9999.9077717186956 0.10950188272181549 -0.0037793065850991138 0.0067060439300803409 -0.0037793065850991138 -2499.8923834528978 0.00030235272697609616 0.0067060439300803409 0.00030235272697609616 -9999.8762198449258 0.11010606988202198 0.0038737032929726106 -0.018132600276658195 0.0038737032929726106 -2499.894334644252 -0.0037383096059784293 -0.018132600276658195 -0.0037383096059784293 -9999.902440433827 0.21571182681691425 -0.0046545600032892043 -0.038604463312367443 -0.0046545600032892043 -2499.8324552521372 -0.0024912430517360917 -0.038604463312367443 -0.0024912430517360917 -9999.7987960951832 0.13519801015718258 0.0083677571073955785 -0.0038852134639455471 0.0083677571073955785 -2499.8705148990521 -0.011948791216127574 -0.0038852134639455471 -0.011948791216127574 -9999.8522185123147 0.14856399987911573 -0.021791828359270501 -0.015247855924826581 -0.021791828359270501 -2499.8811473544465 0.012664987727475818 -0.015247855924826581 0.012664987727475818 -9999.8482033690234 0.17831975279295875 -0.022621108461635425 0.0011321977581246756 -0.022621108461635425 -2499.8724583230414 0.0075939846356050111 0.0011321977581246756 0.0075939846356050111 -9999.8265744393684 0.21224554132095363 0.00064449374510418267 -0.03960706812722492 0.00064449374510418267 -2499.8385704126722 -0.001413366930137272 -0.03960706812722492 -0.001413366930137272 -9999.8015301949854 0.096503604000645282 0.0051730894882236426 0.0059664785858331015 0.0051730894882236426 -2499.9229403948329 -0.00081725810741772875 0.0059664785858331015 -0.00081725810741772875 -9999.8860580786659 0.19197376162446744 -0.014323908152944348 -0.027747687057853909 -0.014323908152944348 -2499.8597888895583 -0.020671471376772388 -0.027747687057853909 -0.020671471376772388 -9999.8286205552904 0.11856260546846897 0.0011583962044992291 -0.0091578635319820023 0.0011583962044992291 -2499.893417713829 -0.027212523025809787 -0.0091578635319820023 -0.027212523025809787 -9999.8632279904123 0.26151810483770532 0.00312273971087507 -0.00086839775212865788 0.00312273971087507 -2499.8118533076095 0.0005009166338822979 -0.00086839775212865788 0.0005009166338822979 -9999.7446988979009 0.26652251273026195 0.0053115882327081053 -0.0013051860005361959 0.0053115882327081053 -2499.7949156515306 -0.0011659819638225599 -0.0013051860005361959 -0.0011659819638225599 -9999.7389262928154 0.23895212191746396 0.012141562909632482 -0.0041992038713942748 0.012141562909632482 -2499.8132418928017 0.0035315314044055413 -0.0041992038713942748 0.0035315314044055413 -9999.7723550250994 0.26794433888153435 0.0054533227344376774 -0.022465923044364899 0.0054533227344376774 -2499.8114102597019 0.0036428770208658534 -0.022465923044364899 0.0036428770208658534 -9999.7456196636304 0.23638061423116596 -0.0018011533787809647 -0.023893123619927792 -0.0018011533787809647 -2499.8288270011981 -0.0086661735804227646 -0.023893123619927792 -0.0086661735804227646 -9999.7762441905215 0.30922733720944962 0.0056642587590224058 -0.0015408657673106063 0.0056642587590224058 -2499.7696071863738 0.0093841215748398099 -0.0015408657673106063 0.0093841215748398099 -9999.7243935825136 0.2579869798701111 -0.012772921858277768 -0.02443512121681124 -0.012772921858277768 -2499.8109767041915 -0.0067483855400496395 -0.02443512121681124 -0.0067483855400496395 -9999.7711259973476 0.25124614297146763 0.0068419082838122626 -0.021549104516452644 0.0068419082838122626 -2499.8078123015976 0.0094302315283130156 -0.021549104516452644 0.0094302315283130156 -9999.7715104695671 0.34040673919116671 -0.0059979619848631854 -0.029259761166713361 -0.0059979619848631854 -2499.764593294065 0.0050116925849579275 -0.029259761166713361 0.0050116925849579275 -9999.6908777734716 0.33475348407046113 -0.0049961130377819234 -0.029448946242325746 -0.0049961130377819234 -2499.7847684835615 0.00059648306523740757 -0.029448946242325746 0.00059648306523740757 -9999.6932338254446 0.37879055641860759 -0.0059409467881819111 -0.013522149027267005 -0.0059409467881819111 -2499.7409710877928 0.0024663425028847996 -0.013522149027267005 0.0024663425028847996 -9999.7003806358407 0.33882045048085274 0.0081658422130751421 -0.016222621638178225 0.0081658422130751421 -2499.759782552992 0.0049141884010168724 -0.016222621638178225 0.0049141884010168724 -9999.7007971393541 0.29916298196621938 -0.0046298501515207209 -0.011086469573740487 -0.0046298501515207209 -2499.8018826652369 0.00061302195535972714 -0.011086469573740487 0.00061302195535972714 -9999.7299665188002 0.29586809295869898 0.00021513056671946282 -0.02974808938733986 0.00021513056671946282 -2499.8057451113673 0.0038399158820539014 -0.02974808938733986 0.0038399158820539014 -9999.7346059174233 0.29206402763156802 -0.0041738099343455078 -0.022994189001110499 -0.0041738099343455078 -2499.8019765727204 -0.0043361622706470371 -0.022994189001110499 -0.0043361622706470371 -9999.7049438961149 0.26621970629639691 0.0053778891452076101 -0.0097116016459040111 0.0053778891452076101 -2499.781236440198 -0.030956069849708001 -0.0097116016459040111 -0.030956069849708001 -9999.7305001974382 0.31280054115632083 -0.0019164892615126808 -0.019037074703874168 -0.0019164892615126808 -2499.8027629713797 -0.0056844007704057731 -0.019037074703874168 -0.0056844007704057731 -9999.6994478285706 0.31645047673373483 0.0019505096814162182 -0.01134782765439013 0.0019505096814162182 -2499.7932966108092 0.0020186145266052336 -0.01134782765439013 0.0020186145266052336 -9999.7000471970678 0.25455047133254993 0.0011540129024526224 0.00025814520904532401 0.0011540129024526224 -2499.8217434824346 -0.0088125278855386568 0.00025814520904532401 -0.0088125278855386568 -9999.7607684501872 0.22694800975841645 0.005832112767117926 -0.013072512861640462 0.005832112767117926 -2499.8349899061741 -0.0087698487004672643 -0.013072512861640462 -0.0087698487004672643 -9999.8012671656688 0.27035558555689931 -0.0018796164173647024 -0.035927277162045357 -0.0018796164173647024 -2499.8187252044645 -0.0023033119600768259 -0.035927277162045357 -0.0023033119600768259 -9999.7580282537783 0.23173771418441902 0.005775787800424574 -0.015660894211976029 0.005775787800424574 -2499.8303300672578 -0.0083500859327614307 -0.015660894211976029 -0.0083500859327614307 -9999.7874807774933 0.25490976452601899 0.014447181754938707 -0.025269214402158013 0.014447181754938707 -2499.7790050177773 -0.031765076622832566 -0.025269214402158013 -0.031765076622832566 -9999.7488382333831 0.31592875252499653 0.00085611816612794767 -0.024784342074781307 0.00085611816612794767 -2499.7860164483636 -0.014578212626020104 -0.024784342074781307 -0.014578212626020104 -9999.6995690804251 0.27638325767020433 0.016903488914507631 -0.0053566701772069791 0.016903488914507631 -2499.8096263217913 -0.024188646645598055 -0.0053566701772069791 -0.024188646645598055 -9999.7338281838674 0.29885505340462259 -7.9835084880460622e-05 -0.020521395984360424 -7.9835084880460622e-05 -2499.7869772305721 0.0012272560306882951 -0.020521395984360424 0.0012272560306882951 -9999.7012153845753 0.28563010788820975 0.004882291430689128 -0.0081405505211478157 0.004882291430689128 -2499.7958859783957 -0.017499376399428002 -0.0081405505211478157 -0.017499376399428002 -9999.7056166713737 0.27082716429640641 0.0019607864601339053 -0.029560233328083996 0.0019607864601339053 -2499.8164324095765 0.0018065783851852757 -0.029560233328083996 0.0018065783851852757 -9999.7760404128894 0.27382423968538205 -0.0021829145994856996 -0.0046863903382927674 -0.0021829145994856996 -2499.8049100240833 -0.00031582179144606926 -0.0046863903382927674 -0.00031582179144606926 -9999.7524592672889 0.26395927616613335 -0.0052911905866339891 -0.0028098341344957589 -0.0052911905866339891 -2499.7985840753445 -0.0038406815411917705 -0.0028098341344957589 -0.0038406815411917705 -9999.7510513139969 0.30150962851962504 -0.0030710581940727351 -0.022480652686681424 -0.0030710581940727351 -2499.7866167424227 -0.00033420515137549955 -0.022480652686681424 -0.00033420515137549955 -9999.7049510168617 0.27431385249656159 -0.0071005711953313448 0.00019938674086006358 -0.0071005711953313448 -2499.799032074412 0.0056724777132330928 0.00019938674086006358 0.0056724777132330928 -9999.7367713450694 0.28062671328643773 0.010715183984927504 -0.011557050405826885 0.010715183984927504 -2499.8025608215376 0.0095867829741109745 -0.011557050405826885 0.0095867829741109745 -9999.7408247046696 0.24969917006364994 0.0048733308840868024 -0.037347126111853868 0.0048733308840868024 -2499.818108856437 -0.0055765479182809941 -0.037347126111853868 -0.0055765479182809941 -9999.767660126985 0.27597909577161772 -0.022217335143821196 -0.0159670254233788 -0.022217335143821196 -2499.8061539896935 -0.0085677001934527652 -0.0159670254233788 -0.0085677001934527652 -9999.7459571859436 0.31386894529623532 -0.0014709637657799902 -0.0050313282881688792 -0.0014709637657799902 -2499.7903839780402 0.0048704715336498339 -0.0050313282881688792 0.0048704715336498339 -9999.7271782713615 0.25093241588365345 -0.015906926904683181 -0.037927952012978494 -0.015906926904683181 -2499.8171140015065 0.010634139695866907 -0.037927952012978494 0.010634139695866907 -9999.7663738140691 0.24997780725789198 -0.010090894904707041 -0.025015424518642249 -0.010090894904707041 -2499.8149131008413 -0.0045924254045530688 -0.025015424518642249 -0.0045924254045530688 -9999.7716484372504 0.36476092197972321 0.00056649488013499013 -0.029722957001581563 0.00056649488013499013 -2499.7675052923905 0.0033198767068824964 -0.029722957001581563 0.0033198767068824964 -9999.6872300331088 0.37122731266936171 0.003292543464149901 -0.028733461451338371 0.003292543464149901 -2499.749658226543 0.0060892837209394202 -0.028733461451338371 0.0060892837209394202 -9999.6807974627372 0.36556836650925106 -0.0060795520656675532 -0.025642217657150468 -0.0060795520656675532 -2499.7637359514538 0.00083189755241619423 -0.025642217657150468 0.00083189755241619423 -9999.6831935833179 0.32833643834783288 -0.00058923167963040681 -0.022686170290398877 -0.00058923167963040681 -2499.7751575835482 0.00039455889600503724 -0.022686170290398877 0.00039455889600503724 -9999.6957663924113 0.39688176520940033 0.0027096627634820565 0.00071163981920108199 0.0027096627634820565 -2499.7530014372237 -0.00029589101177407429 0.00071163981920108199 -0.00029589101177407429 -9999.6493734287342 0.4026842813436815 -0.0016799925608542094 -0.010733030028859503 -0.0016799925608542094 -2499.7501972004302 0.00078141565245459788 -0.010733030028859503 0.00078141565245459788 -9999.6738948906404 0.36706145410335012 -0.015360311997956372 -0.0046534353132301476 -0.015360311997956372 -2499.7587809913457 0.0077303493890212849 -0.0046534353132301476 0.0077303493890212849 -9999.6657100568791 0.37272287180803687 -0.0021838542674076232 -0.0010655967366801633 -0.0021838542674076232 -2499.7511524865668 0.0011300397163722664 -0.0010655967366801633 0.0011300397163722664 -9999.6477162566025 0.33965576691389288 -0.001539758604754124 0.0024677911587787094 -0.001539758604754124 -2499.7717370859673 0.0020885870526399231 0.0024677911587787094 0.0020885870526399231 -9999.679618029797 0.36787752756481495 0.0049380734825564595 -0.0042765024809341412 0.0049380734825564595 -2499.7547228993144 0.0049458437115390552 -0.0042765024809341412 0.0049458437115390552 -9999.6532993820692 0.39899741101362451 -0.0042050372255172906 -0.0076689364868798293 -0.0042050372255172906 -2499.7547992615928 0.0069175114313111408 -0.0076689364868798293 0.0069175114313111408 -9999.6747345752883 0.40429476832014188 -0.00181152019893982 -0.016929030240135035 -0.00181152019893982 -2499.7428902285037 -0.00071016499350662343 -0.016929030240135035 -0.00071016499350662343 -9999.6441457860583 0.37857883561446215 0.010496339690548622 -0.010427417364553548 0.010496339690548622 -2499.7552173740696 -0.0054647681017740979 -0.010427417364553548 -0.0054647681017740979 -9999.6570329223468 0.40361637668672756 0.0070989128287118411 0.00073050053470069543 0.0070989128287118411 -2499.7418572092865 0.00021872687375434907 0.00073050053470069543 0.00021872687375434907 -9999.6450749137603 0.3412927364506686 -0.0016241231006387273 -0.0066704758332889469 -0.0016241231006387273 -2499.7630691093673 -0.0024355066871066811 -0.0066704758332889469 -0.0024355066871066811 -9999.6509084974605 0.3470428703901689 -0.0023085585367818504 -0.011748732766136527 -0.0023085585367818504 -2499.7713873065327 -0.00033104518115578685 -0.011748732766136527 -0.00033104518115578685 -9999.6895647233232 0.34277694558704752 -0.0030352698602463986 -0.0079485673231829423 -0.0030352698602463986 -2499.7611303199806 -0.00060477959573290718 -0.0079485673231829423 -0.00060477959573290718 -9999.6528630814373 0.3424168427427503 0.00061249389602863104 -0.0080564512491037021 0.00061249389602863104 -2499.762103696994 -0.0016855929643497802 -0.0080564512491037021 -0.0016855929643497802 -9999.6524672512969 0.35571460208871031 0.001174686185936258 -0.01271427755455079 0.001174686185936258 -2499.767202246614 -0.0010755220664577791 -0.01271427755455079 -0.0010755220664577791 -9999.6861500193736 0.35267164141623653 0.00036241563209281867 -0.0080902075715130195 0.00036241563209281867 -2499.769016159752 0.0011767915784730576 -0.0080902075715130195 0.0011767915784730576 -9999.6831658230367 0.34190006503740733 -0.016070860527717709 -0.009844443469773978 -0.016070860527717709 -2499.7665040344527 -0.024128368444962689 -0.009844443469773978 -0.024128368444962689 -9999.6780913219591 0.354919905830684 -0.023300501002427323 -0.016042293755162973 -0.023300501002427323 -2499.7492164041796 -0.011781027483266371 -0.016042293755162973 -0.011781027483266371 -9999.6524954363231 0.34981316165612952 0.00030748389803932422 -0.0054217469951254316 0.00030748389803932422 -2499.7905777880715 -0.0032242342176687089 -0.0054217469951254316 -0.0032242342176687089 -9999.6877464945137 0.37913786364242696 0.00044112925033658323 -0.0075945962744299322 0.00044112925033658323 -2499.7423378643534 -0.010450196599776973 -0.0075945962744299322 -0.010450196599776973 -9999.6434609987227 0.34698579768473792 -0.0015264216799164285 -0.0073486592940064099 -0.0015264216799164285 -2499.746026234649 -0.0014690323205286404 -0.0073486592940064099 -0.0014690323205286404 -9999.6511717147005 0.36196629518417467 -0.0077239423432494854 -0.010778189758639201 -0.0077239423432494854 -2499.7724592269387 0.011040282781323185 -0.010778189758639201 0.011040282781323185 -9999.6623042044521 0.34940174069015484 0.00024773917045378853 -0.012416693986779137 0.00024773917045378853 -2499.7472665663663 0.00034338970908720512 -0.012416693986779137 0.00034338970908720512 -9999.6506369566887 0.36635007283075538 0.011631993154435333 -0.013224619478933164 0.011631993154435333 -2499.7455269831175 -0.0081818948747240938 -0.013224619478933164 -0.0081818948747240938 -9999.6431627928541 0.32626432928009308 -0.011001729694978257 -0.015599245411067386 -0.011001729694978257 -2499.7680806847166 -0.0019374839077954675 -0.015599245411067386 -0.0019374839077954675 -9999.6618030775498 0.33524358261456655 -0.020074909044777663 -0.0078010482902755029 -0.020074909044777663 -2499.7739716875749 -0.0219282153605036 -0.0078010482902755029 -0.0219282153605036 -9999.6791575138923 0.36121551621727122 -0.0063984601756278889 -0.015046386986796279 -0.0063984601756278889 -2499.7797874532425 0.005269939268600865 -0.015046386986796279 0.005269939268600865 -9999.6869748065437 0.38365449496177462 0.0012988541241225615 0.0015309092868847074 0.0012988541241225615 -2499.7434405939812 0.0049958270037677721 0.0015309092868847074 0.0049958270037677721 -9999.6429110979916 0.36860548688127892 0.00091895006340019132 -0.015218497028399725 0.00091895006340019132 -2499.7534514039035 -0.005533724039196386 -0.015218497028399725 -0.005533724039196386 -9999.6746648113476 0.35833126939513704 -0.0091108768834438983 -0.0017906128359754803 -0.0091108768834438983 -2499.7770583788592 -0.00041286905411652697 -0.0017906128359754803 -0.00041286905411652697 -9999.6874958869157 0.37087460032853414 -0.023398647603148581 0.0067558807913883356 -0.023398647603148581 -2499.7938783400896 -0.0081505891284905374 0.0067558807913883356 -0.0081505891284905374 -9999.6509357292307 0.37291671243110613 -0.0089004860693125201 -0.00018966526113217697 -0.0089004860693125201 -2499.7334161282542 0.014602999090129742 -0.00018966526113217697 0.014602999090129742 -9999.6710524426671 0.40860296725441003 0.0048973150744466357 -0.0086913669692876283 0.0048973150744466357 -2499.7071952814513 0.0084756168471358251 -0.0086913669692876283 0.0084756168471358251 -9999.6509283851628 0.39420182758385636 0.0066615202258051669 -0.0081376316134083027 0.0066615202258051669 -2499.7469011205931 -0.005793493222881807 -0.0081376316134083027 -0.005793493222881807 -9999.6684115586922 0.39689679389243793 0.00094573875033314436 -0.0073179379178327508 0.00094573875033314436 -2499.7408511944705 -0.0010451614170960966 -0.0073179379178327508 -0.0010451614170960966 -9999.6696379749592 0.43065397518876125 0.014189855921432917 -0.0074914295146299992 0.014189855921432917 -2499.7204648624884 -0.0015356876392615959 -0.0074914295146299992 -0.0015356876392615959 -9999.6563626118113 0.38250819207314635 0.015577514396309108 -0.016367818805974821 0.015577514396309108 -2499.765258986652 -0.014533708862018102 -0.016367818805974821 -0.014533708862018102 -9999.6413970266367 0.39008307120457175 0.015061761690335237 0.00091238176219121669 0.015061761690335237 -2499.7683125523508 -0.0062806077930872561 0.00091238176219121669 -0.0062806077930872561 -9999.6514032573978 0.4029221230011899 0.015217708612588955 -0.0049573152791708708 0.015217708612588955 -2499.7114972999007 0.0099372648037387989 -0.0049573152791708708 0.0099372648037387989 -9999.6455716868659 0.4400012261030497 0.0078873329926215999 -0.013501140754669905 0.0078873329926215999 -2499.7246482120609 0.014198453058270388 -0.013501140754669905 0.014198453058270388 -9999.6368888046927 0.43620767309766961 0.0039587539334796154 -0.010690654464269755 0.0039587539334796154 -2499.7399985607935 0.0044250202809053008 -0.010690654464269755 0.0044250202809053008 -9999.6309777578499 0.42994596802418528 0.0040433717039786744 -0.012360338799226156 0.0040433717039786744 -2499.7656571290336 0.0042702867576736026 -0.012360338799226156 0.0042702867576736026 -9999.6356772807776 0.39614362249540136 8.7545367206426361e-05 -0.0089653561408340465 8.7545367206426361e-05 -2499.7525101730271 -0.0019788556273852009 -0.0089653561408340465 -0.0019788556273852009 -9999.6316728351667 0.39164377115776006 -0.0045296528259827391 -0.0077546670554511365 -0.0045296528259827391 -2499.7528841843814 -0.0027424096406321041 -0.0077546670554511365 -0.0027424096406321041 -9999.6323976746498 0.44466200065107842 -0.0010415933337977849 0.0077896286675240844 -0.0010415933337977849 -2499.7361555237494 0.0049598865371081047 0.0077896286675240844 0.0049598865371081047 -9999.6199946865527 0.39274749465675995 -0.0033445060965531445 0.0043697867113223765 -0.0033445060965531445 -2499.7783774113423 0.0061926469938953232 0.0043697867113223765 0.0061926469938953232 -9999.6413481132713 0.3942109756226273 0.0013025144685367817 -0.0093274896680668462 0.0013025144685367817 -2499.754593439342 0.0041819019934337121 -0.0093274896680668462 0.0041819019934337121 -9999.6373331084542 0.42151715822365077 0.0196814987126189 -0.0020351366983959451 0.0196814987126189 -2499.746742949932 0.0049243204193771817 -0.0020351366983959451 0.0049243204193771817 -9999.627678391189 0.44882241147297464 -0.0022881171902138821 -0.0066208727384946542 -0.0022881171902138821 -2499.7149597485868 0.0021198105132498313 -0.0066208727384946542 0.0021198105132498313 -9999.6185090567524 0.41656382739347464 -0.018456292926145736 0.0018391523917671293 -0.018456292926145736 -2499.7490331513 0.011487244961244869 0.0018391523917671293 0.011487244961244869 -9999.6371661582598 0.44076266000956821 -0.0003089277198525392 -6.6436368797440082e-06 -0.0003089277198525392 -2499.7201286420404 0.011994287257039105 -6.6436368797440082e-06 0.011994287257039105 -9999.6482479714687 0.39953350278119615 -0.016590510532979177 -0.0056923987322079483 -0.016590510532979177 -2499.7392630763334 0.005618596296699252 -0.0056923987322079483 0.005618596296699252 -9999.6387276207533 0.39411370945163071 -0.005412914927600921 -0.0010217071594524896 -0.005412914927600921 -2499.7697140885721 -0.013894361700295121 -0.0010217071594524896 -0.013894361700295121 -9999.636645851082 0.37551497971799108 -0.00071487004770756299 -0.0069248594572854927 -0.00071487004770756299 -2499.7558448071086 -0.0048302780560334213 -0.0069248594572854927 -0.0048302780560334213 -9999.6357615954621 0.38675518200034276 -0.0050984996834225332 0.0006384187427102006 -0.0050984996834225332 -2499.7633054280923 -0.016099173638394859 0.0006384187427102006 -0.016099173638394859 -9999.6364985753098 0.37971104622556595 -0.0067569344966806888 -0.0071258343468798557 -0.0067569344966806888 -2499.7426547258474 -0.01378221325649065 -0.0071258343468798557 -0.01378221325649065 -9999.6321782947198 0.38355452713972227 0.010968164760992091 0.0038611111413047183 0.010968164760992091 -2499.7573797123105 0.012870887461758684 0.0038611111413047183 0.012870887461758684 -9999.6394119518882 0.38477941598466714 -0.011655434367935334 -0.007438345426635351 -0.011655434367935334 -2499.728496585325 -0.0052418946524994681 -0.007438345426635351 -0.0052418946524994681 -9999.6260418628917 0.37519701042401721 0.022356716014362898 -0.010490062522876542 0.022356716014362898 -2499.7328724778963 0.0082634439859248232 -0.010490062522876542 0.0082634439859248232 -9999.6437527367816 0.35107547612597045 -0.0020731659443546102 -0.010853184401639737 -0.0020731659443546102 -2499.767042269867 -0.0046019245710340329 -0.010853184401639737 -0.0046019245710340329 -9999.6533163509393 0.37794766724437068 -0.0010292316094599185 0.0011490392080304446 -0.0010292316094599185 -2499.7574487741808 -0.0026949827351927524 0.0011490392080304446 -0.0026949827351927524 -9999.6409481288792 0.36825369274151853 0.013276466415965416 -0.008108447102131322 0.013276466415965416 -2499.7641740103636 -0.0094408739441860234 -0.008108447102131322 -0.0094408739441860234 -9999.6517091303285 0.36452277032003622 0.013621278112620261 -0.013761321089987177 0.013621278112620261 -2499.7473802661407 -0.0084312790349940769 -0.013761321089987177 -0.0084312790349940769 -9999.6391265441198 0.35556721289879079 -0.0029695022722547107 -0.00029270261802594177 -0.0029695022722547107 -2499.7594572860671 -0.0064490645636396948 -0.00029270261802594177 -0.0064490645636396948 -9999.6420840910068 0.36429920225418755 -0.010212179963078237 -0.0057997946905743447 -0.010212179963078237 -2499.7343100374401 -0.0061363222066574963 -0.0057997946905743447 -0.0061363222066574963 -9999.6279481121965 0.37379726590233986 -0.01449722355697089 -0.0009028533586388221 -0.01449722355697089 -2499.7307523645354 -0.0061264413980097743 -0.0009028533586388221 -0.0061264413980097743 -9999.630490781381 0.35897404932256904 0.0023033328673081879 -0.0056680079483157897 0.0023033328673081879 -2499.7569704817397 -0.0071667577831249218 -0.0056680079483157897 -0.0071667577831249218 -9999.6399216297323 0.35699079176288251 -0.0020503876371328559 -0.0056925972803583136 -0.0020503876371328559 -2499.7509801388878 -0.004586478116834769 -0.0056925972803583136 -0.004586478116834769 -9999.6381336600771 0.36475506474471331 -0.0035323256515515968 -0.0042971089933416806 -0.0035323256515515968 -2499.7581803461335 0.0024388740257563768 -0.0042971089933416806 0.0024388740257563768 -9999.6508594275856 0.36677882210187818 -0.011485204549120741 0.0053498388469961355 -0.011485204549120741 -2499.7482127451522 -0.0055014466925058514 0.0053498388469961355 -0.0055014466925058514 -9999.6275639451014 0.39977613356677466 -0.00051204227917513341 -0.0097559772275417345 -0.00051204227917513341 -2499.7438555357949 -0.00092065134231233969 -0.0097559772275417345 -0.00092065134231233969 -9999.6257710559294 0.36405785641454713 -0.0014010593789328925 -0.0010976799530908465 -0.0014010593789328925 -2499.7564028091319 -0.0046678734870511107 -0.0010976799530908465 -0.0046678734870511107 -9999.6446891205669 0.36732385414870805 0.010475660786307191 -0.0075093544235187437 0.010475660786307191 -2499.7576737045347 0.00018212754366686568 -0.0075093544235187437 0.00018212754366686568 -9999.6355506886903 0.38851874054489599 0.00038523720472271802 -0.0062433021303149872 0.00038523720472271802 -2499.7491263894026 -0.0010038440332209575 -0.0062433021303149872 -0.0010038440332209575 -9999.6399539511331 0.37686014798782708 -0.0096118026685575765 -0.014864718447824998 -0.0096118026685575765 -2499.7545223740435 -0.0058607540595403407 -0.014864718447824998 -0.0058607540595403407 -9999.6391837396659 0.3619527416285564 0.00028385023394137711 -0.0015098411276994739 0.00028385023394137711 -2499.7561566554305 -0.00020126110894125304 -0.0015098411276994739 -0.00020126110894125304 -9999.655295780065 0.35936124946783821 -0.0040224172483277329 0.00052569777517419425 -0.0040224172483277329 -2499.7579213085719 -0.0016703224837328889 0.00052569777517419425 -0.0016703224837328889 -9999.6452875354807 0.36352989232182154 -6.7743795986097068e-05 -0.0049773276054452253 -6.7743795986097068e-05 -2499.7366634215214 0.0041444923281233059 -0.0049773276054452253 0.0041444923281233059 -9999.6262808340907 0.35452137657307503 0.00059812289245145061 -0.0068720824774572975 0.00059812289245145061 -2499.7582997258332 -0.0025074137611227343 -0.0068720824774572975 -0.0025074137611227343 -9999.6362487692786 0.39216228588702506 0.0010477730230632463 -0.0084077169594820589 0.0010477730230632463 -2499.7464395266306 -0.00070352137663576286 -0.0084077169594820589 -0.00070352137663576286 -9999.6280674584486 0.40199338124875794 0.00010694430968808538 0.0066404490016793716 0.00010694430968808538 -2499.7490838510166 0.0013921282809405966 0.0066404490016793716 0.0013921282809405966 -9999.6350278003738 0.38365925110883836 -0.00016841851795441985 0.0049696500545906019 -0.00016841851795441985 -2499.7489270041169 -0.00352511174241954 0.0049696500545906019 -0.00352511174241954 -9999.62042694091 0.40303183316063951 0.00091551246218476642 0.0066519068041088758 0.00091551246218476642 -2499.7498648680339 0.0025747430572664598 0.0066519068041088758 0.0025747430572664598 -9999.6367065201921 0.39192576926689071 0.00038295073999903499 -0.0085682735116279218 0.00038295073999903499 -2499.7479115644164 0.00074467365448072087 -0.0085682735116279218 0.00074467365448072087 -9999.6275571356673 0.39000913032941753 0.00019957821186566217 -0.0090494619253149722 0.00019957821186566217 -2499.7510164957021 -0.0013177877062844345 -0.0090494619253149722 -0.0013177877062844345 -9999.6321192120085 0.42997020525217522 0.0018172131264403285 -0.0075690167141146958 0.0018172131264403285 -2499.7428467760437 0.0010185676546825562 -0.0075690167141146958 0.0010185676546825562 -9999.6355166991198 0.39349614762159035 0.0022474654770529901 -0.010017976619565161 0.0022474654770529901 -2499.7504629629157 -0.00042034174475702457 -0.010017976619565161 -0.00042034174475702457 -9999.6326442071368 0.39802449143462582 -0.00059745228661388025 -0.0087290583214780781 -0.00059745228661388025 -2499.7455796208742 -0.00096836398597588413 -0.0087290583214780781 -0.00096836398597588413 -9999.6310757355677 0.43111780665640254 0.0019599844338470001 -0.0079579344019293785 0.0019599844338470001 -2499.7392082276529 -0.00092248375585768372 -0.0079579344019293785 -0.00092248375585768372 -9999.6321270444969 0.4027837466528581 0.00073988370166276174 0.0060513228045238066 0.00073988370166276174 -2499.7465097308777 7.0525100454688072e-05 0.0060513228045238066 7.0525100454688072e-05 -9999.6326567133874 0.43304669686040143 0.0035498932114210006 -0.0077533803269034252 0.0035498932114210006 -2499.7318903370997 0.00300639621582377 -0.0077533803269034252 0.00300639621582377 -9999.6319651963204 0.41862542736998876 -0.013825084693744575 0.00019679556498886086 -0.013825084693744575 -2499.7443424568119 0.0042233286876580678 0.00019679556498886086 0.0042233286876580678 -9999.6297641658348 0.44330240652197972 0.0011180659738335222 -0.0053183602321951184 0.0011180659738335222 -2499.7384923696918 0.0014794992948736763 -0.0053183602321951184 0.0014794992948736763 -9999.6340561449906 0.44658737463032594 0.0010683840795168292 -0.0081418834670330398 0.0010683840795168292 -2499.7350394115128 0.0062862520062481053 -0.0081418834670330398 0.0062862520062481053 -9999.6243681466149 0.44263573799253209 0.0016533135905386759 -0.0054966156767477514 0.0016533135905386759 -2499.7366332603779 0.000498912046168698 -0.0054966156767477514 0.000498912046168698 -9999.6329337249117 0.4408116758804681 0.00061038659691635649 -0.0049821580396383069 0.00061038659691635649 -2499.7376455876747 0.00055856392282294109 -0.0049821580396383069 0.00055856392282294109 -9999.6336052180195 0.44022514381322253 0.001004584561885277 -0.0050663422880461439 0.001004584561885277 -2499.7396154274356 0.00021608612405543681 -0.0050663422880461439 0.00021608612405543681 -9999.6339847495801 0.44492877050925017 -0.001526945081466821 -0.0034949422224599402 -0.001526945081466821 -2499.7377929443091 -0.00064354129426646978 -0.0034949422224599402 -0.00064354129426646978 -9999.6314360958786 0.39438059878693821 0.0044986711038876494 0.0069898860268722274 0.0044986711038876494 -2499.7518947401209 -0.001150405438238522 0.0069898860268722274 -0.001150405438238522 -9999.6333167181147 0.39582244657322008 0.0007678246942997239 0.0069126094713283237 0.0007678246942997239 -2499.7467889032177 0.0024621123466204153 0.0069126094713283237 0.0024621123466204153 -9999.6311851944884 0.39202445878981962 0.00039696080925483677 -0.0085000334174765158 0.00039696080925483677 -2499.7492251396397 -0.002286894693497743 -0.0085000334174765158 -0.002286894693497743 -9999.6258490046312 0.4013977858448925 -0.0019587626379420084 0.0059734380065492587 -0.0019587626379420084 -2499.749380044892 -0.00036715646911034128 0.0059734380065492587 -0.00036715646911034128 -9999.6337416819297 0.44938987828390964 0.00075383393260662623 -0.005175412023163517 0.00075383393260662623 -2499.7371512793115 -0.0014822181001363788 -0.005175412023163517 -0.0014822181001363788 -9999.6290692019174 0.43063862660619634 -0.005148920566775508 -0.010399431525002001 -0.005148920566775508 -2499.7419133623234 -0.00072191152702316685 -0.010399431525002001 -0.00072191152702316685 -9999.634182235799 0.40034786727846949 -0.001582040951406048 0.0058354407810838893 -0.001582040951406048 -2499.7495901914626 -0.00029968323360662907 0.0058354407810838893 -0.00029968323360662907 -9999.6340893170127 0.4283489129084046 -0.0054068724806318434 -0.0036025540284754243 -0.0054068724806318434 -2499.7375684342942 -0.0022250602160056587 -0.0036025540284754243 -0.0022250602160056587 -9999.6401164568288 0.43693660212466057 -0.0015425582687529143 -0.0093260855246626306 -0.0015425582687529143 -2499.7304796879625 0.0011205063638044521 -0.0093260855246626306 0.0011205063638044521 -9999.6292694158692 0.33775435910865781 -0.0034399180118647871 0.00019543881353456527 -0.0034399180118647871 -2499.7676080081819 0.00045748598904538085 0.00019543881353456527 0.00045748598904538085 -9999.6802387241441 0.36923716771980253 -0.0069146339192430132 -0.0030840033180083992 -0.0069146339192430132 -2499.7582216627152 -0.0054997381739667617 -0.0030840033180083992 -0.0054997381739667617 -9999.6576644520355 0.40353073017649876 -0.0011563106281213993 -0.019146673546856618 -0.0011563106281213993 -2499.746140582738 -0.0013425436409306712 -0.019146673546856618 -0.0013425436409306712 -9999.6472354506186 0.366804122785652 0.011112702783562804 -0.008093555170489708 0.011112702783562804 -2499.754541736982 -0.006751428110874258 -0.008093555170489708 -0.006751428110874258 -9999.6648276662017 0.38165173414836318 -0.011356607646483829 -0.012677105156399193 -0.011356607646483829 -2499.755045314886 0.0039154188007159973 -0.012677105156399193 0.0039154188007159973 -9999.6588147274888 0.41759186002491333 0.00089261178357466671 -0.0038726628245058237 0.00089261178357466671 -2499.7465370109348 -0.0032840017574926605 -0.0038726628245058237 -0.0032840017574926605 -9999.6441160767208 0.39693381009965378 0.0012096835416214591 -0.0072045069136947859 0.0012096835416214591 -2499.7542220070004 -0.0049731793660612311 -0.0072045069136947859 -0.0049731793660612311 -9999.6787444500078 0.35711071993728183 -0.0038394811889124808 -0.011971171404184133 -0.0038394811889124808 -2499.7681723018591 -0.0019573042645788519 -0.011971171404184133 -0.0019573042645788519 -9999.68574954832 0.34574371451935804 -0.0015084633173100999 -0.0074456455577092129 -0.0015084633173100999 -2499.7657752791797 -0.0025316501314591733 -0.0074456455577092129 -0.0025316501314591733 -9999.6492796405873 0.35241565685592757 -0.0034072049695447054 -0.011785531893110601 -0.0034072049695447054 -2499.7658617198963 -0.0027949864379905875 -0.011785531893110601 -0.0027949864379905875 -9999.6851606285782 0.342666322567311 -0.0025636024397404037 -0.0067380248647168628 -0.0025636024397404037 -2499.7622486584205 0.00071215216939890524 -0.0067380248647168628 0.00071215216939890524 -9999.6453463577054 0.34691870486398102 -0.00081836673317351588 -0.01410484093685227 -0.00081836673317351588 -2499.7720242457808 -0.0004023932263450547 -0.01410484093685227 -0.0004023932263450547 -9999.6897646462949 0.34058787024196135 -0.004824042114636334 -0.0085025040398249985 -0.004824042114636334 -2499.7643093423289 -0.0022583695626963163 -0.0085025040398249985 -0.0022583695626963163 -9999.653575559043 0.35961713415042595 -0.00083926995283891662 0.00048593919916584127 -0.00083926995283891662 -2499.7556636859526 0.0016676642662787344 0.00048593919916584127 0.0016676642662787344 -9999.6441476512155 0.35540629002491642 -0.00058203047278503409 -0.0054461648087453796 -0.00058203047278503409 -2499.7621319599866 -0.0044320073766357382 -0.0054461648087453796 -0.0044320073766357382 -9999.6398946580484 0.35946094618702773 0.0087683657809178583 0.0079532576337442151 0.0087683657809178583 -2499.7591114362076 -0.0033505910978419706 0.0079532576337442151 -0.0033505910978419706 -9999.6551975604234 0.37355808866959705 0.0028020716065667479 -0.0050455223117751302 0.0028020716065667479 -2499.7501268338638 -0.00010556012966844719 -0.0050455223117751302 -0.00010556012966844719 -9999.6349358219013 0.36289233517436514 0.00030228612113975418 -0.00055129646557361411 0.00030228612113975418 -2499.7640937515853 -0.0053435257314049522 -0.00055129646557361411 -0.0053435257314049522 -9999.6550470798247 0.38875382655305657 0.00026854376038988256 -0.0059302054041836527 0.00026854376038988256 -2499.7478884464713 -0.0022466083846666152 -0.0059302054041836527 -0.0022466083846666152 -9999.6402509756135 0.36927509986617224 0.0046621782249759228 -0.0028873881019535474 0.0046621782249759228 -2499.7513012186164 -0.0087865280875121243 -0.0028873881019535474 -0.0087865280875121243 -9999.6484495518343 0.37692676931874303 0.0055768287540162009 -0.010487403099432413 0.0055768287540162009 -2499.7517917604564 0.001558984723942558 -0.010487403099432413 0.001558984723942558 -9999.6337641156279 0.38243868240283518 -0.00029642380683458339 -0.010582257148371355 -0.00029642380683458339 -2499.7341894452957 0.0005462203080242034 -0.010582257148371355 0.0005462203080242034 -9999.6280177614735 0.35319166281624348 -0.00037094756487357494 -0.0075867826326430077 -0.00037094756487357494 -2499.7596500688087 -0.0021218442552708439 -0.0075867826326430077 -0.0021218442552708439 -9999.6402278445385 0.39202871736961242 -0.00056998811356899839 -0.0076387578728827066 -0.00056998811356899839 -2499.7463245930849 -0.0019516442462190753 -0.0076387578728827066 -0.0019516442462190753 -9999.628726275434 0.36727055475205361 0.004880002368398223 -0.0069299332526497892 0.004880002368398223 -2499.7312671897548 -0.00846116452885326 -0.0069299332526497892 -0.00846116452885326 -9999.6286511652033 0.37076754998633987 0.0042591737416554729 -0.0011391677574010828 0.0042591737416554729 -2499.7612530553524 0.015048547945468727 -0.0011391677574010828 0.015048547945468727 -9999.6469099822643 0.36972489988556845 0.0035599628185100131 -0.0022842706557639758 0.0035599628185100131 -2499.7610620017981 -0.007639469064088189 -0.0022842706557639758 -0.007639469064088189 -9999.650920751119 0.36108470413556404 0.0019213254441558698 -0.0079735052554497088 0.0019213254441558698 -2499.7520510723416 -0.00065043253380281385 -0.0079735052554497088 -0.00065043253380281385 -9999.6451636279653 0.36041915117129975 0.0058574929176733806 -0.0077617469787583104 0.0058574929176733806 -2499.743997612959 -0.0013624364000861533 -0.0077617469787583104 -0.0013624364000861533 -9999.6433243878273 0.38562521537824068 0.013814651698449205 -0.0076361679375622771 0.013814651698449205 -2499.7205587827812 0.011144360549224075 -0.0076361679375622771 0.011144360549224075 -9999.6193809230099 0.38768144660098613 0.018997563477699986 -0.0055483222804468824 0.018997563477699986 -2499.7049948314316 0.0022041506090317853 -0.0055483222804468824 0.0022041506090317853 -9999.6267205830554 0.37960009182984322 0.024021264889788063 -0.0021444873436848866 0.024021264889788063 -2499.7173540418316 -0.0042720269411802292 -0.0021444873436848866 -0.0042720269411802292 -9999.6305327165828 0.35051948105819974 0.01247336546441484 -0.014032029666850576 0.01247336546441484 -2499.7692367428485 -0.0029966053707539686 -0.014032029666850576 -0.0029966053707539686 -9999.6468520767048 0.35548728643698269 0.0062958556295821672 -0.0040654021689761066 0.0062958556295821672 -2499.7645488837716 -0.0048349807306067305 -0.0040654021689761066 -0.0048349807306067305 -9999.6476298384587 0.36605517232965212 -0.0047178975886362157 -0.0085505856891359144 -0.0047178975886362157 -2499.7525325648458 0.011071730387698153 -0.0085505856891359144 0.011071730387698153 -9999.64860259126 0.33798388435297966 -0.0021545622798798012 -0.0070623130624767327 -0.0021545622798798012 -2499.7879388789943 0.0024206354155467125 -0.0070623130624767327 0.0024206354155467125 -9999.6586584432043 0.34181549751156126 -0.015606631668286221 -0.010793414770887466 -0.015606631668286221 -2499.7652744660882 -0.014732377786458528 -0.010793414770887466 -0.014732377786458528 -9999.6651504523761 0.36836539709111094 -0.0043004208294911764 -0.016637033535516821 -0.0043004208294911764 -2499.7557482574939 0.0087192555301953689 -0.016637033535516821 0.0087192555301953689 -9999.6633017815402 0.36121696528152825 0.012552915586175745 -0.011670316624076804 0.012552915586175745 -2499.7702066290522 -0.0059319632146070944 -0.011670316624076804 -0.0059319632146070944 -9999.647580278448 0.33505734997106629 0.0015389612115824652 -0.013546699527068995 0.0015389612115824652 -2499.7610299606577 0.0019065641818087897 -0.013546699527068995 0.0019065641818087897 -9999.6871763349282 0.36406250180334609 -0.0063538131647545154 -0.01687698095702217 -0.0063538131647545154 -2499.7511388758885 -0.02022400265741453 -0.01687698095702217 -0.02022400265741453 -9999.6528627648077 0.359487111789349 0.0010367155212291056 -0.010282574872235273 0.0010367155212291056 -2499.7570529147888 0.00010447754357301164 -0.010282574872235273 0.00010447754357301164 -9999.6805040847539 0.33035098218351777 -0.0013645667722507748 -0.018787216398777673 -0.0013645667722507748 -2499.7737379578848 -0.005465918147820048 -0.018787216398777673 -0.005465918147820048 -9999.6945292208038 0.33214885754387069 -0.015791140860980112 -0.0057354214923179825 -0.015791140860980112 -2499.7635926300736 -0.015069913650222588 -0.0057354214923179825 -0.015069913650222588 -9999.6718351097734 0.33270821504993364 -0.00094036234730958965 -0.0089484948542235543 -0.00094036234730958965 -2499.7724020234527 0.010193116524533252 -0.0089484948542235543 0.010193116524533252 -9999.6841083161635 0.42148833776582251 -0.0011198838901449598 -0.0011764672344725113 -0.0011198838901449598 -2499.7475071909817 0.00039952464794623666 -0.0011764672344725113 0.00039952464794623666 -9999.6404104961948 0.35944738095531648 0.0027045353515849271 -0.0081039649489866861 0.0027045353515849271 -2499.768444447107 0.00074636083354562288 -0.0081039649489866861 0.00074636083354562288 -9999.6606232481863 0.37020388258315506 -0.0015989813960049244 -0.0071519202861622944 -0.0015989813960049244 -2499.7623790575053 0.00074663651594164548 -0.0071519202861622944 0.00074663651594164548 -9999.6594173971462 0.36850352657165786 -0.0038548828932296469 -0.018721445616392884 -0.0038548828932296469 -2499.7589500686317 0.011346911540385918 -0.018721445616392884 0.011346911540385918 -9999.6679204251232 0.40535848525541951 -0.0012250994052098799 -0.0043810184615722392 -0.0012250994052098799 -2499.7218843541777 -0.012035015690344153 -0.0043810184615722392 -0.012035015690344153 -9999.6679429883297 0.37831054039270384 -0.0093172224829428142 0.0011217946233728071 -0.0093172224829428142 -2499.7303977258198 -0.0087288429313048255 0.0011217946233728071 -0.0087288429313048255 -9999.66022289799 0.39461321816907002 0.0017409633559258425 -0.0089630580332595855 0.0017409633559258425 -2499.7604593580718 -0.00010074031018802998 -0.0089630580332595855 -0.00010074031018802998 -9999.6784948436434 0.3979718125585805 -0.0042216708988103771 -0.010314325976651162 -0.0042216708988103771 -2499.7451608202127 0.0044589886520043365 -0.010314325976651162 0.0044589886520043365 -9999.6716972404956 0.42706420143258583 -0.012370145587342125 -0.0085591419410775416 -0.012370145587342125 -2499.7277375412032 -0.0017977180432353634 -0.0085591419410775416 -0.0017977180432353634 -9999.6487202480203 0.37832230636922759 0.002625700527733487 -0.0099663076298384112 0.002625700527733487 -2499.749848904461 0.0071949113098526141 -0.0099663076298384112 0.0071949113098526141 -9999.6288286209601 0.42538915688965062 -0.0078175392993033721 -0.003060244802327361 -0.0078175392993033721 -2499.7462984911544 -0.0026309088098059874 -0.003060244802327361 -0.0026309088098059874 -9999.642279701915 0.38958219022970297 -0.016292654887721109 -0.0014449412083195057 -0.016292654887721109 -2499.7607840663259 -0.0048051189551188145 -0.0014449412083195057 -0.0048051189551188145 -9999.645099611218 0.38936227620069985 -0.014769899262243553 -0.0025544458226249844 -0.014769899262243553 -2499.763014018281 -0.0051831859636877198 -0.0025544458226249844 -0.0051831859636877198 -9999.641756045261 0.4227729408430605 -0.0019362967336942621 -0.0010935642603726592 -0.0019362967336942621 -2499.7421179596331 -0.00094180443011282478 -0.0010935642603726592 -0.00094180443011282478 -9999.6413853800623 0.39198731909164053 -0.015580564525826755 -0.012291299182834337 -0.015580564525826755 -2499.7372652590584 0.015847279619265464 -0.012291299182834337 0.015847279619265464 -9999.6433279787161 0.40314296949691197 0.00048381198047039997 0.008971573846793035 0.00048381198047039997 -2499.7514149002436 -0.0019129294687445508 0.008971573846793035 -0.0019129294687445508 -9999.6302967894007 0.39380797380908916 0.0049748462472517935 0.0080650851741665974 0.0049748462472517935 -2499.7786508974368 -0.0013005473992961925 0.0080650851741665974 -0.0013005473992961925 -9999.6360974962445 0.37774405412710621 0.0012209194949720087 -0.011773742170589685 0.0012209194949720087 -2499.7739409328751 0.0089341666680411436 -0.011773742170589685 0.0089341666680411436 -9999.6343587951415 0.44766877692381968 0.00090901466737123432 -0.0037643447212758474 0.00090901466737123432 -2499.739385760593 -0.0040103676983562764 -0.0037643447212758474 -0.0040103676983562764 -9999.6337084676998 0.45162333933330956 -0.0012176218134568942 -0.002629746373713715 -0.0012176218134568942 -2499.7402782335848 -0.0039829210340940335 -0.002629746373713715 -0.0039829210340940335 -9999.6326816474029 0.40371527294064435 0.026008030961806247 -0.0017445965604565572 0.026008030961806247 -2499.7016847746845 0.01687006747306441 -0.0017445965604565572 0.01687006747306441 -9999.6249119111872 0.41197600973896442 0.024244209347035028 -0.013422719850495923 0.024244209347035028 -2499.7165092068744 0.0084147780653438531 -0.013422719850495923 0.0084147780653438531 -9999.6119797220126 0.46102518986936047 0.0042813256572999739 -0.0022769455999878119 0.0042813256572999739 -2499.7171525722924 -0.0032492462887603324 -0.0022769455999878119 -0.0032492462887603324 -9999.6278423929944 0.40582331979749142 0.026487995556588324 -0.010349936806051119 0.026487995556588324 -2499.7181754054491 0.0053588999244311708 -0.010349936806051119 0.0053588999244311708 -9999.6349269858183 0.44134964909881091 0.01153365043366842 0.0024540017438994255 0.01153365043366842 -2499.7243496333986 -0.009344938854155771 0.0024540017438994255 -0.009344938854155771 -9999.631889671924 0.42635950397561828 0.023109906807718846 0.0029272449173731729 0.023109906807718846 -2499.7469437635718 -0.0060161895016790368 0.0029272449173731729 -0.0060161895016790368 -9999.6303848029856 
</DataArray>
</CellData>
</Piece>
</UnstructuredGrid>
</VTKFile>
