<?xml version="1.0"?>
<VTKFile type="UnstructuredGrid" version="0.1" byte_order="LittleEndian">
<UnstructuredGrid>
<Piece NumberOfPoints="2876" NumberOfCells="719">
<Points>
<DataArray type="Float64" NumberOfComponents="3" format="ascii">
0.31610726166346748 0.18804489794572149 0 0.16929708765618309 0.30074819035915368 0 0.14641016151452901 0.14641016151487049 0 0.312576188949791 0.31458070521983672 0.3125761889497819 0 0.20000000000083221 0 0 0 0 0.14641016151452901 0.14641016151487049 0 0 0.14641016151432179 0.14641016151432179 0 0 0 0.19999999999955789 0 0 0.14641016151452901 0.14641016151487049 0 0.1464101615145241 0 0.14641016151486561 0 0.14641016151432179 0.14641016151432179 0 0 0.20000000000083221 0 0 0 0.1464101615145241 0 0.14641016151486561 0 0.14641016151432179 0.14641016151432179 0 0.30074819035869899 0.1692970876565193 0 0.18804489794560331 0.31610726166461361 0.312576188949791 0.31458070521983672 0.3125761889497819 0.31578456131778371 0 0.1865278143482666 0.1464101615145241 0 0.14641016151486561 0.16938214347656569 0 0.30011357660650623 0.312576188949791 0.31458070521983672 0.3125761889497819 0 0.14641016151432179 0.14641016151432179 0 0 0 0.14641016151452901 0.14641016151487049 0 0.1464101615145241 0 0.14641016151486561 0.14641016151452901 0.14641016151487049 0 0.1464101615145241 0 0.14641016151486561 0.31578456131778371 0 0.1865278143482666 0.312576188949791 0.31458070521983672 0.3125761889497819 0.14641016151452901 0.14641016151487049 0 0 0.30074819035869899 0.1692970876565193 0 0.14641016151432179 0.14641016151432179 0.312576188949791 0.31458070521983672 0.3125761889497819 0.14641016151452901 0.14641016151487049 0 0 0.14641016151432179 0.14641016151432179 0.1464101615145241 0 0.14641016151486561 0.312576188949791 0.31458070521983672 0.3125761889497819 0 0.14641016151432179 0.14641016151432179 0.16938214347656569 0 0.30011357660650623 0.1464101615145241 0 0.14641016151486561 0.312576188949791 0.31458070521983672 0.3125761889497819 0.1464101615145241 0 0.14641016151486561 0 0.14641016151432179 0.14641016151432179 0 0 0.20000000000083221 0.16938214347656569 0 0.30011357660650623 0 0.18804489794560331 0.31610726166461361 0 0 0.20000000000083221 0 0.14641016151432179 0.14641016151432179 0.16938214347656569 0 0.30011357660650623 0 0.14641016151432179 0.14641016151432179 0.14641016151452901 0.14641016151487049 0 0 0.20000000000083221 0 0 0.30074819035869899 0.1692970876565193 0 0.30074819035869899 0.1692970876565193 0.14641016151452901 0.14641016151487049 0 0 0.20000000000083221 0 0.16929708765618309 0.30074819035915368 0 0.19999999999955789 0 0 0.14641016151452901 0.14641016151487049 0 0.31578456131778371 0 0.1865278143482666 0.31610726166346748 0.18804489794572149 0 0.19999999999955789 0 0 0.14641016151452901 0.14641016151487049 0 0.1464101615145241 0 0.14641016151486561 0.31578456131778371 0 0.1865278143482666 0.31578456131778371 0 0.1865278143482666 0.3999999999989749 0 0 0.19999999999955789 0 0 0.31610726166346748 0.18804489794572149 0 0.31578456131778371 0 0.1865278143482666 0.31610726166346748 0.18804489794572149 0 0.14641016151452901 0.14641016151487049 0 0.312576188949791 0.31458070521983672 0.3125761889497819 0.31610726166346748 0.18804489794572149 0 0.312576188949791 0.31458070521983672 0.3125761889497819 0.31578456131778371 0 0.1865278143482666 0.5003997205654479 0.21136633249797621 0.2258422409314382 0.31610726166346748 0.18804489794572149 0 0.49391845158624981 0 0.1323760430705655 0.50966790549376417 0.16275515618023731 0 0.5003997205654479 0.21136633249797621 0.2258422409314382 0.31610726166346748 0.18804489794572149 0 0.50966790549376417 0.16275515618023731 0 0.45812322962036273 0.31024977578535839 0 0.5003997205654479 0.21136633249797621 0.2258422409314382 0.49391845158624981 0 0.1323760430705655 0.3999999999989749 0 0 0.31610726166346748 0.18804489794572149 0 0.50966790549376417 0.16275515618023731 0 0.49391845158624981 0 0.1323760430705655 0.3999999999989749 0 0 0.31578456131778371 0 0.1865278143482666 0.31610726166346748 0.18804489794572149 0 0.31578456131778371 0 0.1865278143482666 0.47688326899416439 0 0.31741132792405607 0.49391845158624981 0 0.1323760430705655 0.5003997205654479 0.21136633249797621 0.2258422409314382 0.31610726166346748 0.18804489794572149 0 0.31578456131778371 0 0.1865278143482666 0.49391845158624981 0 0.1323760430705655 0.5003997205654479 0.21136633249797621 0.2258422409314382 0.31030302876556398 0 0.54179813558513157 0.50073570207385831 0.24848280280289631 0.52886631355986169 0.32146143392436449 0 0.38738071487621961 0.22088738526309029 0.22111069116742441 0.50004796911802929 0.32146143392436449 0 0.38738071487621961 0.312576188949791 0.31458070521983672 0.3125761889497819 0.16938214347656569 0 0.30011357660650623 0.22088738526309029 0.22111069116742441 0.50004796911802929 0.32146143392436449 0 0.38738071487621961 0.50073570207385831 0.24848280280289631 0.52886631355986169 0.312576188949791 0.31458070521983672 0.3125761889497819 0.22088738526309029 0.22111069116742441 0.50004796911802929 0.32146143392436449 0 0.38738071487621961 0.50073570207385831 0.24848280280289631 0.52886631355986169 0.47688326899416439 0 0.31741132792405607 0.5003997205654479 0.21136633249797621 0.2258422409314382 0.32146143392436449 0 0.38738071487621961 0.312576188949791 0.31458070521983672 0.3125761889497819 0.50073570207385831 0.24848280280289631 0.52886631355986169 0.5003997205654479 0.21136633249797621 0.2258422409314382 0.32146143392436449 0 0.38738071487621961 0.31578456131778371 0 0.1865278143482666 0.16938214347656569 0 0.30011357660650623 0.312576188949791 0.31458070521983672 0.3125761889497819 0.31578456131778371 0 0.1865278143482666 0.312576188949791 0.31458070521983672 0.3125761889497819 0.32146143392436449 0 0.38738071487621961 0.5003997205654479 0.21136633249797621 0.2258422409314382 0.31578456131778371 0 0.1865278143482666 0.32146143392436449 0 0.38738071487621961 0.47688326899416439 0 0.31741132792405607 0.5003997205654479 0.21136633249797621 0.2258422409314382 0.31030302876556398 0 0.54179813558513157 0.50000000000250922 0 0.48038475773043671 0.32146143392436449 0 0.38738071487621961 0.50073570207385831 0.24848280280289631 0.52886631355986169 0.32146143392436449 0 0.38738071487621961 0.50000000000250922 0 0.48038475773043671 0.47688326899416439 0 0.31741132792405607 0.50073570207385831 0.24848280280289631 0.52886631355986169 0.16370661204827031 0 0.4886650857430957 0.31030302876556398 0 0.54179813558513157 0.32146143392436449 0 0.38738071487621961 0.22088738526309029 0.22111069116742441 0.50004796911802929 0.16370661204827031 0 0.4886650857430957 0.32146143392436449 0 0.38738071487621961 0.16938214347656569 0 0.30011357660650623 0.22088738526309029 0.22111069116742441 0.50004796911802929 0.16938214347656569 0 0.30011357660650623 0 0.14641016151432179 0.14641016151432179 0 0.18804489794560331 0.31610726166461361 0.312576188949791 0.31458070521983672 0.3125761889497819 0 0.18804489794560331 0.31610726166461361 0.16370661204827031 0 0.4886650857430957 0.16938214347656569 0 0.30011357660650623 0.22088738526309029 0.22111069116742441 0.50004796911802929 0 0.18804489794560331 0.31610726166461361 0.16938214347656569 0 0.30011357660650623 0.312576188949791 0.31458070521983672 0.3125761889497819 0.22088738526309029 0.22111069116742441 0.50004796911802929 0 0 0.40000000000166441 0 0 0.60000000000138687 0.16370661204827031 0 0.4886650857430957 0 0.16275515618034081 0.50966790549591257 0 0 0.40000000000166441 0 0.18804489794560331 0.31610726166461361 0.16370661204827031 0 0.4886650857430957 0.16938214347656569 0 0.30011357660650623 0.16370661204827031 0 0.4886650857430957 0 0.18804489794560331 0.31610726166461361 0 0 0.40000000000166441 0 0.16275515618034081 0.50966790549591257 0 0.18804489794560331 0.31610726166461361 0 0 0.40000000000166441 0 0 0.20000000000083221 0.16938214347656569 0 0.30011357660650623 0 0.18804489794560331 0.31610726166461361 0 0.16275515618034081 0.50966790549591257 0.16370661204827031 0 0.4886650857430957 0.22088738526309029 0.22111069116742441 0.50004796911802929 0 0.18804489794560331 0.31610726166461361 0 0.31024977578556651 0.45812322962166352 0 0.16275515618034081 0.50966790549591257 0.22088738526309029 0.22111069116742441 0.50004796911802929 0 0.30074819035869899 0.1692970876565193 0 0.39615100178029522 0.32925244736138171 0 0.18804489794560331 0.31610726166461361 0.312576188949791 0.31458070521983672 0.3125761889497819 0 0.31024977578556651 0.45812322962166352 0.312576188949791 0.31458070521983672 0.3125761889497819 0.24769234054476261 0.52242103280823293 0.45098450226372488 0.22088738526309029 0.22111069116742441 0.50004796911802929 0 0.18804489794560331 0.31610726166461361 0 0.39615100178029522 0.32925244736138171 0 0.31024977578556651 0.45812322962166352 0.312576188949791 0.31458070521983672 0.3125761889497819 0 0.39615100178029522 0.32925244736138171 0.24769234054476261 0.52242103280823293 0.45098450226372488 0.312576188949791 0.31458070521983672 0.3125761889497819 0.22345881830598399 0.5062398304147856 0.22345881830602041 0 0.31024977578556651 0.45812322962166352 0.312576188949791 0.31458070521983672 0.3125761889497819 0 0.39615100178029522 0.32925244736138171 0.24769234054476261 0.52242103280823293 0.45098450226372488 0 0.30074819035869899 0.1692970876565193 0 0.39615100178029522 0.32925244736138171 0.312576188949791 0.31458070521983672 0.3125761889497819 0.22345881830598399 0.5062398304147856 0.22345881830602041 0 0.18804489794560331 0.31610726166461361 0.312576188949791 0.31458070521983672 0.3125761889497819 0 0.31024977578556651 0.45812322962166352 0.22088738526309029 0.22111069116742441 0.50004796911802929 0 0.31024977578556651 0.45812322962166352 0 0.39615100178029522 0.32925244736138171 0 0.50000000000237477 0.51961524226909872 0.24769234054476261 0.52242103280823293 0.45098450226372488 0.50000000000001332 0.49999999999999561 0.49999999999999561 0.50073570207385831 0.24848280280289631 0.52886631355986169 0.312576188949791 0.31458070521983672 0.3125761889497819 0.5004045312576143 0.47050700646456922 0.24963111222780321 0.24769234054476261 0.52242103280823293 0.45098450226372488 0.5004045312576143 0.47050700646456922 0.24963111222780321 0.312576188949791 0.31458070521983672 0.3125761889497819 0.22345881830598399 0.5062398304147856 0.22345881830602041 0.312576188949791 0.31458070521983672 0.3125761889497819 0.5004045312576143 0.47050700646456922 0.24963111222780321 0.50073570207385831 0.24848280280289631 0.52886631355986169 0.5003997205654479 0.21136633249797621 0.2258422409314382 0.50000000000001332 0.49999999999999561 0.49999999999999561 0.24769234054476261 0.52242103280823293 0.45098450226372488 0.312576188949791 0.31458070521983672 0.3125761889497819 0.50073570207385831 0.24848280280289631 0.52886631355986169 0.312576188949791 0.31458070521983672 0.3125761889497819 0.24769234054476261 0.52242103280823293 0.45098450226372488 0.50000000000001332 0.49999999999999561 0.49999999999999561 0.5004045312576143 0.47050700646456922 0.24963111222780321 0.312576188949791 0.31458070521983672 0.3125761889497819 0.50073570207385831 0.24848280280289631 0.52886631355986169 0.24769234054476261 0.52242103280823293 0.45098450226372488 0.22088738526309029 0.22111069116742441 0.50004796911802929 0.32925244736090059 0.39615100178043078 0 0.312576188949791 0.31458070521983672 0.3125761889497819 0.45812322962036273 0.31024977578535839 0 0.5004045312576143 0.47050700646456922 0.24963111222780321 0.32925244736090059 0.39615100178043078 0 0.5004045312576143 0.47050700646456922 0.24963111222780321 0.32446581821364329 0.60020898676454815 0 0.22345881830598399 0.5062398304147856 0.22345881830602041 0.45812322962036273 0.31024977578535839 0 0.5004045312576143 0.47050700646456922 0.24963111222780321 0.312576188949791 0.31458070521983672 0.3125761889497819 0.5003997205654479 0.21136633249797621 0.2258422409314382 0.45812322962036273 0.31024977578535839 0 0.32925244736090059 0.39615100178043078 0 0.31610726166346748 0.18804489794572149 0 0.312576188949791 0.31458070521983672 0.3125761889497819 0.16929708765618309 0.30074819035915368 0 0.312576188949791 0.31458070521983672 0.3125761889497819 0.32925244736090059 0.39615100178043078 0 0.22345881830598399 0.5062398304147856 0.22345881830602041 0.31610726166346748 0.18804489794572149 0 0.45812322962036273 0.31024977578535839 0 0.312576188949791 0.31458070521983672 0.3125761889497819 0.5003997205654479 0.21136633249797621 0.2258422409314382 0.32925244736090059 0.39615100178043078 0 0.312576188949791 0.31458070521983672 0.3125761889497819 0.5004045312576143 0.47050700646456922 0.24963111222780321 0.22345881830598399 0.5062398304147856 0.22345881830602041 0.32925244736090059 0.39615100178043078 0 0.16929708765618309 0.30074819035915368 0 0.31610726166346748 0.18804489794572149 0 0.312576188949791 0.31458070521983672 0.3125761889497819 0.32446581821364329 0.60020898676454815 0 0.32925244736090059 0.39615100178043078 0 0.51961524226956368 0.5000000000025091 0 0.5004045312576143 0.47050700646456922 0.24963111222780321 0.51961524226956368 0.5000000000025091 0 0.32925244736090059 0.39615100178043078 0 0.45812322962036273 0.31024977578535839 0 0.5004045312576143 0.47050700646456922 0.24963111222780321 0 0.30074819035869899 0.1692970876565193 0.14641016151452901 0.14641016151487049 0 0.16929708765618309 0.30074819035915368 0 0.312576188949791 0.31458070521983672 0.3125761889497819 0 0.30074819035869899 0.1692970876565193 0.312576188949791 0.31458070521983672 0.3125761889497819 0.16929708765618309 0.30074819035915368 0 0.22345881830598399 0.5062398304147856 0.22345881830602041 0.17226134197279269 0.49836539647922029 0 0 0.49836539647891548 0.17226134197271731 0.16929708765618309 0.30074819035915368 0 0.22345881830598399 0.5062398304147856 0.22345881830602041 0.17226134197279269 0.49836539647922029 0 0.16929708765618309 0.30074819035915368 0 0.32925244736090059 0.39615100178043078 0 0.22345881830598399 0.5062398304147856 0.22345881830602041 0 0.30074819035869899 0.1692970876565193 0 0.20000000000083221 0 0 0.40000000000166441 0 0.16929708765618309 0.30074819035915368 0 0 0.30074819035869899 0.1692970876565193 0 0.40000000000166441 0 0 0.49836539647891548 0.17226134197271731 0.16929708765618309 0.30074819035915368 0 0 0.30074819035869899 0.1692970876565193 0.16929708765618309 0.30074819035915368 0 0 0.49836539647891548 0.17226134197271731 0.22345881830598399 0.5062398304147856 0.22345881830602041 0 0.30074819035869899 0.1692970876565193 0 0.49836539647891548 0.17226134197271731 0 0.39615100178029522 0.32925244736138171 0.22345881830598399 0.5062398304147856 0.22345881830602041 0 0.49836539647891548 0.17226134197271731 0 0.40000000000166441 0 0 0.60000000000138687 0 0.17226134197279269 0.49836539647922029 0 0.16929708765618309 0.30074819035915368 0 0 0.40000000000166441 0 0 0.49836539647891548 0.17226134197271731 0.17226134197279269 0.49836539647922029 0 0 0.69449451837103049 0.15896804272139439 0 0.60020898676435996 0.32446581821286191 0.22345881830598399 0.5062398304147856 0.22345881830602041 0.19259015428765269 0.77719169076434647 0.19259015428773721 0.1589680427220837 0.69449451837091269 0 0 0.69449451837103049 0.15896804272139439 0.22345881830598399 0.5062398304147856 0.22345881830602041 0.19259015428765269 0.77719169076434647 0.19259015428773721 0 0.69449451837103049 0.15896804272139439 0.17226134197279269 0.49836539647922029 0 0 0.60000000000138687 0 0.1589680427220837 0.69449451837091269 0 0.32446581821364329 0.60020898676454815 0 0.1589680427220837 0.69449451837091269 0 0.22345881830598399 0.5062398304147856 0.22345881830602041 0.19259015428765269 0.77719169076434647 0.19259015428773721 0 0.60000000000138687 0 0 0.49836539647891548 0.17226134197271731 0.17226134197279269 0.49836539647922029 0 0 0.69449451837103049 0.15896804272139439 0 0.69449451837103049 0.15896804272139439 0 0.60000000000138687 0 0 0.79999999999999982 0 0.1589680427220837 0.69449451837091269 0 0.31067093463127438 0.81480288849489035 0 0.1589680427220837 0.69449451837091269 0 0.32446581821364329 0.60020898676454815 0 0.19259015428765269 0.77719169076434647 0.19259015428773721 0.32446581821364329 0.60020898676454815 0 0.1589680427220837 0.69449451837091269 0 0.17226134197279269 0.49836539647922029 0 0.22345881830598399 0.5062398304147856 0.22345881830602041 0.1589680427220837 0.69449451837091269 0 0 0.69449451837103049 0.15896804272139439 0.17226134197279269 0.49836539647922029 0 0.22345881830598399 0.5062398304147856 0.22345881830602041 0 0.69449451837103049 0.15896804272139439 0 0.81480288849496429 0.31067093462946233 0 0.60020898676435996 0.32446581821286191 0.19259015428765269 0.77719169076434647 0.19259015428773721 0 0.49836539647891548 0.17226134197271731 0 0.69449451837103049 0.15896804272139439 0 0.60020898676435996 0.32446581821286191 0.22345881830598399 0.5062398304147856 0.22345881830602041 0 0.49836539647891548 0.17226134197271731 0.17226134197279269 0.49836539647922029 0 0 0.69449451837103049 0.15896804272139439 0.22345881830598399 0.5062398304147856 0.22345881830602041 0 0.60020898676435996 0.32446581821286191 0.22516916914780419 0.77057994845201627 0.48187244075707292 0.35848654557803328 0.70013656506632282 0.30029870175293161 0.19259015428765269 0.77719169076434647 0.19259015428773721 0 0.60020898676435996 0.32446581821286191 0.24769234054476261 0.52242103280823293 0.45098450226372488 0 0.39615100178029522 0.32925244736138171 0.22345881830598399 0.5062398304147856 0.22345881830602041 0 0.60020898676435996 0.32446581821286191 0 0.81480288849496429 0.31067093462946233 0.22516916914780419 0.77057994845201627 0.48187244075707292 0.19259015428765269 0.77719169076434647 0.19259015428773721 0.35848654557803328 0.70013656506632282 0.30029870175293161 0.22345881830598399 0.5062398304147856 0.22345881830602041 0 0.60020898676435996 0.32446581821286191 0.19259015428765269 0.77719169076434647 0.19259015428773721 0 0.49836539647891548 0.17226134197271731 0 0.60020898676435996 0.32446581821286191 0 0.39615100178029522 0.32925244736138171 0.22345881830598399 0.5062398304147856 0.22345881830602041 0 0.60020898676435996 0.32446581821286191 0.24769234054476261 0.52242103280823293 0.45098450226372488 0.35848654557803328 0.70013656506632282 0.30029870175293161 0.22516916914780419 0.77057994845201627 0.48187244075707292 0.35848654557803328 0.70013656506632282 0.30029870175293161 0.24769234054476261 0.52242103280823293 0.45098450226372488 0 0.60020898676435996 0.32446581821286191 0.22345881830598399 0.5062398304147856 0.22345881830602041 0 0.39615100178029522 0.32925244736138171 0 0.60020898676435996 0.32446581821286191 0 0.50000000000237477 0.51961524226909872 0.24769234054476261 0.52242103280823293 0.45098450226372488 0 0.68801781652248195 0.45664527743358641 0 0.50000000000237477 0.51961524226909872 0 0.60020898676435996 0.32446581821286191 0.24769234054476261 0.52242103280823293 0.45098450226372488 0 0.66416205381430016 0.59944234540882957 0.24769234054476261 0.52242103280823293 0.45098450226372488 0 0.68801781652248195 0.45664527743358641 0.22516916914780419 0.77057994845201627 0.48187244075707292 0 0.60020898676435996 0.32446581821286191 0 0.81480288849496429 0.31067093462946233 0 0.68801781652248195 0.45664527743358641 0.22516916914780419 0.77057994845201627 0.48187244075707292 0 0.68801781652248195 0.45664527743358641 0.24769234054476261 0.52242103280823293 0.45098450226372488 0 0.60020898676435996 0.32446581821286191 0.22516916914780419 0.77057994845201627 0.48187244075707292 0.16929708765615539 1 0.30074819035677097 0.32926555316115258 1 0.39615987727515128 0.22516916914780419 0.77057994845201627 0.48187244075707292 0.19259015428765269 0.77719169076434647 0.19259015428773721 0 0.81480288849496429 0.31067093462946233 0.16929708765615539 1 0.30074819035677097 0.22516916914780419 0.77057994845201627 0.48187244075707292 0.19259015428765269 0.77719169076434647 0.19259015428773721 0.17226134197293 1 0.49836539647645101 0 0.83630110503664845 0.50803330197135654 0 0.81480288849496429 0.31067093462946233 0.22516916914780419 0.77057994845201627 0.48187244075707292 0 0.68801781652248195 0.45664527743358641 0 0.81480288849496429 0.31067093462946233 0 0.83630110503664845 0.50803330197135654 0.22516916914780419 0.77057994845201627 0.48187244075707292 0.17226134197293 1 0.49836539647645101 0 1 0.3999999999989749 0 0.81480288849496429 0.31067093462946233 0 0.83630110503664845 0.50803330197135654 0 0.81480288849496429 0.31067093462946233 0.16929708765615539 1 0.30074819035677097 0 1 0.3999999999989749 0.17226134197293 1 0.49836539647645101 0.17226134197293 1 0.49836539647645101 0 0.81480288849496429 0.31067093462946233 0.16929708765615539 1 0.30074819035677097 0.22516916914780419 0.77057994845201627 0.48187244075707292 0.17226134197293 1 0.49836539647645101 0.16929708765615539 1 0.30074819035677097 0.32926555316115258 1 0.39615987727515128 0.22516916914780419 0.77057994845201627 0.48187244075707292 0 1 0.3999999999989749 0 1 0.19999999999955789 0.16929708765615539 1 0.30074819035677097 0 0.81480288849496429 0.31067093462946233 0.16929708765615539 1 0.30074819035677097 0 1 0.19999999999955789 0 0.85358983848655678 0.14641016151332509 0 0.81480288849496429 0.31067093462946233 0.14641016151352521 1 0.1464101615131837 0 1 0.19999999999955789 0 0.85358983848655678 0.14641016151332509 0.16929708765615539 1 0.30074819035677097 0.20000000000083221 1 0 0 1 0 0.14641016151479211 0.85358983848543113 0 0.14641016151352521 1 0.1464101615131837 0 0.85358983848655678 0.14641016151332509 0 1 0 0 1 0.19999999999955789 0.14641016151352521 1 0.1464101615131837 0 0.85358983848655678 0.14641016151332509 0.14641016151479211 0.85358983848543113 0 0 1 0 0.14641016151352521 1 0.1464101615131837 0.14641016151479211 0.85358983848543113 0 0 1 0 0 0.79999999999999982 0 0 0.85358983848655678 0.14641016151332509 0 0.85358983848655678 0.14641016151332509 0 0.69449451837103049 0.15896804272139439 0.1589680427220837 0.69449451837091269 0 0.19259015428765269 0.77719169076434647 0.19259015428773721 0 0.79999999999999982 0 0.1589680427220837 0.69449451837091269 0 0.14641016151479211 0.85358983848543113 0 0 0.85358983848655678 0.14641016151332509 0.14641016151352521 1 0.1464101615131837 0 0.85358983848655678 0.14641016151332509 0.14641016151479211 0.85358983848543113 0 0.19259015428765269 0.77719169076434647 0.19259015428773721 0.1589680427220837 0.69449451837091269 0 0 0.79999999999999982 0 0 0.69449451837103049 0.15896804272139439 0 0.85358983848655678 0.14641016151332509 0.1589680427220837 0.69449451837091269 0 0.14641016151479211 0.85358983848543113 0 0 0.85358983848655678 0.14641016151332509 0.19259015428765269 0.77719169076434647 0.19259015428773721 0.16929708765615539 1 0.30074819035677097 0 0.81480288849496429 0.31067093462946233 0 0.85358983848655678 0.14641016151332509 0.19259015428765269 0.77719169076434647 0.19259015428773721 0 0.85358983848655678 0.14641016151332509 0 0.81480288849496429 0.31067093462946233 0 0.69449451837103049 0.15896804272139439 0.19259015428765269 0.77719169076434647 0.19259015428773721 0.14641016151352521 1 0.1464101615131837 0.14641016151479211 0.85358983848543113 0 0.31067093463127438 0.81480288849489035 0 0.19259015428765269 0.77719169076434647 0.19259015428773721 0.1589680427220837 0.69449451837091269 0 0.31067093463127438 0.81480288849489035 0 0.14641016151479211 0.85358983848543113 0 0.19259015428765269 0.77719169076434647 0.19259015428773721 0.14641016151479211 0.85358983848543113 0 0.31067093463127438 0.81480288849489035 0 0.20000000000083221 1 0 0.14641016151352521 1 0.1464101615131837 0.31635851157303152 1 0.18818969570840721 0.20000000000083221 1 0 0.31067093463127438 0.81480288849489035 0 0.14641016151352521 1 0.1464101615131837 0.31067093463127438 0.81480288849489035 0 0.31635851157303152 1 0.18818969570840721 0.14641016151352521 1 0.1464101615131837 0.19259015428765269 0.77719169076434647 0.19259015428773721 0.31635851157303152 1 0.18818969570840721 0.16929708765615539 1 0.30074819035677097 0.14641016151352521 1 0.1464101615131837 0.19259015428765269 0.77719169076434647 0.19259015428773721 0.14641016151352521 1 0.1464101615131837 0.16929708765615539 1 0.30074819035677097 0 0.85358983848655678 0.14641016151332509 0.19259015428765269 0.77719169076434647 0.19259015428773721 0.35848654557803328 0.70013656506632282 0.30029870175293161 0.19259015428765269 0.77719169076434647 0.19259015428773721 0.31635851157303152 1 0.18818969570840721 0.52894546611500048 0.79133000140429866 0.2082794184507949 0.31067093463127438 0.81480288849489035 0 0.19259015428765269 0.77719169076434647 0.19259015428773721 0.35848654557803328 0.70013656506632282 0.30029870175293161 0.52894546611500048 0.79133000140429866 0.2082794184507949 0.31067093463127438 0.81480288849489035 0 0.31635851157303152 1 0.18818969570840721 0.19259015428765269 0.77719169076434647 0.19259015428773721 0.52894546611500048 0.79133000140429866 0.2082794184507949 0.31067093463127438 0.81480288849489035 0 0.40000000000166441 1 0 0.20000000000083221 1 0 0.31635851157303152 1 0.18818969570840721 0.31067093463127438 0.81480288849489035 0 0.50803330197353713 0.83630110503668265 0 0.31635851157303152 1 0.18818969570840721 0.52894546611500048 0.79133000140429866 0.2082794184507949 0.45664527743509797 0.68801781652245086 0 0.50803330197353713 0.83630110503668265 0 0.31067093463127438 0.81480288849489035 0 0.52894546611500048 0.79133000140429866 0.2082794184507949 0.51133491425992716 1 0.16370661204795281 0.31635851157303152 1 0.18818969570840721 0.40000000000166441 1 0 0.50803330197353713 0.83630110503668265 0 0.31635851157303152 1 0.18818969570840721 0.31067093463127438 0.81480288849489035 0 0.40000000000166441 1 0 0.50803330197353713 0.83630110503668265 0 0.51133491425992716 1 0.16370661204795281 0.45820186441796368 1 0.31030302876579191 0.31635851157303152 1 0.18818969570840721 0.52894546611500048 0.79133000140429866 0.2082794184507949 0.51133491425992716 1 0.16370661204795281 0.31635851157303152 1 0.18818969570840721 0.50803330197353713 0.83630110503668265 0 0.52894546611500048 0.79133000140429866 0.2082794184507949 0.32926555316115258 1 0.39615987727515128 0.35848654557803328 0.70013656506632282 0.30029870175293161 0.49983993748706529 0.75039103705932653 0.52967335724801234 0.22516916914780419 0.77057994845201627 0.48187244075707292 0.35848654557803328 0.70013656506632282 0.30029870175293161 0.22516916914780419 0.77057994845201627 0.48187244075707292 0.32926555316115258 1 0.39615987727515128 0.19259015428765269 0.77719169076434647 0.19259015428773721 0.31635851157303152 1 0.18818969570840721 0.45820186441796368 1 0.31030302876579191 0.32926555316115258 1 0.39615987727515128 0.35848654557803328 0.70013656506632282 0.30029870175293161 0.45820186441796368 1 0.31030302876579191 0.35848654557803328 0.70013656506632282 0.30029870175293161 0.31635851157303152 1 0.18818969570840721 0.52894546611500048 0.79133000140429866 0.2082794184507949 0.31635851157303152 1 0.18818969570840721 0.35848654557803328 0.70013656506632282 0.30029870175293161 0.32926555316115258 1 0.39615987727515128 0.19259015428765269 0.77719169076434647 0.19259015428773721 0.45820186441796368 1 0.31030302876579191 0.49983993748706529 0.75039103705932653 0.52967335724801234 0.35848654557803328 0.70013656506632282 0.30029870175293161 0.52894546611500048 0.79133000140429866 0.2082794184507949 0.45820186441796368 1 0.31030302876579191 0.32926555316115258 1 0.39615987727515128 0.35848654557803328 0.70013656506632282 0.30029870175293161 0.49983993748706529 0.75039103705932653 0.52967335724801234 0.31635851157303152 1 0.18818969570840721 0.32926555316115258 1 0.39615987727515128 0.16929708765615539 1 0.30074819035677097 0.19259015428765269 0.77719169076434647 0.19259015428773721 0.32926555316115258 1 0.39615987727515128 0.32448110831226962 1 0.6002015905153204 0.17226134197293 1 0.49836539647645101 0.22516916914780419 0.77057994845201627 0.48187244075707292 0.45820186441796368 1 0.31030302876579191 0.51961524227008238 1 0.49999999999872219 0.32926555316115258 1 0.39615987727515128 0.49983993748706529 0.75039103705932653 0.52967335724801234 0.24769234054476261 0.52242103280823293 0.45098450226372488 0.49983993748706529 0.75039103705932653 0.52967335724801234 0.35848654557803328 0.70013656506632282 0.30029870175293161 0.22516916914780419 0.77057994845201627 0.48187244075707292 0.35848654557803328 0.70013656506632282 0.30029870175293161 0.50000000000001332 0.49999999999999561 0.49999999999999561 0.24769234054476261 0.52242103280823293 0.45098450226372488 0.5004045312576143 0.47050700646456922 0.24963111222780321 0.35848654557803328 0.70013656506632282 0.30029870175293161 0.24769234054476261 0.52242103280823293 0.45098450226372488 0.50000000000001332 0.49999999999999561 0.49999999999999561 0.49983993748706529 0.75039103705932653 0.52967335724801234 0.35848654557803328 0.70013656506632282 0.30029870175293161 0.5004045312576143 0.47050700646456922 0.24963111222780321 0.24769234054476261 0.52242103280823293 0.45098450226372488 0.22345881830598399 0.5062398304147856 0.22345881830602041 0.35848654557803328 0.70013656506632282 0.30029870175293161 0.32446581821364329 0.60020898676454815 0 0.5004045312576143 0.47050700646456922 0.24963111222780321 0.22345881830598399 0.5062398304147856 0.22345881830602041 0.31067093463127438 0.81480288849489035 0 0.32446581821364329 0.60020898676454815 0 0.45664527743509797 0.68801781652245086 0 0.35848654557803328 0.70013656506632282 0.30029870175293161 0.32446581821364329 0.60020898676454815 0 0.22345881830598399 0.5062398304147856 0.22345881830602041 0.35848654557803328 0.70013656506632282 0.30029870175293161 0.19259015428765269 0.77719169076434647 0.19259015428773721 0.32446581821364329 0.60020898676454815 0 0.45664527743509797 0.68801781652245086 0 0.35848654557803328 0.70013656506632282 0.30029870175293161 0.5004045312576143 0.47050700646456922 0.24963111222780321 0.31067093463127438 0.81480288849489035 0 0.32446581821364329 0.60020898676454815 0 0.35848654557803328 0.70013656506632282 0.30029870175293161 0.19259015428765269 0.77719169076434647 0.19259015428773721 0.45664527743509797 0.68801781652245086 0 0.31067093463127438 0.81480288849489035 0 0.35848654557803328 0.70013656506632282 0.30029870175293161 0.52894546611500048 0.79133000140429866 0.2082794184507949 0.35848654557803328 0.70013656506632282 0.30029870175293161 0.5004045312576143 0.47050700646456922 0.24963111222780321 0.45664527743509797 0.68801781652245086 0 0.52894546611500048 0.79133000140429866 0.2082794184507949 0.17226134197279269 0.49836539647922029 0 0.32925244736090059 0.39615100178043078 0 0.32446581821364329 0.60020898676454815 0 0.22345881830598399 0.5062398304147856 0.22345881830602041 0.32446581821364329 0.60020898676454815 0 0.51961524226956368 0.5000000000025091 0 0.45664527743509797 0.68801781652245086 0 0.5004045312576143 0.47050700646456922 0.24963111222780321 0.72722573386132172 0.60922248848163563 0 0.68456408135056701 0.68607101396845627 0.31096060989957619 0.59944234541082553 0.66416205381394655 0 0.77713227489941183 0.50036915849493024 0.21774643624003751 0.68456408135056701 0.68607101396845627 0.31096060989957619 0.5004045312576143 0.47050700646456922 0.24963111222780321 0.59944234541082553 0.66416205381394655 0 0.77713227489941183 0.50036915849493024 0.21774643624003751 0.59944234541082553 0.66416205381394655 0 0.45664527743509797 0.68801781652245086 0 0.5004045312576143 0.47050700646456922 0.24963111222780321 0.52894546611500048 0.79133000140429866 0.2082794184507949 0.51961524226956368 0.5000000000025091 0 0.67320508075660079 0.46954769941202479 0 0.59944234541082553 0.66416205381394655 0 0.5004045312576143 0.47050700646456922 0.24963111222780321 0.59944234541082553 0.66416205381394655 0 0.5004045312576143 0.47050700646456922 0.24963111222780321 0.68456408135056701 0.68607101396845627 0.31096060989957619 0.52894546611500048 0.79133000140429866 0.2082794184507949 0.59944234541082553 0.66416205381394655 0 0.5004045312576143 0.47050700646456922 0.24963111222780321 0.67320508075660079 0.46954769941202479 0 0.77713227489941183 0.50036915849493024 0.21774643624003751 0.59944234541082553 0.66416205381394655 0 0.52894546611500048 0.79133000140429866 0.2082794184507949 0.68456408135056701 0.68607101396845627 0.31096060989957619 0.81582077266975173 0.77657922508894406 0.18483084990574741 0.59944234541082553 0.66416205381394655 0 0.45664527743509797 0.68801781652245086 0 0.51961524226956368 0.5000000000025091 0 0.5004045312576143 0.47050700646456922 0.24963111222780321 0.59944234541082553 0.66416205381394655 0 0.68456408135056701 0.68607101396845627 0.31096060989957619 0.72722573386132172 0.60922248848163563 0 0.81582077266975173 0.77657922508894406 0.18483084990574741 0.45664527743509797 0.68801781652245086 0 0.59944234541082553 0.66416205381394655 0 0.50803330197353713 0.83630110503668265 0 0.52894546611500048 0.79133000140429866 0.2082794184507949 0.59944234541082553 0.66416205381394655 0 0.72722573386132172 0.60922248848163563 0 0.7054234997318658 0.80860557108880304 0 0.81582077266975173 0.77657922508894406 0.18483084990574741 0.72722573386132172 0.60922248848163563 0 0.59944234541082553 0.66416205381394655 0 0.67320508075660079 0.46954769941202479 0 0.77713227489941183 0.50036915849493024 0.21774643624003751 0.68456408135056701 0.68607101396845627 0.31096060989957619 0.5004045312576143 0.47050700646456922 0.24963111222780321 0.35848654557803328 0.70013656506632282 0.30029870175293161 0.52894546611500048 0.79133000140429866 0.2082794184507949 0.68456408135056701 0.68607101396845627 0.31096060989957619 0.35848654557803328 0.70013656506632282 0.30029870175293161 0.50000000000001332 0.49999999999999561 0.49999999999999561 0.49983993748706529 0.75039103705932653 0.52967335724801234 0.50000000000001332 0.49999999999999561 0.49999999999999561 0.35848654557803328 0.70013656506632282 0.30029870175293161 0.68456408135056701 0.68607101396845627 0.31096060989957619 0.5004045312576143 0.47050700646456922 0.24963111222780321 0.50000000000001332 0.49999999999999561 0.49999999999999561 0.68456408135056701 0.68607101396845627 0.31096060989957619 0.7504488434426726 0.53051757989633308 0.49836643074154852 0.5004045312576143 0.47050700646456922 0.24963111222780321 0.68456408135056701 0.68607101396845627 0.31096060989957619 0.49983993748706529 0.75039103705932653 0.52967335724801234 0.7504488434426726 0.53051757989633308 0.49836643074154852 0.77374673111774417 0.78860835645735528 0.49829081152968557 0.7504488434426726 0.53051757989633308 0.49836643074154852 0.5004045312576143 0.47050700646456922 0.24963111222780321 0.68456408135056701 0.68607101396845627 0.31096060989957619 0.77713227489941183 0.50036915849493024 0.21774643624003751 0.35848654557803328 0.70013656506632282 0.30029870175293161 0.49983993748706529 0.75039103705932653 0.52967335724801234 0.68456408135056701 0.68607101396845627 0.31096060989957619 0.52894546611500048 0.79133000140429866 0.2082794184507949 0.50000000000001332 0.49999999999999561 0.49999999999999561 0.7504488434426726 0.53051757989633308 0.49836643074154852 0.68456408135056701 0.68607101396845627 0.31096060989957619 0.49983993748706529 0.75039103705932653 0.52967335724801234 0.68456408135056701 0.68607101396845627 0.31096060989957619 0.52894546611500048 0.79133000140429866 0.2082794184507949 0.61068558124908323 1 0.33127740899601937 0.81582077266975173 0.77657922508894406 0.18483084990574741 0.61068558124908323 1 0.33127740899601937 0.49983993748706529 0.75039103705932653 0.52967335724801234 0.68456408135056701 0.68607101396845627 0.31096060989957619 0.77374673111774417 0.78860835645735528 0.49829081152968557 0.61068558124908323 1 0.33127740899601937 0.68240285647621723 1 0.52310058211166854 0.49983993748706529 0.75039103705932653 0.52967335724801234 0.77374673111774417 0.78860835645735528 0.49829081152968557 0.82751535738810444 1 0.31407731390515509 0.68456408135056701 0.68607101396845627 0.31096060989957619 0.61068558124908323 1 0.33127740899601937 0.81582077266975173 0.77657922508894406 0.18483084990574741 0.45820186441796368 1 0.31030302876579191 0.61068558124908323 1 0.33127740899601937 0.49983993748706529 0.75039103705932653 0.52967335724801234 0.52894546611500048 0.79133000140429866 0.2082794184507949 0.61068558124908323 1 0.33127740899601937 0.68456408135056701 0.68607101396845627 0.31096060989957619 0.82751535738810444 1 0.31407731390515509 0.77374673111774417 0.78860835645735528 0.49829081152968557 0.68456408135056701 0.68607101396845627 0.31096060989957619 0.49983993748706529 0.75039103705932653 0.52967335724801234 0.61068558124908323 1 0.33127740899601937 0.52894546611500048 0.79133000140429866 0.2082794184507949 0.61068558124908323 1 0.33127740899601937 0.68240285647621723 1 0.52310058211166854 0.51961524227008238 1 0.49999999999872219 0.49983993748706529 0.75039103705932653 0.52967335724801234 0.51961524227008238 1 0.49999999999872219 0.45820186441796368 1 0.31030302876579191 0.61068558124908323 1 0.33127740899601937 0.49983993748706529 0.75039103705932653 0.52967335724801234 0.68240285647621723 1 0.52310058211166854 0.61068558124908323 1 0.33127740899601937 0.82751535738810444 1 0.31407731390515509 0.77374673111774417 0.78860835645735528 0.49829081152968557 0.51133491425992716 1 0.16370661204795281 0.61068558124908323 1 0.33127740899601937 0.45820186441796368 1 0.31030302876579191 0.52894546611500048 0.79133000140429866 0.2082794184507949 0.51133491425992716 1 0.16370661204795281 0.69988642339594154 1 0.16938214347578889 0.61068558124908323 1 0.33127740899601937 0.52894546611500048 0.79133000140429866 0.2082794184507949 0.69988642339594154 1 0.16938214347578889 0.61068558124908323 1 0.33127740899601937 0.52894546611500048 0.79133000140429866 0.2082794184507949 0.81582077266975173 0.77657922508894406 0.18483084990574741 0.69988642339594154 1 0.16938214347578889 0.52894546611500048 0.79133000140429866 0.2082794184507949 0.7054234997318658 0.80860557108880304 0 0.81582077266975173 0.77657922508894406 0.18483084990574741 0.69988642339594154 1 0.16938214347578889 0.51133491425992716 1 0.16370661204795281 0.50803330197353713 0.83630110503668265 0 0.52894546611500048 0.79133000140429866 0.2082794184507949 0.59944234541082553 0.66416205381394655 0 0.7054234997318658 0.80860557108880304 0 0.52894546611500048 0.79133000140429866 0.2082794184507949 0.81582077266975173 0.77657922508894406 0.18483084990574741 0.60000000000138687 1 0 0.69988642339594154 1 0.16938214347578889 0.51133491425992716 1 0.16370661204795281 0.50803330197353713 0.83630110503668265 0 0.51133491425992716 1 0.16370661204795281 0.40000000000166441 1 0 0.60000000000138687 1 0 0.50803330197353713 0.83630110503668265 0 0.50803330197353713 0.83630110503668265 0 0.59944234541082553 0.66416205381394655 0 0.7054234997318658 0.80860557108880304 0 0.52894546611500048 0.79133000140429866 0.2082794184507949 0.69988642339594154 1 0.16938214347578889 0.50803330197353713 0.83630110503668265 0 0.7054234997318658 0.80860557108880304 0 0.52894546611500048 0.79133000140429866 0.2082794184507949 0.60000000000138687 1 0 0.79999999999999982 1 0 0.69988642339594154 1 0.16938214347578889 0.7054234997318658 0.80860557108880304 0 0.50803330197353713 0.83630110503668265 0 0.60000000000138687 1 0 0.69988642339594154 1 0.16938214347578889 0.7054234997318658 0.80860557108880304 0 0.69988642339594154 1 0.16938214347578889 0.82751535738810444 1 0.31407731390515509 0.61068558124908323 1 0.33127740899601937 0.81582077266975173 0.77657922508894406 0.18483084990574741 0.82751535738810444 1 0.31407731390515509 0.69988642339594154 1 0.16938214347578889 0.85358983848665693 1 0.14641016151322461 0.81582077266975173 0.77657922508894406 0.18483084990574741 0.69988642339594154 1 0.16938214347578889 0.85358983848666903 0.85358983848666903 0 0.85358983848665693 1 0.14641016151322461 0.81582077266975173 0.77657922508894406 0.18483084990574741 0.85358983848665693 1 0.14641016151322461 1 0.85358983848655678 0.14641016151332509 0.82751535738810444 1 0.31407731390515509 0.81582077266975173 0.77657922508894406 0.18483084990574741 0.85358983848666903 0.85358983848666903 0 0.85358983848665693 1 0.14641016151322461 0.79999999999999982 1 0 0.69988642339594154 1 0.16938214347578889 0.69988642339594154 1 0.16938214347578889 0.79999999999999982 1 0 0.85358983848666903 0.85358983848666903 0 0.7054234997318658 0.80860557108880304 0 0.85358983848666903 0.85358983848666903 0 0.7054234997318658 0.80860557108880304 0 0.85173693729186062 0.69992182039541118 0 0.81582077266975173 0.77657922508894406 0.18483084990574741 0.69988642339594154 1 0.16938214347578889 0.7054234997318658 0.80860557108880304 0 0.85358983848666903 0.85358983848666903 0 0.81582077266975173 0.77657922508894406 0.18483084990574741 1 0.85358983848655678 0.14641016151332509 1 0.69449451837101916 0.15896804272136739 1 0.8148028884949543 0.31067093462944562 0.81582077266975173 0.77657922508894406 0.18483084990574741 0.82751535738810444 1 0.31407731390515509 1 0.85358983848655678 0.14641016151332509 1 0.8148028884949543 0.31067093462944562 0.81582077266975173 0.77657922508894406 0.18483084990574741 1 0.85358983848655678 0.14641016151332509 0.85358983848666903 0.85358983848666903 0 1 0.79999999999999982 0 0.81582077266975173 0.77657922508894406 0.18483084990574741 1 0.79999999999999982 0 0.81582077266975173 0.77657922508894406 0.18483084990574741 1 0.69449451837101916 0.15896804272136739 1 0.85358983848655678 0.14641016151332509 0.85358983848666903 0.85358983848666903 0 1 0.85358983848655678 0.14641016151332509 0.85358983848665693 1 0.14641016151322461 0.81582077266975173 0.77657922508894406 0.18483084990574741 0.85358983848666903 0.85358983848666903 0 0.85173693729186062 0.69992182039541118 0 1 0.79999999999999982 0 0.81582077266975173 0.77657922508894406 0.18483084990574741 1 0.85358983848655678 0.14641016151332509 0.85358983848665693 1 0.14641016151322461 1 1 0 0.85358983848666903 0.85358983848666903 0 1 1 0.19999999999955789 0.85358983848665693 1 0.14641016151322461 1 1 0 1 0.85358983848655678 0.14641016151332509 1 1 0 1 0.85358983848655678 0.14641016151332509 0.85358983848666903 0.85358983848666903 0 1 0.79999999999999982 0 0.79999999999999982 1 0 1 1 0 0.85358983848665693 1 0.14641016151322461 0.85358983848666903 0.85358983848666903 0 0.82751535738810444 1 0.31407731390515509 0.85358983848665693 1 0.14641016151322461 1 1 0.19999999999955789 1 0.85358983848655678 0.14641016151332509 1 1 0.19999999999955789 1 0.8148028884949543 0.31067093462944562 0.82751535738810444 1 0.31407731390515509 1 0.85358983848655678 0.14641016151332509 1 1 0.3999999999989749 1 0.8148028884949543 0.31067093462944562 0.82751535738810444 1 0.31407731390515509 1 1 0.19999999999955789 0.82751535738810444 1 0.31407731390515509 0.77374673111774417 0.78860835645735528 0.49829081152968557 0.68456408135056701 0.68607101396845627 0.31096060989957619 0.81582077266975173 0.77657922508894406 0.18483084990574741 1 0.8148028884949543 0.31067093462944562 0.77374673111774417 0.78860835645735528 0.49829081152968557 0.82751535738810444 1 0.31407731390515509 0.81582077266975173 0.77657922508894406 0.18483084990574741 1 0.8148028884949543 0.31067093462944562 0.68456408135056701 0.68607101396845627 0.31096060989957619 0.77374673111774417 0.78860835645735528 0.49829081152968557 0.81582077266975173 0.77657922508894406 0.18483084990574741 1 0.8148028884949543 0.31067093462944562 0.86762395692956074 1 0.5060815484123421 0.82751535738810444 1 0.31407731390515509 0.77374673111774417 0.78860835645735528 0.49829081152968557 0.68240285647621723 1 0.52310058211166854 0.82751535738810444 1 0.31407731390515509 0.86762395692956074 1 0.5060815484123421 0.77374673111774417 0.78860835645735528 0.49829081152968557 0.86762395692956074 1 0.5060815484123421 1 1 0.3999999999989749 1 0.8148028884949543 0.31067093462944562 0.82751535738810444 1 0.31407731390515509 1 1 0.3999999999989749 1 0.83630110503662825 0.50803330197135588 0.86762395692956074 1 0.5060815484123421 1 0.8148028884949543 0.31067093462944562 1 0.8148028884949543 0.31067093462944562 1 0.83630110503662825 0.50803330197135588 0.86762395692956074 1 0.5060815484123421 0.77374673111774417 0.78860835645735528 0.49829081152968557 1 0.8148028884949543 0.31067093462944562 1 0.68975022421527898 0.45812322962078778 1 0.83630110503662825 0.50803330197135588 0.77374673111774417 0.78860835645735528 0.49829081152968557 1 0.39615100178016449 0.32925244736082498 0.7504488434426726 0.53051757989633308 0.49836643074154852 1 0.60020898676431722 0.32446581821274012 0.77713227489941183 0.50036915849493024 0.21774643624003751 1 0.68975022421527898 0.45812322962078778 0.68456408135056701 0.68607101396845627 0.31096060989957619 1 0.60020898676431722 0.32446581821274012 0.7504488434426726 0.53051757989633308 0.49836643074154852 1 0.8148028884949543 0.31067093462944562 0.68456408135056701 0.68607101396845627 0.31096060989957619 1 0.68975022421527898 0.45812322962078778 0.77374673111774417 0.78860835645735528 0.49829081152968557 1 0.68975022421527898 0.45812322962078778 0.68456408135056701 0.68607101396845627 0.31096060989957619 0.7504488434426726 0.53051757989633308 0.49836643074154852 0.77374673111774417 0.78860835645735528 0.49829081152968557 1 0.68975022421527898 0.45812322962078778 1 0.8148028884949543 0.31067093462944562 1 0.60020898676431722 0.32446581821274012 0.68456408135056701 0.68607101396845627 0.31096060989957619 0.68456408135056701 0.68607101396845627 0.31096060989957619 1 0.60020898676431722 0.32446581821274012 0.7504488434426726 0.53051757989633308 0.49836643074154852 0.77713227489941183 0.50036915849493024 0.21774643624003751 1 0.8148028884949543 0.31067093462944562 1 0.60020898676431722 0.32446581821274012 0.68456408135056701 0.68607101396845627 0.31096060989957619 0.81582077266975173 0.77657922508894406 0.18483084990574741 1 0.60020898676431722 0.32446581821274012 0.77713227489941183 0.50036915849493024 0.21774643624003751 0.68456408135056701 0.68607101396845627 0.31096060989957619 0.81582077266975173 0.77657922508894406 0.18483084990574741 1 0.50000000000229983 0.51961524226898759 1 0.68975022421527898 0.45812322962078778 1 0.60020898676431722 0.32446581821274012 0.7504488434426726 0.53051757989633308 0.49836643074154852 1 0.39615100178016449 0.32925244736082498 1 0.50000000000229983 0.51961524226898759 1 0.60020898676431722 0.32446581821274012 0.7504488434426726 0.53051757989633308 0.49836643074154852 0.84191918937744659 0.51186163305076127 0 1 0.49836539647890021 0.17226134197269399 1 0.69449451837101916 0.15896804272136739 0.77713227489941183 0.50036915849493024 0.21774643624003751 1 0.69449451837101916 0.15896804272136739 0.85173693729186062 0.69992182039541118 0 0.77713227489941183 0.50036915849493024 0.21774643624003751 0.81582077266975173 0.77657922508894406 0.18483084990574741 1 0.69449451837101916 0.15896804272136739 0.77713227489941183 0.50036915849493024 0.21774643624003751 1 0.60020898676431722 0.32446581821274012 0.81582077266975173 0.77657922508894406 0.18483084990574741 1 0.69449451837101916 0.15896804272136739 1 0.49836539647890021 0.17226134197269399 1 0.60020898676431722 0.32446581821274012 0.77713227489941183 0.50036915849493024 0.21774643624003751 0.72722573386132172 0.60922248848163563 0 0.77713227489941183 0.50036915849493024 0.21774643624003751 0.85173693729186062 0.69992182039541118 0 0.81582077266975173 0.77657922508894406 0.18483084990574741 0.72722573386132172 0.60922248848163563 0 0.68456408135056701 0.68607101396845627 0.31096060989957619 0.77713227489941183 0.50036915849493024 0.21774643624003751 0.81582077266975173 0.77657922508894406 0.18483084990574741 1 0.8148028884949543 0.31067093462944562 1 0.69449451837101916 0.15896804272136739 1 0.60020898676431722 0.32446581821274012 0.81582077266975173 0.77657922508894406 0.18483084990574741 0.72722573386132172 0.60922248848163563 0 0.67320508075660079 0.46954769941202479 0 0.84191918937744659 0.51186163305076127 0 0.77713227489941183 0.50036915849493024 0.21774643624003751 0.84191918937744659 0.51186163305076127 0 1 0.69449451837101916 0.15896804272136739 0.85173693729186062 0.69992182039541118 0 0.77713227489941183 0.50036915849493024 0.21774643624003751 0.72722573386132172 0.60922248848163563 0 0.84191918937744659 0.51186163305076127 0 0.85173693729186062 0.69992182039541118 0 0.77713227489941183 0.50036915849493024 0.21774643624003751 0.7054234997318658 0.80860557108880304 0 0.72722573386132172 0.60922248848163563 0 0.85173693729186062 0.69992182039541118 0 0.81582077266975173 0.77657922508894406 0.18483084990574741 1 0.69449451837101916 0.15896804272136739 0.85173693729186062 0.69992182039541118 0 1 0.79999999999999982 0 1 0.60000000000138687 0 1 0.69449451837101916 0.15896804272136739 0.81582077266975173 0.77657922508894406 0.18483084990574741 1 0.79999999999999982 0 0.85173693729186062 0.69992182039541118 0 0.84191918937744659 0.51186163305076127 0 0.85173693729186062 0.69992182039541118 0 1 0.69449451837101916 0.15896804272136739 1 0.60000000000138687 0 1 0.60000000000138687 0 1 0.69449451837101916 0.15896804272136739 0.84191918937744659 0.51186163305076127 0 1 0.49836539647890021 0.17226134197269399 1 0.40000000000166441 0 1 0.60000000000138687 0 0.84191918937744659 0.51186163305076127 0 1 0.49836539647890021 0.17226134197269399 0.80839867011859301 0.31807971531731721 0 0.85358983848570813 0.1464101615143738 0 1 0.30074819035868428 0.16929708765640439 0.68777432594363841 0.31447353261427252 0.31366778418247038 0.80839867011859301 0.31807971531731721 0 1 0.40000000000166441 0 0.84191918937744659 0.51186163305076127 0 1 0.49836539647890021 0.17226134197269399 1 0.40000000000166441 0 0.80839867011859301 0.31807971531731721 0 1 0.30074819035868428 0.16929708765640439 1 0.49836539647890021 0.17226134197269399 0.80839867011859301 0.31807971531731721 0 0.68777432594363841 0.31447353261427252 0.31366778418247038 1 0.30074819035868428 0.16929708765640439 0.77713227489941183 0.50036915849493024 0.21774643624003751 0.84191918937744659 0.51186163305076127 0 0.67320508075660079 0.46954769941202479 0 0.80839867011859301 0.31807971531731721 0 0.77713227489941183 0.50036915849493024 0.21774643624003751 0.84191918937744659 0.51186163305076127 0 0.80839867011859301 0.31807971531731721 0 1 0.49836539647890021 0.17226134197269399 0.77713227489941183 0.50036915849493024 0.21774643624003751 0.80839867011859301 0.31807971531731721 0 1 0.30074819035868428 0.16929708765640439 1 0.49836539647890021 0.17226134197269399 0.77713227489941183 0.50036915849493024 0.21774643624003751 1 0.30074819035868428 0.16929708765640439 1 0.39615100178016449 0.32925244736082498 1 0.49836539647890021 0.17226134197269399 0.77713227489941183 0.50036915849493024 0.21774643624003751 1 0.30074819035868428 0.16929708765640439 0.80839867011859301 0.31807971531731721 0 1 0.40000000000166441 0 1 0.20000000000083221 0 1 0.30074819035868428 0.16929708765640439 0.80839867011859301 0.31807971531731721 0 1 0.20000000000083221 0 0.85358983848570813 0.1464101615143738 0 1 0.20000000000083221 0 1 0.14641016151453831 0.14641016151419689 1 0.30074819035868428 0.16929708765640439 0.85358983848570813 0.1464101615143738 0 0.83057691269884504 0 0.30018449338884379 0.85358983848650494 0 0.1464101615132356 0.68592116352011878 0 0.1724872797865501 0.68777432594363841 0.31447353261427252 0.31366778418247038 0.80839867011859301 0.31807971531731721 0 0.69380980079964416 0.1619694349440581 0 0.85358983848570813 0.1464101615143738 0 0.68777432594363841 0.31447353261427252 0.31366778418247038 1 0.18804489794556911 0.3161072616634244 1 0.30074819035868428 0.16929708765640439 1 0.14641016151453831 0.14641016151419689 0.68777432594363841 0.31447353261427252 0.31366778418247038 1 0.14641016151453831 0.14641016151419689 1 0.30074819035868428 0.16929708765640439 0.85358983848570813 0.1464101615143738 0 0.68777432594363841 0.31447353261427252 0.31366778418247038 1 0.14641016151453831 0.14641016151419689 0.85358983848650494 0 0.1464101615132356 0.83057691269884504 0 0.30018449338884379 0.68777432594363841 0.31447353261427252 0.31366778418247038 1 0.14641016151453831 0.14641016151419689 0.85358983848570813 0.1464101615143738 0 0.85358983848650494 0 0.1464101615132356 0.68777432594363841 0.31447353261427252 0.31366778418247038 0.69380980079964416 0.1619694349440581 0 0.85358983848650494 0 0.1464101615132356 0.85358983848570813 0.1464101615143738 0 0.68777432594363841 0.31447353261427252 0.31366778418247038 0.85358983848650494 0 0.1464101615132356 0.83057691269884504 0 0.30018449338884379 1 0 0.19999999999955789 1 0.14641016151453831 0.14641016151419689 0.83057691269884504 0 0.30018449338884379 1 0.18804489794556911 0.3161072616634244 1 0 0.19999999999955789 1 0.14641016151453831 0.14641016151419689 0.85358983848570813 0.1464101615143738 0 1 0 0 0.85358983848650494 0 0.1464101615132356 0.79999999999947335 0 0 0.85358983848650494 0 0.1464101615132356 1 0 0.19999999999955789 1 0 0 1 0.14641016151453831 0.14641016151419689 1 0 0 1 0.14641016151453831 0.14641016151419689 1 0.20000000000083221 0 0.85358983848570813 0.1464101615143738 0 1 0.14641016151453831 0.14641016151419689 1 0 0 0.85358983848650494 0 0.1464101615132356 0.85358983848570813 0.1464101615143738 0 0.68592116352011878 0 0.1724872797865501 0.69380980079964416 0.1619694349440581 0 0.85358983848650494 0 0.1464101615132356 0.79999999999947335 0 0 0.85358983848570813 0.1464101615143738 0 0.85358983848650494 0 0.1464101615132356 0.69380980079964416 0.1619694349440581 0 0.79999999999947335 0 0 0.68592116352011878 0 0.1724872797865501 0.68777432594363841 0.31447353261427252 0.31366778418247038 0.69380980079964416 0.1619694349440581 0 0.5003997205654479 0.21136633249797621 0.2258422409314382 0.68592116352011878 0 0.1724872797865501 0.85358983848650494 0 0.1464101615132356 0.69380980079964416 0.1619694349440581 0 0.68777432594363841 0.31447353261427252 0.31366778418247038 0.69380980079964416 0.1619694349440581 0 0.68592116352011878 0 0.1724872797865501 0.59999999999894682 0 0 0.79999999999947335 0 0 0.49391845158624981 0 0.1323760430705655 0.3999999999989749 0 0 0.50966790549376417 0.16275515618023731 0 0.59999999999894682 0 0 0.50966790549376417 0.16275515618023731 0 0.69380980079964416 0.1619694349440581 0 0.68592116352011878 0 0.1724872797865501 0.59999999999894682 0 0 0.68592116352011878 0 0.1724872797865501 0.49391845158624981 0 0.1323760430705655 0.50966790549376417 0.16275515618023731 0 0.59999999999894682 0 0 0.47688326899416439 0 0.31741132792405607 0.68592116352011878 0 0.1724872797865501 0.49391845158624981 0 0.1323760430705655 0.5003997205654479 0.21136633249797621 0.2258422409314382 0.49391845158624981 0 0.1323760430705655 0.68592116352011878 0 0.1724872797865501 0.50966790549376417 0.16275515618023731 0 0.5003997205654479 0.21136633249797621 0.2258422409314382 0.50966790549376417 0.16275515618023731 0 0.68592116352011878 0 0.1724872797865501 0.69380980079964416 0.1619694349440581 0 0.5003997205654479 0.21136633249797621 0.2258422409314382 0.6104699881764214 0.32043363027358418 0 0.50966790549376417 0.16275515618023731 0 0.69380980079964416 0.1619694349440581 0 0.5003997205654479 0.21136633249797621 0.2258422409314382 0.6104699881764214 0.32043363027358418 0 0.68777432594363841 0.31447353261427252 0.31366778418247038 0.80839867011859301 0.31807971531731721 0 0.77713227489941183 0.50036915849493024 0.21774643624003751 0.6104699881764214 0.32043363027358418 0 0.69380980079964416 0.1619694349440581 0 0.68777432594363841 0.31447353261427252 0.31366778418247038 0.5003997205654479 0.21136633249797621 0.2258422409314382 0.80839867011859301 0.31807971531731721 0 0.6104699881764214 0.32043363027358418 0 0.69380980079964416 0.1619694349440581 0 0.68777432594363841 0.31447353261427252 0.31366778418247038 0.6104699881764214 0.32043363027358418 0 0.45812322962036273 0.31024977578535839 0 0.50966790549376417 0.16275515618023731 0 0.5003997205654479 0.21136633249797621 0.2258422409314382 0.45812322962036273 0.31024977578535839 0 0.6104699881764214 0.32043363027358418 0 0.5004045312576143 0.47050700646456922 0.24963111222780321 0.5003997205654479 0.21136633249797621 0.2258422409314382 0.77713227489941183 0.50036915849493024 0.21774643624003751 0.6104699881764214 0.32043363027358418 0 0.5004045312576143 0.47050700646456922 0.24963111222780321 0.67320508075660079 0.46954769941202479 0 0.68777432594363841 0.31447353261427252 0.31366778418247038 0.5004045312576143 0.47050700646456922 0.24963111222780321 0.6104699881764214 0.32043363027358418 0 0.5003997205654479 0.21136633249797621 0.2258422409314382 0.77713227489941183 0.50036915849493024 0.21774643624003751 0.5004045312576143 0.47050700646456922 0.24963111222780321 0.6104699881764214 0.32043363027358418 0 0.68777432594363841 0.31447353261427252 0.31366778418247038 0.51961524226956368 0.5000000000025091 0 0.6104699881764214 0.32043363027358418 0 0.67320508075660079 0.46954769941202479 0 0.5004045312576143 0.47050700646456922 0.24963111222780321 0.45812322962036273 0.31024977578535839 0 0.6104699881764214 0.32043363027358418 0 0.51961524226956368 0.5000000000025091 0 0.5004045312576143 0.47050700646456922 0.24963111222780321 0.6104699881764214 0.32043363027358418 0 0.80839867011859301 0.31807971531731721 0 0.67320508075660079 0.46954769941202479 0 0.77713227489941183 0.50036915849493024 0.21774643624003751 0.68777432594363841 0.31447353261427252 0.31366778418247038 0.7504488434426726 0.53051757989633308 0.49836643074154852 0.50000000000001332 0.49999999999999561 0.49999999999999561 0.50073570207385831 0.24848280280289631 0.52886631355986169 0.7504488434426726 0.53051757989633308 0.49836643074154852 0.50073570207385831 0.24848280280289631 0.52886631355986169 0.68777432594363841 0.31447353261427252 0.31366778418247038 0.77973766487723961 0.22090161127815711 0.50014622462635805 0.50000000000001332 0.49999999999999561 0.49999999999999561 0.7504488434426726 0.53051757989633308 0.49836643074154852 0.68777432594363841 0.31447353261427252 0.31366778418247038 0.5004045312576143 0.47050700646456922 0.24963111222780321 0.68777432594363841 0.31447353261427252 0.31366778418247038 0.5004045312576143 0.47050700646456922 0.24963111222780321 0.7504488434426726 0.53051757989633308 0.49836643074154852 0.77713227489941183 0.50036915849493024 0.21774643624003751 0.50073570207385831 0.24848280280289631 0.52886631355986169 0.5004045312576143 0.47050700646456922 0.24963111222780321 0.68777432594363841 0.31447353261427252 0.31366778418247038 0.5003997205654479 0.21136633249797621 0.2258422409314382 0.50000000000001332 0.49999999999999561 0.49999999999999561 0.68777432594363841 0.31447353261427252 0.31366778418247038 0.50073570207385831 0.24848280280289631 0.52886631355986169 0.5004045312576143 0.47050700646456922 0.24963111222780321 0.83057691269884504 0 0.30018449338884379 0.68777432594363841 0.31447353261427252 0.31366778418247038 0.66852282575985944 0 0.3853248791658106 0.77973766487723961 0.22090161127815711 0.50014622462635805 0.68592116352011878 0 0.1724872797865501 0.66852282575985944 0 0.3853248791658106 0.83057691269884504 0 0.30018449338884379 0.68777432594363841 0.31447353261427252 0.31366778418247038 0.66852282575985944 0 0.3853248791658106 0.47688326899416439 0 0.31741132792405607 0.50073570207385831 0.24848280280289631 0.52886631355986169 0.5003997205654479 0.21136633249797621 0.2258422409314382 0.68969697123394857 0 0.54179813558228873 0.66852282575985944 0 0.3853248791658106 0.50073570207385831 0.24848280280289631 0.52886631355986169 0.77973766487723961 0.22090161127815711 0.50014622462635805 0.68592116352011878 0 0.1724872797865501 0.66852282575985944 0 0.3853248791658106 0.68777432594363841 0.31447353261427252 0.31366778418247038 0.5003997205654479 0.21136633249797621 0.2258422409314382 0.66852282575985944 0 0.3853248791658106 0.50073570207385831 0.24848280280289631 0.52886631355986169 0.68777432594363841 0.31447353261427252 0.31366778418247038 0.5003997205654479 0.21136633249797621 0.2258422409314382 0.68777432594363841 0.31447353261427252 0.31366778418247038 0.50073570207385831 0.24848280280289631 0.52886631355986169 0.66852282575985944 0 0.3853248791658106 0.77973766487723961 0.22090161127815711 0.50014622462635805 0.68592116352011878 0 0.1724872797865501 0.47688326899416439 0 0.31741132792405607 0.66852282575985944 0 0.3853248791658106 0.5003997205654479 0.21136633249797621 0.2258422409314382 0.50000000000250922 0 0.48038475773043671 0.66852282575985944 0 0.3853248791658106 0.47688326899416439 0 0.31741132792405607 0.50073570207385831 0.24848280280289631 0.52886631355986169 0.50000000000250922 0 0.48038475773043671 0.68969697123394857 0 0.54179813558228873 0.66852282575985944 0 0.3853248791658106 0.50073570207385831 0.24848280280289631 0.52886631355986169 0.66852282575985944 0 0.3853248791658106 0.68969697123394857 0 0.54179813558228873 0.83534964916824084 0 0.4902996892628636 0.77973766487723961 0.22090161127815711 0.50014622462635805 1 0.18804489794556911 0.3161072616634244 0.68777432594363841 0.31447353261427252 0.31366778418247038 0.83057691269884504 0 0.30018449338884379 0.77973766487723961 0.22090161127815711 0.50014622462635805 1 0.18804489794556911 0.3161072616634244 1 0.14641016151453831 0.14641016151419689 0.83057691269884504 0 0.30018449338884379 0.68777432594363841 0.31447353261427252 0.31366778418247038 0.83534964916824084 0 0.4902996892628636 0.83057691269884504 0 0.30018449338884379 0.66852282575985944 0 0.3853248791658106 0.77973766487723961 0.22090161127815711 0.50014622462635805 0.83534964916824084 0 0.4902996892628636 1 0.18804489794556911 0.3161072616634244 0.83057691269884504 0 0.30018449338884379 0.77973766487723961 0.22090161127815711 0.50014622462635805 0.83057691269884504 0 0.30018449338884379 0.83534964916824084 0 0.4902996892628636 1 0 0.3999999999989749 1 0.18804489794556911 0.3161072616634244 0.83534964916824084 0 0.4902996892628636 1 0.162755156180173 0.50966790549372887 1 0 0.59999999999894682 1 0 0.3999999999989749 1 0 0.3999999999989749 0.83534964916824084 0 0.4902996892628636 1 0.162755156180173 0.50966790549372887 1 0.18804489794556911 0.3161072616634244 1 0.18804489794556911 0.3161072616634244 1 0 0.3999999999989749 0.83057691269884504 0 0.30018449338884379 1 0 0.19999999999955789 1 0.31024977578542368 0.45812322962028301 1 0.18804489794556911 0.3161072616634244 1 0.162755156180173 0.50966790549372887 0.77973766487723961 0.22090161127815711 0.50014622462635805 0.83534964916824084 0 0.4902996892628636 1 0.162755156180173 0.50966790549372887 1 0.18804489794556911 0.3161072616634244 0.77973766487723961 0.22090161127815711 0.50014622462635805 1 0.39615100178016449 0.32925244736082498 0.68777432594363841 0.31447353261427252 0.31366778418247038 0.7504488434426726 0.53051757989633308 0.49836643074154852 0.77713227489941183 0.50036915849493024 0.21774643624003751 1 0.39615100178016449 0.32925244736082498 1 0.18804489794556911 0.3161072616634244 1 0.31024977578542368 0.45812322962028301 0.68777432594363841 0.31447353261427252 0.31366778418247038 1 0.31024977578542368 0.45812322962028301 0.7504488434426726 0.53051757989633308 0.49836643074154852 0.68777432594363841 0.31447353261427252 0.31366778418247038 0.77973766487723961 0.22090161127815711 0.50014622462635805 1 0.30074819035868428 0.16929708765640439 1 0.18804489794556911 0.3161072616634244 1 0.39615100178016449 0.32925244736082498 0.68777432594363841 0.31447353261427252 0.31366778418247038 1 0.31024977578542368 0.45812322962028301 0.68777432594363841 0.31447353261427252 0.31366778418247038 1 0.18804489794556911 0.3161072616634244 0.77973766487723961 0.22090161127815711 0.50014622462635805 1 0.30074819035868428 0.16929708765640439 0.68777432594363841 0.31447353261427252 0.31366778418247038 1 0.39615100178016449 0.32925244736082498 0.77713227489941183 0.50036915849493024 0.21774643624003751 1 0.39615100178016449 0.32925244736082498 0.68777432594363841 0.31447353261427252 0.31366778418247038 1 0.31024977578542368 0.45812322962028301 0.7504488434426726 0.53051757989633308 0.49836643074154852 1 0.60020898676431722 0.32446581821274012 1 0.49836539647890021 0.17226134197269399 1 0.39615100178016449 0.32925244736082498 0.77713227489941183 0.50036915849493024 0.21774643624003751 1 0.39615100178016449 0.32925244736082498 1 0.31024977578542368 0.45812322962028301 1 0.50000000000229983 0.51961524226898759 0.7504488434426726 0.53051757989633308 0.49836643074154852 1 0.33579115324550912 0.59952339316293046 0.7504488434426726 0.53051757989633308 0.49836643074154852 0.68742751001967084 0.31250796680084852 0.687427510020161 0.78019141325921404 0.49972466465542442 0.78019141325930785 1 0.33579115324550912 0.59952339316293046 1 0.39076805646076263 0.7272421105028648 0.68742751001967084 0.31250796680084852 0.687427510020161 0.81599560342209843 0.22280203704001911 0.81599560342233202 1 0.33579115324550912 0.59952339316293046 1 0.53045230059030524 0.6732050807565132 1 0.50000000000229983 0.51961524226898759 0.7504488434426726 0.53051757989633308 0.49836643074154852 1 0.33579115324550912 0.59952339316293046 0.7504488434426726 0.53051757989633308 0.49836643074154852 1 0.31024977578542368 0.45812322962028301 0.77973766487723961 0.22090161127815711 0.50014622462635805 0.68742751001967084 0.31250796680084852 0.687427510020161 0.77973766487723961 0.22090161127815711 0.50014622462635805 1 0.33579115324550912 0.59952339316293046 0.81599560342209843 0.22280203704001911 0.81599560342233202 1 0.33579115324550912 0.59952339316293046 0.68742751001967084 0.31250796680084852 0.687427510020161 0.7504488434426726 0.53051757989633308 0.49836643074154852 0.77973766487723961 0.22090161127815711 0.50014622462635805 1 0.53045230059030524 0.6732050807565132 0.7504488434426726 0.53051757989633308 0.49836643074154852 1 0.33579115324550912 0.59952339316293046 0.78019141325921404 0.49972466465542442 0.78019141325930785 1 0.39076805646076263 0.7272421105028648 1 0.33579115324550912 0.59952339316293046 0.68742751001967084 0.31250796680084852 0.687427510020161 0.78019141325921404 0.49972466465542442 0.78019141325930785 1 0.33579115324550912 0.59952339316293046 1 0.50000000000229983 0.51961524226898759 1 0.31024977578542368 0.45812322962028301 0.7504488434426726 0.53051757989633308 0.49836643074154852 1 0.39076805646076263 0.7272421105028648 1 0.53045230059030524 0.6732050807565132 1 0.33579115324550912 0.59952339316293046 0.78019141325921404 0.49972466465542442 0.78019141325930785 1 0.33579115324550912 0.59952339316293046 1 0.1912596090855686 0.70565701451953711 1 0.39076805646076263 0.7272421105028648 0.81599560342209843 0.22280203704001911 0.81599560342233202 1 0.33579115324550912 0.59952339316293046 1 0.31024977578542368 0.45812322962028301 1 0.162755156180173 0.50966790549372887 0.77973766487723961 0.22090161127815711 0.50014622462635805 1 0.162755156180173 0.50966790549372887 0.81469961246449951 0 0.68914937826112133 1 0.1912596090855686 0.70565701451953711 0.77973766487723961 0.22090161127815711 0.50014622462635805 0.81469961246449951 0 0.68914937826112133 0.77973766487723961 0.22090161127815711 0.50014622462635805 0.68742751001967084 0.31250796680084852 0.687427510020161 0.81599560342209843 0.22280203704001911 0.81599560342233202 0.81469961246449951 0 0.68914937826112133 1 0.1912596090855686 0.70565701451953711 0.77973766487723961 0.22090161127815711 0.50014622462635805 0.81599560342209843 0.22280203704001911 0.81599560342233202 1 0.1912596090855686 0.70565701451953711 1 0.33579115324550912 0.59952339316293046 0.77973766487723961 0.22090161127815711 0.50014622462635805 0.81599560342209843 0.22280203704001911 0.81599560342233202 1 0.162755156180173 0.50966790549372887 1 0.1912596090855686 0.70565701451953711 1 0.33579115324550912 0.59952339316293046 0.77973766487723961 0.22090161127815711 0.50014622462635805 1 0.1912596090855686 0.70565701451953711 0.81469961246449951 0 0.68914937826112133 1 0 0.59999999999894682 1 0 0.79999999999947335 0.81469961246449951 0 0.68914937826112133 1 0 0.59999999999894682 1 0.162755156180173 0.50966790549372887 1 0.1912596090855686 0.70565701451953711 1 0.162755156180173 0.50966790549372887 1 0 0.59999999999894682 0.81469961246449951 0 0.68914937826112133 0.83534964916824084 0 0.4902996892628636 0.81469961246449951 0 0.68914937826112133 0.83534964916824084 0 0.4902996892628636 0.68969697123394857 0 0.54179813558228873 0.77973766487723961 0.22090161127815711 0.50014622462635805 0.81469961246449951 0 0.68914937826112133 1 0.162755156180173 0.50966790549372887 0.83534964916824084 0 0.4902996892628636 0.77973766487723961 0.22090161127815711 0.50014622462635805 0.68969697123394857 0 0.54179813558228873 0.6002015905170176 0 0.67551889168744117 0.68742751001967084 0.31250796680084852 0.687427510020161 0.50073570207385831 0.24848280280289631 0.52886631355986169 0.6002015905170176 0 0.67551889168744117 0.81469961246449951 0 0.68914937826112133 0.68969697123394857 0 0.54179813558228873 0.68742751001967084 0.31250796680084852 0.687427510020161 0.81469961246449951 0 0.68914937826112133 0.68969697123394857 0 0.54179813558228873 0.68742751001967084 0.31250796680084852 0.687427510020161 0.77973766487723961 0.22090161127815711 0.50014622462635805 0.69447607299129699 0 0.84099946107689361 0.68742751001967084 0.31250796680084852 0.687427510020161 0.6002015905170176 0 0.67551889168744117 0.50084626324420545 0.22238844715913 0.78084811589659187 0.68742751001967084 0.31250796680084852 0.687427510020161 0.68969697123394857 0 0.54179813558228873 0.50073570207385831 0.24848280280289631 0.52886631355986169 0.77973766487723961 0.22090161127815711 0.50014622462635805 0.68742751001967084 0.31250796680084852 0.687427510020161 0.50073570207385831 0.24848280280289631 0.52886631355986169 0.6002015905170176 0 0.67551889168744117 0.50084626324420545 0.22238844715913 0.78084811589659187 0.6002015905170176 0 0.67551889168744117 0.81469961246449951 0 0.68914937826112133 0.68742751001967084 0.31250796680084852 0.687427510020161 0.81599560342209843 0.22280203704001911 0.81599560342233202 0.68969697123394857 0 0.54179813558228873 0.50000000000250922 0 0.48038475773043671 0.6002015905170176 0 0.67551889168744117 0.50073570207385831 0.24848280280289631 0.52886631355986169 0.50000000000001332 0.49999999999999561 0.49999999999999561 0.68742751001967084 0.31250796680084852 0.687427510020161 0.49816183246753282 0.5307146639261795 0.75045686993209071 0.50073570207385831 0.24848280280289631 0.52886631355986169 0.68742751001967084 0.31250796680084852 0.687427510020161 0.50000000000001332 0.49999999999999561 0.49999999999999561 0.7504488434426726 0.53051757989633308 0.49836643074154852 0.50073570207385831 0.24848280280289631 0.52886631355986169 0.68742751001967084 0.31250796680084852 0.687427510020161 0.7504488434426726 0.53051757989633308 0.49836643074154852 0.50000000000001332 0.49999999999999561 0.49999999999999561 0.49816183246753282 0.5307146639261795 0.75045686993209071 0.7504488434426726 0.53051757989633308 0.49836643074154852 0.49816183246753282 0.5307146639261795 0.75045686993209071 0.68742751001967084 0.31250796680084852 0.687427510020161 0.78019141325921404 0.49972466465542442 0.78019141325930785 0.49816183246753282 0.5307146639261795 0.75045686993209071 0.50073570207385831 0.24848280280289631 0.52886631355986169 0.68742751001967084 0.31250796680084852 0.687427510020161 0.50084626324420545 0.22238844715913 0.78084811589659187 0.68742751001967084 0.31250796680084852 0.687427510020161 0.50073570207385831 0.24848280280289631 0.52886631355986169 0.7504488434426726 0.53051757989633308 0.49836643074154852 0.77973766487723961 0.22090161127815711 0.50014622462635805 0.45812322962173568 0.31024977578554058 1 0.49816183246753282 0.5307146639261795 0.75045686993209071 0.59952339316492498 0.33579115324593939 1 0.50084626324420545 0.22238844715913 0.78084811589659187 0.59952339316492498 0.33579115324593939 1 0.68742751001967084 0.31250796680084852 0.687427510020161 0.72724211050425436 0.39076805646176382 1 0.81599560342209843 0.22280203704001911 0.81599560342233202 0.59952339316492498 0.33579115324593939 1 0.68742751001967084 0.31250796680084852 0.687427510020161 0.49816183246753282 0.5307146639261795 0.75045686993209071 0.78019141325921404 0.49972466465542442 0.78019141325930785 0.59952339316492498 0.33579115324593939 1 0.50084626324420545 0.22238844715913 0.78084811589659187 0.68742751001967084 0.31250796680084852 0.687427510020161 0.81599560342209843 0.22280203704001911 0.81599560342233202 0.59952339316492498 0.33579115324593939 1 0.49816183246753282 0.5307146639261795 0.75045686993209071 0.68742751001967084 0.31250796680084852 0.687427510020161 0.50084626324420545 0.22238844715913 0.78084811589659187 0.59952339316492498 0.33579115324593939 1 0.72724211050425436 0.39076805646176382 1 0.68742751001967084 0.31250796680084852 0.687427510020161 0.78019141325921404 0.49972466465542442 0.78019141325930785 0.59952339316492498 0.33579115324593939 1 0.49816183246753282 0.5307146639261795 0.75045686993209071 0.67320508075671459 0.53045230059073867 1 0.78019141325921404 0.49972466465542442 0.78019141325930785 0.70565701452089868 0.1912596090858541 1 0.59952339316492498 0.33579115324593939 1 0.72724211050425436 0.39076805646176382 1 0.81599560342209843 0.22280203704001911 0.81599560342233202 0.59952339316492498 0.33579115324593939 1 0.67320508075671459 0.53045230059073867 1 0.72724211050425436 0.39076805646176382 1 0.78019141325921404 0.49972466465542442 0.78019141325930785 0.45812322962173568 0.31024977578554058 1 0.51961524226934941 0.50000000000250611 1 0.59952339316492498 0.33579115324593939 1 0.49816183246753282 0.5307146639261795 0.75045686993209071 0.67320508075671459 0.53045230059073867 1 0.59952339316492498 0.33579115324593939 1 0.51961524226934941 0.50000000000250611 1 0.49816183246753282 0.5307146639261795 0.75045686993209071 0.59952339316492498 0.33579115324593939 1 0.50966790549576724 0.1627551561802443 1 0.45812322962173568 0.31024977578554058 1 0.50084626324420545 0.22238844715913 0.78084811589659187 0.50966790549576724 0.1627551561802443 1 0.70565701452089868 0.1912596090858541 1 0.69447607299129699 0 0.84099946107689361 0.50084626324420545 0.22238844715913 0.78084811589659187 0.68742751001967084 0.31250796680084852 0.687427510020161 0.50084626324420545 0.22238844715913 0.78084811589659187 0.69447607299129699 0 0.84099946107689361 0.81599560342209843 0.22280203704001911 0.81599560342233202 0.70565701452089868 0.1912596090858541 1 0.69447607299129699 0 0.84099946107689361 0.50084626324420545 0.22238844715913 0.78084811589659187 0.81599560342209843 0.22280203704001911 0.81599560342233202 0.70565701452089868 0.1912596090858541 1 0.50084626324420545 0.22238844715913 0.78084811589659187 0.59952339316492498 0.33579115324593939 1 0.81599560342209843 0.22280203704001911 0.81599560342233202 0.70565701452089868 0.1912596090858541 1 0.50966790549576724 0.1627551561802443 1 0.59952339316492498 0.33579115324593939 1 0.50084626324420545 0.22238844715913 0.78084811589659187 0.6002015905170176 0 0.67551889168744117 0.68742751001967084 0.31250796680084852 0.687427510020161 0.69447607299129699 0 0.84099946107689361 0.81599560342209843 0.22280203704001911 0.81599560342233202 0.69447607299129699 0 0.84099946107689361 0.6002015905170176 0 0.67551889168744117 0.49836539647917322 0 0.82773865802723501 0.50084626324420545 0.22238844715913 0.78084811589659187 0.69447607299129699 0 0.84099946107689361 0.49836539647917322 0 0.82773865802723501 0.50966790549576724 0.1627551561802443 1 0.50084626324420545 0.22238844715913 0.78084811589659187 0.60000000000138687 0 1 0.49836539647917322 0 0.82773865802723501 0.50966790549576724 0.1627551561802443 1 0.69447607299129699 0 0.84099946107689361 0.50966790549576724 0.1627551561802443 1 0.40000000000166441 0 1 0.49836539647917322 0 0.82773865802723501 0.60000000000138687 0 1 0.50966790549576724 0.1627551561802443 1 0.70565701452089868 0.1912596090858541 1 0.60000000000138687 0 1 0.69447607299129699 0 0.84099946107689361 0.70565701452089868 0.1912596090858541 1 0.60000000000138687 0 1 0.69447607299129699 0 0.84099946107689361 0.79999999999999982 0 1 0.6002015905170176 0 0.67551889168744117 0.69447607299129699 0 0.84099946107689361 0.81469961246449951 0 0.68914937826112133 0.81599560342209843 0.22280203704001911 0.81599560342233202 0.70565701452089868 0.1912596090858541 1 0.85358983848646974 0.14641016151341191 1 0.69447607299129699 0 0.84099946107689361 0.81599560342209843 0.22280203704001911 0.81599560342233202 0.85358983848646974 0.14641016151341191 1 0.70565701452089868 0.1912596090858541 1 0.85173693729199718 0.30007817960516198 1 0.81599560342209843 0.22280203704001911 0.81599560342233202 1 0.1912596090855686 0.70565701451953711 0.81469961246449951 0 0.68914937826112133 0.85358983848570524 0 0.85358983848556425 0.81599560342209843 0.22280203704001911 0.81599560342233202 0.69447607299129699 0 0.84099946107689361 0.85358983848570524 0 0.85358983848556425 0.81469961246449951 0 0.68914937826112133 0.81599560342209843 0.22280203704001911 0.81599560342233202 0.85358983848570524 0 0.85358983848556425 0.69447607299129699 0 0.84099946107689361 0.85358983848646974 0.14641016151341191 1 0.81599560342209843 0.22280203704001911 0.81599560342233202 0.79999999999999982 0 1 0.69447607299129699 0 0.84099946107689361 0.70565701452089868 0.1912596090858541 1 0.85358983848646974 0.14641016151341191 1 0.79999999999999982 0 1 0.85358983848570524 0 0.85358983848556425 0.69447607299129699 0 0.84099946107689361 0.85358983848646974 0.14641016151341191 1 1 0 1 1 0.14641016151333891 0.85358983848640169 0.85358983848570524 0 0.85358983848556425 0.85358983848646974 0.14641016151341191 1 0.79999999999999982 0 1 1 0 1 0.85358983848570524 0 0.85358983848556425 0.85358983848646974 0.14641016151341191 1 0.85358983848646974 0.14641016151341191 1 1 0 1 1 0.14641016151333891 0.85358983848640169 1 0.19999999999955789 1 0.85358983848570524 0 0.85358983848556425 1 0.14641016151333891 0.85358983848640169 1 0 1 1 0 0.79999999999947335 0.85358983848570524 0 0.85358983848556425 0.81469961246449951 0 0.68914937826112133 1 0.1912596090855686 0.70565701451953711 1 0 0.79999999999947335 1 0.1912596090855686 0.70565701451953711 1 0.14641016151333891 0.85358983848640169 0.85358983848570524 0 0.85358983848556425 1 0 0.79999999999947335 1 0.14641016151333891 0.85358983848640169 1 0.30007817960499339 0.85173693729139244 1 0.1912596090855686 0.70565701451953711 0.81599560342209843 0.22280203704001911 0.81599560342233202 1 0.1912596090855686 0.70565701451953711 0.85358983848570524 0 0.85358983848556425 1 0.14641016151333891 0.85358983848640169 0.81599560342209843 0.22280203704001911 0.81599560342233202 0.85358983848646974 0.14641016151341191 1 0.85173693729199718 0.30007817960516198 1 1 0.19999999999955789 1 0.81599560342209843 0.22280203704001911 0.81599560342233202 1 0.14641016151333891 0.85358983848640169 0.85358983848646974 0.14641016151341191 1 1 0.19999999999955789 1 0.81599560342209843 0.22280203704001911 0.81599560342233202 1 0.14641016151333891 0.85358983848640169 1 0.19999999999955789 1 1 0.30007817960499339 0.85173693729139244 0.81599560342209843 0.22280203704001911 0.81599560342233202 0.85358983848570524 0 0.85358983848556425 0.85358983848646974 0.14641016151341191 1 1 0.14641016151333891 0.85358983848640169 0.81599560342209843 0.22280203704001911 0.81599560342233202 1 0.19999999999955789 1 1 0.30007817960499339 0.85173693729139244 0.85173693729199718 0.30007817960516198 1 1 0.3999999999989749 1 1 0.19999999999955789 1 0.85173693729199718 0.30007817960516198 1 1 0.30007817960499339 0.85173693729139244 0.81599560342209843 0.22280203704001911 0.81599560342233202 1 0.30007817960499339 0.85173693729139244 0.85173693729199718 0.30007817960516198 1 0.78019141325921404 0.49972466465542442 0.78019141325930785 0.81599560342209843 0.22280203704001911 0.81599560342233202 0.68742751001967084 0.31250796680084852 0.687427510020161 0.78019141325921404 0.49972466465542442 0.78019141325930785 0.72724211050425436 0.39076805646176382 1 0.81599560342209843 0.22280203704001911 0.81599560342233202 1 0.39076805646076263 0.7272421105028648 1 0.30007817960499339 0.85173693729139244 0.78019141325921404 0.49972466465542442 0.78019141325930785 0.81599560342209843 0.22280203704001911 0.81599560342233202 0.85173693729199718 0.30007817960516198 1 0.72724211050425436 0.39076805646176382 1 0.78019141325921404 0.49972466465542442 0.78019141325930785 0.81599560342209843 0.22280203704001911 0.81599560342233202 1 0.39076805646076263 0.7272421105028648 0.78019141325921404 0.49972466465542442 0.78019141325930785 0.68742751001967084 0.31250796680084852 0.687427510020161 0.81599560342209843 0.22280203704001911 0.81599560342233202 0.85173693729199718 0.30007817960516198 1 1 0.30007817960499339 0.85173693729139244 1 0.48813836695007229 0.84191918937727617 1 0.3999999999989749 1 0.72724211050425436 0.39076805646176382 1 0.85173693729199718 0.30007817960516198 1 0.70565701452089868 0.1912596090858541 1 0.81599560342209843 0.22280203704001911 0.81599560342233202 1 0.1912596090855686 0.70565701451953711 1 0.30007817960499339 0.85173693729139244 1 0.39076805646076263 0.7272421105028648 0.81599560342209843 0.22280203704001911 0.81599560342233202 0.85173693729199718 0.30007817960516198 1 1 0.48813836695007229 0.84191918937727617 1 0.30007817960499339 0.85173693729139244 0.78019141325921404 0.49972466465542442 0.78019141325930785 1 0.30007817960499339 0.85173693729139244 1 0.48813836695007229 0.84191918937727617 1 0.39076805646076263 0.7272421105028648 0.78019141325921404 0.49972466465542442 0.78019141325930785 1 0.39076805646076263 0.7272421105028648 1 0.48813836695007229 0.84191918937727617 1 0.53045230059030524 0.6732050807565132 0.78019141325921404 0.49972466465542442 0.78019141325930785 0.72724211050425436 0.39076805646176382 1 0.67320508075671459 0.53045230059073867 1 0.84191918937756771 0.48813836695034618 1 0.78019141325921404 0.49972466465542442 0.78019141325930785 0.84191918937756771 0.48813836695034618 1 0.85173693729199718 0.30007817960516198 1 0.72724211050425436 0.39076805646176382 1 0.78019141325921404 0.49972466465542442 0.78019141325930785 0.84191918937756771 0.48813836695034618 1 1 0.48813836695007229 0.84191918937727617 0.85173693729199718 0.30007817960516198 1 0.78019141325921404 0.49972466465542442 0.78019141325930785 1 0.3999999999989749 1 1 0.48813836695007229 0.84191918937727617 0.84191918937756771 0.48813836695034618 1 1 0.59999999999894682 1 1 0.48813836695007229 0.84191918937727617 0.84191918937756771 0.48813836695034618 1 0.85173693729199718 0.30007817960516198 1 1 0.3999999999989749 1 0.80839867011861499 0.68192028468377774 1 0.78019141325921404 0.49972466465542442 0.78019141325930785 0.68649174659499257 0.68600703198516766 0.6864917465949647 0.77683220420328725 0.81278569633583353 0.81664766512111064 0.80839867011861499 0.68192028468377774 1 1 0.68192028468364885 0.80839867011854549 0.78019141325921404 0.49972466465542442 0.78019141325930785 0.77683220420328725 0.81278569633583353 0.81664766512111064 1 0.59999999999894682 1 1 0.48813836695007229 0.84191918937727617 0.84191918937756771 0.48813836695034618 1 1 0.68192028468364885 0.80839867011854549 0.68649174659499257 0.68600703198516766 0.6864917465949647 0.78019141325921404 0.49972466465542442 0.78019141325930785 1 0.68192028468364885 0.80839867011854549 0.77683220420328725 0.81278569633583353 0.81664766512111064 0.84191918937756771 0.48813836695034618 1 1 0.59999999999894682 1 1 0.68192028468364885 0.80839867011854549 0.80839867011861499 0.68192028468377774 1 1 0.59999999999894682 1 1 0.68192028468364885 0.80839867011854549 0.80839867011861499 0.68192028468377774 1 1 0.79999999999947335 1 0.84191918937756771 0.48813836695034618 1 0.67320508075671459 0.53045230059073867 1 0.80839867011861499 0.68192028468377774 1 0.78019141325921404 0.49972466465542442 0.78019141325930785 0.84191918937756771 0.48813836695034618 1 0.80839867011861499 0.68192028468377774 1 1 0.68192028468364885 0.80839867011854549 0.78019141325921404 0.49972466465542442 0.78019141325930785 1 0.68192028468364885 0.80839867011854549 1 0.53045230059030524 0.6732050807565132 1 0.48813836695007229 0.84191918937727617 0.78019141325921404 0.49972466465542442 0.78019141325930785 1 0.68192028468364885 0.80839867011854549 1 0.48813836695007229 0.84191918937727617 0.84191918937756771 0.48813836695034618 1 0.78019141325921404 0.49972466465542442 0.78019141325930785 1 0.67939035495490308 0.61016512164639347 0.78019141325921404 0.49972466465542442 0.78019141325930785 0.7504488434426726 0.53051757989633308 0.49836643074154852 1 0.53045230059030524 0.6732050807565132 1 0.67939035495490308 0.61016512164639347 0.7504488434426726 0.53051757989633308 0.49836643074154852 0.68649174659499257 0.68600703198516766 0.6864917465949647 0.77374673111774417 0.78860835645735528 0.49829081152968557 1 0.67939035495490308 0.61016512164639347 0.68649174659499257 0.68600703198516766 0.6864917465949647 1 0.83791821520125753 0.69361520514217179 0.77374673111774417 0.78860835645735528 0.49829081152968557 1 0.68192028468364885 0.80839867011854549 1 0.67939035495490308 0.61016512164639347 0.68649174659499257 0.68600703198516766 0.6864917465949647 0.77683220420328725 0.81278569633583353 0.81664766512111064 1 0.67939035495490308 0.61016512164639347 1 0.68975022421527898 0.45812322962078778 0.7504488434426726 0.53051757989633308 0.49836643074154852 0.77374673111774417 0.78860835645735528 0.49829081152968557 0.7504488434426726 0.53051757989633308 0.49836643074154852 0.78019141325921404 0.49972466465542442 0.78019141325930785 1 0.67939035495490308 0.61016512164639347 0.68649174659499257 0.68600703198516766 0.6864917465949647 1 0.68192028468364885 0.80839867011854549 0.68649174659499257 0.68600703198516766 0.6864917465949647 1 0.67939035495490308 0.61016512164639347 0.78019141325921404 0.49972466465542442 0.78019141325930785 1 0.53045230059030524 0.6732050807565132 1 0.68192028468364885 0.80839867011854549 1 0.67939035495490308 0.61016512164639347 0.78019141325921404 0.49972466465542442 0.78019141325930785 1 0.67939035495490308 0.61016512164639347 1 0.50000000000229983 0.51961524226898759 1 0.53045230059030524 0.6732050807565132 0.7504488434426726 0.53051757989633308 0.49836643074154852 1 0.67939035495490308 0.61016512164639347 1 0.68975022421527898 0.45812322962078778 1 0.50000000000229983 0.51961524226898759 0.7504488434426726 0.53051757989633308 0.49836643074154852 1 0.67939035495490308 0.61016512164639347 1 0.83630110503662825 0.50803330197135588 1 0.68975022421527898 0.45812322962078778 0.77374673111774417 0.78860835645735528 0.49829081152968557 1 0.83791821520125753 0.69361520514217179 0.77374673111774417 0.78860835645735528 0.49829081152968557 0.68649174659499257 0.68600703198516766 0.6864917465949647 0.77683220420328725 0.81278569633583353 0.81664766512111064 0.68649174659499257 0.68600703198516766 0.6864917465949647 0.77374673111774417 0.78860835645735528 0.49829081152968557 0.81346205468287114 1 0.68420958956387889 0.77683220420328725 0.81278569633583353 0.81664766512111064 1 0.83791821520125753 0.69361520514217179 0.68649174659499257 0.68600703198516766 0.6864917465949647 1 0.67939035495490308 0.61016512164639347 0.77683220420328725 0.81278569633583353 0.81664766512111064 1 0.68192028468364885 0.80839867011854549 1 0.83791821520125753 0.69361520514217179 1 0.67939035495490308 0.61016512164639347 0.77683220420328725 0.81278569633583353 0.81664766512111064 1 0.83791821520125753 0.69361520514217179 0.81346205468287114 1 0.68420958956387889 0.77374673111774417 0.78860835645735528 0.49829081152968557 0.77683220420328725 0.81278569633583353 0.81664766512111064 1 0.83630110503662825 0.50803330197135588 1 0.67939035495490308 0.61016512164639347 1 0.83791821520125753 0.69361520514217179 0.77374673111774417 0.78860835645735528 0.49829081152968557 1 0.83791821520125753 0.69361520514217179 0.86762395692956074 1 0.5060815484123421 1 0.83630110503662825 0.50803330197135588 0.77374673111774417 0.78860835645735528 0.49829081152968557 1 1 0.59999999999894682 1 0.83630110503662825 0.50803330197135588 1 0.83791821520125753 0.69361520514217179 0.86762395692956074 1 0.5060815484123421 0.86762395692956074 1 0.5060815484123421 1 1 0.59999999999894682 1 0.83630110503662825 0.50803330197135588 1 1 0.3999999999989749 1 0.83791821520125753 0.69361520514217179 0.81346205468287114 1 0.68420958956387889 1 1 0.59999999999894682 0.86762395692956074 1 0.5060815484123421 0.86762395692956074 1 0.5060815484123421 0.81346205468287114 1 0.68420958956387889 0.68240285647621723 1 0.52310058211166854 0.77374673111774417 0.78860835645735528 0.49829081152968557 0.81346205468287114 1 0.68420958956387889 0.86762395692956074 1 0.5060815484123421 1 0.83791821520125753 0.69361520514217179 0.77374673111774417 0.78860835645735528 0.49829081152968557 1 0.83791821520125753 0.69361520514217179 0.81346205468287114 1 0.68420958956387889 1 1 0.79999999999947335 1 1 0.59999999999894682 1 1 0.79999999999947335 0.85358983848569092 1 0.85358983848569092 0.81346205468287114 1 0.68420958956387889 1 0.83791821520125753 0.69361520514217179 0.85358983848569092 1 0.85358983848569092 1 0.83791821520125753 0.69361520514217179 1 0.85358983848587056 0.85358983848587056 0.77683220420328725 0.81278569633583353 0.81664766512111064 0.85358983848569092 1 0.85358983848569092 1 1 0.79999999999947335 1 0.85358983848587056 0.85358983848587056 1 0.83791821520125753 0.69361520514217179 0.85358983848587056 0.85358983848587056 1 1 1 1 1 0.79999999999947335 1 1 0.85358983848587056 0.85358983848587056 0.85358983848587056 0.85358983848587056 1 0.79999999999947335 1 1 1 1 1 0.85358983848569092 1 0.85358983848569092 1 1 0.79999999999947335 1 0.85358983848587056 0.85358983848587056 1 1 1 0.85358983848569092 1 0.85358983848569092 1 0.85358983848587056 0.85358983848587056 0.85358983848587056 0.85358983848587056 1 1 1 1 0.85358983848569092 1 0.85358983848569092 0.85358983848587056 0.85358983848587056 1 1 0.79999999999947335 1 1 0.68192028468364885 0.80839867011854549 1 0.85358983848587056 0.85358983848587056 1 0.79999999999947335 1 1 0.68192028468364885 0.80839867011854549 0.80839867011861499 0.68192028468377774 1 0.85358983848587056 0.85358983848587056 1 0.85358983848587056 0.85358983848587056 1 1 0.85358983848587056 0.85358983848587056 1 0.68192028468364885 0.80839867011854549 0.77683220420328725 0.81278569633583353 0.81664766512111064 1 0.68192028468364885 0.80839867011854549 1 0.85358983848587056 0.85358983848587056 1 0.83791821520125753 0.69361520514217179 0.77683220420328725 0.81278569633583353 0.81664766512111064 0.69361520514218133 0.83791821520130205 1 0.85358983848587056 0.85358983848587056 1 0.80839867011861499 0.68192028468377774 1 0.77683220420328725 0.81278569633583353 0.81664766512111064 0.80839867011861499 0.68192028468377774 1 0.85358983848587056 0.85358983848587056 1 1 0.68192028468364885 0.80839867011854549 0.77683220420328725 0.81278569633583353 0.81664766512111064 0.85358983848587056 0.85358983848587056 1 0.79999999999947335 1 1 0.85358983848569092 1 0.85358983848569092 0.77683220420328725 0.81278569633583353 0.81664766512111064 0.69981550660938663 1 0.83057691269844081 0.85358983848569092 1 0.85358983848569092 0.79999999999947335 1 1 0.77683220420328725 0.81278569633583353 0.81664766512111064 0.85358983848587056 0.85358983848587056 1 0.69361520514218133 0.83791821520130205 1 0.79999999999947335 1 1 0.77683220420328725 0.81278569633583353 0.81664766512111064 1 0.85358983848587056 0.85358983848587056 0.85358983848587056 0.85358983848587056 1 0.85358983848569092 1 0.85358983848569092 0.77683220420328725 0.81278569633583353 0.81664766512111064 0.85358983848569092 1 0.85358983848569092 0.69981550660938663 1 0.83057691269844081 0.81346205468287114 1 0.68420958956387889 0.77683220420328725 0.81278569633583353 0.81664766512111064 0.81346205468287114 1 0.68420958956387889 1 0.83791821520125753 0.69361520514217179 0.85358983848569092 1 0.85358983848569092 0.77683220420328725 0.81278569633583353 0.81664766512111064 0.69361520514218133 0.83791821520130205 1 0.49911199724958061 0.77872228561593948 0.77895350115271889 0.69981550660938663 1 0.83057691269844081 0.77683220420328725 0.81278569633583353 0.81664766512111064 0.69361520514218133 0.83791821520130205 1 0.61016512164652226 0.67939035495506384 1 0.49911199724958061 0.77872228561593948 0.77895350115271889 0.77683220420328725 0.81278569633583353 0.81664766512111064 0.81346205468287114 1 0.68420958956387889 0.69981550660938663 1 0.83057691269844081 0.6123333432449789 1 0.67837347745467769 0.77683220420328725 0.81278569633583353 0.81664766512111064 0.6123333432449789 1 0.67837347745467769 0.69981550660938663 1 0.83057691269844081 0.49911199724958061 0.77872228561593948 0.77895350115271889 0.77683220420328725 0.81278569633583353 0.81664766512111064 0.69361520514218133 0.83791821520130205 1 0.69981550660938663 1 0.83057691269844081 0.79999999999947335 1 1 0.77683220420328725 0.81278569633583353 0.81664766512111064 0.50970031073508926 1 0.83534964916803001 0.59999999999894682 1 1 0.69361520514218133 0.83791821520130205 1 0.69981550660938663 1 0.83057691269844081 0.69981550660938663 1 0.83057691269844081 0.59999999999894682 1 1 0.69361520514218133 0.83791821520130205 1 0.79999999999947335 1 1 0.80839867011861499 0.68192028468377774 1 0.61016512164652226 0.67939035495506384 1 0.69361520514218133 0.83791821520130205 1 0.77683220420328725 0.81278569633583353 0.81664766512111064 0.50803330197137353 0.83630110503667787 1 0.69361520514218133 0.83791821520130205 1 0.61016512164652226 0.67939035495506384 1 0.49911199724958061 0.77872228561593948 0.77895350115271889 0.50803330197137353 0.83630110503667787 1 0.50970031073508926 1 0.83534964916803001 0.69361520514218133 0.83791821520130205 1 0.49911199724958061 0.77872228561593948 0.77895350115271889 0.59999999999894682 1 1 0.50803330197137353 0.83630110503667787 1 0.3999999999989749 1 1 0.50970031073508926 1 0.83534964916803001 0.69361520514218133 0.83791821520130205 1 0.50803330197137353 0.83630110503667787 1 0.59999999999894682 1 1 0.50970031073508926 1 0.83534964916803001 0.69361520514218133 0.83791821520130205 1 0.50970031073508926 1 0.83534964916803001 0.69981550660938663 1 0.83057691269844081 0.49911199724958061 0.77872228561593948 0.77895350115271889 0.50970031073508926 1 0.83534964916803001 0.6123333432449789 1 0.67837347745467769 0.69981550660938663 1 0.83057691269844081 0.49911199724958061 0.77872228561593948 0.77895350115271889 0.6123333432449789 1 0.67837347745467769 0.49983993748706529 0.75039103705932653 0.52967335724801234 0.68649174659499257 0.68600703198516766 0.6864917465949647 0.49911199724958061 0.77872228561593948 0.77895350115271889 0.6123333432449789 1 0.67837347745467769 0.49983993748706529 0.75039103705932653 0.52967335724801234 0.68240285647621723 1 0.52310058211166854 0.77374673111774417 0.78860835645735528 0.49829081152968557 0.6123333432449789 1 0.67837347745467769 0.45820186441573879 1 0.68969697123405882 0.49983993748706529 0.75039103705932653 0.52967335724801234 0.49911199724958061 0.77872228561593948 0.77895350115271889 0.45820186441573879 1 0.68969697123405882 0.6123333432449789 1 0.67837347745467769 0.50970031073508926 1 0.83534964916803001 0.49911199724958061 0.77872228561593948 0.77895350115271889 0.6123333432449789 1 0.67837347745467769 0.68649174659499257 0.68600703198516766 0.6864917465949647 0.49983993748706529 0.75039103705932653 0.52967335724801234 0.77374673111774417 0.78860835645735528 0.49829081152968557 0.81346205468287114 1 0.68420958956387889 0.6123333432449789 1 0.67837347745467769 0.68649174659499257 0.68600703198516766 0.6864917465949647 0.77683220420328725 0.81278569633583353 0.81664766512111064 0.6123333432449789 1 0.67837347745467769 0.49911199724958061 0.77872228561593948 0.77895350115271889 0.68649174659499257 0.68600703198516766 0.6864917465949647 0.77683220420328725 0.81278569633583353 0.81664766512111064 0.81346205468287114 1 0.68420958956387889 0.68649174659499257 0.68600703198516766 0.6864917465949647 0.6123333432449789 1 0.67837347745467769 0.77374673111774417 0.78860835645735528 0.49829081152968557 0.81346205468287114 1 0.68420958956387889 0.6123333432449789 1 0.67837347745467769 0.68240285647621723 1 0.52310058211166854 0.77374673111774417 0.78860835645735528 0.49829081152968557 0.6123333432449789 1 0.67837347745467769 0.45820186441573879 1 0.68969697123405882 0.51961524227008238 1 0.49999999999872219 0.49983993748706529 0.75039103705932653 0.52967335724801234 0.6123333432449789 1 0.67837347745467769 0.51961524227008238 1 0.49999999999872219 0.68240285647621723 1 0.52310058211166854 0.49983993748706529 0.75039103705932653 0.52967335724801234 0.68649174659499257 0.68600703198516766 0.6864917465949647 0.49983993748706529 0.75039103705932653 0.52967335724801234 0.49816183246753282 0.5307146639261795 0.75045686993209071 0.49911199724958061 0.77872228561593948 0.77895350115271889 0.68649174659499257 0.68600703198516766 0.6864917465949647 0.50000000000001332 0.49999999999999561 0.49999999999999561 0.7504488434426726 0.53051757989633308 0.49836643074154852 0.49816183246753282 0.5307146639261795 0.75045686993209071 0.68649174659499257 0.68600703198516766 0.6864917465949647 0.49816183246753282 0.5307146639261795 0.75045686993209071 0.7504488434426726 0.53051757989633308 0.49836643074154852 0.78019141325921404 0.49972466465542442 0.78019141325930785 0.50000000000001332 0.49999999999999561 0.49999999999999561 0.68649174659499257 0.68600703198516766 0.6864917465949647 0.7504488434426726 0.53051757989633308 0.49836643074154852 0.49983993748706529 0.75039103705932653 0.52967335724801234 0.7504488434426726 0.53051757989633308 0.49836643074154852 0.49983993748706529 0.75039103705932653 0.52967335724801234 0.68649174659499257 0.68600703198516766 0.6864917465949647 0.77374673111774417 0.78860835645735528 0.49829081152968557 0.68649174659499257 0.68600703198516766 0.6864917465949647 0.50000000000001332 0.49999999999999561 0.49999999999999561 0.49816183246753282 0.5307146639261795 0.75045686993209071 0.49983993748706529 0.75039103705932653 0.52967335724801234 0.78019141325921404 0.49972466465542442 0.78019141325930785 0.61016512164652226 0.67939035495506384 1 0.49816183246753282 0.5307146639261795 0.75045686993209071 0.67320508075671459 0.53045230059073867 1 0.78019141325921404 0.49972466465542442 0.78019141325930785 0.49816183246753282 0.5307146639261795 0.75045686993209071 0.61016512164652226 0.67939035495506384 1 0.68649174659499257 0.68600703198516766 0.6864917465949647 0.61016512164652226 0.67939035495506384 1 0.68649174659499257 0.68600703198516766 0.6864917465949647 0.80839867011861499 0.68192028468377774 1 0.78019141325921404 0.49972466465542442 0.78019141325930785 0.68649174659499257 0.68600703198516766 0.6864917465949647 0.49911199724958061 0.77872228561593948 0.77895350115271889 0.61016512164652226 0.67939035495506384 1 0.77683220420328725 0.81278569633583353 0.81664766512111064 0.68649174659499257 0.68600703198516766 0.6864917465949647 0.49816183246753282 0.5307146639261795 0.75045686993209071 0.61016512164652226 0.67939035495506384 1 0.49911199724958061 0.77872228561593948 0.77895350115271889 0.80839867011861499 0.68192028468377774 1 0.68649174659499257 0.68600703198516766 0.6864917465949647 0.61016512164652226 0.67939035495506384 1 0.77683220420328725 0.81278569633583353 0.81664766512111064 0.67320508075671459 0.53045230059073867 1 0.61016512164652226 0.67939035495506384 1 0.80839867011861499 0.68192028468377774 1 0.78019141325921404 0.49972466465542442 0.78019141325930785 0.45812322962090041 0.68975022421538157 1 0.61016512164652226 0.67939035495506384 1 0.49816183246753282 0.5307146639261795 0.75045686993209071 0.49911199724958061 0.77872228561593948 0.77895350115271889 0.50803330197137353 0.83630110503667787 1 0.61016512164652226 0.67939035495506384 1 0.45812322962090041 0.68975022421538157 1 0.49911199724958061 0.77872228561593948 0.77895350115271889 0.51961524226934941 0.50000000000250611 1 0.45812322962090041 0.68975022421538157 1 0.61016512164652226 0.67939035495506384 1 0.49816183246753282 0.5307146639261795 0.75045686993209071 0.67320508075671459 0.53045230059073867 1 0.51961524226934941 0.50000000000250611 1 0.61016512164652226 0.67939035495506384 1 0.49816183246753282 0.5307146639261795 0.75045686993209071 0.3115891413135391 0.68758981780459771 0.68521708032990558 0.2184393375098648 0.50004596894495223 0.77634962490704662 0.32446581821293602 0.60020898676440626 1 0.18453958615733529 0.77655623474864555 0.81613222483915937 0.32925244736146098 0.39615100178034629 1 0.32446581821293602 0.60020898676440626 1 0.51961524226934941 0.50000000000250611 1 0.49816183246753282 0.5307146639261795 0.75045686993209071 0.45812322962090041 0.68975022421538157 1 0.3115891413135391 0.68758981780459771 0.68521708032990558 0.31067093462947892 0.81480288849497895 1 0.49911199724958061 0.77872228561593948 0.77895350115271889 0.32925244736146098 0.39615100178034629 1 0.32446581821293602 0.60020898676440626 1 0.49816183246753282 0.5307146639261795 0.75045686993209071 0.2184393375098648 0.50004596894495223 0.77634962490704662 0.45812322962090041 0.68975022421538157 1 0.49816183246753282 0.5307146639261795 0.75045686993209071 0.3115891413135391 0.68758981780459771 0.68521708032990558 0.49911199724958061 0.77872228561593948 0.77895350115271889 0.32446581821293602 0.60020898676440626 1 0.3115891413135391 0.68758981780459771 0.68521708032990558 0.49816183246753282 0.5307146639261795 0.75045686993209071 0.2184393375098648 0.50004596894495223 0.77634962490704662 0.45812322962090041 0.68975022421538157 1 0.51961524226934941 0.50000000000250611 1 0.32446581821293602 0.60020898676440626 1 0.49816183246753282 0.5307146639261795 0.75045686993209071 0.31067093462947892 0.81480288849497895 1 0.45812322962090041 0.68975022421538157 1 0.32446581821293602 0.60020898676440626 1 0.3115891413135391 0.68758981780459771 0.68521708032990558 0.45812322962090041 0.68975022421538157 1 0.32446581821293602 0.60020898676440626 1 0.3115891413135391 0.68758981780459771 0.68521708032990558 0.49816183246753282 0.5307146639261795 0.75045686993209071 0.32446581821293602 0.60020898676440626 1 0.31067093462947892 0.81480288849497895 1 0.3115891413135391 0.68758981780459771 0.68521708032990558 0.18453958615733529 0.77655623474864555 0.81613222483915937 0.3115891413135391 0.68758981780459771 0.68521708032990558 0.50000000000001332 0.49999999999999561 0.49999999999999561 0.24769234054476261 0.52242103280823293 0.45098450226372488 0.49983993748706529 0.75039103705932653 0.52967335724801234 0.3115891413135391 0.68758981780459771 0.68521708032990558 0.49816183246753282 0.5307146639261795 0.75045686993209071 0.50000000000001332 0.49999999999999561 0.49999999999999561 0.49983993748706529 0.75039103705932653 0.52967335724801234 0.3115891413135391 0.68758981780459771 0.68521708032990558 0.49983993748706529 0.75039103705932653 0.52967335724801234 0.24769234054476261 0.52242103280823293 0.45098450226372488 0.22516916914780419 0.77057994845201627 0.48187244075707292 0.50000000000001332 0.49999999999999561 0.49999999999999561 0.3115891413135391 0.68758981780459771 0.68521708032990558 0.24769234054476261 0.52242103280823293 0.45098450226372488 0.2184393375098648 0.50004596894495223 0.77634962490704662 0.3115891413135391 0.68758981780459771 0.68521708032990558 0.50000000000001332 0.49999999999999561 0.49999999999999561 0.49816183246753282 0.5307146639261795 0.75045686993209071 0.2184393375098648 0.50004596894495223 0.77634962490704662 0.49816183246753282 0.5307146639261795 0.75045686993209071 0.49983993748706529 0.75039103705932653 0.52967335724801234 0.3115891413135391 0.68758981780459771 0.68521708032990558 0.49911199724958061 0.77872228561593948 0.77895350115271889 0.32448110831226962 1 0.6002015905153204 0.45820186441573879 1 0.68969697123405882 0.3115891413135391 0.68758981780459771 0.68521708032990558 0.49983993748706529 0.75039103705932653 0.52967335724801234 0.45820186441573879 1 0.68969697123405882 0.31085062173747541 1 0.81469961246428202 0.32448110831226962 1 0.6002015905153204 0.3115891413135391 0.68758981780459771 0.68521708032990558 0.45820186441573879 1 0.68969697123405882 0.3115891413135391 0.68758981780459771 0.68521708032990558 0.49983993748706529 0.75039103705932653 0.52967335724801234 0.49911199724958061 0.77872228561593948 0.77895350115271889 0.32448110831226962 1 0.6002015905153204 0.3115891413135391 0.68758981780459771 0.68521708032990558 0.31085062173747541 1 0.81469961246428202 0.18453958615733529 0.77655623474864555 0.81613222483915937 0.32448110831226962 1 0.6002015905153204 0.49983993748706529 0.75039103705932653 0.52967335724801234 0.3115891413135391 0.68758981780459771 0.68521708032990558 0.22516916914780419 0.77057994845201627 0.48187244075707292 0.45820186441573879 1 0.68969697123405882 0.31085062173747541 1 0.81469961246428202 0.3115891413135391 0.68758981780459771 0.68521708032990558 0.49911199724958061 0.77872228561593948 0.77895350115271889 0.32926555316115258 1 0.39615987727515128 0.49983993748706529 0.75039103705932653 0.52967335724801234 0.32448110831226962 1 0.6002015905153204 0.22516916914780419 0.77057994845201627 0.48187244075707292 0.32448110831226962 1 0.6002015905153204 0.3115891413135391 0.68758981780459771 0.68521708032990558 0.15900053892265181 1 0.69447607299016312 0.22516916914780419 0.77057994845201627 0.48187244075707292 0.32926555316115258 1 0.39615987727515128 0.51961524227008238 1 0.49999999999872219 0.32448110831226962 1 0.6002015905153204 0.49983993748706529 0.75039103705932653 0.52967335724801234 0.32448110831226962 1 0.6002015905153204 0.51961524227008238 1 0.49999999999872219 0.45820186441573879 1 0.68969697123405882 0.49983993748706529 0.75039103705932653 0.52967335724801234 0.45820186441573879 1 0.68969697123405882 0.50970031073508926 1 0.83534964916803001 0.31085062173747541 1 0.81469961246428202 0.49911199724958061 0.77872228561593948 0.77895350115271889 0.31085062173747541 1 0.81469961246428202 0.49911199724958061 0.77872228561593948 0.77895350115271889 0.31067093462947892 0.81480288849497895 1 0.18453958615733529 0.77655623474864555 0.81613222483915937 0.31085062173747541 1 0.81469961246428202 0.3115891413135391 0.68758981780459771 0.68521708032990558 0.49911199724958061 0.77872228561593948 0.77895350115271889 0.18453958615733529 0.77655623474864555 0.81613222483915937 0.50803330197137353 0.83630110503667787 1 0.31085062173747541 1 0.81469961246428202 0.50970031073508926 1 0.83534964916803001 0.49911199724958061 0.77872228561593948 0.77895350115271889 0.31067093462947892 0.81480288849497895 1 0.49911199724958061 0.77872228561593948 0.77895350115271889 0.3115891413135391 0.68758981780459771 0.68521708032990558 0.18453958615733529 0.77655623474864555 0.81613222483915937 0.31085062173747541 1 0.81469961246428202 0.3999999999989749 1 1 0.50803330197137353 0.83630110503667787 1 0.50970031073508926 1 0.83534964916803001 0.31085062173747541 1 0.81469961246428202 0.3999999999989749 1 1 0.31067093462947892 0.81480288849497895 1 0.50803330197137353 0.83630110503667787 1 0.31085062173747541 1 0.81469961246428202 0.50803330197137353 0.83630110503667787 1 0.31067093462947892 0.81480288849497895 1 0.49911199724958061 0.77872228561593948 0.77895350115271889 0.45812322962090041 0.68975022421538157 1 0.31067093462947892 0.81480288849497895 1 0.50803330197137353 0.83630110503667787 1 0.49911199724958061 0.77872228561593948 0.77895350115271889 0.3999999999989749 1 1 0.19999999999955789 1 1 0.31085062173747541 1 0.81469961246428202 0.31067093462947892 0.81480288849497895 1 0.15900053892265181 1 0.69447607299016312 0.31085062173747541 1 0.81469961246428202 0.1464101615132356 1 0.85358983848650494 0.18453958615733529 0.77655623474864555 0.81613222483915937 0.31085062173747541 1 0.81469961246428202 0.31067093462947892 0.81480288849497895 1 0.1464101615132356 1 0.85358983848650494 0.18453958615733529 0.77655623474864555 0.81613222483915937 0.31085062173747541 1 0.81469961246428202 0.19999999999955789 1 1 0.1464101615132356 1 0.85358983848650494 0.31067093462947892 0.81480288849497895 1 0.14641016151332509 0.85358983848655678 1 0.1464101615132356 1 0.85358983848650494 0.19999999999955789 1 1 0.31067093462947892 0.81480288849497895 1 0.31067093462947892 0.81480288849497895 1 0.15896804272141651 0.69449451837104537 1 0.14641016151332509 0.85358983848655678 1 0.18453958615733529 0.77655623474864555 0.81613222483915937 0.14641016151332509 0.85358983848655678 1 0.1464101615132356 1 0.85358983848650494 0.31067093462947892 0.81480288849497895 1 0.18453958615733529 0.77655623474864555 0.81613222483915937 0 0.85358983848682146 0.85358983848668035 0 0.69992182039579531 0.85173693729137989 0 0.80860557108920617 0.70542349973054763 0.18453958615733529 0.77655623474864555 0.81613222483915937 0.15900053892265181 1 0.69447607299016312 0 0.85358983848682146 0.85358983848668035 0 0.80860557108920617 0.70542349973054763 0.18453958615733529 0.77655623474864555 0.81613222483915937 0.18453958615733529 0.77655623474864555 0.81613222483915937 0 0.79999999999999982 1 0.15896804272141651 0.69449451837104537 1 0.14641016151332509 0.85358983848655678 1 0.1464101615132356 1 0.85358983848650494 0.14641016151332509 0.85358983848655678 1 0 0.85358983848682146 0.85358983848668035 0.18453958615733529 0.77655623474864555 0.81613222483915937 0 0.85358983848682146 0.85358983848668035 0 0.79999999999999982 1 0 0.69992182039579531 0.85173693729137989 0.18453958615733529 0.77655623474864555 0.81613222483915937 0 0.85358983848682146 0.85358983848668035 0.14641016151332509 0.85358983848655678 1 0 0.79999999999999982 1 0.18453958615733529 0.77655623474864555 0.81613222483915937 0 1 1 0 0.85358983848682146 0.85358983848668035 0.14641016151332509 0.85358983848655678 1 0 0.79999999999999982 1 0 0.85358983848682146 0.85358983848668035 0.1464101615132356 1 0.85358983848650494 0 1 1 0.14641016151332509 0.85358983848655678 1 0.19999999999955789 1 1 0 1 1 0.1464101615132356 1 0.85358983848650494 0.14641016151332509 0.85358983848655678 1 0.1464101615132356 1 0.85358983848650494 0 1 1 0 1 0.79999999999947335 0 0.85358983848682146 0.85358983848668035 0.1464101615132356 1 0.85358983848650494 0 0.85358983848682146 0.85358983848668035 0.15900053892265181 1 0.69447607299016312 0.18453958615733529 0.77655623474864555 0.81613222483915937 0.15900053892265181 1 0.69447607299016312 0 1 0.79999999999947335 0 0.80860557108920617 0.70542349973054763 0 0.85358983848682146 0.85358983848668035 0 1 0.79999999999947335 0.15900053892265181 1 0.69447607299016312 0.1464101615132356 1 0.85358983848650494 0 0.85358983848682146 0.85358983848668035 0 0.80860557108920617 0.70542349973054763 0 1 0.59999999999894682 0 1 0.79999999999947335 0.15900053892265181 1 0.69447607299016312 0.3115891413135391 0.68758981780459771 0.68521708032990558 0.22516916914780419 0.77057994845201627 0.48187244075707292 0 0.80860557108920617 0.70542349973054763 0.18453958615733529 0.77655623474864555 0.81613222483915937 0 0.80860557108920617 0.70542349973054763 0 0.83630110503664845 0.50803330197135654 0 1 0.59999999999894682 0.15900053892265181 1 0.69447607299016312 0.15900053892265181 1 0.69447607299016312 0.3115891413135391 0.68758981780459771 0.68521708032990558 0.32448110831226962 1 0.6002015905153204 0.18453958615733529 0.77655623474864555 0.81613222483915937 0.15900053892265181 1 0.69447607299016312 0.22516916914780419 0.77057994845201627 0.48187244075707292 0.3115891413135391 0.68758981780459771 0.68521708032990558 0.18453958615733529 0.77655623474864555 0.81613222483915937 0.15900053892265181 1 0.69447607299016312 0 0.80860557108920617 0.70542349973054763 0.22516916914780419 0.77057994845201627 0.48187244075707292 0.18453958615733529 0.77655623474864555 0.81613222483915937 0.15900053892265181 1 0.69447607299016312 0.32448110831226962 1 0.6002015905153204 0.31085062173747541 1 0.81469961246428202 0.18453958615733529 0.77655623474864555 0.81613222483915937 0.32448110831226962 1 0.6002015905153204 0.15900053892265181 1 0.69447607299016312 0.17226134197293 1 0.49836539647645101 0.22516916914780419 0.77057994845201627 0.48187244075707292 0 0.83630110503664845 0.50803330197135654 0.17226134197293 1 0.49836539647645101 0.15900053892265181 1 0.69447607299016312 0.22516916914780419 0.77057994845201627 0.48187244075707292 0 1 0.59999999999894682 0 1 0.3999999999989749 0.17226134197293 1 0.49836539647645101 0 0.83630110503664845 0.50803330197135654 0 0.83630110503664845 0.50803330197135654 0.17226134197293 1 0.49836539647645101 0 1 0.59999999999894682 0.15900053892265181 1 0.69447607299016312 0 0.83630110503664845 0.50803330197135654 0.15900053892265181 1 0.69447607299016312 0 0.80860557108920617 0.70542349973054763 0.22516916914780419 0.77057994845201627 0.48187244075707292 0 0.66416205381430016 0.59944234540882957 0 0.83630110503664845 0.50803330197135654 0 0.80860557108920617 0.70542349973054763 0.22516916914780419 0.77057994845201627 0.48187244075707292 0 0.66416205381430016 0.59944234540882957 0 0.80860557108920617 0.70542349973054763 0.3115891413135391 0.68758981780459771 0.68521708032990558 0.22516916914780419 0.77057994845201627 0.48187244075707292 0 0.66416205381430016 0.59944234540882957 0.3115891413135391 0.68758981780459771 0.68521708032990558 0 0.80860557108920617 0.70542349973054763 0.18453958615733529 0.77655623474864555 0.81613222483915937 0 0.66416205381430016 0.59944234540882957 0 0.80860557108920617 0.70542349973054763 0 0.60922248848335758 0.72722573386012812 0.18453958615733529 0.77655623474864555 0.81613222483915937 0 0.66416205381430016 0.59944234540882957 0.24769234054476261 0.52242103280823293 0.45098450226372488 0.3115891413135391 0.68758981780459771 0.68521708032990558 0.2184393375098648 0.50004596894495223 0.77634962490704662 0 0.66416205381430016 0.59944234540882957 0 0.60922248848335758 0.72722573386012812 0.3115891413135391 0.68758981780459771 0.68521708032990558 0.18453958615733529 0.77655623474864555 0.81613222483915937 0 0.66416205381430016 0.59944234540882957 0 0.46954769941369501 0.67320508075638175 0 0.50000000000237477 0.51961524226909872 0.2184393375098648 0.50004596894495223 0.77634962490704662 0 0.60922248848335758 0.72722573386012812 0 0.66416205381430016 0.59944234540882957 0.3115891413135391 0.68758981780459771 0.68521708032990558 0.2184393375098648 0.50004596894495223 0.77634962490704662 0 0.66416205381430016 0.59944234540882957 0.3115891413135391 0.68758981780459771 0.68521708032990558 0.24769234054476261 0.52242103280823293 0.45098450226372488 0.22516916914780419 0.77057994845201627 0.48187244075707292 0 0.66416205381430016 0.59944234540882957 0 0.50000000000237477 0.51961524226909872 0.24769234054476261 0.52242103280823293 0.45098450226372488 0.2184393375098648 0.50004596894495223 0.77634962490704662 0 0.68801781652248195 0.45664527743358641 0 0.83630110503664845 0.50803330197135654 0 0.66416205381430016 0.59944234540882957 0.22516916914780419 0.77057994845201627 0.48187244075707292 0 0.66416205381430016 0.59944234540882957 0 0.50000000000237477 0.51961524226909872 0 0.68801781652248195 0.45664527743358641 0.24769234054476261 0.52242103280823293 0.45098450226372488 0 0.60922248848335758 0.72722573386012812 0 0.46954769941369501 0.67320508075638175 0 0.66416205381430016 0.59944234540882957 0.2184393375098648 0.50004596894495223 0.77634962490704662 0 0.5118616330515301 0.84191918937737908 0 0.69992182039579531 0.85173693729137989 0.15896804272141651 0.69449451837104537 1 0.2184393375098648 0.50004596894495223 0.77634962490704662 0 0.60922248848335758 0.72722573386012812 0.2184393375098648 0.50004596894495223 0.77634962490704662 0.3115891413135391 0.68758981780459771 0.68521708032990558 0.18453958615733529 0.77655623474864555 0.81613222483915937 0.15896804272141651 0.69449451837104537 1 0.2184393375098648 0.50004596894495223 0.77634962490704662 0 0.69992182039579531 0.85173693729137989 0.18453958615733529 0.77655623474864555 0.81613222483915937 0 0.5118616330515301 0.84191918937737908 0 0.46954769941369501 0.67320508075638175 0 0.60922248848335758 0.72722573386012812 0.2184393375098648 0.50004596894495223 0.77634962490704662 0 0.5118616330515301 0.84191918937737908 0 0.60922248848335758 0.72722573386012812 0 0.69992182039579531 0.85173693729137989 0.2184393375098648 0.50004596894495223 0.77634962490704662 0.15896804272141651 0.69449451837104537 1 0.32446581821293602 0.60020898676440626 1 0.2184393375098648 0.50004596894495223 0.77634962490704662 0.18453958615733529 0.77655623474864555 0.81613222483915937 0 0.60922248848335758 0.72722573386012812 0 0.69992182039579531 0.85173693729137989 0.2184393375098648 0.50004596894495223 0.77634962490704662 0.18453958615733529 0.77655623474864555 0.81613222483915937 0 0.80860557108920617 0.70542349973054763 0 0.69992182039579531 0.85173693729137989 0 0.60922248848335758 0.72722573386012812 0.18453958615733529 0.77655623474864555 0.81613222483915937 0.15896804272141651 0.69449451837104537 1 0.32446581821293602 0.60020898676440626 1 0.17226134197275911 0.49836539647894412 1 0.2184393375098648 0.50004596894495223 0.77634962490704662 0.15896804272141651 0.69449451837104537 1 0.17226134197275911 0.49836539647894412 1 0 0.5118616330515301 0.84191918937737908 0.2184393375098648 0.50004596894495223 0.77634962490704662 0.32446581821293602 0.60020898676440626 1 0.15896804272141651 0.69449451837104537 1 0.31067093462947892 0.81480288849497895 1 0.18453958615733529 0.77655623474864555 0.81613222483915937 0.18453958615733529 0.77655623474864555 0.81613222483915937 0.15896804272141651 0.69449451837104537 1 0 0.79999999999999982 1 0 0.69992182039579531 0.85173693729137989 0 0.69992182039579531 0.85173693729137989 0 0.5118616330515301 0.84191918937737908 0.15896804272141651 0.69449451837104537 1 0 0.60000000000138687 1 0.15896804272141651 0.69449451837104537 1 0 0.79999999999999982 1 0 0.69992182039579531 0.85173693729137989 0 0.60000000000138687 1 0 0.60000000000138687 1 0 0.5118616330515301 0.84191918937737908 0.15896804272141651 0.69449451837104537 1 0.17226134197275911 0.49836539647894412 1 0 0.5118616330515301 0.84191918937737908 0 0.60000000000138687 1 0 0.40000000000166441 1 0.17226134197275911 0.49836539647894412 1 0.17226134197275911 0.49836539647894412 1 0 0.40000000000166441 1 0 0.5118616330515301 0.84191918937737908 0 0.31807971531776508 0.80839867011913336 0 0.40000000000166441 1 0.17226134197275911 0.49836539647894412 1 0.16929708765653109 0.30074819035870082 1 0 0.31807971531776508 0.80839867011913336 0 0.14641016151490169 0.85358983848532144 0 0.31807971531776508 0.80839867011913336 0.16929708765653109 0.30074819035870082 1 0.31426750628021272 0.31270343261798911 0.68761148188185484 0.16929708765653109 0.30074819035870082 1 0.31426750628021272 0.31270343261798911 0.68761148188185484 0 0.31807971531776508 0.80839867011913336 0.2184393375098648 0.50004596894495223 0.77634962490704662 0 0.5118616330515301 0.84191918937737908 0 0.31807971531776508 0.80839867011913336 0 0.46954769941369501 0.67320508075638175 0.2184393375098648 0.50004596894495223 0.77634962490704662 0 0.5118616330515301 0.84191918937737908 0.17226134197275911 0.49836539647894412 1 0 0.31807971531776508 0.80839867011913336 0.2184393375098648 0.50004596894495223 0.77634962490704662 0 0.31807971531776508 0.80839867011913336 0.16929708765653109 0.30074819035870082 1 0 0.40000000000166441 1 0 0.20000000000083221 1 0.17226134197275911 0.49836539647894412 1 0.32925244736146098 0.39615100178034629 1 0.16929708765653109 0.30074819035870082 1 0.2184393375098648 0.50004596894495223 0.77634962490704662 0.17226134197275911 0.49836539647894412 1 0.16929708765653109 0.30074819035870082 1 0 0.31807971531776508 0.80839867011913336 0.2184393375098648 0.50004596894495223 0.77634962490704662 0.31610726166461628 0.1880448979455934 1 0.16929708765653109 0.30074819035870082 1 0.32925244736146098 0.39615100178034629 1 0.31426750628021272 0.31270343261798911 0.68761148188185484 0.32446581821293602 0.60020898676440626 1 0.32925244736146098 0.39615100178034629 1 0.17226134197275911 0.49836539647894412 1 0.2184393375098648 0.50004596894495223 0.77634962490704662 0.45812322962173568 0.31024977578554058 1 0.31426750628021272 0.31270343261798911 0.68761148188185484 0.49816183246753282 0.5307146639261795 0.75045686993209071 0.50084626324420545 0.22238844715913 0.78084811589659187 0.32925244736146098 0.39615100178034629 1 0.49816183246753282 0.5307146639261795 0.75045686993209071 0.31426750628021272 0.31270343261798911 0.68761148188185484 0.2184393375098648 0.50004596894495223 0.77634962490704662 0.31610726166461628 0.1880448979455934 1 0.32925244736146098 0.39615100178034629 1 0.45812322962173568 0.31024977578554058 1 0.31426750628021272 0.31270343261798911 0.68761148188185484 0.45812322962173568 0.31024977578554058 1 0.31610726166461628 0.1880448979455934 1 0.31426750628021272 0.31270343261798911 0.68761148188185484 0.50084626324420545 0.22238844715913 0.78084811589659187 0.32925244736146098 0.39615100178034629 1 0.45812322962173568 0.31024977578554058 1 0.31426750628021272 0.31270343261798911 0.68761148188185484 0.49816183246753282 0.5307146639261795 0.75045686993209071 0.32925244736146098 0.39615100178034629 1 0.31426750628021272 0.31270343261798911 0.68761148188185484 0.16929708765653109 0.30074819035870082 1 0.2184393375098648 0.50004596894495223 0.77634962490704662 0.32925244736146098 0.39615100178034629 1 0.51961524226934941 0.50000000000250611 1 0.45812322962173568 0.31024977578554058 1 0.49816183246753282 0.5307146639261795 0.75045686993209071 0.31426750628021272 0.31270343261798911 0.68761148188185484 0.49816183246753282 0.5307146639261795 0.75045686993209071 0.50000000000001332 0.49999999999999561 0.49999999999999561 0.2184393375098648 0.50004596894495223 0.77634962490704662 0.24769234054476261 0.52242103280823293 0.45098450226372488 0.50073570207385831 0.24848280280289631 0.52886631355986169 0.31426750628021272 0.31270343261798911 0.68761148188185484 0.22088738526309029 0.22111069116742441 0.50004796911802929 0.31426750628021272 0.31270343261798911 0.68761148188185484 0.50073570207385831 0.24848280280289631 0.52886631355986169 0.49816183246753282 0.5307146639261795 0.75045686993209071 0.50084626324420545 0.22238844715913 0.78084811589659187 0.50000000000001332 0.49999999999999561 0.49999999999999561 0.31426750628021272 0.31270343261798911 0.68761148188185484 0.24769234054476261 0.52242103280823293 0.45098450226372488 0.50073570207385831 0.24848280280289631 0.52886631355986169 0.50000000000001332 0.49999999999999561 0.49999999999999561 0.49816183246753282 0.5307146639261795 0.75045686993209071 0.31426750628021272 0.31270343261798911 0.68761148188185484 0.50073570207385831 0.24848280280289631 0.52886631355986169 0.50000000000001332 0.49999999999999561 0.49999999999999561 0.24769234054476261 0.52242103280823293 0.45098450226372488 0.31426750628021272 0.31270343261798911 0.68761148188185484 0.2184393375098648 0.50004596894495223 0.77634962490704662 0.2184393375098648 0.50004596894495223 0.77634962490704662 0.31426750628021272 0.31270343261798911 0.68761148188185484 0 0.50000000000237477 0.51961524226909872 0.24769234054476261 0.52242103280823293 0.45098450226372488 0 0.31024977578556651 0.45812322962166352 0.24769234054476261 0.52242103280823293 0.45098450226372488 0 0.32043363027398297 0.61046998817722586 0.22088738526309029 0.22111069116742441 0.50004796911802929 0 0.32043363027398297 0.61046998817722586 0 0.50000000000237477 0.51961524226909872 0.31426750628021272 0.31270343261798911 0.68761148188185484 0.24769234054476261 0.52242103280823293 0.45098450226372488 0.2184393375098648 0.50004596894495223 0.77634962490704662 0 0.32043363027398297 0.61046998817722586 0 0.50000000000237477 0.51961524226909872 0.31426750628021272 0.31270343261798911 0.68761148188185484 0 0.32043363027398297 0.61046998817722586 0.24769234054476261 0.52242103280823293 0.45098450226372488 0.31426750628021272 0.31270343261798911 0.68761148188185484 0.22088738526309029 0.22111069116742441 0.50004796911802929 0.2184393375098648 0.50004596894495223 0.77634962490704662 0 0.50000000000237477 0.51961524226909872 0 0.32043363027398297 0.61046998817722586 0 0.46954769941369501 0.67320508075638175 0 0.16196943494415611 0.69380980080116506 0 0.32043363027398297 0.61046998817722586 0.31426750628021272 0.31270343261798911 0.68761148188185484 0.22088738526309029 0.22111069116742441 0.50004796911802929 0 0.32043363027398297 0.61046998817722586 0 0.31807971531776508 0.80839867011913336 0.31426750628021272 0.31270343261798911 0.68761148188185484 0.2184393375098648 0.50004596894495223 0.77634962490704662 0 0.16196943494415611 0.69380980080116506 0 0.32043363027398297 0.61046998817722586 0 0.31807971531776508 0.80839867011913336 0.31426750628021272 0.31270343261798911 0.68761148188185484 0 0.31024977578556651 0.45812322962166352 0 0.50000000000237477 0.51961524226909872 0 0.32043363027398297 0.61046998817722586 0.24769234054476261 0.52242103280823293 0.45098450226372488 0 0.32043363027398297 0.61046998817722586 0 0.46954769941369501 0.67320508075638175 0 0.31807971531776508 0.80839867011913336 0.2184393375098648 0.50004596894495223 0.77634962490704662 0 0.32043363027398297 0.61046998817722586 0 0.16275515618034081 0.50966790549591257 0 0.31024977578556651 0.45812322962166352 0.22088738526309029 0.22111069116742441 0.50004796911802929 0 0.16196943494415611 0.69380980080116506 0.14641016151479661 0 0.85358983848542624 0.18818969570926641 0 0.68364148842842287 0.31426750628021272 0.31270343261798911 0.68761148188185484 0 0.16196943494415611 0.69380980080116506 0.31426750628021272 0.31270343261798911 0.68761148188185484 0.18818969570926641 0 0.68364148842842287 0.22088738526309029 0.22111069116742441 0.50004796911802929 0 0.16196943494415611 0.69380980080116506 0.18818969570926641 0 0.68364148842842287 0 0.16275515618034081 0.50966790549591257 0.22088738526309029 0.22111069116742441 0.50004796911802929 0 0.16196943494415611 0.69380980080116506 0 0.16275515618034081 0.50966790549591257 0 0.32043363027398297 0.61046998817722586 0.22088738526309029 0.22111069116742441 0.50004796911802929 0 0 0.79999999999999982 0 0 0.60000000000138687 0 0.16196943494415611 0.69380980080116506 0.18818969570926641 0 0.68364148842842287 0 0 0.60000000000138687 0 0.16196943494415611 0.69380980080116506 0.18818969570926641 0 0.68364148842842287 0 0.16275515618034081 0.50966790549591257 0.18818969570926641 0 0.68364148842842287 0.16370661204827031 0 0.4886650857430957 0 0 0.60000000000138687 0 0.16275515618034081 0.50966790549591257 0.18818969570926641 0 0.68364148842842287 0.31030302876556398 0 0.54179813558513157 0.16370661204827031 0 0.4886650857430957 0.22088738526309029 0.22111069116742441 0.50004796911802929 0 0.16275515618034081 0.50966790549591257 0.18818969570926641 0 0.68364148842842287 0.16370661204827031 0 0.4886650857430957 0.22088738526309029 0.22111069116742441 0.50004796911802929 0.30074819035913852 0 0.83070291234383831 0.39615987727709562 0 0.67073444684008199 0.18818969570926641 0 0.68364148842842287 0.31426750628021272 0.31270343261798911 0.68761148188185484 0.31030302876556398 0 0.54179813558513157 0.31426750628021272 0.31270343261798911 0.68761148188185484 0.50073570207385831 0.24848280280289631 0.52886631355986169 0.22088738526309029 0.22111069116742441 0.50004796911802929 0.39615987727709562 0 0.67073444684008199 0.31030302876556398 0 0.54179813558513157 0.31426750628021272 0.31270343261798911 0.68761148188185484 0.50073570207385831 0.24848280280289631 0.52886631355986169 0.39615987727709562 0 0.67073444684008199 0.31426750628021272 0.31270343261798911 0.68761148188185484 0.30074819035913852 0 0.83070291234383831 0.50084626324420545 0.22238844715913 0.78084811589659187 0.18818969570926641 0 0.68364148842842287 0.31426750628021272 0.31270343261798911 0.68761148188185484 0.31030302876556398 0 0.54179813558513157 0.22088738526309029 0.22111069116742441 0.50004796911802929 0.6002015905170176 0 0.67551889168744117 0.50073570207385831 0.24848280280289631 0.52886631355986169 0.39615987727709562 0 0.67073444684008199 0.50084626324420545 0.22238844715913 0.78084811589659187 0.31030302876556398 0 0.54179813558513157 0.18818969570926641 0 0.68364148842842287 0.39615987727709562 0 0.67073444684008199 0.31426750628021272 0.31270343261798911 0.68761148188185484 0.39615987727709562 0 0.67073444684008199 0.50073570207385831 0.24848280280289631 0.52886631355986169 0.31426750628021272 0.31270343261798911 0.68761148188185484 0.50084626324420545 0.22238844715913 0.78084811589659187 0.39615987727709562 0 0.67073444684008199 0.6002015905170176 0 0.67551889168744117 0.50000000000250922 0 0.48038475773043671 0.50073570207385831 0.24848280280289631 0.52886631355986169 0.39615987727709562 0 0.67073444684008199 0.50000000000250922 0 0.48038475773043671 0.31030302876556398 0 0.54179813558513157 0.50073570207385831 0.24848280280289631 0.52886631355986169 0.49836539647917322 0 0.82773865802723501 0.6002015905170176 0 0.67551889168744117 0.39615987727709562 0 0.67073444684008199 0.50084626324420545 0.22238844715913 0.78084811589659187 0.30074819035913852 0 0.83070291234383831 0.14641016151432179 0.14641016151432179 1 0.31610726166461628 0.1880448979455934 1 0.31426750628021272 0.31270343261798911 0.68761148188185484 0.30074819035913852 0 0.83070291234383831 0.31426750628021272 0.31270343261798911 0.68761148188185484 0.31610726166461628 0.1880448979455934 1 0.50084626324420545 0.22238844715913 0.78084811589659187 0.30074819035913852 0 0.83070291234383831 0.31610726166461628 0.1880448979455934 1 0.49836539647917322 0 0.82773865802723501 0.50084626324420545 0.22238844715913 0.78084811589659187 0.39615987727709562 0 0.67073444684008199 0.30074819035913852 0 0.83070291234383831 0.49836539647917322 0 0.82773865802723501 0.50084626324420545 0.22238844715913 0.78084811589659187 0.31610726166461628 0.1880448979455934 1 0.40000000000166441 0 1 0.49836539647917322 0 0.82773865802723501 0.50966790549576724 0.1627551561802443 1 0.40000000000166441 0 1 0.49836539647917322 0 0.82773865802723501 0.30074819035913852 0 0.83070291234383831 0.31610726166461628 0.1880448979455934 1 0.31610726166461628 0.1880448979455934 1 0.50966790549576724 0.1627551561802443 1 0.49836539647917322 0 0.82773865802723501 0.50084626324420545 0.22238844715913 0.78084811589659187 0.45812322962173568 0.31024977578554058 1 0.50966790549576724 0.1627551561802443 1 0.31610726166461628 0.1880448979455934 1 0.50084626324420545 0.22238844715913 0.78084811589659187 0.40000000000166441 0 1 0.30074819035913852 0 0.83070291234383831 0.20000000000083221 0 1 0.31610726166461628 0.1880448979455934 1 0 0.14641016151490169 0.85358983848532144 0 0.16196943494415611 0.69380980080116506 0 0.31807971531776508 0.80839867011913336 0.31426750628021272 0.31270343261798911 0.68761148188185484 0.16929708765653109 0.30074819035870082 1 0.31610726166461628 0.1880448979455934 1 0.14641016151432179 0.14641016151432179 1 0.31426750628021272 0.31270343261798911 0.68761148188185484 0.14641016151432179 0.14641016151432179 1 0.20000000000083221 0 1 0.14641016151479661 0 0.85358983848542624 0.30074819035913852 0 0.83070291234383831 0.14641016151432179 0.14641016151432179 1 0.30074819035913852 0 0.83070291234383831 0.14641016151479661 0 0.85358983848542624 0.31426750628021272 0.31270343261798911 0.68761148188185484 0.14641016151432179 0.14641016151432179 1 0.20000000000083221 0 1 0.30074819035913852 0 0.83070291234383831 0.31610726166461628 0.1880448979455934 1 0.18818969570926641 0 0.68364148842842287 0.14641016151479661 0 0.85358983848542624 0.30074819035913852 0 0.83070291234383831 0.31426750628021272 0.31270343261798911 0.68761148188185484 0 0.14641016151490169 0.85358983848532144 0.16929708765653109 0.30074819035870082 1 0.14641016151432179 0.14641016151432179 1 0.31426750628021272 0.31270343261798911 0.68761148188185484 0.14641016151432179 0.14641016151432179 1 0.14641016151479661 0 0.85358983848542624 0 0.14641016151490169 0.85358983848532144 0.31426750628021272 0.31270343261798911 0.68761148188185484 0 0.16196943494415611 0.69380980080116506 0 0.14641016151490169 0.85358983848532144 0.14641016151479661 0 0.85358983848542624 0.31426750628021272 0.31270343261798911 0.68761148188185484 0 0.20000000000083221 1 0 0.31807971531776508 0.80839867011913336 0.16929708765653109 0.30074819035870082 1 0 0.14641016151490169 0.85358983848532144 0.14641016151432179 0.14641016151432179 1 0 0.20000000000083221 1 0.16929708765653109 0.30074819035870082 1 0 0.14641016151490169 0.85358983848532144 0 0.16196943494415611 0.69380980080116506 0.14641016151479661 0 0.85358983848542624 0 0 0.79999999999999982 0.18818969570926641 0 0.68364148842842287 0 0.14641016151490169 0.85358983848532144 0.14641016151479661 0 0.85358983848542624 0 0 0.79999999999999982 0 0.16196943494415611 0.69380980080116506 0 0 1 0 0.20000000000083221 1 0.14641016151432179 0.14641016151432179 1 0 0.14641016151490169 0.85358983848532144 0.14641016151479661 0 0.85358983848542624 0 0 0.79999999999999982 0 0 1 0 0.14641016151490169 0.85358983848532144 0 0 1 0.14641016151432179 0.14641016151432179 1 0.20000000000083221 0 1 0.14641016151479661 0 0.85358983848542624 0.14641016151479661 0 0.85358983848542624 0 0 1 0.14641016151432179 0.14641016151432179 1 0 0.14641016151490169 0.85358983848532144 
</DataArray>
</Points>
<Cells>
<DataArray type="UInt32" Name="connectivity" format="ascii">
0 1 2 3 4 5 6 7 8 9 10 11 12 13 14 15 16 17 18 19 20 21 22 23 24 25 26 27 28 29 30 31 32 33 34 35 36 37 38 39 40 41 42 43 44 45 46 47 48 49 50 51 52 53 54 55 56 57 58 59 60 61 62 63 64 65 66 67 68 69 70 71 72 73 74 75 76 77 78 79 80 81 82 83 84 85 86 87 88 89 90 91 92 93 94 95 96 97 98 99 100 101 102 103 104 105 106 107 108 109 110 111 112 113 114 115 116 117 118 119 120 121 122 123 124 125 126 127 128 129 130 131 132 133 134 135 136 137 138 139 140 141 142 143 144 145 146 147 148 149 150 151 152 153 154 155 156 157 158 159 160 161 162 163 164 165 166 167 168 169 170 171 172 173 174 175 176 177 178 179 180 181 182 183 184 185 186 187 188 189 190 191 192 193 194 195 196 197 198 199 200 201 202 203 204 205 206 207 208 209 210 211 212 213 214 215 216 217 218 219 220 221 222 223 224 225 226 227 228 229 230 231 232 233 234 235 236 237 238 239 240 241 242 243 244 245 246 247 248 249 250 251 252 253 254 255 256 257 258 259 260 261 262 263 264 265 266 267 268 269 270 271 272 273 274 275 276 277 278 279 280 281 282 283 284 285 286 287 288 289 290 291 292 293 294 295 296 297 298 299 300 301 302 303 304 305 306 307 308 309 310 311 312 313 314 315 316 317 318 319 320 321 322 323 324 325 326 327 328 329 330 331 332 333 334 335 336 337 338 339 340 341 342 343 344 345 346 347 348 349 350 351 352 353 354 355 356 357 358 359 360 361 362 363 364 365 366 367 368 369 370 371 372 373 374 375 376 377 378 379 380 381 382 383 384 385 386 387 388 389 390 391 392 393 394 395 396 397 398 399 400 401 402 403 404 405 406 407 408 409 410 411 412 413 414 415 416 417 418 419 420 421 422 423 424 425 426 427 428 429 430 431 432 433 434 435 436 437 438 439 440 441 442 443 444 445 446 447 448 449 450 451 452 453 454 455 456 457 458 459 460 461 462 463 464 465 466 467 468 469 470 471 472 473 474 475 476 477 478 479 480 481 482 483 484 485 486 487 488 489 490 491 492 493 494 495 496 497 498 499 500 501 502 503 504 505 506 507 508 509 510 511 512 513 514 515 516 517 518 519 520 521 522 523 524 525 526 527 528 529 530 531 532 533 534 535 536 537 538 539 540 541 542 543 544 545 546 547 548 549 550 551 552 553 554 555 556 557 558 559 560 561 562 563 564 565 566 567 568 569 570 571 572 573 574 575 576 577 578 579 580 581 582 583 584 585 586 587 588 589 590 591 592 593 594 595 596 597 598 599 600 601 602 603 604 605 606 607 608 609 610 611 612 613 614 615 616 617 618 619 620 621 622 623 624 625 626 627 628 629 630 631 632 633 634 635 636 637 638 639 640 641 642 643 644 645 646 647 648 649 650 651 652 653 654 655 656 657 658 659 660 661 662 663 664 665 666 667 668 669 670 671 672 673 674 675 676 677 678 679 680 681 682 683 684 685 686 687 688 689 690 691 692 693 694 695 696 697 698 699 700 701 702 703 704 705 706 707 708 709 710 711 712 713 714 715 716 717 718 719 720 721 722 723 724 725 726 727 728 729 730 731 732 733 734 735 736 737 738 739 740 741 742 743 744 745 746 747 748 749 750 751 752 753 754 755 756 757 758 759 760 761 762 763 764 765 766 767 768 769 770 771 772 773 774 775 776 777 778 779 780 781 782 783 784 785 786 787 788 789 790 791 792 793 794 795 796 797 798 799 800 801 802 803 804 805 806 807 808 809 810 811 812 813 814 815 816 817 818 819 820 821 822 823 824 825 826 827 828 829 830 831 832 833 834 835 836 837 838 839 840 841 842 843 844 845 846 847 848 849 850 851 852 853 854 855 856 857 858 859 860 861 862 863 864 865 866 867 868 869 870 871 872 873 874 875 876 877 878 879 880 881 882 883 884 885 886 887 888 889 890 891 892 893 894 895 896 897 898 899 900 901 902 903 904 905 906 907 908 909 910 911 912 913 914 915 916 917 918 919 920 921 922 923 924 925 926 927 928 929 930 931 932 933 934 935 936 937 938 939 940 941 942 943 944 945 946 947 948 949 950 951 952 953 954 955 956 957 958 959 960 961 962 963 964 965 966 967 968 969 970 971 972 973 974 975 976 977 978 979 980 981 982 983 984 985 986 987 988 989 990 991 992 993 994 995 996 997 998 999 1000 1001 1002 1003 1004 1005 1006 1007 1008 1009 1010 1011 1012 1013 1014 1015 1016 1017 1018 1019 1020 1021 1022 1023 1024 1025 1026 1027 1028 1029 1030 1031 1032 1033 1034 1035 1036 1037 1038 1039 1040 1041 1042 1043 1044 1045 1046 1047 1048 1049 1050 1051 1052 1053 1054 1055 1056 1057 1058 1059 1060 1061 1062 1063 1064 1065 1066 1067 1068 1069 1070 1071 1072 1073 1074 1075 1076 1077 1078 1079 1080 1081 1082 1083 1084 1085 1086 1087 1088 1089 1090 1091 1092 1093 1094 1095 1096 1097 1098 1099 1100 1101 1102 1103 1104 1105 1106 1107 1108 1109 1110 1111 1112 1113 1114 1115 1116 1117 1118 1119 1120 1121 1122 1123 1124 1125 1126 1127 1128 1129 1130 1131 1132 1133 1134 1135 1136 1137 1138 1139 1140 1141 1142 1143 1144 1145 1146 1147 1148 1149 1150 1151 1152 1153 1154 1155 1156 1157 1158 1159 1160 1161 1162 1163 1164 1165 1166 1167 1168 1169 1170 1171 1172 1173 1174 1175 1176 1177 1178 1179 1180 1181 1182 1183 1184 1185 1186 1187 1188 1189 1190 1191 1192 1193 1194 1195 1196 1197 1198 1199 1200 1201 1202 1203 1204 1205 1206 1207 1208 1209 1210 1211 1212 1213 1214 1215 1216 1217 1218 1219 1220 1221 1222 1223 1224 1225 1226 1227 1228 1229 1230 1231 1232 1233 1234 1235 1236 1237 1238 1239 1240 1241 1242 1243 1244 1245 1246 1247 1248 1249 1250 1251 1252 1253 1254 1255 1256 1257 1258 1259 1260 1261 1262 1263 1264 1265 1266 1267 1268 1269 1270 1271 1272 1273 1274 1275 1276 1277 1278 1279 1280 1281 1282 1283 1284 1285 1286 1287 1288 1289 1290 1291 1292 1293 1294 1295 1296 1297 1298 1299 1300 1301 1302 1303 1304 1305 1306 1307 1308 1309 1310 1311 1312 1313 1314 1315 1316 1317 1318 1319 1320 1321 1322 1323 1324 1325 1326 1327 1328 1329 1330 1331 1332 1333 1334 1335 1336 1337 1338 1339 1340 1341 1342 1343 1344 1345 1346 1347 1348 1349 1350 1351 1352 1353 1354 1355 1356 1357 1358 1359 1360 1361 1362 1363 1364 1365 1366 1367 1368 1369 1370 1371 1372 1373 1374 1375 1376 1377 1378 1379 1380 1381 1382 1383 1384 1385 1386 1387 1388 1389 1390 1391 1392 1393 1394 1395 1396 1397 1398 1399 1400 1401 1402 1403 1404 1405 1406 1407 1408 1409 1410 1411 1412 1413 1414 1415 1416 1417 1418 1419 1420 1421 1422 1423 1424 1425 1426 1427 1428 1429 1430 1431 1432 1433 1434 1435 1436 1437 1438 1439 1440 1441 1442 1443 1444 1445 1446 1447 1448 1449 1450 1451 1452 1453 1454 1455 1456 1457 1458 1459 1460 1461 1462 1463 1464 1465 1466 1467 1468 1469 1470 1471 1472 1473 1474 1475 1476 1477 1478 1479 1480 1481 1482 1483 1484 1485 1486 1487 1488 1489 1490 1491 1492 1493 1494 1495 1496 1497 1498 1499 1500 1501 1502 1503 1504 1505 1506 1507 1508 1509 1510 1511 1512 1513 1514 1515 1516 1517 1518 1519 1520 1521 1522 1523 1524 1525 1526 1527 1528 1529 1530 1531 1532 1533 1534 1535 1536 1537 1538 1539 1540 1541 1542 1543 1544 1545 1546 1547 1548 1549 1550 1551 1552 1553 1554 1555 1556 1557 1558 1559 1560 1561 1562 1563 1564 1565 1566 1567 1568 1569 1570 1571 1572 1573 1574 1575 1576 1577 1578 1579 1580 1581 1582 1583 1584 1585 1586 1587 1588 1589 1590 1591 1592 1593 1594 1595 1596 1597 1598 1599 1600 1601 1602 1603 1604 1605 1606 1607 1608 1609 1610 1611 1612 1613 1614 1615 1616 1617 1618 1619 1620 1621 1622 1623 1624 1625 1626 1627 1628 1629 1630 1631 1632 1633 1634 1635 1636 1637 1638 1639 1640 1641 1642 1643 1644 1645 1646 1647 1648 1649 1650 1651 1652 1653 1654 1655 1656 1657 1658 1659 1660 1661 1662 1663 1664 1665 1666 1667 1668 1669 1670 1671 1672 1673 1674 1675 1676 1677 1678 1679 1680 1681 1682 1683 1684 1685 1686 1687 1688 1689 1690 1691 1692 1693 1694 1695 1696 1697 1698 1699 1700 1701 1702 1703 1704 1705 1706 1707 1708 1709 1710 1711 1712 1713 1714 1715 1716 1717 1718 1719 1720 1721 1722 1723 1724 1725 1726 1727 1728 1729 1730 1731 1732 1733 1734 1735 1736 1737 1738 1739 1740 1741 1742 1743 1744 1745 1746 1747 1748 1749 1750 1751 1752 1753 1754 1755 1756 1757 1758 1759 1760 1761 1762 1763 1764 1765 1766 1767 1768 1769 1770 1771 1772 1773 1774 1775 1776 1777 1778 1779 1780 1781 1782 1783 1784 1785 1786 1787 1788 1789 1790 1791 1792 1793 1794 1795 1796 1797 1798 1799 1800 1801 1802 1803 1804 1805 1806 1807 1808 1809 1810 1811 1812 1813 1814 1815 1816 1817 1818 1819 1820 1821 1822 1823 1824 1825 1826 1827 1828 1829 1830 1831 1832 1833 1834 1835 1836 1837 1838 1839 1840 1841 1842 1843 1844 1845 1846 1847 1848 1849 1850 1851 1852 1853 1854 1855 1856 1857 1858 1859 1860 1861 1862 1863 1864 1865 1866 1867 1868 1869 1870 1871 1872 1873 1874 1875 1876 1877 1878 1879 1880 1881 1882 1883 1884 1885 1886 1887 1888 1889 1890 1891 1892 1893 1894 1895 1896 1897 1898 1899 1900 1901 1902 1903 1904 1905 1906 1907 1908 1909 1910 1911 1912 1913 1914 1915 1916 1917 1918 1919 1920 1921 1922 1923 1924 1925 1926 1927 1928 1929 1930 1931 1932 1933 1934 1935 1936 1937 1938 1939 1940 1941 1942 1943 1944 1945 1946 1947 1948 1949 1950 1951 1952 1953 1954 1955 1956 1957 1958 1959 1960 1961 1962 1963 1964 1965 1966 1967 1968 1969 1970 1971 1972 1973 1974 1975 1976 1977 1978 1979 1980 1981 1982 1983 1984 1985 1986 1987 1988 1989 1990 1991 1992 1993 1994 1995 1996 1997 1998 1999 2000 2001 2002 2003 2004 2005 2006 2007 2008 2009 2010 2011 2012 2013 2014 2015 2016 2017 2018 2019 2020 2021 2022 2023 2024 2025 2026 2027 2028 2029 2030 2031 2032 2033 2034 2035 2036 2037 2038 2039 2040 2041 2042 2043 2044 2045 2046 2047 2048 2049 2050 2051 2052 2053 2054 2055 2056 2057 2058 2059 2060 2061 2062 2063 2064 2065 2066 2067 2068 2069 2070 2071 2072 2073 2074 2075 2076 2077 2078 2079 2080 2081 2082 2083 2084 2085 2086 2087 2088 2089 2090 2091 2092 2093 2094 2095 2096 2097 2098 2099 2100 2101 2102 2103 2104 2105 2106 2107 2108 2109 2110 2111 2112 2113 2114 2115 2116 2117 2118 2119 2120 2121 2122 2123 2124 2125 2126 2127 2128 2129 2130 2131 2132 2133 2134 2135 2136 2137 2138 2139 2140 2141 2142 2143 2144 2145 2146 2147 2148 2149 2150 2151 2152 2153 2154 2155 2156 2157 2158 2159 2160 2161 2162 2163 2164 2165 2166 2167 2168 2169 2170 2171 2172 2173 2174 2175 2176 2177 2178 2179 2180 2181 2182 2183 2184 2185 2186 2187 2188 2189 2190 2191 2192 2193 2194 2195 2196 2197 2198 2199 2200 2201 2202 2203 2204 2205 2206 2207 2208 2209 2210 2211 2212 2213 2214 2215 2216 2217 2218 2219 2220 2221 2222 2223 2224 2225 2226 2227 2228 2229 2230 2231 2232 2233 2234 2235 2236 2237 2238 2239 2240 2241 2242 2243 2244 2245 2246 2247 2248 2249 2250 2251 2252 2253 2254 2255 2256 2257 2258 2259 2260 2261 2262 2263 2264 2265 2266 2267 2268 2269 2270 2271 2272 2273 2274 2275 2276 2277 2278 2279 2280 2281 2282 2283 2284 2285 2286 2287 2288 2289 2290 2291 2292 2293 2294 2295 2296 2297 2298 2299 2300 2301 2302 2303 2304 2305 2306 2307 2308 2309 2310 2311 2312 2313 2314 2315 2316 2317 2318 2319 2320 2321 2322 2323 2324 2325 2326 2327 2328 2329 2330 2331 2332 2333 2334 2335 2336 2337 2338 2339 2340 2341 2342 2343 2344 2345 2346 2347 2348 2349 2350 2351 2352 2353 2354 2355 2356 2357 2358 2359 2360 2361 2362 2363 2364 2365 2366 2367 2368 2369 2370 2371 2372 2373 2374 2375 2376 2377 2378 2379 2380 2381 2382 2383 2384 2385 2386 2387 2388 2389 2390 2391 2392 2393 2394 2395 2396 2397 2398 2399 2400 2401 2402 2403 2404 2405 2406 2407 2408 2409 2410 2411 2412 2413 2414 2415 2416 2417 2418 2419 2420 2421 2422 2423 2424 2425 2426 2427 2428 2429 2430 2431 2432 2433 2434 2435 2436 2437 2438 2439 2440 2441 2442 2443 2444 2445 2446 2447 2448 2449 2450 2451 2452 2453 2454 2455 2456 2457 2458 2459 2460 2461 2462 2463 2464 2465 2466 2467 2468 2469 2470 2471 2472 2473 2474 2475 2476 2477 2478 2479 2480 2481 2482 2483 2484 2485 2486 2487 2488 2489 2490 2491 2492 2493 2494 2495 2496 2497 2498 2499 2500 2501 2502 2503 2504 2505 2506 2507 2508 2509 2510 2511 2512 2513 2514 2515 2516 2517 2518 2519 2520 2521 2522 2523 2524 2525 2526 2527 2528 2529 2530 2531 2532 2533 2534 2535 2536 2537 2538 2539 2540 2541 2542 2543 2544 2545 2546 2547 2548 2549 2550 2551 2552 2553 2554 2555 2556 2557 2558 2559 2560 2561 2562 2563 2564 2565 2566 2567 2568 2569 2570 2571 2572 2573 2574 2575 2576 2577 2578 2579 2580 2581 2582 2583 2584 2585 2586 2587 2588 2589 2590 2591 2592 2593 2594 2595 2596 2597 2598 2599 2600 2601 2602 2603 2604 2605 2606 2607 2608 2609 2610 2611 2612 2613 2614 2615 2616 2617 2618 2619 2620 2621 2622 2623 2624 2625 2626 2627 2628 2629 2630 2631 2632 2633 2634 2635 2636 2637 2638 2639 2640 2641 2642 2643 2644 2645 2646 2647 2648 2649 2650 2651 2652 2653 2654 2655 2656 2657 2658 2659 2660 2661 2662 2663 2664 2665 2666 2667 2668 2669 2670 2671 2672 2673 2674 2675 2676 2677 2678 2679 2680 2681 2682 2683 2684 2685 2686 2687 2688 2689 2690 2691 2692 2693 2694 2695 2696 2697 2698 2699 2700 2701 2702 2703 2704 2705 2706 2707 2708 2709 2710 2711 2712 2713 2714 2715 2716 2717 2718 2719 2720 2721 2722 2723 2724 2725 2726 2727 2728 2729 2730 2731 2732 2733 2734 2735 2736 2737 2738 2739 2740 2741 2742 2743 2744 2745 2746 2747 2748 2749 2750 2751 2752 2753 2754 2755 2756 2757 2758 2759 2760 2761 2762 2763 2764 2765 2766 2767 2768 2769 2770 2771 2772 2773 2774 2775 2776 2777 2778 2779 2780 2781 2782 2783 2784 2785 2786 2787 2788 2789 2790 2791 2792 2793 2794 2795 2796 2797 2798 2799 2800 2801 2802 2803 2804 2805 2806 2807 2808 2809 2810 2811 2812 2813 2814 2815 2816 2817 2818 2819 2820 2821 2822 2823 2824 2825 2826 2827 2828 2829 2830 2831 2832 2833 2834 2835 2836 2837 2838 2839 2840 2841 2842 2843 2844 2845 2846 2847 2848 2849 2850 2851 2852 2853 2854 2855 2856 2857 2858 2859 2860 2861 2862 2863 2864 2865 2866 2867 2868 2869 2870 2871 2872 2873 2874 2875 
</DataArray>
<DataArray type="UInt32" Name="offsets" format="ascii">
4 8 12 16 20 24 28 32 36 40 44 48 52 56 60 64 68 72 76 80 84 88 92 96 100 104 108 112 116 120 124 128 132 136 140 144 148 152 156 160 164 168 172 176 180 184 188 192 196 200 204 208 212 216 220 224 228 232 236 240 244 248 252 256 260 264 268 272 276 280 284 288 292 296 300 304 308 312 316 320 324 328 332 336 340 344 348 352 356 360 364 368 372 376 380 384 388 392 396 400 404 408 412 416 420 424 428 432 436 440 444 448 452 456 460 464 468 472 476 480 484 488 492 496 500 504 508 512 516 520 524 528 532 536 540 544 548 552 556 560 564 568 572 576 580 584 588 592 596 600 604 608 612 616 620 624 628 632 636 640 644 648 652 656 660 664 668 672 676 680 684 688 692 696 700 704 708 712 716 720 724 728 732 736 740 744 748 752 756 760 764 768 772 776 780 784 788 792 796 800 804 808 812 816 820 824 828 832 836 840 844 848 852 856 860 864 868 872 876 880 884 888 892 896 900 904 908 912 916 920 924 928 932 936 940 944 948 952 956 960 964 968 972 976 980 984 988 992 996 1000 1004 1008 1012 1016 1020 1024 1028 1032 1036 1040 1044 1048 1052 1056 1060 1064 1068 1072 1076 1080 1084 1088 1092 1096 1100 1104 1108 1112 1116 1120 1124 1128 1132 1136 1140 1144 1148 1152 1156 1160 1164 1168 1172 1176 1180 1184 1188 1192 1196 1200 1204 1208 1212 1216 1220 1224 1228 1232 1236 1240 1244 1248 1252 1256 1260 1264 1268 1272 1276 1280 1284 1288 1292 1296 1300 1304 1308 1312 1316 1320 1324 1328 1332 1336 1340 1344 1348 1352 1356 1360 1364 1368 1372 1376 1380 1384 1388 1392 1396 1400 1404 1408 1412 1416 1420 1424 1428 1432 1436 1440 1444 1448 1452 1456 1460 1464 1468 1472 1476 1480 1484 1488 1492 1496 1500 1504 1508 1512 1516 1520 1524 1528 1532 1536 1540 1544 1548 1552 1556 1560 1564 1568 1572 1576 1580 1584 1588 1592 1596 1600 1604 1608 1612 1616 1620 1624 1628 1632 1636 1640 1644 1648 1652 1656 1660 1664 1668 1672 1676 1680 1684 1688 1692 1696 1700 1704 1708 1712 1716 1720 1724 1728 1732 1736 1740 1744 1748 1752 1756 1760 1764 1768 1772 1776 1780 1784 1788 1792 1796 1800 1804 1808 1812 1816 1820 1824 1828 1832 1836 1840 1844 1848 1852 1856 1860 1864 1868 1872 1876 1880 1884 1888 1892 1896 1900 1904 1908 1912 1916 1920 1924 1928 1932 1936 1940 1944 1948 1952 1956 1960 1964 1968 1972 1976 1980 1984 1988 1992 1996 2000 2004 2008 2012 2016 2020 2024 2028 2032 2036 2040 2044 2048 2052 2056 2060 2064 2068 2072 2076 2080 2084 2088 2092 2096 2100 2104 2108 2112 2116 2120 2124 2128 2132 2136 2140 2144 2148 2152 2156 2160 2164 2168 2172 2176 2180 2184 2188 2192 2196 2200 2204 2208 2212 2216 2220 2224 2228 2232 2236 2240 2244 2248 2252 2256 2260 2264 2268 2272 2276 2280 2284 2288 2292 2296 2300 2304 2308 2312 2316 2320 2324 2328 2332 2336 2340 2344 2348 2352 2356 2360 2364 2368 2372 2376 2380 2384 2388 2392 2396 2400 2404 2408 2412 2416 2420 2424 2428 2432 2436 2440 2444 2448 2452 2456 2460 2464 2468 2472 2476 2480 2484 2488 2492 2496 2500 2504 2508 2512 2516 2520 2524 2528 2532 2536 2540 2544 2548 2552 2556 2560 2564 2568 2572 2576 2580 2584 2588 2592 2596 2600 2604 2608 2612 2616 2620 2624 2628 2632 2636 2640 2644 2648 2652 2656 2660 2664 2668 2672 2676 2680 2684 2688 2692 2696 2700 2704 2708 2712 2716 2720 2724 2728 2732 2736 2740 2744 2748 2752 2756 2760 2764 2768 2772 2776 2780 2784 2788 2792 2796 2800 2804 2808 2812 2816 2820 2824 2828 2832 2836 2840 2844 2848 2852 2856 2860 2864 2868 2872 2876 
</DataArray>
<DataArray type="UInt32" Name="types" format="ascii">
10 10 10 10 10 10 10 10 10 10 10 10 10 10 10 10 10 10 10 10 10 10 10 10 10 10 10 10 10 10 10 10 10 10 10 10 10 10 10 10 10 10 10 10 10 10 10 10 10 10 10 10 10 10 10 10 10 10 10 10 10 10 10 10 10 10 10 10 10 10 10 10 10 10 10 10 10 10 10 10 10 10 10 10 10 10 10 10 10 10 10 10 10 10 10 10 10 10 10 10 10 10 10 10 10 10 10 10 10 10 10 10 10 10 10 10 10 10 10 10 10 10 10 10 10 10 10 10 10 10 10 10 10 10 10 10 10 10 10 10 10 10 10 10 10 10 10 10 10 10 10 10 10 10 10 10 10 10 10 10 10 10 10 10 10 10 10 10 10 10 10 10 10 10 10 10 10 10 10 10 10 10 10 10 10 10 10 10 10 10 10 10 10 10 10 10 10 10 10 10 10 10 10 10 10 10 10 10 10 10 10 10 10 10 10 10 10 10 10 10 10 10 10 10 10 10 10 10 10 10 10 10 10 10 10 10 10 10 10 10 10 10 10 10 10 10 10 10 10 10 10 10 10 10 10 10 10 10 10 10 10 10 10 10 10 10 10 10 10 10 10 10 10 10 10 10 10 10 10 10 10 10 10 10 10 10 10 10 10 10 10 10 10 10 10 10 10 10 10 10 10 10 10 10 10 10 10 10 10 10 10 10 10 10 10 10 10 10 10 10 10 10 10 10 10 10 10 10 10 10 10 10 10 10 10 10 10 10 10 10 10 10 10 10 10 10 10 10 10 10 10 10 10 10 10 10 10 10 10 10 10 10 10 10 10 10 10 10 10 10 10 10 10 10 10 10 10 10 10 10 10 10 10 10 10 10 10 10 10 10 10 10 10 10 10 10 10 10 10 10 10 10 10 10 10 10 10 10 10 10 10 10 10 10 10 10 10 10 10 10 10 10 10 10 10 10 10 10 10 10 10 10 10 10 10 10 10 10 10 10 10 10 10 10 10 10 10 10 10 10 10 10 10 10 10 10 10 10 10 10 10 10 10 10 10 10 10 10 10 10 10 10 10 10 10 10 10 10 10 10 10 10 10 10 10 10 10 10 10 10 10 10 10 10 10 10 10 10 10 10 10 10 10 10 10 10 10 10 10 10 10 10 10 10 10 10 10 10 10 10 10 10 10 10 10 10 10 10 10 10 10 10 10 10 10 10 10 10 10 10 10 10 10 10 10 10 10 10 10 10 10 10 10 10 10 10 10 10 10 10 10 10 10 10 10 10 10 10 10 10 10 10 10 10 10 10 10 10 10 10 10 10 10 10 10 10 10 10 10 10 10 10 10 10 10 10 10 10 10 10 10 10 10 10 10 10 10 10 10 10 10 10 10 10 10 10 10 10 10 10 10 10 10 10 10 10 10 10 10 10 10 10 10 10 10 10 10 10 10 10 10 10 10 10 10 10 10 10 10 10 10 10 10 10 10 10 10 10 10 10 10 10 10 10 10 10 10 10 10 10 10 10 10 10 10 10 10 10 10 10 10 10 10 10 10 10 10 10 10 10 10 10 10 10 10 10 10 10 10 10 10 10 10 10 10 10 10 10 10 10 10 10 10 10 10 10 10 10 10 
</DataArray>
</Cells>
<PointData Scalars="" Vectors="displacement," Tensors="">
<DataArray type="Float64" Name="displacement" NumberOfComponents="3" format="ascii">
9.8790153068455956e-06 -2.1121579162264695e-10 -1.2611946983145855e-09 5.290902011785459e-06 -1.45728144702175e-10 -1.2146670269605026e-09 4.5756521728102969e-06 -2.1911435151839325e-10 -9.7080158449060453e-10 9.7686857675651657e-06 -9.7502542195324594e-11 -2.9304582303400684e-05 2.175758168436934e-14 -2.348047805311839e-10 -1.2115001095756138e-09 1.7581730673147494e-14 -3.2503627666367538e-10 -1.3077256022108323e-09 4.5756521728102969e-06 -2.1911435151839325e-10 -9.7080158449008423e-10 -2.6486990628278409e-14 -2.0305051459275953e-10 -1.3726803259339413e-05 1.75817306731475e-14 -3.2503627666367538e-10 -1.3077256022097214e-09 6.2503629252373263e-06 -3.5504215052180338e-10 -1.3765603206326892e-09 4.5756521728102969e-06 -2.1911435151839325e-10 -9.7080158449008423e-10 4.57564769880476e-06 -2.3769838849863392e-10 -1.3726825501211122e-05 -2.6486990628278409e-14 -2.0305051459275953e-10 -1.3726803259339413e-05 7.3875366135084912e-15 -3.0964168615934707e-10 -1.8750784790611388e-05 1.75817306731475e-14 -3.2503627666367538e-10 -1.3077256022097214e-09 4.57564769880476e-06 -2.3769838849863392e-10 -1.3726825501211122e-05 -2.6486990628278409e-14 -2.0305051459275953e-10 -1.3726803259339413e-05 -1.1484260224077193e-14 -8.8034459140245527e-11 -1.5872513584478897e-05 7.6090955397311911e-16 -1.8991250927259418e-10 -2.9635583636598374e-05 9.7686857675651708e-06 -9.750254219532453e-11 -2.9304582303400678e-05 9.8689810598073188e-06 -3.2053074771416564e-10 -1.748791804655817e-05 4.5756476988047591e-06 -2.3769838849863392e-10 -1.372682550121112e-05 5.2935753922122886e-06 -3.0073934692317498e-10 -2.8136225990415071e-05 9.7686857675651657e-06 -9.7502542195324594e-11 -2.9304582303400684e-05 -2.6486990628278409e-14 -2.0305051459275953e-10 -1.3726803259339413e-05 1.7581730302859031e-14 -3.2503627666367533e-10 -1.307725602209166e-09 4.5756521728102969e-06 -2.1911435151839325e-10 -9.7080158449008423e-10 4.57564769880476e-06 -2.3769838849863392e-10 -1.3726825501211122e-05 4.5756521728102969e-06 -2.1911435151839325e-10 -9.7080158449008423e-10 4.5756476988047591e-06 -2.3769838849863392e-10 -1.3726825501211127e-05 9.8689810598073188e-06 -3.2053074771416564e-10 -1.748791804655817e-05 9.7686857675651657e-06 -9.7502542195324594e-11 -2.9304582303400684e-05 4.5756521728102969e-06 -2.1911435151839325e-10 -9.7080158449008423e-10 -1.1484260047330356e-14 -8.8034459140245488e-11 -1.5872513584478893e-05 -2.6486990274481793e-14 -2.0305051459275955e-10 -1.3726803259339415e-05 9.7686857675651657e-06 -9.7502542195324594e-11 -2.9304582303400684e-05 4.5756521728102969e-06 -2.1911435151839325e-10 -9.7080158449008423e-10 -2.6486990586405098e-14 -2.0305051459275953e-10 -1.3726803259339412e-05 4.57564769880476e-06 -2.3769838849863392e-10 -1.3726825501211122e-05 9.7686857675651657e-06 -9.7502542195324581e-11 -2.9304582303400684e-05 -2.6486990628278409e-14 -2.0305051459275953e-10 -1.3726803259339413e-05 5.2935753922122903e-06 -3.0073934692317498e-10 -2.8136225990415068e-05 4.57564769880476e-06 -2.3769838849863392e-10 -1.3726825501211122e-05 9.7686857675651674e-06 -9.7502542195324607e-11 -2.9304582303400691e-05 4.57564769880476e-06 -2.3769838849863392e-10 -1.3726825501211122e-05 -2.6486990567074582e-14 -2.0305051459275953e-10 -1.3726803259339413e-05 7.3875359721497431e-15 -3.0964168615934707e-10 -1.8750784790611388e-05 5.2935753922122886e-06 -3.0073934692317498e-10 -2.8136225990415071e-05 7.6090955397311911e-16 -1.8991250927259418e-10 -2.9635583636598374e-05 7.3875359721497431e-15 -3.0964168615934707e-10 -1.8750784790611388e-05 -2.6486990628278409e-14 -2.0305051459275953e-10 -1.3726803259339413e-05 5.2935753922122886e-06 -3.0073934692317498e-10 -2.8136225990415071e-05 -2.6486990628278409e-14 -2.0305051459275953e-10 -1.3726803259339413e-05 4.5756521728102969e-06 -2.1911435151839325e-10 -9.7080158449008423e-10 2.175758168436934e-14 -2.348047805311839e-10 -1.2115001095755247e-09 -1.1484260224077193e-14 -8.8034459140245527e-11 -1.5872513584478897e-05 -1.1484260224077193e-14 -8.8034459140245527e-11 -1.5872513584478897e-05 4.5756521728102978e-06 -2.1911435151839323e-10 -9.708015844940365e-10 2.175758168436934e-14 -2.348047805311839e-10 -1.2115001095756138e-09 5.290902011785459e-06 -1.45728144702175e-10 -1.2146670269605026e-09 6.2503629252373263e-06 -3.5504215052180338e-10 -1.3765603206326892e-09 4.5756521728102961e-06 -2.1911435151839325e-10 -9.7080158449161182e-10 9.8689810598073188e-06 -3.2053074771416564e-10 -1.748791804655817e-05 9.8790153068455956e-06 -2.1121579162264695e-10 -1.2611946983145855e-09 6.2503629252373263e-06 -3.5504215052180338e-10 -1.3765603206326892e-09 4.5756521728102978e-06 -2.1911435151839325e-10 -9.708015844900712e-10 4.5756476988047583e-06 -2.3769838849863387e-10 -1.3726825501211123e-05 9.8689810598073188e-06 -3.2053074771416564e-10 -1.748791804655817e-05 9.8689810598073188e-06 -3.2053074771416564e-10 -1.748791804655817e-05 1.2500863388171044e-05 -3.255182453016061e-10 -1.6298252423454543e-09 6.2503629252373263e-06 -3.5504215052180338e-10 -1.3765603206335472e-09 9.8790153068455956e-06 -2.1121579162264695e-10 -1.2611946983145855e-09 9.8689810598073188e-06 -3.2053074771416564e-10 -1.748791804655817e-05 9.8790153068455956e-06 -2.1121579162264695e-10 -1.2611946983146521e-09 4.5756521728102952e-06 -2.1911435151839323e-10 -9.708015844909538e-10 9.768685767565164e-06 -9.7502542195324568e-11 -2.9304582303400681e-05 9.8790153068455956e-06 -2.1121579162264695e-10 -1.2611946983145855e-09 9.7686857675651623e-06 -9.7502542195324581e-11 -2.9304582303400688e-05 9.8689810598073188e-06 -3.2053074771416564e-10 -1.748791804655817e-05 1.5638583340235327e-05 -2.1791482584440446e-10 -2.1173425769283046e-05 9.8790153068455956e-06 -2.1121579162264695e-10 -1.2611946983145855e-09 1.5436000795116352e-05 -3.0158469890278158e-10 -1.2411359611427613e-05 1.5928231637793098e-05 -1.9340447038210617e-10 -1.1798393184987478e-09 1.5638583340235323e-05 -2.1791482584440444e-10 -2.1173425769283049e-05 9.8790153068455956e-06 -2.1121579162264695e-10 -1.2611946983145855e-09 1.5928231637793098e-05 -1.9340447038210617e-10 -1.1798393185016283e-09 1.4317331061876068e-05 -1.2010786202920817e-10 -1.0177394755194075e-09 1.5638583340235323e-05 -2.1791482584440449e-10 -2.1173425769283049e-05 1.5436000795116352e-05 -3.0158469890278163e-10 -1.2411359611427618e-05 1.2500863388171044e-05 -3.255182453016061e-10 -1.6298252423454543e-09 9.8790153068455989e-06 -2.1121579162264702e-10 -1.261194698308519e-09 1.5928231637793098e-05 -1.9340447038210617e-10 -1.1798393184987478e-09 1.5436000795116352e-05 -3.0158469890278163e-10 -1.2411359611427618e-05 1.2500863388171044e-05 -3.255182453016061e-10 -1.6298252423454543e-09 9.8689810598073188e-06 -3.2053074771416564e-10 -1.748791804655817e-05 9.8790153068455956e-06 -2.1121579162264702e-10 -1.2611946983129059e-09 9.8689810598073188e-06 -3.2053074771416564e-10 -1.748791804655817e-05 1.4903632373037122e-05 -3.6922521303966338e-10 -2.9757897784731912e-05 1.5436000795116352e-05 -3.0158469890278163e-10 -1.2411359611427618e-05 1.5638583340235323e-05 -2.1791482584440446e-10 -2.1173425769283046e-05 9.8790153068455956e-06 -2.1121579162264695e-10 -1.2611946983145855e-09 9.8689810598073188e-06 -3.2053074771416564e-10 -1.7487918046558164e-05 1.5436000795116349e-05 -3.0158469890278158e-10 -1.2411359611427622e-05 1.5638583340235323e-05 -2.1791482584440444e-10 -2.1173425769283052e-05 9.6976500870371113e-06 -2.574028863898347e-10 -5.0793645101403733e-05 1.5649089646065347e-05 -1.6208601468792426e-10 -4.9581301137518186e-05 1.0046373245164156e-05 -2.7787113618700607e-10 -3.6317373226972919e-05 6.903211434479629e-06 -1.5970690888193442e-10 -4.6879646701734525e-05 1.0046373245164156e-05 -2.7787113618700607e-10 -3.6317373226972919e-05 9.7686857675651657e-06 -9.7502542195324594e-11 -2.9304582303400684e-05 5.2935753922122886e-06 -3.0073934692317498e-10 -2.8136225990415071e-05 6.9032114344796282e-06 -1.5970690888193445e-10 -4.6879646701734525e-05 1.0046373245164156e-05 -2.7787113618700607e-10 -3.6317373226972919e-05 1.564908964606535e-05 -1.6208601468792423e-10 -4.9581301137518179e-05 9.7686857675651674e-06 -9.7502542195324607e-11 -2.9304582303400684e-05 6.903211434479629e-06 -1.5970690888193445e-10 -4.6879646701734532e-05 1.0046373245164156e-05 -2.7787113618700607e-10 -3.6317373226972919e-05 1.5649089646065347e-05 -1.6208601468792423e-10 -4.9581301137518186e-05 1.4903632373037123e-05 -3.6922521303966344e-10 -2.9757897784731912e-05 1.5638583340235323e-05 -2.1791482584440446e-10 -2.1173425769283046e-05 1.0046373245164156e-05 -2.7787113618700607e-10 -3.6317373226972919e-05 9.7686857675651674e-06 -9.7502542195324607e-11 -2.9304582303400681e-05 1.564908964606535e-05 -1.6208601468792426e-10 -4.9581301137518186e-05 1.563858334023532e-05 -2.1791482584440441e-10 -2.1173425769283049e-05 1.0046373245164156e-05 -2.7787113618700607e-10 -3.6317373226972919e-05 9.8689810598073171e-06 -3.2053074771416564e-10 -1.7487918046558167e-05 5.2935753922122886e-06 -3.0073934692317498e-10 -2.8136225990415071e-05 9.7686857675651657e-06 -9.7502542195324594e-11 -2.9304582303400684e-05 9.8689810598073188e-06 -3.2053074771416564e-10 -1.748791804655817e-05 9.7686857675651657e-06 -9.7502542195324594e-11 -2.9304582303400684e-05 1.0046373245164156e-05 -2.7787113618700607e-10 -3.6317373226972919e-05 1.5638583340235323e-05 -2.1791482584440446e-10 -2.1173425769283046e-05 9.8689810598073188e-06 -3.2053074771416564e-10 -1.748791804655817e-05 1.0046373245164156e-05 -2.7787113618700607e-10 -3.6317373226972919e-05 1.4903632373037123e-05 -3.6922521303966349e-10 -2.9757897784731912e-05 1.5638583340235323e-05 -2.1791482584440446e-10 -2.1173425769283046e-05 9.6976500870371113e-06 -2.574028863898347e-10 -5.0793645101403733e-05 1.5626086726334145e-05 -3.190981810924936e-10 -4.5036277833226017e-05 1.0046373245164156e-05 -2.7787113618700607e-10 -3.6317373226972919e-05 1.564908964606535e-05 -1.6208601468792431e-10 -4.9581301137518186e-05 1.0046373245164156e-05 -2.7787113618700607e-10 -3.6317373226972919e-05 1.5626086726334145e-05 -3.190981810924936e-10 -4.5036277833226017e-05 1.4903632373037122e-05 -3.6922521303966338e-10 -2.9757897784731912e-05 1.564908964606535e-05 -1.6208601468792426e-10 -4.9581301137518186e-05 5.1161944893469846e-06 -2.9973474356933064e-10 -4.5812526550916822e-05 9.6976500870371113e-06 -2.574028863898347e-10 -5.0793645101403733e-05 1.0046373245164156e-05 -2.7787113618700607e-10 -3.6317373226972919e-05 6.903211434479629e-06 -1.5970690888193445e-10 -4.6879646701734525e-05 5.1161944893469846e-06 -2.9973474356933064e-10 -4.5812526550916822e-05 1.0046373245164156e-05 -2.7787113618700607e-10 -3.6317373226972919e-05 5.2935753922122886e-06 -3.0073934692317498e-10 -2.8136225990415071e-05 6.903211434479629e-06 -1.5970690888193445e-10 -4.6879646701734525e-05 5.2935753922122886e-06 -3.0073934692317498e-10 -2.8136225990415071e-05 -2.6486990628278409e-14 -2.0305051459275953e-10 -1.3726803259339413e-05 7.6090923501980535e-16 -1.8991250927259421e-10 -2.9635583636598374e-05 9.7686857675651657e-06 -9.7502542195324581e-11 -2.9304582303400678e-05 7.6090955397311911e-16 -1.8991250927259418e-10 -2.9635583636598374e-05 5.1161944893469829e-06 -2.997347435693307e-10 -4.5812526550916822e-05 5.2935753922122886e-06 -3.0073934692317498e-10 -2.8136225990415071e-05 6.9032114344796316e-06 -1.5970690888193442e-10 -4.6879646701734525e-05 7.6090955397311911e-16 -1.8991250927259418e-10 -2.9635583636598374e-05 5.2935753922122877e-06 -3.0073934692317498e-10 -2.8136225990415071e-05 9.7686857675651657e-06 -9.7502542195324581e-11 -2.9304582303400684e-05 6.903211434479629e-06 -1.5970690888193442e-10 -4.6879646701734525e-05 5.3766553338700287e-15 -3.6096263345980584e-10 -3.7500362982104616e-05 9.2584711406968235e-15 -4.0660780248845761e-10 -5.6249925222190525e-05 5.1161944893469846e-06 -2.9973474356933064e-10 -4.5812526550916822e-05 -4.7228214892874616e-15 -2.3703577694362555e-10 -4.7781485106608328e-05 5.3766553338700287e-15 -3.6096263345980584e-10 -3.7500362982104616e-05 7.6090955397311911e-16 -1.8991250927259418e-10 -2.9635583636598374e-05 5.1161944893469846e-06 -2.9973474356933064e-10 -4.5812526550916822e-05 5.2935753922122886e-06 -3.0073934692317498e-10 -2.8136225990415071e-05 5.1161944893469846e-06 -2.9973474356933064e-10 -4.5812526550916822e-05 7.6090998036317418e-16 -1.8991250927259418e-10 -2.963558363659837e-05 5.3766553463276783e-15 -3.6096263345980584e-10 -3.7500362982104616e-05 -4.7228214892874616e-15 -2.3703577694362555e-10 -4.7781485106608328e-05 7.6090955397311911e-16 -1.8991250927259418e-10 -2.9635583636598374e-05 5.3766562944416505e-15 -3.6096263345980584e-10 -3.7500362982104616e-05 7.3875359721497431e-15 -3.0964168615934707e-10 -1.8750784790611388e-05 5.2935753922122886e-06 -3.0073934692317498e-10 -2.8136225990415071e-05 7.6090955397311911e-16 -1.8991250927259418e-10 -2.9635583636598374e-05 -4.7228214892874616e-15 -2.3703577694362555e-10 -4.7781485106608328e-05 5.1161944893469846e-06 -2.9973474356933064e-10 -4.5812526550916822e-05 6.9032114344796316e-06 -1.5970690888193439e-10 -4.6879646701734525e-05 7.6090955397311911e-16 -1.8991250927259418e-10 -2.9635583636598374e-05 -2.3397871029333898e-15 -1.085275306771324e-10 -4.2949306458741608e-05 -4.7228212438507057e-15 -2.3703577694362555e-10 -4.7781485106608328e-05 6.9032114344796307e-06 -1.5970690888193442e-10 -4.6879646701734525e-05 -1.1484260224077193e-14 -8.8034459140245527e-11 -1.5872513584478897e-05 4.844219696014276e-15 -4.6841058309638208e-11 -3.086798455481524e-05 7.6090955397311911e-16 -1.8991250927259418e-10 -2.9635583636598374e-05 9.7686857675651657e-06 -9.7502542195324594e-11 -2.9304582303400684e-05 -2.3397872734249913e-15 -1.0852753067713237e-10 -4.2949306458741608e-05 9.768685767565164e-06 -9.7502542195324594e-11 -2.9304582303400674e-05 7.7409206933156903e-06 2.1289200158487449e-11 -4.2280066784070145e-05 6.903211434479629e-06 -1.5970690888193445e-10 -4.6879646701734525e-05 7.6090955397311911e-16 -1.8991250927259418e-10 -2.9635583636598374e-05 4.8442200428985468e-15 -4.6841058309638208e-11 -3.086798455481524e-05 -2.3397872951052583e-15 -1.0852753067713237e-10 -4.2949306458741608e-05 9.7686857675651657e-06 -9.7502542195324594e-11 -2.9304582303400684e-05 4.844219696014276e-15 -4.6841058309638208e-11 -3.086798455481524e-05 7.740920693315692e-06 2.1289200158487442e-11 -4.2280066784070145e-05 9.7686857675651657e-06 -9.7502542195324594e-11 -2.9304582303400684e-05 6.9835954304979784e-06 1.0760774716519911e-11 -2.0950094955929968e-05 -2.3397872734249913e-15 -1.0852753067713237e-10 -4.2949306458741608e-05 9.7686857675651657e-06 -9.7502542195324633e-11 -2.9304582303400681e-05 4.844219696014276e-15 -4.6841058309638208e-11 -3.086798455481524e-05 7.7409206933156903e-06 2.1289200158487449e-11 -4.2280066784070145e-05 -1.1484260224077193e-14 -8.8034459140245527e-11 -1.5872513584478897e-05 4.844219696014276e-15 -4.6841058309638208e-11 -3.086798455481524e-05 9.768685767565164e-06 -9.7502542195324633e-11 -2.9304582303400688e-05 6.9835954304979758e-06 1.0760774716519878e-11 -2.0950094955929981e-05 7.6090955397311911e-16 -1.8991250927259418e-10 -2.9635583636598374e-05 9.7686857675651657e-06 -9.7502542195324581e-11 -2.9304582303400684e-05 -2.3397873539916738e-15 -1.0852753067713236e-10 -4.2949306458741608e-05 6.9032114344796299e-06 -1.5970690888193447e-10 -4.6879646701734532e-05 -2.3397872734249913e-15 -1.0852753067713237e-10 -4.2949306458741608e-05 4.8442194550116954e-15 -4.6841058309638215e-11 -3.086798455481524e-05 -2.6761829786800163e-15 3.1931889263408313e-12 -4.8714047978490953e-05 7.7409206933156903e-06 2.1289200158487449e-11 -4.2280066784070145e-05 1.5626091574759127e-05 -1.8183402471537628e-12 -4.6875145498662381e-05 1.564908964606535e-05 -1.6208601468792426e-10 -4.9581301137518179e-05 9.7686857675651623e-06 -9.7502542195324581e-11 -2.9304582303400678e-05 1.563871014645135e-05 -2.0632452651716374e-11 -2.340359493142364e-05 7.7409206933156903e-06 2.1289200158487449e-11 -4.2280066784070145e-05 1.563871014645135e-05 -2.0632452651716403e-11 -2.340359493142364e-05 9.7686857675651674e-06 -9.7502542195324568e-11 -2.9304582303400681e-05 6.9835954304979784e-06 1.0760774716519921e-11 -2.0950094955929974e-05 9.7686857675651657e-06 -9.7502542195324594e-11 -2.9304582303400684e-05 1.563871014645135e-05 -2.063245265171637e-11 -2.340359493142364e-05 1.564908964606535e-05 -1.6208601468792426e-10 -4.9581301137518186e-05 1.5638583340235323e-05 -2.1791482584440446e-10 -2.1173425769283049e-05 1.5626091574759127e-05 -1.8183402471537628e-12 -4.6875145498662381e-05 7.7409206933156903e-06 2.1289200158487449e-11 -4.2280066784070145e-05 9.7686857675651674e-06 -9.7502542195324581e-11 -2.9304582303400674e-05 1.564908964606535e-05 -1.6208601468792426e-10 -4.9581301137518186e-05 9.7686857675651657e-06 -9.7502542195324594e-11 -2.9304582303400684e-05 7.7409206933156903e-06 2.1289200158487449e-11 -4.2280066784070145e-05 1.5626091574759127e-05 -1.8183402471537798e-12 -4.6875145498662395e-05 1.563871014645135e-05 -2.063245265171637e-11 -2.3403594931423644e-05 9.7686857675651657e-06 -9.7502542195324594e-11 -2.9304582303400684e-05 1.564908964606535e-05 -1.6208601468792426e-10 -4.9581301137518193e-05 7.7409206933156903e-06 2.1289200158487455e-11 -4.2280066784070145e-05 6.903211434479629e-06 -1.5970690888193445e-10 -4.6879646701734525e-05 1.0289865374598556e-05 -7.4491595558042837e-11 -1.4010515441995876e-09 9.768685767565164e-06 -9.7502542195324633e-11 -2.9304582303400684e-05 1.4317331061876068e-05 -1.2010786202920817e-10 -1.0177394755195818e-09 1.563871014645135e-05 -2.063245265171637e-11 -2.3403594931423644e-05 1.0289865374598556e-05 -7.4491595558042837e-11 -1.4010515441995876e-09 1.563871014645135e-05 -2.063245265171637e-11 -2.3403594931423644e-05 1.0140287401504952e-05 6.8385820260986792e-11 -1.469395778697431e-09 6.9835954304979784e-06 1.0760774716519921e-11 -2.0950094955929974e-05 1.4317331061876068e-05 -1.2010786202920817e-10 -1.0177394755194075e-09 1.563871014645135e-05 -2.063245265171637e-11 -2.3403594931423644e-05 9.768685767565164e-06 -9.7502542195324542e-11 -2.9304582303400684e-05 1.5638583340235327e-05 -2.1791482584440449e-10 -2.1173425769283042e-05 1.4317331061876068e-05 -1.2010786202920817e-10 -1.0177394755194075e-09 1.0289865374598556e-05 -7.4491595558042837e-11 -1.4010515441995876e-09 9.8790153068455956e-06 -2.1121579162264695e-10 -1.2611946983145855e-09 9.7686857675651657e-06 -9.7502542195324594e-11 -2.9304582303400684e-05 5.290902011785459e-06 -1.45728144702175e-10 -1.2146670269605026e-09 9.768685767565164e-06 -9.7502542195324594e-11 -2.9304582303400684e-05 1.0289865374598556e-05 -7.4491595558042837e-11 -1.4010515441995876e-09 6.9835954304979784e-06 1.0760774716519921e-11 -2.0950094955929974e-05 9.8790153068455956e-06 -2.1121579162264695e-10 -1.2611946983145855e-09 1.4317331061876068e-05 -1.2010786202920817e-10 -1.0177394755194075e-09 9.768685767565164e-06 -9.7502542195324568e-11 -2.9304582303400684e-05 1.5638583340235323e-05 -2.1791482584440452e-10 -2.1173425769283049e-05 1.0289865374598556e-05 -7.4491595558042837e-11 -1.4010515441995876e-09 9.7686857675651674e-06 -9.7502542195324698e-11 -2.9304582303400684e-05 1.563871014645135e-05 -2.063245265171637e-11 -2.3403594931423644e-05 6.9835954304979801e-06 1.076077471651996e-11 -2.0950094955929971e-05 1.0289865374598556e-05 -7.4491595558042837e-11 -1.4010515441995876e-09 5.290902011785459e-06 -1.4572814470217502e-10 -1.2146670269601304e-09 9.8790153068455956e-06 -2.1121579162264695e-10 -1.2611946983145855e-09 9.768685767565164e-06 -9.7502542195324594e-11 -2.9304582303400691e-05 1.0140287401504952e-05 6.8385820260986792e-11 -1.469395778697431e-09 1.0289865374598556e-05 -7.4491595558042837e-11 -1.4010515441995876e-09 1.6239155153754883e-05 2.3903561875270402e-11 -1.3010116391736113e-09 1.563871014645135e-05 -2.063245265171637e-11 -2.3403594931423644e-05 1.6239155153754883e-05 2.3903561875270402e-11 -1.3010116391736113e-09 1.0289865374598556e-05 -7.4491595558042837e-11 -1.4010515441995876e-09 1.4317331061876068e-05 -1.2010786202920817e-10 -1.0177394755194075e-09 1.563871014645135e-05 -2.063245265171637e-11 -2.3403594931423644e-05 -1.1484260224077193e-14 -8.8034459140245527e-11 -1.5872513584478897e-05 4.5756521728102969e-06 -2.1911435151839325e-10 -9.7080158449008423e-10 5.290902011785459e-06 -1.45728144702175e-10 -1.2146670269602737e-09 9.7686857675651657e-06 -9.7502542195324594e-11 -2.9304582303400684e-05 -1.1484260224077193e-14 -8.8034459140245527e-11 -1.5872513584478897e-05 9.7686857675651657e-06 -9.7502542195324672e-11 -2.9304582303400688e-05 5.290902011785459e-06 -1.45728144702175e-10 -1.214667026959644e-09 6.9835954304979775e-06 1.0760774716519913e-11 -2.0950094955929974e-05 5.3835362666305274e-06 -1.018721906566201e-11 -1.3238131660933098e-09 -1.0635254933047068e-14 -4.9445665295899071e-12 -1.6150517981104352e-05 5.290902011785459e-06 -1.45728144702175e-10 -1.2146670269605026e-09 6.9835954304979784e-06 1.0760774716519921e-11 -2.0950094955929974e-05 5.3835362666305274e-06 -1.018721906566201e-11 -1.3238131660933098e-09 5.290902011785459e-06 -1.45728144702175e-10 -1.2146670269605026e-09 1.0289865374598556e-05 -7.4491595558042837e-11 -1.4010515441995876e-09 6.9835954304979784e-06 1.0760774716519921e-11 -2.0950094955929974e-05 -1.1484260224077193e-14 -8.8034459140245527e-11 -1.5872513584478897e-05 2.175758168436934e-14 -2.348047805311839e-10 -1.2115001095756138e-09 2.6691448672395727e-14 -1.0447287024136045e-10 -1.546328589064763e-09 5.290902011785459e-06 -1.45728144702175e-10 -1.2146670269605026e-09 -1.1484260224077193e-14 -8.8034459140245527e-11 -1.5872513584478897e-05 2.6691448672395727e-14 -1.0447287024136045e-10 -1.546328589064763e-09 -1.0635255253276316e-14 -4.9445665295899031e-12 -1.6150517981104352e-05 5.290902011785459e-06 -1.45728144702175e-10 -1.2146670269605026e-09 -1.1484260224077193e-14 -8.8034459140245527e-11 -1.5872513584478897e-05 5.290902011785459e-06 -1.45728144702175e-10 -1.2146670269605026e-09 -1.0635254933047068e-14 -4.9445665295899071e-12 -1.6150517981104352e-05 6.9835954304979767e-06 1.0760774716519908e-11 -2.0950094955929971e-05 -1.1484260224077193e-14 -8.8034459140245527e-11 -1.5872513584478897e-05 -1.0635254933047068e-14 -4.9445665295899071e-12 -1.6150517981104352e-05 4.8442195887439415e-15 -4.6841058309638208e-11 -3.086798455481524e-05 6.9835954304979767e-06 1.0760774716519921e-11 -2.0950094955929978e-05 -1.0635254933047068e-14 -4.9445665295899071e-12 -1.6150517981104352e-05 2.6691448362821647e-14 -1.0447287024136044e-10 -1.5463285890633775e-09 1.3328135483118463e-14 8.444625699612349e-11 -1.4435592802902496e-09 5.3835362666305274e-06 -1.018721906566201e-11 -1.3238131660933098e-09 5.290902011785459e-06 -1.45728144702175e-10 -1.2146670269605026e-09 2.6691448672395727e-14 -1.0447287024136045e-10 -1.546328589064763e-09 -1.0635254933047068e-14 -4.9445665295899071e-12 -1.6150517981104352e-05 5.3835362666305274e-06 -1.018721906566201e-11 -1.3238131660933098e-09 -2.9903998490123152e-15 9.7998332855850968e-11 -1.4904189229365563e-05 1.1240784126906056e-15 5.2051592214730728e-11 -3.0419253280768769e-05 6.9835954304979801e-06 1.0760774716519895e-11 -2.0950094955929974e-05 6.0188903266411446e-06 1.5024570350873759e-10 -1.8056148165616486e-05 4.9680965584746429e-06 1.1609958810369297e-10 -1.2084207857284907e-09 -2.9903999237537744e-15 9.7998332855850968e-11 -1.4904189229365562e-05 6.9835954304979784e-06 1.0760774716519918e-11 -2.0950094955929978e-05 6.0188903266411454e-06 1.5024570350873759e-10 -1.8056148165616489e-05 -2.9903998490123152e-15 9.7998332855850968e-11 -1.4904189229365563e-05 5.3835362666305274e-06 -1.018721906566201e-11 -1.3238131660933098e-09 1.3328135508969714e-14 8.444625699612349e-11 -1.4435592802901721e-09 4.9680965584746429e-06 1.1609958810369297e-10 -1.2084207857284907e-09 1.0140287401504952e-05 6.8385820260986792e-11 -1.469395778697431e-09 4.9680965584746429e-06 1.1609958810369297e-10 -1.2084207857284907e-09 6.9835954304979792e-06 1.0760774716519924e-11 -2.0950094955929978e-05 6.0188903266411454e-06 1.5024570350873761e-10 -1.8056148165616489e-05 1.3328135483118463e-14 8.444625699612349e-11 -1.4435592802902496e-09 -1.0635254933047068e-14 -4.9445665295899071e-12 -1.6150517981104352e-05 5.3835362666305274e-06 -1.0187219065662009e-11 -1.3238131660938464e-09 -2.9903998490123152e-15 9.7998332855850968e-11 -1.4904189229365563e-05 -2.9903998490123152e-15 9.7998332855850968e-11 -1.4904189229365563e-05 1.3328135483118463e-14 8.444625699612349e-11 -1.4435592802902496e-09 6.4817008496288861e-15 2.1614536237403615e-10 -1.1743867376905974e-09 4.9680965584746429e-06 1.1609958810369297e-10 -1.2084207857284907e-09 9.7091756355881619e-06 2.2938562369436672e-10 -1.3083132570115673e-09 4.9680965584746437e-06 1.1609958810369298e-10 -1.2084207857280711e-09 1.0140287401504952e-05 6.8385820260986792e-11 -1.4693957786978532e-09 6.0188903266411454e-06 1.5024570350873761e-10 -1.8056148165616489e-05 1.0140287401504952e-05 6.8385820260986792e-11 -1.469395778697431e-09 4.9680965584746429e-06 1.1609958810369297e-10 -1.2084207857284907e-09 5.3835362666305274e-06 -1.018721906566201e-11 -1.3238131660933098e-09 6.9835954304979784e-06 1.0760774716519921e-11 -2.0950094955929974e-05 4.9680965584746429e-06 1.1609958810369297e-10 -1.2084207857284907e-09 -2.9903999956799719e-15 9.7998332855850968e-11 -1.4904189229365562e-05 5.3835362666305274e-06 -1.018721906566201e-11 -1.3238131660933098e-09 6.9835954304979784e-06 1.0760774716519921e-11 -2.0950094955929974e-05 -2.9903998490123152e-15 9.7998332855850968e-11 -1.4904189229365563e-05 2.0490199415793653e-15 2.0112216979266105e-10 -2.9125960597102482e-05 1.1240784126906056e-15 5.2051592214730728e-11 -3.0419253280768769e-05 6.0188903266411437e-06 1.5024570350873764e-10 -1.8056148165616489e-05 -1.0635254933047068e-14 -4.9445665295899071e-12 -1.6150517981104352e-05 -2.9903998490123152e-15 9.7998332855850968e-11 -1.4904189229365563e-05 1.1240784126906056e-15 5.2051592214730728e-11 -3.0419253280768769e-05 6.9835954304979784e-06 1.0760774716519921e-11 -2.0950094955929974e-05 -1.0635254933047068e-14 -4.9445665295899071e-12 -1.6150517981104352e-05 5.3835362666305282e-06 -1.0187219065662009e-11 -1.3238131660937496e-09 -2.9903998490123152e-15 9.7998332855850968e-11 -1.4904189229365563e-05 6.9835954304979784e-06 1.0760774716519921e-11 -2.0950094955929974e-05 1.1240784126906056e-15 5.2051592214730728e-11 -3.0419253280768769e-05 7.0370266726697277e-06 1.8534891032294554e-10 -4.517573330438347e-05 1.1203470692898631e-05 1.2398031683996269e-10 -2.8153583089364518e-05 6.0188903266411454e-06 1.5024570350873759e-10 -1.8056148165616486e-05 1.1240784126906056e-15 5.2051592214730728e-11 -3.0419253280768769e-05 7.740920693315692e-06 2.1289200158487442e-11 -4.2280066784070138e-05 4.844219696014276e-15 -4.6841058309638208e-11 -3.086798455481524e-05 6.9835954304979809e-06 1.0760774716519929e-11 -2.0950094955929974e-05 1.1240784126906056e-15 5.2051592214730728e-11 -3.0419253280768769e-05 2.0490202230794458e-15 2.0112216979266105e-10 -2.9125960597102482e-05 7.0370266726697277e-06 1.8534891032294554e-10 -4.5175733304383477e-05 6.0188903266411446e-06 1.5024570350873761e-10 -1.8056148165616486e-05 1.1203470692898631e-05 1.2398031683996269e-10 -2.8153583089364518e-05 6.9835954304979801e-06 1.0760774716519928e-11 -2.0950094955929968e-05 1.1240786573485389e-15 5.2051592214730761e-11 -3.0419253280768772e-05 6.0188903266411446e-06 1.5024570350873761e-10 -1.8056148165616482e-05 -1.0635254933047068e-14 -4.9445665295899071e-12 -1.6150517981104352e-05 1.1240784435737324e-15 5.2051592214730728e-11 -3.0419253280768766e-05 4.844219696014276e-15 -4.6841058309638208e-11 -3.086798455481524e-05 6.9835954304979784e-06 1.0760774716519921e-11 -2.0950094955929974e-05 1.1240784126906056e-15 5.2051592214730728e-11 -3.0419253280768769e-05 7.7409206933156903e-06 2.1289200158487465e-11 -4.2280066784070151e-05 1.1203470692898631e-05 1.2398031683996269e-10 -2.8153583089364518e-05 7.0370266726697285e-06 1.8534891032294549e-10 -4.5175733304383477e-05 1.1203470692898631e-05 1.2398031683996269e-10 -2.8153583089364518e-05 7.7409206933156903e-06 2.1289200158487478e-11 -4.2280066784070151e-05 1.12407746595162e-15 5.2051592214730754e-11 -3.0419253280768772e-05 6.9835954304979809e-06 1.0760774716519913e-11 -2.0950094955929974e-05 4.844219696014276e-15 -4.6841058309638208e-11 -3.086798455481524e-05 1.1240779749390324e-15 5.2051592214730728e-11 -3.0419253280768769e-05 -2.6761829786800163e-15 3.1931889263408313e-12 -4.8714047978490953e-05 7.7409206933156903e-06 2.1289200158487449e-11 -4.2280066784070145e-05 9.2243391144943525e-16 1.2069070025922767e-10 -4.2810762509020441e-05 -2.6761829786800163e-15 3.1931889263408313e-12 -4.8714047978490953e-05 1.1240784126906056e-15 5.2051592214730728e-11 -3.0419253280768769e-05 7.7409206933156903e-06 2.1289200158487449e-11 -4.2280066784070145e-05 -1.668108758550405e-16 1.0631157958657552e-10 -5.6197664153622023e-05 7.7409206933156903e-06 2.1289200158487419e-11 -4.2280066784070145e-05 9.2243391144943525e-16 1.2069070025922767e-10 -4.2810762509020441e-05 7.0370266726697285e-06 1.8534891032294554e-10 -4.517573330438347e-05 1.1240784126906056e-15 5.2051592214730728e-11 -3.0419253280768769e-05 2.0490202230794458e-15 2.0112216979266105e-10 -2.9125960597102482e-05 9.2243332322660723e-16 1.2069070025922767e-10 -4.2810762509020434e-05 7.0370266726697285e-06 1.8534891032294554e-10 -4.517573330438347e-05 9.2243391144943525e-16 1.2069070025922767e-10 -4.2810762509020441e-05 7.7409206933156903e-06 2.1289200158487455e-11 -4.2280066784070145e-05 1.1240784126906056e-15 5.2051592214730728e-11 -3.0419253280768769e-05 7.0370266726697285e-06 1.8534891032294554e-10 -4.517573330438347e-05 5.2909193365004587e-06 3.0292233855215895e-10 -2.8195743336970546e-05 1.0290273037581288e-05 3.5333049348687939e-10 -3.7140404936178861e-05 7.0370266726697285e-06 1.8534891032294554e-10 -4.517573330438347e-05 6.0188903266411454e-06 1.5024570350873761e-10 -1.8056148165616489e-05 2.0490202230794458e-15 2.0112216979266105e-10 -2.9125960597102482e-05 5.2909193365004587e-06 3.0292233855215895e-10 -2.8195743336970543e-05 7.0370266726697285e-06 1.8534891032294554e-10 -4.517573330438347e-05 6.0188903266411454e-06 1.5024570350873761e-10 -1.8056148165616489e-05 5.3835406743850537e-06 3.3029230807316357e-10 -4.672192217064354e-05 -4.7945873569569739e-15 2.3833245884780916e-10 -4.7628259880443708e-05 2.0490203658556126e-15 2.0112216979266105e-10 -2.9125960597102475e-05 7.0370266726697285e-06 1.8534891032294554e-10 -4.5175733304383464e-05 9.2243391144943525e-16 1.2069070025922767e-10 -4.2810762509020441e-05 2.0490202230794458e-15 2.0112216979266105e-10 -2.9125960597102482e-05 -4.794585701693236e-15 2.3833245884780921e-10 -4.7628259880443708e-05 7.0370266726697285e-06 1.8534891032294554e-10 -4.517573330438347e-05 5.3835406743850537e-06 3.3029230807316357e-10 -4.672192217064354e-05 5.7621485951584532e-15 3.8700897329531298e-10 -3.750038293258123e-05 2.0490206929391149e-15 2.0112216979266105e-10 -2.9125960597102479e-05 -4.7945857016932375e-15 2.3833245884780916e-10 -4.7628259880443702e-05 2.0490202230794458e-15 2.0112216979266105e-10 -2.9125960597102482e-05 5.2909193365004587e-06 3.0292233855215895e-10 -2.8195743336970546e-05 5.7621485951584532e-15 3.8700897329531298e-10 -3.750038293258123e-05 5.3835406743850546e-06 3.3029230807316352e-10 -4.672192217064354e-05 5.3835406743850537e-06 3.3029230807316357e-10 -4.672192217064354e-05 2.049019324943503e-15 2.01122169792661e-10 -2.9125960597102475e-05 5.2909193365004587e-06 3.0292233855215895e-10 -2.8195743336970546e-05 7.0370266726697268e-06 1.8534891032294554e-10 -4.5175733304383477e-05 5.3835406743850537e-06 3.3029230807316357e-10 -4.672192217064354e-05 5.2909193365004587e-06 3.0292233855215895e-10 -2.8195743336970546e-05 1.0290273037581288e-05 3.5333049348687939e-10 -3.7140404936178861e-05 7.0370266726697285e-06 1.8534891032294554e-10 -4.517573330438347e-05 5.7621485951584532e-15 3.8700897329531298e-10 -3.750038293258123e-05 5.2790074813980345e-15 3.0308764476784865e-10 -1.8750809763448344e-05 5.2909193365004587e-06 3.0292233855215895e-10 -2.8195743336970546e-05 2.0490202230794458e-15 2.0112216979266105e-10 -2.9125960597102482e-05 5.2909193365004587e-06 3.0292233855215895e-10 -2.8195743336970546e-05 5.2790062766553509e-15 3.0308764476784865e-10 -1.8750809763448341e-05 -1.8991877962808101e-14 2.0866944984213451e-10 -1.3726824578925094e-05 2.0490196356693997e-15 2.0112216979266108e-10 -2.9125960597102482e-05 4.5756530322876642e-06 2.4270396472125511e-10 -1.3726869086637578e-05 5.2790074813980345e-15 3.0308764476784865e-10 -1.8750809763448344e-05 -1.8991876217612417e-14 2.0866944984213451e-10 -1.3726824578925094e-05 5.2909193365004587e-06 3.0292233855215895e-10 -2.8195743336970546e-05 6.2503802614998593e-06 3.4404593538069029e-10 -1.3290119795913571e-09 1.4269458454634911e-14 3.2692389456658572e-10 -1.3300812830505752e-09 4.5756269031622709e-06 2.1769762720972305e-10 -9.6842767635598727e-10 4.5756530322876642e-06 2.4270396472125511e-10 -1.3726869086637578e-05 -1.8991876247323159e-14 2.0866944984213451e-10 -1.3726824578925093e-05 1.4269458590163805e-14 3.2692389456658577e-10 -1.3300812830494645e-09 5.2790074813980345e-15 3.0308764476784865e-10 -1.8750809763448344e-05 4.5756530322876642e-06 2.4270396472125511e-10 -1.3726869086637578e-05 -1.8991876247323159e-14 2.0866944984213451e-10 -1.3726824578925093e-05 4.5756269031622709e-06 2.1769762720972305e-10 -9.6842767635598727e-10 1.4269458590163805e-14 3.2692389456658577e-10 -1.3300812830494645e-09 4.5756530322876642e-06 2.4270396472125511e-10 -1.3726869086637578e-05 4.5756269031622709e-06 2.1769762720972305e-10 -9.6842767635598727e-10 1.4269458067487932e-14 3.2692389456658577e-10 -1.3300812830508728e-09 6.4817005085925699e-15 2.1614536237403615e-10 -1.1743867376916206e-09 -1.8991876247323159e-14 2.0866944984213451e-10 -1.3726824578925093e-05 -1.8991876247323159e-14 2.0866944984213451e-10 -1.3726824578925093e-05 -2.9903998490123152e-15 9.7998332855850968e-11 -1.4904189229365563e-05 4.9680965584746437e-06 1.1609958810369296e-10 -1.2084207857290469e-09 6.0188903266411454e-06 1.5024570350873761e-10 -1.8056148165616489e-05 6.4817005085925699e-15 2.1614536237403615e-10 -1.1743867376916206e-09 4.9680965584746429e-06 1.1609958810369297e-10 -1.2084207857284907e-09 4.5756269031622709e-06 2.1769762720972305e-10 -9.6842767635598727e-10 -1.8991876247323159e-14 2.0866944984213451e-10 -1.3726824578925093e-05 4.5756530322876642e-06 2.4270396472125511e-10 -1.3726869086637578e-05 -1.8991876398552957e-14 2.0866944984213451e-10 -1.3726824578925093e-05 4.5756269031622709e-06 2.1769762720972303e-10 -9.6842767635555693e-10 6.0188903266411454e-06 1.5024570350873759e-10 -1.8056148165616486e-05 4.9680965584746429e-06 1.1609958810369297e-10 -1.2084207857284907e-09 6.4817005085925699e-15 2.1614536237403615e-10 -1.1743867376916206e-09 -2.9903998490123152e-15 9.7998332855850968e-11 -1.4904189229365563e-05 -1.8991876247323159e-14 2.0866944984213451e-10 -1.3726824578925093e-05 4.9680965584746429e-06 1.1609958810369297e-10 -1.2084207857284907e-09 4.5756269031622709e-06 2.1769762720972305e-10 -9.684276763548774e-10 -1.8991876247323159e-14 2.0866944984213451e-10 -1.3726824578925093e-05 6.0188903266411454e-06 1.5024570350873761e-10 -1.8056148165616489e-05 5.2909193365004587e-06 3.0292233855215895e-10 -2.8195743336970546e-05 2.0490189591217802e-15 2.0112216979266105e-10 -2.9125960597102479e-05 -1.8991876834733201e-14 2.0866944984213449e-10 -1.3726824578925096e-05 6.0188903266411454e-06 1.5024570350873761e-10 -1.8056148165616489e-05 -1.8991876247323159e-14 2.0866944984213451e-10 -1.3726824578925093e-05 2.0490202230794458e-15 2.0112216979266105e-10 -2.9125960597102482e-05 -2.9903998490123152e-15 9.7998332855850968e-11 -1.4904189229365563e-05 6.0188903266411454e-06 1.5024570350873761e-10 -1.8056148165616489e-05 4.5756530322876642e-06 2.4270396472125511e-10 -1.3726869086637578e-05 4.5756269031622726e-06 2.1769762720972305e-10 -9.6842767636104341e-10 9.7091756355881619e-06 2.2938562369436669e-10 -1.3083132570140182e-09 6.0188903266411454e-06 1.5024570350873759e-10 -1.8056148165616489e-05 4.9680965584746429e-06 1.1609958810369297e-10 -1.2084207857284907e-09 9.7091756355881619e-06 2.2938562369436672e-10 -1.3083132570115673e-09 4.5756269031622709e-06 2.1769762720972305e-10 -9.6842767635598727e-10 6.0188903266411454e-06 1.5024570350873761e-10 -1.8056148165616489e-05 4.5756269031622709e-06 2.1769762720972305e-10 -9.6842767635598727e-10 9.7091756355881619e-06 2.2938562369436672e-10 -1.3083132570115673e-09 6.2503802614998593e-06 3.4404593538069029e-10 -1.3290119795913571e-09 4.5756530322876642e-06 2.4270396472125511e-10 -1.3726869086637578e-05 9.8869110783691148e-06 3.1776086465918755e-10 -1.7643717633879283e-05 6.2503802614998602e-06 3.4404593538069039e-10 -1.3290119795902086e-09 9.7091756355881619e-06 2.2938562369436672e-10 -1.3083132570115673e-09 4.5756530322876642e-06 2.4270396472125511e-10 -1.3726869086637578e-05 9.7091756355881619e-06 2.2938562369436672e-10 -1.3083132570115673e-09 9.8869110783691148e-06 3.1776086465918755e-10 -1.7643717633879283e-05 4.5756530322876625e-06 2.4270396472125511e-10 -1.3726869086637575e-05 6.0188903266411463e-06 1.5024570350873759e-10 -1.8056148165616489e-05 9.8869110783691148e-06 3.1776086465918755e-10 -1.7643717633879283e-05 5.2909193365004587e-06 3.0292233855215895e-10 -2.8195743336970546e-05 4.5756530322876642e-06 2.4270396472125511e-10 -1.3726869086637578e-05 6.0188903266411454e-06 1.5024570350873761e-10 -1.8056148165616489e-05 4.5756530322876642e-06 2.4270396472125511e-10 -1.3726869086637578e-05 5.2909193365004587e-06 3.0292233855215895e-10 -2.8195743336970546e-05 -1.8991876247323159e-14 2.0866944984213451e-10 -1.3726824578925093e-05 6.0188903266411454e-06 1.5024570350873761e-10 -1.8056148165616489e-05 1.1203470692898631e-05 1.2398031683996269e-10 -2.8153583089364518e-05 6.0188903266411454e-06 1.5024570350873761e-10 -1.8056148165616486e-05 9.8869110783691148e-06 3.1776086465918755e-10 -1.7643717633879283e-05 1.6530709533393095e-05 2.1342289744654224e-10 -1.952695791587844e-05 9.7091756355881619e-06 2.2938562369436672e-10 -1.3083132570115673e-09 6.0188903266411454e-06 1.5024570350873761e-10 -1.8056148165616489e-05 1.1203470692898633e-05 1.2398031683996267e-10 -2.8153583089364518e-05 1.6530709533393095e-05 2.1342289744654222e-10 -1.9526957915878444e-05 9.7091756355881619e-06 2.2938562369436672e-10 -1.3083132570115673e-09 9.8869110783691148e-06 3.177608646591876e-10 -1.764371763387928e-05 6.0188903266411454e-06 1.5024570350873759e-10 -1.8056148165616489e-05 1.6530709533393095e-05 2.1342289744654222e-10 -1.952695791587844e-05 9.7091756355881619e-06 2.2938562369436672e-10 -1.3083132570115673e-09 1.2500880504534119e-05 4.0628022848322187e-10 -1.5504539573299594e-09 6.2503802614998593e-06 3.4404593538069029e-10 -1.3290119795913571e-09 9.8869110783691148e-06 3.1776086465918755e-10 -1.7643717633879283e-05 9.7091756355881619e-06 2.2938562369436672e-10 -1.3083132570115673e-09 1.5877165669447911e-05 2.5312515249302128e-10 -1.2694677674793223e-09 9.8869110783691148e-06 3.1776086465918755e-10 -1.7643717633879283e-05 1.6530709533393095e-05 2.1342289744654222e-10 -1.9526957915878447e-05 1.4271170427048307e-05 1.2249420125506949e-10 -9.9612380997415731e-10 1.5877165669447911e-05 2.5312515249302133e-10 -1.2694677674764983e-09 9.7091756355881619e-06 2.2938562369436672e-10 -1.3083132570111769e-09 1.6530709533393095e-05 2.1342289744654224e-10 -1.9526957915878437e-05 1.5980336470925648e-05 2.9924260307679558e-10 -1.5348497280330954e-05 9.8869110783691148e-06 3.1776086465918755e-10 -1.7643717633879283e-05 1.2500880504534119e-05 4.0628022848322187e-10 -1.5504539573269535e-09 1.5877165669447911e-05 2.5312515249302133e-10 -1.2694677674764983e-09 9.8869110783691148e-06 3.1776086465918755e-10 -1.7643717633879283e-05 9.7091756355881619e-06 2.2938562369436667e-10 -1.3083132570155829e-09 1.2500880504534119e-05 4.0628022848322187e-10 -1.5504539573299594e-09 1.5877165669447911e-05 2.5312515249302133e-10 -1.2694677674764983e-09 1.5980336470925648e-05 2.9924260307679558e-10 -1.5348497280330954e-05 1.4319803648028556e-05 2.4238403919870301e-10 -2.9091521872410402e-05 9.8869110783691148e-06 3.1776086465918755e-10 -1.7643717633879283e-05 1.6530709533393095e-05 2.1342289744654224e-10 -1.952695791587844e-05 1.5980336470925648e-05 2.9924260307679558e-10 -1.5348497280330954e-05 9.8869110783691148e-06 3.1776086465918755e-10 -1.7643717633879283e-05 1.5877165669447914e-05 2.5312515249302128e-10 -1.2694677674771435e-09 1.6530709533393095e-05 2.1342289744654227e-10 -1.952695791587844e-05 1.0290273037581288e-05 3.5333049348687939e-10 -3.7140404936178861e-05 1.1203470692898631e-05 1.2398031683996267e-10 -2.8153583089364518e-05 1.5621086623542759e-05 1.5926895263044268e-10 -4.9656960170750871e-05 7.0370266726697285e-06 1.8534891032294554e-10 -4.517573330438347e-05 1.1203470692898631e-05 1.2398031683996269e-10 -2.8153583089364518e-05 7.0370266726697285e-06 1.8534891032294554e-10 -4.517573330438347e-05 1.0290273037581288e-05 3.5333049348687939e-10 -3.7140404936178861e-05 6.0188903266411446e-06 1.5024570350873761e-10 -1.8056148165616486e-05 9.8869110783691148e-06 3.1776086465918755e-10 -1.7643717633879283e-05 1.4319803648028555e-05 2.4238403919870295e-10 -2.9091521872410402e-05 1.0290273037581288e-05 3.5333049348687939e-10 -3.7140404936178861e-05 1.1203470692898629e-05 1.2398031683996262e-10 -2.8153583089364518e-05 1.4319803648028555e-05 2.4238403919870295e-10 -2.9091521872410402e-05 1.1203470692898628e-05 1.2398031683996269e-10 -2.8153583089364518e-05 9.8869110783691148e-06 3.1776086465918755e-10 -1.7643717633879283e-05 1.6530709533393095e-05 2.1342289744654224e-10 -1.952695791587844e-05 9.8869110783691148e-06 3.1776086465918755e-10 -1.7643717633879283e-05 1.1203470692898635e-05 1.2398031683996267e-10 -2.8153583089364518e-05 1.029027303758129e-05 3.5333049348687944e-10 -3.7140404936178861e-05 6.0188903266411454e-06 1.5024570350873761e-10 -1.8056148165616489e-05 1.4319803648028555e-05 2.4238403919870295e-10 -2.9091521872410402e-05 1.5621086623542752e-05 1.592689526304426e-10 -4.9656960170750864e-05 1.1203470692898631e-05 1.2398031683996267e-10 -2.8153583089364525e-05 1.6530709533393095e-05 2.1342289744654224e-10 -1.952695791587844e-05 1.4319803648028555e-05 2.4238403919870295e-10 -2.9091521872410402e-05 1.0290273037581288e-05 3.5333049348687939e-10 -3.7140404936178861e-05 1.1203470692898631e-05 1.2398031683996264e-10 -2.8153583089364518e-05 1.5621086623542752e-05 1.592689526304426e-10 -4.9656960170750858e-05 9.8869110783691148e-06 3.1776086465918755e-10 -1.7643717633879283e-05 1.0290273037581288e-05 3.5333049348687939e-10 -3.7140404936178861e-05 5.2909193365004587e-06 3.0292233855215895e-10 -2.8195743336970546e-05 6.0188903266411454e-06 1.5024570350873761e-10 -1.8056148165616489e-05 1.0290273037581288e-05 3.5333049348687939e-10 -3.7140404936178861e-05 1.0140745686962378e-05 3.6841816183589416e-10 -5.6268846544187733e-05 5.3835406743850537e-06 3.3029230807316357e-10 -4.672192217064354e-05 7.0370266726697285e-06 1.8534891032294554e-10 -4.517573330438347e-05 1.4319803648028555e-05 2.4238403919870295e-10 -2.9091521872410402e-05 1.6239109627333688e-05 3.1638313379482949e-10 -4.6875180847950101e-05 1.0290273037581288e-05 3.5333049348687939e-10 -3.7140404936178861e-05 1.5621086623542756e-05 1.5926895263044263e-10 -4.9656960170750864e-05 7.7409206933156903e-06 2.1289200158487449e-11 -4.2280066784070145e-05 1.5621086623542752e-05 1.592689526304426e-10 -4.9656960170750864e-05 1.1203470692898631e-05 1.2398031683996269e-10 -2.8153583089364518e-05 7.0370266726697294e-06 1.8534891032294552e-10 -4.517573330438347e-05 1.1203470692898631e-05 1.2398031683996269e-10 -2.8153583089364518e-05 1.5626091574759127e-05 -1.8183402471537374e-12 -4.6875145498662388e-05 7.7409206933156903e-06 2.1289200158487449e-11 -4.2280066784070145e-05 1.5638710146451347e-05 -2.0632452651716399e-11 -2.3403594931423637e-05 1.1203470692898631e-05 1.2398031683996269e-10 -2.8153583089364518e-05 7.7409206933156903e-06 2.1289200158487449e-11 -4.2280066784070145e-05 1.5626091574759127e-05 -1.8183402471537746e-12 -4.6875145498662381e-05 1.5621086623542756e-05 1.5926895263044266e-10 -4.9656960170750871e-05 1.1203470692898631e-05 1.2398031683996269e-10 -2.8153583089364518e-05 1.563871014645135e-05 -2.063245265171637e-11 -2.3403594931423644e-05 7.7409206933156886e-06 2.1289200158487436e-11 -4.2280066784070138e-05 6.9835954304979784e-06 1.0760774716519921e-11 -2.0950094955929974e-05 1.1203470692898631e-05 1.2398031683996269e-10 -2.8153583089364518e-05 1.0140287401504952e-05 6.8385820260986792e-11 -1.469395778697431e-09 1.563871014645135e-05 -2.063245265171637e-11 -2.3403594931423644e-05 6.9835954304979784e-06 1.0760774716519921e-11 -2.0950094955929974e-05 9.7091756355881619e-06 2.2938562369436672e-10 -1.3083132570115673e-09 1.0140287401504952e-05 6.8385820260986792e-11 -1.469395778697431e-09 1.4271170427048307e-05 1.2249420125506949e-10 -9.9612380997415731e-10 1.1203470692898631e-05 1.2398031683996269e-10 -2.8153583089364525e-05 1.0140287401504952e-05 6.8385820260986792e-11 -1.469395778697431e-09 6.9835954304979801e-06 1.0760774716519937e-11 -2.0950094955929978e-05 1.1203470692898631e-05 1.2398031683996269e-10 -2.8153583089364518e-05 6.0188903266411454e-06 1.5024570350873761e-10 -1.8056148165616489e-05 1.0140287401504952e-05 6.8385820260986792e-11 -1.469395778697431e-09 1.4271170427048307e-05 1.2249420125506949e-10 -9.9612380997458682e-10 1.1203470692898631e-05 1.2398031683996269e-10 -2.8153583089364515e-05 1.563871014645135e-05 -2.063245265171637e-11 -2.3403594931423644e-05 9.7091756355881619e-06 2.2938562369436672e-10 -1.3083132570115673e-09 1.0140287401504952e-05 6.8385820260986792e-11 -1.469395778697431e-09 1.1203470692898631e-05 1.2398031683996269e-10 -2.8153583089364518e-05 6.0188903266411454e-06 1.5024570350873761e-10 -1.8056148165616489e-05 1.4271170427048307e-05 1.2249420125506949e-10 -9.9612380997415731e-10 9.7091756355881619e-06 2.2938562369436672e-10 -1.308313257011613e-09 1.1203470692898631e-05 1.2398031683996269e-10 -2.8153583089364518e-05 1.6530709533393095e-05 2.1342289744654222e-10 -1.952695791587844e-05 1.1203470692898631e-05 1.2398031683996269e-10 -2.8153583089364518e-05 1.563871014645135e-05 -2.063245265171637e-11 -2.3403594931423644e-05 1.4271170427048307e-05 1.2249420125506949e-10 -9.9612380997415731e-10 1.6530709533393095e-05 2.1342289744654224e-10 -1.952695791587844e-05 5.3835362666305274e-06 -1.018721906566201e-11 -1.3238131660933098e-09 1.0289865374598556e-05 -7.4491595558042837e-11 -1.4010515441995876e-09 1.0140287401504952e-05 6.8385820260986792e-11 -1.469395778697431e-09 6.9835954304979784e-06 1.0760774716519921e-11 -2.0950094955929974e-05 1.0140287401504952e-05 6.8385820260986792e-11 -1.469395778697431e-09 1.6239155153754883e-05 2.3903561875270402e-11 -1.3010116391736113e-09 1.4271170427048307e-05 1.2249420125506949e-10 -9.9612380997415731e-10 1.563871014645135e-05 -2.063245265171637e-11 -2.3403594931423644e-05 2.272738245206727e-05 8.4111494638962298e-11 -8.3438676972234166e-10 2.1394132188254936e-05 1.2663764740229498e-10 -2.9153072991417127e-05 1.873387417378356e-05 1.1126800695290292e-10 -9.9364102922289828e-10 2.4287108597984734e-05 -3.152621917124469e-11 -2.0414421560202302e-05 2.1394132188254936e-05 1.2663764740229506e-10 -2.9153072991417127e-05 1.563871014645135e-05 -2.0632452651716387e-11 -2.3403594931423647e-05 1.873387417378356e-05 1.1126800695290291e-10 -9.9364102922214699e-10 2.4287108597984731e-05 -3.1526219171244761e-11 -2.0414421560202299e-05 1.873387417378356e-05 1.1126800695290292e-10 -9.9364102922289828e-10 1.4271170427048307e-05 1.2249420125506949e-10 -9.9612380997488688e-10 1.563871014645135e-05 -2.0632452651716367e-11 -2.3403594931423647e-05 1.6530709533393095e-05 2.1342289744654227e-10 -1.9526957915878444e-05 1.6239155153754883e-05 2.3903561875270402e-11 -1.3010116391736113e-09 2.1039105244102678e-05 -7.4086674726754407e-12 -1.0244454538596433e-09 1.873387417378356e-05 1.1126800695290292e-10 -9.9364102922289828e-10 1.563871014645135e-05 -2.063245265171637e-11 -2.3403594931423644e-05 1.873387417378356e-05 1.1126800695290292e-10 -9.9364102922289828e-10 1.5638710146451347e-05 -2.0632452651716374e-11 -2.3403594931423647e-05 2.1394132188254936e-05 1.2663764740229503e-10 -2.915307299141713e-05 1.6530709533393088e-05 2.1342289744654224e-10 -1.9526957915878444e-05 1.873387417378356e-05 1.1126800695290292e-10 -9.9364102922289828e-10 1.563871014645135e-05 -2.063245265171637e-11 -2.3403594931423644e-05 2.1039105244102678e-05 -7.4086674726754407e-12 -1.0244454538596433e-09 2.4287108597984731e-05 -3.1526219171244774e-11 -2.0414421560202295e-05 1.873387417378356e-05 1.1126800695290292e-10 -9.9364102922289828e-10 1.6530709533393095e-05 2.1342289744654237e-10 -1.9526957915878437e-05 2.1394132188254933e-05 1.2663764740229501e-10 -2.9153072991417127e-05 2.5496199856951668e-05 1.9398603368873855e-10 -1.732863811195583e-05 1.873387417378356e-05 1.1126800695290292e-10 -9.9364102922289828e-10 1.4271170427048307e-05 1.2249420125506949e-10 -9.9612380997480871e-10 1.6239155153754883e-05 2.3903561875270402e-11 -1.3010116391736113e-09 1.563871014645135e-05 -2.063245265171637e-11 -2.3403594931423644e-05 1.873387417378356e-05 1.1126800695290292e-10 -9.9364102922289828e-10 2.1394132188254936e-05 1.2663764740229506e-10 -2.9153072991417127e-05 2.272738245206727e-05 8.4111494638962298e-11 -8.3438676972234166e-10 2.5496199856951668e-05 1.9398603368873849e-10 -1.732863811195583e-05 1.4271170427048307e-05 1.2249420125506949e-10 -9.9612380997415731e-10 1.873387417378356e-05 1.1126800695290292e-10 -9.9364102922275476e-10 1.5877165669447911e-05 2.5312515249302133e-10 -1.2694677674780601e-09 1.6530709533393095e-05 2.1342289744654224e-10 -1.9526957915878437e-05 1.873387417378356e-05 1.1126800695290292e-10 -9.9364102922289828e-10 2.272738245206727e-05 8.4111494638962311e-11 -8.3438676972186603e-10 2.2046036238471695e-05 1.6045263790824247e-10 -1.2740114710604166e-09 2.5496199856951668e-05 1.9398603368873849e-10 -1.732863811195583e-05 2.272738245206727e-05 8.4111494638962298e-11 -8.3438676972234166e-10 1.873387417378356e-05 1.1126800695290292e-10 -9.9364102922287326e-10 2.1039105244102678e-05 -7.408667472675439e-12 -1.0244454538588963e-09 2.4287108597984731e-05 -3.1526219171244767e-11 -2.0414421560202299e-05 2.1394132188254936e-05 1.2663764740229506e-10 -2.9153072991417127e-05 1.5638710146451353e-05 -2.0632452651716367e-11 -2.3403594931423637e-05 1.1203470692898631e-05 1.2398031683996269e-10 -2.8153583089364518e-05 1.6530709533393092e-05 2.1342289744654219e-10 -1.952695791587844e-05 2.1394132188254936e-05 1.2663764740229506e-10 -2.9153072991417127e-05 1.1203470692898628e-05 1.2398031683996267e-10 -2.8153583089364515e-05 1.5626091574759127e-05 -1.8183402471537628e-12 -4.6875145498662381e-05 1.5621086623542756e-05 1.5926895263044263e-10 -4.9656960170750864e-05 1.5626091574759127e-05 -1.8183402471537628e-12 -4.6875145498662381e-05 1.1203470692898631e-05 1.2398031683996269e-10 -2.8153583089364525e-05 2.1394132188254936e-05 1.2663764740229506e-10 -2.9153072991417127e-05 1.5638710146451353e-05 -2.0632452651716416e-11 -2.3403594931423647e-05 1.5626091574759127e-05 -1.8183402471537628e-12 -4.6875145498662381e-05 2.1394132188254936e-05 1.2663764740229506e-10 -2.9153072991417127e-05 2.3453183028271061e-05 1.7670110363840098e-11 -4.6722008888558391e-05 1.5638710146451353e-05 -2.0632452651716419e-11 -2.3403594931423647e-05 2.1394132188254936e-05 1.2663764740229506e-10 -2.9153072991417127e-05 1.5621086623542756e-05 1.5926895263044263e-10 -4.9656960170750864e-05 2.3453183028271061e-05 1.7670110363840098e-11 -4.6722008888558391e-05 2.4181275535048876e-05 2.0438860329054464e-10 -4.6714928478079137e-05 2.3453183028271061e-05 1.7670110363840098e-11 -4.6722008888558391e-05 1.563871014645135e-05 -2.063245265171639e-11 -2.3403594931423654e-05 2.1394132188254936e-05 1.2663764740229506e-10 -2.9153072991417123e-05 2.4287108597984734e-05 -3.1526219171244767e-11 -2.0414421560202299e-05 1.1203470692898631e-05 1.2398031683996269e-10 -2.8153583089364518e-05 1.5621086623542756e-05 1.5926895263044263e-10 -4.9656960170750864e-05 2.1394132188254936e-05 1.2663764740229506e-10 -2.9153072991417127e-05 1.6530709533393095e-05 2.1342289744654224e-10 -1.952695791587844e-05 1.5626091574759127e-05 -1.8183402471537628e-12 -4.6875145498662381e-05 2.3453183028271061e-05 1.7670110363840091e-11 -4.6722008888558398e-05 2.1394132188254936e-05 1.2663764740229506e-10 -2.9153072991417127e-05 1.5621086623542756e-05 1.5926895263044263e-10 -4.9656960170750864e-05 2.1394132188254936e-05 1.2663764740229506e-10 -2.9153072991417127e-05 1.6530709533393095e-05 2.1342289744654224e-10 -1.952695791587844e-05 1.9085259632517686e-05 3.3586093311632342e-10 -3.1057836593885812e-05 2.5496199856951668e-05 1.9398603368873849e-10 -1.732863811195583e-05 1.9085259632517686e-05 3.3586093311632342e-10 -3.1057836593885812e-05 1.5621086623542756e-05 1.5926895263044263e-10 -4.9656960170750864e-05 2.1394132188254936e-05 1.2663764740229506e-10 -2.9153072991417127e-05 2.4181275535048876e-05 2.0438860329054464e-10 -4.6714928478079137e-05 1.9085259632517686e-05 3.3586093311632342e-10 -3.1057836593885812e-05 2.1326582803798977e-05 3.7195851862072927e-10 -4.9040811334222433e-05 1.5621086623542759e-05 1.5926895263044266e-10 -4.9656960170750864e-05 2.4181275535048876e-05 2.0438860329054464e-10 -4.6714928478079137e-05 2.5861677129612796e-05 3.7042255574969008e-10 -2.9445312271042242e-05 2.1394132188254933e-05 1.2663764740229501e-10 -2.9153072991417127e-05 1.9085259632517686e-05 3.3586093311632342e-10 -3.1057836593885812e-05 2.5496199856951668e-05 1.9398603368873855e-10 -1.7328638111955844e-05 1.4319803648028555e-05 2.4238403919870295e-10 -2.9091521872410402e-05 1.9085259632517686e-05 3.3586093311632342e-10 -3.1057836593885812e-05 1.5621086623542756e-05 1.5926895263044263e-10 -4.9656960170750864e-05 1.6530709533393095e-05 2.1342289744654224e-10 -1.952695791587844e-05 1.9085259632517686e-05 3.3586093311632342e-10 -3.1057836593885812e-05 2.1394132188254939e-05 1.2663764740229503e-10 -2.915307299141713e-05 2.5861677129612796e-05 3.7042255574969008e-10 -2.9445312271042242e-05 2.4181275535048876e-05 2.0438860329054464e-10 -4.6714928478079137e-05 2.1394132188254936e-05 1.2663764740229506e-10 -2.9153072991417127e-05 1.5621086623542756e-05 1.5926895263044266e-10 -4.9656960170750864e-05 1.9085259632517686e-05 3.3586093311632342e-10 -3.1057836593885812e-05 1.6530709533393095e-05 2.1342289744654224e-10 -1.9526957915878444e-05 1.9085259632517686e-05 3.3586093311632342e-10 -3.1057836593885812e-05 2.1326582803798977e-05 3.7195851862072927e-10 -4.904081133422244e-05 1.6239109627333688e-05 3.1638313379482949e-10 -4.6875180847950094e-05 1.5621086623542756e-05 1.5926895263044263e-10 -4.9656960170750864e-05 1.6239109627333688e-05 3.1638313379482949e-10 -4.6875180847950101e-05 1.4319803648028555e-05 2.4238403919870295e-10 -2.9091521872410402e-05 1.9085259632517686e-05 3.3586093311632342e-10 -3.1057836593885812e-05 1.5621086623542756e-05 1.592689526304426e-10 -4.9656960170750871e-05 2.1326582803798977e-05 3.7195851862072927e-10 -4.904081133422244e-05 1.9085259632517682e-05 3.3586093311632337e-10 -3.1057836593885812e-05 2.5861677129612796e-05 3.7042255574969008e-10 -2.9445312271042242e-05 2.4181275535048876e-05 2.0438860329054464e-10 -4.6714928478079137e-05 1.5980336470925648e-05 2.9924260307679558e-10 -1.5348497280330954e-05 1.9085259632517686e-05 3.3586093311632342e-10 -3.1057836593885812e-05 1.4319803648028555e-05 2.4238403919870295e-10 -2.9091521872410402e-05 1.6530709533393095e-05 2.1342289744654227e-10 -1.952695791587844e-05 1.5980336470925648e-05 2.9924260307679558e-10 -1.5348497280330954e-05 2.1872959781210417e-05 3.0348836506382739e-10 -1.5880593421703541e-05 1.9085259632517686e-05 3.3586093311632342e-10 -3.1057836593885812e-05 1.6530709533393095e-05 2.1342289744654227e-10 -1.952695791587844e-05 2.1872959781210417e-05 3.0348836506382739e-10 -1.5880593421703541e-05 1.9085259632517686e-05 3.3586093311632342e-10 -3.1057836593885812e-05 1.6530709533393095e-05 2.1342289744654224e-10 -1.9526957915878444e-05 2.5496199856951665e-05 1.9398603368873852e-10 -1.7328638111955827e-05 2.1872959781210417e-05 3.0348836506382739e-10 -1.5880593421703541e-05 1.6530709533393098e-05 2.1342289744654227e-10 -1.952695791587844e-05 2.2046036238471695e-05 1.6045263790824247e-10 -1.274011471060564e-09 2.5496199856951668e-05 1.9398603368873849e-10 -1.732863811195582e-05 2.1872959781210417e-05 3.0348836506382739e-10 -1.5880593421703541e-05 1.5980336470925648e-05 2.9924260307679558e-10 -1.5348497280330954e-05 1.5877165669447911e-05 2.5312515249302139e-10 -1.2694677674695736e-09 1.6530709533393095e-05 2.1342289744654227e-10 -1.9526957915878434e-05 1.873387417378356e-05 1.1126800695290292e-10 -9.9364102922289828e-10 2.2046036238471695e-05 1.6045263790824247e-10 -1.2740114710604166e-09 1.6530709533393095e-05 2.1342289744654227e-10 -1.9526957915878444e-05 2.5496199856951668e-05 1.9398603368873849e-10 -1.7328638111955834e-05 1.8751324909583342e-05 3.6022399556101347e-10 -1.6139325976377186e-09 2.1872959781210417e-05 3.0348836506382739e-10 -1.5880593421703541e-05 1.5980336470925648e-05 2.9924260307679558e-10 -1.5348497280330954e-05 1.5877165669447911e-05 2.5312515249302133e-10 -1.2694677674764983e-09 1.5980336470925648e-05 2.9924260307679558e-10 -1.5348497280330954e-05 1.2500880504534119e-05 4.0628022848322187e-10 -1.5504539573314126e-09 1.8751324909583342e-05 3.6022399556101347e-10 -1.6139325976377186e-09 1.5877165669447911e-05 2.5312515249302133e-10 -1.2694677674764983e-09 1.5877165669447911e-05 2.5312515249302133e-10 -1.2694677674764983e-09 1.873387417378356e-05 1.1126800695290291e-10 -9.9364102922292371e-10 2.2046036238471695e-05 1.6045263790824247e-10 -1.2740114710604166e-09 1.6530709533393095e-05 2.1342289744654224e-10 -1.952695791587844e-05 2.1872959781210417e-05 3.0348836506382739e-10 -1.5880593421703541e-05 1.5877165669447911e-05 2.5312515249302139e-10 -1.2694677674698472e-09 2.2046036238471695e-05 1.6045263790824249e-10 -1.2740114710578968e-09 1.6530709533393095e-05 2.134228974465423e-10 -1.9526957915878434e-05 1.8751324909583342e-05 3.6022399556101347e-10 -1.6139325976377186e-09 2.5001819485751142e-05 3.0970562121581223e-10 -1.3249295354902048e-09 2.1872959781210417e-05 3.0348836506382739e-10 -1.5880593421703541e-05 2.2046036238471695e-05 1.6045263790824247e-10 -1.2740114710604166e-09 1.5877165669447911e-05 2.5312515249302133e-10 -1.2694677674764983e-09 1.8751324909583342e-05 3.6022399556101347e-10 -1.6139325976377186e-09 2.1872959781210417e-05 3.0348836506382739e-10 -1.5880593421703551e-05 2.2046036238471695e-05 1.6045263790824247e-10 -1.2740114710604166e-09 2.1872959781210417e-05 3.0348836506382739e-10 -1.5880593421703541e-05 2.5861677129612796e-05 3.7042255574969008e-10 -2.9445312271042242e-05 1.9085259632517686e-05 3.3586093311632342e-10 -3.1057836593885812e-05 2.5496199856951668e-05 1.9398603368873857e-10 -1.732863811195583e-05 2.5861677129612796e-05 3.7042255574969008e-10 -2.9445312271042242e-05 2.1872959781210417e-05 3.0348836506382739e-10 -1.5880593421703541e-05 2.6676582503636452e-05 2.2790523407525466e-10 -1.3726849677724979e-05 2.5496199856951665e-05 1.9398603368873852e-10 -1.7328638111955827e-05 2.1872959781210417e-05 3.0348836506382739e-10 -1.5880593421703541e-05 2.667654751249802e-05 2.3037780683898251e-10 -9.010759735312485e-10 2.6676582503636452e-05 2.2790523407525466e-10 -1.3726849677724981e-05 2.5496199856951668e-05 1.9398603368873852e-10 -1.732863811195582e-05 2.6676582503636452e-05 2.2790523407525466e-10 -1.3726849677724981e-05 3.1252228274327072e-05 1.9375633036729063e-10 -1.372683432971841e-05 2.5861677129612796e-05 3.7042255574969008e-10 -2.9445312271042242e-05 2.5496199856951668e-05 1.9398603368873847e-10 -1.732863811195583e-05 2.667654751249802e-05 2.3037780683898251e-10 -9.0107597352742662e-10 2.6676582503636452e-05 2.2790523407525466e-10 -1.3726849677724981e-05 2.5001819485751142e-05 3.0970562121581223e-10 -1.3249295354902048e-09 2.1872959781210417e-05 3.0348836506382739e-10 -1.5880593421703541e-05 2.1872959781210417e-05 3.0348836506382739e-10 -1.5880593421703541e-05 2.5001819485751146e-05 3.0970562121581223e-10 -1.324929535490115e-09 2.667654751249802e-05 2.3037780683898251e-10 -9.0107597352742662e-10 2.2046036238471695e-05 1.6045263790824247e-10 -1.2740114710604166e-09 2.667654751249802e-05 2.3037780683898251e-10 -9.0107597352742662e-10 2.2046036238471695e-05 1.6045263790824247e-10 -1.2740114710606049e-09 2.6618615223616167e-05 1.3615574477900274e-10 -1.0157396762110211e-09 2.5496199856951668e-05 1.9398603368873849e-10 -1.7328638111955827e-05 2.1872959781210417e-05 3.0348836506382739e-10 -1.5880593421703541e-05 2.2046036238471698e-05 1.6045263790824249e-10 -1.2740114710660538e-09 2.667654751249802e-05 2.3037780683898251e-10 -9.010759735295045e-10 2.5496199856951668e-05 1.9398603368873852e-10 -1.7328638111955824e-05 3.1252228274327072e-05 1.9375633036729065e-10 -1.3726834329718412e-05 3.1252167748579701e-05 1.0192249014964005e-10 -1.4904100236458431e-05 3.1252166353486004e-05 1.9320598935488098e-10 -2.9125945879398488e-05 2.5496199856951668e-05 1.9398603368873849e-10 -1.732863811195583e-05 2.5861677129612796e-05 3.7042255574969008e-10 -2.9445312271042242e-05 3.1252228274327072e-05 1.9375633036729065e-10 -1.3726834329718412e-05 3.1252166353486004e-05 1.9320598935488098e-10 -2.9125945879398488e-05 2.5496199856951671e-05 1.9398603368873855e-10 -1.7328638111955834e-05 3.1252228274327072e-05 1.9375633036729065e-10 -1.3726834329718412e-05 2.667654751249802e-05 2.3037780683898251e-10 -9.0107597352742662e-10 3.1252125084374653e-05 1.6790810250231817e-10 -1.1794299294128453e-09 2.5496199856951668e-05 1.9398603368873849e-10 -1.732863811195583e-05 3.1252125084374653e-05 1.6790810250231817e-10 -1.1794299294128453e-09 2.5496199856951671e-05 1.9398603368873849e-10 -1.732863811195583e-05 3.1252167748579701e-05 1.0192249014964005e-10 -1.4904100236458431e-05 3.1252228274327072e-05 1.9375633036729065e-10 -1.3726834329718412e-05 2.667654751249802e-05 2.3037780683898251e-10 -9.0107597352742662e-10 3.1252228274327072e-05 1.9375633036729065e-10 -1.3726834329718413e-05 2.6676582503636452e-05 2.2790523407525466e-10 -1.3726849677724981e-05 2.5496199856951668e-05 1.9398603368873849e-10 -1.7328638111955827e-05 2.667654751249802e-05 2.3037780683898251e-10 -9.0107597352742662e-10 2.661861522361617e-05 1.3615574477900277e-10 -1.0157396762101412e-09 3.1252125084374653e-05 1.6790810250231817e-10 -1.1794299294124053e-09 2.5496199856951668e-05 1.9398603368873849e-10 -1.7328638111955827e-05 3.1252228274327072e-05 1.9375633036729065e-10 -1.3726834329718412e-05 2.6676582503636452e-05 2.2790523407525469e-10 -1.3726849677724982e-05 3.1252077969192746e-05 3.3932729907624266e-10 -1.3635006476947642e-09 2.667654751249802e-05 2.3037780683898251e-10 -9.0107597352742662e-10 3.1252123406785318e-05 3.1733772782142835e-10 -1.8750810675420143e-05 2.6676582503636452e-05 2.2790523407525466e-10 -1.3726849677724982e-05 3.1252077969192746e-05 3.3932729907624266e-10 -1.3635006476947642e-09 3.1252228274327072e-05 1.9375633036729065e-10 -1.3726834329718412e-05 3.1252077969192746e-05 3.3932729907624266e-10 -1.3635006476947642e-09 3.1252228274327072e-05 1.9375633036729065e-10 -1.3726834329718412e-05 2.667654751249802e-05 2.3037780683898251e-10 -9.0107597352742662e-10 3.1252125084374653e-05 1.6790810250231817e-10 -1.1794299294128453e-09 2.5001819485751142e-05 3.0970562121581223e-10 -1.3249295354902048e-09 3.1252077969192746e-05 3.3932729907624266e-10 -1.3635006476947642e-09 2.6676582503636452e-05 2.2790523407525466e-10 -1.3726849677724981e-05 2.667654751249802e-05 2.3037780683898251e-10 -9.0107597352742662e-10 2.5861677129612796e-05 3.7042255574969008e-10 -2.9445312271042242e-05 2.6676582503636452e-05 2.2790523407525466e-10 -1.3726849677724981e-05 3.1252123406785318e-05 3.1733772782142835e-10 -1.8750810675420143e-05 3.1252228274327072e-05 1.9375633036729065e-10 -1.3726834329718412e-05 3.1252123406785318e-05 3.1733772782142835e-10 -1.8750810675420143e-05 3.1252166353486004e-05 1.9320598935488098e-10 -2.9125945879398488e-05 2.5861677129612792e-05 3.7042255574969008e-10 -2.9445312271042239e-05 3.1252228274327072e-05 1.9375633036729065e-10 -1.3726834329718412e-05 3.125212316677553e-05 2.9860820851822055e-10 -3.7500385791546099e-05 3.1252166353486004e-05 1.9320598935488098e-10 -2.9125945879398488e-05 2.5861677129612796e-05 3.7042255574969008e-10 -2.9445312271042239e-05 3.1252123406785318e-05 3.1733772782142835e-10 -1.8750810675420143e-05 2.5861677129612796e-05 3.7042255574969008e-10 -2.9445312271042242e-05 2.4181275535048876e-05 2.0438860329054464e-10 -4.6714928478079143e-05 2.1394132188254936e-05 1.2663764740229506e-10 -2.9153072991417127e-05 2.5496199856951665e-05 1.9398603368873852e-10 -1.7328638111955834e-05 3.1252166353486004e-05 1.9320598935488098e-10 -2.9125945879398488e-05 2.4181275535048876e-05 2.0438860329054461e-10 -4.6714928478079137e-05 2.5861677129612796e-05 3.7042255574969008e-10 -2.9445312271042242e-05 2.5496199856951665e-05 1.9398603368873849e-10 -1.7328638111955824e-05 3.1252166353486004e-05 1.9320598935488098e-10 -2.9125945879398488e-05 2.1394132188254939e-05 1.2663764740229496e-10 -2.9153072991417123e-05 2.418127553504888e-05 2.0438860329054459e-10 -4.6714928478079143e-05 2.5496199856951665e-05 1.9398603368873847e-10 -1.7328638111955827e-05 3.1252166353486004e-05 1.9320598935488098e-10 -2.9125945879398488e-05 2.7115168561475057e-05 3.0054325798010433e-10 -4.7445311636842522e-05 2.5861677129612796e-05 3.7042255574969013e-10 -2.9445312271042239e-05 2.4181275535048876e-05 2.0438860329054464e-10 -4.6714928478079137e-05 2.1326582803798977e-05 3.7195851862072927e-10 -4.904081133422244e-05 2.5861677129612796e-05 3.7042255574969008e-10 -2.9445312271042242e-05 2.7115168561475054e-05 3.0054325798010443e-10 -4.7445311636842509e-05 2.4181275535048876e-05 2.0438860329054464e-10 -4.6714928478079137e-05 2.7115168561475054e-05 3.0054325798010443e-10 -4.7445311636842509e-05 3.125212316677553e-05 2.9860820851822055e-10 -3.7500385791546099e-05 3.1252166353486004e-05 1.9320598935488098e-10 -2.9125945879398488e-05 2.5861677129612796e-05 3.7042255574969008e-10 -2.9445312271042242e-05 3.125212316677553e-05 2.9860820851822055e-10 -3.7500385791546099e-05 3.125212823637038e-05 1.8790314175476179e-10 -4.7628288487262554e-05 2.7115168561475054e-05 3.0054325798010443e-10 -4.7445311636842509e-05 3.1252166353486004e-05 1.9320598935488098e-10 -2.9125945879398488e-05 3.1252166353486004e-05 1.9320598935488098e-10 -2.9125945879398488e-05 3.125212823637038e-05 1.8790314175476179e-10 -4.7628288487262554e-05 2.7115168561475054e-05 3.0054325798010443e-10 -4.7445311636842509e-05 2.4181275535048876e-05 2.0438860329054464e-10 -4.6714928478079137e-05 3.1252166353486004e-05 1.9320598935488098e-10 -2.9125945879398488e-05 3.1252155995098842e-05 1.1280174538760936e-10 -4.2949336575891227e-05 3.125212823637038e-05 1.8790314175476179e-10 -4.7628288487262554e-05 2.4181275535048876e-05 2.0438860329054464e-10 -4.6714928478079137e-05 3.1252158242760534e-05 -9.1111864120454221e-11 -3.0867993469993535e-05 2.3453183028271061e-05 1.7670110363840101e-11 -4.6722008888558385e-05 3.125216746257513e-05 4.5465614485877937e-11 -3.041920981604588e-05 2.4287108597984731e-05 -3.1526219171244767e-11 -2.0414421560202299e-05 3.1252155995098842e-05 1.1280174538760937e-10 -4.2949336575891227e-05 2.1394132188254936e-05 1.2663764740229506e-10 -2.9153072991417127e-05 3.125216746257513e-05 4.5465614485877937e-11 -3.0419209816045883e-05 2.3453183028271061e-05 1.7670110363840098e-11 -4.6722008888558391e-05 3.1252166353486004e-05 1.9320598935488098e-10 -2.9125945879398488e-05 2.1394132188254936e-05 1.2663764740229498e-10 -2.9153072991417123e-05 3.1252155995098842e-05 1.1280174538760936e-10 -4.294933657589122e-05 2.4181275535048876e-05 2.0438860329054464e-10 -4.6714928478079137e-05 3.1252155995098842e-05 1.1280174538760937e-10 -4.2949336575891227e-05 2.1394132188254936e-05 1.2663764740229506e-10 -2.9153072991417127e-05 2.3453183028271064e-05 1.767011036384013e-11 -4.6722008888558398e-05 2.4181275535048869e-05 2.0438860329054466e-10 -4.6714928478079137e-05 3.1252155995098842e-05 1.1280174538760937e-10 -4.2949336575891227e-05 3.1252166353486004e-05 1.9320598935488098e-10 -2.9125945879398488e-05 3.125216746257513e-05 4.5465614485877937e-11 -3.0419209816045883e-05 2.1394132188254936e-05 1.2663764740229506e-10 -2.9153072991417127e-05 2.1394132188254936e-05 1.2663764740229506e-10 -2.9153072991417127e-05 3.125216746257513e-05 4.5465614485877911e-11 -3.041920981604588e-05 2.3453183028271061e-05 1.7670110363840098e-11 -4.6722008888558391e-05 2.4287108597984731e-05 -3.152621917124478e-11 -2.0414421560202295e-05 3.1252166353486004e-05 1.9320598935488098e-10 -2.9125945879398488e-05 3.125216746257513e-05 4.5465614485877937e-11 -3.0419209816045883e-05 2.1394132188254933e-05 1.2663764740229506e-10 -2.915307299141713e-05 2.5496199856951668e-05 1.9398603368873849e-10 -1.732863811195583e-05 3.125216746257513e-05 4.5465614485877937e-11 -3.0419209816045883e-05 2.4287108597984731e-05 -3.1526219171244767e-11 -2.0414421560202299e-05 2.1394132188254939e-05 1.2663764740229506e-10 -2.9153072991417137e-05 2.5496199856951668e-05 1.9398603368873844e-10 -1.7328638111955837e-05 3.1252067547811994e-05 -2.511011643419489e-12 -4.8714093318113173e-05 3.1252155995098842e-05 1.1280174538760937e-10 -4.2949336575891227e-05 3.125216746257513e-05 4.5465614485877937e-11 -3.0419209816045883e-05 2.3453183028271061e-05 1.7670110363840098e-11 -4.6722008888558391e-05 3.1252158242760534e-05 -9.1111864120454221e-11 -3.0867993469993535e-05 3.1252067547811994e-05 -2.5110116434195027e-12 -4.8714093318113173e-05 3.125216746257513e-05 4.5465614485877937e-11 -3.0419209816045883e-05 2.3453183028271064e-05 1.7670110363840088e-11 -4.6722008888558391e-05 2.6311755234189151e-05 3.9029615330551477e-11 -1.1625194736889653e-09 3.1252123823177452e-05 -3.1099411569291324e-11 -1.615042444145925e-05 3.1252167748579701e-05 1.0192249014964005e-10 -1.4904100236458433e-05 2.4287108597984731e-05 -3.1526219171244767e-11 -2.0414421560202299e-05 3.1252167748579701e-05 1.0192249014964005e-10 -1.4904100236458433e-05 2.661861522361617e-05 1.3615574477900277e-10 -1.0157396762156674e-09 2.4287108597984727e-05 -3.1526219171244806e-11 -2.0414421560202299e-05 2.5496199856951668e-05 1.9398603368873849e-10 -1.732863811195583e-05 3.1252167748579701e-05 1.0192249014964005e-10 -1.4904100236458433e-05 2.4287108597984731e-05 -3.15262191712448e-11 -2.0414421560202295e-05 3.125216746257513e-05 4.5465614485877937e-11 -3.0419209816045883e-05 2.5496199856951668e-05 1.9398603368873849e-10 -1.732863811195583e-05 3.1252167748579701e-05 1.0192249014964005e-10 -1.4904100236458433e-05 3.1252123823177452e-05 -3.1099411569291305e-11 -1.6150424441459253e-05 3.125216746257513e-05 4.5465614485877937e-11 -3.0419209816045883e-05 2.4287108597984727e-05 -3.1526219171244722e-11 -2.0414421560202302e-05 2.272738245206727e-05 8.4111494638962298e-11 -8.3438676972234166e-10 2.4287108597984731e-05 -3.1526219171244767e-11 -2.0414421560202299e-05 2.6618615223616167e-05 1.3615574477900277e-10 -1.0157396762110221e-09 2.5496199856951668e-05 1.9398603368873849e-10 -1.732863811195583e-05 2.272738245206727e-05 8.4111494638962298e-11 -8.3438676972234166e-10 2.1394132188254936e-05 1.2663764740229503e-10 -2.915307299141713e-05 2.4287108597984731e-05 -3.1526219171244754e-11 -2.0414421560202302e-05 2.5496199856951668e-05 1.9398603368873849e-10 -1.732863811195583e-05 3.1252166353486004e-05 1.9320598935488098e-10 -2.9125945879398488e-05 3.1252167748579701e-05 1.0192249014964005e-10 -1.4904100236458433e-05 3.125216746257513e-05 4.5465614485877937e-11 -3.0419209816045883e-05 2.5496199856951668e-05 1.9398603368873849e-10 -1.732863811195583e-05 2.272738245206727e-05 8.4111494638962298e-11 -8.3438676972234166e-10 2.1039105244102678e-05 -7.4086674726754374e-12 -1.0244454538591219e-09 2.6311755234189151e-05 3.9029615330551477e-11 -1.1625194736897123e-09 2.4287108597984731e-05 -3.1526219171244767e-11 -2.0414421560202299e-05 2.6311755234189151e-05 3.9029615330551477e-11 -1.1625194736889653e-09 3.1252167748579701e-05 1.0192249014964002e-10 -1.4904100236458433e-05 2.661861522361617e-05 1.3615574477900277e-10 -1.0157396762101412e-09 2.4287108597984731e-05 -3.1526219171244767e-11 -2.0414421560202299e-05 2.272738245206727e-05 8.4111494638962298e-11 -8.3438676972234166e-10 2.6311755234189151e-05 3.9029615330551477e-11 -1.1625194736890917e-09 2.661861522361617e-05 1.3615574477900277e-10 -1.0157396762097677e-09 2.4287108597984731e-05 -3.1526219171244767e-11 -2.0414421560202299e-05 2.2046036238471695e-05 1.6045263790824247e-10 -1.2740114710604166e-09 2.272738245206727e-05 8.4111494638962298e-11 -8.3438676972234166e-10 2.661861522361617e-05 1.3615574477900277e-10 -1.0157396762110211e-09 2.5496199856951668e-05 1.9398603368873849e-10 -1.7328638111955834e-05 3.1252167748579701e-05 1.0192249014964005e-10 -1.4904100236458433e-05 2.661861522361617e-05 1.3615574477900277e-10 -1.0157396762084504e-09 3.1252125084374653e-05 1.6790810250231817e-10 -1.1794299294129985e-09 3.1251977016454105e-05 8.9363677113253174e-11 -1.3148151799758689e-09 3.1252167748579701e-05 1.0192249014964005e-10 -1.4904100236458433e-05 2.5496199856951665e-05 1.9398603368873847e-10 -1.732863811195583e-05 3.1252125084374653e-05 1.6790810250231817e-10 -1.1794299294128453e-09 2.661861522361617e-05 1.3615574477900277e-10 -1.0157396762126817e-09 2.6311755234189151e-05 3.9029615330551477e-11 -1.1625194736889653e-09 2.661861522361617e-05 1.3615574477900277e-10 -1.0157396762101412e-09 3.1252167748579701e-05 1.0192249014964005e-10 -1.4904100236458433e-05 3.1251977016454105e-05 8.9363677113253174e-11 -1.3148151799758689e-09 3.1251977016454105e-05 8.9363677113253174e-11 -1.3148151799758689e-09 3.1252167748579701e-05 1.0192249014964005e-10 -1.4904100236458433e-05 2.6311755234189151e-05 3.9029615330551477e-11 -1.1625194736889653e-09 3.1252123823177452e-05 -3.1099411569291279e-11 -1.6150424441459253e-05 3.1251934695021221e-05 -3.483314906916671e-11 -1.5970094377926992e-09 3.1251977016454105e-05 8.9363677113253174e-11 -1.3148151799758689e-09 2.6311755234189151e-05 3.9029615330551477e-11 -1.1625194736889653e-09 3.1252123823177452e-05 -3.1099411569291279e-11 -1.6150424441459253e-05 2.5264191538790807e-05 -1.2924880790297213e-10 -1.4003681143154454e-09 2.6676516394854507e-05 -1.7001895323092624e-10 -9.894381956569251e-10 3.1252148831124052e-05 -8.3630060542426009e-11 -1.5872595867831242e-05 2.1494457011301704e-05 -1.2564146536852528e-10 -2.940690116614592e-05 2.5264191538790807e-05 -1.2924880790297213e-10 -1.4003681143154454e-09 3.1251934695021214e-05 -3.4833149069166749e-11 -1.5970094377971482e-09 2.6311755234189151e-05 3.9029615330551458e-11 -1.162519473689819e-09 3.1252123823177452e-05 -3.1099411569291279e-11 -1.6150424441459253e-05 3.1251934695021221e-05 -3.483314906916671e-11 -1.5970094377926992e-09 2.5264191538790807e-05 -1.2924880790297213e-10 -1.4003681143154454e-09 3.1252148831124052e-05 -8.3630060542425983e-11 -1.5872595867831242e-05 3.1252123823177452e-05 -3.1099411569291279e-11 -1.6150424441459253e-05 2.5264191538790807e-05 -1.2924880790297213e-10 -1.4003681143154454e-09 2.1494457011301708e-05 -1.2564146536852533e-10 -2.940690116614592e-05 3.1252148831124052e-05 -8.3630060542425996e-11 -1.5872595867831239e-05 2.4287108597984734e-05 -3.1526219171244741e-11 -2.0414421560202295e-05 2.6311755234189151e-05 3.9029615330551477e-11 -1.1625194736889653e-09 2.1039105244102678e-05 -7.4086674726754326e-12 -1.024445453859624e-09 2.5264191538790807e-05 -1.2924880790297213e-10 -1.4003681143154454e-09 2.4287108597984731e-05 -3.1526219171244767e-11 -2.0414421560202299e-05 2.6311755234189151e-05 3.9029615330551477e-11 -1.1625194736889653e-09 2.5264191538790807e-05 -1.2924880790297213e-10 -1.4003681143154454e-09 3.1252123823177458e-05 -3.1099411569291292e-11 -1.6150424441459253e-05 2.4287108597984731e-05 -3.1526219171244767e-11 -2.0414421560202299e-05 2.5264191538790807e-05 -1.2924880790297213e-10 -1.4003681143154454e-09 3.1252148831124052e-05 -8.3630060542425983e-11 -1.5872595867831236e-05 3.1252123823177452e-05 -3.1099411569291279e-11 -1.6150424441459253e-05 2.4287108597984731e-05 -3.1526219171244767e-11 -2.0414421560202299e-05 3.1252148831124052e-05 -8.3630060542425983e-11 -1.5872595867831242e-05 3.1252158242760534e-05 -9.1111864120454221e-11 -3.0867993469993535e-05 3.1252123823177452e-05 -3.1099411569291286e-11 -1.6150424441459257e-05 2.4287108597984731e-05 -3.1526219171244774e-11 -2.0414421560202302e-05 3.1252148831124052e-05 -8.3630060542425983e-11 -1.5872595867831242e-05 2.526419153879081e-05 -1.2924880790297213e-10 -1.4003681143156513e-09 3.1251934695021221e-05 -3.483314906916671e-11 -1.5970094377926992e-09 3.1251976227937521e-05 -2.0729335321217196e-10 -1.3635422633437039e-09 3.1252148831124052e-05 -8.3630060542425983e-11 -1.5872595867831242e-05 2.526419153879081e-05 -1.2924880790297216e-10 -1.400368114319762e-09 3.1251976227937521e-05 -2.0729335321217196e-10 -1.3635422633437039e-09 2.6676516394854507e-05 -1.7001895323092624e-10 -9.894381956569251e-10 3.1251976227937521e-05 -2.0729335321217196e-10 -1.3635422633437039e-09 3.1252212145629865e-05 -1.7448327155617113e-10 -1.3726866283263597e-05 3.1252148831124052e-05 -8.3630060542425983e-11 -1.5872595867831242e-05 2.6676516394854507e-05 -1.7001895323092624e-10 -9.894381956569251e-10 2.5957343158330825e-05 -3.0337269684835903e-10 -2.8142895593642195e-05 2.6676530061080745e-05 -2.2889254046990475e-10 -1.3726829944334668e-05 2.1436524375928471e-05 -3.6630004793560972e-10 -1.6171576764625841e-05 2.1494457011301708e-05 -1.2564146536852533e-10 -2.940690116614592e-05 2.5264191538790807e-05 -1.2924880790297213e-10 -1.4003681143154454e-09 2.1683058177578859e-05 -2.2208048147275875e-10 -1.1986846887360333e-09 2.6676516394854507e-05 -1.7001895323092624e-10 -9.894381956569251e-10 2.1494457011301708e-05 -1.256414653685253e-10 -2.9406901166145916e-05 3.1252166329238629e-05 -1.6580329715304268e-10 -2.963565120143995e-05 3.1252148831124052e-05 -8.3630060542425983e-11 -1.5872595867831242e-05 3.1252212145629865e-05 -1.7448327155617113e-10 -1.3726866283263597e-05 2.1494457011301708e-05 -1.256414653685253e-10 -2.940690116614592e-05 3.1252212145629865e-05 -1.7448327155617113e-10 -1.3726866283263597e-05 3.1252148831124052e-05 -8.3630060542425983e-11 -1.5872595867831242e-05 2.667651639485451e-05 -1.7001895323092627e-10 -9.8943819565881769e-10 2.1494457011301711e-05 -1.2564146536852525e-10 -2.9406901166145913e-05 3.1252212145629865e-05 -1.7448327155617113e-10 -1.3726866283263597e-05 2.6676530061080745e-05 -2.288925404699048e-10 -1.3726829944334671e-05 2.5957343158330821e-05 -3.0337269684835898e-10 -2.8142895593642188e-05 2.1494457011301711e-05 -1.2564146536852543e-10 -2.940690116614593e-05 3.1252212145629865e-05 -1.7448327155617113e-10 -1.3726866283263597e-05 2.6676516394854507e-05 -1.7001895323092624e-10 -9.8943819565731429e-10 2.6676530061080745e-05 -2.2889254046990475e-10 -1.3726829944334668e-05 2.1494457011301711e-05 -1.2564146536852533e-10 -2.9406901166145913e-05 2.1683058177578859e-05 -2.2208048147275875e-10 -1.1986846887365518e-09 2.6676530061080745e-05 -2.2889254046990475e-10 -1.3726829944334669e-05 2.6676516394854507e-05 -1.7001895323092624e-10 -9.894381956569251e-10 2.1494457011301708e-05 -1.256414653685253e-10 -2.940690116614592e-05 2.6676530061080745e-05 -2.2889254046990475e-10 -1.3726829944334668e-05 2.5957343158330825e-05 -3.0337269684835903e-10 -2.8142895593642195e-05 3.1252087443833531e-05 -3.0912657067196572e-10 -1.8750819696330359e-05 3.1252212145629865e-05 -1.7448327155617113e-10 -1.3726866283263597e-05 2.5957343158330825e-05 -3.0337269684835903e-10 -2.8142895593642195e-05 3.1252166329238629e-05 -1.6580329715304268e-10 -2.963565120143995e-05 3.1252087443833531e-05 -3.0912657067196572e-10 -1.8750819696330359e-05 3.1252212145629865e-05 -1.7448327155617113e-10 -1.3726866283263597e-05 2.6676516394854507e-05 -1.7001895323092624e-10 -9.894381956569251e-10 3.1252023361992765e-05 -3.3873677481742156e-10 -1.3015664319409335e-09 2.6676530061080745e-05 -2.2889254046990475e-10 -1.3726829944334668e-05 2.5001767083322666e-05 -3.1832537892970663e-10 -1.2118761906241497e-09 2.6676530061080745e-05 -2.2889254046990475e-10 -1.3726829944334668e-05 3.1252087443833531e-05 -3.0912657067196572e-10 -1.8750819696330359e-05 3.1252023361992758e-05 -3.3873677481742151e-10 -1.3015664319395953e-09 3.1252212145629865e-05 -1.7448327155617113e-10 -1.3726866283263597e-05 3.1252023361992765e-05 -3.3873677481742156e-10 -1.3015664319409335e-09 3.1252212145629865e-05 -1.7448327155617113e-10 -1.3726866283263597e-05 3.1251976227937514e-05 -2.0729335321217194e-10 -1.363542263342593e-09 2.6676516394854507e-05 -1.7001895323092624e-10 -9.894381956569251e-10 3.1252212145629865e-05 -1.7448327155617113e-10 -1.3726866283263597e-05 3.1252023361992758e-05 -3.3873677481742151e-10 -1.3015664319398226e-09 2.6676530061080745e-05 -2.2889254046990475e-10 -1.3726829944334668e-05 2.6676516394854507e-05 -1.7001895323092624e-10 -9.894381956569251e-10 2.1436524375928471e-05 -3.6630004793560972e-10 -1.6171576764625841e-05 2.1683058177578859e-05 -2.2208048147275875e-10 -1.1986846887365518e-09 2.6676530061080745e-05 -2.2889254046990483e-10 -1.3726829944334666e-05 2.5001767083322666e-05 -3.1832537892970663e-10 -1.2118761906241497e-09 2.6676516394854507e-05 -1.7001895323092624e-10 -9.894381956569251e-10 2.6676530061080745e-05 -2.2889254046990475e-10 -1.3726829944334668e-05 2.1683058177578859e-05 -2.2208048147275875e-10 -1.1986846887371072e-09 2.5001767083322666e-05 -3.1832537892970663e-10 -1.2118761906241497e-09 2.1436524375928471e-05 -3.6630004793560972e-10 -1.6171576764625841e-05 2.1494457011301711e-05 -1.2564146536852528e-10 -2.9406901166145927e-05 2.1683058177578856e-05 -2.2208048147275875e-10 -1.1986846887343448e-09 1.563858334023532e-05 -2.1791482584440454e-10 -2.1173425769283042e-05 2.1436524375928471e-05 -3.6630004793560972e-10 -1.6171576764625841e-05 2.6676530061080745e-05 -2.2889254046990475e-10 -1.3726829944334668e-05 2.1683058177578859e-05 -2.2208048147275875e-10 -1.198684688736114e-09 2.1494457011301704e-05 -1.2564146536852523e-10 -2.9406901166145923e-05 2.1683058177578859e-05 -2.2208048147275875e-10 -1.1986846887365518e-09 2.1436524375928471e-05 -3.6630004793560972e-10 -1.6171576764625837e-05 1.8751315668178582e-05 -2.9955796606732462e-10 -1.3680747194109295e-09 2.5001767083322666e-05 -3.1832537892970663e-10 -1.2118761906241497e-09 1.5436000795116352e-05 -3.0158469890278163e-10 -1.2411359611427618e-05 1.2500863388171045e-05 -3.255182453016061e-10 -1.6298252423434329e-09 1.5928231637793098e-05 -1.9340447038210617e-10 -1.1798393184987478e-09 1.8751315668178582e-05 -2.9955796606732462e-10 -1.3680747194109295e-09 1.5928231637793098e-05 -1.9340447038210617e-10 -1.1798393184987478e-09 2.1683058177578859e-05 -2.2208048147275875e-10 -1.1986846887365518e-09 2.1436524375928471e-05 -3.6630004793560972e-10 -1.6171576764625841e-05 1.8751315668178582e-05 -2.9955796606732462e-10 -1.3680747194109295e-09 2.1436524375928471e-05 -3.6630004793560972e-10 -1.6171576764625841e-05 1.5436000795116352e-05 -3.0158469890278163e-10 -1.2411359611427618e-05 1.5928231637793098e-05 -1.9340447038210617e-10 -1.1798393184987478e-09 1.8751315668178582e-05 -2.9955796606732462e-10 -1.3680747194109295e-09 1.4903632373037122e-05 -3.6922521303966338e-10 -2.9757897784731912e-05 2.1436524375928471e-05 -3.6630004793560972e-10 -1.6171576764625841e-05 1.5436000795116352e-05 -3.0158469890278163e-10 -1.2411359611427618e-05 1.5638583340235323e-05 -2.1791482584440446e-10 -2.1173425769283046e-05 1.5436000795116352e-05 -3.0158469890278163e-10 -1.2411359611427618e-05 2.1436524375928471e-05 -3.6630004793560972e-10 -1.6171576764625841e-05 1.5928231637793098e-05 -1.9340447038210617e-10 -1.1798393184987478e-09 1.5638583340235323e-05 -2.1791482584440446e-10 -2.1173425769283046e-05 1.5928231637793098e-05 -1.9340447038210617e-10 -1.1798393184987478e-09 2.1436524375928475e-05 -3.6630004793560977e-10 -1.6171576764625837e-05 2.1683058177578859e-05 -2.2208048147275875e-10 -1.1986846887365518e-09 1.5638583340235323e-05 -2.1791482584440444e-10 -2.1173425769283046e-05 1.9078498017450595e-05 -1.0904348789919561e-10 -1.1190279863319542e-09 1.5928231637793098e-05 -1.9340447038210617e-10 -1.1798393184987478e-09 2.1683058177578859e-05 -2.2208048147275875e-10 -1.1986846887365518e-09 1.5638583340235323e-05 -2.1791482584440446e-10 -2.1173425769283046e-05 1.9078498017450595e-05 -1.0904348789919561e-10 -1.1190279863319542e-09 2.1494457011301704e-05 -1.2564146536852528e-10 -2.9406901166145916e-05 2.5264191538790807e-05 -1.2924880790297213e-10 -1.4003681143154454e-09 2.4287108597984731e-05 -3.1526219171244767e-11 -2.0414421560202299e-05 1.9078498017450595e-05 -1.0904348789919561e-10 -1.1190279863319542e-09 2.1683058177578859e-05 -2.2208048147275875e-10 -1.1986846887365518e-09 2.1494457011301708e-05 -1.2564146536852533e-10 -2.9406901166145916e-05 1.5638583340235323e-05 -2.1791482584440446e-10 -2.1173425769283046e-05 2.5264191538790807e-05 -1.2924880790297213e-10 -1.4003681143154454e-09 1.9078498017450595e-05 -1.0904348789919561e-10 -1.1190279863329912e-09 2.1683058177578859e-05 -2.2208048147275875e-10 -1.1986846887365518e-09 2.1494457011301708e-05 -1.2564146536852528e-10 -2.9406901166145916e-05 1.9078498017450595e-05 -1.0904348789919561e-10 -1.1190279863319542e-09 1.4317331061876068e-05 -1.2010786202920817e-10 -1.0177394755194075e-09 1.5928231637793098e-05 -1.9340447038210617e-10 -1.1798393184980278e-09 1.5638583340235323e-05 -2.1791482584440446e-10 -2.1173425769283046e-05 1.4317331061876068e-05 -1.2010786202920817e-10 -1.0177394755194075e-09 1.9078498017450595e-05 -1.0904348789919561e-10 -1.1190279863319542e-09 1.563871014645135e-05 -2.063245265171637e-11 -2.3403594931423644e-05 1.5638583340235323e-05 -2.1791482584440446e-10 -2.1173425769283046e-05 2.4287108597984731e-05 -3.1526219171244767e-11 -2.0414421560202299e-05 1.9078498017450595e-05 -1.0904348789919561e-10 -1.1190279863327859e-09 1.5638710146451347e-05 -2.0632452651716361e-11 -2.3403594931423644e-05 2.1039105244102678e-05 -7.4086674726754407e-12 -1.0244454538596433e-09 2.1494457011301708e-05 -1.256414653685253e-10 -2.940690116614592e-05 1.563871014645135e-05 -2.063245265171637e-11 -2.3403594931423644e-05 1.9078498017450591e-05 -1.0904348789919561e-10 -1.1190279863336896e-09 1.5638583340235327e-05 -2.1791482584440441e-10 -2.1173425769283042e-05 2.4287108597984731e-05 -3.1526219171244767e-11 -2.0414421560202299e-05 1.563871014645135e-05 -2.063245265171637e-11 -2.3403594931423644e-05 1.9078498017450595e-05 -1.090434878991956e-10 -1.119027986331104e-09 2.1494457011301708e-05 -1.256414653685253e-10 -2.940690116614592e-05 1.6239155153754883e-05 2.3903561875270402e-11 -1.3010116391736113e-09 1.9078498017450595e-05 -1.0904348789919561e-10 -1.1190279863317912e-09 2.1039105244102678e-05 -7.4086674726754407e-12 -1.0244454538598062e-09 1.563871014645135e-05 -2.063245265171637e-11 -2.3403594931423644e-05 1.4317331061876068e-05 -1.2010786202920817e-10 -1.0177394755194075e-09 1.9078498017450595e-05 -1.0904348789919561e-10 -1.1190279863319542e-09 1.6239155153754883e-05 2.3903561875270402e-11 -1.3010116391736113e-09 1.563871014645135e-05 -2.063245265171637e-11 -2.3403594931423644e-05 1.9078498017450595e-05 -1.0904348789919561e-10 -1.1190279863319542e-09 2.5264191538790807e-05 -1.2924880790297213e-10 -1.4003681143154454e-09 2.1039105244102681e-05 -7.4086674726754568e-12 -1.0244454538614566e-09 2.4287108597984731e-05 -3.1526219171244767e-11 -2.0414421560202299e-05 2.1494457011301708e-05 -1.256414653685253e-10 -2.940690116614592e-05 2.3453183028271061e-05 1.7670110363840091e-11 -4.6722008888558391e-05 1.5626091574759127e-05 -1.8183402471537636e-12 -4.6875145498662381e-05 1.564908964606535e-05 -1.6208601468792423e-10 -4.9581301137518186e-05 2.3453183028271061e-05 1.7670110363840098e-11 -4.6722008888558391e-05 1.564908964606535e-05 -1.6208601468792426e-10 -4.9581301137518186e-05 2.1494457011301704e-05 -1.256414653685253e-10 -2.9406901166145916e-05 2.436852018781225e-05 -1.7585887877413064e-10 -4.6888886052760523e-05 1.5626091574759127e-05 -1.8183402471537628e-12 -4.6875145498662381e-05 2.3453183028271061e-05 1.7670110363840098e-11 -4.6722008888558391e-05 2.1494457011301704e-05 -1.2564146536852523e-10 -2.9406901166145916e-05 1.5638710146451347e-05 -2.0632452651716341e-11 -2.3403594931423634e-05 2.1494457011301708e-05 -1.256414653685253e-10 -2.940690116614592e-05 1.5638710146451347e-05 -2.0632452651716374e-11 -2.3403594931423644e-05 2.3453183028271061e-05 1.7670110363840098e-11 -4.6722008888558391e-05 2.4287108597984731e-05 -3.1526219171244767e-11 -2.0414421560202299e-05 1.564908964606535e-05 -1.6208601468792426e-10 -4.9581301137518186e-05 1.5638710146451343e-05 -2.0632452651716383e-11 -2.3403594931423647e-05 2.1494457011301704e-05 -1.256414653685253e-10 -2.940690116614592e-05 1.5638583340235323e-05 -2.1791482584440454e-10 -2.1173425769283049e-05 1.5626091574759127e-05 -1.8183402471537628e-12 -4.6875145498662381e-05 2.1494457011301704e-05 -1.256414653685253e-10 -2.940690116614592e-05 1.564908964606535e-05 -1.6208601468792426e-10 -4.9581301137518186e-05 1.5638710146451347e-05 -2.063245265171638e-11 -2.3403594931423637e-05 2.5957343158330825e-05 -3.0337269684835903e-10 -2.8142895593642195e-05 2.1494457011301708e-05 -1.256414653685253e-10 -2.940690116614592e-05 2.0892795786309742e-05 -3.3362506126676283e-10 -3.6124631369019249e-05 2.436852018781225e-05 -1.7585887877413066e-10 -4.688888605276053e-05 2.1436524375928471e-05 -3.6630004793560972e-10 -1.6171576764625841e-05 2.0892795786309742e-05 -3.3362506126676283e-10 -3.6124631369019249e-05 2.5957343158330825e-05 -3.0337269684835903e-10 -2.8142895593642195e-05 2.1494457011301708e-05 -1.256414653685253e-10 -2.940690116614592e-05 2.0892795786309742e-05 -3.3362506126676283e-10 -3.6124631369019249e-05 1.4903632373037122e-05 -3.6922521303966338e-10 -2.9757897784731912e-05 1.5649089646065353e-05 -1.6208601468792431e-10 -4.9581301137518179e-05 1.5638583340235323e-05 -2.1791482584440449e-10 -2.1173425769283052e-05 2.1554541900823904e-05 -2.5665715522879305e-10 -5.0793654682232728e-05 2.0892795786309742e-05 -3.3362506126676283e-10 -3.6124631369019249e-05 1.564908964606535e-05 -1.6208601468792428e-10 -4.9581301137518186e-05 2.436852018781225e-05 -1.7585887877413066e-10 -4.688888605276053e-05 2.1436524375928471e-05 -3.6630004793560972e-10 -1.6171576764625841e-05 2.0892795786309742e-05 -3.3362506126676283e-10 -3.6124631369019249e-05 2.1494457011301708e-05 -1.256414653685253e-10 -2.9406901166145923e-05 1.563858334023532e-05 -2.1791482584440452e-10 -2.1173425769283046e-05 2.0892795786309742e-05 -3.3362506126676283e-10 -3.6124631369019249e-05 1.5649089646065347e-05 -1.6208601468792426e-10 -4.9581301137518179e-05 2.1494457011301715e-05 -1.2564146536852528e-10 -2.940690116614592e-05 1.5638583340235323e-05 -2.1791482584440444e-10 -2.1173425769283052e-05 2.1494457011301708e-05 -1.256414653685253e-10 -2.940690116614592e-05 1.564908964606535e-05 -1.6208601468792426e-10 -4.9581301137518179e-05 2.0892795786309742e-05 -3.3362506126676283e-10 -3.6124631369019249e-05 2.436852018781225e-05 -1.7585887877413066e-10 -4.688888605276053e-05 2.1436524375928471e-05 -3.6630004793560972e-10 -1.6171576764625841e-05 1.4903632373037122e-05 -3.6922521303966338e-10 -2.9757897784731912e-05 2.0892795786309742e-05 -3.3362506126676283e-10 -3.6124631369019249e-05 1.5638583340235327e-05 -2.1791482584440449e-10 -2.1173425769283046e-05 1.5626086726334145e-05 -3.190981810924936e-10 -4.5036277833226017e-05 2.0892795786309742e-05 -3.3362506126676283e-10 -3.6124631369019249e-05 1.4903632373037122e-05 -3.6922521303966338e-10 -2.9757897784731912e-05 1.564908964606535e-05 -1.6208601468792426e-10 -4.9581301137518186e-05 1.5626086726334145e-05 -3.190981810924936e-10 -4.5036277833226017e-05 2.1554541900823904e-05 -2.5665715522879305e-10 -5.0793654682232728e-05 2.0892795786309742e-05 -3.3362506126676283e-10 -3.6124631369019249e-05 1.564908964606535e-05 -1.6208601468792426e-10 -4.9581301137518186e-05 2.0892795786309742e-05 -3.3362506126676283e-10 -3.6124631369019249e-05 2.15545419008239e-05 -2.5665715522879305e-10 -5.0793654682232728e-05 2.61065122772437e-05 -3.0296110130401931e-10 -4.5965811879765387e-05 2.436852018781225e-05 -1.7585887877413066e-10 -4.688888605276053e-05 3.1252166329238629e-05 -1.6580329715304268e-10 -2.963565120143995e-05 2.1494457011301708e-05 -1.256414653685253e-10 -2.940690116614592e-05 2.5957343158330825e-05 -3.0337269684835903e-10 -2.8142895593642192e-05 2.436852018781225e-05 -1.7585887877413064e-10 -4.688888605276053e-05 3.1252166329238629e-05 -1.6580329715304268e-10 -2.963565120143995e-05 3.1252212145629865e-05 -1.7448327155617113e-10 -1.3726866283263597e-05 2.5957343158330825e-05 -3.0337269684835903e-10 -2.8142895593642195e-05 2.1494457011301708e-05 -1.256414653685253e-10 -2.940690116614592e-05 2.61065122772437e-05 -3.0296110130401931e-10 -4.5965811879765387e-05 2.5957343158330825e-05 -3.0337269684835903e-10 -2.8142895593642195e-05 2.0892795786309742e-05 -3.3362506126676283e-10 -3.6124631369019249e-05 2.4368520187812246e-05 -1.7585887877413064e-10 -4.6888886052760523e-05 2.61065122772437e-05 -3.0296110130401931e-10 -4.5965811879765387e-05 3.1252166329238629e-05 -1.6580329715304265e-10 -2.963565120143995e-05 2.5957343158330825e-05 -3.0337269684835903e-10 -2.8142895593642195e-05 2.4368520187812253e-05 -1.7585887877413069e-10 -4.6888886052760536e-05 2.5957343158330825e-05 -3.0337269684835903e-10 -2.8142895593642195e-05 2.61065122772437e-05 -3.0296110130401921e-10 -4.5965811879765393e-05 3.1252068381184726e-05 -3.6347967403547253e-10 -3.7500420950963977e-05 3.1252166329238629e-05 -1.6580329715304268e-10 -2.963565120143995e-05 2.61065122772437e-05 -3.0296110130401931e-10 -4.5965811879765387e-05 3.1252142546079878e-05 -2.2477233592063207e-10 -4.7781561657049207e-05 3.125206738745957e-05 -4.0355542982053072e-10 -5.6250012957097057e-05 3.1252068381184726e-05 -3.6347967403547248e-10 -3.7500420950963977e-05 3.1252068381184726e-05 -3.6347967403547248e-10 -3.7500420950963977e-05 2.61065122772437e-05 -3.0296110130401931e-10 -4.5965811879765387e-05 3.1252142546079891e-05 -2.2477233592063212e-10 -4.7781561657049214e-05 3.1252166329238629e-05 -1.6580329715304268e-10 -2.963565120143995e-05 3.1252166329238629e-05 -1.6580329715304268e-10 -2.963565120143995e-05 3.1252068381184719e-05 -3.6347967403547243e-10 -3.7500420950963977e-05 2.5957343158330825e-05 -3.0337269684835903e-10 -2.8142895593642195e-05 3.1252087443833531e-05 -3.0912657067196572e-10 -1.8750819696330359e-05 3.12521667706808e-05 -1.2220129079236343e-10 -4.2949360878258346e-05 3.1252166329238629e-05 -1.6580329715304268e-10 -2.963565120143995e-05 3.1252142546079885e-05 -2.2477233592063212e-10 -4.7781561657049207e-05 2.436852018781225e-05 -1.7585887877413066e-10 -4.688888605276053e-05 2.61065122772437e-05 -3.0296110130401931e-10 -4.5965811879765387e-05 3.1252142546079885e-05 -2.2477233592063214e-10 -4.7781561657049214e-05 3.1252166329238622e-05 -1.6580329715304265e-10 -2.963565120143995e-05 2.4368520187812246e-05 -1.7585887877413061e-10 -4.6888886052760516e-05 3.1252158242760534e-05 -9.1111864120454221e-11 -3.0867993469993535e-05 2.1494457011301708e-05 -1.256414653685253e-10 -2.9406901166145923e-05 2.3453183028271061e-05 1.7670110363840053e-11 -4.6722008888558378e-05 2.4287108597984731e-05 -3.1526219171244767e-11 -2.0414421560202299e-05 3.1252158242760534e-05 -9.1111864120454221e-11 -3.0867993469993535e-05 3.1252166329238629e-05 -1.6580329715304268e-10 -2.963565120143995e-05 3.12521667706808e-05 -1.2220129079236343e-10 -4.2949360878258346e-05 2.1494457011301708e-05 -1.256414653685253e-10 -2.940690116614592e-05 3.12521667706808e-05 -1.2220129079236343e-10 -4.2949360878258346e-05 2.3453183028271061e-05 1.7670110363840101e-11 -4.6722008888558405e-05 2.1494457011301704e-05 -1.2564146536852528e-10 -2.9406901166145916e-05 2.4368520187812246e-05 -1.7585887877413064e-10 -4.6888886052760536e-05 3.1252148831124052e-05 -8.3630060542425983e-11 -1.5872595867831242e-05 3.1252166329238629e-05 -1.6580329715304268e-10 -2.9635651201439947e-05 3.1252158242760534e-05 -9.1111864120454221e-11 -3.0867993469993535e-05 2.1494457011301708e-05 -1.256414653685253e-10 -2.940690116614592e-05 3.12521667706808e-05 -1.2220129079236343e-10 -4.2949360878258346e-05 2.1494457011301708e-05 -1.256414653685253e-10 -2.9406901166145916e-05 3.1252166329238629e-05 -1.6580329715304268e-10 -2.963565120143995e-05 2.4368520187812257e-05 -1.7585887877413071e-10 -4.6888886052760543e-05 3.1252148831124052e-05 -8.3630060542425983e-11 -1.5872595867831242e-05 2.1494457011301708e-05 -1.256414653685253e-10 -2.9406901166145916e-05 3.1252158242760534e-05 -9.1111864120454221e-11 -3.0867993469993535e-05 2.4287108597984727e-05 -3.1526219171244722e-11 -2.0414421560202295e-05 3.1252158242760534e-05 -9.1111864120454221e-11 -3.0867993469993535e-05 2.1494457011301708e-05 -1.256414653685253e-10 -2.940690116614592e-05 3.12521667706808e-05 -1.2220129079236343e-10 -4.2949360878258346e-05 2.3453183028271064e-05 1.767011036384003e-11 -4.6722008888558391e-05 3.125216746257513e-05 4.5465614485877937e-11 -3.0419209816045883e-05 3.1252123823177452e-05 -3.1099411569291279e-11 -1.6150424441459253e-05 3.1252158242760534e-05 -9.1111864120454221e-11 -3.0867993469993535e-05 2.4287108597984731e-05 -3.1526219171244767e-11 -2.0414421560202299e-05 3.1252158242760534e-05 -9.1111864120454221e-11 -3.0867993469993535e-05 3.12521667706808e-05 -1.2220129079236343e-10 -4.2949360878258346e-05 3.1252067547811994e-05 -2.511011643419489e-12 -4.8714093318113173e-05 2.3453183028271064e-05 1.7670110363840104e-11 -4.6722008888558391e-05 3.1252178986783767e-05 -1.1018974368347008e-10 -5.6205340981771181e-05 2.3453183028271061e-05 1.7670110363840098e-11 -4.6722008888558391e-05 2.1483630083498666e-05 -1.2626130389922377e-10 -6.4446091765507518e-05 2.438272319316095e-05 -3.2173552571181537e-12 -7.3142528268015769e-05 3.1252178986783767e-05 -1.1018974368347008e-10 -5.6205340981771181e-05 3.1252168843820854e-05 -7.2958205170638278e-11 -6.8178716849210739e-05 2.1483630083498666e-05 -1.2626130389922383e-10 -6.4446091765507532e-05 2.5501689327735343e-05 -1.649321800735929e-10 -7.6499111513702664e-05 3.1252178986783767e-05 -1.1018974368347008e-10 -5.6205340981771181e-05 3.1252141505361077e-05 1.8875044654240759e-11 -6.3112841208738655e-05 3.1252067547811994e-05 -2.511011643419489e-12 -4.8714093318113173e-05 2.3453183028271061e-05 1.7670110363840098e-11 -4.6722008888558391e-05 3.1252178986783767e-05 -1.1018974368347008e-10 -5.6205340981771181e-05 2.3453183028271061e-05 1.7670110363840098e-11 -4.6722008888558391e-05 3.12521667706808e-05 -1.2220129079236343e-10 -4.2949360878258346e-05 2.4368520187812246e-05 -1.7585887877413064e-10 -4.688888605276053e-05 2.1483630083498666e-05 -1.2626130389922377e-10 -6.4446091765507518e-05 2.4368520187812246e-05 -1.7585887877413064e-10 -4.688888605276053e-05 3.1252178986783767e-05 -1.1018974368347006e-10 -5.6205340981771181e-05 2.5501689327735343e-05 -1.6493218007359287e-10 -7.6499111513702664e-05 3.1252178986783767e-05 -1.1018974368347008e-10 -5.6205340981771181e-05 2.1483630083498666e-05 -1.2626130389922377e-10 -6.4446091765507518e-05 2.3453183028271061e-05 1.7670110363840075e-11 -4.6722008888558391e-05 2.4368520187812246e-05 -1.7585887877413064e-10 -4.6888886052760523e-05 3.1252141505361077e-05 1.8875044654240759e-11 -6.3112841208738655e-05 2.3453183028271057e-05 1.7670110363840091e-11 -4.6722008888558391e-05 3.1252178986783767e-05 -1.1018974368347008e-10 -5.6205340981771181e-05 2.4382723193160947e-05 -3.2173552571181521e-12 -7.3142528268015769e-05 3.1252168843820854e-05 -7.2958205170638278e-11 -6.8178716849210739e-05 3.1252178986783767e-05 -1.1018974368347008e-10 -5.6205340981771181e-05 2.1483630083498662e-05 -1.2626130389922383e-10 -6.4446091765507518e-05 2.438272319316095e-05 -3.2173552571180709e-12 -7.3142528268015756e-05 3.1252178986783767e-05 -1.1018974368347008e-10 -5.6205340981771181e-05 3.1252067547811994e-05 -2.511011643419489e-12 -4.8714093318113173e-05 3.12521667706808e-05 -1.2220129079236343e-10 -4.2949360878258346e-05 2.3453183028271061e-05 1.7670110363840098e-11 -4.6722008888558391e-05 3.1252168843820854e-05 -7.2958205170638278e-11 -6.8178716849210739e-05 3.1252141505361077e-05 1.8875044654240759e-11 -6.3112841208738655e-05 3.1252178986783767e-05 -1.1018974368347008e-10 -5.6205340981771181e-05 2.438272319316095e-05 -3.2173552571181537e-12 -7.3142528268015769e-05 3.1252178986783767e-05 -1.1018974368347008e-10 -5.6205340981771181e-05 3.1252172825343627e-05 -1.9950877615732826e-10 -6.6155165092249502e-05 3.1252168843820854e-05 -7.2958205170638278e-11 -6.8178716849210739e-05 2.5501689327735343e-05 -1.6493218007359287e-10 -7.6499111513702664e-05 3.1252178986783767e-05 -1.1018974368347008e-10 -5.6205340981771181e-05 3.12521667706808e-05 -1.2220129079236343e-10 -4.2949360878258346e-05 3.1252142546079885e-05 -2.2477233592063212e-10 -4.7781561657049207e-05 2.436852018781225e-05 -1.7585887877413066e-10 -4.688888605276053e-05 3.1252142546079885e-05 -2.2477233592063212e-10 -4.7781561657049207e-05 2.5461174039536752e-05 -3.2728694604033963e-10 -6.4607547525302034e-05 3.1252172825343627e-05 -1.9950877615732826e-10 -6.6155165092249502e-05 2.436852018781225e-05 -1.7585887877413064e-10 -4.688888605276053e-05 2.5461174039536748e-05 -3.2728694604033963e-10 -6.4607547525302047e-05 2.4368520187812246e-05 -1.7585887877413069e-10 -4.6888886052760523e-05 2.1483630083498669e-05 -1.2626130389922372e-10 -6.4446091765507505e-05 2.5501689327735343e-05 -1.6493218007359287e-10 -7.6499111513702664e-05 2.5461174039536748e-05 -3.2728694604033963e-10 -6.4607547525302047e-05 3.1252172825343627e-05 -1.9950877615732826e-10 -6.6155165092249502e-05 2.436852018781225e-05 -1.7585887877413069e-10 -4.688888605276053e-05 2.5501689327735343e-05 -1.6493218007359287e-10 -7.6499111513702664e-05 3.1252172825343627e-05 -1.9950877615732826e-10 -6.6155165092249502e-05 3.1252178986783767e-05 -1.1018974368347008e-10 -5.6205340981771181e-05 2.436852018781225e-05 -1.7585887877413066e-10 -4.688888605276053e-05 2.5501689327735343e-05 -1.6493218007359287e-10 -7.6499111513702664e-05 3.1252142546079885e-05 -2.2477233592063212e-10 -4.7781561657049207e-05 3.1252172825343627e-05 -1.9950877615732826e-10 -6.6155165092249502e-05 3.1252178986783767e-05 -1.1018974368347008e-10 -5.6205340981771181e-05 2.436852018781225e-05 -1.7585887877413066e-10 -4.688888605276053e-05 3.1252172825343627e-05 -1.9950877615732826e-10 -6.6155165092249502e-05 2.5461174039536748e-05 -3.2728694604033963e-10 -6.4607547525302047e-05 3.125206738745957e-05 -4.0355542982053072e-10 -5.6250012957097057e-05 3.12521209956199e-05 -3.2957655825737756e-10 -7.4999628870343378e-05 2.5461174039536748e-05 -3.2728694604033963e-10 -6.4607547525302047e-05 3.125206738745957e-05 -4.0355542982053072e-10 -5.6250012957097057e-05 3.1252142546079885e-05 -2.2477233592063212e-10 -4.7781561657049207e-05 3.1252172825343627e-05 -1.9950877615732826e-10 -6.6155165092249502e-05 3.1252142546079885e-05 -2.2477233592063212e-10 -4.7781561657049207e-05 3.1252067387459563e-05 -4.0355542982053072e-10 -5.6250012957097057e-05 2.5461174039536748e-05 -3.2728694604033963e-10 -6.4607547525302047e-05 2.6106512277243693e-05 -3.0296110130401926e-10 -4.596581187976538e-05 2.5461174039536748e-05 -3.2728694604033963e-10 -6.4607547525302047e-05 2.61065122772437e-05 -3.0296110130401931e-10 -4.5965811879765387e-05 2.1554541900823904e-05 -2.5665715522879305e-10 -5.0793654682232728e-05 2.436852018781225e-05 -1.7585887877413066e-10 -4.688888605276053e-05 2.5461174039536748e-05 -3.2728694604033963e-10 -6.4607547525302047e-05 3.1252142546079885e-05 -2.2477233592063212e-10 -4.7781561657049207e-05 2.61065122772437e-05 -3.0296110130401931e-10 -4.5965811879765387e-05 2.436852018781225e-05 -1.7585887877413066e-10 -4.688888605276053e-05 2.1554541900823904e-05 -2.5665715522879305e-10 -5.0793654682232728e-05 1.875762548390769e-05 -3.7000652387478448e-10 -6.3329681230762952e-05 2.1483630083498666e-05 -1.2626130389922377e-10 -6.4446091765507518e-05 1.564908964606535e-05 -1.6208601468792426e-10 -4.9581301137518193e-05 1.875762548390769e-05 -3.7000652387478448e-10 -6.3329681230762952e-05 2.5461174039536748e-05 -3.2728694604033963e-10 -6.4607547525302047e-05 2.1554541900823904e-05 -2.5665715522879305e-10 -5.0793654682232728e-05 2.1483630083498666e-05 -1.2626130389922377e-10 -6.4446091765507518e-05 2.5461174039536748e-05 -3.2728694604033963e-10 -6.4607547525302047e-05 2.1554541900823904e-05 -2.5665715522879305e-10 -5.0793654682232728e-05 2.1483630083498666e-05 -1.2626130389922377e-10 -6.4446091765507505e-05 2.436852018781225e-05 -1.7585887877413064e-10 -4.6888886052760536e-05 2.1703942734477724e-05 -3.0166941634250579e-10 -7.8843148225487837e-05 2.1483630083498666e-05 -1.2626130389922377e-10 -6.4446091765507518e-05 1.8757625483907693e-05 -3.7000652387478448e-10 -6.3329681230762952e-05 1.5652563704080093e-05 -1.9179272123437364e-10 -7.3204049675458597e-05 2.1483630083498666e-05 -1.2626130389922377e-10 -6.4446091765507518e-05 2.1554541900823904e-05 -2.5665715522879305e-10 -5.0793654682232735e-05 1.5649089646065347e-05 -1.6208601468792423e-10 -4.9581301137518179e-05 2.436852018781225e-05 -1.7585887877413066e-10 -4.688888605276053e-05 2.1483630083498666e-05 -1.2626130389922377e-10 -6.4446091765507518e-05 1.5649089646065347e-05 -1.6208601468792421e-10 -4.9581301137518179e-05 1.875762548390769e-05 -3.7000652387478448e-10 -6.3329681230762952e-05 1.5652563704080093e-05 -1.9179272123437364e-10 -7.3204049675458597e-05 1.875762548390769e-05 -3.7000652387478448e-10 -6.3329681230762952e-05 2.5461174039536748e-05 -3.2728694604033963e-10 -6.4607547525302047e-05 2.1483630083498666e-05 -1.2626130389922377e-10 -6.4446091765507518e-05 2.5501689327735343e-05 -1.6493218007359287e-10 -7.6499111513702664e-05 2.1554541900823904e-05 -2.5665715522879305e-10 -5.0793654682232728e-05 1.5626086726334145e-05 -3.190981810924936e-10 -4.5036277833226017e-05 1.875762548390769e-05 -3.7000652387478448e-10 -6.3329681230762952e-05 1.564908964606535e-05 -1.6208601468792434e-10 -4.9581301137518186e-05 1.5626091574759127e-05 -1.8183402471537628e-12 -4.6875145498662381e-05 2.1483630083498666e-05 -1.2626130389922377e-10 -6.4446091765507505e-05 1.5568662642887719e-05 1.4829286413986587e-11 -7.0354932310016675e-05 1.564908964606535e-05 -1.6208601468792426e-10 -4.9581301137518186e-05 2.1483630083498666e-05 -1.2626130389922377e-10 -6.4446091765507518e-05 1.5626091574759127e-05 -1.8183402471537746e-12 -4.6875145498662368e-05 2.3453183028271064e-05 1.7670110363840091e-11 -4.6722008888558385e-05 1.5649089646065347e-05 -1.6208601468792428e-10 -4.9581301137518159e-05 2.1483630083498666e-05 -1.2626130389922377e-10 -6.4446091765507518e-05 2.3453183028271061e-05 1.7670110363840137e-11 -4.6722008888558398e-05 1.5626091574759127e-05 -1.8183402471537628e-12 -4.6875145498662381e-05 1.5568662642887726e-05 1.4829286413986578e-11 -7.0354932310016688e-05 2.3453183028271061e-05 1.7670110363840098e-11 -4.6722008888558391e-05 1.5568662642887722e-05 1.4829286413986542e-11 -7.0354932310016688e-05 2.1483630083498666e-05 -1.2626130389922377e-10 -6.4446091765507518e-05 2.438272319316095e-05 -3.2173552571181537e-12 -7.3142528268015769e-05 1.5568662642887722e-05 1.4829286413986568e-11 -7.0354932310016675e-05 1.564908964606535e-05 -1.6208601468792426e-10 -4.9581301137518186e-05 2.1483630083498666e-05 -1.2626130389922377e-10 -6.4446091765507518e-05 1.5652563704080093e-05 -1.9179272123437364e-10 -7.3204049675458597e-05 2.1483630083498666e-05 -1.2626130389922377e-10 -6.4446091765507518e-05 1.5649089646065347e-05 -1.6208601468792423e-10 -4.9581301137518179e-05 2.3453183028271061e-05 1.7670110363840095e-11 -4.6722008888558391e-05 2.436852018781225e-05 -1.7585887877413066e-10 -4.688888605276053e-05 1.4317399848882188e-05 -1.3264131488562911e-10 -9.3749055464220496e-05 1.5568662642887722e-05 1.4829286413986568e-11 -7.0354932310016675e-05 1.8736480156789418e-05 -1.121424051927575e-10 -9.3749071156594085e-05 1.5652563704080093e-05 -1.9179272123437364e-10 -7.3204049675458597e-05 1.8736480156789418e-05 -1.121424051927575e-10 -9.3749071156594085e-05 2.1483630083498666e-05 -1.2626130389922375e-10 -6.4446091765507505e-05 2.2727987332509408e-05 -6.8897238468628718e-11 -9.3749101249323324e-05 2.5501689327735343e-05 -1.6493218007359287e-10 -7.6499111513702664e-05 1.8736480156789418e-05 -1.121424051927575e-10 -9.3749071156594085e-05 2.1483630083498666e-05 -1.2626130389922377e-10 -6.4446091765507518e-05 1.5568662642887722e-05 1.4829286413986513e-11 -7.0354932310016675e-05 2.438272319316095e-05 -3.2173552571181537e-12 -7.3142528268015769e-05 1.8736480156789418e-05 -1.121424051927575e-10 -9.3749071156594085e-05 1.5652563704080093e-05 -1.9179272123437364e-10 -7.3204049675458597e-05 2.1483630083498666e-05 -1.2626130389922383e-10 -6.4446091765507518e-05 2.5501689327735343e-05 -1.6493218007359287e-10 -7.6499111513702664e-05 1.8736480156789418e-05 -1.121424051927575e-10 -9.3749071156594085e-05 1.5568662642887726e-05 1.4829286413986549e-11 -7.0354932310016675e-05 2.1483630083498666e-05 -1.2626130389922372e-10 -6.4446091765507518e-05 1.5652563704080093e-05 -1.9179272123437364e-10 -7.3204049675458597e-05 1.8736480156789418e-05 -1.121424051927575e-10 -9.3749071156594085e-05 2.2727987332509408e-05 -6.8897238468628731e-11 -9.3749101249323311e-05 2.1483630083498666e-05 -1.2626130389922377e-10 -6.4446091765507518e-05 2.438272319316095e-05 -3.2173552571181537e-12 -7.3142528268015769e-05 1.8736480156789418e-05 -1.121424051927575e-10 -9.3749071156594085e-05 1.5568662642887722e-05 1.4829286413986568e-11 -7.0354932310016675e-05 2.1039200737829103e-05 1.6593449501077686e-11 -9.3749082273318082e-05 2.438272319316095e-05 -3.2173552571181537e-12 -7.3142528268015769e-05 2.2053402609564381e-05 -1.9728166160294902e-10 -9.3749094335516774e-05 1.8736480156789418e-05 -1.121424051927575e-10 -9.3749071156594085e-05 2.2727987332509408e-05 -6.8897238468628718e-11 -9.3749101249323311e-05 2.5501689327735343e-05 -1.6493218007359287e-10 -7.6499111513702664e-05 1.8736480156789418e-05 -1.121424051927575e-10 -9.3749071156594085e-05 2.1039200737829106e-05 1.6593449501077683e-11 -9.3749082273318082e-05 2.2727987332509408e-05 -6.8897238468628718e-11 -9.3749101249323311e-05 2.438272319316095e-05 -3.2173552571181537e-12 -7.3142528268015769e-05 1.4317399848882188e-05 -1.3264131488562911e-10 -9.3749055464220496e-05 1.6239163291157693e-05 -4.4032921701086746e-12 -9.3749062975890968e-05 1.8736480156789418e-05 -1.121424051927575e-10 -9.3749071156594085e-05 1.5568662642887722e-05 1.4829286413986568e-11 -7.0354932310016675e-05 2.1039200737829106e-05 1.6593449501077683e-11 -9.3749082273318082e-05 1.8736480156789415e-05 -1.1214240519275748e-10 -9.3749071156594085e-05 1.6239163291157697e-05 -4.4032921701086714e-12 -9.3749062975890968e-05 1.5568662642887722e-05 1.4829286413986568e-11 -7.0354932310016675e-05 1.8736480156789418e-05 -1.121424051927575e-10 -9.3749071156594085e-05 1.5928290114622098e-05 -2.4330984162872532e-10 -9.3749062703407042e-05 1.4317399848882188e-05 -1.3264131488562911e-10 -9.3749055464220496e-05 1.5652563704080093e-05 -1.9179272123437364e-10 -7.3204049675458597e-05 1.5928290114622098e-05 -2.4330984162872532e-10 -9.3749062703407042e-05 2.2053402609564381e-05 -1.9728166160294902e-10 -9.3749094335516774e-05 2.1703942734477724e-05 -3.0166941634250579e-10 -7.8843148225487823e-05 1.565256370408009e-05 -1.9179272123437364e-10 -7.3204049675458583e-05 2.1483630083498666e-05 -1.2626130389922377e-10 -6.4446091765507518e-05 1.5652563704080093e-05 -1.9179272123437364e-10 -7.3204049675458597e-05 2.1703942734477724e-05 -3.0166941634250579e-10 -7.8843148225487837e-05 2.5501689327735343e-05 -1.6493218007359287e-10 -7.6499111513702664e-05 2.2053402609564381e-05 -1.9728166160294902e-10 -9.3749094335516774e-05 2.1703942734477724e-05 -3.0166941634250579e-10 -7.884314822548785e-05 1.5652563704080093e-05 -1.9179272123437364e-10 -7.3204049675458597e-05 2.5501689327735343e-05 -1.6493218007359285e-10 -7.6499111513702651e-05 2.2053402609564381e-05 -1.9728166160294902e-10 -9.3749094335516774e-05 1.5652563704080093e-05 -1.9179272123437364e-10 -7.3204049675458597e-05 1.8736480156789418e-05 -1.121424051927575e-10 -9.3749071156594085e-05 2.5501689327735343e-05 -1.6493218007359282e-10 -7.6499111513702651e-05 2.2053402609564381e-05 -1.9728166160294902e-10 -9.3749094335516774e-05 1.5928290114622098e-05 -2.4330984162872532e-10 -9.3749062703407042e-05 1.8736480156789418e-05 -1.121424051927575e-10 -9.3749071156594085e-05 1.5652563704080093e-05 -1.9179272123437367e-10 -7.3204049675458611e-05 1.875762548390769e-05 -3.7000652387478448e-10 -6.3329681230762952e-05 2.1483630083498659e-05 -1.2626130389922362e-10 -6.4446091765507532e-05 2.1703942734477724e-05 -3.0166941634250579e-10 -7.8843148225487837e-05 2.5501689327735343e-05 -1.6493218007359287e-10 -7.6499111513702664e-05 2.1703942734477724e-05 -3.0166941634250579e-10 -7.8843148225487837e-05 1.875762548390769e-05 -3.7000652387478448e-10 -6.3329681230762952e-05 1.5575033393533543e-05 -3.3051349370185432e-10 -7.7599945062977949e-05 1.5652563704080093e-05 -1.9179272123437364e-10 -7.3204049675458597e-05 2.1703942734477724e-05 -3.0166941634250579e-10 -7.8843148225487837e-05 1.5575033393533543e-05 -3.3051349370185432e-10 -7.7599945062977949e-05 1.5928290114622098e-05 -2.4330984162872532e-10 -9.3749062703407042e-05 1.5652563704080093e-05 -1.9179272123437364e-10 -7.3204049675458597e-05 1.8751384855465385e-05 -3.6127298978758639e-10 -9.374910006085e-05 1.5575033393533543e-05 -3.3051349370185432e-10 -7.7599945062977949e-05 1.5928290114622098e-05 -2.4330984162872532e-10 -9.3749062703407042e-05 2.1703942734477724e-05 -3.0166941634250579e-10 -7.8843148225487837e-05 1.5928290114622098e-05 -2.4330984162872532e-10 -9.3749062703407042e-05 1.250090465166865e-05 -3.8666598871061712e-10 -9.3749085084553633e-05 1.5575033393533543e-05 -3.3051349370185437e-10 -7.7599945062977949e-05 1.8751384855465385e-05 -3.6127298978758639e-10 -9.374910006085e-05 1.5928290114622098e-05 -2.4330984162872532e-10 -9.3749062703407042e-05 2.2053402609564381e-05 -1.9728166160294902e-10 -9.3749094335516774e-05 1.8751384855465385e-05 -3.6127298978758634e-10 -9.3749100060849986e-05 2.1703942734477724e-05 -3.0166941634250579e-10 -7.8843148225487837e-05 2.2053402609564381e-05 -1.9728166160294902e-10 -9.3749094335516774e-05 1.8751384855465385e-05 -3.6127298978758639e-10 -9.374910006085e-05 2.1703942734477724e-05 -3.0166941634250579e-10 -7.8843148225487837e-05 2.5001860301229676e-05 -2.9345155575927503e-10 -9.3749135615771488e-05 1.875762548390769e-05 -3.7000652387478448e-10 -6.3329681230762952e-05 2.1703942734477724e-05 -3.0166941634250579e-10 -7.884314822548785e-05 2.5461174039536748e-05 -3.2728694604033963e-10 -6.4607547525302047e-05 2.5501689327735343e-05 -1.6493218007359287e-10 -7.6499111513702664e-05 2.2053402609564381e-05 -1.9728166160294902e-10 -9.3749094335516774e-05 2.6676663758099645e-05 -2.0638242014551269e-10 -9.3749144902312344e-05 2.1703942734477724e-05 -3.0166941634250574e-10 -7.8843148225487837e-05 2.5501689327735347e-05 -1.6493218007359285e-10 -7.6499111513702664e-05 2.6676663758099645e-05 -2.0638242014551269e-10 -9.3749144902312344e-05 2.2053402609564381e-05 -1.9728166160294902e-10 -9.3749094335516774e-05 2.6618747938908759e-05 -1.2497192694242191e-10 -9.3749153586495762e-05 2.5501689327735343e-05 -1.6493218007359287e-10 -7.6499111513702664e-05 3.1252172825343627e-05 -1.9950877615732826e-10 -6.6155165092249502e-05 2.5461174039536748e-05 -3.2728694604033963e-10 -6.4607547525302061e-05 2.6676613170819414e-05 -2.4295503587833462e-10 -8.0023514818284211e-05 2.550168932773534e-05 -1.6493218007359285e-10 -7.6499111513702651e-05 2.1703942734477724e-05 -3.0166941634250579e-10 -7.8843148225487837e-05 2.6676613170819414e-05 -2.4295503587833462e-10 -8.0023514818284211e-05 2.5461174039536748e-05 -3.2728694604033963e-10 -6.4607547525302047e-05 2.5501689327735343e-05 -1.6493218007359287e-10 -7.6499111513702664e-05 2.6676613170819417e-05 -2.4295503587833462e-10 -8.0023514818284211e-05 2.1703942734477724e-05 -3.0166941634250579e-10 -7.8843148225487837e-05 2.6676663758099645e-05 -2.0638242014551269e-10 -9.3749144902312344e-05 2.5501689327735343e-05 -1.6493218007359287e-10 -7.6499111513702664e-05 2.5001860301229676e-05 -2.9345155575927503e-10 -9.3749135615771488e-05 2.1703942734477721e-05 -3.0166941634250579e-10 -7.8843148225487823e-05 2.2053402609564381e-05 -1.9728166160294902e-10 -9.3749094335516774e-05 2.6676663758099645e-05 -2.0638242014551269e-10 -9.3749144902312344e-05 2.5001860301229676e-05 -2.9345155575927503e-10 -9.3749135615771488e-05 2.667661317081942e-05 -2.4295503587833462e-10 -8.0023514818284211e-05 2.1703942734477724e-05 -3.0166941634250579e-10 -7.8843148225487837e-05 2.6676663758099645e-05 -2.0638242014551269e-10 -9.3749144902312344e-05 3.1252262891278684e-05 -3.3282212460577094e-10 -9.3749300056193162e-05 3.1252209276764414e-05 -2.0249831584198894e-10 -8.0023583190428068e-05 2.6676613170819414e-05 -2.4295503587833462e-10 -8.0023514818284211e-05 2.6676663758099645e-05 -2.0638242014551269e-10 -9.3749144902312344e-05 2.5001860301229676e-05 -2.9345155575927503e-10 -9.3749135615771488e-05 3.1252262891278684e-05 -3.3282212460577094e-10 -9.3749300056193176e-05 2.6676613170819417e-05 -2.4295503587833462e-10 -8.0023514818284211e-05 2.6676663758099645e-05 -2.0638242014551269e-10 -9.3749144902312344e-05 2.6676663758099645e-05 -2.0638242014551269e-10 -9.3749144902312344e-05 3.1252262891278684e-05 -3.3282212460577094e-10 -9.3749300056193162e-05 3.1252209276764414e-05 -2.0249831584198894e-10 -8.0023583190428068e-05 3.125226264731658e-05 -1.7684938455506499e-10 -9.3749286025457442e-05 2.6676613170819417e-05 -2.4295503587833462e-10 -8.0023514818284211e-05 3.1252209276764421e-05 -2.0249831584198894e-10 -8.0023583190428068e-05 3.1252262891278684e-05 -3.3282212460577094e-10 -9.3749300056193162e-05 3.12521209956199e-05 -3.2957655825737756e-10 -7.4999628870343378e-05 2.6676613170819417e-05 -2.4295503587833462e-10 -8.0023514818284211e-05 2.5461174039536748e-05 -3.2728694604033963e-10 -6.4607547525302047e-05 3.1252172825343627e-05 -1.9950877615732829e-10 -6.6155165092249502e-05 3.12521209956199e-05 -3.2957655825737756e-10 -7.4999628870343378e-05 3.1252172825343627e-05 -1.9950877615732826e-10 -6.6155165092249502e-05 3.1252209276764414e-05 -2.0249831584198892e-10 -8.0023583190428068e-05 2.6676613170819417e-05 -2.4295503587833462e-10 -8.0023514818284211e-05 3.12521209956199e-05 -3.2957655825737756e-10 -7.4999628870343378e-05 3.1252209276764414e-05 -2.0249831584198894e-10 -8.0023583190428068e-05 3.125218782382275e-05 -1.1536005813521228e-10 -7.9849874423992769e-05 3.1252172825343627e-05 -1.9950877615732826e-10 -6.6155165092249502e-05 2.5501689327735343e-05 -1.6493218007359287e-10 -7.6499111513702664e-05 3.1252172825343627e-05 -1.9950877615732826e-10 -6.6155165092249502e-05 2.6676613170819417e-05 -2.4295503587833462e-10 -8.0023514818284211e-05 3.1252209276764414e-05 -2.0249831584198894e-10 -8.0023583190428068e-05 2.5501689327735343e-05 -1.6493218007359287e-10 -7.6499111513702664e-05 2.6676663758099645e-05 -2.0638242014551269e-10 -9.3749144902312344e-05 2.6618747938908756e-05 -1.2497192694242189e-10 -9.3749153586495762e-05 3.125226264731658e-05 -1.7684938455506499e-10 -9.3749286025457442e-05 2.5501689327735343e-05 -1.6493218007359287e-10 -7.6499111513702664e-05 3.1252209276764414e-05 -2.0249831584198894e-10 -8.0023583190428068e-05 2.6676663758099645e-05 -2.0638242014551269e-10 -9.3749144902312344e-05 3.125226264731658e-05 -1.7684938455506499e-10 -9.3749286025457442e-05 2.5501689327735343e-05 -1.6493218007359287e-10 -7.6499111513702664e-05 3.1252209276764414e-05 -2.0249831584198894e-10 -8.0023583190428068e-05 3.125226264731658e-05 -1.7684938455506499e-10 -9.3749286025457442e-05 3.125218782382275e-05 -1.1536005813521228e-10 -7.9849874423992769e-05 2.5501689327735343e-05 -1.6493218007359287e-10 -7.6499111513702664e-05 2.6676613170819417e-05 -2.4295503587833462e-10 -8.0023514818284211e-05 2.6676663758099645e-05 -2.0638242014551269e-10 -9.3749144902312344e-05 3.1252209276764414e-05 -2.0249831584198894e-10 -8.0023583190428068e-05 2.550168932773535e-05 -1.6493218007359293e-10 -7.6499111513702664e-05 3.125226264731658e-05 -1.7684938455506499e-10 -9.3749286025457442e-05 3.125218782382275e-05 -1.1536005813521228e-10 -7.9849874423992782e-05 2.6618747938908759e-05 -1.2497192694242194e-10 -9.3749153586495762e-05 3.1252224605735193e-05 -5.5350852354654976e-11 -9.3749284932953059e-05 3.125226264731658e-05 -1.7684938455506499e-10 -9.3749286025457442e-05 2.6618747938908759e-05 -1.2497192694242189e-10 -9.3749153586495775e-05 3.125218782382275e-05 -1.1536005813521228e-10 -7.9849874423992769e-05 2.550168932773534e-05 -1.649321800735929e-10 -7.6499111513702664e-05 3.125218782382275e-05 -1.1536005813521228e-10 -7.9849874423992769e-05 2.6618747938908759e-05 -1.2497192694242189e-10 -9.3749153586495775e-05 2.438272319316095e-05 -3.2173552571181509e-12 -7.3142528268015769e-05 2.550168932773535e-05 -1.6493218007359287e-10 -7.6499111513702678e-05 2.1483630083498666e-05 -1.2626130389922377e-10 -6.4446091765507518e-05 2.438272319316095e-05 -3.2173552571181646e-12 -7.3142528268015769e-05 2.2727987332509408e-05 -6.8897238468628757e-11 -9.3749101249323324e-05 2.5501689327735343e-05 -1.6493218007359287e-10 -7.6499111513702664e-05 3.1252168843820854e-05 -7.2958205170638278e-11 -6.8178716849210739e-05 3.125218782382275e-05 -1.1536005813521228e-10 -7.9849874423992769e-05 2.438272319316095e-05 -3.2173552571181525e-12 -7.3142528268015769e-05 2.5501689327735336e-05 -1.649321800735929e-10 -7.6499111513702664e-05 2.6618747938908759e-05 -1.2497192694242191e-10 -9.3749153586495762e-05 2.2727987332509408e-05 -6.8897238468628718e-11 -9.3749101249323311e-05 2.438272319316095e-05 -3.2173552571181537e-12 -7.3142528268015769e-05 2.550168932773534e-05 -1.6493218007359287e-10 -7.6499111513702664e-05 3.1252168843820854e-05 -7.2958205170638278e-11 -6.8178716849210739e-05 2.4382723193160953e-05 -3.2173552571181396e-12 -7.3142528268015769e-05 2.1483630083498669e-05 -1.262613038992238e-10 -6.4446091765507505e-05 2.550168932773534e-05 -1.6493218007359287e-10 -7.6499111513702664e-05 2.6618747938908759e-05 -1.2497192694242191e-10 -9.3749153586495762e-05 3.125218782382275e-05 -1.1536005813521226e-10 -7.9849874423992769e-05 3.1252173082385262e-05 -6.9968458884719668e-12 -7.8929489850786225e-05 3.1252224605735193e-05 -5.5350852354654976e-11 -9.3749284932953059e-05 2.2727987332509408e-05 -6.8897238468628718e-11 -9.3749101249323311e-05 2.6618747938908756e-05 -1.2497192694242191e-10 -9.3749153586495748e-05 2.2053402609564381e-05 -1.9728166160294902e-10 -9.3749094335516774e-05 2.5501689327735343e-05 -1.6493218007359287e-10 -7.6499111513702664e-05 3.1252172825343627e-05 -1.9950877615732826e-10 -6.6155165092249502e-05 3.125218782382275e-05 -1.1536005813521228e-10 -7.9849874423992769e-05 3.1252168843820854e-05 -7.2958205170638278e-11 -6.8178716849210739e-05 2.5501689327735343e-05 -1.6493218007359287e-10 -7.6499111513702664e-05 2.6618747938908759e-05 -1.2497192694242191e-10 -9.3749153586495762e-05 3.1252173082385262e-05 -6.9968458884719587e-12 -7.8929489850786212e-05 3.125218782382275e-05 -1.1536005813521228e-10 -7.9849874423992769e-05 2.438272319316095e-05 -3.2173552571181537e-12 -7.3142528268015769e-05 3.125218782382275e-05 -1.1536005813521228e-10 -7.9849874423992769e-05 3.1252173082385262e-05 -6.9968458884719845e-12 -7.8929489850786225e-05 3.1252168843820854e-05 -7.2958205170638278e-11 -6.8178716849210739e-05 2.438272319316095e-05 -3.2173552571181537e-12 -7.3142528268015769e-05 3.1252168843820854e-05 -7.2958205170638278e-11 -6.8178716849210739e-05 3.1252173082385262e-05 -6.9968458884719708e-12 -7.8929489850786225e-05 3.1252141505361077e-05 1.8875044654240759e-11 -6.3112841208738655e-05 2.438272319316095e-05 -3.2173552571181537e-12 -7.3142528268015769e-05 2.2727987332509408e-05 -6.8897238468628718e-11 -9.3749101249323311e-05 2.1039200737829106e-05 1.6593449501077679e-11 -9.3749082273318082e-05 2.6311925286494982e-05 -6.2905381058776656e-12 -9.3749146943589796e-05 2.438272319316095e-05 -3.2173552571181537e-12 -7.3142528268015769e-05 2.6311925286494982e-05 -6.2905381058776672e-12 -9.374914694358981e-05 2.6618747938908759e-05 -1.2497192694242191e-10 -9.3749153586495762e-05 2.2727987332509408e-05 -6.8897238468628718e-11 -9.3749101249323311e-05 2.438272319316095e-05 -3.2173552571181537e-12 -7.3142528268015769e-05 2.6311925286494982e-05 -6.2905381058776672e-12 -9.374914694358981e-05 3.1252173082385262e-05 -6.9968458884719668e-12 -7.8929489850786225e-05 2.6618747938908759e-05 -1.2497192694242191e-10 -9.3749153586495762e-05 2.438272319316095e-05 -3.2173552571181533e-12 -7.3142528268015769e-05 3.1252224605735193e-05 -5.5350852354654976e-11 -9.3749284932953059e-05 3.1252173082385262e-05 -6.9968458884719668e-12 -7.8929489850786225e-05 2.6311925286494982e-05 -6.2905381058776672e-12 -9.374914694358981e-05 3.1252224686529546e-05 6.8595153500789374e-11 -9.3749273244619829e-05 3.1252173082385262e-05 -6.9968458884719668e-12 -7.8929489850786225e-05 2.6311925286494982e-05 -6.2905381058776446e-12 -9.3749146943589823e-05 2.6618747938908763e-05 -1.2497192694242194e-10 -9.3749153586495762e-05 3.1252224605735193e-05 -5.5350852354654976e-11 -9.3749284932953059e-05 2.5264310922880487e-05 1.1151479086891029e-10 -9.3749114509504417e-05 2.4382723193160957e-05 -3.2173552571181723e-12 -7.3142528268015769e-05 2.1454381320424772e-05 1.1107393240358335e-10 -6.4358358363406844e-05 2.4277737684465686e-05 1.8468580208039726e-10 -7.6560222997826272e-05 2.5264310922880487e-05 1.1151479086891029e-10 -9.3749114509504417e-05 3.1252183766246589e-05 1.1026806235921993e-10 -7.5786990147826884e-05 2.438272319316095e-05 -3.2173552571181537e-12 -7.3142528268015769e-05 2.4277737684465686e-05 1.8468580208039726e-10 -7.6560222997826272e-05 3.1252224686529546e-05 6.8595153500789374e-11 -9.3749273244619829e-05 3.1252173082385262e-05 -6.9968458884719668e-12 -7.8929489850786225e-05 2.6311925286494982e-05 -6.2905381058776672e-12 -9.374914694358981e-05 3.1252183766246589e-05 1.1026806235921993e-10 -7.5786990147826898e-05 2.1454381320424778e-05 1.1107393240358327e-10 -6.4358358363406817e-05 2.438272319316095e-05 -3.2173552571181453e-12 -7.3142528268015783e-05 3.1252183766246589e-05 1.1026806235921995e-10 -7.5786990147826911e-05 2.4277737684465686e-05 1.8468580208039726e-10 -7.6560222997826285e-05 2.6311925286494982e-05 -6.2905381058776672e-12 -9.374914694358981e-05 3.1252224686529546e-05 6.8595153500789374e-11 -9.3749273244619829e-05 3.1252183766246589e-05 1.1026806235921993e-10 -7.5786990147826898e-05 2.5264310922880487e-05 1.1151479086891029e-10 -9.3749114509504417e-05 3.1252224686529546e-05 6.8595153500789374e-11 -9.3749273244619829e-05 3.1252183766246589e-05 1.1026806235921993e-10 -7.5786990147826898e-05 2.5264310922880487e-05 1.1151479086891029e-10 -9.3749114509504417e-05 3.125222335098581e-05 1.6456322778939498e-10 -9.3749261842444604e-05 2.6311925286494982e-05 -6.2905381058776672e-12 -9.374914694358981e-05 2.1039200737829106e-05 1.6593449501077683e-11 -9.3749082273318082e-05 2.5264310922880487e-05 1.1151479086891029e-10 -9.3749114509504417e-05 2.438272319316095e-05 -3.2173552571181537e-12 -7.3142528268015769e-05 2.6311925286494982e-05 -6.2905381058776672e-12 -9.374914694358981e-05 2.5264310922880487e-05 1.1151479086891029e-10 -9.3749114509504417e-05 3.1252183766246589e-05 1.1026806235921993e-10 -7.5786990147826898e-05 2.438272319316095e-05 -3.2173552571181537e-12 -7.3142528268015769e-05 3.1252183766246589e-05 1.1026806235921993e-10 -7.5786990147826898e-05 3.1252141505361077e-05 1.8875044654240752e-11 -6.3112841208738641e-05 3.1252173082385262e-05 -6.9968458884719668e-12 -7.8929489850786225e-05 2.438272319316095e-05 -3.2173552571181537e-12 -7.3142528268015769e-05 3.1252183766246589e-05 1.1026806235921993e-10 -7.5786990147826898e-05 3.1252173082385262e-05 -6.9968458884719668e-12 -7.8929489850786225e-05 2.6311925286494982e-05 -6.2905381058776624e-12 -9.374914694358981e-05 2.438272319316095e-05 -3.2173552571181537e-12 -7.3142528268015769e-05 3.1252171376331161e-05 1.1887084015096692e-10 -5.7202969517547908e-05 2.4382723193160947e-05 -3.2173552571182006e-12 -7.3142528268015769e-05 2.3453183028271061e-05 1.7670110363840108e-11 -4.6722008888558391e-05 3.1252141505361077e-05 1.8875044654240759e-11 -6.3112841208738655e-05 3.1252171376331161e-05 1.1887084015096692e-10 -5.7202969517547908e-05 2.3453183028271061e-05 1.7670110363840075e-11 -4.6722008888558391e-05 2.1454381320424775e-05 1.110739324035833e-10 -6.4358358363406803e-05 2.4181275535048873e-05 2.0438860329054466e-10 -4.6714928478079137e-05 3.1252171376331161e-05 1.1887084015096692e-10 -5.7202969517547908e-05 2.1454381320424782e-05 1.110739324035833e-10 -6.4358358363406817e-05 3.1252176868410263e-05 2.0925227958316115e-10 -6.5026235354933971e-05 2.4181275535048873e-05 2.0438860329054466e-10 -4.6714928478079137e-05 3.1252183766246589e-05 1.1026806235921993e-10 -7.5786990147826898e-05 3.1252171376331168e-05 1.1887084015096692e-10 -5.7202969517547908e-05 2.1454381320424775e-05 1.1107393240358334e-10 -6.4358358363406817e-05 2.4277737684465686e-05 1.8468580208039726e-10 -7.6560222997826272e-05 3.1252171376331161e-05 1.1887084015096692e-10 -5.7202969517547908e-05 3.1252155995098842e-05 1.1280174538760937e-10 -4.2949336575891227e-05 2.3453183028271061e-05 1.7670110363840098e-11 -4.6722008888558391e-05 2.4181275535048873e-05 2.0438860329054466e-10 -4.671492847807913e-05 2.3453183028271061e-05 1.7670110363840098e-11 -4.6722008888558391e-05 2.4382723193160947e-05 -3.2173552571181602e-12 -7.3142528268015769e-05 3.1252171376331161e-05 1.1887084015096692e-10 -5.7202969517547908e-05 2.1454381320424778e-05 1.1107393240358327e-10 -6.4358358363406817e-05 3.1252183766246589e-05 1.1026806235921993e-10 -7.5786990147826898e-05 2.1454381320424778e-05 1.1107393240358327e-10 -6.4358358363406817e-05 3.1252171376331161e-05 1.1887084015096692e-10 -5.7202969517547908e-05 2.438272319316095e-05 -3.2173552571181537e-12 -7.3142528268015769e-05 3.1252141505361077e-05 1.8875044654240759e-11 -6.3112841208738655e-05 3.1252183766246596e-05 1.1026806235921992e-10 -7.5786990147826911e-05 3.1252171376331161e-05 1.1887084015096692e-10 -5.7202969517547908e-05 2.438272319316095e-05 -3.2173552571181521e-12 -7.3142528268015769e-05 3.1252171376331161e-05 1.1887084015096692e-10 -5.7202969517547908e-05 3.1252067547811994e-05 -2.511011643419489e-12 -4.8714093318113173e-05 3.1252141505361077e-05 1.8875044654240756e-11 -6.3112841208738655e-05 2.3453183028271061e-05 1.7670110363840098e-11 -4.6722008888558391e-05 3.1252171376331161e-05 1.1887084015096692e-10 -5.7202969517547908e-05 3.1252155995098842e-05 1.1280174538760937e-10 -4.2949336575891227e-05 3.1252067547811994e-05 -2.5110116434194947e-12 -4.8714093318113173e-05 2.3453183028271061e-05 1.7670110363840098e-11 -4.6722008888558391e-05 3.1252171376331161e-05 1.1887084015096692e-10 -5.7202969517547908e-05 3.125212823637038e-05 1.8790314175476177e-10 -4.7628288487262554e-05 3.1252155995098842e-05 1.1280174538760937e-10 -4.2949336575891227e-05 2.4181275535048876e-05 2.0438860329054466e-10 -4.6714928478079137e-05 3.1252176868410263e-05 2.0925227958316115e-10 -6.5026235354933971e-05 2.4181275535048876e-05 2.0438860329054464e-10 -4.6714928478079137e-05 2.1454381320424782e-05 1.1107393240358317e-10 -6.4358358363406817e-05 2.4277737684465686e-05 1.8468580208039726e-10 -7.6560222997826272e-05 2.1454381320424778e-05 1.1107393240358327e-10 -6.4358358363406817e-05 2.4181275535048873e-05 2.0438860329054464e-10 -4.6714928478079137e-05 2.5422485688604669e-05 3.2068732051158925e-10 -6.4144445189377185e-05 2.4277737684465692e-05 1.8468580208039726e-10 -7.6560222997826285e-05 3.1252176868410263e-05 2.0925227958316115e-10 -6.5026235354933971e-05 2.1454381320424775e-05 1.1107393240358335e-10 -6.4358358363406803e-05 3.1252171376331161e-05 1.1887084015096692e-10 -5.7202969517547908e-05 2.4277737684465686e-05 1.8468580208039726e-10 -7.6560222997826272e-05 3.1252183766246589e-05 1.1026806235921993e-10 -7.5786990147826898e-05 3.1252176868410263e-05 2.0925227958316115e-10 -6.5026235354933971e-05 3.1252171376331161e-05 1.1887084015096692e-10 -5.7202969517547908e-05 2.4277737684465686e-05 1.8468580208039726e-10 -7.6560222997826272e-05 3.1252176868410263e-05 2.0925227958316115e-10 -6.5026235354933971e-05 2.5422485688604665e-05 3.206873205115893e-10 -6.4144445189377185e-05 2.4181275535048876e-05 2.0438860329054464e-10 -4.6714928478079137e-05 2.4277737684465686e-05 1.8468580208039726e-10 -7.6560222997826272e-05 3.125212823637038e-05 1.8790314175476179e-10 -4.7628288487262554e-05 3.1252171376331161e-05 1.1887084015096692e-10 -5.7202969517547908e-05 3.1252176868410263e-05 2.0925227958316115e-10 -6.5026235354933971e-05 2.4181275535048876e-05 2.0438860329054464e-10 -4.6714928478079137e-05 3.1252176868410263e-05 2.0925227958316115e-10 -6.5026235354933971e-05 2.7115168561475054e-05 3.0054325798010448e-10 -4.7445311636842502e-05 3.125212823637038e-05 1.8790314175476179e-10 -4.7628288487262554e-05 2.4181275535048876e-05 2.0438860329054464e-10 -4.6714928478079137e-05 3.1252112335136932e-05 3.2602436812178117e-10 -5.6249981599104913e-05 3.125212823637038e-05 1.8790314175476179e-10 -4.7628288487262554e-05 3.1252176868410263e-05 2.0925227958316115e-10 -6.5026235354933971e-05 2.7115168561475054e-05 3.0054325798010443e-10 -4.7445311636842509e-05 2.7115168561475054e-05 3.0054325798010443e-10 -4.7445311636842509e-05 3.1252112335136932e-05 3.2602436812178117e-10 -5.6249981599104913e-05 3.125212823637038e-05 1.8790314175476179e-10 -4.7628288487262554e-05 3.125212316677553e-05 2.9860820851822055e-10 -3.7500385791546099e-05 3.1252176868410263e-05 2.0925227958316115e-10 -6.5026235354933971e-05 2.5422485688604665e-05 3.206873205115893e-10 -6.4144445189377185e-05 3.1252112335136932e-05 3.2602436812178117e-10 -5.6249981599104913e-05 2.7115168561475051e-05 3.0054325798010433e-10 -4.7445311636842495e-05 2.7115168561475054e-05 3.0054325798010443e-10 -4.7445311636842509e-05 2.5422485688604665e-05 3.2068732051158925e-10 -6.4144445189377185e-05 2.1326582803798977e-05 3.7195851862072927e-10 -4.904081133422244e-05 2.4181275535048876e-05 2.0438860329054464e-10 -4.6714928478079137e-05 2.5422485688604665e-05 3.206873205115893e-10 -6.4144445189377185e-05 2.7115168561475054e-05 3.0054325798010443e-10 -4.7445311636842509e-05 3.1252176868410263e-05 2.0925227958316117e-10 -6.5026235354933971e-05 2.4181275535048876e-05 2.0438860329054464e-10 -4.6714928478079137e-05 3.1252176868410263e-05 2.0925227958316115e-10 -6.5026235354933971e-05 2.5422485688604665e-05 3.2068732051158935e-10 -6.4144445189377199e-05 3.1252099554666978e-05 3.5494065772792791e-10 -7.4999610394899032e-05 3.1252112335136932e-05 3.2602436812178117e-10 -5.6249981599104913e-05 3.1252099554666978e-05 3.5494065772792791e-10 -7.4999610394899032e-05 2.6676599121274236e-05 2.3751686232497334e-10 -8.0023510307443278e-05 2.5422485688604665e-05 3.206873205115893e-10 -6.4144445189377185e-05 3.1252176868410263e-05 2.0925227958316115e-10 -6.5026235354933971e-05 2.6676599121274239e-05 2.3751686232497334e-10 -8.0023510307443278e-05 3.1252176868410256e-05 2.0925227958316115e-10 -6.5026235354933984e-05 3.1252203803485445e-05 1.9875688620888796e-10 -8.002356262897927e-05 2.4277737684465686e-05 1.8468580208039728e-10 -7.6560222997826272e-05 2.6676599121274239e-05 2.3751686232497334e-10 -8.0023510307443278e-05 3.1252099554666978e-05 3.5494065772792791e-10 -7.4999610394899032e-05 3.1252203803485439e-05 1.9875688620888796e-10 -8.0023562628979257e-05 3.125217686841027e-05 2.092522795831612e-10 -6.5026235354933984e-05 2.6676651890625075e-05 2.1554474296001685e-10 -9.3749147551754167e-05 3.1252249206386347e-05 3.254116705475731e-10 -9.3749282929687464e-05 3.125222335098581e-05 1.6456322778939498e-10 -9.3749261842444604e-05 3.1252203803485445e-05 1.9875688620888796e-10 -8.002356262897927e-05 2.6676651890625075e-05 2.1554474296001685e-10 -9.3749147551754167e-05 2.5001838649727185e-05 3.0861465789701107e-10 -9.3749131251815365e-05 3.1252249206386347e-05 3.254116705475731e-10 -9.3749282929687464e-05 2.6676599121274239e-05 2.3751686232497334e-10 -8.0023510307443278e-05 3.1252099554666978e-05 3.5494065772792791e-10 -7.4999610394899032e-05 3.1252203803485445e-05 1.9875688620888796e-10 -8.002356262897927e-05 3.1252249206386347e-05 3.254116705475731e-10 -9.3749282929687464e-05 2.6676599121274239e-05 2.3751686232497334e-10 -8.0023510307443278e-05 3.1252203803485445e-05 1.9875688620888796e-10 -8.002356262897927e-05 2.6676651890625075e-05 2.1554474296001687e-10 -9.3749147551754181e-05 3.1252249206386347e-05 3.254116705475731e-10 -9.3749282929687464e-05 2.6676599121274239e-05 2.3751686232497334e-10 -8.0023510307443278e-05 2.6676651890625075e-05 2.1554474296001685e-10 -9.3749147551754167e-05 3.125222335098581e-05 1.6456322778939498e-10 -9.3749261842444604e-05 3.1252183766246596e-05 1.1026806235921993e-10 -7.5786990147826898e-05 3.1252203803485445e-05 1.9875688620888796e-10 -8.002356262897927e-05 3.125222335098581e-05 1.6456322778939498e-10 -9.3749261842444604e-05 3.1252183766246589e-05 1.1026806235921993e-10 -7.5786990147826898e-05 2.5264310922880484e-05 1.1151479086891031e-10 -9.3749114509504404e-05 2.6676651890625075e-05 2.1554474296001685e-10 -9.3749147551754167e-05 2.6676651890625075e-05 2.1554474296001685e-10 -9.3749147551754167e-05 3.1252203803485445e-05 1.9875688620888796e-10 -8.002356262897927e-05 3.1252183766246582e-05 1.1026806235921993e-10 -7.5786990147826898e-05 2.4277737684465686e-05 1.8468580208039723e-10 -7.6560222997826272e-05 3.1252183766246589e-05 1.1026806235921993e-10 -7.5786990147826898e-05 3.1252203803485445e-05 1.9875688620888796e-10 -8.002356262897927e-05 3.1252176868410263e-05 2.0925227958316115e-10 -6.5026235354933971e-05 2.4277737684465686e-05 1.8468580208039726e-10 -7.6560222997826272e-05 2.1677057895478514e-05 2.2409923734217947e-10 -9.3749086203336339e-05 2.6676651890625075e-05 2.1554474296001685e-10 -9.3749147551754167e-05 2.5264310922880487e-05 1.1151479086891029e-10 -9.3749114509504417e-05 2.4277737684465686e-05 1.8468580208039726e-10 -7.6560222997826272e-05 2.5264310922880487e-05 1.1151479086891029e-10 -9.3749114509504417e-05 2.6676651890625075e-05 2.1554474296001685e-10 -9.3749147551754167e-05 3.1252183766246582e-05 1.1026806235921993e-10 -7.5786990147826898e-05 2.4277737684465686e-05 1.8468580208039726e-10 -7.6560222997826272e-05 2.6676651890625075e-05 2.1554474296001685e-10 -9.3749147551754167e-05 2.5001838649727189e-05 3.0861465789701107e-10 -9.3749131251815365e-05 2.6676599121274239e-05 2.3751686232497334e-10 -8.0023510307443278e-05 2.4277737684465686e-05 1.8468580208039726e-10 -7.6560222997826272e-05 2.1870802461681033e-05 3.0265692414118704e-10 -7.7866062220875915e-05 2.6676599121274239e-05 2.3751686232497334e-10 -8.0023510307443278e-05 2.5001838649727189e-05 3.0861465789701107e-10 -9.3749131251815365e-05 2.4277737684465686e-05 1.8468580208039726e-10 -7.6560222997826272e-05 2.6676651890625075e-05 2.1554474296001685e-10 -9.3749147551754167e-05 2.1677057895478514e-05 2.2409923734217947e-10 -9.3749086203336339e-05 2.5001838649727189e-05 3.0861465789701107e-10 -9.3749131251815365e-05 2.4277737684465686e-05 1.8468580208039726e-10 -7.6560222997826272e-05 3.1252203803485445e-05 1.9875688620888796e-10 -8.002356262897927e-05 2.6676651890625075e-05 2.1554474296001685e-10 -9.3749147551754181e-05 2.6676599121274236e-05 2.3751686232497334e-10 -8.0023510307443264e-05 2.4277737684465682e-05 1.8468580208039726e-10 -7.6560222997826272e-05 2.6676599121274239e-05 2.3751686232497334e-10 -8.0023510307443278e-05 2.187080246168103e-05 3.0265692414118704e-10 -7.7866062220875915e-05 2.5422485688604665e-05 3.206873205115893e-10 -6.4144445189377185e-05 2.4277737684465689e-05 1.8468580208039726e-10 -7.6560222997826272e-05 2.5422485688604665e-05 3.206873205115893e-10 -6.4144445189377185e-05 3.1252176868410256e-05 2.0925227958316115e-10 -6.5026235354933971e-05 2.6676599121274239e-05 2.3751686232497334e-10 -8.0023510307443278e-05 2.4277737684465686e-05 1.8468580208039726e-10 -7.6560222997826272e-05 2.1677057895478514e-05 2.2409923734217947e-10 -9.3749086203336339e-05 1.559835805243725e-05 1.717661639822607e-10 -7.3026426643141634e-05 2.1870802461681033e-05 3.0265692414118709e-10 -7.7866062220875915e-05 2.4277737684465686e-05 1.8468580208039726e-10 -7.6560222997826272e-05 2.1677057895478514e-05 2.2409923734217947e-10 -9.3749086203336339e-05 1.9069053160539288e-05 1.1632796988037809e-10 -9.3749065236716948e-05 1.5598358052437253e-05 1.7176616398226072e-10 -7.3026426643141648e-05 2.4277737684465686e-05 1.8468580208039726e-10 -7.6560222997826272e-05 2.5422485688604665e-05 3.206873205115893e-10 -6.4144445189377185e-05 2.1870802461681033e-05 3.0265692414118704e-10 -7.7866062220875915e-05 1.9136765829365118e-05 2.7545421501721205e-10 -6.3597306974840751e-05 2.4277737684465686e-05 1.8468580208039726e-10 -7.6560222997826272e-05 1.9136765829365118e-05 2.7545421501721205e-10 -6.3597306974840751e-05 2.1870802461681033e-05 3.0265692414118709e-10 -7.7866062220875915e-05 1.5598358052437253e-05 1.7176616398226072e-10 -7.3026426643141648e-05 2.4277737684465686e-05 1.8468580208039726e-10 -7.6560222997826272e-05 2.1677057895478514e-05 2.2409923734217947e-10 -9.3749086203336339e-05 2.1870802461681037e-05 3.0265692414118704e-10 -7.7866062220875915e-05 2.5001838649727189e-05 3.0861465789701107e-10 -9.3749131251815365e-05 2.4277737684465686e-05 1.8468580208039726e-10 -7.6560222997826272e-05 1.592927728412407e-05 3.0165989291049992e-10 -7.8313471185372722e-05 1.8751373544394019e-05 3.6413571272598432e-10 -9.3749111819283718e-05 2.1677057895478517e-05 2.2409923734217942e-10 -9.3749086203336339e-05 2.1870802461681033e-05 3.0265692414118704e-10 -7.7866062220875915e-05 2.1870802461681033e-05 3.0265692414118704e-10 -7.7866062220875915e-05 1.8751373544394022e-05 3.6413571272598432e-10 -9.3749111819283718e-05 2.1677057895478514e-05 2.2409923734217947e-10 -9.3749086203336339e-05 2.5001838649727189e-05 3.0861465789701107e-10 -9.3749131251815365e-05 2.5264310922880487e-05 1.1151479086891029e-10 -9.3749114509504417e-05 1.9069053160539288e-05 1.1632796988037809e-10 -9.3749065236716948e-05 2.1677057895478514e-05 2.2409923734217947e-10 -9.3749086203336339e-05 2.4277737684465686e-05 1.8468580208039726e-10 -7.6560222997826272e-05 1.5877192603609149e-05 2.3974196632526189e-10 -9.3749058959091014e-05 2.1677057895478514e-05 2.2409923734217947e-10 -9.3749086203336339e-05 1.9069053160539288e-05 1.1632796988037809e-10 -9.3749065236716948e-05 1.5598358052437253e-05 1.7176616398226072e-10 -7.3026426643141648e-05 1.5877192603609149e-05 2.3974196632526189e-10 -9.3749058959091014e-05 1.592927728412407e-05 3.0165989291049992e-10 -7.8313471185372709e-05 2.1677057895478514e-05 2.2409923734217947e-10 -9.3749086203336339e-05 1.5598358052437253e-05 1.7176616398226072e-10 -7.3026426643141648e-05 1.8751373544394019e-05 3.6413571272598432e-10 -9.3749111819283718e-05 1.5877192603609149e-05 2.3974196632526189e-10 -9.3749058959091014e-05 1.2500906378164619e-05 4.0427464654238341e-10 -9.3749096049051443e-05 1.592927728412407e-05 3.0165989291049992e-10 -7.8313471185372722e-05 2.1677057895478514e-05 2.2409923734217947e-10 -9.3749086203336339e-05 1.5877192603609149e-05 2.3974196632526189e-10 -9.3749058959091014e-05 1.8751373544394019e-05 3.6413571272598432e-10 -9.3749111819283718e-05 1.5929277284124067e-05 3.0165989291049992e-10 -7.8313471185372709e-05 2.1677057895478514e-05 2.2409923734217947e-10 -9.3749086203336339e-05 1.592927728412407e-05 3.0165989291049992e-10 -7.8313471185372722e-05 2.1870802461681033e-05 3.0265692414118704e-10 -7.7866062220875915e-05 1.559835805243725e-05 1.717661639822607e-10 -7.3026426643141648e-05 1.592927728412407e-05 3.0165989291049992e-10 -7.8313471185372722e-05 1.9136765829365118e-05 2.7545421501721205e-10 -6.3597306974840751e-05 2.1870802461681033e-05 3.0265692414118704e-10 -7.7866062220875915e-05 1.5598358052437253e-05 1.7176616398226072e-10 -7.3026426643141648e-05 1.9136765829365118e-05 2.7545421501721205e-10 -6.3597306974840751e-05 1.5621086623542752e-05 1.5926895263044263e-10 -4.9656960170750864e-05 2.1454381320424778e-05 1.1107393240358326e-10 -6.4358358363406817e-05 1.5598358052437253e-05 1.7176616398226072e-10 -7.3026426643141648e-05 1.9136765829365118e-05 2.7545421501721205e-10 -6.3597306974840751e-05 1.5621086623542752e-05 1.5926895263044266e-10 -4.9656960170750858e-05 2.1326582803798977e-05 3.7195851862072927e-10 -4.904081133422244e-05 2.4181275535048876e-05 2.0438860329054464e-10 -4.6714928478079137e-05 1.9136765829365118e-05 2.7545421501721205e-10 -6.3597306974840751e-05 1.4319814888836388e-05 2.6679542808080755e-10 -6.4658843569293279e-05 1.5621086623542756e-05 1.5926895263044263e-10 -4.9656960170750871e-05 1.5598358052437253e-05 1.7176616398226072e-10 -7.3026426643141648e-05 1.4319814888836388e-05 2.6679542808080755e-10 -6.4658843569293279e-05 1.9136765829365118e-05 2.7545421501721205e-10 -6.3597306974840751e-05 1.592927728412407e-05 3.0165989291049992e-10 -7.8313471185372722e-05 1.5598358052437253e-05 1.7176616398226072e-10 -7.3026426643141648e-05 1.9136765829365118e-05 2.7545421501721205e-10 -6.3597306974840751e-05 2.1454381320424775e-05 1.1107393240358326e-10 -6.4358358363406803e-05 1.5621086623542756e-05 1.5926895263044263e-10 -4.9656960170750864e-05 2.4181275535048876e-05 2.0438860329054464e-10 -4.6714928478079137e-05 2.5422485688604665e-05 3.206873205115893e-10 -6.4144445189377185e-05 1.9136765829365118e-05 2.7545421501721205e-10 -6.3597306974840751e-05 2.1454381320424775e-05 1.1107393240358326e-10 -6.4358358363406803e-05 2.4277737684465686e-05 1.8468580208039726e-10 -7.6560222997826272e-05 1.9136765829365118e-05 2.7545421501721205e-10 -6.3597306974840751e-05 1.5598358052437253e-05 1.7176616398226072e-10 -7.3026426643141648e-05 2.1454381320424778e-05 1.1107393240358325e-10 -6.4358358363406803e-05 2.4277737684465686e-05 1.8468580208039726e-10 -7.6560222997826272e-05 2.5422485688604665e-05 3.206873205115893e-10 -6.4144445189377185e-05 2.1454381320424778e-05 1.1107393240358329e-10 -6.435835836340683e-05 1.9136765829365118e-05 2.7545421501721205e-10 -6.3597306974840751e-05 2.4181275535048876e-05 2.0438860329054461e-10 -4.6714928478079143e-05 2.5422485688604665e-05 3.206873205115893e-10 -6.4144445189377185e-05 1.9136765829365118e-05 2.7545421501721205e-10 -6.3597306974840751e-05 2.1326582803798977e-05 3.7195851862072916e-10 -4.904081133422244e-05 2.4181275535048876e-05 2.0438860329054464e-10 -4.6714928478079137e-05 1.9136765829365118e-05 2.7545421501721205e-10 -6.3597306974840751e-05 1.4319814888836388e-05 2.6679542808080755e-10 -6.4658843569293279e-05 1.6239109627333688e-05 3.1638313379482949e-10 -4.6875180847950101e-05 1.5621086623542756e-05 1.5926895263044258e-10 -4.9656960170750864e-05 1.9136765829365118e-05 2.7545421501721205e-10 -6.3597306974840751e-05 1.6239109627333688e-05 3.1638313379482949e-10 -4.6875180847950101e-05 2.1326582803798977e-05 3.7195851862072927e-10 -4.904081133422244e-05 1.5621086623542759e-05 1.5926895263044263e-10 -4.9656960170750871e-05 2.1454381320424778e-05 1.1107393240358327e-10 -6.4358358363406817e-05 1.5621086623542756e-05 1.592689526304426e-10 -4.9656960170750864e-05 1.5568662642887722e-05 1.4829286413986571e-11 -7.0354932310016675e-05 1.5598358052437253e-05 1.7176616398226072e-10 -7.3026426643141648e-05 2.1454381320424778e-05 1.1107393240358327e-10 -6.4358358363406817e-05 1.5626091574759127e-05 -1.8183402471537939e-12 -4.6875145498662375e-05 2.3453183028271057e-05 1.7670110363840111e-11 -4.6722008888558385e-05 1.5568662642887722e-05 1.4829286413986568e-11 -7.0354932310016675e-05 2.1454381320424778e-05 1.1107393240358327e-10 -6.4358358363406817e-05 1.5568662642887722e-05 1.4829286413986568e-11 -7.0354932310016675e-05 2.3453183028271061e-05 1.7670110363840098e-11 -4.6722008888558391e-05 2.438272319316095e-05 -3.2173552571181537e-12 -7.3142528268015769e-05 1.5626091574759127e-05 -1.8183402471537628e-12 -4.6875145498662381e-05 2.1454381320424778e-05 1.110739324035833e-10 -6.4358358363406803e-05 2.3453183028271061e-05 1.7670110363840098e-11 -4.6722008888558391e-05 1.5621086623542756e-05 1.5926895263044263e-10 -4.9656960170750864e-05 2.3453183028271061e-05 1.7670110363840098e-11 -4.6722008888558391e-05 1.5621086623542756e-05 1.592689526304426e-10 -4.9656960170750871e-05 2.1454381320424778e-05 1.1107393240358327e-10 -6.4358358363406817e-05 2.4181275535048883e-05 2.0438860329054471e-10 -4.6714928478079143e-05 2.1454381320424778e-05 1.1107393240358327e-10 -6.4358358363406817e-05 1.5626091574759124e-05 -1.8183402471537463e-12 -4.6875145498662381e-05 1.5568662642887722e-05 1.4829286413986568e-11 -7.0354932310016675e-05 1.5621086623542752e-05 1.5926895263044266e-10 -4.9656960170750858e-05 2.438272319316095e-05 -3.2173552571181537e-12 -7.3142528268015769e-05 1.9069053160539284e-05 1.16327969880378e-10 -9.3749065236716948e-05 1.5568662642887722e-05 1.4829286413986574e-11 -7.0354932310016675e-05 2.1039200737829109e-05 1.6593449501077737e-11 -9.3749082273318082e-05 2.438272319316095e-05 -3.2173552571181537e-12 -7.3142528268015769e-05 1.5568662642887722e-05 1.4829286413986574e-11 -7.0354932310016675e-05 1.9069053160539288e-05 1.1632796988037809e-10 -9.3749065236716948e-05 2.1454381320424778e-05 1.1107393240358325e-10 -6.4358358363406817e-05 1.9069053160539288e-05 1.1632796988037809e-10 -9.3749065236716948e-05 2.1454381320424778e-05 1.1107393240358322e-10 -6.4358358363406817e-05 2.5264310922880487e-05 1.1151479086891029e-10 -9.3749114509504417e-05 2.438272319316095e-05 -3.2173552571181235e-12 -7.3142528268015769e-05 2.1454381320424778e-05 1.1107393240358327e-10 -6.4358358363406817e-05 1.5598358052437253e-05 1.7176616398226072e-10 -7.3026426643141648e-05 1.9069053160539288e-05 1.1632796988037811e-10 -9.3749065236716934e-05 2.4277737684465682e-05 1.8468580208039728e-10 -7.6560222997826272e-05 2.1454381320424778e-05 1.1107393240358327e-10 -6.4358358363406817e-05 1.5568662642887726e-05 1.4829286413986565e-11 -7.0354932310016688e-05 1.9069053160539288e-05 1.1632796988037808e-10 -9.3749065236716948e-05 1.5598358052437253e-05 1.7176616398226072e-10 -7.3026426643141648e-05 2.5264310922880487e-05 1.1151479086891029e-10 -9.3749114509504417e-05 2.1454381320424778e-05 1.1107393240358325e-10 -6.4358358363406803e-05 1.9069053160539288e-05 1.1632796988037809e-10 -9.3749065236716948e-05 2.4277737684465686e-05 1.8468580208039726e-10 -7.6560222997826272e-05 2.1039200737829106e-05 1.6593449501077683e-11 -9.3749082273318082e-05 1.9069053160539288e-05 1.1632796988037809e-10 -9.3749065236716948e-05 2.5264310922880487e-05 1.1151479086891029e-10 -9.3749114509504417e-05 2.438272319316095e-05 -3.2173552571181537e-12 -7.3142528268015769e-05 1.4317393682033332e-05 1.2485696440241724e-10 -9.3749050731966628e-05 1.9069053160539288e-05 1.1632796988037809e-10 -9.3749065236716948e-05 1.5568662642887722e-05 1.4829286413986568e-11 -7.0354932310016675e-05 1.5598358052437253e-05 1.7176616398226072e-10 -7.3026426643141648e-05 1.5877192603609149e-05 2.3974196632526189e-10 -9.3749058959091014e-05 1.9069053160539288e-05 1.1632796988037809e-10 -9.3749065236716948e-05 1.4317393682033332e-05 1.2485696440241724e-10 -9.3749050731966628e-05 1.5598358052437253e-05 1.7176616398226072e-10 -7.3026426643141648e-05 1.6239163291157697e-05 -4.4032921701086714e-12 -9.3749062975890968e-05 1.4317393682033332e-05 1.2485696440241724e-10 -9.3749050731966628e-05 1.9069053160539288e-05 1.1632796988037809e-10 -9.3749065236716948e-05 1.5568662642887722e-05 1.4829286413986568e-11 -7.0354932310016675e-05 2.1039200737829106e-05 1.6593449501077683e-11 -9.3749082273318082e-05 1.6239163291157697e-05 -4.4032921701086746e-12 -9.3749062975890968e-05 1.9069053160539288e-05 1.1632796988037809e-10 -9.3749065236716948e-05 1.5568662642887722e-05 1.4829286413986568e-11 -7.0354932310016675e-05 9.7378469154827887e-06 1.1917952861234713e-10 -6.4238844142917558e-05 6.8267158922985044e-06 -6.5613409532877749e-13 -7.2782319037634156e-05 1.0140296492991414e-05 6.6733571786499894e-11 -9.3749048187221032e-05 5.7672753935818928e-06 1.6416672406138705e-10 -7.6511852825469735e-05 1.0289892187843677e-05 -6.9781293401926485e-11 -9.3749048606080112e-05 1.0140296492991414e-05 6.6733571786499894e-11 -9.3749048187221032e-05 1.6239163291157697e-05 -4.4032921701086714e-12 -9.3749062975890968e-05 1.5568662642887722e-05 1.4829286413986568e-11 -7.0354932310016661e-05 1.4317393682033332e-05 1.2485696440241724e-10 -9.3749050731966628e-05 9.7378469154827887e-06 1.1917952861234713e-10 -6.4238844142917558e-05 9.7091776339367547e-06 2.1229218402194649e-10 -9.3749045945666149e-05 1.5598358052437253e-05 1.7176616398226072e-10 -7.3026426643141648e-05 1.0289892187843677e-05 -6.9781293401926485e-11 -9.3749048606080112e-05 1.0140296492991414e-05 6.6733571786499894e-11 -9.3749048187221032e-05 1.5568662642887726e-05 1.4829286413986571e-11 -7.0354932310016661e-05 6.826715892298507e-06 -6.5613409532875336e-13 -7.2782319037634156e-05 1.4317393682033332e-05 1.2485696440241724e-10 -9.3749050731966628e-05 1.5568662642887722e-05 1.4829286413986555e-11 -7.0354932310016675e-05 9.7378469154827887e-06 1.1917952861234713e-10 -6.4238844142917558e-05 1.5598358052437253e-05 1.7176616398226072e-10 -7.3026426643141648e-05 1.0140296492991414e-05 6.6733571786499894e-11 -9.3749048187221032e-05 9.7378469154827904e-06 1.1917952861234711e-10 -6.4238844142917544e-05 1.5568662642887722e-05 1.4829286413986604e-11 -7.0354932310016661e-05 6.8267158922985053e-06 -6.5613409532875275e-13 -7.2782319037634156e-05 1.4317393682033332e-05 1.2485696440241724e-10 -9.3749050731966628e-05 1.6239163291157697e-05 -4.4032921701086714e-12 -9.3749062975890968e-05 1.0140296492991414e-05 6.6733571786499894e-11 -9.3749048187221032e-05 1.5568662642887722e-05 1.4829286413986568e-11 -7.0354932310016675e-05 9.7091776339367547e-06 2.1229218402194649e-10 -9.3749045945666149e-05 1.4317393682033332e-05 1.2485696440241724e-10 -9.3749050731966628e-05 1.0140296492991414e-05 6.6733571786499894e-11 -9.3749048187221032e-05 9.7378469154827887e-06 1.1917952861234713e-10 -6.4238844142917558e-05 1.4317393682033332e-05 1.2485696440241724e-10 -9.3749050731966628e-05 1.0140296492991414e-05 6.6733571786499894e-11 -9.3749048187221032e-05 9.7378469154827887e-06 1.1917952861234713e-10 -6.4238844142917558e-05 1.5568662642887722e-05 1.4829286413986568e-11 -7.0354932310016675e-05 1.0140296492991414e-05 6.6733571786499894e-11 -9.3749048187221032e-05 9.709177633936753e-06 2.1229218402194646e-10 -9.3749045945666149e-05 9.7378469154827887e-06 1.1917952861234713e-10 -6.4238844142917544e-05 5.7672753935818937e-06 1.6416672406138707e-10 -7.6511852825469735e-05 9.7378469154827887e-06 1.1917952861234713e-10 -6.4238844142917558e-05 1.5626091574759127e-05 -1.8183402471537479e-12 -4.6875145498662375e-05 7.7409206933156903e-06 2.1289200158487419e-11 -4.2280066784070145e-05 1.5621086623542756e-05 1.5926895263044263e-10 -4.9656960170750858e-05 9.7378469154827887e-06 1.1917952861234713e-10 -6.4238844142917558e-05 1.5568662642887722e-05 1.4829286413986574e-11 -7.0354932310016675e-05 1.5626091574759131e-05 -1.8183402471537311e-12 -4.6875145498662375e-05 1.5621086623542756e-05 1.5926895263044263e-10 -4.9656960170750864e-05 9.7378469154827887e-06 1.1917952861234713e-10 -6.4238844142917558e-05 1.5621086623542759e-05 1.5926895263044263e-10 -4.9656960170750871e-05 7.7409206933156903e-06 2.1289200158487481e-11 -4.2280066784070145e-05 7.0370266726697277e-06 1.8534891032294552e-10 -4.5175733304383464e-05 1.5626091574759127e-05 -1.8183402471537628e-12 -4.6875145498662381e-05 9.7378469154827887e-06 1.1917952861234713e-10 -6.4238844142917558e-05 7.7409206933156903e-06 2.1289200158487449e-11 -4.2280066784070145e-05 6.8267158922985053e-06 -6.5613409532875275e-13 -7.2782319037634156e-05 9.7378469154827887e-06 1.1917952861234713e-10 -6.4238844142917558e-05 1.5626091574759127e-05 -1.8183402471537812e-12 -4.6875145498662381e-05 1.5568662642887722e-05 1.4829286413986568e-11 -7.0354932310016675e-05 6.8267158922985036e-06 -6.5613409532878233e-13 -7.2782319037634143e-05 1.5568662642887722e-05 1.4829286413986568e-11 -7.0354932310016675e-05 1.5621086623542756e-05 1.5926895263044263e-10 -4.9656960170750864e-05 9.7378469154827887e-06 1.1917952861234713e-10 -6.4238844142917558e-05 1.5598358052437253e-05 1.7176616398226072e-10 -7.3026426643141648e-05 1.0140745686962378e-05 3.6841816183589416e-10 -5.6268846544187733e-05 1.4319814888836388e-05 2.6679542808080755e-10 -6.4658843569293279e-05 9.7378469154827887e-06 1.1917952861234713e-10 -6.4238844142917558e-05 1.5621086623542752e-05 1.5926895263044263e-10 -4.9656960170750878e-05 1.4319814888836388e-05 2.6679542808080755e-10 -6.4658843569293279e-05 9.714770914627769e-06 3.2600938061068493e-10 -7.6377557262500241e-05 1.0140745686962378e-05 3.6841816183589416e-10 -5.6268846544187733e-05 9.7378469154827887e-06 1.1917952861234713e-10 -6.4238844142917558e-05 1.4319814888836388e-05 2.6679542808080755e-10 -6.4658843569293279e-05 9.7378469154827887e-06 1.1917952861234713e-10 -6.4238844142917558e-05 1.5621086623542756e-05 1.5926895263044263e-10 -4.9656960170750864e-05 1.5598358052437253e-05 1.7176616398226072e-10 -7.3026426643141648e-05 1.0140745686962378e-05 3.6841816183589416e-10 -5.6268846544187733e-05 9.7378469154827887e-06 1.1917952861234713e-10 -6.4238844142917558e-05 9.7147709146277707e-06 3.2600938061068488e-10 -7.6377557262500228e-05 5.7672753935818937e-06 1.6416672406138707e-10 -7.6511852825469735e-05 1.0140745686962378e-05 3.6841816183589416e-10 -5.6268846544187733e-05 1.5621086623542752e-05 1.5926895263044263e-10 -4.9656960170750871e-05 9.7378469154827887e-06 1.1917952861234713e-10 -6.4238844142917571e-05 7.0370266726697294e-06 1.8534891032294565e-10 -4.517573330438347e-05 1.4319814888836388e-05 2.6679542808080755e-10 -6.4658843569293279e-05 9.7147709146277707e-06 3.2600938061068493e-10 -7.6377557262500241e-05 9.7378469154827853e-06 1.1917952861234708e-10 -6.4238844142917544e-05 1.5598358052437253e-05 1.7176616398226072e-10 -7.3026426643141648e-05 1.0290273037581288e-05 3.5333049348687939e-10 -3.7140404936178861e-05 1.5621086623542759e-05 1.5926895263044263e-10 -4.9656960170750864e-05 1.0140745686962378e-05 3.6841816183589416e-10 -5.6268846544187733e-05 7.0370266726697277e-06 1.8534891032294554e-10 -4.517573330438347e-05 1.0140745686962378e-05 3.6841816183589416e-10 -5.6268846544187733e-05 9.7378469154827904e-06 1.1917952861234713e-10 -6.4238844142917571e-05 4.9691171672964561e-06 3.0221516391700705e-10 -6.5106860809522699e-05 7.0370266726697277e-06 1.8534891032294557e-10 -4.5175733304383464e-05 1.0290273037581288e-05 3.5333049348687939e-10 -3.7140404936178861e-05 1.6239109627333688e-05 3.1638313379482949e-10 -4.6875180847950101e-05 1.0140745686962378e-05 3.6841816183589416e-10 -5.6268846544187733e-05 1.5621086623542756e-05 1.5926895263044263e-10 -4.9656960170750864e-05 1.0140745686962378e-05 3.6841816183589416e-10 -5.6268846544187733e-05 1.6239109627333688e-05 3.1638313379482949e-10 -4.6875180847950101e-05 1.4319814888836388e-05 2.6679542808080755e-10 -6.4658843569293279e-05 1.5621086623542756e-05 1.5926895263044268e-10 -4.9656960170750864e-05 1.4319814888836388e-05 2.6679542808080755e-10 -6.4658843569293279e-05 1.592927728412407e-05 3.0165989291049992e-10 -7.8313471185372722e-05 9.714770914627769e-06 3.2600938061068493e-10 -7.6377557262500241e-05 1.5598358052437253e-05 1.7176616398226072e-10 -7.3026426643141648e-05 9.714770914627769e-06 3.2600938061068493e-10 -7.6377557262500241e-05 1.5598358052437257e-05 1.717661639822607e-10 -7.3026426643141634e-05 9.7091776339367547e-06 2.1229218402194649e-10 -9.3749045945666149e-05 5.7672753935818937e-06 1.6416672406138707e-10 -7.6511852825469735e-05 9.714770914627769e-06 3.2600938061068493e-10 -7.6377557262500241e-05 9.737846915482787e-06 1.1917952861234718e-10 -6.4238844142917558e-05 1.5598358052437253e-05 1.717661639822606e-10 -7.3026426643141648e-05 5.7672753935818937e-06 1.6416672406138707e-10 -7.6511852825469735e-05 1.5877192603609149e-05 2.3974196632526189e-10 -9.3749058959091014e-05 9.7147709146277673e-06 3.2600938061068493e-10 -7.6377557262500241e-05 1.592927728412407e-05 3.0165989291049992e-10 -7.8313471185372722e-05 1.5598358052437253e-05 1.7176616398226072e-10 -7.3026426643141648e-05 9.7091776339367547e-06 2.1229218402194649e-10 -9.3749045945666149e-05 1.559835805243725e-05 1.717661639822608e-10 -7.3026426643141634e-05 9.7378469154827887e-06 1.1917952861234708e-10 -6.4238844142917571e-05 5.7672753935818937e-06 1.6416672406138707e-10 -7.6511852825469735e-05 9.714770914627769e-06 3.2600938061068493e-10 -7.6377557262500241e-05 1.2500906378164619e-05 4.0427464654238341e-10 -9.3749096049051443e-05 1.5877192603609149e-05 2.3974196632526189e-10 -9.3749058959091014e-05 1.592927728412407e-05 3.0165989291049992e-10 -7.8313471185372722e-05 9.714770914627769e-06 3.2600938061068493e-10 -7.6377557262500241e-05 1.2500906378164619e-05 4.0427464654238341e-10 -9.3749096049051443e-05 9.7091776339367547e-06 2.1229218402194649e-10 -9.3749045945666149e-05 1.5877192603609149e-05 2.3974196632526189e-10 -9.3749058959091014e-05 9.714770914627769e-06 3.2600938061068493e-10 -7.6377557262500241e-05 1.5877192603609149e-05 2.3974196632526189e-10 -9.3749058959091014e-05 9.7091776339367547e-06 2.1229218402194649e-10 -9.3749045945666149e-05 1.5598358052437253e-05 1.7176616398226067e-10 -7.3026426643141634e-05 1.4317393682033332e-05 1.2485696440241724e-10 -9.3749050731966628e-05 9.7091776339367547e-06 2.1229218402194649e-10 -9.3749045945666149e-05 1.5877192603609149e-05 2.3974196632526189e-10 -9.3749058959091014e-05 1.5598358052437253e-05 1.7176616398226072e-10 -7.3026426643141648e-05 1.2500906378164619e-05 4.0427464654238341e-10 -9.3749096049051443e-05 6.2504419773629126e-06 3.2986095609022777e-10 -9.374907740243792e-05 9.714770914627769e-06 3.2600938061068493e-10 -7.6377557262500241e-05 9.7091776339367547e-06 2.1229218402194649e-10 -9.3749045945666149e-05 4.9691171672964561e-06 3.0221516391700705e-10 -6.5106860809522699e-05 9.714770914627769e-06 3.2600938061068493e-10 -7.6377557262500241e-05 4.5756437803110685e-06 2.4310203918626087e-10 -8.002342128908065e-05 5.7672753935818937e-06 1.6416672406138707e-10 -7.6511852825469735e-05 9.714770914627769e-06 3.2600938061068493e-10 -7.6377557262500241e-05 9.7091776339367547e-06 2.1229218402194649e-10 -9.3749045945666149e-05 4.5756437803110685e-06 2.4310203918626087e-10 -8.002342128908065e-05 5.7672753935818937e-06 1.6416672406138707e-10 -7.6511852825469735e-05 9.714770914627769e-06 3.2600938061068493e-10 -7.6377557262500241e-05 6.2504419773629117e-06 3.2986095609022767e-10 -9.374907740243792e-05 4.5756437803110685e-06 2.4310203918626087e-10 -8.002342128908065e-05 9.7091776339367547e-06 2.1229218402194649e-10 -9.3749045945666149e-05 4.5756465773727976e-06 2.1240033618944545e-10 -9.3749037101987172e-05 4.5756437803110685e-06 2.4310203918626087e-10 -8.002342128908065e-05 6.2504419773629126e-06 3.2986095609022777e-10 -9.374907740243792e-05 9.7091776339367547e-06 2.1229218402194649e-10 -9.3749045945666149e-05 9.7091776339367547e-06 2.1229218402194649e-10 -9.3749045945666149e-05 4.9681144290438514e-06 1.1897122240204351e-10 -9.3749049561970765e-05 4.5756465773727976e-06 2.1240033618944545e-10 -9.3749037101987172e-05 5.7672753935818937e-06 1.6416672406138707e-10 -7.6511852825469735e-05 4.5756465773727976e-06 2.1240033618944545e-10 -9.3749037101987172e-05 4.5756437803110685e-06 2.4310203918626087e-10 -8.0023421289080637e-05 9.7091776339367547e-06 2.1229218402194646e-10 -9.3749045945666135e-05 5.7672753935818937e-06 1.6416672406138705e-10 -7.6511852825469735e-05 -3.0699731072382188e-15 2.0188365429058757e-10 -8.00234194507128e-05 9.2332058244923412e-16 1.1819631331809675e-10 -7.9849717276556998e-05 5.000616256388858e-17 1.9119463616588456e-10 -6.6133159398100728e-05 5.7672753935818937e-06 1.6416672406138707e-10 -7.6511852825469735e-05 4.9691171672964561e-06 3.0221516391700705e-10 -6.5106860809522699e-05 -3.0699728916789196e-15 2.0188365429058752e-10 -8.00234194507128e-05 5.0006331320149628e-17 1.9119463616588451e-10 -6.6133159398100715e-05 5.7672753935818928e-06 1.6416672406138705e-10 -7.6511852825469735e-05 5.7672753935818937e-06 1.6416672406138707e-10 -7.6511852825469735e-05 1.5046293948806543e-15 1.7898416886436423e-10 -9.3749045603226734e-05 4.9681144290438488e-06 1.1897122240204356e-10 -9.3749049561970752e-05 4.5756465773727976e-06 2.1240033618944543e-10 -9.3749037101987172e-05 4.5756437803110685e-06 2.4310203918626087e-10 -8.002342128908065e-05 4.5756465773727976e-06 2.1240033618944545e-10 -9.3749037101987186e-05 -3.0699731072382188e-15 2.0188365429058757e-10 -8.00234194507128e-05 5.7672753935818937e-06 1.6416672406138707e-10 -7.6511852825469735e-05 -3.0699731072382188e-15 2.0188365429058757e-10 -8.00234194507128e-05 1.504628393020286e-15 1.7898416886436428e-10 -9.3749045603226734e-05 9.2332058244923412e-16 1.1819631331809675e-10 -7.9849717276556998e-05 5.7672753935818937e-06 1.6416672406138707e-10 -7.6511852825469735e-05 -3.0699731072382188e-15 2.0188365429058757e-10 -8.00234194507128e-05 4.5756465773727976e-06 2.1240033618944545e-10 -9.3749037101987172e-05 1.5046285905904155e-15 1.7898416886436428e-10 -9.3749045603226747e-05 5.7672753935818937e-06 1.6416672406138707e-10 -7.6511852825469735e-05 2.5549390029856987e-15 3.3273780575699989e-10 -9.3749065701306889e-05 -3.0699733056752585e-15 2.018836542905876e-10 -8.00234194507128e-05 4.5756465773727976e-06 2.1240033618944545e-10 -9.3749037101987172e-05 1.5046283562978169e-15 1.7898416886436428e-10 -9.3749045603226734e-05 -3.0699731072382188e-15 2.0188365429058757e-10 -8.00234194507128e-05 4.5756437803110685e-06 2.4310203918626082e-10 -8.0023421289080637e-05 2.5549390029856987e-15 3.3273780575699989e-10 -9.3749065701306889e-05 4.5756465773727976e-06 2.1240033618944545e-10 -9.3749037101987172e-05 6.2504419773629126e-06 3.2986095609022777e-10 -9.374907740243792e-05 2.5549391385201106e-15 3.3273780575699995e-10 -9.3749065701306889e-05 4.5756437803110685e-06 2.4310203918626087e-10 -8.002342128908065e-05 4.5756465773727976e-06 2.1240033618944545e-10 -9.3749037101987172e-05 4.5756437803110685e-06 2.4310203918626087e-10 -8.002342128908065e-05 2.5549390029856987e-15 3.3273780575699989e-10 -9.3749065701306889e-05 1.5491470185428823e-15 2.9325562162714782e-10 -7.4999485743388036e-05 -3.0699731072382188e-15 2.0188365429058757e-10 -8.00234194507128e-05 4.5756437803110685e-06 2.4310203918626087e-10 -8.002342128908065e-05 -3.0699731059707291e-15 2.0188365429058757e-10 -8.00234194507128e-05 4.9691171672964561e-06 3.0221516391700705e-10 -6.5106860809522699e-05 5.7672753935818937e-06 1.6416672406138707e-10 -7.6511852825469735e-05 4.9691171672964561e-06 3.0221516391700705e-10 -6.5106860809522699e-05 1.5491458231844083e-15 2.9325562162714792e-10 -7.4999485743388049e-05 5.000616256388858e-17 1.9119463616588456e-10 -6.6133159398100728e-05 -3.0699731072382188e-15 2.0188365429058757e-10 -8.00234194507128e-05 1.5491473888312109e-15 2.9325562162714787e-10 -7.4999485743388049e-05 4.9691171672964561e-06 3.0221516391700705e-10 -6.5106860809522699e-05 4.5756437803110685e-06 2.4310203918626087e-10 -8.002342128908065e-05 -3.0699731072382188e-15 2.0188365429058757e-10 -8.00234194507128e-05 5.000616256388858e-17 1.9119463616588456e-10 -6.6133159398100728e-05 4.7895053758596809e-15 3.6113764457425832e-10 -5.6249927851314515e-05 1.5491473888312109e-15 2.9325562162714787e-10 -7.4999485743388049e-05 4.9691171672964561e-06 3.0221516391700705e-10 -6.5106860809522699e-05 9.7378469154827887e-06 1.1917952861234713e-10 -6.4238844142917558e-05 7.0370266726697294e-06 1.8534891032294557e-10 -4.5175733304383477e-05 5.0004992180906818e-17 1.9119463616588451e-10 -6.6133159398100728e-05 5.7672753935818945e-06 1.6416672406138707e-10 -7.6511852825469735e-05 5.000616256388858e-17 1.9119463616588456e-10 -6.6133159398100728e-05 -4.7945849685733165e-15 2.3833245884780921e-10 -4.7628259880443708e-05 4.7895053758596809e-15 3.6113764457425832e-10 -5.6249927851314515e-05 4.9691171672964561e-06 3.0221516391700705e-10 -6.5106860809522699e-05 4.9691171672964561e-06 3.0221516391700705e-10 -6.5106860809522699e-05 9.7378469154827887e-06 1.1917952861234721e-10 -6.4238844142917544e-05 1.0140745686962378e-05 3.6841816183589416e-10 -5.6268846544187733e-05 5.7672753935818937e-06 1.6416672406138707e-10 -7.6511852825469735e-05 4.9691171672964561e-06 3.0221516391700705e-10 -6.5106860809522699e-05 7.0370266726697336e-06 1.8534891032294554e-10 -4.517573330438347e-05 9.7378469154827836e-06 1.1917952861234713e-10 -6.4238844142917571e-05 5.7672753935818937e-06 1.6416672406138707e-10 -7.6511852825469735e-05 4.9691171672964561e-06 3.0221516391700705e-10 -6.5106860809522699e-05 5.0007568586822456e-17 1.9119463616588451e-10 -6.6133159398100728e-05 7.0370266726697285e-06 1.8534891032294554e-10 -4.517573330438347e-05 5.7672753935818928e-06 1.6416672406138705e-10 -7.6511852825469735e-05 4.9691171672964561e-06 3.0221516391700705e-10 -6.5106860809522699e-05 1.0140745686962378e-05 3.6841816183589416e-10 -5.6268846544187726e-05 9.714770914627769e-06 3.2600938061068493e-10 -7.6377557262500241e-05 5.7672753935818937e-06 1.6416672406138707e-10 -7.6511852825469735e-05 1.0140745686962378e-05 3.6841816183589416e-10 -5.6268846544187733e-05 4.9691171672964561e-06 3.0221516391700705e-10 -6.5106860809522699e-05 5.3835406743850537e-06 3.3029230807316357e-10 -4.672192217064354e-05 7.0370266726697285e-06 1.8534891032294554e-10 -4.517573330438347e-05 -4.794585701693236e-15 2.3833245884780921e-10 -4.7628259880443708e-05 5.3835406743850546e-06 3.3029230807316357e-10 -4.672192217064354e-05 4.9691171672964561e-06 3.0221516391700705e-10 -6.5106860809522699e-05 7.0370266726697285e-06 1.8534891032294554e-10 -4.517573330438347e-05 4.7895053758596809e-15 3.6113764457425832e-10 -5.6249927851314515e-05 5.7621492245959298e-15 3.8700897329531298e-10 -3.750038293258123e-05 5.3835406743850537e-06 3.3029230807316357e-10 -4.672192217064354e-05 -4.794585701693236e-15 2.3833245884780921e-10 -4.7628259880443708e-05 -4.794585701693236e-15 2.3833245884780921e-10 -4.7628259880443708e-05 5.3835406743850554e-06 3.3029230807316357e-10 -4.672192217064354e-05 4.7895053758596809e-15 3.6113764457425832e-10 -5.6249927851314515e-05 4.9691171672964561e-06 3.0221516391700705e-10 -6.5106860809522699e-05 -4.794585701693236e-15 2.3833245884780921e-10 -4.7628259880443708e-05 4.9691171672964561e-06 3.0221516391700705e-10 -6.5106860809522699e-05 5.000616256388858e-17 1.9119463616588456e-10 -6.6133159398100728e-05 7.0370266726697285e-06 1.8534891032294554e-10 -4.517573330438347e-05 -1.668108758550405e-16 1.0631157958657552e-10 -5.6197664153622023e-05 -4.794585701693236e-15 2.3833245884780921e-10 -4.7628259880443708e-05 5.000616256388858e-17 1.9119463616588456e-10 -6.6133159398100728e-05 7.0370266726697285e-06 1.8534891032294554e-10 -4.517573330438347e-05 -1.668108758550405e-16 1.0631157958657552e-10 -5.6197664153622023e-05 5.0006301388291358e-17 1.9119463616588456e-10 -6.6133159398100728e-05 9.7378469154827887e-06 1.1917952861234711e-10 -6.4238844142917544e-05 7.0370266726697285e-06 1.8534891032294554e-10 -4.517573330438347e-05 -1.668108758550405e-16 1.0631157958657552e-10 -5.6197664153622023e-05 9.7378469154827853e-06 1.1917952861234698e-10 -6.4238844142917571e-05 5.0006400140529721e-17 1.9119463616588459e-10 -6.6133159398100715e-05 5.7672753935818937e-06 1.64166724061387e-10 -7.6511852825469749e-05 -1.668108758550405e-16 1.0631157958657552e-10 -5.6197664153622023e-05 5.000616256388858e-17 1.9119463616588456e-10 -6.6133159398100728e-05 3.8642443371187205e-16 6.6517632177312158e-11 -6.8177070014525815e-05 5.7672753935818962e-06 1.6416672406138707e-10 -7.6511852825469735e-05 -1.668108758550405e-16 1.0631157958657552e-10 -5.6197664153622023e-05 7.7409206933156903e-06 2.1289200158487413e-11 -4.2280066784070138e-05 9.7378469154827887e-06 1.1917952861234713e-10 -6.4238844142917558e-05 6.8267158922985053e-06 -6.5613409532877719e-13 -7.2782319037634156e-05 -1.668108758550405e-16 1.0631157958657552e-10 -5.6197664153622023e-05 3.8642443371187205e-16 6.6517632177312158e-11 -6.8177070014525815e-05 9.737846915482787e-06 1.1917952861234718e-10 -6.4238844142917558e-05 5.7672753935818954e-06 1.6416672406138707e-10 -7.6511852825469735e-05 -1.668108758550405e-16 1.0631157958657552e-10 -5.6197664153622023e-05 5.8998645759257785e-16 -1.8963154134398891e-11 -6.3112751620483044e-05 -2.6761833570267389e-15 3.1931889263408338e-12 -4.8714047978490953e-05 6.826715892298507e-06 -6.5613409532874699e-13 -7.2782319037634156e-05 3.8642443371187205e-16 6.6517632177312158e-11 -6.8177070014525815e-05 -1.668108758550405e-16 1.0631157958657552e-10 -5.6197664153622023e-05 9.7378469154827887e-06 1.1917952861234713e-10 -6.4238844142917558e-05 6.8267158922985053e-06 -6.5613409532875275e-13 -7.2782319037634156e-05 -1.668108758550405e-16 1.0631157958657552e-10 -5.6197664153622023e-05 9.7378469154827887e-06 1.1917952861234713e-10 -6.4238844142917558e-05 7.7409206933156903e-06 2.12892001584874e-11 -4.2280066784070138e-05 7.0370266726697285e-06 1.8534891032294554e-10 -4.517573330438347e-05 -1.668108758550405e-16 1.0631157958657552e-10 -5.6197664153622023e-05 -2.6761829786800163e-15 3.1931889263408313e-12 -4.8714047978490953e-05 7.7409206933156903e-06 2.1289200158487449e-11 -4.2280066784070145e-05 6.826715892298507e-06 -6.5613409532880475e-13 -7.2782319037634156e-05 9.2243391144943525e-16 1.2069070025922767e-10 -4.2810762509020441e-05 -4.7945857030420051e-15 2.3833245884780921e-10 -4.7628259880443708e-05 -1.668108758550405e-16 1.0631157958657552e-10 -5.6197664153622023e-05 7.0370266726697285e-06 1.8534891032294554e-10 -4.517573330438347e-05 -1.668108758550405e-16 1.0631157958657552e-10 -5.6197664153622023e-05 -2.6761829786800163e-15 3.1931889263408313e-12 -4.8714047978490953e-05 9.2243391144943525e-16 1.2069070025922767e-10 -4.2810762509020441e-05 7.7409206933156903e-06 2.1289200158487449e-11 -4.2280066784070145e-05 3.8642443371187205e-16 6.6517632177312158e-11 -6.8177070014525815e-05 5.8998645759257785e-16 -1.8963154134398891e-11 -6.3112751620483044e-05 -1.6681062766726669e-16 1.0631157958657552e-10 -5.6197664153622016e-05 6.8267158922985053e-06 -6.5613409532875275e-13 -7.2782319037634156e-05 -2.2154648040502083e-16 5.830129712176642e-12 -7.8929322851106827e-05 9.2332058244923412e-16 1.1819631331809675e-10 -7.9849717276556998e-05 4.9681144290438514e-06 1.1897122240204351e-10 -9.3749049561970765e-05 6.8267158922985061e-06 -6.5613409532873225e-13 -7.2782319037634143e-05 3.8642443371187205e-16 6.6517632177312158e-11 -6.8177070014525815e-05 6.8267158922985053e-06 -6.5613409532876063e-13 -7.2782319037634156e-05 9.7378469154827887e-06 1.1917952861234713e-10 -6.4238844142917558e-05 5.7672753935818945e-06 1.641667240613871e-10 -7.6511852825469735e-05 4.9681144290438514e-06 1.1897122240204351e-10 -9.3749049561970765e-05 6.8267158922985053e-06 -6.5613409532874932e-13 -7.2782319037634143e-05 9.2331923649598667e-16 1.1819631331809673e-10 -7.9849717276556998e-05 5.7672753935818937e-06 1.6416672406138705e-10 -7.6511852825469735e-05 -2.2154648040502083e-16 5.830129712176642e-12 -7.8929322851106827e-05 5.8998645759257785e-16 -1.8963154134398891e-11 -6.3112751620483044e-05 3.8642443371187205e-16 6.6517632177312158e-11 -6.8177070014525815e-05 6.826715892298507e-06 -6.5613409532875366e-13 -7.2782319037634143e-05 -2.2154648040502083e-16 5.830129712176642e-12 -7.8929322851106827e-05 3.8642443371187205e-16 6.6517632177312158e-11 -6.8177070014525815e-05 9.2332058244923412e-16 1.1819631331809675e-10 -7.9849717276556998e-05 6.826715892298507e-06 -6.5613409532875275e-13 -7.278231903763417e-05 4.9681144290438514e-06 1.1897122240204351e-10 -9.3749049561970765e-05 1.0140296492991414e-05 6.6733571786499881e-11 -9.3749048187221032e-05 6.8267158922985053e-06 -6.561340953287472e-13 -7.2782319037634156e-05 5.7672753935818928e-06 1.6416672406138707e-10 -7.6511852825469735e-05 3.8642443371187205e-16 6.6517632177312158e-11 -6.8177070014525815e-05 9.2332055416832533e-16 1.1819631331809675e-10 -7.9849717276556998e-05 6.8267158922985044e-06 -6.5613409532875184e-13 -7.2782319037634156e-05 5.7672753935818954e-06 1.6416672406138712e-10 -7.6511852825469735e-05 5.000616256388858e-17 1.9119463616588456e-10 -6.6133159398100728e-05 9.2332058244923412e-16 1.1819631331809675e-10 -7.9849717276556998e-05 3.8642428682199564e-16 6.6517632177312158e-11 -6.8177070014525815e-05 5.7672753935818937e-06 1.6416672406138707e-10 -7.6511852825469735e-05 4.9681144290438514e-06 1.1897122240204351e-10 -9.3749049561970765e-05 1.0140296492991414e-05 6.6733571786499894e-11 -9.3749048187221032e-05 5.38355919314359e-06 3.0042458012392705e-13 -9.3749047689135789e-05 6.8267158922985053e-06 -6.5613409532875275e-13 -7.2782319037634156e-05 4.9681144290438514e-06 1.1897122240204351e-10 -9.3749049561970765e-05 5.3835591931435908e-06 3.0042458012394174e-13 -9.3749047689135803e-05 -2.2154648040502083e-16 5.830129712176642e-12 -7.8929322851106827e-05 6.8267158922985053e-06 -6.5613409532875275e-13 -7.2782319037634156e-05 1.0140296492991414e-05 6.6733571786499894e-11 -9.3749048187221032e-05 4.9681144290438514e-06 1.1897122240204351e-10 -9.3749049561970765e-05 9.7091776339367564e-06 2.1229218402194649e-10 -9.3749045945666149e-05 5.7672753935818937e-06 1.6416672406138707e-10 -7.6511852825469735e-05 5.7672753935818937e-06 1.6416672406138707e-10 -7.6511852825469735e-05 4.9681144290438505e-06 1.1897122240204356e-10 -9.3749049561970765e-05 1.5046293896462086e-15 1.7898416886436426e-10 -9.3749045603226734e-05 9.2332058244923412e-16 1.1819631331809675e-10 -7.9849717276556998e-05 9.2332058244923412e-16 1.1819631331809675e-10 -7.9849717276556998e-05 -2.2154649106244407e-16 5.830129712176642e-12 -7.8929322851106827e-05 4.9681144290438514e-06 1.1897122240204351e-10 -9.3749049561970765e-05 1.0062837504688194e-15 6.0795754838164515e-11 -9.3749052064089828e-05 4.9681144290438514e-06 1.1897122240204351e-10 -9.3749049561970765e-05 1.5046283562978169e-15 1.7898416886436428e-10 -9.3749045603226734e-05 9.2332017391684758e-16 1.1819631331809675e-10 -7.9849717276556998e-05 1.0062837504688194e-15 6.0795754838164515e-11 -9.3749052064089828e-05 1.0062837504688194e-15 6.0795754838164515e-11 -9.3749052064089828e-05 -2.2154648040502083e-16 5.830129712176642e-12 -7.8929322851106827e-05 4.9681144290438514e-06 1.1897122240204351e-10 -9.3749049561970765e-05 5.3835591931435908e-06 3.0042458012394174e-13 -9.3749047689135803e-05 -2.2154648040502083e-16 5.830129712176642e-12 -7.8929322851106827e-05 1.0062837504688194e-15 6.0795754838164515e-11 -9.3749052064089828e-05 9.7047671885680362e-16 -6.0168226591535165e-11 -9.3749050645373352e-05 5.3835591931435908e-06 3.0042458012394174e-13 -9.3749047689135803e-05 5.3835591931435908e-06 3.0042458012394174e-13 -9.3749047689135803e-05 9.7047703357662502e-16 -6.0168226591535165e-11 -9.3749050645373339e-05 -2.2154555644298551e-16 5.8301297121766065e-12 -7.8929322851106827e-05 1.2453187777498706e-15 -1.1242315973027841e-10 -7.5786847449444626e-05 9.7047703357662502e-16 -6.0168226591535165e-11 -9.3749050645373339e-05 5.3835591931435908e-06 3.0042458012394174e-13 -9.3749047689135803e-05 5.2909225709639768e-06 -1.1781374502471741e-10 -9.3749042009219508e-05 1.2453205708352818e-15 -1.1242315973027843e-10 -7.5786847449444626e-05 -5.1912019224899535e-15 -2.0897433072512049e-10 -8.0023415357424944e-05 1.2453205708352818e-15 -1.1242315973027843e-10 -7.5786847449444626e-05 5.2909225709639768e-06 -1.1781374502471739e-10 -9.3749042009219494e-05 9.8215568455767458e-06 -1.1978318523036638e-10 -6.4463309111626604e-05 5.2909225709639768e-06 -1.1781374502471741e-10 -9.3749042009219508e-05 9.8215568455767424e-06 -1.1978318523036631e-10 -6.4463309111626604e-05 1.2453208235076406e-15 -1.1242315973027843e-10 -7.5786847449444639e-05 6.8267158922985044e-06 -6.5613409532874932e-13 -7.2782319037634156e-05 -2.2154648040502083e-16 5.830129712176642e-12 -7.8929322851106827e-05 1.2453206685231612e-15 -1.1242315973027843e-10 -7.5786847449444626e-05 5.8998645759257785e-16 -1.8963154134398891e-11 -6.3112751620483044e-05 6.826715892298507e-06 -6.5613409532875305e-13 -7.2782319037634143e-05 -2.2154648040502083e-16 5.830129712176642e-12 -7.8929322851106827e-05 5.38355919314359e-06 3.0042458012394371e-13 -9.3749047689135803e-05 1.2453206859062018e-15 -1.1242315973027843e-10 -7.5786847449444626e-05 6.8267158922985061e-06 -6.5613409532875033e-13 -7.2782319037634156e-05 1.2453205708352818e-15 -1.1242315973027843e-10 -7.5786847449444626e-05 5.2909225709639768e-06 -1.1781374502471741e-10 -9.3749042009219508e-05 9.7047703357662502e-16 -6.0168226591535165e-11 -9.3749050645373339e-05 2.2746811314203956e-15 -1.8002176432787033e-10 -9.3749045154007852e-05 5.3835591931435908e-06 3.0042458012394174e-13 -9.3749047689135803e-05 1.0289892187843677e-05 -6.9781293401926485e-11 -9.3749048606080112e-05 5.2909225709639768e-06 -1.1781374502471741e-10 -9.3749042009219508e-05 6.8267158922985053e-06 -6.5613409532875275e-13 -7.2782319037634156e-05 5.3835591931435908e-06 3.0042458012394174e-13 -9.3749047689135803e-05 5.2909225709639768e-06 -1.1781374502471741e-10 -9.3749042009219508e-05 1.2453218105030623e-15 -1.1242315973027843e-10 -7.5786847449444626e-05 6.8267158922985044e-06 -6.5613409532875315e-13 -7.2782319037634143e-05 9.8790786879021581e-06 -2.0866308679466537e-10 -9.374904366258349e-05 5.2909225709639768e-06 -1.1781374502471741e-10 -9.3749042009219508e-05 1.0289892187843677e-05 -6.9781293401926485e-11 -9.3749048606080112e-05 9.8215568455767407e-06 -1.1978318523036631e-10 -6.4463309111626604e-05 1.0140296492991414e-05 6.6733571786499894e-11 -9.3749048187221032e-05 1.0289892187843677e-05 -6.9781293401926485e-11 -9.3749048606080112e-05 5.3835591931435908e-06 3.0042458012394174e-13 -9.3749047689135803e-05 6.8267158922985053e-06 -6.5613409532875275e-13 -7.2782319037634156e-05 1.4317399848882188e-05 -1.3264131488562911e-10 -9.3749055464220496e-05 9.821556845576739e-06 -1.1978318523036631e-10 -6.4463309111626604e-05 1.5568662642887722e-05 1.4829286413986568e-11 -7.0354932310016675e-05 1.5652563704080097e-05 -1.9179272123437367e-10 -7.3204049675458611e-05 1.0289892187843677e-05 -6.9781293401926485e-11 -9.3749048606080112e-05 1.5568662642887726e-05 1.4829286413986578e-11 -7.0354932310016688e-05 9.8215568455767407e-06 -1.1978318523036633e-10 -6.4463309111626604e-05 6.8267158922985061e-06 -6.5613409532878405e-13 -7.2782319037634156e-05 9.8790786879021581e-06 -2.0866308679466537e-10 -9.374904366258349e-05 1.0289892187843677e-05 -6.9781293401926498e-11 -9.3749048606080112e-05 1.4317399848882188e-05 -1.3264131488562911e-10 -9.3749055464220496e-05 9.821556845576739e-06 -1.1978318523036631e-10 -6.4463309111626604e-05 1.4317399848882188e-05 -1.3264131488562911e-10 -9.3749055464220496e-05 9.8790786879021598e-06 -2.086630867946654e-10 -9.374904366258349e-05 9.8215568455767407e-06 -1.1978318523036633e-10 -6.4463309111626604e-05 1.5652563704080093e-05 -1.9179272123437367e-10 -7.3204049675458583e-05 1.0289892187843677e-05 -6.9781293401926485e-11 -9.3749048606080112e-05 1.4317399848882188e-05 -1.3264131488562911e-10 -9.3749055464220496e-05 9.8215568455767407e-06 -1.1978318523036633e-10 -6.4463309111626604e-05 1.5568662642887726e-05 1.4829286413986626e-11 -7.0354932310016675e-05 1.0289892187843677e-05 -6.9781293401926485e-11 -9.3749048606080112e-05 9.8215568455767407e-06 -1.1978318523036633e-10 -6.4463309111626604e-05 5.2909225709639768e-06 -1.1781374502471741e-10 -9.3749042009219508e-05 6.826715892298507e-06 -6.5613409532880172e-13 -7.278231903763417e-05 1.0289892187843677e-05 -6.9781293401926485e-11 -9.3749048606080112e-05 1.6239163291157697e-05 -4.4032921701086665e-12 -9.3749062975890968e-05 1.4317399848882188e-05 -1.3264131488562911e-10 -9.3749055464220496e-05 1.5568662642887722e-05 1.4829286413986568e-11 -7.0354932310016675e-05 9.8215568455767407e-06 -1.1978318523036633e-10 -6.4463309111626604e-05 1.5568662642887719e-05 1.4829286413986591e-11 -7.0354932310016661e-05 1.5626091574759127e-05 -1.8183402471537509e-12 -4.6875145498662381e-05 6.8267158922985044e-06 -6.5613409532874023e-13 -7.2782319037634143e-05 7.7409206933156903e-06 2.1289200158487449e-11 -4.2280066784070145e-05 1.5649089646065347e-05 -1.6208601468792426e-10 -4.9581301137518179e-05 9.8215568455767373e-06 -1.1978318523036633e-10 -6.4463309111626604e-05 6.9032114344796316e-06 -1.5970690888193445e-10 -4.6879646701734525e-05 9.8215568455767407e-06 -1.1978318523036633e-10 -6.4463309111626604e-05 1.564908964606535e-05 -1.6208601468792426e-10 -4.9581301137518186e-05 1.5568662642887719e-05 1.4829286413986542e-11 -7.0354932310016661e-05 1.5652563704080093e-05 -1.9179272123437364e-10 -7.3204049675458597e-05 1.5626091574759127e-05 -1.8183402471537628e-12 -4.6875145498662381e-05 9.8215568455767407e-06 -1.1978318523036633e-10 -6.4463309111626604e-05 7.7409206933156903e-06 2.1289200158487449e-11 -4.2280066784070145e-05 1.564908964606535e-05 -1.6208601468792426e-10 -4.9581301137518186e-05 1.5626091574759127e-05 -1.8183402471537628e-12 -4.6875145498662381e-05 1.5568662642887726e-05 1.4829286413986568e-11 -7.0354932310016675e-05 9.8215568455767424e-06 -1.1978318523036636e-10 -6.4463309111626604e-05 1.564908964606535e-05 -1.6208601468792426e-10 -4.9581301137518186e-05 1.5626091574759127e-05 -1.8183402471537628e-12 -4.6875145498662381e-05 7.7409206933156903e-06 2.1289200158487449e-11 -4.2280066784070145e-05 9.8215568455767407e-06 -1.1978318523036636e-10 -6.4463309111626591e-05 6.8267158922985053e-06 -6.5613409532875275e-13 -7.2782319037634156e-05 6.8267158922985053e-06 -6.5613409532875275e-13 -7.2782319037634156e-05 9.8215568455767407e-06 -1.1978318523036633e-10 -6.4463309111626604e-05 -2.6761828153421186e-15 3.1931889263408293e-12 -4.8714047978490953e-05 7.7409206933156869e-06 2.1289200158487419e-11 -4.2280066784070145e-05 -2.3397872734249913e-15 -1.0852753067713237e-10 -4.2949306458741608e-05 7.7409206933156886e-06 2.1289200158487455e-11 -4.2280066784070145e-05 2.2551442629002907e-15 -1.1500066911199061e-10 -5.7231471239177537e-05 6.903211434479629e-06 -1.5970690888193445e-10 -4.6879646701734525e-05 2.2551441787013699e-15 -1.1500066911199061e-10 -5.7231471239177537e-05 -2.6761829786800163e-15 3.1931889263408313e-12 -4.8714047978490953e-05 9.8215568455767407e-06 -1.1978318523036628e-10 -6.4463309111626604e-05 7.7409206933156903e-06 2.1289200158487449e-11 -4.2280066784070145e-05 6.8267158922985053e-06 -6.5613409532875275e-13 -7.2782319037634156e-05 2.2551466910821501e-15 -1.1500066911199056e-10 -5.723147123917753e-05 -2.6761829786800163e-15 3.1931889263408313e-12 -4.8714047978490953e-05 9.8215568455767407e-06 -1.1978318523036633e-10 -6.4463309111626604e-05 2.2551441787013699e-15 -1.1500066911199061e-10 -5.7231471239177537e-05 7.7409206933156903e-06 2.1289200158487439e-11 -4.2280066784070138e-05 9.8215568455767407e-06 -1.1978318523036633e-10 -6.4463309111626604e-05 6.903211434479629e-06 -1.5970690888193447e-10 -4.6879646701734518e-05 6.8267158922985053e-06 -6.5613409532875275e-13 -7.2782319037634156e-05 -2.6761829786800163e-15 3.1931889263408313e-12 -4.8714047978490953e-05 2.255143938621329e-15 -1.1500066911199056e-10 -5.7231471239177537e-05 5.8998645759257785e-16 -1.8963154134398891e-11 -6.3112751620483044e-05 -4.6192654552891821e-15 -2.3333348521931993e-10 -6.5044395723993798e-05 2.2551441787013699e-15 -1.1500066911199061e-10 -5.7231471239177537e-05 9.8215568455767407e-06 -1.1978318523036631e-10 -6.4463309111626604e-05 6.903211434479629e-06 -1.5970690888193445e-10 -4.6879646701734525e-05 2.2551441787013699e-15 -1.1500066911199061e-10 -5.7231471239177537e-05 1.2453205708352818e-15 -1.1242315973027843e-10 -7.5786847449444626e-05 9.8215568455767407e-06 -1.1978318523036633e-10 -6.4463309111626604e-05 6.8267158922985044e-06 -6.5613409532880081e-13 -7.2782319037634156e-05 -4.6192654552891821e-15 -2.3333348521931993e-10 -6.5044395723993798e-05 2.2551441787013699e-15 -1.1500066911199061e-10 -5.7231471239177537e-05 1.2453207433442318e-15 -1.1242315973027843e-10 -7.5786847449444626e-05 9.8215568455767407e-06 -1.1978318523036633e-10 -6.4463309111626604e-05 -2.3397872734249913e-15 -1.0852753067713237e-10 -4.2949306458741608e-05 -2.6761829786800163e-15 3.1931889263408313e-12 -4.8714047978490953e-05 2.2551441787013699e-15 -1.1500066911199061e-10 -5.7231471239177537e-05 7.7409206933156903e-06 2.1289200158487449e-11 -4.2280066784070145e-05 2.2551441787013699e-15 -1.1500066911199061e-10 -5.7231471239177537e-05 5.899865702749607e-16 -1.8963154134398891e-11 -6.3112751620483044e-05 1.2453208715636538e-15 -1.1242315973027844e-10 -7.5786847449444626e-05 6.8267158922985019e-06 -6.5613409532871579e-13 -7.2782319037634156e-05 2.2551441787013699e-15 -1.1500066911199061e-10 -5.7231471239177537e-05 -4.7228214892874616e-15 -2.3703577694362555e-10 -4.7781485106608328e-05 -2.3397873961433693e-15 -1.0852753067713237e-10 -4.2949306458741608e-05 6.9032114344796307e-06 -1.5970690888193442e-10 -4.6879646701734525e-05 -4.6192654552891821e-15 -2.3333348521931993e-10 -6.5044395723993798e-05 4.5756424485816208e-06 -2.4289567648062024e-10 -8.0023423215970762e-05 5.8813406110042783e-06 -3.1568670205024527e-10 -6.409113335921574e-05 9.8215568455767407e-06 -1.1978318523036633e-10 -6.4463309111626604e-05 -4.6192654552891821e-15 -2.3333348521931993e-10 -6.5044395723993798e-05 9.8215568455767407e-06 -1.1978318523036633e-10 -6.4463309111626604e-05 5.8813406110042792e-06 -3.1568670205024527e-10 -6.4091133359215727e-05 6.903211434479629e-06 -1.5970690888193445e-10 -4.6879646701734525e-05 -4.6192654552891821e-15 -2.3333348521931993e-10 -6.5044395723993798e-05 5.8813406110042783e-06 -3.1568670205024532e-10 -6.409113335921574e-05 -4.7228214892874616e-15 -2.3703577694362555e-10 -4.7781485106608328e-05 6.903211434479629e-06 -1.5970690888193445e-10 -4.6879646701734525e-05 -4.6192654552891821e-15 -2.3333348521931993e-10 -6.5044395723993798e-05 -4.7228214892874616e-15 -2.3703577694362555e-10 -4.7781485106608328e-05 2.2551439614119982e-15 -1.1500066911199061e-10 -5.7231471239177537e-05 6.903211434479629e-06 -1.5970690888193445e-10 -4.6879646701734525e-05 9.1024535445172877e-15 -3.4466155748743113e-10 -7.4999474030719061e-05 9.2584711406968235e-15 -4.0660780248845761e-10 -5.6249925222190525e-05 -4.6192654552891821e-15 -2.3333348521931993e-10 -6.5044395723993798e-05 5.8813406110042792e-06 -3.1568670205024532e-10 -6.409113335921574e-05 9.2584711406968235e-15 -4.0660780248845761e-10 -5.6249925222190525e-05 -4.6192654552891821e-15 -2.3333348521931993e-10 -6.5044395723993798e-05 5.8813406110042792e-06 -3.1568670205024532e-10 -6.409113335921574e-05 -4.7228214892874616e-15 -2.3703577694362555e-10 -4.7781485106608328e-05 5.8813406110042792e-06 -3.1568670205024532e-10 -6.409113335921574e-05 5.1161944893469846e-06 -2.9973474356933064e-10 -4.5812526550916822e-05 9.2584711406968235e-15 -4.0660780248845761e-10 -5.6249925222190525e-05 -4.7228214892874616e-15 -2.3703577694362555e-10 -4.7781485106608328e-05 5.8813406110042792e-06 -3.1568670205024532e-10 -6.409113335921574e-05 9.6976500870371113e-06 -2.574028863898347e-10 -5.0793645101403733e-05 5.1161944893469846e-06 -2.9973474356933064e-10 -4.5812526550916822e-05 6.903211434479629e-06 -1.5970690888193445e-10 -4.6879646701734525e-05 -4.7228214892874616e-15 -2.3703577694362555e-10 -4.7781485106608328e-05 5.8813406110042783e-06 -3.1568670205024532e-10 -6.409113335921574e-05 5.1161944893469846e-06 -2.9973474356933064e-10 -4.5812526550916822e-05 6.9032114344796299e-06 -1.5970690888193437e-10 -4.6879646701734518e-05 9.3990476008605558e-06 -3.0381082885881732e-10 -7.7877828027129461e-05 1.2380865230929192e-05 -3.5027100075314746e-10 -6.2881140511506371e-05 5.8813406110042792e-06 -3.1568670205024532e-10 -6.409113335921574e-05 9.8215568455767407e-06 -1.1978318523036633e-10 -6.4463309111626604e-05 9.6976500870371113e-06 -2.574028863898347e-10 -5.0793645101403733e-05 9.8215568455767424e-06 -1.1978318523036636e-10 -6.4463309111626604e-05 1.5649089646065347e-05 -1.6208601468792428e-10 -4.95813011375182e-05 6.903211434479629e-06 -1.5970690888193442e-10 -4.6879646701734518e-05 1.2380865230929192e-05 -3.5027100075314746e-10 -6.2881140511506371e-05 9.6976500870371113e-06 -2.574028863898347e-10 -5.0793645101403733e-05 9.8215568455767407e-06 -1.1978318523036628e-10 -6.4463309111626591e-05 1.564908964606535e-05 -1.6208601468792418e-10 -4.9581301137518179e-05 1.2380865230929192e-05 -3.5027100075314746e-10 -6.2881140511506371e-05 9.8215568455767407e-06 -1.1978318523036633e-10 -6.4463309111626604e-05 9.3990476008605558e-06 -3.0381082885881732e-10 -7.7877828027129461e-05 1.5652563704080093e-05 -1.9179272123437364e-10 -7.3204049675458597e-05 5.8813406110042792e-06 -3.1568670205024532e-10 -6.409113335921574e-05 9.8215568455767407e-06 -1.1978318523036628e-10 -6.4463309111626604e-05 9.6976500870371113e-06 -2.574028863898347e-10 -5.0793645101403733e-05 6.903211434479629e-06 -1.5970690888193445e-10 -4.6879646701734525e-05 1.875762548390769e-05 -3.7000652387478448e-10 -6.3329681230762952e-05 1.5649089646065347e-05 -1.6208601468792426e-10 -4.9581301137518179e-05 1.2380865230929192e-05 -3.5027100075314746e-10 -6.2881140511506371e-05 1.5652563704080093e-05 -1.9179272123437364e-10 -7.3204049675458597e-05 9.6976500870371113e-06 -2.574028863898347e-10 -5.0793645101403733e-05 5.88134061100428e-06 -3.1568670205024532e-10 -6.409113335921574e-05 1.2380865230929192e-05 -3.5027100075314746e-10 -6.2881140511506371e-05 9.8215568455767407e-06 -1.1978318523036633e-10 -6.4463309111626604e-05 1.2380865230929192e-05 -3.5027100075314746e-10 -6.2881140511506371e-05 1.564908964606535e-05 -1.6208601468792421e-10 -4.9581301137518186e-05 9.8215568455767407e-06 -1.1978318523036628e-10 -6.4463309111626591e-05 1.5652563704080093e-05 -1.9179272123437364e-10 -7.3204049675458597e-05 1.2380865230929192e-05 -3.5027100075314746e-10 -6.2881140511506371e-05 1.875762548390769e-05 -3.7000652387478448e-10 -6.3329681230762952e-05 1.5626086726334145e-05 -3.190981810924936e-10 -4.503627783322601e-05 1.564908964606535e-05 -1.6208601468792423e-10 -4.9581301137518193e-05 1.2380865230929192e-05 -3.5027100075314746e-10 -6.2881140511506371e-05 1.5626086726334145e-05 -3.190981810924936e-10 -4.5036277833226017e-05 9.6976500870371113e-06 -2.574028863898347e-10 -5.0793645101403733e-05 1.564908964606535e-05 -1.6208601468792423e-10 -4.9581301137518193e-05 1.5575033393533543e-05 -3.3051349370185432e-10 -7.7599945062977949e-05 1.875762548390769e-05 -3.7000652387478448e-10 -6.3329681230762952e-05 1.2380865230929192e-05 -3.5027100075314746e-10 -6.2881140511506371e-05 1.5652563704080093e-05 -1.9179272123437364e-10 -7.3204049675458597e-05 9.3990476008605558e-06 -3.0381082885881732e-10 -7.7877828027129461e-05 4.5756539929000285e-06 -2.0418994951193142e-10 -9.3749034522394112e-05 9.8790786879021581e-06 -2.0866308679466537e-10 -9.374904366258349e-05 9.8215568455767407e-06 -1.1978318523036633e-10 -6.4463309111626604e-05 9.3990476008605558e-06 -3.0381082885881732e-10 -7.7877828027129461e-05 9.8215568455767407e-06 -1.1978318523036633e-10 -6.4463309111626604e-05 9.8790786879021564e-06 -2.086630867946654e-10 -9.374904366258349e-05 1.565256370408009e-05 -1.9179272123437364e-10 -7.3204049675458597e-05 9.3990476008605558e-06 -3.0381082885881732e-10 -7.7877828027129461e-05 9.8790786879021581e-06 -2.0866308679466537e-10 -9.3749043662583504e-05 1.5575033393533543e-05 -3.3051349370185432e-10 -7.7599945062977949e-05 1.5652563704080093e-05 -1.917927212343737e-10 -7.3204049675458611e-05 1.2380865230929192e-05 -3.5027100075314746e-10 -6.2881140511506371e-05 9.3990476008605558e-06 -3.0381082885881732e-10 -7.7877828027129461e-05 1.5575033393533543e-05 -3.3051349370185432e-10 -7.7599945062977949e-05 1.5652563704080093e-05 -1.9179272123437364e-10 -7.3204049675458597e-05 9.8790786879021581e-06 -2.0866308679466537e-10 -9.374904366258349e-05 1.250090465166865e-05 -3.8666598871061712e-10 -9.3749085084553633e-05 1.5575033393533543e-05 -3.3051349370185432e-10 -7.7599945062977949e-05 1.5928290114622098e-05 -2.4330984162872532e-10 -9.3749062703407042e-05 1.250090465166865e-05 -3.8666598871061712e-10 -9.3749085084553633e-05 1.5575033393533543e-05 -3.3051349370185432e-10 -7.7599945062977949e-05 9.3990476008605558e-06 -3.0381082885881732e-10 -7.7877828027129461e-05 9.8790786879021581e-06 -2.0866308679466537e-10 -9.374904366258349e-05 9.8790786879021581e-06 -2.0866308679466537e-10 -9.374904366258349e-05 1.5928290114622098e-05 -2.4330984162872532e-10 -9.3749062703407042e-05 1.5575033393533543e-05 -3.3051349370185432e-10 -7.7599945062977949e-05 1.5652563704080093e-05 -1.917927212343737e-10 -7.3204049675458597e-05 1.4317399848882188e-05 -1.3264131488562911e-10 -9.3749055464220496e-05 1.5928290114622098e-05 -2.4330984162872532e-10 -9.3749062703407042e-05 9.8790786879021581e-06 -2.0866308679466537e-10 -9.374904366258349e-05 1.5652563704080093e-05 -1.9179272123437364e-10 -7.3204049675458597e-05 1.250090465166865e-05 -3.8666598871061712e-10 -9.3749085084553633e-05 9.3990476008605558e-06 -3.0381082885881732e-10 -7.7877828027129461e-05 6.2504443307649334e-06 -3.0281350386713413e-10 -9.3749058267395249e-05 9.8790786879021581e-06 -2.0866308679466537e-10 -9.374904366258349e-05 -5.1912019224899535e-15 -2.0897433072512049e-10 -8.0023415357424944e-05 -4.6192651844713558e-15 -2.3333348521931988e-10 -6.5044395723993785e-05 1.2453205708352818e-15 -1.1242315973027843e-10 -7.5786847449444626e-05 9.8215568455767424e-06 -1.1978318523036631e-10 -6.4463309111626604e-05 5.2909225709639768e-06 -1.1781374502471741e-10 -9.3749042009219508e-05 9.8790786879021581e-06 -2.0866308679466537e-10 -9.374904366258349e-05 4.5756539929000285e-06 -2.0418994951193142e-10 -9.3749034522394112e-05 9.8215568455767407e-06 -1.1978318523036633e-10 -6.4463309111626604e-05 4.5756539929000285e-06 -2.0418994951193142e-10 -9.3749034522394112e-05 6.2504443307649317e-06 -3.0281350386713413e-10 -9.3749058267395249e-05 4.5756424485816199e-06 -2.4289567648062018e-10 -8.0023423215970762e-05 9.3990476008605558e-06 -3.0381082885881732e-10 -7.7877828027129461e-05 4.5756539929000285e-06 -2.0418994951193142e-10 -9.3749034522394112e-05 9.3990476008605575e-06 -3.0381082885881737e-10 -7.7877828027129461e-05 4.5756424485816199e-06 -2.4289567648062018e-10 -8.0023423215970762e-05 9.8215568455767441e-06 -1.1978318523036641e-10 -6.4463309111626604e-05 4.5756539929000285e-06 -2.0418994951193142e-10 -9.3749034522394112e-05 6.2504443307649334e-06 -3.0281350386713413e-10 -9.3749058267395249e-05 9.3990476008605558e-06 -3.0381082885881732e-10 -7.7877828027129461e-05 9.8790786879021581e-06 -2.0866308679466537e-10 -9.374904366258349e-05 5.8813406110042792e-06 -3.1568670205024532e-10 -6.409113335921574e-05 4.5756424485816199e-06 -2.4289567648062018e-10 -8.0023423215970762e-05 9.3990476008605558e-06 -3.0381082885881732e-10 -7.7877828027129461e-05 9.8215568455767407e-06 -1.1978318523036628e-10 -6.4463309111626604e-05 -5.1912019224899535e-15 -2.0897433072512049e-10 -8.0023415357424944e-05 5.2909225709639743e-06 -1.1781374502471736e-10 -9.3749042009219521e-05 4.5756539929000293e-06 -2.0418994951193147e-10 -9.3749034522394112e-05 9.8215568455767424e-06 -1.1978318523036631e-10 -6.4463309111626591e-05 4.5756539929000285e-06 -2.0418994951193142e-10 -9.3749034522394112e-05 4.5756424485816199e-06 -2.4289567648062018e-10 -8.0023423215970762e-05 -5.1912019224899535e-15 -2.0897433072512049e-10 -8.0023415357424944e-05 9.8215568455767407e-06 -1.1978318523036633e-10 -6.4463309111626604e-05 -4.6192654552891821e-15 -2.3333348521931993e-10 -6.5044395723993798e-05 -5.1912019224899535e-15 -2.0897433072512049e-10 -8.0023415357424944e-05 4.5756424485816199e-06 -2.4289567648062018e-10 -8.0023423215970762e-05 9.821556845576739e-06 -1.1978318523036633e-10 -6.4463309111626591e-05 2.2746811314203956e-15 -1.8002176432787033e-10 -9.3749045154007852e-05 1.2453205708352818e-15 -1.1242315973027843e-10 -7.5786847449444626e-05 5.2909225709639768e-06 -1.1781374502471741e-10 -9.3749042009219508e-05 -5.1912019224899535e-15 -2.0897433072512049e-10 -8.0023415357424944e-05 4.5756539929000285e-06 -2.0418994951193142e-10 -9.3749034522394112e-05 2.2746809369694795e-15 -1.800217643278703e-10 -9.3749045154007838e-05 5.2909225709639768e-06 -1.1781374502471741e-10 -9.3749042009219508e-05 -5.1912019224899535e-15 -2.0897433072512049e-10 -8.0023415357424944e-05 -4.6192654552891821e-15 -2.3333348521931993e-10 -6.5044395723993798e-05 4.5756424485816208e-06 -2.4289567648062024e-10 -8.0023423215970762e-05 9.1024535445172877e-15 -3.4466155748743113e-10 -7.4999474030719061e-05 5.88134061100428e-06 -3.1568670205024522e-10 -6.4091133359215754e-05 -5.1912019224899535e-15 -2.0897433072512049e-10 -8.0023415357424944e-05 4.5756424485816208e-06 -2.4289567648062013e-10 -8.0023423215970748e-05 9.1024535445172877e-15 -3.4466155748743113e-10 -7.4999474030719061e-05 -4.6192654552891821e-15 -2.3333348521931993e-10 -6.5044395723993798e-05 3.4343487820976065e-15 -3.2675123880475005e-10 -9.3749059523563365e-05 2.2746811314203964e-15 -1.8002176432787033e-10 -9.3749045154007865e-05 4.5756539929000285e-06 -2.0418994951193142e-10 -9.3749034522394112e-05 -5.1912019224899535e-15 -2.0897433072512049e-10 -8.0023415357424944e-05 4.5756424485816199e-06 -2.4289567648062018e-10 -8.0023423215970762e-05 9.102453510376063e-15 -3.4466155748743113e-10 -7.4999474030719061e-05 3.4343487820976065e-15 -3.2675123880475005e-10 -9.3749059523563365e-05 -5.1912019224899535e-15 -2.0897433072512049e-10 -8.0023415357424944e-05 3.4343487820976065e-15 -3.2675123880475005e-10 -9.3749059523563365e-05 4.5756539929000285e-06 -2.0418994951193142e-10 -9.3749034522394126e-05 6.2504443307649334e-06 -3.0281350386713413e-10 -9.3749058267395249e-05 4.5756424485816199e-06 -2.4289567648062018e-10 -8.0023423215970762e-05 4.5756424485816199e-06 -2.4289567648062018e-10 -8.0023423215970762e-05 3.4343487820976065e-15 -3.2675123880475005e-10 -9.3749059523563365e-05 4.5756539929000285e-06 -2.0418994951193142e-10 -9.3749034522394112e-05 -5.1912019224899535e-15 -2.0897433072512049e-10 -8.0023415357424944e-05 
</DataArray>
</PointData>
<CellData Scalars="" Vectors="" Tensors="stress,">
<DataArray type="Float64" Name="stress" NumberOfComponents="9" format="ascii">
0.36490386494187987 -0.0058533763501521577 -0.050757825885506841 -0.0058533763501521577 -2499.7526218675989 -0.048410829075993839 -0.050757825885506841 -0.048410829075993839 -9999.5699033874334 0.39793272084853015 0.010892944056829813 0.0727913799740042 0.010892944056829813 -2499.7488061667864 0.034525929277968936 0.0727913799740042 0.034525929277968936 -9999.5736203802589 0.38525884080672768 0.012833869559487621 0.0038457796447970427 0.012833869559487621 -2499.6900250611889 0.13567862671464531 0.0038457796447970427 0.13567862671464531 -9999.494754914409 0.4054241137967397 0.020772235728662367 0.014218659983725956 0.020772235728662367 -2499.7144720545512 0.023376195350955073 0.014218659983725956 0.023376195350955073 -9999.5657944507693 0.37443491539033857 -0.00055058704869276158 0.0076232706528571725 -0.00055058704869276158 -2499.7386494682787 -0.032489965225977357 0.0076232706528571725 -0.032489965225977357 -9999.6336105827613 0.38695471418304805 -0.019744662773439968 -0.03381456045167397 -0.019744662773439968 -2499.7263715856525 5.8245529089617776e-05 -0.03381456045167397 5.8245529089617776e-05 -9999.6303754818364 0.367457829555633 0.010341357063946566 0.042369207120827923 0.010341357063946566 -2499.7757606623668 0.063187904275764595 0.042369207120827923 0.063187904275764595 -9999.6625223955307 0.34803026455347208 -0.025499154885239989 -0.030497119301116982 -0.025499154885239989 -2499.7915339987449 0.042264382908342668 -0.030497119301116982 0.042264382908342668 -9999.729445840374 0.3484456052974565 -0.00265299870525822 0.017803011375235656 -0.00265299870525822 -2499.7690761485824 -0.022490760461494119 0.017803011375235656 -0.022490760461494119 -9999.720941147898 0.31983102888852954 0.0017051862722278262 0.0052167395388096338 0.0017051862722278262 -2499.8333071554416 0.021075590489544993 0.0052167395388096338 0.021075590489544993 -9999.7771014821847 0.36228319266308517 0.0094153644698905404 -0.0043700005630853411 0.0094153644698905404 -2499.7710356243642 -0.017181559026539617 -0.0043700005630853411 -0.017181559026539617 -9999.6585668308926 0.36951295107701299 0.013064632668409976 0.0041601043335504073 0.013064632668409976 -2499.7663277507136 -0.0084629980347017408 0.0041601043335504073 -0.0084629980347017408 -9999.6589067237874 0.37322995836848349 0.0042913990760110876 0.0051441749601508491 0.0042913990760110876 -2499.7523194912005 0.0053356415487542108 0.0051441749601508491 0.0053356415487542108 -9999.660124627233 0.38933661333658165 0.014194677233712899 0.055184183405572185 0.014194677233712899 -2499.7393904331875 -0.010285506885338691 0.055184183405572185 -0.010285506885338691 -9999.6174377722382 0.39861330396316352 0.0060210333875456382 0.043189908669092045 0.0060210333875456382 -2499.7459399342806 -0.044897982520434421 0.043189908669092045 -0.044897982520434421 -9999.5567475514999 0.40231585672012038 0.012280158064583713 -0.057801860978283187 0.012280158064583713 -2499.6739756125926 0.090260708236107406 -0.057801860978283187 0.090260708236107406 -9999.4452316602947 0.40544309606116258 -0.0015111034528429851 -0.021341667330943892 -0.0015111034528429851 -2499.709109380693 0.11781001141525849 -0.021341667330943892 0.11781001141525849 -9999.5217764757326 0.45326178556689972 0.0080144254178882157 -0.037600998735097202 0.0080144254178882157 -2499.6930270496696 0.059550910495882292 -0.037600998735097202 0.059550910495882292 -9999.4948517119374 0.34644695612132637 -0.010310504904273904 -0.066419965106319978 -0.010310504904273904 -2499.7575611642692 0.016792637552043743 -0.066419965106319978 0.016792637552043743 -9999.6452687984092 0.37219989253714658 -0.01477119262414256 0.01937712446488149 -0.01477119262414256 -2499.7485694439324 0.017334410838866887 0.01937712446488149 0.017334410838866887 -9999.6347490063381 0.37253196831397872 0.01167457662599878 0.021594586969229113 0.01167457662599878 -2499.7747470641152 0.031941523805016914 0.021594586969229113 0.031941523805016914 -9999.6643884999976 0.36956499511734364 0.003557523932756137 0.02495068986631941 0.003557523932756137 -2499.7697146167902 0.043376086519733126 0.02495068986631941 0.043376086519733126 -9999.6701901531251 0.44163841539740917 0.0057884008491592351 0.019590098346921159 0.0057884008491592351 -2499.68726843995 0.093297238920809003 0.019590098346921159 0.093297238920809003 -9999.4663379897938 0.40740458246182243 -0.0033129632204775272 0.010381919717929122 -0.0033129632204775272 -2499.6913115895059 0.085532920700614579 0.010381919717929122 0.085532920700614579 -9999.4394702467562 0.36307933250645874 0.004290285100795467 -0.0012383789232899289 0.004290285100795467 -2499.7448155509601 0.0097543400238464528 -0.0012383789232899289 0.0097543400238464528 -9999.5654818696985 0.35459848492246238 0.0032763262379209099 0.0036793078571690785 0.0032763262379209099 -2499.7670157035454 0.024612362703010149 0.0036793078571690785 0.024612362703010149 -9999.6032981292756 0.37624369449986261 -0.0029156356080841453 -0.00015816734230611473 -0.0029156356080841453 -2499.7653021558381 0.0081231714548266609 -0.00015816734230611473 0.0081231714548266609 -9999.6133833548793 0.36333885300155089 0.0045000067165730552 -0.011562642016542668 0.0045000067165730552 -2499.7599652037388 0.0039968612850316276 -0.011562642016542668 0.0039968612850316276 -9999.6364945650166 0.37778074780180759 -0.0025361757159497317 8.4394963778322563e-05 -0.0025361757159497317 -2499.7547723103653 0.0012575074692904309 8.4394963778322563e-05 0.0012575074692904309 -9999.6177176898436 0.36751856718319686 -0.019436006621734558 -0.0023755882882596779 -0.019436006621734558 -2499.7360276786162 0.014659906863471406 -0.0023755882882596779 0.014659906863471406 -9999.6371856401493 0.37070373438291426 -0.010860827821641328 0.0086325266624953656 -0.010860827821641328 -2499.7579106271355 0.0074691942620574991 0.0086325266624953656 0.0074691942620574991 -9999.6393594982037 0.38614284836486945 -0.00044943336671114664 -0.023738430630146468 -0.00044943336671114664 -2499.7373631022592 0.014967145098580659 -0.023738430630146468 0.014967145098580659 -9999.5853913950286 0.37923281015886801 -0.0096460264350314087 0.013569118250416068 -0.0096460264350314087 -2499.7408939380957 0.016027781995532564 0.013569118250416068 0.016027781995532564 -9999.5906339813682 0.3814429879826946 -0.018749516067717145 0.001025602342451748 -0.018749516067717145 -2499.7134299888789 0.027307287947223813 0.001025602342451748 0.027307287947223813 -9999.5823237511358 0.37538428102379839 -0.0098950387168148177 0.0017060811260307673 -0.0098950387168148177 -2499.7472363383513 0.0059086139663122594 0.0017060811260307673 0.0059086139663122594 -9999.6087108004685 0.36996764284322126 -0.015532270218479458 0.0037905152321400237 -0.015532270218479458 -2499.7549636321719 0.016327259298122954 0.0037905152321400237 0.016327259298122954 -9999.614395713812 0.3754545534720819 0.0082939822841632434 -0.0048754573599580908 0.0082939822841632434 -2499.7524415537318 0.0070711857079004403 -0.0048754573599580908 0.0070711857079004403 -9999.6111939161528 0.36469675878834096 0.0051580946811797743 -0.012068633578110166 0.0051580946811797743 -2499.7580816705258 0.0032072098565549823 -0.012068633578110166 0.0032072098565549823 -9999.6351614054911 0.3650907993413739 -0.00080131875562910147 -0.0034880011407949496 -0.00080131875562910147 -2499.7603415340791 -0.0025230222786376544 -0.0034880011407949496 -0.0025230222786376544 -9999.6589668435754 0.37645002642082659 -1.4721011956399938e-05 -0.0045208432702565915 -1.4721011956399938e-05 -2499.7510526961228 0.0011422879515521345 -0.0045208432702565915 0.0011422879515521345 -9999.6299057270899 0.37557540247144061 -0.00062783007390421262 -0.0043657724251602303 -0.00062783007390421262 -2499.7501194055794 3.388455445474392e-05 -0.0043657724251602303 3.388455445474392e-05 -9999.6268353671112 0.39014059043438465 0.019901762912399132 -0.0014287671347119613 0.019901762912399132 -2499.7139622530649 -0.0081522212785785086 -0.0014287671347119613 -0.0081522212785785086 -9999.6120754716248 0.39093168011731905 0.013864026599611057 -0.0020202064774821338 0.013864026599611057 -2499.7148379782939 0.0037582408535854483 -0.0020202064774821338 0.0037582408535854483 -9999.6170454619642 0.38486991536410642 0.017825456578578442 2.5607294446672313e-05 0.017825456578578442 -2499.7244050699601 -0.0025039719821506878 2.5607294446672313e-05 -0.0025039719821506878 -9999.6227268152579 0.38779153660925658 0.0081678125079996389 -0.001071790689820773 0.0081678125079996389 -2499.7296796056717 -0.0076988885100490734 -0.001071790689820773 -0.0076988885100490734 -9999.6245677248717 0.37045359339856532 0.0061615759368307335 -0.0022234672005652101 0.0061615759368307335 -2499.7567883782322 -0.0059060606745333644 -0.0022234672005652101 -0.0059060606745333644 -9999.6350994935256 0.37761077413233579 0.0050613839194044163 2.9450333386193961e-05 0.0050613839194044163 -2499.7305637911923 -0.012772728407071554 2.9450333386193961e-05 -0.012772728407071554 -9999.6293897326432 0.38303175659530098 0.00046010491314738 0.0018668759003048763 0.00046010491314738 -2499.7351698783095 -0.019927175723751134 0.0018668759003048763 -0.019927175723751134 -9999.6027127080761 0.37280168576216965 -3.4001665567794104e-06 0.0011007736593455775 -3.4001665567794104e-06 -2499.7533556332965 -0.002814809679875907 0.0011007736593455775 -0.002814809679875907 -9999.6241566236058 0.37716754486973514 0.00066528091314243393 0.001658245057114982 0.00066528091314243393 -2499.7417355943999 -0.014022933100022783 0.001658245057114982 -0.014022933100022783 -9999.6196018501214 0.38349049346334141 0.0018870654361596757 -0.0010285304036870002 0.0018870654361596757 -2499.7463949706921 -0.007612620102463552 -0.0010285304036870002 -0.007612620102463552 -9999.5936874721028 0.37944349081772089 -0.00072832681649163814 0.0038314464238737855 -0.00072832681649163814 -2499.7450062255475 -0.0074659894535216154 0.0038314464238737855 -0.0074659894535216154 -9999.6056704106541 0.37741661226800716 0.0026896631296167818 0.00012227386264385132 0.0026896631296167818 -2499.7562608004655 -0.013546691772717168 0.00012227386264385132 -0.013546691772717168 -9999.61279647833 0.3714972867819597 0.0011886654396428796 -0.00040816778800945031 0.0011886654396428796 -2499.7501571452558 -0.0077855539620941272 -0.00040816778800945031 -0.0077855539620941272 -9999.6340271383251 0.37937984149630211 -7.7889057367023715e-05 0.0024165827480828739 -7.7889057367023715e-05 -2499.7444912734536 -0.0054587139948125696 0.0024165827480828739 -0.0054587139948125696 -9999.6020458808671 0.36399288077655001 -0.0052601850311682144 0.0081750231333899137 -0.0052601850311682144 -2499.754003556614 3.4993033295904752e-05 0.0081750231333899137 3.4993033295904752e-05 -9999.6347457449956 0.36392728477903802 -0.0016526767371809001 0.008424707255926478 -0.0016526767371809001 -2499.7549119738396 -0.0039824951825266908 0.008424707255926478 -0.0039824951825266908 -9999.6036276947161 0.37262953275148902 -0.011142052702998981 0.0066555027369759046 -0.011142052702998981 -2499.7397706591455 0.0018086920995301625 0.0066555027369759046 0.0018086920995301625 -9999.6328446284533 0.37547445295058424 -0.0015655894886110267 0.0036069902207600535 -0.0015655894886110267 -2499.7504393910167 -0.0034762612594931852 0.0036069902207600535 -0.0034762612594931852 -9999.6279015074033 0.36828672885440028 -0.005282872017945665 0.0075229440237762901 -0.005282872017945665 -2499.7618384133566 0.0016076910692390811 0.0075229440237762901 0.0016076910692390811 -9999.6359774689154 0.37692325789066672 -0.0029744876440381679 0.00088823981423047371 -0.0029744876440381679 -2499.7522072527863 -0.0042358285709269694 0.00088823981423047371 -0.0042358285709269694 -9999.6239845659929 0.35321406715956982 0.0022659935210325001 0.067785163767894119 0.0022659935210325001 -2499.7656524596932 -0.072743575378353853 0.067785163767894119 -0.072743575378353853 -9999.625428235624 0.38589282287330207 0.0017172725687923907 0.0077171898860797228 0.0017172725687923907 -2499.7213178846068 -0.012178188969699022 0.0077171898860797228 -0.012178188969699022 -9999.5509978802729 0.34543055940639533 -0.013576481657493387 -0.0044178671646477596 -0.013576481657493387 -2499.7664657594187 -0.001336953908776195 -0.0044178671646477596 -0.001336953908776195 -9999.7177212455354 0.37964832190300513 0.01007160439446372 0.097252095918903075 0.01007160439446372 -2499.734846784525 -0.028975155338831243 0.097252095918903075 -0.028975155338831243 -9999.5797968575989 0.38556353464730364 0.0069314764392001786 -0.032208545122102805 0.0069314764392001786 -2499.7372895846147 -0.020563333102927572 -0.032208545122102805 -0.020563333102927572 -9999.5905407733389 0.37391889321474991 -0.0057347968172346622 0.029869815183246828 -0.0057347968172346622 -2499.7315732754369 0.048321917600787856 0.029869815183246828 0.048321917600787856 -9999.6649853922827 0.37481898111275314 -0.00062069865441430686 0.01056705722157858 -0.00062069865441430686 -2499.7415750161845 0.0030373560002772138 0.01056705722157858 0.0030373560002772138 -9999.5724760770008 0.38185272176588114 0.0089275779259685474 -0.031410189479196438 0.0089275779259685474 -2499.7371080692637 -0.020879584607391033 -0.031410189479196438 -0.020879584607391033 -9999.5916774234411 0.4088588428166986 0.0083406643568769614 0.017844848297085547 0.0083406643568769614 -2499.7217272984485 -0.016143421705266892 0.017844848297085547 -0.016143421705266892 -9999.5770900883235 0.38718834817018433 0.018453580003274652 0.055776359888336985 0.018453580003274652 -2499.7307902830871 -0.084170374722937591 0.055776359888336985 -0.084170374722937591 -9999.5977352857881 0.36272949469594096 -0.0099812526838200313 0.010069504001876339 -0.0099812526838200313 -2499.7717700493072 -0.056758962765059096 0.010069504001876339 -0.056758962765059096 -9999.6484851678106 0.36406803090972062 -0.0014909767470653831 0.0082847606133213958 -0.0014909767470653831 -2499.7626190371097 -0.006653629489846935 0.0082847606133213958 -0.006653629489846935 -9999.6496721738549 0.38286563550445862 0.00019033470424140923 0.018664451743006794 0.00019033470424140923 -2499.742120996264 -0.019818506741387409 0.018664451743006794 -0.019818506741387409 -9999.625508925712 0.39496806847409971 0.00037464057191536476 -0.029669815546397138 0.00037464057191536476 -2499.7307412647451 -0.019138081700972028 -0.029669815546397138 -0.019138081700972028 -9999.5920639801279 0.39761325941306602 0.0055351907258334235 0.039094393084917134 0.0055351907258334235 -2499.7241486568155 -0.047800144504754949 0.039094393084917134 -0.047800144504754949 -9999.5548717072506 0.41369511370453438 -7.0329931600929263e-06 0.064629437486986241 -7.0329931600929263e-06 -2499.7269707827008 -0.0097850355568880332 0.064629437486986241 -0.0097850355568880332 -9999.4877181641295 0.3729862836448774 -0.00077734375325791329 0.017599874480310973 -0.00077734375325791329 -2499.7739678113503 -0.0097552555680664454 0.017599874480310973 -0.0097552555680664454 -9999.6351058965229 0.38893379431101494 0.0021564509575757065 0.011348257614827162 0.0021564509575757065 -2499.7590779174889 -0.022587702534309528 0.011348257614827162 -0.022587702534309528 -9999.5933880888115 0.40618738599345872 0.00031547809488758488 0.039925371002568544 0.00031547809488758488 -2499.689756392208 0.022089384321203165 0.039925371002568544 0.022089384321203165 -9999.5430512092989 0.42241256508467007 0.0052508621337056241 0.065419727956175733 0.0052508621337056241 -2499.6955910360311 -0.015566306045400435 0.065419727956175733 -0.015566306045400435 -9999.4781849610899 0.38920501202687774 0.0035945059995598928 0.0034285528290638467 0.0035945059995598928 -2499.7531767889504 0.012963342788680166 0.0034285528290638467 0.012963342788680166 -9999.6107222759074 0.36944774036555827 0.0045333938602435623 0.010537930307918941 0.0045333938602435623 -2499.7720074877993 0.0084456488325486134 0.010537930307918941 0.0084456488325486134 -9999.663628375758 0.39637109569037482 -0.0061273999360524547 0.042868507710359605 -0.0061273999360524547 -2499.7256902594972 0.014861969822349053 0.042868507710359605 0.014861969822349053 -9999.5519049875384 0.39296884731993487 0.0025355590646806911 -0.056624312310532332 0.0025355590646806911 -2499.7552691174897 0.0029718631494688452 -0.056624312310532332 0.0029718631494688452 -9999.6181487803115 0.39108325839470126 -0.0099347622009508963 0.042196471787065093 -0.0099347622009508963 -2499.7396247964289 0.015680643996802246 0.042196471787065093 0.015680643996802246 -9999.5536223485615 0.38283873010672681 -0.0076937044334303914 0.027162380583236501 -0.0076937044334303914 -2499.7382087795563 0.041587483025044086 0.027162380583236501 0.041587483025044086 -9999.5990720590871 0.39043941311547314 0.0078016438437881891 -0.043702076881547841 0.0078016438437881891 -2499.7373839722586 0.019995960209700708 -0.043702076881547841 0.019995960209700708 -9999.6437899439807 0.40727082761077327 0.0047197563261405021 -0.048536450041966717 0.0047197563261405021 -2499.7287082231778 0.022118051763655278 -0.048536450041966717 0.022118051763655278 -9999.5818767522196 0.38230528810163378 0.0072401713981394625 0.019050933726703079 0.0072401713981394625 -2499.7468508344841 0.02601429716062853 0.019050933726703079 0.02601429716062853 -9999.631338143221 0.39812284967865708 -0.0020712856788042827 0.0035212499951740028 -0.0020712856788042827 -2499.7317709073 0.014912116006598808 0.0035212499951740028 0.014912116006598808 -9999.6062248905182 0.39201530712671229 0.0018670733590867912 0.0099823695650229638 0.0018670733590867912 -2499.7475152321822 0.024279176620325416 0.0099823695650229638 0.024279176620325416 -9999.5926288819865 0.3752254451560475 0.0017331741728394429 0.017342467782327731 0.0017331741728394429 -2499.7621629736627 0.025106592515584225 0.017342467782327731 0.025106592515584225 -9999.6356366668315 0.35956070482325231 0.010207644340146375 0.001289812593086026 0.010207644340146375 -2499.7574306842303 0.010891636977703456 0.001289812593086026 0.010891636977703456 -9999.6329289683581 0.38420135805472455 0.00082467800857826019 -0.0046221943168802682 0.00082467800857826019 -2499.7544246970624 -0.00029398071474417975 -0.0046221943168802682 -0.00029398071474417975 -9999.5958395456692 0.38622159632632247 -0.0018685262724985052 -0.0031966956171345373 -0.0018685262724985052 -2499.7381243700652 0.015440686438267903 -0.0031966956171345373 0.015440686438267903 -9999.6202333914571 0.36903950588475709 0.0017117707041782422 -0.0096532503155231097 0.0017117707041782422 -2499.7584048793042 0.014241041746572591 -0.0096532503155231097 0.014241041746572591 -9999.6132246873221 0.40624088473487063 0.0016730314206690969 0.0071871928557811771 0.0016730314206690969 -2499.7365364836678 0.0016777766459199484 0.0071871928557811771 0.0016777766459199484 -9999.546702559117 0.37152291019447148 0.001345496131807504 0.0076635573798284895 0.001345496131807504 -2499.747508554964 0.0061862559368819348 0.0076635573798284895 0.0061862559368819348 -9999.6217296830109 0.37966972159028956 -0.003536729332852069 4.4034187908437161e-05 -0.003536729332852069 -2499.7497939319674 0.01042096597075215 4.4034187908437161e-05 0.01042096597075215 -9999.598856710445 0.37327837289012678 0.0011500599852507145 0.0019671520176416379 0.0011500599852507145 -2499.760766007108 -0.00082140446102130227 0.0019671520176416379 -0.00082140446102130227 -9999.6101801454352 0.3805456757581851 0.0015010460158771165 0.0020195205415802775 0.0015010460158771165 -2499.7399897996402 0.003645221585429681 0.0020195205415802775 0.003645221585429681 -9999.6018878485556 0.37788892115759154 0.0023340138027004506 0.0028470210118030082 0.0023340138027004506 -2499.7426698767044 0.0018738362423391663 0.0028470210118030082 0.0018738362423391663 -9999.6140528435208 0.37792671293937019 0.00099716219998558647 -0.00010845625820365967 0.00099716219998558647 -2499.7403545907546 0.012090978870674007 -0.00010845625820365967 0.012090978870674007 -9999.6186361808468 0.38145923552019667 0.0022165644382567511 0.0020284135071051423 0.0022165644382567511 -2499.7399511563481 0.0043583551760093542 0.0020284135071051423 0.0043583551760093542 -9999.6028573920557 0.37555170047835418 0.0098306129546701891 -0.010240024161930705 0.0098306129546701891 -2499.7461144772305 0.00076204829133530438 -0.010240024161930705 0.00076204829133530438 -9999.6235770457697 0.38282471453658218 -0.0020016408908326653 -0.0056536796973887249 -0.0020016408908326653 -2499.7492327109226 0.0028858532114099944 -0.0056536796973887249 0.0028858532114099944 -9999.6238849971705 0.37139864814048451 -0.0019173631382279413 -0.00012570546641654801 -0.0019173631382279413 -2499.753548782096 0.0031497087747993646 -0.00012570546641654801 0.0031497087747993646 -9999.6309175171264 0.37652786737635324 -8.7064823367136168e-05 0.0018855201651604148 -8.7064823367136168e-05 -2499.7370864245404 0.0098182843430549838 0.0018855201651604148 0.0098182843430549838 -9999.6275055974183 0.38488868241984164 -0.01507779215067441 0.0012036905955028487 -0.01507779215067441 -2499.7116060780081 0.00020781695002369815 0.0012036905955028487 0.00020781695002369815 -9999.6166735916013 0.39190809710817121 -0.014697123167177355 -0.0035577471480792155 -0.014697123167177355 -2499.7111482338305 0.0017389379645464942 -0.0035577471480792155 0.0017389379645464942 -9999.6100767630378 0.38235365323713211 -0.0015245234594879996 -0.0055327489535557106 -0.0015245234594879996 -2499.7490005709369 0.0033170488704854506 -0.0055327489535557106 0.0033170488704854506 -9999.6218550377816 0.37599442806850902 0.0094125417862364891 -0.010115315664734226 0.0094125417862364891 -2499.7438810924818 0.0020700960949397995 -0.010115315664734226 0.0020700960949397995 -9999.6219914173053 0.39055458094480855 -0.01002656800246414 -0.0013560266879721894 -0.01002656800246414 -2499.7274293185119 0.013955047781564645 -0.0013560266879721894 0.013955047781564645 -9999.6208032781651 0.37099069712076016 -0.0023644064345599361 0.0057093785985671275 -0.0023644064345599361 -2499.7623670950366 -0.0060032025871805672 0.0057093785985671275 -0.0060032025871805672 -9999.6640849696814 0.37556550144563516 -0.0099905909791522078 0.00014972423105064081 -0.0099905909791522078 -2499.7682241359735 0.0041800713338489004 0.00014972423105064081 0.0041800713338489004 -9999.6437398809321 0.37420763644740873 -0.0050398356258874871 0.015816725110572472 -0.0050398356258874871 -2499.711360086596 -0.12502546302819545 0.015816725110572472 -0.12502546302819545 -9999.5523037763978 0.40656633397566111 -0.018234773699576837 0.0089422384053250425 -0.018234773699576837 -2499.7216609424768 -0.025871023261061055 0.0089422384053250425 -0.025871023261061055 -9999.5686147554952 0.35351706462438415 -0.006697530505823994 0.046887699740864264 -0.006697530505823994 -2499.783518438926 -0.068220598144989708 0.046887699740864264 -0.068220598144989708 -9999.6832886882294 0.36972985597776642 -0.0076839072037054312 0.067659164136612271 -0.0076839072037054312 -2499.7549892155848 -0.041290917753944917 0.067659164136612271 -0.041290917753944917 -9999.6112437827014 0.37423464344783497 0.00027831756286383555 0.0072013155186141375 0.00027831756286383555 -2499.7548213140949 0.01682607606556985 0.0072013155186141375 0.01682607606556985 -9999.6680798790021 0.34049637425414403 -0.010955905681847303 0.034051321273860624 -0.010955905681847303 -2499.7804865885532 0.051820322947681186 0.034051321273860624 0.051820322947681186 -9999.7110346925037 0.31448480460676365 -0.0046035301351141887 0.0065716002363842563 -0.0046035301351141887 -2499.8402500591169 -0.019054818553740915 0.0065716002363842563 -0.019054818553740915 -9999.81646450669 0.36212162107267432 -0.0073335666180940826 0.0059020904345743475 -0.0073335666180940826 -2499.7578272822016 0.0099203000768284255 0.0059020904345743475 0.0099203000768284255 -9999.6623015856476 0.34754169888310571 -0.0030166038285434106 0.029583841886051232 -0.0030166038285434106 -2499.7831761034745 0.05854503211750739 0.029583841886051232 0.05854503211750739 -9999.7347646250382 0.37909246904860083 -0.0045714410404379541 -0.0073450439290354552 -0.0045714410404379541 -2499.7558598818214 0.0059466612315191014 -0.0073450439290354552 0.0059466612315191014 -9999.6534804827188 0.38847005967602399 -0.0021054509054079899 -5.6299843436136143e-05 -0.0021054509054079899 -2499.7412181626701 0.027136754117691453 -5.6299843436136143e-05 0.027136754117691453 -9999.63540023721 0.3500845598387059 0.0078875246872894631 -0.083260042758752206 0.0078875246872894631 -2499.8129857423523 -0.036260170861623919 -0.083260042758752206 -0.036260170861623919 -9999.7626444789421 0.38626829211580116 0.0076835740633021815 -0.064818862666537663 0.0076835740633021815 -2499.7551760174056 0.049065889442948707 -0.064818862666537663 0.049065889442948707 -9999.6695524714396 0.38912227631726637 -0.0048286896051529526 -0.075504657933458563 -0.0048286896051529526 -2499.7367929990755 -0.086773590789986754 -0.075504657933458563 -0.086773590789986754 -9999.6444340114704 0.38956175023031392 0.0011298430118505259 -0.010952463053854444 0.0011298430118505259 -2499.7002942921399 -0.041353188570610655 -0.010952463053854444 -0.041353188570610655 -9999.572559160697 0.36833207397694423 0.015854876361043449 -0.025739473908288346 0.015854876361043449 -2499.7671627242571 -0.0061291106330827461 -0.025739473908288346 -0.0061291106330827461 -9999.6372837536728 0.37076781406130976 0.012293811073378604 -0.025164787135508959 0.012293811073378604 -2499.7596933711552 0.0089213543556070363 -0.025164787135508959 0.0089213543556070363 -9999.6332115516398 0.38005940506485558 -0.010094233242773844 -0.011066248616316443 -0.010094233242773844 -2499.7690376516853 0.015002523171006032 -0.011066248616316443 0.015002523171006032 -9999.6387375103877 0.351025137151737 0.0050323570899347553 -0.010354757293043804 0.0050323570899347553 -2499.7677600652369 -0.022234040418879886 -0.010354757293043804 -0.022234040418879886 -9999.6869223935573 0.37674768528677305 0.024960730528252473 0.0018908080730852816 0.024960730528252473 -2499.757931636645 0.017241627109797264 0.0018908080730852816 0.017241627109797264 -9999.578297948201 0.3811416580108471 0.0059568228663748335 0.0011190494988113642 0.0059568228663748335 -2499.7369804309405 -0.027194451079367354 0.0011190494988113642 -0.027194451079367354 -9999.5908947786302 0.44376498986321167 0.0012468825006851092 -0.036574353911472679 0.0012468825006851092 -2499.6919260475333 -0.044219575596671168 -0.036574353911472679 -0.044219575596671168 -9999.5335000095129 0.36896064064376333 0.00090414429897348525 0.0080568847591280246 0.00090414429897348525 -2499.7557156968264 -0.017317666690360056 0.0080568847591280246 -0.017317666690360056 -9999.6132993898027 0.36539373830009936 0.004135694328214097 0.01621010405668033 0.004135694328214097 -2499.7327958329315 -0.079657134080524591 0.01621010405668033 -0.079657134080524591 -9999.6454551563893 0.41974884620357444 -0.010295938173076221 0.0034393845745196022 -0.010295938173076221 -2499.6836313444032 -0.088725062659866794 0.0034393845745196022 -0.088725062659866794 -9999.4854427629634 0.42955744602410695 -0.0031296191460616699 0.015231672060165014 -0.0031296191460616699 -2499.6641674682355 -0.077717498075520586 0.015231672060165014 -0.077717498075520586 -9999.4649880599918 0.370864701395476 -0.0079799094888924685 -0.0043731260107051639 -0.0079799094888924685 -2499.7732891540863 -0.041123990665710153 -0.0043731260107051639 -0.041123990665710153 -9999.5856468672737 0.36070136465787073 -0.0057505085154833544 -0.0039259043014681083 -0.0057505085154833544 -2499.7778228090565 -0.030486879849377146 -0.0039259043014681083 -0.030486879849377146 -9999.6245500490986 0.37902994857449812 0.00055375721380654386 0.0022738831657989067 0.00055375721380654386 -2499.7343364790268 -0.0057643292971079063 0.0022738831657989067 -0.0057643292971079063 -9999.6189121471398 0.35714716850316108 0.0072820449880043152 -0.0042580772865221661 0.0072820449880043152 -2499.7446560481835 -0.0010540670258478713 -0.0042580772865221661 -0.0010540670258478713 -9999.6294023047994 0.37255097762044898 -0.025563639972490747 0.0031916065709083341 -0.025563639972490747 -2499.7429245758913 -0.00079428507433476625 0.0031916065709083341 -0.00079428507433476625 -9999.5946821848374 0.37194796523772311 0.00071245446197956003 0.0042393863850520574 0.00071245446197956003 -2499.7705396278525 -0.035259209142395775 0.0042393863850520574 -0.035259209142395775 -9999.6227473826621 0.36602292583091867 0.0053468063156870693 -0.013838771716109477 0.0053468063156870693 -2499.734580642446 -0.0047648268931652638 -0.013838771716109477 -0.0047648268931652638 -9999.5915496719081 0.37458145461232562 0.012175798636010884 0.0067686771180888172 0.012175798636010884 -2499.7876930425373 -0.013906252183915058 0.0067686771180888172 -0.013906252183915058 -9999.6432197128343 0.37015897761921224 -0.021992778462830598 0.0012518758003352559 -0.021992778462830598 -2499.7552819936354 0.0089358554187128902 0.0012518758003352559 0.0089358554187128902 -9999.6234377684359 0.38377018488108661 0.0076126663869230393 -0.015912112015030289 0.0076126663869230393 -2499.7377700156244 -0.0042368676799924287 -0.015912112015030289 -0.0042368676799924287 -9999.5876561903533 0.38574104361384798 0.0081869695512465784 -0.0044980747788940789 0.0081869695512465784 -2499.7385302418716 0.00011613453807512997 -0.0044980747788940789 0.00011613453807512997 -9999.6085697621384 0.37573741731011978 -0.019155201218388679 0.0013071600387775106 -0.019155201218388679 -2499.7356719982336 0.017170375921523373 0.0013071600387775106 0.017170375921523373 -9999.6120199285724 0.37160898810816434 -0.0019124301408191755 0.003886207093273697 -0.0019124301408191755 -2499.7497415454818 0.0037969630493535078 0.003886207093273697 0.0037969630493535078 -9999.6307692046867 0.37193460754360785 -0.00093404505353337044 0.0069436661793815802 -0.00093404505353337044 -2499.7547674427246 0.00049044108709495049 0.0069436661793815802 0.00049044108709495049 -9999.6330442945364 0.37334682722212165 -0.0024047664805937905 0.0055664963293793335 -0.0024047664805937905 -2499.7510000751154 0.0015741943198008812 0.0055664963293793335 0.0015741943198008812 -9999.6327661923933 0.36470441848359769 -0.0031301629322541564 0.0097408313686173642 -0.0031301629322541564 -2499.7491687713618 0.0043080410769107402 0.0097408313686173642 0.0043080410769107402 -9999.6038154611942 0.38625275245181001 -0.0029307201580400189 0.0066422223449080775 -0.0029307201580400189 -2499.7271578366099 -0.0029938358511572005 0.0066422223449080775 -0.0029938358511572005 -9999.5399929026753 0.3694560404069307 -0.0021578537793428207 0.11321319057074775 -0.0021578537793428207 -2499.7356860689533 0.035504660199594085 0.11321319057074775 0.035504660199594085 -9999.6101056862935 0.37420570345670967 0.0031862688660021857 -0.01459171348824384 0.0031862688660021857 -2499.7424912092065 0.013389785315212066 -0.01459171348824384 0.013389785315212066 -9999.5539927911395 0.36156567877674206 -0.0005173308754961763 0.097804207237686569 -0.0005173308754961763 -2499.7546908308673 0.060439123134528927 0.097804207237686569 0.060439123134528927 -9999.6321165861555 0.37984563550446637 0.011641256212681569 -0.0028036869025527267 0.011641256212681569 -2499.7193930387198 0.026152592178391387 -0.0028036869025527267 0.026152592178391387 -9999.5642787034885 0.36556010264598626 0.0087802418899925114 0.025054425551843451 0.0087802418899925114 -2499.7383853595038 -0.066260488283205632 0.025054425551843451 -0.066260488283205632 -9999.6745691589185 0.34980881172850786 0.0096889974780436997 -0.016473181915444002 0.0096889974780436997 -2499.7726592337322 -0.0016440380222775275 -0.016473181915444002 -0.0016440380222775275 -9999.7281357146021 0.40220996114840091 0.0048803403797660445 -0.025532603741010573 0.0048803403797660445 -2499.7275490068714 -0.011742946854206904 -0.025532603741010573 -0.011742946854206904 -9999.5929190660518 0.40293571496340519 -0.0053741641611563043 0.070144011443457221 -0.0053741641611563043 -2499.7299651110316 0.087870088312476502 0.070144011443457221 0.087870088312476502 -9999.5392292876022 0.32762200668116748 0.00088598076494279376 0.078052847622075205 0.00088598076494279376 -2499.7592523317762 0.053261934643160203 0.078052847622075205 0.053261934643160203 -9999.7649321392346 0.37571825198494935 -0.0050641247835153339 0.0038760781631026475 -0.0050641247835153339 -2499.7519304526409 0.011115045453152561 0.0038760781631026475 0.011115045453152561 -9999.6946440146476 0.32681267290308824 0.0060990810318005944 -0.00078943296483657832 0.0060990810318005944 -2499.7814704629136 -0.0021246220089778944 -0.00078943296483657832 -0.0021246220089778944 -9999.745928472028 0.34008092722478978 -0.007378541262644053 0.066423242889885714 -0.007378541262644053 -2499.7517554854348 0.031672556987706602 0.066423242889885714 0.031672556987706602 -9999.5774247229474 0.35339495621110473 0.0013147386554933013 0.024536075216019526 0.0013147386554933013 -2499.7664831112161 -0.0047478541537202545 0.024536075216019526 -0.0047478541537202545 -9999.7144663252129 0.36510781263450554 0.0013744673436026289 0.0087391813972317323 0.0013744673436026289 -2499.7792720680077 0.0023078143935890694 0.0087391813972317323 0.0023078143935890694 -9999.7085260809545 0.36038649095280562 0.0026457944451631112 0.0076086632689111866 0.0026457944451631112 -2499.7550293835116 -0.024659095027800504 0.0076086632689111866 -0.024659095027800504 -9999.6947923841417 0.37334489959675921 -0.0093261579884295238 -0.00036143721016228952 -0.0093261579884295238 -2499.7466855286189 0.064340769433093414 -0.00036143721016228952 0.064340769433093414 -9999.5711094644394 0.3502203832779287 0.0068786688971340573 0.026985235541360453 0.0068786688971340573 -2499.7762326738398 -0.057426653960646945 0.026985235541360453 -0.057426653960646945 -9999.7101775295723 0.36762131603836679 0.005953123310772232 -0.011185864050455074 0.005953123310772232 -2499.7303000624597 -0.07039861404482789 -0.011185864050455074 -0.07039861404482789 -9999.6322203982309 0.37303248618309226 0.0023957126205242027 0.014141366498571395 0.0023957126205242027 -2499.7742272843107 -0.075754272626077923 0.014141366498571395 -0.075754272626077923 -9999.6208978341747 0.317000450483647 0.0059414006317455728 0.071295250042477901 0.0059414006317455728 -2499.8091466527321 0.020994029417342186 0.071295250042477901 0.020994029417342186 -9999.8065035851341 0.38947637345063413 0.0054469082724896605 0.0039313738669761733 0.0054469082724896605 -2499.7360559694635 -0.0072622204536401114 0.0039313738669761733 -0.0072622204536401114 -9999.61387464156 0.38090915971770301 0.00096696190104585242 0.0056545815667448096 0.00096696190104585242 -2499.7486375901699 -0.00028112252402934246 0.0056545815667448096 -0.00028112252402934246 -9999.6332663786234 0.38278558362071635 0.0039843678670116829 0.0086680044237255061 0.0039843678670116829 -2499.746178325559 0.0015054380069159379 0.0086680044237255061 0.0015054380069159379 -9999.6285398138316 0.38145047047601111 0.0028893297469656243 0.0013530365333735972 0.0028893297469656243 -2499.7431056012006 0.0077293256740631477 0.0013530365333735972 0.0077293256740631477 -9999.6300207891873 0.37009978370087993 -0.00021631154376964765 -0.0038358910123861278 -0.00021631154376964765 -2499.7487756384176 -0.0014085835682635661 -0.0038358910123861278 -0.0014085835682635661 -9999.6522870518875 0.39140553820834612 -0.0042876157823933314 0.0056422997117806517 -0.0042876157823933314 -2499.7378235825236 0.0061457079082174459 0.0056422997117806517 0.0061457079082174459 -9999.644419905313 0.3903171134988952 0.0059135961988006878 0.0043009441156982575 0.0059135961988006878 -2499.7243554291226 -0.0063363293666043319 0.0043009441156982575 -0.0063363293666043319 -9999.6222538806323 0.3747472212107823 -0.00051772361704760387 -0.00094617108231886959 -0.00051772361704760387 -2499.7540028407911 -0.00094368432655755896 -0.00094617108231886959 -0.00094368432655755896 -9999.6501210930364 0.36545784961344907 -0.0022763984582557725 0.0056042325322778197 -0.0022763984582557725 -2499.7587192495594 -0.015101128024866739 0.0056042325322778197 -0.015101128024866739 -9999.6656048792065 0.37328546471326263 0.0019957524303096837 -0.002320213870916632 0.0019957524303096837 -2499.7476602290712 -0.013288318642707964 -0.002320213870916632 -0.013288318642707964 -9999.6369351586509 0.38909379439564873 0.0035380568632505174 -0.0003631579775174032 0.0035380568632505174 -2499.7221156837641 0.0015120749048946891 -0.0003631579775174032 0.0015120749048946891 -9999.5993213671136 0.37149949105696578 0.0064225486050707506 0.0079747797340701254 0.0064225486050707506 -2499.7522705319971 -0.0050975373845290051 0.0079747797340701254 -0.0050975373845290051 -9999.6595165032522 0.36597534668135268 0.023589170896583335 -0.0040343762257748494 0.023589170896583335 -2499.782250521374 -0.015216481020615902 -0.0040343762257748494 -0.015216481020615902 -9999.6472690230694 0.37376519082499726 0.0059175610970514346 0.006054297546484122 0.0059175610970514346 -2499.7489704597247 -0.012801209502754318 0.006054297546484122 -0.012801209502754318 -9999.6520781464278 0.3734591787347199 -0.0028621757278488522 -0.0018965199969898094 -0.0028621757278488522 -2499.7499238533505 -0.017141371296929719 -0.0018965199969898094 -0.017141371296929719 -9999.6371097566644 0.3838461145733163 0.013437266765783329 -0.0013383119985519443 0.013437266765783329 -2499.7443526493289 -0.0018799946055878536 -0.0013383119985519443 -0.0018799946055878536 -9999.6055420024004 0.38400315518038042 0.023553088826543861 -0.0037072251452627825 0.023553088826543861 -2499.7456731819093 0.0036253626913094195 -0.0037072251452627825 0.0036253626913094195 -9999.6094565667136 0.39307504835005602 0.0084280738974799249 0.0093956498794796062 0.0084280738974799249 -2499.7184180281224 0.0050454435349820415 0.0093956498794796062 0.0050454435349820415 -9999.6072265290004 0.38964355888401769 0.024262866113490697 -0.007287220378202619 0.024262866113490697 -2499.7546302406167 -0.030512536299738713 -0.007287220378202619 -0.030512536299738713 -9999.5806168397576 0.37013166937049391 -0.00018133479809259159 -0.0039105633845224474 -0.00018133479809259159 -2499.758039717829 -0.015811546667464427 -0.0039105633845224474 -0.015811546667464427 -9999.5851953667843 0.40021488668708116 -0.0066984273367438028 0.015853396690999944 -0.0066984273367438028 -2499.7387548155389 -0.028310033170328097 0.015853396690999944 -0.028310033170328097 -9999.5506789016781 0.38806739596429907 -0.0070768546620083826 0.0086970330230542459 -0.0070768546620083826 -2499.7489482659453 -0.025778878829669338 0.0086970330230542459 -0.025778878829669338 -9999.5836452600997 0.3552486097455585 -0.00056390223036476201 -0.0071593591846266236 -0.00056390223036476201 -2499.7785082936507 -0.031170226695394376 -0.0071593591846266236 -0.031170226695394376 -9999.6253504394754 0.37835537008618303 0.0029885048414625345 0.0072943324726111314 0.0029885048414625345 -2499.7710413956829 -0.071597702801682317 0.0072943324726111314 -0.071597702801682317 -9999.6069105978422 0.41856551223281713 0.0037709651103841335 -0.012800223467365868 0.0037709651103841335 -2499.6958006626746 -0.094097923461254618 -0.012800223467365868 -0.094097923461254618 -9999.4560069698 0.44053293363891022 -0.010292637800757481 -0.014526606893266625 -0.010292637800757481 -2499.6745398251001 -0.096926904748374232 -0.014526606893266625 -0.096926904748374232 -9999.4521385561384 0.37004844140801652 -0.0098229657640952761 -0.010854251815741678 -0.0098229657640952761 -2499.7548161557843 -0.070507502614090417 -0.010854251815741678 -0.070507502614090417 -9999.6377328428935 0.37877150588610675 -0.019216098104170645 -0.0069882250095929521 -0.019216098104170645 -2499.7343400669797 -0.027637434187909093 -0.0069882250095929521 -0.027637434187909093 -9999.609257207796 0.43970140416695358 -0.0030527978668532726 0.04295449096594256 -0.0030527978668532726 -2499.6857582220518 -0.046643359574406795 0.04295449096594256 -0.046643359574406795 -9999.5445885835725 0.44147029006399918 -0.013769768264757884 -0.019348407132967232 -0.013769768264757884 -2499.6635344029869 -0.082680873097316226 -0.019348407132967232 -0.082680873097316226 -9999.4359792947562 0.41018128850282665 0.0024867386264331576 0.018797950090629456 0.0024867386264331576 -2499.7221009034424 -0.022439372730332252 0.018797950090629456 -0.022439372730332252 -9999.5409945035553 0.4043581754654042 -0.014764134197154284 0.041430552395013365 -0.014764134197154284 -2499.7702208738719 0.011988130597273994 0.041430552395013365 0.011988130597273994 -9999.6256911883211 0.34605750071659713 -0.019250730516750858 0.043530230561998451 -0.019250730516750858 -2499.8435732320586 -0.036855659012417163 0.043530230561998451 -0.036855659012417163 -9999.8014420372438 0.36359941678506402 0.0038700869992665636 -0.012429640091340843 0.0038700869992665636 -2499.7957570634626 0.022105397748418909 -0.012429640091340843 0.022105397748418909 -9999.6625966756692 0.41243735202033349 0.0021870802130863065 0.031838376626183162 0.0021870802130863065 -2499.7593797127824 -0.11322137976708291 0.031838376626183162 -0.11322137976708291 -9999.5868299198009 0.4090771076115482 0.027714192682369541 0.09592826484739217 0.027714192682369541 -2499.6984680217661 -0.065978338561977948 0.09592826484739217 -0.065978338561977948 -9999.4601869388225 0.33637943542316862 0.018059483126801126 0.097642044326855401 0.018059483126801126 -2499.7799464159116 0.033368412651289009 0.097642044326855401 0.033368412651289009 -9999.7000430283515 0.3423315860245566 0.0039142377151763861 0.099516998357216835 0.0039142377151763861 -2499.7797098253027 0.011604092296238377 0.099516998357216835 0.011604092296238377 -9999.7182042750574 0.35804976666713628 0.0055412039252544162 -0.023198195990516979 0.0055412039252544162 -2499.7637969111775 0.0029148392483193675 -0.023198195990516979 0.0029148392483193675 -9999.6484049059745 0.36850257701644296 -0.0034841170308472676 -0.02117181717630956 -0.0034841170308472676 -2499.7490316388648 -0.0060758556196560676 -0.02117181717630956 -0.0060758556196560676 -9999.6480808772485 0.32427398926211026 0.02298713389816499 -0.032613193532142759 0.02298713389816499 -2499.798394923811 0.073029295151172846 -0.032613193532142759 0.073029295151172846 -9999.7327299850876 0.37628261121608375 0.0070117907330109926 0.010671046613424551 0.0070117907330109926 -2499.7584647887652 -0.0037740114617008658 0.010671046613424551 -0.0037740114617008658 -9999.6399660552288 0.3058517400436358 -0.00052743962582166293 -0.0099916333001601743 -0.00052743962582166293 -2499.8686256299834 -0.026853680715248629 -0.0099916333001601743 -0.026853680715248629 -9999.8365334074242 0.27818331899970872 -0.0013587632528685167 -0.060955611763921613 -0.0013587632528685167 -2499.8195517294507 0.031366760892694912 -0.060955611763921613 0.031366760892694912 -9999.8026227554874 0.30767669332389258 -0.0055342343132218433 -0.035759865618045505 -0.0055342343132218433 -2499.8010683286693 -0.085488087050832606 -0.035759865618045505 -0.085488087050832606 -9999.7074260521003 0.31902492809537114 -0.0059334478306303888 -0.0077879942109512351 -0.0059334478306303888 -2499.7256208284566 -0.025466582922945236 -0.0077879942109512351 -0.025466582922945236 -9999.5752363820375 0.33187630272732271 -0.013941320870714015 -0.057881536813425172 -0.013941320870714015 -2499.7347379527614 -0.042301032603681149 -0.057881536813425172 -0.042301032603681149 -9999.6136665069189 0.2986576117173172 0.01239557792937887 -0.0046257078929858308 0.01239557792937887 -2499.7570533264175 -0.1431392867040544 -0.0046257078929858308 -0.1431392867040544 -9999.565283109916 0.29179570208782479 -0.014162844581037753 -0.013775360952422488 -0.014162844581037753 -2499.7951924217946 0.026386799768715719 -0.013775360952422488 0.026386799768715719 -9999.6792906272894 0.2802880124290823 -0.028829859099752456 -0.024701884891328518 -0.028829859099752456 -2499.7705694169977 -0.0024879228876670823 -0.024701884891328518 -0.0024879228876670823 -9999.673788018541 0.31899975149190141 -0.024092649821397812 -0.0010301191787220887 -0.024092649821397812 -2499.77148961485 -0.010183612609807824 -0.0010301191787220887 -0.010183612609807824 -9999.6506805561457 0.37029127158439223 -0.0007662636663132022 0.0089760754335657111 -0.0007662636663132022 -2499.7412581793378 -0.01216096160305824 0.0089760754335657111 -0.01216096160305824 -9999.6524077469621 0.35019480476512399 -0.0048917882370595155 -0.0081796363572266273 -0.0048917882370595155 -2499.7477178482295 -0.010683274246957808 -0.0081796363572266273 -0.010683274246957808 -9999.6647233925905 0.35137438973788448 0.0022165984557514368 -0.012280394741083001 0.0022165984557514368 -2499.7306494999302 0.010612361269522808 -0.012280394741083001 0.010612361269522808 -9999.6634518786104 0.36437628753787976 -0.0090869057475929972 0.0040242278300866019 -0.0090869057475929972 -2499.7567743134987 -0.015569920448797347 0.0040242278300866019 -0.015569920448797347 -9999.6418226841124 0.38525512611795421 -0.013952772618807327 0.001210190930578392 -0.013952772618807327 -2499.7472870631473 -0.014522985204166616 0.001210190930578392 -0.014522985204166616 -9999.6334781266141 0.31129439854066732 -0.022930183463307288 0.0065384945792175131 -0.022930183463307288 -2499.7644114464465 -0.017761076514943852 0.0065384945792175131 -0.017761076514943852 -9999.6562397474227 0.26897828001528978 -0.0095032316340932545 -0.011510410499795398 -0.0095032316340932545 -2499.793359820248 -0.0064243306069329265 -0.011510410499795398 -0.0064243306069329265 -9999.6881675756522 0.32566602337465156 0.0028724712087998087 -0.012064631677276338 0.0028724712087998087 -2499.7825510201055 -0.0051282875992910704 -0.012064631677276338 -0.0051282875992910704 -9999.671557201169 0.33439165096933721 -0.012470236869158581 -0.011999658148852177 -0.012470236869158581 -2499.7799422684875 0.002643562207595096 -0.011999658148852177 0.002643562207595096 -9999.6708429814244 0.34056443859935825 0.0015668675918777647 -0.014436451785513782 0.0015668675918777647 -2499.7651974632863 0.013140994568232145 -0.014436451785513782 0.013140994568232145 -9999.6700408535089 0.35454220697465644 -0.007138071048116439 -0.0072178639234152797 -0.007138071048116439 -2499.7544965668776 -0.00062755711223871913 -0.0072178639234152797 -0.00062755711223871913 -9999.6557608545318 0.35287880572923314 -0.0011762489368941382 -0.0067034061571575876 -0.0011762489368941382 -2499.7559862920652 0.0071696154973324155 -0.0067034061571575876 0.0071696154973324155 -9999.6631608079151 0.35322139402342145 -0.0052428228954780071 -0.0054327341645148408 -0.0052428228954780071 -2499.7518184868823 0.0013744804891757667 -0.0054327341645148408 0.0013744804891757667 -9999.6526476385643 0.35395747840993863 -0.0032483116436385264 -0.0083435547712724656 -0.0032483116436385264 -2499.7589044777596 0.0052025735312781762 -0.0083435547712724656 0.0052025735312781762 -9999.6660108497726 0.35534981275213795 -0.0075648863051733179 -0.0085410804575758448 -0.0075648863051733179 -2499.7470063341416 -0.0002443837329337839 -0.0085410804575758448 -0.0002443837329337839 -9999.6572272895173 0.34980450614330039 -0.0033224885810975808 -0.011849763832373128 -0.0033224885810975808 -2499.7640413528707 -0.0012881125235253421 -0.011849763832373128 -0.0012881125235253421 -9999.6783993133176 0.35279201823368567 -0.0030812236924108276 -0.013359574390392481 -0.0030812236924108276 -2499.7491358965181 0.0021223716471467924 -0.013359574390392481 0.0021223716471467924 -9999.6788610651838 0.30823915627388487 0.013998625353382877 -0.02099103559521609 0.013998625353382877 -2499.7785532689895 0.0028536871991491353 -0.02099103559521609 0.0028536871991491353 -9999.6758317263884 0.31157809001479109 0.001056323671163067 -0.026950258407850924 0.001056323671163067 -2499.7701072946861 0.013161704647245642 -0.026950258407850924 0.013161704647245642 -9999.6606593892502 0.32882988443225258 0.0076166909227769163 -0.01247133875176587 0.0076166909227769163 -2499.7669579311637 0.0089820527817607854 -0.01247133875176587 0.0089820527817607854 -9999.6596723121802 0.3317463270409462 -0.0049913916195875839 -0.0057173066074938106 -0.0049913916195875839 -2499.7640723477111 -0.0014480706386166275 -0.0057173066074938106 -0.0014480706386166275 -9999.7196207635625 0.34843824563836279 -0.0042944596413015783 -0.010097514363678783 -0.0042944596413015783 -2499.742937408043 0.0084443319924503157 -0.010097514363678783 0.0084443319924503157 -9999.6592512858406 0.33195443648946821 0.01001942839512868 -0.018278382505286572 0.01001942839512868 -2499.7589942446575 0.023531843570935962 -0.018278382505286572 0.023531843570935962 -9999.6405023993575 0.32439557196039459 -0.0072105280613129728 -0.054644981585170171 -0.0072105280613129728 -2499.7738108650428 0.0035453031696306425 -0.054644981585170171 0.0035453031696306425 -9999.7535196648842 0.3549264972700783 -0.0074937190554867292 -0.033244245423247776 -0.0074937190554867292 -2499.7700153708456 -0.0016466780052724062 -0.033244245423247776 -0.0016466780052724062 -9999.765252481171 0.34272334735760523 -0.0075815286909850163 -0.0096108837724386831 -0.0075815286909850163 -2499.7611031067227 0.0058323046532677836 -0.0096108837724386831 0.0058323046532677836 -9999.6638854068024 0.33087342704175171 0.012785899652935865 -0.0381798736982919 0.012785899652935865 -2499.7749787108437 0.064080288337825489 -0.0381798736982919 0.064080288337825489 -9999.6738813726915 0.32591323870019551 0.01102971936667343 -0.023084945376467658 0.01102971936667343 -2499.785201034209 0.022174242845750314 -0.023084945376467658 0.022174242845750314 -9999.6716198239847 0.31500757387766498 0.0094868541403912172 -0.071052797136084672 0.0094868541403912172 -2499.7981187054747 0.024256968930831485 -0.071052797136084672 0.024256968930831485 -9999.7131607701067 0.35240072230681108 0.008631286146666646 0.012071416417799019 0.008631286146666646 -2499.7763260550828 -0.08065987405907632 0.012071416417799019 -0.08065987405907632 -9999.6164940023446 0.29158305565492521 0.0275765135955321 -0.03204970645312788 0.0275765135955321 -2499.7930411797824 0.02089938703476138 -0.03204970645312788 0.02089938703476138 -9999.6208366255614 0.33000313098399486 -0.011256527840156298 -0.016190845492945208 -0.011256527840156298 -2499.7786892614381 -0.027848035848537039 -0.016190845492945208 -0.027848035848537039 -9999.6992527581478 0.25146234066744111 0.010711246655371286 -0.015248672932764107 0.010711246655371286 -2499.7962241108548 0.025146904919492927 -0.015248672932764107 0.025146904919492927 -9999.6422890216672 0.26009697637687168 0.0098196007694844826 -0.010264717449672389 0.0098196007694844826 -2499.7736618356143 0.010392038849659002 -0.010264717449672389 0.010392038849659002 -9999.6175908659425 0.28394198967816919 0.0073513202652104367 -0.0309205422845375 0.0073513202652104367 -2499.756358373224 0.043121966396593547 -0.0309205422845375 0.043121966396593547 -9999.5577691349426 0.36419666781057458 0.0059782895379172744 -0.010890099057633051 0.0059782895379172744 -2499.7798760567034 -0.096079862595843224 -0.010890099057633051 -0.096079862595843224 -9999.5984212951698 0.27830955775380062 0.0079667821446581313 -0.024634873394262902 0.0079667821446581313 -2499.7358830759476 0.042236061327713736 -0.024634873394262902 0.042236061327713736 -9999.5601209403485 0.2938940627136617 0.0093610021986610496 0.0010369591991548077 0.0093610021986610496 -2499.7737905964614 0.0067307871431694366 0.0010369591991548077 0.0067307871431694366 -9999.4961719693601 0.37716327510136693 0.015906017668096004 -0.0029938769515638342 0.015906017668096004 -2499.7542618099897 0.030425337213273451 -0.0029938769515638342 0.030425337213273451 -9999.5778714533808 0.35025042876713997 -0.0016780849790311017 -0.033641494793748034 -0.0016780849790311017 -2499.7415760160816 0.046807240789259852 -0.033641494793748034 0.046807240789259852 -9999.6597551484156 0.33869637102543493 -0.0049859878571942469 -0.012551429185805318 -0.0049859878571942469 -2499.7389934883504 0.041575728608677309 -0.012551429185805318 0.041575728608677309 -9999.6454803180404 0.35038745301471863 -0.0031618578944112609 -0.0037859057783862227 -0.0031618578944112609 -2499.7772421055402 0.021939724132280958 -0.0037859057783862227 0.021939724132280958 -9999.564263274744 0.32542845653165386 -0.0066611658269146064 -0.016081701513940061 -0.0066611658269146064 -2499.7983354919916 0.0044849697865174676 -0.016081701513940061 0.0044849697865174676 -9999.6263415424255 0.28653007109732898 -0.0033430031532775493 0.024636229813892366 -0.0033430031532775493 -2499.7357626158209 -0.03800148967103073 0.024636229813892366 -0.03800148967103073 -9999.5745009426682 0.29003642068183122 -0.024558551535233099 -0.013277172809221027 -0.024558551535233099 -2499.784127408102 -0.086358157613221465 -0.013277172809221027 -0.086358157613221465 -9999.4887422637148 0.27410448817431643 -0.042527322252336228 -0.033218778409990213 -0.042527322252336228 -2499.7795256421514 -0.020341366876891698 -0.033218778409990213 -0.020341366876891698 -9999.6029416548008 0.37112475868582351 0.030719097706286697 0.020024350781113753 0.030719097706286697 -2499.7276422468231 -0.004168009741079004 0.020024350781113753 -0.004168009741079004 -9999.6525089597235 0.38708776263638356 0.012667762950477411 0.047541494962341474 0.012667762950477411 -2499.7522960540809 -0.077993927187433976 0.047541494962341474 -0.077993927187433976 -9999.5289802279294 0.34126643657964451 -0.010714763250290766 -0.027374103653073689 -0.010714763250290766 -2499.7664976999631 -0.037001240018071258 -0.027374103653073689 -0.037001240018071258 -9999.6484645296223 0.34295586820189783 -0.014636421313937881 -0.018329041299693927 -0.014636421313937881 -2499.7846624691306 -0.034088298360813951 -0.018329041299693927 -0.034088298360813951 -9999.7248500431815 0.37778783085417444 -0.0016944599787896194 -0.0036725267677866213 -0.0016944599787896194 -2499.7713717581896 -0.020820263942368911 -0.0036725267677866213 -0.020820263942368911 -9999.6711397818417 0.34281451034030397 0.0041678980226460497 -0.01253741788377738 0.0041678980226460497 -2499.8204105383543 0.0082394801113423455 -0.01253741788377738 0.0082394801113423455 -9999.7678461428513 0.33514499983357382 0.014111697466232151 0.058830596580776273 0.014111697466232151 -2499.792366168183 0.039285612358526123 0.058830596580776273 0.039285612358526123 -9999.6975164125379 0.29499929883581899 0.020436836258677787 -0.009004464704048587 0.020436836258677787 -2499.777348493315 -0.021235917818557937 -0.009004464704048587 -0.021235917818557937 -9999.6936312013622 0.27108721744161812 0.022489211057010999 -0.025488334215879149 0.022489211057010999 -2499.7680568539831 -0.0047624672715755878 -0.025488334215879149 -0.0047624672715755878 -9999.687726475775 0.29375250111979578 -0.0045770047504670869 -0.014699098196720967 -0.0045770047504670869 -2499.7247343865488 0.093264695474992443 -0.014699098196720967 0.093264695474992443 -9999.6128129162535 0.317826309264572 0.014672318577508794 -0.0067206901238330702 0.014672318577508794 -2499.7259342867783 0.015531143715179496 -0.0067206901238330702 0.015531143715179496 -9999.6110919643124 0.27163790127500126 -0.029232692799344186 -0.036666726413079553 -0.029232692799344186 -2499.7604320205924 0.0061910410214581768 -0.036666726413079553 0.0061910410214581768 -9999.5762528268497 0.32580513867320776 0.0083066479061444341 -0.019946325466798281 0.0083066479061444341 -2499.7645792923331 0.052068696537601211 -0.019946325466798281 0.052068696537601211 -9999.6889195818931 0.38475048406145557 0.024457765196858272 0.0083899383631961186 0.024457765196858272 -2499.6911359633095 0.026354532231725014 0.0083899383631961186 0.026354532231725014 -9999.6138940446963 0.35126165246257107 0.0046536653499827108 0.0482877330617969 0.0046536653499827108 -2499.7436655678976 0.058598484040731535 0.0482877330617969 0.058598484040731535 -9999.6710963387923 0.37302289330521887 0.0048745285304149441 -0.0036843058524027583 0.0048745285304149441 -2499.7377647880712 0.0057347582277316178 -0.0036843058524027583 0.0057347582277316178 -9999.6443710247859 0.36911662585725935 0.033732418319321222 0.01835219664314991 0.033732418319321222 -2499.7400799710622 0.0061398112488859624 0.01835219664314991 0.0061398112488859624 -9999.6443657787349 0.38646790056887509 -0.01005132204643952 0.026234617441262653 -0.01005132204643952 -2499.7514825441804 0.010131270393281766 0.026234617441262653 0.010131270393281766 -9999.605476108798 0.42161020524893095 0.0047496499025161537 0.044314708818637694 0.0047496499025161537 -2499.7013601731928 0.078865810651657792 0.044314708818637694 0.078865810651657792 -9999.5167590226411 0.39011868989069304 -0.0094890876322790731 -0.0063811141002667509 -0.0094890876322790731 -2499.7349202745213 0.031671721573773348 -0.0063811141002667509 0.031671721573773348 -9999.5566555851383 0.39606584738641842 -0.010624122764579472 0.017291326922155209 -0.010624122764579472 -2499.7498970084725 0.049531976440406078 0.017291326922155209 0.049531976440406078 -9999.5930556615585 0.40886202025194507 -0.0067631225372205769 0.024391633725826978 -0.0067631225372205769 -2499.7261523631914 0.0070949979981378419 0.024391633725826978 0.0070949979981378419 -9999.5437738675191 0.36965016118347194 -0.0060168286173268 0.027850874006162485 -0.0060168286173268 -2499.7729297192486 0.030664675820389675 0.027850874006162485 0.030664675820389675 -9999.6638214952454 0.36076659672517053 -0.0063663109890153323 -0.0036035084476999657 -0.0063663109890153323 -2499.7591925072766 5.7243879382440355e-05 -0.0036035084476999657 5.7243879382440355e-05 -9999.6499245070045 0.35909952415158841 -0.0095267236795562246 -0.0028899710323821437 -0.0095267236795562246 -2499.7606823612578 0.0079536016911387342 -0.0028899710323821437 0.0079536016911387342 -9999.6549680769222 0.36563761874813849 0.0037951761829680612 -0.051972801973455773 0.0037951761829680612 -2499.7618012528524 0.040004344006774772 -0.051972801973455773 0.040004344006774772 -9999.6298126974525 0.37109574678618173 0.0022874528292942051 -0.0044303411546025018 0.0022874528292942051 -2499.7443929578094 0.013417941263242028 -0.0044303411546025018 0.013417941263242028 -9999.6551288057872 0.36928689429942096 -0.0071306249416065465 -0.05275135345604564 -0.0071306249416065465 -2499.7481813868799 -0.010540334503593152 -0.05275135345604564 -0.010540334503593152 -9999.6275292174578 0.35560662317629976 -0.0031103799204078774 -0.027383847768252669 -0.0031103799204078774 -2499.7778661123648 0.025203326408419824 -0.027383847768252669 0.025203326408419824 -9999.6712316697467 0.35076583114505411 -0.0029587195007528462 -0.024765153404501916 -0.0029587195007528462 -2499.7617900950409 -0.0035806063406198518 -0.024765153404501916 -0.0035806063406198518 -9999.7061046756971 0.37413408615638427 -0.0094774936209627778 0.0076016981151255728 -0.0094774936209627778 -2499.7587563201005 0.018652150960946745 0.0076016981151255728 0.018652150960946745 -9999.7047541556312 0.37234739757354873 7.5977654379555393e-05 0.0058030333411807078 7.5977654379555393e-05 -2499.7458346926769 -0.0033673750272100733 0.0058030333411807078 -0.0033673750272100733 -9999.6625147908926 0.3782152379553736 -0.0022245447388117051 0.0077518745711131487 -0.0022245447388117051 -2499.7680049892647 0.0018826000068656867 0.0077518745711131487 0.0018826000068656867 -9999.6683422284968 0.34604430478930226 0.0039655284893651424 0.059684109556906673 0.0039655284893651424 -2499.7392757838938 -0.0085360008380929719 0.059684109556906673 -0.0085360008380929719 -9999.5864597210839 0.37963062540484316 0.014942760550736034 -0.032504711859150007 0.014942760550736034 -2499.7320383343881 -0.055742796052310611 -0.032504711859150007 -0.055742796052310611 -9999.6084642436836 0.36560415911435484 -0.0032705074960945302 -0.045900301149388645 -0.0032705074960945302 -2499.7473840460843 0.042320204916866555 -0.045900301149388645 0.042320204916866555 -9999.6435133401155 0.38158533382647875 -0.00067655564435443495 0.00091734006957722158 -0.00067655564435443495 -2499.7478886098424 0.0010802743063322851 0.00091734006957722158 0.0010802743063322851 -9999.6292592011432 0.37469726051767793 0.00113338080753363 -0.0033954342079596245 0.00113338080753363 -2499.7530402817756 0.0043054738489445299 -0.0033954342079596245 0.0043054738489445299 -9999.6375898263741 0.3835749112195117 -0.002664810337321891 0.0030205564809193675 -0.002664810337321891 -2499.7442138533343 -0.00030752209431739175 0.0030205564809193675 -0.00030752209431739175 -9999.6273638734874 0.38499250951781505 -0.0032490803794962917 0.0053369922816273174 -0.0032490803794962917 -2499.7562401653076 0.0090770733420413308 0.0053369922816273174 0.0090770733420413308 -9999.6512856016125 0.38532687099268514 -0.0023470928693529285 -0.00073683517848621705 -0.0023470928693529285 -2499.7355307276857 0.0017982285312427848 -0.00073683517848621705 0.0017982285312427848 -9999.6285896428908 0.3877516537372685 -0.0016534881988752646 0.002946145856185467 -0.0016534881988752646 -2499.7460590276855 2.3408227605159482e-05 0.002946145856185467 2.3408227605159482e-05 -9999.6268363460422 0.3738070728340972 0.0083510045864640219 0.00090174909837514861 0.0083510045864640219 -2499.7527254818251 0.0017064606706753693 0.00090174909837514861 0.0017064606706753693 -9999.6423107040391 0.38292916475722905 0.012671119024087171 0.0048234155774480314 0.012671119024087171 -2499.7402399902339 0.011480315853532375 0.0048234155774480314 0.011480315853532375 -9999.6176712315628 0.37859052603107557 0.008153165546202672 0.0052572561032775411 0.008153165546202672 -2499.7402232560157 0.014189720390731964 0.0052572561032775411 0.014189720390731964 -9999.6352413373188 0.37349359942697902 0.0031923944903282757 -0.002415645827568369 0.0031923944903282757 -2499.7695473052177 0.020102255944038916 -0.002415645827568369 0.020102255944038916 -9999.6274491114073 0.37821092595532946 0.0030284580150935075 -0.0062736429599681287 0.0030284580150935075 -2499.7413091838825 0.011154893682885358 -0.0062736429599681287 0.011154893682885358 -9999.6213623270614 0.37419591032903554 0.0041920272545560126 -0.0040650017072039191 0.0041920272545560126 -2499.7474567790159 0.0076410143403791153 -0.0040650017072039191 0.0076410143403791153 -9999.6360267617747 0.37734165991514601 0.00243029463486618 -0.0028320793044258608 0.00243029463486618 -2499.7470015874069 0.0059257505693040002 -0.0028320793044258608 0.0059257505693040002 -9999.6345300443318 0.38543601158471574 0.0076028551071252448 0.003894609161761764 0.0076028551071252448 -2499.7300414213942 0.020090500785499898 0.003894609161761764 0.020090500785499898 -9999.6146794061096 0.3820300970965036 0.0046886192440815308 0.0021439790502881806 0.0046886192440815308 -2499.7495116557575 0.01344502433676098 0.0021439790502881806 0.01344502433676098 -9999.6096244998516 0.37690974819270195 0.0084663697103566013 4.0613350847706897e-05 0.0084663697103566013 -2499.7578919582629 0.021220161594101228 4.0613350847706897e-05 0.021220161594101228 -9999.6245079308428 0.37849229937660311 -0.0042986884225380689 -0.0043785725374618778 -0.0042986884225380689 -2499.7593248791163 0.021903694045249722 -0.0043785725374618778 0.021903694045249722 -9999.6230041546733 0.35876234913303051 0.0040118314227723375 -0.0038819369956399896 0.0040118314227723375 -2499.7590271362951 -0.00066161435461253859 -0.0038819369956399896 -0.00066161435461253859 -9999.6436555507898 0.35255349414353532 0.0049003253888367099 -0.017429882645046746 0.0049003253888367099 -2499.7657014863967 -0.0036084765711166256 -0.017429882645046746 -0.0036084765711166256 -9999.6660687727854 0.37349637719674433 0.0085102318016993667 0.0012910347813885892 0.0085102318016993667 -2499.7553548186852 0.0030506444491038565 0.0012910347813885892 0.0030506444491038565 -9999.6437788358126 0.35510037043746934 0.0049937596303311037 -0.0057909370952984318 0.0049937596303311037 -2499.7627097142808 0.0012716230057776556 -0.0057909370952984318 0.0012716230057776556 -9999.6497625968077 0.29749447143782959 0.007708898525069674 -0.0024999999131978257 0.007708898525069674 -2499.734310964569 -0.00062022385645832401 -0.0024999999131978257 -0.00062022385645832401 -9999.6572313241631 0.29031472482802201 -0.00073682579256203334 -0.0052351369286043337 -0.00073682579256203334 -2499.7435209831447 -0.0075936873490718426 -0.0052351369286043337 -0.0075936873490718426 -9999.6593046324306 0.28720751375112741 0.0011965059858388104 -0.0068114341615910234 0.0011965059858388104 -2499.7455168014631 -0.0073648901466185634 -0.0068114341615910234 -0.0073648901466185634 -9999.658058006753 0.30341035929814097 0.011347589029856019 -0.0086802130995238258 0.011347589029856019 -2499.7464997425091 -0.012404350844235523 -0.0086802130995238258 -0.012404350844235523 -9999.6613996899432 0.34288579341409786 0.0031053956414460043 -0.01154326145115192 0.0031053956414460043 -2499.7649335929527 -0.010691815274185501 -0.01154326145115192 -0.010691815274185501 -9999.649473621419 0.33617760567369714 -0.004182512043739043 -0.011554393796359363 -0.004182512043739043 -2499.7718877246489 -0.0075403650089356233 -0.011554393796359363 -0.0075403650089356233 -9999.6517795732598 0.34293138070597706 0.0038637724924410017 -0.013262513270092313 0.0038637724924410017 -2499.7737773074391 0.016194375941722683 -0.013262513270092313 0.016194375941722683 -9999.672021577755 0.34710270618415962 -0.00098130146546402883 -0.006011320614561555 -0.00098130146546402883 -2499.7911534653667 -0.0016429285476533551 -0.006011320614561555 -0.0016429285476533551 -9999.6553293549441 0.35653185777664476 -0.00018943558610006253 -0.004438620334440202 -0.00018943558610006253 -2499.7580763392871 0.0042552782178972848 -0.004438620334440202 0.0042552782178972848 -9999.6389128188966 0.37153002224295051 -0.00073953841327194236 -0.0049472924170004262 -0.00073953841327194236 -2499.76524175341 -0.013919810078732553 -0.0049472924170004262 -0.013919810078732553 -9999.5829096663911 0.34891900030379475 -0.00070105691519160157 -0.0050139936579398636 -0.00070105691519160157 -2499.7818624511074 -0.0043041288445238024 -0.0050139936579398636 -0.0043041288445238024 -9999.6529261646047 0.34996202337106297 0.0076523127007951386 -0.015725768579613941 0.0076523127007951386 -2499.7844685396853 0.011860818950935936 -0.015725768579613941 0.011860818950935936 -9999.6308955171044 0.35575661764960387 -0.001089564719288498 -0.0056213991504137084 -0.001089564719288498 -2499.7649243469095 0.0076070980712756864 -0.0056213991504137084 0.0076070980712756864 -9999.6402070910299 0.34242741808793653 0.0028055931267908438 -0.011865382703035721 0.0028055931267908438 -2499.7512435813842 0.011679666441523295 -0.011865382703035721 0.011679666441523295 -9999.6156344754763 0.30182694024369994 -0.01879116418556144 -0.01754339983654063 -0.01879116418556144 -2499.7804511104641 0.0086102582172316033 -0.01754339983654063 0.0086102582172316033 -9999.6568385835089 0.3639259301853599 0.003493743650321352 -0.0067891839162257384 0.003493743650321352 -2499.7534576043836 0.0023635673933313228 -0.0067891839162257384 0.0023635673933313228 -9999.6407870614748 0.36017074826486351 -0.010354429951983841 -0.0083475991386876558 -0.010354429951983841 -2499.7672046989046 -0.0021450573003676254 -0.0083475991386876558 -0.0021450573003676254 -9999.6482767565903 0.28964234072373074 -0.016244660912704205 0.014938527982849337 -0.016244660912704205 -2499.7814960785799 0.0035181898010705481 0.014938527982849337 0.0035181898010705481 -9999.6795616966556 0.35178230719884596 -0.00073278125174914763 -0.0058770666673808591 -0.00073278125174914763 -2499.7627222667061 0.0012447736171452561 -0.0058770666673808591 0.0012447736171452561 -9999.6520797910562 0.36196951412421186 -0.0068788764462552974 -0.0057550238338990312 -0.0068788764462552974 -2499.7696151403279 0.00097443515733175445 -0.0057550238338990312 0.00097443515733175445 -9999.6421322041424 0.35952706682382995 -0.00029687387092990677 -0.011099993418838494 -0.00029687387092990677 -2499.7586484040794 0.00051130213341821218 -0.011099993418838494 0.00051130213341821218 -9999.6437606661748 0.33576965759311861 -0.0086123808342909239 -0.0081070712649307097 -0.0086123808342909239 -2499.7621940218651 0.0011064439572692208 -0.0081070712649307097 0.0011064439572692208 -9999.6500990930763 0.3464769988295302 0.011148055749640697 -0.020026028127176687 0.011148055749640697 -2499.7642395374769 0.006823797299148282 -0.020026028127176687 0.006823797299148282 -9999.662450902284 0.29254602519904438 -0.023402152787063691 8.2618897977226879e-05 -0.023402152787063691 -2499.7808772581302 0.0031806026363483397 8.2618897977226879e-05 0.0031806026363483397 -9999.67235802918 0.32656362728084787 -0.0072940983717595604 -0.013367890693189111 -0.0072940983717595604 -2499.7685204066529 0.0031195751080304035 -0.013367890693189111 0.0031195751080304035 -9999.6647489129027 0.32419442549689848 -0.0031935466218295933 -0.019847486157232197 -0.0031935466218295933 -2499.7719778452865 0.0024748557334532961 -0.019847486157232197 0.0024748557334532961 -9999.6649921564021 0.3450900114853539 0.0057010314343639186 -0.0052236089559301035 0.0057010314343639186 -2499.7581618139543 -0.0037264461570885032 -0.0052236089559301035 -0.0037264461570885032 -9999.6505588301679 0.33627605225524348 -0.00095303762468818692 -0.0017450007308070781 -0.00095303762468818692 -2499.7614379510951 -0.0035818914939227398 -0.0017450007308070781 -0.0035818914939227398 -9999.6629884811537 0.39028227160633833 0.0083195598508245955 -0.0058228964553563856 0.0083195598508245955 -2499.7368887321827 0.0010452717488078633 -0.0058228964553563856 0.0010452717488078633 -9999.6270967888304 0.34685891197295859 -0.0021913937978502822 -0.0089457201902405359 -0.0021913937978502822 -2499.7525324284952 0.0018700418031585286 -0.0089457201902405359 0.0018700418031585286 -9999.6404849615501 0.34678691429144237 0.0029223285523049709 -0.0082518217877805 0.0029223285523049709 -2499.7594197556364 0.0071948279610296595 -0.0082518217877805 0.0071948279610296595 -9999.6425411449018 0.33736195883443543 0.0034960952331278619 -0.0011949735344387591 0.0034960952331278619 -2499.7677806908723 0.0015282259901141515 -0.0011949735344387591 0.0015282259901141515 -9999.6660369283309 0.29273145113984356 0.0067829437984112395 0.00026544768934400054 0.0067829437984112395 -2499.7592094313841 0.012718770854917238 0.00026544768934400054 0.012718770854917238 -9999.6745760935373 0.29086682447996282 0.0032523583804629046 -0.0071563395986231626 0.0032523583804629046 -2499.7362586951313 -0.0032966276185106835 -0.0071563395986231626 -0.0032966276185106835 -9999.6689539751824 0.29154937701787276 -0.00087009234271722205 -0.0060083485159339034 -0.00087009234271722205 -2499.7397208663424 -0.0050198561193610658 -0.0060083485159339034 -0.0050198561193610658 -9999.6512490459027 0.37558207080996908 -0.013676096468316912 -0.0032542286771786166 -0.013676096468316912 -2499.7665819353624 -0.0051733193377003772 -0.0032542286771786166 -0.0051733193377003772 -9999.6371818454973 0.33599668491763168 -0.0049025949067974806 -0.0035199521344111417 -0.0049025949067974806 -2499.7715907587381 -0.0035964898870588513 -0.0035199521344111417 -0.0035964898870588513 -9999.6480151957294 0.37541033805064217 0.017649739761807115 -0.00085759658759343438 0.017649739761807115 -2499.7453235795892 -0.021619394534809544 -0.00085759658759343438 -0.021619394534809544 -9999.6289036153303 0.38362985953426687 0.009256881745441984 -0.0020257573587514344 0.009256881745441984 -2499.7377182694181 -0.025812120142290951 -0.0020257573587514344 -0.025812120142290951 -9999.6298364750619 0.38056415254959575 -0.014680291807513183 -0.0046233527918957407 -0.014680291807513183 -2499.7648494854311 -0.0051429024147182645 -0.0046233527918957407 -0.0051429024147182645 -9999.6355861881566 0.38329049770982238 0.0060807477177189824 0.00056175449390138965 0.0060807477177189824 -2499.7386302738796 0.0141754163951191 0.00056175449390138965 0.0141754163951191 -9999.6267523599454 0.3685193118872121 0.0011676239280483808 -0.0034738031754386611 0.0011676239280483808 -2499.778957840801 0.0033788614164222963 -0.0034738031754386611 0.0033788614164222963 -9999.6370258010684 0.38136030283567379 -0.0016913450027070467 -0.0020535453386401059 -0.0016913450027070467 -2499.7302366395743 -0.00043648902919812826 -0.0020535453386401059 -0.00043648902919812826 -9999.6205024293886 0.38184007088784711 0.0075009898563903245 -0.0019710425192442926 0.0075009898563903245 -2499.7406370718127 0.0018523358075981378 -0.0019710425192442926 0.0018523358075981378 -9999.6340917776542 0.38161386759202287 0.020847864062146327 0.0022416516576413414 0.020847864062146327 -2499.7367305056523 -0.017893632638333656 0.0022416516576413414 -0.017893632638333656 -9999.6209439955419 0.37641116117913498 -0.0012326419671940606 -0.0020985304199712118 -0.0012326419671940606 -2499.7487511111385 -0.00024414817471551942 -0.0020985304199712118 -0.00024414817471551942 -9999.6257443670147 0.37896269580778608 -0.00086195314727495909 -0.00082969360050810792 -0.00086195314727495909 -2499.7510643552978 -0.001490357926741126 -0.00082969360050810792 -0.001490357926741126 -9999.6367056629424 0.38288226997974562 0.0012460799273388272 0.0011835795555725781 0.0012460799273388272 -2499.7454068212137 0.0028320045748841949 0.0011835795555725781 0.0028320045748841949 -9999.6241882229551 0.37845282396483526 0.0016175313614773877 -0.0034111037548427703 0.0016175313614773877 -2499.7493294145097 0.00057935421682486776 -0.0034111037548427703 0.00057935421682486776 -9999.6376944037838 0.37729054739793355 -0.00036753336960864205 -0.00192385905302217 -0.00036753336960864205 -2499.7455099660838 -0.0014987744852987817 -0.00192385905302217 -0.0014987744852987817 -9999.6254736567353 0.37697751314499328 0.00082700796589036188 -0.0029552790892921621 0.00082700796589036188 -2499.750895232487 0.0013781169463982224 -0.0029552790892921621 0.0013781169463982224 -9999.6308267394979 0.39010822546151758 0.00065630882771107023 0.00092682787567355263 0.00065630882771107023 -2499.7403134683991 0.00073587111364759039 0.00092682787567355263 0.00073587111364759039 -9999.6197210788887 0.38327029760785081 0.0073726499793053367 -0.0034089015343852225 0.0073726499793053367 -2499.7523808338565 0.0025658075501269195 -0.0034089015343852225 0.0025658075501269195 -9999.6284224100382 0.38135719082129071 7.4723065092238846e-06 -0.00031995863719203044 7.4723065092238846e-06 -2499.7453456262338 -0.0012968397277290933 -0.00031995863719203044 -0.0012968397277290933 -9999.624300618616 0.37701053690170738 0.0036884455604830092 -0.0013225403545220615 0.0036884455604830092 -2499.7547996165908 0.0065663455679896288 -0.0013225403545220615 0.0065663455679896288 -9999.629636827216 0.38288629663929896 0.00094430147747160201 0.0018988857991644181 0.00094430147747160201 -2499.7427183233376 0.00064921775265247561 0.0018988857991644181 0.00064921775265247561 -9999.6220486446582 0.39418583709266386 -0.00067727486085341379 -0.0015231346114887856 -0.00067727486085341379 -2499.746534800046 0.001534828723379178 -0.0015231346114887856 0.001534828723379178 -9999.6238030454679 0.38277733684753912 0.00092477816640876829 0.00042562519047351088 0.00092477816640876829 -2499.7436295211028 0.00035418023298916523 0.00042562519047351088 0.00035418023298916523 -9999.6205985122579 0.3924087244013208 0.0026337772644531715 0.0018215465788671281 0.0026337772644531715 -2499.742823552795 -0.0015025406300992472 0.0018215465788671281 -0.0015025406300992472 -9999.6183084142467 0.3919757971088984 0.0016816322478360284 -0.00077474919817177579 0.0016816322478360284 -2499.7440348918353 0.0028304434599704109 -0.00077474919817177579 0.0028304434599704109 -9999.6228950434743 0.38966985691331502 0.00021716663878008913 0.00065379888837924227 0.00021716663878008913 -2499.7411544315582 -3.1866660719970241e-05 0.00065379888837924227 -3.1866660719970241e-05 -9999.6214653608258 0.39062022546386288 -0.00030448070359455803 0.00011009059016942047 -0.00030448070359455803 -2499.741777338435 -0.00027191452318220399 0.00011009059016942047 -0.00027191452318220399 -9999.6213487843997 0.39338711922573566 0.00020197992256500846 0.00088757638877723366 0.00020197992256500846 -2499.7303810748199 -0.00082928506708412897 0.00088757638877723366 -0.00082928506708412897 -9999.616281478804 0.38834373717327253 0.0072745342973090325 -0.00089289555421601108 0.0072745342973090325 -2499.7479792919657 -0.0014244922895159107 -0.00089289555421601108 -0.0014244922895159107 -9999.6208496267209 0.37218194737579324 0.0020232138439804752 -0.0021332965316105401 0.0020232138439804752 -2499.7610132600166 0.0001089004181267228 -0.0021332965316105401 0.0001089004181267228 -9999.6442634305276 0.37824255056511902 0.0028145989035195489 0.00054019662638893351 0.0028145989035195489 -2499.7547338421155 -0.00022440043903770857 0.00054019662638893351 -0.00022440043903770857 -9999.6223732859762 0.38188733923925611 0.00052396464656810984 0.00019022984997718595 0.00052396464656810984 -2499.7440483669052 5.9156212955713272e-05 0.00019022984997718595 5.9156212955713272e-05 -9999.6189051923284 0.39253538935190591 0.0050009772500242255 -0.001362101389986492 0.0050009772500242255 -2499.7373766289656 -0.00061845984600950032 -0.001362101389986492 -0.00061845984600950032 -9999.6172598249759 0.38330067169226822 -0.011593869624134515 -0.0034260273969266564 -0.011593869624134515 -2499.7239540783667 0.026036776060209377 -0.0034260273969266564 0.026036776060209377 -9999.615283013205 0.38730927340475318 0.0057358567602254079 -0.00054327334146364592 0.0057358567602254079 -2499.7401972195403 0.014953378864447586 -0.00054327334146364592 0.014953378864447586 -9999.6259303379447 0.38653675008390564 0.0068421979309869173 -0.00085206932101300481 0.0068421979309869173 -2499.7480737029855 -0.0012121582985855639 -0.00085206932101300481 -0.0012121582985855639 -9999.6212271890545 0.39065936614497332 0.0040413054696107342 0.0025674805292510428 0.0040413054696107342 -2499.7266578119488 -0.0053514243463723687 0.0025674805292510428 -0.0053514243463723687 -9999.6240079804156 0.40199917302925314 0.0051035538294881 0.0030595515163440723 0.0051035538294881 -2499.7264617965993 -0.0026200665015494451 0.0030595515163440723 -0.0026200665015494451 -9999.625949122099 0.39315114304190502 0.0029549388099597822 0.0024314526358466537 0.0029549388099597822 -2499.7289238493431 -0.0069679352709499653 0.0024314526358466537 -0.0069679352709499653 -9999.6253519927195 0.39556618975075253 0.010401975886377555 0.0039564464859722648 0.010401975886377555 -2499.7410044625194 -0.0018091378206008812 0.0039564464859722648 -0.0018091378206008812 -9999.6276223937602 0.37757460882312444 0.0056859183245072525 -0.0003355570079293102 0.0056859183245072525 -2499.7585521391738 0.012331381676631281 -0.0003355570079293102 0.012331381676631281 -9999.6320771655191 0.39694963617330359 7.2827385012142962e-05 -0.00049761511627366417 7.2827385012142962e-05 -2499.7511111503354 0.0024763037617958616 -0.00049761511627366417 0.0024763037617958616 -9999.6229066268061 0.39593046167283319 0.0018510644075731154 -0.0014678655725219869 0.0018510644075731154 -2499.7552002152042 -0.0034400597178319003 -0.0014678655725219869 -0.0034400597178319003 -9999.6291236844336 0.34305908849501066 0.0035756233029088612 -0.0045633537993126083 0.0035756233029088612 -2499.7815367213711 0.020272284089514869 -0.0045633537993126083 0.020272284089514869 -9999.6528452219391 0.37479422159958631 0.011377544180900728 -0.0036762551235369756 0.011377544180900728 -2499.7692797675008 0.019185428385753767 -0.0036762551235369756 0.019185428385753767 -9999.6438495428956 0.37330291067883081 0.014315009493128007 0.0032267902403191329 0.014315009493128007 -2499.7767721672444 -0.0032046042942965869 0.0032267902403191329 -0.0032046042942965869 -9999.6366228937695 0.3998371715315443 0.0019271446494954492 -0.0030259169325290713 0.0019271446494954492 -2499.7491925169124 0.0014502345147775486 -0.0030259169325290713 0.0014502345147775486 -9999.6188315026229 0.37674395731301047 0.015259089792626079 0.0024241112150775734 0.015259089792626079 -2499.7683975298787 -0.0064689828868722543 0.0024241112150775734 -0.0064689828868722543 -9999.6318222380396 0.32861981684072816 -0.01215902522622336 -0.016299985512887361 -0.01215902522622336 -2499.7788175566166 -0.00095203467753890436 -0.016299985512887361 -0.00095203467753890436 -9999.6718747989726 0.34684761193420854 -0.0042867973877724064 -0.02265470526253921 -0.0042867973877724064 -2499.7608486958707 -0.0071772872615838423 -0.02265470526253921 -0.0071772872615838423 -9999.6569409543881 0.32906163607913186 -0.0033982140785993875 -0.024983716110000387 -0.0033982140785993875 -2499.7623130698958 -0.0016044315416365862 -0.024983716110000387 -0.0016044315416365862 -9999.6902593957784 0.28783562469106982 -0.010171657906412973 0.0083519341369537869 -0.010171657906412973 -2499.7669968626833 0.00069848871135036461 0.0083519341369537869 0.00069848871135036461 -9999.7053832097008 0.2945254687938359 0.0035923498944428894 0.001568983519973699 0.0035923498944428894 -2499.7426445768078 0.024779620598565089 0.001568983519973699 0.024779620598565089 -9999.6556622965145 0.28053433179593412 -0.0020014394751709658 -0.00079219555118470453 -0.0020014394751709658 -2499.7717142354377 0.0063129178415692877 -0.00079219555118470453 0.0063129178415692877 -9999.6825601160308 0.33744542302520131 -0.0054488605029900036 -0.0098814857119577937 -0.0054488605029900036 -2499.7754653629818 0.0068321428975366416 -0.0098814857119577937 0.0068321428975366416 -9999.6668633694644 0.33033087064268329 -0.0067557596639928885 -0.009700183683889918 -0.0067557596639928885 -2499.801171430011 0.0032070537909021368 -0.009700183683889918 0.0032070537909021368 -9999.6758227005266 0.34326744051941205 -0.0020467194792531743 -0.020817039865505649 -0.0020467194792531743 -2499.7697963443097 -0.0029882128147846743 -0.020817039865505649 -0.0029882128147846743 -9999.6344029291795 0.3331337348154193 -0.003363642437615744 -0.013159302576241316 -0.003363642437615744 -2499.7821545183233 -0.026216895137622487 -0.013159302576241316 -0.026216895137622487 -9999.6681444149726 0.32331886081010452 -0.003877247540330718 0.0002790327271213755 -0.003877247540330718 -2499.7864379561488 -0.00065659320534905419 0.0002790327271213755 -0.00065659320534905419 -9999.695737344533 0.33619581681523414 -0.0046902555867028191 -0.0034567263955977978 -0.0046902555867028191 -2499.7949851379399 -0.0019235031486459775 -0.0034567263955977978 -0.0019235031486459775 -9999.6474183228056 0.31458468824530428 -0.0052019712685231053 -0.020532275071673212 -0.0052019712685231053 -2499.7851809018048 3.1652780307922512e-05 -0.020532275071673212 3.1652780307922512e-05 -9999.6983053598524 0.33145171271826257 -0.0024503366151867809 -0.0072497847104386892 -0.0024503366151867809 -2499.7762999355509 0.014976963273511501 -0.0072497847104386892 0.014976963273511501 -9999.664976772292 0.33407962350065645 0.00080860758476185984 -0.0027142039743921487 0.00080860758476185984 -2499.7702321205634 -0.0015387701623694738 -0.0027142039743921487 -0.0015387701623694738 -9999.6484408706237 0.37096189089163545 0.0038565576084205189 -0.0023607139628438745 0.0038565576084205189 -2499.7552941021613 0.0019595747817220399 -0.0023607139628438745 0.0019595747817220399 -9999.6317906491313 0.33220617147162557 -0.0015215829359826738 -0.011654503576210118 -0.0015215829359826738 -2499.7764723368564 0.0025348299514007522 -0.011654503576210118 0.0025348299514007522 -9999.6765730721017 0.3969869020384067 0.00048359109322442667 -0.005419897865067469 0.00048359109322442667 -2499.7502627436861 -0.00074045352448592894 -0.005419897865067469 -0.00074045352448592894 -9999.629076604997 0.35483500285045011 0.00027439362230704612 0.001932669982409152 0.00027439362230704612 -2499.7595874861127 0.0055417387684428832 0.001932669982409152 0.0055417387684428832 -9999.6328372969001 0.30499245847022394 0.00069874864029229738 -0.022059382168663433 0.00069874864029229738 -2499.7903619607423 -0.0019614404977801314 -0.022059382168663433 -0.0019614404977801314 -9999.6972575263644 0.39526636603477527 0.00048201373612018553 -0.0041113034876616439 0.00048201373612018553 -2499.7441358653923 -0.0018229905253974721 -0.0041113034876616439 -0.0018229905253974721 -9999.6284751632702 0.33523335299469181 -0.0019011427681237536 -0.013303755953529617 -0.0019011427681237536 -2499.7711425155103 0.0064911867666523904 -0.013303755953529617 0.0064911867666523904 -9999.668654929701 0.3285762526520557 -0.0013730947060778096 -0.005204526032684953 -0.0013730947060778096 -2499.7738595774044 -0.0035107904029700876 -0.005204526032684953 -0.0035107904029700876 -9999.6536568778502 0.32793049377869465 -0.0033166516242282493 -0.013467830714944284 -0.0033166516242282493 -2499.7801581655549 0.00086746781153124175 -0.013467830714944284 0.00086746781153124175 -9999.6807677826 0.32696558941279363 -0.004897202959514073 -0.010621469948091544 -0.004897202959514073 -2499.7730981961922 0.00047337661817437038 -0.010621469948091544 0.00047337661817437038 -9999.6843095632212 0.39951637020021735 0.0012579389573540909 -0.0046377903745451476 0.0012579389573540909 -2499.7449169668052 -2.5755809474503621e-05 -0.0046377903745451476 -2.5755809474503621e-05 -9999.6270562077043 0.39845536697066564 0.0015835900712937966 -0.0053652402602892835 0.0015835900712937966 -2499.7437856838096 0.001219997982161658 -0.0053652402602892835 0.001219997982161658 -9999.6262328058656 0.33148378394798783 0.00047399165237384662 -0.0033851606949610868 0.00047399165237384662 -2499.7652943138364 0.00097205314011716837 -0.0033851606949610868 0.00097205314011716837 -9999.6453358871368 0.30518587829465105 0.0014234589622766549 -0.020566558225254994 0.0014234589622766549 -2499.7839105622043 0.0039236874254129361 -0.020566558225254994 0.0039236874254129361 -9999.6887201388308 0.30379194115448627 0.0014881401951866938 -0.022238158991967794 0.0014881401951866938 -2499.7839520800917 0.0014668066639842436 -0.022238158991967794 0.0014668066639842436 -9999.6929258828532 0.35898038808591082 -0.0047228589484989009 -0.0024458963016513735 -0.0047228589484989009 -2499.7587410427459 0.0013206770308897831 -0.0024458963016513735 0.0013206770308897831 -9999.6319095204599 0.35306743451747025 -0.0010473680992657552 -0.0054133622579684015 -0.0010473680992657552 -2499.7600949351026 0.00065935476413869765 -0.0054133622579684015 0.00065935476413869765 -9999.6324741453063 0.29645506638735242 0.0055795312541901572 -0.023415907207890996 0.0055795312541901572 -2499.7875866404702 0.0041842714108497603 -0.023415907207890996 0.0041842714108497603 -9999.691937875712 0.35539385263837175 -0.00113704659280928 -0.0040489714956493117 -0.00113704659280928 -2499.7571026310543 -0.0020586133759934455 -0.0040489714956493117 -0.0020586133759934455 -9999.6257090922154 0.32001175300410978 -0.0058087537763813792 -0.027298286258883309 -0.0058087537763813792 -2499.7799315464845 0.0028512487006082665 -0.027298286258883309 0.0028512487006082665 -9999.6855926180433 0.32424857183832501 -0.0010209610376222897 -0.023735018107799988 -0.0010209610376222897 -2499.7925438374978 0.0017868582981463987 -0.023735018107799988 0.0017868582981463987 -9999.6863600704091 0.39598119159927592 -0.0029524215322176027 -0.0033666534009171301 -0.0029524215322176027 -2499.7470807432219 0.0047573785377608147 -0.0033666534009171301 0.0047573785377608147 -9999.628692575614 0.35980553740228061 -0.005455864544547032 -0.0051144818989996566 -0.005455864544547032 -2499.7583642331883 0.0039597739619239292 -0.0051144818989996566 0.0039597739619239292 -9999.6370621790484 0.32475396162408288 0.0042651413179513988 -0.0083743336672341684 0.0042651413179513988 -2499.7795885107153 0.0021860615215700818 -0.0083743336672341684 0.0021860615215700818 -9999.6850493433012 0.33135111596311617 0.0056707572783576323 -0.0029911701003584312 0.0056707572783576323 -2499.767773230953 0.0052700753381031973 -0.0029911701003584312 0.0052700753381031973 -9999.6455425285785 0.33134951153715519 0.010533635637491507 -0.0058750603202497587 0.010533635637491507 -2499.7629047008568 0.0014917836160748266 -0.0058750603202497587 0.0014917836160748266 -9999.651277752846 0.36229576177811396 -0.0016876757959805311 -0.0095204714548344782 -0.0016876757959805311 -2499.7476265077503 -0.004251449683579267 -0.0095204714548344782 -0.004251449683579267 -9999.641556050512 0.36190437143704912 0.00053645534294389369 -0.0074502639208731125 0.00053645534294389369 -2499.7551186534311 -0.0041803723233897472 -0.0074502639208731125 -0.0041803723233897472 -9999.640410044005 0.35371732227201846 0.0067569500040731562 -0.0086223945098140575 0.0067569500040731562 -2499.7661796550092 0.008106217414024286 -0.0086223945098140575 0.008106217414024286 -9999.6645013804027 0.35283645669153429 -0.005013464513900702 -0.0036748370093846461 -0.005013464513900702 -2499.752931217587 0.0029139729012968019 -0.0036748370093846461 0.0029139729012968019 -9999.6564837788173 0.3603861121148384 -0.0036360632900477117 -0.0070458457257700502 -0.0036360632900477117 -2499.7582000448692 -0.0011963372544414597 -0.0070458457257700502 -0.0011963372544414597 -9999.6439136201388 0.35273891195691931 -0.0040777075829690982 -0.0087566387871333973 -0.0040777075829690982 -2499.7679426703985 -0.007020363003903185 -0.0087566387871333973 -0.007020363003903185 -9999.664703870254 0.31962769677556935 0.0084138993409925596 -0.011868352026795037 0.0084138993409925596 -2499.7737801162948 -0.0035016000183532014 -0.011868352026795037 -0.0035016000183532014 -9999.6745541034761 0.30390555652047624 0.014964412693349199 0.0082694775637719431 0.014964412693349199 -2499.7747824666876 -0.00016073246843006928 0.0082694775637719431 -0.00016073246843006928 -9999.6725487595759 0.30651633129286893 0.019993435957412223 -0.0025059478930415935 0.019993435957412223 -2499.7784933916173 0.003248525417802739 -0.0025059478930415935 0.003248525417802739 -9999.6743531886223 0.33476089114265051 -0.015902976861879008 -0.0013370031429076334 -0.015902976861879008 -2499.7845153543822 0.0084522310044121696 -0.0013370031429076334 0.0084522310044121696 -9999.6678428116502 0.35581011378599214 0.0051637303977110464 -0.0052333084604470059 0.0051637303977110464 -2499.7486138512895 -0.0036485115451796446 -0.0052333084604470059 -0.0036485115451796446 -9999.640700642638 0.38137485300831031 0.00276439401744423 -3.3882679417729378e-07 0.00276439401744423 -2499.7501101340822 -0.0070383875900006387 -3.3882679417729378e-07 -0.0070383875900006387 -9999.6341095906901 0.36503078926034505 -0.0031571743590668964 0.0014925932118785568 -0.0031571743590668964 -2499.7612233248292 0.00094825348060112447 0.0014925932118785568 0.00094825348060112447 -9999.6429705527844 0.34307941499537264 0.0006591841879616811 -0.011252856611463358 0.0006591841879616811 -2499.7716254365241 0.0035025601973757148 -0.011252856611463358 0.0035025601973757148 -9999.6683751225792 0.35570964900216495 -9.0155173634826752e-05 -0.0043785675670733326 -9.0155173634826752e-05 -2499.7563457276865 -0.0062276025182654848 -0.0043785675670733326 -0.0062276025182654848 -9999.6421379326239 0.33088387931820762 -0.011572456582642145 0.0059165524744457798 -0.011572456582642145 -2499.783894615206 0.0092797487050120253 0.0059165524744457798 0.0092797487050120253 -9999.6712305933688 0.32306661312338036 0.0021910156874530989 0.0071745787408872275 0.0021910156874530989 -2499.7839595453829 0.0027147386190335965 0.0071745787408872275 0.0027147386190335965 -9999.6730583063509 0.26009661462194344 -0.0051939264890978609 0.011918748792595579 -0.0051939264890978609 -2499.7785633961739 0.0063261266368499491 0.011918748792595579 0.0063261266368499491 -9999.6875323200838 0.29055631177379837 0.0011409263529297622 -0.0036565242726283032 0.0011409263529297622 -2499.7674700574107 0.005230823273450369 -0.0036565242726283032 0.005230823273450369 -9999.6671322171278 0.30645977668791602 -0.017000962147791177 -0.010833321754034841 -0.017000962147791177 -2499.7573875804828 0.010842304670404701 -0.010833321754034841 0.010842304670404701 -9999.65680409989 0.38456980899127302 -0.012883659806455464 0.00043726869989768602 -0.012883659806455464 -2499.7495248387172 -0.0036011867905472172 0.00043726869989768602 -0.0036011867905472172 -9999.633238653696 0.36034506904707087 -0.00075236944509377013 -0.0086320847931347089 -0.00075236944509377013 -2499.770539206796 0.0025818945268838434 -0.0086320847931347089 0.0025818945268838434 -9999.6500777974834 0.30612748476050911 -0.013647248170956756 -0.0088039702968671918 -0.013647248170956756 -2499.7627079771682 0.0062831201958033489 -0.0088039702968671918 0.0062831201958033489 -9999.6785429954834 0.30021678520643036 -0.0061683622662027995 0.0046617819016319118 -0.0061683622662027995 -2499.7060443628598 -0.029131482599041192 0.0046617819016319118 -0.029131482599041192 -9999.6484722169916 0.33378792614553277 0.0054174756409129908 -0.007860828689445043 0.0054174756409129908 -2499.8086745355795 -0.0036322760824987199 -0.007860828689445043 -0.0036322760824987199 -9999.6845979571517 0.27382918777766463 0.0045608026749856048 -0.0041591172566768364 0.0045608026749856048 -2499.7523013242881 -0.0056286883191205561 -0.0041591172566768364 -0.0056286883191205561 -9999.6856928829438 0.31365318604002823 0.0030175943796208818 -0.025535267526720418 0.0030175943796208818 -2499.764533597714 -0.0017844065405370202 -0.025535267526720418 -0.0017844065405370202 -9999.6934844624193 0.35250866309434059 -0.0023177654764104105 -0.021595889204036212 -0.0023177654764104105 -2499.7584003933953 0.014003540873090969 -0.021595889204036212 0.014003540873090969 -9999.6526782396249 0.28876358985507977 0.012393064946844584 0.013619594454212347 0.012393064946844584 -2499.7520606938724 -0.0079220419884222792 0.013619594454212347 -0.0079220419884222792 -9999.7020916455367 0.32744664403799106 0.0087071152015645303 -0.012229643818500335 0.0087071152015645303 -2499.7868286018165 0.0029542008032876765 -0.012229643818500335 0.0029542008032876765 -9999.6777891774473 0.30332567197365279 -0.0032476190437240385 -0.023135717876357376 -0.0032476190437240385 -2499.7954948847964 0.0028958892798982561 -0.023135717876357376 0.0028958892798982561 -9999.6957993075775 0.31596697270288132 0.0035882383281982608 -0.027840435308462474 0.0035882383281982608 -2499.7778692982683 -0.0038764955716033 -0.027840435308462474 -0.0038764955716033 -9999.6819801690872 0.34946378414133505 -0.0015958911524562649 0.001629207106816466 -0.0015958911524562649 -2499.774382626927 0.003975274389176775 0.001629207106816466 0.003975274389176775 -9999.6453128311914 0.34439148755700444 0.0022843849624123655 -0.0083506769842642825 0.0022843849624123655 -2499.7780210038909 -0.00086102438581292517 -0.0083506769842642825 -0.00086102438581292517 -9999.6752085937915 0.39994213898535236 -0.0027874069775042217 -0.0038333889096975327 -0.0027874069775042217 -2499.7421600869893 -0.00075199763523414731 -0.0038333889096975327 -0.00075199763523414731 -9999.6231745153127 0.36395367821205582 0.0057756027829912772 -0.0028693875083263265 0.0057756027829912772 -2499.7571659694531 -0.0018293925991201831 -0.0028693875083263265 -0.0018293925991201831 -9999.632927829407 0.38379570420784148 -0.022596130640990676 -0.0028838755824835971 -0.022596130640990676 -2499.768406296168 0.010305472459549492 -0.0028838755824835971 0.010305472459549492 -9999.6341412041184 0.37080271420200006 -0.017946576104842508 0.0017982341428250948 -0.017946576104842508 -2499.7742159908776 0.0080786394828464836 0.0017982341428250948 0.0080786394828464836 -9999.6329721488873 0.39843451164779253 -0.0047984266254374776 -0.0036969518005207647 -0.0047984266254374776 -2499.7474297903209 0.0021874632802791893 -0.0036969518005207647 0.0021874632802791893 -9999.6260654567595 0.3391262270797597 0.0027315445205109389 0.0015591313131153584 0.0027315445205109389 -2499.8025656744958 0.0030346480743901338 0.0015591313131153584 0.0030346480743901338 -9999.6539975584965 0.37012130799121223 -0.013083981737343719 -0.001370792544548749 -0.013083981737343719 -2499.7683200168976 -0.019781944387432304 -0.001370792544548749 -0.019781944387432304 -9999.6477796370091 0.35127458507304254 -0.00402038904894058 -0.0012941071709065 -0.00402038904894058 -2499.7812431280381 -0.02100609618537419 -0.0012941071709065 -0.02100609618537419 -9999.654992256299 0.37847686496024835 -0.00075532283152118795 0.00062787451315671206 -0.00075532283152118795 -2499.7503856177391 0.0009516937661828706 0.00062787451315671206 0.0009516937661828706 -9999.6216664188178 0.38216698630276369 -0.00089839282172343021 0.00037636180786648765 -0.00089839282172343021 -2499.7383541168383 0.0022778055390517693 0.00037636180786648765 0.0022778055390517693 -9999.6186794895548 0.38022106329663075 0.010081782036988299 0.0034984630656254012 0.010081782036988299 -2499.7399823013002 0.00037947971941321157 0.0034984630656254012 0.00037947971941321157 -9999.6274762357716 0.37708331738940615 -0.0010880197458010901 -0.00031892536753730383 -0.0010880197458010901 -2499.7530117279475 0.0050109864860132802 -0.00031892536753730383 0.0050109864860132802 -9999.6259458340101 0.38823257142394141 -0.0013700522231207962 -0.00064018628472695127 -0.0013700522231207962 -2499.7500307938626 -0.00097344396453991067 -0.00064018628472695127 -0.00097344396453991067 -9999.6219834943586 0.38688622039080656 0.00074168337432619497 0.0016436825007986045 0.00074168337432619497 -2499.7226380264856 0.0054772394632891519 0.0016436825007986045 0.0054772394632891519 -9999.626398956585 0.39105545009806519 -0.0090029779909280919 0.0050350412384432275 -0.0090029779909280919 -2499.7386948973035 -0.0005936863071838161 0.0050350412384432275 -0.0005936863071838161 -9999.6272939357368 0.39273532593506388 -0.0022812307016209835 -0.00014679440687359602 -0.0022812307016209835 -2499.7368921398302 0.0041158889289363287 -0.00014679440687359602 0.0041158889289363287 -9999.6192203957617 0.39482116006183787 -0.0046641943655007139 -0.0014082651375417754 -0.0046641943655007139 -2499.732709698048 0.0026573229333735071 -0.0014082651375417754 0.0026573229333735071 -9999.6166733366554 0.38835021320119267 -0.0027938705494015936 -0.0018537002381293632 -0.0027938705494015936 -2499.7534803293784 0.001669260060225497 -0.0018537002381293632 0.001669260060225497 -9999.6216289586082 0.39704606138548115 -0.0063640626285938751 0.0017158969494630583 -0.0063640626285938751 -2499.7200088550453 0.0084360311211639782 0.0017158969494630583 0.0084360311211639782 -9999.6261393599707 0.39425478020712035 -0.001657520595482996 -0.00059283427376044529 -0.001657520595482996 -2499.7265282937078 0.0075172413744439837 -0.00059283427376044529 0.0075172413744439837 -9999.6248557253712 0.37890743341085908 0.00045315536927288799 0.0017556834727656678 0.00045315536927288799 -2499.7550792798665 -0.0017942133781616576 0.0017556834727656678 -0.0017942133781616576 -9999.6258741713391 0.3768600494513521 0.00077955421601083597 0.00082644440408330411 0.00077955421601083597 -2499.7590182596468 0.0022467921007773839 0.00082644440408330411 0.0022467921007773839 -9999.6298978176164 0.37331108892431075 -0.0032325939582329016 -0.0021094153744343203 -0.0032325939582329016 -2499.7629170745658 -0.0039531668871859438 -0.0021094153744343203 -0.0039531668871859438 -9999.6269643071828 0.38490143546823674 -0.0005368852766736501 0.0010354136220485088 -0.0005368852766736501 -2499.7227967197023 -0.029852883792955254 0.0010354136220485088 -0.029852883792955254 -9999.6182154830585 0.37305788968660636 0.0017582491292533892 -0.00068823276421881019 0.0017582491292533892 -2499.7698810987004 -0.0043104136493639089 -0.00068823276421881019 -0.0043104136493639089 -9999.6285686534684 0.3757718247397861 0.0033567161270818043 0.0015395579553114658 0.0033567161270818043 -2499.7603825826918 0.0036676231447927421 0.0015395579553114658 0.0036676231447927421 -9999.6289216435034 0.37043536832334212 0.002683087989965971 0.0015387088669740479 0.002683087989965971 -2499.7632491624827 -0.0097518519075947552 0.0015387088669740479 -0.0097518519075947552 -9999.6377164533587 0.37239666286768625 0.0092237301390758787 0.00202827013777096 0.0092237301390758787 -2499.7594621046992 -0.0092813068866348658 0.00202827013777096 -0.0092813068866348658 -9999.6397389471822 0.37421366504895559 -0.0010197728811259556 -0.001893954873594339 -0.0010197728811259556 -2499.7624570080261 -0.00079955556975619402 -0.001893954873594339 -0.00079955556975619402 -9999.6316323215287 0.37330845022734138 0.0091146918838969603 0.00087931103394112142 0.0091146918838969603 -2499.7585009613504 -0.0062472035786811375 0.00087931103394112142 -0.0062472035786811375 -9999.6373799644207 0.39086519587726798 0.010476890952978166 -0.0001640468198615963 0.010476890952978166 -2499.7104899529622 -0.02563797427501413 -0.0001640468198615963 -0.02563797427501413 -9999.6154480813202 0.37977229491116304 0.0018829176093752122 -0.001997716881191991 0.0018829176093752122 -2499.7504177507453 -0.014753719005966559 -0.001997716881191991 -0.014753719005966559 -9999.6201723688864 0.37330777468469023 0.016631542150798317 0.0022237644116103183 0.016631542150798317 -2499.7593932170112 -0.022896829127603269 0.0022237644116103183 -0.022896829127603269 -9999.6289721828471 0.37785838401032379 -0.0011038867250596253 -0.0003128350326733198 -0.0011038867250596253 -2499.747789758364 -0.00049224321810470428 -0.0003128350326733198 -0.00049224321810470428 -9999.6231826262156 0.38394518618406437 -0.0031801686124870213 0.0025856999795905722 -0.0031801686124870213 -2499.7484164229245 -0.0037777923953399295 0.0025856999795905722 -0.0037777923953399295 -9999.6225774153172 0.3756063699565857 -0.0023653084353701362 -0.0037718743333243765 -0.0023653084353701362 -2499.7548670105016 0.00056636395584064303 -0.0037718743333243765 0.00056636395584064303 -9999.6397515652316 0.38132899695938249 -0.00057872506989503809 -0.00027158614921063418 -0.00057872506989503809 -2499.747473339462 -0.001595771029315074 -0.00027158614921063418 -0.001595771029315074 -9999.630436057465 0.37927611527402405 -0.00057252057271602388 4.7005939450173173e-05 -0.00057252057271602388 -2499.7402242105222 -0.0043041893432018696 4.7005939450173173e-05 -0.0043041893432018696 -9999.6275439645979 0.37823946255275587 -0.0017727537939128367 -0.0004460665713850176 -0.0017727537939128367 -2499.7471273610604 -0.00083030432324449066 -0.0004460665713850176 -0.00083030432324449066 -9999.6246861719865 0.38227261802967405 -0.0018240673257083815 0.00083778255066135898 -0.0018240673257083815 -2499.7422168930534 0.0018249180393468123 0.00083778255066135898 0.0018249180393468123 -9999.6206839099686 0.38047199336051563 -0.00053245286038838 -6.7821365519193932e-06 -0.00053245286038838 -2499.7481172637281 0.0043715557294490281 -6.7821365519193932e-06 0.0043715557294490281 -9999.6249050875958 0.38823247031598385 0.0001184826557444757 -0.0028158550709918018 0.0001184826557444757 -2499.7484475286169 0.0017290153664362151 -0.0028158550709918018 0.0017290153664362151 -9999.6253759616357 0.37688454538965743 -0.002451373544299508 -0.00046909131197025999 -0.002451373544299508 -2499.75509758914 -0.0034804830756911542 -0.00046909131197025999 -0.0034804830756911542 -9999.6281546666796 0.38100729618599871 -0.00052055075839953918 0.0024115115684253396 -0.00052055075839953918 -2499.7476545452428 0.0016653246857458726 0.0024115115684253396 0.0016653246857458726 -9999.6233281069872 0.38735014513156329 -0.0060902546824452303 -0.0029002222361214081 -0.0060902546824452303 -2499.7516518969214 -0.00045518000843003392 -0.0029002222361214081 -0.00045518000843003392 -9999.6264950377827 0.39061867932468886 -0.0020461276397729274 -0.0010389460003352724 -0.0020461276397729274 -2499.742321187925 -0.00033243109373870539 -0.0010389460003352724 -0.00033243109373870539 -9999.6222306314521 0.38882949911840115 -0.0010199446604860418 0.0012716228011413477 -0.0010199446604860418 -2499.745173744258 0.0019759245678869775 0.0012716228011413477 0.0019759245678869775 -9999.6209018795671 0.39429704992107872 -0.0016647780977696661 0.00073368464290979318 -0.0016647780977696661 -2499.7270502727297 0.0032031996634032112 0.00073368464290979318 0.0032031996634032112 -9999.6164253619718 0.39021856309591385 -0.00093845534035354172 0.0013685502563021146 -0.00093845534035354172 -2499.7398124613555 0.0016640215262668789 0.0013685502563021146 0.0016640215262668789 -9999.6206703899661 0.39161922073071764 -0.00063522012537474762 -0.00045251005030877423 -0.00063522012537474762 -2499.739901189585 0.0024678253939782735 -0.00045251005030877423 0.0024678253939782735 -9999.61969401854 0.37946481962671896 0.0025771296592587145 0.0036427274262678111 0.0025771296592587145 -2499.7502471223111 -0.00039083935917005874 0.0036427274262678111 -0.00039083935917005874 -9999.622294581688 0.38746883754902228 -0.001358473771750919 0.0021309017683961429 -0.001358473771750919 -2499.7418945266854 0.00029262928097750773 0.0021309017683961429 0.00029262928097750773 -9999.6224476996285 0.37995705792855006 -0.0034958411060267182 0.0035918220910389209 -0.0034958411060267182 -2499.7462196132165 0.0025036948354681954 0.0035918220910389209 0.0025036948354681954 -9999.6212223794573 0.38168980459067825 -0.0012494864409449064 0.003117756879873923 -0.0012494864409449064 -2499.7425451604176 0.0004737474324087998 0.003117756879873923 0.0004737474324087998 -9999.6193108544212 0.37715404095797567 -0.0020671694004120375 0.0043460519591462798 -0.0020671694004120375 -2499.7485469566545 0.0016831703978823498 0.0043460519591462798 0.0016831703978823498 -9999.6229946853382 0.3808117055477851 -0.00056816382125020174 0.0028794980225939071 -0.00056816382125020174 -2499.7444254577722 0.00078025450420682319 0.0028794980225939071 0.00078025450420682319 -9999.6200798466052 0.38740831138420617 -0.0015333779642770634 0.0030848785136186052 -0.0015333779642770634 -2499.7410690845973 0.0022214367490960285 0.0030848785136186052 0.0022214367490960285 -9999.6218801851937 0.38669893645055708 -0.00029660913917541228 0.0022179754923854489 -0.00029660913917541228 -2499.7399353747887 0.0012380947991914582 0.0022179754923854489 0.0012380947991914582 -9999.617277827525 0.38407491337375177 0.0010206663784417612 0.0029016206335654715 0.0010206663784417612 -2499.7425297803261 0.00045201493594504427 0.0029016206335654715 0.00045201493594504427 -9999.619042536533 0.38448639280932184 0.0062509269198898765 0.0045558812525996473 0.0062509269198898765 -2499.739576639447 0.0012348314239716274 0.0045558812525996473 0.0012348314239716274 -9999.6178749263581 0.37881263025610679 -0.0018325381268582026 0.0045752319438179256 -0.0018325381268582026 -2499.7448341916497 -0.001872589342383435 0.0045752319438179256 -0.001872589342383435 -9999.6169298075511 0.37736956574588021 -0.0012780850840362033 0.0027101144787593512 -0.0012780850840362033 -2499.7474021213616 -0.0008273989205918042 0.0027101144787593512 -0.0008273989205918042 -9999.6249141594599 0.37581485818145666 -0.0011682743928341857 0.0023825508606023504 -0.0011682743928341857 -2499.7449270712323 2.1268624550430104e-07 0.0023825508606023504 2.1268624550430104e-07 -9999.6204339576125 0.37884203988778609 -0.0012909006548991857 0.0041643208674031484 -0.0012909006548991857 -2499.7455651956961 -0.0014804513739363756 0.0041643208674031484 -0.0014804513739363756 -9999.6175080192515 0.37897953978904297 -0.00075182882228843814 0.0025308694657724118 -0.00075182882228843814 -2499.7472670105026 -0.00092562934696616139 0.0025308694657724118 -0.00092562934696616139 -9999.624444167066 0.37840134840553219 -0.00097970671712981072 0.0035358928253117483 -0.00097970671712981072 -2499.7476014542899 -0.00050806471517717 0.0035358928253117483 -0.00050806471517717 -9999.6229671000947 0.37516619921552774 -0.016918947712731176 0.0022500648155983072 -0.016918947712731176 -2499.7446399854243 -0.022562433362054435 0.0022500648155983072 -0.022562433362054435 -9999.6255634265472 0.38189325176062994 -0.024122060575235457 4.4770848035113886e-05 -0.024122060575235457 -2499.7323330690251 -0.01129829723322473 4.4770848035113886e-05 -0.01129829723322473 -9999.6145947181867 0.37145247311673302 0.0020460046144271243 0.0051400686370470794 0.0020460046144271243 -2499.7703025946794 -0.0032817424744280288 0.0051400686370470794 -0.0032817424744280288 -9999.6293270484275 0.38127396832237537 -0.0015880127783758843 0.0020749253162648529 -0.0015880127783758843 -2499.733893786336 -0.0099152307413987728 0.0020749253162648529 -0.0099152307413987728 -9999.6148164967581 0.37986502459625626 -0.0015201481682779738 0.0022223186051633093 -0.0015201481682779738 -2499.7294749290568 -0.0017264803789203143 0.0022223186051633093 -0.0017264803789203143 -9999.619675617585 0.378508280553433 -0.0061033371877601307 0.0030191176501830341 -0.0061033371877601307 -2499.7566039361354 0.010055392090180248 0.0030191176501830341 0.010055392090180248 -9999.6174699711846 0.38520077574776224 -0.00098667180461209369 -0.0010432129211039864 -0.00098667180461209369 -2499.7268837498259 -0.0016713403038011165 -0.0010432129211039864 -0.0016713403038011165 -9999.6055883711742 0.38185237941343075 0.012346348083939428 -0.0011868779147334863 0.012346348083939428 -2499.7344596890953 -0.008193521329530995 -0.0011868779147334863 -0.008193521329530995 -9999.6168106175828 0.37688932591663615 -0.0089967906801210612 -0.0012559310389406164 -0.0089967906801210612 -2499.7431191386895 -0.0019717454842975712 -0.0012559310389406164 -0.0019717454842975712 -9999.6117360574281 0.37655802900007984 -0.018799857950491855 -0.0001894315082608955 -0.018799857950491855 -2499.7487327892522 -0.021565643316534988 -0.0001894315082608955 -0.021565643316534988 -9999.6186707523593 0.37952044258599926 -0.0055745477106891733 0.0017038522510119947 -0.0055745477106891733 -2499.7603066197607 0.006875916444187169 0.0017038522510119947 0.006875916444187169 -9999.6285658503584 0.38418918199749896 0.00037427580196387408 0.0044954196400794899 0.00037427580196387408 -2499.736843970979 0.001910414949634287 0.0044954196400794899 0.001910414949634287 -9999.6146650477313 0.38423982406311552 -0.00071619795058974582 0.0037541693727689562 -0.00071619795058974582 -2499.7354663844199 -0.0076290916986181401 0.0037541693727689562 -0.0076290916986181401 -9999.6149998306719 0.38228546483696846 -0.0047529002387091211 0.00035230487560511392 -0.0047529002387091211 -2499.7553256991869 0.0016439081500720931 0.00035230487560511392 0.0016439081500720931 -9999.6237667442547 0.36886264440909144 -0.00032408005258136724 0.0047247246657207143 -0.00032408005258136724 -2499.7832603050047 0.0043780341438832693 0.0047247246657207143 0.0043780341438832693 -9999.629889599506 0.39021275779214193 -0.0070030946060022775 0.00011973449363722466 -0.0070030946060022775 -2499.7204446933201 0.0091747541937365895 0.00011973449363722466 0.0091747541937365895 -9999.6278164469295 0.39053234031234751 0.0001592250469047915 0.0023387194014503621 0.0001592250469047915 -2499.7065616806904 0.006284324041189393 0.0023387194014503621 0.006284324041189393 -9999.6261063850106 0.38482791452042875 0.0019812997229841133 0.0021991453982082021 0.0019812997229841133 -2499.7356774101154 0.00076849138167744968 0.0021991453982082021 0.00076849138167744968 -9999.6192195052754 0.38571883939039253 0.0015616317249236983 0.0020010842636111192 0.0015616317249236983 -2499.7319855358382 0.0028413904801709577 0.0020010842636111192 0.0028413904801709577 -9999.6196352330808 0.39514128515656921 0.012297163230524807 -0.0014869867191009689 0.012297163230524807 -2499.7220452150104 0.00071178183497977443 -0.0014869867191009689 0.00071178183497977443 -9999.626191284231 0.37377792203551508 0.016316606293684643 -0.0010117712427017977 0.016316606293684643 -2499.7645612483393 -0.013962295526653179 -0.0010117712427017977 -0.013962295526653179 -9999.6249492836287 0.37637500497294241 0.017687439680077133 0.0022054185574233998 0.017687439680077133 -2499.7651857695491 -0.0068163790110702394 0.0022054185574233998 -0.0068163790110702394 -9999.6207060997913 0.38615972443767532 0.018272752734899284 -0.0041809781396295875 0.018272752734899284 -2499.7108890591171 0.006099978450947674 -0.0041809781396295875 0.006099978450947674 -9999.6253928836159 0.38907970050786389 0.0040219377785207511 -0.0065397203325119335 0.0040219377785207511 -2499.7364390284965 0.011750074693736678 -0.0065397203325119335 0.011750074693736678 -9999.6303034191005 0.39177281861702795 0.0043781756460299359 -3.2393396395491436e-05 0.0043781756460299359 -2499.7457653345627 0.0046511434666172136 -3.2393396395491436e-05 0.0046511434666172136 -9999.6141752992044 0.38402933908400883 0.0033603965321043093 -0.0014589309957955265 0.0033603965321043093 -2499.7744733737709 0.0045306277206691448 -0.0014589309957955265 0.0045306277206691448 -9999.6197008046875 0.3805777234629204 0.00017635802104842835 0.00025512673164485022 0.00017635802104842835 -2499.7549460039481 -0.0029231158017637426 0.00025512673164485022 -0.0029231158017637426 -9999.6186522329299 0.38050783827702617 -0.00047171696210069128 0.00036657009150076192 -0.00047171696210069128 -2499.7528179479564 -0.0036309324841568014 0.00036657009150076192 -0.0036309324841568014 -9999.6177780694798 0.38495487929139927 -0.00091111396291357338 0.0021523443974729162 -0.00091111396291357338 -2499.7488130720649 0.0039646138320676982 0.0021523443974729162 0.0039646138320676982 -9999.6155158850815 0.37308624751312891 -0.002165232431549681 0.00039432794983440544 -0.002165232431549681 -2499.7798434291071 0.0041442452511546435 0.00039432794983440544 0.0041442452511546435 -9999.6229140853029 0.38003718025538546 0.0012554270046139862 0.00016237040472333319 0.0012554270046139862 -2499.7556185638605 0.0025340517604490742 0.00016237040472333319 0.0025340517604490742 -9999.6201446054984 0.38124073653762025 0.0015536161489770658 0.0013569280399678973 0.0015536161489770658 -2499.7549773613982 0.0046620603279734496 0.0013569280399678973 0.0046620603279734496 -9999.6176998628143 0.38815460369733046 -0.0021258706507031253 0.0037951901140331756 -0.0021258706507031253 -2499.7301283455381 0.00097967560577671975 0.0037951901140331756 0.00097967560577671975 -9999.6161752596381 0.37846648699087382 -0.011189184937009829 0.004038465491248644 -0.011189184937009829 -2499.7564169826564 0.0095232111943914788 0.004038465491248644 0.0095232111943914788 -9999.6248238189437 0.3793560152516875 -0.0020723975103440206 -0.0030730830694665201 -0.0020723975103440206 -2499.7328310371486 0.013759871253569145 -0.0030730830694665201 0.013759871253569145 -9999.6336945454241 0.3792460754430067 -0.016591174422709042 -0.00020128295727772638 -0.016591174422709042 -2499.7433028049327 0.0075956650107400492 -0.00020128295727772638 0.0075956650107400492 -9999.6309931171054 0.37393127119321434 -0.005105833128619907 0.00071766127257433254 -0.005105833128619907 -2499.773489575844 -0.015413657307362882 0.00071766127257433254 -0.015413657307362882 -9999.6268187733949 0.37749488455301616 -0.00054847924196492481 -0.0016678865395078901 -0.00054847924196492481 -2499.7519324771347 -0.0024469497911923099 -0.0016678865395078901 -0.0024469497911923099 -9999.6193969596352 0.37470317496263306 -0.0076748031091061764 -0.0010938046889350517 -0.0076748031091061764 -2499.7642618886421 -0.013936736580944853 -0.0010938046889350517 -0.013936736580944853 -9999.6246642368133 0.38085387894898304 -0.0067556569794560567 -0.0025058996106963605 -0.0067556569794560567 -2499.7393311481828 -0.011175122785061831 -0.0025058996106963605 -0.011175122785061831 -9999.6185653294015 0.38001958344284503 0.0022774314750604041 0.002965595977002522 0.0022774314750604041 -2499.748145141687 -0.0020369964040583 0.002965595977002522 -0.0020369964040583 -9999.6216942520041 0.38490859135890787 -0.01187939149694299 -0.002092457327307784 -0.01187939149694299 -2499.7257728032637 -0.0029318357501324499 -0.002092457327307784 -0.0029318357501324499 -9999.6158937570781 0.38549203299044166 0.023625570968516744 -0.0018045702599920332 0.023625570968516744 -2499.7227148441598 0.010216185961326119 -0.0018045702599920332 0.010216185961326119 -9999.6213022841839 0.3717061188608568 -0.001939986859068113 0.001416119728673948 -0.001939986859068113 -2499.7564549163972 -0.0039231911159731681 0.001416119728673948 -0.0039231911159731681 -9999.6261823262703 0.37699865730792226 -0.00036483432181119366 0.0026947009537252598 -0.00036483432181119366 -2499.7539945951639 -0.0035778357250819681 0.0026947009537252598 -0.0035778357250819681 -9999.6239234053064 0.37546328449752764 0.011518880860137373 -0.00052978113126300741 0.011518880860137373 -2499.7562455508687 -0.0075638130874722265 -0.00052978113126300741 -0.0075638130874722265 -9999.6222775380156 0.38130212561554799 0.013133827184640477 -0.00090963961429224582 0.013133827184640477 -2499.7370671025856 -0.0072247581383635406 -0.00090963961429224582 -0.0072247581383635406 -9999.616313763152 0.37561077820220135 -0.0030709347499258445 0.0013086632661725162 -0.0030709347499258445 -2499.7485166539723 -0.0077970802349227597 0.0013086632661725162 -0.0077970802349227597 -9999.6202155145147 0.38427874182616506 -0.010212829213538263 -0.0016580345745751401 -0.010212829213538263 -2499.7234575795201 -0.005001360526875942 -0.0016580345745751401 -0.005001360526875942 -9999.6072540773785 0.38500397991629143 -0.011616492142604511 -0.001709817877781461 -0.011616492142604511 -2499.7226208407192 -0.0051628495248223771 -0.001709817877781461 -0.0051628495248223771 -9999.6119073781738 0.37444906499126773 -0.0020624966332463066 0.00059296395465935348 -0.0020624966332463066 -2499.7498117281066 -0.0061687057186645688 0.00059296395465935348 -0.0061687057186645688 -9999.6252781936855 0.37654581213246274 -0.0019964190040307334 0.0010250991481370875 -0.0019964190040307334 -2499.7422623385028 -0.0040926409765233984 0.0010250991481370875 -0.0040926409765233984 -9999.6222618918619 0.37742584781790356 -0.00019139091608518996 0.0024297034381106641 -0.00019139091608518996 -2499.7472347688417 -0.0016105959311971674 0.0024297034381106641 -0.0016105959311971674 -9999.6219537862271 0.37625279974963632 -0.0015559801911716169 0.0044764337535525556 -0.0015559801911716169 -2499.7468272716833 -0.0019401029239816125 0.0044764337535525556 -0.0019401029239816125 -9999.6226452373521 0.38337730870625819 -0.00047657261261173367 0.00023001926456345245 -0.00047657261261173367 -2499.746169684091 -0.0017653904724284075 0.00023001926456345245 -0.0017653904724284075 -9999.6162278385746 0.37738089139566 5.5658366390624181e-05 0.0031016708019251382 5.5658366390624181e-05 -2499.7476132075044 -0.00091973336566297803 0.0031016708019251382 -0.00091973336566297803 -9999.6185362389933 0.376709379966087 0.0020596563414053545 0.0020260406645320472 0.0020596563414053545 -2499.7508605123103 -0.0031035988831717987 0.0020260406645320472 -0.0031035988831717987 -9999.6201271479476 0.38212939014920266 0.00013520885146744191 0.00071052253952075262 0.00013520885146744191 -2499.7451259422687 -0.0015858031165407738 0.00071052253952075262 -0.0015858031165407738 -9999.61739033302 0.37958174642699305 -0.0013365296214574915 0.00037253868049447192 -0.0013365296214574915 -2499.7483916025703 -0.0017270682801608928 0.00037253868049447192 -0.0017270682801608928 -9999.6175151895113 0.37806458196519088 0.0007704012200646336 0.002936771743634381 0.0007704012200646336 -2499.7437150697633 -0.00056208634305221494 0.002936771743634381 -0.00056208634305221494 -9999.6203422925755 0.37600641627977893 -0.00051977065618624772 0.0023484347352678014 -0.00051977065618624772 -2499.7468292577032 -0.0018423132305542822 0.0023484347352678014 -0.0018423132305542822 -9999.6189970070955 0.38371605033898959 -0.00013303544647525617 0.0019784723581324215 -0.00013303544647525617 -2499.7277905172723 0.0046514165369444527 0.0019784723581324215 0.0046514165369444527 -9999.6080488833031 0.37465074695683143 0.00069904320936218936 0.00083372443259577267 0.00069904320936218936 -2499.74806211742 -0.0012150050270065549 0.00083372443259577267 -0.0012150050270065549 -9999.6173959325533 0.38185044717829442 0.00062700238431103892 0.00067035751271760091 0.00062700238431103892 -2499.7461160474195 -0.0024944673423306085 0.00067035751271760091 -0.0024944673423306085 -9999.6175199873542 0.38135754729592009 0.00022824397526274975 0.0022276607360254275 0.00022824397526274975 -2499.7502175345289 0.00024791238843135943 0.0022276607360254275 0.00024791238843135943 -9999.6208442151437 0.37834030275553232 0.00022555099338162363 0.0036313674996222289 0.00022555099338162363 -2499.7501434109527 -0.0027240644994890317 0.0036313674996222289 -0.0027240644994890317 -9999.6212010449744 0.38173693089811422 0.00043151705638328278 0.0021103231138113188 0.00043151705638328278 -2499.7504147695545 0.00042401777318445966 0.0021103231138113188 0.00042401777318445966 -9999.6209794437418 0.38137080089200026 5.5567547403067379e-05 0.00064972986001521349 5.5567547403067379e-05 -2499.7476531730617 -0.0011464959643490147 0.00064972986001521349 -0.0011464959643490147 -9999.617902801323 0.38098425694079197 -0.00014438997680187244 0.00074500551090750378 -0.00014438997680187244 -2499.7493359546443 -0.0013887984187022084 0.00074500551090750378 -0.0013887984187022084 -9999.6177668934251 0.38581388533748395 0.0012566456633080515 0.0019865927806677064 0.0012566456633080515 -2499.748922424691 0.00051462576630001422 0.0019865927806677064 0.00051462576630001422 -9999.6197561266781 0.38176310591734364 0.00025658438661185778 0.00047120430463110097 0.00025658438661185778 -2499.7490805129564 -0.0013656845385412453 0.00047120430463110097 -0.0013656845385412453 -9999.6175544572216 0.38296852332132403 -0.00064385868516098066 0.00048578652422293089 -0.00064385868516098066 -2499.7465154277288 -0.0015255497819453012 0.00048578652422293089 -0.0015255497819453012 -9999.6175169226553 0.38610707381667453 0.0014398393314441614 0.0020683227921836078 0.0014398393314441614 -2499.7476211886224 0.00022942651048651896 0.0020683227921836078 0.00022942651048651896 -9999.6194374971165 0.38144498638575897 0.00036865420823941377 0.0019932195482397219 0.00036865420823941377 -2499.7493159662299 4.6084412247182627e-05 0.0019932195482397219 4.6084412247182627e-05 -9999.6208996549831 0.39011504615336889 0.003450605104037073 0.0025911053162417375 0.003450605104037073 -2499.7378607318424 0.0032260286970995367 0.0025911053162417375 0.0032260286970995367 -9999.6147666957258 0.38367463583563222 -0.0010717902713953086 0.00087529996380908415 -0.0010717902713953086 -2499.7504144599134 0.0019710248197952751 0.00087529996380908415 0.0019710248197952751 -9999.6187861818762 0.3859600793075515 0.0004503621302286414 0.00090268856001785025 0.0004503621302286414 -2499.7490272365685 0.00014104089996180846 0.00090268856001785025 0.00014104089996180846 -9999.6207561759511 0.38690957611652266 0.00058755893988556539 -0.0001384192073601298 0.00058755893988556539 -2499.7485399640482 0.001736639067530632 -0.0001384192073601298 0.001736639067530632 -9999.6174462603667 0.38581700736358471 0.00047722470742073695 0.0006925762390892487 0.00047722470742073695 -2499.7481903097523 7.8730947279836982e-05 0.0006925762390892487 7.8730947279836982e-05 -9999.6207680744337 0.38535070070975053 0.00022647729013576404 0.00084878506459062919 0.00022647729013576404 -2499.7484313375007 0.00013573486648965627 0.00084878506459062919 0.00013573486648965627 -9999.6210040135811 0.38560813138246886 0.00015279036880309384 0.00074494275486358674 0.00015279036880309384 -2499.7479173220709 0.00040810014615999535 0.00074494275486358674 0.00040810014615999535 -9999.6204901530691 0.38672008726462082 -0.00023516383004454355 0.0016229189077421324 -0.00023516383004454355 -2499.7483609840583 -0.00048025017167674378 0.0016229189077421324 -0.00048025017167674378 -9999.6191818180014 0.38026975975753885 0.00040082663639481007 0.0030220967619243311 0.00040082663639481007 -2499.753270895897 0.0001876049434486049 0.0030220967619243311 0.0001876049434486049 -9999.6211102311499 0.38226535316414356 -0.0002048731644521956 0.0029857308986720454 -0.0002048731644521956 -2499.7470780468648 0.0003612559121393133 0.0029857308986720454 0.0003612559121393133 -9999.6190550898609 0.38109963661190704 5.819859379272567e-05 0.00063857495479169302 5.819859379272567e-05 -2499.7482009172563 -0.00058191635071125347 0.00063857495479169302 -0.00058191635071125347 -9999.6184397777251 0.38149585588325863 -3.000108155020909e-05 0.0019963341110269539 -3.000108155020909e-05 -2499.748975733768 0.00023490615421906114 0.0019963341110269539 0.00023490615421906114 -9999.6207925968192 0.38786206902841514 0.00043279660964319969 0.0013966556107334327 0.00043279660964319969 -2499.7478169597034 -0.00043799511695397086 0.0013966556107334327 -0.00043799511695397086 -9999.618836983318 0.38675925716052006 -0.0028977128393163423 0.001054318146998412 -0.0028977128393163423 -2499.7484722459176 -0.0012524238554760814 0.001054318146998412 -0.0012524238554760814 -9999.6200651581457 0.38205617709172657 2.5087119822289215e-05 0.002906826821345021 2.5087119822289215e-05 -2499.749852570505 -0.00068761293769625809 0.002906826821345021 -0.00068761293769625809 -9999.6204487928626 0.3896364990650909 -0.0047657700387107507 0.0018303982196812285 -0.0047657700387107507 -2499.7396635283076 -0.0014810486136411782 0.0018303982196812285 -0.0014810486136411782 -9999.6178012808487 0.3899858952681825 -0.00094328367561833618 0.0018619321017467882 -0.00094328367561833618 -2499.7397939133771 0.00035906610344227374 0.0018619321017467882 0.00035906610344227374 -9999.6166584974417 0.37736485595087288 -0.0027147449431730308 0.0027180391862202669 -0.0027147449431730308 -2499.7444753540594 0.0002064277450699592 0.0027180391862202669 0.0002064277450699592 -9999.622751353425 0.37981337091923706 -0.0016036725268752713 0.0029609639877890004 -0.0016036725268752713 -2499.7473908277984 -0.0012680541622103192 0.0029609639877890004 -0.0012680541622103192 -9999.6222557138844 0.38871713761363935 -0.0023335309055784667 0.00031372862213174812 -0.0023335309055784667 -2499.7403451696973 -0.0014598127338558697 0.00031372862213174812 -0.0014598127338558697 -9999.6180829710684 0.38250971138404566 -0.00011324669149511898 0.0012784761802322464 -0.00011324669149511898 -2499.7412705855713 -0.0011990408129349817 0.0012784761802322464 -0.0011990408129349817 -9999.6197740738753 0.384832914810886 -0.0041437540371758314 0.0016335215877916198 -0.0041437540371758314 -2499.7428239883234 -8.3394343164400198e-05 0.0016335215877916198 -8.3394343164400198e-05 -9999.6206249199131 0.38520609550505469 -0.0021243788055935794 0.0018685980212467257 -0.0021243788055935794 -2499.7484697701384 -0.0012772187328664586 0.0018685980212467257 -0.0012772187328664586 -9999.6208371837529 0.38806753994140308 -0.0017565610641703325 0.002534246817958774 -0.0017565610641703325 -2499.7399382499207 -0.00033603580959606916 0.002534246817958774 -0.00033603580959606916 -9999.6221259880404 0.37900366132157615 -0.0015414235651492517 0.0026562832499621436 -0.0015414235651492517 -2499.7480423315365 -0.0010818601131177275 0.0026562832499621436 -0.0010818601131177275 -9999.6245722885433 0.37784737910078547 -0.0027064322915117539 0.002687722529117309 -0.0027064322915117539 -2499.7505877348658 -0.0033375114189766464 0.002687722529117309 -0.0033375114189766464 -9999.6195293311848 0.37859605885205383 -0.0021594106447264637 0.0014299990170911769 -0.0021594106447264637 -2499.7451156626576 -0.0014702611715620151 0.0014299990170911769 -0.0014702611715620151 -9999.6250447824532 0.37941962871809665 -0.0018820923179497769 0.0042504858544134549 -0.0018820923179497769 -2499.7453551593471 -0.00034056671756843571 0.0042504858544134549 -0.00034056671756843571 -9999.614510557738 0.37776460273835255 -0.0012910913025036864 0.0016248562951659551 -0.0012910913025036864 -2499.7482834862612 -0.00023074046021065442 0.0016248562951659551 -0.00023074046021065442 -9999.6252250765283 0.3783241978744627 -0.0021731444033572986 0.0040909513703581979 -0.0021731444033572986 -2499.7465915026005 -0.0016202224232984008 0.0040909513703581979 -0.0016202224232984008 -9999.6179158937302 0.37652947487458732 -0.00098996867642364749 0.0023483627937821439 -0.00098996867642364749 -2499.7454704298989 -0.0021842923679287196 0.0023483627937821439 -0.0021842923679287196 -9999.6185840447506 0.3742876918927891 0.00030829692909912013 0.0011937036379094934 0.00030829692909912013 -2499.7525281248313 -0.0045976579840498744 0.0011937036379094934 -0.0045976579840498744 -9999.6186456669711 0.37792625010297343 0.0028415624029063018 0.0056111596886694315 0.0028415624029063018 -2499.7456527788763 -0.0024261870375994476 0.0056111596886694315 -0.0024261870375994476 -9999.6183741234054 0.38138565855479101 0.00041399693471490251 0.00093075572658563033 0.00041399693471490251 -2499.7440833067594 -0.0021169829842619947 0.00093075572658563033 -0.0021169829842619947 -9999.6169831333464 0.37719243527863 0.00055527009652964979 0.0030096974844582292 0.00055527009652964979 -2499.7522659914757 -0.0047609501734768855 0.0030096974844582292 -0.0047609501734768855 -9999.6204505665628 0.38255854817180079 7.4809197997795576e-06 0.00084580501788877882 7.4809197997795576e-06 -2499.74360988013 -0.0020588090010278393 0.00084580501788877882 -0.0020588090010278393 -9999.6171919159169 0.38039860166645667 0.0023058994431698898 0.0026361405277839367 0.0023058994431698898 -2499.742194047938 -0.0050967639890586725 0.0026361405277839367 -0.0050967639890586725 -9999.6195977031639 0.37967368696229187 0.0002201677819169928 0.00082489795687479273 0.0002201677819169928 -2499.7479467016824 0.00011735787848010659 0.00082489795687479273 0.00011735787848010659 -9999.620937806556 0.38504503982039751 -7.7362867950309805e-05 0.00084263076860224828 -7.7362867950309805e-05 -2499.7317856574082 0.0012266888998055947 0.00084263076860224828 0.0012266888998055947 -9999.6155236292179 0.37419139723715489 -0.0002353569100266256 0.00077829565179854399 -0.0002353569100266256 -2499.7493506765768 -0.0042333666515332879 0.00077829565179854399 -0.0042333666515332879 -9999.6179497861158 0.38117497030725644 -0.00058524869583761541 0.0011678647260850994 -0.00058524869583761541 -2499.7462012984543 -0.00029560534949268913 0.0011678647260850994 -0.00029560534949268913 -9999.6201385785971 0.38519604917382821 0.0049892235285339467 -0.00031280010261980351 0.0049892235285339467 -2499.7219330271364 -0.0088089296932594152 -0.00031280010261980351 -0.0088089296932594152 -9999.6076783061289 0.3754689332020007 0.0043455957903450696 0.0021080420001453604 0.0043455957903450696 -2499.7545880187845 0.017926296120094776 0.0021080420001453604 0.017926296120094776 -9999.6276396895882 0.37770350369100925 0.0036028440805985083 0.002883147221893978 0.0036028440805985083 -2499.7512411923235 -0.0047452851697755705 0.002883147221893978 -0.0047452851697755705 -9999.6222800352698 0.37474428584210528 0.0060553945030776511 -0.0011729811767509091 0.0060553945030776511 -2499.7436436523658 -0.00160365320789424 -0.0011729811767509091 -0.00160365320789424 -9999.629335843023 0.37663940587440692 0.0060247500966204848 -0.0014700076208100654 0.0060247500966204848 -2499.7367172074087 -0.00045891843728895765 -0.0014700076208100654 -0.00045891843728895765 -9999.6271183479021 0.38895767352187249 0.013815566304559282 -0.0015492270558752352 0.013815566304559282 -2499.7152119987459 0.0091027836551802466 -0.0015492270558752352 0.0091027836551802466 -9999.6059679105892 0.39048974595243635 0.01888447137227563 0.00070568684441241203 0.01888447137227563 -2499.7004689027654 0.00063632289948145626 0.00070568684441241203 0.00063632289948145626 -9999.614582543265 0.39107202146169584 0.021531728791919905 -0.0016321422790497309 0.021531728791919905 -2499.7084372892068 -0.0045291274545888882 -0.0016321422790497309 -0.0045291274545888882 -9999.6080731148213 0.37172158550856693 0.012212544560949487 -0.0042969343776348978 0.012212544560949487 -2499.7578243140288 -0.0040413475762761664 -0.0042969343776348978 -0.0040413475762761664 -9999.6243747666813 0.37422526183559057 0.0063491646288991697 -0.0025659362290753052 0.0063491646288991697 -2499.7532688442971 -0.0037684859535147552 -0.0025659362290753052 -0.0037684859535147552 -9999.6231701528668 0.37858428463641758 -0.0052112128649624001 -0.00089409670545137487 -0.0052112128649624001 -2499.7423391590792 0.009350724920295761 -0.00089409670545137487 0.009350724920295761 -9999.6223570332331 0.36927038163594261 -0.0021933053597902007 0.0024298116959471372 -0.0021933053597902007 -2499.772921275211 0.0034468680078134639 0.0024298116959471372 0.0034468680078134639 -9999.6314195453597 0.37516147477617778 -0.014883193194610496 0.00078719157227169489 -0.014883193194610496 -2499.7459906801869 -0.016256762728971808 0.00078719157227169489 -0.016256762728971808 -9999.622905891747 0.3838797802454792 -0.0048258486228950175 0.0010955852922052145 -0.0048258486228950175 -2499.7401329718123 0.0096125309732997266 0.0010955852922052145 0.0096125309732997266 -9999.6188944693167 0.37875497445656947 0.011224514307835359 -0.0012389920157147571 0.011224514307835359 -2499.7586785840713 -0.0056578517210255086 -0.0012389920157147571 -0.0056578517210255086 -9999.6209930182558 0.38626170231145807 -0.0027090007787856341 0.0012538882882040525 -0.0027090007787856341 -2499.7305572631667 0.00085966868937248364 0.0012538882882040525 0.00085966868937248364 -9999.6190048219432 0.38175006471283268 -0.0070910043921781352 -0.0025091193565458525 -0.0070910043921781352 -2499.7365896079991 -0.022094035735790385 -0.0025091193565458525 -0.022094035735790385 -9999.6143521588674 0.38396954924792226 0.00089164797393604528 0.0022359941413014894 0.00089164797393604528 -2499.7355278756131 0.00026114333286386682 0.0022359941413014894 0.00026114333286386682 -9999.6209341476169 0.38272783458342019 -0.002562407880088706 0.0012083800731090832 -0.002562407880088706 -2499.7422859625967 -0.0058681840273493435 0.0012083800731090832 -0.0058681840273493435 -9999.6214191825165 0.37498757035882591 -0.016897401493395303 0.00090770048700505868 -0.016897401493395303 -2499.7400106873047 -0.014061041528293572 0.00090770048700505868 -0.014061041528293572 -9999.6206667767656 0.38280683196535392 -0.0035436480670072157 0.0025087794710998423 -0.0035436480670072157 -2499.7428283140234 0.0095077759942796547 0.0025087794710998423 0.0095077759942796547 -9999.6202530998162 0.38662340312748711 -0.0048880981727053982 0.0012512762882579409 -0.0048880981727053982 -2499.7509154483987 -6.9622309638361912e-05 0.0012512762882579409 -6.9622309638361912e-05 -9999.6182996816715 0.3790299293497128 -0.0014245009655294225 0.00208521690001362 -0.0014245009655294225 -2499.7539592804869 -0.00020670797061939084 0.00208521690001362 -0.00020670797061939084 -9999.6210131005191 0.38565015516178391 -0.00479472334107182 0.0033465005121229296 -0.00479472334107182 -2499.7475262382541 -0.0017976815852307482 0.0033465005121229296 -0.0017976815852307482 -9999.6176655971358 0.38697516643696872 -0.00496909763234131 0.0016205821157200262 -0.00496909763234131 -2499.7409406466231 0.010311935320714838 0.0016205821157200262 0.010311935320714838 -9999.6186949625262 0.39368233451750712 0.00067254235164712628 0.00055883239110698923 0.00067254235164712628 -2499.715871488148 -0.0068883086660207482 0.00055883239110698923 -0.0068883086660207482 -9999.6253246229571 0.39023255290521774 -0.003004145143164702 0.001057430370565271 -0.003004145143164702 -2499.7205726474385 -0.0083342145844653714 0.001057430370565271 -0.0083342145844653714 -9999.6259607981265 0.38587278814520687 -0.0032077199487312775 0.001971640823967391 -0.0032077199487312775 -2499.7478223680064 -0.00080899381828203332 0.001971640823967391 -0.00080899381828203332 -9999.6216532273174 0.38946161940111779 -0.0038554855887276973 0.0014938978238205891 -0.0038554855887276973 -2499.7351590190392 -0.00080603089281794382 0.0014938978238205891 -0.00080603089281794382 -9999.6183675682041 0.39121127914040699 -0.013537830483153213 -0.0031044256538734771 -0.013537830483153213 -2499.7321529328983 -0.0033261480893997941 -0.0031044256538734771 -0.0033261480893997941 -9999.6236437059633 0.3807708786071089 0.0027575089303725348 0.0013346272298804251 0.0027575089303725348 -2499.7472543411814 0.0078810453887854237 0.0013346272298804251 0.0078810453887854237 -9999.617152287512 0.38706764127528004 -0.0069299076915453825 0.0014375734281202313 -0.0069299076915453825 -2499.7502172596669 -0.0036874987708870322 0.0014375734281202313 -0.0036874987708870322 -9999.6218739213946 0.37359641431521595 -0.014321576429543882 -0.00090565233767847531 -0.014321576429543882 -2499.7623653846649 -0.0039628053955311771 -0.00090565233767847531 -0.0039628053955311771 -9999.6292636122635 0.37715972183923441 -0.016141026563867355 0.001506044879761248 -0.016141026563867355 -2499.7606521196985 -0.0066743944535119226 0.001506044879761248 -0.0066743944535119226 -9999.6195627087036 0.38332429635738663 -0.0031790476092960138 -0.0017776875210984144 -0.0031790476092960138 -2499.7500499568432 0.001279098808481649 -0.0017776875210984144 0.001279098808481649 -9999.6272242853156 0.38296714270200027 -0.013131954531276371 -6.1954218836035579e-05 -0.013131954531276371 -2499.7336687020788 0.014578351980162552 -6.1954218836035579e-05 0.014578351980162552 -9999.6219196368529 0.38092189093640627 0.0003350564120646847 0.0040249205312647973 0.0003350564120646847 -2499.7538989830382 -0.0010481540118689736 0.0040249205312647973 -0.0010481540118689736 -9999.620178685167 0.37227422044452396 0.0042717486072960482 0.0026266361146554118 0.0042717486072960482 -2499.7813865610497 0.00025856065894913627 0.0026266361146554118 0.00025856065894913627 -9999.625195118615 0.37245648980331225 0.006854764879926617 5.5132531997514889e-06 0.006854764879926617 -2499.7727869116757 0.0098229503146285424 5.5132531997514889e-06 0.0098229503146285424 -9999.6249373218798 0.38639718720150995 0.0013582891322490367 0.0013105364541843301 0.0013582891322490367 -2499.7523825922144 -0.0012473261303966865 0.0013105364541843301 -0.0012473261303966865 -9999.6201182707664 0.38681937965156976 0.0013968279874821202 0.0021245621555863181 0.0013968279874821202 -2499.7526095414578 -0.002451055606798036 0.0021245621555863181 -0.002451055606798036 -9999.6188820182288 0.39251784147927538 0.02045783398797818 -0.0033977430330196512 0.02045783398797818 -2499.7003975361877 0.01559925299261522 -0.0033977430330196512 0.01559925299261522 -9999.6132071946122 0.38940637950327073 0.024368132427174279 -0.0059311393069947371 0.024368132427174279 -2499.7208396851056 0.0055903064103404176 -0.0059311393069947371 0.0055903064103404176 -9999.6091584852111 0.39225078342133202 0.0041382401100038824 0.0039586599741596729 0.0041382401100038824 -2499.7328932964156 4.2556312109809369e-05 0.0039586599741596729 4.2556312109809369e-05 -9999.6172829180286 0.3849485408536566 0.026488339247819809 -0.003523867418152804 0.026488339247819809 -2499.7210580298361 0.0022063219003030099 -0.003523867418152804 0.0022063219003030099 -9999.6267737943854 0.38196860125754029 0.0078397889540463422 0.00035296215355629101 0.0078397889540463422 -2499.7383686806679 -0.011543005846760934 0.00035296215355629101 -0.011543005846760934 -9999.6224115234509 0.38116750538029009 0.013684248442585957 0.0039198907725221943 0.013684248442585957 -2499.756764435484 -0.0063126049954007613 0.0039198907725221943 -0.0063126049954007613 -9999.6219845020387 
</DataArray>
</CellData>
</Piece>
</UnstructuredGrid>
</VTKFile>
