<?xml version="1.0"?>
<VTKFile type="UnstructuredGrid" version="0.1" byte_order="LittleEndian">
<UnstructuredGrid>
<Piece NumberOfPoints="2876" NumberOfCells="719">
<Points>
<DataArray type="Float64" NumberOfComponents="3" format="ascii">
0.14641016151452901 0.14641016151487049 0 0.31610726166346748 0.18804489794572149 0 0.312576188949791 0.31458070521983672 0.3125761889497819 0.16929708765618309 0.30074819035915368 0 0 0 0 0 0.14641016151432179 0.14641016151432179 0 0.20000000000083221 0 0.14641016151452901 0.14641016151487049 0 0 0 0 0.14641016151452901 0.14641016151487049 0 0.1464101615145241 0 0.14641016151486561 0.19999999999955789 0 0 0 0 0 0 0 0.20000000000083221 0 0.14641016151432179 0.14641016151432179 0.1464101615145241 0 0.14641016151486561 0 0.14641016151432179 0.14641016151432179 0 0.18804489794560331 0.31610726166461361 0.312576188949791 0.31458070521983672 0.3125761889497819 0 0.30074819035869899 0.1692970876565193 0.1464101615145241 0 0.14641016151486561 0.31578456131778371 0 0.1865278143482666 0.16938214347656569 0 0.30011357660650623 0.312576188949791 0.31458070521983672 0.3125761889497819 0 0 0 0 0.14641016151432179 0.14641016151432179 0.14641016151452901 0.14641016151487049 0 0.1464101615145241 0 0.14641016151486561 0.14641016151452901 0.14641016151487049 0 0.1464101615145241 0 0.14641016151486561 0.31578456131778371 0 0.1865278143482666 0.312576188949791 0.31458070521983672 0.3125761889497819 0 0.14641016151432179 0.14641016151432179 0.14641016151452901 0.14641016151487049 0 0.312576188949791 0.31458070521983672 0.3125761889497819 0 0.30074819035869899 0.1692970876565193 0 0.14641016151432179 0.14641016151432179 0.14641016151452901 0.14641016151487049 0 0.1464101615145241 0 0.14641016151486561 0.312576188949791 0.31458070521983672 0.3125761889497819 0 0.14641016151432179 0.14641016151432179 0.1464101615145241 0 0.14641016151486561 0.16938214347656569 0 0.30011357660650623 0.312576188949791 0.31458070521983672 0.3125761889497819 0 0 0.20000000000083221 0 0.14641016151432179 0.14641016151432179 0.1464101615145241 0 0.14641016151486561 0.16938214347656569 0 0.30011357660650623 0 0 0.20000000000083221 0 0.14641016151432179 0.14641016151432179 0.16938214347656569 0 0.30011357660650623 0 0.18804489794560331 0.31610726166461361 0 0.14641016151432179 0.14641016151432179 0 0.20000000000083221 0 0.14641016151452901 0.14641016151487049 0 0 0.30074819035869899 0.1692970876565193 0 0.20000000000083221 0 0.14641016151452901 0.14641016151487049 0 0.16929708765618309 0.30074819035915368 0 0 0.30074819035869899 0.1692970876565193 0.14641016151452901 0.14641016151487049 0 0.19999999999955789 0 0 0.31610726166346748 0.18804489794572149 0 0.31578456131778371 0 0.1865278143482666 0.14641016151452901 0.14641016151487049 0 0.1464101615145241 0 0.14641016151486561 0.19999999999955789 0 0 0.31578456131778371 0 0.1865278143482666 0.19999999999955789 0 0 0.31610726166346748 0.18804489794572149 0 0.3999999999989749 0 0 0.31578456131778371 0 0.1865278143482666 0.14641016151452901 0.14641016151487049 0 0.31610726166346748 0.18804489794572149 0 0.31578456131778371 0 0.1865278143482666 0.312576188949791 0.31458070521983672 0.3125761889497819 0.31610726166346748 0.18804489794572149 0 0.31578456131778371 0 0.1865278143482666 0.312576188949791 0.31458070521983672 0.3125761889497819 0.5003997205654479 0.21136633249797621 0.2258422409314382 0.31610726166346748 0.18804489794572149 0 0.49391845158624981 0 0.1323760430705655 0.5003997205654479 0.21136633249797621 0.2258422409314382 0.50966790549376417 0.16275515618023731 0 0.31610726166346748 0.18804489794572149 0 0.45812322962036273 0.31024977578535839 0 0.5003997205654479 0.21136633249797621 0.2258422409314382 0.50966790549376417 0.16275515618023731 0 0.31610726166346748 0.18804489794572149 0 0.3999999999989749 0 0 0.49391845158624981 0 0.1323760430705655 0.50966790549376417 0.16275515618023731 0 0.31610726166346748 0.18804489794572149 0 0.3999999999989749 0 0 0.49391845158624981 0 0.1323760430705655 0.31578456131778371 0 0.1865278143482666 0.49391845158624981 0 0.1323760430705655 0.31578456131778371 0 0.1865278143482666 0.47688326899416439 0 0.31741132792405607 0.5003997205654479 0.21136633249797621 0.2258422409314382 0.31610726166346748 0.18804489794572149 0 0.49391845158624981 0 0.1323760430705655 0.31578456131778371 0 0.1865278143482666 0.5003997205654479 0.21136633249797621 0.2258422409314382 0.32146143392436449 0 0.38738071487621961 0.50073570207385831 0.24848280280289631 0.52886631355986169 0.22088738526309029 0.22111069116742441 0.50004796911802929 0.31030302876556398 0 0.54179813558513157 0.32146143392436449 0 0.38738071487621961 0.16938214347656569 0 0.30011357660650623 0.312576188949791 0.31458070521983672 0.3125761889497819 0.22088738526309029 0.22111069116742441 0.50004796911802929 0.32146143392436449 0 0.38738071487621961 0.312576188949791 0.31458070521983672 0.3125761889497819 0.50073570207385831 0.24848280280289631 0.52886631355986169 0.22088738526309029 0.22111069116742441 0.50004796911802929 0.47688326899416439 0 0.31741132792405607 0.32146143392436449 0 0.38738071487621961 0.5003997205654479 0.21136633249797621 0.2258422409314382 0.50073570207385831 0.24848280280289631 0.52886631355986169 0.32146143392436449 0 0.38738071487621961 0.312576188949791 0.31458070521983672 0.3125761889497819 0.5003997205654479 0.21136633249797621 0.2258422409314382 0.50073570207385831 0.24848280280289631 0.52886631355986169 0.31578456131778371 0 0.1865278143482666 0.32146143392436449 0 0.38738071487621961 0.16938214347656569 0 0.30011357660650623 0.312576188949791 0.31458070521983672 0.3125761889497819 0.31578456131778371 0 0.1865278143482666 0.32146143392436449 0 0.38738071487621961 0.312576188949791 0.31458070521983672 0.3125761889497819 0.5003997205654479 0.21136633249797621 0.2258422409314382 0.31578456131778371 0 0.1865278143482666 0.47688326899416439 0 0.31741132792405607 0.32146143392436449 0 0.38738071487621961 0.5003997205654479 0.21136633249797621 0.2258422409314382 0.32146143392436449 0 0.38738071487621961 0.50000000000250922 0 0.48038475773043671 0.50073570207385831 0.24848280280289631 0.52886631355986169 0.31030302876556398 0 0.54179813558513157 0.47688326899416439 0 0.31741132792405607 0.32146143392436449 0 0.38738071487621961 0.50000000000250922 0 0.48038475773043671 0.50073570207385831 0.24848280280289631 0.52886631355986169 0.32146143392436449 0 0.38738071487621961 0.16370661204827031 0 0.4886650857430957 0.22088738526309029 0.22111069116742441 0.50004796911802929 0.31030302876556398 0 0.54179813558513157 0.32146143392436449 0 0.38738071487621961 0.16370661204827031 0 0.4886650857430957 0.16938214347656569 0 0.30011357660650623 0.22088738526309029 0.22111069116742441 0.50004796911802929 0 0.14641016151432179 0.14641016151432179 0.16938214347656569 0 0.30011357660650623 0 0.18804489794560331 0.31610726166461361 0.312576188949791 0.31458070521983672 0.3125761889497819 0.16370661204827031 0 0.4886650857430957 0.16938214347656569 0 0.30011357660650623 0 0.18804489794560331 0.31610726166461361 0.22088738526309029 0.22111069116742441 0.50004796911802929 0.16938214347656569 0 0.30011357660650623 0 0.18804489794560331 0.31610726166461361 0.312576188949791 0.31458070521983672 0.3125761889497819 0.22088738526309029 0.22111069116742441 0.50004796911802929 0.16370661204827031 0 0.4886650857430957 0 0 0.40000000000166441 0 0.16275515618034081 0.50966790549591257 0 0 0.60000000000138687 0.16370661204827031 0 0.4886650857430957 0 0 0.40000000000166441 0.16938214347656569 0 0.30011357660650623 0 0.18804489794560331 0.31610726166461361 0.16370661204827031 0 0.4886650857430957 0 0 0.40000000000166441 0 0.18804489794560331 0.31610726166461361 0 0.16275515618034081 0.50966790549591257 0 0 0.20000000000083221 0 0 0.40000000000166441 0.16938214347656569 0 0.30011357660650623 0 0.18804489794560331 0.31610726166461361 0.16370661204827031 0 0.4886650857430957 0 0.18804489794560331 0.31610726166461361 0.22088738526309029 0.22111069116742441 0.50004796911802929 0 0.16275515618034081 0.50966790549591257 0 0.18804489794560331 0.31610726166461361 0 0.31024977578556651 0.45812322962166352 0.22088738526309029 0.22111069116742441 0.50004796911802929 0 0.16275515618034081 0.50966790549591257 0 0.18804489794560331 0.31610726166461361 0 0.39615100178029522 0.32925244736138171 0.312576188949791 0.31458070521983672 0.3125761889497819 0 0.30074819035869899 0.1692970876565193 0 0.31024977578556651 0.45812322962166352 0.312576188949791 0.31458070521983672 0.3125761889497819 0.24769234054476261 0.52242103280823293 0.45098450226372488 0.22088738526309029 0.22111069116742441 0.50004796911802929 0 0.18804489794560331 0.31610726166461361 0 0.31024977578556651 0.45812322962166352 0 0.39615100178029522 0.32925244736138171 0.312576188949791 0.31458070521983672 0.3125761889497819 0 0.39615100178029522 0.32925244736138171 0.312576188949791 0.31458070521983672 0.3125761889497819 0.22345881830598399 0.5062398304147856 0.22345881830602041 0.24769234054476261 0.52242103280823293 0.45098450226372488 0 0.31024977578556651 0.45812322962166352 0 0.39615100178029522 0.32925244736138171 0.312576188949791 0.31458070521983672 0.3125761889497819 0.24769234054476261 0.52242103280823293 0.45098450226372488 0 0.39615100178029522 0.32925244736138171 0.312576188949791 0.31458070521983672 0.3125761889497819 0 0.30074819035869899 0.1692970876565193 0.22345881830598399 0.5062398304147856 0.22345881830602041 0 0.18804489794560331 0.31610726166461361 0 0.31024977578556651 0.45812322962166352 0.312576188949791 0.31458070521983672 0.3125761889497819 0.22088738526309029 0.22111069116742441 0.50004796911802929 0 0.31024977578556651 0.45812322962166352 0 0.39615100178029522 0.32925244736138171 0.24769234054476261 0.52242103280823293 0.45098450226372488 0 0.50000000000237477 0.51961524226909872 0.312576188949791 0.31458070521983672 0.3125761889497819 0.5004045312576143 0.47050700646456922 0.24963111222780321 0.50000000000001332 0.49999999999999561 0.49999999999999561 0.50073570207385831 0.24848280280289631 0.52886631355986169 0.312576188949791 0.31458070521983672 0.3125761889497819 0.22345881830598399 0.5062398304147856 0.22345881830602041 0.24769234054476261 0.52242103280823293 0.45098450226372488 0.5004045312576143 0.47050700646456922 0.24963111222780321 0.312576188949791 0.31458070521983672 0.3125761889497819 0.5003997205654479 0.21136633249797621 0.2258422409314382 0.5004045312576143 0.47050700646456922 0.24963111222780321 0.50073570207385831 0.24848280280289631 0.52886631355986169 0.312576188949791 0.31458070521983672 0.3125761889497819 0.24769234054476261 0.52242103280823293 0.45098450226372488 0.50000000000001332 0.49999999999999561 0.49999999999999561 0.50073570207385831 0.24848280280289631 0.52886631355986169 0.312576188949791 0.31458070521983672 0.3125761889497819 0.24769234054476261 0.52242103280823293 0.45098450226372488 0.5004045312576143 0.47050700646456922 0.24963111222780321 0.50000000000001332 0.49999999999999561 0.49999999999999561 0.312576188949791 0.31458070521983672 0.3125761889497819 0.24769234054476261 0.52242103280823293 0.45098450226372488 0.50073570207385831 0.24848280280289631 0.52886631355986169 0.22088738526309029 0.22111069116742441 0.50004796911802929 0.312576188949791 0.31458070521983672 0.3125761889497819 0.45812322962036273 0.31024977578535839 0 0.32925244736090059 0.39615100178043078 0 0.5004045312576143 0.47050700646456922 0.24963111222780321 0.32925244736090059 0.39615100178043078 0 0.22345881830598399 0.5062398304147856 0.22345881830602041 0.32446581821364329 0.60020898676454815 0 0.5004045312576143 0.47050700646456922 0.24963111222780321 0.312576188949791 0.31458070521983672 0.3125761889497819 0.45812322962036273 0.31024977578535839 0 0.5003997205654479 0.21136633249797621 0.2258422409314382 0.5004045312576143 0.47050700646456922 0.24963111222780321 0.31610726166346748 0.18804489794572149 0 0.312576188949791 0.31458070521983672 0.3125761889497819 0.45812322962036273 0.31024977578535839 0 0.32925244736090059 0.39615100178043078 0 0.312576188949791 0.31458070521983672 0.3125761889497819 0.32925244736090059 0.39615100178043078 0 0.16929708765618309 0.30074819035915368 0 0.22345881830598399 0.5062398304147856 0.22345881830602041 0.31610726166346748 0.18804489794572149 0 0.312576188949791 0.31458070521983672 0.3125761889497819 0.45812322962036273 0.31024977578535839 0 0.5003997205654479 0.21136633249797621 0.2258422409314382 0.312576188949791 0.31458070521983672 0.3125761889497819 0.32925244736090059 0.39615100178043078 0 0.22345881830598399 0.5062398304147856 0.22345881830602041 0.5004045312576143 0.47050700646456922 0.24963111222780321 0.31610726166346748 0.18804489794572149 0 0.312576188949791 0.31458070521983672 0.3125761889497819 0.32925244736090059 0.39615100178043078 0 0.16929708765618309 0.30074819035915368 0 0.32925244736090059 0.39615100178043078 0 0.32446581821364329 0.60020898676454815 0 0.51961524226956368 0.5000000000025091 0 0.5004045312576143 0.47050700646456922 0.24963111222780321 0.45812322962036273 0.31024977578535839 0 0.32925244736090059 0.39615100178043078 0 0.51961524226956368 0.5000000000025091 0 0.5004045312576143 0.47050700646456922 0.24963111222780321 0.14641016151452901 0.14641016151487049 0 0.312576188949791 0.31458070521983672 0.3125761889497819 0.16929708765618309 0.30074819035915368 0 0 0.30074819035869899 0.1692970876565193 0.312576188949791 0.31458070521983672 0.3125761889497819 0.16929708765618309 0.30074819035915368 0 0 0.30074819035869899 0.1692970876565193 0.22345881830598399 0.5062398304147856 0.22345881830602041 0.17226134197279269 0.49836539647922029 0 0.16929708765618309 0.30074819035915368 0 0 0.49836539647891548 0.17226134197271731 0.22345881830598399 0.5062398304147856 0.22345881830602041 0.32925244736090059 0.39615100178043078 0 0.17226134197279269 0.49836539647922029 0 0.16929708765618309 0.30074819035915368 0 0.22345881830598399 0.5062398304147856 0.22345881830602041 0 0.20000000000083221 0 0.16929708765618309 0.30074819035915368 0 0 0.30074819035869899 0.1692970876565193 0 0.40000000000166441 0 0.16929708765618309 0.30074819035915368 0 0 0.30074819035869899 0.1692970876565193 0 0.49836539647891548 0.17226134197271731 0 0.40000000000166441 0 0.16929708765618309 0.30074819035915368 0 0 0.30074819035869899 0.1692970876565193 0 0.49836539647891548 0.17226134197271731 0.22345881830598399 0.5062398304147856 0.22345881830602041 0 0.39615100178029522 0.32925244736138171 0 0.30074819035869899 0.1692970876565193 0 0.49836539647891548 0.17226134197271731 0.22345881830598399 0.5062398304147856 0.22345881830602041 0.17226134197279269 0.49836539647922029 0 0 0.49836539647891548 0.17226134197271731 0 0.40000000000166441 0 0 0.60000000000138687 0 0.17226134197279269 0.49836539647922029 0 0.16929708765618309 0.30074819035915368 0 0 0.49836539647891548 0.17226134197271731 0 0.40000000000166441 0 0.22345881830598399 0.5062398304147856 0.22345881830602041 0 0.69449451837103049 0.15896804272139439 0 0.60020898676435996 0.32446581821286191 0.19259015428765269 0.77719169076434647 0.19259015428773721 0.1589680427220837 0.69449451837091269 0 0.22345881830598399 0.5062398304147856 0.22345881830602041 0 0.69449451837103049 0.15896804272139439 0.19259015428765269 0.77719169076434647 0.19259015428773721 0.17226134197279269 0.49836539647922029 0 0 0.60000000000138687 0 0.1589680427220837 0.69449451837091269 0 0 0.69449451837103049 0.15896804272139439 0.1589680427220837 0.69449451837091269 0 0.22345881830598399 0.5062398304147856 0.22345881830602041 0.19259015428765269 0.77719169076434647 0.19259015428773721 0.32446581821364329 0.60020898676454815 0 0.17226134197279269 0.49836539647922029 0 0 0.49836539647891548 0.17226134197271731 0 0.60000000000138687 0 0 0.69449451837103049 0.15896804272139439 0 0.60000000000138687 0 0.1589680427220837 0.69449451837091269 0 0 0.69449451837103049 0.15896804272139439 0 0.79999999999999982 0 0.1589680427220837 0.69449451837091269 0 0.19259015428765269 0.77719169076434647 0.19259015428773721 0.31067093463127438 0.81480288849489035 0 0.32446581821364329 0.60020898676454815 0 0.17226134197279269 0.49836539647922029 0 0.1589680427220837 0.69449451837091269 0 0.22345881830598399 0.5062398304147856 0.22345881830602041 0.32446581821364329 0.60020898676454815 0 0.17226134197279269 0.49836539647922029 0 0.1589680427220837 0.69449451837091269 0 0.22345881830598399 0.5062398304147856 0.22345881830602041 0 0.69449451837103049 0.15896804272139439 0 0.69449451837103049 0.15896804272139439 0 0.60020898676435996 0.32446581821286191 0 0.81480288849496429 0.31067093462946233 0.19259015428765269 0.77719169076434647 0.19259015428773721 0 0.49836539647891548 0.17226134197271731 0.22345881830598399 0.5062398304147856 0.22345881830602041 0 0.69449451837103049 0.15896804272139439 0 0.60020898676435996 0.32446581821286191 0.17226134197279269 0.49836539647922029 0 0 0.49836539647891548 0.17226134197271731 0.22345881830598399 0.5062398304147856 0.22345881830602041 0 0.69449451837103049 0.15896804272139439 0 0.60020898676435996 0.32446581821286191 0.22516916914780419 0.77057994845201627 0.48187244075707292 0.19259015428765269 0.77719169076434647 0.19259015428773721 0.35848654557803328 0.70013656506632282 0.30029870175293161 0 0.39615100178029522 0.32925244736138171 0.22345881830598399 0.5062398304147856 0.22345881830602041 0 0.60020898676435996 0.32446581821286191 0.24769234054476261 0.52242103280823293 0.45098450226372488 0 0.60020898676435996 0.32446581821286191 0 0.81480288849496429 0.31067093462946233 0.22516916914780419 0.77057994845201627 0.48187244075707292 0.19259015428765269 0.77719169076434647 0.19259015428773721 0.22345881830598399 0.5062398304147856 0.22345881830602041 0 0.60020898676435996 0.32446581821286191 0.19259015428765269 0.77719169076434647 0.19259015428773721 0.35848654557803328 0.70013656506632282 0.30029870175293161 0 0.39615100178029522 0.32925244736138171 0 0.49836539647891548 0.17226134197271731 0.22345881830598399 0.5062398304147856 0.22345881830602041 0 0.60020898676435996 0.32446581821286191 0 0.60020898676435996 0.32446581821286191 0.24769234054476261 0.52242103280823293 0.45098450226372488 0.22516916914780419 0.77057994845201627 0.48187244075707292 0.35848654557803328 0.70013656506632282 0.30029870175293161 0.22345881830598399 0.5062398304147856 0.22345881830602041 0 0.60020898676435996 0.32446581821286191 0.24769234054476261 0.52242103280823293 0.45098450226372488 0.35848654557803328 0.70013656506632282 0.30029870175293161 0 0.39615100178029522 0.32925244736138171 0 0.60020898676435996 0.32446581821286191 0.24769234054476261 0.52242103280823293 0.45098450226372488 0 0.50000000000237477 0.51961524226909872 0 0.60020898676435996 0.32446581821286191 0.24769234054476261 0.52242103280823293 0.45098450226372488 0 0.68801781652248195 0.45664527743358641 0 0.50000000000237477 0.51961524226909872 0.24769234054476261 0.52242103280823293 0.45098450226372488 0 0.68801781652248195 0.45664527743358641 0.22516916914780419 0.77057994845201627 0.48187244075707292 0 0.66416205381430016 0.59944234540882957 0 0.60020898676435996 0.32446581821286191 0 0.68801781652248195 0.45664527743358641 0 0.81480288849496429 0.31067093462946233 0.22516916914780419 0.77057994845201627 0.48187244075707292 0 0.60020898676435996 0.32446581821286191 0.24769234054476261 0.52242103280823293 0.45098450226372488 0 0.68801781652248195 0.45664527743358641 0.22516916914780419 0.77057994845201627 0.48187244075707292 0.22516916914780419 0.77057994845201627 0.48187244075707292 0.16929708765615539 1 0.30074819035677097 0.19259015428765269 0.77719169076434647 0.19259015428773721 0.32926555316115258 1 0.39615987727515128 0 0.81480288849496429 0.31067093462946233 0.22516916914780419 0.77057994845201627 0.48187244075707292 0.16929708765615539 1 0.30074819035677097 0.19259015428765269 0.77719169076434647 0.19259015428773721 0 0.81480288849496429 0.31067093462946233 0.22516916914780419 0.77057994845201627 0.48187244075707292 0.17226134197293 1 0.49836539647645101 0 0.83630110503664845 0.50803330197135654 0 0.68801781652248195 0.45664527743358641 0 0.81480288849496429 0.31067093462946233 0.22516916914780419 0.77057994845201627 0.48187244075707292 0 0.83630110503664845 0.50803330197135654 0 0.81480288849496429 0.31067093462946233 0 1 0.3999999999989749 0.17226134197293 1 0.49836539647645101 0 0.83630110503664845 0.50803330197135654 0 0.81480288849496429 0.31067093462946233 0 1 0.3999999999989749 0.17226134197293 1 0.49836539647645101 0.16929708765615539 1 0.30074819035677097 0 0.81480288849496429 0.31067093462946233 0.22516916914780419 0.77057994845201627 0.48187244075707292 0.17226134197293 1 0.49836539647645101 0.16929708765615539 1 0.30074819035677097 0.22516916914780419 0.77057994845201627 0.48187244075707292 0.17226134197293 1 0.49836539647645101 0.16929708765615539 1 0.30074819035677097 0.32926555316115258 1 0.39615987727515128 0 0.81480288849496429 0.31067093462946233 0 1 0.3999999999989749 0.16929708765615539 1 0.30074819035677097 0 1 0.19999999999955789 0 0.81480288849496429 0.31067093462946233 0.16929708765615539 1 0.30074819035677097 0 1 0.19999999999955789 0 0.85358983848655678 0.14641016151332509 0.16929708765615539 1 0.30074819035677097 0 1 0.19999999999955789 0 0.85358983848655678 0.14641016151332509 0.14641016151352521 1 0.1464101615131837 0 1 0 0.14641016151479211 0.85358983848543113 0 0.20000000000083221 1 0 0.14641016151352521 1 0.1464101615131837 0 1 0.19999999999955789 0 1 0 0 0.85358983848655678 0.14641016151332509 0.14641016151352521 1 0.1464101615131837 0 1 0 0 0.85358983848655678 0.14641016151332509 0.14641016151479211 0.85358983848543113 0 0.14641016151352521 1 0.1464101615131837 0 1 0 0 0.79999999999999982 0 0 0.85358983848655678 0.14641016151332509 0.14641016151479211 0.85358983848543113 0 0.1589680427220837 0.69449451837091269 0 0 0.69449451837103049 0.15896804272139439 0 0.85358983848655678 0.14641016151332509 0.19259015428765269 0.77719169076434647 0.19259015428773721 0.1589680427220837 0.69449451837091269 0 0 0.79999999999999982 0 0 0.85358983848655678 0.14641016151332509 0.14641016151479211 0.85358983848543113 0 0 0.85358983848655678 0.14641016151332509 0.19259015428765269 0.77719169076434647 0.19259015428773721 0.14641016151479211 0.85358983848543113 0 0.14641016151352521 1 0.1464101615131837 0.1589680427220837 0.69449451837091269 0 0 0.69449451837103049 0.15896804272139439 0 0.79999999999999982 0 0 0.85358983848655678 0.14641016151332509 0.1589680427220837 0.69449451837091269 0 0 0.85358983848655678 0.14641016151332509 0.19259015428765269 0.77719169076434647 0.19259015428773721 0.14641016151479211 0.85358983848543113 0 0 0.81480288849496429 0.31067093462946233 0.16929708765615539 1 0.30074819035677097 0 0.85358983848655678 0.14641016151332509 0.19259015428765269 0.77719169076434647 0.19259015428773721 0 0.69449451837103049 0.15896804272139439 0 0.81480288849496429 0.31067093462946233 0 0.85358983848655678 0.14641016151332509 0.19259015428765269 0.77719169076434647 0.19259015428773721 0.19259015428765269 0.77719169076434647 0.19259015428773721 0.14641016151479211 0.85358983848543113 0 0.14641016151352521 1 0.1464101615131837 0.31067093463127438 0.81480288849489035 0 0.1589680427220837 0.69449451837091269 0 0.19259015428765269 0.77719169076434647 0.19259015428773721 0.14641016151479211 0.85358983848543113 0 0.31067093463127438 0.81480288849489035 0 0.14641016151479211 0.85358983848543113 0 0.20000000000083221 1 0 0.14641016151352521 1 0.1464101615131837 0.31067093463127438 0.81480288849489035 0 0.20000000000083221 1 0 0.14641016151352521 1 0.1464101615131837 0.31635851157303152 1 0.18818969570840721 0.31067093463127438 0.81480288849489035 0 0.19259015428765269 0.77719169076434647 0.19259015428773721 0.14641016151352521 1 0.1464101615131837 0.31635851157303152 1 0.18818969570840721 0.31067093463127438 0.81480288849489035 0 0.16929708765615539 1 0.30074819035677097 0.19259015428765269 0.77719169076434647 0.19259015428773721 0.14641016151352521 1 0.1464101615131837 0.31635851157303152 1 0.18818969570840721 0.16929708765615539 1 0.30074819035677097 0 0.85358983848655678 0.14641016151332509 0.19259015428765269 0.77719169076434647 0.19259015428773721 0.14641016151352521 1 0.1464101615131837 0.19259015428765269 0.77719169076434647 0.19259015428773721 0.31635851157303152 1 0.18818969570840721 0.35848654557803328 0.70013656506632282 0.30029870175293161 0.52894546611500048 0.79133000140429866 0.2082794184507949 0.19259015428765269 0.77719169076434647 0.19259015428773721 0.31067093463127438 0.81480288849489035 0 0.35848654557803328 0.70013656506632282 0.30029870175293161 0.52894546611500048 0.79133000140429866 0.2082794184507949 0.19259015428765269 0.77719169076434647 0.19259015428773721 0.31635851157303152 1 0.18818969570840721 0.31067093463127438 0.81480288849489035 0 0.52894546611500048 0.79133000140429866 0.2082794184507949 0.20000000000083221 1 0 0.31635851157303152 1 0.18818969570840721 0.31067093463127438 0.81480288849489035 0 0.40000000000166441 1 0 0.31635851157303152 1 0.18818969570840721 0.31067093463127438 0.81480288849489035 0 0.50803330197353713 0.83630110503668265 0 0.52894546611500048 0.79133000140429866 0.2082794184507949 0.31067093463127438 0.81480288849489035 0 0.45664527743509797 0.68801781652245086 0 0.50803330197353713 0.83630110503668265 0 0.52894546611500048 0.79133000140429866 0.2082794184507949 0.31635851157303152 1 0.18818969570840721 0.40000000000166441 1 0 0.51133491425992716 1 0.16370661204795281 0.50803330197353713 0.83630110503668265 0 0.31635851157303152 1 0.18818969570840721 0.31067093463127438 0.81480288849489035 0 0.40000000000166441 1 0 0.50803330197353713 0.83630110503668265 0 0.31635851157303152 1 0.18818969570840721 0.45820186441796368 1 0.31030302876579191 0.51133491425992716 1 0.16370661204795281 0.52894546611500048 0.79133000140429866 0.2082794184507949 0.31635851157303152 1 0.18818969570840721 0.51133491425992716 1 0.16370661204795281 0.50803330197353713 0.83630110503668265 0 0.52894546611500048 0.79133000140429866 0.2082794184507949 0.22516916914780419 0.77057994845201627 0.48187244075707292 0.32926555316115258 1 0.39615987727515128 0.35848654557803328 0.70013656506632282 0.30029870175293161 0.49983993748706529 0.75039103705932653 0.52967335724801234 0.22516916914780419 0.77057994845201627 0.48187244075707292 0.19259015428765269 0.77719169076434647 0.19259015428773721 0.32926555316115258 1 0.39615987727515128 0.35848654557803328 0.70013656506632282 0.30029870175293161 0.31635851157303152 1 0.18818969570840721 0.45820186441796368 1 0.31030302876579191 0.32926555316115258 1 0.39615987727515128 0.35848654557803328 0.70013656506632282 0.30029870175293161 0.31635851157303152 1 0.18818969570840721 0.45820186441796368 1 0.31030302876579191 0.35848654557803328 0.70013656506632282 0.30029870175293161 0.52894546611500048 0.79133000140429866 0.2082794184507949 0.19259015428765269 0.77719169076434647 0.19259015428773721 0.31635851157303152 1 0.18818969570840721 0.32926555316115258 1 0.39615987727515128 0.35848654557803328 0.70013656506632282 0.30029870175293161 0.45820186441796368 1 0.31030302876579191 0.35848654557803328 0.70013656506632282 0.30029870175293161 0.52894546611500048 0.79133000140429866 0.2082794184507949 0.49983993748706529 0.75039103705932653 0.52967335724801234 0.45820186441796368 1 0.31030302876579191 0.32926555316115258 1 0.39615987727515128 0.35848654557803328 0.70013656506632282 0.30029870175293161 0.49983993748706529 0.75039103705932653 0.52967335724801234 0.16929708765615539 1 0.30074819035677097 0.19259015428765269 0.77719169076434647 0.19259015428773721 0.31635851157303152 1 0.18818969570840721 0.32926555316115258 1 0.39615987727515128 0.22516916914780419 0.77057994845201627 0.48187244075707292 0.17226134197293 1 0.49836539647645101 0.32926555316115258 1 0.39615987727515128 0.32448110831226962 1 0.6002015905153204 0.45820186441796368 1 0.31030302876579191 0.32926555316115258 1 0.39615987727515128 0.51961524227008238 1 0.49999999999872219 0.49983993748706529 0.75039103705932653 0.52967335724801234 0.24769234054476261 0.52242103280823293 0.45098450226372488 0.22516916914780419 0.77057994845201627 0.48187244075707292 0.35848654557803328 0.70013656506632282 0.30029870175293161 0.49983993748706529 0.75039103705932653 0.52967335724801234 0.24769234054476261 0.52242103280823293 0.45098450226372488 0.35848654557803328 0.70013656506632282 0.30029870175293161 0.5004045312576143 0.47050700646456922 0.24963111222780321 0.50000000000001332 0.49999999999999561 0.49999999999999561 0.24769234054476261 0.52242103280823293 0.45098450226372488 0.35848654557803328 0.70013656506632282 0.30029870175293161 0.50000000000001332 0.49999999999999561 0.49999999999999561 0.49983993748706529 0.75039103705932653 0.52967335724801234 0.22345881830598399 0.5062398304147856 0.22345881830602041 0.24769234054476261 0.52242103280823293 0.45098450226372488 0.35848654557803328 0.70013656506632282 0.30029870175293161 0.5004045312576143 0.47050700646456922 0.24963111222780321 0.22345881830598399 0.5062398304147856 0.22345881830602041 0.35848654557803328 0.70013656506632282 0.30029870175293161 0.32446581821364329 0.60020898676454815 0 0.5004045312576143 0.47050700646456922 0.24963111222780321 0.31067093463127438 0.81480288849489035 0 0.35848654557803328 0.70013656506632282 0.30029870175293161 0.32446581821364329 0.60020898676454815 0 0.45664527743509797 0.68801781652245086 0 0.22345881830598399 0.5062398304147856 0.22345881830602041 0.19259015428765269 0.77719169076434647 0.19259015428773721 0.35848654557803328 0.70013656506632282 0.30029870175293161 0.32446581821364329 0.60020898676454815 0 0.35848654557803328 0.70013656506632282 0.30029870175293161 0.32446581821364329 0.60020898676454815 0 0.45664527743509797 0.68801781652245086 0 0.5004045312576143 0.47050700646456922 0.24963111222780321 0.19259015428765269 0.77719169076434647 0.19259015428773721 0.31067093463127438 0.81480288849489035 0 0.35848654557803328 0.70013656506632282 0.30029870175293161 0.32446581821364329 0.60020898676454815 0 0.31067093463127438 0.81480288849489035 0 0.35848654557803328 0.70013656506632282 0.30029870175293161 0.45664527743509797 0.68801781652245086 0 0.52894546611500048 0.79133000140429866 0.2082794184507949 0.35848654557803328 0.70013656506632282 0.30029870175293161 0.45664527743509797 0.68801781652245086 0 0.52894546611500048 0.79133000140429866 0.2082794184507949 0.5004045312576143 0.47050700646456922 0.24963111222780321 0.32925244736090059 0.39615100178043078 0 0.17226134197279269 0.49836539647922029 0 0.22345881830598399 0.5062398304147856 0.22345881830602041 0.32446581821364329 0.60020898676454815 0 0.32446581821364329 0.60020898676454815 0 0.45664527743509797 0.68801781652245086 0 0.51961524226956368 0.5000000000025091 0 0.5004045312576143 0.47050700646456922 0.24963111222780321 0.59944234541082553 0.66416205381394655 0 0.72722573386132172 0.60922248848163563 0 0.68456408135056701 0.68607101396845627 0.31096060989957619 0.77713227489941183 0.50036915849493024 0.21774643624003751 0.59944234541082553 0.66416205381394655 0 0.68456408135056701 0.68607101396845627 0.31096060989957619 0.77713227489941183 0.50036915849493024 0.21774643624003751 0.5004045312576143 0.47050700646456922 0.24963111222780321 0.45664527743509797 0.68801781652245086 0 0.59944234541082553 0.66416205381394655 0 0.52894546611500048 0.79133000140429866 0.2082794184507949 0.5004045312576143 0.47050700646456922 0.24963111222780321 0.51961524226956368 0.5000000000025091 0 0.59944234541082553 0.66416205381394655 0 0.67320508075660079 0.46954769941202479 0 0.5004045312576143 0.47050700646456922 0.24963111222780321 0.59944234541082553 0.66416205381394655 0 0.68456408135056701 0.68607101396845627 0.31096060989957619 0.52894546611500048 0.79133000140429866 0.2082794184507949 0.5004045312576143 0.47050700646456922 0.24963111222780321 0.59944234541082553 0.66416205381394655 0 0.77713227489941183 0.50036915849493024 0.21774643624003751 0.67320508075660079 0.46954769941202479 0 0.5004045312576143 0.47050700646456922 0.24963111222780321 0.59944234541082553 0.66416205381394655 0 0.68456408135056701 0.68607101396845627 0.31096060989957619 0.52894546611500048 0.79133000140429866 0.2082794184507949 0.81582077266975173 0.77657922508894406 0.18483084990574741 0.45664527743509797 0.68801781652245086 0 0.51961524226956368 0.5000000000025091 0 0.59944234541082553 0.66416205381394655 0 0.5004045312576143 0.47050700646456922 0.24963111222780321 0.59944234541082553 0.66416205381394655 0 0.72722573386132172 0.60922248848163563 0 0.68456408135056701 0.68607101396845627 0.31096060989957619 0.81582077266975173 0.77657922508894406 0.18483084990574741 0.45664527743509797 0.68801781652245086 0 0.59944234541082553 0.66416205381394655 0 0.50803330197353713 0.83630110503668265 0 0.52894546611500048 0.79133000140429866 0.2082794184507949 0.59944234541082553 0.66416205381394655 0 0.72722573386132172 0.60922248848163563 0 0.7054234997318658 0.80860557108880304 0 0.81582077266975173 0.77657922508894406 0.18483084990574741 0.59944234541082553 0.66416205381394655 0 0.72722573386132172 0.60922248848163563 0 0.77713227489941183 0.50036915849493024 0.21774643624003751 0.67320508075660079 0.46954769941202479 0 0.35848654557803328 0.70013656506632282 0.30029870175293161 0.68456408135056701 0.68607101396845627 0.31096060989957619 0.52894546611500048 0.79133000140429866 0.2082794184507949 0.5004045312576143 0.47050700646456922 0.24963111222780321 0.35848654557803328 0.70013656506632282 0.30029870175293161 0.68456408135056701 0.68607101396845627 0.31096060989957619 0.50000000000001332 0.49999999999999561 0.49999999999999561 0.49983993748706529 0.75039103705932653 0.52967335724801234 0.35848654557803328 0.70013656506632282 0.30029870175293161 0.68456408135056701 0.68607101396845627 0.31096060989957619 0.5004045312576143 0.47050700646456922 0.24963111222780321 0.50000000000001332 0.49999999999999561 0.49999999999999561 0.68456408135056701 0.68607101396845627 0.31096060989957619 0.7504488434426726 0.53051757989633308 0.49836643074154852 0.5004045312576143 0.47050700646456922 0.24963111222780321 0.50000000000001332 0.49999999999999561 0.49999999999999561 0.68456408135056701 0.68607101396845627 0.31096060989957619 0.77374673111774417 0.78860835645735528 0.49829081152968557 0.7504488434426726 0.53051757989633308 0.49836643074154852 0.49983993748706529 0.75039103705932653 0.52967335724801234 0.68456408135056701 0.68607101396845627 0.31096060989957619 0.7504488434426726 0.53051757989633308 0.49836643074154852 0.77713227489941183 0.50036915849493024 0.21774643624003751 0.5004045312576143 0.47050700646456922 0.24963111222780321 0.35848654557803328 0.70013656506632282 0.30029870175293161 0.68456408135056701 0.68607101396845627 0.31096060989957619 0.52894546611500048 0.79133000140429866 0.2082794184507949 0.49983993748706529 0.75039103705932653 0.52967335724801234 0.68456408135056701 0.68607101396845627 0.31096060989957619 0.7504488434426726 0.53051757989633308 0.49836643074154852 0.50000000000001332 0.49999999999999561 0.49999999999999561 0.49983993748706529 0.75039103705932653 0.52967335724801234 0.68456408135056701 0.68607101396845627 0.31096060989957619 0.61068558124908323 1 0.33127740899601937 0.52894546611500048 0.79133000140429866 0.2082794184507949 0.81582077266975173 0.77657922508894406 0.18483084990574741 0.68456408135056701 0.68607101396845627 0.31096060989957619 0.61068558124908323 1 0.33127740899601937 0.77374673111774417 0.78860835645735528 0.49829081152968557 0.49983993748706529 0.75039103705932653 0.52967335724801234 0.61068558124908323 1 0.33127740899601937 0.77374673111774417 0.78860835645735528 0.49829081152968557 0.68240285647621723 1 0.52310058211166854 0.49983993748706529 0.75039103705932653 0.52967335724801234 0.68456408135056701 0.68607101396845627 0.31096060989957619 0.61068558124908323 1 0.33127740899601937 0.81582077266975173 0.77657922508894406 0.18483084990574741 0.82751535738810444 1 0.31407731390515509 0.45820186441796368 1 0.31030302876579191 0.61068558124908323 1 0.33127740899601937 0.52894546611500048 0.79133000140429866 0.2082794184507949 0.49983993748706529 0.75039103705932653 0.52967335724801234 0.68456408135056701 0.68607101396845627 0.31096060989957619 0.61068558124908323 1 0.33127740899601937 0.82751535738810444 1 0.31407731390515509 0.77374673111774417 0.78860835645735528 0.49829081152968557 0.68456408135056701 0.68607101396845627 0.31096060989957619 0.61068558124908323 1 0.33127740899601937 0.52894546611500048 0.79133000140429866 0.2082794184507949 0.49983993748706529 0.75039103705932653 0.52967335724801234 0.51961524227008238 1 0.49999999999872219 0.61068558124908323 1 0.33127740899601937 0.68240285647621723 1 0.52310058211166854 0.49983993748706529 0.75039103705932653 0.52967335724801234 0.45820186441796368 1 0.31030302876579191 0.51961524227008238 1 0.49999999999872219 0.61068558124908323 1 0.33127740899601937 0.49983993748706529 0.75039103705932653 0.52967335724801234 0.61068558124908323 1 0.33127740899601937 0.82751535738810444 1 0.31407731390515509 0.77374673111774417 0.78860835645735528 0.49829081152968557 0.68240285647621723 1 0.52310058211166854 0.45820186441796368 1 0.31030302876579191 0.61068558124908323 1 0.33127740899601937 0.51133491425992716 1 0.16370661204795281 0.52894546611500048 0.79133000140429866 0.2082794184507949 0.61068558124908323 1 0.33127740899601937 0.51133491425992716 1 0.16370661204795281 0.52894546611500048 0.79133000140429866 0.2082794184507949 0.69988642339594154 1 0.16938214347578889 0.61068558124908323 1 0.33127740899601937 0.52894546611500048 0.79133000140429866 0.2082794184507949 0.69988642339594154 1 0.16938214347578889 0.81582077266975173 0.77657922508894406 0.18483084990574741 0.52894546611500048 0.79133000140429866 0.2082794184507949 0.7054234997318658 0.80860557108880304 0 0.69988642339594154 1 0.16938214347578889 0.81582077266975173 0.77657922508894406 0.18483084990574741 0.51133491425992716 1 0.16370661204795281 0.50803330197353713 0.83630110503668265 0 0.52894546611500048 0.79133000140429866 0.2082794184507949 0.69988642339594154 1 0.16938214347578889 0.59944234541082553 0.66416205381394655 0 0.52894546611500048 0.79133000140429866 0.2082794184507949 0.7054234997318658 0.80860557108880304 0 0.81582077266975173 0.77657922508894406 0.18483084990574741 0.51133491425992716 1 0.16370661204795281 0.60000000000138687 1 0 0.50803330197353713 0.83630110503668265 0 0.69988642339594154 1 0.16938214347578889 0.40000000000166441 1 0 0.51133491425992716 1 0.16370661204795281 0.60000000000138687 1 0 0.50803330197353713 0.83630110503668265 0 0.59944234541082553 0.66416205381394655 0 0.50803330197353713 0.83630110503668265 0 0.52894546611500048 0.79133000140429866 0.2082794184507949 0.7054234997318658 0.80860557108880304 0 0.50803330197353713 0.83630110503668265 0 0.52894546611500048 0.79133000140429866 0.2082794184507949 0.7054234997318658 0.80860557108880304 0 0.69988642339594154 1 0.16938214347578889 0.60000000000138687 1 0 0.7054234997318658 0.80860557108880304 0 0.69988642339594154 1 0.16938214347578889 0.79999999999999982 1 0 0.60000000000138687 1 0 0.50803330197353713 0.83630110503668265 0 0.7054234997318658 0.80860557108880304 0 0.69988642339594154 1 0.16938214347578889 0.61068558124908323 1 0.33127740899601937 0.69988642339594154 1 0.16938214347578889 0.81582077266975173 0.77657922508894406 0.18483084990574741 0.82751535738810444 1 0.31407731390515509 0.69988642339594154 1 0.16938214347578889 0.85358983848665693 1 0.14641016151322461 0.81582077266975173 0.77657922508894406 0.18483084990574741 0.82751535738810444 1 0.31407731390515509 0.69988642339594154 1 0.16938214347578889 0.85358983848665693 1 0.14641016151322461 0.85358983848666903 0.85358983848666903 0 0.81582077266975173 0.77657922508894406 0.18483084990574741 0.85358983848665693 1 0.14641016151322461 0.81582077266975173 0.77657922508894406 0.18483084990574741 1 0.85358983848655678 0.14641016151332509 0.82751535738810444 1 0.31407731390515509 0.69988642339594154 1 0.16938214347578889 0.85358983848665693 1 0.14641016151322461 0.79999999999999982 1 0 0.85358983848666903 0.85358983848666903 0 0.7054234997318658 0.80860557108880304 0 0.69988642339594154 1 0.16938214347578889 0.79999999999999982 1 0 0.85358983848666903 0.85358983848666903 0 0.7054234997318658 0.80860557108880304 0 0.85358983848666903 0.85358983848666903 0 0.81582077266975173 0.77657922508894406 0.18483084990574741 0.85173693729186062 0.69992182039541118 0 0.7054234997318658 0.80860557108880304 0 0.69988642339594154 1 0.16938214347578889 0.85358983848666903 0.85358983848666903 0 0.81582077266975173 0.77657922508894406 0.18483084990574741 0.81582077266975173 0.77657922508894406 0.18483084990574741 1 0.85358983848655678 0.14641016151332509 1 0.8148028884949543 0.31067093462944562 1 0.69449451837101916 0.15896804272136739 0.81582077266975173 0.77657922508894406 0.18483084990574741 1 0.85358983848655678 0.14641016151332509 0.82751535738810444 1 0.31407731390515509 1 0.8148028884949543 0.31067093462944562 0.85358983848666903 0.85358983848666903 0 0.81582077266975173 0.77657922508894406 0.18483084990574741 1 0.85358983848655678 0.14641016151332509 1 0.79999999999999982 0 0.81582077266975173 0.77657922508894406 0.18483084990574741 1 0.85358983848655678 0.14641016151332509 1 0.79999999999999982 0 1 0.69449451837101916 0.15896804272136739 0.85358983848665693 1 0.14641016151322461 0.85358983848666903 0.85358983848666903 0 0.81582077266975173 0.77657922508894406 0.18483084990574741 1 0.85358983848655678 0.14641016151332509 0.85358983848666903 0.85358983848666903 0 0.81582077266975173 0.77657922508894406 0.18483084990574741 1 0.79999999999999982 0 0.85173693729186062 0.69992182039541118 0 0.85358983848665693 1 0.14641016151322461 0.85358983848666903 0.85358983848666903 0 1 0.85358983848655678 0.14641016151332509 1 1 0 0.85358983848665693 1 0.14641016151322461 1 0.85358983848655678 0.14641016151332509 1 1 0 1 1 0.19999999999955789 0.85358983848666903 0.85358983848666903 0 1 0.85358983848655678 0.14641016151332509 1 0.79999999999999982 0 1 1 0 0.85358983848665693 1 0.14641016151322461 0.79999999999999982 1 0 0.85358983848666903 0.85358983848666903 0 1 1 0 0.85358983848665693 1 0.14641016151322461 1 0.85358983848655678 0.14641016151332509 1 1 0.19999999999955789 0.82751535738810444 1 0.31407731390515509 1 0.85358983848655678 0.14641016151332509 1 1 0.19999999999955789 0.82751535738810444 1 0.31407731390515509 1 0.8148028884949543 0.31067093462944562 1 1 0.19999999999955789 0.82751535738810444 1 0.31407731390515509 1 1 0.3999999999989749 1 0.8148028884949543 0.31067093462944562 0.68456408135056701 0.68607101396845627 0.31096060989957619 0.81582077266975173 0.77657922508894406 0.18483084990574741 0.82751535738810444 1 0.31407731390515509 0.77374673111774417 0.78860835645735528 0.49829081152968557 0.81582077266975173 0.77657922508894406 0.18483084990574741 0.82751535738810444 1 0.31407731390515509 0.77374673111774417 0.78860835645735528 0.49829081152968557 1 0.8148028884949543 0.31067093462944562 0.68456408135056701 0.68607101396845627 0.31096060989957619 0.81582077266975173 0.77657922508894406 0.18483084990574741 0.77374673111774417 0.78860835645735528 0.49829081152968557 1 0.8148028884949543 0.31067093462944562 0.82751535738810444 1 0.31407731390515509 0.77374673111774417 0.78860835645735528 0.49829081152968557 1 0.8148028884949543 0.31067093462944562 0.86762395692956074 1 0.5060815484123421 0.82751535738810444 1 0.31407731390515509 0.77374673111774417 0.78860835645735528 0.49829081152968557 0.86762395692956074 1 0.5060815484123421 0.68240285647621723 1 0.52310058211166854 0.82751535738810444 1 0.31407731390515509 1 1 0.3999999999989749 1 0.8148028884949543 0.31067093462944562 0.86762395692956074 1 0.5060815484123421 1 1 0.3999999999989749 1 0.8148028884949543 0.31067093462944562 1 0.83630110503662825 0.50803330197135588 0.86762395692956074 1 0.5060815484123421 0.77374673111774417 0.78860835645735528 0.49829081152968557 1 0.8148028884949543 0.31067093462944562 1 0.83630110503662825 0.50803330197135588 0.86762395692956074 1 0.5060815484123421 0.77374673111774417 0.78860835645735528 0.49829081152968557 1 0.8148028884949543 0.31067093462944562 1 0.68975022421527898 0.45812322962078778 1 0.83630110503662825 0.50803330197135588 0.7504488434426726 0.53051757989633308 0.49836643074154852 1 0.60020898676431722 0.32446581821274012 0.77713227489941183 0.50036915849493024 0.21774643624003751 1 0.39615100178016449 0.32925244736082498 0.68456408135056701 0.68607101396845627 0.31096060989957619 1 0.68975022421527898 0.45812322962078778 0.7504488434426726 0.53051757989633308 0.49836643074154852 1 0.60020898676431722 0.32446581821274012 0.68456408135056701 0.68607101396845627 0.31096060989957619 0.77374673111774417 0.78860835645735528 0.49829081152968557 1 0.8148028884949543 0.31067093462944562 1 0.68975022421527898 0.45812322962078778 0.68456408135056701 0.68607101396845627 0.31096060989957619 0.77374673111774417 0.78860835645735528 0.49829081152968557 1 0.68975022421527898 0.45812322962078778 0.7504488434426726 0.53051757989633308 0.49836643074154852 0.68456408135056701 0.68607101396845627 0.31096060989957619 1 0.8148028884949543 0.31067093462944562 1 0.68975022421527898 0.45812322962078778 1 0.60020898676431722 0.32446581821274012 0.68456408135056701 0.68607101396845627 0.31096060989957619 0.7504488434426726 0.53051757989633308 0.49836643074154852 1 0.60020898676431722 0.32446581821274012 0.77713227489941183 0.50036915849493024 0.21774643624003751 0.68456408135056701 0.68607101396845627 0.31096060989957619 0.81582077266975173 0.77657922508894406 0.18483084990574741 1 0.8148028884949543 0.31067093462944562 1 0.60020898676431722 0.32446581821274012 0.68456408135056701 0.68607101396845627 0.31096060989957619 0.81582077266975173 0.77657922508894406 0.18483084990574741 1 0.60020898676431722 0.32446581821274012 0.77713227489941183 0.50036915849493024 0.21774643624003751 1 0.68975022421527898 0.45812322962078778 0.7504488434426726 0.53051757989633308 0.49836643074154852 1 0.60020898676431722 0.32446581821274012 1 0.50000000000229983 0.51961524226898759 0.7504488434426726 0.53051757989633308 0.49836643074154852 1 0.60020898676431722 0.32446581821274012 1 0.39615100178016449 0.32925244736082498 1 0.50000000000229983 0.51961524226898759 1 0.69449451837101916 0.15896804272136739 0.77713227489941183 0.50036915849493024 0.21774643624003751 0.84191918937744659 0.51186163305076127 0 1 0.49836539647890021 0.17226134197269399 0.81582077266975173 0.77657922508894406 0.18483084990574741 1 0.69449451837101916 0.15896804272136739 0.77713227489941183 0.50036915849493024 0.21774643624003751 0.85173693729186062 0.69992182039541118 0 0.81582077266975173 0.77657922508894406 0.18483084990574741 1 0.60020898676431722 0.32446581821274012 1 0.69449451837101916 0.15896804272136739 0.77713227489941183 0.50036915849493024 0.21774643624003751 1 0.60020898676431722 0.32446581821274012 1 0.69449451837101916 0.15896804272136739 0.77713227489941183 0.50036915849493024 0.21774643624003751 1 0.49836539647890021 0.17226134197269399 0.72722573386132172 0.60922248848163563 0 0.81582077266975173 0.77657922508894406 0.18483084990574741 0.77713227489941183 0.50036915849493024 0.21774643624003751 0.85173693729186062 0.69992182039541118 0 0.72722573386132172 0.60922248848163563 0 0.68456408135056701 0.68607101396845627 0.31096060989957619 0.81582077266975173 0.77657922508894406 0.18483084990574741 0.77713227489941183 0.50036915849493024 0.21774643624003751 0.81582077266975173 0.77657922508894406 0.18483084990574741 1 0.8148028884949543 0.31067093462944562 1 0.60020898676431722 0.32446581821274012 1 0.69449451837101916 0.15896804272136739 0.72722573386132172 0.60922248848163563 0 0.77713227489941183 0.50036915849493024 0.21774643624003751 0.84191918937744659 0.51186163305076127 0 0.67320508075660079 0.46954769941202479 0 1 0.69449451837101916 0.15896804272136739 0.77713227489941183 0.50036915849493024 0.21774643624003751 0.84191918937744659 0.51186163305076127 0 0.85173693729186062 0.69992182039541118 0 0.72722573386132172 0.60922248848163563 0 0.77713227489941183 0.50036915849493024 0.21774643624003751 0.84191918937744659 0.51186163305076127 0 0.85173693729186062 0.69992182039541118 0 0.72722573386132172 0.60922248848163563 0 0.7054234997318658 0.80860557108880304 0 0.81582077266975173 0.77657922508894406 0.18483084990574741 0.85173693729186062 0.69992182039541118 0 1 0.79999999999999982 0 1 0.69449451837101916 0.15896804272136739 0.85173693729186062 0.69992182039541118 0 1 0.60000000000138687 0 0.81582077266975173 0.77657922508894406 0.18483084990574741 1 0.79999999999999982 0 1 0.69449451837101916 0.15896804272136739 0.85173693729186062 0.69992182039541118 0 1 0.69449451837101916 0.15896804272136739 0.84191918937744659 0.51186163305076127 0 0.85173693729186062 0.69992182039541118 0 1 0.60000000000138687 0 1 0.69449451837101916 0.15896804272136739 0.84191918937744659 0.51186163305076127 0 1 0.60000000000138687 0 1 0.49836539647890021 0.17226134197269399 0.84191918937744659 0.51186163305076127 0 1 0.60000000000138687 0 1 0.40000000000166441 0 1 0.49836539647890021 0.17226134197269399 1 0.30074819035868428 0.16929708765640439 0.80839867011859301 0.31807971531731721 0 0.85358983848570813 0.1464101615143738 0 0.68777432594363841 0.31447353261427252 0.31366778418247038 0.84191918937744659 0.51186163305076127 0 1 0.40000000000166441 0 1 0.49836539647890021 0.17226134197269399 0.80839867011859301 0.31807971531731721 0 1 0.40000000000166441 0 1 0.49836539647890021 0.17226134197269399 1 0.30074819035868428 0.16929708765640439 0.80839867011859301 0.31807971531731721 0 0.77713227489941183 0.50036915849493024 0.21774643624003751 1 0.30074819035868428 0.16929708765640439 0.80839867011859301 0.31807971531731721 0 0.68777432594363841 0.31447353261427252 0.31366778418247038 0.77713227489941183 0.50036915849493024 0.21774643624003751 0.84191918937744659 0.51186163305076127 0 0.80839867011859301 0.31807971531731721 0 0.67320508075660079 0.46954769941202479 0 0.77713227489941183 0.50036915849493024 0.21774643624003751 0.84191918937744659 0.51186163305076127 0 1 0.49836539647890021 0.17226134197269399 0.80839867011859301 0.31807971531731721 0 0.77713227489941183 0.50036915849493024 0.21774643624003751 1 0.49836539647890021 0.17226134197269399 1 0.30074819035868428 0.16929708765640439 0.80839867011859301 0.31807971531731721 0 0.77713227489941183 0.50036915849493024 0.21774643624003751 1 0.49836539647890021 0.17226134197269399 1 0.30074819035868428 0.16929708765640439 1 0.39615100178016449 0.32925244736082498 1 0.40000000000166441 0 1 0.30074819035868428 0.16929708765640439 0.80839867011859301 0.31807971531731721 0 1 0.20000000000083221 0 1 0.30074819035868428 0.16929708765640439 0.80839867011859301 0.31807971531731721 0 1 0.20000000000083221 0 0.85358983848570813 0.1464101615143738 0 1 0.30074819035868428 0.16929708765640439 1 0.20000000000083221 0 1 0.14641016151453831 0.14641016151419689 0.85358983848570813 0.1464101615143738 0 0.85358983848650494 0 0.1464101615132356 0.68592116352011878 0 0.1724872797865501 0.68777432594363841 0.31447353261427252 0.31366778418247038 0.83057691269884504 0 0.30018449338884379 0.80839867011859301 0.31807971531731721 0 0.85358983848570813 0.1464101615143738 0 0.69380980079964416 0.1619694349440581 0 0.68777432594363841 0.31447353261427252 0.31366778418247038 1 0.30074819035868428 0.16929708765640439 1 0.14641016151453831 0.14641016151419689 0.68777432594363841 0.31447353261427252 0.31366778418247038 1 0.18804489794556911 0.3161072616634244 1 0.30074819035868428 0.16929708765640439 1 0.14641016151453831 0.14641016151419689 0.85358983848570813 0.1464101615143738 0 0.68777432594363841 0.31447353261427252 0.31366778418247038 1 0.14641016151453831 0.14641016151419689 0.85358983848650494 0 0.1464101615132356 0.68777432594363841 0.31447353261427252 0.31366778418247038 0.83057691269884504 0 0.30018449338884379 1 0.14641016151453831 0.14641016151419689 0.85358983848650494 0 0.1464101615132356 0.85358983848570813 0.1464101615143738 0 0.68777432594363841 0.31447353261427252 0.31366778418247038 0.85358983848650494 0 0.1464101615132356 0.85358983848570813 0.1464101615143738 0 0.69380980079964416 0.1619694349440581 0 0.68777432594363841 0.31447353261427252 0.31366778418247038 1 0.14641016151453831 0.14641016151419689 1 0 0.19999999999955789 0.85358983848650494 0 0.1464101615132356 0.83057691269884504 0 0.30018449338884379 1 0.14641016151453831 0.14641016151419689 1 0 0.19999999999955789 0.83057691269884504 0 0.30018449338884379 1 0.18804489794556911 0.3161072616634244 1 0 0 0.79999999999947335 0 0 0.85358983848650494 0 0.1464101615132356 0.85358983848570813 0.1464101615143738 0 1 0.14641016151453831 0.14641016151419689 1 0 0.19999999999955789 1 0 0 0.85358983848650494 0 0.1464101615132356 1 0.20000000000083221 0 1 0.14641016151453831 0.14641016151419689 1 0 0 0.85358983848570813 0.1464101615143738 0 1 0.14641016151453831 0.14641016151419689 1 0 0 0.85358983848650494 0 0.1464101615132356 0.85358983848570813 0.1464101615143738 0 0.79999999999947335 0 0 0.85358983848650494 0 0.1464101615132356 0.69380980079964416 0.1619694349440581 0 0.68592116352011878 0 0.1724872797865501 0.79999999999947335 0 0 0.85358983848650494 0 0.1464101615132356 0.85358983848570813 0.1464101615143738 0 0.69380980079964416 0.1619694349440581 0 0.69380980079964416 0.1619694349440581 0 0.68592116352011878 0 0.1724872797865501 0.5003997205654479 0.21136633249797621 0.2258422409314382 0.68777432594363841 0.31447353261427252 0.31366778418247038 0.85358983848650494 0 0.1464101615132356 0.69380980079964416 0.1619694349440581 0 0.68592116352011878 0 0.1724872797865501 0.68777432594363841 0.31447353261427252 0.31366778418247038 0.79999999999947335 0 0 0.69380980079964416 0.1619694349440581 0 0.68592116352011878 0 0.1724872797865501 0.59999999999894682 0 0 0.3999999999989749 0 0 0.49391845158624981 0 0.1323760430705655 0.59999999999894682 0 0 0.50966790549376417 0.16275515618023731 0 0.69380980079964416 0.1619694349440581 0 0.68592116352011878 0 0.1724872797865501 0.59999999999894682 0 0 0.50966790549376417 0.16275515618023731 0 0.49391845158624981 0 0.1323760430705655 0.68592116352011878 0 0.1724872797865501 0.59999999999894682 0 0 0.50966790549376417 0.16275515618023731 0 0.49391845158624981 0 0.1323760430705655 0.47688326899416439 0 0.31741132792405607 0.68592116352011878 0 0.1724872797865501 0.5003997205654479 0.21136633249797621 0.2258422409314382 0.49391845158624981 0 0.1323760430705655 0.68592116352011878 0 0.1724872797865501 0.5003997205654479 0.21136633249797621 0.2258422409314382 0.50966790549376417 0.16275515618023731 0 0.69380980079964416 0.1619694349440581 0 0.68592116352011878 0 0.1724872797865501 0.5003997205654479 0.21136633249797621 0.2258422409314382 0.50966790549376417 0.16275515618023731 0 0.69380980079964416 0.1619694349440581 0 0.5003997205654479 0.21136633249797621 0.2258422409314382 0.50966790549376417 0.16275515618023731 0 0.6104699881764214 0.32043363027358418 0 0.77713227489941183 0.50036915849493024 0.21774643624003751 0.80839867011859301 0.31807971531731721 0 0.6104699881764214 0.32043363027358418 0 0.68777432594363841 0.31447353261427252 0.31366778418247038 0.69380980079964416 0.1619694349440581 0 0.5003997205654479 0.21136633249797621 0.2258422409314382 0.6104699881764214 0.32043363027358418 0 0.68777432594363841 0.31447353261427252 0.31366778418247038 0.80839867011859301 0.31807971531731721 0 0.69380980079964416 0.1619694349440581 0 0.6104699881764214 0.32043363027358418 0 0.68777432594363841 0.31447353261427252 0.31366778418247038 0.45812322962036273 0.31024977578535839 0 0.5003997205654479 0.21136633249797621 0.2258422409314382 0.50966790549376417 0.16275515618023731 0 0.6104699881764214 0.32043363027358418 0 0.45812322962036273 0.31024977578535839 0 0.5003997205654479 0.21136633249797621 0.2258422409314382 0.6104699881764214 0.32043363027358418 0 0.5004045312576143 0.47050700646456922 0.24963111222780321 0.77713227489941183 0.50036915849493024 0.21774643624003751 0.6104699881764214 0.32043363027358418 0 0.67320508075660079 0.46954769941202479 0 0.5004045312576143 0.47050700646456922 0.24963111222780321 0.5003997205654479 0.21136633249797621 0.2258422409314382 0.6104699881764214 0.32043363027358418 0 0.5004045312576143 0.47050700646456922 0.24963111222780321 0.68777432594363841 0.31447353261427252 0.31366778418247038 0.77713227489941183 0.50036915849493024 0.21774643624003751 0.6104699881764214 0.32043363027358418 0 0.5004045312576143 0.47050700646456922 0.24963111222780321 0.68777432594363841 0.31447353261427252 0.31366778418247038 0.51961524226956368 0.5000000000025091 0 0.6104699881764214 0.32043363027358418 0 0.67320508075660079 0.46954769941202479 0 0.5004045312576143 0.47050700646456922 0.24963111222780321 0.45812322962036273 0.31024977578535839 0 0.51961524226956368 0.5000000000025091 0 0.6104699881764214 0.32043363027358418 0 0.5004045312576143 0.47050700646456922 0.24963111222780321 0.77713227489941183 0.50036915849493024 0.21774643624003751 0.80839867011859301 0.31807971531731721 0 0.6104699881764214 0.32043363027358418 0 0.67320508075660079 0.46954769941202479 0 0.7504488434426726 0.53051757989633308 0.49836643074154852 0.50000000000001332 0.49999999999999561 0.49999999999999561 0.68777432594363841 0.31447353261427252 0.31366778418247038 0.50073570207385831 0.24848280280289631 0.52886631355986169 0.7504488434426726 0.53051757989633308 0.49836643074154852 0.68777432594363841 0.31447353261427252 0.31366778418247038 0.77973766487723961 0.22090161127815711 0.50014622462635805 0.50073570207385831 0.24848280280289631 0.52886631355986169 0.7504488434426726 0.53051757989633308 0.49836643074154852 0.5004045312576143 0.47050700646456922 0.24963111222780321 0.50000000000001332 0.49999999999999561 0.49999999999999561 0.68777432594363841 0.31447353261427252 0.31366778418247038 0.7504488434426726 0.53051757989633308 0.49836643074154852 0.77713227489941183 0.50036915849493024 0.21774643624003751 0.5004045312576143 0.47050700646456922 0.24963111222780321 0.68777432594363841 0.31447353261427252 0.31366778418247038 0.5003997205654479 0.21136633249797621 0.2258422409314382 0.5004045312576143 0.47050700646456922 0.24963111222780321 0.68777432594363841 0.31447353261427252 0.31366778418247038 0.50073570207385831 0.24848280280289631 0.52886631355986169 0.5004045312576143 0.47050700646456922 0.24963111222780321 0.50000000000001332 0.49999999999999561 0.49999999999999561 0.68777432594363841 0.31447353261427252 0.31366778418247038 0.50073570207385831 0.24848280280289631 0.52886631355986169 0.68777432594363841 0.31447353261427252 0.31366778418247038 0.66852282575985944 0 0.3853248791658106 0.83057691269884504 0 0.30018449338884379 0.77973766487723961 0.22090161127815711 0.50014622462635805 0.68592116352011878 0 0.1724872797865501 0.68777432594363841 0.31447353261427252 0.31366778418247038 0.66852282575985944 0 0.3853248791658106 0.83057691269884504 0 0.30018449338884379 0.47688326899416439 0 0.31741132792405607 0.5003997205654479 0.21136633249797621 0.2258422409314382 0.66852282575985944 0 0.3853248791658106 0.50073570207385831 0.24848280280289631 0.52886631355986169 0.66852282575985944 0 0.3853248791658106 0.77973766487723961 0.22090161127815711 0.50014622462635805 0.68969697123394857 0 0.54179813558228873 0.50073570207385831 0.24848280280289631 0.52886631355986169 0.68592116352011878 0 0.1724872797865501 0.5003997205654479 0.21136633249797621 0.2258422409314382 0.68777432594363841 0.31447353261427252 0.31366778418247038 0.66852282575985944 0 0.3853248791658106 0.5003997205654479 0.21136633249797621 0.2258422409314382 0.68777432594363841 0.31447353261427252 0.31366778418247038 0.66852282575985944 0 0.3853248791658106 0.50073570207385831 0.24848280280289631 0.52886631355986169 0.68777432594363841 0.31447353261427252 0.31366778418247038 0.66852282575985944 0 0.3853248791658106 0.77973766487723961 0.22090161127815711 0.50014622462635805 0.50073570207385831 0.24848280280289631 0.52886631355986169 0.47688326899416439 0 0.31741132792405607 0.68592116352011878 0 0.1724872797865501 0.5003997205654479 0.21136633249797621 0.2258422409314382 0.66852282575985944 0 0.3853248791658106 0.47688326899416439 0 0.31741132792405607 0.50000000000250922 0 0.48038475773043671 0.66852282575985944 0 0.3853248791658106 0.50073570207385831 0.24848280280289631 0.52886631355986169 0.50000000000250922 0 0.48038475773043671 0.66852282575985944 0 0.3853248791658106 0.68969697123394857 0 0.54179813558228873 0.50073570207385831 0.24848280280289631 0.52886631355986169 0.66852282575985944 0 0.3853248791658106 0.83534964916824084 0 0.4902996892628636 0.77973766487723961 0.22090161127815711 0.50014622462635805 0.68969697123394857 0 0.54179813558228873 0.68777432594363841 0.31447353261427252 0.31366778418247038 0.83057691269884504 0 0.30018449338884379 1 0.18804489794556911 0.3161072616634244 0.77973766487723961 0.22090161127815711 0.50014622462635805 1 0.14641016151453831 0.14641016151419689 0.68777432594363841 0.31447353261427252 0.31366778418247038 0.83057691269884504 0 0.30018449338884379 1 0.18804489794556911 0.3161072616634244 0.66852282575985944 0 0.3853248791658106 0.83057691269884504 0 0.30018449338884379 0.83534964916824084 0 0.4902996892628636 0.77973766487723961 0.22090161127815711 0.50014622462635805 0.83057691269884504 0 0.30018449338884379 0.83534964916824084 0 0.4902996892628636 1 0.18804489794556911 0.3161072616634244 0.77973766487723961 0.22090161127815711 0.50014622462635805 0.83057691269884504 0 0.30018449338884379 0.83534964916824084 0 0.4902996892628636 1 0 0.3999999999989749 1 0.18804489794556911 0.3161072616634244 0.83534964916824084 0 0.4902996892628636 1 0 0.3999999999989749 1 0.162755156180173 0.50966790549372887 1 0 0.59999999999894682 0.83534964916824084 0 0.4902996892628636 1 0 0.3999999999989749 1 0.18804489794556911 0.3161072616634244 1 0.162755156180173 0.50966790549372887 1 0 0.19999999999955789 0.83057691269884504 0 0.30018449338884379 1 0 0.3999999999989749 1 0.18804489794556911 0.3161072616634244 1 0.18804489794556911 0.3161072616634244 1 0.31024977578542368 0.45812322962028301 1 0.162755156180173 0.50966790549372887 0.77973766487723961 0.22090161127815711 0.50014622462635805 0.83534964916824084 0 0.4902996892628636 1 0.18804489794556911 0.3161072616634244 1 0.162755156180173 0.50966790549372887 0.77973766487723961 0.22090161127815711 0.50014622462635805 0.7504488434426726 0.53051757989633308 0.49836643074154852 0.77713227489941183 0.50036915849493024 0.21774643624003751 0.68777432594363841 0.31447353261427252 0.31366778418247038 1 0.39615100178016449 0.32925244736082498 0.68777432594363841 0.31447353261427252 0.31366778418247038 1 0.18804489794556911 0.3161072616634244 1 0.31024977578542368 0.45812322962028301 1 0.39615100178016449 0.32925244736082498 0.7504488434426726 0.53051757989633308 0.49836643074154852 0.68777432594363841 0.31447353261427252 0.31366778418247038 1 0.31024977578542368 0.45812322962028301 0.77973766487723961 0.22090161127815711 0.50014622462635805 1 0.30074819035868428 0.16929708765640439 0.68777432594363841 0.31447353261427252 0.31366778418247038 1 0.18804489794556911 0.3161072616634244 1 0.39615100178016449 0.32925244736082498 0.68777432594363841 0.31447353261427252 0.31366778418247038 1 0.18804489794556911 0.3161072616634244 1 0.31024977578542368 0.45812322962028301 0.77973766487723961 0.22090161127815711 0.50014622462635805 0.77713227489941183 0.50036915849493024 0.21774643624003751 1 0.30074819035868428 0.16929708765640439 0.68777432594363841 0.31447353261427252 0.31366778418247038 1 0.39615100178016449 0.32925244736082498 0.7504488434426726 0.53051757989633308 0.49836643074154852 0.68777432594363841 0.31447353261427252 0.31366778418247038 1 0.31024977578542368 0.45812322962028301 1 0.39615100178016449 0.32925244736082498 1 0.60020898676431722 0.32446581821274012 0.77713227489941183 0.50036915849493024 0.21774643624003751 1 0.49836539647890021 0.17226134197269399 1 0.39615100178016449 0.32925244736082498 0.7504488434426726 0.53051757989633308 0.49836643074154852 1 0.31024977578542368 0.45812322962028301 1 0.39615100178016449 0.32925244736082498 1 0.50000000000229983 0.51961524226898759 0.7504488434426726 0.53051757989633308 0.49836643074154852 1 0.33579115324550912 0.59952339316293046 0.68742751001967084 0.31250796680084852 0.687427510020161 0.78019141325921404 0.49972466465542442 0.78019141325930785 1 0.39076805646076263 0.7272421105028648 1 0.33579115324550912 0.59952339316293046 0.68742751001967084 0.31250796680084852 0.687427510020161 0.81599560342209843 0.22280203704001911 0.81599560342233202 0.7504488434426726 0.53051757989633308 0.49836643074154852 1 0.33579115324550912 0.59952339316293046 1 0.53045230059030524 0.6732050807565132 1 0.50000000000229983 0.51961524226898759 0.7504488434426726 0.53051757989633308 0.49836643074154852 1 0.31024977578542368 0.45812322962028301 1 0.33579115324550912 0.59952339316293046 0.77973766487723961 0.22090161127815711 0.50014622462635805 1 0.33579115324550912 0.59952339316293046 0.77973766487723961 0.22090161127815711 0.50014622462635805 0.68742751001967084 0.31250796680084852 0.687427510020161 0.81599560342209843 0.22280203704001911 0.81599560342233202 0.7504488434426726 0.53051757989633308 0.49836643074154852 1 0.33579115324550912 0.59952339316293046 0.77973766487723961 0.22090161127815711 0.50014622462635805 0.68742751001967084 0.31250796680084852 0.687427510020161 0.7504488434426726 0.53051757989633308 0.49836643074154852 1 0.33579115324550912 0.59952339316293046 0.78019141325921404 0.49972466465542442 0.78019141325930785 1 0.53045230059030524 0.6732050807565132 1 0.39076805646076263 0.7272421105028648 1 0.33579115324550912 0.59952339316293046 0.68742751001967084 0.31250796680084852 0.687427510020161 0.78019141325921404 0.49972466465542442 0.78019141325930785 0.7504488434426726 0.53051757989633308 0.49836643074154852 1 0.31024977578542368 0.45812322962028301 1 0.33579115324550912 0.59952339316293046 1 0.50000000000229983 0.51961524226898759 1 0.39076805646076263 0.7272421105028648 1 0.33579115324550912 0.59952339316293046 0.78019141325921404 0.49972466465542442 0.78019141325930785 1 0.53045230059030524 0.6732050807565132 1 0.39076805646076263 0.7272421105028648 1 0.33579115324550912 0.59952339316293046 1 0.1912596090855686 0.70565701451953711 0.81599560342209843 0.22280203704001911 0.81599560342233202 1 0.31024977578542368 0.45812322962028301 1 0.33579115324550912 0.59952339316293046 1 0.162755156180173 0.50966790549372887 0.77973766487723961 0.22090161127815711 0.50014622462635805 1 0.162755156180173 0.50966790549372887 1 0.1912596090855686 0.70565701451953711 0.81469961246449951 0 0.68914937826112133 0.77973766487723961 0.22090161127815711 0.50014622462635805 0.81469961246449951 0 0.68914937826112133 0.77973766487723961 0.22090161127815711 0.50014622462635805 0.68742751001967084 0.31250796680084852 0.687427510020161 0.81599560342209843 0.22280203704001911 0.81599560342233202 1 0.1912596090855686 0.70565701451953711 0.81469961246449951 0 0.68914937826112133 0.77973766487723961 0.22090161127815711 0.50014622462635805 0.81599560342209843 0.22280203704001911 0.81599560342233202 1 0.33579115324550912 0.59952339316293046 1 0.1912596090855686 0.70565701451953711 0.77973766487723961 0.22090161127815711 0.50014622462635805 0.81599560342209843 0.22280203704001911 0.81599560342233202 1 0.33579115324550912 0.59952339316293046 1 0.162755156180173 0.50966790549372887 1 0.1912596090855686 0.70565701451953711 0.77973766487723961 0.22090161127815711 0.50014622462635805 1 0.1912596090855686 0.70565701451953711 1 0 0.59999999999894682 0.81469961246449951 0 0.68914937826112133 1 0 0.79999999999947335 1 0.162755156180173 0.50966790549372887 1 0.1912596090855686 0.70565701451953711 1 0 0.59999999999894682 0.81469961246449951 0 0.68914937826112133 0.83534964916824084 0 0.4902996892628636 1 0.162755156180173 0.50966790549372887 1 0 0.59999999999894682 0.81469961246449951 0 0.68914937826112133 0.83534964916824084 0 0.4902996892628636 0.81469961246449951 0 0.68914937826112133 0.77973766487723961 0.22090161127815711 0.50014622462635805 0.68969697123394857 0 0.54179813558228873 0.83534964916824084 0 0.4902996892628636 1 0.162755156180173 0.50966790549372887 0.81469961246449951 0 0.68914937826112133 0.77973766487723961 0.22090161127815711 0.50014622462635805 0.68969697123394857 0 0.54179813558228873 0.6002015905170176 0 0.67551889168744117 0.50073570207385831 0.24848280280289631 0.52886631355986169 0.68742751001967084 0.31250796680084852 0.687427510020161 0.81469961246449951 0 0.68914937826112133 0.68969697123394857 0 0.54179813558228873 0.6002015905170176 0 0.67551889168744117 0.68742751001967084 0.31250796680084852 0.687427510020161 0.81469961246449951 0 0.68914937826112133 0.77973766487723961 0.22090161127815711 0.50014622462635805 0.68969697123394857 0 0.54179813558228873 0.68742751001967084 0.31250796680084852 0.687427510020161 0.6002015905170176 0 0.67551889168744117 0.68742751001967084 0.31250796680084852 0.687427510020161 0.50084626324420545 0.22238844715913 0.78084811589659187 0.69447607299129699 0 0.84099946107689361 0.77973766487723961 0.22090161127815711 0.50014622462635805 0.68969697123394857 0 0.54179813558228873 0.50073570207385831 0.24848280280289631 0.52886631355986169 0.68742751001967084 0.31250796680084852 0.687427510020161 0.6002015905170176 0 0.67551889168744117 0.50073570207385831 0.24848280280289631 0.52886631355986169 0.68742751001967084 0.31250796680084852 0.687427510020161 0.50084626324420545 0.22238844715913 0.78084811589659187 0.81469961246449951 0 0.68914937826112133 0.6002015905170176 0 0.67551889168744117 0.68742751001967084 0.31250796680084852 0.687427510020161 0.81599560342209843 0.22280203704001911 0.81599560342233202 0.50000000000250922 0 0.48038475773043671 0.68969697123394857 0 0.54179813558228873 0.6002015905170176 0 0.67551889168744117 0.50073570207385831 0.24848280280289631 0.52886631355986169 0.50000000000001332 0.49999999999999561 0.49999999999999561 0.50073570207385831 0.24848280280289631 0.52886631355986169 0.68742751001967084 0.31250796680084852 0.687427510020161 0.49816183246753282 0.5307146639261795 0.75045686993209071 0.7504488434426726 0.53051757989633308 0.49836643074154852 0.50000000000001332 0.49999999999999561 0.49999999999999561 0.50073570207385831 0.24848280280289631 0.52886631355986169 0.68742751001967084 0.31250796680084852 0.687427510020161 0.7504488434426726 0.53051757989633308 0.49836643074154852 0.50000000000001332 0.49999999999999561 0.49999999999999561 0.68742751001967084 0.31250796680084852 0.687427510020161 0.49816183246753282 0.5307146639261795 0.75045686993209071 0.7504488434426726 0.53051757989633308 0.49836643074154852 0.68742751001967084 0.31250796680084852 0.687427510020161 0.78019141325921404 0.49972466465542442 0.78019141325930785 0.49816183246753282 0.5307146639261795 0.75045686993209071 0.50073570207385831 0.24848280280289631 0.52886631355986169 0.68742751001967084 0.31250796680084852 0.687427510020161 0.50084626324420545 0.22238844715913 0.78084811589659187 0.49816183246753282 0.5307146639261795 0.75045686993209071 0.7504488434426726 0.53051757989633308 0.49836643074154852 0.77973766487723961 0.22090161127815711 0.50014622462635805 0.50073570207385831 0.24848280280289631 0.52886631355986169 0.68742751001967084 0.31250796680084852 0.687427510020161 0.59952339316492498 0.33579115324593939 1 0.50084626324420545 0.22238844715913 0.78084811589659187 0.49816183246753282 0.5307146639261795 0.75045686993209071 0.45812322962173568 0.31024977578554058 1 0.68742751001967084 0.31250796680084852 0.687427510020161 0.72724211050425436 0.39076805646176382 1 0.59952339316492498 0.33579115324593939 1 0.81599560342209843 0.22280203704001911 0.81599560342233202 0.68742751001967084 0.31250796680084852 0.687427510020161 0.59952339316492498 0.33579115324593939 1 0.78019141325921404 0.49972466465542442 0.78019141325930785 0.49816183246753282 0.5307146639261795 0.75045686993209071 0.68742751001967084 0.31250796680084852 0.687427510020161 0.59952339316492498 0.33579115324593939 1 0.50084626324420545 0.22238844715913 0.78084811589659187 0.81599560342209843 0.22280203704001911 0.81599560342233202 0.68742751001967084 0.31250796680084852 0.687427510020161 0.59952339316492498 0.33579115324593939 1 0.50084626324420545 0.22238844715913 0.78084811589659187 0.49816183246753282 0.5307146639261795 0.75045686993209071 0.68742751001967084 0.31250796680084852 0.687427510020161 0.72724211050425436 0.39076805646176382 1 0.59952339316492498 0.33579115324593939 1 0.78019141325921404 0.49972466465542442 0.78019141325930785 0.59952339316492498 0.33579115324593939 1 0.78019141325921404 0.49972466465542442 0.78019141325930785 0.67320508075671459 0.53045230059073867 1 0.49816183246753282 0.5307146639261795 0.75045686993209071 0.72724211050425436 0.39076805646176382 1 0.59952339316492498 0.33579115324593939 1 0.70565701452089868 0.1912596090858541 1 0.81599560342209843 0.22280203704001911 0.81599560342233202 0.72724211050425436 0.39076805646176382 1 0.59952339316492498 0.33579115324593939 1 0.78019141325921404 0.49972466465542442 0.78019141325930785 0.67320508075671459 0.53045230059073867 1 0.59952339316492498 0.33579115324593939 1 0.51961524226934941 0.50000000000250611 1 0.49816183246753282 0.5307146639261795 0.75045686993209071 0.45812322962173568 0.31024977578554058 1 0.59952339316492498 0.33579115324593939 1 0.67320508075671459 0.53045230059073867 1 0.51961524226934941 0.50000000000250611 1 0.49816183246753282 0.5307146639261795 0.75045686993209071 0.59952339316492498 0.33579115324593939 1 0.50966790549576724 0.1627551561802443 1 0.50084626324420545 0.22238844715913 0.78084811589659187 0.45812322962173568 0.31024977578554058 1 0.50966790549576724 0.1627551561802443 1 0.50084626324420545 0.22238844715913 0.78084811589659187 0.69447607299129699 0 0.84099946107689361 0.70565701452089868 0.1912596090858541 1 0.68742751001967084 0.31250796680084852 0.687427510020161 0.50084626324420545 0.22238844715913 0.78084811589659187 0.69447607299129699 0 0.84099946107689361 0.81599560342209843 0.22280203704001911 0.81599560342233202 0.50084626324420545 0.22238844715913 0.78084811589659187 0.69447607299129699 0 0.84099946107689361 0.70565701452089868 0.1912596090858541 1 0.81599560342209843 0.22280203704001911 0.81599560342233202 0.59952339316492498 0.33579115324593939 1 0.50084626324420545 0.22238844715913 0.78084811589659187 0.70565701452089868 0.1912596090858541 1 0.81599560342209843 0.22280203704001911 0.81599560342233202 0.59952339316492498 0.33579115324593939 1 0.50966790549576724 0.1627551561802443 1 0.50084626324420545 0.22238844715913 0.78084811589659187 0.70565701452089868 0.1912596090858541 1 0.6002015905170176 0 0.67551889168744117 0.68742751001967084 0.31250796680084852 0.687427510020161 0.69447607299129699 0 0.84099946107689361 0.81599560342209843 0.22280203704001911 0.81599560342233202 0.6002015905170176 0 0.67551889168744117 0.50084626324420545 0.22238844715913 0.78084811589659187 0.69447607299129699 0 0.84099946107689361 0.49836539647917322 0 0.82773865802723501 0.50966790549576724 0.1627551561802443 1 0.50084626324420545 0.22238844715913 0.78084811589659187 0.69447607299129699 0 0.84099946107689361 0.49836539647917322 0 0.82773865802723501 0.50966790549576724 0.1627551561802443 1 0.60000000000138687 0 1 0.69447607299129699 0 0.84099946107689361 0.49836539647917322 0 0.82773865802723501 0.50966790549576724 0.1627551561802443 1 0.60000000000138687 0 1 0.49836539647917322 0 0.82773865802723501 0.40000000000166441 0 1 0.50966790549576724 0.1627551561802443 1 0.60000000000138687 0 1 0.69447607299129699 0 0.84099946107689361 0.70565701452089868 0.1912596090858541 1 0.60000000000138687 0 1 0.69447607299129699 0 0.84099946107689361 0.70565701452089868 0.1912596090858541 1 0.79999999999999982 0 1 0.81469961246449951 0 0.68914937826112133 0.6002015905170176 0 0.67551889168744117 0.69447607299129699 0 0.84099946107689361 0.81599560342209843 0.22280203704001911 0.81599560342233202 0.69447607299129699 0 0.84099946107689361 0.70565701452089868 0.1912596090858541 1 0.85358983848646974 0.14641016151341191 1 0.81599560342209843 0.22280203704001911 0.81599560342233202 0.70565701452089868 0.1912596090858541 1 0.85358983848646974 0.14641016151341191 1 0.81599560342209843 0.22280203704001911 0.81599560342233202 0.85173693729199718 0.30007817960516198 1 1 0.1912596090855686 0.70565701451953711 0.81469961246449951 0 0.68914937826112133 0.81599560342209843 0.22280203704001911 0.81599560342233202 0.85358983848570524 0 0.85358983848556425 0.81469961246449951 0 0.68914937826112133 0.69447607299129699 0 0.84099946107689361 0.81599560342209843 0.22280203704001911 0.81599560342233202 0.85358983848570524 0 0.85358983848556425 0.69447607299129699 0 0.84099946107689361 0.85358983848646974 0.14641016151341191 1 0.81599560342209843 0.22280203704001911 0.81599560342233202 0.85358983848570524 0 0.85358983848556425 0.69447607299129699 0 0.84099946107689361 0.70565701452089868 0.1912596090858541 1 0.85358983848646974 0.14641016151341191 1 0.79999999999999982 0 1 0.69447607299129699 0 0.84099946107689361 0.85358983848646974 0.14641016151341191 1 0.85358983848570524 0 0.85358983848556425 0.79999999999999982 0 1 0.85358983848646974 0.14641016151341191 1 0.85358983848570524 0 0.85358983848556425 1 0 1 1 0.14641016151333891 0.85358983848640169 0.85358983848646974 0.14641016151341191 1 0.85358983848570524 0 0.85358983848556425 0.79999999999999982 0 1 1 0 1 0.85358983848646974 0.14641016151341191 1 1 0 1 1 0.14641016151333891 0.85358983848640169 1 0.19999999999955789 1 0.85358983848570524 0 0.85358983848556425 1 0 1 1 0 0.79999999999947335 1 0.14641016151333891 0.85358983848640169 1 0.1912596090855686 0.70565701451953711 0.81469961246449951 0 0.68914937826112133 0.85358983848570524 0 0.85358983848556425 1 0 0.79999999999947335 1 0.1912596090855686 0.70565701451953711 0.85358983848570524 0 0.85358983848556425 1 0 0.79999999999947335 1 0.14641016151333891 0.85358983848640169 1 0.1912596090855686 0.70565701451953711 0.81599560342209843 0.22280203704001911 0.81599560342233202 1 0.14641016151333891 0.85358983848640169 1 0.30007817960499339 0.85173693729139244 1 0.1912596090855686 0.70565701451953711 0.81599560342209843 0.22280203704001911 0.81599560342233202 0.85358983848570524 0 0.85358983848556425 1 0.14641016151333891 0.85358983848640169 0.85358983848646974 0.14641016151341191 1 0.81599560342209843 0.22280203704001911 0.81599560342233202 1 0.19999999999955789 1 0.85173693729199718 0.30007817960516198 1 0.85358983848646974 0.14641016151341191 1 0.81599560342209843 0.22280203704001911 0.81599560342233202 1 0.14641016151333891 0.85358983848640169 1 0.19999999999955789 1 0.81599560342209843 0.22280203704001911 0.81599560342233202 1 0.14641016151333891 0.85358983848640169 1 0.19999999999955789 1 1 0.30007817960499339 0.85173693729139244 0.85358983848646974 0.14641016151341191 1 0.81599560342209843 0.22280203704001911 0.81599560342233202 0.85358983848570524 0 0.85358983848556425 1 0.14641016151333891 0.85358983848640169 1 0.19999999999955789 1 0.85173693729199718 0.30007817960516198 1 1 0.30007817960499339 0.85173693729139244 1 0.3999999999989749 1 0.81599560342209843 0.22280203704001911 0.81599560342233202 1 0.19999999999955789 1 0.85173693729199718 0.30007817960516198 1 1 0.30007817960499339 0.85173693729139244 0.81599560342209843 0.22280203704001911 0.81599560342233202 0.85173693729199718 0.30007817960516198 1 1 0.30007817960499339 0.85173693729139244 0.78019141325921404 0.49972466465542442 0.78019141325930785 0.68742751001967084 0.31250796680084852 0.687427510020161 0.72724211050425436 0.39076805646176382 1 0.81599560342209843 0.22280203704001911 0.81599560342233202 0.78019141325921404 0.49972466465542442 0.78019141325930785 1 0.39076805646076263 0.7272421105028648 0.81599560342209843 0.22280203704001911 0.81599560342233202 1 0.30007817960499339 0.85173693729139244 0.78019141325921404 0.49972466465542442 0.78019141325930785 0.72724211050425436 0.39076805646176382 1 0.81599560342209843 0.22280203704001911 0.81599560342233202 0.85173693729199718 0.30007817960516198 1 0.78019141325921404 0.49972466465542442 0.78019141325930785 1 0.39076805646076263 0.7272421105028648 0.68742751001967084 0.31250796680084852 0.687427510020161 0.81599560342209843 0.22280203704001911 0.81599560342233202 0.78019141325921404 0.49972466465542442 0.78019141325930785 0.85173693729199718 0.30007817960516198 1 1 0.30007817960499339 0.85173693729139244 1 0.48813836695007229 0.84191918937727617 1 0.3999999999989749 1 0.72724211050425436 0.39076805646176382 1 0.70565701452089868 0.1912596090858541 1 0.81599560342209843 0.22280203704001911 0.81599560342233202 0.85173693729199718 0.30007817960516198 1 1 0.39076805646076263 0.7272421105028648 1 0.1912596090855686 0.70565701451953711 0.81599560342209843 0.22280203704001911 0.81599560342233202 1 0.30007817960499339 0.85173693729139244 0.85173693729199718 0.30007817960516198 1 1 0.30007817960499339 0.85173693729139244 1 0.48813836695007229 0.84191918937727617 0.78019141325921404 0.49972466465542442 0.78019141325930785 1 0.39076805646076263 0.7272421105028648 1 0.30007817960499339 0.85173693729139244 1 0.48813836695007229 0.84191918937727617 0.78019141325921404 0.49972466465542442 0.78019141325930785 1 0.39076805646076263 0.7272421105028648 1 0.48813836695007229 0.84191918937727617 0.78019141325921404 0.49972466465542442 0.78019141325930785 1 0.53045230059030524 0.6732050807565132 0.72724211050425436 0.39076805646176382 1 0.78019141325921404 0.49972466465542442 0.78019141325930785 0.84191918937756771 0.48813836695034618 1 0.67320508075671459 0.53045230059073867 1 0.72724211050425436 0.39076805646176382 1 0.85173693729199718 0.30007817960516198 1 0.78019141325921404 0.49972466465542442 0.78019141325930785 0.84191918937756771 0.48813836695034618 1 0.85173693729199718 0.30007817960516198 1 1 0.48813836695007229 0.84191918937727617 0.78019141325921404 0.49972466465542442 0.78019141325930785 0.84191918937756771 0.48813836695034618 1 1 0.48813836695007229 0.84191918937727617 0.84191918937756771 0.48813836695034618 1 1 0.3999999999989749 1 1 0.59999999999894682 1 0.85173693729199718 0.30007817960516198 1 1 0.48813836695007229 0.84191918937727617 0.84191918937756771 0.48813836695034618 1 1 0.3999999999989749 1 0.78019141325921404 0.49972466465542442 0.78019141325930785 0.80839867011861499 0.68192028468377774 1 0.77683220420328725 0.81278569633583353 0.81664766512111064 0.68649174659499257 0.68600703198516766 0.6864917465949647 0.78019141325921404 0.49972466465542442 0.78019141325930785 0.80839867011861499 0.68192028468377774 1 1 0.68192028468364885 0.80839867011854549 0.77683220420328725 0.81278569633583353 0.81664766512111064 1 0.48813836695007229 0.84191918937727617 0.84191918937756771 0.48813836695034618 1 1 0.59999999999894682 1 1 0.68192028468364885 0.80839867011854549 0.78019141325921404 0.49972466465542442 0.78019141325930785 1 0.68192028468364885 0.80839867011854549 0.77683220420328725 0.81278569633583353 0.81664766512111064 0.68649174659499257 0.68600703198516766 0.6864917465949647 0.84191918937756771 0.48813836695034618 1 1 0.59999999999894682 1 0.80839867011861499 0.68192028468377774 1 1 0.68192028468364885 0.80839867011854549 1 0.59999999999894682 1 0.80839867011861499 0.68192028468377774 1 1 0.68192028468364885 0.80839867011854549 1 0.79999999999947335 1 0.78019141325921404 0.49972466465542442 0.78019141325930785 0.84191918937756771 0.48813836695034618 1 0.80839867011861499 0.68192028468377774 1 0.67320508075671459 0.53045230059073867 1 0.78019141325921404 0.49972466465542442 0.78019141325930785 0.84191918937756771 0.48813836695034618 1 0.80839867011861499 0.68192028468377774 1 1 0.68192028468364885 0.80839867011854549 1 0.48813836695007229 0.84191918937727617 0.78019141325921404 0.49972466465542442 0.78019141325930785 1 0.68192028468364885 0.80839867011854549 1 0.53045230059030524 0.6732050807565132 1 0.48813836695007229 0.84191918937727617 0.78019141325921404 0.49972466465542442 0.78019141325930785 0.84191918937756771 0.48813836695034618 1 1 0.68192028468364885 0.80839867011854549 0.7504488434426726 0.53051757989633308 0.49836643074154852 0.78019141325921404 0.49972466465542442 0.78019141325930785 1 0.53045230059030524 0.6732050807565132 1 0.67939035495490308 0.61016512164639347 0.77374673111774417 0.78860835645735528 0.49829081152968557 0.7504488434426726 0.53051757989633308 0.49836643074154852 1 0.67939035495490308 0.61016512164639347 0.68649174659499257 0.68600703198516766 0.6864917465949647 0.77374673111774417 0.78860835645735528 0.49829081152968557 1 0.67939035495490308 0.61016512164639347 1 0.83791821520125753 0.69361520514217179 0.68649174659499257 0.68600703198516766 0.6864917465949647 1 0.68192028468364885 0.80839867011854549 1 0.67939035495490308 0.61016512164639347 0.77683220420328725 0.81278569633583353 0.81664766512111064 0.68649174659499257 0.68600703198516766 0.6864917465949647 0.77374673111774417 0.78860835645735528 0.49829081152968557 1 0.68975022421527898 0.45812322962078778 0.7504488434426726 0.53051757989633308 0.49836643074154852 1 0.67939035495490308 0.61016512164639347 0.7504488434426726 0.53051757989633308 0.49836643074154852 0.78019141325921404 0.49972466465542442 0.78019141325930785 1 0.67939035495490308 0.61016512164639347 0.68649174659499257 0.68600703198516766 0.6864917465949647 0.78019141325921404 0.49972466465542442 0.78019141325930785 1 0.68192028468364885 0.80839867011854549 1 0.67939035495490308 0.61016512164639347 0.68649174659499257 0.68600703198516766 0.6864917465949647 0.78019141325921404 0.49972466465542442 0.78019141325930785 1 0.68192028468364885 0.80839867011854549 1 0.53045230059030524 0.6732050807565132 1 0.67939035495490308 0.61016512164639347 0.7504488434426726 0.53051757989633308 0.49836643074154852 1 0.53045230059030524 0.6732050807565132 1 0.50000000000229983 0.51961524226898759 1 0.67939035495490308 0.61016512164639347 1 0.68975022421527898 0.45812322962078778 0.7504488434426726 0.53051757989633308 0.49836643074154852 1 0.50000000000229983 0.51961524226898759 1 0.67939035495490308 0.61016512164639347 0.77374673111774417 0.78860835645735528 0.49829081152968557 1 0.68975022421527898 0.45812322962078778 1 0.67939035495490308 0.61016512164639347 1 0.83630110503662825 0.50803330197135588 0.77374673111774417 0.78860835645735528 0.49829081152968557 1 0.83791821520125753 0.69361520514217179 0.77683220420328725 0.81278569633583353 0.81664766512111064 0.68649174659499257 0.68600703198516766 0.6864917465949647 0.77374673111774417 0.78860835645735528 0.49829081152968557 0.81346205468287114 1 0.68420958956387889 0.77683220420328725 0.81278569633583353 0.81664766512111064 0.68649174659499257 0.68600703198516766 0.6864917465949647 1 0.67939035495490308 0.61016512164639347 1 0.83791821520125753 0.69361520514217179 0.77683220420328725 0.81278569633583353 0.81664766512111064 0.68649174659499257 0.68600703198516766 0.6864917465949647 1 0.68192028468364885 0.80839867011854549 1 0.67939035495490308 0.61016512164639347 1 0.83791821520125753 0.69361520514217179 0.77683220420328725 0.81278569633583353 0.81664766512111064 0.77374673111774417 0.78860835645735528 0.49829081152968557 1 0.83791821520125753 0.69361520514217179 0.81346205468287114 1 0.68420958956387889 0.77683220420328725 0.81278569633583353 0.81664766512111064 0.77374673111774417 0.78860835645735528 0.49829081152968557 1 0.67939035495490308 0.61016512164639347 1 0.83791821520125753 0.69361520514217179 1 0.83630110503662825 0.50803330197135588 0.77374673111774417 0.78860835645735528 0.49829081152968557 1 0.83791821520125753 0.69361520514217179 1 0.83630110503662825 0.50803330197135588 0.86762395692956074 1 0.5060815484123421 1 0.83791821520125753 0.69361520514217179 1 0.83630110503662825 0.50803330197135588 1 1 0.59999999999894682 0.86762395692956074 1 0.5060815484123421 1 1 0.3999999999989749 1 0.83630110503662825 0.50803330197135588 1 1 0.59999999999894682 0.86762395692956074 1 0.5060815484123421 1 0.83791821520125753 0.69361520514217179 1 1 0.59999999999894682 0.86762395692956074 1 0.5060815484123421 0.81346205468287114 1 0.68420958956387889 0.77374673111774417 0.78860835645735528 0.49829081152968557 0.86762395692956074 1 0.5060815484123421 0.81346205468287114 1 0.68420958956387889 0.68240285647621723 1 0.52310058211166854 0.77374673111774417 0.78860835645735528 0.49829081152968557 1 0.83791821520125753 0.69361520514217179 0.86762395692956074 1 0.5060815484123421 0.81346205468287114 1 0.68420958956387889 1 0.83791821520125753 0.69361520514217179 1 1 0.59999999999894682 0.81346205468287114 1 0.68420958956387889 1 1 0.79999999999947335 1 0.83791821520125753 0.69361520514217179 0.81346205468287114 1 0.68420958956387889 1 1 0.79999999999947335 0.85358983848569092 1 0.85358983848569092 1 0.83791821520125753 0.69361520514217179 1 0.85358983848587056 0.85358983848587056 0.77683220420328725 0.81278569633583353 0.81664766512111064 0.85358983848569092 1 0.85358983848569092 1 0.83791821520125753 0.69361520514217179 1 1 0.79999999999947335 1 0.85358983848587056 0.85358983848587056 0.85358983848569092 1 0.85358983848569092 1 1 1 1 0.79999999999947335 1 1 0.85358983848587056 0.85358983848587056 0.85358983848587056 0.85358983848587056 1 1 1 1 0.85358983848587056 0.85358983848587056 1 0.79999999999947335 1 1 0.85358983848569092 1 0.85358983848569092 1 1 0.79999999999947335 1 1 1 1 0.85358983848587056 0.85358983848587056 0.85358983848569092 1 0.85358983848569092 1 1 1 1 0.85358983848587056 0.85358983848587056 0.85358983848587056 0.85358983848587056 1 0.85358983848569092 1 0.85358983848569092 1 0.68192028468364885 0.80839867011854549 1 0.79999999999947335 1 1 0.85358983848587056 0.85358983848587056 0.85358983848587056 0.85358983848587056 1 0.80839867011861499 0.68192028468377774 1 1 0.68192028468364885 0.80839867011854549 1 0.79999999999947335 1 0.85358983848587056 0.85358983848587056 1 1 0.68192028468364885 0.80839867011854549 1 0.85358983848587056 0.85358983848587056 0.77683220420328725 0.81278569633583353 0.81664766512111064 0.85358983848587056 0.85358983848587056 1 1 0.68192028468364885 0.80839867011854549 1 0.83791821520125753 0.69361520514217179 1 0.85358983848587056 0.85358983848587056 0.77683220420328725 0.81278569633583353 0.81664766512111064 0.80839867011861499 0.68192028468377774 1 0.77683220420328725 0.81278569633583353 0.81664766512111064 0.85358983848587056 0.85358983848587056 1 0.69361520514218133 0.83791821520130205 1 0.80839867011861499 0.68192028468377774 1 1 0.68192028468364885 0.80839867011854549 0.77683220420328725 0.81278569633583353 0.81664766512111064 0.85358983848587056 0.85358983848587056 1 0.77683220420328725 0.81278569633583353 0.81664766512111064 0.85358983848587056 0.85358983848587056 1 0.79999999999947335 1 1 0.85358983848569092 1 0.85358983848569092 0.77683220420328725 0.81278569633583353 0.81664766512111064 0.79999999999947335 1 1 0.85358983848569092 1 0.85358983848569092 0.69981550660938663 1 0.83057691269844081 0.77683220420328725 0.81278569633583353 0.81664766512111064 0.85358983848587056 0.85358983848587056 1 0.79999999999947335 1 1 0.69361520514218133 0.83791821520130205 1 1 0.85358983848587056 0.85358983848587056 0.77683220420328725 0.81278569633583353 0.81664766512111064 0.85358983848587056 0.85358983848587056 1 0.85358983848569092 1 0.85358983848569092 0.81346205468287114 1 0.68420958956387889 0.77683220420328725 0.81278569633583353 0.81664766512111064 0.85358983848569092 1 0.85358983848569092 0.69981550660938663 1 0.83057691269844081 1 0.83791821520125753 0.69361520514217179 0.81346205468287114 1 0.68420958956387889 0.77683220420328725 0.81278569633583353 0.81664766512111064 0.85358983848569092 1 0.85358983848569092 0.77683220420328725 0.81278569633583353 0.81664766512111064 0.69981550660938663 1 0.83057691269844081 0.69361520514218133 0.83791821520130205 1 0.49911199724958061 0.77872228561593948 0.77895350115271889 0.77683220420328725 0.81278569633583353 0.81664766512111064 0.69361520514218133 0.83791821520130205 1 0.61016512164652226 0.67939035495506384 1 0.49911199724958061 0.77872228561593948 0.77895350115271889 0.81346205468287114 1 0.68420958956387889 0.77683220420328725 0.81278569633583353 0.81664766512111064 0.69981550660938663 1 0.83057691269844081 0.6123333432449789 1 0.67837347745467769 0.77683220420328725 0.81278569633583353 0.81664766512111064 0.69981550660938663 1 0.83057691269844081 0.6123333432449789 1 0.67837347745467769 0.49911199724958061 0.77872228561593948 0.77895350115271889 0.77683220420328725 0.81278569633583353 0.81664766512111064 0.79999999999947335 1 1 0.69981550660938663 1 0.83057691269844081 0.69361520514218133 0.83791821520130205 1 0.69981550660938663 1 0.83057691269844081 0.69361520514218133 0.83791821520130205 1 0.59999999999894682 1 1 0.50970031073508926 1 0.83534964916803001 0.79999999999947335 1 1 0.69981550660938663 1 0.83057691269844081 0.69361520514218133 0.83791821520130205 1 0.59999999999894682 1 1 0.80839867011861499 0.68192028468377774 1 0.77683220420328725 0.81278569633583353 0.81664766512111064 0.69361520514218133 0.83791821520130205 1 0.61016512164652226 0.67939035495506384 1 0.69361520514218133 0.83791821520130205 1 0.50803330197137353 0.83630110503667787 1 0.61016512164652226 0.67939035495506384 1 0.49911199724958061 0.77872228561593948 0.77895350115271889 0.69361520514218133 0.83791821520130205 1 0.50803330197137353 0.83630110503667787 1 0.50970031073508926 1 0.83534964916803001 0.49911199724958061 0.77872228561593948 0.77895350115271889 0.50803330197137353 0.83630110503667787 1 0.59999999999894682 1 1 0.50970031073508926 1 0.83534964916803001 0.3999999999989749 1 1 0.69361520514218133 0.83791821520130205 1 0.50803330197137353 0.83630110503667787 1 0.59999999999894682 1 1 0.50970031073508926 1 0.83534964916803001 0.69981550660938663 1 0.83057691269844081 0.69361520514218133 0.83791821520130205 1 0.50970031073508926 1 0.83534964916803001 0.49911199724958061 0.77872228561593948 0.77895350115271889 0.69981550660938663 1 0.83057691269844081 0.50970031073508926 1 0.83534964916803001 0.6123333432449789 1 0.67837347745467769 0.49911199724958061 0.77872228561593948 0.77895350115271889 0.6123333432449789 1 0.67837347745467769 0.68649174659499257 0.68600703198516766 0.6864917465949647 0.49983993748706529 0.75039103705932653 0.52967335724801234 0.49911199724958061 0.77872228561593948 0.77895350115271889 0.77374673111774417 0.78860835645735528 0.49829081152968557 0.6123333432449789 1 0.67837347745467769 0.68240285647621723 1 0.52310058211166854 0.49983993748706529 0.75039103705932653 0.52967335724801234 0.6123333432449789 1 0.67837347745467769 0.49983993748706529 0.75039103705932653 0.52967335724801234 0.45820186441573879 1 0.68969697123405882 0.49911199724958061 0.77872228561593948 0.77895350115271889 0.50970031073508926 1 0.83534964916803001 0.6123333432449789 1 0.67837347745467769 0.45820186441573879 1 0.68969697123405882 0.49911199724958061 0.77872228561593948 0.77895350115271889 0.77374673111774417 0.78860835645735528 0.49829081152968557 0.6123333432449789 1 0.67837347745467769 0.68649174659499257 0.68600703198516766 0.6864917465949647 0.49983993748706529 0.75039103705932653 0.52967335724801234 0.81346205468287114 1 0.68420958956387889 0.77683220420328725 0.81278569633583353 0.81664766512111064 0.6123333432449789 1 0.67837347745467769 0.68649174659499257 0.68600703198516766 0.6864917465949647 0.77683220420328725 0.81278569633583353 0.81664766512111064 0.6123333432449789 1 0.67837347745467769 0.68649174659499257 0.68600703198516766 0.6864917465949647 0.49911199724958061 0.77872228561593948 0.77895350115271889 0.77374673111774417 0.78860835645735528 0.49829081152968557 0.81346205468287114 1 0.68420958956387889 0.6123333432449789 1 0.67837347745467769 0.68649174659499257 0.68600703198516766 0.6864917465949647 0.77374673111774417 0.78860835645735528 0.49829081152968557 0.81346205468287114 1 0.68420958956387889 0.6123333432449789 1 0.67837347745467769 0.68240285647621723 1 0.52310058211166854 0.51961524227008238 1 0.49999999999872219 0.6123333432449789 1 0.67837347745467769 0.49983993748706529 0.75039103705932653 0.52967335724801234 0.45820186441573879 1 0.68969697123405882 0.51961524227008238 1 0.49999999999872219 0.6123333432449789 1 0.67837347745467769 0.68240285647621723 1 0.52310058211166854 0.49983993748706529 0.75039103705932653 0.52967335724801234 0.68649174659499257 0.68600703198516766 0.6864917465949647 0.49816183246753282 0.5307146639261795 0.75045686993209071 0.49983993748706529 0.75039103705932653 0.52967335724801234 0.49911199724958061 0.77872228561593948 0.77895350115271889 0.7504488434426726 0.53051757989633308 0.49836643074154852 0.50000000000001332 0.49999999999999561 0.49999999999999561 0.68649174659499257 0.68600703198516766 0.6864917465949647 0.49816183246753282 0.5307146639261795 0.75045686993209071 0.7504488434426726 0.53051757989633308 0.49836643074154852 0.78019141325921404 0.49972466465542442 0.78019141325930785 0.68649174659499257 0.68600703198516766 0.6864917465949647 0.49816183246753282 0.5307146639261795 0.75045686993209071 0.7504488434426726 0.53051757989633308 0.49836643074154852 0.50000000000001332 0.49999999999999561 0.49999999999999561 0.68649174659499257 0.68600703198516766 0.6864917465949647 0.49983993748706529 0.75039103705932653 0.52967335724801234 0.77374673111774417 0.78860835645735528 0.49829081152968557 0.7504488434426726 0.53051757989633308 0.49836643074154852 0.68649174659499257 0.68600703198516766 0.6864917465949647 0.49983993748706529 0.75039103705932653 0.52967335724801234 0.50000000000001332 0.49999999999999561 0.49999999999999561 0.68649174659499257 0.68600703198516766 0.6864917465949647 0.49816183246753282 0.5307146639261795 0.75045686993209071 0.49983993748706529 0.75039103705932653 0.52967335724801234 0.78019141325921404 0.49972466465542442 0.78019141325930785 0.67320508075671459 0.53045230059073867 1 0.61016512164652226 0.67939035495506384 1 0.49816183246753282 0.5307146639261795 0.75045686993209071 0.78019141325921404 0.49972466465542442 0.78019141325930785 0.68649174659499257 0.68600703198516766 0.6864917465949647 0.61016512164652226 0.67939035495506384 1 0.49816183246753282 0.5307146639261795 0.75045686993209071 0.78019141325921404 0.49972466465542442 0.78019141325930785 0.80839867011861499 0.68192028468377774 1 0.68649174659499257 0.68600703198516766 0.6864917465949647 0.61016512164652226 0.67939035495506384 1 0.77683220420328725 0.81278569633583353 0.81664766512111064 0.68649174659499257 0.68600703198516766 0.6864917465949647 0.61016512164652226 0.67939035495506384 1 0.49911199724958061 0.77872228561593948 0.77895350115271889 0.68649174659499257 0.68600703198516766 0.6864917465949647 0.61016512164652226 0.67939035495506384 1 0.49816183246753282 0.5307146639261795 0.75045686993209071 0.49911199724958061 0.77872228561593948 0.77895350115271889 0.80839867011861499 0.68192028468377774 1 0.77683220420328725 0.81278569633583353 0.81664766512111064 0.68649174659499257 0.68600703198516766 0.6864917465949647 0.61016512164652226 0.67939035495506384 1 0.78019141325921404 0.49972466465542442 0.78019141325930785 0.80839867011861499 0.68192028468377774 1 0.67320508075671459 0.53045230059073867 1 0.61016512164652226 0.67939035495506384 1 0.61016512164652226 0.67939035495506384 1 0.45812322962090041 0.68975022421538157 1 0.49816183246753282 0.5307146639261795 0.75045686993209071 0.49911199724958061 0.77872228561593948 0.77895350115271889 0.50803330197137353 0.83630110503667787 1 0.61016512164652226 0.67939035495506384 1 0.45812322962090041 0.68975022421538157 1 0.49911199724958061 0.77872228561593948 0.77895350115271889 0.61016512164652226 0.67939035495506384 1 0.51961524226934941 0.50000000000250611 1 0.45812322962090041 0.68975022421538157 1 0.49816183246753282 0.5307146639261795 0.75045686993209071 0.67320508075671459 0.53045230059073867 1 0.61016512164652226 0.67939035495506384 1 0.51961524226934941 0.50000000000250611 1 0.49816183246753282 0.5307146639261795 0.75045686993209071 0.32446581821293602 0.60020898676440626 1 0.3115891413135391 0.68758981780459771 0.68521708032990558 0.18453958615733529 0.77655623474864555 0.81613222483915937 0.2184393375098648 0.50004596894495223 0.77634962490704662 0.51961524226934941 0.50000000000250611 1 0.32446581821293602 0.60020898676440626 1 0.49816183246753282 0.5307146639261795 0.75045686993209071 0.32925244736146098 0.39615100178034629 1 0.45812322962090041 0.68975022421538157 1 0.3115891413135391 0.68758981780459771 0.68521708032990558 0.49911199724958061 0.77872228561593948 0.77895350115271889 0.31067093462947892 0.81480288849497895 1 0.32446581821293602 0.60020898676440626 1 0.49816183246753282 0.5307146639261795 0.75045686993209071 0.2184393375098648 0.50004596894495223 0.77634962490704662 0.32925244736146098 0.39615100178034629 1 0.45812322962090041 0.68975022421538157 1 0.49816183246753282 0.5307146639261795 0.75045686993209071 0.3115891413135391 0.68758981780459771 0.68521708032990558 0.49911199724958061 0.77872228561593948 0.77895350115271889 0.32446581821293602 0.60020898676440626 1 0.49816183246753282 0.5307146639261795 0.75045686993209071 0.3115891413135391 0.68758981780459771 0.68521708032990558 0.2184393375098648 0.50004596894495223 0.77634962490704662 0.51961524226934941 0.50000000000250611 1 0.45812322962090041 0.68975022421538157 1 0.32446581821293602 0.60020898676440626 1 0.49816183246753282 0.5307146639261795 0.75045686993209071 0.45812322962090041 0.68975022421538157 1 0.32446581821293602 0.60020898676440626 1 0.3115891413135391 0.68758981780459771 0.68521708032990558 0.31067093462947892 0.81480288849497895 1 0.45812322962090041 0.68975022421538157 1 0.32446581821293602 0.60020898676440626 1 0.49816183246753282 0.5307146639261795 0.75045686993209071 0.3115891413135391 0.68758981780459771 0.68521708032990558 0.32446581821293602 0.60020898676440626 1 0.3115891413135391 0.68758981780459771 0.68521708032990558 0.31067093462947892 0.81480288849497895 1 0.18453958615733529 0.77655623474864555 0.81613222483915937 0.24769234054476261 0.52242103280823293 0.45098450226372488 0.50000000000001332 0.49999999999999561 0.49999999999999561 0.3115891413135391 0.68758981780459771 0.68521708032990558 0.49983993748706529 0.75039103705932653 0.52967335724801234 0.50000000000001332 0.49999999999999561 0.49999999999999561 0.49816183246753282 0.5307146639261795 0.75045686993209071 0.3115891413135391 0.68758981780459771 0.68521708032990558 0.49983993748706529 0.75039103705932653 0.52967335724801234 0.24769234054476261 0.52242103280823293 0.45098450226372488 0.22516916914780419 0.77057994845201627 0.48187244075707292 0.3115891413135391 0.68758981780459771 0.68521708032990558 0.49983993748706529 0.75039103705932653 0.52967335724801234 0.24769234054476261 0.52242103280823293 0.45098450226372488 0.50000000000001332 0.49999999999999561 0.49999999999999561 0.3115891413135391 0.68758981780459771 0.68521708032990558 0.2184393375098648 0.50004596894495223 0.77634962490704662 0.50000000000001332 0.49999999999999561 0.49999999999999561 0.49816183246753282 0.5307146639261795 0.75045686993209071 0.3115891413135391 0.68758981780459771 0.68521708032990558 0.2184393375098648 0.50004596894495223 0.77634962490704662 0.49816183246753282 0.5307146639261795 0.75045686993209071 0.3115891413135391 0.68758981780459771 0.68521708032990558 0.49983993748706529 0.75039103705932653 0.52967335724801234 0.49911199724958061 0.77872228561593948 0.77895350115271889 0.3115891413135391 0.68758981780459771 0.68521708032990558 0.49983993748706529 0.75039103705932653 0.52967335724801234 0.32448110831226962 1 0.6002015905153204 0.45820186441573879 1 0.68969697123405882 0.3115891413135391 0.68758981780459771 0.68521708032990558 0.32448110831226962 1 0.6002015905153204 0.45820186441573879 1 0.68969697123405882 0.31085062173747541 1 0.81469961246428202 0.3115891413135391 0.68758981780459771 0.68521708032990558 0.49983993748706529 0.75039103705932653 0.52967335724801234 0.45820186441573879 1 0.68969697123405882 0.49911199724958061 0.77872228561593948 0.77895350115271889 0.3115891413135391 0.68758981780459771 0.68521708032990558 0.32448110831226962 1 0.6002015905153204 0.31085062173747541 1 0.81469961246428202 0.18453958615733529 0.77655623474864555 0.81613222483915937 0.22516916914780419 0.77057994845201627 0.48187244075707292 0.3115891413135391 0.68758981780459771 0.68521708032990558 0.49983993748706529 0.75039103705932653 0.52967335724801234 0.32448110831226962 1 0.6002015905153204 0.3115891413135391 0.68758981780459771 0.68521708032990558 0.45820186441573879 1 0.68969697123405882 0.49911199724958061 0.77872228561593948 0.77895350115271889 0.31085062173747541 1 0.81469961246428202 0.22516916914780419 0.77057994845201627 0.48187244075707292 0.32926555316115258 1 0.39615987727515128 0.49983993748706529 0.75039103705932653 0.52967335724801234 0.32448110831226962 1 0.6002015905153204 0.22516916914780419 0.77057994845201627 0.48187244075707292 0.3115891413135391 0.68758981780459771 0.68521708032990558 0.32448110831226962 1 0.6002015905153204 0.15900053892265181 1 0.69447607299016312 0.32926555316115258 1 0.39615987727515128 0.51961524227008238 1 0.49999999999872219 0.49983993748706529 0.75039103705932653 0.52967335724801234 0.32448110831226962 1 0.6002015905153204 0.51961524227008238 1 0.49999999999872219 0.49983993748706529 0.75039103705932653 0.52967335724801234 0.32448110831226962 1 0.6002015905153204 0.45820186441573879 1 0.68969697123405882 0.50970031073508926 1 0.83534964916803001 0.45820186441573879 1 0.68969697123405882 0.49911199724958061 0.77872228561593948 0.77895350115271889 0.31085062173747541 1 0.81469961246428202 0.49911199724958061 0.77872228561593948 0.77895350115271889 0.31067093462947892 0.81480288849497895 1 0.31085062173747541 1 0.81469961246428202 0.18453958615733529 0.77655623474864555 0.81613222483915937 0.3115891413135391 0.68758981780459771 0.68521708032990558 0.49911199724958061 0.77872228561593948 0.77895350115271889 0.31085062173747541 1 0.81469961246428202 0.18453958615733529 0.77655623474864555 0.81613222483915937 0.50803330197137353 0.83630110503667787 1 0.50970031073508926 1 0.83534964916803001 0.49911199724958061 0.77872228561593948 0.77895350115271889 0.31085062173747541 1 0.81469961246428202 0.3115891413135391 0.68758981780459771 0.68521708032990558 0.49911199724958061 0.77872228561593948 0.77895350115271889 0.31067093462947892 0.81480288849497895 1 0.18453958615733529 0.77655623474864555 0.81613222483915937 0.50803330197137353 0.83630110503667787 1 0.50970031073508926 1 0.83534964916803001 0.3999999999989749 1 1 0.31085062173747541 1 0.81469961246428202 0.50803330197137353 0.83630110503667787 1 0.3999999999989749 1 1 0.31067093462947892 0.81480288849497895 1 0.31085062173747541 1 0.81469961246428202 0.50803330197137353 0.83630110503667787 1 0.49911199724958061 0.77872228561593948 0.77895350115271889 0.31067093462947892 0.81480288849497895 1 0.31085062173747541 1 0.81469961246428202 0.50803330197137353 0.83630110503667787 1 0.45812322962090041 0.68975022421538157 1 0.49911199724958061 0.77872228561593948 0.77895350115271889 0.31067093462947892 0.81480288849497895 1 0.3999999999989749 1 1 0.31067093462947892 0.81480288849497895 1 0.31085062173747541 1 0.81469961246428202 0.19999999999955789 1 1 0.31085062173747541 1 0.81469961246428202 0.1464101615132356 1 0.85358983848650494 0.18453958615733529 0.77655623474864555 0.81613222483915937 0.15900053892265181 1 0.69447607299016312 0.31067093462947892 0.81480288849497895 1 0.31085062173747541 1 0.81469961246428202 0.1464101615132356 1 0.85358983848650494 0.18453958615733529 0.77655623474864555 0.81613222483915937 0.31067093462947892 0.81480288849497895 1 0.31085062173747541 1 0.81469961246428202 0.1464101615132356 1 0.85358983848650494 0.19999999999955789 1 1 0.31067093462947892 0.81480288849497895 1 0.1464101615132356 1 0.85358983848650494 0.19999999999955789 1 1 0.14641016151332509 0.85358983848655678 1 0.31067093462947892 0.81480288849497895 1 0.14641016151332509 0.85358983848655678 1 0.18453958615733529 0.77655623474864555 0.81613222483915937 0.15896804272141651 0.69449451837104537 1 0.31067093462947892 0.81480288849497895 1 0.1464101615132356 1 0.85358983848650494 0.14641016151332509 0.85358983848655678 1 0.18453958615733529 0.77655623474864555 0.81613222483915937 0.18453958615733529 0.77655623474864555 0.81613222483915937 0 0.85358983848682146 0.85358983848668035 0 0.80860557108920617 0.70542349973054763 0 0.69992182039579531 0.85173693729137989 0.18453958615733529 0.77655623474864555 0.81613222483915937 0 0.85358983848682146 0.85358983848668035 0.15900053892265181 1 0.69447607299016312 0 0.80860557108920617 0.70542349973054763 0.14641016151332509 0.85358983848655678 1 0.18453958615733529 0.77655623474864555 0.81613222483915937 0 0.79999999999999982 1 0.15896804272141651 0.69449451837104537 1 0.1464101615132356 1 0.85358983848650494 0.14641016151332509 0.85358983848655678 1 0.18453958615733529 0.77655623474864555 0.81613222483915937 0 0.85358983848682146 0.85358983848668035 0.18453958615733529 0.77655623474864555 0.81613222483915937 0 0.85358983848682146 0.85358983848668035 0 0.79999999999999982 1 0 0.69992182039579531 0.85173693729137989 0.14641016151332509 0.85358983848655678 1 0.18453958615733529 0.77655623474864555 0.81613222483915937 0 0.85358983848682146 0.85358983848668035 0 0.79999999999999982 1 0.14641016151332509 0.85358983848655678 1 0 0.85358983848682146 0.85358983848668035 0 0.79999999999999982 1 0 1 1 0.1464101615132356 1 0.85358983848650494 0.14641016151332509 0.85358983848655678 1 0 0.85358983848682146 0.85358983848668035 0 1 1 0.1464101615132356 1 0.85358983848650494 0.19999999999955789 1 1 0.14641016151332509 0.85358983848655678 1 0 1 1 0.1464101615132356 1 0.85358983848650494 0 0.85358983848682146 0.85358983848668035 0 1 1 0 1 0.79999999999947335 0.1464101615132356 1 0.85358983848650494 0.18453958615733529 0.77655623474864555 0.81613222483915937 0 0.85358983848682146 0.85358983848668035 0.15900053892265181 1 0.69447607299016312 0 0.85358983848682146 0.85358983848668035 0 1 0.79999999999947335 0.15900053892265181 1 0.69447607299016312 0 0.80860557108920617 0.70542349973054763 0.1464101615132356 1 0.85358983848650494 0 0.85358983848682146 0.85358983848668035 0 1 0.79999999999947335 0.15900053892265181 1 0.69447607299016312 0 1 0.79999999999947335 0.15900053892265181 1 0.69447607299016312 0 1 0.59999999999894682 0 0.80860557108920617 0.70542349973054763 0.22516916914780419 0.77057994845201627 0.48187244075707292 0.3115891413135391 0.68758981780459771 0.68521708032990558 0.18453958615733529 0.77655623474864555 0.81613222483915937 0 0.80860557108920617 0.70542349973054763 0.15900053892265181 1 0.69447607299016312 0 1 0.59999999999894682 0 0.83630110503664845 0.50803330197135654 0 0.80860557108920617 0.70542349973054763 0.3115891413135391 0.68758981780459771 0.68521708032990558 0.32448110831226962 1 0.6002015905153204 0.18453958615733529 0.77655623474864555 0.81613222483915937 0.15900053892265181 1 0.69447607299016312 0.22516916914780419 0.77057994845201627 0.48187244075707292 0.3115891413135391 0.68758981780459771 0.68521708032990558 0.18453958615733529 0.77655623474864555 0.81613222483915937 0.15900053892265181 1 0.69447607299016312 0.22516916914780419 0.77057994845201627 0.48187244075707292 0.18453958615733529 0.77655623474864555 0.81613222483915937 0.15900053892265181 1 0.69447607299016312 0 0.80860557108920617 0.70542349973054763 0.32448110831226962 1 0.6002015905153204 0.31085062173747541 1 0.81469961246428202 0.18453958615733529 0.77655623474864555 0.81613222483915937 0.15900053892265181 1 0.69447607299016312 0.22516916914780419 0.77057994845201627 0.48187244075707292 0.17226134197293 1 0.49836539647645101 0.32448110831226962 1 0.6002015905153204 0.15900053892265181 1 0.69447607299016312 0.22516916914780419 0.77057994845201627 0.48187244075707292 0.17226134197293 1 0.49836539647645101 0.15900053892265181 1 0.69447607299016312 0 0.83630110503664845 0.50803330197135654 0 1 0.3999999999989749 0.17226134197293 1 0.49836539647645101 0 1 0.59999999999894682 0 0.83630110503664845 0.50803330197135654 0.17226134197293 1 0.49836539647645101 0.15900053892265181 1 0.69447607299016312 0 1 0.59999999999894682 0 0.83630110503664845 0.50803330197135654 0.22516916914780419 0.77057994845201627 0.48187244075707292 0.15900053892265181 1 0.69447607299016312 0 0.83630110503664845 0.50803330197135654 0 0.80860557108920617 0.70542349973054763 0.22516916914780419 0.77057994845201627 0.48187244075707292 0 0.83630110503664845 0.50803330197135654 0 0.80860557108920617 0.70542349973054763 0 0.66416205381430016 0.59944234540882957 0.22516916914780419 0.77057994845201627 0.48187244075707292 0.3115891413135391 0.68758981780459771 0.68521708032990558 0 0.80860557108920617 0.70542349973054763 0 0.66416205381430016 0.59944234540882957 0.3115891413135391 0.68758981780459771 0.68521708032990558 0.18453958615733529 0.77655623474864555 0.81613222483915937 0 0.80860557108920617 0.70542349973054763 0 0.66416205381430016 0.59944234540882957 0.18453958615733529 0.77655623474864555 0.81613222483915937 0 0.80860557108920617 0.70542349973054763 0 0.66416205381430016 0.59944234540882957 0 0.60922248848335758 0.72722573386012812 0.24769234054476261 0.52242103280823293 0.45098450226372488 0.3115891413135391 0.68758981780459771 0.68521708032990558 0 0.66416205381430016 0.59944234540882957 0.2184393375098648 0.50004596894495223 0.77634962490704662 0.3115891413135391 0.68758981780459771 0.68521708032990558 0.18453958615733529 0.77655623474864555 0.81613222483915937 0 0.66416205381430016 0.59944234540882957 0 0.60922248848335758 0.72722573386012812 0 0.66416205381430016 0.59944234540882957 0 0.50000000000237477 0.51961524226909872 0.2184393375098648 0.50004596894495223 0.77634962490704662 0 0.46954769941369501 0.67320508075638175 0.3115891413135391 0.68758981780459771 0.68521708032990558 0 0.66416205381430016 0.59944234540882957 0 0.60922248848335758 0.72722573386012812 0.2184393375098648 0.50004596894495223 0.77634962490704662 0.24769234054476261 0.52242103280823293 0.45098450226372488 0.22516916914780419 0.77057994845201627 0.48187244075707292 0.3115891413135391 0.68758981780459771 0.68521708032990558 0 0.66416205381430016 0.59944234540882957 0.24769234054476261 0.52242103280823293 0.45098450226372488 0 0.66416205381430016 0.59944234540882957 0 0.50000000000237477 0.51961524226909872 0.2184393375098648 0.50004596894495223 0.77634962490704662 0 0.68801781652248195 0.45664527743358641 0.22516916914780419 0.77057994845201627 0.48187244075707292 0 0.83630110503664845 0.50803330197135654 0 0.66416205381430016 0.59944234540882957 0.24769234054476261 0.52242103280823293 0.45098450226372488 0 0.68801781652248195 0.45664527743358641 0 0.66416205381430016 0.59944234540882957 0 0.50000000000237477 0.51961524226909872 0 0.66416205381430016 0.59944234540882957 0 0.60922248848335758 0.72722573386012812 0.2184393375098648 0.50004596894495223 0.77634962490704662 0 0.46954769941369501 0.67320508075638175 0 0.5118616330515301 0.84191918937737908 0 0.69992182039579531 0.85173693729137989 0.2184393375098648 0.50004596894495223 0.77634962490704662 0.15896804272141651 0.69449451837104537 1 0.3115891413135391 0.68758981780459771 0.68521708032990558 0.18453958615733529 0.77655623474864555 0.81613222483915937 0 0.60922248848335758 0.72722573386012812 0.2184393375098648 0.50004596894495223 0.77634962490704662 0.18453958615733529 0.77655623474864555 0.81613222483915937 0 0.69992182039579531 0.85173693729137989 0.2184393375098648 0.50004596894495223 0.77634962490704662 0.15896804272141651 0.69449451837104537 1 0 0.60922248848335758 0.72722573386012812 0 0.5118616330515301 0.84191918937737908 0.2184393375098648 0.50004596894495223 0.77634962490704662 0 0.46954769941369501 0.67320508075638175 0 0.60922248848335758 0.72722573386012812 0 0.5118616330515301 0.84191918937737908 0 0.69992182039579531 0.85173693729137989 0.2184393375098648 0.50004596894495223 0.77634962490704662 0.32446581821293602 0.60020898676440626 1 0.18453958615733529 0.77655623474864555 0.81613222483915937 0.2184393375098648 0.50004596894495223 0.77634962490704662 0.15896804272141651 0.69449451837104537 1 0.18453958615733529 0.77655623474864555 0.81613222483915937 0 0.60922248848335758 0.72722573386012812 0 0.69992182039579531 0.85173693729137989 0.2184393375098648 0.50004596894495223 0.77634962490704662 0.18453958615733529 0.77655623474864555 0.81613222483915937 0 0.80860557108920617 0.70542349973054763 0 0.60922248848335758 0.72722573386012812 0 0.69992182039579531 0.85173693729137989 0.32446581821293602 0.60020898676440626 1 0.2184393375098648 0.50004596894495223 0.77634962490704662 0.15896804272141651 0.69449451837104537 1 0.17226134197275911 0.49836539647894412 1 0 0.5118616330515301 0.84191918937737908 0.2184393375098648 0.50004596894495223 0.77634962490704662 0.15896804272141651 0.69449451837104537 1 0.17226134197275911 0.49836539647894412 1 0.32446581821293602 0.60020898676440626 1 0.31067093462947892 0.81480288849497895 1 0.18453958615733529 0.77655623474864555 0.81613222483915937 0.15896804272141651 0.69449451837104537 1 0.18453958615733529 0.77655623474864555 0.81613222483915937 0 0.79999999999999982 1 0 0.69992182039579531 0.85173693729137989 0.15896804272141651 0.69449451837104537 1 0 0.5118616330515301 0.84191918937737908 0 0.69992182039579531 0.85173693729137989 0.15896804272141651 0.69449451837104537 1 0 0.60000000000138687 1 0 0.79999999999999982 1 0 0.69992182039579531 0.85173693729137989 0.15896804272141651 0.69449451837104537 1 0 0.60000000000138687 1 0 0.5118616330515301 0.84191918937737908 0.15896804272141651 0.69449451837104537 1 0 0.60000000000138687 1 0.17226134197275911 0.49836539647894412 1 0 0.5118616330515301 0.84191918937737908 0 0.60000000000138687 1 0 0.40000000000166441 1 0.17226134197275911 0.49836539647894412 1 0 0.5118616330515301 0.84191918937737908 0 0.40000000000166441 1 0 0.31807971531776508 0.80839867011913336 0.17226134197275911 0.49836539647894412 1 0 0.40000000000166441 1 0 0.31807971531776508 0.80839867011913336 0.16929708765653109 0.30074819035870082 1 0.17226134197275911 0.49836539647894412 1 0 0.31807971531776508 0.80839867011913336 0.16929708765653109 0.30074819035870082 1 0.31426750628021272 0.31270343261798911 0.68761148188185484 0 0.14641016151490169 0.85358983848532144 0.2184393375098648 0.50004596894495223 0.77634962490704662 0 0.31807971531776508 0.80839867011913336 0.16929708765653109 0.30074819035870082 1 0.31426750628021272 0.31270343261798911 0.68761148188185484 0 0.5118616330515301 0.84191918937737908 0.2184393375098648 0.50004596894495223 0.77634962490704662 0 0.31807971531776508 0.80839867011913336 0 0.46954769941369501 0.67320508075638175 0 0.5118616330515301 0.84191918937737908 0.2184393375098648 0.50004596894495223 0.77634962490704662 0 0.31807971531776508 0.80839867011913336 0.17226134197275911 0.49836539647894412 1 0 0.40000000000166441 1 0 0.31807971531776508 0.80839867011913336 0.16929708765653109 0.30074819035870082 1 0 0.20000000000083221 1 0.2184393375098648 0.50004596894495223 0.77634962490704662 0.16929708765653109 0.30074819035870082 1 0.17226134197275911 0.49836539647894412 1 0.32925244736146098 0.39615100178034629 1 0.2184393375098648 0.50004596894495223 0.77634962490704662 0 0.31807971531776508 0.80839867011913336 0.16929708765653109 0.30074819035870082 1 0.17226134197275911 0.49836539647894412 1 0.16929708765653109 0.30074819035870082 1 0.32925244736146098 0.39615100178034629 1 0.31426750628021272 0.31270343261798911 0.68761148188185484 0.31610726166461628 0.1880448979455934 1 0.32446581821293602 0.60020898676440626 1 0.2184393375098648 0.50004596894495223 0.77634962490704662 0.17226134197275911 0.49836539647894412 1 0.32925244736146098 0.39615100178034629 1 0.50084626324420545 0.22238844715913 0.78084811589659187 0.49816183246753282 0.5307146639261795 0.75045686993209071 0.45812322962173568 0.31024977578554058 1 0.31426750628021272 0.31270343261798911 0.68761148188185484 0.49816183246753282 0.5307146639261795 0.75045686993209071 0.2184393375098648 0.50004596894495223 0.77634962490704662 0.32925244736146098 0.39615100178034629 1 0.31426750628021272 0.31270343261798911 0.68761148188185484 0.32925244736146098 0.39615100178034629 1 0.45812322962173568 0.31024977578554058 1 0.31426750628021272 0.31270343261798911 0.68761148188185484 0.31610726166461628 0.1880448979455934 1 0.50084626324420545 0.22238844715913 0.78084811589659187 0.45812322962173568 0.31024977578554058 1 0.31426750628021272 0.31270343261798911 0.68761148188185484 0.31610726166461628 0.1880448979455934 1 0.49816183246753282 0.5307146639261795 0.75045686993209071 0.32925244736146098 0.39615100178034629 1 0.45812322962173568 0.31024977578554058 1 0.31426750628021272 0.31270343261798911 0.68761148188185484 0.2184393375098648 0.50004596894495223 0.77634962490704662 0.16929708765653109 0.30074819035870082 1 0.32925244736146098 0.39615100178034629 1 0.31426750628021272 0.31270343261798911 0.68761148188185484 0.51961524226934941 0.50000000000250611 1 0.49816183246753282 0.5307146639261795 0.75045686993209071 0.32925244736146098 0.39615100178034629 1 0.45812322962173568 0.31024977578554058 1 0.50000000000001332 0.49999999999999561 0.49999999999999561 0.49816183246753282 0.5307146639261795 0.75045686993209071 0.2184393375098648 0.50004596894495223 0.77634962490704662 0.31426750628021272 0.31270343261798911 0.68761148188185484 0.24769234054476261 0.52242103280823293 0.45098450226372488 0.50073570207385831 0.24848280280289631 0.52886631355986169 0.31426750628021272 0.31270343261798911 0.68761148188185484 0.22088738526309029 0.22111069116742441 0.50004796911802929 0.50073570207385831 0.24848280280289631 0.52886631355986169 0.50084626324420545 0.22238844715913 0.78084811589659187 0.49816183246753282 0.5307146639261795 0.75045686993209071 0.31426750628021272 0.31270343261798911 0.68761148188185484 0.24769234054476261 0.52242103280823293 0.45098450226372488 0.50000000000001332 0.49999999999999561 0.49999999999999561 0.50073570207385831 0.24848280280289631 0.52886631355986169 0.31426750628021272 0.31270343261798911 0.68761148188185484 0.50000000000001332 0.49999999999999561 0.49999999999999561 0.50073570207385831 0.24848280280289631 0.52886631355986169 0.49816183246753282 0.5307146639261795 0.75045686993209071 0.31426750628021272 0.31270343261798911 0.68761148188185484 0.24769234054476261 0.52242103280823293 0.45098450226372488 0.50000000000001332 0.49999999999999561 0.49999999999999561 0.2184393375098648 0.50004596894495223 0.77634962490704662 0.31426750628021272 0.31270343261798911 0.68761148188185484 0.24769234054476261 0.52242103280823293 0.45098450226372488 0 0.50000000000237477 0.51961524226909872 0.2184393375098648 0.50004596894495223 0.77634962490704662 0.31426750628021272 0.31270343261798911 0.68761148188185484 0 0.31024977578556651 0.45812322962166352 0.24769234054476261 0.52242103280823293 0.45098450226372488 0 0.32043363027398297 0.61046998817722586 0.22088738526309029 0.22111069116742441 0.50004796911802929 0.24769234054476261 0.52242103280823293 0.45098450226372488 0 0.50000000000237477 0.51961524226909872 0.31426750628021272 0.31270343261798911 0.68761148188185484 0 0.32043363027398297 0.61046998817722586 0 0.50000000000237477 0.51961524226909872 0.2184393375098648 0.50004596894495223 0.77634962490704662 0.31426750628021272 0.31270343261798911 0.68761148188185484 0 0.32043363027398297 0.61046998817722586 0.24769234054476261 0.52242103280823293 0.45098450226372488 0.31426750628021272 0.31270343261798911 0.68761148188185484 0 0.32043363027398297 0.61046998817722586 0.22088738526309029 0.22111069116742441 0.50004796911802929 0 0.50000000000237477 0.51961524226909872 0.2184393375098648 0.50004596894495223 0.77634962490704662 0 0.46954769941369501 0.67320508075638175 0 0.32043363027398297 0.61046998817722586 0.31426750628021272 0.31270343261798911 0.68761148188185484 0 0.32043363027398297 0.61046998817722586 0.22088738526309029 0.22111069116742441 0.50004796911802929 0 0.16196943494415611 0.69380980080116506 0.2184393375098648 0.50004596894495223 0.77634962490704662 0 0.31807971531776508 0.80839867011913336 0.31426750628021272 0.31270343261798911 0.68761148188185484 0 0.32043363027398297 0.61046998817722586 0 0.31807971531776508 0.80839867011913336 0.31426750628021272 0.31270343261798911 0.68761148188185484 0 0.32043363027398297 0.61046998817722586 0 0.16196943494415611 0.69380980080116506 0 0.31024977578556651 0.45812322962166352 0.24769234054476261 0.52242103280823293 0.45098450226372488 0 0.50000000000237477 0.51961524226909872 0 0.32043363027398297 0.61046998817722586 0.2184393375098648 0.50004596894495223 0.77634962490704662 0 0.31807971531776508 0.80839867011913336 0 0.46954769941369501 0.67320508075638175 0 0.32043363027398297 0.61046998817722586 0 0.31024977578556651 0.45812322962166352 0 0.32043363027398297 0.61046998817722586 0.22088738526309029 0.22111069116742441 0.50004796911802929 0 0.16275515618034081 0.50966790549591257 0.31426750628021272 0.31270343261798911 0.68761148188185484 0 0.16196943494415611 0.69380980080116506 0.18818969570926641 0 0.68364148842842287 0.14641016151479661 0 0.85358983848542624 0.31426750628021272 0.31270343261798911 0.68761148188185484 0.22088738526309029 0.22111069116742441 0.50004796911802929 0 0.16196943494415611 0.69380980080116506 0.18818969570926641 0 0.68364148842842287 0.22088738526309029 0.22111069116742441 0.50004796911802929 0 0.16275515618034081 0.50966790549591257 0 0.16196943494415611 0.69380980080116506 0.18818969570926641 0 0.68364148842842287 0 0.32043363027398297 0.61046998817722586 0.22088738526309029 0.22111069116742441 0.50004796911802929 0 0.16275515618034081 0.50966790549591257 0 0.16196943494415611 0.69380980080116506 0 0.16196943494415611 0.69380980080116506 0.18818969570926641 0 0.68364148842842287 0 0 0.60000000000138687 0 0 0.79999999999999982 0 0.16275515618034081 0.50966790549591257 0 0.16196943494415611 0.69380980080116506 0.18818969570926641 0 0.68364148842842287 0 0 0.60000000000138687 0.16370661204827031 0 0.4886650857430957 0 0.16275515618034081 0.50966790549591257 0.18818969570926641 0 0.68364148842842287 0 0 0.60000000000138687 0.16370661204827031 0 0.4886650857430957 0.22088738526309029 0.22111069116742441 0.50004796911802929 0.18818969570926641 0 0.68364148842842287 0.31030302876556398 0 0.54179813558513157 0.16370661204827031 0 0.4886650857430957 0.22088738526309029 0.22111069116742441 0.50004796911802929 0 0.16275515618034081 0.50966790549591257 0.18818969570926641 0 0.68364148842842287 0.31426750628021272 0.31270343261798911 0.68761148188185484 0.18818969570926641 0 0.68364148842842287 0.39615987727709562 0 0.67073444684008199 0.30074819035913852 0 0.83070291234383831 0.50073570207385831 0.24848280280289631 0.52886631355986169 0.31426750628021272 0.31270343261798911 0.68761148188185484 0.22088738526309029 0.22111069116742441 0.50004796911802929 0.31030302876556398 0 0.54179813558513157 0.50073570207385831 0.24848280280289631 0.52886631355986169 0.31426750628021272 0.31270343261798911 0.68761148188185484 0.31030302876556398 0 0.54179813558513157 0.39615987727709562 0 0.67073444684008199 0.50084626324420545 0.22238844715913 0.78084811589659187 0.31426750628021272 0.31270343261798911 0.68761148188185484 0.39615987727709562 0 0.67073444684008199 0.30074819035913852 0 0.83070291234383831 0.31426750628021272 0.31270343261798911 0.68761148188185484 0.22088738526309029 0.22111069116742441 0.50004796911802929 0.18818969570926641 0 0.68364148842842287 0.31030302876556398 0 0.54179813558513157 0.6002015905170176 0 0.67551889168744117 0.50073570207385831 0.24848280280289631 0.52886631355986169 0.50084626324420545 0.22238844715913 0.78084811589659187 0.39615987727709562 0 0.67073444684008199 0.31426750628021272 0.31270343261798911 0.68761148188185484 0.18818969570926641 0 0.68364148842842287 0.31030302876556398 0 0.54179813558513157 0.39615987727709562 0 0.67073444684008199 0.50073570207385831 0.24848280280289631 0.52886631355986169 0.50084626324420545 0.22238844715913 0.78084811589659187 0.31426750628021272 0.31270343261798911 0.68761148188185484 0.39615987727709562 0 0.67073444684008199 0.50000000000250922 0 0.48038475773043671 0.6002015905170176 0 0.67551889168744117 0.50073570207385831 0.24848280280289631 0.52886631355986169 0.39615987727709562 0 0.67073444684008199 0.50000000000250922 0 0.48038475773043671 0.50073570207385831 0.24848280280289631 0.52886631355986169 0.31030302876556398 0 0.54179813558513157 0.39615987727709562 0 0.67073444684008199 0.6002015905170176 0 0.67551889168744117 0.50084626324420545 0.22238844715913 0.78084811589659187 0.39615987727709562 0 0.67073444684008199 0.49836539647917322 0 0.82773865802723501 0.31426750628021272 0.31270343261798911 0.68761148188185484 0.30074819035913852 0 0.83070291234383831 0.31610726166461628 0.1880448979455934 1 0.14641016151432179 0.14641016151432179 1 0.50084626324420545 0.22238844715913 0.78084811589659187 0.31426750628021272 0.31270343261798911 0.68761148188185484 0.30074819035913852 0 0.83070291234383831 0.31610726166461628 0.1880448979455934 1 0.50084626324420545 0.22238844715913 0.78084811589659187 0.30074819035913852 0 0.83070291234383831 0.49836539647917322 0 0.82773865802723501 0.31610726166461628 0.1880448979455934 1 0.50084626324420545 0.22238844715913 0.78084811589659187 0.39615987727709562 0 0.67073444684008199 0.30074819035913852 0 0.83070291234383831 0.49836539647917322 0 0.82773865802723501 0.50966790549576724 0.1627551561802443 1 0.49836539647917322 0 0.82773865802723501 0.40000000000166441 0 1 0.31610726166461628 0.1880448979455934 1 0.30074819035913852 0 0.83070291234383831 0.49836539647917322 0 0.82773865802723501 0.40000000000166441 0 1 0.31610726166461628 0.1880448979455934 1 0.50966790549576724 0.1627551561802443 1 0.50084626324420545 0.22238844715913 0.78084811589659187 0.49836539647917322 0 0.82773865802723501 0.31610726166461628 0.1880448979455934 1 0.50966790549576724 0.1627551561802443 1 0.50084626324420545 0.22238844715913 0.78084811589659187 0.45812322962173568 0.31024977578554058 1 0.31610726166461628 0.1880448979455934 1 0.30074819035913852 0 0.83070291234383831 0.40000000000166441 0 1 0.31610726166461628 0.1880448979455934 1 0.20000000000083221 0 1 0 0.31807971531776508 0.80839867011913336 0.31426750628021272 0.31270343261798911 0.68761148188185484 0 0.16196943494415611 0.69380980080116506 0 0.14641016151490169 0.85358983848532144 0.16929708765653109 0.30074819035870082 1 0.31426750628021272 0.31270343261798911 0.68761148188185484 0.31610726166461628 0.1880448979455934 1 0.14641016151432179 0.14641016151432179 1 0.30074819035913852 0 0.83070291234383831 0.20000000000083221 0 1 0.14641016151479661 0 0.85358983848542624 0.14641016151432179 0.14641016151432179 1 0.31426750628021272 0.31270343261798911 0.68761148188185484 0.30074819035913852 0 0.83070291234383831 0.14641016151479661 0 0.85358983848542624 0.14641016151432179 0.14641016151432179 1 0.30074819035913852 0 0.83070291234383831 0.31610726166461628 0.1880448979455934 1 0.20000000000083221 0 1 0.14641016151432179 0.14641016151432179 1 0.31426750628021272 0.31270343261798911 0.68761148188185484 0.18818969570926641 0 0.68364148842842287 0.30074819035913852 0 0.83070291234383831 0.14641016151479661 0 0.85358983848542624 0.16929708765653109 0.30074819035870082 1 0.31426750628021272 0.31270343261798911 0.68761148188185484 0.14641016151432179 0.14641016151432179 1 0 0.14641016151490169 0.85358983848532144 0.31426750628021272 0.31270343261798911 0.68761148188185484 0.14641016151479661 0 0.85358983848542624 0.14641016151432179 0.14641016151432179 1 0 0.14641016151490169 0.85358983848532144 0.31426750628021272 0.31270343261798911 0.68761148188185484 0 0.16196943494415611 0.69380980080116506 0.14641016151479661 0 0.85358983848542624 0 0.14641016151490169 0.85358983848532144 0 0.31807971531776508 0.80839867011913336 0.16929708765653109 0.30074819035870082 1 0 0.20000000000083221 1 0 0.14641016151490169 0.85358983848532144 0.16929708765653109 0.30074819035870082 1 0.14641016151432179 0.14641016151432179 1 0 0.20000000000083221 1 0 0.14641016151490169 0.85358983848532144 0 0.16196943494415611 0.69380980080116506 0.18818969570926641 0 0.68364148842842287 0.14641016151479661 0 0.85358983848542624 0 0 0.79999999999999982 0 0.16196943494415611 0.69380980080116506 0.14641016151479661 0 0.85358983848542624 0 0.14641016151490169 0.85358983848532144 0 0 0.79999999999999982 0.14641016151432179 0.14641016151432179 1 0 0.20000000000083221 1 0 0.14641016151490169 0.85358983848532144 0 0 1 0.14641016151479661 0 0.85358983848542624 0 0.14641016151490169 0.85358983848532144 0 0 0.79999999999999982 0 0 1 0.20000000000083221 0 1 0.14641016151479661 0 0.85358983848542624 0.14641016151432179 0.14641016151432179 1 0 0 1 0.14641016151479661 0 0.85358983848542624 0.14641016151432179 0.14641016151432179 1 0 0.14641016151490169 0.85358983848532144 0 0 1 
</DataArray>
</Points>
<Cells>
<DataArray type="UInt32" Name="connectivity" format="ascii">
0 1 2 3 4 5 6 7 8 9 10 11 12 13 14 15 16 17 18 19 20 21 22 23 24 25 26 27 28 29 30 31 32 33 34 35 36 37 38 39 40 41 42 43 44 45 46 47 48 49 50 51 52 53 54 55 56 57 58 59 60 61 62 63 64 65 66 67 68 69 70 71 72 73 74 75 76 77 78 79 80 81 82 83 84 85 86 87 88 89 90 91 92 93 94 95 96 97 98 99 100 101 102 103 104 105 106 107 108 109 110 111 112 113 114 115 116 117 118 119 120 121 122 123 124 125 126 127 128 129 130 131 132 133 134 135 136 137 138 139 140 141 142 143 144 145 146 147 148 149 150 151 152 153 154 155 156 157 158 159 160 161 162 163 164 165 166 167 168 169 170 171 172 173 174 175 176 177 178 179 180 181 182 183 184 185 186 187 188 189 190 191 192 193 194 195 196 197 198 199 200 201 202 203 204 205 206 207 208 209 210 211 212 213 214 215 216 217 218 219 220 221 222 223 224 225 226 227 228 229 230 231 232 233 234 235 236 237 238 239 240 241 242 243 244 245 246 247 248 249 250 251 252 253 254 255 256 257 258 259 260 261 262 263 264 265 266 267 268 269 270 271 272 273 274 275 276 277 278 279 280 281 282 283 284 285 286 287 288 289 290 291 292 293 294 295 296 297 298 299 300 301 302 303 304 305 306 307 308 309 310 311 312 313 314 315 316 317 318 319 320 321 322 323 324 325 326 327 328 329 330 331 332 333 334 335 336 337 338 339 340 341 342 343 344 345 346 347 348 349 350 351 352 353 354 355 356 357 358 359 360 361 362 363 364 365 366 367 368 369 370 371 372 373 374 375 376 377 378 379 380 381 382 383 384 385 386 387 388 389 390 391 392 393 394 395 396 397 398 399 400 401 402 403 404 405 406 407 408 409 410 411 412 413 414 415 416 417 418 419 420 421 422 423 424 425 426 427 428 429 430 431 432 433 434 435 436 437 438 439 440 441 442 443 444 445 446 447 448 449 450 451 452 453 454 455 456 457 458 459 460 461 462 463 464 465 466 467 468 469 470 471 472 473 474 475 476 477 478 479 480 481 482 483 484 485 486 487 488 489 490 491 492 493 494 495 496 497 498 499 500 501 502 503 504 505 506 507 508 509 510 511 512 513 514 515 516 517 518 519 520 521 522 523 524 525 526 527 528 529 530 531 532 533 534 535 536 537 538 539 540 541 542 543 544 545 546 547 548 549 550 551 552 553 554 555 556 557 558 559 560 561 562 563 564 565 566 567 568 569 570 571 572 573 574 575 576 577 578 579 580 581 582 583 584 585 586 587 588 589 590 591 592 593 594 595 596 597 598 599 600 601 602 603 604 605 606 607 608 609 610 611 612 613 614 615 616 617 618 619 620 621 622 623 624 625 626 627 628 629 630 631 632 633 634 635 636 637 638 639 640 641 642 643 644 645 646 647 648 649 650 651 652 653 654 655 656 657 658 659 660 661 662 663 664 665 666 667 668 669 670 671 672 673 674 675 676 677 678 679 680 681 682 683 684 685 686 687 688 689 690 691 692 693 694 695 696 697 698 699 700 701 702 703 704 705 706 707 708 709 710 711 712 713 714 715 716 717 718 719 720 721 722 723 724 725 726 727 728 729 730 731 732 733 734 735 736 737 738 739 740 741 742 743 744 745 746 747 748 749 750 751 752 753 754 755 756 757 758 759 760 761 762 763 764 765 766 767 768 769 770 771 772 773 774 775 776 777 778 779 780 781 782 783 784 785 786 787 788 789 790 791 792 793 794 795 796 797 798 799 800 801 802 803 804 805 806 807 808 809 810 811 812 813 814 815 816 817 818 819 820 821 822 823 824 825 826 827 828 829 830 831 832 833 834 835 836 837 838 839 840 841 842 843 844 845 846 847 848 849 850 851 852 853 854 855 856 857 858 859 860 861 862 863 864 865 866 867 868 869 870 871 872 873 874 875 876 877 878 879 880 881 882 883 884 885 886 887 888 889 890 891 892 893 894 895 896 897 898 899 900 901 902 903 904 905 906 907 908 909 910 911 912 913 914 915 916 917 918 919 920 921 922 923 924 925 926 927 928 929 930 931 932 933 934 935 936 937 938 939 940 941 942 943 944 945 946 947 948 949 950 951 952 953 954 955 956 957 958 959 960 961 962 963 964 965 966 967 968 969 970 971 972 973 974 975 976 977 978 979 980 981 982 983 984 985 986 987 988 989 990 991 992 993 994 995 996 997 998 999 1000 1001 1002 1003 1004 1005 1006 1007 1008 1009 1010 1011 1012 1013 1014 1015 1016 1017 1018 1019 1020 1021 1022 1023 1024 1025 1026 1027 1028 1029 1030 1031 1032 1033 1034 1035 1036 1037 1038 1039 1040 1041 1042 1043 1044 1045 1046 1047 1048 1049 1050 1051 1052 1053 1054 1055 1056 1057 1058 1059 1060 1061 1062 1063 1064 1065 1066 1067 1068 1069 1070 1071 1072 1073 1074 1075 1076 1077 1078 1079 1080 1081 1082 1083 1084 1085 1086 1087 1088 1089 1090 1091 1092 1093 1094 1095 1096 1097 1098 1099 1100 1101 1102 1103 1104 1105 1106 1107 1108 1109 1110 1111 1112 1113 1114 1115 1116 1117 1118 1119 1120 1121 1122 1123 1124 1125 1126 1127 1128 1129 1130 1131 1132 1133 1134 1135 1136 1137 1138 1139 1140 1141 1142 1143 1144 1145 1146 1147 1148 1149 1150 1151 1152 1153 1154 1155 1156 1157 1158 1159 1160 1161 1162 1163 1164 1165 1166 1167 1168 1169 1170 1171 1172 1173 1174 1175 1176 1177 1178 1179 1180 1181 1182 1183 1184 1185 1186 1187 1188 1189 1190 1191 1192 1193 1194 1195 1196 1197 1198 1199 1200 1201 1202 1203 1204 1205 1206 1207 1208 1209 1210 1211 1212 1213 1214 1215 1216 1217 1218 1219 1220 1221 1222 1223 1224 1225 1226 1227 1228 1229 1230 1231 1232 1233 1234 1235 1236 1237 1238 1239 1240 1241 1242 1243 1244 1245 1246 1247 1248 1249 1250 1251 1252 1253 1254 1255 1256 1257 1258 1259 1260 1261 1262 1263 1264 1265 1266 1267 1268 1269 1270 1271 1272 1273 1274 1275 1276 1277 1278 1279 1280 1281 1282 1283 1284 1285 1286 1287 1288 1289 1290 1291 1292 1293 1294 1295 1296 1297 1298 1299 1300 1301 1302 1303 1304 1305 1306 1307 1308 1309 1310 1311 1312 1313 1314 1315 1316 1317 1318 1319 1320 1321 1322 1323 1324 1325 1326 1327 1328 1329 1330 1331 1332 1333 1334 1335 1336 1337 1338 1339 1340 1341 1342 1343 1344 1345 1346 1347 1348 1349 1350 1351 1352 1353 1354 1355 1356 1357 1358 1359 1360 1361 1362 1363 1364 1365 1366 1367 1368 1369 1370 1371 1372 1373 1374 1375 1376 1377 1378 1379 1380 1381 1382 1383 1384 1385 1386 1387 1388 1389 1390 1391 1392 1393 1394 1395 1396 1397 1398 1399 1400 1401 1402 1403 1404 1405 1406 1407 1408 1409 1410 1411 1412 1413 1414 1415 1416 1417 1418 1419 1420 1421 1422 1423 1424 1425 1426 1427 1428 1429 1430 1431 1432 1433 1434 1435 1436 1437 1438 1439 1440 1441 1442 1443 1444 1445 1446 1447 1448 1449 1450 1451 1452 1453 1454 1455 1456 1457 1458 1459 1460 1461 1462 1463 1464 1465 1466 1467 1468 1469 1470 1471 1472 1473 1474 1475 1476 1477 1478 1479 1480 1481 1482 1483 1484 1485 1486 1487 1488 1489 1490 1491 1492 1493 1494 1495 1496 1497 1498 1499 1500 1501 1502 1503 1504 1505 1506 1507 1508 1509 1510 1511 1512 1513 1514 1515 1516 1517 1518 1519 1520 1521 1522 1523 1524 1525 1526 1527 1528 1529 1530 1531 1532 1533 1534 1535 1536 1537 1538 1539 1540 1541 1542 1543 1544 1545 1546 1547 1548 1549 1550 1551 1552 1553 1554 1555 1556 1557 1558 1559 1560 1561 1562 1563 1564 1565 1566 1567 1568 1569 1570 1571 1572 1573 1574 1575 1576 1577 1578 1579 1580 1581 1582 1583 1584 1585 1586 1587 1588 1589 1590 1591 1592 1593 1594 1595 1596 1597 1598 1599 1600 1601 1602 1603 1604 1605 1606 1607 1608 1609 1610 1611 1612 1613 1614 1615 1616 1617 1618 1619 1620 1621 1622 1623 1624 1625 1626 1627 1628 1629 1630 1631 1632 1633 1634 1635 1636 1637 1638 1639 1640 1641 1642 1643 1644 1645 1646 1647 1648 1649 1650 1651 1652 1653 1654 1655 1656 1657 1658 1659 1660 1661 1662 1663 1664 1665 1666 1667 1668 1669 1670 1671 1672 1673 1674 1675 1676 1677 1678 1679 1680 1681 1682 1683 1684 1685 1686 1687 1688 1689 1690 1691 1692 1693 1694 1695 1696 1697 1698 1699 1700 1701 1702 1703 1704 1705 1706 1707 1708 1709 1710 1711 1712 1713 1714 1715 1716 1717 1718 1719 1720 1721 1722 1723 1724 1725 1726 1727 1728 1729 1730 1731 1732 1733 1734 1735 1736 1737 1738 1739 1740 1741 1742 1743 1744 1745 1746 1747 1748 1749 1750 1751 1752 1753 1754 1755 1756 1757 1758 1759 1760 1761 1762 1763 1764 1765 1766 1767 1768 1769 1770 1771 1772 1773 1774 1775 1776 1777 1778 1779 1780 1781 1782 1783 1784 1785 1786 1787 1788 1789 1790 1791 1792 1793 1794 1795 1796 1797 1798 1799 1800 1801 1802 1803 1804 1805 1806 1807 1808 1809 1810 1811 1812 1813 1814 1815 1816 1817 1818 1819 1820 1821 1822 1823 1824 1825 1826 1827 1828 1829 1830 1831 1832 1833 1834 1835 1836 1837 1838 1839 1840 1841 1842 1843 1844 1845 1846 1847 1848 1849 1850 1851 1852 1853 1854 1855 1856 1857 1858 1859 1860 1861 1862 1863 1864 1865 1866 1867 1868 1869 1870 1871 1872 1873 1874 1875 1876 1877 1878 1879 1880 1881 1882 1883 1884 1885 1886 1887 1888 1889 1890 1891 1892 1893 1894 1895 1896 1897 1898 1899 1900 1901 1902 1903 1904 1905 1906 1907 1908 1909 1910 1911 1912 1913 1914 1915 1916 1917 1918 1919 1920 1921 1922 1923 1924 1925 1926 1927 1928 1929 1930 1931 1932 1933 1934 1935 1936 1937 1938 1939 1940 1941 1942 1943 1944 1945 1946 1947 1948 1949 1950 1951 1952 1953 1954 1955 1956 1957 1958 1959 1960 1961 1962 1963 1964 1965 1966 1967 1968 1969 1970 1971 1972 1973 1974 1975 1976 1977 1978 1979 1980 1981 1982 1983 1984 1985 1986 1987 1988 1989 1990 1991 1992 1993 1994 1995 1996 1997 1998 1999 2000 2001 2002 2003 2004 2005 2006 2007 2008 2009 2010 2011 2012 2013 2014 2015 2016 2017 2018 2019 2020 2021 2022 2023 2024 2025 2026 2027 2028 2029 2030 2031 2032 2033 2034 2035 2036 2037 2038 2039 2040 2041 2042 2043 2044 2045 2046 2047 2048 2049 2050 2051 2052 2053 2054 2055 2056 2057 2058 2059 2060 2061 2062 2063 2064 2065 2066 2067 2068 2069 2070 2071 2072 2073 2074 2075 2076 2077 2078 2079 2080 2081 2082 2083 2084 2085 2086 2087 2088 2089 2090 2091 2092 2093 2094 2095 2096 2097 2098 2099 2100 2101 2102 2103 2104 2105 2106 2107 2108 2109 2110 2111 2112 2113 2114 2115 2116 2117 2118 2119 2120 2121 2122 2123 2124 2125 2126 2127 2128 2129 2130 2131 2132 2133 2134 2135 2136 2137 2138 2139 2140 2141 2142 2143 2144 2145 2146 2147 2148 2149 2150 2151 2152 2153 2154 2155 2156 2157 2158 2159 2160 2161 2162 2163 2164 2165 2166 2167 2168 2169 2170 2171 2172 2173 2174 2175 2176 2177 2178 2179 2180 2181 2182 2183 2184 2185 2186 2187 2188 2189 2190 2191 2192 2193 2194 2195 2196 2197 2198 2199 2200 2201 2202 2203 2204 2205 2206 2207 2208 2209 2210 2211 2212 2213 2214 2215 2216 2217 2218 2219 2220 2221 2222 2223 2224 2225 2226 2227 2228 2229 2230 2231 2232 2233 2234 2235 2236 2237 2238 2239 2240 2241 2242 2243 2244 2245 2246 2247 2248 2249 2250 2251 2252 2253 2254 2255 2256 2257 2258 2259 2260 2261 2262 2263 2264 2265 2266 2267 2268 2269 2270 2271 2272 2273 2274 2275 2276 2277 2278 2279 2280 2281 2282 2283 2284 2285 2286 2287 2288 2289 2290 2291 2292 2293 2294 2295 2296 2297 2298 2299 2300 2301 2302 2303 2304 2305 2306 2307 2308 2309 2310 2311 2312 2313 2314 2315 2316 2317 2318 2319 2320 2321 2322 2323 2324 2325 2326 2327 2328 2329 2330 2331 2332 2333 2334 2335 2336 2337 2338 2339 2340 2341 2342 2343 2344 2345 2346 2347 2348 2349 2350 2351 2352 2353 2354 2355 2356 2357 2358 2359 2360 2361 2362 2363 2364 2365 2366 2367 2368 2369 2370 2371 2372 2373 2374 2375 2376 2377 2378 2379 2380 2381 2382 2383 2384 2385 2386 2387 2388 2389 2390 2391 2392 2393 2394 2395 2396 2397 2398 2399 2400 2401 2402 2403 2404 2405 2406 2407 2408 2409 2410 2411 2412 2413 2414 2415 2416 2417 2418 2419 2420 2421 2422 2423 2424 2425 2426 2427 2428 2429 2430 2431 2432 2433 2434 2435 2436 2437 2438 2439 2440 2441 2442 2443 2444 2445 2446 2447 2448 2449 2450 2451 2452 2453 2454 2455 2456 2457 2458 2459 2460 2461 2462 2463 2464 2465 2466 2467 2468 2469 2470 2471 2472 2473 2474 2475 2476 2477 2478 2479 2480 2481 2482 2483 2484 2485 2486 2487 2488 2489 2490 2491 2492 2493 2494 2495 2496 2497 2498 2499 2500 2501 2502 2503 2504 2505 2506 2507 2508 2509 2510 2511 2512 2513 2514 2515 2516 2517 2518 2519 2520 2521 2522 2523 2524 2525 2526 2527 2528 2529 2530 2531 2532 2533 2534 2535 2536 2537 2538 2539 2540 2541 2542 2543 2544 2545 2546 2547 2548 2549 2550 2551 2552 2553 2554 2555 2556 2557 2558 2559 2560 2561 2562 2563 2564 2565 2566 2567 2568 2569 2570 2571 2572 2573 2574 2575 2576 2577 2578 2579 2580 2581 2582 2583 2584 2585 2586 2587 2588 2589 2590 2591 2592 2593 2594 2595 2596 2597 2598 2599 2600 2601 2602 2603 2604 2605 2606 2607 2608 2609 2610 2611 2612 2613 2614 2615 2616 2617 2618 2619 2620 2621 2622 2623 2624 2625 2626 2627 2628 2629 2630 2631 2632 2633 2634 2635 2636 2637 2638 2639 2640 2641 2642 2643 2644 2645 2646 2647 2648 2649 2650 2651 2652 2653 2654 2655 2656 2657 2658 2659 2660 2661 2662 2663 2664 2665 2666 2667 2668 2669 2670 2671 2672 2673 2674 2675 2676 2677 2678 2679 2680 2681 2682 2683 2684 2685 2686 2687 2688 2689 2690 2691 2692 2693 2694 2695 2696 2697 2698 2699 2700 2701 2702 2703 2704 2705 2706 2707 2708 2709 2710 2711 2712 2713 2714 2715 2716 2717 2718 2719 2720 2721 2722 2723 2724 2725 2726 2727 2728 2729 2730 2731 2732 2733 2734 2735 2736 2737 2738 2739 2740 2741 2742 2743 2744 2745 2746 2747 2748 2749 2750 2751 2752 2753 2754 2755 2756 2757 2758 2759 2760 2761 2762 2763 2764 2765 2766 2767 2768 2769 2770 2771 2772 2773 2774 2775 2776 2777 2778 2779 2780 2781 2782 2783 2784 2785 2786 2787 2788 2789 2790 2791 2792 2793 2794 2795 2796 2797 2798 2799 2800 2801 2802 2803 2804 2805 2806 2807 2808 2809 2810 2811 2812 2813 2814 2815 2816 2817 2818 2819 2820 2821 2822 2823 2824 2825 2826 2827 2828 2829 2830 2831 2832 2833 2834 2835 2836 2837 2838 2839 2840 2841 2842 2843 2844 2845 2846 2847 2848 2849 2850 2851 2852 2853 2854 2855 2856 2857 2858 2859 2860 2861 2862 2863 2864 2865 2866 2867 2868 2869 2870 2871 2872 2873 2874 2875 
</DataArray>
<DataArray type="UInt32" Name="offsets" format="ascii">
4 8 12 16 20 24 28 32 36 40 44 48 52 56 60 64 68 72 76 80 84 88 92 96 100 104 108 112 116 120 124 128 132 136 140 144 148 152 156 160 164 168 172 176 180 184 188 192 196 200 204 208 212 216 220 224 228 232 236 240 244 248 252 256 260 264 268 272 276 280 284 288 292 296 300 304 308 312 316 320 324 328 332 336 340 344 348 352 356 360 364 368 372 376 380 384 388 392 396 400 404 408 412 416 420 424 428 432 436 440 444 448 452 456 460 464 468 472 476 480 484 488 492 496 500 504 508 512 516 520 524 528 532 536 540 544 548 552 556 560 564 568 572 576 580 584 588 592 596 600 604 608 612 616 620 624 628 632 636 640 644 648 652 656 660 664 668 672 676 680 684 688 692 696 700 704 708 712 716 720 724 728 732 736 740 744 748 752 756 760 764 768 772 776 780 784 788 792 796 800 804 808 812 816 820 824 828 832 836 840 844 848 852 856 860 864 868 872 876 880 884 888 892 896 900 904 908 912 916 920 924 928 932 936 940 944 948 952 956 960 964 968 972 976 980 984 988 992 996 1000 1004 1008 1012 1016 1020 1024 1028 1032 1036 1040 1044 1048 1052 1056 1060 1064 1068 1072 1076 1080 1084 1088 1092 1096 1100 1104 1108 1112 1116 1120 1124 1128 1132 1136 1140 1144 1148 1152 1156 1160 1164 1168 1172 1176 1180 1184 1188 1192 1196 1200 1204 1208 1212 1216 1220 1224 1228 1232 1236 1240 1244 1248 1252 1256 1260 1264 1268 1272 1276 1280 1284 1288 1292 1296 1300 1304 1308 1312 1316 1320 1324 1328 1332 1336 1340 1344 1348 1352 1356 1360 1364 1368 1372 1376 1380 1384 1388 1392 1396 1400 1404 1408 1412 1416 1420 1424 1428 1432 1436 1440 1444 1448 1452 1456 1460 1464 1468 1472 1476 1480 1484 1488 1492 1496 1500 1504 1508 1512 1516 1520 1524 1528 1532 1536 1540 1544 1548 1552 1556 1560 1564 1568 1572 1576 1580 1584 1588 1592 1596 1600 1604 1608 1612 1616 1620 1624 1628 1632 1636 1640 1644 1648 1652 1656 1660 1664 1668 1672 1676 1680 1684 1688 1692 1696 1700 1704 1708 1712 1716 1720 1724 1728 1732 1736 1740 1744 1748 1752 1756 1760 1764 1768 1772 1776 1780 1784 1788 1792 1796 1800 1804 1808 1812 1816 1820 1824 1828 1832 1836 1840 1844 1848 1852 1856 1860 1864 1868 1872 1876 1880 1884 1888 1892 1896 1900 1904 1908 1912 1916 1920 1924 1928 1932 1936 1940 1944 1948 1952 1956 1960 1964 1968 1972 1976 1980 1984 1988 1992 1996 2000 2004 2008 2012 2016 2020 2024 2028 2032 2036 2040 2044 2048 2052 2056 2060 2064 2068 2072 2076 2080 2084 2088 2092 2096 2100 2104 2108 2112 2116 2120 2124 2128 2132 2136 2140 2144 2148 2152 2156 2160 2164 2168 2172 2176 2180 2184 2188 2192 2196 2200 2204 2208 2212 2216 2220 2224 2228 2232 2236 2240 2244 2248 2252 2256 2260 2264 2268 2272 2276 2280 2284 2288 2292 2296 2300 2304 2308 2312 2316 2320 2324 2328 2332 2336 2340 2344 2348 2352 2356 2360 2364 2368 2372 2376 2380 2384 2388 2392 2396 2400 2404 2408 2412 2416 2420 2424 2428 2432 2436 2440 2444 2448 2452 2456 2460 2464 2468 2472 2476 2480 2484 2488 2492 2496 2500 2504 2508 2512 2516 2520 2524 2528 2532 2536 2540 2544 2548 2552 2556 2560 2564 2568 2572 2576 2580 2584 2588 2592 2596 2600 2604 2608 2612 2616 2620 2624 2628 2632 2636 2640 2644 2648 2652 2656 2660 2664 2668 2672 2676 2680 2684 2688 2692 2696 2700 2704 2708 2712 2716 2720 2724 2728 2732 2736 2740 2744 2748 2752 2756 2760 2764 2768 2772 2776 2780 2784 2788 2792 2796 2800 2804 2808 2812 2816 2820 2824 2828 2832 2836 2840 2844 2848 2852 2856 2860 2864 2868 2872 2876 
</DataArray>
<DataArray type="UInt32" Name="types" format="ascii">
10 10 10 10 10 10 10 10 10 10 10 10 10 10 10 10 10 10 10 10 10 10 10 10 10 10 10 10 10 10 10 10 10 10 10 10 10 10 10 10 10 10 10 10 10 10 10 10 10 10 10 10 10 10 10 10 10 10 10 10 10 10 10 10 10 10 10 10 10 10 10 10 10 10 10 10 10 10 10 10 10 10 10 10 10 10 10 10 10 10 10 10 10 10 10 10 10 10 10 10 10 10 10 10 10 10 10 10 10 10 10 10 10 10 10 10 10 10 10 10 10 10 10 10 10 10 10 10 10 10 10 10 10 10 10 10 10 10 10 10 10 10 10 10 10 10 10 10 10 10 10 10 10 10 10 10 10 10 10 10 10 10 10 10 10 10 10 10 10 10 10 10 10 10 10 10 10 10 10 10 10 10 10 10 10 10 10 10 10 10 10 10 10 10 10 10 10 10 10 10 10 10 10 10 10 10 10 10 10 10 10 10 10 10 10 10 10 10 10 10 10 10 10 10 10 10 10 10 10 10 10 10 10 10 10 10 10 10 10 10 10 10 10 10 10 10 10 10 10 10 10 10 10 10 10 10 10 10 10 10 10 10 10 10 10 10 10 10 10 10 10 10 10 10 10 10 10 10 10 10 10 10 10 10 10 10 10 10 10 10 10 10 10 10 10 10 10 10 10 10 10 10 10 10 10 10 10 10 10 10 10 10 10 10 10 10 10 10 10 10 10 10 10 10 10 10 10 10 10 10 10 10 10 10 10 10 10 10 10 10 10 10 10 10 10 10 10 10 10 10 10 10 10 10 10 10 10 10 10 10 10 10 10 10 10 10 10 10 10 10 10 10 10 10 10 10 10 10 10 10 10 10 10 10 10 10 10 10 10 10 10 10 10 10 10 10 10 10 10 10 10 10 10 10 10 10 10 10 10 10 10 10 10 10 10 10 10 10 10 10 10 10 10 10 10 10 10 10 10 10 10 10 10 10 10 10 10 10 10 10 10 10 10 10 10 10 10 10 10 10 10 10 10 10 10 10 10 10 10 10 10 10 10 10 10 10 10 10 10 10 10 10 10 10 10 10 10 10 10 10 10 10 10 10 10 10 10 10 10 10 10 10 10 10 10 10 10 10 10 10 10 10 10 10 10 10 10 10 10 10 10 10 10 10 10 10 10 10 10 10 10 10 10 10 10 10 10 10 10 10 10 10 10 10 10 10 10 10 10 10 10 10 10 10 10 10 10 10 10 10 10 10 10 10 10 10 10 10 10 10 10 10 10 10 10 10 10 10 10 10 10 10 10 10 10 10 10 10 10 10 10 10 10 10 10 10 10 10 10 10 10 10 10 10 10 10 10 10 10 10 10 10 10 10 10 10 10 10 10 10 10 10 10 10 10 10 10 10 10 10 10 10 10 10 10 10 10 10 10 10 10 10 10 10 10 10 10 10 10 10 10 10 10 10 10 10 10 10 10 10 10 10 10 10 10 10 10 10 10 10 10 10 10 10 10 10 10 10 10 10 10 10 10 10 10 10 10 10 10 10 10 10 10 10 10 10 10 10 10 10 10 10 10 10 10 10 10 10 10 10 10 10 10 10 10 10 10 10 10 10 10 10 10 10 10 10 10 10 10 
</DataArray>
</Cells>
<PointData Scalars="" Vectors="displacement," Tensors="">
<DataArray type="Float64" Name="displacement" NumberOfComponents="3" format="ascii">
4.5756521728103367e-06 -2.1911435150654032e-10 -9.7080158449022009e-10 9.8790153068456481e-06 -2.1121579161414048e-10 -1.2611946983135918e-09 9.7686857675652046e-06 -9.7502542194966399e-11 -2.9304582303400718e-05 5.2909020117855005e-06 -1.4572814470451344e-10 -1.2146670269605818e-09 1.7581730993864107e-14 -3.2503627666344517e-10 -1.3077256022097446e-09 -2.6486990162821318e-14 -2.030505145671914e-10 -1.3726803259339456e-05 2.1757581385124226e-14 -2.3480478051870961e-10 -1.2115001095754213e-09 4.5756521728103367e-06 -2.1911435150654032e-10 -9.7080158449022009e-10 1.7581730993864107e-14 -3.2503627666344517e-10 -1.3077256022097446e-09 4.5756521728103367e-06 -2.1911435150654032e-10 -9.7080158449022009e-10 4.575647698804771e-06 -2.3769838849891868e-10 -1.3726825501211162e-05 6.2503629252373721e-06 -3.5504215052209263e-10 -1.3765603206325581e-09 1.7581730993864107e-14 -3.2503627666344517e-10 -1.3077256022097446e-09 7.3875344003894775e-15 -3.0964168615940787e-10 -1.8750784790611425e-05 -2.6486990704962041e-14 -2.030505145671914e-10 -1.3726803259339452e-05 4.5756476988047718e-06 -2.3769838849891873e-10 -1.3726825501211162e-05 -2.6486990704962041e-14 -2.030505145671914e-10 -1.3726803259339452e-05 7.6091076182051459e-16 -1.8991250925963394e-10 -2.9635583636598438e-05 9.7686857675652063e-06 -9.7502542194966386e-11 -2.9304582303400722e-05 -1.1484259980708498e-14 -8.8034459126453156e-11 -1.5872513584478951e-05 4.5756476988047718e-06 -2.3769838849891873e-10 -1.3726825501211162e-05 9.8689810598073426e-06 -3.205307477139454e-10 -1.7487918046558187e-05 5.2935753922122996e-06 -3.0073934692309733e-10 -2.8136225990415146e-05 9.7686857675652046e-06 -9.7502542194966399e-11 -2.9304582303400718e-05 1.7581730993864107e-14 -3.2503627666344517e-10 -1.3077256022097446e-09 -2.6486990704962041e-14 -2.030505145671914e-10 -1.3726803259339452e-05 4.5756521728103367e-06 -2.1911435150654032e-10 -9.7080158449022009e-10 4.5756476988047718e-06 -2.3769838849891873e-10 -1.3726825501211162e-05 4.5756521728103367e-06 -2.1911435150654032e-10 -9.7080158449022009e-10 4.575647698804771e-06 -2.3769838849891873e-10 -1.3726825501211168e-05 9.8689810598073426e-06 -3.205307477139454e-10 -1.7487918046558187e-05 9.7686857675652046e-06 -9.7502542194966399e-11 -2.9304582303400718e-05 -2.6486990704962041e-14 -2.030505145671914e-10 -1.3726803259339452e-05 4.5756521728103367e-06 -2.1911435150654032e-10 -9.70801584489785e-10 9.7686857675652063e-06 -9.7502542194966438e-11 -2.9304582303400725e-05 -1.1484259980708498e-14 -8.8034459126453156e-11 -1.5872513584478951e-05 -2.6486990704962041e-14 -2.030505145671914e-10 -1.3726803259339452e-05 4.5756521728103367e-06 -2.1911435150654032e-10 -9.7080158448983277e-10 4.5756476988047718e-06 -2.3769838849891873e-10 -1.3726825501211162e-05 9.7686857675652063e-06 -9.7502542194966386e-11 -2.9304582303400725e-05 -2.6486990704962041e-14 -2.030505145671914e-10 -1.3726803259339452e-05 4.5756476988047718e-06 -2.3769838849891873e-10 -1.3726825501211162e-05 5.2935753922122996e-06 -3.0073934692309728e-10 -2.8136225990415146e-05 9.768685767565203e-06 -9.7502542194966451e-11 -2.9304582303400728e-05 7.387535140966769e-15 -3.0964168615940787e-10 -1.8750784790611425e-05 -2.648699070899715e-14 -2.030505145671914e-10 -1.3726803259339452e-05 4.5756476988047718e-06 -2.3769838849891873e-10 -1.3726825501211162e-05 5.2935753922122988e-06 -3.0073934692309733e-10 -2.8136225990415146e-05 7.387535140966769e-15 -3.0964168615940787e-10 -1.8750784790611425e-05 -2.6486991211529655e-14 -2.0305051456719137e-10 -1.3726803259339452e-05 5.2935753922122988e-06 -3.0073934692309733e-10 -2.8136225990415146e-05 7.6091046223140439e-16 -1.8991250925963397e-10 -2.9635583636598441e-05 -2.6486990704962041e-14 -2.030505145671914e-10 -1.3726803259339452e-05 2.1757581385124226e-14 -2.3480478051870961e-10 -1.2115001095754213e-09 4.5756521728103367e-06 -2.1911435150654032e-10 -9.7080158449013096e-10 -1.1484259980708498e-14 -8.8034459126453156e-11 -1.5872513584478951e-05 2.1757581385124226e-14 -2.3480478051870961e-10 -1.2115001095754213e-09 4.5756521728103367e-06 -2.1911435150654032e-10 -9.7080158449022009e-10 5.2909020117855005e-06 -1.4572814470451341e-10 -1.2146670269615426e-09 -1.1484259980708498e-14 -8.8034459126453156e-11 -1.5872513584478951e-05 4.5756521728103367e-06 -2.1911435150654032e-10 -9.7080158449022009e-10 6.2503629252373721e-06 -3.5504215052209263e-10 -1.3765603206325581e-09 9.8790153068456464e-06 -2.1121579161414048e-10 -1.2611946983155177e-09 9.8689810598073426e-06 -3.205307477139454e-10 -1.7487918046558187e-05 4.5756521728103367e-06 -2.1911435150654032e-10 -9.7080158449022009e-10 4.5756476988047718e-06 -2.3769838849891873e-10 -1.3726825501211162e-05 6.2503629252373721e-06 -3.5504215052209263e-10 -1.3765603206325581e-09 9.8689810598073426e-06 -3.205307477139454e-10 -1.7487918046558187e-05 6.2503629252373721e-06 -3.5504215052209263e-10 -1.3765603206325581e-09 9.8790153068456464e-06 -2.1121579161414045e-10 -1.2611946983144906e-09 1.2500863388171091e-05 -3.2551824530178958e-10 -1.6298252423444801e-09 9.8689810598073426e-06 -3.205307477139454e-10 -1.7487918046558187e-05 4.5756521728103367e-06 -2.1911435150654032e-10 -9.7080158449022009e-10 9.8790153068456481e-06 -2.1121579161414048e-10 -1.2611946983132639e-09 9.8689810598073442e-06 -3.205307477139454e-10 -1.7487918046558187e-05 9.7686857675652046e-06 -9.7502542194966399e-11 -2.9304582303400718e-05 9.8790153068456464e-06 -2.1121579161414045e-10 -1.2611946983144906e-09 9.8689810598073392e-06 -3.2053074771394535e-10 -1.7487918046558187e-05 9.7686857675652046e-06 -9.7502542194966412e-11 -2.9304582303400722e-05 1.5638583340235381e-05 -2.1791482584838256e-10 -2.1173425769283076e-05 9.8790153068456464e-06 -2.1121579161414045e-10 -1.2611946983144906e-09 1.5436000795116393e-05 -3.0158469890274151e-10 -1.2411359611427639e-05 1.5638583340235374e-05 -2.1791482584838251e-10 -2.1173425769283079e-05 1.5928231637793179e-05 -1.9340447038323969e-10 -1.17983931849907e-09 9.8790153068456464e-06 -2.1121579161414045e-10 -1.2611946983144906e-09 1.4317331061876125e-05 -1.2010786202097426e-10 -1.0177394755198159e-09 1.5638583340235374e-05 -2.1791482584838258e-10 -2.1173425769283086e-05 1.5928231637793179e-05 -1.9340447038323969e-10 -1.17983931849907e-09 9.8790153068456464e-06 -2.1121579161414045e-10 -1.2611946983144906e-09 1.2500863388171091e-05 -3.2551824530178958e-10 -1.6298252423444801e-09 1.5436000795116393e-05 -3.0158469890274146e-10 -1.2411359611427642e-05 1.5928231637793179e-05 -1.9340447038323969e-10 -1.17983931849907e-09 9.8790153068456464e-06 -2.1121579161414045e-10 -1.2611946983144906e-09 1.2500863388171091e-05 -3.2551824530178958e-10 -1.6298252423444801e-09 1.543600079511639e-05 -3.0158469890274156e-10 -1.2411359611427647e-05 9.8689810598073426e-06 -3.205307477139454e-10 -1.7487918046558187e-05 1.5436000795116393e-05 -3.0158469890274156e-10 -1.2411359611427644e-05 9.8689810598073426e-06 -3.205307477139454e-10 -1.7487918046558187e-05 1.4903632373037171e-05 -3.6922521303978658e-10 -2.9757897784731953e-05 1.5638583340235374e-05 -2.1791482584838253e-10 -2.1173425769283076e-05 9.8790153068456464e-06 -2.1121579161414045e-10 -1.2611946983144906e-09 1.543600079511639e-05 -3.0158469890274156e-10 -1.2411359611427649e-05 9.8689810598073426e-06 -3.205307477139454e-10 -1.7487918046558184e-05 1.5638583340235374e-05 -2.1791482584838248e-10 -2.1173425769283079e-05 1.0046373245164193e-05 -2.7787113618749432e-10 -3.6317373226972953e-05 1.564908964606537e-05 -1.6208601468754334e-10 -4.9581301137518247e-05 6.90321143447964e-06 -1.5970690887929119e-10 -4.6879646701734586e-05 9.697650087037135e-06 -2.574028863871856e-10 -5.0793645101403766e-05 1.0046373245164193e-05 -2.7787113618749432e-10 -3.6317373226972953e-05 5.2935753922122988e-06 -3.0073934692309733e-10 -2.8136225990415146e-05 9.7686857675652046e-06 -9.7502542194966412e-11 -2.9304582303400715e-05 6.9032114344796392e-06 -1.5970690887929119e-10 -4.6879646701734586e-05 1.0046373245164193e-05 -2.7787113618749432e-10 -3.6317373226972953e-05 9.7686857675652046e-06 -9.7502542194966399e-11 -2.9304582303400718e-05 1.5649089646065374e-05 -1.6208601468754337e-10 -4.958130113751824e-05 6.9032114344796426e-06 -1.5970690887929127e-10 -4.6879646701734593e-05 1.4903632373037171e-05 -3.6922521303978658e-10 -2.9757897784731953e-05 1.0046373245164192e-05 -2.7787113618749432e-10 -3.6317373226972953e-05 1.5638583340235374e-05 -2.1791482584838253e-10 -2.1173425769283076e-05 1.5649089646065374e-05 -1.6208601468754337e-10 -4.958130113751824e-05 1.0046373245164193e-05 -2.7787113618749432e-10 -3.6317373226972953e-05 9.7686857675652063e-06 -9.7502542194966412e-11 -2.9304582303400715e-05 1.5638583340235371e-05 -2.1791482584838245e-10 -2.1173425769283076e-05 1.5649089646065374e-05 -1.6208601468754337e-10 -4.958130113751824e-05 9.8689810598073426e-06 -3.205307477139454e-10 -1.7487918046558187e-05 1.0046373245164193e-05 -2.7787113618749432e-10 -3.6317373226972953e-05 5.2935753922122988e-06 -3.0073934692309733e-10 -2.8136225990415146e-05 9.7686857675652046e-06 -9.7502542194966399e-11 -2.9304582303400718e-05 9.8689810598073426e-06 -3.205307477139454e-10 -1.7487918046558187e-05 1.0046373245164193e-05 -2.7787113618749432e-10 -3.6317373226972953e-05 9.7686857675652046e-06 -9.7502542194966399e-11 -2.9304582303400718e-05 1.5638583340235374e-05 -2.1791482584838253e-10 -2.1173425769283076e-05 9.8689810598073426e-06 -3.205307477139454e-10 -1.7487918046558187e-05 1.4903632373037171e-05 -3.6922521303978658e-10 -2.9757897784731953e-05 1.0046373245164193e-05 -2.7787113618749432e-10 -3.6317373226972953e-05 1.5638583340235374e-05 -2.1791482584838253e-10 -2.1173425769283076e-05 1.0046373245164193e-05 -2.7787113618749432e-10 -3.6317373226972953e-05 1.5626086726334186e-05 -3.1909818109196704e-10 -4.5036277833226051e-05 1.5649089646065374e-05 -1.6208601468754337e-10 -4.9581301137518234e-05 9.697650087037135e-06 -2.574028863871856e-10 -5.0793645101403766e-05 1.4903632373037171e-05 -3.6922521303978658e-10 -2.9757897784731953e-05 1.0046373245164193e-05 -2.7787113618749432e-10 -3.6317373226972953e-05 1.5626086726334186e-05 -3.1909818109196704e-10 -4.5036277833226058e-05 1.5649089646065374e-05 -1.6208601468754337e-10 -4.958130113751824e-05 1.0046373245164193e-05 -2.7787113618749432e-10 -3.6317373226972953e-05 5.116194489346999e-06 -2.9973474356975204e-10 -4.5812526550916937e-05 6.90321143447964e-06 -1.5970690887929119e-10 -4.6879646701734586e-05 9.697650087037135e-06 -2.574028863871856e-10 -5.0793645101403766e-05 1.0046373245164193e-05 -2.7787113618749432e-10 -3.6317373226972953e-05 5.116194489346999e-06 -2.9973474356975204e-10 -4.5812526550916937e-05 5.2935753922122988e-06 -3.0073934692309733e-10 -2.8136225990415146e-05 6.90321143447964e-06 -1.5970690887929119e-10 -4.6879646701734586e-05 -2.6486990704962041e-14 -2.030505145671914e-10 -1.3726803259339452e-05 5.2935753922122996e-06 -3.0073934692309733e-10 -2.8136225990415142e-05 7.6091046223140439e-16 -1.8991250925963397e-10 -2.9635583636598441e-05 9.7686857675652063e-06 -9.7502542194966399e-11 -2.9304582303400718e-05 5.116194489346999e-06 -2.9973474356975204e-10 -4.5812526550916937e-05 5.2935753922122979e-06 -3.0073934692309738e-10 -2.8136225990415146e-05 7.6091046223140439e-16 -1.8991250925963397e-10 -2.9635583636598441e-05 6.90321143447964e-06 -1.5970690887929119e-10 -4.6879646701734586e-05 5.2935753922122988e-06 -3.0073934692309733e-10 -2.8136225990415146e-05 7.6090982780330973e-16 -1.8991250925963397e-10 -2.9635583636598448e-05 9.768685767565203e-06 -9.7502542194966438e-11 -2.9304582303400728e-05 6.90321143447964e-06 -1.5970690887929116e-10 -4.6879646701734579e-05 5.116194489346999e-06 -2.9973474356975204e-10 -4.5812526550916937e-05 5.3766583315930766e-15 -3.6096263345997387e-10 -3.7500362982104704e-05 -4.7228200354696812e-15 -2.3703577693504417e-10 -4.7781485106608423e-05 9.2584700627034018e-15 -4.0660780248746892e-10 -5.6249925222190633e-05 5.116194489346999e-06 -2.9973474356975204e-10 -4.5812526550916937e-05 5.3766583315930766e-15 -3.6096263345997387e-10 -3.7500362982104704e-05 5.2935753922122988e-06 -3.0073934692309738e-10 -2.8136225990415149e-05 7.6091046223140439e-16 -1.8991250925963397e-10 -2.9635583636598441e-05 5.116194489346999e-06 -2.9973474356975204e-10 -4.5812526550916937e-05 5.3766579933343341e-15 -3.6096263345997392e-10 -3.7500362982104711e-05 7.6091046223140439e-16 -1.8991250925963397e-10 -2.9635583636598441e-05 -4.7228200354696812e-15 -2.3703577693504417e-10 -4.7781485106608423e-05 7.387535140966769e-15 -3.0964168615940787e-10 -1.8750784790611425e-05 5.3766583315930766e-15 -3.6096263345997387e-10 -3.7500362982104704e-05 5.2935753922122988e-06 -3.0073934692309733e-10 -2.8136225990415146e-05 7.6091046223140439e-16 -1.8991250925963397e-10 -2.9635583636598441e-05 5.116194489346999e-06 -2.9973474356975204e-10 -4.5812526550916937e-05 7.6091085844737739e-16 -1.8991250925963397e-10 -2.9635583636598438e-05 6.90321143447964e-06 -1.5970690887929124e-10 -4.6879646701734593e-05 -4.7228200377290151e-15 -2.3703577693504417e-10 -4.7781485106608423e-05 7.6091046223140439e-16 -1.8991250925963397e-10 -2.9635583636598441e-05 -2.3397876965285487e-15 -1.0852753066269145e-10 -4.294930645874171e-05 6.9032114344796417e-06 -1.5970690887929114e-10 -4.6879646701734586e-05 -4.7228200354696812e-15 -2.3703577693504417e-10 -4.7781485106608423e-05 7.6091046223140439e-16 -1.8991250925963397e-10 -2.9635583636598441e-05 4.8442197147096421e-15 -4.6841058292040477e-11 -3.0867984554815308e-05 9.7686857675652046e-06 -9.7502542194966399e-11 -2.9304582303400718e-05 -1.1484259980708498e-14 -8.8034459126453156e-11 -1.5872513584478951e-05 -2.3397878670201502e-15 -1.0852753066269143e-10 -4.294930645874171e-05 9.768685767565203e-06 -9.7502542194966399e-11 -2.9304582303400708e-05 7.7409206933157089e-06 2.1289200164182606e-11 -4.2280066784070226e-05 6.90321143447964e-06 -1.5970690887929119e-10 -4.6879646701734586e-05 7.6091046223140439e-16 -1.8991250925963397e-10 -2.9635583636598441e-05 -2.3397878670201502e-15 -1.0852753066269143e-10 -4.294930645874171e-05 4.8442193678253714e-15 -4.6841058292040477e-11 -3.0867984554815308e-05 9.7686857675652046e-06 -9.7502542194966399e-11 -2.9304582303400718e-05 4.8442193678253714e-15 -4.6841058292040477e-11 -3.0867984554815308e-05 9.7686857675652046e-06 -9.7502542194966399e-11 -2.9304582303400718e-05 6.9835954304980106e-06 1.0760774718473988e-11 -2.0950094955930018e-05 7.7409206933157089e-06 2.1289200164182603e-11 -4.2280066784070226e-05 -2.3397878670201502e-15 -1.0852753066269143e-10 -4.294930645874171e-05 4.8442192533506376e-15 -4.6841058292040484e-11 -3.0867984554815308e-05 9.7686857675652046e-06 -9.7502542194966425e-11 -2.9304582303400718e-05 7.7409206933157089e-06 2.1289200164182606e-11 -4.2280066784070226e-05 4.8442193678253714e-15 -4.6841058292040477e-11 -3.0867984554815308e-05 9.7686857675652046e-06 -9.7502542194966399e-11 -2.9304582303400718e-05 -1.1484259980708498e-14 -8.8034459126453156e-11 -1.5872513584478951e-05 6.9835954304980097e-06 1.0760774718474006e-11 -2.0950094955930018e-05 7.6091046223140439e-16 -1.8991250925963397e-10 -2.9635583636598441e-05 -2.3397876596807955e-15 -1.0852753066269144e-10 -4.2949306458741716e-05 9.7686857675652046e-06 -9.7502542194966386e-11 -2.9304582303400715e-05 6.9032114344796409e-06 -1.5970690887929124e-10 -4.6879646701734599e-05 -2.3397878670201502e-15 -1.0852753066269143e-10 -4.294930645874171e-05 4.8442191268227907e-15 -4.6841058292040484e-11 -3.0867984554815308e-05 7.7409206933157106e-06 2.1289200164182603e-11 -4.2280066784070219e-05 -2.6761819340653443e-15 3.1931889251005427e-12 -4.8714047978491055e-05 9.7686857675652046e-06 -9.7502542194966399e-11 -2.9304582303400718e-05 1.5638710146451404e-05 -2.0632452647681577e-11 -2.3403594931423678e-05 1.5626091574759138e-05 -1.8183402299245146e-12 -4.6875145498662449e-05 1.5649089646065374e-05 -1.6208601468754337e-10 -4.958130113751824e-05 9.7686857675652046e-06 -9.7502542194966399e-11 -2.9304582303400718e-05 6.9835954304980097e-06 1.0760774718474011e-11 -2.0950094955930015e-05 7.7409206933157089e-06 2.1289200164182606e-11 -4.2280066784070226e-05 1.5638710146451404e-05 -2.0632452647681574e-11 -2.3403594931423678e-05 9.7686857675652046e-06 -9.7502542194966399e-11 -2.9304582303400718e-05 1.5638583340235374e-05 -2.1791482584838253e-10 -2.1173425769283079e-05 1.5638710146451404e-05 -2.0632452647681574e-11 -2.3403594931423678e-05 1.5649089646065374e-05 -1.6208601468754339e-10 -4.958130113751824e-05 9.7686857675652046e-06 -9.7502542194966399e-11 -2.9304582303400718e-05 7.7409206933157089e-06 2.1289200164182597e-11 -4.2280066784070226e-05 1.5626091574759141e-05 -1.8183402299245386e-12 -4.6875145498662436e-05 1.5649089646065374e-05 -1.6208601468754337e-10 -4.958130113751824e-05 9.7686857675652046e-06 -9.7502542194966399e-11 -2.9304582303400718e-05 7.7409206933157089e-06 2.1289200164182606e-11 -4.2280066784070226e-05 1.5638710146451404e-05 -2.0632452647681587e-11 -2.3403594931423681e-05 1.5626091574759141e-05 -1.8183402299245891e-12 -4.6875145498662449e-05 9.7686857675652046e-06 -9.7502542194966399e-11 -2.9304582303400718e-05 7.7409206933157089e-06 2.128920016418261e-11 -4.2280066784070219e-05 1.5649089646065374e-05 -1.6208601468754337e-10 -4.958130113751824e-05 6.90321143447964e-06 -1.5970690887929119e-10 -4.6879646701734586e-05 9.7686857675652046e-06 -9.7502542194966399e-11 -2.9304582303400718e-05 1.4317331061876125e-05 -1.2010786202097426e-10 -1.0177394755198159e-09 1.0289865374598602e-05 -7.4491595537373739e-11 -1.4010515441982138e-09 1.5638710146451404e-05 -2.0632452647681555e-11 -2.3403594931423674e-05 1.0289865374598604e-05 -7.449159553737379e-11 -1.4010515441994089e-09 6.9835954304980097e-06 1.0760774718474006e-11 -2.0950094955930018e-05 1.0140287401505002e-05 6.8385820281465432e-11 -1.4693957786973352e-09 1.5638710146451404e-05 -2.0632452647681574e-11 -2.3403594931423678e-05 9.7686857675652046e-06 -9.7502542194966399e-11 -2.9304582303400718e-05 1.4317331061876125e-05 -1.2010786202097426e-10 -1.0177394755198159e-09 1.5638583340235374e-05 -2.1791482584838253e-10 -2.1173425769283076e-05 1.5638710146451404e-05 -2.0632452647681574e-11 -2.3403594931423678e-05 9.8790153068456464e-06 -2.1121579161414045e-10 -1.2611946983144906e-09 9.7686857675652046e-06 -9.7502542194966399e-11 -2.9304582303400718e-05 1.4317331061876125e-05 -1.2010786202097426e-10 -1.0177394755198159e-09 1.0289865374598604e-05 -7.449159553737379e-11 -1.4010515441994089e-09 9.7686857675652046e-06 -9.7502542194966399e-11 -2.9304582303400718e-05 1.0289865374598607e-05 -7.4491595537373777e-11 -1.4010515441935545e-09 5.2909020117855005e-06 -1.4572814470451344e-10 -1.2146670269605818e-09 6.9835954304980097e-06 1.0760774718474006e-11 -2.0950094955930018e-05 9.8790153068456464e-06 -2.1121579161414045e-10 -1.2611946983144906e-09 9.7686857675652046e-06 -9.7502542194966309e-11 -2.9304582303400722e-05 1.4317331061876125e-05 -1.2010786202097426e-10 -1.0177394755198159e-09 1.5638583340235374e-05 -2.1791482584838258e-10 -2.1173425769283079e-05 9.7686857675652046e-06 -9.7502542194966399e-11 -2.9304582303400718e-05 1.0289865374598604e-05 -7.4491595537373803e-11 -1.4010515441944406e-09 6.9835954304980097e-06 1.0760774718474006e-11 -2.0950094955930018e-05 1.5638710146451404e-05 -2.0632452647681571e-11 -2.3403594931423674e-05 9.8790153068456464e-06 -2.1121579161414045e-10 -1.2611946983144906e-09 9.7686857675652046e-06 -9.7502542194966399e-11 -2.9304582303400718e-05 1.0289865374598604e-05 -7.449159553737379e-11 -1.4010515441994089e-09 5.2909020117855005e-06 -1.4572814470451344e-10 -1.2146670269605818e-09 1.0289865374598604e-05 -7.449159553737379e-11 -1.4010515441994089e-09 1.0140287401505002e-05 6.8385820281465432e-11 -1.4693957786979866e-09 1.6239155153754937e-05 2.3903561902704571e-11 -1.3010116391742183e-09 1.5638710146451404e-05 -2.0632452647681574e-11 -2.3403594931423678e-05 1.4317331061876125e-05 -1.2010786202097426e-10 -1.0177394755198159e-09 1.0289865374598604e-05 -7.449159553737379e-11 -1.4010515441994089e-09 1.6239155153754937e-05 2.3903561902704565e-11 -1.3010116391729152e-09 1.5638710146451404e-05 -2.0632452647681574e-11 -2.3403594931423678e-05 4.5756521728103367e-06 -2.1911435150654032e-10 -9.7080158449022009e-10 9.7686857675652063e-06 -9.7502542194966386e-11 -2.9304582303400718e-05 5.2909020117855005e-06 -1.4572814470451344e-10 -1.2146670269605818e-09 -1.1484259980708498e-14 -8.8034459126453156e-11 -1.5872513584478951e-05 9.7686857675652046e-06 -9.7502542194966399e-11 -2.9304582303400718e-05 5.2909020117854988e-06 -1.4572814470451344e-10 -1.2146670269637747e-09 -1.1484258332730734e-14 -8.8034459126453195e-11 -1.5872513584478947e-05 6.9835954304980106e-06 1.0760774718474003e-11 -2.0950094955930015e-05 5.3835362666305587e-06 -1.0187219049365161e-11 -1.3238131660934643e-09 5.2909020117855005e-06 -1.4572814470451344e-10 -1.2146670269605818e-09 -1.0635254137678777e-14 -4.9445665157722411e-12 -1.6150517981104396e-05 6.9835954304980097e-06 1.0760774718474006e-11 -2.0950094955930018e-05 1.0289865374598604e-05 -7.449159553737379e-11 -1.4010515441994089e-09 5.3835362666305587e-06 -1.0187219049365161e-11 -1.3238131660934643e-09 5.2909020117855005e-06 -1.4572814470451344e-10 -1.2146670269605818e-09 6.9835954304980097e-06 1.0760774718474006e-11 -2.0950094955930018e-05 2.1757581385124226e-14 -2.3480478051870961e-10 -1.2115001095754213e-09 5.2909020117855005e-06 -1.4572814470451344e-10 -1.214667026959614e-09 -1.1484259980708498e-14 -8.8034459126453156e-11 -1.5872513584478951e-05 2.6691449792773913e-14 -1.0447287022478784e-10 -1.5463285890643238e-09 5.2909020117855005e-06 -1.4572814470451344e-10 -1.2146670269605818e-09 -1.1484260842185657e-14 -8.8034459126453182e-11 -1.5872513584478951e-05 -1.0635252962555197e-14 -4.9445665157722322e-12 -1.6150517981104392e-05 2.6691449792773913e-14 -1.0447287022478784e-10 -1.5463285890643238e-09 5.2909020117855005e-06 -1.4572814470451344e-10 -1.2146670269605818e-09 -1.1484259300280421e-14 -8.8034459126453156e-11 -1.5872513584478958e-05 -1.0635253118714359e-14 -4.9445665157722265e-12 -1.6150517981104389e-05 6.9835954304980097e-06 1.0760774718474006e-11 -2.0950094955930018e-05 4.8442193678253714e-15 -4.6841058292040477e-11 -3.0867984554815308e-05 -1.1484259980708498e-14 -8.8034459126453156e-11 -1.5872513584478951e-05 -1.0635254137678777e-14 -4.9445665157722411e-12 -1.6150517981104396e-05 6.9835954304980097e-06 1.0760774718474006e-11 -2.0950094955930018e-05 5.3835362666305587e-06 -1.0187219049365161e-11 -1.3238131660934643e-09 -1.0635254798860102e-14 -4.9445665157722411e-12 -1.6150517981104392e-05 2.6691449599908636e-14 -1.0447287022478784e-10 -1.5463285890643238e-09 1.3328135263631354e-14 8.4446257011387971e-11 -1.4435592802897169e-09 5.3835362666305587e-06 -1.0187219049365161e-11 -1.3238131660934643e-09 5.2909020117855005e-06 -1.4572814470451344e-10 -1.2146670269605818e-09 -1.0635254018410513e-14 -4.944566515772233e-12 -1.6150517981104399e-05 2.6691449792773913e-14 -1.0447287022478784e-10 -1.5463285890643238e-09 6.9835954304980097e-06 1.0760774718474006e-11 -2.0950094955930018e-05 -2.9904015653075733e-15 9.7998332866195921e-11 -1.4904189229365584e-05 1.1240776030101549e-15 5.2051592223007905e-11 -3.0419253280768847e-05 6.01889032664117e-06 1.5024570351527004e-10 -1.8056148165616526e-05 4.9680965584746632e-06 1.1609958812001949e-10 -1.208420785728483e-09 6.9835954304980106e-06 1.0760774718474011e-11 -2.0950094955930022e-05 -2.9904005957003023e-15 9.7998332866195934e-11 -1.4904189229365594e-05 6.01889032664117e-06 1.5024570351527002e-10 -1.805614816561653e-05 5.3835362666305587e-06 -1.0187219049365161e-11 -1.3238131660934643e-09 1.3328135263631354e-14 8.4446257011387971e-11 -1.4435592802897169e-09 4.9680965584746632e-06 1.1609958812001949e-10 -1.208420785728483e-09 -2.9904005957003023e-15 9.7998332866195934e-11 -1.4904189229365594e-05 4.9680965584746632e-06 1.1609958812001949e-10 -1.208420785728483e-09 6.9835954304980106e-06 1.0760774718474008e-11 -2.0950094955930022e-05 6.0188903266411692e-06 1.5024570351527002e-10 -1.805614816561653e-05 1.0140287401505002e-05 6.8385820281465432e-11 -1.4693957786973352e-09 5.3835362666305587e-06 -1.0187219049365161e-11 -1.3238131660934643e-09 -1.0635253545854645e-14 -4.9445665157722144e-12 -1.6150517981104396e-05 1.3328135263631354e-14 8.4446257011387971e-11 -1.4435592802897169e-09 -2.9904011933928963e-15 9.7998332866195921e-11 -1.4904189229365596e-05 1.3328135263631354e-14 8.4446257011387971e-11 -1.4435592802897169e-09 4.9680965584746632e-06 1.1609958812001949e-10 -1.208420785728483e-09 -2.9904005957003023e-15 9.7998332866195934e-11 -1.4904189229365594e-05 6.4817006071478185e-15 2.1614536238590449e-10 -1.1743867376914682e-09 4.9680965584746632e-06 1.1609958812001949e-10 -1.208420785728483e-09 6.0188903266411708e-06 1.5024570351527004e-10 -1.805614816561653e-05 9.7091756355882161e-06 2.2938562371179133e-10 -1.3083132570117026e-09 1.0140287401505002e-05 6.8385820281465432e-11 -1.4693957786973352e-09 5.3835362666305587e-06 -1.0187219049365161e-11 -1.3238131660934643e-09 4.9680965584746632e-06 1.1609958812001949e-10 -1.208420785728483e-09 6.9835954304980097e-06 1.0760774718474006e-11 -2.0950094955930018e-05 1.0140287401505002e-05 6.8385820281465432e-11 -1.4693957786973352e-09 5.3835362666305587e-06 -1.0187219049365161e-11 -1.3238131660934643e-09 4.9680965584746632e-06 1.1609958812001949e-10 -1.208420785728483e-09 6.9835954304980097e-06 1.0760774718474006e-11 -2.0950094955930018e-05 -2.9904005957003023e-15 9.7998332866195934e-11 -1.4904189229365594e-05 -2.9904005957003023e-15 9.7998332866195934e-11 -1.4904189229365594e-05 1.1240779898994367e-15 5.2051592223007898e-11 -3.0419253280768837e-05 2.0490209183620677e-15 2.0112216979730854e-10 -2.912596059710255e-05 6.0188903266411683e-06 1.5024570351527002e-10 -1.805614816561653e-05 -1.0635254137678777e-14 -4.9445665157722411e-12 -1.6150517981104396e-05 6.9835954304980097e-06 1.0760774718474006e-11 -2.0950094955930018e-05 -2.9904005957003023e-15 9.7998332866195934e-11 -1.4904189229365594e-05 1.1240779898994367e-15 5.2051592223007898e-11 -3.0419253280768837e-05 5.3835362666305587e-06 -1.0187219049365161e-11 -1.3238131660934643e-09 -1.0635254278212782e-14 -4.9445665157722039e-12 -1.6150517981104396e-05 6.9835954304980097e-06 1.0760774718474006e-11 -2.0950094955930018e-05 -2.9904018447365941e-15 9.7998332866195909e-11 -1.4904189229365596e-05 1.1240779898994367e-15 5.2051592223007898e-11 -3.0419253280768837e-05 7.0370266726697438e-06 1.8534891030966322e-10 -4.5175733304383565e-05 6.01889032664117e-06 1.5024570351526999e-10 -1.805614816561653e-05 1.1203470692898665e-05 1.2398031684034134e-10 -2.8153583089364583e-05 4.8442193678253714e-15 -4.6841058292040477e-11 -3.0867984554815308e-05 6.9835954304980106e-06 1.0760774718474011e-11 -2.0950094955930012e-05 1.1240779898994367e-15 5.2051592223007898e-11 -3.0419253280768837e-05 7.7409206933157089e-06 2.1289200164182603e-11 -4.2280066784070226e-05 1.1240779898994367e-15 5.2051592223007898e-11 -3.0419253280768837e-05 2.0490209183620677e-15 2.0112216979730854e-10 -2.912596059710255e-05 7.0370266726697438e-06 1.8534891030966322e-10 -4.5175733304383572e-05 6.0188903266411692e-06 1.5024570351527002e-10 -1.8056148165616526e-05 6.9835954304980097e-06 1.0760774718474006e-11 -2.0950094955930018e-05 1.1240770099624661e-15 5.2051592223007905e-11 -3.041925328076884e-05 6.0188903266411692e-06 1.5024570351527002e-10 -1.805614816561652e-05 1.1203470692898665e-05 1.2398031684034134e-10 -2.8153583089364583e-05 4.8442193678253714e-15 -4.6841058292040477e-11 -3.0867984554815308e-05 -1.0635254137678777e-14 -4.9445665157722411e-12 -1.6150517981104396e-05 6.9835954304980097e-06 1.0760774718474006e-11 -2.0950094955930018e-05 1.1240779898994367e-15 5.2051592223007898e-11 -3.0419253280768837e-05 1.1240779898994367e-15 5.2051592223007898e-11 -3.0419253280768837e-05 7.7409206933157089e-06 2.1289200164182623e-11 -4.2280066784070233e-05 7.0370266726697455e-06 1.8534891030966319e-10 -4.5175733304383565e-05 1.1203470692898665e-05 1.2398031684034134e-10 -2.8153583089364583e-05 6.9835954304980097e-06 1.0760774718474006e-11 -2.0950094955930018e-05 1.1240766190885467e-15 5.2051592223007911e-11 -3.0419253280768837e-05 7.7409206933157089e-06 2.1289200164182606e-11 -4.2280066784070226e-05 1.1203470692898665e-05 1.2398031684034134e-10 -2.8153583089364583e-05 4.8442193678253714e-15 -4.6841058292040477e-11 -3.0867984554815308e-05 1.1240775521478635e-15 5.2051592223007898e-11 -3.0419253280768837e-05 7.7409206933157089e-06 2.1289200164182606e-11 -4.2280066784070226e-05 -2.6761819340653443e-15 3.1931889251005427e-12 -4.8714047978491055e-05 1.1240779898994367e-15 5.2051592223007898e-11 -3.0419253280768837e-05 7.7409206933157089e-06 2.1289200164182606e-11 -4.2280066784070226e-05 9.2243499491443321e-16 1.2069070025807253e-10 -4.2810762509020563e-05 -2.6761819340653443e-15 3.1931889251005427e-12 -4.8714047978491055e-05 7.7409206933157089e-06 2.1289200164182606e-11 -4.2280066784070226e-05 9.2243498938712526e-16 1.2069070025807253e-10 -4.2810762509020549e-05 7.0370266726697446e-06 1.8534891030966322e-10 -4.5175733304383565e-05 -1.6680558071691691e-16 1.0631157957979786e-10 -5.6197664153622151e-05 1.1240779898994367e-15 5.2051592223007898e-11 -3.0419253280768837e-05 9.2243499491443321e-16 1.2069070025807253e-10 -4.2810762509020563e-05 2.0490207713063605e-15 2.0112216979730854e-10 -2.912596059710255e-05 7.0370266726697446e-06 1.8534891030966322e-10 -4.5175733304383565e-05 1.1240779898994367e-15 5.2051592223007898e-11 -3.0419253280768837e-05 7.7409206933157089e-06 2.1289200164182623e-11 -4.2280066784070226e-05 9.2243499491443321e-16 1.2069070025807253e-10 -4.2810762509020563e-05 7.0370266726697446e-06 1.8534891030966322e-10 -4.5175733304383572e-05 7.0370266726697446e-06 1.8534891030966322e-10 -4.5175733304383565e-05 5.290919336500479e-06 3.0292233855216577e-10 -2.81957433369706e-05 6.0188903266411708e-06 1.5024570351526996e-10 -1.805614816561652e-05 1.0290273037581319e-05 3.5333049348369438e-10 -3.7140404936178949e-05 2.0490209183620677e-15 2.0112216979730854e-10 -2.912596059710255e-05 7.0370266726697429e-06 1.8534891030966322e-10 -4.5175733304383565e-05 5.2909193365004782e-06 3.0292233855216582e-10 -2.8195743336970604e-05 6.01889032664117e-06 1.5024570351527002e-10 -1.805614816561653e-05 2.0490209183620677e-15 2.0112216979730854e-10 -2.912596059710255e-05 7.0370266726697429e-06 1.8534891030966327e-10 -4.5175733304383572e-05 5.3835406743850732e-06 3.3029230806804467e-10 -4.6721922170643635e-05 -4.7945867578285273e-15 2.383324588471378e-10 -4.7628259880443783e-05 9.2243499491443321e-16 1.2069070025807253e-10 -4.2810762509020563e-05 2.0490209183620677e-15 2.0112216979730854e-10 -2.912596059710255e-05 7.0370266726697446e-06 1.8534891030966322e-10 -4.5175733304383565e-05 -4.7945867578285273e-15 2.383324588471378e-10 -4.7628259880443783e-05 2.0490209183620677e-15 2.0112216979730854e-10 -2.912596059710255e-05 5.7621482220285648e-15 3.8700897329818205e-10 -3.7500382932581325e-05 5.3835406743850749e-06 3.3029230806804457e-10 -4.6721922170643641e-05 -4.7945867578285273e-15 2.383324588471378e-10 -4.7628259880443783e-05 2.0490209183620677e-15 2.0112216979730854e-10 -2.912596059710255e-05 5.7621482220285648e-15 3.8700897329818205e-10 -3.7500382932581325e-05 5.383540674385074e-06 3.3029230806804457e-10 -4.6721922170643635e-05 5.290919336500479e-06 3.0292233855216577e-10 -2.81957433369706e-05 2.0490209183620677e-15 2.0112216979730854e-10 -2.912596059710255e-05 7.0370266726697429e-06 1.8534891030966327e-10 -4.5175733304383579e-05 5.3835406743850698e-06 3.3029230806804467e-10 -4.6721922170643635e-05 5.290919336500479e-06 3.0292233855216577e-10 -2.81957433369706e-05 7.0370266726697446e-06 1.8534891030966322e-10 -4.5175733304383565e-05 5.3835406743850732e-06 3.3029230806804467e-10 -4.6721922170643635e-05 5.290919336500479e-06 3.0292233855216577e-10 -2.81957433369706e-05 1.0290273037581319e-05 3.5333049348369438e-10 -3.7140404936178956e-05 2.0490209183620677e-15 2.0112216979730854e-10 -2.912596059710255e-05 5.7621479041941979e-15 3.870089732981821e-10 -3.7500382932581325e-05 5.290919336500479e-06 3.0292233855216577e-10 -2.81957433369706e-05 5.2790087812869137e-15 3.0308764476750118e-10 -1.8750809763448374e-05 2.0490209183620677e-15 2.0112216979730854e-10 -2.912596059710255e-05 5.290919336500479e-06 3.0292233855216577e-10 -2.81957433369706e-05 5.2790087812869137e-15 3.0308764476750118e-10 -1.8750809763448374e-05 -1.8991875427267589e-14 2.0866944984921655e-10 -1.3726824578925128e-05 5.290919336500479e-06 3.0292233855216577e-10 -2.81957433369706e-05 5.2790089209160308e-15 3.0308764476750118e-10 -1.8750809763448371e-05 -1.8991875427267589e-14 2.0866944984921655e-10 -1.3726824578925128e-05 4.5756530322876888e-06 2.4270396472134656e-10 -1.3726869086637597e-05 1.4269457723915639e-14 3.2692389456675001e-10 -1.3300812830495247e-09 4.5756269031622955e-06 2.1769762722285379e-10 -9.6842767635601147e-10 6.2503802614998949e-06 3.4404593538024723e-10 -1.3290119795912544e-09 4.5756530322876888e-06 2.4270396472134656e-10 -1.3726869086637597e-05 5.2790087812869137e-15 3.0308764476750118e-10 -1.8750809763448374e-05 1.4269457723915639e-14 3.2692389456675001e-10 -1.3300812830499313e-09 -1.8991875427267589e-14 2.0866944984921655e-10 -1.3726824578925128e-05 4.5756530322876888e-06 2.4270396472134656e-10 -1.3726869086637597e-05 1.4269457723915639e-14 3.2692389456675001e-10 -1.3300812830495247e-09 -1.8991875797553496e-14 2.0866944984921655e-10 -1.3726824578925128e-05 4.5756269031622955e-06 2.1769762722285379e-10 -9.6842767635601147e-10 4.5756530322876888e-06 2.4270396472134656e-10 -1.3726869086637597e-05 1.4269457723915639e-14 3.2692389456675001e-10 -1.3300812830495247e-09 6.4816998665738978e-15 2.1614536238590449e-10 -1.1743867376892466e-09 -1.8991875427267589e-14 2.0866944984921655e-10 -1.3726824578925128e-05 4.5756269031622955e-06 2.1769762722285379e-10 -9.6842767635601147e-10 4.9680965584746632e-06 1.1609958812001949e-10 -1.208420785728483e-09 -2.9904005957003023e-15 9.7998332866195934e-11 -1.4904189229365594e-05 -1.8991875427267589e-14 2.0866944984921655e-10 -1.3726824578925128e-05 6.01889032664117e-06 1.5024570351527002e-10 -1.805614816561653e-05 4.9680965584746632e-06 1.1609958812001949e-10 -1.208420785728483e-09 6.4817006071478185e-15 2.1614536238590449e-10 -1.1743867376914682e-09 -1.8991875427267589e-14 2.0866944984921655e-10 -1.3726824578925128e-05 4.5756269031622955e-06 2.1769762722285379e-10 -9.6842767635601147e-10 -1.8991875427267589e-14 2.0866944984921655e-10 -1.3726824578925128e-05 6.0188903266411708e-06 1.5024570351527002e-10 -1.805614816561653e-05 4.5756269031622963e-06 2.1769762722285377e-10 -9.6842767635587788e-10 4.5756530322876888e-06 2.4270396472134656e-10 -1.3726869086637597e-05 4.9680965584746632e-06 1.1609958812001949e-10 -1.208420785728483e-09 -2.9903995875959002e-15 9.7998332866195921e-11 -1.4904189229365596e-05 6.4817006071478185e-15 2.1614536238590449e-10 -1.1743867376914682e-09 -1.8991875427267589e-14 2.0866944984921655e-10 -1.3726824578925128e-05 4.9680965584746632e-06 1.1609958812001949e-10 -1.208420785728483e-09 -1.8991875427267589e-14 2.0866944984921655e-10 -1.3726824578925128e-05 6.01889032664117e-06 1.5024570351527002e-10 -1.805614816561653e-05 4.5756269031622955e-06 2.1769762722285379e-10 -9.6842767635601147e-10 2.0490209183620677e-15 2.0112216979730854e-10 -2.912596059710255e-05 5.290919336500479e-06 3.0292233855216577e-10 -2.81957433369706e-05 -1.8991875262635874e-14 2.0866944984921652e-10 -1.3726824578925128e-05 6.01889032664117e-06 1.5024570351527002e-10 -1.805614816561653e-05 -2.9904005957003023e-15 9.7998332866195934e-11 -1.4904189229365594e-05 2.0490206368619868e-15 2.0112216979730854e-10 -2.912596059710255e-05 -1.8991875427267589e-14 2.0866944984921655e-10 -1.3726824578925128e-05 6.0188903266411683e-06 1.5024570351527002e-10 -1.805614816561653e-05 6.01889032664117e-06 1.5024570351527002e-10 -1.805614816561653e-05 4.5756269031622972e-06 2.1769762722285379e-10 -9.6842767636119292e-10 4.5756530322876905e-06 2.4270396472134661e-10 -1.3726869086637599e-05 9.7091756355882161e-06 2.2938562371179133e-10 -1.3083132570117026e-09 4.9680965584746632e-06 1.1609958812001949e-10 -1.208420785728483e-09 6.0188903266411708e-06 1.5024570351527004e-10 -1.805614816561653e-05 4.5756269031622955e-06 2.1769762722285379e-10 -9.6842767635601147e-10 9.7091756355882161e-06 2.2938562371179133e-10 -1.3083132570117026e-09 4.5756269031622955e-06 2.1769762722285379e-10 -9.6842767635601147e-10 6.2503802614998949e-06 3.4404593538024723e-10 -1.3290119795913377e-09 4.5756530322876888e-06 2.4270396472134656e-10 -1.3726869086637597e-05 9.7091756355882161e-06 2.2938562371179133e-10 -1.3083132570117026e-09 6.2503802614998949e-06 3.4404593538024723e-10 -1.3290119795912544e-09 4.5756530322876888e-06 2.4270396472134656e-10 -1.3726869086637597e-05 9.8869110783691707e-06 3.1776086465935841e-10 -1.7643717633879313e-05 9.7091756355882161e-06 2.2938562371179133e-10 -1.3083132570117026e-09 6.01889032664117e-06 1.5024570351527002e-10 -1.805614816561653e-05 4.5756530322876888e-06 2.4270396472134656e-10 -1.3726869086637597e-05 9.8869110783691707e-06 3.1776086465935847e-10 -1.7643717633879313e-05 9.7091756355882161e-06 2.2938562371179133e-10 -1.3083132570104682e-09 5.290919336500479e-06 3.0292233855216577e-10 -2.81957433369706e-05 6.0188903266411692e-06 1.5024570351526999e-10 -1.805614816561653e-05 4.5756530322876888e-06 2.4270396472134656e-10 -1.3726869086637597e-05 9.8869110783691707e-06 3.1776086465935847e-10 -1.7643717633879313e-05 5.290919336500479e-06 3.0292233855216577e-10 -2.81957433369706e-05 -1.899187525380227e-14 2.0866944984921658e-10 -1.3726824578925132e-05 6.01889032664117e-06 1.5024570351527002e-10 -1.805614816561653e-05 4.5756530322876888e-06 2.4270396472134656e-10 -1.3726869086637597e-05 6.01889032664117e-06 1.5024570351527002e-10 -1.805614816561653e-05 9.8869110783691707e-06 3.1776086465935852e-10 -1.764371763387931e-05 1.1203470692898663e-05 1.2398031684034134e-10 -2.8153583089364589e-05 1.6530709533393156e-05 2.1342289744783901e-10 -1.9526957915878471e-05 6.01889032664117e-06 1.5024570351527002e-10 -1.805614816561653e-05 9.7091756355882161e-06 2.2938562371179133e-10 -1.3083132570094739e-09 1.1203470692898665e-05 1.2398031684034128e-10 -2.8153583089364583e-05 1.6530709533393156e-05 2.1342289744783901e-10 -1.9526957915878471e-05 6.01889032664117e-06 1.5024570351527002e-10 -1.805614816561653e-05 9.8869110783691724e-06 3.1776086465935847e-10 -1.7643717633879313e-05 9.7091756355882161e-06 2.2938562371179136e-10 -1.3083132570144585e-09 1.6530709533393156e-05 2.1342289744783901e-10 -1.9526957915878471e-05 6.2503802614998949e-06 3.4404593538024723e-10 -1.3290119795912544e-09 9.8869110783691707e-06 3.1776086465935847e-10 -1.7643717633879313e-05 9.7091756355882161e-06 2.2938562371179133e-10 -1.3083132570117026e-09 1.2500880504534192e-05 4.062802284826933e-10 -1.550453957330202e-09 9.8869110783691707e-06 3.1776086465935847e-10 -1.7643717633879313e-05 9.7091756355882161e-06 2.2938562371179133e-10 -1.3083132570117026e-09 1.5877165669447992e-05 2.5312515249995936e-10 -1.2694677674764572e-09 1.6530709533393156e-05 2.1342289744783901e-10 -1.9526957915878471e-05 9.7091756355882161e-06 2.2938562371179133e-10 -1.3083132570117026e-09 1.4271170427048385e-05 1.2249420129039235e-10 -9.961238099771759e-10 1.5877165669447992e-05 2.5312515249995936e-10 -1.2694677674764572e-09 1.6530709533393156e-05 2.1342289744783901e-10 -1.9526957915878474e-05 9.8869110783691707e-06 3.1776086465935847e-10 -1.7643717633879313e-05 1.2500880504534192e-05 4.062802284826933e-10 -1.550453957330202e-09 1.5980336470925723e-05 2.9924260307689272e-10 -1.5348497280330981e-05 1.5877165669447992e-05 2.5312515249995936e-10 -1.2694677674764572e-09 9.8869110783691707e-06 3.1776086465935847e-10 -1.7643717633879313e-05 9.7091756355882161e-06 2.2938562371179128e-10 -1.3083132570157181e-09 1.2500880504534192e-05 4.062802284826933e-10 -1.550453957330202e-09 1.5877165669447992e-05 2.5312515249995936e-10 -1.2694677674764572e-09 9.8869110783691707e-06 3.1776086465935847e-10 -1.7643717633879313e-05 1.4319803648028622e-05 2.4238403919899567e-10 -2.9091521872410459e-05 1.5980336470925723e-05 2.9924260307689272e-10 -1.5348497280330981e-05 1.6530709533393156e-05 2.1342289744783901e-10 -1.9526957915878471e-05 9.8869110783691707e-06 3.1776086465935847e-10 -1.7643717633879313e-05 1.5980336470925723e-05 2.9924260307689272e-10 -1.5348497280330981e-05 1.5877165669447992e-05 2.5312515249995942e-10 -1.2694677674754532e-09 1.6530709533393156e-05 2.1342289744783901e-10 -1.9526957915878471e-05 7.0370266726697446e-06 1.8534891030966322e-10 -4.5175733304383565e-05 1.0290273037581317e-05 3.5333049348369438e-10 -3.7140404936178949e-05 1.1203470692898663e-05 1.2398031684034134e-10 -2.8153583089364583e-05 1.5621086623542769e-05 1.5926895263435887e-10 -4.9656960170750959e-05 7.0370266726697446e-06 1.8534891030966322e-10 -4.5175733304383565e-05 6.0188903266411675e-06 1.5024570351527004e-10 -1.8056148165616523e-05 1.0290273037581319e-05 3.5333049348369438e-10 -3.7140404936178956e-05 1.1203470692898665e-05 1.2398031684034134e-10 -2.8153583089364586e-05 9.8869110783691707e-06 3.1776086465935847e-10 -1.7643717633879313e-05 1.4319803648028622e-05 2.4238403919899567e-10 -2.9091521872410459e-05 1.0290273037581319e-05 3.5333049348369438e-10 -3.7140404936178949e-05 1.1203470692898663e-05 1.2398031684034126e-10 -2.8153583089364583e-05 9.8869110783691707e-06 3.1776086465935847e-10 -1.7643717633879313e-05 1.4319803648028622e-05 2.4238403919899567e-10 -2.9091521872410459e-05 1.1203470692898663e-05 1.2398031684034126e-10 -2.8153583089364583e-05 1.6530709533393153e-05 2.1342289744783895e-10 -1.9526957915878481e-05 6.01889032664117e-06 1.5024570351527002e-10 -1.805614816561653e-05 9.8869110783691707e-06 3.1776086465935847e-10 -1.7643717633879313e-05 1.0290273037581317e-05 3.5333049348369438e-10 -3.7140404936178949e-05 1.1203470692898665e-05 1.2398031684034131e-10 -2.8153583089364579e-05 1.4319803648028622e-05 2.4238403919899567e-10 -2.9091521872410459e-05 1.1203470692898665e-05 1.2398031684034131e-10 -2.8153583089364589e-05 1.6530709533393156e-05 2.1342289744783901e-10 -1.9526957915878471e-05 1.5621086623542766e-05 1.5926895263435881e-10 -4.9656960170750959e-05 1.4319803648028622e-05 2.4238403919899567e-10 -2.9091521872410459e-05 1.0290273037581319e-05 3.5333049348369438e-10 -3.7140404936178949e-05 1.1203470692898665e-05 1.2398031684034128e-10 -2.8153583089364583e-05 1.5621086623542766e-05 1.5926895263435884e-10 -4.9656960170750952e-05 5.290919336500479e-06 3.0292233855216577e-10 -2.81957433369706e-05 6.0188903266411692e-06 1.5024570351526999e-10 -1.805614816561653e-05 9.8869110783691707e-06 3.1776086465935847e-10 -1.7643717633879313e-05 1.0290273037581319e-05 3.5333049348369438e-10 -3.7140404936178949e-05 7.0370266726697446e-06 1.8534891030966322e-10 -4.5175733304383565e-05 5.383540674385074e-06 3.3029230806804467e-10 -4.6721922170643635e-05 1.0290273037581317e-05 3.5333049348369438e-10 -3.7140404936178942e-05 1.0140745686962391e-05 3.6841816183010001e-10 -5.6268846544187848e-05 1.4319803648028622e-05 2.4238403919899567e-10 -2.9091521872410459e-05 1.0290273037581319e-05 3.5333049348369438e-10 -3.7140404936178949e-05 1.6239109627333722e-05 3.163831337967028e-10 -4.6875180847950182e-05 1.5621086623542769e-05 1.5926895263435887e-10 -4.9656960170750959e-05 7.7409206933157089e-06 2.1289200164182606e-11 -4.2280066784070226e-05 7.0370266726697446e-06 1.8534891030966322e-10 -4.5175733304383565e-05 1.1203470692898663e-05 1.2398031684034134e-10 -2.8153583089364583e-05 1.5621086623542769e-05 1.5926895263435889e-10 -4.9656960170750959e-05 7.7409206933157089e-06 2.1289200164182606e-11 -4.2280066784070226e-05 1.1203470692898663e-05 1.2398031684034136e-10 -2.8153583089364586e-05 1.5638710146451404e-05 -2.0632452647681542e-11 -2.3403594931423688e-05 1.5626091574759141e-05 -1.8183402299245835e-12 -4.6875145498662429e-05 7.7409206933157089e-06 2.1289200164182606e-11 -4.2280066784070226e-05 1.1203470692898665e-05 1.2398031684034134e-10 -2.8153583089364583e-05 1.5626091574759141e-05 -1.8183402299245893e-12 -4.6875145498662449e-05 1.5621086623542769e-05 1.5926895263435879e-10 -4.9656960170750946e-05 6.9835954304980097e-06 1.0760774718474006e-11 -2.0950094955930018e-05 7.7409206933157089e-06 2.1289200164182603e-11 -4.2280066784070226e-05 1.1203470692898667e-05 1.2398031684034134e-10 -2.8153583089364583e-05 1.5638710146451404e-05 -2.0632452647681574e-11 -2.3403594931423678e-05 6.9835954304980097e-06 1.0760774718474006e-11 -2.0950094955930018e-05 1.1203470692898665e-05 1.2398031684034134e-10 -2.8153583089364583e-05 1.0140287401505001e-05 6.8385820281465445e-11 -1.4693957786972401e-09 1.5638710146451404e-05 -2.0632452647681574e-11 -2.3403594931423678e-05 9.7091756355882161e-06 2.2938562371179133e-10 -1.3083132570117026e-09 1.1203470692898665e-05 1.2398031684034131e-10 -2.8153583089364589e-05 1.0140287401505001e-05 6.8385820281465406e-11 -1.4693957786964104e-09 1.4271170427048384e-05 1.2249420129039235e-10 -9.9612380997405267e-10 6.9835954304980097e-06 1.0760774718474006e-11 -2.0950094955930018e-05 6.0188903266411666e-06 1.5024570351527004e-10 -1.8056148165616526e-05 1.1203470692898665e-05 1.2398031684034134e-10 -2.8153583089364583e-05 1.0140287401505002e-05 6.8385820281465432e-11 -1.4693957786967754e-09 1.1203470692898665e-05 1.2398031684034134e-10 -2.8153583089364583e-05 1.0140287401505002e-05 6.8385820281465432e-11 -1.4693957786973352e-09 1.4271170427048384e-05 1.2249420129039235e-10 -9.9612380997405267e-10 1.5638710146451404e-05 -2.0632452647681574e-11 -2.3403594931423678e-05 6.01889032664117e-06 1.5024570351527002e-10 -1.805614816561653e-05 9.7091756355882161e-06 2.2938562371179133e-10 -1.308313257012106e-09 1.1203470692898665e-05 1.2398031684034136e-10 -2.8153583089364586e-05 1.0140287401505002e-05 6.8385820281465432e-11 -1.4693957786973352e-09 9.7091756355882161e-06 2.2938562371179133e-10 -1.3083132570117026e-09 1.1203470692898667e-05 1.2398031684034139e-10 -2.8153583089364586e-05 1.4271170427048384e-05 1.2249420129039235e-10 -9.9612380997405267e-10 1.6530709533393156e-05 2.1342289744783901e-10 -1.9526957915878474e-05 1.1203470692898665e-05 1.2398031684034134e-10 -2.8153583089364583e-05 1.4271170427048384e-05 1.2249420129039235e-10 -9.9612380997405267e-10 1.6530709533393156e-05 2.1342289744783901e-10 -1.9526957915878471e-05 1.5638710146451404e-05 -2.0632452647681574e-11 -2.3403594931423678e-05 1.0289865374598604e-05 -7.449159553737379e-11 -1.4010515441994089e-09 5.3835362666305587e-06 -1.0187219049365161e-11 -1.3238131660934643e-09 6.9835954304980097e-06 1.0760774718474003e-11 -2.0950094955930018e-05 1.0140287401505002e-05 6.8385820281465432e-11 -1.4693957786973352e-09 1.0140287401505002e-05 6.8385820281465432e-11 -1.4693957786973352e-09 1.4271170427048384e-05 1.2249420129039235e-10 -9.9612380997405267e-10 1.6239155153754937e-05 2.3903561902704594e-11 -1.3010116391770137e-09 1.5638710146451404e-05 -2.0632452647681574e-11 -2.3403594931423678e-05 1.8733874173783672e-05 1.1126800696761452e-10 -9.9364102922283004e-10 2.2727382452067379e-05 8.411149464161928e-11 -8.3438676972347997e-10 2.139413218825501e-05 1.266376474064063e-10 -2.9153072991417164e-05 2.4287108597984802e-05 -3.152621917971153e-11 -2.0414421560202322e-05 1.8733874173783672e-05 1.1126800696761452e-10 -9.9364102922283004e-10 2.1394132188255014e-05 1.2663764740640633e-10 -2.9153072991417161e-05 2.4287108597984798e-05 -3.152621917971153e-11 -2.0414421560202322e-05 1.5638710146451404e-05 -2.0632452647681574e-11 -2.3403594931423678e-05 1.4271170427048384e-05 1.2249420129039235e-10 -9.9612380997405267e-10 1.8733874173783672e-05 1.1126800696761452e-10 -9.9364102922308874e-10 1.6530709533393153e-05 2.1342289744783898e-10 -1.9526957915878468e-05 1.5638710146451404e-05 -2.0632452647681606e-11 -2.3403594931423681e-05 1.6239155153754937e-05 2.3903561902704571e-11 -1.3010116391742183e-09 1.8733874173783672e-05 1.1126800696761452e-10 -9.9364102922283955e-10 2.1039105244102769e-05 -7.4086674693707168e-12 -1.0244454538581609e-09 1.5638710146451404e-05 -2.0632452647681574e-11 -2.3403594931423678e-05 1.8733874173783672e-05 1.1126800696761452e-10 -9.9364102922283004e-10 2.139413218825501e-05 1.266376474064063e-10 -2.9153072991417161e-05 1.6530709533393153e-05 2.1342289744783903e-10 -1.9526957915878474e-05 1.5638710146451404e-05 -2.0632452647681538e-11 -2.3403594931423678e-05 1.8733874173783672e-05 1.1126800696761452e-10 -9.9364102922283004e-10 2.4287108597984798e-05 -3.1526219179711562e-11 -2.0414421560202319e-05 2.1039105244102769e-05 -7.4086674693707168e-12 -1.0244454538582017e-09 1.5638710146451404e-05 -2.0632452647681574e-11 -2.3403594931423678e-05 1.8733874173783672e-05 1.1126800696761452e-10 -9.9364102922283004e-10 2.1394132188255014e-05 1.2663764740640628e-10 -2.9153072991417164e-05 1.6530709533393156e-05 2.1342289744783908e-10 -1.9526957915878471e-05 2.549619985695176e-05 1.9398603369314266e-10 -1.7328638111955837e-05 1.4271170427048384e-05 1.2249420129039235e-10 -9.9612380997405267e-10 1.6239155153754937e-05 2.3903561902704571e-11 -1.3010116391742183e-09 1.8733874173783672e-05 1.1126800696761452e-10 -9.9364102922283004e-10 1.5638710146451404e-05 -2.0632452647681577e-11 -2.3403594931423684e-05 1.8733874173783672e-05 1.1126800696761452e-10 -9.9364102922283004e-10 2.2727382452067379e-05 8.4111494641619306e-11 -8.3438676972234249e-10 2.139413218825501e-05 1.2663764740640635e-10 -2.9153072991417161e-05 2.549619985695176e-05 1.9398603369314264e-10 -1.7328638111955837e-05 1.4271170427048384e-05 1.2249420129039235e-10 -9.9612380997405267e-10 1.8733874173783672e-05 1.1126800696761452e-10 -9.9364102922268652e-10 1.5877165669447992e-05 2.5312515249995936e-10 -1.2694677674780189e-09 1.6530709533393156e-05 2.1342289744783901e-10 -1.9526957915878468e-05 1.8733874173783672e-05 1.1126800696761452e-10 -9.9364102922283004e-10 2.2727382452067379e-05 8.4111494641619319e-11 -8.3438676972186686e-10 2.2046036238471817e-05 1.6045263791337179e-10 -1.274011471061805e-09 2.549619985695176e-05 1.9398603369314264e-10 -1.7328638111955837e-05 1.8733874173783672e-05 1.1126800696761452e-10 -9.9364102922283004e-10 2.2727382452067379e-05 8.4111494641619306e-11 -8.3438676972475838e-10 2.4287108597984795e-05 -3.152621917971162e-11 -2.0414421560202319e-05 2.1039105244102769e-05 -7.4086674693707168e-12 -1.0244454538582017e-09 1.1203470692898665e-05 1.2398031684034134e-10 -2.8153583089364583e-05 2.139413218825501e-05 1.266376474064063e-10 -2.9153072991417164e-05 1.6530709533393156e-05 2.1342289744783901e-10 -1.9526957915878471e-05 1.5638710146451404e-05 -2.0632452647681574e-11 -2.3403594931423678e-05 1.1203470692898665e-05 1.2398031684034134e-10 -2.8153583089364583e-05 2.139413218825501e-05 1.266376474064063e-10 -2.9153072991417164e-05 1.5626091574759141e-05 -1.8183402299245683e-12 -4.6875145498662442e-05 1.5621086623542769e-05 1.5926895263435887e-10 -4.9656960170750959e-05 1.1203470692898665e-05 1.2398031684034134e-10 -2.8153583089364583e-05 2.139413218825501e-05 1.266376474064063e-10 -2.9153072991417164e-05 1.5638710146451404e-05 -2.0632452647681574e-11 -2.3403594931423674e-05 1.5626091574759141e-05 -1.8183402299245645e-12 -4.6875145498662449e-05 2.139413218825501e-05 1.266376474064063e-10 -2.9153072991417164e-05 2.3453183028271071e-05 1.7670110359534258e-11 -4.6722008888558432e-05 1.5638710146451408e-05 -2.0632452647681606e-11 -2.3403594931423674e-05 1.5626091574759141e-05 -1.8183402299245683e-12 -4.6875145498662442e-05 2.139413218825501e-05 1.266376474064063e-10 -2.9153072991417164e-05 2.4181275535048907e-05 2.0438860328416878e-10 -4.6714928478079137e-05 2.3453183028271071e-05 1.7670110359534258e-11 -4.6722008888558432e-05 1.5621086623542769e-05 1.5926895263435887e-10 -4.9656960170750959e-05 2.139413218825501e-05 1.266376474064063e-10 -2.9153072991417164e-05 2.3453183028271068e-05 1.7670110359534267e-11 -4.6722008888558432e-05 2.4287108597984798e-05 -3.1526219179711588e-11 -2.0414421560202322e-05 1.5638710146451401e-05 -2.0632452647681606e-11 -2.3403594931423674e-05 1.1203470692898665e-05 1.2398031684034134e-10 -2.8153583089364583e-05 2.139413218825501e-05 1.266376474064063e-10 -2.9153072991417164e-05 1.6530709533393156e-05 2.1342289744783901e-10 -1.9526957915878471e-05 1.5621086623542769e-05 1.5926895263435887e-10 -4.9656960170750959e-05 2.139413218825501e-05 1.266376474064063e-10 -2.9153072991417164e-05 2.3453183028271071e-05 1.7670110359534258e-11 -4.6722008888558432e-05 1.5626091574759141e-05 -1.8183402299245683e-12 -4.6875145498662442e-05 1.5621086623542769e-05 1.5926895263435887e-10 -4.9656960170750959e-05 2.139413218825501e-05 1.266376474064063e-10 -2.9153072991417164e-05 1.9085259632517763e-05 3.3586093311589039e-10 -3.1057836593885839e-05 1.6530709533393156e-05 2.1342289744783901e-10 -1.9526957915878474e-05 2.549619985695176e-05 1.9398603369314264e-10 -1.7328638111955837e-05 2.139413218825501e-05 1.266376474064063e-10 -2.9153072991417164e-05 1.9085259632517767e-05 3.3586093311589039e-10 -3.1057836593885846e-05 2.418127553504891e-05 2.0438860328416881e-10 -4.6714928478079137e-05 1.5621086623542769e-05 1.5926895263435887e-10 -4.9656960170750959e-05 1.9085259632517767e-05 3.3586093311589039e-10 -3.1057836593885846e-05 2.4181275535048907e-05 2.0438860328416878e-10 -4.6714928478079137e-05 2.1326582803799021e-05 3.71958518621666e-10 -4.9040811334222453e-05 1.5621086623542772e-05 1.5926895263435892e-10 -4.9656960170750952e-05 2.139413218825501e-05 1.266376474064063e-10 -2.9153072991417164e-05 1.9085259632517767e-05 3.3586093311589039e-10 -3.1057836593885846e-05 2.549619985695176e-05 1.9398603369314264e-10 -1.7328638111955837e-05 2.586167712961288e-05 3.7042255574972208e-10 -2.9445312271042232e-05 1.4319803648028622e-05 2.4238403919899567e-10 -2.9091521872410459e-05 1.9085259632517767e-05 3.3586093311589039e-10 -3.1057836593885846e-05 1.6530709533393156e-05 2.1342289744783901e-10 -1.9526957915878471e-05 1.5621086623542769e-05 1.5926895263435887e-10 -4.9656960170750959e-05 2.139413218825501e-05 1.266376474064063e-10 -2.9153072991417164e-05 1.9085259632517767e-05 3.3586093311589039e-10 -3.1057836593885846e-05 2.5861677129612877e-05 3.7042255574972213e-10 -2.9445312271042219e-05 2.4181275535048907e-05 2.0438860328416878e-10 -4.6714928478079137e-05 2.139413218825501e-05 1.266376474064063e-10 -2.9153072991417164e-05 1.9085259632517763e-05 3.3586093311589039e-10 -3.1057836593885839e-05 1.6530709533393156e-05 2.1342289744783898e-10 -1.9526957915878474e-05 1.5621086623542769e-05 1.5926895263435887e-10 -4.9656960170750959e-05 1.6239109627333722e-05 3.163831337967028e-10 -4.6875180847950182e-05 1.9085259632517767e-05 3.3586093311589039e-10 -3.1057836593885846e-05 2.1326582803799021e-05 3.71958518621666e-10 -4.9040811334222453e-05 1.5621086623542769e-05 1.5926895263435884e-10 -4.9656960170750966e-05 1.4319803648028622e-05 2.4238403919899567e-10 -2.9091521872410459e-05 1.6239109627333722e-05 3.163831337967028e-10 -4.6875180847950182e-05 1.9085259632517767e-05 3.3586093311589039e-10 -3.1057836593885846e-05 1.5621086623542769e-05 1.5926895263435887e-10 -4.9656960170750959e-05 1.9085259632517767e-05 3.3586093311589039e-10 -3.1057836593885846e-05 2.5861677129612877e-05 3.7042255574972213e-10 -2.9445312271042226e-05 2.4181275535048907e-05 2.0438860328416878e-10 -4.6714928478079137e-05 2.1326582803799021e-05 3.71958518621666e-10 -4.9040811334222453e-05 1.4319803648028622e-05 2.4238403919899567e-10 -2.9091521872410459e-05 1.9085259632517767e-05 3.3586093311589039e-10 -3.1057836593885846e-05 1.5980336470925723e-05 2.9924260307689272e-10 -1.5348497280330981e-05 1.6530709533393156e-05 2.1342289744783901e-10 -1.9526957915878471e-05 1.9085259632517767e-05 3.3586093311589039e-10 -3.1057836593885846e-05 1.5980336470925723e-05 2.9924260307689267e-10 -1.5348497280330977e-05 1.6530709533393156e-05 2.1342289744783906e-10 -1.9526957915878471e-05 2.1872959781210495e-05 3.0348836506316073e-10 -1.5880593421703548e-05 1.9085259632517767e-05 3.3586093311589039e-10 -3.1057836593885846e-05 1.6530709533393159e-05 2.1342289744783901e-10 -1.9526957915878471e-05 2.1872959781210495e-05 3.0348836506316073e-10 -1.5880593421703548e-05 2.549619985695176e-05 1.9398603369314264e-10 -1.7328638111955837e-05 1.6530709533393156e-05 2.1342289744783901e-10 -1.9526957915878471e-05 2.2046036238471813e-05 1.6045263791337176e-10 -1.2740114710581019e-09 2.1872959781210495e-05 3.0348836506316073e-10 -1.5880593421703548e-05 2.549619985695176e-05 1.9398603369314264e-10 -1.7328638111955837e-05 1.5980336470925723e-05 2.9924260307689272e-10 -1.5348497280330981e-05 1.5877165669447992e-05 2.5312515249995936e-10 -1.2694677674764572e-09 1.6530709533393156e-05 2.1342289744783901e-10 -1.9526957915878468e-05 2.1872959781210495e-05 3.0348836506316073e-10 -1.5880593421703548e-05 1.8733874173783672e-05 1.1126800696761452e-10 -9.9364102922283004e-10 1.6530709533393153e-05 2.1342289744783901e-10 -1.9526957915878474e-05 2.2046036238471817e-05 1.6045263791337179e-10 -1.274011471061805e-09 2.549619985695176e-05 1.9398603369314264e-10 -1.7328638111955841e-05 1.5980336470925723e-05 2.9924260307689272e-10 -1.5348497280330981e-05 1.8751324909583424e-05 3.6022399556158107e-10 -1.6139325976364363e-09 1.5877165669447992e-05 2.5312515249995936e-10 -1.2694677674764572e-09 2.1872959781210495e-05 3.0348836506316073e-10 -1.5880593421703548e-05 1.2500880504534192e-05 4.062802284826933e-10 -1.550453957330202e-09 1.5980336470925719e-05 2.9924260307689272e-10 -1.5348497280330981e-05 1.875132490958342e-05 3.6022399556158107e-10 -1.6139325976350778e-09 1.5877165669447992e-05 2.5312515249995936e-10 -1.2694677674764572e-09 1.8733874173783672e-05 1.1126800696761452e-10 -9.9364102922283004e-10 1.5877165669447992e-05 2.5312515249995936e-10 -1.2694677674764572e-09 1.6530709533393156e-05 2.1342289744783901e-10 -1.9526957915878474e-05 2.2046036238471817e-05 1.6045263791337179e-10 -1.274011471061805e-09 1.5877165669447992e-05 2.5312515249995936e-10 -1.2694677674764572e-09 1.6530709533393156e-05 2.1342289744783901e-10 -1.9526957915878471e-05 2.2046036238471817e-05 1.6045263791337179e-10 -1.274011471061805e-09 2.1872959781210495e-05 3.0348836506316078e-10 -1.5880593421703548e-05 1.8751324909583424e-05 3.6022399556158107e-10 -1.6139325976364363e-09 2.2046036238471817e-05 1.6045263791337176e-10 -1.2740114710608448e-09 2.1872959781210495e-05 3.0348836506316073e-10 -1.5880593421703548e-05 2.5001819485751251e-05 3.097056212140219e-10 -1.3249295354935261e-09 1.8751324909583424e-05 3.6022399556158107e-10 -1.6139325976364363e-09 1.5877165669447996e-05 2.5312515249995936e-10 -1.2694677674755564e-09 2.2046036238471817e-05 1.6045263791337179e-10 -1.274011471061805e-09 2.1872959781210495e-05 3.0348836506316073e-10 -1.5880593421703548e-05 1.9085259632517767e-05 3.3586093311589039e-10 -3.1057836593885846e-05 2.1872959781210491e-05 3.0348836506316073e-10 -1.5880593421703548e-05 2.549619985695176e-05 1.9398603369314264e-10 -1.7328638111955837e-05 2.5861677129612877e-05 3.7042255574972208e-10 -2.9445312271042222e-05 2.1872959781210495e-05 3.0348836506316073e-10 -1.5880593421703548e-05 2.6676582503636523e-05 2.2790523407414151e-10 -1.3726849677724974e-05 2.549619985695176e-05 1.9398603369314266e-10 -1.7328638111955841e-05 2.5861677129612877e-05 3.7042255574972208e-10 -2.9445312271042222e-05 2.1872959781210495e-05 3.0348836506316073e-10 -1.5880593421703548e-05 2.6676582503636523e-05 2.2790523407414148e-10 -1.3726849677724972e-05 2.6676547512498145e-05 2.3037780684263728e-10 -9.0107597353403714e-10 2.549619985695176e-05 1.9398603369314266e-10 -1.7328638111955827e-05 2.6676582503636523e-05 2.2790523407414148e-10 -1.3726849677724972e-05 2.549619985695176e-05 1.9398603369314264e-10 -1.7328638111955834e-05 3.1252228274327153e-05 1.9375633036782889e-10 -1.3726834329718383e-05 2.5861677129612877e-05 3.7042255574972208e-10 -2.9445312271042222e-05 2.1872959781210495e-05 3.0348836506316073e-10 -1.5880593421703548e-05 2.6676582503636523e-05 2.2790523407414148e-10 -1.3726849677724972e-05 2.5001819485751251e-05 3.097056212140219e-10 -1.3249295354935261e-09 2.6676547512498145e-05 2.3037780684263728e-10 -9.010759735302016e-10 2.2046036238471817e-05 1.6045263791337179e-10 -1.274011471061805e-09 2.1872959781210498e-05 3.0348836506316073e-10 -1.5880593421703548e-05 2.5001819485751251e-05 3.097056212140219e-10 -1.3249295354935261e-09 2.6676547512498145e-05 2.3037780684263728e-10 -9.010759735302016e-10 2.2046036238471817e-05 1.6045263791337179e-10 -1.274011471061805e-09 2.6676547512498145e-05 2.3037780684263728e-10 -9.0107597353108152e-10 2.5496199856951763e-05 1.9398603369314266e-10 -1.7328638111955841e-05 2.6618615223616312e-05 1.3615574478198331e-10 -1.0157396762077724e-09 2.2046036238471817e-05 1.6045263791337179e-10 -1.274011471061805e-09 2.1872959781210495e-05 3.0348836506316078e-10 -1.5880593421703551e-05 2.6676547512498142e-05 2.3037780684263725e-10 -9.0107597353072221e-10 2.549619985695176e-05 1.9398603369314266e-10 -1.7328638111955837e-05 2.549619985695176e-05 1.9398603369314264e-10 -1.7328638111955837e-05 3.1252228274327153e-05 1.9375633036782889e-10 -1.3726834329718381e-05 3.1252166353486059e-05 1.9320598935769642e-10 -2.9125945879398417e-05 3.1252167748579782e-05 1.0192249014351974e-10 -1.4904100236458416e-05 2.549619985695176e-05 1.9398603369314264e-10 -1.7328638111955837e-05 3.1252228274327153e-05 1.9375633036782889e-10 -1.3726834329718385e-05 2.5861677129612877e-05 3.7042255574972203e-10 -2.9445312271042219e-05 3.1252166353486059e-05 1.9320598935769642e-10 -2.9125945879398417e-05 2.6676547512498145e-05 2.3037780684263728e-10 -9.010759735302016e-10 2.5496199856951756e-05 1.9398603369314266e-10 -1.7328638111955834e-05 3.1252228274327153e-05 1.9375633036782889e-10 -1.3726834329718383e-05 3.1252125084374768e-05 1.6790810251507422e-10 -1.1794299294112009e-09 2.549619985695176e-05 1.9398603369314264e-10 -1.7328638111955837e-05 3.1252228274327153e-05 1.9375633036782889e-10 -1.3726834329718381e-05 3.1252125084374768e-05 1.679081025150742e-10 -1.1794299294209382e-09 3.1252167748579782e-05 1.0192249014351974e-10 -1.4904100236458412e-05 2.6676582503636523e-05 2.2790523407414148e-10 -1.3726849677724972e-05 2.6676547512498145e-05 2.3037780684263728e-10 -9.0107597352978398e-10 2.5496199856951763e-05 1.9398603369314261e-10 -1.7328638111955841e-05 3.1252228274327153e-05 1.9375633036782889e-10 -1.3726834329718383e-05 2.6676547512498145e-05 2.3037780684263728e-10 -9.010759735302016e-10 2.549619985695176e-05 1.9398603369314261e-10 -1.7328638111955834e-05 3.1252125084374768e-05 1.6790810251507422e-10 -1.1794299294112009e-09 2.6618615223616312e-05 1.3615574478198331e-10 -1.0157396762077724e-09 2.6676582503636523e-05 2.2790523407414148e-10 -1.3726849677724972e-05 2.6676547512498145e-05 2.3037780684263728e-10 -9.010759735302016e-10 3.1252228274327153e-05 1.9375633036782889e-10 -1.3726834329718383e-05 3.1252077969192841e-05 3.3932729907720411e-10 -1.3635006476931507e-09 2.6676582503636523e-05 2.2790523407414148e-10 -1.3726849677724972e-05 3.1252228274327153e-05 1.9375633036782889e-10 -1.3726834329718383e-05 3.1252077969192841e-05 3.3932729907720411e-10 -1.3635006476931507e-09 3.1252123406785399e-05 3.1733772782160593e-10 -1.8750810675420119e-05 2.6676547512498145e-05 2.3037780684263728e-10 -9.010759735302016e-10 3.1252228274327153e-05 1.9375633036782889e-10 -1.3726834329718381e-05 3.1252125084374768e-05 1.6790810251507422e-10 -1.1794299294112009e-09 3.1252077969192841e-05 3.3932729907720411e-10 -1.3635006476931507e-09 2.6676582503636523e-05 2.2790523407414148e-10 -1.3726849677724972e-05 2.5001819485751251e-05 3.097056212140219e-10 -1.3249295354935261e-09 2.6676547512498148e-05 2.3037780684263731e-10 -9.010759735294469e-10 3.1252077969192841e-05 3.3932729907720411e-10 -1.3635006476931507e-09 2.6676582503636523e-05 2.2790523407414148e-10 -1.3726849677724972e-05 3.1252228274327153e-05 1.9375633036782889e-10 -1.3726834329718383e-05 3.1252123406785399e-05 3.1733772782160593e-10 -1.8750810675420119e-05 2.5861677129612877e-05 3.7042255574972208e-10 -2.9445312271042222e-05 3.1252228274327153e-05 1.9375633036782889e-10 -1.3726834329718383e-05 3.1252123406785392e-05 3.1733772782160588e-10 -1.8750810675420119e-05 2.5861677129612877e-05 3.7042255574972208e-10 -2.9445312271042219e-05 3.1252166353486059e-05 1.9320598935769642e-10 -2.9125945879398417e-05 3.1252123406785399e-05 3.1733772782160593e-10 -1.8750810675420119e-05 2.5861677129612877e-05 3.7042255574972208e-10 -2.9445312271042222e-05 3.1252123166775598e-05 2.9860820851838992e-10 -3.7500385791546052e-05 3.1252166353486059e-05 1.9320598935769642e-10 -2.9125945879398417e-05 2.139413218825501e-05 1.266376474064063e-10 -2.9153072991417164e-05 2.549619985695176e-05 1.9398603369314264e-10 -1.7328638111955837e-05 2.5861677129612877e-05 3.7042255574972208e-10 -2.9445312271042222e-05 2.4181275535048907e-05 2.0438860328416878e-10 -4.6714928478079137e-05 2.549619985695176e-05 1.9398603369314264e-10 -1.7328638111955837e-05 2.586167712961288e-05 3.7042255574972198e-10 -2.9445312271042219e-05 2.418127553504891e-05 2.0438860328416878e-10 -4.6714928478079137e-05 3.1252166353486059e-05 1.9320598935769642e-10 -2.9125945879398417e-05 2.139413218825501e-05 1.266376474064063e-10 -2.9153072991417164e-05 2.549619985695176e-05 1.9398603369314264e-10 -1.7328638111955837e-05 2.4181275535048903e-05 2.0438860328416896e-10 -4.671492847807913e-05 3.1252166353486059e-05 1.9320598935769634e-10 -2.9125945879398413e-05 2.5861677129612877e-05 3.7042255574972208e-10 -2.9445312271042222e-05 2.4181275535048907e-05 2.0438860328416881e-10 -4.6714928478079137e-05 3.1252166353486059e-05 1.9320598935769642e-10 -2.9125945879398417e-05 2.7115168561475084e-05 3.0054325798079037e-10 -4.7445311636842482e-05 2.5861677129612877e-05 3.7042255574972208e-10 -2.9445312271042222e-05 2.4181275535048907e-05 2.0438860328416878e-10 -4.6714928478079137e-05 2.7115168561475084e-05 3.0054325798079037e-10 -4.7445311636842482e-05 2.1326582803799021e-05 3.71958518621666e-10 -4.9040811334222453e-05 2.5861677129612877e-05 3.7042255574972208e-10 -2.9445312271042222e-05 3.1252123166775598e-05 2.9860820851838992e-10 -3.7500385791546058e-05 3.1252166353486059e-05 1.9320598935769642e-10 -2.9125945879398417e-05 2.7115168561475084e-05 3.0054325798079037e-10 -4.7445311636842482e-05 3.1252123166775598e-05 2.9860820851838992e-10 -3.7500385791546052e-05 3.1252166353486059e-05 1.9320598935769642e-10 -2.9125945879398417e-05 3.1252128236370428e-05 1.8790314175397558e-10 -4.7628288487262533e-05 2.7115168561475084e-05 3.0054325798079037e-10 -4.7445311636842482e-05 2.4181275535048907e-05 2.0438860328416878e-10 -4.6714928478079137e-05 3.1252166353486059e-05 1.9320598935769645e-10 -2.9125945879398413e-05 3.1252128236370428e-05 1.8790314175397556e-10 -4.762828848726254e-05 2.7115168561475084e-05 3.0054325798079037e-10 -4.7445311636842482e-05 2.4181275535048907e-05 2.0438860328416878e-10 -4.6714928478079137e-05 3.1252166353486059e-05 1.9320598935769642e-10 -2.9125945879398417e-05 3.1252155995098869e-05 1.128017453765608e-10 -4.2949336575891207e-05 3.1252128236370428e-05 1.8790314175397558e-10 -4.7628288487262533e-05 2.3453183028271071e-05 1.7670110359534258e-11 -4.6722008888558432e-05 3.125216746257517e-05 4.5465614479940577e-11 -3.0419209816045849e-05 2.4287108597984802e-05 -3.1526219179711588e-11 -2.0414421560202322e-05 3.1252158242760582e-05 -9.111186413491211e-11 -3.0867993469993508e-05 2.139413218825501e-05 1.266376474064063e-10 -2.9153072991417164e-05 3.1252155995098869e-05 1.1280174537656082e-10 -4.2949336575891207e-05 2.3453183028271071e-05 1.7670110359534258e-11 -4.6722008888558432e-05 3.125216746257517e-05 4.5465614479940629e-11 -3.0419209816045849e-05 2.139413218825501e-05 1.266376474064063e-10 -2.9153072991417164e-05 2.4181275535048907e-05 2.0438860328416875e-10 -4.6714928478079137e-05 3.1252166353486059e-05 1.932059893576964e-10 -2.9125945879398413e-05 3.1252155995098869e-05 1.1280174537656085e-10 -4.2949336575891207e-05 2.139413218825501e-05 1.266376474064063e-10 -2.9153072991417164e-05 2.4181275535048907e-05 2.0438860328416878e-10 -4.6714928478079137e-05 3.1252155995098869e-05 1.1280174537656085e-10 -4.2949336575891207e-05 2.3453183028271071e-05 1.7670110359534258e-11 -4.6722008888558432e-05 2.139413218825501e-05 1.266376474064063e-10 -2.9153072991417164e-05 3.1252166353486059e-05 1.932059893576965e-10 -2.9125945879398423e-05 3.1252155995098869e-05 1.1280174537656085e-10 -4.2949336575891207e-05 3.125216746257517e-05 4.5465614479940629e-11 -3.0419209816045849e-05 2.139413218825501e-05 1.266376474064063e-10 -2.9153072991417164e-05 2.3453183028271068e-05 1.7670110359534271e-11 -4.6722008888558432e-05 3.125216746257517e-05 4.5465614479940603e-11 -3.0419209816045846e-05 2.4287108597984798e-05 -3.1526219179711594e-11 -2.0414421560202319e-05 2.139413218825501e-05 1.266376474064063e-10 -2.9153072991417164e-05 2.5496199856951763e-05 1.9398603369314261e-10 -1.7328638111955837e-05 3.1252166353486059e-05 1.9320598935769642e-10 -2.9125945879398417e-05 3.125216746257517e-05 4.5465614479940622e-11 -3.0419209816045842e-05 2.139413218825501e-05 1.266376474064063e-10 -2.9153072991417164e-05 2.5496199856951756e-05 1.9398603369314261e-10 -1.7328638111955841e-05 3.125216746257517e-05 4.5465614479940616e-11 -3.0419209816045839e-05 2.4287108597984798e-05 -3.1526219179711575e-11 -2.0414421560202329e-05 3.1252155995098869e-05 1.1280174537656085e-10 -4.2949336575891207e-05 2.3453183028271071e-05 1.7670110359534258e-11 -4.6722008888558432e-05 3.125216746257517e-05 4.5465614479940629e-11 -3.0419209816045849e-05 3.1252067547812021e-05 -2.5110116515090048e-12 -4.871409331811316e-05 2.3453183028271071e-05 1.7670110359534258e-11 -4.6722008888558432e-05 3.125216746257517e-05 4.5465614479940577e-11 -3.0419209816045853e-05 3.1252158242760588e-05 -9.111186413491211e-11 -3.0867993469993514e-05 3.1252067547812021e-05 -2.5110116515090048e-12 -4.871409331811316e-05 3.1252167748579782e-05 1.0192249014351974e-10 -1.4904100236458416e-05 2.4287108597984798e-05 -3.1526219179711594e-11 -2.0414421560202329e-05 2.6311755234189266e-05 3.9029615313431553e-11 -1.1625194736854118e-09 3.125212382317754e-05 -3.1099411587850479e-11 -1.6150424441459246e-05 2.549619985695176e-05 1.9398603369314264e-10 -1.7328638111955837e-05 3.1252167748579782e-05 1.0192249014351974e-10 -1.4904100236458416e-05 2.4287108597984798e-05 -3.1526219179711581e-11 -2.0414421560202322e-05 2.6618615223616312e-05 1.3615574478198331e-10 -1.0157396762077724e-09 2.549619985695176e-05 1.9398603369314264e-10 -1.7328638111955837e-05 3.1252167462575164e-05 4.546561447994059e-11 -3.0419209816045839e-05 3.1252167748579782e-05 1.0192249014351974e-10 -1.4904100236458416e-05 2.4287108597984798e-05 -3.1526219179711581e-11 -2.0414421560202322e-05 3.125216746257517e-05 4.5465614479940629e-11 -3.0419209816045849e-05 3.1252167748579782e-05 1.0192249014351974e-10 -1.4904100236458416e-05 2.4287108597984798e-05 -3.1526219179711562e-11 -2.0414421560202322e-05 3.125212382317754e-05 -3.1099411587850479e-11 -1.6150424441459246e-05 2.2727382452067379e-05 8.4111494641619306e-11 -8.3438676972234249e-10 2.549619985695176e-05 1.9398603369314264e-10 -1.7328638111955837e-05 2.4287108597984798e-05 -3.1526219179711581e-11 -2.0414421560202322e-05 2.6618615223616312e-05 1.3615574478198331e-10 -1.0157396762077724e-09 2.2727382452067379e-05 8.4111494641619306e-11 -8.3438676972234249e-10 2.139413218825501e-05 1.2663764740640628e-10 -2.9153072991417168e-05 2.549619985695176e-05 1.9398603369314264e-10 -1.7328638111955837e-05 2.4287108597984795e-05 -3.1526219179711555e-11 -2.0414421560202322e-05 2.549619985695176e-05 1.9398603369314264e-10 -1.7328638111955837e-05 3.1252166353486059e-05 1.9320598935769642e-10 -2.9125945879398417e-05 3.125216746257517e-05 4.5465614479940687e-11 -3.0419209816045846e-05 3.1252167748579782e-05 1.0192249014351974e-10 -1.4904100236458416e-05 2.2727382452067379e-05 8.4111494641619306e-11 -8.3438676972234249e-10 2.4287108597984798e-05 -3.1526219179711581e-11 -2.0414421560202322e-05 2.6311755234189266e-05 3.9029615313431559e-11 -1.1625194736914421e-09 2.1039105244102769e-05 -7.4086674693707168e-12 -1.0244454538582017e-09 3.1252167748579782e-05 1.0192249014351974e-10 -1.4904100236458416e-05 2.4287108597984795e-05 -3.1526219179711601e-11 -2.0414421560202329e-05 2.6311755234189266e-05 3.9029615313431553e-11 -1.1625194736880798e-09 2.6618615223616312e-05 1.3615574478198328e-10 -1.0157396762072299e-09 2.2727382452067379e-05 8.4111494641619306e-11 -8.3438676972234249e-10 2.4287108597984798e-05 -3.1526219179711581e-11 -2.0414421560202322e-05 2.6311755234189266e-05 3.9029615313431559e-11 -1.1625194736914421e-09 2.6618615223616312e-05 1.3615574478198331e-10 -1.0157396762077724e-09 2.2727382452067379e-05 8.4111494641619306e-11 -8.3438676972234249e-10 2.2046036238471817e-05 1.6045263791337179e-10 -1.274011471061805e-09 2.549619985695176e-05 1.9398603369314261e-10 -1.7328638111955837e-05 2.6618615223616312e-05 1.3615574478198331e-10 -1.0157396762077724e-09 3.1252125084374768e-05 1.6790810251507422e-10 -1.1794299294112009e-09 3.1252167748579775e-05 1.0192249014351974e-10 -1.4904100236458419e-05 2.6618615223616312e-05 1.3615574478198331e-10 -1.0157396762077724e-09 3.1251977016454207e-05 8.9363677080004119e-11 -1.3148151799715355e-09 2.549619985695176e-05 1.9398603369314264e-10 -1.7328638111955837e-05 3.1252125084374761e-05 1.6790810251507417e-10 -1.1794299294146095e-09 3.1252167748579775e-05 1.0192249014351975e-10 -1.4904100236458416e-05 2.6618615223616312e-05 1.3615574478198331e-10 -1.0157396762077724e-09 3.1252167748579782e-05 1.0192249014351974e-10 -1.4904100236458416e-05 2.6311755234189266e-05 3.9029615313431559e-11 -1.1625194736914421e-09 2.6618615223616312e-05 1.3615574478198328e-10 -1.0157396762109529e-09 3.1251977016454207e-05 8.9363677080004119e-11 -1.3148151799715355e-09 3.1252167748579782e-05 1.0192249014351974e-10 -1.4904100236458416e-05 2.6311755234189266e-05 3.9029615313431559e-11 -1.1625194736914421e-09 3.1251977016454207e-05 8.9363677080004119e-11 -1.3148151799715299e-09 3.125212382317754e-05 -3.1099411587850479e-11 -1.6150424441459246e-05 2.6311755234189266e-05 3.9029615313431559e-11 -1.1625194736914421e-09 3.1251977016454207e-05 8.9363677080004119e-11 -1.3148151799715355e-09 3.1251934695021295e-05 -3.4833149088910464e-11 -1.5970094377918637e-09 3.125212382317754e-05 -3.1099411587850479e-11 -1.6150424441459246e-05 3.1252148831124133e-05 -8.3630060553306019e-11 -1.5872595867831225e-05 2.5264191538790891e-05 -1.2924880791924215e-10 -1.4003681143180888e-09 2.6676516394854625e-05 -1.7001895324583739e-10 -9.894381956578137e-10 2.1494457011301755e-05 -1.2564146537630545e-10 -2.940690116614594e-05 2.6311755234189266e-05 3.9029615313431559e-11 -1.1625194736914421e-09 3.1251934695021295e-05 -3.4833149088910464e-11 -1.5970094377918637e-09 3.125212382317754e-05 -3.1099411587850472e-11 -1.6150424441459246e-05 2.5264191538790891e-05 -1.2924880791924213e-10 -1.4003681143140077e-09 3.1251934695021295e-05 -3.4833149088910464e-11 -1.5970094377918637e-09 3.125212382317754e-05 -3.1099411587850479e-11 -1.6150424441459246e-05 3.1252148831124133e-05 -8.3630060553306019e-11 -1.5872595867831225e-05 2.5264191538790891e-05 -1.2924880791924213e-10 -1.4003681143140077e-09 2.4287108597984798e-05 -3.1526219179711581e-11 -2.0414421560202322e-05 3.1252148831124133e-05 -8.363006055330598e-11 -1.5872595867831232e-05 2.5264191538790891e-05 -1.2924880791924213e-10 -1.400368114313382e-09 2.1494457011301759e-05 -1.2564146537630545e-10 -2.9406901166145944e-05 2.4287108597984798e-05 -3.1526219179711581e-11 -2.0414421560202322e-05 2.6311755234189266e-05 3.9029615313431495e-11 -1.162519473691281e-09 2.5264191538790888e-05 -1.2924880791924208e-10 -1.4003681143079616e-09 2.1039105244102769e-05 -7.4086674693707168e-12 -1.0244454538582017e-09 2.4287108597984798e-05 -3.1526219179711581e-11 -2.0414421560202322e-05 2.6311755234189266e-05 3.9029615313431495e-11 -1.1625194736927933e-09 3.125212382317754e-05 -3.1099411587850504e-11 -1.6150424441459246e-05 2.5264191538790891e-05 -1.2924880791924208e-10 -1.400368114310004e-09 2.4287108597984798e-05 -3.1526219179711581e-11 -2.0414421560202322e-05 3.125212382317754e-05 -3.1099411587850479e-11 -1.6150424441459246e-05 3.1252148831124133e-05 -8.3630060553306019e-11 -1.5872595867831229e-05 2.5264191538790891e-05 -1.2924880791924213e-10 -1.4003681143140077e-09 2.4287108597984798e-05 -3.1526219179711581e-11 -2.0414421560202322e-05 3.125212382317754e-05 -3.1099411587850479e-11 -1.6150424441459246e-05 3.1252148831124133e-05 -8.3630060553306057e-11 -1.5872595867831229e-05 3.1252158242760588e-05 -9.1111864134912149e-11 -3.0867993469993514e-05 3.1251934695021295e-05 -3.4833149088910464e-11 -1.5970094377918637e-09 3.1252148831124133e-05 -8.3630060553306019e-11 -1.5872595867831225e-05 2.5264191538790891e-05 -1.2924880791924213e-10 -1.4003681143140077e-09 3.1251976227937643e-05 -2.0729335321120946e-10 -1.3635422633428856e-09 3.1252148831124133e-05 -8.3630060553306019e-11 -1.5872595867831225e-05 2.5264191538790895e-05 -1.2924880791924215e-10 -1.4003681143183244e-09 3.1251976227937643e-05 -2.0729335321120946e-10 -1.3635422633428856e-09 2.6676516394854625e-05 -1.7001895324583739e-10 -9.8943819565732297e-10 3.1252148831124133e-05 -8.3630060553306019e-11 -1.5872595867831225e-05 3.1251976227937643e-05 -2.0729335321120946e-10 -1.3635422633428856e-09 3.1252212145629953e-05 -1.7448327157202037e-10 -1.3726866283263597e-05 2.6676516394854625e-05 -1.7001895324583739e-10 -9.8943819565732297e-10 2.6676530061080837e-05 -2.2889254047172977e-10 -1.3726829944334678e-05 2.1436524375928553e-05 -3.6630004793505778e-10 -1.6171576764625851e-05 2.1494457011301759e-05 -1.2564146537630545e-10 -2.9406901166145944e-05 2.5957343158330906e-05 -3.0337269684888367e-10 -2.8142895593642185e-05 2.5264191538790891e-05 -1.2924880791924213e-10 -1.4003681143140077e-09 2.6676516394854625e-05 -1.7001895324583739e-10 -9.8943819565732297e-10 2.1683058177578961e-05 -2.2208048145930065e-10 -1.1986846887372214e-09 2.1494457011301759e-05 -1.2564146537630545e-10 -2.940690116614594e-05 3.1252148831124133e-05 -8.3630060553306019e-11 -1.5872595867831225e-05 3.1252212145629953e-05 -1.7448327157202037e-10 -1.3726866283263597e-05 2.1494457011301759e-05 -1.2564146537630545e-10 -2.9406901166145944e-05 3.125216632923867e-05 -1.658032971702821e-10 -2.963565120143993e-05 3.1252148831124133e-05 -8.3630060553306019e-11 -1.5872595867831225e-05 3.1252212145629953e-05 -1.7448327157202037e-10 -1.3726866283263597e-05 2.6676516394854622e-05 -1.7001895324583739e-10 -9.8943819565824197e-10 2.1494457011301765e-05 -1.2564146537630545e-10 -2.9406901166145947e-05 3.1252212145629953e-05 -1.7448327157202037e-10 -1.3726866283263597e-05 2.6676530061080837e-05 -2.2889254047172982e-10 -1.3726829944334681e-05 2.1494457011301759e-05 -1.2564146537630556e-10 -2.9406901166145947e-05 2.5957343158330902e-05 -3.0337269684888362e-10 -2.8142895593642178e-05 3.1252212145629953e-05 -1.7448327157202037e-10 -1.3726866283263597e-05 2.6676530061080837e-05 -2.2889254047172977e-10 -1.3726829944334679e-05 2.6676516394854625e-05 -1.7001895324583739e-10 -9.8943819565771216e-10 2.1494457011301762e-05 -1.2564146537630548e-10 -2.9406901166145937e-05 2.6676530061080837e-05 -2.2889254047172977e-10 -1.3726829944334678e-05 2.6676516394854625e-05 -1.7001895324583739e-10 -9.8943819565732297e-10 2.1683058177578961e-05 -2.2208048145930065e-10 -1.1986846887372214e-09 2.1494457011301759e-05 -1.2564146537630545e-10 -2.9406901166145944e-05 3.1252212145629953e-05 -1.7448327157202037e-10 -1.3726866283263597e-05 3.1252087443833605e-05 -3.0912657067136322e-10 -1.8750819696330359e-05 2.6676530061080837e-05 -2.2889254047172977e-10 -1.3726829944334678e-05 2.5957343158330899e-05 -3.0337269684888362e-10 -2.8142895593642178e-05 3.1252212145629953e-05 -1.7448327157202037e-10 -1.3726866283263597e-05 3.1252087443833605e-05 -3.0912657067136322e-10 -1.8750819696330359e-05 2.5957343158330906e-05 -3.0337269684888367e-10 -2.8142895593642185e-05 3.125216632923867e-05 -1.658032971702821e-10 -2.963565120143993e-05 3.1252023361992901e-05 -3.3873677481684894e-10 -1.3015664319410218e-09 2.5001767083322799e-05 -3.1832537892907301e-10 -1.2118761906216053e-09 2.6676530061080837e-05 -2.2889254047172977e-10 -1.3726829944334678e-05 2.6676516394854625e-05 -1.7001895324583739e-10 -9.8943819565732297e-10 3.1252212145629953e-05 -1.7448327157202037e-10 -1.3726866283263597e-05 3.1252087443833605e-05 -3.0912657067136322e-10 -1.8750819696330359e-05 3.1252023361992901e-05 -3.3873677481684894e-10 -1.3015664319410218e-09 2.6676530061080837e-05 -2.2889254047172977e-10 -1.3726829944334678e-05 3.1251976227937643e-05 -2.0729335321120946e-10 -1.3635422633428856e-09 3.1252212145629953e-05 -1.7448327157202037e-10 -1.3726866283263597e-05 3.1252023361992901e-05 -3.3873677481684894e-10 -1.3015664319410218e-09 2.6676516394854625e-05 -1.7001895324583739e-10 -9.8943819565732297e-10 3.1252212145629953e-05 -1.7448327157202037e-10 -1.3726866283263597e-05 3.1252023361992894e-05 -3.3873677481684889e-10 -1.3015664319399109e-09 2.6676530061080837e-05 -2.2889254047172977e-10 -1.3726829944334678e-05 2.6676516394854625e-05 -1.7001895324583739e-10 -9.8943819565732297e-10 2.5001767083322799e-05 -3.1832537892907301e-10 -1.2118761906238269e-09 2.6676530061080837e-05 -2.2889254047172977e-10 -1.3726829944334678e-05 2.1683058177578961e-05 -2.2208048145930065e-10 -1.1986846887372214e-09 2.1436524375928553e-05 -3.6630004793505784e-10 -1.6171576764625851e-05 2.5001767083322799e-05 -3.1832537892907301e-10 -1.2118761906238269e-09 2.6676530061080837e-05 -2.2889254047172977e-10 -1.3726829944334678e-05 2.6676516394854625e-05 -1.7001895324583739e-10 -9.8943819565805772e-10 2.1683058177578961e-05 -2.2208048145930065e-10 -1.1986846887372214e-09 2.1683058177578961e-05 -2.2208048145930065e-10 -1.1986846887372214e-09 2.1436524375928553e-05 -3.6630004793505784e-10 -1.6171576764625851e-05 1.5638583340235374e-05 -2.1791482584838253e-10 -2.1173425769283076e-05 2.1494457011301759e-05 -1.2564146537630545e-10 -2.9406901166145944e-05 2.6676530061080837e-05 -2.2889254047172977e-10 -1.3726829944334678e-05 2.1683058177578961e-05 -2.2208048145930065e-10 -1.1986846887372214e-09 2.1436524375928553e-05 -3.6630004793505784e-10 -1.6171576764625851e-05 2.1494457011301759e-05 -1.2564146537630545e-10 -2.9406901166145944e-05 2.5001767083322799e-05 -3.1832537892907301e-10 -1.2118761906238269e-09 2.1683058177578961e-05 -2.2208048145930065e-10 -1.1986846887372214e-09 2.1436524375928553e-05 -3.6630004793505784e-10 -1.6171576764625851e-05 1.875131566817867e-05 -2.9955796606725875e-10 -1.3680747194106935e-09 1.2500863388171091e-05 -3.2551824530178958e-10 -1.6298252423444801e-09 1.5436000795116393e-05 -3.0158469890274156e-10 -1.2411359611427644e-05 1.875131566817867e-05 -2.9955796606725875e-10 -1.3680747194106935e-09 1.5928231637793179e-05 -1.9340447038323969e-10 -1.17983931849907e-09 2.1683058177578961e-05 -2.2208048145930065e-10 -1.1986846887372214e-09 2.1436524375928549e-05 -3.6630004793505784e-10 -1.6171576764625848e-05 1.875131566817867e-05 -2.9955796606725875e-10 -1.3680747194106935e-09 1.5928231637793179e-05 -1.9340447038323969e-10 -1.17983931849907e-09 1.5436000795116393e-05 -3.0158469890274156e-10 -1.2411359611427644e-05 2.1436524375928553e-05 -3.6630004793505784e-10 -1.6171576764625851e-05 1.875131566817867e-05 -2.9955796606725875e-10 -1.3680747194106935e-09 1.5928231637793179e-05 -1.9340447038323969e-10 -1.17983931849907e-09 1.5436000795116393e-05 -3.0158469890274156e-10 -1.2411359611427644e-05 1.4903632373037171e-05 -3.6922521303978658e-10 -2.9757897784731953e-05 2.1436524375928553e-05 -3.6630004793505784e-10 -1.6171576764625851e-05 1.5638583340235374e-05 -2.1791482584838253e-10 -2.1173425769283076e-05 1.5436000795116393e-05 -3.0158469890274156e-10 -1.2411359611427644e-05 2.1436524375928553e-05 -3.6630004793505784e-10 -1.6171576764625851e-05 1.5638583340235374e-05 -2.1791482584838253e-10 -2.1173425769283076e-05 1.5928231637793179e-05 -1.9340447038323969e-10 -1.17983931849907e-09 2.1683058177578961e-05 -2.2208048145930065e-10 -1.1986846887372214e-09 2.1436524375928553e-05 -3.6630004793505778e-10 -1.6171576764625851e-05 1.5638583340235374e-05 -2.1791482584838253e-10 -2.1173425769283076e-05 1.5928231637793179e-05 -1.9340447038323969e-10 -1.17983931849907e-09 2.1683058177578961e-05 -2.2208048145930065e-10 -1.1986846887372214e-09 1.5638583340235374e-05 -2.1791482584838253e-10 -2.1173425769283076e-05 1.5928231637793179e-05 -1.9340447038323969e-10 -1.17983931849907e-09 1.9078498017450649e-05 -1.0904348789255585e-10 -1.1190279863292263e-09 2.4287108597984798e-05 -3.1526219179711581e-11 -2.0414421560202322e-05 2.5264191538790888e-05 -1.2924880791924213e-10 -1.4003681143124764e-09 1.9078498017450649e-05 -1.0904348789255583e-10 -1.1190279863284837e-09 2.1494457011301759e-05 -1.2564146537630545e-10 -2.9406901166145944e-05 2.1683058177578961e-05 -2.2208048145930065e-10 -1.1986846887372214e-09 1.5638583340235374e-05 -2.1791482584838253e-10 -2.1173425769283076e-05 1.9078498017450649e-05 -1.0904348789255585e-10 -1.1190279863292263e-09 2.1494457011301759e-05 -1.2564146537630545e-10 -2.9406901166145944e-05 2.5264191538790891e-05 -1.2924880791924213e-10 -1.4003681143140077e-09 2.1683058177578961e-05 -2.2208048145930065e-10 -1.1986846887373157e-09 1.9078498017450649e-05 -1.0904348789255585e-10 -1.1190279863292263e-09 2.1494457011301755e-05 -1.2564146537630543e-10 -2.940690116614594e-05 1.4317331061876125e-05 -1.2010786202097426e-10 -1.0177394755198159e-09 1.5638583340235374e-05 -2.1791482584838253e-10 -2.1173425769283076e-05 1.5928231637793179e-05 -1.9340447038323969e-10 -1.17983931849907e-09 1.9078498017450649e-05 -1.0904348789255585e-10 -1.1190279863292263e-09 1.4317331061876125e-05 -1.2010786202097426e-10 -1.0177394755198159e-09 1.5638583340235374e-05 -2.1791482584838253e-10 -2.1173425769283076e-05 1.9078498017450649e-05 -1.0904348789255585e-10 -1.1190279863292263e-09 1.5638710146451404e-05 -2.0632452647681574e-11 -2.3403594931423678e-05 2.4287108597984798e-05 -3.1526219179711581e-11 -2.0414421560202322e-05 1.9078498017450649e-05 -1.0904348789255585e-10 -1.1190279863300581e-09 2.1039105244102769e-05 -7.4086674693707168e-12 -1.0244454538582017e-09 1.5638710146451404e-05 -2.0632452647681574e-11 -2.3403594931423678e-05 1.5638583340235374e-05 -2.1791482584838253e-10 -2.1173425769283076e-05 1.9078498017450646e-05 -1.0904348789255585e-10 -1.1190279863286097e-09 1.5638710146451401e-05 -2.063245264768149e-11 -2.3403594931423678e-05 2.1494457011301759e-05 -1.2564146537630545e-10 -2.940690116614594e-05 2.4287108597984798e-05 -3.1526219179711581e-11 -2.0414421560202322e-05 1.9078498017450652e-05 -1.0904348789255585e-10 -1.1190279863286804e-09 1.5638710146451404e-05 -2.0632452647681574e-11 -2.3403594931423678e-05 2.1494457011301755e-05 -1.2564146537630545e-10 -2.9406901166145944e-05 1.6239155153754937e-05 2.3903561902704571e-11 -1.3010116391742183e-09 1.9078498017450649e-05 -1.0904348789255585e-10 -1.1190279863290634e-09 2.1039105244102769e-05 -7.4086674693707168e-12 -1.0244454538583646e-09 1.5638710146451404e-05 -2.0632452647681574e-11 -2.3403594931423678e-05 1.4317331061876125e-05 -1.2010786202097426e-10 -1.0177394755198159e-09 1.6239155153754937e-05 2.3903561902704571e-11 -1.3010116391742604e-09 1.9078498017450649e-05 -1.0904348789255585e-10 -1.1190279863292263e-09 1.5638710146451404e-05 -2.0632452647681574e-11 -2.3403594931423678e-05 2.4287108597984798e-05 -3.1526219179711581e-11 -2.0414421560202322e-05 2.5264191538790891e-05 -1.2924880791924213e-10 -1.4003681143140077e-09 1.9078498017450652e-05 -1.0904348789255582e-10 -1.1190279863284037e-09 2.1039105244102769e-05 -7.4086674693707168e-12 -1.0244454538582017e-09 2.3453183028271071e-05 1.7670110359534258e-11 -4.6722008888558432e-05 1.5626091574759141e-05 -1.8183402299245683e-12 -4.6875145498662442e-05 2.1494457011301759e-05 -1.2564146537630545e-10 -2.9406901166145944e-05 1.5649089646065374e-05 -1.6208601468754337e-10 -4.958130113751824e-05 2.3453183028271071e-05 1.7670110359534258e-11 -4.6722008888558432e-05 2.1494457011301759e-05 -1.2564146537630545e-10 -2.9406901166145944e-05 2.436852018781227e-05 -1.7585887877950571e-10 -4.688888605276055e-05 1.5649089646065374e-05 -1.6208601468754337e-10 -4.958130113751824e-05 2.3453183028271071e-05 1.7670110359534258e-11 -4.6722008888558432e-05 1.5638710146451408e-05 -2.0632452647681551e-11 -2.3403594931423671e-05 1.5626091574759141e-05 -1.8183402299246253e-12 -4.6875145498662449e-05 2.1494457011301759e-05 -1.2564146537630545e-10 -2.9406901166145944e-05 2.3453183028271071e-05 1.7670110359534258e-11 -4.6722008888558432e-05 2.4287108597984802e-05 -3.1526219179711575e-11 -2.0414421560202322e-05 1.5638710146451404e-05 -2.0632452647681561e-11 -2.3403594931423688e-05 2.1494457011301759e-05 -1.2564146537630545e-10 -2.9406901166145944e-05 1.5638583340235374e-05 -2.1791482584838253e-10 -2.1173425769283076e-05 1.5638710146451404e-05 -2.0632452647681545e-11 -2.3403594931423681e-05 2.1494457011301759e-05 -1.2564146537630545e-10 -2.9406901166145944e-05 1.564908964606537e-05 -1.6208601468754334e-10 -4.9581301137518247e-05 1.5638710146451404e-05 -2.0632452647681574e-11 -2.3403594931423678e-05 1.5626091574759141e-05 -1.8183402299245281e-12 -4.6875145498662449e-05 2.1494457011301759e-05 -1.2564146537630545e-10 -2.9406901166145944e-05 1.5649089646065374e-05 -1.6208601468754337e-10 -4.958130113751824e-05 2.1494457011301759e-05 -1.2564146537630545e-10 -2.9406901166145944e-05 2.0892795786309793e-05 -3.3362506126688742e-10 -3.6124631369019276e-05 2.5957343158330902e-05 -3.0337269684888373e-10 -2.8142895593642192e-05 2.436852018781227e-05 -1.7585887877950568e-10 -4.6888886052760557e-05 2.1436524375928553e-05 -3.6630004793505784e-10 -1.6171576764625851e-05 2.1494457011301755e-05 -1.256414653763054e-10 -2.9406901166145944e-05 2.0892795786309793e-05 -3.3362506126688742e-10 -3.6124631369019276e-05 2.5957343158330906e-05 -3.0337269684888367e-10 -2.8142895593642185e-05 1.4903632373037171e-05 -3.6922521303978658e-10 -2.9757897784731953e-05 1.5638583340235374e-05 -2.1791482584838253e-10 -2.1173425769283076e-05 2.0892795786309793e-05 -3.3362506126688742e-10 -3.6124631369019276e-05 1.5649089646065374e-05 -1.6208601468754337e-10 -4.958130113751824e-05 2.0892795786309793e-05 -3.3362506126688742e-10 -3.6124631369019276e-05 2.4368520187812273e-05 -1.7585887877950568e-10 -4.688888605276055e-05 2.1554541900823941e-05 -2.5665715523024388e-10 -5.0793654682232749e-05 1.564908964606537e-05 -1.6208601468754334e-10 -4.958130113751824e-05 2.1436524375928553e-05 -3.6630004793505784e-10 -1.6171576764625851e-05 1.5638583340235367e-05 -2.1791482584838256e-10 -2.1173425769283076e-05 2.1494457011301762e-05 -1.256414653763054e-10 -2.9406901166145944e-05 2.0892795786309793e-05 -3.3362506126688742e-10 -3.6124631369019276e-05 1.5638583340235374e-05 -2.1791482584838253e-10 -2.1173425769283076e-05 2.1494457011301755e-05 -1.2564146537630545e-10 -2.9406901166145944e-05 2.0892795786309789e-05 -3.3362506126688737e-10 -3.6124631369019276e-05 1.5649089646065374e-05 -1.6208601468754337e-10 -4.9581301137518247e-05 2.1494457011301759e-05 -1.2564146537630545e-10 -2.9406901166145944e-05 2.0892795786309793e-05 -3.3362506126688742e-10 -3.6124631369019276e-05 2.436852018781227e-05 -1.7585887877950568e-10 -4.6888886052760557e-05 1.5649089646065377e-05 -1.6208601468754339e-10 -4.9581301137518234e-05 1.4903632373037171e-05 -3.6922521303978658e-10 -2.9757897784731953e-05 2.1436524375928553e-05 -3.6630004793505784e-10 -1.6171576764625851e-05 1.5638583340235378e-05 -2.1791482584838256e-10 -2.1173425769283076e-05 2.0892795786309793e-05 -3.3362506126688742e-10 -3.6124631369019276e-05 1.4903632373037171e-05 -3.6922521303978658e-10 -2.9757897784731953e-05 1.5626086726334189e-05 -3.1909818109196704e-10 -4.5036277833226051e-05 2.0892795786309793e-05 -3.3362506126688742e-10 -3.6124631369019276e-05 1.5649089646065374e-05 -1.6208601468754337e-10 -4.958130113751824e-05 1.5626086726334186e-05 -3.1909818109196704e-10 -4.5036277833226051e-05 2.0892795786309793e-05 -3.3362506126688742e-10 -3.6124631369019276e-05 2.1554541900823941e-05 -2.5665715523024388e-10 -5.0793654682232749e-05 1.5649089646065374e-05 -1.6208601468754337e-10 -4.958130113751824e-05 2.0892795786309793e-05 -3.3362506126688742e-10 -3.6124631369019276e-05 2.6106512277243761e-05 -3.0296110130227076e-10 -4.596581187976538e-05 2.436852018781227e-05 -1.7585887877950568e-10 -4.6888886052760557e-05 2.1554541900823941e-05 -2.5665715523024388e-10 -5.0793654682232749e-05 2.1494457011301759e-05 -1.2564146537630545e-10 -2.9406901166145944e-05 2.5957343158330906e-05 -3.0337269684888362e-10 -2.8142895593642185e-05 3.125216632923867e-05 -1.658032971702821e-10 -2.963565120143993e-05 2.436852018781227e-05 -1.7585887877950568e-10 -4.6888886052760557e-05 3.1252212145629953e-05 -1.7448327157202037e-10 -1.3726866283263597e-05 2.1494457011301759e-05 -1.2564146537630553e-10 -2.9406901166145947e-05 2.5957343158330906e-05 -3.0337269684888367e-10 -2.8142895593642185e-05 3.125216632923867e-05 -1.658032971702821e-10 -2.963565120143993e-05 2.0892795786309793e-05 -3.3362506126688742e-10 -3.6124631369019276e-05 2.5957343158330906e-05 -3.0337269684888367e-10 -2.8142895593642185e-05 2.6106512277243761e-05 -3.0296110130227076e-10 -4.596581187976538e-05 2.436852018781227e-05 -1.7585887877950568e-10 -4.6888886052760557e-05 2.5957343158330906e-05 -3.0337269684888367e-10 -2.8142895593642185e-05 2.6106512277243761e-05 -3.0296110130227076e-10 -4.596581187976538e-05 3.125216632923867e-05 -1.658032971702821e-10 -2.963565120143993e-05 2.436852018781227e-05 -1.7585887877950568e-10 -4.6888886052760557e-05 2.5957343158330906e-05 -3.0337269684888367e-10 -2.8142895593642185e-05 2.6106512277243761e-05 -3.0296110130227066e-10 -4.5965811879765387e-05 3.1252068381184841e-05 -3.6347967403310638e-10 -3.750042095096395e-05 3.125216632923867e-05 -1.658032971702821e-10 -2.963565120143993e-05 2.6106512277243761e-05 -3.0296110130227076e-10 -4.596581187976538e-05 3.1252068381184841e-05 -3.6347967403310633e-10 -3.750042095096395e-05 3.1252142546079905e-05 -2.2477233591312496e-10 -4.7781561657049173e-05 3.1252067387459611e-05 -4.0355542982055424e-10 -5.6250012957097023e-05 2.6106512277243761e-05 -3.0296110130227076e-10 -4.596581187976538e-05 3.1252068381184848e-05 -3.6347967403310638e-10 -3.7500420950963957e-05 3.125216632923867e-05 -1.658032971702821e-10 -2.963565120143993e-05 3.1252142546079898e-05 -2.2477233591312501e-10 -4.7781561657049173e-05 3.1252087443833605e-05 -3.0912657067136322e-10 -1.8750819696330359e-05 2.5957343158330906e-05 -3.0337269684888367e-10 -2.8142895593642185e-05 3.1252068381184841e-05 -3.6347967403310633e-10 -3.750042095096395e-05 3.125216632923867e-05 -1.658032971702821e-10 -2.963565120143993e-05 3.125216632923867e-05 -1.658032971702821e-10 -2.963565120143993e-05 3.1252166770680814e-05 -1.2220129079387251e-10 -4.2949360878258325e-05 3.1252142546079905e-05 -2.2477233591312509e-10 -4.778156165704918e-05 2.436852018781227e-05 -1.7585887877950568e-10 -4.6888886052760557e-05 2.6106512277243761e-05 -3.0296110130227076e-10 -4.596581187976538e-05 3.1252166329238663e-05 -1.6580329717028208e-10 -2.963565120143993e-05 3.1252142546079905e-05 -2.2477233591312514e-10 -4.7781561657049193e-05 2.436852018781227e-05 -1.7585887877950568e-10 -4.688888605276055e-05 2.3453183028271071e-05 1.7670110359534258e-11 -4.6722008888558432e-05 2.4287108597984798e-05 -3.1526219179711562e-11 -2.0414421560202319e-05 2.1494457011301759e-05 -1.2564146537630545e-10 -2.9406901166145944e-05 3.1252158242760582e-05 -9.1111864134912149e-11 -3.0867993469993514e-05 2.1494457011301759e-05 -1.2564146537630545e-10 -2.9406901166145944e-05 3.125216632923867e-05 -1.658032971702821e-10 -2.963565120143993e-05 3.1252166770680814e-05 -1.2220129079387251e-10 -4.2949360878258325e-05 3.1252158242760588e-05 -9.1111864134912149e-11 -3.0867993469993514e-05 2.3453183028271071e-05 1.7670110359534258e-11 -4.6722008888558432e-05 2.1494457011301759e-05 -1.2564146537630548e-10 -2.9406901166145954e-05 3.1252166770680814e-05 -1.2220129079387249e-10 -4.2949360878258312e-05 2.4368520187812267e-05 -1.7585887877950571e-10 -4.688888605276055e-05 3.1252148831124133e-05 -8.3630060553306019e-11 -1.5872595867831225e-05 2.1494457011301759e-05 -1.2564146537630545e-10 -2.940690116614594e-05 3.125216632923867e-05 -1.658032971702821e-10 -2.9635651201439933e-05 3.1252158242760588e-05 -9.1111864134912149e-11 -3.0867993469993514e-05 2.1494457011301759e-05 -1.2564146537630545e-10 -2.9406901166145944e-05 3.125216632923867e-05 -1.658032971702821e-10 -2.963565120143993e-05 3.1252166770680814e-05 -1.2220129079387254e-10 -4.2949360878258332e-05 2.436852018781227e-05 -1.7585887877950566e-10 -4.6888886052760557e-05 2.4287108597984798e-05 -3.1526219179711581e-11 -2.0414421560202322e-05 3.1252148831124133e-05 -8.3630060553305993e-11 -1.5872595867831219e-05 2.1494457011301759e-05 -1.2564146537630545e-10 -2.9406901166145944e-05 3.1252158242760588e-05 -9.1111864134912149e-11 -3.0867993469993514e-05 2.3453183028271071e-05 1.7670110359534258e-11 -4.6722008888558432e-05 2.1494457011301759e-05 -1.2564146537630545e-10 -2.940690116614594e-05 3.1252166770680814e-05 -1.2220129079387251e-10 -4.2949360878258325e-05 3.1252158242760588e-05 -9.1111864134912162e-11 -3.0867993469993528e-05 3.125216746257517e-05 4.5465614479940629e-11 -3.0419209816045849e-05 2.4287108597984798e-05 -3.1526219179711581e-11 -2.0414421560202322e-05 3.125212382317754e-05 -3.1099411587850479e-11 -1.6150424441459246e-05 3.1252158242760588e-05 -9.1111864134912149e-11 -3.0867993469993514e-05 2.3453183028271071e-05 1.7670110359534258e-11 -4.6722008888558432e-05 3.1252166770680807e-05 -1.2220129079387254e-10 -4.2949360878258312e-05 3.1252158242760588e-05 -9.1111864134912162e-11 -3.0867993469993521e-05 3.1252067547812014e-05 -2.5110116515089697e-12 -4.8714093318113146e-05 2.3453183028271071e-05 1.7670110359534258e-11 -4.6722008888558432e-05 3.1252178986783767e-05 -1.1018974367566108e-10 -5.6205340981771134e-05 2.1483630083498642e-05 -1.2626130389899839e-10 -6.4446091765507559e-05 2.4382723193160923e-05 -3.2173552466823389e-12 -7.3142528268015783e-05 3.1252168843820827e-05 -7.295820514935642e-11 -6.817871684921063e-05 3.1252178986783767e-05 -1.1018974367566108e-10 -5.6205340981771134e-05 2.1483630083498645e-05 -1.2626130389899839e-10 -6.4446091765507559e-05 2.5501689327735292e-05 -1.64932180060888e-10 -7.6499111513702678e-05 2.3453183028271071e-05 1.7670110359534258e-11 -4.6722008888558432e-05 3.1252178986783767e-05 -1.1018974367566108e-10 -5.6205340981771147e-05 3.125214150536107e-05 1.8875044664739914e-11 -6.3112841208738641e-05 3.1252067547812021e-05 -2.5110116515090048e-12 -4.871409331811316e-05 2.3453183028271071e-05 1.7670110359534258e-11 -4.6722008888558432e-05 3.125216677068082e-05 -1.2220129079387246e-10 -4.2949360878258325e-05 3.1252178986783767e-05 -1.1018974367566108e-10 -5.6205340981771134e-05 2.436852018781227e-05 -1.7585887877950571e-10 -4.688888605276057e-05 3.1252178986783767e-05 -1.1018974367566108e-10 -5.6205340981771134e-05 2.436852018781227e-05 -1.7585887877950568e-10 -4.6888886052760557e-05 2.1483630083498645e-05 -1.2626130389899842e-10 -6.4446091765507559e-05 2.5501689327735289e-05 -1.649321800608879e-10 -7.6499111513702664e-05 2.3453183028271071e-05 1.7670110359534258e-11 -4.6722008888558432e-05 3.1252178986783767e-05 -1.1018974367566108e-10 -5.6205340981771134e-05 2.436852018781227e-05 -1.7585887877950568e-10 -4.6888886052760557e-05 2.1483630083498645e-05 -1.2626130389899839e-10 -6.4446091765507559e-05 2.3453183028271071e-05 1.7670110359534258e-11 -4.6722008888558432e-05 3.1252178986783773e-05 -1.1018974367566104e-10 -5.6205340981771134e-05 2.4382723193160923e-05 -3.2173552466823595e-12 -7.3142528268015783e-05 3.125214150536107e-05 1.8875044664739914e-11 -6.3112841208738641e-05 3.1252168843820827e-05 -7.295820514935642e-11 -6.817871684921063e-05 3.1252178986783767e-05 -1.1018974367566108e-10 -5.6205340981771134e-05 2.1483630083498642e-05 -1.2626130389899844e-10 -6.4446091765507559e-05 2.4382723193160923e-05 -3.2173552466822561e-12 -7.3142528268015769e-05 2.3453183028271071e-05 1.7670110359534258e-11 -4.6722008888558432e-05 3.1252166770680814e-05 -1.2220129079387259e-10 -4.2949360878258319e-05 3.1252178986783767e-05 -1.1018974367566108e-10 -5.6205340981771134e-05 3.1252067547812021e-05 -2.5110116515089749e-12 -4.8714093318113167e-05 3.1252168843820827e-05 -7.295820514935642e-11 -6.817871684921063e-05 3.1252178986783767e-05 -1.1018974367566108e-10 -5.6205340981771134e-05 2.4382723193160923e-05 -3.2173552466823309e-12 -7.3142528268015783e-05 3.125214150536107e-05 1.8875044664739981e-11 -6.3112841208738641e-05 3.1252168843820827e-05 -7.295820514935642e-11 -6.817871684921063e-05 3.1252178986783767e-05 -1.1018974367566108e-10 -5.6205340981771134e-05 3.12521728253436e-05 -1.995087761445415e-10 -6.6155165092249448e-05 2.5501689327735282e-05 -1.6493218006088795e-10 -7.6499111513702664e-05 3.1252166770680814e-05 -1.2220129079387251e-10 -4.2949360878258325e-05 3.1252178986783767e-05 -1.1018974367566108e-10 -5.6205340981771134e-05 3.1252142546079905e-05 -2.2477233591312509e-10 -4.778156165704918e-05 2.436852018781227e-05 -1.7585887877950568e-10 -4.6888886052760557e-05 3.1252142546079905e-05 -2.2477233591312509e-10 -4.778156165704918e-05 3.12521728253436e-05 -1.995087761445415e-10 -6.6155165092249448e-05 2.5461174039536772e-05 -3.2728694603435198e-10 -6.460754752530202e-05 2.436852018781227e-05 -1.7585887877950566e-10 -4.6888886052760557e-05 2.5461174039536769e-05 -3.2728694603435198e-10 -6.460754752530202e-05 2.4368520187812267e-05 -1.7585887877950571e-10 -4.688888605276055e-05 2.1483630083498649e-05 -1.2626130389899834e-10 -6.4446091765507546e-05 2.5501689327735289e-05 -1.6493218006088795e-10 -7.6499111513702664e-05 3.12521728253436e-05 -1.995087761445415e-10 -6.6155165092249448e-05 2.5461174039536769e-05 -3.2728694603435198e-10 -6.4607547525302034e-05 2.436852018781227e-05 -1.7585887877950568e-10 -4.6888886052760557e-05 2.5501689327735286e-05 -1.6493218006088795e-10 -7.6499111513702664e-05 3.1252178986783767e-05 -1.1018974367566108e-10 -5.6205340981771134e-05 3.12521728253436e-05 -1.995087761445415e-10 -6.6155165092249448e-05 2.436852018781227e-05 -1.7585887877950568e-10 -4.6888886052760557e-05 2.5501689327735289e-05 -1.6493218006088795e-10 -7.6499111513702664e-05 3.1252178986783767e-05 -1.1018974367566108e-10 -5.6205340981771134e-05 3.1252142546079905e-05 -2.2477233591312509e-10 -4.778156165704918e-05 3.12521728253436e-05 -1.995087761445415e-10 -6.6155165092249448e-05 2.436852018781227e-05 -1.7585887877950568e-10 -4.6888886052760557e-05 3.12521728253436e-05 -1.995087761445415e-10 -6.6155165092249448e-05 3.1252067387459611e-05 -4.0355542982055424e-10 -5.6250012957097023e-05 2.5461174039536769e-05 -3.2728694603435198e-10 -6.460754752530202e-05 3.1252120995619833e-05 -3.2957655824873616e-10 -7.4999628870343242e-05 3.1252142546079905e-05 -2.2477233591312509e-10 -4.778156165704918e-05 3.12521728253436e-05 -1.995087761445415e-10 -6.6155165092249448e-05 3.1252067387459611e-05 -4.0355542982055424e-10 -5.6250012957097023e-05 2.5461174039536769e-05 -3.2728694603435198e-10 -6.460754752530202e-05 2.6106512277243761e-05 -3.0296110130227076e-10 -4.596581187976538e-05 3.1252142546079905e-05 -2.2477233591312504e-10 -4.778156165704918e-05 3.1252067387459611e-05 -4.0355542982055424e-10 -5.6250012957097023e-05 2.5461174039536769e-05 -3.2728694603435198e-10 -6.460754752530202e-05 2.6106512277243761e-05 -3.0296110130227076e-10 -4.596581187976538e-05 2.5461174039536769e-05 -3.2728694603435198e-10 -6.460754752530202e-05 2.4368520187812267e-05 -1.7585887877950568e-10 -4.688888605276055e-05 2.1554541900823941e-05 -2.5665715523024388e-10 -5.0793654682232749e-05 2.6106512277243761e-05 -3.0296110130227076e-10 -4.596581187976538e-05 3.1252142546079905e-05 -2.2477233591312509e-10 -4.7781561657049187e-05 2.5461174039536769e-05 -3.2728694603435198e-10 -6.460754752530202e-05 2.436852018781227e-05 -1.7585887877950571e-10 -4.6888886052760557e-05 2.1554541900823941e-05 -2.5665715523024388e-10 -5.0793654682232749e-05 1.8757625483907697e-05 -3.7000652387567205e-10 -6.3329681230762979e-05 1.564908964606537e-05 -1.6208601468754337e-10 -4.958130113751824e-05 2.1483630083498645e-05 -1.2626130389899837e-10 -6.4446091765507559e-05 2.5461174039536769e-05 -3.2728694603435198e-10 -6.460754752530202e-05 2.1554541900823938e-05 -2.5665715523024382e-10 -5.0793654682232749e-05 1.8757625483907697e-05 -3.7000652387567205e-10 -6.3329681230762979e-05 2.1483630083498645e-05 -1.2626130389899839e-10 -6.4446091765507559e-05 2.5461174039536769e-05 -3.2728694603435198e-10 -6.460754752530202e-05 2.436852018781227e-05 -1.7585887877950568e-10 -4.6888886052760564e-05 2.1554541900823941e-05 -2.5665715523024388e-10 -5.0793654682232749e-05 2.1483630083498645e-05 -1.2626130389899837e-10 -6.4446091765507546e-05 1.8757625483907697e-05 -3.7000652387567205e-10 -6.3329681230762979e-05 2.1483630083498645e-05 -1.2626130389899837e-10 -6.4446091765507559e-05 1.5652563704080066e-05 -1.9179272121951818e-10 -7.3204049675458665e-05 2.1703942734477677e-05 -3.0166941634634913e-10 -7.8843148225487782e-05 2.436852018781227e-05 -1.7585887877950568e-10 -4.6888886052760557e-05 2.1554541900823941e-05 -2.5665715523024382e-10 -5.0793654682232749e-05 1.5649089646065374e-05 -1.6208601468754337e-10 -4.958130113751824e-05 2.1483630083498642e-05 -1.2626130389899837e-10 -6.4446091765507546e-05 1.8757625483907697e-05 -3.7000652387567205e-10 -6.3329681230762979e-05 1.5649089646065374e-05 -1.6208601468754337e-10 -4.958130113751824e-05 2.1483630083498645e-05 -1.2626130389899837e-10 -6.4446091765507559e-05 1.5652563704080066e-05 -1.9179272121951818e-10 -7.3204049675458665e-05 2.5461174039536769e-05 -3.2728694603435198e-10 -6.460754752530202e-05 1.8757625483907697e-05 -3.7000652387567199e-10 -6.3329681230762979e-05 2.1483630083498645e-05 -1.2626130389899839e-10 -6.4446091765507559e-05 2.5501689327735289e-05 -1.6493218006088795e-10 -7.6499111513702664e-05 1.5626086726334186e-05 -3.1909818109196704e-10 -4.5036277833226051e-05 2.1554541900823941e-05 -2.5665715523024388e-10 -5.0793654682232749e-05 1.8757625483907697e-05 -3.7000652387567205e-10 -6.3329681230762979e-05 1.5649089646065374e-05 -1.6208601468754337e-10 -4.958130113751824e-05 1.5626091574759141e-05 -1.8183402299245683e-12 -4.6875145498662442e-05 1.5649089646065374e-05 -1.6208601468754337e-10 -4.958130113751824e-05 2.1483630083498645e-05 -1.2626130389899839e-10 -6.4446091765507559e-05 1.5568662642887709e-05 1.4829286421024851e-11 -7.0354932310016743e-05 2.3453183028271071e-05 1.7670110359534258e-11 -4.6722008888558432e-05 1.5626091574759141e-05 -1.8183402299245683e-12 -4.6875145498662442e-05 1.5649089646065374e-05 -1.6208601468754337e-10 -4.958130113751824e-05 2.1483630083498645e-05 -1.2626130389899839e-10 -6.4446091765507559e-05 2.3453183028271071e-05 1.7670110359534258e-11 -4.6722008888558432e-05 1.5626091574759141e-05 -1.818340229924559e-12 -4.6875145498662436e-05 2.1483630083498645e-05 -1.2626130389899839e-10 -6.4446091765507559e-05 1.5568662642887709e-05 1.4829286421024786e-11 -7.0354932310016729e-05 2.3453183028271071e-05 1.7670110359534258e-11 -4.6722008888558432e-05 2.1483630083498645e-05 -1.2626130389899839e-10 -6.4446091765507559e-05 2.4382723193160923e-05 -3.2173552466823389e-12 -7.3142528268015783e-05 1.5568662642887715e-05 1.4829286421024818e-11 -7.0354932310016729e-05 1.5649089646065374e-05 -1.6208601468754337e-10 -4.958130113751824e-05 2.1483630083498649e-05 -1.2626130389899837e-10 -6.4446091765507559e-05 1.5652563704080063e-05 -1.9179272121951818e-10 -7.3204049675458665e-05 1.5568662642887709e-05 1.4829286421024844e-11 -7.0354932310016729e-05 2.3453183028271071e-05 1.7670110359534258e-11 -4.6722008888558432e-05 2.436852018781227e-05 -1.7585887877950568e-10 -4.6888886052760564e-05 1.5649089646065374e-05 -1.6208601468754337e-10 -4.958130113751824e-05 2.1483630083498645e-05 -1.2626130389899839e-10 -6.4446091765507559e-05 1.8736480156789334e-05 -1.1214240515789373e-10 -9.3749071156594085e-05 1.5652563704080066e-05 -1.9179272121951818e-10 -7.3204049675458678e-05 1.5568662642887705e-05 1.482928642102486e-11 -7.0354932310016729e-05 1.431739984888211e-05 -1.3264131487749523e-10 -9.3749055464220551e-05 2.1483630083498645e-05 -1.2626130389899839e-10 -6.4446091765507559e-05 2.2727987332509337e-05 -6.8897238432424651e-11 -9.3749101249323311e-05 1.8736480156789334e-05 -1.1214240515789373e-10 -9.3749071156594085e-05 2.5501689327735289e-05 -1.6493218006088795e-10 -7.6499111513702664e-05 2.1483630083498645e-05 -1.2626130389899839e-10 -6.4446091765507559e-05 1.8736480156789334e-05 -1.1214240515789376e-10 -9.3749071156594099e-05 2.4382723193160919e-05 -3.2173552466823409e-12 -7.3142528268015769e-05 1.5568662642887709e-05 1.4829286421024851e-11 -7.0354932310016729e-05 2.1483630083498645e-05 -1.2626130389899839e-10 -6.4446091765507559e-05 1.8736480156789334e-05 -1.1214240515789369e-10 -9.3749071156594099e-05 1.5652563704080066e-05 -1.9179272121951818e-10 -7.3204049675458665e-05 2.5501689327735289e-05 -1.6493218006088795e-10 -7.6499111513702664e-05 2.1483630083498645e-05 -1.2626130389899839e-10 -6.4446091765507559e-05 1.8736480156789334e-05 -1.1214240515789373e-10 -9.3749071156594099e-05 1.5652563704080066e-05 -1.9179272121951818e-10 -7.3204049675458665e-05 1.5568662642887705e-05 1.4829286421024851e-11 -7.0354932310016715e-05 2.1483630083498645e-05 -1.2626130389899839e-10 -6.4446091765507559e-05 2.2727987332509344e-05 -6.8897238432424793e-11 -9.3749101249323297e-05 1.8736480156789334e-05 -1.1214240515789373e-10 -9.3749071156594085e-05 2.4382723193160919e-05 -3.2173552466823438e-12 -7.3142528268015783e-05 1.8736480156789334e-05 -1.1214240515789373e-10 -9.3749071156594085e-05 2.4382723193160923e-05 -3.2173552466823389e-12 -7.3142528268015783e-05 2.1039200737829045e-05 1.6593449540367876e-11 -9.3749082273318095e-05 1.5568662642887709e-05 1.4829286421024844e-11 -7.0354932310016729e-05 2.2727987332509337e-05 -6.8897238432424703e-11 -9.3749101249323297e-05 1.8736480156789334e-05 -1.1214240515789373e-10 -9.3749071156594085e-05 2.2053402609564286e-05 -1.9728166156701653e-10 -9.3749094335516734e-05 2.5501689327735289e-05 -1.6493218006088795e-10 -7.6499111513702664e-05 2.2727987332509337e-05 -6.8897238432424703e-11 -9.3749101249323297e-05 1.8736480156789334e-05 -1.1214240515789373e-10 -9.3749071156594085e-05 2.4382723193160923e-05 -3.2173552466823389e-12 -7.3142528268015783e-05 2.1039200737829045e-05 1.6593449540367876e-11 -9.3749082273318095e-05 1.8736480156789334e-05 -1.1214240515789373e-10 -9.3749071156594085e-05 1.6239163291157622e-05 -4.4032921270871636e-12 -9.3749062975890981e-05 1.5568662642887709e-05 1.4829286421024851e-11 -7.0354932310016743e-05 1.431739984888211e-05 -1.3264131487749523e-10 -9.3749055464220551e-05 1.8736480156789334e-05 -1.1214240515789373e-10 -9.3749071156594085e-05 2.1039200737829045e-05 1.6593449540367883e-11 -9.3749082273318082e-05 1.6239163291157622e-05 -4.4032921270871757e-12 -9.3749062975890981e-05 1.5568662642887709e-05 1.4829286421024844e-11 -7.0354932310016729e-05 1.8736480156789334e-05 -1.1214240515789373e-10 -9.3749071156594085e-05 1.5928290114622027e-05 -2.4330984161708632e-10 -9.3749062703407109e-05 1.5652563704080066e-05 -1.9179272121951818e-10 -7.3204049675458665e-05 1.431739984888211e-05 -1.3264131487749523e-10 -9.3749055464220551e-05 1.5928290114622027e-05 -2.4330984161708632e-10 -9.3749062703407109e-05 1.5652563704080063e-05 -1.917927212195182e-10 -7.3204049675458665e-05 2.1703942734477677e-05 -3.0166941634634913e-10 -7.8843148225487782e-05 2.2053402609564286e-05 -1.9728166156701653e-10 -9.3749094335516734e-05 2.1483630083498645e-05 -1.2626130389899839e-10 -6.4446091765507559e-05 1.5652563704080066e-05 -1.9179272121951818e-10 -7.3204049675458665e-05 2.1703942734477677e-05 -3.0166941634634913e-10 -7.8843148225487782e-05 2.5501689327735289e-05 -1.6493218006088795e-10 -7.6499111513702664e-05 1.5652563704080066e-05 -1.9179272121951818e-10 -7.3204049675458665e-05 2.1703942734477673e-05 -3.0166941634634918e-10 -7.8843148225487782e-05 2.2053402609564286e-05 -1.9728166156701655e-10 -9.3749094335516734e-05 2.5501689327735289e-05 -1.6493218006088795e-10 -7.6499111513702664e-05 1.8736480156789334e-05 -1.1214240515789373e-10 -9.3749071156594085e-05 1.5652563704080066e-05 -1.9179272121951818e-10 -7.3204049675458665e-05 2.2053402609564286e-05 -1.9728166156701653e-10 -9.3749094335516734e-05 2.5501689327735289e-05 -1.6493218006088795e-10 -7.6499111513702664e-05 1.8736480156789334e-05 -1.1214240515789373e-10 -9.3749071156594085e-05 1.5928290114622027e-05 -2.4330984161708632e-10 -9.3749062703407109e-05 1.5652563704080066e-05 -1.9179272121951818e-10 -7.3204049675458665e-05 2.2053402609564286e-05 -1.9728166156701653e-10 -9.3749094335516734e-05 1.8757625483907697e-05 -3.7000652387567205e-10 -6.3329681230762979e-05 2.1483630083498639e-05 -1.2626130389899824e-10 -6.4446091765507573e-05 2.1703942734477677e-05 -3.0166941634634913e-10 -7.8843148225487782e-05 2.5501689327735289e-05 -1.6493218006088795e-10 -7.6499111513702664e-05 1.8757625483907697e-05 -3.7000652387567205e-10 -6.3329681230762979e-05 1.5652563704080066e-05 -1.9179272121951818e-10 -7.3204049675458665e-05 2.170394273447768e-05 -3.0166941634634913e-10 -7.8843148225487782e-05 1.5575033393533506e-05 -3.3051349369449924e-10 -7.7599945062977989e-05 1.5928290114622027e-05 -2.4330984161708632e-10 -9.3749062703407109e-05 1.5652563704080063e-05 -1.917927212195182e-10 -7.3204049675458665e-05 2.1703942734477677e-05 -3.0166941634634913e-10 -7.8843148225487782e-05 1.5575033393533506e-05 -3.3051349369449924e-10 -7.7599945062977989e-05 1.5928290114622027e-05 -2.4330984161708632e-10 -9.3749062703407109e-05 1.8751384855465317e-05 -3.6127298979231151e-10 -9.374910006085e-05 2.1703942734477677e-05 -3.0166941634634913e-10 -7.8843148225487782e-05 1.5575033393533506e-05 -3.3051349369449924e-10 -7.7599945062977989e-05 1.5928290114622027e-05 -2.4330984161708632e-10 -9.3749062703407109e-05 1.875138485546532e-05 -3.6127298979231156e-10 -9.3749100060850013e-05 1.5575033393533506e-05 -3.3051349369449924e-10 -7.7599945062977989e-05 1.2500904651668608e-05 -3.8666598871161832e-10 -9.3749085084553687e-05 1.5928290114622027e-05 -2.4330984161708632e-10 -9.3749062703407109e-05 1.8751384855465317e-05 -3.6127298979231151e-10 -9.374910006085e-05 2.1703942734477677e-05 -3.0166941634634913e-10 -7.8843148225487782e-05 2.2053402609564286e-05 -1.9728166156701653e-10 -9.3749094335516734e-05 1.8751384855465317e-05 -3.6127298979231151e-10 -9.374910006085e-05 2.1703942734477677e-05 -3.0166941634634913e-10 -7.8843148225487782e-05 2.2053402609564286e-05 -1.9728166156701655e-10 -9.3749094335516747e-05 2.500186030122954e-05 -2.9345155576839997e-10 -9.3749135615771447e-05 2.5461174039536769e-05 -3.2728694603435198e-10 -6.460754752530202e-05 1.8757625483907697e-05 -3.7000652387567205e-10 -6.3329681230762979e-05 2.1703942734477677e-05 -3.0166941634634913e-10 -7.8843148225487782e-05 2.5501689327735289e-05 -1.6493218006088795e-10 -7.6499111513702664e-05 2.1703942734477677e-05 -3.0166941634634913e-10 -7.8843148225487782e-05 2.2053402609564286e-05 -1.9728166156701653e-10 -9.3749094335516734e-05 2.6676663758099523e-05 -2.0638242008850759e-10 -9.3749144902312303e-05 2.5501689327735289e-05 -1.6493218006088795e-10 -7.6499111513702664e-05 2.2053402609564286e-05 -1.9728166156701653e-10 -9.3749094335516734e-05 2.6676663758099526e-05 -2.0638242008850762e-10 -9.3749144902312317e-05 2.5501689327735289e-05 -1.6493218006088792e-10 -7.6499111513702651e-05 2.6618747938908665e-05 -1.2497192689506383e-10 -9.3749153586495748e-05 3.12521728253436e-05 -1.995087761445415e-10 -6.6155165092249448e-05 2.5461174039536769e-05 -3.2728694603435198e-10 -6.4607547525302034e-05 2.5501689327735289e-05 -1.6493218006088795e-10 -7.6499111513702664e-05 2.6676613170819353e-05 -2.4295503586893479e-10 -8.0023514818284089e-05 2.5461174039536769e-05 -3.2728694603435198e-10 -6.460754752530202e-05 2.1703942734477677e-05 -3.0166941634634913e-10 -7.8843148225487782e-05 2.5501689327735289e-05 -1.6493218006088795e-10 -7.6499111513702664e-05 2.6676613170819353e-05 -2.4295503586893479e-10 -8.0023514818284089e-05 2.1703942734477677e-05 -3.0166941634634913e-10 -7.8843148225487782e-05 2.667666375809952e-05 -2.0638242008850762e-10 -9.3749144902312303e-05 2.5501689327735289e-05 -1.6493218006088795e-10 -7.6499111513702664e-05 2.6676613170819353e-05 -2.4295503586893479e-10 -8.0023514818284089e-05 2.1703942734477677e-05 -3.0166941634634913e-10 -7.8843148225487782e-05 2.2053402609564286e-05 -1.9728166156701653e-10 -9.3749094335516734e-05 2.6676663758099523e-05 -2.0638242008850759e-10 -9.3749144902312303e-05 2.500186030122954e-05 -2.9345155576839997e-10 -9.3749135615771447e-05 2.1703942734477677e-05 -3.0166941634634913e-10 -7.8843148225487782e-05 2.667666375809952e-05 -2.0638242008850762e-10 -9.3749144902312303e-05 2.6676613170819353e-05 -2.4295503586893479e-10 -8.0023514818284089e-05 2.500186030122954e-05 -2.9345155576839997e-10 -9.3749135615771447e-05 2.6676663758099523e-05 -2.0638242008850759e-10 -9.3749144902312303e-05 2.6676613170819353e-05 -2.4295503586893474e-10 -8.0023514818284075e-05 3.1252262891278535e-05 -3.3282212461033398e-10 -9.3749300056192973e-05 3.1252209276764326e-05 -2.0249831583247412e-10 -8.0023583190427905e-05 2.6676663758099523e-05 -2.0638242008850759e-10 -9.3749144902312303e-05 2.6676613170819353e-05 -2.4295503586893479e-10 -8.0023514818284089e-05 2.500186030122954e-05 -2.9345155576839997e-10 -9.3749135615771447e-05 3.1252262891278535e-05 -3.3282212461033398e-10 -9.3749300056192973e-05 2.6676663758099523e-05 -2.0638242008850759e-10 -9.3749144902312303e-05 3.1252262891278535e-05 -3.3282212461033398e-10 -9.3749300056192973e-05 3.1252209276764326e-05 -2.0249831583247414e-10 -8.0023583190427919e-05 3.1252262647316465e-05 -1.7684938450651854e-10 -9.3749286025457333e-05 2.6676613170819353e-05 -2.4295503586893479e-10 -8.0023514818284089e-05 3.1252262891278535e-05 -3.3282212461033398e-10 -9.3749300056192973e-05 3.1252120995619833e-05 -3.2957655824873616e-10 -7.4999628870343242e-05 3.1252209276764326e-05 -2.0249831583247414e-10 -8.0023583190427919e-05 3.12521728253436e-05 -1.995087761445415e-10 -6.6155165092249448e-05 2.5461174039536769e-05 -3.2728694603435198e-10 -6.460754752530202e-05 2.6676613170819353e-05 -2.4295503586893479e-10 -8.0023514818284089e-05 3.1252120995619833e-05 -3.2957655824873616e-10 -7.4999628870343242e-05 3.12521728253436e-05 -1.995087761445415e-10 -6.6155165092249448e-05 2.6676613170819349e-05 -2.4295503586893479e-10 -8.0023514818284102e-05 3.1252120995619833e-05 -3.2957655824873616e-10 -7.4999628870343242e-05 3.1252209276764326e-05 -2.0249831583247414e-10 -8.0023583190427919e-05 3.12521728253436e-05 -1.995087761445415e-10 -6.6155165092249448e-05 2.5501689327735289e-05 -1.6493218006088795e-10 -7.6499111513702664e-05 3.1252209276764326e-05 -2.0249831583247414e-10 -8.0023583190427919e-05 3.1252187823822696e-05 -1.153600581233059e-10 -7.9849874423992701e-05 3.12521728253436e-05 -1.995087761445415e-10 -6.6155165092249448e-05 2.5501689327735289e-05 -1.6493218006088795e-10 -7.6499111513702664e-05 2.6676613170819353e-05 -2.4295503586893479e-10 -8.0023514818284075e-05 3.1252209276764326e-05 -2.0249831583247414e-10 -8.0023583190427919e-05 2.6676663758099523e-05 -2.0638242008850759e-10 -9.3749144902312303e-05 2.5501689327735289e-05 -1.6493218006088797e-10 -7.6499111513702651e-05 3.1252262647316465e-05 -1.7684938450651854e-10 -9.3749286025457333e-05 2.6618747938908665e-05 -1.2497192689506383e-10 -9.3749153586495748e-05 2.6676663758099523e-05 -2.0638242008850759e-10 -9.3749144902312303e-05 2.5501689327735289e-05 -1.6493218006088792e-10 -7.6499111513702664e-05 3.1252209276764326e-05 -2.0249831583247414e-10 -8.0023583190427919e-05 3.1252262647316465e-05 -1.7684938450651854e-10 -9.3749286025457333e-05 2.5501689327735289e-05 -1.6493218006088795e-10 -7.6499111513702664e-05 3.1252209276764326e-05 -2.0249831583247414e-10 -8.0023583190427919e-05 3.1252262647316465e-05 -1.7684938450651856e-10 -9.3749286025457347e-05 3.1252187823822696e-05 -1.153600581233059e-10 -7.9849874423992701e-05 2.6676663758099523e-05 -2.0638242008850759e-10 -9.3749144902312303e-05 2.5501689327735289e-05 -1.6493218006088795e-10 -7.6499111513702664e-05 2.6676613170819349e-05 -2.4295503586893479e-10 -8.0023514818284089e-05 3.1252209276764326e-05 -2.0249831583247417e-10 -8.0023583190427919e-05 3.1252262647316465e-05 -1.7684938450651854e-10 -9.3749286025457333e-05 2.6618747938908665e-05 -1.2497192689506386e-10 -9.3749153586495748e-05 3.1252187823822696e-05 -1.153600581233059e-10 -7.9849874423992701e-05 3.1252224605735118e-05 -5.5350852324386434e-11 -9.3749284932953045e-05 2.5501689327735289e-05 -1.6493218006088795e-10 -7.6499111513702664e-05 3.1252262647316465e-05 -1.7684938450651859e-10 -9.3749286025457347e-05 2.6618747938908661e-05 -1.2497192689506386e-10 -9.3749153586495748e-05 3.1252187823822696e-05 -1.153600581233059e-10 -7.9849874423992701e-05 2.5501689327735289e-05 -1.6493218006088795e-10 -7.6499111513702664e-05 2.6618747938908665e-05 -1.2497192689506383e-10 -9.3749153586495735e-05 3.1252187823822696e-05 -1.153600581233059e-10 -7.9849874423992701e-05 2.4382723193160923e-05 -3.2173552466823389e-12 -7.3142528268015783e-05 2.1483630083498645e-05 -1.2626130389899839e-10 -6.4446091765507559e-05 2.2727987332509337e-05 -6.8897238432424728e-11 -9.3749101249323297e-05 2.5501689327735289e-05 -1.6493218006088795e-10 -7.6499111513702664e-05 2.4382723193160923e-05 -3.2173552466823527e-12 -7.3142528268015783e-05 3.1252168843820827e-05 -7.295820514935642e-11 -6.817871684921063e-05 2.5501689327735286e-05 -1.64932180060888e-10 -7.6499111513702664e-05 3.1252187823822696e-05 -1.153600581233059e-10 -7.9849874423992701e-05 2.4382723193160923e-05 -3.2173552466823389e-12 -7.3142528268015783e-05 2.2727987332509337e-05 -6.8897238432424703e-11 -9.3749101249323297e-05 2.5501689327735292e-05 -1.6493218006088795e-10 -7.6499111513702664e-05 2.6618747938908665e-05 -1.2497192689506383e-10 -9.3749153586495748e-05 2.4382723193160923e-05 -3.2173552466823389e-12 -7.3142528268015783e-05 3.1252168843820827e-05 -7.295820514935642e-11 -6.817871684921063e-05 2.1483630083498642e-05 -1.2626130389899839e-10 -6.4446091765507559e-05 2.5501689327735286e-05 -1.6493218006088795e-10 -7.6499111513702664e-05 2.4382723193160926e-05 -3.2173552466823204e-12 -7.3142528268015783e-05 2.6618747938908665e-05 -1.2497192689506383e-10 -9.3749153586495748e-05 3.1252187823822696e-05 -1.1536005812330587e-10 -7.9849874423992701e-05 3.1252173082385221e-05 -6.9968458782496776e-12 -7.8929489850786225e-05 3.1252224605735118e-05 -5.5350852324386434e-11 -9.3749284932953045e-05 2.2727987332509337e-05 -6.8897238432424703e-11 -9.3749101249323297e-05 2.2053402609564286e-05 -1.972816615670165e-10 -9.3749094335516734e-05 2.5501689327735289e-05 -1.6493218006088797e-10 -7.6499111513702664e-05 2.6618747938908665e-05 -1.2497192689506383e-10 -9.3749153586495748e-05 3.1252168843820827e-05 -7.295820514935642e-11 -6.817871684921063e-05 3.12521728253436e-05 -1.995087761445415e-10 -6.6155165092249448e-05 2.5501689327735286e-05 -1.6493218006088795e-10 -7.6499111513702678e-05 3.1252187823822696e-05 -1.153600581233059e-10 -7.9849874423992701e-05 2.6618747938908665e-05 -1.2497192689506383e-10 -9.3749153586495748e-05 3.1252187823822703e-05 -1.1536005812330587e-10 -7.9849874423992701e-05 3.1252173082385221e-05 -6.996845878249689e-12 -7.8929489850786239e-05 2.4382723193160923e-05 -3.2173552466823389e-12 -7.3142528268015783e-05 3.1252168843820827e-05 -7.295820514935642e-11 -6.817871684921063e-05 3.1252187823822696e-05 -1.153600581233059e-10 -7.9849874423992701e-05 3.1252173082385221e-05 -6.9968458782496776e-12 -7.8929489850786225e-05 2.4382723193160923e-05 -3.2173552466823389e-12 -7.3142528268015783e-05 3.1252168843820827e-05 -7.295820514935642e-11 -6.817871684921063e-05 3.1252173082385221e-05 -6.9968458782496817e-12 -7.8929489850786225e-05 2.4382723193160923e-05 -3.2173552466823349e-12 -7.3142528268015783e-05 3.125214150536107e-05 1.8875044664739981e-11 -6.3112841208738641e-05 2.2727987332509337e-05 -6.8897238432424703e-11 -9.3749101249323297e-05 2.4382723193160919e-05 -3.2173552466823478e-12 -7.3142528268015783e-05 2.6311925286494915e-05 -6.2905380471967904e-12 -9.3749146943589823e-05 2.1039200737829045e-05 1.6593449540367876e-11 -9.3749082273318095e-05 2.2727987332509337e-05 -6.8897238432424703e-11 -9.3749101249323297e-05 2.6618747938908665e-05 -1.2497192689506383e-10 -9.3749153586495748e-05 2.4382723193160923e-05 -3.2173552466823389e-12 -7.3142528268015783e-05 2.6311925286494915e-05 -6.2905380471967863e-12 -9.3749146943589823e-05 2.6618747938908665e-05 -1.2497192689506383e-10 -9.3749153586495748e-05 3.1252173082385221e-05 -6.9968458782496776e-12 -7.8929489850786225e-05 2.4382723193160923e-05 -3.2173552466823389e-12 -7.3142528268015783e-05 2.6311925286494915e-05 -6.2905380471967863e-12 -9.3749146943589823e-05 3.1252173082385221e-05 -6.9968458782496776e-12 -7.8929489850786225e-05 2.6311925286494918e-05 -6.2905380471967871e-12 -9.3749146943589823e-05 3.1252224605735118e-05 -5.5350852324386434e-11 -9.3749284932953045e-05 3.1252224686529498e-05 6.8595153508536269e-11 -9.3749273244619856e-05 2.6618747938908665e-05 -1.2497192689506383e-10 -9.3749153586495748e-05 3.1252173082385221e-05 -6.9968458782496647e-12 -7.8929489850786225e-05 2.6311925286494915e-05 -6.2905380471967863e-12 -9.3749146943589823e-05 3.1252224605735118e-05 -5.5350852324386434e-11 -9.3749284932953045e-05 2.4382723193160923e-05 -3.2173552466823389e-12 -7.3142528268015783e-05 2.5264310922880454e-05 1.1151479092758669e-10 -9.3749114509504377e-05 2.4277737684465672e-05 1.8468580207522616e-10 -7.6560222997826299e-05 2.1454381320424765e-05 1.1107393238300489e-10 -6.4358358363406898e-05 2.4382723193160923e-05 -3.2173552466823389e-12 -7.3142528268015783e-05 2.5264310922880457e-05 1.1151479092758667e-10 -9.3749114509504377e-05 3.1252183766246549e-05 1.1026806234743915e-10 -7.5786990147826898e-05 2.4277737684465672e-05 1.8468580207522616e-10 -7.6560222997826299e-05 3.1252173082385221e-05 -6.9968458782496776e-12 -7.8929489850786225e-05 2.6311925286494915e-05 -6.2905380471967904e-12 -9.3749146943589823e-05 3.1252224686529498e-05 6.8595153508536269e-11 -9.3749273244619856e-05 3.1252183766246555e-05 1.1026806234743915e-10 -7.5786990147826911e-05 2.4382723193160923e-05 -3.2173552466823389e-12 -7.3142528268015783e-05 3.1252183766246555e-05 1.1026806234743916e-10 -7.5786990147826898e-05 2.4277737684465672e-05 1.8468580207522616e-10 -7.6560222997826299e-05 2.1454381320424768e-05 1.1107393238300491e-10 -6.4358358363406898e-05 2.6311925286494915e-05 -6.2905380471967863e-12 -9.3749146943589823e-05 3.1252224686529498e-05 6.8595153508536269e-11 -9.3749273244619856e-05 2.5264310922880457e-05 1.1151479092758667e-10 -9.3749114509504377e-05 3.1252183766246555e-05 1.1026806234743915e-10 -7.5786990147826911e-05 3.1252224686529498e-05 6.8595153508536269e-11 -9.3749273244619856e-05 2.5264310922880457e-05 1.1151479092758667e-10 -9.3749114509504377e-05 3.1252183766246555e-05 1.1026806234743915e-10 -7.5786990147826911e-05 3.125222335098585e-05 1.6456322777311054e-10 -9.3749261842444699e-05 2.4382723193160923e-05 -3.2173552466823389e-12 -7.3142528268015783e-05 2.6311925286494915e-05 -6.2905380471967863e-12 -9.3749146943589823e-05 2.5264310922880454e-05 1.1151479092758665e-10 -9.3749114509504377e-05 2.1039200737829042e-05 1.6593449540367899e-11 -9.3749082273318082e-05 2.4382723193160923e-05 -3.2173552466823389e-12 -7.3142528268015783e-05 2.6311925286494918e-05 -6.2905380471967847e-12 -9.3749146943589823e-05 2.5264310922880457e-05 1.1151479092758667e-10 -9.3749114509504377e-05 3.1252183766246555e-05 1.1026806234743914e-10 -7.5786990147826911e-05 3.1252173082385221e-05 -6.9968458782496776e-12 -7.8929489850786225e-05 2.4382723193160923e-05 -3.2173552466823389e-12 -7.3142528268015783e-05 3.1252183766246555e-05 1.1026806234743915e-10 -7.5786990147826911e-05 3.125214150536107e-05 1.8875044664739981e-11 -6.3112841208738641e-05 3.1252173082385221e-05 -6.9968458782496776e-12 -7.8929489850786225e-05 2.4382723193160923e-05 -3.2173552466823414e-12 -7.3142528268015783e-05 2.6311925286494915e-05 -6.2905380471967863e-12 -9.3749146943589823e-05 3.1252183766246555e-05 1.1026806234743915e-10 -7.5786990147826911e-05 2.3453183028271071e-05 1.7670110359534258e-11 -4.6722008888558432e-05 2.4382723193160919e-05 -3.2173552466823409e-12 -7.3142528268015783e-05 3.125214150536107e-05 1.8875044664739914e-11 -6.3112841208738641e-05 3.1252171376331168e-05 1.1887084013525173e-10 -5.7202969517547915e-05 2.4181275535048907e-05 2.0438860328416878e-10 -4.6714928478079137e-05 2.3453183028271071e-05 1.7670110359534235e-11 -4.6722008888558425e-05 3.1252171376331168e-05 1.188708401352517e-10 -5.7202969517547922e-05 2.1454381320424768e-05 1.1107393238300491e-10 -6.4358358363406898e-05 2.4181275535048907e-05 2.0438860328416878e-10 -4.6714928478079137e-05 3.1252171376331168e-05 1.1887084013525167e-10 -5.7202969517547922e-05 3.125217686841029e-05 2.0925227958787574e-10 -6.5026235354933971e-05 2.1454381320424765e-05 1.1107393238300491e-10 -6.4358358363406884e-05 3.1252183766246555e-05 1.1026806234743915e-10 -7.5786990147826911e-05 3.1252171376331175e-05 1.1887084013525173e-10 -5.7202969517547922e-05 2.4277737684465672e-05 1.8468580207522616e-10 -7.6560222997826299e-05 2.1454381320424768e-05 1.1107393238300491e-10 -6.4358358363406898e-05 2.4181275535048907e-05 2.0438860328416878e-10 -4.6714928478079137e-05 3.1252155995098876e-05 1.1280174537656084e-10 -4.29493365758912e-05 2.3453183028271074e-05 1.7670110359534229e-11 -4.6722008888558432e-05 3.1252171376331168e-05 1.1887084013525175e-10 -5.7202969517547928e-05 2.3453183028271071e-05 1.7670110359534258e-11 -4.6722008888558432e-05 2.4382723193160919e-05 -3.2173552466823454e-12 -7.3142528268015783e-05 3.1252171376331168e-05 1.1887084013525173e-10 -5.7202969517547922e-05 2.1454381320424768e-05 1.1107393238300491e-10 -6.4358358363406898e-05 2.4382723193160923e-05 -3.2173552466823389e-12 -7.3142528268015783e-05 3.1252183766246549e-05 1.1026806234743915e-10 -7.5786990147826898e-05 3.1252171376331168e-05 1.1887084013525175e-10 -5.7202969517547922e-05 2.1454381320424768e-05 1.1107393238300491e-10 -6.4358358363406898e-05 2.4382723193160923e-05 -3.2173552466823389e-12 -7.3142528268015783e-05 3.1252183766246555e-05 1.1026806234743918e-10 -7.5786990147826911e-05 3.125214150536107e-05 1.8875044664739943e-11 -6.3112841208738641e-05 3.1252171376331168e-05 1.188708401352517e-10 -5.7202969517547928e-05 2.3453183028271071e-05 1.7670110359534258e-11 -4.6722008888558432e-05 3.125214150536107e-05 1.8875044664739981e-11 -6.3112841208738641e-05 3.1252067547812021e-05 -2.5110116515090048e-12 -4.871409331811316e-05 3.1252171376331168e-05 1.1887084013525173e-10 -5.7202969517547922e-05 3.1252155995098869e-05 1.1280174537656085e-10 -4.2949336575891207e-05 2.3453183028271071e-05 1.7670110359534255e-11 -4.6722008888558432e-05 3.1252067547812021e-05 -2.5110116515090048e-12 -4.871409331811316e-05 3.1252171376331168e-05 1.1887084013525173e-10 -5.7202969517547922e-05 2.4181275535048907e-05 2.0438860328416878e-10 -4.6714928478079137e-05 3.1252155995098869e-05 1.1280174537656078e-10 -4.2949336575891207e-05 3.1252171376331168e-05 1.188708401352517e-10 -5.7202969517547922e-05 3.1252128236370428e-05 1.8790314175397556e-10 -4.7628288487262533e-05 2.4181275535048907e-05 2.0438860328416878e-10 -4.6714928478079137e-05 3.125217686841029e-05 2.0925227958787574e-10 -6.5026235354933971e-05 2.4277737684465672e-05 1.8468580207522619e-10 -7.6560222997826299e-05 2.1454381320424768e-05 1.1107393238300484e-10 -6.4358358363406884e-05 2.4181275535048907e-05 2.0438860328416878e-10 -4.6714928478079137e-05 2.5422485688604682e-05 3.2068732051157482e-10 -6.4144445189377185e-05 2.4277737684465675e-05 1.8468580207522614e-10 -7.6560222997826312e-05 2.1454381320424768e-05 1.1107393238300493e-10 -6.4358358363406898e-05 3.1252171376331168e-05 1.1887084013525173e-10 -5.7202969517547922e-05 3.125217686841029e-05 2.0925227958787574e-10 -6.5026235354933971e-05 2.4277737684465669e-05 1.8468580207522619e-10 -7.6560222997826299e-05 2.1454381320424768e-05 1.1107393238300491e-10 -6.4358358363406898e-05 3.1252183766246555e-05 1.1026806234743915e-10 -7.5786990147826911e-05 3.1252171376331168e-05 1.1887084013525173e-10 -5.7202969517547922e-05 3.125217686841029e-05 2.0925227958787574e-10 -6.5026235354933971e-05 2.4277737684465672e-05 1.8468580207522616e-10 -7.6560222997826299e-05 2.4181275535048907e-05 2.0438860328416878e-10 -4.6714928478079137e-05 3.125217686841029e-05 2.0925227958787574e-10 -6.5026235354933971e-05 2.5422485688604686e-05 3.2068732051157482e-10 -6.4144445189377185e-05 2.4277737684465672e-05 1.8468580207522616e-10 -7.6560222997826299e-05 2.4181275535048907e-05 2.0438860328416878e-10 -4.6714928478079137e-05 3.1252171376331161e-05 1.1887084013525167e-10 -5.7202969517547915e-05 3.125217686841029e-05 2.0925227958787574e-10 -6.5026235354933971e-05 3.1252128236370428e-05 1.8790314175397556e-10 -4.7628288487262533e-05 2.4181275535048907e-05 2.0438860328416878e-10 -4.6714928478079137e-05 3.125217686841029e-05 2.0925227958787574e-10 -6.5026235354933971e-05 3.1252128236370421e-05 1.8790314175397556e-10 -4.7628288487262533e-05 2.7115168561475084e-05 3.0054325798079037e-10 -4.7445311636842488e-05 3.125217686841029e-05 2.0925227958787574e-10 -6.5026235354933971e-05 3.1252128236370428e-05 1.8790314175397558e-10 -4.7628288487262533e-05 3.1252112335136966e-05 3.2602436811917875e-10 -5.6249981599104858e-05 2.7115168561475081e-05 3.0054325798079032e-10 -4.7445311636842482e-05 3.1252123166775598e-05 2.9860820851838992e-10 -3.7500385791546052e-05 3.1252128236370434e-05 1.8790314175397561e-10 -4.7628288487262526e-05 3.1252112335136966e-05 3.2602436811917875e-10 -5.6249981599104858e-05 2.7115168561475084e-05 3.0054325798079037e-10 -4.7445311636842482e-05 3.125217686841029e-05 2.0925227958787574e-10 -6.5026235354933971e-05 3.1252112335136959e-05 3.2602436811917875e-10 -5.6249981599104858e-05 2.7115168561475084e-05 3.0054325798079027e-10 -4.7445311636842475e-05 2.5422485688604682e-05 3.2068732051157482e-10 -6.4144445189377185e-05 2.4181275535048907e-05 2.0438860328416878e-10 -4.6714928478079137e-05 2.7115168561475088e-05 3.0054325798079032e-10 -4.7445311636842488e-05 2.5422485688604689e-05 3.2068732051157487e-10 -6.4144445189377185e-05 2.1326582803799021e-05 3.71958518621666e-10 -4.904081133422246e-05 2.4181275535048907e-05 2.0438860328416878e-10 -4.6714928478079137e-05 3.125217686841029e-05 2.0925227958787574e-10 -6.5026235354933971e-05 2.7115168561475084e-05 3.0054325798079037e-10 -4.7445311636842482e-05 2.5422485688604686e-05 3.2068732051157482e-10 -6.4144445189377185e-05 3.125217686841029e-05 2.0925227958787574e-10 -6.5026235354933971e-05 3.1252112335136966e-05 3.260243681191787e-10 -5.6249981599104858e-05 2.5422485688604689e-05 3.2068732051157482e-10 -6.4144445189377185e-05 3.1252099554667005e-05 3.5494065772850875e-10 -7.4999610394899032e-05 3.125217686841029e-05 2.0925227958787574e-10 -6.5026235354933971e-05 2.5422485688604689e-05 3.2068732051157482e-10 -6.4144445189377185e-05 3.1252099554667005e-05 3.549406577285088e-10 -7.4999610394899018e-05 2.6676599121274259e-05 2.3751686232027971e-10 -8.0023510307443318e-05 3.125217686841029e-05 2.0925227958787574e-10 -6.5026235354933971e-05 3.1252203803485452e-05 1.9875688619597058e-10 -8.0023562628979311e-05 2.4277737684465672e-05 1.8468580207522616e-10 -7.6560222997826299e-05 2.6676599121274253e-05 2.3751686232027951e-10 -8.0023510307443318e-05 3.125217686841029e-05 2.0925227958787574e-10 -6.5026235354933971e-05 3.1252099554667005e-05 3.5494065772850875e-10 -7.4999610394899032e-05 3.1252203803485452e-05 1.9875688619597058e-10 -8.0023562628979311e-05 2.6676599121274263e-05 2.3751686232027966e-10 -8.0023510307443318e-05 3.1252249206386394e-05 3.2541167054182456e-10 -9.3749282929687545e-05 3.125222335098585e-05 1.6456322777311054e-10 -9.3749261842444699e-05 3.1252203803485452e-05 1.9875688619597058e-10 -8.0023562628979311e-05 2.6676651890625089e-05 2.1554474296609531e-10 -9.3749147551754221e-05 3.1252249206386394e-05 3.2541167054182456e-10 -9.3749282929687545e-05 2.6676651890625089e-05 2.1554474296609531e-10 -9.3749147551754221e-05 2.5001838649727199e-05 3.0861465788812374e-10 -9.3749131251815392e-05 2.6676599121274256e-05 2.3751686232027956e-10 -8.0023510307443318e-05 3.1252099554667005e-05 3.5494065772850875e-10 -7.4999610394899032e-05 3.1252249206386394e-05 3.2541167054182461e-10 -9.3749282929687545e-05 3.1252203803485452e-05 1.9875688619597058e-10 -8.0023562628979311e-05 2.6676599121274256e-05 2.3751686232027956e-10 -8.0023510307443318e-05 3.1252249206386394e-05 3.2541167054182456e-10 -9.3749282929687545e-05 3.1252203803485452e-05 1.9875688619597058e-10 -8.0023562628979311e-05 2.6676651890625089e-05 2.1554474296609531e-10 -9.3749147551754221e-05 2.6676599121274256e-05 2.3751686232027956e-10 -8.0023510307443318e-05 3.1252183766246555e-05 1.1026806234743915e-10 -7.5786990147826911e-05 3.125222335098585e-05 1.6456322777311054e-10 -9.3749261842444699e-05 3.1252203803485452e-05 1.9875688619597058e-10 -8.0023562628979311e-05 2.6676651890625089e-05 2.1554474296609531e-10 -9.3749147551754221e-05 2.5264310922880457e-05 1.1151479092758667e-10 -9.3749114509504377e-05 3.1252183766246555e-05 1.1026806234743915e-10 -7.5786990147826911e-05 3.125222335098585e-05 1.6456322777311054e-10 -9.3749261842444699e-05 2.6676651890625089e-05 2.1554474296609531e-10 -9.3749147551754221e-05 3.1252183766246555e-05 1.1026806234743915e-10 -7.5786990147826911e-05 3.1252203803485452e-05 1.9875688619597058e-10 -8.0023562628979311e-05 2.4277737684465672e-05 1.8468580207522616e-10 -7.6560222997826299e-05 2.6676651890625089e-05 2.1554474296609531e-10 -9.3749147551754221e-05 3.1252183766246555e-05 1.1026806234743915e-10 -7.5786990147826911e-05 3.125217686841029e-05 2.0925227958787574e-10 -6.5026235354933971e-05 3.1252203803485452e-05 1.9875688619597058e-10 -8.0023562628979311e-05 2.4277737684465672e-05 1.8468580207522616e-10 -7.6560222997826299e-05 2.5264310922880457e-05 1.1151479092758667e-10 -9.3749114509504377e-05 2.4277737684465669e-05 1.8468580207522614e-10 -7.6560222997826285e-05 2.6676651890625089e-05 2.1554474296609531e-10 -9.3749147551754221e-05 2.167705789547849e-05 2.2409923735806459e-10 -9.3749086203336407e-05 2.5264310922880457e-05 1.1151479092758667e-10 -9.3749114509504377e-05 3.1252183766246555e-05 1.1026806234743916e-10 -7.5786990147826925e-05 2.4277737684465672e-05 1.8468580207522616e-10 -7.6560222997826299e-05 2.6676651890625089e-05 2.1554474296609531e-10 -9.3749147551754221e-05 2.4277737684465672e-05 1.8468580207522616e-10 -7.6560222997826299e-05 2.6676651890625089e-05 2.1554474296609531e-10 -9.3749147551754221e-05 2.5001838649727199e-05 3.0861465788812374e-10 -9.3749131251815392e-05 2.6676599121274256e-05 2.3751686232027951e-10 -8.0023510307443318e-05 2.4277737684465672e-05 1.8468580207522616e-10 -7.6560222997826299e-05 2.5001838649727199e-05 3.0861465788812374e-10 -9.3749131251815392e-05 2.6676599121274256e-05 2.3751686232027951e-10 -8.0023510307443305e-05 2.1870802461681054e-05 3.0265692414037123e-10 -7.7866062220875943e-05 2.4277737684465672e-05 1.8468580207522616e-10 -7.6560222997826299e-05 2.6676651890625089e-05 2.1554474296609531e-10 -9.3749147551754221e-05 2.5001838649727199e-05 3.0861465788812374e-10 -9.3749131251815378e-05 2.167705789547849e-05 2.2409923735806459e-10 -9.3749086203336407e-05 3.1252203803485452e-05 1.9875688619597058e-10 -8.0023562628979311e-05 2.4277737684465672e-05 1.8468580207522619e-10 -7.6560222997826312e-05 2.6676651890625089e-05 2.1554474296609531e-10 -9.3749147551754221e-05 2.6676599121274256e-05 2.3751686232027951e-10 -8.0023510307443318e-05 2.5422485688604686e-05 3.2068732051157482e-10 -6.4144445189377185e-05 2.4277737684465672e-05 1.8468580207522616e-10 -7.6560222997826299e-05 2.6676599121274253e-05 2.3751686232027951e-10 -8.0023510307443305e-05 2.187080246168105e-05 3.0265692414037123e-10 -7.7866062220875929e-05 3.125217686841029e-05 2.0925227958787574e-10 -6.5026235354933971e-05 2.5422485688604686e-05 3.2068732051157482e-10 -6.4144445189377185e-05 2.4277737684465672e-05 1.8468580207522616e-10 -7.6560222997826299e-05 2.6676599121274256e-05 2.3751686232027956e-10 -8.0023510307443305e-05 2.4277737684465672e-05 1.8468580207522616e-10 -7.6560222997826299e-05 2.187080246168105e-05 3.0265692414037123e-10 -7.7866062220875929e-05 2.167705789547849e-05 2.2409923735806459e-10 -9.3749086203336407e-05 1.5598358052437253e-05 1.717661639928908e-10 -7.3026426643141784e-05 2.4277737684465672e-05 1.8468580207522616e-10 -7.6560222997826299e-05 2.167705789547849e-05 2.2409923735806459e-10 -9.3749086203336407e-05 1.9069053160539264e-05 1.1632796991309861e-10 -9.3749065236716961e-05 1.559835805243725e-05 1.7176616399289075e-10 -7.302642664314177e-05 2.5422485688604686e-05 3.2068732051157482e-10 -6.4144445189377185e-05 2.4277737684465672e-05 1.8468580207522616e-10 -7.6560222997826299e-05 2.187080246168105e-05 3.0265692414037123e-10 -7.7866062220875929e-05 1.9136765829365135e-05 2.754542150172744e-10 -6.3597306974840832e-05 2.4277737684465672e-05 1.8468580207522616e-10 -7.6560222997826299e-05 2.187080246168105e-05 3.0265692414037123e-10 -7.7866062220875929e-05 1.9136765829365135e-05 2.754542150172744e-10 -6.3597306974840832e-05 1.5598358052437253e-05 1.717661639928908e-10 -7.3026426643141784e-05 2.4277737684465672e-05 1.8468580207522616e-10 -7.6560222997826299e-05 2.5001838649727202e-05 3.0861465788812379e-10 -9.3749131251815406e-05 2.187080246168105e-05 3.0265692414037123e-10 -7.7866062220875929e-05 2.167705789547849e-05 2.2409923735806459e-10 -9.3749086203336407e-05 2.187080246168105e-05 3.0265692414037123e-10 -7.7866062220875929e-05 2.167705789547849e-05 2.2409923735806459e-10 -9.3749086203336407e-05 1.8751373544393992e-05 3.6413571273056261e-10 -9.3749111819283813e-05 1.5929277284124057e-05 3.0165989291250598e-10 -7.8313471185372844e-05 2.5001838649727199e-05 3.0861465788812374e-10 -9.3749131251815392e-05 2.187080246168105e-05 3.0265692414037123e-10 -7.7866062220875929e-05 2.167705789547849e-05 2.2409923735806459e-10 -9.3749086203336407e-05 1.8751373544393992e-05 3.6413571273056261e-10 -9.3749111819283813e-05 2.5264310922880457e-05 1.1151479092758667e-10 -9.3749114509504377e-05 2.4277737684465675e-05 1.8468580207522614e-10 -7.6560222997826299e-05 2.167705789547849e-05 2.2409923735806459e-10 -9.3749086203336407e-05 1.9069053160539267e-05 1.1632796991309859e-10 -9.3749065236716961e-05 2.167705789547849e-05 2.2409923735806459e-10 -9.3749086203336407e-05 1.5877192603609135e-05 2.3974196634700382e-10 -9.3749058959091136e-05 1.9069053160539267e-05 1.1632796991309859e-10 -9.3749065236716961e-05 1.5598358052437253e-05 1.717661639928908e-10 -7.3026426643141784e-05 2.167705789547849e-05 2.2409923735806459e-10 -9.3749086203336407e-05 1.5877192603609135e-05 2.3974196634700382e-10 -9.3749058959091136e-05 1.5929277284124057e-05 3.0165989291250609e-10 -7.8313471185372844e-05 1.5598358052437253e-05 1.717661639928908e-10 -7.3026426643141784e-05 1.5877192603609135e-05 2.3974196634700382e-10 -9.3749058959091136e-05 1.8751373544393992e-05 3.6413571273056261e-10 -9.3749111819283813e-05 1.5929277284124057e-05 3.0165989291250598e-10 -7.8313471185372844e-05 1.2500906378164597e-05 4.0427464654402676e-10 -9.3749096049051511e-05 2.167705789547849e-05 2.2409923735806459e-10 -9.3749086203336407e-05 1.5877192603609135e-05 2.3974196634700382e-10 -9.3749058959091136e-05 1.8751373544393992e-05 3.6413571273056261e-10 -9.3749111819283813e-05 1.5929277284124053e-05 3.0165989291250598e-10 -7.8313471185372831e-05 2.187080246168105e-05 3.0265692414037123e-10 -7.7866062220875929e-05 2.167705789547849e-05 2.2409923735806457e-10 -9.3749086203336407e-05 1.5929277284124057e-05 3.0165989291250598e-10 -7.8313471185372844e-05 1.5598358052437257e-05 1.717661639928908e-10 -7.3026426643141784e-05 2.187080246168105e-05 3.0265692414037123e-10 -7.7866062220875929e-05 1.5929277284124057e-05 3.0165989291250598e-10 -7.8313471185372844e-05 1.9136765829365135e-05 2.754542150172744e-10 -6.3597306974840832e-05 1.5598358052437253e-05 1.7176616399289077e-10 -7.3026426643141784e-05 1.9136765829365135e-05 2.754542150172744e-10 -6.3597306974840832e-05 2.1454381320424768e-05 1.1107393238300491e-10 -6.4358358363406884e-05 1.5621086623542772e-05 1.5926895263435889e-10 -4.9656960170750966e-05 1.5598358052437253e-05 1.717661639928908e-10 -7.3026426643141784e-05 2.4181275535048907e-05 2.0438860328416878e-10 -4.6714928478079137e-05 1.9136765829365135e-05 2.754542150172743e-10 -6.3597306974840832e-05 2.1326582803799021e-05 3.71958518621666e-10 -4.9040811334222453e-05 1.5621086623542769e-05 1.5926895263435887e-10 -4.9656960170750959e-05 1.9136765829365135e-05 2.754542150172744e-10 -6.3597306974840832e-05 1.5621086623542766e-05 1.5926895263435887e-10 -4.9656960170750959e-05 1.4319814888836403e-05 2.6679542807579779e-10 -6.4658843569293415e-05 1.5598358052437253e-05 1.717661639928908e-10 -7.3026426643141784e-05 1.5929277284124057e-05 3.0165989291250598e-10 -7.8313471185372844e-05 1.9136765829365135e-05 2.754542150172744e-10 -6.3597306974840832e-05 1.4319814888836403e-05 2.6679542807579779e-10 -6.4658843569293415e-05 1.559835805243725e-05 1.717661639928908e-10 -7.302642664314177e-05 2.4181275535048907e-05 2.0438860328416878e-10 -4.6714928478079137e-05 1.9136765829365131e-05 2.754542150172744e-10 -6.3597306974840832e-05 2.1454381320424768e-05 1.1107393238300492e-10 -6.4358358363406898e-05 1.5621086623542769e-05 1.5926895263435887e-10 -4.9656960170750959e-05 2.5422485688604686e-05 3.2068732051157482e-10 -6.4144445189377185e-05 2.4277737684465672e-05 1.8468580207522616e-10 -7.6560222997826299e-05 1.9136765829365135e-05 2.754542150172744e-10 -6.3597306974840832e-05 2.1454381320424768e-05 1.1107393238300491e-10 -6.4358358363406898e-05 2.4277737684465672e-05 1.8468580207522616e-10 -7.6560222997826299e-05 1.9136765829365131e-05 2.754542150172744e-10 -6.3597306974840818e-05 2.1454381320424768e-05 1.1107393238300489e-10 -6.4358358363406911e-05 1.5598358052437257e-05 1.717661639928908e-10 -7.3026426643141784e-05 2.4181275535048907e-05 2.0438860328416878e-10 -4.6714928478079137e-05 2.5422485688604686e-05 3.2068732051157482e-10 -6.4144445189377185e-05 1.9136765829365138e-05 2.754542150172744e-10 -6.3597306974840832e-05 2.1454381320424765e-05 1.1107393238300492e-10 -6.4358358363406884e-05 2.4181275535048907e-05 2.0438860328416878e-10 -4.6714928478079137e-05 2.5422485688604686e-05 3.2068732051157482e-10 -6.4144445189377185e-05 1.9136765829365135e-05 2.754542150172744e-10 -6.3597306974840832e-05 2.1326582803799021e-05 3.7195851862166605e-10 -4.9040811334222453e-05 1.6239109627333722e-05 3.163831337967028e-10 -4.6875180847950182e-05 1.9136765829365135e-05 2.754542150172744e-10 -6.3597306974840832e-05 1.5621086623542769e-05 1.5926895263435884e-10 -4.9656960170750966e-05 1.4319814888836403e-05 2.6679542807579779e-10 -6.4658843569293415e-05 1.6239109627333722e-05 3.163831337967028e-10 -4.6875180847950182e-05 1.9136765829365135e-05 2.754542150172744e-10 -6.3597306974840832e-05 2.1326582803799021e-05 3.71958518621666e-10 -4.9040811334222453e-05 1.5621086623542769e-05 1.5926895263435884e-10 -4.9656960170750959e-05 2.1454381320424768e-05 1.1107393238300491e-10 -6.4358358363406898e-05 1.5568662642887709e-05 1.4829286421024844e-11 -7.0354932310016729e-05 1.5621086623542769e-05 1.5926895263435884e-10 -4.9656960170750959e-05 1.5598358052437253e-05 1.717661639928908e-10 -7.3026426643141784e-05 2.3453183028271071e-05 1.7670110359534258e-11 -4.6722008888558432e-05 1.5626091574759141e-05 -1.8183402299245683e-12 -4.6875145498662442e-05 2.1454381320424768e-05 1.1107393238300491e-10 -6.4358358363406898e-05 1.5568662642887705e-05 1.4829286421024938e-11 -7.0354932310016729e-05 2.3453183028271071e-05 1.7670110359534258e-11 -4.6722008888558432e-05 2.4382723193160923e-05 -3.2173552466823389e-12 -7.3142528268015783e-05 2.1454381320424768e-05 1.1107393238300491e-10 -6.4358358363406898e-05 1.5568662642887712e-05 1.482928642102488e-11 -7.0354932310016729e-05 2.3453183028271071e-05 1.7670110359534258e-11 -4.6722008888558432e-05 1.5626091574759141e-05 -1.8183402299245465e-12 -4.6875145498662436e-05 2.1454381320424768e-05 1.1107393238300491e-10 -6.4358358363406898e-05 1.5621086623542769e-05 1.5926895263435887e-10 -4.9656960170750959e-05 2.4181275535048907e-05 2.0438860328416878e-10 -4.6714928478079137e-05 2.3453183028271074e-05 1.7670110359534232e-11 -4.6722008888558432e-05 2.1454381320424768e-05 1.1107393238300491e-10 -6.4358358363406898e-05 1.5621086623542766e-05 1.5926895263435884e-10 -4.9656960170750952e-05 1.5626091574759141e-05 -1.8183402299245683e-12 -4.6875145498662442e-05 2.1454381320424765e-05 1.1107393238300492e-10 -6.4358358363406884e-05 1.5568662642887705e-05 1.4829286421024838e-11 -7.0354932310016729e-05 1.5621086623542769e-05 1.5926895263435887e-10 -4.9656960170750959e-05 2.4382723193160923e-05 -3.2173552466823389e-12 -7.3142528268015783e-05 2.1039200737829048e-05 1.6593449540367957e-11 -9.3749082273318095e-05 1.9069053160539267e-05 1.1632796991309852e-10 -9.3749065236716975e-05 1.5568662642887709e-05 1.4829286421024844e-11 -7.0354932310016729e-05 2.4382723193160923e-05 -3.2173552466823389e-12 -7.3142528268015783e-05 2.1454381320424768e-05 1.1107393238300489e-10 -6.4358358363406898e-05 1.9069053160539267e-05 1.1632796991309859e-10 -9.3749065236716961e-05 1.5568662642887709e-05 1.4829286421024857e-11 -7.0354932310016729e-05 2.4382723193160923e-05 -3.2173552466823389e-12 -7.3142528268015783e-05 2.526431092288046e-05 1.1151479092758669e-10 -9.3749114509504377e-05 2.1454381320424768e-05 1.1107393238300491e-10 -6.4358358363406898e-05 1.9069053160539267e-05 1.1632796991309859e-10 -9.3749065236716961e-05 2.4277737684465672e-05 1.8468580207522616e-10 -7.6560222997826299e-05 2.1454381320424765e-05 1.1107393238300492e-10 -6.4358358363406884e-05 1.9069053160539271e-05 1.1632796991309863e-10 -9.3749065236716961e-05 1.5598358052437253e-05 1.7176616399289077e-10 -7.3026426643141784e-05 2.1454381320424768e-05 1.1107393238300491e-10 -6.4358358363406898e-05 1.9069053160539264e-05 1.1632796991309859e-10 -9.3749065236716948e-05 1.5568662642887709e-05 1.4829286421024841e-11 -7.0354932310016729e-05 1.5598358052437253e-05 1.717661639928908e-10 -7.3026426643141784e-05 2.5264310922880457e-05 1.1151479092758667e-10 -9.3749114509504377e-05 2.4277737684465672e-05 1.8468580207522616e-10 -7.6560222997826299e-05 2.1454381320424765e-05 1.1107393238300483e-10 -6.4358358363406884e-05 1.9069053160539267e-05 1.1632796991309859e-10 -9.3749065236716961e-05 2.4382723193160923e-05 -3.2173552466823389e-12 -7.3142528268015783e-05 2.5264310922880457e-05 1.1151479092758665e-10 -9.374911450950439e-05 2.1039200737829042e-05 1.6593449540367896e-11 -9.3749082273318095e-05 1.9069053160539267e-05 1.1632796991309852e-10 -9.3749065236716961e-05 1.9069053160539267e-05 1.1632796991309859e-10 -9.3749065236716961e-05 1.4317393682033303e-05 1.2485696444046468e-10 -9.3749050731966777e-05 1.5568662642887709e-05 1.4829286421024844e-11 -7.0354932310016729e-05 1.5598358052437253e-05 1.7176616399289085e-10 -7.3026426643141784e-05 1.5877192603609135e-05 2.3974196634700382e-10 -9.3749058959091136e-05 1.9069053160539267e-05 1.1632796991309859e-10 -9.3749065236716961e-05 1.4317393682033303e-05 1.2485696444046468e-10 -9.3749050731966777e-05 1.5598358052437253e-05 1.717661639928908e-10 -7.3026426643141784e-05 1.9069053160539267e-05 1.1632796991309859e-10 -9.3749065236716961e-05 1.6239163291157622e-05 -4.4032921270871636e-12 -9.3749062975890981e-05 1.4317393682033303e-05 1.2485696444046468e-10 -9.3749050731966777e-05 1.5568662642887709e-05 1.4829286421024844e-11 -7.0354932310016729e-05 2.1039200737829045e-05 1.6593449540367876e-11 -9.3749082273318095e-05 1.9069053160539267e-05 1.1632796991309859e-10 -9.3749065236716961e-05 1.6239163291157622e-05 -4.4032921270871636e-12 -9.3749062975890981e-05 1.5568662642887709e-05 1.4829286421024844e-11 -7.0354932310016729e-05 1.0140296492991376e-05 6.6733571804915843e-11 -9.3749048187221113e-05 9.7378469154827802e-06 1.1917952860324871e-10 -6.4238844142917666e-05 5.7672753935818776e-06 1.6416672405360599e-10 -7.6511852825469817e-05 6.8267158922984858e-06 -6.5613410615958488e-13 -7.2782319037634224e-05 1.6239163291157622e-05 -4.4032921270871636e-12 -9.3749062975890981e-05 1.0140296492991376e-05 6.6733571804915843e-11 -9.3749048187221113e-05 1.5568662642887709e-05 1.4829286421024844e-11 -7.0354932310016729e-05 1.0289892187843626e-05 -6.9781293401311941e-11 -9.3749048606080152e-05 1.4317393682033303e-05 1.2485696444046468e-10 -9.3749050731966777e-05 9.7378469154827802e-06 1.1917952860324871e-10 -6.4238844142917666e-05 1.5598358052437253e-05 1.717661639928908e-10 -7.3026426643141784e-05 9.7091776339367276e-06 2.1229218404364907e-10 -9.3749045945666298e-05 1.0140296492991376e-05 6.6733571804915843e-11 -9.3749048187221113e-05 1.5568662642887709e-05 1.4829286421024844e-11 -7.0354932310016729e-05 6.8267158922984858e-06 -6.5613410615958488e-13 -7.2782319037634224e-05 1.0289892187843626e-05 -6.9781293401311941e-11 -9.3749048606080152e-05 1.4317393682033303e-05 1.2485696444046468e-10 -9.3749050731966777e-05 1.5568662642887709e-05 1.4829286421024831e-11 -7.0354932310016729e-05 9.7378469154827802e-06 1.1917952860324871e-10 -6.4238844142917666e-05 1.5598358052437253e-05 1.717661639928908e-10 -7.3026426643141784e-05 1.0140296492991376e-05 6.6733571804915843e-11 -9.3749048187221113e-05 1.5568662642887709e-05 1.4829286421024883e-11 -7.0354932310016729e-05 9.7378469154827819e-06 1.1917952860324869e-10 -6.4238844142917653e-05 6.8267158922984858e-06 -6.5613410615958488e-13 -7.2782319037634224e-05 1.6239163291157622e-05 -4.4032921270871636e-12 -9.3749062975890981e-05 1.4317393682033303e-05 1.2485696444046468e-10 -9.3749050731966777e-05 1.0140296492991376e-05 6.6733571804915843e-11 -9.3749048187221113e-05 1.5568662642887709e-05 1.4829286421024844e-11 -7.0354932310016729e-05 1.4317393682033303e-05 1.2485696444046468e-10 -9.3749050731966777e-05 1.0140296492991376e-05 6.6733571804915843e-11 -9.3749048187221113e-05 9.7378469154827802e-06 1.1917952860324871e-10 -6.4238844142917666e-05 9.7091776339367276e-06 2.1229218404364907e-10 -9.3749045945666298e-05 1.4317393682033303e-05 1.2485696444046468e-10 -9.3749050731966777e-05 1.0140296492991376e-05 6.6733571804915843e-11 -9.3749048187221113e-05 1.5568662642887709e-05 1.4829286421024844e-11 -7.0354932310016729e-05 9.7378469154827802e-06 1.1917952860324871e-10 -6.4238844142917666e-05 1.0140296492991376e-05 6.6733571804915843e-11 -9.3749048187221113e-05 9.7378469154827802e-06 1.1917952860324871e-10 -6.4238844142917666e-05 9.7091776339367276e-06 2.1229218404364907e-10 -9.3749045945666298e-05 5.7672753935818776e-06 1.6416672405360599e-10 -7.6511852825469817e-05 7.7409206933157089e-06 2.1289200164182606e-11 -4.2280066784070226e-05 1.5626091574759141e-05 -1.8183402299245475e-12 -4.6875145498662442e-05 9.7378469154827802e-06 1.1917952860324871e-10 -6.4238844142917666e-05 1.5621086623542769e-05 1.5926895263435879e-10 -4.9656960170750959e-05 1.5626091574759141e-05 -1.8183402299245683e-12 -4.6875145498662442e-05 1.5568662642887712e-05 1.4829286421024838e-11 -7.0354932310016729e-05 9.7378469154827802e-06 1.1917952860324871e-10 -6.4238844142917666e-05 1.5621086623542769e-05 1.5926895263435887e-10 -4.9656960170750959e-05 7.7409206933157089e-06 2.1289200164182606e-11 -4.2280066784070226e-05 7.0370266726697446e-06 1.8534891030966322e-10 -4.5175733304383565e-05 9.7378469154827802e-06 1.1917952860324871e-10 -6.423884414291768e-05 1.5621086623542769e-05 1.5926895263435887e-10 -4.9656960170750959e-05 7.7409206933157089e-06 2.1289200164182606e-11 -4.2280066784070226e-05 1.5626091574759141e-05 -1.8183402299245572e-12 -4.6875145498662442e-05 9.7378469154827802e-06 1.1917952860324871e-10 -6.4238844142917666e-05 6.8267158922984858e-06 -6.5613410615958488e-13 -7.2782319037634224e-05 1.5626091574759141e-05 -1.8183402299245683e-12 -4.6875145498662442e-05 1.5568662642887712e-05 1.4829286421024886e-11 -7.0354932310016729e-05 9.7378469154827802e-06 1.1917952860324871e-10 -6.4238844142917666e-05 6.8267158922984849e-06 -6.5613410615959124e-13 -7.2782319037634224e-05 1.5568662642887709e-05 1.4829286421024844e-11 -7.0354932310016729e-05 9.7378469154827802e-06 1.1917952860324871e-10 -6.4238844142917666e-05 1.5621086623542769e-05 1.5926895263435887e-10 -4.9656960170750959e-05 1.5598358052437253e-05 1.717661639928908e-10 -7.3026426643141784e-05 9.7378469154827802e-06 1.1917952860324871e-10 -6.4238844142917666e-05 1.5621086623542769e-05 1.5926895263435887e-10 -4.9656960170750959e-05 1.0140745686962395e-05 3.6841816183010001e-10 -5.6268846544187848e-05 1.4319814888836406e-05 2.6679542807579768e-10 -6.4658843569293428e-05 9.7378469154827802e-06 1.1917952860324871e-10 -6.4238844142917666e-05 1.0140745686962395e-05 3.6841816183010001e-10 -5.6268846544187848e-05 1.4319814888836403e-05 2.6679542807579779e-10 -6.4658843569293415e-05 9.7147709146277572e-06 3.2600938060899479e-10 -7.637755726250035e-05 9.7378469154827802e-06 1.1917952860324871e-10 -6.4238844142917666e-05 1.5621086623542769e-05 1.5926895263435887e-10 -4.9656960170750952e-05 1.4319814888836403e-05 2.6679542807579779e-10 -6.4658843569293415e-05 1.5598358052437253e-05 1.717661639928908e-10 -7.3026426643141784e-05 9.7378469154827802e-06 1.1917952860324871e-10 -6.4238844142917666e-05 1.0140745686962396e-05 3.6841816183010001e-10 -5.6268846544187848e-05 9.7147709146277572e-06 3.2600938060899479e-10 -7.637755726250035e-05 5.7672753935818776e-06 1.6416672405360599e-10 -7.6511852825469817e-05 7.0370266726697446e-06 1.8534891030966322e-10 -4.5175733304383565e-05 9.7378469154827802e-06 1.1917952860324871e-10 -6.4238844142917666e-05 1.5621086623542769e-05 1.5926895263435887e-10 -4.9656960170750959e-05 1.0140745686962395e-05 3.6841816183010001e-10 -5.6268846544187848e-05 9.7378469154827802e-06 1.1917952860324871e-10 -6.4238844142917666e-05 1.4319814888836403e-05 2.6679542807579779e-10 -6.4658843569293415e-05 1.5598358052437253e-05 1.7176616399289077e-10 -7.3026426643141784e-05 9.7147709146277572e-06 3.2600938060899479e-10 -7.637755726250035e-05 7.0370266726697446e-06 1.8534891030966322e-10 -4.5175733304383565e-05 1.0290273037581319e-05 3.5333049348369443e-10 -3.7140404936178942e-05 1.5621086623542766e-05 1.5926895263435884e-10 -4.9656960170750959e-05 1.0140745686962393e-05 3.6841816183010001e-10 -5.6268846544187855e-05 7.0370266726697446e-06 1.8534891030966322e-10 -4.5175733304383565e-05 9.7378469154827802e-06 1.1917952860324869e-10 -6.4238844142917666e-05 1.0140745686962395e-05 3.6841816183010001e-10 -5.6268846544187848e-05 4.9691171672964553e-06 3.0221516391659609e-10 -6.5106860809522793e-05 1.0290273037581319e-05 3.5333049348369438e-10 -3.7140404936178949e-05 1.6239109627333722e-05 3.163831337967028e-10 -4.6875180847950182e-05 1.5621086623542769e-05 1.5926895263435887e-10 -4.9656960170750959e-05 1.0140745686962395e-05 3.6841816183010001e-10 -5.6268846544187848e-05 1.6239109627333722e-05 3.163831337967028e-10 -4.6875180847950182e-05 1.5621086623542769e-05 1.5926895263435884e-10 -4.9656960170750966e-05 1.0140745686962393e-05 3.6841816183010007e-10 -5.6268846544187848e-05 1.4319814888836403e-05 2.6679542807579779e-10 -6.4658843569293415e-05 1.5929277284124057e-05 3.0165989291250598e-10 -7.8313471185372844e-05 1.4319814888836403e-05 2.6679542807579779e-10 -6.4658843569293415e-05 1.559835805243725e-05 1.717661639928908e-10 -7.302642664314177e-05 9.7147709146277572e-06 3.2600938060899479e-10 -7.637755726250035e-05 1.5598358052437253e-05 1.717661639928908e-10 -7.3026426643141784e-05 9.7091776339367276e-06 2.1229218404364907e-10 -9.3749045945666298e-05 9.7147709146277572e-06 3.2600938060899479e-10 -7.637755726250035e-05 5.7672753935818776e-06 1.6416672405360599e-10 -7.6511852825469817e-05 9.7378469154827802e-06 1.1917952860324871e-10 -6.4238844142917666e-05 1.559835805243725e-05 1.7176616399289077e-10 -7.3026426643141797e-05 9.7147709146277589e-06 3.2600938060899484e-10 -7.6377557262500336e-05 5.7672753935818776e-06 1.6416672405360599e-10 -7.6511852825469817e-05 1.5877192603609135e-05 2.3974196634700382e-10 -9.3749058959091136e-05 1.5929277284124057e-05 3.0165989291250598e-10 -7.8313471185372844e-05 1.5598358052437253e-05 1.717661639928908e-10 -7.3026426643141784e-05 9.7147709146277572e-06 3.2600938060899479e-10 -7.637755726250035e-05 9.7378469154827802e-06 1.1917952860324871e-10 -6.4238844142917666e-05 1.5598358052437253e-05 1.717661639928908e-10 -7.3026426643141784e-05 9.7091776339367276e-06 2.1229218404364907e-10 -9.3749045945666298e-05 5.7672753935818776e-06 1.6416672405360599e-10 -7.6511852825469817e-05 1.5877192603609135e-05 2.3974196634700382e-10 -9.3749058959091136e-05 1.5929277284124057e-05 3.0165989291250598e-10 -7.8313471185372844e-05 1.2500906378164597e-05 4.0427464654402676e-10 -9.3749096049051511e-05 9.7147709146277572e-06 3.2600938060899479e-10 -7.637755726250035e-05 1.5877192603609135e-05 2.3974196634700382e-10 -9.3749058959091136e-05 1.2500906378164597e-05 4.0427464654402676e-10 -9.3749096049051511e-05 9.7091776339367276e-06 2.1229218404364907e-10 -9.3749045945666298e-05 9.7147709146277572e-06 3.2600938060899479e-10 -7.637755726250035e-05 1.5877192603609135e-05 2.3974196634700382e-10 -9.3749058959091136e-05 1.5598358052437253e-05 1.717661639928908e-10 -7.3026426643141784e-05 9.7091776339367276e-06 2.1229218404364907e-10 -9.3749045945666298e-05 9.7147709146277572e-06 3.2600938060899479e-10 -7.637755726250035e-05 1.5877192603609135e-05 2.3974196634700382e-10 -9.3749058959091136e-05 1.4317393682033303e-05 1.2485696444046468e-10 -9.3749050731966777e-05 1.5598358052437253e-05 1.717661639928908e-10 -7.3026426643141784e-05 9.7091776339367276e-06 2.1229218404364907e-10 -9.3749045945666298e-05 1.2500906378164597e-05 4.0427464654402676e-10 -9.3749096049051511e-05 9.7091776339367276e-06 2.1229218404364905e-10 -9.3749045945666298e-05 9.7147709146277555e-06 3.2600938060899474e-10 -7.6377557262500336e-05 6.2504419773629066e-06 3.2986095609774994e-10 -9.374907740243792e-05 9.7147709146277572e-06 3.2600938060899479e-10 -7.637755726250035e-05 4.5756437803110617e-06 2.4310203919059302e-10 -8.0023421289080664e-05 5.7672753935818776e-06 1.6416672405360599e-10 -7.6511852825469817e-05 4.9691171672964561e-06 3.0221516391659609e-10 -6.5106860809522793e-05 9.7091776339367276e-06 2.1229218404364907e-10 -9.3749045945666298e-05 9.7147709146277572e-06 3.2600938060899479e-10 -7.6377557262500336e-05 4.5756437803110617e-06 2.4310203919059302e-10 -8.0023421289080664e-05 5.7672753935818776e-06 1.6416672405360599e-10 -7.6511852825469817e-05 9.7091776339367276e-06 2.1229218404364907e-10 -9.3749045945666298e-05 9.7147709146277572e-06 3.2600938060899479e-10 -7.637755726250035e-05 4.5756437803110617e-06 2.4310203919059302e-10 -8.0023421289080664e-05 6.2504419773629066e-06 3.2986095609774994e-10 -9.374907740243792e-05 9.7091776339367276e-06 2.1229218404364907e-10 -9.3749045945666298e-05 4.5756437803110617e-06 2.4310203919059302e-10 -8.0023421289080664e-05 6.2504419773629066e-06 3.2986095609774994e-10 -9.374907740243792e-05 4.5756465773727891e-06 2.1240033616921453e-10 -9.3749037101987213e-05 9.7091776339367276e-06 2.1229218404364907e-10 -9.3749045945666298e-05 4.5756465773727891e-06 2.1240033616921453e-10 -9.3749037101987213e-05 5.7672753935818776e-06 1.6416672405360599e-10 -7.6511852825469817e-05 4.9681144290438361e-06 1.189712223919547e-10 -9.3749049561970819e-05 9.7091776339367276e-06 2.1229218404364907e-10 -9.3749045945666298e-05 4.5756437803110617e-06 2.4310203919059302e-10 -8.0023421289080664e-05 4.5756465773727891e-06 2.1240033616921453e-10 -9.3749037101987213e-05 5.7672753935818776e-06 1.6416672405360599e-10 -7.6511852825469817e-05 5.7672753935818776e-06 1.6416672405360599e-10 -7.6511852825469817e-05 -3.0699698379668898e-15 2.0188365428985213e-10 -8.0023419450712895e-05 5.0006765569350702e-17 1.9119463616336626e-10 -6.6133159398100837e-05 9.2331630515628405e-16 1.1819631332191251e-10 -7.9849717276557039e-05 5.7672753935818776e-06 1.6416672405360599e-10 -7.6511852825469817e-05 -3.0699699907745384e-15 2.0188365428985211e-10 -8.0023419450712895e-05 4.9691171672964561e-06 3.0221516391659609e-10 -6.510686080952278e-05 5.0007005824082812e-17 1.9119463616336626e-10 -6.6133159398100837e-05 4.5756465773727891e-06 2.1240033616921453e-10 -9.3749037101987213e-05 5.7672753935818767e-06 1.6416672405360602e-10 -7.6511852825469803e-05 1.5046320686290278e-15 1.7898416885193856e-10 -9.3749045603226775e-05 4.9681144290438361e-06 1.189712223919547e-10 -9.3749049561970819e-05 4.5756437803110617e-06 2.4310203919059302e-10 -8.0023421289080664e-05 4.5756465773727891e-06 2.1240033616921453e-10 -9.3749037101987227e-05 5.7672753935818776e-06 1.6416672405360599e-10 -7.6511852825469817e-05 -3.0699698379668898e-15 2.0188365428985213e-10 -8.0023419450712895e-05 5.7672753935818776e-06 1.6416672405360599e-10 -7.6511852825469817e-05 -3.0699698379668898e-15 2.0188365428985213e-10 -8.0023419450712895e-05 1.5046320686290278e-15 1.7898416885193856e-10 -9.3749045603226775e-05 9.2331630515628445e-16 1.1819631332191251e-10 -7.9849717276557039e-05 4.5756465773727891e-06 2.1240033616921453e-10 -9.3749037101987213e-05 5.7672753935818784e-06 1.6416672405360597e-10 -7.6511852825469817e-05 -3.0699698379668898e-15 2.0188365428985213e-10 -8.0023419450712895e-05 1.5046320686290278e-15 1.7898416885193856e-10 -9.3749045603226775e-05 4.5756465773727891e-06 2.1240033616921453e-10 -9.3749037101987213e-05 -3.0699698379668898e-15 2.0188365428985213e-10 -8.0023419450712895e-05 1.5046320686290278e-15 1.7898416885193856e-10 -9.3749045603226775e-05 2.5549474522405948e-15 3.3273780575293554e-10 -9.3749065701306957e-05 4.5756437803110617e-06 2.4310203919059302e-10 -8.0023421289080664e-05 4.5756465773727891e-06 2.124003361692145e-10 -9.3749037101987227e-05 -3.0699698379668898e-15 2.0188365428985213e-10 -8.0023419450712895e-05 2.5549474522405948e-15 3.3273780575293554e-10 -9.3749065701306957e-05 4.5756437803110617e-06 2.4310203919059302e-10 -8.0023421289080664e-05 6.2504419773629066e-06 3.2986095609774994e-10 -9.374907740243792e-05 4.5756465773727891e-06 2.1240033616921453e-10 -9.3749037101987213e-05 2.5549474522405948e-15 3.3273780575293554e-10 -9.3749065701306957e-05 4.5756437803110617e-06 2.4310203919059302e-10 -8.0023421289080664e-05 -3.0699698379668898e-15 2.0188365428985213e-10 -8.0023419450712895e-05 2.5549474522405948e-15 3.3273780575293554e-10 -9.3749065701306957e-05 1.5491443893709834e-15 2.9325562162717072e-10 -7.4999485743388117e-05 4.5756437803110617e-06 2.4310203919059302e-10 -8.0023421289080664e-05 5.7672753935818776e-06 1.6416672405360599e-10 -7.6511852825469817e-05 -3.0699698379668898e-15 2.0188365428985213e-10 -8.0023419450712895e-05 4.9691171672964561e-06 3.0221516391659609e-10 -6.5106860809522793e-05 -3.0699698379668898e-15 2.0188365428985213e-10 -8.0023419450712895e-05 1.5491443893709834e-15 2.9325562162717072e-10 -7.4999485743388117e-05 4.9691171672964561e-06 3.0221516391659609e-10 -6.5106860809522793e-05 5.0007005824082812e-17 1.9119463616336626e-10 -6.6133159398100837e-05 4.5756437803110617e-06 2.4310203919059302e-10 -8.0023421289080664e-05 -3.0699698076660668e-15 2.0188365428985213e-10 -8.0023419450712895e-05 1.5491443893709834e-15 2.9325562162717072e-10 -7.4999485743388117e-05 4.9691171672964561e-06 3.0221516391659609e-10 -6.5106860809522793e-05 1.5491443893709834e-15 2.9325562162717072e-10 -7.4999485743388117e-05 4.9691171672964561e-06 3.0221516391659609e-10 -6.5106860809522793e-05 4.7895061506320353e-15 3.611376445710333e-10 -5.6249927851314623e-05 5.0007005824082812e-17 1.9119463616336626e-10 -6.6133159398100837e-05 7.0370266726697446e-06 1.8534891030966322e-10 -4.5175733304383565e-05 9.7378469154827802e-06 1.1917952860324871e-10 -6.4238844142917666e-05 5.7672753935818776e-06 1.6416672405360599e-10 -7.6511852825469817e-05 5.0007005824082812e-17 1.9119463616336626e-10 -6.6133159398100837e-05 4.9691171672964561e-06 3.0221516391659609e-10 -6.5106860809522793e-05 4.7895061506320353e-15 3.611376445710333e-10 -5.6249927851314623e-05 -4.7945874749340671e-15 2.3833245884713774e-10 -4.7628259880443783e-05 5.0007557506907753e-17 1.9119463616336618e-10 -6.6133159398100823e-05 9.7378469154827802e-06 1.1917952860324871e-10 -6.4238844142917666e-05 1.0140745686962395e-05 3.6841816183010001e-10 -5.6268846544187848e-05 5.7672753935818759e-06 1.6416672405360591e-10 -7.6511852825469817e-05 4.9691171672964604e-06 3.0221516391659625e-10 -6.5106860809522807e-05 7.0370266726697446e-06 1.8534891030966322e-10 -4.5175733304383565e-05 9.7378469154827802e-06 1.1917952860324871e-10 -6.4238844142917666e-05 5.7672753935818776e-06 1.6416672405360599e-10 -7.6511852825469817e-05 4.9691171672964536e-06 3.0221516391659609e-10 -6.510686080952278e-05 7.0370266726697446e-06 1.8534891030966322e-10 -4.5175733304383565e-05 5.7672753935818776e-06 1.6416672405360599e-10 -7.6511852825469817e-05 4.9691171672964561e-06 3.0221516391659609e-10 -6.5106860809522793e-05 5.0007005824082812e-17 1.9119463616336626e-10 -6.6133159398100837e-05 1.0140745686962395e-05 3.6841816183010001e-10 -5.6268846544187848e-05 9.7147709146277572e-06 3.2600938060899479e-10 -7.637755726250035e-05 5.7672753935818776e-06 1.6416672405360599e-10 -7.6511852825469817e-05 4.9691171672964561e-06 3.0221516391659609e-10 -6.5106860809522793e-05 7.0370266726697446e-06 1.8534891030966322e-10 -4.5175733304383565e-05 5.383540674385074e-06 3.3029230806804467e-10 -4.6721922170643635e-05 1.0140745686962395e-05 3.6841816183010001e-10 -5.6268846544187848e-05 4.9691171672964561e-06 3.0221516391659609e-10 -6.5106860809522793e-05 7.0370266726697446e-06 1.8534891030966322e-10 -4.5175733304383565e-05 5.3835406743850723e-06 3.3029230806804467e-10 -4.6721922170643628e-05 4.9691171672964561e-06 3.0221516391659609e-10 -6.5106860809522793e-05 -4.7945856075683628e-15 2.383324588471378e-10 -4.762825988044379e-05 5.7621482220285648e-15 3.8700897329818205e-10 -3.7500382932581325e-05 5.3835406743850715e-06 3.3029230806804462e-10 -4.6721922170643635e-05 4.7895061506320353e-15 3.611376445710333e-10 -5.6249927851314623e-05 -4.7945867578285273e-15 2.383324588471378e-10 -4.7628259880443783e-05 5.3835406743850715e-06 3.3029230806804462e-10 -4.6721922170643635e-05 4.9691171672964561e-06 3.0221516391659615e-10 -6.5106860809522793e-05 4.7895061506320353e-15 3.611376445710333e-10 -5.6249927851314623e-05 -4.7945861676245524e-15 2.383324588471378e-10 -4.762825988044379e-05 7.0370266726697446e-06 1.8534891030966322e-10 -4.5175733304383565e-05 4.9691171672964553e-06 3.0221516391659609e-10 -6.5106860809522807e-05 -4.7945867578285273e-15 2.383324588471378e-10 -4.7628259880443783e-05 5.0007005824082812e-17 1.9119463616336626e-10 -6.6133159398100837e-05 7.0370266726697446e-06 1.8534891030966322e-10 -4.5175733304383565e-05 -4.7945859111233557e-15 2.3833245884713774e-10 -4.762825988044379e-05 5.0008169655916562e-17 1.9119463616336629e-10 -6.6133159398100837e-05 -1.6680683471572887e-16 1.0631157957979782e-10 -5.6197664153622138e-05 7.0370266726697446e-06 1.8534891030966322e-10 -4.5175733304383565e-05 9.7378469154827802e-06 1.1917952860324871e-10 -6.4238844142917666e-05 5.000741699970855e-17 1.9119463616336631e-10 -6.6133159398100837e-05 -1.6680752366424433e-16 1.0631157957979779e-10 -5.6197664153622138e-05 9.7378469154827802e-06 1.1917952860324871e-10 -6.4238844142917666e-05 5.7672753935818784e-06 1.6416672405360599e-10 -7.6511852825469817e-05 5.0007005824082812e-17 1.9119463616336626e-10 -6.6133159398100837e-05 -1.6680683471572818e-16 1.0631157957979787e-10 -5.6197664153622138e-05 5.7672753935818776e-06 1.6416672405360599e-10 -7.6511852825469817e-05 5.0007949951423311e-17 1.9119463616336629e-10 -6.6133159398100823e-05 -1.6680665128534068e-16 1.0631157957979783e-10 -5.6197664153622124e-05 3.8642688407205293e-16 6.6517632159797836e-11 -6.8177070014525923e-05 7.7409206933157089e-06 2.1289200164182606e-11 -4.2280066784070226e-05 9.7378469154827802e-06 1.1917952860324871e-10 -6.4238844142917666e-05 -1.6680598766739032e-16 1.063115795797979e-10 -5.6197664153622138e-05 6.8267158922984866e-06 -6.5613410615961022e-13 -7.2782319037634224e-05 9.7378469154827802e-06 1.1917952860324871e-10 -6.4238844142917666e-05 5.7672753935818776e-06 1.6416672405360597e-10 -7.6511852825469817e-05 -1.6680732043165584e-16 1.0631157957979786e-10 -5.6197664153622131e-05 3.8642816466443857e-16 6.6517632159797862e-11 -6.8177070014525896e-05 -1.6680683471572818e-16 1.0631157957979787e-10 -5.6197664153622138e-05 -2.6761819340653443e-15 3.1931889251005427e-12 -4.8714047978491055e-05 6.8267158922984875e-06 -6.5613410615960891e-13 -7.2782319037634224e-05 5.8998474515448333e-16 -1.8963154154119775e-11 -6.3112751620483153e-05 9.7378469154827802e-06 1.1917952860324871e-10 -6.4238844142917666e-05 -1.6680773657083269e-16 1.0631157957979794e-10 -5.6197664153622151e-05 3.8642791682367206e-16 6.6517632159797914e-11 -6.8177070014525883e-05 6.8267158922984849e-06 -6.5613410615962193e-13 -7.2782319037634224e-05 7.7409206933157089e-06 2.1289200164182606e-11 -4.2280066784070226e-05 7.0370266726697446e-06 1.8534891030966322e-10 -4.5175733304383565e-05 9.7378469154827802e-06 1.1917952860324871e-10 -6.4238844142917666e-05 -1.6680683471572818e-16 1.0631157957979787e-10 -5.6197664153622138e-05 7.7409206933157089e-06 2.1289200164182606e-11 -4.2280066784070226e-05 -1.6680471544973604e-16 1.0631157957979794e-10 -5.6197664153622138e-05 -2.6761819340653443e-15 3.1931889251005427e-12 -4.8714047978491055e-05 6.8267158922984849e-06 -6.5613410615961608e-13 -7.2782319037634224e-05 9.2243499491443321e-16 1.2069070025807253e-10 -4.2810762509020563e-05 7.0370266726697446e-06 1.8534891030966322e-10 -4.5175733304383565e-05 -4.7945867578285273e-15 2.383324588471378e-10 -4.7628259880443783e-05 -1.6680683471572818e-16 1.0631157957979787e-10 -5.6197664153622138e-05 7.7409206933157089e-06 2.1289200164182606e-11 -4.2280066784070226e-05 9.2243377421259335e-16 1.2069070025807251e-10 -4.2810762509020556e-05 -1.668044850778228e-16 1.0631157957979785e-10 -5.6197664153622151e-05 -2.6761819340653443e-15 3.1931889251005427e-12 -4.8714047978491055e-05 -1.6680683471572818e-16 1.0631157957979787e-10 -5.6197664153622138e-05 3.8642763235182558e-16 6.6517632159797862e-11 -6.8177070014525896e-05 6.8267158922984892e-06 -6.5613410615959235e-13 -7.2782319037634224e-05 5.8998474515448333e-16 -1.8963154154119775e-11 -6.3112751620483153e-05 -2.2154519370617318e-16 5.8301297015324988e-12 -7.8929322851106922e-05 9.2331630515628445e-16 1.1819631332191251e-10 -7.9849717276557039e-05 6.8267158922984866e-06 -6.5613410615956569e-13 -7.2782319037634211e-05 4.968114429043837e-06 1.189712223919547e-10 -9.3749049561970806e-05 9.7378469154827802e-06 1.1917952860324871e-10 -6.4238844142917666e-05 5.7672753935818784e-06 1.6416672405360599e-10 -7.6511852825469817e-05 3.8642794609200997e-16 6.6517632159797875e-11 -6.8177070014525896e-05 6.8267158922984866e-06 -6.5613410615961103e-13 -7.2782319037634224e-05 5.7672753935818776e-06 1.6416672405360599e-10 -7.6511852825469817e-05 9.2331630515628445e-16 1.1819631332191251e-10 -7.9849717276557039e-05 6.8267158922984858e-06 -6.5613410615959467e-13 -7.2782319037634224e-05 4.9681144290438361e-06 1.1897122239195467e-10 -9.3749049561970806e-05 3.8642816466443857e-16 6.6517632159797862e-11 -6.8177070014525896e-05 -2.2154519370617318e-16 5.8301297015324988e-12 -7.8929322851106922e-05 6.8267158922984858e-06 -6.5613410615958094e-13 -7.2782319037634224e-05 5.8998474515448333e-16 -1.8963154154119775e-11 -6.3112751620483153e-05 3.8642816466443857e-16 6.6517632159797862e-11 -6.8177070014525896e-05 -2.2154515107053738e-16 5.8301297015325005e-12 -7.8929322851106922e-05 9.2331630515628445e-16 1.1819631332191251e-10 -7.9849717276557039e-05 6.8267158922984858e-06 -6.5613410615958488e-13 -7.2782319037634224e-05 1.0140296492991376e-05 6.6733571804915843e-11 -9.3749048187221113e-05 5.7672753935818776e-06 1.6416672405360599e-10 -7.6511852825469817e-05 6.8267158922984858e-06 -6.5613410615958488e-13 -7.2782319037634224e-05 4.9681144290438361e-06 1.189712223919547e-10 -9.3749049561970819e-05 5.7672753935818776e-06 1.6416672405360599e-10 -7.6511852825469817e-05 3.8642858481599953e-16 6.6517632159797888e-11 -6.8177070014525869e-05 9.2331673398476814e-16 1.1819631332191248e-10 -7.9849717276557039e-05 6.8267158922984858e-06 -6.5613410615958488e-13 -7.2782319037634224e-05 5.7672753935818776e-06 1.6416672405360599e-10 -7.6511852825469817e-05 5.0008352580606885e-17 1.9119463616336626e-10 -6.6133159398100823e-05 3.8643029951880648e-16 6.6517632159797849e-11 -6.8177070014525883e-05 9.2331630515628464e-16 1.1819631332191254e-10 -7.9849717276557052e-05 1.0140296492991376e-05 6.6733571804915843e-11 -9.3749048187221113e-05 6.8267158922984858e-06 -6.5613410615958488e-13 -7.2782319037634224e-05 4.9681144290438361e-06 1.189712223919547e-10 -9.3749049561970819e-05 5.3835591931435603e-06 3.004245523248157e-13 -9.3749047689135965e-05 -2.2154519370617318e-16 5.8301297015324988e-12 -7.8929322851106922e-05 6.8267158922984866e-06 -6.5613410615956478e-13 -7.2782319037634211e-05 4.968114429043837e-06 1.189712223919547e-10 -9.3749049561970819e-05 5.3835591931435603e-06 3.0042455232483776e-13 -9.3749047689135965e-05 1.0140296492991376e-05 6.6733571804915843e-11 -9.3749048187221113e-05 9.7091776339367276e-06 2.1229218404364907e-10 -9.3749045945666298e-05 5.7672753935818776e-06 1.6416672405360599e-10 -7.6511852825469817e-05 4.9681144290438361e-06 1.189712223919547e-10 -9.3749049561970819e-05 5.7672753935818776e-06 1.6416672405360599e-10 -7.6511852825469817e-05 1.5046334686442967e-15 1.7898416885193853e-10 -9.3749045603226788e-05 9.2331630515628445e-16 1.1819631332191251e-10 -7.9849717276557039e-05 4.9681144290438344e-06 1.1897122239195475e-10 -9.3749049561970819e-05 -2.2154519370617318e-16 5.8301297015324988e-12 -7.8929322851106922e-05 9.2331630515628445e-16 1.1819631332191251e-10 -7.9849717276557039e-05 4.9681144290438361e-06 1.189712223919547e-10 -9.3749049561970819e-05 1.0062765613954293e-15 6.0795754810587115e-11 -9.3749052064089991e-05 1.5046320686290278e-15 1.7898416885193856e-10 -9.3749045603226775e-05 9.2331630515628445e-16 1.1819631332191251e-10 -7.9849717276557039e-05 4.9681144290438361e-06 1.189712223919547e-10 -9.3749049561970819e-05 1.0062765613954293e-15 6.0795754810587115e-11 -9.3749052064089991e-05 -2.2154519370617318e-16 5.8301297015324988e-12 -7.8929322851106922e-05 4.9681144290438361e-06 1.189712223919547e-10 -9.3749049561970819e-05 1.0062765613954293e-15 6.0795754810587115e-11 -9.3749052064089991e-05 5.3835591931435603e-06 3.0042455232483539e-13 -9.3749047689135952e-05 -2.2154519370617318e-16 5.8301297015324988e-12 -7.8929322851106922e-05 1.0062765613954293e-15 6.0795754810587115e-11 -9.3749052064089991e-05 9.7047766195063724e-16 -6.0168226608806877e-11 -9.374905064537342e-05 5.3835591931435603e-06 3.004245523248157e-13 -9.3749047689135965e-05 -2.2154519370617318e-16 5.8301297015324988e-12 -7.8929322851106922e-05 9.7047797667045864e-16 -6.0168226608806877e-11 -9.3749050645373406e-05 1.2453210891481701e-15 -1.124231597378916e-10 -7.5786847449444721e-05 5.3835591931435595e-06 3.0042455232481464e-13 -9.3749047689135965e-05 9.7047797667045864e-16 -6.0168226608806877e-11 -9.3749050645373406e-05 1.2453210891481701e-15 -1.124231597378916e-10 -7.5786847449444721e-05 5.2909225709639463e-06 -1.1781374504569836e-10 -9.3749042009219589e-05 5.3835591931435603e-06 3.004245523248157e-13 -9.3749047689135965e-05 1.2453210891481701e-15 -1.124231597378916e-10 -7.5786847449444721e-05 5.2909225709639463e-06 -1.1781374504569836e-10 -9.3749042009219589e-05 9.8215568455767373e-06 -1.1978318521474141e-10 -6.4463309111626685e-05 -5.1912026974818202e-15 -2.0897433073241134e-10 -8.0023415357425039e-05 6.8267158922984858e-06 -6.5613410615958488e-13 -7.2782319037634224e-05 1.2453184192267698e-15 -1.1242315973789163e-10 -7.5786847449444707e-05 5.2909225709639463e-06 -1.1781374504569836e-10 -9.3749042009219589e-05 9.8215568455767373e-06 -1.1978318521474143e-10 -6.4463309111626699e-05 -2.2154519370617318e-16 5.8301297015324988e-12 -7.8929322851106922e-05 6.8267158922984875e-06 -6.5613410615958447e-13 -7.2782319037634224e-05 1.2453210891481701e-15 -1.124231597378916e-10 -7.5786847449444721e-05 5.8998474515448333e-16 -1.8963154154119775e-11 -6.3112751620483153e-05 -2.2154519370617318e-16 5.8301297015324988e-12 -7.8929322851106922e-05 6.8267158922984866e-06 -6.5613410615958175e-13 -7.2782319037634211e-05 1.2453210891481701e-15 -1.124231597378916e-10 -7.5786847449444721e-05 5.3835591931435603e-06 3.0042455232481878e-13 -9.3749047689135952e-05 9.7047797667045864e-16 -6.0168226608806877e-11 -9.3749050645373406e-05 1.2453207713136088e-15 -1.1242315973789162e-10 -7.5786847449444721e-05 5.2909225709639463e-06 -1.1781374504569836e-10 -9.3749042009219589e-05 2.2746785111329336e-15 -1.8002176437017043e-10 -9.3749045154007933e-05 6.8267158922984858e-06 -6.5613410615958488e-13 -7.2782319037634224e-05 5.2909225709639463e-06 -1.1781374504569836e-10 -9.3749042009219589e-05 5.3835591931435603e-06 3.004245523248157e-13 -9.3749047689135965e-05 1.0289892187843625e-05 -6.9781293401311941e-11 -9.3749048606080152e-05 6.8267158922984858e-06 -6.5613410615958488e-13 -7.2782319037634224e-05 1.2453183196636684e-15 -1.1242315973789159e-10 -7.5786847449444694e-05 5.2909225709639463e-06 -1.1781374504569836e-10 -9.3749042009219589e-05 5.3835591931435603e-06 3.004245523248157e-13 -9.3749047689135965e-05 5.2909225709639463e-06 -1.1781374504569836e-10 -9.3749042009219589e-05 1.0289892187843626e-05 -6.9781293401311941e-11 -9.3749048606080152e-05 9.8215568455767373e-06 -1.1978318521474143e-10 -6.4463309111626699e-05 9.8790786879021073e-06 -2.0866308679333294e-10 -9.3749043662583545e-05 1.0140296492991376e-05 6.6733571804915843e-11 -9.3749048187221113e-05 6.8267158922984858e-06 -6.5613410615958488e-13 -7.2782319037634224e-05 5.3835591931435603e-06 3.0042455232482377e-13 -9.3749047689135965e-05 1.0289892187843626e-05 -6.9781293401311941e-11 -9.3749048606080152e-05 1.5652563704080066e-05 -1.9179272121951818e-10 -7.3204049675458665e-05 1.5568662642887709e-05 1.4829286421024838e-11 -7.0354932310016743e-05 1.431739984888211e-05 -1.3264131487749523e-10 -9.3749055464220551e-05 9.8215568455767373e-06 -1.1978318521474143e-10 -6.4463309111626699e-05 1.5568662642887709e-05 1.4829286421024844e-11 -7.0354932310016729e-05 6.8267158922984858e-06 -6.5613410615958488e-13 -7.2782319037634224e-05 1.0289892187843626e-05 -6.9781293401311954e-11 -9.3749048606080166e-05 9.8215568455767373e-06 -1.1978318521474138e-10 -6.4463309111626699e-05 1.0289892187843626e-05 -6.9781293401311941e-11 -9.3749048606080152e-05 1.431739984888211e-05 -1.3264131487749523e-10 -9.3749055464220551e-05 9.8215568455767356e-06 -1.1978318521474143e-10 -6.4463309111626685e-05 9.8790786879021073e-06 -2.0866308679333294e-10 -9.3749043662583545e-05 1.5652563704080066e-05 -1.9179272121951818e-10 -7.3204049675458665e-05 1.431739984888211e-05 -1.3264131487749523e-10 -9.3749055464220551e-05 9.8215568455767356e-06 -1.1978318521474141e-10 -6.4463309111626685e-05 9.879078687902109e-06 -2.0866308679333292e-10 -9.3749043662583545e-05 1.5568662642887709e-05 1.4829286421024844e-11 -7.0354932310016729e-05 1.0289892187843623e-05 -6.9781293401311903e-11 -9.3749048606080152e-05 1.431739984888211e-05 -1.3264131487749523e-10 -9.3749055464220551e-05 9.8215568455767373e-06 -1.1978318521474143e-10 -6.4463309111626699e-05 6.8267158922984858e-06 -6.5613410615958488e-13 -7.2782319037634224e-05 5.2909225709639463e-06 -1.1781374504569836e-10 -9.3749042009219589e-05 1.0289892187843625e-05 -6.9781293401311954e-11 -9.3749048606080139e-05 9.8215568455767373e-06 -1.1978318521474143e-10 -6.4463309111626699e-05 1.6239163291157622e-05 -4.4032921270871636e-12 -9.3749062975890981e-05 1.5568662642887709e-05 1.4829286421024848e-11 -7.0354932310016729e-05 1.0289892187843626e-05 -6.9781293401311941e-11 -9.3749048606080152e-05 1.431739984888211e-05 -1.3264131487749523e-10 -9.3749055464220551e-05 1.5626091574759141e-05 -1.8183402299245683e-12 -4.6875145498662442e-05 1.5568662642887712e-05 1.4829286421024793e-11 -7.0354932310016756e-05 6.8267158922984849e-06 -6.5613410615958528e-13 -7.2782319037634224e-05 9.8215568455767373e-06 -1.1978318521474143e-10 -6.4463309111626699e-05 7.7409206933157089e-06 2.1289200164182606e-11 -4.2280066784070226e-05 1.564908964606537e-05 -1.6208601468754337e-10 -4.9581301137518234e-05 9.8215568455767339e-06 -1.1978318521474143e-10 -6.4463309111626699e-05 6.9032114344796426e-06 -1.5970690887929119e-10 -4.6879646701734586e-05 1.5649089646065374e-05 -1.6208601468754337e-10 -4.958130113751824e-05 1.565256370408007e-05 -1.9179272121951823e-10 -7.3204049675458678e-05 1.5568662642887709e-05 1.4829286421024838e-11 -7.0354932310016743e-05 9.8215568455767373e-06 -1.1978318521474143e-10 -6.4463309111626699e-05 7.7409206933157089e-06 2.1289200164182606e-11 -4.2280066784070226e-05 1.5626091574759138e-05 -1.8183402299246115e-12 -4.6875145498662429e-05 1.5649089646065377e-05 -1.6208601468754334e-10 -4.9581301137518234e-05 9.8215568455767373e-06 -1.1978318521474141e-10 -6.4463309111626699e-05 1.5626091574759141e-05 -1.8183402299245683e-12 -4.6875145498662442e-05 1.5649089646065374e-05 -1.6208601468754337e-10 -4.958130113751824e-05 1.5568662642887709e-05 1.4829286421024851e-11 -7.0354932310016729e-05 9.8215568455767373e-06 -1.1978318521474143e-10 -6.4463309111626699e-05 7.7409206933157089e-06 2.1289200164182606e-11 -4.2280066784070226e-05 1.5626091574759138e-05 -1.8183402299245431e-12 -4.6875145498662442e-05 6.8267158922984858e-06 -6.5613410615953813e-13 -7.2782319037634211e-05 9.8215568455767356e-06 -1.1978318521474151e-10 -6.4463309111626685e-05 7.7409206933157089e-06 2.1289200164182606e-11 -4.2280066784070226e-05 -2.6761819340653443e-15 3.1931889251005427e-12 -4.8714047978491055e-05 6.8267158922984849e-06 -6.5613410615954055e-13 -7.2782319037634211e-05 9.8215568455767356e-06 -1.1978318521474143e-10 -6.4463309111626685e-05 -2.3397878670201502e-15 -1.0852753066269143e-10 -4.294930645874171e-05 7.7409206933157073e-06 2.1289200164182613e-11 -4.2280066784070226e-05 2.2551441584916954e-15 -1.1500066911603793e-10 -5.7231471239177652e-05 6.90321143447964e-06 -1.5970690887929119e-10 -4.6879646701734586e-05 7.7409206933157089e-06 2.1289200164182606e-11 -4.2280066784070226e-05 -2.6761830178406379e-15 3.1931889251004445e-12 -4.8714047978491041e-05 9.8215568455767373e-06 -1.1978318521474149e-10 -6.4463309111626685e-05 2.2551428141553801e-15 -1.1500066911603784e-10 -5.7231471239177666e-05 -2.6761819340653443e-15 3.1931889251005427e-12 -4.8714047978491055e-05 6.8267158922984858e-06 -6.5613410615958488e-13 -7.2782319037634224e-05 9.8215568455767373e-06 -1.1978318521474143e-10 -6.4463309111626699e-05 2.2551440742927746e-15 -1.1500066911603793e-10 -5.7231471239177652e-05 7.7409206933157089e-06 2.1289200164182606e-11 -4.2280066784070226e-05 9.8215568455767356e-06 -1.1978318521474141e-10 -6.4463309111626713e-05 2.2551431632163019e-15 -1.150006691160379e-10 -5.7231471239177659e-05 6.9032114344796417e-06 -1.5970690887929119e-10 -4.6879646701734586e-05 -2.6761819340653443e-15 3.1931889251005427e-12 -4.8714047978491055e-05 6.8267158922984858e-06 -6.5613410615958488e-13 -7.2782319037634224e-05 5.8998474515448333e-16 -1.8963154154119775e-11 -6.3112751620483153e-05 2.2551440742927746e-15 -1.1500066911603793e-10 -5.7231471239177652e-05 9.8215568455767373e-06 -1.1978318521474143e-10 -6.4463309111626699e-05 2.2551443372213761e-15 -1.15000669116038e-10 -5.7231471239177652e-05 6.90321143447964e-06 -1.5970690887929116e-10 -4.6879646701734586e-05 -4.6192656690688986e-15 -2.3333348521080235e-10 -6.5044395723993893e-05 6.8267158922984858e-06 -6.5613410615958488e-13 -7.2782319037634224e-05 1.2453211968866753e-15 -1.1242315973789162e-10 -7.5786847449444721e-05 9.8215568455767373e-06 -1.1978318521474143e-10 -6.4463309111626699e-05 2.2551454143848486e-15 -1.1500066911603793e-10 -5.7231471239177659e-05 1.2453210891481701e-15 -1.124231597378916e-10 -7.5786847449444721e-05 9.8215568455767373e-06 -1.1978318521474143e-10 -6.4463309111626699e-05 2.2551443748273911e-15 -1.1500066911603791e-10 -5.7231471239177659e-05 -4.6192656690688986e-15 -2.3333348521080235e-10 -6.5044395723993893e-05 -2.3397878670201502e-15 -1.0852753066269143e-10 -4.294930645874171e-05 7.7409206933157089e-06 2.1289200164182606e-11 -4.2280066784070226e-05 -2.6761819340653443e-15 3.1931889251005427e-12 -4.8714047978491055e-05 2.2551440742927746e-15 -1.1500066911603793e-10 -5.7231471239177652e-05 6.8267158922984858e-06 -6.5613410615958488e-13 -7.2782319037634224e-05 1.2453201610357001e-15 -1.124231597378916e-10 -7.5786847449444721e-05 5.8998474515448333e-16 -1.8963154154119775e-11 -6.3112751620483153e-05 2.2551433163750571e-15 -1.1500066911603789e-10 -5.7231471239177659e-05 -2.3397878670201502e-15 -1.0852753066269143e-10 -4.294930645874171e-05 2.2551440742927746e-15 -1.1500066911603793e-10 -5.7231471239177652e-05 6.90321143447964e-06 -1.5970690887929119e-10 -4.6879646701734586e-05 -4.7228200354696812e-15 -2.3703577693504417e-10 -4.7781485106608423e-05 9.8215568455767373e-06 -1.1978318521474143e-10 -6.4463309111626699e-05 -4.619264880417533e-15 -2.333334852108024e-10 -6.5044395723993866e-05 5.8813406110042885e-06 -3.1568670205079395e-10 -6.4091133359215821e-05 4.5756424485816233e-06 -2.4289567647434173e-10 -8.0023423215970857e-05 9.8215568455767373e-06 -1.1978318521474143e-10 -6.4463309111626699e-05 6.90321143447964e-06 -1.5970690887929116e-10 -4.6879646701734593e-05 -4.6192656690688986e-15 -2.3333348521080235e-10 -6.5044395723993893e-05 5.8813406110042902e-06 -3.1568670205079385e-10 -6.4091133359215835e-05 6.90321143447964e-06 -1.5970690887929119e-10 -4.6879646701734586e-05 -4.7228195589750833e-15 -2.3703577693504422e-10 -4.7781485106608423e-05 -4.6192656690688986e-15 -2.3333348521080235e-10 -6.5044395723993893e-05 5.8813406110042885e-06 -3.1568670205079385e-10 -6.4091133359215835e-05 2.2551440742927746e-15 -1.1500066911603793e-10 -5.7231471239177652e-05 6.9032114344796434e-06 -1.5970690887929119e-10 -4.6879646701734586e-05 -4.7228200354696812e-15 -2.3703577693504417e-10 -4.7781485106608423e-05 -4.6192656690688986e-15 -2.3333348521080235e-10 -6.5044395723993893e-05 -4.6192656690688986e-15 -2.3333348521080235e-10 -6.5044395723993893e-05 5.8813406110042868e-06 -3.1568670205079385e-10 -6.4091133359215835e-05 9.2584700627034018e-15 -4.0660780248746892e-10 -5.6249925222190633e-05 9.1024547801221079e-15 -3.4466155749093667e-10 -7.4999474030719156e-05 -4.7228200354696812e-15 -2.3703577693504417e-10 -4.7781485106608423e-05 -4.6192656690688986e-15 -2.3333348521080235e-10 -6.5044395723993893e-05 5.8813406110042885e-06 -3.1568670205079385e-10 -6.4091133359215835e-05 9.2584700627034018e-15 -4.0660780248746892e-10 -5.6249925222190633e-05 5.116194489346999e-06 -2.9973474356975204e-10 -4.5812526550916937e-05 -4.7228200354696812e-15 -2.3703577693504417e-10 -4.7781485106608423e-05 5.8813406110042885e-06 -3.1568670205079385e-10 -6.4091133359215835e-05 9.2584700627034018e-15 -4.0660780248746892e-10 -5.6249925222190633e-05 5.116194489346999e-06 -2.9973474356975204e-10 -4.5812526550916937e-05 6.90321143447964e-06 -1.5970690887929119e-10 -4.6879646701734586e-05 5.8813406110042885e-06 -3.1568670205079379e-10 -6.4091133359215835e-05 9.697650087037135e-06 -2.574028863871856e-10 -5.0793645101403766e-05 5.116194489346999e-06 -2.9973474356975204e-10 -4.5812526550916937e-05 6.90321143447964e-06 -1.5970690887929119e-10 -4.6879646701734586e-05 -4.7228201497786753e-15 -2.3703577693504417e-10 -4.7781485106608423e-05 5.8813406110042885e-06 -3.1568670205079385e-10 -6.4091133359215835e-05 9.8215568455767373e-06 -1.1978318521474143e-10 -6.4463309111626699e-05 5.8813406110042876e-06 -3.1568670205079385e-10 -6.4091133359215835e-05 1.2380865230929196e-05 -3.5027100075642511e-10 -6.2881140511506357e-05 9.3990476008605406e-06 -3.0381082885818794e-10 -7.7877828027129474e-05 1.5649089646065374e-05 -1.6208601468754337e-10 -4.958130113751824e-05 9.8215568455767373e-06 -1.1978318521474143e-10 -6.4463309111626699e-05 6.90321143447964e-06 -1.5970690887929119e-10 -4.6879646701734586e-05 9.6976500870371333e-06 -2.5740288638718555e-10 -5.079364510140376e-05 1.5649089646065374e-05 -1.6208601468754337e-10 -4.958130113751824e-05 9.8215568455767373e-06 -1.1978318521474146e-10 -6.4463309111626699e-05 9.697650087037135e-06 -2.5740288638718555e-10 -5.0793645101403766e-05 1.2380865230929197e-05 -3.5027100075642522e-10 -6.2881140511506371e-05 1.5652563704080066e-05 -1.9179272121951818e-10 -7.3204049675458665e-05 9.8215568455767373e-06 -1.1978318521474143e-10 -6.4463309111626699e-05 1.2380865230929196e-05 -3.5027100075642511e-10 -6.2881140511506357e-05 9.3990476008605406e-06 -3.0381082885818789e-10 -7.7877828027129461e-05 9.8215568455767373e-06 -1.1978318521474143e-10 -6.4463309111626699e-05 6.9032114344796409e-06 -1.5970690887929119e-10 -4.6879646701734586e-05 5.8813406110042859e-06 -3.156867020507939e-10 -6.4091133359215835e-05 9.697650087037135e-06 -2.574028863871856e-10 -5.0793645101403766e-05 1.8757625483907697e-05 -3.7000652387567205e-10 -6.3329681230762979e-05 1.564908964606537e-05 -1.6208601468754337e-10 -4.9581301137518234e-05 1.5652563704080066e-05 -1.9179272121951818e-10 -7.3204049675458665e-05 1.2380865230929196e-05 -3.5027100075642511e-10 -6.2881140511506357e-05 9.8215568455767373e-06 -1.1978318521474143e-10 -6.4463309111626699e-05 5.8813406110042876e-06 -3.1568670205079395e-10 -6.4091133359215835e-05 9.6976500870371333e-06 -2.574028863871855e-10 -5.079364510140376e-05 1.2380865230929196e-05 -3.5027100075642516e-10 -6.2881140511506371e-05 1.5649089646065374e-05 -1.6208601468754337e-10 -4.958130113751824e-05 1.5652563704080066e-05 -1.9179272121951815e-10 -7.3204049675458678e-05 9.8215568455767373e-06 -1.1978318521474146e-10 -6.4463309111626699e-05 1.2380865230929197e-05 -3.5027100075642522e-10 -6.2881140511506371e-05 1.5626086726334186e-05 -3.1909818109196704e-10 -4.5036277833226051e-05 1.8757625483907697e-05 -3.7000652387567205e-10 -6.3329681230762979e-05 1.5649089646065374e-05 -1.6208601468754337e-10 -4.958130113751824e-05 1.2380865230929196e-05 -3.5027100075642511e-10 -6.2881140511506357e-05 1.5626086726334186e-05 -3.1909818109196704e-10 -4.5036277833226051e-05 1.5649089646065374e-05 -1.6208601468754337e-10 -4.958130113751824e-05 9.697650087037135e-06 -2.574028863871856e-10 -5.079364510140376e-05 1.2380865230929196e-05 -3.5027100075642511e-10 -6.2881140511506357e-05 1.8757625483907697e-05 -3.7000652387567205e-10 -6.3329681230762979e-05 1.5652563704080066e-05 -1.9179272121951818e-10 -7.3204049675458665e-05 1.2380865230929196e-05 -3.5027100075642511e-10 -6.2881140511506357e-05 1.5575033393533506e-05 -3.3051349369449924e-10 -7.7599945062977989e-05 9.8215568455767373e-06 -1.1978318521474143e-10 -6.4463309111626699e-05 9.3990476008605406e-06 -3.0381082885818794e-10 -7.7877828027129474e-05 9.8790786879021073e-06 -2.0866308679333294e-10 -9.3749043662583545e-05 4.5756539929000047e-06 -2.0418994952263498e-10 -9.3749034522394288e-05 1.5652563704080066e-05 -1.9179272121951818e-10 -7.3204049675458665e-05 9.8215568455767373e-06 -1.1978318521474143e-10 -6.4463309111626699e-05 9.3990476008605406e-06 -3.0381082885818789e-10 -7.7877828027129461e-05 9.8790786879021073e-06 -2.0866308679333294e-10 -9.3749043662583545e-05 1.5652563704080066e-05 -1.9179272121951818e-10 -7.3204049675458665e-05 9.3990476008605423e-06 -3.0381082885818789e-10 -7.7877828027129474e-05 1.5575033393533502e-05 -3.3051349369449919e-10 -7.7599945062977989e-05 9.8790786879021073e-06 -2.0866308679333294e-10 -9.3749043662583545e-05 1.5652563704080066e-05 -1.9179272121951818e-10 -7.3204049675458665e-05 1.2380865230929196e-05 -3.5027100075642511e-10 -6.2881140511506357e-05 9.399047600860544e-06 -3.0381082885818799e-10 -7.7877828027129474e-05 1.5575033393533506e-05 -3.3051349369449924e-10 -7.7599945062978003e-05 1.5928290114622027e-05 -2.4330984161708632e-10 -9.3749062703407109e-05 1.5575033393533506e-05 -3.3051349369449924e-10 -7.7599945062977989e-05 1.250090465166861e-05 -3.8666598871161837e-10 -9.3749085084553701e-05 9.8790786879021073e-06 -2.0866308679333294e-10 -9.3749043662583545e-05 9.3990476008605406e-06 -3.0381082885818794e-10 -7.7877828027129474e-05 1.5575033393533506e-05 -3.3051349369449924e-10 -7.7599945062977989e-05 1.2500904651668608e-05 -3.8666598871161832e-10 -9.3749085084553687e-05 9.8790786879021073e-06 -2.0866308679333294e-10 -9.3749043662583545e-05 1.5928290114622027e-05 -2.4330984161708632e-10 -9.3749062703407109e-05 1.5652563704080066e-05 -1.9179272121951818e-10 -7.3204049675458665e-05 1.5575033393533506e-05 -3.3051349369449924e-10 -7.7599945062977989e-05 9.8790786879021073e-06 -2.0866308679333294e-10 -9.3749043662583545e-05 1.5928290114622027e-05 -2.4330984161708632e-10 -9.3749062703407109e-05 1.5652563704080063e-05 -1.9179272121951818e-10 -7.3204049675458665e-05 1.431739984888211e-05 -1.3264131487749523e-10 -9.3749055464220551e-05 9.8790786879021073e-06 -2.0866308679333294e-10 -9.3749043662583545e-05 9.3990476008605406e-06 -3.0381082885818794e-10 -7.7877828027129474e-05 1.2500904651668608e-05 -3.8666598871161832e-10 -9.3749085084553687e-05 9.8790786879021073e-06 -2.0866308679333294e-10 -9.3749043662583545e-05 6.250444330764875e-06 -3.0281350387235421e-10 -9.3749058267395303e-05 1.2453210891481701e-15 -1.124231597378916e-10 -7.5786847449444721e-05 9.8215568455767373e-06 -1.1978318521474143e-10 -6.4463309111626699e-05 -4.6192652182669758e-15 -2.3333348521080235e-10 -6.5044395723993893e-05 -5.1912026974818202e-15 -2.0897433073241134e-10 -8.0023415357425039e-05 5.2909225709639463e-06 -1.1781374504569836e-10 -9.3749042009219589e-05 9.821556845576739e-06 -1.1978318521474143e-10 -6.4463309111626699e-05 9.8790786879021073e-06 -2.0866308679333294e-10 -9.3749043662583545e-05 4.5756539929000047e-06 -2.0418994952263498e-10 -9.3749034522394288e-05 9.3990476008605406e-06 -3.0381082885818794e-10 -7.7877828027129474e-05 6.250444330764875e-06 -3.0281350387235421e-10 -9.3749058267395303e-05 4.5756424485816233e-06 -2.4289567647434173e-10 -8.0023423215970857e-05 4.5756539929000047e-06 -2.0418994952263498e-10 -9.3749034522394288e-05 9.8215568455767373e-06 -1.1978318521474143e-10 -6.4463309111626699e-05 9.3990476008605406e-06 -3.0381082885818794e-10 -7.7877828027129474e-05 4.5756424485816233e-06 -2.4289567647434173e-10 -8.0023423215970843e-05 4.5756539929000132e-06 -2.0418994952263511e-10 -9.3749034522394315e-05 9.3990476008605406e-06 -3.0381082885818794e-10 -7.7877828027129474e-05 9.8790786879021073e-06 -2.0866308679333294e-10 -9.3749043662583545e-05 6.250444330764875e-06 -3.0281350387235421e-10 -9.3749058267395303e-05 4.5756539929000047e-06 -2.0418994952263498e-10 -9.3749034522394288e-05 9.8215568455767373e-06 -1.1978318521474143e-10 -6.4463309111626699e-05 5.881340611004291e-06 -3.15686702050794e-10 -6.4091133359215808e-05 9.3990476008605406e-06 -3.0381082885818794e-10 -7.7877828027129474e-05 4.5756424485816233e-06 -2.4289567647434173e-10 -8.0023423215970857e-05 5.2909225709639463e-06 -1.1781374504569836e-10 -9.3749042009219589e-05 9.8215568455767373e-06 -1.1978318521474141e-10 -6.4463309111626699e-05 4.5756539929000047e-06 -2.0418994952263498e-10 -9.3749034522394288e-05 -5.1912026974818202e-15 -2.0897433073241134e-10 -8.0023415357425039e-05 9.8215568455767373e-06 -1.1978318521474143e-10 -6.4463309111626699e-05 4.5756424485816208e-06 -2.4289567647434178e-10 -8.0023423215970843e-05 4.5756539929000056e-06 -2.0418994952263493e-10 -9.3749034522394288e-05 -5.1912084972687676e-15 -2.0897433073241137e-10 -8.0023415357425025e-05 9.8215568455767373e-06 -1.1978318521474143e-10 -6.4463309111626699e-05 -4.6192656690688986e-15 -2.3333348521080235e-10 -6.5044395723993893e-05 4.5756424485816233e-06 -2.4289567647434173e-10 -8.0023423215970857e-05 -5.1912071282947225e-15 -2.0897433073241124e-10 -8.0023415357425039e-05 1.2453210891481701e-15 -1.124231597378916e-10 -7.5786847449444721e-05 5.2909225709639463e-06 -1.1781374504569836e-10 -9.3749042009219589e-05 2.2746785111329336e-15 -1.8002176437017043e-10 -9.3749045154007933e-05 -5.1912026974818202e-15 -2.0897433073241134e-10 -8.0023415357425039e-05 5.2909225709639463e-06 -1.1781374504569836e-10 -9.3749042009219589e-05 4.5756539929000047e-06 -2.0418994952263498e-10 -9.3749034522394288e-05 2.2746783080684433e-15 -1.8002176437017043e-10 -9.3749045154007933e-05 -5.1912026974818202e-15 -2.0897433073241134e-10 -8.0023415357425039e-05 -4.6192656690688986e-15 -2.3333348521080235e-10 -6.5044395723993893e-05 5.8813406110042885e-06 -3.1568670205079374e-10 -6.4091133359215848e-05 4.5756424485816242e-06 -2.4289567647434178e-10 -8.0023423215970857e-05 9.1024547801221079e-15 -3.4466155749093667e-10 -7.4999474030719156e-05 -4.6192656690688986e-15 -2.3333348521080235e-10 -6.5044395723993893e-05 4.5756424485816233e-06 -2.4289567647434173e-10 -8.0023423215970857e-05 -5.1912026974818202e-15 -2.0897433073241131e-10 -8.0023415357425039e-05 9.1024547801221079e-15 -3.4466155749093667e-10 -7.4999474030719156e-05 4.5756539929000047e-06 -2.0418994952263498e-10 -9.3749034522394288e-05 2.2746783246018142e-15 -1.8002176437017043e-10 -9.3749045154007933e-05 -5.1912029490903107e-15 -2.0897433073241137e-10 -8.0023415357425039e-05 3.4343444447153767e-15 -3.2675123880571557e-10 -9.3749059523563473e-05 4.5756424485816233e-06 -2.4289567647434173e-10 -8.0023423215970857e-05 -5.1912026291993795e-15 -2.0897433073241131e-10 -8.0023415357425039e-05 9.1024547801221079e-15 -3.4466155749093667e-10 -7.4999474030719156e-05 3.4343444447153767e-15 -3.2675123880571557e-10 -9.3749059523563473e-05 6.250444330764875e-06 -3.0281350387235421e-10 -9.3749058267395303e-05 4.5756424485816233e-06 -2.4289567647434173e-10 -8.0023423215970857e-05 4.5756539929000047e-06 -2.0418994952263498e-10 -9.3749034522394288e-05 3.4343444447153767e-15 -3.2675123880571557e-10 -9.3749059523563473e-05 4.5756424485816233e-06 -2.4289567647434173e-10 -8.0023423215970857e-05 4.5756539929000047e-06 -2.0418994952263498e-10 -9.3749034522394288e-05 -5.1912026974818202e-15 -2.0897433073241134e-10 -8.0023415357425039e-05 3.4343444447153767e-15 -3.2675123880571557e-10 -9.3749059523563473e-05 
</DataArray>
</PointData>
<CellData Scalars="" Vectors="" Tensors="effective_stress,">
<DataArray type="Float64" Name="effective_stress" NumberOfComponents="9" format="ascii">
0.36490386494197352 -0.0058533763498069078 -0.050757825886477315 -0.0058533763498069078 -2499.7526218676117 -0.048410829075532347 -0.050757825886477315 -0.048410829075532347 -9999.569903387448 0.39793272087254644 0.010892944057432401 0.072791379973945747 0.010892944057432401 -2499.7488061667791 0.034525929282485712 0.072791379973945747 0.034525929282485712 -9999.573620380279 0.38525884082725892 0.012833869561202707 0.0038457796386887622 0.012833869561202707 -2499.6900250611807 0.13567862671454692 0.0038457796386887622 0.13567862671454692 -9999.494754914429 0.40542411380556587 0.020772235728701682 0.01421865997963323 0.020772235728701682 -2499.7144720545343 0.023376195348191686 0.01421865997963323 0.023376195348191686 -9999.5657944507821 0.37443491539465867 -0.00055058704918414629 0.0076232706587688881 -0.00055058704918414629 -2499.7386494682887 -0.032489965231434326 0.0076232706587688881 -0.032489965231434326 -9999.6336105827722 0.38695471418122906 -0.019744662771065739 -0.03381456044553488 -0.019744662771065739 -2499.7263715856598 5.824553136335453e-05 -0.03381456044553488 5.824553136335453e-05 -9999.6303754818637 0.36745782957041229 0.010341357065754349 0.042369207116507823 0.010341357065754349 -2499.7757606623545 0.063187904277583584 0.042369207116507823 0.063187904277583584 -9999.6625223955525 0.34803026455483632 -0.025499154880926113 -0.030497119297251629 -0.025499154880926113 -2499.791533998748 0.042264382907433173 -0.030497119297251629 0.042264382907433173 -9999.7294458403994 0.34844560530882518 -0.0026529987068350056 0.017803011376372524 -0.0026529987068350056 -2499.769076148591 -0.022490760463369952 0.017803011376372524 -0.022490760463369952 -9999.7209411479125 0.31983102890217197 0.0017051862708263006 0.0052167395367632707 0.0017051862708263006 -2499.8333071554348 0.021075590492728224 0.0052167395367632707 0.021075590492728224 -9999.7771014821974 0.36228319267036113 0.0094153644666305821 -0.0043700005608116044 0.0094153644666305821 -2499.7710356243615 -0.017181559021082649 -0.0043700005608116044 -0.017181559021082649 -9999.6585668309144 0.36951295108610793 0.01306463266849836 0.0041601043280934391 0.01306463266849836 -2499.7663277506963 -0.0084629980374302249 0.0041601043280934391 -0.0084629980374302249 -9999.6589067238019 0.37322995837439521 0.0042913990788543792 0.0051441749569676176 0.0042913990788543792 -2499.7523194911878 0.0053356415414782532 0.0051441749569676176 0.0053356415414782532 -9999.6601246272421 0.38933661335363468 0.014194677232369517 0.05518418340466269 0.014194677232369517 -2499.7393904331984 -0.010285506885338691 0.05518418340466269 -0.010285506885338691 -9999.6174377722637 0.39861330397843631 0.0060210333849708229 0.043189908669496013 0.0060210333849708229 -2499.7459399342933 -0.044897982518598445 0.043189908669496013 -0.044897982518598445 -9999.5567475515345 0.40231585672836445 0.012280158062658322 -0.057801860984356024 0.012280158062658322 -2499.6739756125853 0.090260708237080892 -0.057801860984356024 0.090260708237080892 -9999.4452316602965 0.40544309606912066 -0.0015111034527335032 -0.021341667330943892 -0.0015111034527335032 -2499.7091093806866 0.1178100114177596 -0.021341667330943892 0.1178100114177596 -9999.521776475749 0.4532617855652461 0.0080144254195009812 -0.037600998740044522 0.0080144254195009812 -2499.6930270496678 0.059550910495866527 -0.037600998740044522 0.059550910495866527 -9999.4948517119465 0.34644695612405485 -0.010310504902346505 -0.066419965109275836 -0.010310504902346505 -2499.7575611642696 0.016792637550679501 -0.066419965109275836 0.016792637550679501 -9999.6452687984201 0.3721998925425325 -0.014771192622103607 0.019377124460334016 -0.014771192622103607 -2499.7485694439329 0.01733441083653986 0.019377124460334016 0.01733441083653986 -9999.6347490063508 0.37253196832965607 0.011674576628718326 0.021594586963378959 0.011674576628718326 -2499.7747470641152 0.031941523806465352 0.021594586963378959 0.031941523806465352 -9999.6643885000067 0.36956499513096003 0.0035575239264690056 0.024950689862133196 0.0035575239264690056 -2499.7697146167843 0.043376086518685852 0.024950689862133196 0.043376086518685852 -9999.6701901531342 0.44163841541126492 0.0057884008502561146 0.019590098339982487 0.0057884008502561146 -2499.6872684399473 0.093297238922176479 0.019590098339982487 0.093297238922176479 -9999.4663379898102 0.40740458246864364 -0.0033129632187886074 0.010381919710653165 -0.0033129632187886074 -2499.6913115895013 0.085532920699961323 0.010381919710653165 0.085532920699961323 -9999.4394702467653 0.36307933251555369 0.0042902851011975517 -0.0012383789237446763 0.0042902851011975517 -2499.7448155509619 0.0097543400238464528 -0.0012383789237446763 0.0097543400238464528 -9999.5654818697021 0.35459848492700985 0.0032763262400776309 0.0036793078510299893 0.0032763262400776309 -2499.7670157035473 0.024612362701645907 0.0036793078510299893 0.024612362701645907 -9999.6032981292847 0.37624369450531958 -0.0029156356103056482 -0.00015816734412510414 -0.0029156356103056482 -2499.7653021558381 0.0081231714502791874 -0.00015816734412510414 0.0081231714502791874 -9999.6133833548847 0.36333885302701674 0.0045000067160818578 -0.011562642007447721 0.0045000067160818578 -2499.7599652037297 0.0039968612859411223 -0.011562642007447721 0.0039968612859411223 -9999.6364945650075 0.37778074780544557 -0.0025361757176683153 8.4394961049838457e-05 -0.0025361757176683153 -2499.7547723103653 0.0012575074688356835 8.4394961049838457e-05 0.0012575074688356835 -9999.6177176898527 0.36751856718456111 -0.019436006622718632 -0.0023755882939440198 -0.019436006622718632 -2499.7360276786189 0.014659906864380901 -0.0023755882939440198 0.014659906864380901 -9999.6371856401565 0.37070373438109527 -0.010860827822757501 0.0086325266574931447 -0.010860827822757501 -2499.7579106271378 0.0074691942611480044 0.0086325266574931447 0.0074691942611480044 -9999.639359498211 0.38614284837700552 -0.00044943336564327863 -0.023738430615594552 -0.00044943336564327863 -2499.7373631022574 0.014967145098580659 -0.023738430615594552 0.014967145098580659 -9999.5853913950341 0.37923281016908561 -0.0096460264351681535 0.013569118252235057 -0.0096460264351681535 -2499.7408939380939 0.016027781994495172 0.013569118252235057 0.016027781994495172 -9999.59063398137 0.38144298799306853 -0.018749516066777598 0.001025602342451748 -0.018749516066777598 -2499.7134299888803 0.027307287947223813 0.001025602342451748 0.027307287947223813 -9999.5823237511395 0.37538428103289334 -0.0098950387188795341 0.0017060811233022832 -0.0098950387188795341 -2499.7472363383495 0.0059086139640385227 0.0017060811233022832 0.0059086139640385227 -9999.6087108004685 0.36996764284776873 -0.015532270220142641 0.0037905152285020449 -0.015532270220142641 -2499.7549636321664 0.01632725929539447 0.0037905152285020449 0.01632725929539447 -9999.6143957138083 0.37545455348481482 0.0082939822834420668 -0.0048754573435871862 0.0082939822834420668 -2499.7524415537264 0.0070711857133574085 -0.0048754573435871862 0.0070711857133574085 -9999.6111939161492 0.3646967587983454 0.0051580946785920734 -0.012068633560829767 0.0051580946785920734 -2499.7580816705286 0.0032072098638309399 -0.012068633560829767 0.0032072098638309399 -9999.6351614055166 0.36509079934751298 -0.00080131875602726735 -0.0034880011389759602 -0.00080131875602726735 -2499.7603415340795 -0.0025230222772734123 -0.0034880011389759602 -0.0025230222772734123 -9999.6589668435954 0.37645002641559699 -1.4721014756031991e-05 -0.0045208432611616445 -1.4721014756031991e-05 -2499.7510526961282 0.0011422879606470815 -0.0045208432611616445 0.0011422879606470815 -9999.6299057271244 0.37557540248417354 -0.00062783007386730486 -0.0043657724260128816 -0.00062783007386730486 -2499.750119405574 3.3884557069541188e-05 -0.0043657724260128816 3.3884557069541188e-05 -9999.6268353671076 0.39014059044166061 0.019901762912381757 -0.0014287671401689295 0.019901762912381757 -2499.7139622530594 -0.0081522212767595192 -0.0014287671401689295 -0.0081522212767595192 -9999.6120754716285 0.39093168011913804 0.013864026599650463 -0.0020202064802106179 0.013864026599650463 -2499.7148379782911 0.0037582408522212063 -0.0020202064802106179 0.0037582408522212063 -9999.6170454619823 0.38486991536956339 0.017825456578408574 2.5607288989704102e-05 0.017825456578408574 -2499.7244050699546 -0.0025039719794222037 2.5607288989704102e-05 -0.0025039719794222037 -9999.6227268152725 0.38779153660834709 0.0081678125079421848 -0.0010717906925492571 0.0081678125079421848 -2499.7296796056708 -0.0076988885093669523 -0.0010717906925492571 -0.0076988885093669523 -9999.624567724899 0.37045359340118011 0.0061615759342351084 -0.002223467197836726 0.0061615759342351084 -2499.7567883782303 -0.0059060606674847804 -0.002223467197836726 -0.0059060606674847804 -9999.635099493531 0.37761077413415478 0.0050613839174043773 2.9450338843162172e-05 0.0050613839174043773 -2499.7305637911913 -0.012772728410709533 2.9450338843162172e-05 -0.012772728410709533 -9999.6293897326559 0.3830317566080339 0.00046010491095238527 0.0018668759044260241 0.00046010491095238527 -2499.7351698783059 -0.019927175723296386 0.0018668759044260241 -0.019927175723296386 -9999.6027127080815 0.37280168576762662 -3.4001683282339212e-06 0.0011007736602550722 -3.4001683282339212e-06 -2499.7533556332974 -0.0028148096844233805 0.0011007736602550722 -0.0028148096844233805 -9999.6241566236131 0.37716754487519211 0.00066528091093222101 0.0016582450612077082 0.00066528091093222101 -2499.7417355944035 -0.014022933100022783 0.0016582450612077082 -0.014022933100022783 -9999.6196018501396 0.38349049347016262 0.0018870654331339218 -0.0010285304040280607 0.0018870654331339218 -2499.7463949706935 -0.0076126201042825414 -0.0010285304040280607 -0.0076126201042825414 -9999.5936874721192 0.37944349082044937 -0.00072832682012779104 0.0038314464261475223 -0.00072832682012779104 -2499.7450062255512 -0.0074659894553406048 0.0038314464261475223 -0.0074659894553406048 -9999.6056704106832 0.37741661227983059 0.002689663128099192 0.0001222738655997091 0.002689663128099192 -2499.7562608004632 -0.013546691773171915 0.0001222738655997091 -0.013546691773171915 -9999.6127964783336 0.37149728678832616 0.0011886654409615054 -0.00040816778482621885 0.0011886654409615054 -2499.7501571452567 -0.0077855539675510954 -0.00040816778482621885 -0.0077855539675510954 -9999.634027138336 0.37937984149175463 -7.7889056443971661e-05 0.0024165827489923686 -7.7889056443971661e-05 -2499.7444912734672 -0.0054587139948125696 0.0024165827489923686 -0.0054587139948125696 -9999.6020458808962 0.36399288078359859 -0.0052601850345707288 0.0081750231283876929 -0.0052601850345707288 -2499.7540035566062 3.4993033295904752e-05 0.0081750231283876929 3.4993033295904752e-05 -9999.6347457449992 0.36392728478432446 -0.0016526767382005459 0.0084247072550169833 -0.0016526767382005459 -2499.7549119738401 -0.0039824951861646696 0.0084247072550169833 -0.0039824951861646696 -9999.6036276947307 0.37262953275239852 -0.011142052701901113 0.0066555027319736837 -0.011142052701901113 -2499.7397706591437 0.001808692099871223 0.0066555027319736837 0.001808692099871223 -9999.6328446284588 0.37547445294148929 -0.0015655894881401308 0.0036069902221242955 -0.0015655894881401308 -2499.7504393910185 -0.0034762612613121746 0.0036069902221242955 -0.0034762612613121746 -9999.6279015074251 0.36828672885349079 -0.0052828720156094175 0.0075229440199109376 -0.0052828720156094175 -2499.7618384133584 0.001607691065146355 0.0075229440199109376 0.001607691065146355 -9999.6359774689208 0.3769232578933952 -0.002974487644696714 0.0008882398105924949 -0.002974487644696714 -2499.7522072527877 -0.0042358285736554535 0.0008882398105924949 -0.0042358285736554535 -9999.6239845660075 0.35321406716639103 0.0022659935184842859 0.067785163765165635 0.0022659935184842859 -2499.765652459686 -0.072743575381991832 0.067785163765165635 -0.072743575381991832 -9999.6254282356294 0.38589282287784954 0.0017172725700576844 0.0077171898869892175 0.0017172725700576844 -2499.7213178846105 -0.012178188972725934 0.0077171898869892175 -0.012178188972725934 -9999.5509978802893 0.34543055940821432 -0.013576481657407853 -0.004417867166466749 -0.013576481657407853 -2499.7664657594169 -0.0013369539105951844 -0.004417867166466749 -0.0013369539105951844 -9999.7177212455463 0.37964832190784448 0.01007160439202788 0.09725209591782899 0.01007160439202788 -2499.73484678452 -0.028975155340875247 0.09725209591782899 -0.028975155340875247 -9999.5797968576098 0.38556353465116899 0.0069314764425998463 -0.032208545120738563 0.0069314764425998463 -2499.7372895846142 -0.020563333108839288 -0.032208545120738563 -0.020563333108839288 -9999.5905407733517 0.37391889321679628 -0.0057347968182496281 0.029869815180518344 -0.0057347968182496281 -2499.7315732754359 0.048321917601697351 0.029869815180518344 0.048321917601697351 -9999.6649853922936 0.37481898111695955 -0.00062069865462944986 0.010567057222033327 -0.00062069865462944986 -2499.741575016189 0.0030373559945928719 0.010567057222033327 0.0030373559945928719 -9999.5724760770136 0.3818527217688728 0.0089275779301857157 -0.031410189479857076 0.0089275779301857157 -2499.737108069261 -0.020879584609200585 -0.031410189479857076 -0.020879584609200585 -9999.5916774234538 0.40885884281760809 0.0083406643590395978 0.017844848297386029 0.0083406643590395978 -2499.7217272984526 -0.016143421708927089 0.017844848297386029 -0.016143421708927089 -9999.5770900883381 0.38718834817609604 0.01845358000095499 0.055776359888164123 0.01845358000095499 -2499.7307902830771 -0.084170374726231623 0.055776359888164123 -0.084170374726231623 -9999.5977352857972 0.36272949470617277 -0.0099812526868031329 0.010069504003695329 -0.0099812526868031329 -2499.7717700493176 -0.056758962764433818 0.010069504003695329 -0.056758962764433818 -9999.6484851678288 0.3640680309210893 -0.001490976749438998 0.0082847606155382891 -0.001490976749438998 -2499.7626190371097 -0.0066536294907564297 0.0082847606155382891 -0.0066536294907564297 -9999.6496721738658 0.38286563551901054 0.00019033470070195383 0.018664451743006794 0.00019033470070195383 -2499.7421209962545 -0.019818506743739306 0.018664451743006794 -0.019818506743739306 -9999.6255089257284 0.39496806847773769 0.00037464057336172862 -0.029669815546550238 0.00037464057336172862 -2499.7307412647388 -0.019138081704496934 -0.029669815546550238 -0.019138081704496934 -9999.5920639801461 0.39761325943035408 0.0055351907221297438 0.039094393085346735 0.0055351907221297438 -2499.7241486568159 -0.047800144504881958 0.039094393085346735 -0.047800144504881958 -9999.5548717072816 0.41369511372290868 -7.0329974587064747e-06 0.06462943748852884 -7.0329974587064747e-06 -2499.7269707827031 -0.0097850355546078537 0.06462943748852884 -0.0097850355546078537 -9999.487718164155 0.3729862836535176 -0.00077734375552158995 0.017599874479856226 -0.00077734375552158995 -2499.7739678113535 -0.0097552555644213612 0.017599874479856226 -0.0097552555644213612 -9999.6351058965502 0.38893379432124675 0.0021564509553480137 0.011348257616191404 0.0021564509553480137 -2499.7590779174898 -0.022587702532291587 0.011348257616191404 -0.022587702532291587 -9999.5933880888224 0.40618738600562421 0.00031547809470497054 0.039925371002115101 0.00031547809470497054 -2499.6897563922103 0.022089384320731487 0.039925371002115101 0.022089384320731487 -9999.5430512093208 0.42241256510276948 0.0052508621293071156 0.065419727957240936 0.0052508621293071156 -2499.6955910360221 -0.015566306048226432 0.065419727957240936 -0.015566306048226432 -9999.4781849611099 0.38920501203460844 0.0035945059983417127 0.0034285528295185941 0.0035945059983417127 -2499.7531767889532 0.012963342787315923 0.0034285528295185941 0.012963342787315923 -9999.6107222759274 0.36944774037374373 0.0045333938592027716 0.010537930307464194 0.0045333938592027716 -2499.7720074878007 0.0084456488298201293 0.010537930307464194 0.0084456488298201293 -9999.6636283757762 0.39637109570185203 -0.0061273999376180149 0.042868507711504744 -0.0061273999376180149 -2499.7256902594977 0.014861969821650056 0.042868507711504744 0.014861969821650056 -9999.5519049875566 0.39296884733223331 0.002535559065992463 -0.056624312310720071 0.002535559065992463 -2499.7552691174892 0.0029718631457939168 -0.056624312310720071 0.0029718631457939168 -9999.6181487803278 0.39108325840675207 -0.0099347622014713984 0.042196471788656709 -0.0099347622014713984 -2499.7396247964334 0.015680643998166488 0.042196471788656709 0.015680643998166488 -9999.5536223485833 0.3828387301138706 -0.0076937044326957915 0.027162380582449602 -0.0076937044326957915 -2499.7382087795604 0.041587483024133926 0.027162380582449602 0.041587483024133926 -9999.5990720591053 0.39043941312940672 0.0078016438456301133 -0.043702076882801727 0.0078016438456301133 -2499.7373839722623 0.019995960207725094 -0.043702076882801727 0.019995960207725094 -9999.6437899440007 0.40727082762061195 0.0047197563254826394 -0.048536450043175527 0.0047197563254826394 -2499.7287082231787 0.022118051760881025 -0.048536450043175527 0.022118051760881025 -9999.5818767522378 0.38230528810652231 0.0072401713952286902 0.019050933725338837 0.0072401713952286902 -2499.7468508344887 0.026014297158269528 0.019050933725338837 0.026014297158269528 -9999.6313381432446 0.39812284968411404 -0.0020712856788982839 0.0035212499960834975 -0.0020712856788982839 -2499.7317709073068 0.014912116003870324 0.0035212499960834975 0.014912116003870324 -9999.6062248905437 0.39201530713489774 0.0018670733568840192 0.0099823695670693269 0.0018670733568840192 -2499.7475152321867 0.024279176621348597 0.0099823695670693269 0.024279176621348597 -9999.5926288820046 0.37522544516504297 0.0017331741707714641 0.017342467783123539 0.0017331741707714641 -2499.7621629736677 0.025106592514930526 0.017342467783123539 0.025106592514930526 -9999.6356366668515 0.3595607048250713 0.010207644340268596 0.0012898125914944103 0.010207644340268596 -2499.7574306842384 0.010891636975429719 0.0012898125914944103 0.010891636975429719 -9999.6329289683763 0.38420135805881728 0.00082467800703507079 -0.0046221943184718839 0.00082467800703507079 -2499.7544246970701 -0.00029398071325204 -0.0046221943184718839 -0.00029398071325204 -9999.595839545691 0.38622159632996045 -0.0018685262737694261 -0.0031966956175892847 -0.0018685262737694261 -2499.7381243700711 0.015440686435141515 -0.0031966956175892847 0.015440686435141515 -9999.6202333914753 0.36903950588839507 0.0017117707021647825 -0.0096532503180242202 0.0017117707021647825 -2499.7584048793065 0.014241041745663097 -0.0096532503180242202 0.014241041745663097 -9999.6132246873458 0.40624088474396558 0.0016730314186370724 0.0071871928569180454 0.0016730314186370724 -2499.7365364836742 0.0016777766459199484 0.0071871928569180454 0.0016777766459199484 -9999.5467025591315 0.37152291019719996 0.0013454961316284129 0.0076635573791463685 0.0013454961316284129 -2499.747508554974 0.0061862559343808243 0.0076635573791463685 0.0061862559343808243 -9999.6217296830273 0.37966972159529178 -0.0035367293348049335 4.403418597576092e-05 -0.0035367293348049335 -2499.7497939319705 0.010420965969387908 4.403418597576092e-05 0.010420965969387908 -9999.598856710465 0.37327837288830779 0.0011500599857204455 0.0019671520194606273 0.0011500599857204455 -2499.7607660071189 -0.00082140446426137714 0.0019671520194606273 -0.00082140446426137714 -9999.6101801454606 0.3805456757581851 0.0015010460165485239 0.0020195205433992669 0.0015010460165485239 -2499.7399897996493 0.0036452215736062499 0.0020195205433992669 0.0036452215736062499 -9999.6018878485811 0.37788892116441275 0.0023340138014860748 0.0028470210182831579 0.0023340138014860748 -2499.7426698767122 0.0018738362407475506 0.0028470210182831579 0.0018738362407475506 -9999.614052843528 0.37792671292800151 0.00099716219862008154 -0.00010845625092770206 0.00099716219862008154 -2499.7403545907732 0.012090978868400271 -0.00010845625092770206 0.012090978868400271 -9999.6186361808977 0.38145923550655425 0.0022165644370835333 0.0020284135125621106 0.0022165644370835333 -2499.7399511563717 0.0043583551778283436 0.0020284135125621106 0.0043583551778283436 -9999.6028573920958 0.37555170048176478 0.0098306129562441974 -0.010240024166705552 0.0098306129562441974 -2499.7461144772342 0.00076204828906156763 -0.010240024166705552 0.00076204828906156763 -9999.6235770457879 0.3828247145406749 -0.0020016408915897385 -0.0056536796980708459 -0.0020016408915897385 -2499.7492327109267 0.0028858532093636313 -0.0056536796980708459 0.0028858532093636313 -9999.6238849971887 0.37139864815071633 -0.0019173631391763563 -0.00012570547096402152 -0.0019173631391763563 -2499.7535487820905 0.0031497087720708805 -0.00012570547096402152 0.0031497087720708805 -9999.6309175171264 0.37652786737999122 -8.7064826058337597e-05 0.0018855201669794042 -8.7064826058337597e-05 -2499.7370864245404 0.0098182843594258884 0.0018855201669794042 0.0098182843594258884 -9999.627505597422 0.38488868243075558 -0.015077792151872015 0.0012036905964123434 -0.015077792151872015 -2499.7116060780063 0.00020781694274774054 0.0012036905964123434 0.00020781694274774054 -9999.6166735916013 0.39190809711453767 -0.01469712316822331 -0.0035577471430769947 -0.01469712316822331 -2499.7111482338341 0.001738937959089526 -0.0035577471430769947 0.001738937959089526 -9999.6100767630596 0.38235365323998849 -0.0015245234603526933 -0.0055327489526462159 -0.0015245234603526933 -2499.7490005709369 0.0033170488691212086 -0.0055327489526462159 0.0033170488691212086 -9999.6218550377962 0.37599442806984484 0.0094125417869650868 -0.010115315668372205 0.0094125417869650868 -2499.7438810924832 0.0020700960926660628 -0.010115315668372205 0.0020700960926660628 -9999.6219914173253 0.3905545809452633 -0.01002656800283263 -0.0013560266856984526 -0.01002656800283263 -2499.7274293185224 0.013955047782246766 -0.0013560266856984526 0.013955047782246766 -9999.6208032781979 0.37099069712803612 -0.0023644064337580289 0.0057093785972028854 -0.0023644064337580289 -2499.7623670950416 -0.0060032025835425884 0.0057093785972028854 -0.0060032025835425884 -9999.6640849696942 0.37556550145063738 -0.0099905909779092264 0.00014972422968639876 -0.0099905909779092264 -2499.7682241359835 0.0041800713390784949 0.00014972422968639876 0.0041800713390784949 -9999.6437398809594 0.37420763645968691 -0.0050398356260089455 0.015816725110377683 -0.0050398356260089455 -2499.7113600866051 -0.1250254630280711 0.015816725110377683 -0.1250254630280711 -9999.5523037764087 0.40656633398855885 -0.018234773699521867 0.0089422384066892846 -0.018234773699521867 -2499.7216609424822 -0.025871023257423076 0.0089422384066892846 -0.025871023257423076 -9999.5686147555098 0.35351706463438859 -0.0066975305052350484 0.046887699742910627 -0.0066975305052350484 -2499.7835184389351 -0.068220598143398092 0.046887699742910627 -0.068220598143398092 -9999.6832886882476 0.36972985598549712 -0.0076839072026966965 0.067659164136684768 -0.0076839072026966965 -2499.7549892155944 -0.041290917754438328 0.067659164136684768 -0.041290917754438328 -9999.6112437827251 0.37423464345329194 0.00027831756301552324 0.0072013155177046428 0.00027831756301552324 -2499.7548213141013 0.016826076061960293 0.0072013155177046428 0.016826076061960293 -9999.6680798790239 0.34049637426038687 -0.010955905679634649 0.03405132127339508 -0.010955905679634649 -2499.7804865885596 0.051820322946638187 0.03405132127339508 0.051820322946638187 -9999.7110346925256 0.31448480461381223 -0.0046035301344952775 0.0065716002371800641 -0.0046035301344952775 -2499.8402500591228 -0.019054818553740915 0.0065716002371800641 -0.019054818553740915 -9999.8164645067081 0.36212162107813128 -0.0073335666171700925 0.0059020904327553581 -0.0073335666171700925 -2499.7578272822079 0.0099203000736451941 0.0059020904327553581 0.0099203000736451941 -9999.6623015856694 0.34754169889078657 -0.0030166038273089571 0.029583841886889228 -0.0030166038273089571 -2499.7831761034804 0.058545032115856266 0.029583841886889228 0.058545032115856266 -9999.7347646250601 0.37909246905462624 -0.00457144104114229 -0.0073450439276712132 -0.00457144104114229 -2499.7558598818277 0.0059466612324285961 -0.0073450439276712132 0.0059466612324285961 -9999.653480482737 0.38847005968318626 -0.0021054509052815321 -5.6299842526641442e-05 -0.0021054509052815321 -2499.7412181626755 0.027136754114962969 -5.6299842526641442e-05 0.027136754114962969 -9999.6354002372354 0.35008455985147574 0.0078875246891867423 -0.083260042760207043 0.0078875246891867423 -2499.8129857423569 -0.036260170860811541 -0.083260042760207043 -0.036260170860811541 -9999.7626444789621 0.38626829212945279 0.0076835740659649057 -0.064818862667817723 0.0076835740659649057 -2499.7551760174083 0.049065889441067351 -0.064818862667817723 0.049065889441067351 -9999.6695524714578 0.38912227632979624 -0.0048286896045417887 -0.075504657933703256 -0.0048286896045417887 -2499.7367929990842 -0.086773590789742408 -0.075504657933703256 -0.086773590789742408 -9999.6444340114813 0.3895617502425921 0.0011298430124031811 -0.010952463056582928 0.0011298430124031811 -2499.7002942921499 -0.041353188571031541 -0.010952463056582928 -0.041353188571031541 -9999.5725591607115 0.36833207398916645 0.015854876363140279 -0.025739473910369716 0.015854876363140279 -2499.767162724263 -0.0061291106339755874 -0.025739473910369716 -0.0061291106339755874 -9999.6372837536928 0.37076781407529324 0.012293811074313099 -0.025164787137327949 0.012293811074313099 -2499.7596933711593 0.0089213543576533993 -0.025164787137327949 0.0089213543576533993 -9999.6332115516616 0.38005940507082414 -0.010094233242728332 -0.011066248614497454 -0.010094233242728332 -2499.7690376516925 0.015002523173507143 -0.011066248614497454 0.015002523173507143 -9999.6387375104187 0.35102513714809902 0.0050323570928639746 -0.010354757292134309 0.0050323570928639746 -2499.7677600652523 -0.022234040421153622 -0.010354757292134309 -0.022234040421153622 -9999.6869223935919 0.37674768529223002 0.024960730528743223 0.0018908080719484133 0.024960730528743223 -2499.7579316366532 0.017241627113435243 0.0018908080719484133 0.017241627113435243 -9999.5782979482192 0.3811416580151672 0.0059568228684200863 0.0011190494979018695 0.0059568228684200863 -2499.7369804309465 -0.027194451081413717 0.0011190494979018695 -0.027194451081413717 -9999.5908947786502 0.44376498987572777 0.0012468825008953716 -0.036574353911996482 0.0012468825008953716 -2499.6919260475433 -0.0442195755965199 -0.036574353911996482 -0.0442195755965199 -9999.5335000095292 0.36896064065149403 0.00090414430027787544 0.0080568847569679747 0.00090414430027787544 -2499.7557156968342 -0.017317666692179046 0.0080568847569679747 -0.017317666692179046 -9999.6132993898154 0.36539373830464683 0.0041356943265310822 0.016210104052171909 0.0041356943265310822 -2499.7327958329529 -0.079657134083056746 0.016210104052171909 -0.079657134083056746 -9999.6454551564057 0.41974884620572084 -0.010295938173072505 0.0034393845726299332 -0.010295938173072505 -2499.683631344411 -0.088725062659465614 0.0034393845726299332 -0.088725062659465614 -9999.4854427629816 0.42955744603099766 -0.003129619146722197 0.015231672058841239 -0.003129619146722197 -2499.6641674682455 -0.077717498076213448 0.015231672058841239 -0.077717498076213448 -9999.46498806001 0.37086470139865924 -0.0079799094857180702 -0.0043731260107051639 -0.0079799094857180702 -2499.7732891540913 -0.041123990667074395 -0.0043731260107051639 -0.041123990667074395 -9999.5856468672991 0.36070136465968972 -0.0057505085138269104 -0.0039259043040260622 -0.0057505085138269104 -2499.7778228090629 -0.030486879850741389 -0.0039259043040260622 -0.030486879850741389 -9999.6245500491186 0.37902994856904115 0.00055375721741781486 0.0022738831612514332 0.00055375721741781486 -2499.7343364790327 -0.0057643292998363904 0.0022738831612514332 -0.0057643292998363904 -9999.6189121471616 0.35714716850611694 0.0072820449886643636 -0.0042580772897053976 0.0072820449886643636 -2499.7446560481867 -0.0010540670282352949 -0.0042580772897053976 -0.0010540670282352949 -9999.6294023048176 0.3725509776340914 -0.025563639969593682 0.0031916065663608606 -0.025563639969593682 -2499.7429245758949 -0.0007942850747895136 0.0031916065663608606 -0.0007942850747895136 -9999.5946821848647 0.37194796523999685 0.0007124544655560533 0.0042393863864162995 0.0007124544655560533 -2499.7705396278611 -0.035259209141599968 0.0042393863864162995 -0.035259209141599968 -9999.6227473826893 0.36602292583967255 0.0053468063161918669 -0.013838771718837961 0.0053468063161918669 -2499.7345806424505 -0.0047648268932789506 -0.013838771718837961 -0.0047648268932789506 -9999.5915496719317 0.37458145461005188 0.012175798640949876 0.0067686771171793225 0.012175798640949876 -2499.7876930425423 -0.013906252183687684 0.0067686771171793225 -0.013906252183687684 -9999.6432197128524 0.37015897762830718 -0.02199277845900692 0.0012518757966972771 -0.02199277845900692 -2499.7552819936395 0.0089358554187128902 0.0012518757966972771 0.0089358554187128902 -9999.6234377684523 0.38377018488790782 0.0076126663891088325 -0.015912112023215741 0.0076126663891088325 -2499.7377700156312 -0.0042368676781734393 -0.015912112023215741 -0.0042368676781734393 -9999.5876561903788 0.38574104361214268 0.0081869695521761959 -0.0044980747852605418 0.0081869695521761959 -2499.7385302418716 0.00011613453705194843 -0.0044980747852605418 0.00011613453705194843 -9999.6085697621493 0.37573741731830523 -0.019155201215499559 0.0013071600324110477 -0.019155201215499559 -2499.7356719982381 0.017170375922432868 0.0013071600324110477 0.017170375922432868 -9999.6120199285906 0.37160898810088838 -0.0019124301382803244 0.0038862070905452128 -0.0019124301382803244 -2499.7497415454955 0.003796963048383617 0.0038862070905452128 0.003796963048383617 -9999.630769204703 0.37193460753951513 -0.00093404505430268192 0.0069436661797226407 -0.00093404505430268192 -2499.7547674427296 0.00049044108891393989 0.0069436661797226407 0.00049044108891393989 -9999.6330442945491 0.3733468272130267 -0.0024047664789715612 0.0055664963306298887 -0.0024047664789715612 -2499.751000075129 0.0015741943152534077 0.0055664963306298887 0.0015741943152534077 -9999.6327661924224 0.36470441848612722 -0.0031301629329620207 0.0097408313686173642 -0.0031301629329620207 -2499.7491687713677 0.0043080410760012455 0.0097408313686173642 0.0043080410760012455 -9999.6038154612106 0.38625275245527746 -0.0029307201584417952 0.0066422223453628249 -0.0029307201584417952 -2499.7271578366135 -0.0029938358584331581 0.0066422223453628249 -0.0029938358584331581 -9999.5399929026935 0.36945604042036551 -0.0021578537734782618 0.11321319056736712 -0.0021578537734782618 -2499.735686068957 0.035504660196435958 0.11321319056736712 0.035504660196435958 -9999.6101056863135 0.37420570345865511 0.0031862688655007057 -0.014591713489564229 0.0031862688655007057 -2499.7424912092092 0.013389785311933284 -0.014591713489564229 0.013389785311933284 -9999.5539927911559 0.36156567879140766 -0.0005173308710346488 0.097804207236322327 -0.0005173308710346488 -2499.7546908308627 0.060439123128617211 0.097804207236322327 0.060439123128617211 -9999.6321165861718 0.37984563550958012 0.011641256213454722 -0.002803686908182848 0.011641256213454722 -2499.7193930387261 0.02615259217594984 -0.002803686908182848 0.02615259217594984 -9999.5642787035104 0.36556010264837369 0.0087802418892063971 0.025054425549114967 0.0087802418892063971 -2499.738385359522 -0.066260488285024621 0.025054425549114967 -0.066260488285024621 -9999.6745691589422 0.34980881173726175 0.0096889974760445818 -0.016473181917035618 0.0096889974760445818 -2499.7726592337367 -0.0016440380290987378 -0.016473181917035618 -0.0016440380290987378 -9999.7281357146203 0.40220996115582153 0.0048803403817821375 -0.025532603741844601 0.0048803403817821375 -2499.7275490068746 -0.011742946857041914 -0.025532603741844601 -0.011742946857041914 -9999.5929190660718 0.40293571497159064 -0.0053741641524820034 0.070144011444741389 -0.0053741641524820034 -2499.7299651110252 0.087870088309371819 0.070144011444741389 0.087870088309371819 -9999.5392292876113 0.32762200668321384 0.00088598076724474579 0.07805284761616349 0.00088598076724474579 -2499.7592523317744 0.053261934641341213 0.07805284761616349 0.053261934641341213 -9999.7649321392455 0.37571825198369879 -0.0050641247811089515 0.0038760781599194161 -0.0050641247811089515 -2499.751930452639 0.011115045452697814 0.0038760781599194161 0.011115045452697814 -9999.694644014653 0.32681267292718985 0.0060990810245994554 -0.00078943297086198072 0.0060990810245994554 -2499.7814704629109 -0.0021246220126158732 -0.00078943297086198072 -0.0021246220126158732 -9999.7459284720389 0.34008092725389361 -0.007378541259841229 0.066423242892221068 -0.007378541259841229 -2499.7517554854294 0.031672556983381631 0.066423242892221068 0.031672556983381631 -9999.577424722951 0.35339495622815775 0.0013147386557354592 0.024536075209198316 0.0013147386557354592 -2499.7664831112143 -0.0047478541550844966 0.024536075209198316 -0.0047478541550844966 -9999.7144663252147 0.36510781263291392 0.0013744673448832024 0.0087391813926842588 0.0013744673448832024 -2499.7792720680081 0.0023078143919974536 0.0087391813926842588 0.0023078143919974536 -9999.708526080969 0.36038649095701203 0.0026457944399320733 0.0076086632661827025 0.0026457944399320733 -2499.7550293835197 -0.024659095026891009 0.0076086632661827025 -0.024659095026891009 -9999.6947923841562 0.37334489962768203 -0.0093261579846985881 -0.00036143720832731985 -0.0093261579846985881 -2499.7466855286129 0.064340769429020991 -0.00036143720832731985 0.064340769429020991 -9999.571109464443 0.35022038327326754 0.0068786688972612576 0.026985235538631969 0.0068786688972612576 -2499.7762326738357 -0.057426653958373208 0.026985235538631969 -0.057426653958373208 -9999.7101775295869 0.36762131605610193 0.0059531233018317187 -0.011185864056379079 0.0059531233018317187 -2499.730300062472 -0.07039861404640918 -0.011185864056379079 -0.07039861404640918 -9999.6322203982418 0.373032486185366 0.0023957126186073645 0.014141366491147153 0.0023957126186073645 -2499.7742272843107 -0.07575427262428297 0.014141366491147153 -0.07575427262428297 -9999.6208978341765 0.31700045048572056 0.0059414006329892291 0.071295250036395336 0.0059414006329892291 -2499.8091466527317 0.020994029416255056 0.071295250036395336 0.020994029416255056 -9999.8065035851469 0.38947637345472685 0.0054469082729299021 0.003931373868134358 0.0054469082729299021 -2499.7360559694666 -0.0072622204547769798 0.003931373868134358 -0.0072622204547769798 -9999.6138746415763 0.38090915972497896 0.00096696190137791167 0.005654581563376837 0.00096696190137791167 -2499.748637590179 -0.00028112252493883716 0.005654581563376837 -0.00028112252493883716 -9999.6332663786416 0.38278558363072079 0.0039843678684946381 0.0086680044204285878 0.0039843678684946381 -2499.7461783255603 0.0015054380087349273 0.0086680044204285878 0.0015054380087349273 -9999.6285398138371 0.38145047046782565 0.0028893297486634988 0.0013530365295082447 0.0028893297486634988 -2499.7431056011983 0.0077293256745178951 0.0013530365295082447 0.0077293256745178951 -9999.6300207892036 0.37009978370087993 -0.00021631154233536787 -0.0038358910105671384 -0.00021631154233536787 -2499.748775638418 -0.0014085835646255873 -0.0038358910105671384 -0.0014085835646255873 -9999.6522870518929 0.3914055382097672 -0.0042876157793458498 0.0056422997040499467 -0.0042876157793458498 -2499.7378235825204 0.0061457079077626986 0.0056422997040499467 0.0061457079077626986 -9999.6444199053167 0.39031711350617115 0.0059135961951513397 0.0043009441128845083 0.0059135961951513397 -2499.7243554291244 -0.0063363293666043319 0.0043009441128845083 -0.0063363293666043319 -9999.6222538806487 0.37474722119713988 -0.00051772361890975753 -0.00094617109095906926 -0.00051772361890975753 -2499.7540028408039 -0.00094368433110503247 -0.00094617109095906926 -0.00094368433110503247 -9999.6501210930583 0.36545784962027028 -0.0022763984562569131 0.0056042325350063038 -0.0022763984562569131 -2499.7587192495612 -0.015101128022934063 0.0056042325350063038 -0.015101128022934063 -9999.6656048792138 0.37328546471508162 0.0019957524303985813 -0.002320213870916632 0.0019957524303985813 -2499.7476602290717 -0.013288318639752106 -0.002320213870916632 -0.013288318639752106 -9999.6369351586491 0.38909379439701297 0.0035380568660753134 -0.00036315797206043499 0.0035380568660753134 -2499.7221156837631 0.0015120749085326679 -0.00036315797206043499 0.0015120749085326679 -9999.5993213671172 0.37149949105605629 0.0064225486064301424 0.0079747797381060082 0.0064225486064301424 -2499.7522705319943 -0.0050975373826531722 0.0079747797381060082 -0.0050975373826531722 -9999.6595165032431 0.3659753466854454 0.023589170901814793 -0.0040343762248085113 0.023589170901814793 -2499.7822505213785 -0.015216481020161154 -0.0040343762248085113 -0.015216481020161154 -9999.6472690230858 0.37376519082499726 0.0059175610976078185 0.0060542975473936167 0.0059175610976078185 -2499.7489704597247 -0.01280120950161745 0.0060542975473936167 -0.01280120950161745 -9999.6520781464205 0.37345917875518353 -0.0028621757242130105 -0.0018965199969898094 -0.0028621757242130105 -2499.7499238533501 -0.017141371295338104 -0.0018965199969898094 -0.017141371295338104 -9999.6371097566753 0.38384611458241125 0.013437266767771225 -0.0013383119894569973 0.013437266767771225 -2499.7443526493271 -0.0018799946028593695 -0.0013383119894569973 -0.0018799946028593695 -9999.605542002404 0.38400315518856587 0.02355308882766087 -0.0037072251470817719 0.02355308882766087 -2499.7456731819125 0.0036253626967663877 -0.0037072251470817719 0.0036253626967663877 -9999.6094565667263 0.39307504834687279 0.0084280739003137276 0.0093956498848228875 0.0084280739003137276 -2499.7184180281211 0.0050454435368010309 0.0093956498848228875 0.0050454435368010309 -9999.6072265290059 0.38964355888856517 0.024262866116030846 -0.0072872203721772166 0.024262866116030846 -2499.7546302406199 -0.030512536299283965 -0.0072872203721772166 -0.030512536299283965 -9999.5806168397703 0.37013166936776543 -0.00018133479589468871 -0.003910563378212828 -0.00018133479589468871 -2499.7580397178344 -0.015811546667237053 -0.003910563378212828 -0.015811546667237053 -9999.5851953667971 0.40021488669140126 -0.0066984273367759022 0.015853396698275901 -0.0066984273367759022 -2499.738754815543 -0.028310033168281734 0.015853396698275901 -0.028310033168281734 -9999.5506789016908 0.38806739596907391 -0.0070768546634739603 0.008697033018052025 -0.0070768546634739603 -2499.7489482659475 -0.025778878828305096 0.008697033018052025 -0.025778878828305096 -9999.583645260107 0.35524860974174999 -0.00056390222895660869 -0.0071593591837881831 -0.00056390222895660869 -2499.7785082936575 -0.031170226697156522 -0.0071593591837881831 -0.031170226697156522 -9999.6253504394954 0.37835537008709252 0.0029885048416871708 0.0072943324685184052 0.0029885048416871708 -2499.7710413956911 -0.071597702805092922 0.0072943324685184052 -0.071597702805092922 -9999.6069105978495 0.41856551222849703 0.0037709651097733513 -0.012800223465546878 0.0037709651097733513 -2499.6958006626837 -0.094097923463777988 -0.012800223465546878 -0.094097923463777988 -9999.4560069698164 0.44053293363330398 -0.010292637802357243 -0.014526606894325944 -0.010292637802357243 -2499.6745398251114 -0.096926904748238452 -0.014526606894325944 -0.096926904748238452 -9999.4521385561602 0.37004844142342702 -0.0098229657684031357 -0.010854251821668937 -0.0098229657684031357 -2499.7548161557888 -0.070507502615746398 -0.010854251821668937 -0.070507502615746398 -9999.6377328429062 0.37877150590009023 -0.019216098109574704 -0.0069882250161299453 -0.019216098109574704 -2499.7343400669779 -0.027637434186090104 -0.0069882250161299453 -0.027637434186090104 -9999.6092572078032 0.43970140418171211 -0.0030527978736913236 0.042954490960474379 -0.0030527978736913236 -2499.6857582220523 -0.046643359574369103 0.042954490960474379 -0.046643359574369103 -9999.5445885835743 0.44147029008354366 -0.013769768270302296 -0.019348407138653267 -0.013769768270302296 -2499.6635344029837 -0.082680873096855984 -0.019348407138653267 -0.082680873096855984 -9999.4359792947525 0.4101812885023719 0.0024867386247086759 0.018797950102452887 0.0024867386247086759 -2499.7221009034474 -0.022439372725784779 0.018797950102452887 -0.022439372725784779 -9999.540994503559 0.40435817546222097 -0.014764134199732569 0.041430552400470333 -0.014764134199732569 -2499.7702208738738 0.011988130600229852 0.041430552400470333 0.011988130600229852 -9999.6256911883174 0.34605750070704744 -0.01925073052100338 0.0435302305568257 -0.01925073052100338 -2499.843573232064 -0.036855659011052921 0.0435302305568257 -0.036855659011052921 -9999.8014420372456 0.36359941678892937 0.0038700869956547011 -0.012429640082018523 0.0038700869956547011 -2499.795757063459 0.022105397751374767 -0.012429640082018523 0.022105397751374767 -9999.6625966756546 0.41243735200761655 0.0021870802068632358 0.03183837662178305 0.0021870802068632358 -2499.7593797127884 -0.11322137976578553 0.03183837662178305 -0.11322137976578553 -9999.5868299198028 0.40907710761033644 0.027714192677870286 0.095928264840620225 0.027714192677870286 -2499.6984680217706 -0.065978338561941685 0.095928264840620225 -0.065978338561941685 -9999.4601869388262 0.33637943542454973 0.018059483123619602 0.097642044319157059 0.018059483123619602 -2499.7799464159125 0.033368412650094659 0.097642044319157059 0.033368412650094659 -9999.7000430283533 0.34233158602773983 0.0039142377128017006 0.099516998348008201 0.0039142377128017006 -2499.7797098253054 0.01160409229578363 0.099516998348008201 0.01160409229578363 -9999.718204275061 0.35804976666975108 0.0055412039234300353 -0.023198195988243242 0.0055412039234300353 -2499.7637969111647 0.0029148392532079015 -0.023198195988243242 0.0029148392532079015 -9999.6484049059454 0.36850257701735245 -0.0034841170289456255 -0.021171817174035823 -0.0034841170289456255 -2499.7490316388598 -0.006075855621475057 -0.021171817174035823 -0.006075855621475057 -9999.6480808772194 0.32427398925072404 0.022987133899850024 -0.032613193535410007 0.022987133899850024 -2499.7983949238251 0.073029295157988672 -0.032613193535410007 0.073029295157988672 -9999.7327299850858 0.37628261120971729 0.0070117907307971419 0.010671046612969803 0.0070117907307971419 -2499.7584647887579 -0.0037740114626103605 0.010671046612969803 -0.0037740114626103605 -9999.6399660552088 0.30585174003556403 -0.00052743963110584574 -0.0099916333033434057 -0.00052743963110584574 -2499.8686256299866 -0.026853680714339134 -0.0099916333033434057 -0.026853680714339134 -9999.8365334074224 0.27818331898725446 -0.0013587632546774812 -0.060955611773211862 -0.0013587632546774812 -2499.8195517294557 0.031366760892088841 -0.060955611773211862 0.031366760892088841 -9999.8026227554947 0.30767669331546382 -0.0055342343192758894 -0.035759865624342219 -0.0055342343192758894 -2499.8010683286689 -0.085488087053491618 -0.035759865624342219 -0.085488087053491618 -9999.7074260520913 0.31902492810650074 -0.0059334478284013975 -0.0077879942100480548 -0.0059334478284013975 -2499.7256208284493 -0.025466582926128467 -0.0077879942100480548 -0.025466582926128467 -9999.5752363820211 0.33187630271616364 -0.013941320872728896 -0.057881536819950674 -0.013941320872728896 -2499.7347379527664 -0.042301032606161915 -0.057881536819950674 -0.042301032606161915 -9999.6136665069025 0.29865761170950039 0.012395577924472267 -0.0046257079024580872 0.012395577924472267 -2499.7570533264211 -0.1431392867043465 -0.0046257079024580872 -0.1431392867043465 -9999.5652831099105 0.29179570210362726 -0.014162844580798691 -0.013775360950148752 -0.014162844580798691 -2499.7951924217887 0.026386799765987234 -0.013775360950148752 0.026386799765987234 -9999.6792906272749 0.2802880124290823 -0.028829859096666789 -0.024701884890419024 -0.028829859096666789 -2499.7705694169908 -0.0024879228917598084 -0.024701884890419024 -0.0024879228917598084 -9999.6737880185137 0.31899975148826343 -0.024092649817727164 -0.0010301191787220887 -0.024092649817727164 -2499.7714896148491 -0.010183612616856408 -0.0010301191787220887 -0.010183612616856408 -9999.6506805561312 0.37029127156620234 -0.00076626366473409036 0.0089760754362941952 -0.00076626366473409036 -2499.7412581793415 -0.012160961601693998 0.0089760754362941952 -0.012160961601693998 -9999.6524077469603 0.35019480475261844 -0.0048917882332076765 -0.0081796363510875381 -0.0048917882332076765 -2499.7477178482322 -0.010683274245934626 -0.0081796363510875381 -0.010683274245934626 -9999.6647233925869 0.35137438973538337 0.0022165984567837221 -0.012280394735171285 0.0022165984567837221 -2499.7306494999375 0.010612361264065839 -0.012280394735171285 0.010612361264065839 -9999.6634518786086 0.36437628752173623 -0.0090869057443632856 0.0040242278337245807 -0.0090869057443632856 -2499.7567743135014 -0.015569920448797347 0.0040242278337245807 -0.015569920448797347 -9999.6418226841161 0.38525512610567603 -0.013952772616801806 0.0012101909323973814 -0.013952772616801806 -2499.7472870631477 -0.014522985200528638 0.0012101909323973814 -0.014522985200528638 -9999.6334781266232 0.31129439854521479 -0.022930183453797777 0.0065384945737605449 -0.022930183453797777 -2499.7644114464456 -0.01776107652221981 0.0065384945737605449 -0.01776107652221981 -9999.6562397474227 0.26897828004075564 -0.0095032316311761261 -0.011510410504342872 -0.0095032316311761261 -2499.793359820249 -0.0064243306078424212 -0.011510410504342872 -0.0064243306078424212 -9999.6881675756704 0.32566602338329176 0.0028724712082477712 -0.012064631674547854 0.0028724712082477712 -2499.7825510201078 -0.0051282875956530916 -0.012064631674547854 -0.0051282875956530916 -9999.6715572011981 0.33439165096751822 -0.012470236862425224 -0.011999658146123693 -0.012470236862425224 -2499.7799422684875 0.0026435622094140854 -0.011999658146123693 0.0026435622094140854 -9999.6708429814571 0.34056443860379204 0.0015668675876519492 -0.014436451785059035 0.0015668675876519492 -2499.7651974632813 0.013140994571585907 -0.014436451785059035 0.013140994571585907 -9999.670040853518 0.3545422069637425 -0.0071380710429928326 -0.007217863922505785 -0.0071380710429928326 -2499.7544965668822 -0.00062755711496720323 -0.007217863922505785 -0.00062755711496720323 -9999.655760854539 0.35287880572013819 -0.0011762489366953493 -0.0067034061567028402 -0.0011762489366953493 -2499.7559862920662 0.0071696155064273626 -0.0067034061567028402 0.0071696155064273626 -9999.6631608079242 0.353221394015236 -0.0052428228930351626 -0.0054327341663338302 -0.0052428228930351626 -2499.7518184868841 0.0013744804919042508 -0.0054327341663338302 0.0013744804919042508 -9999.6526476385661 0.35395747839265823 -0.0032483116434955249 -0.0083435547644512553 -0.0032483116434955249 -2499.7589044777687 0.0052025735367351444 -0.0083435547644512553 0.0052025735367351444 -9999.6660108497999 0.35534981274440725 -0.0075648863013069549 -0.0085410804565526632 -0.0075648863013069549 -2499.7470063341375 -0.00024438372975055245 -0.0085410804565526632 -0.00024438372975055245 -9999.6572272895246 0.34980450614216352 -0.0033224885804553255 -0.011849763829104631 -0.0033224885804553255 -2499.7640413528634 -0.0012881125157946371 -0.011849763829104631 -0.0012881125157946371 -9999.6783993133085 0.35279201822686446 -0.0030812236890627705 -0.013359574386981876 -0.0030812236890627705 -2499.749135896514 0.0021223716476015397 -0.013359574386981876 0.0021223716476015397 -9999.6788610651838 0.30823915628025134 0.013998625351377456 -0.020991035590668616 0.013998625351377456 -2499.7785532689913 0.0028536871977848932 -0.020991035590668616 0.0028536871977848932 -9999.6758317263975 0.31157809002252179 0.001056323668338731 -0.026950258403303451 0.001056323668338731 -2499.770107294682 0.013161704649775174 -0.026950258403303451 0.013161704649775174 -9999.6606593892575 0.32882988443020622 0.0076166909173268297 -0.012471338752675365 0.0076166909173268297 -2499.7669579311569 0.0089820527850861254 -0.012471338752675365 0.0089820527850861254 -9999.6596723121875 0.33174632703187823 -0.0049913916175799407 -0.0057173066135979209 -0.0049913916175799407 -2499.7640723477107 -0.0014480706388358341 -0.0057173066135979209 -0.0014480706388358341 -9999.7196207635698 0.34843824563586168 -0.0042944596397087066 -0.010097514366862015 -0.0042944596397087066 -2499.7429374080343 0.0084443319965430419 -0.010097514366862015 0.0084443319965430419 -9999.6592512858333 0.33195443650265588 0.010019428392747777 -0.018278382507560309 0.010019428392747777 -2499.7589942446425 0.023531843574346567 -0.018278382507560309 0.023531843574346567 -9999.6405023993357 0.32439557199651936 -0.007210528061953568 -0.054644981594483055 -0.007210528061953568 -2499.7738108650296 0.0035453031713276184 -0.054644981594483055 0.0035453031713276184 -9999.7535196648787 0.35492649726211312 -0.0074937190541925483 -0.033244245423702523 -0.0074937190541925483 -2499.7700153708456 -0.0016466780048176588 -0.033244245423702523 -0.0016466780048176588 -9999.7652524811838 0.3427233473553315 -0.0075815286897010642 -0.0096108837701649463 -0.0075815286897010642 -2499.7611031067145 0.0058323046612827056 -0.0096108837701649463 0.0058323046612827056 -9999.6638854067805 0.33087342705003914 0.012785899650353266 -0.038179873705345035 0.012785899650353266 -2499.7749787108382 0.064080288337873909 -0.038179873705345035 0.064080288337873909 -9999.6738813727025 0.32591323868696287 0.011029719368966306 -0.023084945379253846 0.011029719368966306 -2499.7852010342026 0.022174242847934483 -0.023084945379253846 0.022174242847934483 -9999.6716198239883 0.31500757388998729 0.0094868541427187807 -0.071052797141985369 0.0094868541427187807 -2499.7981187054597 0.024256968932754308 -0.071052797141985369 0.024256968932754308 -9999.7131607701067 0.35240072233059483 0.0086312861501799398 0.012071416407778035 0.0086312861501799398 -2499.7763260550751 -0.080659874059190187 0.012071416407778035 -0.080659874059190187 -9999.6164940023391 0.29158305563537179 0.027576513595596694 -0.032049706459706756 0.027576513595596694 -2499.7930411797597 0.020899387035580558 -0.032049706459706756 0.020899387035580558 -9999.6208366255505 0.33000313097403799 -0.011256527842446389 -0.016190845500741805 -0.011256527842446389 -2499.778689261429 -0.027848035855524228 -0.016190845500741805 -0.027848035855524228 -9999.6992527581442 0.25146234065833595 0.010711246655249501 -0.015248672937947572 0.010711246655249501 -2499.7962241108462 0.025146904924209106 -0.015248672937947572 0.025146904924209106 -9999.6422890216654 0.26009697637391582 0.009819600761976615 -0.010264717453082994 0.009819600761976615 -2499.7736618356057 0.01039203885693496 -0.010264717453082994 0.01039203885693496 -9999.6175908659352 0.28394198965861506 0.0073513202680921506 -0.030920542282294877 0.0073513202680921506 -2499.7563583732372 0.043121966399110589 -0.030920542282294877 0.043121966399110589 -9999.5577691349481 0.36419666781239357 0.0059782895310909745 -0.010890099057633051 0.0059782895310909745 -2499.7798760567048 -0.0960798625934558 -0.010890099057633051 -0.0960798625934558 -9999.5984212951716 0.27830955773571087 0.0079667821512319683 -0.024634873394480311 0.0079667821512319683 -2499.7358830759517 0.04223606132717056 -0.024634873394480311 0.04223606132717056 -9999.5601209403485 0.29389406270888685 0.0093610022004269218 0.0010369592029766395 0.0093610022004269218 -2499.7737905964659 0.0067307871422599419 0.0010369592029766395 0.0067307871422599419 -9999.4961719693565 0.37716327510679548 0.015906017669608349 -0.0029938769521322683 0.015906017669608349 -2499.7542618099869 0.030425337212363956 -0.0029938769521322683 0.030425337212363956 -9999.5778714533808 0.35025042877438589 -0.001678084978703863 -0.033641494800689453 -0.001678084978703863 -2499.7415760160789 0.046807240788172992 -0.033641494800689453 0.046807240788172992 -9999.6597551484247 0.33869637103326383 -0.0049859878536593549 -0.012551429188295292 -0.0049859878536593549 -2499.7389934883504 0.041575728608338358 -0.012551429188295292 0.041575728608338358 -9999.6454803180459 0.35038745301726798 -0.003161857894139984 -0.0037859057766534074 -0.003161857894139984 -2499.7772421055442 0.021939724133054034 -0.0037859057766534074 0.021939724133054034 -9999.5642632747476 0.32542845654734265 -0.0066611658291596213 -0.016081701516668545 -0.0066611658291596213 -2499.7983354919907 0.0044849697855369186 -0.016081701516668545 0.0044849697855369186 -9999.6263415424182 0.28653007110234724 -0.0033430031622365824 0.024636229808762969 -0.0033430031622365824 -2499.7357626158282 -0.038001489671360911 0.024636229808762969 -0.038001489671360911 -9999.574500942661 0.29003642069818392 -0.024558551538447729 -0.013277172816336669 -0.024558551538447729 -2499.784127408092 -0.086358157615997466 -0.013277172816336669 -0.086358157615997466 -9999.4887422636984 0.27410448817727229 -0.042527322248683053 -0.033218778420113282 -0.042527322248683053 -2499.7795256421441 -0.02034136687643695 -0.033218778420113282 -0.02034136687643695 -9999.6029416547935 0.37112475869253103 0.030719097703031495 0.020024350779522138 0.030719097703031495 -2499.7276422468185 -0.0041680097451717302 0.020024350779522138 -0.0041680097451717302 -9999.6525089597035 0.38708776264547851 0.012667762935198765 0.047541494959270791 0.012667762935198765 -2499.7522960540878 -0.077993927188734935 0.047541494959270791 -0.077993927188734935 -9999.5289802279385 0.34126643657964451 -0.01071476325230003 -0.027374103655802173 -0.01071476325230003 -2499.7664976999577 -0.037001240015570147 -0.027374103655802173 -0.037001240015570147 -9999.6484645296186 0.34295586820098833 -0.0146364213170942 -0.018329041305605642 -0.0146364213170942 -2499.7846624691301 -0.034088298354618018 -0.018329041305605642 -0.034088298354618018 -9999.7248500431888 0.37778783086196199 -0.0016944599841993563 -0.0036725267655128846 -0.0016944599841993563 -2499.7713717581864 -0.020820263944642647 -0.0036725267655128846 -0.020820263944642647 -9999.6711397818235 0.34281451033530175 0.0041678980204048702 -0.012537417889916469 0.0041678980204048702 -2499.8204105383629 0.0082394801133887086 -0.012537417889916469 0.0082394801133887086 -9999.7678461428586 0.33514499984539725 0.014111697459390988 0.058830596574210858 0.014111697459390988 -2499.7923661681934 0.039285612356707134 0.058830596574210858 0.039285612356707134 -9999.697516412547 0.29499929882695142 0.020436836262372395 -0.0090044647063223238 0.020436836262372395 -2499.7773484933259 -0.021235917815829453 -0.0090044647063223238 -0.021235917815829453 -9999.6936312013531 0.27108721741387853 0.022489211058607145 -0.025488334229976317 0.022489211058607145 -2499.7680568539949 -0.0047624672706660931 -0.025488334229976317 -0.0047624672706660931 -9999.6877264757695 0.29375250111479545 -0.0045770047532077696 -0.014699098208626582 -0.0045770047532077696 -2499.7247343865633 0.093264695474158388 -0.014699098208626582 0.093264695474158388 -9999.6128129162662 0.3178263092564042 0.014672318578624576 -0.0067206901330791879 0.014672318578624576 -2499.725934286791 0.015531143714920453 -0.0067206901330791879 0.015531143714920453 -9999.6110919643161 0.2716379012791692 -0.029232692797764463 -0.036666726420999052 -0.029232692797764463 -2499.7604320205905 0.0061910410170749608 -0.036666726420999052 0.0061910410170749608 -9999.5762528268478 0.32580513867553584 0.0083066479036153357 -0.019946325474929388 0.0083066479036153357 -2499.7645792923454 0.052068696538456333 -0.019946325474929388 0.052068696538456333 -9999.6889195819022 0.38475048406348833 0.024457765189401702 0.0083899383512289205 0.024457765189401702 -2499.6911359633013 0.026354532232289785 0.0083899383512289205 0.026354532232289785 -9999.6138940446981 0.3512616524670531 0.0046536653374961504 0.048287733049111131 0.0046536653374961504 -2499.7436655679021 0.058598484042501939 0.048287733049111131 0.058598484042501939 -9999.6710963387995 0.37302289331228167 0.0048745285291303016 -0.0036843058551312424 0.0048745285291303016 -2499.7377647880717 0.0057347582251168205 -0.0036843058551312424 0.0057347582251168205 -9999.6443710247895 0.36911662585362137 0.033732418316721823 0.018352196637806628 0.033732418316721823 -2499.740079971064 0.006139811245702731 0.018352196637806628 0.006139811245702731 -9999.6443657787422 0.38646790059770875 -0.010051322046780713 0.026234617434913537 -0.010051322046780713 -2499.7514825441635 0.010131270393104158 0.026234617434913537 0.010131270393104158 -9999.6054761087908 0.42161020526410414 0.0047496499057492689 0.044314708812123571 0.0047496499057492689 -2499.7013601731942 0.078865810651250423 0.044314708812123571 0.078865810651250423 -9999.5167590226574 0.3901186899023355 -0.0094890876291031587 -0.006381114103980956 -0.0094890876291031587 -2499.7349202745145 0.0316717215721245 -0.006381114103980956 0.0316717215721245 -9999.5566555851383 0.39606584740818523 -0.010624122760848738 0.017291326920803735 -0.010624122760848738 -2499.7498970084689 0.049531976442549752 0.017291326920803735 0.049531976442549752 -9999.5930556615658 0.40886202027485297 -0.0067631225361992342 0.024391633731283946 -0.0067631225361992342 -2499.7261523631869 0.0070949979972283472 0.024391633731283946 0.0070949979972283472 -9999.5437738675155 0.36965016120546568 -0.0060168286125961779 0.027850874004342836 -0.0060168286125961779 -2499.7729297192454 0.030664675821417881 0.027850874004342836 0.030664675821417881 -9999.6638214952509 0.36076659673113265 -0.0063663109862912848 -0.0036035084532450301 -0.0063663109862912848 -2499.7591925072711 5.7243875412726908e-05 -0.0036035084532450301 5.7243875412726908e-05 -9999.6499245070136 0.359099524159463 -0.0095267236854817521 -0.0028899710354099621 -0.0095267236854817521 -2499.7606823612596 0.0079536016915963681 -0.0028899710354099621 0.0079536016915963681 -9999.6549680769367 0.36563761876368517 0.0037951761788133889 -0.051972801976027938 0.0037951761788133889 -2499.7618012528455 0.040004344003136794 -0.051972801976027938 0.040004344003136794 -9999.6298126974543 0.37109574679971047 0.0022874528219679856 -0.0044303411546025018 0.0022874528219679856 -2499.7443929578108 0.013417941263242028 -0.0044303411546025018 0.013417941263242028 -9999.6551288057926 0.36928689430760642 -0.0071306249544716392 -0.052751353458116768 -0.0071306249544716392 -2499.748181386889 -0.010540334503633203 -0.052751353458116768 -0.010540334503633203 -9999.6275292174614 0.35560662316918179 -0.0031103799289409033 -0.027383847771112857 -0.0031103799289409033 -2499.7778661123634 0.025203326407647261 -0.027383847771112857 0.025203326407647261 -9999.6712316697594 0.35076583113777815 -0.0029587195012630916 -0.024765153403706108 -0.0029587195012630916 -2499.7617900950427 -0.0035806063424388412 -0.024765153403706108 -0.0035806063424388412 -9999.7061046757153 0.37413408614952459 -0.0094774936136939325 0.0076016981111024506 -0.0094774936136939325 -2499.7587563201059 0.018652150958814673 0.0076016981111024506 0.018652150958814673 -9999.7047541556458 0.37234739756786439 7.5977654271478651e-05 0.0058030333448186866 7.5977654271478651e-05 -2499.7458346926774 -0.0033673750286595805 0.0058030333448186866 -0.0033673750286595805 -9999.6625147909053 0.3782152379553736 -0.0022245447376023847 0.0077518745721363302 -0.0022245447376023847 -2499.7680049892674 0.0018826000023182132 0.0077518745721363302 0.0018826000023182132 -9999.6683422285059 0.34604430481840609 0.0039655284884033536 0.059684109558700182 0.0039655284884033536 -2499.7392757838834 -0.0085360008426362544 0.059684109558700182 -0.0085360008426362544 -9999.5864597210875 0.37963062540029568 0.014942760549804288 -0.032504711858305446 0.014942760549804288 -2499.7320383343822 -0.055742796055924623 -0.032504711858305446 -0.055742796055924623 -9999.6084642436963 0.36560415912962974 -0.0032705074943455105 -0.045900301156795102 -0.0032705074943455105 -2499.7473840460793 0.042320204916525439 -0.045900301156795102 0.042320204916525439 -9999.643513340121 0.38158533382829773 -0.00067655565084031493 0.00091734006537080859 -0.00067655565084031493 -2499.7478886098361 0.0010802743045132956 0.00091734006537080859 0.0010802743045132956 -9999.629259201145 0.3746972605058545 0.0011333808054453075 -0.0033954342106881086 0.0011333808054453075 -2499.753040281782 0.0043054738483760957 -0.0033954342106881086 0.0043054738483760957 -9999.6375898263868 0.38357491121382736 -0.0026648103429985758 0.0030205564796688122 -0.0026648103429985758 -2499.7442138533397 -0.00030752209204365499 0.0030205564796688122 -0.00030752209204365499 -9999.6273638735001 0.38499250952099828 -0.0032490803813654875 0.0053369922753745414 -0.0032490803813654875 -2499.7562401653054 0.0090770733422687044 0.0053369922753745414 0.0090770733422687044 -9999.6512856016143 0.38532687099359464 -0.0023470928698315578 -0.00073683517939571175 -0.0023470928698315578 -2499.7355307276848 0.001798228531811219 -0.00073683517939571175 0.001798228531811219 -9999.6285896428981 0.38775165373317577 -0.0016534882022179141 0.0029461458489095094 -0.0016534882022179141 -2499.7460590276814 2.3408229026244953e-05 0.0029461458489095094 2.3408229026244953e-05 -9999.6268363460476 0.37380707284137316 0.0083510045837862437 0.0009017490947371698 0.0083510045837862437 -2499.7527254818287 0.0017064606699932483 0.0009017490947371698 0.0017064606699932483 -9999.6423107040464 0.38292916476927985 0.012671119022549956 0.0048234155810860102 0.012671119022549956 -2499.7402399902344 0.011480315852566036 0.0048234155810860102 0.011480315852566036 -9999.6176712315682 0.37859052603198506 0.0081531655452975037 0.0052572561053239042 0.0081531655452975037 -2499.7402232560189 0.014189720392096206 0.0052572561053239042 0.014189720392096206 -9999.6352413373315 0.37349359942606952 0.003192394485917599 -0.0024156458284778637 0.003192394485917599 -2499.7695473052181 0.020102255941765179 -0.0024156458284778637 0.020102255941765179 -9999.6274491114127 0.37821092595640948 0.0030284580139014073 -0.0062736429617871181 0.0030284580139014073 -2499.7413091838862 0.011154893682487454 -0.0062736429617871181 0.011154893682487454 -9999.6213623270669 0.37419591033085453 0.0041920272530619421 -0.0040650017072039191 0.0041920272530619421 -2499.7474567790214 0.0076410143415159837 -0.0040650017072039191 0.0076410143415159837 -9999.6360267617856 0.37734165990650581 0.0024302946323114423 -0.0028320793062448502 0.0024302946323114423 -2499.7470015874137 0.0059257505693040002 -0.0028320793062448502 0.0059257505693040002 -9999.6345300443481 0.38543601158744423 0.007602855104895008 0.0038946091590332799 0.007602855104895008 -2499.730041421396 0.020090500785499898 0.0038946091590332799 0.020090500785499898 -9999.6146794061151 0.3820300971042343 0.0046886192403837457 0.0021439790489239385 0.0046886192403837457 -2499.7495116557534 0.013445024338579969 0.0021439790489239385 0.013445024338579969 -9999.6096244998444 0.37690974819633993 0.0084663697077615868 4.0613347664475441e-05 0.0084663697077615868 -2499.7578919582629 0.021220161589553754 4.0613347664475441e-05 0.021220161589553754 -9999.6245079308428 0.37849229938728968 -0.0042986884274983095 -0.004378572533823899 -0.0042986884274983095 -2499.7593248791145 0.021903694041156996 -0.004378572533823899 0.021903694041156996 -9999.623004154666 0.35876234911302163 0.0040118314155826694 -0.0038819369968905448 0.0040118314155826694 -2499.7590271363079 -0.00066161435654521483 -0.0038819369968905448 -0.00066161435654521483 -9999.6436555508044 0.35255349413637305 0.0049003253818881085 -0.017429882650503714 0.0049003253818881085 -2499.7657014863998 -0.0036084765720261203 -0.017429882650503714 -0.0036084765720261203 -9999.6660687727781 0.37349637720944884 0.0085102317945739553 0.0012910347868455574 0.0085102317945739553 -2499.7553548186852 0.0030506444454658777 0.0012910347868455574 0.0030506444454658777 -9999.6437788358126 0.35510037043189868 0.0049937596215261226 -0.0057909370907509583 0.0049937596215261226 -2499.762709714289 0.0012716230021396768 -0.0057909370907509583 0.0012716230021396768 -9999.6497625968168 0.29749447146130592 0.0077088985063770293 -0.0024999999131978257 0.0077088985063770293 -2499.7343109645708 -0.00062022385736781871 -0.0024999999131978257 -0.00062022385736781871 -9999.6572313241559 0.2903147248471214 -0.00073682580631653088 -0.005235136936789786 -0.00073682580631653088 -2499.7435209831347 -0.0075936873499813373 -0.005235136936789786 -0.0075936873499813373 -9999.6593046324233 0.28720751377659326 0.001196505969550378 -0.0068114341593172867 0.001196505969550378 -2499.7455168014585 -0.007364890143435332 -0.0068114341593172867 -0.007364890143435332 -9999.6580580067384 0.30341035930632643 0.011347589017143035 -0.0086802130908836261 0.011347589017143035 -2499.7464997425122 -0.012404350843098655 -0.0086802130908836261 -0.012404350843098655 -9999.661399689925 0.34288579341045988 0.0031053956406577321 -0.011543261447513942 0.0031053956406577321 -2499.7649335929536 -0.010691815272366512 -0.011543261447513942 -0.010691815272366512 -9999.649473621419 0.33617760566880861 -0.004182512050531266 -0.011554393794540374 -0.004182512050531266 -2499.7718877246507 -0.0075403650080261286 -0.011554393794540374 -0.0075403650080261286 -9999.651779573258 0.34293138070938767 0.0038637724920969167 -0.013262513271911303 0.0038637724920969167 -2499.7737773074386 0.016194375936720462 -0.013262513271911303 0.016194375936720462 -9999.6720215777586 0.3471027061868881 -0.00098130146375741915 -0.0060113206191090285 -0.00098130146375741915 -2499.791153465364 -0.0016429285442427499 -0.0060113206191090285 -0.0016429285442427499 -9999.6553293549332 0.35653185776573082 -0.00018943558679030206 -0.0044386203326212126 -0.00018943558679030206 -2499.7580763392962 0.0042552782169877901 -0.0044386203326212126 0.0042552782169877901 -9999.6389128189112 0.37153002224204101 -0.00073953841058721839 -0.0049472924201836577 -0.00073953841058721839 -2499.7652417534059 -0.013919810080551542 -0.0049472924201836577 -0.013919810080551542 -9999.5829096663892 0.34891900029742828 -0.00070105691708526215 -0.0050139936574851163 -0.00070105691708526215 -2499.7818624511028 -0.0043041288372478448 -0.0050139936574851163 -0.0043041288372478448 -9999.6529261646137 0.34996202337697468 0.0076523127009363538 -0.015725768582342425 0.0076523127009363538 -2499.7844685396817 0.011860818947752705 -0.015725768582342425 0.011860818947752705 -9999.6308955170971 0.35575661764687538 -0.0010895647171221979 -0.0056213991556433029 -0.0010895647171221979 -2499.7649243469205 0.0076070980721851811 -0.0056213991556433029 0.0076070980721851811 -9999.6402070910408 0.34242741809885047 0.0028055931217989276 -0.011865382706673699 0.0028055931217989276 -2499.7512435813751 0.011679666446980264 -0.011865382706673699 0.011679666446980264 -9999.61563447546 0.30182694025370438 -0.018791164179379136 -0.017543399835631135 -0.018791164179379136 -2499.7804511104678 0.0086102582190505927 -0.017543399835631135 0.0086102582190505927 -9999.6568385835089 0.36392593018899788 0.0034937436531801056 -0.0067891839103140228 0.0034937436531801056 -2499.7534576043799 0.0023635673933313228 -0.0067891839103140228 0.0023635673933313228 -9999.6407870614566 0.36017074827850593 -0.010354429949285641 -0.008347599135049677 -0.010354429949285641 -2499.7672046988873 -0.0021450572821777314 -0.008347599135049677 -0.0021450572821777314 -9999.648276756554 0.28964234073282569 -0.016244660911641704 0.014938527983758831 -0.016244660911641704 -2499.7814960785799 0.0035181897974325693 0.014938527983758831 0.0035181897974325693 -9999.6795616966483 0.35178230720271131 -0.00073278125202124247 -0.0058770666610143962 -0.00073278125202124247 -2499.7627222667024 0.0012447736180547508 -0.0058770666610143962 0.0012447736180547508 -9999.652079791038 0.36196951412603084 -0.0068788764419428893 -0.0057550238338990312 -0.0068788764419428893 -2499.769615140327 0.00097443515915074386 -0.0057550238338990312 0.00097443515915074386 -9999.6421322041388 0.35952706682837743 -0.00029687387121666263 -0.011099993414063647 -0.00029687387121666263 -2499.7586484040767 0.00051130213540773184 -0.011099993414063647 0.00051130213540773184 -9999.6437606661566 0.33576965759897348 -0.0086123808335229202 -0.0081070712622022256 -0.0086123808335229202 -2499.7621940218628 0.0011064439495385159 -0.0081070712622022256 0.0011064439495385159 -9999.6500990930708 0.34647699884590111 0.011148055755713055 -0.020026028118991235 0.011148055755713055 -2499.7642395374605 0.0068237972882343456 -0.020026028118991235 0.0068237972882343456 -9999.6624509022076 0.29254602521382367 -0.023402152784129649 8.2618904343689792e-05 -0.023402152784129649 -2499.7808772581284 0.0031806026363483397 8.2618904343689792e-05 0.0031806026363483397 -9999.6723580291509 0.32656362730267574 -0.0072940983665299814 -0.013367890680456185 -0.0072940983665299814 -2499.7685204066329 0.003119575094387983 -0.013367890680456185 0.003119575094387983 -9999.6647489128263 0.32419442551145039 -0.0031935466184854003 -0.019847486135404324 -0.0031935466184854003 -2499.7719778452683 0.0024748557461862219 -0.019847486135404324 0.0024748557461862219 -9999.6649921563621 0.34509001148626339 0.0057010314334712715 -0.0052236089504731353 0.0057010314334712715 -2499.7581618139516 -0.0037264461534505244 -0.0052236089504731353 -0.0037264461534505244 -9999.6505588301443 0.33627605226058677 -0.00095303762986439014 -0.0017450007298975834 -0.00095303762986439014 -2499.7614379510915 -0.0035818914957417292 -0.0017450007298975834 -0.0035818914957417292 -9999.6629884811355 0.39028227158269146 0.0083195598444466348 -0.0058228964589943644 0.0083195598444466348 -2499.7368887321882 0.0010452717451698845 -0.0058228964589943644 0.0010452717451698845 -9999.6270967888322 0.34685891197659657 -0.0021913938047377034 -0.0089457201902405359 -0.0021913938047377034 -2499.7525324284907 0.0018700418013395392 -0.0089457201902405359 0.0018700418013395392 -9999.6404849615319 0.34678691429508035 0.0029223285536361492 -0.0082518217841425212 0.0029223285536361492 -2499.7594197556318 0.0071948279628486489 -0.0082518217841425212 0.0071948279628486489 -9999.6425411448909 0.33736195883648179 0.0034960952357322404 -0.0011949735289817909 0.0034960952357322404 -2499.7677806908687 0.0015282259919331409 -0.0011949735289817909 0.0015282259919331409 -9999.6660369283127 0.29273145114530053 0.0067829437952188973 0.00026544767933955882 0.0067829437952188973 -2499.7592094313641 0.01271877084946027 0.00026544767933955882 0.01271877084946027 -9999.6745760934864 0.29086682448291867 0.0032523583713397197 -0.0071563396013516467 0.0032523583713397197 -2499.7362586951176 -0.0032966276194201782 -0.0071563396013516467 -0.0032966276194201782 -9999.6689539751678 0.29154937703060568 -0.00087009235274619623 -0.0060083485223003663 -0.00087009235274619623 -2499.7397208663278 -0.0050198561202705605 -0.0060083485223003663 -0.0050198561202705605 -9999.6512490458917 0.37558207082315676 -0.013676096473458244 -0.003254228678997606 -0.013676096473458244 -2499.766581935357 -0.0051733193381551246 -0.003254228678997606 -0.0051733193381551246 -9999.6371818454827 0.33599668491433476 -0.0049025949124499486 -0.003519952133501647 -0.0049025949124499486 -2499.7715907587358 -0.0035964898916063248 -0.003519952133501647 -0.0035964898916063248 -9999.6480151957148 0.37541033804700419 0.017649739759039947 -0.00085759659395989729 0.017649739759039947 -2499.7453235795892 -0.021619394537992775 -0.00085759659395989729 -0.021619394537992775 -9999.6289036153303 0.38362985954336182 0.0092568817425687927 -0.0020257573560229503 0.0092568817425687927 -2499.7377182694127 -0.025812120147747919 -0.0020257573560229503 -0.025812120147747919 -9999.6298364750473 0.38056415256141918 -0.014680291811424492 -0.0046233527828007936 -0.014680291811424492 -2499.7648494854266 -0.0051429024160825065 -0.0046233527828007936 -0.0051429024160825065 -9999.6355861881384 0.38329049770982238 0.0060807477125921772 0.00056175449390138965 0.0060807477125921772 -2499.7386302738669 0.014175416389207385 0.00056175449390138965 0.014175416389207385 -9999.6267523599236 0.36851931188539311 0.0011676239230907215 -0.0034738031802135083 0.0011676239230907215 -2499.7789578408028 0.0033788614155128016 -0.0034738031802135083 0.0033788614155128016 -9999.6370258010647 0.38136030282839783 -0.0016913450073771444 -0.0020535453404590953 -0.0016913450073771444 -2499.7302366395743 -0.00043648902965287562 -0.0020535453404590953 -0.00043648902965287562 -9999.6205024293922 0.38184007089876104 0.0075009898537569735 -0.0019710425272023713 0.0075009898537569735 -2499.7406370718054 0.0018523358057791484 -0.0019710425272023713 0.0018523358057791484 -9999.6340917776397 0.38161386759384186 0.020847864060394551 0.0022416516540033626 0.020847864060394551 -2499.7367305056541 -0.017893632641971635 0.0022416516540033626 -0.017893632641971635 -9999.6209439955419 0.37641116116901685 -0.001232641967915326 -0.0020985304217902012 -0.001232641967915326 -2499.748751111134 -0.00024414817653450882 -0.0020985304217902012 -0.00024414817653450882 -9999.6257443670074 0.37896269581142406 -0.00086195315345080853 -0.00082969360758511357 -0.00086195315345080853 -2499.7510643552851 -0.0014903579258316313 -0.00082969360758511357 -0.0014903579258316313 -9999.636705662946 0.38288226997428865 0.0012460799249431741 0.0011835795562546991 0.0012460799249431741 -2499.7454068212164 0.0028320045730652055 0.0011835795562546991 0.0028320045730652055 -9999.6241882229624 0.3784528239618794 0.0016175313624031185 -0.0034111037530237809 0.0016175313624031185 -2499.749329414507 0.00057935422182708862 -0.0034111037530237809 0.00057935422182708862 -9999.6376944037747 0.3772905473845185 -0.00036753337056288004 -0.0019238590584791382 -0.00036753337056288004 -2499.7455099660938 -0.0014987744816608028 -0.0019238590584791382 -0.0014987744816608028 -9999.6254736567462 0.37697751314044581 0.00082700796418814929 -0.0029552790952038777 0.00082700796418814929 -2499.7508952324879 0.001378116945943475 -0.0029552790952038777 0.001378116945943475 -9999.6308267394925 0.39010822545424162 0.00065630883619970798 0.00092682788090314716 0.00065630883619970798 -2499.7403134684009 0.00073587111603501398 0.00092682788090314716 0.00073587111603501398 -9999.6197210788778 0.38327029761876474 0.0073726499848282903 -0.0034089015416611801 0.0073726499848282903 -2499.7523808338437 0.0025658075537648983 -0.0034089015416611801 0.0025658075537648983 -9999.6284224100127 0.38135719082674768 7.4723092491927809e-06 -0.00031995864083000924 7.4723092491927809e-06 -2499.7453456262278 -0.0012968397231816198 -0.00031995864083000924 -0.0012968397231816198 -9999.6243006185905 0.37701053689852415 0.0036884455597354475 -0.0013225403545220615 0.0036884455597354475 -2499.7547996165868 0.0065663455752655864 -0.0013225403545220615 0.0065663455752655864 -9999.6296368271996 0.38288629663566098 0.00094430147722147288 0.0018988857982549234 0.00094430147722147288 -2499.7427183233349 0.00064921776174742263 0.0018988857982549234 0.00064921776174742263 -9999.6220486446437 0.39418583711176325 -0.00067727485934863713 -0.001523134622402722 -0.00067727485934863713 -2499.7465348000378 0.0015348287270171568 -0.001523134622402722 0.0015348287270171568 -9999.6238030454442 0.38277733684935811 0.00092477817190362828 0.00042562518865452148 0.00092477817190362828 -2499.7436295210991 0.00035418023253441788 0.00042562518865452148 0.00035418023253441788 -9999.6205985122488 0.39240872442678665 0.002633777269416316 0.0018215465806861175 0.002633777269416316 -2499.7428235527805 -0.0015025406282802578 0.0018215465806861175 -0.0015025406282802578 -9999.6183084142031 0.39197579711981234 0.0016816322515077308 -0.00077474919271480758 0.0016816322515077308 -2499.7440348918335 0.0028304434599704109 -0.00077474919271480758 0.0028304434599704109 -9999.6228950434597 0.38966985691956779 0.00021716664653755741 0.00065379889565519989 0.00021716664653755741 -2499.7411544315391 -3.1866651625023223e-05 0.00065379889565519989 -3.1866651625023223e-05 -9999.6214653608095 0.39062022548205277 -0.00030448070188427334 0.00011009058653144166 -0.00030448070188427334 -2499.7417773384223 -0.00027191451772523578 0.00011009058653144166 -0.00027191451772523578 -9999.6213487843779 0.39338711922391667 0.00020197992756528643 0.00088757639605319127 0.00020197992756528643 -2499.7303810748153 -0.00082928506162716076 0.00088757639605319127 -0.00082928506162716076 -9999.6162814787931 0.38834373716372284 0.0072745342975962732 -0.00089289553216076456 0.0072745342975962732 -2499.7479792919517 -0.0014244922931538895 -0.00089289553216076456 -0.0014244922931538895 -9999.6208496267282 0.37218194736851729 0.002023213841870963 -0.0021332965307010454 0.002023213841870963 -2499.7610132600057 0.00010890040721278638 -0.0021332965307010454 0.00010890040721278638 -9999.6442634305567 0.37824255057421396 0.0028145989008397758 0.00054019662638893351 0.0028145989008397758 -2499.7547338420918 -0.00022440044540417148 0.00054019662638893351 -0.00022440044540417148 -9999.6223732859326 0.38188733924471308 0.00052396464716512534 0.00019022984633920714 0.00052396464716512534 -2499.7440483668961 5.9156216593692079e-05 0.00019022984633920714 5.9156216593692079e-05 -9999.618905192292 0.39253538934326571 0.0050009772545427864 -0.0013621013786178082 0.0050009772545427864 -2499.7373766289597 -0.00061845984055253211 -0.0013621013786178082 -0.00061845984055253211 -9999.6172598249668 0.38330067172864801 -0.011593869619586153 -0.0034260274187545292 -0.011593869619586153 -2499.7239540783412 0.026036776054752409 -0.0034260274187545292 0.026036776054752409 -9999.6152830131032 0.38730927341566712 0.0057358567579000458 -0.00054327333418768831 0.0057358567579000458 -2499.7401972195275 0.014953378858990618 -0.00054327333418768831 0.014953378858990618 -9999.6259303379193 0.38653675007844868 0.0068421979291662799 -0.00085206930998538155 0.0068421979291662799 -2499.748073702985 -0.0012121583022235427 -0.00085206930998538155 -0.0012121583022235427 -9999.6212271890672 0.39065936614497332 0.0040413054656102745 0.0025674805419839686 0.0040413054656102745 -2499.7266578119415 -0.0053514243536483264 0.0025674805419839686 -0.0053514243536483264 -9999.624007980412 0.4019991730201582 0.0051035538248779683 0.0030595515236200299 0.0051035538248779683 -2499.7264617965884 -0.0026200665142823709 0.0030595515236200299 -0.0026200665142823709 -9999.6259491220917 0.39315114303281007 0.0029549388108231073 0.0024314526526723057 0.0029549388108231073 -2499.7289238493304 -0.0069679352745879441 0.0024314526526723057 -0.0069679352745879441 -9999.6253519927232 0.39556618971073476 0.010401975888680817 0.0039564464786963072 0.010401975888680817 -2499.7410044625121 -0.0018091378206008812 0.0039564464786963072 -0.0018091378206008812 -9999.6276223937894 0.37757460885040928 0.0056859183213371668 -0.00033555701475052047 0.0056859183213371668 -2499.7585521391484 0.012331381660260377 -0.00033555701475052047 0.012331381660260377 -9999.6320771654791 0.39694963615511369 7.2827392293309083e-05 -0.00049761513037083205 7.2827392293309083e-05 -2499.7511111503354 0.0024763037617958616 -0.00049761513037083205 0.0024763037617958616 -9999.6229066267915 0.39593046166191925 0.0018510644188942486 -0.0014678655898023862 0.0018510644188942486 -2499.7552002152115 -0.0034400597178319003 -0.0014678655898023862 -0.0034400597178319003 -9999.6291236844227 0.3430590884963749 0.0035756233016625352 -0.0045633537974936189 0.0035756233016625352 -2499.781536721357 0.020272284074962954 -0.0045633537974936189 0.020272284074962954 -9999.652845221899 0.37479422160504328 0.011377544181952796 -0.0036762551280844491 0.011377544181952796 -2499.7692797674845 0.019185428369382862 -0.0036762551280844491 0.019185428369382862 -9999.6438495428665 0.37330291067155486 0.014315009494281369 0.0032267902497551404 0.014315009494281369 -2499.7767721672444 -0.0032046043015725445 0.0032267902497551404 -0.0032046043015725445 -9999.6366228937695 0.39983717152426834 0.0019271446650115168 -0.0030259169479904813 0.0019271446650115168 -2499.7491925168797 0.001450234507501591 -0.0030259169479904813 0.001450234507501591 -9999.6188315026229 0.37674395730209653 0.015259089798979299 0.0024241112146228261 0.015259089798979299 -2499.7683975298532 -0.0064689828941482119 0.0024241112146228261 -0.0064689828941482119 -9999.6318222381087 0.32861981681526231 -0.012159025233708525 -0.016299985500154435 -0.012159025233708525 -2499.7788175566075 -0.00095203469027183019 -0.016299985500154435 -0.00095203469027183019 -9999.6718747989944 0.34684761193238955 -0.0042867973823125516 -0.022654705255263252 -0.0042867973823125516 -2499.7608486958288 -0.0071772872734072735 -0.022654705255263252 -0.0071772872734072735 -9999.6569409544136 0.32906163608276984 -0.0033982140784317577 -0.024983716095448472 -0.0033982140784317577 -2499.7623130698739 -0.0016044315525505226 -0.024983716095448472 -0.0016044315525505226 -9999.6902593957711 0.28783562468197488 -0.010171657906677331 0.0083519341296778293 -0.010171657906677331 -2499.7669968626742 0.0006984887077123858 0.0083519341296778293 0.0006984887077123858 -9999.705383209679 0.29452546879929287 0.0035923498954412991 0.0015689835163357202 0.0035923498954412991 -2499.7426445767842 0.024779620587651152 0.0015689835163357202 0.024779620587651152 -9999.6556622964581 0.28053433179593412 -0.0020014394747363239 -0.00079219555300369393 -0.0020014394747363239 -2499.7717142354195 0.0063129178379313089 -0.00079219555300369393 0.0063129178379313089 -9999.6825601159508 0.33744542304066272 -0.0054488604938071807 -0.0098814857065008255 -0.0054488604938071807 -2499.7754653629627 0.0068321428734634537 -0.0098814857065008255 0.0068321428734634537 -9999.6668633694098 0.33033087065632571 -0.0067557596661825745 -0.0097001836766139604 -0.0067557596661825745 -2499.8011714299901 0.0032070537763502216 -0.0097001836766139604 0.0032070537763502216 -9999.6758227004757 0.34326744051941205 -0.0020467194741587078 -0.020817039856410702 -0.0020467194741587078 -2499.7697963443134 -0.0029882128110330086 -0.020817039856410702 -0.0029882128110330086 -9999.6344029291795 0.3331337347990484 -0.0033636424292527549 -0.013159302561689401 -0.0033636424292527549 -2499.7821545183342 -0.026216895144898444 -0.013159302561689401 -0.026216895144898444 -9999.6681444149945 0.32331886079282413 -0.003877247533741579 0.00027903274349228013 -0.003877247533741579 -2499.7864379561533 -0.00065659321626299061 0.00027903274349228013 -0.00065659321626299061 -9999.695737344533 0.3361958167965895 -0.0046902555910335875 -0.0034567263792268932 -0.0046902555910335875 -2499.7949851379403 -0.0019235031541029457 -0.0034567263792268932 -0.0019235031541029457 -9999.6474183228129 0.31458468823802832 -0.0052019712624845763 -0.020532275069854222 -0.0052019712624845763 -2499.7851809018175 3.1652769393986091e-05 -0.020532275069854222 3.1652769393986091e-05 -9999.6983053598669 0.33145171271644358 -0.0024503366098288688 -0.0072497847068007104 -0.0024503366098288688 -2499.77629993556 0.014976963269873522 -0.0072497847068007104 0.014976963269873522 -9999.6649767722884 0.3340796235011112 0.00080860758472865539 -0.0027142039716636646 0.00080860758472865539 -2499.7702321205593 -0.0015387701550935162 -0.0027142039716636646 -0.0015387701550935162 -9999.6484408706146 0.37096189089515974 0.003856557610984922 -0.0023607139664818533 0.003856557610984922 -2499.7552941021586 0.0019595747853600187 -0.0023607139664818533 0.0019595747853600187 -9999.6317906491113 0.33220617146071163 -0.0015215829333710977 -0.011654503565296181 -0.0015215829333710977 -2499.7764723368709 0.002534829945943784 -0.011654503565296181 0.002534829945943784 -9999.676573072149 0.39698690203204023 0.00048359109938630242 -0.0054198978814383736 0.00048359109938630242 -2499.7502627436825 -0.00074045351902896073 -0.0054198978814383736 -0.00074045351902896073 -9999.629076604986 0.35483500284681213 0.0002743936274822639 0.0019326699930388713 0.0002743936274822639 -2499.7595874861181 0.0055417387684428832 0.0019326699930388713 0.0055417387684428832 -9999.6328372969219 0.30499245847749989 0.00069874863841816806 -0.022059382165025454 0.00069874863841816806 -2499.7903619607459 -0.0019614405084666942 -0.022059382165025454 -0.0019614405084666942 -9999.6972575263717 0.39526636602749932 0.00048201374459481972 -0.0041113035003945697 0.00048201374459481972 -2499.7441358653905 -0.0018229905263069668 -0.0041113035003945697 -0.0018229905263069668 -9999.6284751632556 0.33523335300196777 -0.0019011427680861517 -0.013303755953529617 -0.0019011427680861517 -2499.7711425155067 0.0064911867757473374 -0.013303755953529617 0.0064911867757473374 -9999.6686549297156 0.32857625264114176 -0.001373094705276528 -0.0052045260363229318 -0.001373094705276528 -2499.7738595774117 -0.0035107904101323584 -0.0052045260363229318 -0.0035107904101323584 -9999.6536568778938 0.32793049375686678 -0.0033166516204976258 -0.013467830718582263 -0.0033166516204976258 -2499.7801581655731 0.00086746778833912686 -0.013467830718582263 0.00086746778833912686 -9999.6807677826509 0.32696558939642273 -0.0048972029567449131 -0.010621469951729523 -0.0048972029567449131 -2499.7730981962141 0.00047337658361357171 -0.010621469951729523 0.00047337658361357171 -9999.6843095632576 0.39951637019657937 0.001257938964509805 -0.0046377903890970629 0.001257938964509805 -2499.744916966798 -2.5755809474503621e-05 -0.0046377903890970629 -2.5755809474503621e-05 -9999.6270562077116 0.3984553669597517 0.0015835900808220339 -0.0053652402748411987 0.0015835900808220339 -2499.7437856838096 0.001219997982843779 -0.0053652402748411987 0.001219997982843779 -9999.6262328058692 0.3314837839534448 0.00047399165608659754 -0.0033851607013275498 0.00047399165608659754 -2499.7652943138346 0.00097205314523307607 -0.0033851607013275498 0.00097205314523307607 -9999.6453358871368 0.30518587829101307 0.0014234589580328994 -0.020566558228892973 0.0014234589580328994 -2499.783910562217 0.0039236874217749573 -0.020566558228892973 0.0039236874217749573 -9999.6887201388308 0.30379194116176222 0.0014881401956450217 -0.022238158995605772 0.0014881401956450217 -2499.7839520800881 0.0014668066635294963 -0.022238158995605772 0.0014668066635294963 -9999.6929258828313 0.35898038809682475 -0.0047228589517879921 -0.0024458962943754159 -0.0047228589517879921 -2499.7587410427423 0.0013206770377109933 -0.0024458962943754159 0.0013206770377109933 -9999.6319095204308 0.35306743451837974 -0.0010473681006475596 -0.0054133622606968856 -0.0010473681006475596 -2499.7600949351017 0.00065935477687162347 -0.0054133622606968856 0.00065935477687162347 -9999.63247414527 0.29645506639644736 0.0055795312451432759 -0.023415907211528975 0.0055795312451432759 -2499.7875866404829 0.0041842714144877391 -0.023415907211528975 0.0041842714144877391 -9999.6919378757193 0.35539385264564771 -0.0011370465933225606 -0.0040489714984914826 -0.0011370465933225606 -2499.7571026310543 -0.0020586133705364773 -0.0040489714984914826 -0.0020586133705364773 -9999.6257090921717 0.32001175300683826 -0.005808753778768409 -0.027298286264340277 -0.005808753778768409 -2499.7799315464854 0.0028512487078842241 -0.027298286264340277 0.0028512487078842241 -9999.6855926180433 0.32424857183741551 -0.0010209610330292225 -0.023735018124170892 -0.0010209610330292225 -2499.7925438375178 0.0017868582872324623 -0.023735018124170892 0.0017868582872324623 -9999.6863600704382 0.39598119159836642 -0.0029524215194539826 -0.0033666534036456142 -0.0029524215194539826 -2499.7470807432205 0.0047573785541317193 -0.0033666534036456142 0.0047573785541317193 -9999.6286925756012 0.35980553738409071 -0.005455864542388604 -0.0051144819117325824 -0.005455864542388604 -2499.7583642331956 0.0039597739801138232 -0.0051144819117325824 0.0039597739801138232 -9999.6370621790375 0.32475396161316894 0.0042651413189248189 -0.0083743336717816419 0.0042651413189248189 -2499.7795885107353 0.0021860615156583663 -0.0083743336717816419 0.0021860615156583663 -9999.6850493433158 0.33135111595538547 0.0056707572743821709 -0.0029911701038827232 0.0056707572743821709 -2499.7677732309662 0.0052700753421959234 -0.0029911701038827232 0.0052700753421959234 -9999.6455425285822 0.3313495115362457 0.010533635639008575 -0.0058750603177486482 0.010533635639008575 -2499.7629047008732 0.0014917836124368478 -0.0058750603177486482 0.0014917836124368478 -9999.6512777528533 0.3622957617699285 -0.0016876757931213338 -0.0095204714552892256 -0.0016876757931213338 -2499.7476265077621 -0.0042514496799981316 -0.0095204714552892256 -0.0042514496799981316 -9999.6415560505484 0.36190437143704912 0.00053645535074733214 -0.0074502639181446284 0.00053645535074733214 -2499.7551186534229 -0.0041803723152042949 -0.0074502639181446284 -0.0041803723152042949 -9999.6404100440304 0.35371732227739017 0.0067569500113157897 -0.0086223945090750931 0.0067569500113157897 -2499.7661796549983 0.0081062174303951906 -0.0086223945090750931 0.0081062174303951906 -9999.6645013803954 0.3528364566845994 -0.0050134645094862436 -0.0036748370089298987 -0.0050134645094862436 -2499.7529312175957 0.0029139729008704762 -0.0036748370089298987 0.0029139729008704762 -9999.6564837788392 0.36038611211415628 -0.0036360632869296677 -0.0070458457212225767 -0.0036360632869296677 -2499.7582000448815 -0.0011963372598984279 -0.0070458457212225767 -0.0011963372598984279 -9999.6439136201352 0.35273891195272711 -0.0040777075818061691 -0.0087566387883271091 -0.0040777075818061691 -2499.7679426704153 -0.0070203630184551002 -0.0087566387883271091 -0.0070203630184551002 -9999.6647038702631 0.31962769676829339 0.0084138993441830942 -0.011868352032252005 0.0084138993441830942 -2499.7737801163166 -0.0035016000201721909 -0.011868352032252005 -0.0035016000201721909 -9999.6745541034907 0.30390555652547846 0.014964412690780146 0.0082694775646814378 0.014964412690780146 -2499.7747824666953 -0.00016073246661107987 0.0082694775646814378 -0.00016073246661107987 -9999.6725487595759 0.3065163312930963 0.0199934359549696 -0.0025059478879256858 0.0199934359549696 -2499.7784933916264 0.0032485254141647602 -0.0025059478879256858 0.0032485254141647602 -9999.6743531886605 0.33476089113833041 -0.015902976853324896 -0.0013370031456361176 -0.015902976853324896 -2499.7845153543849 0.008452231006231159 -0.0013370031456361176 0.008452231006231159 -9999.6678428116811 0.35581011379622396 0.0051637304016414927 -0.0052333084645397321 0.0051637304016414927 -2499.7486138512804 -0.0036485115269897506 -0.0052333084645397321 -0.0036485115269897506 -9999.6407006426598 0.38137485301501783 0.0027643940275703244 -3.3879041438922286e-07 0.0027643940275703244 -2499.7501101340827 -0.0070383875972765964 -3.3879041438922286e-07 -0.0070383875972765964 -9999.634109590701 0.36503078927125898 -0.0031571743490717841 0.001492593208240578 -0.0031571743490717841 -2499.7612233248001 0.00094825347696314566 0.001492593208240578 0.00094825347696314566 -9999.6429705527335 0.34307941499847061 0.00065918419960505487 -0.011252856615101337 0.00065918419960505487 -2499.77162543651 0.0035025602010136936 -0.011252856615101337 0.0035025602010136936 -9999.6683751225737 0.3557096490112599 -9.0155168731616969e-05 -0.0043785675716208061 -9.0155168731616969e-05 -2499.7563457276829 -0.0062276025155370007 -0.0043785675716208061 -0.0062276025155370007 -9999.6421379326239 0.3308838793218456 -0.011572456575841526 0.0059165524717172957 -0.011572456575841526 -2499.7838946151969 0.0092797487095594988 0.0059165524717172957 0.0092797487095594988 -9999.6712305933725 0.32306661312647122 0.0021910156872772674 0.0071745787408872275 0.0021910156872772674 -2499.7839595453797 0.0027147386226715753 0.0071745787408872275 0.0027147386226715753 -9999.6730583063563 0.26009661463159262 -0.0051939264913943295 0.011918748794414569 -0.0051939264913943295 -2499.7785633961826 0.0063261266514018644 0.011918748794414569 0.0063261266514018644 -9999.6875323201002 0.29055631179289776 0.0011409263541484055 -0.003656524269899819 0.0011409263541484055 -2499.7674700574044 0.0052308232789073372 -0.003656524269899819 0.0052308232789073372 -9999.6671322171205 0.30645977668427804 -0.017000962147152486 -0.010833321743120905 -0.017000962147152486 -2499.7573875804883 0.010842304683137627 -0.010833321743120905 0.010842304683137627 -9999.6568040999009 0.38456980898217807 -0.012883659805161818 0.00043726870899263304 -0.012883659805161818 -2499.7495248387208 -0.0036011867878187331 0.00043726870899263304 -0.0036011867878187331 -9999.6332386537033 0.36034506904434238 -0.00075236944354296204 -0.0086320847913157195 -0.00075236944354296204 -2499.7705392068001 0.0025818945296123275 -0.0086320847913157195 0.0025818945296123275 -9999.6500777974943 0.30612748475323315 -0.01364724816940531 -0.0088039702914102236 -0.01364724816940531 -2499.762707977181 0.0062831202048982959 -0.0088039702914102236 0.0062831202048982959 -9999.6785429955125 0.30021678520643036 -0.0061683622634299343 0.0046617819043603959 -0.0061683622634299343 -2499.7060443628689 -0.029131482593584224 0.0046617819043603959 -0.029131482593584224 -9999.6484722170208 0.33378792614803388 0.0054174756473035005 -0.0078608286962662532 0.0054174756473035005 -2499.8086745355804 -0.0036322760861366987 -0.0078608286962662532 -0.0036322760861366987 -9999.6845979571608 0.27382918777220766 0.0045608026783791611 -0.0041591172557673417 0.0045608026783791611 -2499.7523013242899 -0.0056286883154825773 -0.0041591172557673417 -0.0056286883154825773 -9999.6856928829729 0.31365318604730419 0.0030175943751920009 -0.025535267526720418 0.0030175943751920009 -2499.7645335977177 -0.0017844065368990414 -0.025535267526720418 -0.0017844065368990414 -9999.6934844624484 0.35250866311616846 -0.0023177654730541647 -0.021595889211312169 -0.0023177654730541647 -2499.7584003933953 0.014003540873090969 -0.021595889211312169 0.014003540873090969 -9999.6526782396104 0.28876358985871775 0.012393064954188765 0.013619594461488305 0.012393064954188765 -2499.7520606938724 -0.0079220419866032898 0.013619594461488305 -0.0079220419866032898 -9999.7020916455731 0.32744664404162904 0.008707115204737291 -0.012229643820319325 0.008707115204737291 -2499.786828601822 0.0029542008032876765 -0.012229643820319325 0.0029542008032876765 -9999.6777891774691 0.30332567199184268 -0.0032476190443843159 -0.023135717870900407 -0.0032476190443843159 -2499.7954948848001 0.0028958892798982561 -0.023135717870900407 0.0028958892798982561 -9999.6957993076139 0.31596697271379526 0.0035882383258098935 -0.027840435312100453 0.0035882383258098935 -2499.7778692982956 -0.0038764955861552153 -0.027840435312100453 -0.0038764955861552153 -9999.6819801691163 0.34946378414315404 -0.0015958911448784351 0.0016292071072712133 -0.0015958911448784351 -2499.7743826269289 0.0039752743905410171 0.0016292071072712133 0.0039752743905410171 -9999.645312831206 0.34439148755700444 0.0022843849720597248 -0.0083506769915402401 0.0022843849720597248 -2499.7780210038945 -0.00086102439490787219 -0.0083506769915402401 -0.00086102439490787219 -9999.6752085938133 0.39994213899808528 -0.0027874069710581012 -0.003833388902421575 -0.0027874069710581012 -2499.7421600870184 -0.00075199764887656784 -0.003833388902421575 -0.00075199764887656784 -9999.6231745153127 0.36395367821387481 0.0057756027866725894 -0.0028693875137832947 0.0057756027866725894 -2499.7571659694804 -0.0018293926150363404 -0.0028693875137832947 -0.0018293926150363404 -9999.6329278294106 0.38379570424149279 -0.022596130633055239 -0.0028838755970355123 -0.022596130633055239 -2499.7684062961689 0.010305472464096965 -0.0028838755970355123 0.010305472464096965 -9999.6341412041074 0.37080271420381905 -0.01794657609836034 0.0017982341378228739 -0.01794657609836034 -2499.7742159908757 0.008078639484665473 0.0017982341378228739 0.008078639484665473 -9999.6329721488801 0.39843451166416344 -0.0047984266260537312 -0.0036969518005207647 -0.0047984266260537312 -2499.7474297903336 0.0021874633002880728 -0.0036969518005207647 0.0021874633002880728 -9999.6260654567777 0.33912622708203344 0.002731544522632183 0.0015591313172080845 0.002731544522632183 -2499.8025656745008 0.0030346480780281126 0.0015591313172080845 0.0030346480780281126 -9999.6539975585256 0.37012130798757426 -0.013083981730032654 -0.0013707925463677384 -0.013083981730032654 -2499.7683200169013 -0.01978194438652281 -0.0013707925463677384 -0.01978194438652281 -9999.6477796370255 0.35127458507849951 -0.0040203890433592113 -0.0012941071727254894 -0.0040203890433592113 -2499.7812431280436 -0.02100609618719318 -0.0012941071727254894 -0.02100609618719318 -9999.6549922563136 0.37847686495570088 -0.00075532282886674879 0.00062787452225165907 -0.00075532282886674879 -2499.7503856177418 0.00095169377846104908 0.00062787452225165907 0.00095169377846104908 -9999.621666418825 0.38216698629730672 -0.00089839282552832758 0.00037636182241840288 -0.00089839282552832758 -2499.7383541168456 0.0022778055244998541 0.00037636182241840288 0.0022778055244998541 -9999.6186794895402 0.38022106330754468 0.010081782045392396 0.0034984630801773164 0.010081782045392396 -2499.7399823012893 0.00037947972850815859 0.0034984630801773164 0.00037947972850815859 -9999.6274762357425 0.37708331739304413 -0.0010880197425313688 -0.0003189253529853886 -0.0010880197425313688 -2499.7530117279402 0.0050109864951082272 -0.0003189253529853886 0.0050109864951082272 -9999.6259458339882 0.38823257141848444 -0.0013700522223084599 -0.00064018627745099366 -0.0013700522223084599 -2499.7500307938717 -0.00097344395544496365 -0.00064018627745099366 -0.00097344395544496365 -9999.6219834943731 0.38688622039808251 0.00074168337762135772 0.0016436825171695091 0.00074168337762135772 -2499.7226380264965 0.0054772394669271307 0.0016436825171695091 0.0054772394669271307 -9999.6263989565996 0.39105545010352216 -0.0090029779899832296 0.0050350412420812063 -0.0090029779899832296 -2499.7386948973235 -0.0005936863090028055 0.0050350412420812063 -0.0005936863090028055 -9999.6272939357659 0.39273532592233096 -0.0022812306962935423 -0.00014679439846077003 -0.0022812306962935423 -2499.736892139852 0.0041158889198413817 -0.00014679439846077003 0.0041158889198413817 -9999.6192203957835 0.39482116006183787 -0.0046641943676412126 -0.0014082651230182819 -0.0046641943676412126 -2499.7327096980553 0.0026573229188215919 -0.0014082651230182819 0.0026573229188215919 -9999.6166733366408 0.38835021319391672 -0.0027938705533735501 -0.0018537002270733183 -0.0027938705533735501 -2499.7534803293893 0.0016692600656824652 -0.0018537002270733183 0.0016692600656824652 -9999.6216289586155 0.39704606138730014 -0.006364062629598502 0.0017158969385491218 -0.006364062629598502 -2499.7200088550526 0.0084360311284399359 0.0017158969385491218 0.0084360311284399359 -9999.6261393599416 0.39425478019984439 -0.0016575205985338388 -0.0005928342662855357 -0.0016575205985338388 -2499.7265282937187 0.0075172413744439837 -0.0005928342662855357 0.0075172413744439837 -9999.6248557253712 0.37890743341631605 0.00045315536918349812 0.001755683486834414 0.00045315536918349812 -2499.7550792798811 -0.0017942133745236788 0.001755683486834414 -0.0017942133745236788 -9999.6258741713718 0.37686004947317997 0.00077955421360086118 0.00082644442386481387 0.00077955421360086118 -2499.7590182596396 0.0022467921025963733 0.00082644442386481387 0.0022467921025963733 -9999.6298978175837 0.37331108891703479 -0.0032325939605424361 -0.0021094153707963414 -0.0032325939605424361 -2499.7629170745695 -0.003953166884912207 -0.0021094153707963414 -0.003953166884912207 -9999.6269643071937 0.38490143546096078 -0.00053688527510022815 0.0010354136275054771 -0.00053688527510022815 -2499.7227967197132 -0.029852883792045759 0.0010354136275054771 -0.029852883792045759 -9999.6182154830913 0.37305788967569242 0.0017582491322577628 -0.00068823275353224744 0.0017582491322577628 -2499.7698810987131 -0.0043104136484544142 -0.00068823275353224744 -0.0043104136484544142 -9999.6285686534866 0.37577182473796711 0.0033567161280479985 0.0015395579612231813 0.0033567161280479985 -2499.7603825826973 0.0036676231502497103 0.0015395579612231813 0.0036676231502497103 -9999.6289216435034 0.37043536831970414 0.0026830879915978635 0.0015387088742500055 0.0026830879915978635 -2499.7632491624854 -0.0097518519071400078 0.0015387088742500055 -0.0097518519071400078 -9999.6377164533878 0.37239666287678119 0.0092237301426349779 0.0020282701469795938 0.0092237301426349779 -2499.7594621046865 -0.0092813068804389331 0.0020282701469795938 -0.0092813068804389331 -9999.6397389471749 0.37421366504895559 -0.0010197728817120943 -0.0018939548590424238 -0.0010197728817120943 -2499.7624570080179 -0.00079955556111599435 -0.0018939548590424238 -0.00079955556111599435 -9999.6316323215069 0.37330845022734138 0.0091146918871536607 0.000879311042297104 0.0091146918871536607 -2499.7585009613504 -0.0062472035742757726 0.000879311042297104 -0.0062472035742757726 -9999.6373799644389 0.39086519586999202 0.010476890956607518 -0.0001640468069012968 0.010476890956607518 -2499.7104899529713 -0.025637974265919183 -0.0001640468069012968 -0.025637974265919183 -9999.6154480813493 0.37977229490570608 0.0018829176132291736 -0.001997716868572752 0.0018829176132291736 -2499.7504177507508 -0.014753719005966559 -0.001997716868572752 -0.014753719005966559 -9999.6201723689119 0.37330777468559972 0.016631542153795309 0.0022237644225242548 0.016631542153795309 -2499.7593932170166 -0.022896829127603269 0.0022237644225242548 -0.022896829127603269 -9999.6289721828725 0.37785838399759086 -0.0011038867278019525 -0.00031283502812584629 -0.0011038867278019525 -2499.7477897583722 -0.00049224323083763011 -0.00031283502812584629 -0.00049224323083763011 -9999.6231826262374 0.38394518617678841 -0.0031801686163558901 0.0025856999789084512 -0.0031801686163558901 -2499.7484164229372 -0.0037777924026158871 0.0025856999789084512 -0.0037777924026158871 -9999.6225774153318 0.3756063699487413 -0.0023653084338933097 -0.0037718743351433659 -0.0023653084338933097 -2499.7548670105193 0.00056636394492670661 -0.0037718743351433659 0.00056636394492670661 -9999.6397515652334 0.38132899695392553 -0.00057872507314022346 -0.0002715861508022499 -0.00057872507314022346 -2499.7474733394711 -0.001595771038410021 -0.0002715861508022499 -0.001595771038410021 -9999.6304360574759 0.37927611527265981 -0.00057252057101866982 4.7005943997646682e-05 -0.00057252057101866982 -2499.740224210529 -0.0043041893434292433 4.7005943997646682e-05 -0.0043041893434292433 -9999.6275439646197 0.37823946254479779 -0.0017727537981893603 -0.0004460665722945123 -0.0017727537981893603 -2499.7471273610699 -0.00083030432870145887 -0.0004460665722945123 -0.00083030432870145887 -9999.6246861719883 0.38227261802876455 -0.0018240673139496037 0.00083778255429933779 -0.0018240673139496037 -2499.742216893058 0.0018249180457132752 0.00083778255429933779 0.0018249180457132752 -9999.6206839099668 0.38047199335960613 -0.00053245285872819108 -6.7821310949511826e-06 -0.00053245285872819108 -2499.7481172637326 0.0043715557285395334 -6.7821310949511826e-06 0.0043715557285395334 -9999.6249050875795 0.38823247032360086 0.00011848266234568486 -0.0028158550594525877 0.00011848266234568486 -2499.7484475286064 0.0017290153700741939 -0.0028158550594525877 0.0017290153700741939 -9999.6253759616084 0.37688454539556915 -0.0024513735461472938 -0.00046909129559935536 -0.0024513735461472938 -2499.7550975891268 -0.0034804830738721648 -0.00046909129559935536 -0.0034804830738721648 -9999.6281546666469 0.38100729619145568 -0.00052055076038491979 0.0024115115720633185 -0.00052055076038491979 -2499.7476545452332 0.0016653246802889043 0.0024115115720633185 0.0016653246802889043 -9999.6233281069544 0.387350145128039 -0.0060902546739340195 -0.0029002222217968665 -0.0060902546739340195 -2499.7516518969333 -0.00045518000388256041 -0.0029002222217968665 -0.00045518000388256041 -9999.626495037759 0.39061867932105088 -0.0020461276240820482 -0.0010389460003352724 -0.0020461276240820482 -2499.7423211879232 -0.00033243108555325307 -0.0010389460003352724 -0.00033243108555325307 -9999.6222306314376 0.3888294991265866 -0.0010199446591561056 0.0012716228291083098 -0.0010199446591561056 -2499.7451737442561 0.0019759245606110198 0.0012716228291083098 0.0019759245606110198 -9999.6209018795598 0.39429704992835468 -0.0016647780957977018 0.00073368467201362364 -0.0016647780957977018 -2499.7270502727351 0.0032031996597652324 0.00073368467201362364 0.0032031996597652324 -9999.6164253619645 0.3902185631050088 -0.0009384553309457512 0.001368550285405945 -0.0009384553309457512 -2499.7398124613555 0.0016640215126244584 0.001368550285405945 0.0016640215126244584 -9999.6206703899734 0.39161922073617461 -0.00063522011344297477 -0.00045251005576574244 -0.00063522011344297477 -2499.7399011895832 0.0024678253994352417 -0.00045251005576574244 0.0024678253994352417 -9999.6196940185109 0.37946481962626422 0.0025771296635685058 0.0036427274117158959 0.0025771296635685058 -2499.7502471223097 -0.00039083935917005874 0.0036427274117158959 -0.00039083935917005874 -9999.6222945816771 0.38746883753697148 -0.0013584737628427887 0.0021309017702151323 -0.0013584737628427887 -2499.7418945266772 0.00029262927637319081 0.0021309017702151323 0.00029262927637319081 -9999.6224476996213 0.37995705793127854 -0.003495841099820006 0.0035918220819439739 -0.003495841099820006 -2499.7462196132228 0.002503694842744153 0.0035918220819439739 0.002503694842744153 -9999.6212223794646 0.38168980459704471 -0.0012494864362727117 0.0031177568757811969 -0.0012494864362727117 -2499.7425451604049 0.00047374743371619843 0.0031177568757811969 0.00047374743371619843 -9999.6193108544121 0.37715404095797567 -0.0020671693960833126 0.0043460519609652692 -0.0020671693960833126 -2499.74854695666 0.0016831703887874028 0.0043460519609652692 0.0016831703887874028 -9999.62299468536 0.38081170555096833 -0.00056816381844187937 0.0028794980225939071 -0.00056816381844187937 -2499.744425457769 0.00078025449693086557 0.0028794980225939071 0.00078025449693086557 -9999.6200798466052 0.38740831138056819 -0.0015333779506872865 0.0030848785063426476 -0.0015333779506872865 -2499.7410690845936 0.0022214367281776504 0.0030848785063426476 0.0022214367281776504 -9999.6218801851937 0.38669893645510456 -0.00029660913166254521 0.0022179754760145443 -0.00029660913166254521 -2499.7399353747824 0.0012380947919155005 0.0022179754760145443 0.0012380947919155005 -9999.6172778275195 0.384074913376935 0.001020666385349674 0.0029016206244705245 0.001020666385349674 -2499.7425297803193 0.00045201491047919262 0.0029016206244705245 0.00045201491047919262 -9999.6190425365276 0.3844863928079576 0.0062509269260380834 0.0045558812416857108 0.0062509269260380834 -2499.7395766394457 0.0012348314096470858 0.0045558812416857108 0.0012348314096470858 -9999.6178749263599 0.37881263025155931 -0.001832538124412782 0.0045752319424536836 -0.001832538124412782 -2499.744834191657 -0.0018725893478404032 0.0045752319424536836 -0.0018725893478404032 -9999.6169298075656 0.37736956574894975 -0.0012780850803837569 0.0027101144778498565 -0.0012780850803837569 -2499.7474021213648 -0.00082739892877725651 0.0027101144778498565 -0.00082739892877725651 -9999.6249141594617 0.37581485817781868 -0.0011682743902344771 0.0023825508569643716 -0.0011682743902344771 -2499.7449270712409 2.1268374439387117e-07 0.0023825508569643716 2.1268374439387117e-07 -9999.6204339576216 0.37884203988687659 -0.00129090065226493 0.0041643208660389064 -0.00129090065226493 -2499.7455651956998 -0.0014804513866693014 0.0041643208660389064 -0.0014804513866693014 -9999.6175080192497 0.37897953979086196 -0.00075182881934643603 0.002530869462134433 -0.00075182881934643603 -2499.7472670105044 -0.00092562935424211901 0.002530869462134433 -0.00092562935424211901 -9999.6244441670551 0.37840134840553219 -0.0009797067109284744 0.0035358928280402324 -0.0009797067109284744 -2499.7476014542935 -0.00050806472609110642 0.0035358928280402324 -0.00050806472609110642 -9999.6229671001056 0.37516619921734673 -0.016918947708620506 0.002250064810141339 -0.016918947708620506 -2499.7446399854271 -0.022562433365692414 0.002250064810141339 -0.022562433365692414 -9999.6255634265617 0.38189325177336286 -0.024122060573910094 4.4770838940166868e-05 -0.024122060573910094 -2499.7323330690178 -0.011298297234134225 4.4770838940166868e-05 -0.011298297234134225 -9999.6145947181794 0.371452473120371 0.0020460046212439804 0.0051400686334091006 0.0020460046212439804 -2499.7703025946848 -0.0032817424771565129 0.0051400686334091006 -0.0032817424771565129 -9999.6293270484312 0.38127396832192062 -0.001588012775777331 0.0020749253017129377 -0.001588012775777331 -2499.7338937863333 -0.0099152307396934702 0.0020749253017129377 -0.0099152307396934702 -9999.6148164967435 0.37986502459671101 -0.0015201481635671893 0.0022223186015963847 -0.0015201481635671893 -2499.7294749290563 -0.0017264803827856667 0.0022223186015963847 -0.0017264803827856667 -9999.6196756175887 0.37850828056616592 -0.0061033371840310477 0.0030191176410880871 -0.0061033371840310477 -2499.7566039361336 0.010055392095637217 0.0030191176410880871 0.010055392095637217 -9999.6174699711773 0.38520077574139577 -0.00098667180074869104 -0.0010432129231503495 -0.00098667180074869104 -2499.7268837498323 -0.0016713403056201059 -0.0010432129231503495 -0.0016713403056201059 -9999.6055883711924 0.38185237941615924 0.012346348085525857 -0.0011868779311043909 0.012346348085525857 -2499.7344596890925 -0.0081935213293036213 -0.0011868779311043909 -0.0081935213293036213 -9999.6168106175792 0.37688932591481716 -0.0089967906765791306 -0.0012559310389406164 -0.0089967906765791306 -2499.743119138695 -0.0019717454831607029 -0.0012559310389406164 -0.0019717454831607029 -9999.6117360574353 0.37655802899462287 -0.018799857946431082 -0.00018943151189887431 -0.018799857946431082 -2499.7487327892595 -0.021565643315852867 -0.00018943151189887431 -0.021565643315852867 -9999.6186707523811 0.3795204425969132 -0.0055745477109918895 0.0017038522382790688 -0.0055745477109918895 -2499.7603066197535 0.0068759164511220661 0.0017038522382790688 0.0068759164511220661 -9999.6285658503293 0.3841891819911325 0.00037427580427701682 0.0044954196328035323 0.00037427580427701682 -2499.736843970989 0.0019104149532722658 0.0044954196328035323 0.0019104149532722658 -9999.6146650477567 0.3842398240667535 -0.00071619794807585742 0.0037541693664024933 -0.00071619794807585742 -2499.7354663844235 -0.0076290916949801613 0.0037541693664024933 -0.0076290916949801613 -9999.6149998306573 0.38228546483804848 -0.0047529002399240433 0.00035230487083026674 -0.0047529002399240433 -2499.7553256991932 0.0016439081529142641 0.00035230487083026674 0.0016439081529142641 -9999.6237667442565 0.36886264439817751 -0.00032408004464166626 0.0047247246529877884 -0.00032408004464166626 -2499.7832603050265 0.0043780341657111421 0.0047247246529877884 0.0043780341657111421 -9999.6298895995351 0.39021275779850839 -0.0070030946071173023 0.00011973448999924585 -0.0070030946071173023 -2499.720444693321 0.0091747542010125471 0.00011973448999924585 0.0091747542010125471 -9999.6278164469077 0.39053234032326145 0.00015922504763869749 0.0023387194050883409 0.00015922504763869749 -2499.706561680694 0.0062843240557413083 0.0023387194050883409 0.0062843240557413083 -9999.6261063849961 0.38482791452543097 0.001981299723937912 0.0021991453984355758 0.001981299723937912 -2499.7356774101195 0.00076849139986734372 0.0021991453984355758 0.00076849139986734372 -9999.619219505279 0.38571883939403051 0.0015616317287323531 0.002001084267249098 0.0015616317287323531 -2499.7319855358473 0.0028413904874469154 0.002001084267249098 0.0028413904874469154 -9999.6196352330717 0.39514128515656921 0.012297163232532285 -0.0014869867336528841 0.012297163232532285 -2499.7220452150123 0.00071178185862663668 -0.0014869867336528841 0.00071178185862663668 -9999.6261912841728 0.37377792205370497 0.016316606294298156 -0.0010117712640749232 0.016316606294298156 -2499.7645612483175 -0.013962295519377221 -0.0010117712640749232 -0.013962295519377221 -9999.6249492835777 0.37637500496748544 0.017687439681665622 0.0022054185346860322 0.017687439681665622 -2499.765185769551 -0.0068163789946993347 0.0022054185346860322 -0.0068163789946993347 -9999.6207060997986 0.38615972443949431 0.018272752737606143 -0.004180978159638471 0.018272752737606143 -2499.7108890591189 0.0060999784764135256 -0.004180978159638471 0.0060999784764135256 -9999.625392883594 0.38907970050968288 0.0040219377916141802 -0.0065397203543398064 0.0040219377916141802 -2499.7364390284765 0.011750074712836067 -0.0065397203543398064 0.011750074712836067 -9999.6303034190569 0.39177281860611401 0.0043781756574133891 -3.2393425499321893e-05 0.0043781756574133891 -2499.7457653345682 0.0046511434666172136 -3.2393425499321893e-05 0.0046511434666172136 -9999.6141752991971 0.38402933907855186 0.0033603965443937652 -0.0014589310148949153 0.0033603965443937652 -2499.7744733737582 0.004530627726126113 -0.0014589310148949153 0.004530627726126113 -9999.6197008046947 0.38057772346110141 0.00017635802115746786 0.00025512673073535552 0.00017635802115746786 -2499.7549460039463 -0.0029231158187030815 0.00025512673073535552 -0.0029231158187030815 -9999.6186522329008 0.38050783827020496 -0.00047171696067535226 0.00036657010059570894 -0.00047171696067535226 -2499.7528179479541 -0.0036309324841568014 0.00036657010059570894 -0.0036309324841568014 -9999.6177780694779 0.38495487928958028 -0.0009111139627147307 0.002152344392015948 -0.0009111139627147307 -2499.7488130720631 0.0039646138247917406 0.002152344392015948 0.0039646138247917406 -9999.6155158850524 0.37308624751176467 -0.0021652324316972782 0.00039432795892935246 -0.0021652324316972782 -2499.7798434290976 0.0041442452588853484 0.00039432795892935246 0.0041442452588853484 -9999.6229140852811 0.38003718025902344 0.0012554270038316797 0.00016237040472333319 0.0012554270038316797 -2499.7556185638568 0.0025340517386212014 0.00016237040472333319 0.0025340517386212014 -9999.6201446054729 0.38124073653852975 0.0015536161479196425 0.0013569280454248656 0.0015536161479196425 -2499.75497736139 0.0046620603097835556 0.0013569280454248656 0.0046620603097835556 -9999.6176998627816 0.38815460369823995 -0.0021258706525002433 0.003795190115852165 -0.0021258706525002433 -2499.7301283455263 0.00097967560213874094 0.003795190115852165 0.00097967560213874094 -9999.6161752596163 0.37846648698177887 -0.011189184937583821 0.0040384655058005592 -0.011189184937583821 -2499.7564169826528 0.0095232111962104682 0.0040384655058005592 0.0095232111962104682 -9999.6248238189582 0.37935601524714002 -0.0020723975063848404 -0.0030730830549146049 -0.0020723975063848404 -2499.7328310371349 0.013759871259026113 -0.0030730830549146049 0.013759871259026113 -9999.633694545435 0.37924607543754973 -0.016591174422107086 -0.00020128294090682175 -0.016591174422107086 -2499.7433028049363 0.0075956650198349962 -0.00020128294090682175 0.0075956650198349962 -9999.6309931171127 0.37393127120594727 -0.0051058331278455854 0.00071766128212402691 -0.0051058331278455854 -2499.7734895758222 -0.015413657295084704 0.00071766128212402691 -0.015413657295084704 -9999.6268187733294 0.37749488456029212 -0.00054847924314976176 -0.0016678865395078901 -0.00054847924314976176 -2499.7519324771347 -0.0024469497820973629 -0.0016678865395078901 -0.0024469497820973629 -9999.6193969596279 0.37470317498627992 -0.0076748031107051057 -0.0010938046834780835 -0.0076748031107051057 -2499.7642618886184 -0.013936736565483443 -0.0010938046834780835 -0.013936736565483443 -9999.6246642367551 0.38085387895807798 -0.0067556569795641785 -0.0025058996143343393 -0.0067556569795641785 -2499.7393311481719 -0.011175122779604862 -0.0025058996143343393 -0.011175122779604862 -9999.6185653293796 0.38001958344102604 0.0022774314735417231 0.0029655959879164584 0.0022774314735417231 -2499.7481451416925 -0.0020369963749544695 0.0029655959879164584 -0.0020369963749544695 -9999.621694251995 0.38490859134981292 -0.011879391495942984 -0.0020924573200318264 -0.011879391495942984 -2499.725772803271 -0.0029318357564989128 -0.0020924573200318264 -0.0029318357564989128 -9999.6158937570945 0.38549203299771762 0.023625570969246779 -0.0018045702563540544 0.023625570969246779 -2499.7227148441598 0.010216185956778645 -0.0018045702563540544 0.010216185956778645 -9999.6213022841403 0.37170611885630933 -0.001939986856531066 0.0014161197123030433 -0.001939986856531066 -2499.7564549163944 -0.0039231911177921575 0.0014161197123030433 -0.0039231911177921575 -9999.6261823262721 0.37699865730837701 -0.00036483432249104913 0.0026947009537252598 -0.00036483432249104913 -2499.7539945951589 -0.0035778357246272208 0.0026947009537252598 -0.0035778357246272208 -9999.6239234053028 0.37546328450275723 0.011518880859012273 -0.00052978114399593323 0.011518880859012273 -2499.7562455508632 -0.0075638130874722265 -0.00052978114399593323 -0.0075638130874722265 -9999.6222775380156 0.38130212562646193 0.013133827184794021 -0.00090963962247769814 0.013133827184794021 -2499.7370671025801 -0.00722475814018253 -0.00090963962247769814 -0.00722475814018253 -9999.6163137631447 0.37561077821180788 -0.0030709347506980567 0.0013086632607155479 -0.0030709347506980567 -2499.7485166539664 -0.0077970802358322544 0.0013086632607155479 -0.0077970802358322544 -9999.6202155145093 0.3842787418361695 -0.010212829214378744 -0.001658034571846656 -0.010212829214378744 -2499.7234575795192 -0.005001360535970889 -0.001658034571846656 -0.005001360535970889 -9999.6072540773821 0.38500397992038415 -0.011616492139964671 -0.001709817877781461 -0.011616492139964671 -2499.7226208407224 -0.0051628495293698506 -0.001709817877781461 -0.0051628495293698506 -9999.6119073781701 0.37444906499695207 -0.0020624966368725933 0.00059296394897501159 -0.0020624966368725933 -2499.7498117281029 -0.0061687057132076006 0.00059296394897501159 -0.0061687057132076006 -9999.6252781936964 0.37654581213610072 -0.0019964190069671397 0.0010250991472275928 -0.0019964190069671397 -2499.742262338501 -0.0040926409692474408 0.0010250991472275928 -0.0040926409692474408 -9999.6222618918691 0.37742584781426558 -0.00019139091485493968 0.0024297034342453117 -0.00019139091485493968 -2499.7472347688426 -0.0016105959239212098 0.0024297034342453117 -0.0016105959239212098 -9999.6219537862307 0.3762527997532743 -0.0015559801892442056 0.0044764337480955874 -0.0015559801892442056 -2499.746827271676 -0.0019401029312575702 0.0044764337480955874 -0.0019401029312575702 -9999.6226452373521 0.38337730870262021 -0.00047657261258877114 0.00023001927365839947 -0.00047657261258877114 -2499.7461696840801 -0.0017653904815233545 0.00023001927365839947 -0.0017653904815233545 -9999.6162278385673 0.37738089139475051 5.5658367173227635e-05 0.0031016707989692804 5.5658367173227635e-05 -2499.7476132075053 -0.00091973337839590386 0.0031016707989692804 -0.00091973337839590386 -9999.6185362389897 0.37670937997245346 0.0020596563384884595 0.0020260406611214421 0.0020596563384884595 -2499.750860512293 -0.0031035988977237139 0.0020260406611214421 -0.0031035988977237139 -9999.6201271479149 0.38212939014010772 0.00013520885614153391 0.00071052254497772083 0.00013520885614153391 -2499.7451259422705 -0.0015858031238167314 0.00071052254497772083 -0.0015858031238167314 -9999.6173903330346 0.37958174642517406 -0.0013365296162988075 0.00037253868231346132 -0.0013365296162988075 -2499.7483916025758 -0.0017270682910748292 0.00037253868231346132 -0.0017270682910748292 -9999.6175151894677 0.37806458195518644 0.00077040122005555579 0.0029367717415880179 0.00077040122005555579 -2499.7437150697788 -0.00056208634578069905 0.0029367717415880179 -0.00056208634578069905 -9999.6203422925901 0.3760064162852359 -0.00051977065297266988 0.0023484347357225488 -0.00051977065297266988 -2499.7468292577005 -0.0018423132369207451 0.0023484347357225488 -0.0018423132369207451 -9999.6189970070882 0.38371605034990353 -0.0001330354495164811 0.0019784723596387721 -0.0001330354495164811 -2499.7277905172668 0.0046514165478583891 0.0019784723596387721 0.0046514165478583891 -9999.6080488832959 0.37465074697024647 0.00069904321037234942 0.00083372443623375148 0.00069904321037234942 -2499.7480621174136 -0.0012150050333730178 0.00083372443623375148 -0.0012150050333730178 -9999.6173959325424 0.38185044718375138 0.00062700238832722344 0.00067035751362709561 0.00062700238832722344 -2499.7461160474049 -0.0024944673405116191 0.00067035751362709561 -0.0024944673405116191 -9999.6175199873469 0.38135754728500615 0.00022824397331455432 0.0022276607433013851 0.00022824397331455432 -2499.7502175345289 0.00024791239934529585 0.0022276607433013851 0.00024791239934529585 -9999.6208442151619 0.37834030276462727 0.00022555099566478129 0.0036313674918346805 0.00022555099566478129 -2499.7501434109381 -0.0027240645013080211 0.0036313674918346805 -0.0027240645013080211 -9999.6212010449381 0.38173693089629523 0.00043151705367006424 0.0021103231083543506 0.00043151705367006424 -2499.7504147695472 0.00042401776863698615 0.0021103231083543506 0.00042401776863698615 -9999.6209794437236 0.3813708008856338 5.5567549441331481e-05 0.0006497298654721817 5.5567549441331481e-05 -2499.7476531730608 -0.0011464959588920465 0.0006497298654721817 -0.0011464959588920465 -9999.6179028013066 0.38098425693715399 -0.00014438997633471807 0.00074500551818346139 -0.00014438997633471807 -2499.7493359546334 -0.0013887984041502932 0.00074500551818346139 -0.0013887984041502932 -9999.6177668934324 0.38581388531747507 0.0012566456704339452 0.0019865927752107382 0.0012566456704339452 -2499.7489224246965 0.00051462576720950892 0.0019865927752107382 0.00051462576720950892 -9999.6197561266963 0.38176310592552909 0.00025658438581884011 0.00047120430008362746 0.00025658438581884011 -2499.7490805129446 -0.0013656845367222559 0.00047120430008362746 -0.0013656845367222559 -9999.6175544571997 0.38296852333223796 -0.00064385868900743506 0.00048578651512798388 -0.00064385868900743506 -2499.7465154277088 -0.0015255497810358065 0.00048578651512798388 -0.0015255497810358065 -9999.6175169226044 0.38610707379302767 0.0014398393437066151 0.0020683227903646184 0.0014398393437066151 -2499.7476211886296 0.00022942653595237061 0.0020683227903646184 0.00022942653595237061 -9999.6194374971601 0.38144498635665514 0.00036865421015983073 0.0019932195473302272 0.00036865421015983073 -2499.749315966239 4.6084434870863333e-05 0.0019932195473302272 4.6084434870863333e-05 -9999.620899655034 0.390115046135179 0.0034506051137249867 0.0025911053016898222 0.0034506051137249867 -2499.7378607318515 0.0032260286841392372 0.0025911053016898222 0.0032260286841392372 -9999.6147666957258 0.38367463582653727 -0.0010717902710062534 0.00087529996017110534 -0.0010717902710062534 -2499.7504144599225 0.0019710248052433599 0.00087529996017110534 0.0019710248052433599 -9999.6187861818798 0.38596007928572362 0.00045036213150559737 0.00090268857456976548 0.00045036213150559737 -2499.7490272365831 0.00014104090928412916 0.00090268857456976548 0.00014104090928412916 -9999.6207561760384 0.38690957608923782 0.00058755894466507551 -0.00013841919462720398 0.00058755894466507551 -2499.7485399640627 0.0017366390857205261 -0.00013841919462720398 0.0017366390857205261 -9999.6174462604322 0.38581700732356694 0.00047722471231542924 0.00069257625182217453 0.00047722471231542924 -2499.7481903097778 7.8730965469731018e-05 0.00069257625182217453 7.8730965469731018e-05 -9999.6207680745392 0.38535070067882771 0.00022647728724176883 0.00084878505367669277 0.00022647728724176883 -2499.7484313375244 0.00013573484466178343 0.00084878505367669277 0.00013573484466178343 -9999.6210040136102 0.38560813136245997 0.0001527903666839983 0.0007449427321262192 0.0001527903666839983 -2499.7479173220763 0.00040810014252201654 0.0007449427321262192 0.00040810014252201654 -9999.6204901530546 0.38672008725188789 -0.00023516383148794323 0.0016229188931902172 -0.00023516383148794323 -2499.7483609840583 -0.000480250186228659 0.0016229188931902172 -0.000480250186228659 -9999.6191818179723 0.38026975974889865 0.00040082663689265685 0.0030220967584000391 0.00040082663689265685 -2499.7532708959011 0.00018760493549052626 0.0030220967584000391 0.00018760493549052626 -9999.6211102311445 0.38226535315698129 -0.00020487316566214671 0.0029857308963983087 -0.00020487316566214671 -2499.7470780468739 0.0003612559121393133 0.0029857308963983087 0.0003612559121393133 -9999.6190550898646 0.3810996366028121 5.8198594463837721e-05 0.00063857496206765063 5.8198594463837721e-05 -2499.7482009172618 -0.00058191634980175877 0.00063857496206765063 -0.00058191634980175877 -9999.6184397777179 0.38149585585051682 -3.0001081879557397e-05 0.0019963341055699857 -3.0001081879557397e-05 -2499.7489757337898 0.00023490615149057703 0.0019963341055699857 0.00023490615149057703 -9999.6207925968774 0.38786206901932019 0.00043279661241410819 0.0013966556107334327 0.00043279661241410819 -2499.7478169596907 -0.00043799512059194967 0.0013966556107334327 -0.00043799512059194967 -9999.6188369832926 0.38675925712595927 -0.0028977128330650772 0.0010543181670072954 -0.0028977128330650772 -2499.7484722459412 -0.0012524238703690571 0.0010543181670072954 -0.0012524238703690571 -9999.6200651581912 0.38205617706080375 2.5087120143525857e-05 0.0029068268358969362 2.5087120143525857e-05 -2499.7498525705305 -0.0006876129555166699 0.0029068268358969362 -0.0006876129555166699 -9999.6204487929208 0.38963649905690545 -0.0047657700325586839 0.0018303982215002179 -0.0047657700325586839 -2499.7396635283067 -0.001481048617279157 0.0018303982215002179 -0.001481048617279157 -9999.6178012808286 0.38998589524726412 -0.00094328366406216425 0.0018619321272126399 -0.00094328366406216425 -2499.7397939133853 0.00035906609991798177 0.0018619321272126399 0.00035906609991798177 -9999.6166584974853 0.37736485595496561 -0.0027147449421784375 0.0027180391844012775 -0.0027147449421784375 -2499.7444753540581 0.00020642774438783817 0.0027180391844012775 0.00020642774438783817 -9999.6227513534122 0.37981337092332979 -0.0016036725251535235 0.0029609639857426373 -0.0016036725251535235 -2499.7473908278043 -0.0012680541622103192 0.0029609639857426373 -0.0012680541622103192 -9999.6222557138753 0.38871713759635895 -0.0023335309032565914 0.0003137286112178117 -0.0023335309032565914 -2499.7403451696982 -0.001459812730900012 0.0003137286112178117 -0.001459812730900012 -9999.6180829710556 0.38250971138040768 -0.00011324669431874226 0.0012784761765942676 -0.00011324669431874226 -2499.7412705855695 -0.0011990408238489181 0.0012784761765942676 -0.0011990408238489181 -9999.6197740738644 0.38483291480315529 -0.0041437540314027965 0.0016335215786966728 -0.0041437540314027965 -2499.7428239883293 -8.3394336797937285e-05 0.0016335215786966728 -8.3394336797937285e-05 -9999.6206249198985 0.38520609549868823 -0.002124378802449256 0.0018685980257941992 -0.002124378802449256 -2499.7484697701411 -0.001277218725590501 0.0018685980257941992 -0.001277218725590501 -9999.6208371837456 0.38806753993503662 -0.0017565610550363889 0.002534246808863827 -0.0017565610550363889 -2499.7399382499048 -0.00033603579504415393 0.002534246808863827 -0.00033603579504415393 -9999.6221259880222 0.37900366132362251 -0.0015414235636662091 0.0026562832435956807 -0.0015414235636662091 -2499.7480423315455 -0.0010818601076607592 0.0026562832435956807 -0.0010818601076607592 -9999.624572288536 0.37784737910214972 -0.0027064322920845423 0.0026877225272983196 -0.0027064322920845423 -2499.750587734869 -0.0033375114207956358 0.0026877225272983196 -0.0033375114207956358 -9999.6195293311976 0.37859605884481518 -0.0021594106453422628 0.0014299990180006716 -0.0021594106453422628 -2499.7451156626648 -0.0014702611702404056 0.0014299990180006716 -0.0014702611702404056 -9999.6250447824623 0.37941962871627766 -0.0018820923189405885 0.0042504858520260314 -0.0018820923189405885 -2499.7453551593462 -0.00034056671620419365 0.0042504858520260314 -0.00034056671620419365 -9999.6145105577525 0.37776460274358215 -0.0012910913078793655 0.0016248563042609021 -0.0012910913078793655 -2499.748283486254 -0.00023074046319493391 0.0016248563042609021 -0.00023074046319493391 -9999.6252250765338 0.3783241978701426 -0.0021731444020129669 0.0040909513669475928 -0.0021731444020129669 -2499.7465915026096 -0.001620222419660422 0.0040909513669475928 -0.001620222419660422 -9999.6179158937339 0.37652947487811161 -0.00098996867634464341 0.0023483627934410833 -0.00098996867634464341 -2499.7454704299062 -0.0021842923670192249 0.0023483627934410833 -0.0021842923670192249 -9999.6185840447542 0.37428769189585864 0.00030829692856975191 0.0011937036442759563 0.00030829692856975191 -2499.7525281248318 -0.0045976579922353267 0.0011937036442759563 -0.0045976579922353267 -9999.6186456669875 0.37792625011206837 0.0028415624016254028 0.005611159684121958 0.0028415624016254028 -2499.7456527788636 -0.0024261870312329847 0.005611159684121958 -0.0024261870312329847 -9999.6183741233835 0.38138565855933848 0.00041399693681050745 0.00093075572294765152 0.00041399693681050745 -2499.7440833067567 -0.0021169829815335106 0.00093075572294765152 -0.0021169829815335106 -9999.6169831333427 0.37719243527226354 0.0005552700991373824 0.0030096974878688343 0.0005552700991373824 -2499.7522659914821 -0.0047609501743863802 0.0030096974878688343 -0.0047609501743863802 -9999.6204505665883 0.38255854816316059 7.4809242927680042e-06 0.00084580502652897849 7.4809242927680042e-06 -2499.7436098801368 -0.0020588090046658181 0.00084580502652897849 -0.0020588090046658181 -9999.6171919159224 0.3803986016619092 0.002305899443513287 0.0026361405280113104 0.002305899443513287 -2499.7421940479462 -0.0050967639999726089 0.0026361405280113104 -0.0050967639999726089 -9999.6195977031821 0.37967368696263293 0.00022016778117996474 0.00082489795840956504 0.00022016778117996474 -2499.7479467016892 0.0001173578830275801 0.00082489795840956504 0.0001173578830275801 -9999.6209378065396 0.38504503981943117 -7.7362865252609235e-05 0.00084263076979596008 -7.7362865252609235e-05 -2499.7317856574164 0.0012266888952581212 0.00084263076979596008 0.0012266888952581212 -9999.6155236291997 0.37419139724079287 -0.0002353569097480919 0.00077829565179854399 -0.0002353569097480919 -2499.7493506765823 -0.0042333666542617721 0.00077829565179854399 -0.0042333666542617721 -9999.6179497861158 0.38117497029452352 -0.00058524869378753439 0.0011678647342705517 -0.00058524869378753439 -2499.746201298467 -0.00029560535404016264 0.0011678647342705517 -0.00029560535404016264 -9999.6201385786044 0.38519604917985362 0.0049892235267765123 -0.00031280009261536179 0.0049892235267765123 -2499.7219330271378 -0.0088089297023543622 -0.00031280009261536179 -0.0088089297023543622 -9999.6076783061162 0.37546893320904928 0.0043455957883226882 0.0021080419985537446 0.0043455957883226882 -2499.7545880187754 0.017926296124073815 0.0021080419985537446 0.017926296124073815 -9999.6276396895701 0.37770350368782601 0.003602844078600044 0.0028831472209276399 0.003602844078600044 -2499.751241192324 -0.0047452851649723016 0.0028831472209276399 -0.0047452851649723016 -9999.6222800352953 0.3747442858460488 0.0060553945013470598 -0.0011729811722034356 0.0060553945013470598 -2499.7436436523617 -0.0016036532051657559 -0.0011729811722034356 -0.0016036532051657559 -9999.6293358430266 0.37663940587663092 0.0060247500962224143 -0.0014700076130793605 0.0060247500962224143 -2499.7367172074155 -0.00045891844092693646 -0.0014700076130793605 -0.00045891844092693646 -9999.6271183479003 0.38895767353278643 0.013815566304577462 -0.0015492270540562458 0.013815566304577462 -2499.7152119987331 0.0091027836551802466 -0.0015492270540562458 0.0091027836551802466 -9999.605967910582 0.39048974596054364 0.018884471372373701 0.00070568684532190673 0.018884471372373701 -2499.7004689027572 0.00063632290220994037 0.00070568684532190673 0.00063632290220994037 -9999.6145825432632 0.3910720214767025 0.021531728791560456 -0.0016321422772307415 0.021531728791560456 -2499.7084372891954 -0.00452912744913192 -0.0016321422772307415 -0.00452912744913192 -9999.6080731147995 0.37172158552152723 0.01221254456047291 -0.004296934355807025 0.01221254456047291 -2499.7578243140197 -0.0040413475726381876 -0.004296934355807025 -0.0040413475726381876 -9999.6243747666667 0.37422526184673188 0.0063491646261609243 -0.0025659362266878816 0.0063491646261609243 -2499.7532688442898 -0.0037684859439650609 -0.0025659362266878816 -0.0037684859439650609 -9999.623170152845 0.37858428464096505 -0.0052112128663255805 -0.00089409668908047024 -0.0052112128663255805 -2499.742339159071 0.0093507249115418745 -0.00089409668908047024 0.0093507249115418745 -9999.6223570332295 0.3692703816386711 -0.0021933053623788127 0.002429811693616557 -0.0021933053623788127 -2499.772921275212 0.0034468680078134639 0.002429811693616557 0.0034468680078134639 -9999.6314195453815 0.37516147478709172 -0.014883193198116394 0.0007871915768191684 -0.014883193198116394 -2499.7459906801723 -0.016256762739430997 0.0007871915768191684 -0.016256762739430997 -9999.6229058917197 0.38387978023456526 -0.0048258486237880843 0.0010955852922052145 -0.0048258486237880843 -2499.7401329718123 0.0096125309614762955 0.0010955852922052145 0.0096125309614762955 -9999.6188944693349 0.37875497445520523 0.011224514307743003 -0.0012389920102577889 0.011224514307743003 -2499.7586785840754 -0.0056578517223897506 -0.0012389920102577889 -0.0056578517223897506 -9999.6209930182813 0.3862617023146413 -0.0027090007801944122 0.001253888269275194 -0.0027090007801944122 -2499.7305572631635 0.00085966868300602073 0.001253888269275194 0.00085966868300602073 -9999.6190048219487 0.38175006471283268 -0.007091004393473932 -0.0025091193438129267 -0.007091004393473932 -2499.7365896079937 -0.022094035748523311 -0.0025091193438129267 -0.022094035748523311 -9999.6143521588674 0.38396954924019155 0.00089164797265798776 0.0022359941331160371 0.00089164797265798776 -2499.7355278756113 0.00026114332104043569 0.0022359941331160371 0.00026114332104043569 -9999.6209341476224 0.38272783459433413 -0.0025624078810002199 0.0012083800575055648 -0.0025624078810002199 -2499.7422859625894 -0.0058681840321241907 0.0012083800575055648 -0.0058681840321241907 -9999.621419182502 0.37498757037428732 -0.016897401495276371 0.00090770048427657457 -0.016897401495276371 -2499.7400106872938 -0.014061041535114782 0.00090770048427657457 -0.014061041535114782 -9999.6206667767328 0.38280683195625897 -0.0035436480661411606 0.0025087794541036601 -0.0035436480661411606 -2499.7428283140289 0.0095077759888226865 0.0025087794541036601 0.0095077759888226865 -9999.6202530998416 0.38662340311316257 -0.0048880981710528876 0.001251276316907024 -0.0048880981710528876 -2499.7509154484005 -6.9622320552298333e-05 0.001251276316907024 -6.9622320552298333e-05 -9999.6182996816788 0.37902992934505164 -0.001424500966151732 0.0020852168927376624 -0.001424500966151732 -2499.7539592804842 -0.00020670797948696418 0.0020852168927376624 -0.00020670797948696418 -9999.6210131005282 0.38565015514177503 -0.0047947233386478934 0.0033465004974004842 -0.0047947233386478934 -2499.7475262382632 -0.0017976815911424637 0.0033465004974004842 -0.0017976815911424637 -9999.6176655971649 0.38697516641695984 -0.0049690976304981177 0.0016205821029871004 -0.0049690976304981177 -2499.7409406466322 0.010311935317076859 0.0016205821029871004 0.010311935317076859 -9999.6186949625553 0.39368233449749823 0.00067254235011237479 0.00055883238746901043 0.00067254235011237479 -2499.7158714881571 -0.0068883086678397376 0.00055883238746901043 -0.0068883086678397376 -9999.625324622979 0.39023255288338987 -0.0030041451459136698 0.0010574303602197688 -0.0030041451459136698 -2499.7205726474494 -0.0083342145881033503 0.0010574303602197688 -0.0083342145881033503 -9999.6259607981483 0.38587278812804016 -0.0032077199453648814 0.0019716408132808283 -0.0032077199453648814 -2499.7478223680109 -0.00080899382584220803 0.0019716408132808283 -0.00080899382584220803 -9999.6216532273284 0.38946161938929436 -0.0038554855900366503 0.0014938978129066527 -0.0038554855900366503 -2499.7351590190437 -0.00080603088917996502 0.0014938978129066527 -0.00080603088917996502 -9999.6183675682096 0.39121127914040699 -0.013537830482309436 -0.0031044256611494347 -0.013537830482309436 -2499.732152932902 -0.0033261480893997941 -0.0031044256611494347 -0.0033261480893997941 -9999.6236437059924 0.38077087860438041 0.0027575089320180241 0.0013346272326089093 0.0027575089320180241 -2499.7472543411877 0.0078810453869664343 0.0013346272326089093 0.0078810453869664343 -9999.6171522875302 0.38706764126800408 -0.0069299076883777844 0.0014375734426721465 -0.0069299076883777844 -2499.7502172596669 -0.0036874987563351169 0.0014375734426721465 -0.0036874987563351169 -9999.6218739213618 0.37359641429793555 -0.01432157642478063 -0.00090565233040251769 -0.01432157642478063 -2499.7623653846767 -0.0039628054182685446 -0.00090565233040251769 -0.0039628054182685446 -9999.6292636122598 0.37715972181467805 -0.016141026566974342 0.0015060448940857896 -0.016141026566974342 -2499.7606521197067 -0.0066743944717018167 0.0015060448940857896 -0.0066743944717018167 -9999.6195627087145 0.38332429634829168 -0.0031790475996479467 -0.0017776874992705416 -0.0031790475996479467 -2499.7500499568359 0.0012790987857442815 -0.0017776874992705416 0.0012790987857442815 -9999.6272242852647 0.38296714269563381 -0.013131954532264345 -6.1954204284120351e-05 -0.013131954532264345 -2499.7336687020706 0.014578351971977099 -6.1954204284120351e-05 0.014578351971977099 -9999.6219196368329 0.38092189092640183 0.00033505641317991414 0.0040249205067084404 0.00033505641317991414 -2499.75389898305 -0.0010481539893589797 0.0040249205067084404 -0.0010481539893589797 -9999.6201786851816 0.3722742204208771 0.0042717486068175464 0.0026266361055604648 0.0042717486068175464 -2499.7813865610751 0.00025856064985418925 0.0026266361055604648 0.00025856064985418925 -9999.6251951186787 0.37245648980024271 0.0068547648801601975 5.5132531997514889e-06 0.0068547648801601975 -2499.7727869116861 0.009822950312809553 5.5132531997514889e-06 0.009822950312809553 -9999.6249373218889 0.38639718718513905 0.0013582891388473975 0.0013105364596412983 0.0013582891388473975 -2499.7523825922217 -0.0012473261340346653 0.0013105364596412983 -0.0012473261340346653 -9999.6201182707737 0.38681937961882795 0.0013968279936993552 0.0021245621392154135 0.0013968279936993552 -2499.7526095414833 -0.0024510555836059211 0.0021245621392154135 -0.0024510555836059211 -9999.618882018287 0.39251784148927982 0.020457833988754004 -0.0033977430321101565 0.020457833988754004 -2499.7003975361722 0.01559925299443421 -0.0033977430321101565 0.01559925299443421 -9999.6132071946176 0.38940637950577184 0.024368132430800882 -0.0059311393088137265 0.024368132430800882 -2499.7208396851047 0.0055903064057929441 -0.0059311393088137265 0.0055903064057929441 -9999.6091584852275 0.39225078339768515 0.0041382401159537202 0.003958659943236853 0.0041382401159537202 -2499.7328932964465 4.2556312109809369e-05 0.003958659943236853 4.2556312109809369e-05 -9999.617282918065 0.3849485408536566 0.02648833925020622 -0.0035238674208812881 0.02648833925020622 -2499.7210580298397 0.0022063219012125046 -0.0035238674208812881 0.0022063219012125046 -9999.6267737943999 0.38196860123116494 0.0078397889585830188 0.00035296214991831221 0.0078397889585830188 -2499.7383686806779 -0.011543005877683754 0.00035296214991831221 -0.011543005877683754 -9999.6224115234472 0.38116750536028121 0.013684248439862774 0.0039198907597892685 0.013684248439862774 -2499.7567644355095 -0.0063126050063146977 0.0039198907597892685 -0.0063126050063146977 -9999.6219845020823 
</DataArray>
</CellData>
</Piece>
</UnstructuredGrid>
</VTKFile>
