<?xml version="1.0"?>
<VTKFile type="UnstructuredGrid" version="0.1" byte_order="LittleEndian">
<UnstructuredGrid>
<Piece NumberOfPoints="2876" NumberOfCells="719">
<Points>
<DataArray type="Float64" NumberOfComponents="3" format="ascii">
0.31610726166346748 0.18804489794572149 0 0.16929708765618309 0.30074819035915368 0 0.14641016151452901 0.14641016151487049 0 0.312576188949791 0.31458070521983672 0.3125761889497819 0 0.20000000000083221 0 0 0 0 0.14641016151452901 0.14641016151487049 0 0 0.14641016151432179 0.14641016151432179 0 0 0 0.19999999999955789 0 0 0.14641016151452901 0.14641016151487049 0 0.1464101615145241 0 0.14641016151486561 0 0.14641016151432179 0.14641016151432179 0 0 0.20000000000083221 0 0 0 0.1464101615145241 0 0.14641016151486561 0 0.14641016151432179 0.14641016151432179 0 0.30074819035869899 0.1692970876565193 0 0.18804489794560331 0.31610726166461361 0.312576188949791 0.31458070521983672 0.3125761889497819 0.31578456131778371 0 0.1865278143482666 0.1464101615145241 0 0.14641016151486561 0.16938214347656569 0 0.30011357660650623 0.312576188949791 0.31458070521983672 0.3125761889497819 0 0.14641016151432179 0.14641016151432179 0 0 0 0.14641016151452901 0.14641016151487049 0 0.1464101615145241 0 0.14641016151486561 0.14641016151452901 0.14641016151487049 0 0.1464101615145241 0 0.14641016151486561 0.31578456131778371 0 0.1865278143482666 0.312576188949791 0.31458070521983672 0.3125761889497819 0.14641016151452901 0.14641016151487049 0 0 0.30074819035869899 0.1692970876565193 0 0.14641016151432179 0.14641016151432179 0.312576188949791 0.31458070521983672 0.3125761889497819 0.14641016151452901 0.14641016151487049 0 0 0.14641016151432179 0.14641016151432179 0.1464101615145241 0 0.14641016151486561 0.312576188949791 0.31458070521983672 0.3125761889497819 0 0.14641016151432179 0.14641016151432179 0.16938214347656569 0 0.30011357660650623 0.1464101615145241 0 0.14641016151486561 0.312576188949791 0.31458070521983672 0.3125761889497819 0.1464101615145241 0 0.14641016151486561 0 0.14641016151432179 0.14641016151432179 0 0 0.20000000000083221 0.16938214347656569 0 0.30011357660650623 0 0.18804489794560331 0.31610726166461361 0 0 0.20000000000083221 0 0.14641016151432179 0.14641016151432179 0.16938214347656569 0 0.30011357660650623 0 0.14641016151432179 0.14641016151432179 0.14641016151452901 0.14641016151487049 0 0 0.20000000000083221 0 0 0.30074819035869899 0.1692970876565193 0 0.30074819035869899 0.1692970876565193 0.14641016151452901 0.14641016151487049 0 0 0.20000000000083221 0 0.16929708765618309 0.30074819035915368 0 0.19999999999955789 0 0 0.14641016151452901 0.14641016151487049 0 0.31578456131778371 0 0.1865278143482666 0.31610726166346748 0.18804489794572149 0 0.19999999999955789 0 0 0.14641016151452901 0.14641016151487049 0 0.1464101615145241 0 0.14641016151486561 0.31578456131778371 0 0.1865278143482666 0.31578456131778371 0 0.1865278143482666 0.3999999999989749 0 0 0.19999999999955789 0 0 0.31610726166346748 0.18804489794572149 0 0.31578456131778371 0 0.1865278143482666 0.31610726166346748 0.18804489794572149 0 0.14641016151452901 0.14641016151487049 0 0.312576188949791 0.31458070521983672 0.3125761889497819 0.31610726166346748 0.18804489794572149 0 0.312576188949791 0.31458070521983672 0.3125761889497819 0.31578456131778371 0 0.1865278143482666 0.5003997205654479 0.21136633249797621 0.2258422409314382 0.31610726166346748 0.18804489794572149 0 0.49391845158624981 0 0.1323760430705655 0.50966790549376417 0.16275515618023731 0 0.5003997205654479 0.21136633249797621 0.2258422409314382 0.31610726166346748 0.18804489794572149 0 0.50966790549376417 0.16275515618023731 0 0.45812322962036273 0.31024977578535839 0 0.5003997205654479 0.21136633249797621 0.2258422409314382 0.49391845158624981 0 0.1323760430705655 0.3999999999989749 0 0 0.31610726166346748 0.18804489794572149 0 0.50966790549376417 0.16275515618023731 0 0.49391845158624981 0 0.1323760430705655 0.3999999999989749 0 0 0.31578456131778371 0 0.1865278143482666 0.31610726166346748 0.18804489794572149 0 0.31578456131778371 0 0.1865278143482666 0.47688326899416439 0 0.31741132792405607 0.49391845158624981 0 0.1323760430705655 0.5003997205654479 0.21136633249797621 0.2258422409314382 0.31610726166346748 0.18804489794572149 0 0.31578456131778371 0 0.1865278143482666 0.49391845158624981 0 0.1323760430705655 0.5003997205654479 0.21136633249797621 0.2258422409314382 0.31030302876556398 0 0.54179813558513157 0.50073570207385831 0.24848280280289631 0.52886631355986169 0.32146143392436449 0 0.38738071487621961 0.22088738526309029 0.22111069116742441 0.50004796911802929 0.32146143392436449 0 0.38738071487621961 0.312576188949791 0.31458070521983672 0.3125761889497819 0.16938214347656569 0 0.30011357660650623 0.22088738526309029 0.22111069116742441 0.50004796911802929 0.32146143392436449 0 0.38738071487621961 0.50073570207385831 0.24848280280289631 0.52886631355986169 0.312576188949791 0.31458070521983672 0.3125761889497819 0.22088738526309029 0.22111069116742441 0.50004796911802929 0.32146143392436449 0 0.38738071487621961 0.50073570207385831 0.24848280280289631 0.52886631355986169 0.47688326899416439 0 0.31741132792405607 0.5003997205654479 0.21136633249797621 0.2258422409314382 0.32146143392436449 0 0.38738071487621961 0.312576188949791 0.31458070521983672 0.3125761889497819 0.50073570207385831 0.24848280280289631 0.52886631355986169 0.5003997205654479 0.21136633249797621 0.2258422409314382 0.32146143392436449 0 0.38738071487621961 0.31578456131778371 0 0.1865278143482666 0.16938214347656569 0 0.30011357660650623 0.312576188949791 0.31458070521983672 0.3125761889497819 0.31578456131778371 0 0.1865278143482666 0.312576188949791 0.31458070521983672 0.3125761889497819 0.32146143392436449 0 0.38738071487621961 0.5003997205654479 0.21136633249797621 0.2258422409314382 0.31578456131778371 0 0.1865278143482666 0.32146143392436449 0 0.38738071487621961 0.47688326899416439 0 0.31741132792405607 0.5003997205654479 0.21136633249797621 0.2258422409314382 0.31030302876556398 0 0.54179813558513157 0.50000000000250922 0 0.48038475773043671 0.32146143392436449 0 0.38738071487621961 0.50073570207385831 0.24848280280289631 0.52886631355986169 0.32146143392436449 0 0.38738071487621961 0.50000000000250922 0 0.48038475773043671 0.47688326899416439 0 0.31741132792405607 0.50073570207385831 0.24848280280289631 0.52886631355986169 0.16370661204827031 0 0.4886650857430957 0.31030302876556398 0 0.54179813558513157 0.32146143392436449 0 0.38738071487621961 0.22088738526309029 0.22111069116742441 0.50004796911802929 0.16370661204827031 0 0.4886650857430957 0.32146143392436449 0 0.38738071487621961 0.16938214347656569 0 0.30011357660650623 0.22088738526309029 0.22111069116742441 0.50004796911802929 0.16938214347656569 0 0.30011357660650623 0 0.14641016151432179 0.14641016151432179 0 0.18804489794560331 0.31610726166461361 0.312576188949791 0.31458070521983672 0.3125761889497819 0 0.18804489794560331 0.31610726166461361 0.16370661204827031 0 0.4886650857430957 0.16938214347656569 0 0.30011357660650623 0.22088738526309029 0.22111069116742441 0.50004796911802929 0 0.18804489794560331 0.31610726166461361 0.16938214347656569 0 0.30011357660650623 0.312576188949791 0.31458070521983672 0.3125761889497819 0.22088738526309029 0.22111069116742441 0.50004796911802929 0 0 0.40000000000166441 0 0 0.60000000000138687 0.16370661204827031 0 0.4886650857430957 0 0.16275515618034081 0.50966790549591257 0 0 0.40000000000166441 0 0.18804489794560331 0.31610726166461361 0.16370661204827031 0 0.4886650857430957 0.16938214347656569 0 0.30011357660650623 0.16370661204827031 0 0.4886650857430957 0 0.18804489794560331 0.31610726166461361 0 0 0.40000000000166441 0 0.16275515618034081 0.50966790549591257 0 0.18804489794560331 0.31610726166461361 0 0 0.40000000000166441 0 0 0.20000000000083221 0.16938214347656569 0 0.30011357660650623 0 0.18804489794560331 0.31610726166461361 0 0.16275515618034081 0.50966790549591257 0.16370661204827031 0 0.4886650857430957 0.22088738526309029 0.22111069116742441 0.50004796911802929 0 0.18804489794560331 0.31610726166461361 0 0.31024977578556651 0.45812322962166352 0 0.16275515618034081 0.50966790549591257 0.22088738526309029 0.22111069116742441 0.50004796911802929 0 0.30074819035869899 0.1692970876565193 0 0.39615100178029522 0.32925244736138171 0 0.18804489794560331 0.31610726166461361 0.312576188949791 0.31458070521983672 0.3125761889497819 0 0.31024977578556651 0.45812322962166352 0.312576188949791 0.31458070521983672 0.3125761889497819 0.24769234054476261 0.52242103280823293 0.45098450226372488 0.22088738526309029 0.22111069116742441 0.50004796911802929 0 0.18804489794560331 0.31610726166461361 0 0.39615100178029522 0.32925244736138171 0 0.31024977578556651 0.45812322962166352 0.312576188949791 0.31458070521983672 0.3125761889497819 0 0.39615100178029522 0.32925244736138171 0.24769234054476261 0.52242103280823293 0.45098450226372488 0.312576188949791 0.31458070521983672 0.3125761889497819 0.22345881830598399 0.5062398304147856 0.22345881830602041 0 0.31024977578556651 0.45812322962166352 0.312576188949791 0.31458070521983672 0.3125761889497819 0 0.39615100178029522 0.32925244736138171 0.24769234054476261 0.52242103280823293 0.45098450226372488 0 0.30074819035869899 0.1692970876565193 0 0.39615100178029522 0.32925244736138171 0.312576188949791 0.31458070521983672 0.3125761889497819 0.22345881830598399 0.5062398304147856 0.22345881830602041 0 0.18804489794560331 0.31610726166461361 0.312576188949791 0.31458070521983672 0.3125761889497819 0 0.31024977578556651 0.45812322962166352 0.22088738526309029 0.22111069116742441 0.50004796911802929 0 0.31024977578556651 0.45812322962166352 0 0.39615100178029522 0.32925244736138171 0 0.50000000000237477 0.51961524226909872 0.24769234054476261 0.52242103280823293 0.45098450226372488 0.50000000000001332 0.49999999999999561 0.49999999999999561 0.50073570207385831 0.24848280280289631 0.52886631355986169 0.312576188949791 0.31458070521983672 0.3125761889497819 0.5004045312576143 0.47050700646456922 0.24963111222780321 0.24769234054476261 0.52242103280823293 0.45098450226372488 0.5004045312576143 0.47050700646456922 0.24963111222780321 0.312576188949791 0.31458070521983672 0.3125761889497819 0.22345881830598399 0.5062398304147856 0.22345881830602041 0.312576188949791 0.31458070521983672 0.3125761889497819 0.5004045312576143 0.47050700646456922 0.24963111222780321 0.50073570207385831 0.24848280280289631 0.52886631355986169 0.5003997205654479 0.21136633249797621 0.2258422409314382 0.50000000000001332 0.49999999999999561 0.49999999999999561 0.24769234054476261 0.52242103280823293 0.45098450226372488 0.312576188949791 0.31458070521983672 0.3125761889497819 0.50073570207385831 0.24848280280289631 0.52886631355986169 0.312576188949791 0.31458070521983672 0.3125761889497819 0.24769234054476261 0.52242103280823293 0.45098450226372488 0.50000000000001332 0.49999999999999561 0.49999999999999561 0.5004045312576143 0.47050700646456922 0.24963111222780321 0.312576188949791 0.31458070521983672 0.3125761889497819 0.50073570207385831 0.24848280280289631 0.52886631355986169 0.24769234054476261 0.52242103280823293 0.45098450226372488 0.22088738526309029 0.22111069116742441 0.50004796911802929 0.32925244736090059 0.39615100178043078 0 0.312576188949791 0.31458070521983672 0.3125761889497819 0.45812322962036273 0.31024977578535839 0 0.5004045312576143 0.47050700646456922 0.24963111222780321 0.32925244736090059 0.39615100178043078 0 0.5004045312576143 0.47050700646456922 0.24963111222780321 0.32446581821364329 0.60020898676454815 0 0.22345881830598399 0.5062398304147856 0.22345881830602041 0.45812322962036273 0.31024977578535839 0 0.5004045312576143 0.47050700646456922 0.24963111222780321 0.312576188949791 0.31458070521983672 0.3125761889497819 0.5003997205654479 0.21136633249797621 0.2258422409314382 0.45812322962036273 0.31024977578535839 0 0.32925244736090059 0.39615100178043078 0 0.31610726166346748 0.18804489794572149 0 0.312576188949791 0.31458070521983672 0.3125761889497819 0.16929708765618309 0.30074819035915368 0 0.312576188949791 0.31458070521983672 0.3125761889497819 0.32925244736090059 0.39615100178043078 0 0.22345881830598399 0.5062398304147856 0.22345881830602041 0.31610726166346748 0.18804489794572149 0 0.45812322962036273 0.31024977578535839 0 0.312576188949791 0.31458070521983672 0.3125761889497819 0.5003997205654479 0.21136633249797621 0.2258422409314382 0.32925244736090059 0.39615100178043078 0 0.312576188949791 0.31458070521983672 0.3125761889497819 0.5004045312576143 0.47050700646456922 0.24963111222780321 0.22345881830598399 0.5062398304147856 0.22345881830602041 0.32925244736090059 0.39615100178043078 0 0.16929708765618309 0.30074819035915368 0 0.31610726166346748 0.18804489794572149 0 0.312576188949791 0.31458070521983672 0.3125761889497819 0.32446581821364329 0.60020898676454815 0 0.32925244736090059 0.39615100178043078 0 0.51961524226956368 0.5000000000025091 0 0.5004045312576143 0.47050700646456922 0.24963111222780321 0.51961524226956368 0.5000000000025091 0 0.32925244736090059 0.39615100178043078 0 0.45812322962036273 0.31024977578535839 0 0.5004045312576143 0.47050700646456922 0.24963111222780321 0 0.30074819035869899 0.1692970876565193 0.14641016151452901 0.14641016151487049 0 0.16929708765618309 0.30074819035915368 0 0.312576188949791 0.31458070521983672 0.3125761889497819 0 0.30074819035869899 0.1692970876565193 0.312576188949791 0.31458070521983672 0.3125761889497819 0.16929708765618309 0.30074819035915368 0 0.22345881830598399 0.5062398304147856 0.22345881830602041 0.17226134197279269 0.49836539647922029 0 0 0.49836539647891548 0.17226134197271731 0.16929708765618309 0.30074819035915368 0 0.22345881830598399 0.5062398304147856 0.22345881830602041 0.17226134197279269 0.49836539647922029 0 0.16929708765618309 0.30074819035915368 0 0.32925244736090059 0.39615100178043078 0 0.22345881830598399 0.5062398304147856 0.22345881830602041 0 0.30074819035869899 0.1692970876565193 0 0.20000000000083221 0 0 0.40000000000166441 0 0.16929708765618309 0.30074819035915368 0 0 0.30074819035869899 0.1692970876565193 0 0.40000000000166441 0 0 0.49836539647891548 0.17226134197271731 0.16929708765618309 0.30074819035915368 0 0 0.30074819035869899 0.1692970876565193 0.16929708765618309 0.30074819035915368 0 0 0.49836539647891548 0.17226134197271731 0.22345881830598399 0.5062398304147856 0.22345881830602041 0 0.30074819035869899 0.1692970876565193 0 0.49836539647891548 0.17226134197271731 0 0.39615100178029522 0.32925244736138171 0.22345881830598399 0.5062398304147856 0.22345881830602041 0 0.49836539647891548 0.17226134197271731 0 0.40000000000166441 0 0 0.60000000000138687 0 0.17226134197279269 0.49836539647922029 0 0.16929708765618309 0.30074819035915368 0 0 0.40000000000166441 0 0 0.49836539647891548 0.17226134197271731 0.17226134197279269 0.49836539647922029 0 0 0.69449451837103049 0.15896804272139439 0 0.60020898676435996 0.32446581821286191 0.22345881830598399 0.5062398304147856 0.22345881830602041 0.19259015428765269 0.77719169076434647 0.19259015428773721 0.1589680427220837 0.69449451837091269 0 0 0.69449451837103049 0.15896804272139439 0.22345881830598399 0.5062398304147856 0.22345881830602041 0.19259015428765269 0.77719169076434647 0.19259015428773721 0 0.69449451837103049 0.15896804272139439 0.17226134197279269 0.49836539647922029 0 0 0.60000000000138687 0 0.1589680427220837 0.69449451837091269 0 0.32446581821364329 0.60020898676454815 0 0.1589680427220837 0.69449451837091269 0 0.22345881830598399 0.5062398304147856 0.22345881830602041 0.19259015428765269 0.77719169076434647 0.19259015428773721 0 0.60000000000138687 0 0 0.49836539647891548 0.17226134197271731 0.17226134197279269 0.49836539647922029 0 0 0.69449451837103049 0.15896804272139439 0 0.69449451837103049 0.15896804272139439 0 0.60000000000138687 0 0 0.79999999999999982 0 0.1589680427220837 0.69449451837091269 0 0.31067093463127438 0.81480288849489035 0 0.1589680427220837 0.69449451837091269 0 0.32446581821364329 0.60020898676454815 0 0.19259015428765269 0.77719169076434647 0.19259015428773721 0.32446581821364329 0.60020898676454815 0 0.1589680427220837 0.69449451837091269 0 0.17226134197279269 0.49836539647922029 0 0.22345881830598399 0.5062398304147856 0.22345881830602041 0.1589680427220837 0.69449451837091269 0 0 0.69449451837103049 0.15896804272139439 0.17226134197279269 0.49836539647922029 0 0.22345881830598399 0.5062398304147856 0.22345881830602041 0 0.69449451837103049 0.15896804272139439 0 0.81480288849496429 0.31067093462946233 0 0.60020898676435996 0.32446581821286191 0.19259015428765269 0.77719169076434647 0.19259015428773721 0 0.49836539647891548 0.17226134197271731 0 0.69449451837103049 0.15896804272139439 0 0.60020898676435996 0.32446581821286191 0.22345881830598399 0.5062398304147856 0.22345881830602041 0 0.49836539647891548 0.17226134197271731 0.17226134197279269 0.49836539647922029 0 0 0.69449451837103049 0.15896804272139439 0.22345881830598399 0.5062398304147856 0.22345881830602041 0 0.60020898676435996 0.32446581821286191 0.22516916914780419 0.77057994845201627 0.48187244075707292 0.35848654557803328 0.70013656506632282 0.30029870175293161 0.19259015428765269 0.77719169076434647 0.19259015428773721 0 0.60020898676435996 0.32446581821286191 0.24769234054476261 0.52242103280823293 0.45098450226372488 0 0.39615100178029522 0.32925244736138171 0.22345881830598399 0.5062398304147856 0.22345881830602041 0 0.60020898676435996 0.32446581821286191 0 0.81480288849496429 0.31067093462946233 0.22516916914780419 0.77057994845201627 0.48187244075707292 0.19259015428765269 0.77719169076434647 0.19259015428773721 0.35848654557803328 0.70013656506632282 0.30029870175293161 0.22345881830598399 0.5062398304147856 0.22345881830602041 0 0.60020898676435996 0.32446581821286191 0.19259015428765269 0.77719169076434647 0.19259015428773721 0 0.49836539647891548 0.17226134197271731 0 0.60020898676435996 0.32446581821286191 0 0.39615100178029522 0.32925244736138171 0.22345881830598399 0.5062398304147856 0.22345881830602041 0 0.60020898676435996 0.32446581821286191 0.24769234054476261 0.52242103280823293 0.45098450226372488 0.35848654557803328 0.70013656506632282 0.30029870175293161 0.22516916914780419 0.77057994845201627 0.48187244075707292 0.35848654557803328 0.70013656506632282 0.30029870175293161 0.24769234054476261 0.52242103280823293 0.45098450226372488 0 0.60020898676435996 0.32446581821286191 0.22345881830598399 0.5062398304147856 0.22345881830602041 0 0.39615100178029522 0.32925244736138171 0 0.60020898676435996 0.32446581821286191 0 0.50000000000237477 0.51961524226909872 0.24769234054476261 0.52242103280823293 0.45098450226372488 0 0.68801781652248195 0.45664527743358641 0 0.50000000000237477 0.51961524226909872 0 0.60020898676435996 0.32446581821286191 0.24769234054476261 0.52242103280823293 0.45098450226372488 0 0.66416205381430016 0.59944234540882957 0.24769234054476261 0.52242103280823293 0.45098450226372488 0 0.68801781652248195 0.45664527743358641 0.22516916914780419 0.77057994845201627 0.48187244075707292 0 0.60020898676435996 0.32446581821286191 0 0.81480288849496429 0.31067093462946233 0 0.68801781652248195 0.45664527743358641 0.22516916914780419 0.77057994845201627 0.48187244075707292 0 0.68801781652248195 0.45664527743358641 0.24769234054476261 0.52242103280823293 0.45098450226372488 0 0.60020898676435996 0.32446581821286191 0.22516916914780419 0.77057994845201627 0.48187244075707292 0.16929708765615539 1 0.30074819035677097 0.32926555316115258 1 0.39615987727515128 0.22516916914780419 0.77057994845201627 0.48187244075707292 0.19259015428765269 0.77719169076434647 0.19259015428773721 0 0.81480288849496429 0.31067093462946233 0.16929708765615539 1 0.30074819035677097 0.22516916914780419 0.77057994845201627 0.48187244075707292 0.19259015428765269 0.77719169076434647 0.19259015428773721 0.17226134197293 1 0.49836539647645101 0 0.83630110503664845 0.50803330197135654 0 0.81480288849496429 0.31067093462946233 0.22516916914780419 0.77057994845201627 0.48187244075707292 0 0.68801781652248195 0.45664527743358641 0 0.81480288849496429 0.31067093462946233 0 0.83630110503664845 0.50803330197135654 0.22516916914780419 0.77057994845201627 0.48187244075707292 0.17226134197293 1 0.49836539647645101 0 1 0.3999999999989749 0 0.81480288849496429 0.31067093462946233 0 0.83630110503664845 0.50803330197135654 0 0.81480288849496429 0.31067093462946233 0.16929708765615539 1 0.30074819035677097 0 1 0.3999999999989749 0.17226134197293 1 0.49836539647645101 0.17226134197293 1 0.49836539647645101 0 0.81480288849496429 0.31067093462946233 0.16929708765615539 1 0.30074819035677097 0.22516916914780419 0.77057994845201627 0.48187244075707292 0.17226134197293 1 0.49836539647645101 0.16929708765615539 1 0.30074819035677097 0.32926555316115258 1 0.39615987727515128 0.22516916914780419 0.77057994845201627 0.48187244075707292 0 1 0.3999999999989749 0 1 0.19999999999955789 0.16929708765615539 1 0.30074819035677097 0 0.81480288849496429 0.31067093462946233 0.16929708765615539 1 0.30074819035677097 0 1 0.19999999999955789 0 0.85358983848655678 0.14641016151332509 0 0.81480288849496429 0.31067093462946233 0.14641016151352521 1 0.1464101615131837 0 1 0.19999999999955789 0 0.85358983848655678 0.14641016151332509 0.16929708765615539 1 0.30074819035677097 0.20000000000083221 1 0 0 1 0 0.14641016151479211 0.85358983848543113 0 0.14641016151352521 1 0.1464101615131837 0 0.85358983848655678 0.14641016151332509 0 1 0 0 1 0.19999999999955789 0.14641016151352521 1 0.1464101615131837 0 0.85358983848655678 0.14641016151332509 0.14641016151479211 0.85358983848543113 0 0 1 0 0.14641016151352521 1 0.1464101615131837 0.14641016151479211 0.85358983848543113 0 0 1 0 0 0.79999999999999982 0 0 0.85358983848655678 0.14641016151332509 0 0.85358983848655678 0.14641016151332509 0 0.69449451837103049 0.15896804272139439 0.1589680427220837 0.69449451837091269 0 0.19259015428765269 0.77719169076434647 0.19259015428773721 0 0.79999999999999982 0 0.1589680427220837 0.69449451837091269 0 0.14641016151479211 0.85358983848543113 0 0 0.85358983848655678 0.14641016151332509 0.14641016151352521 1 0.1464101615131837 0 0.85358983848655678 0.14641016151332509 0.14641016151479211 0.85358983848543113 0 0.19259015428765269 0.77719169076434647 0.19259015428773721 0.1589680427220837 0.69449451837091269 0 0 0.79999999999999982 0 0 0.69449451837103049 0.15896804272139439 0 0.85358983848655678 0.14641016151332509 0.1589680427220837 0.69449451837091269 0 0.14641016151479211 0.85358983848543113 0 0 0.85358983848655678 0.14641016151332509 0.19259015428765269 0.77719169076434647 0.19259015428773721 0.16929708765615539 1 0.30074819035677097 0 0.81480288849496429 0.31067093462946233 0 0.85358983848655678 0.14641016151332509 0.19259015428765269 0.77719169076434647 0.19259015428773721 0 0.85358983848655678 0.14641016151332509 0 0.81480288849496429 0.31067093462946233 0 0.69449451837103049 0.15896804272139439 0.19259015428765269 0.77719169076434647 0.19259015428773721 0.14641016151352521 1 0.1464101615131837 0.14641016151479211 0.85358983848543113 0 0.31067093463127438 0.81480288849489035 0 0.19259015428765269 0.77719169076434647 0.19259015428773721 0.1589680427220837 0.69449451837091269 0 0.31067093463127438 0.81480288849489035 0 0.14641016151479211 0.85358983848543113 0 0.19259015428765269 0.77719169076434647 0.19259015428773721 0.14641016151479211 0.85358983848543113 0 0.31067093463127438 0.81480288849489035 0 0.20000000000083221 1 0 0.14641016151352521 1 0.1464101615131837 0.31635851157303152 1 0.18818969570840721 0.20000000000083221 1 0 0.31067093463127438 0.81480288849489035 0 0.14641016151352521 1 0.1464101615131837 0.31067093463127438 0.81480288849489035 0 0.31635851157303152 1 0.18818969570840721 0.14641016151352521 1 0.1464101615131837 0.19259015428765269 0.77719169076434647 0.19259015428773721 0.31635851157303152 1 0.18818969570840721 0.16929708765615539 1 0.30074819035677097 0.14641016151352521 1 0.1464101615131837 0.19259015428765269 0.77719169076434647 0.19259015428773721 0.14641016151352521 1 0.1464101615131837 0.16929708765615539 1 0.30074819035677097 0 0.85358983848655678 0.14641016151332509 0.19259015428765269 0.77719169076434647 0.19259015428773721 0.35848654557803328 0.70013656506632282 0.30029870175293161 0.19259015428765269 0.77719169076434647 0.19259015428773721 0.31635851157303152 1 0.18818969570840721 0.52894546611500048 0.79133000140429866 0.2082794184507949 0.31067093463127438 0.81480288849489035 0 0.19259015428765269 0.77719169076434647 0.19259015428773721 0.35848654557803328 0.70013656506632282 0.30029870175293161 0.52894546611500048 0.79133000140429866 0.2082794184507949 0.31067093463127438 0.81480288849489035 0 0.31635851157303152 1 0.18818969570840721 0.19259015428765269 0.77719169076434647 0.19259015428773721 0.52894546611500048 0.79133000140429866 0.2082794184507949 0.31067093463127438 0.81480288849489035 0 0.40000000000166441 1 0 0.20000000000083221 1 0 0.31635851157303152 1 0.18818969570840721 0.31067093463127438 0.81480288849489035 0 0.50803330197353713 0.83630110503668265 0 0.31635851157303152 1 0.18818969570840721 0.52894546611500048 0.79133000140429866 0.2082794184507949 0.45664527743509797 0.68801781652245086 0 0.50803330197353713 0.83630110503668265 0 0.31067093463127438 0.81480288849489035 0 0.52894546611500048 0.79133000140429866 0.2082794184507949 0.51133491425992716 1 0.16370661204795281 0.31635851157303152 1 0.18818969570840721 0.40000000000166441 1 0 0.50803330197353713 0.83630110503668265 0 0.31635851157303152 1 0.18818969570840721 0.31067093463127438 0.81480288849489035 0 0.40000000000166441 1 0 0.50803330197353713 0.83630110503668265 0 0.51133491425992716 1 0.16370661204795281 0.45820186441796368 1 0.31030302876579191 0.31635851157303152 1 0.18818969570840721 0.52894546611500048 0.79133000140429866 0.2082794184507949 0.51133491425992716 1 0.16370661204795281 0.31635851157303152 1 0.18818969570840721 0.50803330197353713 0.83630110503668265 0 0.52894546611500048 0.79133000140429866 0.2082794184507949 0.32926555316115258 1 0.39615987727515128 0.35848654557803328 0.70013656506632282 0.30029870175293161 0.49983993748706529 0.75039103705932653 0.52967335724801234 0.22516916914780419 0.77057994845201627 0.48187244075707292 0.35848654557803328 0.70013656506632282 0.30029870175293161 0.22516916914780419 0.77057994845201627 0.48187244075707292 0.32926555316115258 1 0.39615987727515128 0.19259015428765269 0.77719169076434647 0.19259015428773721 0.31635851157303152 1 0.18818969570840721 0.45820186441796368 1 0.31030302876579191 0.32926555316115258 1 0.39615987727515128 0.35848654557803328 0.70013656506632282 0.30029870175293161 0.45820186441796368 1 0.31030302876579191 0.35848654557803328 0.70013656506632282 0.30029870175293161 0.31635851157303152 1 0.18818969570840721 0.52894546611500048 0.79133000140429866 0.2082794184507949 0.31635851157303152 1 0.18818969570840721 0.35848654557803328 0.70013656506632282 0.30029870175293161 0.32926555316115258 1 0.39615987727515128 0.19259015428765269 0.77719169076434647 0.19259015428773721 0.45820186441796368 1 0.31030302876579191 0.49983993748706529 0.75039103705932653 0.52967335724801234 0.35848654557803328 0.70013656506632282 0.30029870175293161 0.52894546611500048 0.79133000140429866 0.2082794184507949 0.45820186441796368 1 0.31030302876579191 0.32926555316115258 1 0.39615987727515128 0.35848654557803328 0.70013656506632282 0.30029870175293161 0.49983993748706529 0.75039103705932653 0.52967335724801234 0.31635851157303152 1 0.18818969570840721 0.32926555316115258 1 0.39615987727515128 0.16929708765615539 1 0.30074819035677097 0.19259015428765269 0.77719169076434647 0.19259015428773721 0.32926555316115258 1 0.39615987727515128 0.32448110831226962 1 0.6002015905153204 0.17226134197293 1 0.49836539647645101 0.22516916914780419 0.77057994845201627 0.48187244075707292 0.45820186441796368 1 0.31030302876579191 0.51961524227008238 1 0.49999999999872219 0.32926555316115258 1 0.39615987727515128 0.49983993748706529 0.75039103705932653 0.52967335724801234 0.24769234054476261 0.52242103280823293 0.45098450226372488 0.49983993748706529 0.75039103705932653 0.52967335724801234 0.35848654557803328 0.70013656506632282 0.30029870175293161 0.22516916914780419 0.77057994845201627 0.48187244075707292 0.35848654557803328 0.70013656506632282 0.30029870175293161 0.50000000000001332 0.49999999999999561 0.49999999999999561 0.24769234054476261 0.52242103280823293 0.45098450226372488 0.5004045312576143 0.47050700646456922 0.24963111222780321 0.35848654557803328 0.70013656506632282 0.30029870175293161 0.24769234054476261 0.52242103280823293 0.45098450226372488 0.50000000000001332 0.49999999999999561 0.49999999999999561 0.49983993748706529 0.75039103705932653 0.52967335724801234 0.35848654557803328 0.70013656506632282 0.30029870175293161 0.5004045312576143 0.47050700646456922 0.24963111222780321 0.24769234054476261 0.52242103280823293 0.45098450226372488 0.22345881830598399 0.5062398304147856 0.22345881830602041 0.35848654557803328 0.70013656506632282 0.30029870175293161 0.32446581821364329 0.60020898676454815 0 0.5004045312576143 0.47050700646456922 0.24963111222780321 0.22345881830598399 0.5062398304147856 0.22345881830602041 0.31067093463127438 0.81480288849489035 0 0.32446581821364329 0.60020898676454815 0 0.45664527743509797 0.68801781652245086 0 0.35848654557803328 0.70013656506632282 0.30029870175293161 0.32446581821364329 0.60020898676454815 0 0.22345881830598399 0.5062398304147856 0.22345881830602041 0.35848654557803328 0.70013656506632282 0.30029870175293161 0.19259015428765269 0.77719169076434647 0.19259015428773721 0.32446581821364329 0.60020898676454815 0 0.45664527743509797 0.68801781652245086 0 0.35848654557803328 0.70013656506632282 0.30029870175293161 0.5004045312576143 0.47050700646456922 0.24963111222780321 0.31067093463127438 0.81480288849489035 0 0.32446581821364329 0.60020898676454815 0 0.35848654557803328 0.70013656506632282 0.30029870175293161 0.19259015428765269 0.77719169076434647 0.19259015428773721 0.45664527743509797 0.68801781652245086 0 0.31067093463127438 0.81480288849489035 0 0.35848654557803328 0.70013656506632282 0.30029870175293161 0.52894546611500048 0.79133000140429866 0.2082794184507949 0.35848654557803328 0.70013656506632282 0.30029870175293161 0.5004045312576143 0.47050700646456922 0.24963111222780321 0.45664527743509797 0.68801781652245086 0 0.52894546611500048 0.79133000140429866 0.2082794184507949 0.17226134197279269 0.49836539647922029 0 0.32925244736090059 0.39615100178043078 0 0.32446581821364329 0.60020898676454815 0 0.22345881830598399 0.5062398304147856 0.22345881830602041 0.32446581821364329 0.60020898676454815 0 0.51961524226956368 0.5000000000025091 0 0.45664527743509797 0.68801781652245086 0 0.5004045312576143 0.47050700646456922 0.24963111222780321 0.72722573386132172 0.60922248848163563 0 0.68456408135056701 0.68607101396845627 0.31096060989957619 0.59944234541082553 0.66416205381394655 0 0.77713227489941183 0.50036915849493024 0.21774643624003751 0.68456408135056701 0.68607101396845627 0.31096060989957619 0.5004045312576143 0.47050700646456922 0.24963111222780321 0.59944234541082553 0.66416205381394655 0 0.77713227489941183 0.50036915849493024 0.21774643624003751 0.59944234541082553 0.66416205381394655 0 0.45664527743509797 0.68801781652245086 0 0.5004045312576143 0.47050700646456922 0.24963111222780321 0.52894546611500048 0.79133000140429866 0.2082794184507949 0.51961524226956368 0.5000000000025091 0 0.67320508075660079 0.46954769941202479 0 0.59944234541082553 0.66416205381394655 0 0.5004045312576143 0.47050700646456922 0.24963111222780321 0.59944234541082553 0.66416205381394655 0 0.5004045312576143 0.47050700646456922 0.24963111222780321 0.68456408135056701 0.68607101396845627 0.31096060989957619 0.52894546611500048 0.79133000140429866 0.2082794184507949 0.59944234541082553 0.66416205381394655 0 0.5004045312576143 0.47050700646456922 0.24963111222780321 0.67320508075660079 0.46954769941202479 0 0.77713227489941183 0.50036915849493024 0.21774643624003751 0.59944234541082553 0.66416205381394655 0 0.52894546611500048 0.79133000140429866 0.2082794184507949 0.68456408135056701 0.68607101396845627 0.31096060989957619 0.81582077266975173 0.77657922508894406 0.18483084990574741 0.59944234541082553 0.66416205381394655 0 0.45664527743509797 0.68801781652245086 0 0.51961524226956368 0.5000000000025091 0 0.5004045312576143 0.47050700646456922 0.24963111222780321 0.59944234541082553 0.66416205381394655 0 0.68456408135056701 0.68607101396845627 0.31096060989957619 0.72722573386132172 0.60922248848163563 0 0.81582077266975173 0.77657922508894406 0.18483084990574741 0.45664527743509797 0.68801781652245086 0 0.59944234541082553 0.66416205381394655 0 0.50803330197353713 0.83630110503668265 0 0.52894546611500048 0.79133000140429866 0.2082794184507949 0.59944234541082553 0.66416205381394655 0 0.72722573386132172 0.60922248848163563 0 0.7054234997318658 0.80860557108880304 0 0.81582077266975173 0.77657922508894406 0.18483084990574741 0.72722573386132172 0.60922248848163563 0 0.59944234541082553 0.66416205381394655 0 0.67320508075660079 0.46954769941202479 0 0.77713227489941183 0.50036915849493024 0.21774643624003751 0.68456408135056701 0.68607101396845627 0.31096060989957619 0.5004045312576143 0.47050700646456922 0.24963111222780321 0.35848654557803328 0.70013656506632282 0.30029870175293161 0.52894546611500048 0.79133000140429866 0.2082794184507949 0.68456408135056701 0.68607101396845627 0.31096060989957619 0.35848654557803328 0.70013656506632282 0.30029870175293161 0.50000000000001332 0.49999999999999561 0.49999999999999561 0.49983993748706529 0.75039103705932653 0.52967335724801234 0.50000000000001332 0.49999999999999561 0.49999999999999561 0.35848654557803328 0.70013656506632282 0.30029870175293161 0.68456408135056701 0.68607101396845627 0.31096060989957619 0.5004045312576143 0.47050700646456922 0.24963111222780321 0.50000000000001332 0.49999999999999561 0.49999999999999561 0.68456408135056701 0.68607101396845627 0.31096060989957619 0.7504488434426726 0.53051757989633308 0.49836643074154852 0.5004045312576143 0.47050700646456922 0.24963111222780321 0.68456408135056701 0.68607101396845627 0.31096060989957619 0.49983993748706529 0.75039103705932653 0.52967335724801234 0.7504488434426726 0.53051757989633308 0.49836643074154852 0.77374673111774417 0.78860835645735528 0.49829081152968557 0.7504488434426726 0.53051757989633308 0.49836643074154852 0.5004045312576143 0.47050700646456922 0.24963111222780321 0.68456408135056701 0.68607101396845627 0.31096060989957619 0.77713227489941183 0.50036915849493024 0.21774643624003751 0.35848654557803328 0.70013656506632282 0.30029870175293161 0.49983993748706529 0.75039103705932653 0.52967335724801234 0.68456408135056701 0.68607101396845627 0.31096060989957619 0.52894546611500048 0.79133000140429866 0.2082794184507949 0.50000000000001332 0.49999999999999561 0.49999999999999561 0.7504488434426726 0.53051757989633308 0.49836643074154852 0.68456408135056701 0.68607101396845627 0.31096060989957619 0.49983993748706529 0.75039103705932653 0.52967335724801234 0.68456408135056701 0.68607101396845627 0.31096060989957619 0.52894546611500048 0.79133000140429866 0.2082794184507949 0.61068558124908323 1 0.33127740899601937 0.81582077266975173 0.77657922508894406 0.18483084990574741 0.61068558124908323 1 0.33127740899601937 0.49983993748706529 0.75039103705932653 0.52967335724801234 0.68456408135056701 0.68607101396845627 0.31096060989957619 0.77374673111774417 0.78860835645735528 0.49829081152968557 0.61068558124908323 1 0.33127740899601937 0.68240285647621723 1 0.52310058211166854 0.49983993748706529 0.75039103705932653 0.52967335724801234 0.77374673111774417 0.78860835645735528 0.49829081152968557 0.82751535738810444 1 0.31407731390515509 0.68456408135056701 0.68607101396845627 0.31096060989957619 0.61068558124908323 1 0.33127740899601937 0.81582077266975173 0.77657922508894406 0.18483084990574741 0.45820186441796368 1 0.31030302876579191 0.61068558124908323 1 0.33127740899601937 0.49983993748706529 0.75039103705932653 0.52967335724801234 0.52894546611500048 0.79133000140429866 0.2082794184507949 0.61068558124908323 1 0.33127740899601937 0.68456408135056701 0.68607101396845627 0.31096060989957619 0.82751535738810444 1 0.31407731390515509 0.77374673111774417 0.78860835645735528 0.49829081152968557 0.68456408135056701 0.68607101396845627 0.31096060989957619 0.49983993748706529 0.75039103705932653 0.52967335724801234 0.61068558124908323 1 0.33127740899601937 0.52894546611500048 0.79133000140429866 0.2082794184507949 0.61068558124908323 1 0.33127740899601937 0.68240285647621723 1 0.52310058211166854 0.51961524227008238 1 0.49999999999872219 0.49983993748706529 0.75039103705932653 0.52967335724801234 0.51961524227008238 1 0.49999999999872219 0.45820186441796368 1 0.31030302876579191 0.61068558124908323 1 0.33127740899601937 0.49983993748706529 0.75039103705932653 0.52967335724801234 0.68240285647621723 1 0.52310058211166854 0.61068558124908323 1 0.33127740899601937 0.82751535738810444 1 0.31407731390515509 0.77374673111774417 0.78860835645735528 0.49829081152968557 0.51133491425992716 1 0.16370661204795281 0.61068558124908323 1 0.33127740899601937 0.45820186441796368 1 0.31030302876579191 0.52894546611500048 0.79133000140429866 0.2082794184507949 0.51133491425992716 1 0.16370661204795281 0.69988642339594154 1 0.16938214347578889 0.61068558124908323 1 0.33127740899601937 0.52894546611500048 0.79133000140429866 0.2082794184507949 0.69988642339594154 1 0.16938214347578889 0.61068558124908323 1 0.33127740899601937 0.52894546611500048 0.79133000140429866 0.2082794184507949 0.81582077266975173 0.77657922508894406 0.18483084990574741 0.69988642339594154 1 0.16938214347578889 0.52894546611500048 0.79133000140429866 0.2082794184507949 0.7054234997318658 0.80860557108880304 0 0.81582077266975173 0.77657922508894406 0.18483084990574741 0.69988642339594154 1 0.16938214347578889 0.51133491425992716 1 0.16370661204795281 0.50803330197353713 0.83630110503668265 0 0.52894546611500048 0.79133000140429866 0.2082794184507949 0.59944234541082553 0.66416205381394655 0 0.7054234997318658 0.80860557108880304 0 0.52894546611500048 0.79133000140429866 0.2082794184507949 0.81582077266975173 0.77657922508894406 0.18483084990574741 0.60000000000138687 1 0 0.69988642339594154 1 0.16938214347578889 0.51133491425992716 1 0.16370661204795281 0.50803330197353713 0.83630110503668265 0 0.51133491425992716 1 0.16370661204795281 0.40000000000166441 1 0 0.60000000000138687 1 0 0.50803330197353713 0.83630110503668265 0 0.50803330197353713 0.83630110503668265 0 0.59944234541082553 0.66416205381394655 0 0.7054234997318658 0.80860557108880304 0 0.52894546611500048 0.79133000140429866 0.2082794184507949 0.69988642339594154 1 0.16938214347578889 0.50803330197353713 0.83630110503668265 0 0.7054234997318658 0.80860557108880304 0 0.52894546611500048 0.79133000140429866 0.2082794184507949 0.60000000000138687 1 0 0.79999999999999982 1 0 0.69988642339594154 1 0.16938214347578889 0.7054234997318658 0.80860557108880304 0 0.50803330197353713 0.83630110503668265 0 0.60000000000138687 1 0 0.69988642339594154 1 0.16938214347578889 0.7054234997318658 0.80860557108880304 0 0.69988642339594154 1 0.16938214347578889 0.82751535738810444 1 0.31407731390515509 0.61068558124908323 1 0.33127740899601937 0.81582077266975173 0.77657922508894406 0.18483084990574741 0.82751535738810444 1 0.31407731390515509 0.69988642339594154 1 0.16938214347578889 0.85358983848665693 1 0.14641016151322461 0.81582077266975173 0.77657922508894406 0.18483084990574741 0.69988642339594154 1 0.16938214347578889 0.85358983848666903 0.85358983848666903 0 0.85358983848665693 1 0.14641016151322461 0.81582077266975173 0.77657922508894406 0.18483084990574741 0.85358983848665693 1 0.14641016151322461 1 0.85358983848655678 0.14641016151332509 0.82751535738810444 1 0.31407731390515509 0.81582077266975173 0.77657922508894406 0.18483084990574741 0.85358983848666903 0.85358983848666903 0 0.85358983848665693 1 0.14641016151322461 0.79999999999999982 1 0 0.69988642339594154 1 0.16938214347578889 0.69988642339594154 1 0.16938214347578889 0.79999999999999982 1 0 0.85358983848666903 0.85358983848666903 0 0.7054234997318658 0.80860557108880304 0 0.85358983848666903 0.85358983848666903 0 0.7054234997318658 0.80860557108880304 0 0.85173693729186062 0.69992182039541118 0 0.81582077266975173 0.77657922508894406 0.18483084990574741 0.69988642339594154 1 0.16938214347578889 0.7054234997318658 0.80860557108880304 0 0.85358983848666903 0.85358983848666903 0 0.81582077266975173 0.77657922508894406 0.18483084990574741 1 0.85358983848655678 0.14641016151332509 1 0.69449451837101916 0.15896804272136739 1 0.8148028884949543 0.31067093462944562 0.81582077266975173 0.77657922508894406 0.18483084990574741 0.82751535738810444 1 0.31407731390515509 1 0.85358983848655678 0.14641016151332509 1 0.8148028884949543 0.31067093462944562 0.81582077266975173 0.77657922508894406 0.18483084990574741 1 0.85358983848655678 0.14641016151332509 0.85358983848666903 0.85358983848666903 0 1 0.79999999999999982 0 0.81582077266975173 0.77657922508894406 0.18483084990574741 1 0.79999999999999982 0 0.81582077266975173 0.77657922508894406 0.18483084990574741 1 0.69449451837101916 0.15896804272136739 1 0.85358983848655678 0.14641016151332509 0.85358983848666903 0.85358983848666903 0 1 0.85358983848655678 0.14641016151332509 0.85358983848665693 1 0.14641016151322461 0.81582077266975173 0.77657922508894406 0.18483084990574741 0.85358983848666903 0.85358983848666903 0 0.85173693729186062 0.69992182039541118 0 1 0.79999999999999982 0 0.81582077266975173 0.77657922508894406 0.18483084990574741 1 0.85358983848655678 0.14641016151332509 0.85358983848665693 1 0.14641016151322461 1 1 0 0.85358983848666903 0.85358983848666903 0 1 1 0.19999999999955789 0.85358983848665693 1 0.14641016151322461 1 1 0 1 0.85358983848655678 0.14641016151332509 1 1 0 1 0.85358983848655678 0.14641016151332509 0.85358983848666903 0.85358983848666903 0 1 0.79999999999999982 0 0.79999999999999982 1 0 1 1 0 0.85358983848665693 1 0.14641016151322461 0.85358983848666903 0.85358983848666903 0 0.82751535738810444 1 0.31407731390515509 0.85358983848665693 1 0.14641016151322461 1 1 0.19999999999955789 1 0.85358983848655678 0.14641016151332509 1 1 0.19999999999955789 1 0.8148028884949543 0.31067093462944562 0.82751535738810444 1 0.31407731390515509 1 0.85358983848655678 0.14641016151332509 1 1 0.3999999999989749 1 0.8148028884949543 0.31067093462944562 0.82751535738810444 1 0.31407731390515509 1 1 0.19999999999955789 0.82751535738810444 1 0.31407731390515509 0.77374673111774417 0.78860835645735528 0.49829081152968557 0.68456408135056701 0.68607101396845627 0.31096060989957619 0.81582077266975173 0.77657922508894406 0.18483084990574741 1 0.8148028884949543 0.31067093462944562 0.77374673111774417 0.78860835645735528 0.49829081152968557 0.82751535738810444 1 0.31407731390515509 0.81582077266975173 0.77657922508894406 0.18483084990574741 1 0.8148028884949543 0.31067093462944562 0.68456408135056701 0.68607101396845627 0.31096060989957619 0.77374673111774417 0.78860835645735528 0.49829081152968557 0.81582077266975173 0.77657922508894406 0.18483084990574741 1 0.8148028884949543 0.31067093462944562 0.86762395692956074 1 0.5060815484123421 0.82751535738810444 1 0.31407731390515509 0.77374673111774417 0.78860835645735528 0.49829081152968557 0.68240285647621723 1 0.52310058211166854 0.82751535738810444 1 0.31407731390515509 0.86762395692956074 1 0.5060815484123421 0.77374673111774417 0.78860835645735528 0.49829081152968557 0.86762395692956074 1 0.5060815484123421 1 1 0.3999999999989749 1 0.8148028884949543 0.31067093462944562 0.82751535738810444 1 0.31407731390515509 1 1 0.3999999999989749 1 0.83630110503662825 0.50803330197135588 0.86762395692956074 1 0.5060815484123421 1 0.8148028884949543 0.31067093462944562 1 0.8148028884949543 0.31067093462944562 1 0.83630110503662825 0.50803330197135588 0.86762395692956074 1 0.5060815484123421 0.77374673111774417 0.78860835645735528 0.49829081152968557 1 0.8148028884949543 0.31067093462944562 1 0.68975022421527898 0.45812322962078778 1 0.83630110503662825 0.50803330197135588 0.77374673111774417 0.78860835645735528 0.49829081152968557 1 0.39615100178016449 0.32925244736082498 0.7504488434426726 0.53051757989633308 0.49836643074154852 1 0.60020898676431722 0.32446581821274012 0.77713227489941183 0.50036915849493024 0.21774643624003751 1 0.68975022421527898 0.45812322962078778 0.68456408135056701 0.68607101396845627 0.31096060989957619 1 0.60020898676431722 0.32446581821274012 0.7504488434426726 0.53051757989633308 0.49836643074154852 1 0.8148028884949543 0.31067093462944562 0.68456408135056701 0.68607101396845627 0.31096060989957619 1 0.68975022421527898 0.45812322962078778 0.77374673111774417 0.78860835645735528 0.49829081152968557 1 0.68975022421527898 0.45812322962078778 0.68456408135056701 0.68607101396845627 0.31096060989957619 0.7504488434426726 0.53051757989633308 0.49836643074154852 0.77374673111774417 0.78860835645735528 0.49829081152968557 1 0.68975022421527898 0.45812322962078778 1 0.8148028884949543 0.31067093462944562 1 0.60020898676431722 0.32446581821274012 0.68456408135056701 0.68607101396845627 0.31096060989957619 0.68456408135056701 0.68607101396845627 0.31096060989957619 1 0.60020898676431722 0.32446581821274012 0.7504488434426726 0.53051757989633308 0.49836643074154852 0.77713227489941183 0.50036915849493024 0.21774643624003751 1 0.8148028884949543 0.31067093462944562 1 0.60020898676431722 0.32446581821274012 0.68456408135056701 0.68607101396845627 0.31096060989957619 0.81582077266975173 0.77657922508894406 0.18483084990574741 1 0.60020898676431722 0.32446581821274012 0.77713227489941183 0.50036915849493024 0.21774643624003751 0.68456408135056701 0.68607101396845627 0.31096060989957619 0.81582077266975173 0.77657922508894406 0.18483084990574741 1 0.50000000000229983 0.51961524226898759 1 0.68975022421527898 0.45812322962078778 1 0.60020898676431722 0.32446581821274012 0.7504488434426726 0.53051757989633308 0.49836643074154852 1 0.39615100178016449 0.32925244736082498 1 0.50000000000229983 0.51961524226898759 1 0.60020898676431722 0.32446581821274012 0.7504488434426726 0.53051757989633308 0.49836643074154852 0.84191918937744659 0.51186163305076127 0 1 0.49836539647890021 0.17226134197269399 1 0.69449451837101916 0.15896804272136739 0.77713227489941183 0.50036915849493024 0.21774643624003751 1 0.69449451837101916 0.15896804272136739 0.85173693729186062 0.69992182039541118 0 0.77713227489941183 0.50036915849493024 0.21774643624003751 0.81582077266975173 0.77657922508894406 0.18483084990574741 1 0.69449451837101916 0.15896804272136739 0.77713227489941183 0.50036915849493024 0.21774643624003751 1 0.60020898676431722 0.32446581821274012 0.81582077266975173 0.77657922508894406 0.18483084990574741 1 0.69449451837101916 0.15896804272136739 1 0.49836539647890021 0.17226134197269399 1 0.60020898676431722 0.32446581821274012 0.77713227489941183 0.50036915849493024 0.21774643624003751 0.72722573386132172 0.60922248848163563 0 0.77713227489941183 0.50036915849493024 0.21774643624003751 0.85173693729186062 0.69992182039541118 0 0.81582077266975173 0.77657922508894406 0.18483084990574741 0.72722573386132172 0.60922248848163563 0 0.68456408135056701 0.68607101396845627 0.31096060989957619 0.77713227489941183 0.50036915849493024 0.21774643624003751 0.81582077266975173 0.77657922508894406 0.18483084990574741 1 0.8148028884949543 0.31067093462944562 1 0.69449451837101916 0.15896804272136739 1 0.60020898676431722 0.32446581821274012 0.81582077266975173 0.77657922508894406 0.18483084990574741 0.72722573386132172 0.60922248848163563 0 0.67320508075660079 0.46954769941202479 0 0.84191918937744659 0.51186163305076127 0 0.77713227489941183 0.50036915849493024 0.21774643624003751 0.84191918937744659 0.51186163305076127 0 1 0.69449451837101916 0.15896804272136739 0.85173693729186062 0.69992182039541118 0 0.77713227489941183 0.50036915849493024 0.21774643624003751 0.72722573386132172 0.60922248848163563 0 0.84191918937744659 0.51186163305076127 0 0.85173693729186062 0.69992182039541118 0 0.77713227489941183 0.50036915849493024 0.21774643624003751 0.7054234997318658 0.80860557108880304 0 0.72722573386132172 0.60922248848163563 0 0.85173693729186062 0.69992182039541118 0 0.81582077266975173 0.77657922508894406 0.18483084990574741 1 0.69449451837101916 0.15896804272136739 0.85173693729186062 0.69992182039541118 0 1 0.79999999999999982 0 1 0.60000000000138687 0 1 0.69449451837101916 0.15896804272136739 0.81582077266975173 0.77657922508894406 0.18483084990574741 1 0.79999999999999982 0 0.85173693729186062 0.69992182039541118 0 0.84191918937744659 0.51186163305076127 0 0.85173693729186062 0.69992182039541118 0 1 0.69449451837101916 0.15896804272136739 1 0.60000000000138687 0 1 0.60000000000138687 0 1 0.69449451837101916 0.15896804272136739 0.84191918937744659 0.51186163305076127 0 1 0.49836539647890021 0.17226134197269399 1 0.40000000000166441 0 1 0.60000000000138687 0 0.84191918937744659 0.51186163305076127 0 1 0.49836539647890021 0.17226134197269399 0.80839867011859301 0.31807971531731721 0 0.85358983848570813 0.1464101615143738 0 1 0.30074819035868428 0.16929708765640439 0.68777432594363841 0.31447353261427252 0.31366778418247038 0.80839867011859301 0.31807971531731721 0 1 0.40000000000166441 0 0.84191918937744659 0.51186163305076127 0 1 0.49836539647890021 0.17226134197269399 1 0.40000000000166441 0 0.80839867011859301 0.31807971531731721 0 1 0.30074819035868428 0.16929708765640439 1 0.49836539647890021 0.17226134197269399 0.80839867011859301 0.31807971531731721 0 0.68777432594363841 0.31447353261427252 0.31366778418247038 1 0.30074819035868428 0.16929708765640439 0.77713227489941183 0.50036915849493024 0.21774643624003751 0.84191918937744659 0.51186163305076127 0 0.67320508075660079 0.46954769941202479 0 0.80839867011859301 0.31807971531731721 0 0.77713227489941183 0.50036915849493024 0.21774643624003751 0.84191918937744659 0.51186163305076127 0 0.80839867011859301 0.31807971531731721 0 1 0.49836539647890021 0.17226134197269399 0.77713227489941183 0.50036915849493024 0.21774643624003751 0.80839867011859301 0.31807971531731721 0 1 0.30074819035868428 0.16929708765640439 1 0.49836539647890021 0.17226134197269399 0.77713227489941183 0.50036915849493024 0.21774643624003751 1 0.30074819035868428 0.16929708765640439 1 0.39615100178016449 0.32925244736082498 1 0.49836539647890021 0.17226134197269399 0.77713227489941183 0.50036915849493024 0.21774643624003751 1 0.30074819035868428 0.16929708765640439 0.80839867011859301 0.31807971531731721 0 1 0.40000000000166441 0 1 0.20000000000083221 0 1 0.30074819035868428 0.16929708765640439 0.80839867011859301 0.31807971531731721 0 1 0.20000000000083221 0 0.85358983848570813 0.1464101615143738 0 1 0.20000000000083221 0 1 0.14641016151453831 0.14641016151419689 1 0.30074819035868428 0.16929708765640439 0.85358983848570813 0.1464101615143738 0 0.83057691269884504 0 0.30018449338884379 0.85358983848650494 0 0.1464101615132356 0.68592116352011878 0 0.1724872797865501 0.68777432594363841 0.31447353261427252 0.31366778418247038 0.80839867011859301 0.31807971531731721 0 0.69380980079964416 0.1619694349440581 0 0.85358983848570813 0.1464101615143738 0 0.68777432594363841 0.31447353261427252 0.31366778418247038 1 0.18804489794556911 0.3161072616634244 1 0.30074819035868428 0.16929708765640439 1 0.14641016151453831 0.14641016151419689 0.68777432594363841 0.31447353261427252 0.31366778418247038 1 0.14641016151453831 0.14641016151419689 1 0.30074819035868428 0.16929708765640439 0.85358983848570813 0.1464101615143738 0 0.68777432594363841 0.31447353261427252 0.31366778418247038 1 0.14641016151453831 0.14641016151419689 0.85358983848650494 0 0.1464101615132356 0.83057691269884504 0 0.30018449338884379 0.68777432594363841 0.31447353261427252 0.31366778418247038 1 0.14641016151453831 0.14641016151419689 0.85358983848570813 0.1464101615143738 0 0.85358983848650494 0 0.1464101615132356 0.68777432594363841 0.31447353261427252 0.31366778418247038 0.69380980079964416 0.1619694349440581 0 0.85358983848650494 0 0.1464101615132356 0.85358983848570813 0.1464101615143738 0 0.68777432594363841 0.31447353261427252 0.31366778418247038 0.85358983848650494 0 0.1464101615132356 0.83057691269884504 0 0.30018449338884379 1 0 0.19999999999955789 1 0.14641016151453831 0.14641016151419689 0.83057691269884504 0 0.30018449338884379 1 0.18804489794556911 0.3161072616634244 1 0 0.19999999999955789 1 0.14641016151453831 0.14641016151419689 0.85358983848570813 0.1464101615143738 0 1 0 0 0.85358983848650494 0 0.1464101615132356 0.79999999999947335 0 0 0.85358983848650494 0 0.1464101615132356 1 0 0.19999999999955789 1 0 0 1 0.14641016151453831 0.14641016151419689 1 0 0 1 0.14641016151453831 0.14641016151419689 1 0.20000000000083221 0 0.85358983848570813 0.1464101615143738 0 1 0.14641016151453831 0.14641016151419689 1 0 0 0.85358983848650494 0 0.1464101615132356 0.85358983848570813 0.1464101615143738 0 0.68592116352011878 0 0.1724872797865501 0.69380980079964416 0.1619694349440581 0 0.85358983848650494 0 0.1464101615132356 0.79999999999947335 0 0 0.85358983848570813 0.1464101615143738 0 0.85358983848650494 0 0.1464101615132356 0.69380980079964416 0.1619694349440581 0 0.79999999999947335 0 0 0.68592116352011878 0 0.1724872797865501 0.68777432594363841 0.31447353261427252 0.31366778418247038 0.69380980079964416 0.1619694349440581 0 0.5003997205654479 0.21136633249797621 0.2258422409314382 0.68592116352011878 0 0.1724872797865501 0.85358983848650494 0 0.1464101615132356 0.69380980079964416 0.1619694349440581 0 0.68777432594363841 0.31447353261427252 0.31366778418247038 0.69380980079964416 0.1619694349440581 0 0.68592116352011878 0 0.1724872797865501 0.59999999999894682 0 0 0.79999999999947335 0 0 0.49391845158624981 0 0.1323760430705655 0.3999999999989749 0 0 0.50966790549376417 0.16275515618023731 0 0.59999999999894682 0 0 0.50966790549376417 0.16275515618023731 0 0.69380980079964416 0.1619694349440581 0 0.68592116352011878 0 0.1724872797865501 0.59999999999894682 0 0 0.68592116352011878 0 0.1724872797865501 0.49391845158624981 0 0.1323760430705655 0.50966790549376417 0.16275515618023731 0 0.59999999999894682 0 0 0.47688326899416439 0 0.31741132792405607 0.68592116352011878 0 0.1724872797865501 0.49391845158624981 0 0.1323760430705655 0.5003997205654479 0.21136633249797621 0.2258422409314382 0.49391845158624981 0 0.1323760430705655 0.68592116352011878 0 0.1724872797865501 0.50966790549376417 0.16275515618023731 0 0.5003997205654479 0.21136633249797621 0.2258422409314382 0.50966790549376417 0.16275515618023731 0 0.68592116352011878 0 0.1724872797865501 0.69380980079964416 0.1619694349440581 0 0.5003997205654479 0.21136633249797621 0.2258422409314382 0.6104699881764214 0.32043363027358418 0 0.50966790549376417 0.16275515618023731 0 0.69380980079964416 0.1619694349440581 0 0.5003997205654479 0.21136633249797621 0.2258422409314382 0.6104699881764214 0.32043363027358418 0 0.68777432594363841 0.31447353261427252 0.31366778418247038 0.80839867011859301 0.31807971531731721 0 0.77713227489941183 0.50036915849493024 0.21774643624003751 0.6104699881764214 0.32043363027358418 0 0.69380980079964416 0.1619694349440581 0 0.68777432594363841 0.31447353261427252 0.31366778418247038 0.5003997205654479 0.21136633249797621 0.2258422409314382 0.80839867011859301 0.31807971531731721 0 0.6104699881764214 0.32043363027358418 0 0.69380980079964416 0.1619694349440581 0 0.68777432594363841 0.31447353261427252 0.31366778418247038 0.6104699881764214 0.32043363027358418 0 0.45812322962036273 0.31024977578535839 0 0.50966790549376417 0.16275515618023731 0 0.5003997205654479 0.21136633249797621 0.2258422409314382 0.45812322962036273 0.31024977578535839 0 0.6104699881764214 0.32043363027358418 0 0.5004045312576143 0.47050700646456922 0.24963111222780321 0.5003997205654479 0.21136633249797621 0.2258422409314382 0.77713227489941183 0.50036915849493024 0.21774643624003751 0.6104699881764214 0.32043363027358418 0 0.5004045312576143 0.47050700646456922 0.24963111222780321 0.67320508075660079 0.46954769941202479 0 0.68777432594363841 0.31447353261427252 0.31366778418247038 0.5004045312576143 0.47050700646456922 0.24963111222780321 0.6104699881764214 0.32043363027358418 0 0.5003997205654479 0.21136633249797621 0.2258422409314382 0.77713227489941183 0.50036915849493024 0.21774643624003751 0.5004045312576143 0.47050700646456922 0.24963111222780321 0.6104699881764214 0.32043363027358418 0 0.68777432594363841 0.31447353261427252 0.31366778418247038 0.51961524226956368 0.5000000000025091 0 0.6104699881764214 0.32043363027358418 0 0.67320508075660079 0.46954769941202479 0 0.5004045312576143 0.47050700646456922 0.24963111222780321 0.45812322962036273 0.31024977578535839 0 0.6104699881764214 0.32043363027358418 0 0.51961524226956368 0.5000000000025091 0 0.5004045312576143 0.47050700646456922 0.24963111222780321 0.6104699881764214 0.32043363027358418 0 0.80839867011859301 0.31807971531731721 0 0.67320508075660079 0.46954769941202479 0 0.77713227489941183 0.50036915849493024 0.21774643624003751 0.68777432594363841 0.31447353261427252 0.31366778418247038 0.7504488434426726 0.53051757989633308 0.49836643074154852 0.50000000000001332 0.49999999999999561 0.49999999999999561 0.50073570207385831 0.24848280280289631 0.52886631355986169 0.7504488434426726 0.53051757989633308 0.49836643074154852 0.50073570207385831 0.24848280280289631 0.52886631355986169 0.68777432594363841 0.31447353261427252 0.31366778418247038 0.77973766487723961 0.22090161127815711 0.50014622462635805 0.50000000000001332 0.49999999999999561 0.49999999999999561 0.7504488434426726 0.53051757989633308 0.49836643074154852 0.68777432594363841 0.31447353261427252 0.31366778418247038 0.5004045312576143 0.47050700646456922 0.24963111222780321 0.68777432594363841 0.31447353261427252 0.31366778418247038 0.5004045312576143 0.47050700646456922 0.24963111222780321 0.7504488434426726 0.53051757989633308 0.49836643074154852 0.77713227489941183 0.50036915849493024 0.21774643624003751 0.50073570207385831 0.24848280280289631 0.52886631355986169 0.5004045312576143 0.47050700646456922 0.24963111222780321 0.68777432594363841 0.31447353261427252 0.31366778418247038 0.5003997205654479 0.21136633249797621 0.2258422409314382 0.50000000000001332 0.49999999999999561 0.49999999999999561 0.68777432594363841 0.31447353261427252 0.31366778418247038 0.50073570207385831 0.24848280280289631 0.52886631355986169 0.5004045312576143 0.47050700646456922 0.24963111222780321 0.83057691269884504 0 0.30018449338884379 0.68777432594363841 0.31447353261427252 0.31366778418247038 0.66852282575985944 0 0.3853248791658106 0.77973766487723961 0.22090161127815711 0.50014622462635805 0.68592116352011878 0 0.1724872797865501 0.66852282575985944 0 0.3853248791658106 0.83057691269884504 0 0.30018449338884379 0.68777432594363841 0.31447353261427252 0.31366778418247038 0.66852282575985944 0 0.3853248791658106 0.47688326899416439 0 0.31741132792405607 0.50073570207385831 0.24848280280289631 0.52886631355986169 0.5003997205654479 0.21136633249797621 0.2258422409314382 0.68969697123394857 0 0.54179813558228873 0.66852282575985944 0 0.3853248791658106 0.50073570207385831 0.24848280280289631 0.52886631355986169 0.77973766487723961 0.22090161127815711 0.50014622462635805 0.68592116352011878 0 0.1724872797865501 0.66852282575985944 0 0.3853248791658106 0.68777432594363841 0.31447353261427252 0.31366778418247038 0.5003997205654479 0.21136633249797621 0.2258422409314382 0.66852282575985944 0 0.3853248791658106 0.50073570207385831 0.24848280280289631 0.52886631355986169 0.68777432594363841 0.31447353261427252 0.31366778418247038 0.5003997205654479 0.21136633249797621 0.2258422409314382 0.68777432594363841 0.31447353261427252 0.31366778418247038 0.50073570207385831 0.24848280280289631 0.52886631355986169 0.66852282575985944 0 0.3853248791658106 0.77973766487723961 0.22090161127815711 0.50014622462635805 0.68592116352011878 0 0.1724872797865501 0.47688326899416439 0 0.31741132792405607 0.66852282575985944 0 0.3853248791658106 0.5003997205654479 0.21136633249797621 0.2258422409314382 0.50000000000250922 0 0.48038475773043671 0.66852282575985944 0 0.3853248791658106 0.47688326899416439 0 0.31741132792405607 0.50073570207385831 0.24848280280289631 0.52886631355986169 0.50000000000250922 0 0.48038475773043671 0.68969697123394857 0 0.54179813558228873 0.66852282575985944 0 0.3853248791658106 0.50073570207385831 0.24848280280289631 0.52886631355986169 0.66852282575985944 0 0.3853248791658106 0.68969697123394857 0 0.54179813558228873 0.83534964916824084 0 0.4902996892628636 0.77973766487723961 0.22090161127815711 0.50014622462635805 1 0.18804489794556911 0.3161072616634244 0.68777432594363841 0.31447353261427252 0.31366778418247038 0.83057691269884504 0 0.30018449338884379 0.77973766487723961 0.22090161127815711 0.50014622462635805 1 0.18804489794556911 0.3161072616634244 1 0.14641016151453831 0.14641016151419689 0.83057691269884504 0 0.30018449338884379 0.68777432594363841 0.31447353261427252 0.31366778418247038 0.83534964916824084 0 0.4902996892628636 0.83057691269884504 0 0.30018449338884379 0.66852282575985944 0 0.3853248791658106 0.77973766487723961 0.22090161127815711 0.50014622462635805 0.83534964916824084 0 0.4902996892628636 1 0.18804489794556911 0.3161072616634244 0.83057691269884504 0 0.30018449338884379 0.77973766487723961 0.22090161127815711 0.50014622462635805 0.83057691269884504 0 0.30018449338884379 0.83534964916824084 0 0.4902996892628636 1 0 0.3999999999989749 1 0.18804489794556911 0.3161072616634244 0.83534964916824084 0 0.4902996892628636 1 0.162755156180173 0.50966790549372887 1 0 0.59999999999894682 1 0 0.3999999999989749 1 0 0.3999999999989749 0.83534964916824084 0 0.4902996892628636 1 0.162755156180173 0.50966790549372887 1 0.18804489794556911 0.3161072616634244 1 0.18804489794556911 0.3161072616634244 1 0 0.3999999999989749 0.83057691269884504 0 0.30018449338884379 1 0 0.19999999999955789 1 0.31024977578542368 0.45812322962028301 1 0.18804489794556911 0.3161072616634244 1 0.162755156180173 0.50966790549372887 0.77973766487723961 0.22090161127815711 0.50014622462635805 0.83534964916824084 0 0.4902996892628636 1 0.162755156180173 0.50966790549372887 1 0.18804489794556911 0.3161072616634244 0.77973766487723961 0.22090161127815711 0.50014622462635805 1 0.39615100178016449 0.32925244736082498 0.68777432594363841 0.31447353261427252 0.31366778418247038 0.7504488434426726 0.53051757989633308 0.49836643074154852 0.77713227489941183 0.50036915849493024 0.21774643624003751 1 0.39615100178016449 0.32925244736082498 1 0.18804489794556911 0.3161072616634244 1 0.31024977578542368 0.45812322962028301 0.68777432594363841 0.31447353261427252 0.31366778418247038 1 0.31024977578542368 0.45812322962028301 0.7504488434426726 0.53051757989633308 0.49836643074154852 0.68777432594363841 0.31447353261427252 0.31366778418247038 0.77973766487723961 0.22090161127815711 0.50014622462635805 1 0.30074819035868428 0.16929708765640439 1 0.18804489794556911 0.3161072616634244 1 0.39615100178016449 0.32925244736082498 0.68777432594363841 0.31447353261427252 0.31366778418247038 1 0.31024977578542368 0.45812322962028301 0.68777432594363841 0.31447353261427252 0.31366778418247038 1 0.18804489794556911 0.3161072616634244 0.77973766487723961 0.22090161127815711 0.50014622462635805 1 0.30074819035868428 0.16929708765640439 0.68777432594363841 0.31447353261427252 0.31366778418247038 1 0.39615100178016449 0.32925244736082498 0.77713227489941183 0.50036915849493024 0.21774643624003751 1 0.39615100178016449 0.32925244736082498 0.68777432594363841 0.31447353261427252 0.31366778418247038 1 0.31024977578542368 0.45812322962028301 0.7504488434426726 0.53051757989633308 0.49836643074154852 1 0.60020898676431722 0.32446581821274012 1 0.49836539647890021 0.17226134197269399 1 0.39615100178016449 0.32925244736082498 0.77713227489941183 0.50036915849493024 0.21774643624003751 1 0.39615100178016449 0.32925244736082498 1 0.31024977578542368 0.45812322962028301 1 0.50000000000229983 0.51961524226898759 0.7504488434426726 0.53051757989633308 0.49836643074154852 1 0.33579115324550912 0.59952339316293046 0.7504488434426726 0.53051757989633308 0.49836643074154852 0.68742751001967084 0.31250796680084852 0.687427510020161 0.78019141325921404 0.49972466465542442 0.78019141325930785 1 0.33579115324550912 0.59952339316293046 1 0.39076805646076263 0.7272421105028648 0.68742751001967084 0.31250796680084852 0.687427510020161 0.81599560342209843 0.22280203704001911 0.81599560342233202 1 0.33579115324550912 0.59952339316293046 1 0.53045230059030524 0.6732050807565132 1 0.50000000000229983 0.51961524226898759 0.7504488434426726 0.53051757989633308 0.49836643074154852 1 0.33579115324550912 0.59952339316293046 0.7504488434426726 0.53051757989633308 0.49836643074154852 1 0.31024977578542368 0.45812322962028301 0.77973766487723961 0.22090161127815711 0.50014622462635805 0.68742751001967084 0.31250796680084852 0.687427510020161 0.77973766487723961 0.22090161127815711 0.50014622462635805 1 0.33579115324550912 0.59952339316293046 0.81599560342209843 0.22280203704001911 0.81599560342233202 1 0.33579115324550912 0.59952339316293046 0.68742751001967084 0.31250796680084852 0.687427510020161 0.7504488434426726 0.53051757989633308 0.49836643074154852 0.77973766487723961 0.22090161127815711 0.50014622462635805 1 0.53045230059030524 0.6732050807565132 0.7504488434426726 0.53051757989633308 0.49836643074154852 1 0.33579115324550912 0.59952339316293046 0.78019141325921404 0.49972466465542442 0.78019141325930785 1 0.39076805646076263 0.7272421105028648 1 0.33579115324550912 0.59952339316293046 0.68742751001967084 0.31250796680084852 0.687427510020161 0.78019141325921404 0.49972466465542442 0.78019141325930785 1 0.33579115324550912 0.59952339316293046 1 0.50000000000229983 0.51961524226898759 1 0.31024977578542368 0.45812322962028301 0.7504488434426726 0.53051757989633308 0.49836643074154852 1 0.39076805646076263 0.7272421105028648 1 0.53045230059030524 0.6732050807565132 1 0.33579115324550912 0.59952339316293046 0.78019141325921404 0.49972466465542442 0.78019141325930785 1 0.33579115324550912 0.59952339316293046 1 0.1912596090855686 0.70565701451953711 1 0.39076805646076263 0.7272421105028648 0.81599560342209843 0.22280203704001911 0.81599560342233202 1 0.33579115324550912 0.59952339316293046 1 0.31024977578542368 0.45812322962028301 1 0.162755156180173 0.50966790549372887 0.77973766487723961 0.22090161127815711 0.50014622462635805 1 0.162755156180173 0.50966790549372887 0.81469961246449951 0 0.68914937826112133 1 0.1912596090855686 0.70565701451953711 0.77973766487723961 0.22090161127815711 0.50014622462635805 0.81469961246449951 0 0.68914937826112133 0.77973766487723961 0.22090161127815711 0.50014622462635805 0.68742751001967084 0.31250796680084852 0.687427510020161 0.81599560342209843 0.22280203704001911 0.81599560342233202 0.81469961246449951 0 0.68914937826112133 1 0.1912596090855686 0.70565701451953711 0.77973766487723961 0.22090161127815711 0.50014622462635805 0.81599560342209843 0.22280203704001911 0.81599560342233202 1 0.1912596090855686 0.70565701451953711 1 0.33579115324550912 0.59952339316293046 0.77973766487723961 0.22090161127815711 0.50014622462635805 0.81599560342209843 0.22280203704001911 0.81599560342233202 1 0.162755156180173 0.50966790549372887 1 0.1912596090855686 0.70565701451953711 1 0.33579115324550912 0.59952339316293046 0.77973766487723961 0.22090161127815711 0.50014622462635805 1 0.1912596090855686 0.70565701451953711 0.81469961246449951 0 0.68914937826112133 1 0 0.59999999999894682 1 0 0.79999999999947335 0.81469961246449951 0 0.68914937826112133 1 0 0.59999999999894682 1 0.162755156180173 0.50966790549372887 1 0.1912596090855686 0.70565701451953711 1 0.162755156180173 0.50966790549372887 1 0 0.59999999999894682 0.81469961246449951 0 0.68914937826112133 0.83534964916824084 0 0.4902996892628636 0.81469961246449951 0 0.68914937826112133 0.83534964916824084 0 0.4902996892628636 0.68969697123394857 0 0.54179813558228873 0.77973766487723961 0.22090161127815711 0.50014622462635805 0.81469961246449951 0 0.68914937826112133 1 0.162755156180173 0.50966790549372887 0.83534964916824084 0 0.4902996892628636 0.77973766487723961 0.22090161127815711 0.50014622462635805 0.68969697123394857 0 0.54179813558228873 0.6002015905170176 0 0.67551889168744117 0.68742751001967084 0.31250796680084852 0.687427510020161 0.50073570207385831 0.24848280280289631 0.52886631355986169 0.6002015905170176 0 0.67551889168744117 0.81469961246449951 0 0.68914937826112133 0.68969697123394857 0 0.54179813558228873 0.68742751001967084 0.31250796680084852 0.687427510020161 0.81469961246449951 0 0.68914937826112133 0.68969697123394857 0 0.54179813558228873 0.68742751001967084 0.31250796680084852 0.687427510020161 0.77973766487723961 0.22090161127815711 0.50014622462635805 0.69447607299129699 0 0.84099946107689361 0.68742751001967084 0.31250796680084852 0.687427510020161 0.6002015905170176 0 0.67551889168744117 0.50084626324420545 0.22238844715913 0.78084811589659187 0.68742751001967084 0.31250796680084852 0.687427510020161 0.68969697123394857 0 0.54179813558228873 0.50073570207385831 0.24848280280289631 0.52886631355986169 0.77973766487723961 0.22090161127815711 0.50014622462635805 0.68742751001967084 0.31250796680084852 0.687427510020161 0.50073570207385831 0.24848280280289631 0.52886631355986169 0.6002015905170176 0 0.67551889168744117 0.50084626324420545 0.22238844715913 0.78084811589659187 0.6002015905170176 0 0.67551889168744117 0.81469961246449951 0 0.68914937826112133 0.68742751001967084 0.31250796680084852 0.687427510020161 0.81599560342209843 0.22280203704001911 0.81599560342233202 0.68969697123394857 0 0.54179813558228873 0.50000000000250922 0 0.48038475773043671 0.6002015905170176 0 0.67551889168744117 0.50073570207385831 0.24848280280289631 0.52886631355986169 0.50000000000001332 0.49999999999999561 0.49999999999999561 0.68742751001967084 0.31250796680084852 0.687427510020161 0.49816183246753282 0.5307146639261795 0.75045686993209071 0.50073570207385831 0.24848280280289631 0.52886631355986169 0.68742751001967084 0.31250796680084852 0.687427510020161 0.50000000000001332 0.49999999999999561 0.49999999999999561 0.7504488434426726 0.53051757989633308 0.49836643074154852 0.50073570207385831 0.24848280280289631 0.52886631355986169 0.68742751001967084 0.31250796680084852 0.687427510020161 0.7504488434426726 0.53051757989633308 0.49836643074154852 0.50000000000001332 0.49999999999999561 0.49999999999999561 0.49816183246753282 0.5307146639261795 0.75045686993209071 0.7504488434426726 0.53051757989633308 0.49836643074154852 0.49816183246753282 0.5307146639261795 0.75045686993209071 0.68742751001967084 0.31250796680084852 0.687427510020161 0.78019141325921404 0.49972466465542442 0.78019141325930785 0.49816183246753282 0.5307146639261795 0.75045686993209071 0.50073570207385831 0.24848280280289631 0.52886631355986169 0.68742751001967084 0.31250796680084852 0.687427510020161 0.50084626324420545 0.22238844715913 0.78084811589659187 0.68742751001967084 0.31250796680084852 0.687427510020161 0.50073570207385831 0.24848280280289631 0.52886631355986169 0.7504488434426726 0.53051757989633308 0.49836643074154852 0.77973766487723961 0.22090161127815711 0.50014622462635805 0.45812322962173568 0.31024977578554058 1 0.49816183246753282 0.5307146639261795 0.75045686993209071 0.59952339316492498 0.33579115324593939 1 0.50084626324420545 0.22238844715913 0.78084811589659187 0.59952339316492498 0.33579115324593939 1 0.68742751001967084 0.31250796680084852 0.687427510020161 0.72724211050425436 0.39076805646176382 1 0.81599560342209843 0.22280203704001911 0.81599560342233202 0.59952339316492498 0.33579115324593939 1 0.68742751001967084 0.31250796680084852 0.687427510020161 0.49816183246753282 0.5307146639261795 0.75045686993209071 0.78019141325921404 0.49972466465542442 0.78019141325930785 0.59952339316492498 0.33579115324593939 1 0.50084626324420545 0.22238844715913 0.78084811589659187 0.68742751001967084 0.31250796680084852 0.687427510020161 0.81599560342209843 0.22280203704001911 0.81599560342233202 0.59952339316492498 0.33579115324593939 1 0.49816183246753282 0.5307146639261795 0.75045686993209071 0.68742751001967084 0.31250796680084852 0.687427510020161 0.50084626324420545 0.22238844715913 0.78084811589659187 0.59952339316492498 0.33579115324593939 1 0.72724211050425436 0.39076805646176382 1 0.68742751001967084 0.31250796680084852 0.687427510020161 0.78019141325921404 0.49972466465542442 0.78019141325930785 0.59952339316492498 0.33579115324593939 1 0.49816183246753282 0.5307146639261795 0.75045686993209071 0.67320508075671459 0.53045230059073867 1 0.78019141325921404 0.49972466465542442 0.78019141325930785 0.70565701452089868 0.1912596090858541 1 0.59952339316492498 0.33579115324593939 1 0.72724211050425436 0.39076805646176382 1 0.81599560342209843 0.22280203704001911 0.81599560342233202 0.59952339316492498 0.33579115324593939 1 0.67320508075671459 0.53045230059073867 1 0.72724211050425436 0.39076805646176382 1 0.78019141325921404 0.49972466465542442 0.78019141325930785 0.45812322962173568 0.31024977578554058 1 0.51961524226934941 0.50000000000250611 1 0.59952339316492498 0.33579115324593939 1 0.49816183246753282 0.5307146639261795 0.75045686993209071 0.67320508075671459 0.53045230059073867 1 0.59952339316492498 0.33579115324593939 1 0.51961524226934941 0.50000000000250611 1 0.49816183246753282 0.5307146639261795 0.75045686993209071 0.59952339316492498 0.33579115324593939 1 0.50966790549576724 0.1627551561802443 1 0.45812322962173568 0.31024977578554058 1 0.50084626324420545 0.22238844715913 0.78084811589659187 0.50966790549576724 0.1627551561802443 1 0.70565701452089868 0.1912596090858541 1 0.69447607299129699 0 0.84099946107689361 0.50084626324420545 0.22238844715913 0.78084811589659187 0.68742751001967084 0.31250796680084852 0.687427510020161 0.50084626324420545 0.22238844715913 0.78084811589659187 0.69447607299129699 0 0.84099946107689361 0.81599560342209843 0.22280203704001911 0.81599560342233202 0.70565701452089868 0.1912596090858541 1 0.69447607299129699 0 0.84099946107689361 0.50084626324420545 0.22238844715913 0.78084811589659187 0.81599560342209843 0.22280203704001911 0.81599560342233202 0.70565701452089868 0.1912596090858541 1 0.50084626324420545 0.22238844715913 0.78084811589659187 0.59952339316492498 0.33579115324593939 1 0.81599560342209843 0.22280203704001911 0.81599560342233202 0.70565701452089868 0.1912596090858541 1 0.50966790549576724 0.1627551561802443 1 0.59952339316492498 0.33579115324593939 1 0.50084626324420545 0.22238844715913 0.78084811589659187 0.6002015905170176 0 0.67551889168744117 0.68742751001967084 0.31250796680084852 0.687427510020161 0.69447607299129699 0 0.84099946107689361 0.81599560342209843 0.22280203704001911 0.81599560342233202 0.69447607299129699 0 0.84099946107689361 0.6002015905170176 0 0.67551889168744117 0.49836539647917322 0 0.82773865802723501 0.50084626324420545 0.22238844715913 0.78084811589659187 0.69447607299129699 0 0.84099946107689361 0.49836539647917322 0 0.82773865802723501 0.50966790549576724 0.1627551561802443 1 0.50084626324420545 0.22238844715913 0.78084811589659187 0.60000000000138687 0 1 0.49836539647917322 0 0.82773865802723501 0.50966790549576724 0.1627551561802443 1 0.69447607299129699 0 0.84099946107689361 0.50966790549576724 0.1627551561802443 1 0.40000000000166441 0 1 0.49836539647917322 0 0.82773865802723501 0.60000000000138687 0 1 0.50966790549576724 0.1627551561802443 1 0.70565701452089868 0.1912596090858541 1 0.60000000000138687 0 1 0.69447607299129699 0 0.84099946107689361 0.70565701452089868 0.1912596090858541 1 0.60000000000138687 0 1 0.69447607299129699 0 0.84099946107689361 0.79999999999999982 0 1 0.6002015905170176 0 0.67551889168744117 0.69447607299129699 0 0.84099946107689361 0.81469961246449951 0 0.68914937826112133 0.81599560342209843 0.22280203704001911 0.81599560342233202 0.70565701452089868 0.1912596090858541 1 0.85358983848646974 0.14641016151341191 1 0.69447607299129699 0 0.84099946107689361 0.81599560342209843 0.22280203704001911 0.81599560342233202 0.85358983848646974 0.14641016151341191 1 0.70565701452089868 0.1912596090858541 1 0.85173693729199718 0.30007817960516198 1 0.81599560342209843 0.22280203704001911 0.81599560342233202 1 0.1912596090855686 0.70565701451953711 0.81469961246449951 0 0.68914937826112133 0.85358983848570524 0 0.85358983848556425 0.81599560342209843 0.22280203704001911 0.81599560342233202 0.69447607299129699 0 0.84099946107689361 0.85358983848570524 0 0.85358983848556425 0.81469961246449951 0 0.68914937826112133 0.81599560342209843 0.22280203704001911 0.81599560342233202 0.85358983848570524 0 0.85358983848556425 0.69447607299129699 0 0.84099946107689361 0.85358983848646974 0.14641016151341191 1 0.81599560342209843 0.22280203704001911 0.81599560342233202 0.79999999999999982 0 1 0.69447607299129699 0 0.84099946107689361 0.70565701452089868 0.1912596090858541 1 0.85358983848646974 0.14641016151341191 1 0.79999999999999982 0 1 0.85358983848570524 0 0.85358983848556425 0.69447607299129699 0 0.84099946107689361 0.85358983848646974 0.14641016151341191 1 1 0 1 1 0.14641016151333891 0.85358983848640169 0.85358983848570524 0 0.85358983848556425 0.85358983848646974 0.14641016151341191 1 0.79999999999999982 0 1 1 0 1 0.85358983848570524 0 0.85358983848556425 0.85358983848646974 0.14641016151341191 1 0.85358983848646974 0.14641016151341191 1 1 0 1 1 0.14641016151333891 0.85358983848640169 1 0.19999999999955789 1 0.85358983848570524 0 0.85358983848556425 1 0.14641016151333891 0.85358983848640169 1 0 1 1 0 0.79999999999947335 0.85358983848570524 0 0.85358983848556425 0.81469961246449951 0 0.68914937826112133 1 0.1912596090855686 0.70565701451953711 1 0 0.79999999999947335 1 0.1912596090855686 0.70565701451953711 1 0.14641016151333891 0.85358983848640169 0.85358983848570524 0 0.85358983848556425 1 0 0.79999999999947335 1 0.14641016151333891 0.85358983848640169 1 0.30007817960499339 0.85173693729139244 1 0.1912596090855686 0.70565701451953711 0.81599560342209843 0.22280203704001911 0.81599560342233202 1 0.1912596090855686 0.70565701451953711 0.85358983848570524 0 0.85358983848556425 1 0.14641016151333891 0.85358983848640169 0.81599560342209843 0.22280203704001911 0.81599560342233202 0.85358983848646974 0.14641016151341191 1 0.85173693729199718 0.30007817960516198 1 1 0.19999999999955789 1 0.81599560342209843 0.22280203704001911 0.81599560342233202 1 0.14641016151333891 0.85358983848640169 0.85358983848646974 0.14641016151341191 1 1 0.19999999999955789 1 0.81599560342209843 0.22280203704001911 0.81599560342233202 1 0.14641016151333891 0.85358983848640169 1 0.19999999999955789 1 1 0.30007817960499339 0.85173693729139244 0.81599560342209843 0.22280203704001911 0.81599560342233202 0.85358983848570524 0 0.85358983848556425 0.85358983848646974 0.14641016151341191 1 1 0.14641016151333891 0.85358983848640169 0.81599560342209843 0.22280203704001911 0.81599560342233202 1 0.19999999999955789 1 1 0.30007817960499339 0.85173693729139244 0.85173693729199718 0.30007817960516198 1 1 0.3999999999989749 1 1 0.19999999999955789 1 0.85173693729199718 0.30007817960516198 1 1 0.30007817960499339 0.85173693729139244 0.81599560342209843 0.22280203704001911 0.81599560342233202 1 0.30007817960499339 0.85173693729139244 0.85173693729199718 0.30007817960516198 1 0.78019141325921404 0.49972466465542442 0.78019141325930785 0.81599560342209843 0.22280203704001911 0.81599560342233202 0.68742751001967084 0.31250796680084852 0.687427510020161 0.78019141325921404 0.49972466465542442 0.78019141325930785 0.72724211050425436 0.39076805646176382 1 0.81599560342209843 0.22280203704001911 0.81599560342233202 1 0.39076805646076263 0.7272421105028648 1 0.30007817960499339 0.85173693729139244 0.78019141325921404 0.49972466465542442 0.78019141325930785 0.81599560342209843 0.22280203704001911 0.81599560342233202 0.85173693729199718 0.30007817960516198 1 0.72724211050425436 0.39076805646176382 1 0.78019141325921404 0.49972466465542442 0.78019141325930785 0.81599560342209843 0.22280203704001911 0.81599560342233202 1 0.39076805646076263 0.7272421105028648 0.78019141325921404 0.49972466465542442 0.78019141325930785 0.68742751001967084 0.31250796680084852 0.687427510020161 0.81599560342209843 0.22280203704001911 0.81599560342233202 0.85173693729199718 0.30007817960516198 1 1 0.30007817960499339 0.85173693729139244 1 0.48813836695007229 0.84191918937727617 1 0.3999999999989749 1 0.72724211050425436 0.39076805646176382 1 0.85173693729199718 0.30007817960516198 1 0.70565701452089868 0.1912596090858541 1 0.81599560342209843 0.22280203704001911 0.81599560342233202 1 0.1912596090855686 0.70565701451953711 1 0.30007817960499339 0.85173693729139244 1 0.39076805646076263 0.7272421105028648 0.81599560342209843 0.22280203704001911 0.81599560342233202 0.85173693729199718 0.30007817960516198 1 1 0.48813836695007229 0.84191918937727617 1 0.30007817960499339 0.85173693729139244 0.78019141325921404 0.49972466465542442 0.78019141325930785 1 0.30007817960499339 0.85173693729139244 1 0.48813836695007229 0.84191918937727617 1 0.39076805646076263 0.7272421105028648 0.78019141325921404 0.49972466465542442 0.78019141325930785 1 0.39076805646076263 0.7272421105028648 1 0.48813836695007229 0.84191918937727617 1 0.53045230059030524 0.6732050807565132 0.78019141325921404 0.49972466465542442 0.78019141325930785 0.72724211050425436 0.39076805646176382 1 0.67320508075671459 0.53045230059073867 1 0.84191918937756771 0.48813836695034618 1 0.78019141325921404 0.49972466465542442 0.78019141325930785 0.84191918937756771 0.48813836695034618 1 0.85173693729199718 0.30007817960516198 1 0.72724211050425436 0.39076805646176382 1 0.78019141325921404 0.49972466465542442 0.78019141325930785 0.84191918937756771 0.48813836695034618 1 1 0.48813836695007229 0.84191918937727617 0.85173693729199718 0.30007817960516198 1 0.78019141325921404 0.49972466465542442 0.78019141325930785 1 0.3999999999989749 1 1 0.48813836695007229 0.84191918937727617 0.84191918937756771 0.48813836695034618 1 1 0.59999999999894682 1 1 0.48813836695007229 0.84191918937727617 0.84191918937756771 0.48813836695034618 1 0.85173693729199718 0.30007817960516198 1 1 0.3999999999989749 1 0.80839867011861499 0.68192028468377774 1 0.78019141325921404 0.49972466465542442 0.78019141325930785 0.68649174659499257 0.68600703198516766 0.6864917465949647 0.77683220420328725 0.81278569633583353 0.81664766512111064 0.80839867011861499 0.68192028468377774 1 1 0.68192028468364885 0.80839867011854549 0.78019141325921404 0.49972466465542442 0.78019141325930785 0.77683220420328725 0.81278569633583353 0.81664766512111064 1 0.59999999999894682 1 1 0.48813836695007229 0.84191918937727617 0.84191918937756771 0.48813836695034618 1 1 0.68192028468364885 0.80839867011854549 0.68649174659499257 0.68600703198516766 0.6864917465949647 0.78019141325921404 0.49972466465542442 0.78019141325930785 1 0.68192028468364885 0.80839867011854549 0.77683220420328725 0.81278569633583353 0.81664766512111064 0.84191918937756771 0.48813836695034618 1 1 0.59999999999894682 1 1 0.68192028468364885 0.80839867011854549 0.80839867011861499 0.68192028468377774 1 1 0.59999999999894682 1 1 0.68192028468364885 0.80839867011854549 0.80839867011861499 0.68192028468377774 1 1 0.79999999999947335 1 0.84191918937756771 0.48813836695034618 1 0.67320508075671459 0.53045230059073867 1 0.80839867011861499 0.68192028468377774 1 0.78019141325921404 0.49972466465542442 0.78019141325930785 0.84191918937756771 0.48813836695034618 1 0.80839867011861499 0.68192028468377774 1 1 0.68192028468364885 0.80839867011854549 0.78019141325921404 0.49972466465542442 0.78019141325930785 1 0.68192028468364885 0.80839867011854549 1 0.53045230059030524 0.6732050807565132 1 0.48813836695007229 0.84191918937727617 0.78019141325921404 0.49972466465542442 0.78019141325930785 1 0.68192028468364885 0.80839867011854549 1 0.48813836695007229 0.84191918937727617 0.84191918937756771 0.48813836695034618 1 0.78019141325921404 0.49972466465542442 0.78019141325930785 1 0.67939035495490308 0.61016512164639347 0.78019141325921404 0.49972466465542442 0.78019141325930785 0.7504488434426726 0.53051757989633308 0.49836643074154852 1 0.53045230059030524 0.6732050807565132 1 0.67939035495490308 0.61016512164639347 0.7504488434426726 0.53051757989633308 0.49836643074154852 0.68649174659499257 0.68600703198516766 0.6864917465949647 0.77374673111774417 0.78860835645735528 0.49829081152968557 1 0.67939035495490308 0.61016512164639347 0.68649174659499257 0.68600703198516766 0.6864917465949647 1 0.83791821520125753 0.69361520514217179 0.77374673111774417 0.78860835645735528 0.49829081152968557 1 0.68192028468364885 0.80839867011854549 1 0.67939035495490308 0.61016512164639347 0.68649174659499257 0.68600703198516766 0.6864917465949647 0.77683220420328725 0.81278569633583353 0.81664766512111064 1 0.67939035495490308 0.61016512164639347 1 0.68975022421527898 0.45812322962078778 0.7504488434426726 0.53051757989633308 0.49836643074154852 0.77374673111774417 0.78860835645735528 0.49829081152968557 0.7504488434426726 0.53051757989633308 0.49836643074154852 0.78019141325921404 0.49972466465542442 0.78019141325930785 1 0.67939035495490308 0.61016512164639347 0.68649174659499257 0.68600703198516766 0.6864917465949647 1 0.68192028468364885 0.80839867011854549 0.68649174659499257 0.68600703198516766 0.6864917465949647 1 0.67939035495490308 0.61016512164639347 0.78019141325921404 0.49972466465542442 0.78019141325930785 1 0.53045230059030524 0.6732050807565132 1 0.68192028468364885 0.80839867011854549 1 0.67939035495490308 0.61016512164639347 0.78019141325921404 0.49972466465542442 0.78019141325930785 1 0.67939035495490308 0.61016512164639347 1 0.50000000000229983 0.51961524226898759 1 0.53045230059030524 0.6732050807565132 0.7504488434426726 0.53051757989633308 0.49836643074154852 1 0.67939035495490308 0.61016512164639347 1 0.68975022421527898 0.45812322962078778 1 0.50000000000229983 0.51961524226898759 0.7504488434426726 0.53051757989633308 0.49836643074154852 1 0.67939035495490308 0.61016512164639347 1 0.83630110503662825 0.50803330197135588 1 0.68975022421527898 0.45812322962078778 0.77374673111774417 0.78860835645735528 0.49829081152968557 1 0.83791821520125753 0.69361520514217179 0.77374673111774417 0.78860835645735528 0.49829081152968557 0.68649174659499257 0.68600703198516766 0.6864917465949647 0.77683220420328725 0.81278569633583353 0.81664766512111064 0.68649174659499257 0.68600703198516766 0.6864917465949647 0.77374673111774417 0.78860835645735528 0.49829081152968557 0.81346205468287114 1 0.68420958956387889 0.77683220420328725 0.81278569633583353 0.81664766512111064 1 0.83791821520125753 0.69361520514217179 0.68649174659499257 0.68600703198516766 0.6864917465949647 1 0.67939035495490308 0.61016512164639347 0.77683220420328725 0.81278569633583353 0.81664766512111064 1 0.68192028468364885 0.80839867011854549 1 0.83791821520125753 0.69361520514217179 1 0.67939035495490308 0.61016512164639347 0.77683220420328725 0.81278569633583353 0.81664766512111064 1 0.83791821520125753 0.69361520514217179 0.81346205468287114 1 0.68420958956387889 0.77374673111774417 0.78860835645735528 0.49829081152968557 0.77683220420328725 0.81278569633583353 0.81664766512111064 1 0.83630110503662825 0.50803330197135588 1 0.67939035495490308 0.61016512164639347 1 0.83791821520125753 0.69361520514217179 0.77374673111774417 0.78860835645735528 0.49829081152968557 1 0.83791821520125753 0.69361520514217179 0.86762395692956074 1 0.5060815484123421 1 0.83630110503662825 0.50803330197135588 0.77374673111774417 0.78860835645735528 0.49829081152968557 1 1 0.59999999999894682 1 0.83630110503662825 0.50803330197135588 1 0.83791821520125753 0.69361520514217179 0.86762395692956074 1 0.5060815484123421 0.86762395692956074 1 0.5060815484123421 1 1 0.59999999999894682 1 0.83630110503662825 0.50803330197135588 1 1 0.3999999999989749 1 0.83791821520125753 0.69361520514217179 0.81346205468287114 1 0.68420958956387889 1 1 0.59999999999894682 0.86762395692956074 1 0.5060815484123421 0.86762395692956074 1 0.5060815484123421 0.81346205468287114 1 0.68420958956387889 0.68240285647621723 1 0.52310058211166854 0.77374673111774417 0.78860835645735528 0.49829081152968557 0.81346205468287114 1 0.68420958956387889 0.86762395692956074 1 0.5060815484123421 1 0.83791821520125753 0.69361520514217179 0.77374673111774417 0.78860835645735528 0.49829081152968557 1 0.83791821520125753 0.69361520514217179 0.81346205468287114 1 0.68420958956387889 1 1 0.79999999999947335 1 1 0.59999999999894682 1 1 0.79999999999947335 0.85358983848569092 1 0.85358983848569092 0.81346205468287114 1 0.68420958956387889 1 0.83791821520125753 0.69361520514217179 0.85358983848569092 1 0.85358983848569092 1 0.83791821520125753 0.69361520514217179 1 0.85358983848587056 0.85358983848587056 0.77683220420328725 0.81278569633583353 0.81664766512111064 0.85358983848569092 1 0.85358983848569092 1 1 0.79999999999947335 1 0.85358983848587056 0.85358983848587056 1 0.83791821520125753 0.69361520514217179 0.85358983848587056 0.85358983848587056 1 1 1 1 1 0.79999999999947335 1 1 0.85358983848587056 0.85358983848587056 0.85358983848587056 0.85358983848587056 1 0.79999999999947335 1 1 1 1 1 0.85358983848569092 1 0.85358983848569092 1 1 0.79999999999947335 1 0.85358983848587056 0.85358983848587056 1 1 1 0.85358983848569092 1 0.85358983848569092 1 0.85358983848587056 0.85358983848587056 0.85358983848587056 0.85358983848587056 1 1 1 1 0.85358983848569092 1 0.85358983848569092 0.85358983848587056 0.85358983848587056 1 1 0.79999999999947335 1 1 0.68192028468364885 0.80839867011854549 1 0.85358983848587056 0.85358983848587056 1 0.79999999999947335 1 1 0.68192028468364885 0.80839867011854549 0.80839867011861499 0.68192028468377774 1 0.85358983848587056 0.85358983848587056 1 0.85358983848587056 0.85358983848587056 1 1 0.85358983848587056 0.85358983848587056 1 0.68192028468364885 0.80839867011854549 0.77683220420328725 0.81278569633583353 0.81664766512111064 1 0.68192028468364885 0.80839867011854549 1 0.85358983848587056 0.85358983848587056 1 0.83791821520125753 0.69361520514217179 0.77683220420328725 0.81278569633583353 0.81664766512111064 0.69361520514218133 0.83791821520130205 1 0.85358983848587056 0.85358983848587056 1 0.80839867011861499 0.68192028468377774 1 0.77683220420328725 0.81278569633583353 0.81664766512111064 0.80839867011861499 0.68192028468377774 1 0.85358983848587056 0.85358983848587056 1 1 0.68192028468364885 0.80839867011854549 0.77683220420328725 0.81278569633583353 0.81664766512111064 0.85358983848587056 0.85358983848587056 1 0.79999999999947335 1 1 0.85358983848569092 1 0.85358983848569092 0.77683220420328725 0.81278569633583353 0.81664766512111064 0.69981550660938663 1 0.83057691269844081 0.85358983848569092 1 0.85358983848569092 0.79999999999947335 1 1 0.77683220420328725 0.81278569633583353 0.81664766512111064 0.85358983848587056 0.85358983848587056 1 0.69361520514218133 0.83791821520130205 1 0.79999999999947335 1 1 0.77683220420328725 0.81278569633583353 0.81664766512111064 1 0.85358983848587056 0.85358983848587056 0.85358983848587056 0.85358983848587056 1 0.85358983848569092 1 0.85358983848569092 0.77683220420328725 0.81278569633583353 0.81664766512111064 0.85358983848569092 1 0.85358983848569092 0.69981550660938663 1 0.83057691269844081 0.81346205468287114 1 0.68420958956387889 0.77683220420328725 0.81278569633583353 0.81664766512111064 0.81346205468287114 1 0.68420958956387889 1 0.83791821520125753 0.69361520514217179 0.85358983848569092 1 0.85358983848569092 0.77683220420328725 0.81278569633583353 0.81664766512111064 0.69361520514218133 0.83791821520130205 1 0.49911199724958061 0.77872228561593948 0.77895350115271889 0.69981550660938663 1 0.83057691269844081 0.77683220420328725 0.81278569633583353 0.81664766512111064 0.69361520514218133 0.83791821520130205 1 0.61016512164652226 0.67939035495506384 1 0.49911199724958061 0.77872228561593948 0.77895350115271889 0.77683220420328725 0.81278569633583353 0.81664766512111064 0.81346205468287114 1 0.68420958956387889 0.69981550660938663 1 0.83057691269844081 0.6123333432449789 1 0.67837347745467769 0.77683220420328725 0.81278569633583353 0.81664766512111064 0.6123333432449789 1 0.67837347745467769 0.69981550660938663 1 0.83057691269844081 0.49911199724958061 0.77872228561593948 0.77895350115271889 0.77683220420328725 0.81278569633583353 0.81664766512111064 0.69361520514218133 0.83791821520130205 1 0.69981550660938663 1 0.83057691269844081 0.79999999999947335 1 1 0.77683220420328725 0.81278569633583353 0.81664766512111064 0.50970031073508926 1 0.83534964916803001 0.59999999999894682 1 1 0.69361520514218133 0.83791821520130205 1 0.69981550660938663 1 0.83057691269844081 0.69981550660938663 1 0.83057691269844081 0.59999999999894682 1 1 0.69361520514218133 0.83791821520130205 1 0.79999999999947335 1 1 0.80839867011861499 0.68192028468377774 1 0.61016512164652226 0.67939035495506384 1 0.69361520514218133 0.83791821520130205 1 0.77683220420328725 0.81278569633583353 0.81664766512111064 0.50803330197137353 0.83630110503667787 1 0.69361520514218133 0.83791821520130205 1 0.61016512164652226 0.67939035495506384 1 0.49911199724958061 0.77872228561593948 0.77895350115271889 0.50803330197137353 0.83630110503667787 1 0.50970031073508926 1 0.83534964916803001 0.69361520514218133 0.83791821520130205 1 0.49911199724958061 0.77872228561593948 0.77895350115271889 0.59999999999894682 1 1 0.50803330197137353 0.83630110503667787 1 0.3999999999989749 1 1 0.50970031073508926 1 0.83534964916803001 0.69361520514218133 0.83791821520130205 1 0.50803330197137353 0.83630110503667787 1 0.59999999999894682 1 1 0.50970031073508926 1 0.83534964916803001 0.69361520514218133 0.83791821520130205 1 0.50970031073508926 1 0.83534964916803001 0.69981550660938663 1 0.83057691269844081 0.49911199724958061 0.77872228561593948 0.77895350115271889 0.50970031073508926 1 0.83534964916803001 0.6123333432449789 1 0.67837347745467769 0.69981550660938663 1 0.83057691269844081 0.49911199724958061 0.77872228561593948 0.77895350115271889 0.6123333432449789 1 0.67837347745467769 0.49983993748706529 0.75039103705932653 0.52967335724801234 0.68649174659499257 0.68600703198516766 0.6864917465949647 0.49911199724958061 0.77872228561593948 0.77895350115271889 0.6123333432449789 1 0.67837347745467769 0.49983993748706529 0.75039103705932653 0.52967335724801234 0.68240285647621723 1 0.52310058211166854 0.77374673111774417 0.78860835645735528 0.49829081152968557 0.6123333432449789 1 0.67837347745467769 0.45820186441573879 1 0.68969697123405882 0.49983993748706529 0.75039103705932653 0.52967335724801234 0.49911199724958061 0.77872228561593948 0.77895350115271889 0.45820186441573879 1 0.68969697123405882 0.6123333432449789 1 0.67837347745467769 0.50970031073508926 1 0.83534964916803001 0.49911199724958061 0.77872228561593948 0.77895350115271889 0.6123333432449789 1 0.67837347745467769 0.68649174659499257 0.68600703198516766 0.6864917465949647 0.49983993748706529 0.75039103705932653 0.52967335724801234 0.77374673111774417 0.78860835645735528 0.49829081152968557 0.81346205468287114 1 0.68420958956387889 0.6123333432449789 1 0.67837347745467769 0.68649174659499257 0.68600703198516766 0.6864917465949647 0.77683220420328725 0.81278569633583353 0.81664766512111064 0.6123333432449789 1 0.67837347745467769 0.49911199724958061 0.77872228561593948 0.77895350115271889 0.68649174659499257 0.68600703198516766 0.6864917465949647 0.77683220420328725 0.81278569633583353 0.81664766512111064 0.81346205468287114 1 0.68420958956387889 0.68649174659499257 0.68600703198516766 0.6864917465949647 0.6123333432449789 1 0.67837347745467769 0.77374673111774417 0.78860835645735528 0.49829081152968557 0.81346205468287114 1 0.68420958956387889 0.6123333432449789 1 0.67837347745467769 0.68240285647621723 1 0.52310058211166854 0.77374673111774417 0.78860835645735528 0.49829081152968557 0.6123333432449789 1 0.67837347745467769 0.45820186441573879 1 0.68969697123405882 0.51961524227008238 1 0.49999999999872219 0.49983993748706529 0.75039103705932653 0.52967335724801234 0.6123333432449789 1 0.67837347745467769 0.51961524227008238 1 0.49999999999872219 0.68240285647621723 1 0.52310058211166854 0.49983993748706529 0.75039103705932653 0.52967335724801234 0.68649174659499257 0.68600703198516766 0.6864917465949647 0.49983993748706529 0.75039103705932653 0.52967335724801234 0.49816183246753282 0.5307146639261795 0.75045686993209071 0.49911199724958061 0.77872228561593948 0.77895350115271889 0.68649174659499257 0.68600703198516766 0.6864917465949647 0.50000000000001332 0.49999999999999561 0.49999999999999561 0.7504488434426726 0.53051757989633308 0.49836643074154852 0.49816183246753282 0.5307146639261795 0.75045686993209071 0.68649174659499257 0.68600703198516766 0.6864917465949647 0.49816183246753282 0.5307146639261795 0.75045686993209071 0.7504488434426726 0.53051757989633308 0.49836643074154852 0.78019141325921404 0.49972466465542442 0.78019141325930785 0.50000000000001332 0.49999999999999561 0.49999999999999561 0.68649174659499257 0.68600703198516766 0.6864917465949647 0.7504488434426726 0.53051757989633308 0.49836643074154852 0.49983993748706529 0.75039103705932653 0.52967335724801234 0.7504488434426726 0.53051757989633308 0.49836643074154852 0.49983993748706529 0.75039103705932653 0.52967335724801234 0.68649174659499257 0.68600703198516766 0.6864917465949647 0.77374673111774417 0.78860835645735528 0.49829081152968557 0.68649174659499257 0.68600703198516766 0.6864917465949647 0.50000000000001332 0.49999999999999561 0.49999999999999561 0.49816183246753282 0.5307146639261795 0.75045686993209071 0.49983993748706529 0.75039103705932653 0.52967335724801234 0.78019141325921404 0.49972466465542442 0.78019141325930785 0.61016512164652226 0.67939035495506384 1 0.49816183246753282 0.5307146639261795 0.75045686993209071 0.67320508075671459 0.53045230059073867 1 0.78019141325921404 0.49972466465542442 0.78019141325930785 0.49816183246753282 0.5307146639261795 0.75045686993209071 0.61016512164652226 0.67939035495506384 1 0.68649174659499257 0.68600703198516766 0.6864917465949647 0.61016512164652226 0.67939035495506384 1 0.68649174659499257 0.68600703198516766 0.6864917465949647 0.80839867011861499 0.68192028468377774 1 0.78019141325921404 0.49972466465542442 0.78019141325930785 0.68649174659499257 0.68600703198516766 0.6864917465949647 0.49911199724958061 0.77872228561593948 0.77895350115271889 0.61016512164652226 0.67939035495506384 1 0.77683220420328725 0.81278569633583353 0.81664766512111064 0.68649174659499257 0.68600703198516766 0.6864917465949647 0.49816183246753282 0.5307146639261795 0.75045686993209071 0.61016512164652226 0.67939035495506384 1 0.49911199724958061 0.77872228561593948 0.77895350115271889 0.80839867011861499 0.68192028468377774 1 0.68649174659499257 0.68600703198516766 0.6864917465949647 0.61016512164652226 0.67939035495506384 1 0.77683220420328725 0.81278569633583353 0.81664766512111064 0.67320508075671459 0.53045230059073867 1 0.61016512164652226 0.67939035495506384 1 0.80839867011861499 0.68192028468377774 1 0.78019141325921404 0.49972466465542442 0.78019141325930785 0.45812322962090041 0.68975022421538157 1 0.61016512164652226 0.67939035495506384 1 0.49816183246753282 0.5307146639261795 0.75045686993209071 0.49911199724958061 0.77872228561593948 0.77895350115271889 0.50803330197137353 0.83630110503667787 1 0.61016512164652226 0.67939035495506384 1 0.45812322962090041 0.68975022421538157 1 0.49911199724958061 0.77872228561593948 0.77895350115271889 0.51961524226934941 0.50000000000250611 1 0.45812322962090041 0.68975022421538157 1 0.61016512164652226 0.67939035495506384 1 0.49816183246753282 0.5307146639261795 0.75045686993209071 0.67320508075671459 0.53045230059073867 1 0.51961524226934941 0.50000000000250611 1 0.61016512164652226 0.67939035495506384 1 0.49816183246753282 0.5307146639261795 0.75045686993209071 0.3115891413135391 0.68758981780459771 0.68521708032990558 0.2184393375098648 0.50004596894495223 0.77634962490704662 0.32446581821293602 0.60020898676440626 1 0.18453958615733529 0.77655623474864555 0.81613222483915937 0.32925244736146098 0.39615100178034629 1 0.32446581821293602 0.60020898676440626 1 0.51961524226934941 0.50000000000250611 1 0.49816183246753282 0.5307146639261795 0.75045686993209071 0.45812322962090041 0.68975022421538157 1 0.3115891413135391 0.68758981780459771 0.68521708032990558 0.31067093462947892 0.81480288849497895 1 0.49911199724958061 0.77872228561593948 0.77895350115271889 0.32925244736146098 0.39615100178034629 1 0.32446581821293602 0.60020898676440626 1 0.49816183246753282 0.5307146639261795 0.75045686993209071 0.2184393375098648 0.50004596894495223 0.77634962490704662 0.45812322962090041 0.68975022421538157 1 0.49816183246753282 0.5307146639261795 0.75045686993209071 0.3115891413135391 0.68758981780459771 0.68521708032990558 0.49911199724958061 0.77872228561593948 0.77895350115271889 0.32446581821293602 0.60020898676440626 1 0.3115891413135391 0.68758981780459771 0.68521708032990558 0.49816183246753282 0.5307146639261795 0.75045686993209071 0.2184393375098648 0.50004596894495223 0.77634962490704662 0.45812322962090041 0.68975022421538157 1 0.51961524226934941 0.50000000000250611 1 0.32446581821293602 0.60020898676440626 1 0.49816183246753282 0.5307146639261795 0.75045686993209071 0.31067093462947892 0.81480288849497895 1 0.45812322962090041 0.68975022421538157 1 0.32446581821293602 0.60020898676440626 1 0.3115891413135391 0.68758981780459771 0.68521708032990558 0.45812322962090041 0.68975022421538157 1 0.32446581821293602 0.60020898676440626 1 0.3115891413135391 0.68758981780459771 0.68521708032990558 0.49816183246753282 0.5307146639261795 0.75045686993209071 0.32446581821293602 0.60020898676440626 1 0.31067093462947892 0.81480288849497895 1 0.3115891413135391 0.68758981780459771 0.68521708032990558 0.18453958615733529 0.77655623474864555 0.81613222483915937 0.3115891413135391 0.68758981780459771 0.68521708032990558 0.50000000000001332 0.49999999999999561 0.49999999999999561 0.24769234054476261 0.52242103280823293 0.45098450226372488 0.49983993748706529 0.75039103705932653 0.52967335724801234 0.3115891413135391 0.68758981780459771 0.68521708032990558 0.49816183246753282 0.5307146639261795 0.75045686993209071 0.50000000000001332 0.49999999999999561 0.49999999999999561 0.49983993748706529 0.75039103705932653 0.52967335724801234 0.3115891413135391 0.68758981780459771 0.68521708032990558 0.49983993748706529 0.75039103705932653 0.52967335724801234 0.24769234054476261 0.52242103280823293 0.45098450226372488 0.22516916914780419 0.77057994845201627 0.48187244075707292 0.50000000000001332 0.49999999999999561 0.49999999999999561 0.3115891413135391 0.68758981780459771 0.68521708032990558 0.24769234054476261 0.52242103280823293 0.45098450226372488 0.2184393375098648 0.50004596894495223 0.77634962490704662 0.3115891413135391 0.68758981780459771 0.68521708032990558 0.50000000000001332 0.49999999999999561 0.49999999999999561 0.49816183246753282 0.5307146639261795 0.75045686993209071 0.2184393375098648 0.50004596894495223 0.77634962490704662 0.49816183246753282 0.5307146639261795 0.75045686993209071 0.49983993748706529 0.75039103705932653 0.52967335724801234 0.3115891413135391 0.68758981780459771 0.68521708032990558 0.49911199724958061 0.77872228561593948 0.77895350115271889 0.32448110831226962 1 0.6002015905153204 0.45820186441573879 1 0.68969697123405882 0.3115891413135391 0.68758981780459771 0.68521708032990558 0.49983993748706529 0.75039103705932653 0.52967335724801234 0.45820186441573879 1 0.68969697123405882 0.31085062173747541 1 0.81469961246428202 0.32448110831226962 1 0.6002015905153204 0.3115891413135391 0.68758981780459771 0.68521708032990558 0.45820186441573879 1 0.68969697123405882 0.3115891413135391 0.68758981780459771 0.68521708032990558 0.49983993748706529 0.75039103705932653 0.52967335724801234 0.49911199724958061 0.77872228561593948 0.77895350115271889 0.32448110831226962 1 0.6002015905153204 0.3115891413135391 0.68758981780459771 0.68521708032990558 0.31085062173747541 1 0.81469961246428202 0.18453958615733529 0.77655623474864555 0.81613222483915937 0.32448110831226962 1 0.6002015905153204 0.49983993748706529 0.75039103705932653 0.52967335724801234 0.3115891413135391 0.68758981780459771 0.68521708032990558 0.22516916914780419 0.77057994845201627 0.48187244075707292 0.45820186441573879 1 0.68969697123405882 0.31085062173747541 1 0.81469961246428202 0.3115891413135391 0.68758981780459771 0.68521708032990558 0.49911199724958061 0.77872228561593948 0.77895350115271889 0.32926555316115258 1 0.39615987727515128 0.49983993748706529 0.75039103705932653 0.52967335724801234 0.32448110831226962 1 0.6002015905153204 0.22516916914780419 0.77057994845201627 0.48187244075707292 0.32448110831226962 1 0.6002015905153204 0.3115891413135391 0.68758981780459771 0.68521708032990558 0.15900053892265181 1 0.69447607299016312 0.22516916914780419 0.77057994845201627 0.48187244075707292 0.32926555316115258 1 0.39615987727515128 0.51961524227008238 1 0.49999999999872219 0.32448110831226962 1 0.6002015905153204 0.49983993748706529 0.75039103705932653 0.52967335724801234 0.32448110831226962 1 0.6002015905153204 0.51961524227008238 1 0.49999999999872219 0.45820186441573879 1 0.68969697123405882 0.49983993748706529 0.75039103705932653 0.52967335724801234 0.45820186441573879 1 0.68969697123405882 0.50970031073508926 1 0.83534964916803001 0.31085062173747541 1 0.81469961246428202 0.49911199724958061 0.77872228561593948 0.77895350115271889 0.31085062173747541 1 0.81469961246428202 0.49911199724958061 0.77872228561593948 0.77895350115271889 0.31067093462947892 0.81480288849497895 1 0.18453958615733529 0.77655623474864555 0.81613222483915937 0.31085062173747541 1 0.81469961246428202 0.3115891413135391 0.68758981780459771 0.68521708032990558 0.49911199724958061 0.77872228561593948 0.77895350115271889 0.18453958615733529 0.77655623474864555 0.81613222483915937 0.50803330197137353 0.83630110503667787 1 0.31085062173747541 1 0.81469961246428202 0.50970031073508926 1 0.83534964916803001 0.49911199724958061 0.77872228561593948 0.77895350115271889 0.31067093462947892 0.81480288849497895 1 0.49911199724958061 0.77872228561593948 0.77895350115271889 0.3115891413135391 0.68758981780459771 0.68521708032990558 0.18453958615733529 0.77655623474864555 0.81613222483915937 0.31085062173747541 1 0.81469961246428202 0.3999999999989749 1 1 0.50803330197137353 0.83630110503667787 1 0.50970031073508926 1 0.83534964916803001 0.31085062173747541 1 0.81469961246428202 0.3999999999989749 1 1 0.31067093462947892 0.81480288849497895 1 0.50803330197137353 0.83630110503667787 1 0.31085062173747541 1 0.81469961246428202 0.50803330197137353 0.83630110503667787 1 0.31067093462947892 0.81480288849497895 1 0.49911199724958061 0.77872228561593948 0.77895350115271889 0.45812322962090041 0.68975022421538157 1 0.31067093462947892 0.81480288849497895 1 0.50803330197137353 0.83630110503667787 1 0.49911199724958061 0.77872228561593948 0.77895350115271889 0.3999999999989749 1 1 0.19999999999955789 1 1 0.31085062173747541 1 0.81469961246428202 0.31067093462947892 0.81480288849497895 1 0.15900053892265181 1 0.69447607299016312 0.31085062173747541 1 0.81469961246428202 0.1464101615132356 1 0.85358983848650494 0.18453958615733529 0.77655623474864555 0.81613222483915937 0.31085062173747541 1 0.81469961246428202 0.31067093462947892 0.81480288849497895 1 0.1464101615132356 1 0.85358983848650494 0.18453958615733529 0.77655623474864555 0.81613222483915937 0.31085062173747541 1 0.81469961246428202 0.19999999999955789 1 1 0.1464101615132356 1 0.85358983848650494 0.31067093462947892 0.81480288849497895 1 0.14641016151332509 0.85358983848655678 1 0.1464101615132356 1 0.85358983848650494 0.19999999999955789 1 1 0.31067093462947892 0.81480288849497895 1 0.31067093462947892 0.81480288849497895 1 0.15896804272141651 0.69449451837104537 1 0.14641016151332509 0.85358983848655678 1 0.18453958615733529 0.77655623474864555 0.81613222483915937 0.14641016151332509 0.85358983848655678 1 0.1464101615132356 1 0.85358983848650494 0.31067093462947892 0.81480288849497895 1 0.18453958615733529 0.77655623474864555 0.81613222483915937 0 0.85358983848682146 0.85358983848668035 0 0.69992182039579531 0.85173693729137989 0 0.80860557108920617 0.70542349973054763 0.18453958615733529 0.77655623474864555 0.81613222483915937 0.15900053892265181 1 0.69447607299016312 0 0.85358983848682146 0.85358983848668035 0 0.80860557108920617 0.70542349973054763 0.18453958615733529 0.77655623474864555 0.81613222483915937 0.18453958615733529 0.77655623474864555 0.81613222483915937 0 0.79999999999999982 1 0.15896804272141651 0.69449451837104537 1 0.14641016151332509 0.85358983848655678 1 0.1464101615132356 1 0.85358983848650494 0.14641016151332509 0.85358983848655678 1 0 0.85358983848682146 0.85358983848668035 0.18453958615733529 0.77655623474864555 0.81613222483915937 0 0.85358983848682146 0.85358983848668035 0 0.79999999999999982 1 0 0.69992182039579531 0.85173693729137989 0.18453958615733529 0.77655623474864555 0.81613222483915937 0 0.85358983848682146 0.85358983848668035 0.14641016151332509 0.85358983848655678 1 0 0.79999999999999982 1 0.18453958615733529 0.77655623474864555 0.81613222483915937 0 1 1 0 0.85358983848682146 0.85358983848668035 0.14641016151332509 0.85358983848655678 1 0 0.79999999999999982 1 0 0.85358983848682146 0.85358983848668035 0.1464101615132356 1 0.85358983848650494 0 1 1 0.14641016151332509 0.85358983848655678 1 0.19999999999955789 1 1 0 1 1 0.1464101615132356 1 0.85358983848650494 0.14641016151332509 0.85358983848655678 1 0.1464101615132356 1 0.85358983848650494 0 1 1 0 1 0.79999999999947335 0 0.85358983848682146 0.85358983848668035 0.1464101615132356 1 0.85358983848650494 0 0.85358983848682146 0.85358983848668035 0.15900053892265181 1 0.69447607299016312 0.18453958615733529 0.77655623474864555 0.81613222483915937 0.15900053892265181 1 0.69447607299016312 0 1 0.79999999999947335 0 0.80860557108920617 0.70542349973054763 0 0.85358983848682146 0.85358983848668035 0 1 0.79999999999947335 0.15900053892265181 1 0.69447607299016312 0.1464101615132356 1 0.85358983848650494 0 0.85358983848682146 0.85358983848668035 0 0.80860557108920617 0.70542349973054763 0 1 0.59999999999894682 0 1 0.79999999999947335 0.15900053892265181 1 0.69447607299016312 0.3115891413135391 0.68758981780459771 0.68521708032990558 0.22516916914780419 0.77057994845201627 0.48187244075707292 0 0.80860557108920617 0.70542349973054763 0.18453958615733529 0.77655623474864555 0.81613222483915937 0 0.80860557108920617 0.70542349973054763 0 0.83630110503664845 0.50803330197135654 0 1 0.59999999999894682 0.15900053892265181 1 0.69447607299016312 0.15900053892265181 1 0.69447607299016312 0.3115891413135391 0.68758981780459771 0.68521708032990558 0.32448110831226962 1 0.6002015905153204 0.18453958615733529 0.77655623474864555 0.81613222483915937 0.15900053892265181 1 0.69447607299016312 0.22516916914780419 0.77057994845201627 0.48187244075707292 0.3115891413135391 0.68758981780459771 0.68521708032990558 0.18453958615733529 0.77655623474864555 0.81613222483915937 0.15900053892265181 1 0.69447607299016312 0 0.80860557108920617 0.70542349973054763 0.22516916914780419 0.77057994845201627 0.48187244075707292 0.18453958615733529 0.77655623474864555 0.81613222483915937 0.15900053892265181 1 0.69447607299016312 0.32448110831226962 1 0.6002015905153204 0.31085062173747541 1 0.81469961246428202 0.18453958615733529 0.77655623474864555 0.81613222483915937 0.32448110831226962 1 0.6002015905153204 0.15900053892265181 1 0.69447607299016312 0.17226134197293 1 0.49836539647645101 0.22516916914780419 0.77057994845201627 0.48187244075707292 0 0.83630110503664845 0.50803330197135654 0.17226134197293 1 0.49836539647645101 0.15900053892265181 1 0.69447607299016312 0.22516916914780419 0.77057994845201627 0.48187244075707292 0 1 0.59999999999894682 0 1 0.3999999999989749 0.17226134197293 1 0.49836539647645101 0 0.83630110503664845 0.50803330197135654 0 0.83630110503664845 0.50803330197135654 0.17226134197293 1 0.49836539647645101 0 1 0.59999999999894682 0.15900053892265181 1 0.69447607299016312 0 0.83630110503664845 0.50803330197135654 0.15900053892265181 1 0.69447607299016312 0 0.80860557108920617 0.70542349973054763 0.22516916914780419 0.77057994845201627 0.48187244075707292 0 0.66416205381430016 0.59944234540882957 0 0.83630110503664845 0.50803330197135654 0 0.80860557108920617 0.70542349973054763 0.22516916914780419 0.77057994845201627 0.48187244075707292 0 0.66416205381430016 0.59944234540882957 0 0.80860557108920617 0.70542349973054763 0.3115891413135391 0.68758981780459771 0.68521708032990558 0.22516916914780419 0.77057994845201627 0.48187244075707292 0 0.66416205381430016 0.59944234540882957 0.3115891413135391 0.68758981780459771 0.68521708032990558 0 0.80860557108920617 0.70542349973054763 0.18453958615733529 0.77655623474864555 0.81613222483915937 0 0.66416205381430016 0.59944234540882957 0 0.80860557108920617 0.70542349973054763 0 0.60922248848335758 0.72722573386012812 0.18453958615733529 0.77655623474864555 0.81613222483915937 0 0.66416205381430016 0.59944234540882957 0.24769234054476261 0.52242103280823293 0.45098450226372488 0.3115891413135391 0.68758981780459771 0.68521708032990558 0.2184393375098648 0.50004596894495223 0.77634962490704662 0 0.66416205381430016 0.59944234540882957 0 0.60922248848335758 0.72722573386012812 0.3115891413135391 0.68758981780459771 0.68521708032990558 0.18453958615733529 0.77655623474864555 0.81613222483915937 0 0.66416205381430016 0.59944234540882957 0 0.46954769941369501 0.67320508075638175 0 0.50000000000237477 0.51961524226909872 0.2184393375098648 0.50004596894495223 0.77634962490704662 0 0.60922248848335758 0.72722573386012812 0 0.66416205381430016 0.59944234540882957 0.3115891413135391 0.68758981780459771 0.68521708032990558 0.2184393375098648 0.50004596894495223 0.77634962490704662 0 0.66416205381430016 0.59944234540882957 0.3115891413135391 0.68758981780459771 0.68521708032990558 0.24769234054476261 0.52242103280823293 0.45098450226372488 0.22516916914780419 0.77057994845201627 0.48187244075707292 0 0.66416205381430016 0.59944234540882957 0 0.50000000000237477 0.51961524226909872 0.24769234054476261 0.52242103280823293 0.45098450226372488 0.2184393375098648 0.50004596894495223 0.77634962490704662 0 0.68801781652248195 0.45664527743358641 0 0.83630110503664845 0.50803330197135654 0 0.66416205381430016 0.59944234540882957 0.22516916914780419 0.77057994845201627 0.48187244075707292 0 0.66416205381430016 0.59944234540882957 0 0.50000000000237477 0.51961524226909872 0 0.68801781652248195 0.45664527743358641 0.24769234054476261 0.52242103280823293 0.45098450226372488 0 0.60922248848335758 0.72722573386012812 0 0.46954769941369501 0.67320508075638175 0 0.66416205381430016 0.59944234540882957 0.2184393375098648 0.50004596894495223 0.77634962490704662 0 0.5118616330515301 0.84191918937737908 0 0.69992182039579531 0.85173693729137989 0.15896804272141651 0.69449451837104537 1 0.2184393375098648 0.50004596894495223 0.77634962490704662 0 0.60922248848335758 0.72722573386012812 0.2184393375098648 0.50004596894495223 0.77634962490704662 0.3115891413135391 0.68758981780459771 0.68521708032990558 0.18453958615733529 0.77655623474864555 0.81613222483915937 0.15896804272141651 0.69449451837104537 1 0.2184393375098648 0.50004596894495223 0.77634962490704662 0 0.69992182039579531 0.85173693729137989 0.18453958615733529 0.77655623474864555 0.81613222483915937 0 0.5118616330515301 0.84191918937737908 0 0.46954769941369501 0.67320508075638175 0 0.60922248848335758 0.72722573386012812 0.2184393375098648 0.50004596894495223 0.77634962490704662 0 0.5118616330515301 0.84191918937737908 0 0.60922248848335758 0.72722573386012812 0 0.69992182039579531 0.85173693729137989 0.2184393375098648 0.50004596894495223 0.77634962490704662 0.15896804272141651 0.69449451837104537 1 0.32446581821293602 0.60020898676440626 1 0.2184393375098648 0.50004596894495223 0.77634962490704662 0.18453958615733529 0.77655623474864555 0.81613222483915937 0 0.60922248848335758 0.72722573386012812 0 0.69992182039579531 0.85173693729137989 0.2184393375098648 0.50004596894495223 0.77634962490704662 0.18453958615733529 0.77655623474864555 0.81613222483915937 0 0.80860557108920617 0.70542349973054763 0 0.69992182039579531 0.85173693729137989 0 0.60922248848335758 0.72722573386012812 0.18453958615733529 0.77655623474864555 0.81613222483915937 0.15896804272141651 0.69449451837104537 1 0.32446581821293602 0.60020898676440626 1 0.17226134197275911 0.49836539647894412 1 0.2184393375098648 0.50004596894495223 0.77634962490704662 0.15896804272141651 0.69449451837104537 1 0.17226134197275911 0.49836539647894412 1 0 0.5118616330515301 0.84191918937737908 0.2184393375098648 0.50004596894495223 0.77634962490704662 0.32446581821293602 0.60020898676440626 1 0.15896804272141651 0.69449451837104537 1 0.31067093462947892 0.81480288849497895 1 0.18453958615733529 0.77655623474864555 0.81613222483915937 0.18453958615733529 0.77655623474864555 0.81613222483915937 0.15896804272141651 0.69449451837104537 1 0 0.79999999999999982 1 0 0.69992182039579531 0.85173693729137989 0 0.69992182039579531 0.85173693729137989 0 0.5118616330515301 0.84191918937737908 0.15896804272141651 0.69449451837104537 1 0 0.60000000000138687 1 0.15896804272141651 0.69449451837104537 1 0 0.79999999999999982 1 0 0.69992182039579531 0.85173693729137989 0 0.60000000000138687 1 0 0.60000000000138687 1 0 0.5118616330515301 0.84191918937737908 0.15896804272141651 0.69449451837104537 1 0.17226134197275911 0.49836539647894412 1 0 0.5118616330515301 0.84191918937737908 0 0.60000000000138687 1 0 0.40000000000166441 1 0.17226134197275911 0.49836539647894412 1 0.17226134197275911 0.49836539647894412 1 0 0.40000000000166441 1 0 0.5118616330515301 0.84191918937737908 0 0.31807971531776508 0.80839867011913336 0 0.40000000000166441 1 0.17226134197275911 0.49836539647894412 1 0.16929708765653109 0.30074819035870082 1 0 0.31807971531776508 0.80839867011913336 0 0.14641016151490169 0.85358983848532144 0 0.31807971531776508 0.80839867011913336 0.16929708765653109 0.30074819035870082 1 0.31426750628021272 0.31270343261798911 0.68761148188185484 0.16929708765653109 0.30074819035870082 1 0.31426750628021272 0.31270343261798911 0.68761148188185484 0 0.31807971531776508 0.80839867011913336 0.2184393375098648 0.50004596894495223 0.77634962490704662 0 0.5118616330515301 0.84191918937737908 0 0.31807971531776508 0.80839867011913336 0 0.46954769941369501 0.67320508075638175 0.2184393375098648 0.50004596894495223 0.77634962490704662 0 0.5118616330515301 0.84191918937737908 0.17226134197275911 0.49836539647894412 1 0 0.31807971531776508 0.80839867011913336 0.2184393375098648 0.50004596894495223 0.77634962490704662 0 0.31807971531776508 0.80839867011913336 0.16929708765653109 0.30074819035870082 1 0 0.40000000000166441 1 0 0.20000000000083221 1 0.17226134197275911 0.49836539647894412 1 0.32925244736146098 0.39615100178034629 1 0.16929708765653109 0.30074819035870082 1 0.2184393375098648 0.50004596894495223 0.77634962490704662 0.17226134197275911 0.49836539647894412 1 0.16929708765653109 0.30074819035870082 1 0 0.31807971531776508 0.80839867011913336 0.2184393375098648 0.50004596894495223 0.77634962490704662 0.31610726166461628 0.1880448979455934 1 0.16929708765653109 0.30074819035870082 1 0.32925244736146098 0.39615100178034629 1 0.31426750628021272 0.31270343261798911 0.68761148188185484 0.32446581821293602 0.60020898676440626 1 0.32925244736146098 0.39615100178034629 1 0.17226134197275911 0.49836539647894412 1 0.2184393375098648 0.50004596894495223 0.77634962490704662 0.45812322962173568 0.31024977578554058 1 0.31426750628021272 0.31270343261798911 0.68761148188185484 0.49816183246753282 0.5307146639261795 0.75045686993209071 0.50084626324420545 0.22238844715913 0.78084811589659187 0.32925244736146098 0.39615100178034629 1 0.49816183246753282 0.5307146639261795 0.75045686993209071 0.31426750628021272 0.31270343261798911 0.68761148188185484 0.2184393375098648 0.50004596894495223 0.77634962490704662 0.31610726166461628 0.1880448979455934 1 0.32925244736146098 0.39615100178034629 1 0.45812322962173568 0.31024977578554058 1 0.31426750628021272 0.31270343261798911 0.68761148188185484 0.45812322962173568 0.31024977578554058 1 0.31610726166461628 0.1880448979455934 1 0.31426750628021272 0.31270343261798911 0.68761148188185484 0.50084626324420545 0.22238844715913 0.78084811589659187 0.32925244736146098 0.39615100178034629 1 0.45812322962173568 0.31024977578554058 1 0.31426750628021272 0.31270343261798911 0.68761148188185484 0.49816183246753282 0.5307146639261795 0.75045686993209071 0.32925244736146098 0.39615100178034629 1 0.31426750628021272 0.31270343261798911 0.68761148188185484 0.16929708765653109 0.30074819035870082 1 0.2184393375098648 0.50004596894495223 0.77634962490704662 0.32925244736146098 0.39615100178034629 1 0.51961524226934941 0.50000000000250611 1 0.45812322962173568 0.31024977578554058 1 0.49816183246753282 0.5307146639261795 0.75045686993209071 0.31426750628021272 0.31270343261798911 0.68761148188185484 0.49816183246753282 0.5307146639261795 0.75045686993209071 0.50000000000001332 0.49999999999999561 0.49999999999999561 0.2184393375098648 0.50004596894495223 0.77634962490704662 0.24769234054476261 0.52242103280823293 0.45098450226372488 0.50073570207385831 0.24848280280289631 0.52886631355986169 0.31426750628021272 0.31270343261798911 0.68761148188185484 0.22088738526309029 0.22111069116742441 0.50004796911802929 0.31426750628021272 0.31270343261798911 0.68761148188185484 0.50073570207385831 0.24848280280289631 0.52886631355986169 0.49816183246753282 0.5307146639261795 0.75045686993209071 0.50084626324420545 0.22238844715913 0.78084811589659187 0.50000000000001332 0.49999999999999561 0.49999999999999561 0.31426750628021272 0.31270343261798911 0.68761148188185484 0.24769234054476261 0.52242103280823293 0.45098450226372488 0.50073570207385831 0.24848280280289631 0.52886631355986169 0.50000000000001332 0.49999999999999561 0.49999999999999561 0.49816183246753282 0.5307146639261795 0.75045686993209071 0.31426750628021272 0.31270343261798911 0.68761148188185484 0.50073570207385831 0.24848280280289631 0.52886631355986169 0.50000000000001332 0.49999999999999561 0.49999999999999561 0.24769234054476261 0.52242103280823293 0.45098450226372488 0.31426750628021272 0.31270343261798911 0.68761148188185484 0.2184393375098648 0.50004596894495223 0.77634962490704662 0.2184393375098648 0.50004596894495223 0.77634962490704662 0.31426750628021272 0.31270343261798911 0.68761148188185484 0 0.50000000000237477 0.51961524226909872 0.24769234054476261 0.52242103280823293 0.45098450226372488 0 0.31024977578556651 0.45812322962166352 0.24769234054476261 0.52242103280823293 0.45098450226372488 0 0.32043363027398297 0.61046998817722586 0.22088738526309029 0.22111069116742441 0.50004796911802929 0 0.32043363027398297 0.61046998817722586 0 0.50000000000237477 0.51961524226909872 0.31426750628021272 0.31270343261798911 0.68761148188185484 0.24769234054476261 0.52242103280823293 0.45098450226372488 0.2184393375098648 0.50004596894495223 0.77634962490704662 0 0.32043363027398297 0.61046998817722586 0 0.50000000000237477 0.51961524226909872 0.31426750628021272 0.31270343261798911 0.68761148188185484 0 0.32043363027398297 0.61046998817722586 0.24769234054476261 0.52242103280823293 0.45098450226372488 0.31426750628021272 0.31270343261798911 0.68761148188185484 0.22088738526309029 0.22111069116742441 0.50004796911802929 0.2184393375098648 0.50004596894495223 0.77634962490704662 0 0.50000000000237477 0.51961524226909872 0 0.32043363027398297 0.61046998817722586 0 0.46954769941369501 0.67320508075638175 0 0.16196943494415611 0.69380980080116506 0 0.32043363027398297 0.61046998817722586 0.31426750628021272 0.31270343261798911 0.68761148188185484 0.22088738526309029 0.22111069116742441 0.50004796911802929 0 0.32043363027398297 0.61046998817722586 0 0.31807971531776508 0.80839867011913336 0.31426750628021272 0.31270343261798911 0.68761148188185484 0.2184393375098648 0.50004596894495223 0.77634962490704662 0 0.16196943494415611 0.69380980080116506 0 0.32043363027398297 0.61046998817722586 0 0.31807971531776508 0.80839867011913336 0.31426750628021272 0.31270343261798911 0.68761148188185484 0 0.31024977578556651 0.45812322962166352 0 0.50000000000237477 0.51961524226909872 0 0.32043363027398297 0.61046998817722586 0.24769234054476261 0.52242103280823293 0.45098450226372488 0 0.32043363027398297 0.61046998817722586 0 0.46954769941369501 0.67320508075638175 0 0.31807971531776508 0.80839867011913336 0.2184393375098648 0.50004596894495223 0.77634962490704662 0 0.32043363027398297 0.61046998817722586 0 0.16275515618034081 0.50966790549591257 0 0.31024977578556651 0.45812322962166352 0.22088738526309029 0.22111069116742441 0.50004796911802929 0 0.16196943494415611 0.69380980080116506 0.14641016151479661 0 0.85358983848542624 0.18818969570926641 0 0.68364148842842287 0.31426750628021272 0.31270343261798911 0.68761148188185484 0 0.16196943494415611 0.69380980080116506 0.31426750628021272 0.31270343261798911 0.68761148188185484 0.18818969570926641 0 0.68364148842842287 0.22088738526309029 0.22111069116742441 0.50004796911802929 0 0.16196943494415611 0.69380980080116506 0.18818969570926641 0 0.68364148842842287 0 0.16275515618034081 0.50966790549591257 0.22088738526309029 0.22111069116742441 0.50004796911802929 0 0.16196943494415611 0.69380980080116506 0 0.16275515618034081 0.50966790549591257 0 0.32043363027398297 0.61046998817722586 0.22088738526309029 0.22111069116742441 0.50004796911802929 0 0 0.79999999999999982 0 0 0.60000000000138687 0 0.16196943494415611 0.69380980080116506 0.18818969570926641 0 0.68364148842842287 0 0 0.60000000000138687 0 0.16196943494415611 0.69380980080116506 0.18818969570926641 0 0.68364148842842287 0 0.16275515618034081 0.50966790549591257 0.18818969570926641 0 0.68364148842842287 0.16370661204827031 0 0.4886650857430957 0 0 0.60000000000138687 0 0.16275515618034081 0.50966790549591257 0.18818969570926641 0 0.68364148842842287 0.31030302876556398 0 0.54179813558513157 0.16370661204827031 0 0.4886650857430957 0.22088738526309029 0.22111069116742441 0.50004796911802929 0 0.16275515618034081 0.50966790549591257 0.18818969570926641 0 0.68364148842842287 0.16370661204827031 0 0.4886650857430957 0.22088738526309029 0.22111069116742441 0.50004796911802929 0.30074819035913852 0 0.83070291234383831 0.39615987727709562 0 0.67073444684008199 0.18818969570926641 0 0.68364148842842287 0.31426750628021272 0.31270343261798911 0.68761148188185484 0.31030302876556398 0 0.54179813558513157 0.31426750628021272 0.31270343261798911 0.68761148188185484 0.50073570207385831 0.24848280280289631 0.52886631355986169 0.22088738526309029 0.22111069116742441 0.50004796911802929 0.39615987727709562 0 0.67073444684008199 0.31030302876556398 0 0.54179813558513157 0.31426750628021272 0.31270343261798911 0.68761148188185484 0.50073570207385831 0.24848280280289631 0.52886631355986169 0.39615987727709562 0 0.67073444684008199 0.31426750628021272 0.31270343261798911 0.68761148188185484 0.30074819035913852 0 0.83070291234383831 0.50084626324420545 0.22238844715913 0.78084811589659187 0.18818969570926641 0 0.68364148842842287 0.31426750628021272 0.31270343261798911 0.68761148188185484 0.31030302876556398 0 0.54179813558513157 0.22088738526309029 0.22111069116742441 0.50004796911802929 0.6002015905170176 0 0.67551889168744117 0.50073570207385831 0.24848280280289631 0.52886631355986169 0.39615987727709562 0 0.67073444684008199 0.50084626324420545 0.22238844715913 0.78084811589659187 0.31030302876556398 0 0.54179813558513157 0.18818969570926641 0 0.68364148842842287 0.39615987727709562 0 0.67073444684008199 0.31426750628021272 0.31270343261798911 0.68761148188185484 0.39615987727709562 0 0.67073444684008199 0.50073570207385831 0.24848280280289631 0.52886631355986169 0.31426750628021272 0.31270343261798911 0.68761148188185484 0.50084626324420545 0.22238844715913 0.78084811589659187 0.39615987727709562 0 0.67073444684008199 0.6002015905170176 0 0.67551889168744117 0.50000000000250922 0 0.48038475773043671 0.50073570207385831 0.24848280280289631 0.52886631355986169 0.39615987727709562 0 0.67073444684008199 0.50000000000250922 0 0.48038475773043671 0.31030302876556398 0 0.54179813558513157 0.50073570207385831 0.24848280280289631 0.52886631355986169 0.49836539647917322 0 0.82773865802723501 0.6002015905170176 0 0.67551889168744117 0.39615987727709562 0 0.67073444684008199 0.50084626324420545 0.22238844715913 0.78084811589659187 0.30074819035913852 0 0.83070291234383831 0.14641016151432179 0.14641016151432179 1 0.31610726166461628 0.1880448979455934 1 0.31426750628021272 0.31270343261798911 0.68761148188185484 0.30074819035913852 0 0.83070291234383831 0.31426750628021272 0.31270343261798911 0.68761148188185484 0.31610726166461628 0.1880448979455934 1 0.50084626324420545 0.22238844715913 0.78084811589659187 0.30074819035913852 0 0.83070291234383831 0.31610726166461628 0.1880448979455934 1 0.49836539647917322 0 0.82773865802723501 0.50084626324420545 0.22238844715913 0.78084811589659187 0.39615987727709562 0 0.67073444684008199 0.30074819035913852 0 0.83070291234383831 0.49836539647917322 0 0.82773865802723501 0.50084626324420545 0.22238844715913 0.78084811589659187 0.31610726166461628 0.1880448979455934 1 0.40000000000166441 0 1 0.49836539647917322 0 0.82773865802723501 0.50966790549576724 0.1627551561802443 1 0.40000000000166441 0 1 0.49836539647917322 0 0.82773865802723501 0.30074819035913852 0 0.83070291234383831 0.31610726166461628 0.1880448979455934 1 0.31610726166461628 0.1880448979455934 1 0.50966790549576724 0.1627551561802443 1 0.49836539647917322 0 0.82773865802723501 0.50084626324420545 0.22238844715913 0.78084811589659187 0.45812322962173568 0.31024977578554058 1 0.50966790549576724 0.1627551561802443 1 0.31610726166461628 0.1880448979455934 1 0.50084626324420545 0.22238844715913 0.78084811589659187 0.40000000000166441 0 1 0.30074819035913852 0 0.83070291234383831 0.20000000000083221 0 1 0.31610726166461628 0.1880448979455934 1 0 0.14641016151490169 0.85358983848532144 0 0.16196943494415611 0.69380980080116506 0 0.31807971531776508 0.80839867011913336 0.31426750628021272 0.31270343261798911 0.68761148188185484 0.16929708765653109 0.30074819035870082 1 0.31610726166461628 0.1880448979455934 1 0.14641016151432179 0.14641016151432179 1 0.31426750628021272 0.31270343261798911 0.68761148188185484 0.14641016151432179 0.14641016151432179 1 0.20000000000083221 0 1 0.14641016151479661 0 0.85358983848542624 0.30074819035913852 0 0.83070291234383831 0.14641016151432179 0.14641016151432179 1 0.30074819035913852 0 0.83070291234383831 0.14641016151479661 0 0.85358983848542624 0.31426750628021272 0.31270343261798911 0.68761148188185484 0.14641016151432179 0.14641016151432179 1 0.20000000000083221 0 1 0.30074819035913852 0 0.83070291234383831 0.31610726166461628 0.1880448979455934 1 0.18818969570926641 0 0.68364148842842287 0.14641016151479661 0 0.85358983848542624 0.30074819035913852 0 0.83070291234383831 0.31426750628021272 0.31270343261798911 0.68761148188185484 0 0.14641016151490169 0.85358983848532144 0.16929708765653109 0.30074819035870082 1 0.14641016151432179 0.14641016151432179 1 0.31426750628021272 0.31270343261798911 0.68761148188185484 0.14641016151432179 0.14641016151432179 1 0.14641016151479661 0 0.85358983848542624 0 0.14641016151490169 0.85358983848532144 0.31426750628021272 0.31270343261798911 0.68761148188185484 0 0.16196943494415611 0.69380980080116506 0 0.14641016151490169 0.85358983848532144 0.14641016151479661 0 0.85358983848542624 0.31426750628021272 0.31270343261798911 0.68761148188185484 0 0.20000000000083221 1 0 0.31807971531776508 0.80839867011913336 0.16929708765653109 0.30074819035870082 1 0 0.14641016151490169 0.85358983848532144 0.14641016151432179 0.14641016151432179 1 0 0.20000000000083221 1 0.16929708765653109 0.30074819035870082 1 0 0.14641016151490169 0.85358983848532144 0 0.16196943494415611 0.69380980080116506 0.14641016151479661 0 0.85358983848542624 0 0 0.79999999999999982 0.18818969570926641 0 0.68364148842842287 0 0.14641016151490169 0.85358983848532144 0.14641016151479661 0 0.85358983848542624 0 0 0.79999999999999982 0 0.16196943494415611 0.69380980080116506 0 0 1 0 0.20000000000083221 1 0.14641016151432179 0.14641016151432179 1 0 0.14641016151490169 0.85358983848532144 0.14641016151479661 0 0.85358983848542624 0 0 0.79999999999999982 0 0 1 0 0.14641016151490169 0.85358983848532144 0 0 1 0.14641016151432179 0.14641016151432179 1 0.20000000000083221 0 1 0.14641016151479661 0 0.85358983848542624 0.14641016151479661 0 0.85358983848542624 0 0 1 0.14641016151432179 0.14641016151432179 1 0 0.14641016151490169 0.85358983848532144 
</DataArray>
</Points>
<Cells>
<DataArray type="UInt32" Name="connectivity" format="ascii">
0 1 2 3 4 5 6 7 8 9 10 11 12 13 14 15 16 17 18 19 20 21 22 23 24 25 26 27 28 29 30 31 32 33 34 35 36 37 38 39 40 41 42 43 44 45 46 47 48 49 50 51 52 53 54 55 56 57 58 59 60 61 62 63 64 65 66 67 68 69 70 71 72 73 74 75 76 77 78 79 80 81 82 83 84 85 86 87 88 89 90 91 92 93 94 95 96 97 98 99 100 101 102 103 104 105 106 107 108 109 110 111 112 113 114 115 116 117 118 119 120 121 122 123 124 125 126 127 128 129 130 131 132 133 134 135 136 137 138 139 140 141 142 143 144 145 146 147 148 149 150 151 152 153 154 155 156 157 158 159 160 161 162 163 164 165 166 167 168 169 170 171 172 173 174 175 176 177 178 179 180 181 182 183 184 185 186 187 188 189 190 191 192 193 194 195 196 197 198 199 200 201 202 203 204 205 206 207 208 209 210 211 212 213 214 215 216 217 218 219 220 221 222 223 224 225 226 227 228 229 230 231 232 233 234 235 236 237 238 239 240 241 242 243 244 245 246 247 248 249 250 251 252 253 254 255 256 257 258 259 260 261 262 263 264 265 266 267 268 269 270 271 272 273 274 275 276 277 278 279 280 281 282 283 284 285 286 287 288 289 290 291 292 293 294 295 296 297 298 299 300 301 302 303 304 305 306 307 308 309 310 311 312 313 314 315 316 317 318 319 320 321 322 323 324 325 326 327 328 329 330 331 332 333 334 335 336 337 338 339 340 341 342 343 344 345 346 347 348 349 350 351 352 353 354 355 356 357 358 359 360 361 362 363 364 365 366 367 368 369 370 371 372 373 374 375 376 377 378 379 380 381 382 383 384 385 386 387 388 389 390 391 392 393 394 395 396 397 398 399 400 401 402 403 404 405 406 407 408 409 410 411 412 413 414 415 416 417 418 419 420 421 422 423 424 425 426 427 428 429 430 431 432 433 434 435 436 437 438 439 440 441 442 443 444 445 446 447 448 449 450 451 452 453 454 455 456 457 458 459 460 461 462 463 464 465 466 467 468 469 470 471 472 473 474 475 476 477 478 479 480 481 482 483 484 485 486 487 488 489 490 491 492 493 494 495 496 497 498 499 500 501 502 503 504 505 506 507 508 509 510 511 512 513 514 515 516 517 518 519 520 521 522 523 524 525 526 527 528 529 530 531 532 533 534 535 536 537 538 539 540 541 542 543 544 545 546 547 548 549 550 551 552 553 554 555 556 557 558 559 560 561 562 563 564 565 566 567 568 569 570 571 572 573 574 575 576 577 578 579 580 581 582 583 584 585 586 587 588 589 590 591 592 593 594 595 596 597 598 599 600 601 602 603 604 605 606 607 608 609 610 611 612 613 614 615 616 617 618 619 620 621 622 623 624 625 626 627 628 629 630 631 632 633 634 635 636 637 638 639 640 641 642 643 644 645 646 647 648 649 650 651 652 653 654 655 656 657 658 659 660 661 662 663 664 665 666 667 668 669 670 671 672 673 674 675 676 677 678 679 680 681 682 683 684 685 686 687 688 689 690 691 692 693 694 695 696 697 698 699 700 701 702 703 704 705 706 707 708 709 710 711 712 713 714 715 716 717 718 719 720 721 722 723 724 725 726 727 728 729 730 731 732 733 734 735 736 737 738 739 740 741 742 743 744 745 746 747 748 749 750 751 752 753 754 755 756 757 758 759 760 761 762 763 764 765 766 767 768 769 770 771 772 773 774 775 776 777 778 779 780 781 782 783 784 785 786 787 788 789 790 791 792 793 794 795 796 797 798 799 800 801 802 803 804 805 806 807 808 809 810 811 812 813 814 815 816 817 818 819 820 821 822 823 824 825 826 827 828 829 830 831 832 833 834 835 836 837 838 839 840 841 842 843 844 845 846 847 848 849 850 851 852 853 854 855 856 857 858 859 860 861 862 863 864 865 866 867 868 869 870 871 872 873 874 875 876 877 878 879 880 881 882 883 884 885 886 887 888 889 890 891 892 893 894 895 896 897 898 899 900 901 902 903 904 905 906 907 908 909 910 911 912 913 914 915 916 917 918 919 920 921 922 923 924 925 926 927 928 929 930 931 932 933 934 935 936 937 938 939 940 941 942 943 944 945 946 947 948 949 950 951 952 953 954 955 956 957 958 959 960 961 962 963 964 965 966 967 968 969 970 971 972 973 974 975 976 977 978 979 980 981 982 983 984 985 986 987 988 989 990 991 992 993 994 995 996 997 998 999 1000 1001 1002 1003 1004 1005 1006 1007 1008 1009 1010 1011 1012 1013 1014 1015 1016 1017 1018 1019 1020 1021 1022 1023 1024 1025 1026 1027 1028 1029 1030 1031 1032 1033 1034 1035 1036 1037 1038 1039 1040 1041 1042 1043 1044 1045 1046 1047 1048 1049 1050 1051 1052 1053 1054 1055 1056 1057 1058 1059 1060 1061 1062 1063 1064 1065 1066 1067 1068 1069 1070 1071 1072 1073 1074 1075 1076 1077 1078 1079 1080 1081 1082 1083 1084 1085 1086 1087 1088 1089 1090 1091 1092 1093 1094 1095 1096 1097 1098 1099 1100 1101 1102 1103 1104 1105 1106 1107 1108 1109 1110 1111 1112 1113 1114 1115 1116 1117 1118 1119 1120 1121 1122 1123 1124 1125 1126 1127 1128 1129 1130 1131 1132 1133 1134 1135 1136 1137 1138 1139 1140 1141 1142 1143 1144 1145 1146 1147 1148 1149 1150 1151 1152 1153 1154 1155 1156 1157 1158 1159 1160 1161 1162 1163 1164 1165 1166 1167 1168 1169 1170 1171 1172 1173 1174 1175 1176 1177 1178 1179 1180 1181 1182 1183 1184 1185 1186 1187 1188 1189 1190 1191 1192 1193 1194 1195 1196 1197 1198 1199 1200 1201 1202 1203 1204 1205 1206 1207 1208 1209 1210 1211 1212 1213 1214 1215 1216 1217 1218 1219 1220 1221 1222 1223 1224 1225 1226 1227 1228 1229 1230 1231 1232 1233 1234 1235 1236 1237 1238 1239 1240 1241 1242 1243 1244 1245 1246 1247 1248 1249 1250 1251 1252 1253 1254 1255 1256 1257 1258 1259 1260 1261 1262 1263 1264 1265 1266 1267 1268 1269 1270 1271 1272 1273 1274 1275 1276 1277 1278 1279 1280 1281 1282 1283 1284 1285 1286 1287 1288 1289 1290 1291 1292 1293 1294 1295 1296 1297 1298 1299 1300 1301 1302 1303 1304 1305 1306 1307 1308 1309 1310 1311 1312 1313 1314 1315 1316 1317 1318 1319 1320 1321 1322 1323 1324 1325 1326 1327 1328 1329 1330 1331 1332 1333 1334 1335 1336 1337 1338 1339 1340 1341 1342 1343 1344 1345 1346 1347 1348 1349 1350 1351 1352 1353 1354 1355 1356 1357 1358 1359 1360 1361 1362 1363 1364 1365 1366 1367 1368 1369 1370 1371 1372 1373 1374 1375 1376 1377 1378 1379 1380 1381 1382 1383 1384 1385 1386 1387 1388 1389 1390 1391 1392 1393 1394 1395 1396 1397 1398 1399 1400 1401 1402 1403 1404 1405 1406 1407 1408 1409 1410 1411 1412 1413 1414 1415 1416 1417 1418 1419 1420 1421 1422 1423 1424 1425 1426 1427 1428 1429 1430 1431 1432 1433 1434 1435 1436 1437 1438 1439 1440 1441 1442 1443 1444 1445 1446 1447 1448 1449 1450 1451 1452 1453 1454 1455 1456 1457 1458 1459 1460 1461 1462 1463 1464 1465 1466 1467 1468 1469 1470 1471 1472 1473 1474 1475 1476 1477 1478 1479 1480 1481 1482 1483 1484 1485 1486 1487 1488 1489 1490 1491 1492 1493 1494 1495 1496 1497 1498 1499 1500 1501 1502 1503 1504 1505 1506 1507 1508 1509 1510 1511 1512 1513 1514 1515 1516 1517 1518 1519 1520 1521 1522 1523 1524 1525 1526 1527 1528 1529 1530 1531 1532 1533 1534 1535 1536 1537 1538 1539 1540 1541 1542 1543 1544 1545 1546 1547 1548 1549 1550 1551 1552 1553 1554 1555 1556 1557 1558 1559 1560 1561 1562 1563 1564 1565 1566 1567 1568 1569 1570 1571 1572 1573 1574 1575 1576 1577 1578 1579 1580 1581 1582 1583 1584 1585 1586 1587 1588 1589 1590 1591 1592 1593 1594 1595 1596 1597 1598 1599 1600 1601 1602 1603 1604 1605 1606 1607 1608 1609 1610 1611 1612 1613 1614 1615 1616 1617 1618 1619 1620 1621 1622 1623 1624 1625 1626 1627 1628 1629 1630 1631 1632 1633 1634 1635 1636 1637 1638 1639 1640 1641 1642 1643 1644 1645 1646 1647 1648 1649 1650 1651 1652 1653 1654 1655 1656 1657 1658 1659 1660 1661 1662 1663 1664 1665 1666 1667 1668 1669 1670 1671 1672 1673 1674 1675 1676 1677 1678 1679 1680 1681 1682 1683 1684 1685 1686 1687 1688 1689 1690 1691 1692 1693 1694 1695 1696 1697 1698 1699 1700 1701 1702 1703 1704 1705 1706 1707 1708 1709 1710 1711 1712 1713 1714 1715 1716 1717 1718 1719 1720 1721 1722 1723 1724 1725 1726 1727 1728 1729 1730 1731 1732 1733 1734 1735 1736 1737 1738 1739 1740 1741 1742 1743 1744 1745 1746 1747 1748 1749 1750 1751 1752 1753 1754 1755 1756 1757 1758 1759 1760 1761 1762 1763 1764 1765 1766 1767 1768 1769 1770 1771 1772 1773 1774 1775 1776 1777 1778 1779 1780 1781 1782 1783 1784 1785 1786 1787 1788 1789 1790 1791 1792 1793 1794 1795 1796 1797 1798 1799 1800 1801 1802 1803 1804 1805 1806 1807 1808 1809 1810 1811 1812 1813 1814 1815 1816 1817 1818 1819 1820 1821 1822 1823 1824 1825 1826 1827 1828 1829 1830 1831 1832 1833 1834 1835 1836 1837 1838 1839 1840 1841 1842 1843 1844 1845 1846 1847 1848 1849 1850 1851 1852 1853 1854 1855 1856 1857 1858 1859 1860 1861 1862 1863 1864 1865 1866 1867 1868 1869 1870 1871 1872 1873 1874 1875 1876 1877 1878 1879 1880 1881 1882 1883 1884 1885 1886 1887 1888 1889 1890 1891 1892 1893 1894 1895 1896 1897 1898 1899 1900 1901 1902 1903 1904 1905 1906 1907 1908 1909 1910 1911 1912 1913 1914 1915 1916 1917 1918 1919 1920 1921 1922 1923 1924 1925 1926 1927 1928 1929 1930 1931 1932 1933 1934 1935 1936 1937 1938 1939 1940 1941 1942 1943 1944 1945 1946 1947 1948 1949 1950 1951 1952 1953 1954 1955 1956 1957 1958 1959 1960 1961 1962 1963 1964 1965 1966 1967 1968 1969 1970 1971 1972 1973 1974 1975 1976 1977 1978 1979 1980 1981 1982 1983 1984 1985 1986 1987 1988 1989 1990 1991 1992 1993 1994 1995 1996 1997 1998 1999 2000 2001 2002 2003 2004 2005 2006 2007 2008 2009 2010 2011 2012 2013 2014 2015 2016 2017 2018 2019 2020 2021 2022 2023 2024 2025 2026 2027 2028 2029 2030 2031 2032 2033 2034 2035 2036 2037 2038 2039 2040 2041 2042 2043 2044 2045 2046 2047 2048 2049 2050 2051 2052 2053 2054 2055 2056 2057 2058 2059 2060 2061 2062 2063 2064 2065 2066 2067 2068 2069 2070 2071 2072 2073 2074 2075 2076 2077 2078 2079 2080 2081 2082 2083 2084 2085 2086 2087 2088 2089 2090 2091 2092 2093 2094 2095 2096 2097 2098 2099 2100 2101 2102 2103 2104 2105 2106 2107 2108 2109 2110 2111 2112 2113 2114 2115 2116 2117 2118 2119 2120 2121 2122 2123 2124 2125 2126 2127 2128 2129 2130 2131 2132 2133 2134 2135 2136 2137 2138 2139 2140 2141 2142 2143 2144 2145 2146 2147 2148 2149 2150 2151 2152 2153 2154 2155 2156 2157 2158 2159 2160 2161 2162 2163 2164 2165 2166 2167 2168 2169 2170 2171 2172 2173 2174 2175 2176 2177 2178 2179 2180 2181 2182 2183 2184 2185 2186 2187 2188 2189 2190 2191 2192 2193 2194 2195 2196 2197 2198 2199 2200 2201 2202 2203 2204 2205 2206 2207 2208 2209 2210 2211 2212 2213 2214 2215 2216 2217 2218 2219 2220 2221 2222 2223 2224 2225 2226 2227 2228 2229 2230 2231 2232 2233 2234 2235 2236 2237 2238 2239 2240 2241 2242 2243 2244 2245 2246 2247 2248 2249 2250 2251 2252 2253 2254 2255 2256 2257 2258 2259 2260 2261 2262 2263 2264 2265 2266 2267 2268 2269 2270 2271 2272 2273 2274 2275 2276 2277 2278 2279 2280 2281 2282 2283 2284 2285 2286 2287 2288 2289 2290 2291 2292 2293 2294 2295 2296 2297 2298 2299 2300 2301 2302 2303 2304 2305 2306 2307 2308 2309 2310 2311 2312 2313 2314 2315 2316 2317 2318 2319 2320 2321 2322 2323 2324 2325 2326 2327 2328 2329 2330 2331 2332 2333 2334 2335 2336 2337 2338 2339 2340 2341 2342 2343 2344 2345 2346 2347 2348 2349 2350 2351 2352 2353 2354 2355 2356 2357 2358 2359 2360 2361 2362 2363 2364 2365 2366 2367 2368 2369 2370 2371 2372 2373 2374 2375 2376 2377 2378 2379 2380 2381 2382 2383 2384 2385 2386 2387 2388 2389 2390 2391 2392 2393 2394 2395 2396 2397 2398 2399 2400 2401 2402 2403 2404 2405 2406 2407 2408 2409 2410 2411 2412 2413 2414 2415 2416 2417 2418 2419 2420 2421 2422 2423 2424 2425 2426 2427 2428 2429 2430 2431 2432 2433 2434 2435 2436 2437 2438 2439 2440 2441 2442 2443 2444 2445 2446 2447 2448 2449 2450 2451 2452 2453 2454 2455 2456 2457 2458 2459 2460 2461 2462 2463 2464 2465 2466 2467 2468 2469 2470 2471 2472 2473 2474 2475 2476 2477 2478 2479 2480 2481 2482 2483 2484 2485 2486 2487 2488 2489 2490 2491 2492 2493 2494 2495 2496 2497 2498 2499 2500 2501 2502 2503 2504 2505 2506 2507 2508 2509 2510 2511 2512 2513 2514 2515 2516 2517 2518 2519 2520 2521 2522 2523 2524 2525 2526 2527 2528 2529 2530 2531 2532 2533 2534 2535 2536 2537 2538 2539 2540 2541 2542 2543 2544 2545 2546 2547 2548 2549 2550 2551 2552 2553 2554 2555 2556 2557 2558 2559 2560 2561 2562 2563 2564 2565 2566 2567 2568 2569 2570 2571 2572 2573 2574 2575 2576 2577 2578 2579 2580 2581 2582 2583 2584 2585 2586 2587 2588 2589 2590 2591 2592 2593 2594 2595 2596 2597 2598 2599 2600 2601 2602 2603 2604 2605 2606 2607 2608 2609 2610 2611 2612 2613 2614 2615 2616 2617 2618 2619 2620 2621 2622 2623 2624 2625 2626 2627 2628 2629 2630 2631 2632 2633 2634 2635 2636 2637 2638 2639 2640 2641 2642 2643 2644 2645 2646 2647 2648 2649 2650 2651 2652 2653 2654 2655 2656 2657 2658 2659 2660 2661 2662 2663 2664 2665 2666 2667 2668 2669 2670 2671 2672 2673 2674 2675 2676 2677 2678 2679 2680 2681 2682 2683 2684 2685 2686 2687 2688 2689 2690 2691 2692 2693 2694 2695 2696 2697 2698 2699 2700 2701 2702 2703 2704 2705 2706 2707 2708 2709 2710 2711 2712 2713 2714 2715 2716 2717 2718 2719 2720 2721 2722 2723 2724 2725 2726 2727 2728 2729 2730 2731 2732 2733 2734 2735 2736 2737 2738 2739 2740 2741 2742 2743 2744 2745 2746 2747 2748 2749 2750 2751 2752 2753 2754 2755 2756 2757 2758 2759 2760 2761 2762 2763 2764 2765 2766 2767 2768 2769 2770 2771 2772 2773 2774 2775 2776 2777 2778 2779 2780 2781 2782 2783 2784 2785 2786 2787 2788 2789 2790 2791 2792 2793 2794 2795 2796 2797 2798 2799 2800 2801 2802 2803 2804 2805 2806 2807 2808 2809 2810 2811 2812 2813 2814 2815 2816 2817 2818 2819 2820 2821 2822 2823 2824 2825 2826 2827 2828 2829 2830 2831 2832 2833 2834 2835 2836 2837 2838 2839 2840 2841 2842 2843 2844 2845 2846 2847 2848 2849 2850 2851 2852 2853 2854 2855 2856 2857 2858 2859 2860 2861 2862 2863 2864 2865 2866 2867 2868 2869 2870 2871 2872 2873 2874 2875 
</DataArray>
<DataArray type="UInt32" Name="offsets" format="ascii">
4 8 12 16 20 24 28 32 36 40 44 48 52 56 60 64 68 72 76 80 84 88 92 96 100 104 108 112 116 120 124 128 132 136 140 144 148 152 156 160 164 168 172 176 180 184 188 192 196 200 204 208 212 216 220 224 228 232 236 240 244 248 252 256 260 264 268 272 276 280 284 288 292 296 300 304 308 312 316 320 324 328 332 336 340 344 348 352 356 360 364 368 372 376 380 384 388 392 396 400 404 408 412 416 420 424 428 432 436 440 444 448 452 456 460 464 468 472 476 480 484 488 492 496 500 504 508 512 516 520 524 528 532 536 540 544 548 552 556 560 564 568 572 576 580 584 588 592 596 600 604 608 612 616 620 624 628 632 636 640 644 648 652 656 660 664 668 672 676 680 684 688 692 696 700 704 708 712 716 720 724 728 732 736 740 744 748 752 756 760 764 768 772 776 780 784 788 792 796 800 804 808 812 816 820 824 828 832 836 840 844 848 852 856 860 864 868 872 876 880 884 888 892 896 900 904 908 912 916 920 924 928 932 936 940 944 948 952 956 960 964 968 972 976 980 984 988 992 996 1000 1004 1008 1012 1016 1020 1024 1028 1032 1036 1040 1044 1048 1052 1056 1060 1064 1068 1072 1076 1080 1084 1088 1092 1096 1100 1104 1108 1112 1116 1120 1124 1128 1132 1136 1140 1144 1148 1152 1156 1160 1164 1168 1172 1176 1180 1184 1188 1192 1196 1200 1204 1208 1212 1216 1220 1224 1228 1232 1236 1240 1244 1248 1252 1256 1260 1264 1268 1272 1276 1280 1284 1288 1292 1296 1300 1304 1308 1312 1316 1320 1324 1328 1332 1336 1340 1344 1348 1352 1356 1360 1364 1368 1372 1376 1380 1384 1388 1392 1396 1400 1404 1408 1412 1416 1420 1424 1428 1432 1436 1440 1444 1448 1452 1456 1460 1464 1468 1472 1476 1480 1484 1488 1492 1496 1500 1504 1508 1512 1516 1520 1524 1528 1532 1536 1540 1544 1548 1552 1556 1560 1564 1568 1572 1576 1580 1584 1588 1592 1596 1600 1604 1608 1612 1616 1620 1624 1628 1632 1636 1640 1644 1648 1652 1656 1660 1664 1668 1672 1676 1680 1684 1688 1692 1696 1700 1704 1708 1712 1716 1720 1724 1728 1732 1736 1740 1744 1748 1752 1756 1760 1764 1768 1772 1776 1780 1784 1788 1792 1796 1800 1804 1808 1812 1816 1820 1824 1828 1832 1836 1840 1844 1848 1852 1856 1860 1864 1868 1872 1876 1880 1884 1888 1892 1896 1900 1904 1908 1912 1916 1920 1924 1928 1932 1936 1940 1944 1948 1952 1956 1960 1964 1968 1972 1976 1980 1984 1988 1992 1996 2000 2004 2008 2012 2016 2020 2024 2028 2032 2036 2040 2044 2048 2052 2056 2060 2064 2068 2072 2076 2080 2084 2088 2092 2096 2100 2104 2108 2112 2116 2120 2124 2128 2132 2136 2140 2144 2148 2152 2156 2160 2164 2168 2172 2176 2180 2184 2188 2192 2196 2200 2204 2208 2212 2216 2220 2224 2228 2232 2236 2240 2244 2248 2252 2256 2260 2264 2268 2272 2276 2280 2284 2288 2292 2296 2300 2304 2308 2312 2316 2320 2324 2328 2332 2336 2340 2344 2348 2352 2356 2360 2364 2368 2372 2376 2380 2384 2388 2392 2396 2400 2404 2408 2412 2416 2420 2424 2428 2432 2436 2440 2444 2448 2452 2456 2460 2464 2468 2472 2476 2480 2484 2488 2492 2496 2500 2504 2508 2512 2516 2520 2524 2528 2532 2536 2540 2544 2548 2552 2556 2560 2564 2568 2572 2576 2580 2584 2588 2592 2596 2600 2604 2608 2612 2616 2620 2624 2628 2632 2636 2640 2644 2648 2652 2656 2660 2664 2668 2672 2676 2680 2684 2688 2692 2696 2700 2704 2708 2712 2716 2720 2724 2728 2732 2736 2740 2744 2748 2752 2756 2760 2764 2768 2772 2776 2780 2784 2788 2792 2796 2800 2804 2808 2812 2816 2820 2824 2828 2832 2836 2840 2844 2848 2852 2856 2860 2864 2868 2872 2876 
</DataArray>
<DataArray type="UInt32" Name="types" format="ascii">
10 10 10 10 10 10 10 10 10 10 10 10 10 10 10 10 10 10 10 10 10 10 10 10 10 10 10 10 10 10 10 10 10 10 10 10 10 10 10 10 10 10 10 10 10 10 10 10 10 10 10 10 10 10 10 10 10 10 10 10 10 10 10 10 10 10 10 10 10 10 10 10 10 10 10 10 10 10 10 10 10 10 10 10 10 10 10 10 10 10 10 10 10 10 10 10 10 10 10 10 10 10 10 10 10 10 10 10 10 10 10 10 10 10 10 10 10 10 10 10 10 10 10 10 10 10 10 10 10 10 10 10 10 10 10 10 10 10 10 10 10 10 10 10 10 10 10 10 10 10 10 10 10 10 10 10 10 10 10 10 10 10 10 10 10 10 10 10 10 10 10 10 10 10 10 10 10 10 10 10 10 10 10 10 10 10 10 10 10 10 10 10 10 10 10 10 10 10 10 10 10 10 10 10 10 10 10 10 10 10 10 10 10 10 10 10 10 10 10 10 10 10 10 10 10 10 10 10 10 10 10 10 10 10 10 10 10 10 10 10 10 10 10 10 10 10 10 10 10 10 10 10 10 10 10 10 10 10 10 10 10 10 10 10 10 10 10 10 10 10 10 10 10 10 10 10 10 10 10 10 10 10 10 10 10 10 10 10 10 10 10 10 10 10 10 10 10 10 10 10 10 10 10 10 10 10 10 10 10 10 10 10 10 10 10 10 10 10 10 10 10 10 10 10 10 10 10 10 10 10 10 10 10 10 10 10 10 10 10 10 10 10 10 10 10 10 10 10 10 10 10 10 10 10 10 10 10 10 10 10 10 10 10 10 10 10 10 10 10 10 10 10 10 10 10 10 10 10 10 10 10 10 10 10 10 10 10 10 10 10 10 10 10 10 10 10 10 10 10 10 10 10 10 10 10 10 10 10 10 10 10 10 10 10 10 10 10 10 10 10 10 10 10 10 10 10 10 10 10 10 10 10 10 10 10 10 10 10 10 10 10 10 10 10 10 10 10 10 10 10 10 10 10 10 10 10 10 10 10 10 10 10 10 10 10 10 10 10 10 10 10 10 10 10 10 10 10 10 10 10 10 10 10 10 10 10 10 10 10 10 10 10 10 10 10 10 10 10 10 10 10 10 10 10 10 10 10 10 10 10 10 10 10 10 10 10 10 10 10 10 10 10 10 10 10 10 10 10 10 10 10 10 10 10 10 10 10 10 10 10 10 10 10 10 10 10 10 10 10 10 10 10 10 10 10 10 10 10 10 10 10 10 10 10 10 10 10 10 10 10 10 10 10 10 10 10 10 10 10 10 10 10 10 10 10 10 10 10 10 10 10 10 10 10 10 10 10 10 10 10 10 10 10 10 10 10 10 10 10 10 10 10 10 10 10 10 10 10 10 10 10 10 10 10 10 10 10 10 10 10 10 10 10 10 10 10 10 10 10 10 10 10 10 10 10 10 10 10 10 10 10 10 10 10 10 10 10 10 10 10 10 10 10 10 10 10 10 10 10 10 10 10 10 10 10 10 10 10 10 10 10 10 10 10 10 10 10 10 10 10 10 10 10 10 10 10 10 10 10 10 10 10 10 10 10 10 10 10 10 10 10 10 10 10 10 10 10 10 10 
</DataArray>
</Cells>
<PointData Scalars="" Vectors="displacement," Tensors="">
<DataArray type="Float64" Name="displacement" NumberOfComponents="3" format="ascii">
9.8790292415464924e-06 -2.1138409464661031e-10 -1.2611945777800267e-09 5.2909101661554579e-06 -1.4591113163937598e-10 -1.2146668700946313e-09 4.5756595659783551e-06 -2.1916189099450559e-10 -9.7080166476490707e-10 9.7686979804776487e-06 -9.746027281159624e-11 -2.9304582083466503e-05 2.231724417481171e-14 -2.3487978028162933e-10 -1.2115002440428939e-09 1.8232889453635554e-14 -3.2503620851259491e-10 -1.3077256573084406e-09 4.5756595659783551e-06 -2.1916189099450559e-10 -9.7080166476438677e-10 -2.5848849298695985e-14 -2.0313020526750893e-10 -1.3726806638588183e-05 1.8232889453635561e-14 -3.2503620851259491e-10 -1.3077256573073297e-09 6.2503721626863533e-06 -3.5504189424551875e-10 -1.3765600878229486e-09 4.5756595659783551e-06 -2.1916189099450559e-10 -9.7080166476438677e-10 4.5756541830879928e-06 -2.3769820892564164e-10 -1.3726827209014049e-05 -2.5848849298695985e-14 -2.0313020526750893e-10 -1.3726806638588183e-05 7.973596556258233e-15 -3.096415464281877e-10 -1.8750788084669966e-05 1.8232889453635561e-14 -3.2503620851259491e-10 -1.3077256573073297e-09 4.5756541830879928e-06 -2.3769820892564164e-10 -1.3726827209014049e-05 -2.5848849298695985e-14 -2.0313020526750893e-10 -1.3726806638588183e-05 -1.0808167297768087e-14 -8.8210097762960038e-11 -1.5872517033896582e-05 1.3210786049091808e-15 -1.899753609301993e-10 -2.9635589509295227e-05 9.7686979804776538e-06 -9.7460272811596175e-11 -2.9304582083466496e-05 9.8689943117602613e-06 -3.2053067331460207e-10 -1.7487917443235908e-05 4.5756541830879919e-06 -2.3769820892564164e-10 -1.3726827209014048e-05 5.2935820706333155e-06 -3.007392465955632e-10 -2.8136229148177561e-05 9.7686979804776487e-06 -9.746027281159624e-11 -2.9304582083466503e-05 -2.5848849298695985e-14 -2.0313020526750893e-10 -1.3726806638588183e-05 1.8232889083346606e-14 -3.2503620851259486e-10 -1.3077256573067743e-09 4.5756595659783551e-06 -2.1916189099450559e-10 -9.7080166476438677e-10 4.5756541830879928e-06 -2.3769820892564164e-10 -1.3726827209014049e-05 4.5756595659783551e-06 -2.1916189099450559e-10 -9.7080166476438677e-10 4.5756541830879919e-06 -2.3769820892564164e-10 -1.3726827209014054e-05 9.8689943117602613e-06 -3.2053067331460207e-10 -1.7487917443235908e-05 9.7686979804776487e-06 -9.746027281159624e-11 -2.9304582083466503e-05 4.5756595659783551e-06 -2.1916189099450559e-10 -9.7080166476438677e-10 -1.0808167121020744e-14 -8.8210097762959999e-11 -1.5872517033896579e-05 -2.5848848944899041e-14 -2.0313020526750895e-10 -1.3726806638588185e-05 9.7686979804776487e-06 -9.746027281159624e-11 -2.9304582083466503e-05 4.5756595659783551e-06 -2.1916189099450559e-10 -9.7080166476438677e-10 -2.5848849256822535e-14 -2.0313020526750893e-10 -1.3726806638588182e-05 4.5756541830879928e-06 -2.3769820892564164e-10 -1.3726827209014049e-05 9.7686979804776487e-06 -9.7460272811596227e-11 -2.9304582083466503e-05 -2.5848849298695985e-14 -2.0313020526750893e-10 -1.3726806638588183e-05 5.2935820706333172e-06 -3.007392465955632e-10 -2.8136229148177558e-05 4.5756541830879928e-06 -2.3769820892564164e-10 -1.3726827209014049e-05 9.7686979804776504e-06 -9.7460272811596253e-11 -2.9304582083466509e-05 4.5756541830879928e-06 -2.3769820892564164e-10 -1.3726827209014049e-05 -2.5848849237492089e-14 -2.0313020526750893e-10 -1.3726806638588183e-05 7.9735959148985761e-15 -3.096415464281877e-10 -1.8750788084669966e-05 5.2935820706333155e-06 -3.007392465955632e-10 -2.8136229148177561e-05 1.3210786049091808e-15 -1.899753609301993e-10 -2.9635589509295227e-05 7.9735959148985761e-15 -3.096415464281877e-10 -1.8750788084669966e-05 -2.5848849298695985e-14 -2.0313020526750893e-10 -1.3726806638588183e-05 5.2935820706333155e-06 -3.007392465955632e-10 -2.8136229148177561e-05 -2.5848849298695985e-14 -2.0313020526750893e-10 -1.3726806638588183e-05 4.5756595659783551e-06 -2.1916189099450559e-10 -9.7080166476438677e-10 2.231724417481171e-14 -2.3487978028162933e-10 -1.2115002440428048e-09 -1.0808167297768087e-14 -8.8210097762960038e-11 -1.5872517033896582e-05 -1.0808167297768087e-14 -8.8210097762960038e-11 -1.5872517033896582e-05 4.5756595659783559e-06 -2.1916189099450556e-10 -9.7080166476833904e-10 2.231724417481171e-14 -2.3487978028162933e-10 -1.2115002440428939e-09 5.2909101661554579e-06 -1.4591113163937598e-10 -1.2146668700946313e-09 6.2503721626863533e-06 -3.5504189424551875e-10 -1.3765600878229486e-09 4.5756595659783542e-06 -2.1916189099450559e-10 -9.7080166476591437e-10 9.8689943117602613e-06 -3.2053067331460207e-10 -1.7487917443235908e-05 9.8790292415464924e-06 -2.1138409464661031e-10 -1.2611945777800267e-09 6.2503721626863533e-06 -3.5504189424551875e-10 -1.3765600878229486e-09 4.5756595659783559e-06 -2.1916189099450559e-10 -9.7080166476437375e-10 4.5756541830879911e-06 -2.3769820892564159e-10 -1.3726827209014051e-05 9.8689943117602613e-06 -3.2053067331460207e-10 -1.7487917443235908e-05 9.8689943117602613e-06 -3.2053067331460207e-10 -1.7487917443235908e-05 1.2500879968090176e-05 -3.2551801461526902e-10 -1.6298245918011345e-09 6.2503721626863533e-06 -3.5504189424551875e-10 -1.3765600878238065e-09 9.8790292415464924e-06 -2.1138409464661031e-10 -1.2611945777800267e-09 9.8689943117602613e-06 -3.2053067331460207e-10 -1.7487917443235908e-05 9.8790292415464924e-06 -2.1138409464661031e-10 -1.2611945777800933e-09 4.5756595659783534e-06 -2.1916189099450556e-10 -9.7080166476525635e-10 9.768697980477647e-06 -9.7460272811596214e-11 -2.9304582083466499e-05 9.8790292415464924e-06 -2.1138409464661031e-10 -1.2611945777800267e-09 9.7686979804776453e-06 -9.7460272811596227e-11 -2.9304582083466506e-05 9.8689943117602613e-06 -3.2053067331460207e-10 -1.7487917443235908e-05 1.5638602541022398e-05 -2.1758755030515762e-10 -2.1173417576539985e-05 9.8790292415464924e-06 -2.1138409464661031e-10 -1.2611945777800267e-09 1.5436019315395965e-05 -3.0158432047091213e-10 -1.2411355219834699e-05 1.5928250011631244e-05 -1.9399800381380884e-10 -1.1798388266818426e-09 1.5638602541022395e-05 -2.1758755030515759e-10 -2.1173417576539988e-05 9.8790292415464924e-06 -2.1138409464661031e-10 -1.2611945777800267e-09 1.5928250011631244e-05 -1.9399800381380884e-10 -1.1798388266847231e-09 1.4317348651617307e-05 -1.202508340472361e-10 -1.0177386376477823e-09 1.5638602541022395e-05 -2.1758755030515765e-10 -2.1173417576539988e-05 1.5436019315395965e-05 -3.0158432047091218e-10 -1.2411355219834704e-05 1.2500879968090176e-05 -3.2551801461526902e-10 -1.6298245918011345e-09 9.8790292415464958e-06 -2.1138409464661039e-10 -1.2611945777739602e-09 1.5928250011631244e-05 -1.9399800381380884e-10 -1.1798388266818426e-09 1.5436019315395965e-05 -3.0158432047091218e-10 -1.2411355219834704e-05 1.2500879968090176e-05 -3.2551801461526902e-10 -1.6298245918011345e-09 9.8689943117602613e-06 -3.2053067331460207e-10 -1.7487917443235908e-05 9.8790292415464924e-06 -2.1138409464661039e-10 -1.2611945777783471e-09 9.8689943117602613e-06 -3.2053067331460207e-10 -1.7487917443235908e-05 1.490364847766905e-05 -3.692247159161153e-10 -2.9757888164136892e-05 1.5436019315395965e-05 -3.0158432047091218e-10 -1.2411355219834704e-05 1.5638602541022395e-05 -2.1758755030515762e-10 -2.1173417576539985e-05 9.8790292415464924e-06 -2.1138409464661031e-10 -1.2611945777800267e-09 9.8689943117602613e-06 -3.2053067331460207e-10 -1.7487917443235901e-05 1.5436019315395962e-05 -3.0158432047091213e-10 -1.2411355219834708e-05 1.5638602541022395e-05 -2.1758755030515759e-10 -2.1173417576539992e-05 9.6976538302363755e-06 -2.5740289851649164e-10 -5.0793645113131561e-05 1.5649098903596839e-05 -1.6163668367319443e-10 -4.9581285778248815e-05 1.0046383562744654e-05 -2.7787092770219571e-10 -3.6317372082945765e-05 6.9032157219583365e-06 -1.5972631389060501e-10 -4.6879651199599028e-05 1.0046383562744654e-05 -2.7787092770219571e-10 -3.6317372082945765e-05 9.7686979804776487e-06 -9.746027281159624e-11 -2.9304582083466503e-05 5.2935820706333155e-06 -3.007392465955632e-10 -2.8136229148177561e-05 6.9032157219583356e-06 -1.5972631389060503e-10 -4.6879651199599028e-05 1.0046383562744654e-05 -2.7787092770219571e-10 -3.6317372082945765e-05 1.5649098903596842e-05 -1.616366836731944e-10 -4.9581285778248808e-05 9.7686979804776504e-06 -9.7460272811596253e-11 -2.9304582083466503e-05 6.9032157219583365e-06 -1.5972631389060503e-10 -4.6879651199599035e-05 1.0046383562744654e-05 -2.7787092770219571e-10 -3.6317372082945765e-05 1.5649098903596839e-05 -1.616366836731944e-10 -4.9581285778248815e-05 1.4903648477669052e-05 -3.6922471591611536e-10 -2.9757888164136892e-05 1.5638602541022395e-05 -2.1758755030515762e-10 -2.1173417576539985e-05 1.0046383562744654e-05 -2.7787092770219571e-10 -3.6317372082945765e-05 9.7686979804776504e-06 -9.7460272811596253e-11 -2.9304582083466499e-05 1.5649098903596842e-05 -1.6163668367319443e-10 -4.9581285778248815e-05 1.5638602541022392e-05 -2.1758755030515757e-10 -2.1173417576539988e-05 1.0046383562744654e-05 -2.7787092770219571e-10 -3.6317372082945765e-05 9.8689943117602596e-06 -3.2053067331460207e-10 -1.7487917443235904e-05 5.2935820706333155e-06 -3.007392465955632e-10 -2.8136229148177561e-05 9.7686979804776487e-06 -9.746027281159624e-11 -2.9304582083466503e-05 9.8689943117602613e-06 -3.2053067331460207e-10 -1.7487917443235908e-05 9.7686979804776487e-06 -9.746027281159624e-11 -2.9304582083466503e-05 1.0046383562744654e-05 -2.7787092770219571e-10 -3.6317372082945765e-05 1.5638602541022395e-05 -2.1758755030515762e-10 -2.1173417576539985e-05 9.8689943117602613e-06 -3.2053067331460207e-10 -1.7487917443235908e-05 1.0046383562744654e-05 -2.7787092770219571e-10 -3.6317372082945765e-05 1.4903648477669052e-05 -3.6922471591611541e-10 -2.9757888164136892e-05 1.5638602541022395e-05 -2.1758755030515762e-10 -2.1173417576539985e-05 9.6976538302363755e-06 -2.5740289851649164e-10 -5.0793645113131561e-05 1.562609713993807e-05 -3.1909785980735578e-10 -4.5036263482400544e-05 1.0046383562744654e-05 -2.7787092770219571e-10 -3.6317372082945765e-05 1.5649098903596842e-05 -1.6163668367319448e-10 -4.9581285778248815e-05 1.0046383562744654e-05 -2.7787092770219571e-10 -3.6317372082945765e-05 1.562609713993807e-05 -3.1909785980735578e-10 -4.5036263482400544e-05 1.490364847766905e-05 -3.692247159161153e-10 -2.9757888164136892e-05 1.5649098903596842e-05 -1.6163668367319443e-10 -4.9581285778248815e-05 5.1161978827078993e-06 -2.9973465392550553e-10 -4.5812532336752046e-05 9.6976538302363755e-06 -2.5740289851649164e-10 -5.0793645113131561e-05 1.0046383562744654e-05 -2.7787092770219571e-10 -3.6317372082945765e-05 6.9032157219583365e-06 -1.5972631389060503e-10 -4.6879651199599028e-05 5.1161978827078993e-06 -2.9973465392550553e-10 -4.5812532336752046e-05 1.0046383562744654e-05 -2.7787092770219571e-10 -3.6317372082945765e-05 5.2935820706333155e-06 -3.007392465955632e-10 -2.8136229148177561e-05 6.9032157219583365e-06 -1.5972631389060503e-10 -4.6879651199599028e-05 5.2935820706333155e-06 -3.007392465955632e-10 -2.8136229148177561e-05 -2.5848849298695985e-14 -2.0313020526750893e-10 -1.3726806638588183e-05 1.3210782859554727e-15 -1.8997536093019932e-10 -2.9635589509295227e-05 9.7686979804776487e-06 -9.7460272811596227e-11 -2.9304582083466496e-05 1.3210786049091808e-15 -1.899753609301993e-10 -2.9635589509295227e-05 5.1161978827078976e-06 -2.9973465392550558e-10 -4.5812532336752046e-05 5.2935820706333155e-06 -3.007392465955632e-10 -2.8136229148177561e-05 6.903215721958339e-06 -1.5972631389060501e-10 -4.6879651199599028e-05 1.3210786049091808e-15 -1.899753609301993e-10 -2.9635589509295227e-05 5.2935820706333147e-06 -3.007392465955632e-10 -2.8136229148177561e-05 9.7686979804776487e-06 -9.7460272811596227e-11 -2.9304582083466503e-05 6.9032157219583365e-06 -1.5972631389060501e-10 -4.6879651199599028e-05 5.7382531703805709e-15 -3.6096256958587439e-10 -3.7500369408443867e-05 8.9333907266911778e-15 -4.0660794814832639e-10 -5.624993428684181e-05 5.1161978827078993e-06 -2.9973465392550553e-10 -4.5812532336752046e-05 -4.219936011205813e-15 -2.3676420915908246e-10 -4.7781493486939852e-05 5.7382531703805709e-15 -3.6096256958587439e-10 -3.7500369408443867e-05 1.3210786049091808e-15 -1.899753609301993e-10 -2.9635589509295227e-05 5.1161978827078993e-06 -2.9973465392550553e-10 -4.5812532336752046e-05 5.2935820706333155e-06 -3.007392465955632e-10 -2.8136229148177561e-05 5.1161978827078993e-06 -2.9973465392550553e-10 -4.5812532336752046e-05 1.3210790312995187e-15 -1.899753609301993e-10 -2.9635589509295224e-05 5.7382531828382292e-15 -3.6096256958587439e-10 -3.7500369408443867e-05 -4.219936011205813e-15 -2.3676420915908246e-10 -4.7781493486939852e-05 1.3210786049091808e-15 -1.899753609301993e-10 -2.9635589509295227e-05 5.7382541309534044e-15 -3.6096256958587439e-10 -3.7500369408443867e-05 7.9735959148985761e-15 -3.096415464281877e-10 -1.8750788084669966e-05 5.2935820706333155e-06 -3.007392465955632e-10 -2.8136229148177561e-05 1.3210786049091808e-15 -1.899753609301993e-10 -2.9635589509295227e-05 -4.219936011205813e-15 -2.3676420915908246e-10 -4.7781493486939852e-05 5.1161978827078993e-06 -2.9973465392550553e-10 -4.5812532336752046e-05 6.903215721958339e-06 -1.5972631389060498e-10 -4.6879651199599028e-05 1.3210786049091808e-15 -1.899753609301993e-10 -2.9635589509295227e-05 -2.3560689897830272e-15 -1.085099690677205e-10 -4.2949314686567465e-05 -4.219935765768904e-15 -2.3676420915908246e-10 -4.7781493486939852e-05 6.9032157219583382e-06 -1.5972631389060501e-10 -4.6879651199599028e-05 -1.0808167297768087e-14 -8.8210097762960038e-11 -1.5872517033896582e-05 5.3512689944137423e-15 -4.69887425613184e-11 -3.086799078875091e-05 1.3210786049091808e-15 -1.899753609301993e-10 -2.9635589509295227e-05 9.7686979804776487e-06 -9.746027281159624e-11 -2.9304582083466503e-05 -2.3560691602747344e-15 -1.0850996906772047e-10 -4.2949314686567465e-05 9.768697980477647e-06 -9.746027281159624e-11 -2.9304582083466492e-05 7.7409262571839583e-06 2.1185689559188156e-11 -4.2280069433558182e-05 6.9032157219583365e-06 -1.5972631389060503e-10 -4.6879651199599028e-05 1.3210786049091808e-15 -1.899753609301993e-10 -2.9635589509295227e-05 5.3512693412984469e-15 -4.69887425613184e-11 -3.086799078875091e-05 -2.3560691819550283e-15 -1.0850996906772047e-10 -4.2949314686567465e-05 9.7686979804776487e-06 -9.746027281159624e-11 -2.9304582083466503e-05 5.3512689944137423e-15 -4.69887425613184e-11 -3.086799078875091e-05 7.74092625718396e-06 2.1185689559188149e-11 -4.2280069433558182e-05 9.7686979804776487e-06 -9.746027281159624e-11 -2.9304582083466503e-05 6.9836045325950646e-06 1.0675212236369674e-11 -2.095009660483958e-05 -2.3560691602747344e-15 -1.0850996906772047e-10 -4.2949314686567465e-05 9.7686979804776487e-06 -9.7460272811596278e-11 -2.9304582083466499e-05 5.3512689944137423e-15 -4.69887425613184e-11 -3.086799078875091e-05 7.7409262571839583e-06 2.1185689559188156e-11 -4.2280069433558182e-05 -1.0808167297768087e-14 -8.8210097762960038e-11 -1.5872517033896582e-05 5.3512689944137423e-15 -4.69887425613184e-11 -3.086799078875091e-05 9.768697980477647e-06 -9.7460272811596278e-11 -2.9304582083466506e-05 6.9836045325950621e-06 1.067521223636964e-11 -2.0950096604839594e-05 1.3210786049091808e-15 -1.899753609301993e-10 -2.9635589509295227e-05 9.7686979804776487e-06 -9.7460272811596227e-11 -2.9304582083466503e-05 -2.3560692408409046e-15 -1.0850996906772046e-10 -4.2949314686567465e-05 6.9032157219583373e-06 -1.5972631389060506e-10 -4.6879651199599035e-05 -2.3560691602747344e-15 -1.0850996906772047e-10 -4.2949314686567465e-05 5.3512687534109881e-15 -4.6988742561318406e-11 -3.086799078875091e-05 -1.7712084665576129e-15 3.1975848770060166e-12 -4.8714057956842933e-05 7.7409262571839583e-06 2.1185689559188156e-11 -4.2280069433558182e-05 1.5626099562188127e-05 -2.0294716459647314e-12 -4.687513058894996e-05 1.5649098903596842e-05 -1.6163668367319443e-10 -4.9581285778248808e-05 9.7686979804776453e-06 -9.7460272811596227e-11 -2.9304582083466496e-05 1.5638728231682921e-05 -2.0591817362154997e-11 -2.3403587076957343e-05 7.7409262571839583e-06 2.1185689559188156e-11 -4.2280069433558182e-05 1.5638728231682921e-05 -2.0591817362155026e-11 -2.3403587076957343e-05 9.7686979804776504e-06 -9.7460272811596214e-11 -2.9304582083466499e-05 6.9836045325950646e-06 1.0675212236369683e-11 -2.0950096604839587e-05 9.7686979804776487e-06 -9.746027281159624e-11 -2.9304582083466503e-05 1.5638728231682921e-05 -2.0591817362154993e-11 -2.3403587076957343e-05 1.5649098903596842e-05 -1.6163668367319443e-10 -4.9581285778248815e-05 1.5638602541022395e-05 -2.1758755030515762e-10 -2.1173417576539988e-05 1.5626099562188127e-05 -2.0294716459647314e-12 -4.687513058894996e-05 7.7409262571839583e-06 2.1185689559188156e-11 -4.2280069433558182e-05 9.7686979804776504e-06 -9.7460272811596227e-11 -2.9304582083466492e-05 1.5649098903596842e-05 -1.6163668367319443e-10 -4.9581285778248815e-05 9.7686979804776487e-06 -9.746027281159624e-11 -2.9304582083466503e-05 7.7409262571839583e-06 2.1185689559188156e-11 -4.2280069433558182e-05 1.5626099562188127e-05 -2.0294716459647484e-12 -4.6875130588949974e-05 1.5638728231682921e-05 -2.0591817362154993e-11 -2.3403587076957346e-05 9.7686979804776487e-06 -9.746027281159624e-11 -2.9304582083466503e-05 1.5649098903596842e-05 -1.6163668367319443e-10 -4.9581285778248822e-05 7.7409262571839583e-06 2.1185689559188162e-11 -4.2280069433558182e-05 6.9032157219583365e-06 -1.5972631389060503e-10 -4.6879651199599028e-05 1.0289879559314048e-05 -7.4253017690695209e-11 -1.4010513973856112e-09 9.768697980477647e-06 -9.7460272811596278e-11 -2.9304582083466503e-05 1.4317348651617307e-05 -1.202508340472361e-10 -1.0177386376479566e-09 1.5638728231682921e-05 -2.0591817362154993e-11 -2.3403587076957346e-05 1.0289879559314048e-05 -7.4253017690695209e-11 -1.4010513973856112e-09 1.5638728231682921e-05 -2.0591817362154993e-11 -2.3403587076957346e-05 1.0140302205644992e-05 6.8437925938164362e-11 -1.469395534325331e-09 6.9836045325950646e-06 1.0675212236369683e-11 -2.0950096604839587e-05 1.4317348651617307e-05 -1.202508340472361e-10 -1.0177386376477823e-09 1.5638728231682921e-05 -2.0591817362154993e-11 -2.3403587076957346e-05 9.768697980477647e-06 -9.7460272811596188e-11 -2.9304582083466503e-05 1.5638602541022398e-05 -2.1758755030515765e-10 -2.1173417576539982e-05 1.4317348651617307e-05 -1.202508340472361e-10 -1.0177386376477823e-09 1.0289879559314048e-05 -7.4253017690695209e-11 -1.4010513973856112e-09 9.8790292415464924e-06 -2.1138409464661031e-10 -1.2611945777800267e-09 9.7686979804776487e-06 -9.746027281159624e-11 -2.9304582083466503e-05 5.2909101661554579e-06 -1.4591113163937598e-10 -1.2146668700946313e-09 9.768697980477647e-06 -9.746027281159624e-11 -2.9304582083466503e-05 1.0289879559314048e-05 -7.4253017690695209e-11 -1.4010513973856112e-09 6.9836045325950646e-06 1.0675212236369683e-11 -2.0950096604839587e-05 9.8790292415464924e-06 -2.1138409464661031e-10 -1.2611945777800267e-09 1.4317348651617307e-05 -1.202508340472361e-10 -1.0177386376477823e-09 9.768697980477647e-06 -9.7460272811596214e-11 -2.9304582083466503e-05 1.5638602541022395e-05 -2.1758755030515767e-10 -2.1173417576539988e-05 1.0289879559314048e-05 -7.4253017690695209e-11 -1.4010513973856112e-09 9.7686979804776504e-06 -9.7460272811596343e-11 -2.9304582083466503e-05 1.5638728231682921e-05 -2.0591817362154993e-11 -2.3403587076957346e-05 6.9836045325950663e-06 1.0675212236369722e-11 -2.0950096604839584e-05 1.0289879559314048e-05 -7.4253017690695209e-11 -1.4010513973856112e-09 5.2909101661554579e-06 -1.45911131639376e-10 -1.2146668700942591e-09 9.8790292415464924e-06 -2.1138409464661031e-10 -1.2611945777800267e-09 9.768697980477647e-06 -9.746027281159624e-11 -2.9304582083466509e-05 1.0140302205644992e-05 6.8437925938164362e-11 -1.469395534325331e-09 1.0289879559314048e-05 -7.4253017690695209e-11 -1.4010513973856112e-09 1.6239173531293049e-05 2.433818035281144e-11 -1.3010110273868368e-09 1.5638728231682921e-05 -2.0591817362154993e-11 -2.3403587076957346e-05 1.6239173531293049e-05 2.433818035281144e-11 -1.3010110273868368e-09 1.0289879559314048e-05 -7.4253017690695209e-11 -1.4010513973856112e-09 1.4317348651617307e-05 -1.202508340472361e-10 -1.0177386376477823e-09 1.5638728231682921e-05 -2.0591817362154993e-11 -2.3403587076957346e-05 -1.0808167297768087e-14 -8.8210097762960038e-11 -1.5872517033896582e-05 4.5756595659783551e-06 -2.1916189099450559e-10 -9.7080166476438677e-10 5.2909101661554579e-06 -1.4591113163937598e-10 -1.2146668700944024e-09 9.7686979804776487e-06 -9.746027281159624e-11 -2.9304582083466503e-05 -1.0808167297768087e-14 -8.8210097762960038e-11 -1.5872517033896582e-05 9.7686979804776487e-06 -9.7460272811596317e-11 -2.9304582083466506e-05 5.2909101661554579e-06 -1.4591113163937598e-10 -1.2146668700937727e-09 6.9836045325950638e-06 1.0675212236369675e-11 -2.0950096604839587e-05 5.383544297790814e-06 -1.0167038066058238e-11 -1.3238130380534623e-09 -1.0017193840811421e-14 -5.0542938872667032e-12 -1.6150521151593596e-05 5.2909101661554579e-06 -1.4591113163937598e-10 -1.2146668700946313e-09 6.9836045325950646e-06 1.0675212236369683e-11 -2.0950096604839587e-05 5.383544297790814e-06 -1.0167038066058238e-11 -1.3238130380534623e-09 5.2909101661554579e-06 -1.4591113163937598e-10 -1.2146668700946313e-09 1.0289879559314048e-05 -7.4253017690695209e-11 -1.4010513973856112e-09 6.9836045325950646e-06 1.0675212236369683e-11 -2.0950096604839587e-05 -1.0808167297768087e-14 -8.8210097762960038e-11 -1.5872517033896582e-05 2.231724417481171e-14 -2.3487978028162933e-10 -1.2115002440428939e-09 2.747172266746225e-14 -1.0456504268714601e-10 -1.5463287323245412e-09 5.2909101661554579e-06 -1.4591113163937598e-10 -1.2146668700946313e-09 -1.0808167297768087e-14 -8.8210097762960038e-11 -1.5872517033896582e-05 2.747172266746225e-14 -1.0456504268714601e-10 -1.5463287323245412e-09 -1.0017194161041162e-14 -5.0542938872666992e-12 -1.6150521151593596e-05 5.2909101661554579e-06 -1.4591113163937598e-10 -1.2146668700946313e-09 -1.0808167297768087e-14 -8.8210097762960038e-11 -1.5872517033896582e-05 5.2909101661554579e-06 -1.4591113163937598e-10 -1.2146668700946313e-09 -1.0017193840811421e-14 -5.0542938872667032e-12 -1.6150521151593596e-05 6.9836045325950629e-06 1.067521223636967e-11 -2.0950096604839584e-05 -1.0808167297768087e-14 -8.8210097762960038e-11 -1.5872517033896582e-05 -1.0017193840811421e-14 -5.0542938872667032e-12 -1.6150521151593596e-05 5.3512688871432681e-15 -4.69887425613184e-11 -3.086799078875091e-05 6.9836045325950629e-06 1.0675212236369683e-11 -2.095009660483959e-05 -1.0017193840811421e-14 -5.0542938872667032e-12 -1.6150521151593596e-05 2.7471722357887709e-14 -1.0456504268714599e-10 -1.5463287323231557e-09 1.4020195390945539e-14 8.4422681480428329e-11 -1.4435594256331362e-09 5.383544297790814e-06 -1.0167038066058238e-11 -1.3238130380534623e-09 5.2909101661554579e-06 -1.4591113163937598e-10 -1.2146668700946313e-09 2.747172266746225e-14 -1.0456504268714601e-10 -1.5463287323245412e-09 -1.0017193840811421e-14 -5.0542938872667032e-12 -1.6150521151593596e-05 5.383544297790814e-06 -1.0167038066058238e-11 -1.3238130380534623e-09 -2.3690439737452615e-15 9.8015300555696887e-11 -1.4904192553113279e-05 1.6771307489569917e-15 5.2130450109603712e-11 -3.0419259944057905e-05 6.9836045325950663e-06 1.0675212236369657e-11 -2.0950096604839587e-05 6.0188986825153596e-06 1.5020775509198623e-10 -1.8056150251477091e-05 4.9681042359578606e-06 1.1615967979124637e-10 -1.2084208054746181e-09 -2.3690440484867751e-15 9.8015300555696887e-11 -1.4904192553113277e-05 6.9836045325950646e-06 1.067521223636968e-11 -2.095009660483959e-05 6.0188986825153604e-06 1.5020775509198623e-10 -1.8056150251477094e-05 -2.3690439737452615e-15 9.8015300555696887e-11 -1.4904192553113279e-05 5.383544297790814e-06 -1.0167038066058238e-11 -1.3238130380534623e-09 1.402019541679683e-14 8.4422681480428329e-11 -1.4435594256330586e-09 4.9681042359578606e-06 1.1615967979124637e-10 -1.2084208054746181e-09 1.0140302205644992e-05 6.8437925938164362e-11 -1.469395534325331e-09 4.9681042359578606e-06 1.1615967979124637e-10 -1.2084208054746181e-09 6.9836045325950655e-06 1.0675212236369687e-11 -2.095009660483959e-05 6.0188986825153604e-06 1.5020775509198625e-10 -1.8056150251477094e-05 1.4020195390945539e-14 8.4422681480428329e-11 -1.4435594256331362e-09 -1.0017193840811421e-14 -5.0542938872667032e-12 -1.6150521151593596e-05 5.383544297790814e-06 -1.0167038066058237e-11 -1.323813038053999e-09 -2.3690439737452615e-15 9.8015300555696887e-11 -1.4904192553113279e-05 -2.3690439737452615e-15 9.8015300555696887e-11 -1.4904192553113279e-05 1.4020195390945539e-14 8.4422681480428329e-11 -1.4435594256331362e-09 7.0418224925351971e-15 2.1623160881774128e-10 -1.1743868072886057e-09 4.9681042359578606e-06 1.1615967979124637e-10 -1.2084208054746181e-09 9.7091899866166468e-06 2.2963229000289705e-10 -1.3083131808019151e-09 4.9681042359578614e-06 1.1615967979124638e-10 -1.2084208054741985e-09 1.0140302205644992e-05 6.8437925938164362e-11 -1.4693955343257533e-09 6.0188986825153604e-06 1.5020775509198625e-10 -1.8056150251477094e-05 1.0140302205644992e-05 6.8437925938164362e-11 -1.469395534325331e-09 4.9681042359578606e-06 1.1615967979124637e-10 -1.2084208054746181e-09 5.383544297790814e-06 -1.0167038066058238e-11 -1.3238130380534623e-09 6.9836045325950646e-06 1.0675212236369683e-11 -2.0950096604839587e-05 4.9681042359578606e-06 1.1615967979124637e-10 -1.2084208054746181e-09 -2.369044120413016e-15 9.8015300555696887e-11 -1.4904192553113277e-05 5.383544297790814e-06 -1.0167038066058238e-11 -1.3238130380534623e-09 6.9836045325950646e-06 1.0675212236369683e-11 -2.0950096604839587e-05 -2.3690439737452615e-15 9.8015300555696887e-11 -1.4904192553113279e-05 2.6958660943633826e-15 2.0098452159172784e-10 -2.9125966424970672e-05 1.6771307489569917e-15 5.2130450109603712e-11 -3.0419259944057905e-05 6.0188986825153587e-06 1.5020775509198628e-10 -1.8056150251477094e-05 -1.0017193840811421e-14 -5.0542938872667032e-12 -1.6150521151593596e-05 -2.3690439737452615e-15 9.8015300555696887e-11 -1.4904192553113279e-05 1.6771307489569917e-15 5.2130450109603712e-11 -3.0419259944057905e-05 6.9836045325950646e-06 1.0675212236369683e-11 -2.0950096604839587e-05 -1.0017193840811421e-14 -5.0542938872667032e-12 -1.6150521151593596e-05 5.3835442977908148e-06 -1.0167038066058237e-11 -1.3238130380539022e-09 -2.3690439737452615e-15 9.8015300555696887e-11 -1.4904192553113279e-05 6.9836045325950646e-06 1.0675212236369683e-11 -2.0950096604839587e-05 1.6771307489569917e-15 5.2130450109603712e-11 -3.0419259944057905e-05 7.0370317538178832e-06 1.8525722625372959e-10 -4.5175737230938576e-05 1.1203483218788968e-05 1.2379955108230099e-10 -2.8153580855289699e-05 6.0188986825153604e-06 1.5020775509198623e-10 -1.8056150251477091e-05 1.6771307489569917e-15 5.2130450109603712e-11 -3.0419259944057905e-05 7.74092625718396e-06 2.1185689559188149e-11 -4.2280069433558175e-05 5.3512689944137423e-15 -4.69887425613184e-11 -3.086799078875091e-05 6.9836045325950672e-06 1.0675212236369691e-11 -2.0950096604839587e-05 1.6771307489569917e-15 5.2130450109603712e-11 -3.0419259944057905e-05 2.695866375863854e-15 2.0098452159172784e-10 -2.9125966424970672e-05 7.0370317538178832e-06 1.8525722625372959e-10 -4.5175737230938583e-05 6.0188986825153596e-06 1.5020775509198625e-10 -1.8056150251477091e-05 1.1203483218788968e-05 1.2379955108230099e-10 -2.8153580855289699e-05 6.9836045325950663e-06 1.067521223636969e-11 -2.095009660483958e-05 1.6771309936144352e-15 5.2130450109603745e-11 -3.0419259944057908e-05 6.0188986825153596e-06 1.5020775509198625e-10 -1.8056150251477087e-05 -1.0017193840811421e-14 -5.0542938872667032e-12 -1.6150521151593596e-05 1.6771307798401586e-15 5.2130450109603712e-11 -3.0419259944057901e-05 5.3512689944137423e-15 -4.69887425613184e-11 -3.086799078875091e-05 6.9836045325950646e-06 1.0675212236369683e-11 -2.0950096604839587e-05 1.6771307489569917e-15 5.2130450109603712e-11 -3.0419259944057905e-05 7.7409262571839583e-06 2.1185689559188172e-11 -4.2280069433558189e-05 1.1203483218788968e-05 1.2379955108230099e-10 -2.8153580855289699e-05 7.037031753817884e-06 1.8525722625372954e-10 -4.5175737230938583e-05 1.1203483218788968e-05 1.2379955108230099e-10 -2.8153580855289699e-05 7.7409262571839583e-06 2.1185689559188181e-11 -4.2280069433558189e-05 1.6771298022164754e-15 5.2130450109603738e-11 -3.0419259944057908e-05 6.9836045325950672e-06 1.0675212236369675e-11 -2.0950096604839587e-05 5.3512689944137423e-15 -4.69887425613184e-11 -3.086799078875091e-05 1.677130311205104e-15 5.2130450109603712e-11 -3.0419259944057905e-05 -1.7712084665576129e-15 3.1975848770060166e-12 -4.8714057956842933e-05 7.7409262571839583e-06 2.1185689559188156e-11 -4.2280069433558182e-05 7.3612934880622992e-16 1.2072073698832647e-10 -4.2810770461380593e-05 -1.7712084665576129e-15 3.1975848770060166e-12 -4.8714057956842933e-05 1.6771307489569917e-15 5.2130450109603712e-11 -3.0419259944057905e-05 7.7409262571839583e-06 2.1185689559188156e-11 -4.2280069433558182e-05 5.7161794640993769e-16 1.0661226777867115e-10 -5.6197674480123673e-05 7.7409262571839583e-06 2.1185689559188126e-11 -4.2280069433558182e-05 7.3612934880622992e-16 1.2072073698832647e-10 -4.2810770461380593e-05 7.037031753817884e-06 1.8525722625372959e-10 -4.5175737230938576e-05 1.6771307489569917e-15 5.2130450109603712e-11 -3.0419259944057905e-05 2.695866375863854e-15 2.0098452159172784e-10 -2.9125966424970672e-05 7.361287605829771e-16 1.2072073698832647e-10 -4.2810770461380586e-05 7.037031753817884e-06 1.8525722625372959e-10 -4.5175737230938576e-05 7.3612934880622992e-16 1.2072073698832647e-10 -4.2810770461380593e-05 7.7409262571839583e-06 2.1185689559188162e-11 -4.2280069433558182e-05 1.6771307489569917e-15 5.2130450109603712e-11 -3.0419259944057905e-05 7.037031753817884e-06 1.8525722625372959e-10 -4.5175737230938576e-05 5.290925468257283e-06 3.0292219805295601e-10 -2.8195746386279598e-05 1.0290282781625625e-05 3.5333025582707464e-10 -3.7140403475839999e-05 7.037031753817884e-06 1.8525722625372959e-10 -4.5175737230938576e-05 6.0188986825153604e-06 1.5020775509198625e-10 -1.8056150251477094e-05 2.695866375863854e-15 2.0098452159172784e-10 -2.9125966424970672e-05 5.290925468257283e-06 3.0292219805295601e-10 -2.8195746386279595e-05 7.037031753817884e-06 1.8525722625372959e-10 -4.5175737230938576e-05 6.0188986825153604e-06 1.5020775509198625e-10 -1.8056150251477094e-05 5.3835439316682891e-06 3.3029219234107032e-10 -4.6721927826772967e-05 -4.1922482819440417e-15 2.3802862311545729e-10 -4.7628268128559549e-05 2.6958665186401781e-15 2.0098452159172784e-10 -2.9125966424970666e-05 7.037031753817884e-06 1.8525722625372959e-10 -4.5175737230938569e-05 7.3612934880622992e-16 1.2072073698832647e-10 -4.2810770461380593e-05 2.695866375863854e-15 2.0098452159172784e-10 -2.9125966424970672e-05 -4.1922466266791607e-15 2.3802862311545734e-10 -4.7628268128559549e-05 7.037031753817884e-06 1.8525722625372959e-10 -4.5175737230938576e-05 5.3835439316682891e-06 3.3029219234107032e-10 -4.6721927826772967e-05 5.9974364130718241e-15 3.8700890660668039e-10 -3.7500389193611431e-05 2.695866845723807e-15 2.0098452159172784e-10 -2.9125966424970669e-05 -4.1922466266791615e-15 2.3802862311545729e-10 -4.7628268128559542e-05 2.695866375863854e-15 2.0098452159172784e-10 -2.9125966424970672e-05 5.290925468257283e-06 3.0292219805295601e-10 -2.8195746386279598e-05 5.9974364130718241e-15 3.8700890660668039e-10 -3.7500389193611431e-05 5.3835439316682899e-06 3.3029219234107027e-10 -4.6721927826772967e-05 5.3835439316682891e-06 3.3029219234107032e-10 -4.6721927826772967e-05 2.695865477727753e-15 2.0098452159172779e-10 -2.9125966424970666e-05 5.290925468257283e-06 3.0292219805295601e-10 -2.8195746386279598e-05 7.0370317538178823e-06 1.8525722625372959e-10 -4.5175737230938583e-05 5.3835439316682891e-06 3.3029219234107032e-10 -4.6721927826772967e-05 5.290925468257283e-06 3.0292219805295601e-10 -2.8195746386279598e-05 1.0290282781625625e-05 3.5333025582707464e-10 -3.7140403475839999e-05 7.037031753817884e-06 1.8525722625372959e-10 -4.5175737230938576e-05 5.9974364130718241e-15 3.8700890660668039e-10 -3.7500389193611431e-05 5.775777856163288e-15 3.0308755158483e-10 -1.8750812796519033e-05 5.290925468257283e-06 3.0292219805295601e-10 -2.8195746386279598e-05 2.695866375863854e-15 2.0098452159172784e-10 -2.9125966424970672e-05 5.290925468257283e-06 3.0292219805295601e-10 -2.8195746386279598e-05 5.7757766514192096e-15 3.0308755158483e-10 -1.8750812796519029e-05 -1.8436266157341963e-14 2.0868950296942501e-10 -1.3726827394561012e-05 2.6958657884531271e-15 2.0098452159172787e-10 -2.9125966424970672e-05 4.5756595050944239e-06 2.4270380469819989e-10 -1.3726870395672146e-05 5.775777856163288e-15 3.0308755158483e-10 -1.8750812796519033e-05 -1.8436264412144304e-14 2.0868950296942501e-10 -1.3726827394561012e-05 5.290925468257283e-06 3.0292219805295601e-10 -2.8195746386279598e-05 6.2503896926592032e-06 3.4404573266459858e-10 -1.3290117812453748e-09 1.4987083958803373e-14 3.2692378430463569e-10 -1.3300813219167703e-09 4.5756339469633839e-06 2.178912190550285e-10 -9.6842764997848256e-10 4.5756595050944239e-06 2.4270380469819989e-10 -1.3726870395672146e-05 -1.8436264441855034e-14 2.0868950296942501e-10 -1.3726827394561011e-05 1.4987084094332507e-14 3.2692378430463574e-10 -1.3300813219156596e-09 5.775777856163288e-15 3.0308755158483e-10 -1.8750812796519033e-05 4.5756595050944239e-06 2.4270380469819989e-10 -1.3726870395672146e-05 -1.8436264441855034e-14 2.0868950296942501e-10 -1.3726827394561011e-05 4.5756339469633839e-06 2.178912190550285e-10 -9.6842764997848256e-10 1.4987084094332507e-14 3.2692378430463574e-10 -1.3300813219156596e-09 4.5756595050944239e-06 2.4270380469819989e-10 -1.3726870395672146e-05 4.5756339469633839e-06 2.178912190550285e-10 -9.6842764997848256e-10 1.4987083571655829e-14 3.2692378430463574e-10 -1.3300813219170679e-09 7.0418221514983538e-15 2.1623160881774128e-10 -1.174386807289629e-09 -1.8436264441855034e-14 2.0868950296942501e-10 -1.3726827394561011e-05 -1.8436264441855034e-14 2.0868950296942501e-10 -1.3726827394561011e-05 -2.3690439737452615e-15 9.8015300555696887e-11 -1.4904192553113279e-05 4.9681042359578614e-06 1.1615967979124635e-10 -1.2084208054751743e-09 6.0188986825153604e-06 1.5020775509198625e-10 -1.8056150251477094e-05 7.0418221514983538e-15 2.1623160881774128e-10 -1.174386807289629e-09 4.9681042359578606e-06 1.1615967979124637e-10 -1.2084208054746181e-09 4.5756339469633839e-06 2.178912190550285e-10 -9.6842764997848256e-10 -1.8436264441855034e-14 2.0868950296942501e-10 -1.3726827394561011e-05 4.5756595050944239e-06 2.4270380469819989e-10 -1.3726870395672146e-05 -1.8436264593085005e-14 2.0868950296942501e-10 -1.3726827394561011e-05 4.5756339469633839e-06 2.1789121905502847e-10 -9.6842764997805222e-10 6.0188986825153604e-06 1.5020775509198623e-10 -1.8056150251477091e-05 4.9681042359578606e-06 1.1615967979124637e-10 -1.2084208054746181e-09 7.0418221514983538e-15 2.1623160881774128e-10 -1.174386807289629e-09 -2.3690439737452615e-15 9.8015300555696887e-11 -1.4904192553113279e-05 -1.8436264441855034e-14 2.0868950296942501e-10 -1.3726827394561011e-05 4.9681042359578606e-06 1.1615967979124637e-10 -1.2084208054746181e-09 4.5756339469633839e-06 2.178912190550285e-10 -9.6842764997737269e-10 -1.8436264441855034e-14 2.0868950296942501e-10 -1.3726827394561011e-05 6.0188986825153604e-06 1.5020775509198625e-10 -1.8056150251477094e-05 5.290925468257283e-06 3.0292219805295601e-10 -2.8195746386279598e-05 2.6958651119042904e-15 2.0098452159172784e-10 -2.9125966424970669e-05 -1.8436265029265757e-14 2.0868950296942498e-10 -1.3726827394561014e-05 6.0188986825153604e-06 1.5020775509198625e-10 -1.8056150251477094e-05 -1.8436264441855034e-14 2.0868950296942501e-10 -1.3726827394561011e-05 2.695866375863854e-15 2.0098452159172784e-10 -2.9125966424970672e-05 -2.3690439737452615e-15 9.8015300555696887e-11 -1.4904192553113279e-05 6.0188986825153604e-06 1.5020775509198625e-10 -1.8056150251477094e-05 4.5756595050944239e-06 2.4270380469819989e-10 -1.3726870395672146e-05 4.5756339469633856e-06 2.178912190550285e-10 -9.684276499835387e-10 9.7091899866166468e-06 2.2963229000289702e-10 -1.308313180804366e-09 6.0188986825153604e-06 1.5020775509198623e-10 -1.8056150251477094e-05 4.9681042359578606e-06 1.1615967979124637e-10 -1.2084208054746181e-09 9.7091899866166468e-06 2.2963229000289705e-10 -1.3083131808019151e-09 4.5756339469633839e-06 2.178912190550285e-10 -9.6842764997848256e-10 6.0188986825153604e-06 1.5020775509198625e-10 -1.8056150251477094e-05 4.5756339469633839e-06 2.178912190550285e-10 -9.6842764997848256e-10 9.7091899866166468e-06 2.2963229000289705e-10 -1.3083131808019151e-09 6.2503896926592032e-06 3.4404573266459858e-10 -1.3290117812453748e-09 4.5756595050944239e-06 2.4270380469819989e-10 -1.3726870395672146e-05 9.8869240623162876e-06 3.177607066428499e-10 -1.7643716060507435e-05 6.250389692659204e-06 3.4404573266459869e-10 -1.3290117812442263e-09 9.7091899866166468e-06 2.2963229000289705e-10 -1.3083131808019151e-09 4.5756595050944239e-06 2.4270380469819989e-10 -1.3726870395672146e-05 9.7091899866166468e-06 2.2963229000289705e-10 -1.3083131808019151e-09 9.8869240623162876e-06 3.177607066428499e-10 -1.7643716060507435e-05 4.5756595050944222e-06 2.4270380469819989e-10 -1.3726870395672143e-05 6.0188986825153613e-06 1.5020775509198623e-10 -1.8056150251477094e-05 9.8869240623162876e-06 3.177607066428499e-10 -1.7643716060507435e-05 5.290925468257283e-06 3.0292219805295601e-10 -2.8195746386279598e-05 4.5756595050944239e-06 2.4270380469819989e-10 -1.3726870395672146e-05 6.0188986825153604e-06 1.5020775509198625e-10 -1.8056150251477094e-05 4.5756595050944239e-06 2.4270380469819989e-10 -1.3726870395672146e-05 5.290925468257283e-06 3.0292219805295601e-10 -2.8195746386279598e-05 -1.8436264441855034e-14 2.0868950296942501e-10 -1.3726827394561011e-05 6.0188986825153604e-06 1.5020775509198625e-10 -1.8056150251477094e-05 1.1203483218788968e-05 1.2379955108230099e-10 -2.8153580855289699e-05 6.0188986825153604e-06 1.5020775509198625e-10 -1.8056150251477091e-05 9.8869240623162876e-06 3.177607066428499e-10 -1.7643716060507435e-05 1.6530727647627478e-05 2.1288522022760803e-10 -1.9526949278775756e-05 9.7091899866166468e-06 2.2963229000289705e-10 -1.3083131808019151e-09 6.0188986825153604e-06 1.5020775509198625e-10 -1.8056150251477094e-05 1.120348321878897e-05 1.2379955108230096e-10 -2.8153580855289699e-05 1.6530727647627478e-05 2.1288522022760801e-10 -1.952694927877576e-05 9.7091899866166468e-06 2.2963229000289705e-10 -1.3083131808019151e-09 9.8869240623162876e-06 3.1776070664284996e-10 -1.7643716060507432e-05 6.0188986825153604e-06 1.5020775509198623e-10 -1.8056150251477094e-05 1.6530727647627478e-05 2.1288522022760801e-10 -1.9526949278775756e-05 9.7091899866166468e-06 2.2963229000289705e-10 -1.3083131808019151e-09 1.2500897218701269e-05 4.062801727651646e-10 -1.5504538227936751e-09 6.2503896926592032e-06 3.4404573266459858e-10 -1.3290117812453748e-09 9.8869240623162876e-06 3.177607066428499e-10 -1.7643716060507435e-05 9.7091899866166468e-06 2.2963229000289705e-10 -1.3083131808019151e-09 1.5877184983565138e-05 2.528680160132941e-10 -1.2694667548807756e-09 9.8869240623162876e-06 3.177607066428499e-10 -1.7643716060507435e-05 1.6530727647627478e-05 2.1288522022760801e-10 -1.9526949278775763e-05 1.4271189655679344e-05 1.2253956848801653e-10 -9.9612318897469248e-10 1.5877184983565138e-05 2.5286801601329416e-10 -1.2694667548779517e-09 9.7091899866166468e-06 2.2963229000289705e-10 -1.3083131808015247e-09 1.6530727647627478e-05 2.1288522022760803e-10 -1.9526949278775753e-05 1.5980354705503911e-05 2.9924205555107139e-10 -1.5348491066593533e-05 9.8869240623162876e-06 3.177607066428499e-10 -1.7643716060507435e-05 1.2500897218701269e-05 4.062801727651646e-10 -1.5504538227906692e-09 1.5877184983565138e-05 2.5286801601329416e-10 -1.2694667548779517e-09 9.8869240623162876e-06 3.177607066428499e-10 -1.7643716060507435e-05 9.7091899866166468e-06 2.29632290002897e-10 -1.3083131808059307e-09 1.2500897218701269e-05 4.062801727651646e-10 -1.5504538227936751e-09 1.5877184983565138e-05 2.5286801601329416e-10 -1.2694667548779517e-09 1.5980354705503911e-05 2.9924205555107139e-10 -1.5348491066593533e-05 1.4319818325650464e-05 2.4238405441052552e-10 -2.909151348239869e-05 9.8869240623162876e-06 3.177607066428499e-10 -1.7643716060507435e-05 1.6530727647627478e-05 2.1288522022760803e-10 -1.9526949278775756e-05 1.5980354705503911e-05 2.9924205555107139e-10 -1.5348491066593533e-05 9.8869240623162876e-06 3.177607066428499e-10 -1.7643716060507435e-05 1.5877184983565142e-05 2.528680160132941e-10 -1.2694667548785969e-09 1.6530727647627478e-05 2.1288522022760806e-10 -1.9526949278775756e-05 1.0290282781625625e-05 3.5333025582707464e-10 -3.7140403475839999e-05 1.1203483218788968e-05 1.2379955108230096e-10 -2.8153580855289699e-05 1.562109577241124e-05 1.5918410219205951e-10 -4.9656945241001607e-05 7.037031753817884e-06 1.8525722625372959e-10 -4.5175737230938576e-05 1.1203483218788968e-05 1.2379955108230099e-10 -2.8153580855289699e-05 7.037031753817884e-06 1.8525722625372959e-10 -4.5175737230938576e-05 1.0290282781625625e-05 3.5333025582707464e-10 -3.7140403475839999e-05 6.0188986825153596e-06 1.5020775509198625e-10 -1.8056150251477091e-05 9.8869240623162876e-06 3.177607066428499e-10 -1.7643716060507435e-05 1.4319818325650462e-05 2.4238405441052547e-10 -2.909151348239869e-05 1.0290282781625625e-05 3.5333025582707464e-10 -3.7140403475839999e-05 1.1203483218788967e-05 1.2379955108230091e-10 -2.8153580855289699e-05 1.4319818325650462e-05 2.4238405441052547e-10 -2.909151348239869e-05 1.1203483218788965e-05 1.2379955108230099e-10 -2.8153580855289699e-05 9.8869240623162876e-06 3.177607066428499e-10 -1.7643716060507435e-05 1.6530727647627478e-05 2.1288522022760803e-10 -1.9526949278775756e-05 9.8869240623162876e-06 3.177607066428499e-10 -1.7643716060507435e-05 1.1203483218788972e-05 1.2379955108230096e-10 -2.8153580855289699e-05 1.0290282781625627e-05 3.5333025582707469e-10 -3.7140403475839999e-05 6.0188986825153604e-06 1.5020775509198625e-10 -1.8056150251477094e-05 1.4319818325650462e-05 2.4238405441052547e-10 -2.909151348239869e-05 1.5621095772411233e-05 1.5918410219205944e-10 -4.9656945241001601e-05 1.1203483218788968e-05 1.2379955108230096e-10 -2.8153580855289705e-05 1.6530727647627478e-05 2.1288522022760803e-10 -1.9526949278775756e-05 1.4319818325650462e-05 2.4238405441052547e-10 -2.909151348239869e-05 1.0290282781625625e-05 3.5333025582707464e-10 -3.7140403475839999e-05 1.1203483218788968e-05 1.2379955108230094e-10 -2.8153580855289699e-05 1.5621095772411233e-05 1.5918410219205944e-10 -4.9656945241001594e-05 9.8869240623162876e-06 3.177607066428499e-10 -1.7643716060507435e-05 1.0290282781625625e-05 3.5333025582707464e-10 -3.7140403475839999e-05 5.290925468257283e-06 3.0292219805295601e-10 -2.8195746386279598e-05 6.0188986825153604e-06 1.5020775509198625e-10 -1.8056150251477094e-05 1.0290282781625625e-05 3.5333025582707464e-10 -3.7140403475839999e-05 1.0140746101447989e-05 3.6841807926405781e-10 -5.626884554352987e-05 5.3835439316682891e-06 3.3029219234107032e-10 -4.6721927826772967e-05 7.037031753817884e-06 1.8525722625372959e-10 -4.5175737230938576e-05 1.4319818325650462e-05 2.4238405441052547e-10 -2.909151348239869e-05 1.6239118853956809e-05 3.1638289822704469e-10 -4.6875163348755299e-05 1.0290282781625625e-05 3.5333025582707464e-10 -3.7140403475839999e-05 1.5621095772411237e-05 1.5918410219205946e-10 -4.9656945241001601e-05 7.7409262571839583e-06 2.1185689559188156e-11 -4.2280069433558182e-05 1.5621095772411233e-05 1.5918410219205944e-10 -4.9656945241001601e-05 1.1203483218788968e-05 1.2379955108230099e-10 -2.8153580855289699e-05 7.0370317538178849e-06 1.8525722625372957e-10 -4.5175737230938576e-05 1.1203483218788968e-05 1.2379955108230099e-10 -2.8153580855289699e-05 1.5626099562188127e-05 -2.029471645964706e-12 -4.6875130588949967e-05 7.7409262571839583e-06 2.1185689559188156e-11 -4.2280069433558182e-05 1.5638728231682918e-05 -2.0591817362155022e-11 -2.3403587076957339e-05 1.1203483218788968e-05 1.2379955108230099e-10 -2.8153580855289699e-05 7.7409262571839583e-06 2.1185689559188156e-11 -4.2280069433558182e-05 1.5626099562188127e-05 -2.0294716459647427e-12 -4.687513058894996e-05 1.5621095772411237e-05 1.5918410219205949e-10 -4.9656945241001607e-05 1.1203483218788968e-05 1.2379955108230099e-10 -2.8153580855289699e-05 1.5638728231682921e-05 -2.0591817362154993e-11 -2.3403587076957346e-05 7.7409262571839566e-06 2.1185689559188143e-11 -4.2280069433558175e-05 6.9836045325950646e-06 1.0675212236369683e-11 -2.0950096604839587e-05 1.1203483218788968e-05 1.2379955108230099e-10 -2.8153580855289699e-05 1.0140302205644992e-05 6.8437925938164362e-11 -1.469395534325331e-09 1.5638728231682921e-05 -2.0591817362154993e-11 -2.3403587076957346e-05 6.9836045325950646e-06 1.0675212236369683e-11 -2.0950096604839587e-05 9.7091899866166468e-06 2.2963229000289705e-10 -1.3083131808019151e-09 1.0140302205644992e-05 6.8437925938164362e-11 -1.469395534325331e-09 1.4271189655679344e-05 1.2253956848801653e-10 -9.9612318897469248e-10 1.1203483218788968e-05 1.2379955108230099e-10 -2.8153580855289705e-05 1.0140302205644992e-05 6.8437925938164362e-11 -1.469395534325331e-09 6.9836045325950663e-06 1.0675212236369699e-11 -2.095009660483959e-05 1.1203483218788968e-05 1.2379955108230099e-10 -2.8153580855289699e-05 6.0188986825153604e-06 1.5020775509198625e-10 -1.8056150251477094e-05 1.0140302205644992e-05 6.8437925938164362e-11 -1.469395534325331e-09 1.4271189655679344e-05 1.2253956848801653e-10 -9.9612318897512199e-10 1.1203483218788968e-05 1.2379955108230099e-10 -2.8153580855289695e-05 1.5638728231682921e-05 -2.0591817362154993e-11 -2.3403587076957346e-05 9.7091899866166468e-06 2.2963229000289705e-10 -1.3083131808019151e-09 1.0140302205644992e-05 6.8437925938164362e-11 -1.469395534325331e-09 1.1203483218788968e-05 1.2379955108230099e-10 -2.8153580855289699e-05 6.0188986825153604e-06 1.5020775509198625e-10 -1.8056150251477094e-05 1.4271189655679344e-05 1.2253956848801653e-10 -9.9612318897469248e-10 9.7091899866166468e-06 2.2963229000289705e-10 -1.3083131808019608e-09 1.1203483218788968e-05 1.2379955108230099e-10 -2.8153580855289699e-05 1.6530727647627478e-05 2.1288522022760801e-10 -1.9526949278775756e-05 1.1203483218788968e-05 1.2379955108230099e-10 -2.8153580855289699e-05 1.5638728231682921e-05 -2.0591817362154993e-11 -2.3403587076957346e-05 1.4271189655679344e-05 1.2253956848801653e-10 -9.9612318897469248e-10 1.6530727647627478e-05 2.1288522022760803e-10 -1.9526949278775756e-05 5.383544297790814e-06 -1.0167038066058238e-11 -1.3238130380534623e-09 1.0289879559314048e-05 -7.4253017690695209e-11 -1.4010513973856112e-09 1.0140302205644992e-05 6.8437925938164362e-11 -1.469395534325331e-09 6.9836045325950646e-06 1.0675212236369683e-11 -2.0950096604839587e-05 1.0140302205644992e-05 6.8437925938164362e-11 -1.469395534325331e-09 1.6239173531293049e-05 2.433818035281144e-11 -1.3010110273868368e-09 1.4271189655679344e-05 1.2253956848801653e-10 -9.9612318897469248e-10 1.5638728231682921e-05 -2.0591817362154993e-11 -2.3403587076957346e-05 2.2727406297936157e-05 8.4135008045868076e-11 -8.3438618809729272e-10 2.1394147777622356e-05 1.2417174404811003e-10 -2.9153047680312071e-05 1.8733897007233741e-05 1.1058417186420071e-10 -9.9364073942534324e-10 2.4287130250865865e-05 -3.1191005265916184e-11 -2.0414398007019145e-05 2.1394147777622356e-05 1.2417174404811011e-10 -2.9153047680312071e-05 1.5638728231682921e-05 -2.0591817362155009e-11 -2.340358707695735e-05 1.8733897007233741e-05 1.105841718642007e-10 -9.9364073942459195e-10 2.4287130250865862e-05 -3.1191005265916255e-11 -2.0414398007019142e-05 1.8733897007233741e-05 1.1058417186420071e-10 -9.9364073942534324e-10 1.4271189655679344e-05 1.2253956848801653e-10 -9.9612318897542205e-10 1.5638728231682921e-05 -2.059181736215499e-11 -2.340358707695735e-05 1.6530727647627478e-05 2.1288522022760806e-10 -1.952694927877576e-05 1.6239173531293049e-05 2.433818035281144e-11 -1.3010110273868368e-09 2.1039126345678761e-05 -6.5016270602555427e-12 -1.0244444783623823e-09 1.8733897007233741e-05 1.1058417186420071e-10 -9.9364073942534324e-10 1.5638728231682921e-05 -2.0591817362154993e-11 -2.3403587076957346e-05 1.8733897007233741e-05 1.1058417186420071e-10 -9.9364073942534324e-10 1.5638728231682918e-05 -2.0591817362154997e-11 -2.340358707695735e-05 2.1394147777622356e-05 1.2417174404811009e-10 -2.9153047680312074e-05 1.6530727647627471e-05 2.1288522022760803e-10 -1.952694927877576e-05 1.8733897007233741e-05 1.1058417186420071e-10 -9.9364073942534324e-10 1.5638728231682921e-05 -2.0591817362154997e-11 -2.3403587076957346e-05 2.1039126345678761e-05 -6.5016270602555427e-12 -1.0244444783623823e-09 2.4287130250865862e-05 -3.1191005265916268e-11 -2.0414398007019139e-05 1.8733897007233741e-05 1.1058417186420071e-10 -9.9364073942534324e-10 1.6530727647627478e-05 2.1288522022760816e-10 -1.9526949278775753e-05 2.1394147777622352e-05 1.2417174404811006e-10 -2.9153047680312071e-05 2.5496216248062745e-05 1.9333467432999834e-10 -1.7328618504440786e-05 1.8733897007233741e-05 1.1058417186420071e-10 -9.9364073942534324e-10 1.4271189655679344e-05 1.2253956848801653e-10 -9.9612318897534388e-10 1.6239173531293049e-05 2.433818035281144e-11 -1.3010110273868368e-09 1.5638728231682921e-05 -2.0591817362154993e-11 -2.3403587076957346e-05 1.8733897007233741e-05 1.1058417186420071e-10 -9.9364073942534324e-10 2.1394147777622356e-05 1.2417174404811011e-10 -2.9153047680312071e-05 2.2727406297936157e-05 8.4135008045868076e-11 -8.3438618809729272e-10 2.5496216248062745e-05 1.9333467432999829e-10 -1.7328618504440786e-05 1.4271189655679344e-05 1.2253956848801653e-10 -9.9612318897469248e-10 1.8733897007233741e-05 1.1058417186420071e-10 -9.9364073942519972e-10 1.5877184983565138e-05 2.5286801601329416e-10 -1.2694667548795134e-09 1.6530727647627478e-05 2.1288522022760803e-10 -1.9526949278775753e-05 1.8733897007233741e-05 1.1058417186420071e-10 -9.9364073942534324e-10 2.2727406297936157e-05 8.4135008045868089e-11 -8.3438618809681709e-10 2.2046056778122936e-05 1.594946078497588e-10 -1.2740117528490114e-09 2.5496216248062745e-05 1.9333467432999829e-10 -1.7328618504440786e-05 2.2727406297936157e-05 8.4135008045868076e-11 -8.3438618809729272e-10 1.8733897007233741e-05 1.1058417186420071e-10 -9.9364073942531821e-10 2.1039126345678761e-05 -6.5016270602555411e-12 -1.0244444783616353e-09 2.4287130250865862e-05 -3.1191005265916262e-11 -2.0414398007019142e-05 2.1394147777622356e-05 1.2417174404811011e-10 -2.9153047680312071e-05 1.5638728231682925e-05 -2.0591817362154987e-11 -2.3403587076957339e-05 1.1203483218788968e-05 1.2379955108230099e-10 -2.8153580855289699e-05 1.6530727647627474e-05 2.1288522022760798e-10 -1.9526949278775756e-05 2.1394147777622356e-05 1.2417174404811011e-10 -2.9153047680312071e-05 1.1203483218788965e-05 1.2379955108230096e-10 -2.8153580855289695e-05 1.5626099562188127e-05 -2.0294716459647314e-12 -4.687513058894996e-05 1.5621095772411237e-05 1.5918410219205946e-10 -4.9656945241001601e-05 1.5626099562188127e-05 -2.0294716459647314e-12 -4.687513058894996e-05 1.1203483218788968e-05 1.2379955108230099e-10 -2.8153580855289705e-05 2.1394147777622356e-05 1.2417174404811011e-10 -2.9153047680312071e-05 1.5638728231682925e-05 -2.0591817362155039e-11 -2.340358707695735e-05 1.5626099562188127e-05 -2.0294716459647314e-12 -4.687513058894996e-05 2.1394147777622356e-05 1.2417174404811011e-10 -2.9153047680312071e-05 2.3453191645866576e-05 1.7389101880500961e-11 -4.6721960561684652e-05 1.5638728231682925e-05 -2.0591817362155039e-11 -2.340358707695735e-05 2.1394147777622356e-05 1.2417174404811011e-10 -2.9153047680312071e-05 1.5621095772411237e-05 1.5918410219205946e-10 -4.9656945241001601e-05 2.3453191645866576e-05 1.7389101880500961e-11 -4.6721960561684652e-05 2.4181291256731302e-05 2.0317737395068526e-10 -4.6714877201879664e-05 2.3453191645866576e-05 1.7389101880500961e-11 -4.6721960561684652e-05 1.5638728231682921e-05 -2.0591817362155013e-11 -2.3403587076957356e-05 2.1394147777622356e-05 1.2417174404811011e-10 -2.9153047680312068e-05 2.4287130250865865e-05 -3.1191005265916262e-11 -2.0414398007019142e-05 1.1203483218788968e-05 1.2379955108230099e-10 -2.8153580855289699e-05 1.5621095772411237e-05 1.5918410219205946e-10 -4.9656945241001601e-05 2.1394147777622356e-05 1.2417174404811011e-10 -2.9153047680312071e-05 1.6530727647627478e-05 2.1288522022760803e-10 -1.9526949278775756e-05 1.5626099562188127e-05 -2.0294716459647314e-12 -4.687513058894996e-05 2.3453191645866576e-05 1.7389101880500955e-11 -4.6721960561684659e-05 2.1394147777622356e-05 1.2417174404811011e-10 -2.9153047680312071e-05 1.5621095772411237e-05 1.5918410219205946e-10 -4.9656945241001601e-05 2.1394147777622356e-05 1.2417174404811011e-10 -2.9153047680312071e-05 1.6530727647627478e-05 2.1288522022760803e-10 -1.9526949278775756e-05 1.9085275584009407e-05 3.3586008262144042e-10 -3.105781642543582e-05 2.5496216248062745e-05 1.9333467432999829e-10 -1.7328618504440786e-05 1.9085275584009407e-05 3.3586008262144042e-10 -3.105781642543582e-05 1.5621095772411237e-05 1.5918410219205946e-10 -4.9656945241001601e-05 2.1394147777622356e-05 1.2417174404811011e-10 -2.9153047680312071e-05 2.4181291256731302e-05 2.0317737395068526e-10 -4.6714877201879664e-05 1.9085275584009407e-05 3.3586008262144042e-10 -3.105781642543582e-05 2.1326590380897566e-05 3.7195907561489121e-10 -4.9040770707802501e-05 1.562109577241124e-05 1.5918410219205949e-10 -4.9656945241001601e-05 2.4181291256731302e-05 2.0317737395068526e-10 -4.6714877201879664e-05 2.5861686221584461e-05 3.7042021415561959e-10 -2.9445277681051899e-05 2.1394147777622352e-05 1.2417174404811006e-10 -2.9153047680312071e-05 1.9085275584009407e-05 3.3586008262144042e-10 -3.105781642543582e-05 2.5496216248062745e-05 1.9333467432999834e-10 -1.73286185044408e-05 1.4319818325650462e-05 2.4238405441052547e-10 -2.909151348239869e-05 1.9085275584009407e-05 3.3586008262144042e-10 -3.105781642543582e-05 1.5621095772411237e-05 1.5918410219205946e-10 -4.9656945241001601e-05 1.6530727647627478e-05 2.1288522022760803e-10 -1.9526949278775756e-05 1.9085275584009407e-05 3.3586008262144042e-10 -3.105781642543582e-05 2.1394147777622359e-05 1.2417174404811009e-10 -2.9153047680312074e-05 2.5861686221584461e-05 3.7042021415561959e-10 -2.9445277681051899e-05 2.4181291256731302e-05 2.0317737395068526e-10 -4.6714877201879664e-05 2.1394147777622356e-05 1.2417174404811011e-10 -2.9153047680312071e-05 1.5621095772411237e-05 1.5918410219205949e-10 -4.9656945241001601e-05 1.9085275584009407e-05 3.3586008262144042e-10 -3.105781642543582e-05 1.6530727647627478e-05 2.1288522022760803e-10 -1.952694927877576e-05 1.9085275584009407e-05 3.3586008262144042e-10 -3.105781642543582e-05 2.1326590380897566e-05 3.7195907561489121e-10 -4.9040770707802507e-05 1.6239118853956809e-05 3.1638289822704469e-10 -4.6875163348755293e-05 1.5621095772411237e-05 1.5918410219205946e-10 -4.9656945241001601e-05 1.6239118853956809e-05 3.1638289822704469e-10 -4.6875163348755299e-05 1.4319818325650462e-05 2.4238405441052547e-10 -2.909151348239869e-05 1.9085275584009407e-05 3.3586008262144042e-10 -3.105781642543582e-05 1.5621095772411237e-05 1.5918410219205944e-10 -4.9656945241001607e-05 2.1326590380897566e-05 3.7195907561489121e-10 -4.9040770707802507e-05 1.9085275584009403e-05 3.3586008262144037e-10 -3.105781642543582e-05 2.5861686221584461e-05 3.7042021415561959e-10 -2.9445277681051899e-05 2.4181291256731302e-05 2.0317737395068526e-10 -4.6714877201879664e-05 1.5980354705503911e-05 2.9924205555107139e-10 -1.5348491066593533e-05 1.9085275584009407e-05 3.3586008262144042e-10 -3.105781642543582e-05 1.4319818325650462e-05 2.4238405441052547e-10 -2.909151348239869e-05 1.6530727647627478e-05 2.1288522022760806e-10 -1.9526949278775756e-05 1.5980354705503911e-05 2.9924205555107139e-10 -1.5348491066593533e-05 2.1872980408135264e-05 3.0348956664428051e-10 -1.5880581045656753e-05 1.9085275584009407e-05 3.3586008262144042e-10 -3.105781642543582e-05 1.6530727647627478e-05 2.1288522022760806e-10 -1.9526949278775756e-05 2.1872980408135264e-05 3.0348956664428051e-10 -1.5880581045656753e-05 1.9085275584009407e-05 3.3586008262144042e-10 -3.105781642543582e-05 1.6530727647627478e-05 2.1288522022760803e-10 -1.952694927877576e-05 2.5496216248062742e-05 1.9333467432999832e-10 -1.7328618504440783e-05 2.1872980408135264e-05 3.0348956664428051e-10 -1.5880581045656753e-05 1.6530727647627481e-05 2.1288522022760806e-10 -1.9526949278775756e-05 2.2046056778122936e-05 1.594946078497588e-10 -1.2740117528491589e-09 2.5496216248062745e-05 1.9333467432999829e-10 -1.7328618504440776e-05 2.1872980408135264e-05 3.0348956664428051e-10 -1.5880581045656753e-05 1.5980354705503911e-05 2.9924205555107139e-10 -1.5348491066593533e-05 1.5877184983565138e-05 2.5286801601329421e-10 -1.2694667548710269e-09 1.6530727647627478e-05 2.1288522022760806e-10 -1.952694927877575e-05 1.8733897007233741e-05 1.1058417186420071e-10 -9.9364073942534324e-10 2.2046056778122936e-05 1.594946078497588e-10 -1.2740117528490114e-09 1.6530727647627478e-05 2.1288522022760806e-10 -1.952694927877576e-05 2.5496216248062745e-05 1.9333467432999829e-10 -1.732861850444079e-05 1.8751346812484168e-05 3.6022326191272609e-10 -1.6139308504447588e-09 2.1872980408135264e-05 3.0348956664428051e-10 -1.5880581045656753e-05 1.5980354705503911e-05 2.9924205555107139e-10 -1.5348491066593533e-05 1.5877184983565138e-05 2.5286801601329416e-10 -1.2694667548779517e-09 1.5980354705503911e-05 2.9924205555107139e-10 -1.5348491066593533e-05 1.2500897218701269e-05 4.062801727651646e-10 -1.5504538227951283e-09 1.8751346812484168e-05 3.6022326191272609e-10 -1.6139308504447588e-09 1.5877184983565138e-05 2.5286801601329416e-10 -1.2694667548779517e-09 1.5877184983565138e-05 2.5286801601329416e-10 -1.2694667548779517e-09 1.8733897007233741e-05 1.105841718642007e-10 -9.9364073942536867e-10 2.2046056778122936e-05 1.594946078497588e-10 -1.2740117528490114e-09 1.6530727647627478e-05 2.1288522022760803e-10 -1.9526949278775756e-05 2.1872980408135264e-05 3.0348956664428051e-10 -1.5880581045656753e-05 1.5877184983565138e-05 2.5286801601329421e-10 -1.2694667548713007e-09 2.2046056778122936e-05 1.5949460784975883e-10 -1.2740117528464916e-09 1.6530727647627478e-05 2.1288522022760808e-10 -1.952694927877575e-05 1.8751346812484168e-05 3.6022326191272609e-10 -1.6139308504447588e-09 2.500184691749729e-05 3.09703334617001e-10 -1.3249272500390827e-09 2.1872980408135264e-05 3.0348956664428051e-10 -1.5880581045656753e-05 2.2046056778122936e-05 1.594946078497588e-10 -1.2740117528490114e-09 1.5877184983565138e-05 2.5286801601329416e-10 -1.2694667548779517e-09 1.8751346812484168e-05 3.6022326191272609e-10 -1.6139308504447588e-09 2.1872980408135264e-05 3.0348956664428051e-10 -1.5880581045656763e-05 2.2046056778122936e-05 1.594946078497588e-10 -1.2740117528490114e-09 2.1872980408135264e-05 3.0348956664428051e-10 -1.5880581045656753e-05 2.5861686221584461e-05 3.7042021415561959e-10 -2.9445277681051899e-05 1.9085275584009407e-05 3.3586008262144042e-10 -3.105781642543582e-05 2.5496216248062745e-05 1.9333467432999837e-10 -1.7328618504440786e-05 2.5861686221584461e-05 3.7042021415561959e-10 -2.9445277681051899e-05 2.1872980408135264e-05 3.0348956664428051e-10 -1.5880581045656753e-05 2.6676601852903635e-05 2.2790150205851102e-10 -1.3726829147074213e-05 2.5496216248062742e-05 1.9333467432999832e-10 -1.7328618504440783e-05 2.1872980408135264e-05 3.0348956664428051e-10 -1.5880581045656753e-05 2.6676565102667663e-05 2.2823698385696829e-10 -9.0106914116638501e-10 2.6676601852903635e-05 2.2790150205851102e-10 -1.3726829147074215e-05 2.5496216248062745e-05 1.9333467432999832e-10 -1.7328618504440776e-05 2.6676601852903635e-05 2.2790150205851102e-10 -1.3726829147074215e-05 3.1252291742286469e-05 2.0713246688761745e-10 -1.3726812635594931e-05 2.5861686221584461e-05 3.7042021415561959e-10 -2.9445277681051899e-05 2.5496216248062745e-05 1.9333467432999827e-10 -1.7328618504440786e-05 2.6676565102667663e-05 2.2823698385696829e-10 -9.0106914116256313e-10 2.6676601852903635e-05 2.2790150205851102e-10 -1.3726829147074215e-05 2.500184691749729e-05 3.09703334617001e-10 -1.3249272500390827e-09 2.1872980408135264e-05 3.0348956664428051e-10 -1.5880581045656753e-05 2.1872980408135264e-05 3.0348956664428051e-10 -1.5880581045656753e-05 2.5001846917497294e-05 3.09703334617001e-10 -1.3249272500389929e-09 2.6676565102667663e-05 2.2823698385696829e-10 -9.0106914116256313e-10 2.2046056778122936e-05 1.594946078497588e-10 -1.2740117528490114e-09 2.6676565102667663e-05 2.2823698385696829e-10 -9.0106914116256313e-10 2.2046056778122936e-05 1.594946078497588e-10 -1.2740117528491998e-09 2.6618640202188864e-05 1.3470173744177214e-10 -1.0157339416209466e-09 2.5496216248062745e-05 1.9333467432999829e-10 -1.7328618504440783e-05 2.1872980408135264e-05 3.0348956664428051e-10 -1.5880581045656753e-05 2.2046056778122939e-05 1.5949460784975883e-10 -1.2740117528546487e-09 2.6676565102667663e-05 2.2823698385696829e-10 -9.0106914116464101e-10 2.5496216248062745e-05 1.9333467432999832e-10 -1.732861850444078e-05 3.1252291742286469e-05 2.0713246688761748e-10 -1.3726812635594933e-05 3.1252243242000243e-05 1.0837649051810833e-10 -1.4904087436827669e-05 3.1252227769357599e-05 2.1197401189406836e-10 -2.912589773741282e-05 2.5496216248062745e-05 1.9333467432999829e-10 -1.7328618504440786e-05 2.5861686221584461e-05 3.7042021415561959e-10 -2.9445277681051899e-05 3.1252291742286469e-05 2.0713246688761748e-10 -1.3726812635594933e-05 3.1252227769357599e-05 2.1197401189406836e-10 -2.912589773741282e-05 2.5496216248062749e-05 1.9333467432999834e-10 -1.732861850444079e-05 3.1252291742286469e-05 2.0713246688761748e-10 -1.3726812635594933e-05 2.6676565102667663e-05 2.2823698385696829e-10 -9.0106914116256313e-10 3.1252205147417491e-05 1.7756933841409174e-10 -1.1794477173971251e-09 2.5496216248062745e-05 1.9333467432999829e-10 -1.7328618504440786e-05 3.1252205147417491e-05 1.7756933841409174e-10 -1.1794477173971251e-09 2.5496216248062749e-05 1.9333467432999829e-10 -1.7328618504440786e-05 3.1252243242000243e-05 1.0837649051810833e-10 -1.4904087436827669e-05 3.1252291742286469e-05 2.0713246688761748e-10 -1.3726812635594933e-05 2.6676565102667663e-05 2.2823698385696829e-10 -9.0106914116256313e-10 3.1252291742286469e-05 2.0713246688761748e-10 -1.3726812635594935e-05 2.6676601852903635e-05 2.2790150205851102e-10 -1.3726829147074215e-05 2.5496216248062745e-05 1.9333467432999829e-10 -1.7328618504440783e-05 2.6676565102667663e-05 2.2823698385696829e-10 -9.0106914116256313e-10 2.6618640202188868e-05 1.3470173744177217e-10 -1.0157339416200667e-09 3.1252205147417491e-05 1.7756933841409174e-10 -1.1794477173966851e-09 2.5496216248062745e-05 1.9333467432999829e-10 -1.7328618504440783e-05 3.1252291742286469e-05 2.0713246688761748e-10 -1.3726812635594933e-05 2.6676601852903635e-05 2.2790150205851104e-10 -1.3726829147074217e-05 3.1252155135544397e-05 3.3934059034931685e-10 -1.363511748741688e-09 2.6676565102667663e-05 2.2823698385696829e-10 -9.0106914116256313e-10 3.1252250140239656e-05 3.1735148471256543e-10 -1.875078598696015e-05 2.6676601852903635e-05 2.2790150205851102e-10 -1.3726829147074217e-05 3.1252155135544397e-05 3.3934059034931685e-10 -1.363511748741688e-09 3.1252291742286469e-05 2.0713246688761748e-10 -1.3726812635594933e-05 3.1252155135544397e-05 3.3934059034931685e-10 -1.363511748741688e-09 3.1252291742286469e-05 2.0713246688761748e-10 -1.3726812635594933e-05 2.6676565102667663e-05 2.2823698385696829e-10 -9.0106914116256313e-10 3.1252205147417491e-05 1.7756933841409174e-10 -1.1794477173971251e-09 2.500184691749729e-05 3.09703334617001e-10 -1.3249272500390827e-09 3.1252155135544397e-05 3.3934059034931685e-10 -1.363511748741688e-09 2.6676601852903635e-05 2.2790150205851102e-10 -1.3726829147074215e-05 2.6676565102667663e-05 2.2823698385696829e-10 -9.0106914116256313e-10 2.5861686221584461e-05 3.7042021415561959e-10 -2.9445277681051899e-05 2.6676601852903635e-05 2.2790150205851102e-10 -1.3726829147074215e-05 3.1252250140239656e-05 3.1735148471256543e-10 -1.875078598696015e-05 3.1252291742286469e-05 2.0713246688761748e-10 -1.3726812635594933e-05 3.1252250140239656e-05 3.1735148471256543e-10 -1.875078598696015e-05 3.1252227769357599e-05 2.1197401189406836e-10 -2.912589773741282e-05 2.5861686221584458e-05 3.7042021415561959e-10 -2.9445277681051896e-05 3.1252291742286469e-05 2.0713246688761748e-10 -1.3726812635594933e-05 3.125222436449859e-05 2.9862054907718813e-10 -3.7500316463960611e-05 3.1252227769357599e-05 2.1197401189406836e-10 -2.912589773741282e-05 2.5861686221584461e-05 3.7042021415561959e-10 -2.9445277681051896e-05 3.1252250140239656e-05 3.1735148471256543e-10 -1.875078598696015e-05 2.5861686221584461e-05 3.7042021415561959e-10 -2.9445277681051899e-05 2.4181291256731302e-05 2.0317737395068526e-10 -4.671487720187967e-05 2.1394147777622356e-05 1.2417174404811011e-10 -2.9153047680312071e-05 2.5496216248062742e-05 1.9333467432999832e-10 -1.732861850444079e-05 3.1252227769357599e-05 2.1197401189406836e-10 -2.912589773741282e-05 2.4181291256731302e-05 2.0317737395068524e-10 -4.6714877201879664e-05 2.5861686221584461e-05 3.7042021415561959e-10 -2.9445277681051899e-05 2.5496216248062742e-05 1.9333467432999829e-10 -1.732861850444078e-05 3.1252227769357599e-05 2.1197401189406836e-10 -2.912589773741282e-05 2.1394147777622359e-05 1.2417174404811001e-10 -2.9153047680312068e-05 2.4181291256731306e-05 2.0317737395068524e-10 -4.671487720187967e-05 2.5496216248062742e-05 1.9333467432999827e-10 -1.7328618504440783e-05 3.1252227769357599e-05 2.1197401189406836e-10 -2.912589773741282e-05 2.7115165415659855e-05 3.0054103370407422e-10 -4.7445244753099526e-05 2.5861686221584461e-05 3.7042021415561964e-10 -2.9445277681051896e-05 2.4181291256731302e-05 2.0317737395068526e-10 -4.6714877201879664e-05 2.1326590380897566e-05 3.7195907561489121e-10 -4.9040770707802507e-05 2.5861686221584461e-05 3.7042021415561959e-10 -2.9445277681051899e-05 2.7115165415659852e-05 3.0054103370407432e-10 -4.7445244753099512e-05 2.4181291256731302e-05 2.0317737395068526e-10 -4.6714877201879664e-05 2.7115165415659852e-05 3.0054103370407432e-10 -4.7445244753099512e-05 3.125222436449859e-05 2.9862054907718813e-10 -3.7500316463960611e-05 3.1252227769357599e-05 2.1197401189406836e-10 -2.912589773741282e-05 2.5861686221584461e-05 3.7042021415561959e-10 -2.9445277681051899e-05 3.125222436449859e-05 2.9862054907718813e-10 -3.7500316463960611e-05 3.1252218353275394e-05 2.1243684238263467e-10 -4.7628198628645404e-05 2.7115165415659852e-05 3.0054103370407432e-10 -4.7445244753099512e-05 3.1252227769357599e-05 2.1197401189406836e-10 -2.912589773741282e-05 3.1252227769357599e-05 2.1197401189406836e-10 -2.912589773741282e-05 3.1252218353275394e-05 2.1243684238263467e-10 -4.7628198628645404e-05 2.7115165415659852e-05 3.0054103370407432e-10 -4.7445244753099512e-05 2.4181291256731302e-05 2.0317737395068526e-10 -4.6714877201879664e-05 3.1252227769357599e-05 2.1197401189406836e-10 -2.912589773741282e-05 3.1252221088296859e-05 1.1916367683177848e-10 -4.2949248837667165e-05 3.1252218353275394e-05 2.1243684238263467e-10 -4.7628198628645404e-05 2.4181291256731302e-05 2.0317737395068526e-10 -4.6714877201879664e-05 3.1252239407189723e-05 -8.8495602177045937e-11 -3.0867943560086137e-05 2.3453191645866576e-05 1.7389101880500964e-11 -4.6721960561684645e-05 3.1252240479792524e-05 4.9585537609091952e-11 -3.0419163935336966e-05 2.4287130250865862e-05 -3.1191005265916262e-11 -2.0414398007019142e-05 3.1252221088296859e-05 1.1916367683177848e-10 -4.2949248837667165e-05 2.1394147777622356e-05 1.2417174404811011e-10 -2.9153047680312071e-05 3.1252240479792524e-05 4.9585537609091952e-11 -3.0419163935336969e-05 2.3453191645866576e-05 1.7389101880500961e-11 -4.6721960561684652e-05 3.1252227769357599e-05 2.1197401189406836e-10 -2.912589773741282e-05 2.1394147777622356e-05 1.2417174404811003e-10 -2.9153047680312068e-05 3.1252221088296859e-05 1.1916367683177848e-10 -4.2949248837667158e-05 2.4181291256731302e-05 2.0317737395068526e-10 -4.6714877201879664e-05 3.1252221088296859e-05 1.1916367683177848e-10 -4.2949248837667165e-05 2.1394147777622356e-05 1.2417174404811011e-10 -2.9153047680312071e-05 2.3453191645866579e-05 1.7389101880500994e-11 -4.6721960561684659e-05 2.4181291256731296e-05 2.0317737395068526e-10 -4.6714877201879664e-05 3.1252221088296859e-05 1.1916367683177848e-10 -4.2949248837667165e-05 3.1252227769357599e-05 2.1197401189406836e-10 -2.912589773741282e-05 3.1252240479792524e-05 4.9585537609091952e-11 -3.0419163935336969e-05 2.1394147777622356e-05 1.2417174404811011e-10 -2.9153047680312071e-05 2.1394147777622356e-05 1.2417174404811011e-10 -2.9153047680312071e-05 3.1252240479792524e-05 4.9585537609091926e-11 -3.0419163935336966e-05 2.3453191645866576e-05 1.7389101880500961e-11 -4.6721960561684652e-05 2.4287130250865862e-05 -3.1191005265916275e-11 -2.0414398007019139e-05 3.1252227769357599e-05 2.1197401189406836e-10 -2.912589773741282e-05 3.1252240479792524e-05 4.9585537609091952e-11 -3.0419163935336969e-05 2.1394147777622352e-05 1.2417174404811011e-10 -2.9153047680312074e-05 2.5496216248062745e-05 1.9333467432999829e-10 -1.7328618504440786e-05 3.1252240479792524e-05 4.9585537609091952e-11 -3.0419163935336969e-05 2.4287130250865862e-05 -3.1191005265916262e-11 -2.0414398007019142e-05 2.1394147777622359e-05 1.2417174404811011e-10 -2.9153047680312081e-05 2.5496216248062745e-05 1.9333467432999824e-10 -1.7328618504440793e-05 3.1252215137029636e-05 -5.2612185093998361e-12 -4.8713998307094461e-05 3.1252221088296859e-05 1.1916367683177848e-10 -4.2949248837667165e-05 3.1252240479792524e-05 4.9585537609091952e-11 -3.0419163935336969e-05 2.3453191645866576e-05 1.7389101880500961e-11 -4.6721960561684652e-05 3.1252239407189723e-05 -8.8495602177045937e-11 -3.0867943560086137e-05 3.1252215137029636e-05 -5.2612185093998507e-12 -4.8713998307094461e-05 3.1252240479792524e-05 4.9585537609091952e-11 -3.0419163935336969e-05 2.3453191645866579e-05 1.7389101880500952e-11 -4.6721960561684652e-05 2.6311771519102693e-05 3.561043470041367e-11 -1.1625159479489885e-09 3.1252222071079948e-05 -2.7032136811032035e-11 -1.6150416096006754e-05 3.1252243242000243e-05 1.0837649051810833e-10 -1.4904087436827671e-05 2.4287130250865862e-05 -3.1191005265916262e-11 -2.0414398007019142e-05 3.1252243242000243e-05 1.0837649051810833e-10 -1.4904087436827671e-05 2.6618640202188868e-05 1.3470173744177217e-10 -1.0157339416255929e-09 2.4287130250865858e-05 -3.11910052659163e-11 -2.0414398007019142e-05 2.5496216248062745e-05 1.9333467432999829e-10 -1.7328618504440786e-05 3.1252243242000243e-05 1.0837649051810833e-10 -1.4904087436827671e-05 2.4287130250865862e-05 -3.1191005265916294e-11 -2.0414398007019139e-05 3.1252240479792524e-05 4.9585537609091952e-11 -3.0419163935336969e-05 2.5496216248062745e-05 1.9333467432999829e-10 -1.7328618504440786e-05 3.1252243242000243e-05 1.0837649051810833e-10 -1.4904087436827671e-05 3.1252222071079948e-05 -2.7032136811032009e-11 -1.6150416096006757e-05 3.1252240479792524e-05 4.9585537609091952e-11 -3.0419163935336969e-05 2.4287130250865858e-05 -3.1191005265916223e-11 -2.0414398007019145e-05 2.2727406297936157e-05 8.4135008045868076e-11 -8.3438618809729272e-10 2.4287130250865862e-05 -3.1191005265916262e-11 -2.0414398007019142e-05 2.6618640202188864e-05 1.3470173744177217e-10 -1.0157339416209476e-09 2.5496216248062745e-05 1.9333467432999829e-10 -1.7328618504440786e-05 2.2727406297936157e-05 8.4135008045868076e-11 -8.3438618809729272e-10 2.1394147777622356e-05 1.2417174404811009e-10 -2.9153047680312074e-05 2.4287130250865862e-05 -3.1191005265916249e-11 -2.0414398007019145e-05 2.5496216248062745e-05 1.9333467432999829e-10 -1.7328618504440786e-05 3.1252227769357599e-05 2.1197401189406836e-10 -2.912589773741282e-05 3.1252243242000243e-05 1.0837649051810833e-10 -1.4904087436827671e-05 3.1252240479792524e-05 4.9585537609091952e-11 -3.0419163935336969e-05 2.5496216248062745e-05 1.9333467432999829e-10 -1.7328618504440786e-05 2.2727406297936157e-05 8.4135008045868076e-11 -8.3438618809729272e-10 2.1039126345678761e-05 -6.5016270602555379e-12 -1.024444478361861e-09 2.6311771519102693e-05 3.561043470041367e-11 -1.1625159479497354e-09 2.4287130250865862e-05 -3.1191005265916262e-11 -2.0414398007019142e-05 2.6311771519102693e-05 3.561043470041367e-11 -1.1625159479489885e-09 3.1252243242000243e-05 1.0837649051810831e-10 -1.4904087436827671e-05 2.6618640202188868e-05 1.3470173744177217e-10 -1.0157339416200667e-09 2.4287130250865862e-05 -3.1191005265916262e-11 -2.0414398007019142e-05 2.2727406297936157e-05 8.4135008045868076e-11 -8.3438618809729272e-10 2.6311771519102693e-05 3.561043470041367e-11 -1.1625159479491148e-09 2.6618640202188868e-05 1.3470173744177217e-10 -1.0157339416196932e-09 2.4287130250865862e-05 -3.1191005265916262e-11 -2.0414398007019142e-05 2.2046056778122936e-05 1.594946078497588e-10 -1.2740117528490114e-09 2.2727406297936157e-05 8.4135008045868076e-11 -8.3438618809729272e-10 2.6618640202188868e-05 1.3470173744177217e-10 -1.0157339416209466e-09 2.5496216248062745e-05 1.9333467432999829e-10 -1.732861850444079e-05 3.1252243242000243e-05 1.0837649051810833e-10 -1.4904087436827671e-05 2.6618640202188868e-05 1.3470173744177217e-10 -1.0157339416183759e-09 3.1252205147417491e-05 1.7756933841409174e-10 -1.1794477173972783e-09 3.1252104554278353e-05 9.3232569205465513e-11 -1.3148255783585292e-09 3.1252243242000243e-05 1.0837649051810833e-10 -1.4904087436827671e-05 2.5496216248062742e-05 1.9333467432999827e-10 -1.7328618504440786e-05 3.1252205147417491e-05 1.7756933841409174e-10 -1.1794477173971251e-09 2.6618640202188868e-05 1.3470173744177217e-10 -1.0157339416226071e-09 2.6311771519102693e-05 3.561043470041367e-11 -1.1625159479489885e-09 2.6618640202188868e-05 1.3470173744177217e-10 -1.0157339416200667e-09 3.1252243242000243e-05 1.0837649051810833e-10 -1.4904087436827671e-05 3.1252104554278353e-05 9.3232569205465513e-11 -1.3148255783585292e-09 3.1252104554278353e-05 9.3232569205465513e-11 -1.3148255783585292e-09 3.1252243242000243e-05 1.0837649051810833e-10 -1.4904087436827671e-05 2.6311771519102693e-05 3.561043470041367e-11 -1.1625159479489885e-09 3.1252222071079948e-05 -2.7032136811031987e-11 -1.6150416096006757e-05 3.1252068598798894e-05 -3.095362746279236e-11 -1.5970235005140539e-09 3.1252104554278353e-05 9.3232569205465513e-11 -1.3148255783585292e-09 2.6311771519102693e-05 3.561043470041367e-11 -1.1625159479489885e-09 3.1252222071079948e-05 -2.7032136811031987e-11 -1.6150416096006757e-05 2.5264203988611597e-05 -1.2620366555773876e-10 -1.4003638876511122e-09 2.6676529926832637e-05 -1.6691482930296851e-10 -9.8943495286043656e-10 3.1252219264065988e-05 -8.5503689279462213e-11 -1.5872588076400825e-05 2.1494475609030086e-05 -1.2331981632250275e-10 -2.9406872732661176e-05 2.5264203988611597e-05 -1.2620366555773876e-10 -1.4003638876511122e-09 3.1252068598798888e-05 -3.0953627462792399e-11 -1.5970235005185029e-09 2.6311771519102693e-05 3.5610434700413651e-11 -1.1625159479498421e-09 3.1252222071079948e-05 -2.7032136811031987e-11 -1.6150416096006757e-05 3.1252068598798894e-05 -3.095362746279236e-11 -1.5970235005140539e-09 2.5264203988611597e-05 -1.2620366555773876e-10 -1.4003638876511122e-09 3.1252219264065988e-05 -8.5503689279462187e-11 -1.5872588076400825e-05 3.1252222071079948e-05 -2.7032136811031987e-11 -1.6150416096006757e-05 2.5264203988611597e-05 -1.2620366555773876e-10 -1.4003638876511122e-09 2.149447560903009e-05 -1.233198163225028e-10 -2.9406872732661176e-05 3.1252219264065988e-05 -8.55036892794622e-11 -1.5872588076400822e-05 2.4287130250865865e-05 -3.1191005265916242e-11 -2.0414398007019139e-05 2.6311771519102693e-05 3.561043470041367e-11 -1.1625159479489885e-09 2.1039126345678761e-05 -6.5016270602555346e-12 -1.0244444783623631e-09 2.5264203988611597e-05 -1.2620366555773876e-10 -1.4003638876511122e-09 2.4287130250865862e-05 -3.1191005265916262e-11 -2.0414398007019142e-05 2.6311771519102693e-05 3.561043470041367e-11 -1.1625159479489885e-09 2.5264203988611597e-05 -1.2620366555773876e-10 -1.4003638876511122e-09 3.1252222071079954e-05 -2.7032136811031996e-11 -1.6150416096006757e-05 2.4287130250865862e-05 -3.1191005265916262e-11 -2.0414398007019142e-05 2.5264203988611597e-05 -1.2620366555773876e-10 -1.4003638876511122e-09 3.1252219264065988e-05 -8.5503689279462174e-11 -1.5872588076400818e-05 3.1252222071079948e-05 -2.7032136811031987e-11 -1.6150416096006757e-05 2.4287130250865862e-05 -3.1191005265916262e-11 -2.0414398007019142e-05 3.1252219264065988e-05 -8.5503689279462187e-11 -1.5872588076400825e-05 3.1252239407189723e-05 -8.8495602177045937e-11 -3.0867943560086137e-05 3.1252222071079948e-05 -2.703213681103199e-11 -1.6150416096006761e-05 2.4287130250865862e-05 -3.1191005265916268e-11 -2.0414398007019145e-05 3.1252219264065988e-05 -8.5503689279462187e-11 -1.5872588076400825e-05 2.52642039886116e-05 -1.2620366555773876e-10 -1.4003638876513181e-09 3.1252068598798894e-05 -3.095362746279236e-11 -1.5970235005140539e-09 3.1252088612085861e-05 -2.2319726801171e-10 -1.3635522514389156e-09 3.1252219264065988e-05 -8.5503689279462187e-11 -1.5872588076400825e-05 2.52642039886116e-05 -1.2620366555773876e-10 -1.4003638876554288e-09 3.1252088612085861e-05 -2.2319726801171e-10 -1.3635522514389156e-09 2.6676529926832637e-05 -1.6691482930296851e-10 -9.8943495286043656e-10 3.1252088612085861e-05 -2.2319726801171e-10 -1.3635522514389156e-09 3.1252259867598467e-05 -1.886579428272416e-10 -1.3726852501186533e-05 3.1252219264065988e-05 -8.5503689279462187e-11 -1.5872588076400825e-05 2.6676529926832637e-05 -1.6691482930296851e-10 -9.8943495286043656e-10 2.595736015125956e-05 -3.033706018290491e-10 -2.8142857110224445e-05 2.6676548497512834e-05 -2.2889021711118381e-10 -1.3726809500402913e-05 2.1436545248467439e-05 -3.66300268818224e-10 -1.6171562745862365e-05 2.149447560903009e-05 -1.233198163225028e-10 -2.9406872732661176e-05 2.5264203988611597e-05 -1.2620366555773876e-10 -1.4003638876511122e-09 2.1683077274336258e-05 -2.2196738240830347e-10 -1.1986845656252545e-09 2.6676529926832637e-05 -1.6691482930296851e-10 -9.8943495286043656e-10 2.149447560903009e-05 -1.2331981632250277e-10 -2.9406872732661173e-05 3.1252236893238795e-05 -1.8906554726563594e-10 -2.9635598088038334e-05 3.1252219264065988e-05 -8.5503689279462187e-11 -1.5872588076400825e-05 3.1252259867598467e-05 -1.886579428272416e-10 -1.3726852501186533e-05 2.149447560903009e-05 -1.2331981632250277e-10 -2.9406872732661176e-05 3.1252259867598467e-05 -1.886579428272416e-10 -1.3726852501186533e-05 3.1252219264065988e-05 -8.5503689279462187e-11 -1.5872588076400825e-05 2.667652992683264e-05 -1.6691482930296853e-10 -9.8943495286232915e-10 2.1494475609030093e-05 -1.2331981632250269e-10 -2.940687273266117e-05 3.1252259867598467e-05 -1.886579428272416e-10 -1.3726852501186533e-05 2.6676548497512834e-05 -2.2889021711118387e-10 -1.3726809500402916e-05 2.5957360151259556e-05 -3.0337060182904899e-10 -2.8142857110224438e-05 2.1494475609030093e-05 -1.233198163225029e-10 -2.9406872732661187e-05 3.1252259867598467e-05 -1.886579428272416e-10 -1.3726852501186533e-05 2.6676529926832637e-05 -1.6691482930296851e-10 -9.8943495286082575e-10 2.6676548497512834e-05 -2.2889021711118381e-10 -1.3726809500402913e-05 2.1494475609030093e-05 -1.233198163225028e-10 -2.940687273266117e-05 2.1683077274336258e-05 -2.2196738240830347e-10 -1.1986845656257729e-09 2.6676548497512834e-05 -2.2889021711118381e-10 -1.3726809500402915e-05 2.6676529926832637e-05 -1.6691482930296851e-10 -9.8943495286043656e-10 2.149447560903009e-05 -1.2331981632250277e-10 -2.9406872732661176e-05 2.6676548497512834e-05 -2.2889021711118381e-10 -1.3726809500402913e-05 2.595736015125956e-05 -3.033706018290491e-10 -2.8142857110224445e-05 3.1252210569128762e-05 -3.0913841790940582e-10 -1.87508022707963e-05 3.1252259867598467e-05 -1.886579428272416e-10 -1.3726852501186533e-05 2.595736015125956e-05 -3.033706018290491e-10 -2.8142857110224445e-05 3.1252236893238795e-05 -1.8906554726563594e-10 -2.9635598088038334e-05 3.1252210569128762e-05 -3.0913841790940582e-10 -1.87508022707963e-05 3.1252259867598467e-05 -1.886579428272416e-10 -1.3726852501186533e-05 2.6676529926832637e-05 -1.6691482930296851e-10 -9.8943495286043656e-10 3.1252093418603424e-05 -3.3874952368368908e-10 -1.3015784311662082e-09 2.6676548497512834e-05 -2.2889021711118381e-10 -1.3726809500402913e-05 2.5001793399789284e-05 -3.1832273120984967e-10 -1.211872040339665e-09 2.6676548497512834e-05 -2.2889021711118381e-10 -1.3726809500402913e-05 3.1252210569128762e-05 -3.0913841790940582e-10 -1.87508022707963e-05 3.1252093418603418e-05 -3.3874952368368903e-10 -1.3015784311648701e-09 3.1252259867598467e-05 -1.886579428272416e-10 -1.3726852501186533e-05 3.1252093418603424e-05 -3.3874952368368908e-10 -1.3015784311662082e-09 3.1252259867598467e-05 -1.886579428272416e-10 -1.3726852501186533e-05 3.1252088612085854e-05 -2.2319726801170997e-10 -1.3635522514378047e-09 2.6676529926832637e-05 -1.6691482930296851e-10 -9.8943495286043656e-10 3.1252259867598467e-05 -1.886579428272416e-10 -1.3726852501186533e-05 3.1252093418603418e-05 -3.3874952368368903e-10 -1.3015784311650973e-09 2.6676548497512834e-05 -2.2889021711118381e-10 -1.3726809500402913e-05 2.6676529926832637e-05 -1.6691482930296851e-10 -9.8943495286043656e-10 2.1436545248467439e-05 -3.66300268818224e-10 -1.6171562745862365e-05 2.1683077274336258e-05 -2.2196738240830347e-10 -1.1986845656257729e-09 2.6676548497512834e-05 -2.2889021711118389e-10 -1.3726809500402911e-05 2.5001793399789284e-05 -3.1832273120984967e-10 -1.211872040339665e-09 2.6676529926832637e-05 -1.6691482930296851e-10 -9.8943495286043656e-10 2.6676548497512834e-05 -2.2889021711118381e-10 -1.3726809500402913e-05 2.1683077274336258e-05 -2.2196738240830347e-10 -1.1986845656263283e-09 2.5001793399789284e-05 -3.1832273120984967e-10 -1.211872040339665e-09 2.1436545248467439e-05 -3.66300268818224e-10 -1.6171562745862365e-05 2.1494475609030093e-05 -1.2331981632250275e-10 -2.9406872732661183e-05 2.1683077274336255e-05 -2.2196738240830347e-10 -1.198684565623566e-09 1.5638602541022392e-05 -2.175875503051577e-10 -2.1173417576539982e-05 2.1436545248467439e-05 -3.66300268818224e-10 -1.6171562745862365e-05 2.6676548497512834e-05 -2.2889021711118381e-10 -1.3726809500402913e-05 2.1683077274336258e-05 -2.2196738240830347e-10 -1.1986845656253351e-09 2.1494475609030086e-05 -1.2331981632250269e-10 -2.940687273266118e-05 2.1683077274336258e-05 -2.2196738240830347e-10 -1.1986845656257729e-09 2.1436545248467439e-05 -3.66300268818224e-10 -1.6171562745862362e-05 1.8751337410498417e-05 -2.9955773106095774e-10 -1.3680734683161673e-09 2.5001793399789284e-05 -3.1832273120984967e-10 -1.211872040339665e-09 1.5436019315395965e-05 -3.0158432047091218e-10 -1.2411355219834704e-05 1.2500879968090178e-05 -3.2551801461526902e-10 -1.6298245917991131e-09 1.5928250011631244e-05 -1.9399800381380884e-10 -1.1798388266818426e-09 1.8751337410498417e-05 -2.9955773106095774e-10 -1.3680734683161673e-09 1.5928250011631244e-05 -1.9399800381380884e-10 -1.1798388266818426e-09 2.1683077274336258e-05 -2.2196738240830347e-10 -1.1986845656257729e-09 2.1436545248467439e-05 -3.66300268818224e-10 -1.6171562745862365e-05 1.8751337410498417e-05 -2.9955773106095774e-10 -1.3680734683161673e-09 2.1436545248467439e-05 -3.66300268818224e-10 -1.6171562745862365e-05 1.5436019315395965e-05 -3.0158432047091218e-10 -1.2411355219834704e-05 1.5928250011631244e-05 -1.9399800381380884e-10 -1.1798388266818426e-09 1.8751337410498417e-05 -2.9955773106095774e-10 -1.3680734683161673e-09 1.490364847766905e-05 -3.692247159161153e-10 -2.9757888164136892e-05 2.1436545248467439e-05 -3.66300268818224e-10 -1.6171562745862365e-05 1.5436019315395965e-05 -3.0158432047091218e-10 -1.2411355219834704e-05 1.5638602541022395e-05 -2.1758755030515762e-10 -2.1173417576539985e-05 1.5436019315395965e-05 -3.0158432047091218e-10 -1.2411355219834704e-05 2.1436545248467439e-05 -3.66300268818224e-10 -1.6171562745862365e-05 1.5928250011631244e-05 -1.9399800381380884e-10 -1.1798388266818426e-09 1.5638602541022395e-05 -2.1758755030515762e-10 -2.1173417576539985e-05 1.5928250011631244e-05 -1.9399800381380884e-10 -1.1798388266818426e-09 2.1436545248467442e-05 -3.6630026881822405e-10 -1.6171562745862362e-05 2.1683077274336258e-05 -2.2196738240830347e-10 -1.1986845656257729e-09 1.5638602541022395e-05 -2.1758755030515759e-10 -2.1173417576539985e-05 1.9078517001865648e-05 -1.0786132191163183e-10 -1.1190276217524216e-09 1.5928250011631244e-05 -1.9399800381380884e-10 -1.1798388266818426e-09 2.1683077274336258e-05 -2.2196738240830347e-10 -1.1986845656257729e-09 1.5638602541022395e-05 -2.1758755030515762e-10 -2.1173417576539985e-05 1.9078517001865648e-05 -1.0786132191163183e-10 -1.1190276217524216e-09 2.1494475609030086e-05 -1.2331981632250275e-10 -2.9406872732661173e-05 2.5264203988611597e-05 -1.2620366555773876e-10 -1.4003638876511122e-09 2.4287130250865862e-05 -3.1191005265916262e-11 -2.0414398007019142e-05 1.9078517001865648e-05 -1.0786132191163183e-10 -1.1190276217524216e-09 2.1683077274336258e-05 -2.2196738240830347e-10 -1.1986845656257729e-09 2.149447560903009e-05 -1.233198163225028e-10 -2.9406872732661173e-05 1.5638602541022395e-05 -2.1758755030515762e-10 -2.1173417576539985e-05 2.5264203988611597e-05 -1.2620366555773876e-10 -1.4003638876511122e-09 1.9078517001865648e-05 -1.0786132191163183e-10 -1.1190276217534587e-09 2.1683077274336258e-05 -2.2196738240830347e-10 -1.1986845656257729e-09 2.149447560903009e-05 -1.2331981632250275e-10 -2.9406872732661173e-05 1.9078517001865648e-05 -1.0786132191163183e-10 -1.1190276217524216e-09 1.4317348651617307e-05 -1.202508340472361e-10 -1.0177386376477823e-09 1.5928250011631244e-05 -1.9399800381380884e-10 -1.1798388266811226e-09 1.5638602541022395e-05 -2.1758755030515762e-10 -2.1173417576539985e-05 1.4317348651617307e-05 -1.202508340472361e-10 -1.0177386376477823e-09 1.9078517001865648e-05 -1.0786132191163183e-10 -1.1190276217524216e-09 1.5638728231682921e-05 -2.0591817362154993e-11 -2.3403587076957346e-05 1.5638602541022395e-05 -2.1758755030515762e-10 -2.1173417576539985e-05 2.4287130250865862e-05 -3.1191005265916262e-11 -2.0414398007019142e-05 1.9078517001865648e-05 -1.0786132191163183e-10 -1.1190276217532533e-09 1.5638728231682918e-05 -2.0591817362154984e-11 -2.3403587076957346e-05 2.1039126345678761e-05 -6.5016270602555427e-12 -1.0244444783623823e-09 2.149447560903009e-05 -1.2331981632250277e-10 -2.9406872732661176e-05 1.5638728231682921e-05 -2.0591817362154993e-11 -2.3403587076957346e-05 1.9078517001865644e-05 -1.0786132191163183e-10 -1.119027621754157e-09 1.5638602541022398e-05 -2.1758755030515757e-10 -2.1173417576539982e-05 2.4287130250865862e-05 -3.1191005265916262e-11 -2.0414398007019142e-05 1.5638728231682921e-05 -2.0591817362154993e-11 -2.3403587076957346e-05 1.9078517001865648e-05 -1.0786132191163182e-10 -1.1190276217515714e-09 2.149447560903009e-05 -1.2331981632250277e-10 -2.9406872732661176e-05 1.6239173531293049e-05 2.433818035281144e-11 -1.3010110273868368e-09 1.9078517001865648e-05 -1.0786132191163183e-10 -1.1190276217522586e-09 2.1039126345678761e-05 -6.5016270602555427e-12 -1.0244444783625452e-09 1.5638728231682921e-05 -2.0591817362154993e-11 -2.3403587076957346e-05 1.4317348651617307e-05 -1.202508340472361e-10 -1.0177386376477823e-09 1.9078517001865648e-05 -1.0786132191163183e-10 -1.1190276217524216e-09 1.6239173531293049e-05 2.433818035281144e-11 -1.3010110273868368e-09 1.5638728231682921e-05 -2.0591817362154993e-11 -2.3403587076957346e-05 1.9078517001865648e-05 -1.0786132191163183e-10 -1.1190276217524216e-09 2.5264203988611597e-05 -1.2620366555773876e-10 -1.4003638876511122e-09 2.1039126345678765e-05 -6.501627060255558e-12 -1.0244444783641957e-09 2.4287130250865862e-05 -3.1191005265916262e-11 -2.0414398007019142e-05 2.149447560903009e-05 -1.2331981632250277e-10 -2.9406872732661176e-05 2.3453191645866576e-05 1.7389101880500955e-11 -4.6721960561684652e-05 1.5626099562188127e-05 -2.0294716459647326e-12 -4.687513058894996e-05 1.5649098903596842e-05 -1.616366836731944e-10 -4.9581285778248815e-05 2.3453191645866576e-05 1.7389101880500961e-11 -4.6721960561684652e-05 1.5649098903596842e-05 -1.6163668367319443e-10 -4.9581285778248815e-05 2.1494475609030086e-05 -1.2331981632250277e-10 -2.9406872732661173e-05 2.4368536624378239e-05 -1.7620306215843468e-10 -4.6888832203877095e-05 1.5626099562188127e-05 -2.0294716459647314e-12 -4.687513058894996e-05 2.3453191645866576e-05 1.7389101880500961e-11 -4.6721960561684652e-05 2.1494475609030086e-05 -1.2331981632250269e-10 -2.9406872732661173e-05 1.5638728231682918e-05 -2.0591817362154964e-11 -2.3403587076957336e-05 2.149447560903009e-05 -1.2331981632250277e-10 -2.9406872732661176e-05 1.5638728231682918e-05 -2.0591817362154997e-11 -2.3403587076957346e-05 2.3453191645866576e-05 1.7389101880500961e-11 -4.6721960561684652e-05 2.4287130250865862e-05 -3.1191005265916262e-11 -2.0414398007019142e-05 1.5649098903596842e-05 -1.6163668367319443e-10 -4.9581285778248815e-05 1.5638728231682915e-05 -2.0591817362155009e-11 -2.340358707695735e-05 2.1494475609030086e-05 -1.2331981632250277e-10 -2.9406872732661176e-05 1.5638602541022395e-05 -2.175875503051577e-10 -2.1173417576539988e-05 1.5626099562188127e-05 -2.0294716459647314e-12 -4.687513058894996e-05 2.1494475609030086e-05 -1.2331981632250277e-10 -2.9406872732661176e-05 1.5649098903596842e-05 -1.6163668367319443e-10 -4.9581285778248815e-05 1.5638728231682918e-05 -2.0591817362155003e-11 -2.3403587076957339e-05 2.595736015125956e-05 -3.033706018290491e-10 -2.8142857110224445e-05 2.149447560903009e-05 -1.2331981632250277e-10 -2.9406872732661176e-05 2.0892812652543541e-05 -3.3362511062724408e-10 -3.6124602896771639e-05 2.4368536624378239e-05 -1.762030621584347e-10 -4.6888832203877102e-05 2.1436545248467439e-05 -3.66300268818224e-10 -1.6171562745862365e-05 2.0892812652543541e-05 -3.3362511062724408e-10 -3.6124602896771639e-05 2.595736015125956e-05 -3.033706018290491e-10 -2.8142857110224445e-05 2.149447560903009e-05 -1.2331981632250277e-10 -2.9406872732661176e-05 2.0892812652543541e-05 -3.3362511062724408e-10 -3.6124602896771639e-05 1.490364847766905e-05 -3.692247159161153e-10 -2.9757888164136892e-05 1.5649098903596845e-05 -1.6163668367319448e-10 -4.9581285778248808e-05 1.5638602541022395e-05 -2.1758755030515765e-10 -2.1173417576539992e-05 2.1554547291124913e-05 -2.5665748969796612e-10 -5.0793612646817229e-05 2.0892812652543541e-05 -3.3362511062724408e-10 -3.6124602896771639e-05 1.5649098903596842e-05 -1.6163668367319445e-10 -4.9581285778248815e-05 2.4368536624378239e-05 -1.762030621584347e-10 -4.6888832203877102e-05 2.1436545248467439e-05 -3.66300268818224e-10 -1.6171562745862365e-05 2.0892812652543541e-05 -3.3362511062724408e-10 -3.6124602896771639e-05 2.149447560903009e-05 -1.2331981632250277e-10 -2.940687273266118e-05 1.5638602541022392e-05 -2.1758755030515767e-10 -2.1173417576539985e-05 2.0892812652543541e-05 -3.3362511062724408e-10 -3.6124602896771639e-05 1.5649098903596839e-05 -1.6163668367319443e-10 -4.9581285778248808e-05 2.1494475609030096e-05 -1.2331981632250275e-10 -2.9406872732661176e-05 1.5638602541022395e-05 -2.1758755030515759e-10 -2.1173417576539992e-05 2.149447560903009e-05 -1.2331981632250277e-10 -2.9406872732661176e-05 1.5649098903596842e-05 -1.6163668367319443e-10 -4.9581285778248808e-05 2.0892812652543541e-05 -3.3362511062724408e-10 -3.6124602896771639e-05 2.4368536624378239e-05 -1.762030621584347e-10 -4.6888832203877102e-05 2.1436545248467439e-05 -3.66300268818224e-10 -1.6171562745862365e-05 1.490364847766905e-05 -3.692247159161153e-10 -2.9757888164136892e-05 2.0892812652543541e-05 -3.3362511062724408e-10 -3.6124602896771639e-05 1.5638602541022398e-05 -2.1758755030515765e-10 -2.1173417576539985e-05 1.562609713993807e-05 -3.1909785980735578e-10 -4.5036263482400544e-05 2.0892812652543541e-05 -3.3362511062724408e-10 -3.6124602896771639e-05 1.490364847766905e-05 -3.692247159161153e-10 -2.9757888164136892e-05 1.5649098903596842e-05 -1.6163668367319443e-10 -4.9581285778248815e-05 1.562609713993807e-05 -3.1909785980735578e-10 -4.5036263482400544e-05 2.1554547291124913e-05 -2.5665748969796612e-10 -5.0793612646817229e-05 2.0892812652543541e-05 -3.3362511062724408e-10 -3.6124602896771639e-05 1.5649098903596842e-05 -1.6163668367319443e-10 -4.9581285778248815e-05 2.0892812652543541e-05 -3.3362511062724408e-10 -3.6124602896771639e-05 2.1554547291124909e-05 -2.5665748969796612e-10 -5.0793612646817229e-05 2.6106515282593321e-05 -3.0295770193472411e-10 -4.596574562333743e-05 2.4368536624378239e-05 -1.762030621584347e-10 -4.6888832203877102e-05 3.1252236893238795e-05 -1.8906554726563594e-10 -2.9635598088038334e-05 2.149447560903009e-05 -1.2331981632250277e-10 -2.9406872732661176e-05 2.595736015125956e-05 -3.033706018290491e-10 -2.8142857110224442e-05 2.4368536624378239e-05 -1.7620306215843468e-10 -4.6888832203877102e-05 3.1252236893238795e-05 -1.8906554726563594e-10 -2.9635598088038334e-05 3.1252259867598467e-05 -1.886579428272416e-10 -1.3726852501186533e-05 2.595736015125956e-05 -3.033706018290491e-10 -2.8142857110224445e-05 2.149447560903009e-05 -1.2331981632250277e-10 -2.9406872732661176e-05 2.6106515282593321e-05 -3.0295770193472411e-10 -4.596574562333743e-05 2.595736015125956e-05 -3.033706018290491e-10 -2.8142857110224445e-05 2.0892812652543541e-05 -3.3362511062724408e-10 -3.6124602896771639e-05 2.4368536624378235e-05 -1.7620306215843468e-10 -4.6888832203877095e-05 2.6106515282593321e-05 -3.0295770193472411e-10 -4.596574562333743e-05 3.1252236893238795e-05 -1.8906554726563592e-10 -2.9635598088038334e-05 2.595736015125956e-05 -3.033706018290491e-10 -2.8142857110224445e-05 2.4368536624378242e-05 -1.7620306215843473e-10 -4.6888832203877108e-05 2.595736015125956e-05 -3.033706018290491e-10 -2.8142857110224445e-05 2.6106515282593321e-05 -3.0295770193472401e-10 -4.5965745623337437e-05 3.1252185159412655e-05 -3.6349393373558832e-10 -3.750035562338901e-05 3.1252236893238795e-05 -1.8906554726563594e-10 -2.9635598088038334e-05 2.6106515282593321e-05 -3.0295770193472411e-10 -4.596574562333743e-05 3.1252220845967129e-05 -2.4046056707918966e-10 -4.7781468179912375e-05 3.1252177110120981e-05 -4.0356972153859655e-10 -5.6249903306573058e-05 3.1252185159412655e-05 -3.6349393373558827e-10 -3.750035562338901e-05 3.1252185159412655e-05 -3.6349393373558827e-10 -3.750035562338901e-05 2.6106515282593321e-05 -3.0295770193472411e-10 -4.596574562333743e-05 3.1252220845967143e-05 -2.4046056707918971e-10 -4.7781468179912382e-05 3.1252236893238795e-05 -1.8906554726563594e-10 -2.9635598088038334e-05 3.1252236893238795e-05 -1.8906554726563594e-10 -2.9635598088038334e-05 3.1252185159412649e-05 -3.6349393373558821e-10 -3.750035562338901e-05 2.595736015125956e-05 -3.033706018290491e-10 -2.8142857110224445e-05 3.1252210569128762e-05 -3.0913841790940582e-10 -1.87508022707963e-05 3.1252229695224949e-05 -1.2538423417008515e-10 -4.2949274724158792e-05 3.1252236893238795e-05 -1.8906554726563594e-10 -2.9635598088038334e-05 3.1252220845967136e-05 -2.4046056707918971e-10 -4.7781468179912375e-05 2.4368536624378239e-05 -1.762030621584347e-10 -4.6888832203877102e-05 2.6106515282593321e-05 -3.0295770193472411e-10 -4.596574562333743e-05 3.1252220845967136e-05 -2.4046056707918976e-10 -4.7781468179912382e-05 3.1252236893238788e-05 -1.8906554726563592e-10 -2.9635598088038334e-05 2.4368536624378235e-05 -1.7620306215843468e-10 -4.6888832203877088e-05 3.1252239407189723e-05 -8.8495602177045937e-11 -3.0867943560086137e-05 2.149447560903009e-05 -1.2331981632250277e-10 -2.940687273266118e-05 2.3453191645866576e-05 1.7389101880500916e-11 -4.6721960561684639e-05 2.4287130250865862e-05 -3.1191005265916262e-11 -2.0414398007019142e-05 3.1252239407189723e-05 -8.8495602177045937e-11 -3.0867943560086137e-05 3.1252236893238795e-05 -1.8906554726563594e-10 -2.9635598088038334e-05 3.1252229695224949e-05 -1.2538423417008515e-10 -4.2949274724158792e-05 2.149447560903009e-05 -1.2331981632250277e-10 -2.9406872732661176e-05 3.1252229695224949e-05 -1.2538423417008515e-10 -4.2949274724158792e-05 2.3453191645866576e-05 1.7389101880500961e-11 -4.6721960561684666e-05 2.1494475609030086e-05 -1.2331981632250275e-10 -2.9406872732661173e-05 2.4368536624378235e-05 -1.7620306215843468e-10 -4.6888832203877108e-05 3.1252219264065988e-05 -8.5503689279462187e-11 -1.5872588076400825e-05 3.1252236893238795e-05 -1.8906554726563594e-10 -2.963559808803833e-05 3.1252239407189723e-05 -8.8495602177045937e-11 -3.0867943560086137e-05 2.149447560903009e-05 -1.2331981632250277e-10 -2.9406872732661176e-05 3.1252229695224949e-05 -1.2538423417008515e-10 -4.2949274724158792e-05 2.149447560903009e-05 -1.2331981632250277e-10 -2.9406872732661173e-05 3.1252236893238795e-05 -1.8906554726563594e-10 -2.9635598088038334e-05 2.4368536624378246e-05 -1.7620306215843476e-10 -4.6888832203877115e-05 3.1252219264065988e-05 -8.5503689279462187e-11 -1.5872588076400825e-05 2.149447560903009e-05 -1.2331981632250277e-10 -2.9406872732661173e-05 3.1252239407189723e-05 -8.8495602177045937e-11 -3.0867943560086137e-05 2.4287130250865858e-05 -3.1191005265916223e-11 -2.0414398007019139e-05 3.1252239407189723e-05 -8.8495602177045937e-11 -3.0867943560086137e-05 2.149447560903009e-05 -1.2331981632250277e-10 -2.9406872732661176e-05 3.1252229695224949e-05 -1.2538423417008515e-10 -4.2949274724158792e-05 2.3453191645866579e-05 1.7389101880500893e-11 -4.6721960561684652e-05 3.1252240479792524e-05 4.9585537609091952e-11 -3.0419163935336969e-05 3.1252222071079948e-05 -2.7032136811031987e-11 -1.6150416096006757e-05 3.1252239407189723e-05 -8.8495602177045937e-11 -3.0867943560086137e-05 2.4287130250865862e-05 -3.1191005265916262e-11 -2.0414398007019142e-05 3.1252239407189723e-05 -8.8495602177045937e-11 -3.0867943560086137e-05 3.1252229695224949e-05 -1.2538423417008515e-10 -4.2949274724158792e-05 3.1252215137029636e-05 -5.2612185093998361e-12 -4.8713998307094461e-05 2.3453191645866579e-05 1.7389101880500964e-11 -4.6721960561684652e-05 3.1252220872271263e-05 -1.1277606596230703e-10 -5.6205220373048844e-05 2.3453191645866576e-05 1.7389101880500961e-11 -4.6721960561684652e-05 2.1483626164070211e-05 -1.252752195341505e-10 -6.4446039828841545e-05 2.4382698881275508e-05 -4.5096875020431286e-12 -7.3142443789688848e-05 3.1252220872271263e-05 -1.1277606596230703e-10 -5.6205220373048844e-05 3.125221081126034e-05 -7.1820871412051423e-11 -6.8178564156716091e-05 2.1483626164070211e-05 -1.2527521953415055e-10 -6.4446039828841559e-05 2.5501656920607313e-05 -1.6581373285640266e-10 -7.649901396823274e-05 3.1252220872271263e-05 -1.1277606596230703e-10 -5.6205220373048844e-05 3.1252208976441503e-05 1.9719249172497395e-11 -6.3112706384433343e-05 3.1252215137029636e-05 -5.2612185093998361e-12 -4.8713998307094461e-05 2.3453191645866576e-05 1.7389101880500961e-11 -4.6721960561684652e-05 3.1252220872271263e-05 -1.1277606596230703e-10 -5.6205220373048844e-05 2.3453191645866576e-05 1.7389101880500961e-11 -4.6721960561684652e-05 3.1252229695224949e-05 -1.2538423417008515e-10 -4.2949274724158792e-05 2.4368536624378235e-05 -1.7620306215843468e-10 -4.6888832203877102e-05 2.1483626164070211e-05 -1.252752195341505e-10 -6.4446039828841545e-05 2.4368536624378235e-05 -1.7620306215843468e-10 -4.6888832203877102e-05 3.1252220872271263e-05 -1.1277606596230702e-10 -5.6205220373048844e-05 2.5501656920607313e-05 -1.6581373285640263e-10 -7.649901396823274e-05 3.1252220872271263e-05 -1.1277606596230703e-10 -5.6205220373048844e-05 2.1483626164070211e-05 -1.252752195341505e-10 -6.4446039828841545e-05 2.3453191645866576e-05 1.7389101880500939e-11 -4.6721960561684652e-05 2.4368536624378235e-05 -1.7620306215843468e-10 -4.6888832203877095e-05 3.1252208976441503e-05 1.9719249172497395e-11 -6.3112706384433343e-05 2.3453191645866573e-05 1.7389101880500955e-11 -4.6721960561684652e-05 3.1252220872271263e-05 -1.1277606596230703e-10 -5.6205220373048844e-05 2.4382698881275505e-05 -4.5096875020431269e-12 -7.3142443789688848e-05 3.125221081126034e-05 -7.1820871412051423e-11 -6.8178564156716091e-05 3.1252220872271263e-05 -1.1277606596230703e-10 -5.6205220373048844e-05 2.1483626164070207e-05 -1.2527521953415055e-10 -6.4446039828841545e-05 2.4382698881275508e-05 -4.5096875020430526e-12 -7.3142443789688834e-05 3.1252220872271263e-05 -1.1277606596230703e-10 -5.6205220373048844e-05 3.1252215137029636e-05 -5.2612185093998361e-12 -4.8713998307094461e-05 3.1252229695224949e-05 -1.2538423417008515e-10 -4.2949274724158792e-05 2.3453191645866576e-05 1.7389101880500961e-11 -4.6721960561684652e-05 3.125221081126034e-05 -7.1820871412051423e-11 -6.8178564156716091e-05 3.1252208976441503e-05 1.9719249172497395e-11 -6.3112706384433343e-05 3.1252220872271263e-05 -1.1277606596230703e-10 -5.6205220373048844e-05 2.4382698881275508e-05 -4.5096875020431286e-12 -7.3142443789688848e-05 3.1252220872271263e-05 -1.1277606596230703e-10 -5.6205220373048844e-05 3.1252210645650687e-05 -2.1300456941480177e-10 -6.6155017302174416e-05 3.125221081126034e-05 -7.1820871412051423e-11 -6.8178564156716091e-05 2.5501656920607313e-05 -1.6581373285640263e-10 -7.649901396823274e-05 3.1252220872271263e-05 -1.1277606596230703e-10 -5.6205220373048844e-05 3.1252229695224949e-05 -1.2538423417008515e-10 -4.2949274724158792e-05 3.1252220845967136e-05 -2.4046056707918971e-10 -4.7781468179912375e-05 2.4368536624378239e-05 -1.762030621584347e-10 -4.6888832203877102e-05 3.1252220845967136e-05 -2.4046056707918971e-10 -4.7781468179912375e-05 2.5461156399051014e-05 -3.2728448379648246e-10 -6.4607462200484889e-05 3.1252210645650687e-05 -2.1300456941480177e-10 -6.6155017302174416e-05 2.4368536624378239e-05 -1.7620306215843468e-10 -4.6888832203877102e-05 2.546115639905101e-05 -3.2728448379648246e-10 -6.4607462200484903e-05 2.4368536624378235e-05 -1.7620306215843473e-10 -4.6888832203877095e-05 2.1483626164070214e-05 -1.2527521953415045e-10 -6.4446039828841532e-05 2.5501656920607313e-05 -1.6581373285640263e-10 -7.649901396823274e-05 2.546115639905101e-05 -3.2728448379648246e-10 -6.4607462200484903e-05 3.1252210645650687e-05 -2.1300456941480177e-10 -6.6155017302174416e-05 2.4368536624378239e-05 -1.7620306215843473e-10 -4.6888832203877102e-05 2.5501656920607313e-05 -1.6581373285640263e-10 -7.649901396823274e-05 3.1252210645650687e-05 -2.1300456941480177e-10 -6.6155017302174416e-05 3.1252220872271263e-05 -1.1277606596230703e-10 -5.6205220373048844e-05 2.4368536624378239e-05 -1.762030621584347e-10 -4.6888832203877102e-05 2.5501656920607313e-05 -1.6581373285640263e-10 -7.649901396823274e-05 3.1252220845967136e-05 -2.4046056707918971e-10 -4.7781468179912375e-05 3.1252210645650687e-05 -2.1300456941480177e-10 -6.6155017302174416e-05 3.1252220872271263e-05 -1.1277606596230703e-10 -5.6205220373048844e-05 2.4368536624378239e-05 -1.762030621584347e-10 -4.6888832203877102e-05 3.1252210645650687e-05 -2.1300456941480177e-10 -6.6155017302174416e-05 2.546115639905101e-05 -3.2728448379648246e-10 -6.4607462200484903e-05 3.1252177110120981e-05 -4.0356972153859655e-10 -5.6249903306573058e-05 3.1252179111660309e-05 -3.2958876893803725e-10 -7.4999444802590558e-05 2.546115639905101e-05 -3.2728448379648246e-10 -6.4607462200484903e-05 3.1252177110120981e-05 -4.0356972153859655e-10 -5.6249903306573058e-05 3.1252220845967136e-05 -2.4046056707918971e-10 -4.7781468179912375e-05 3.1252210645650687e-05 -2.1300456941480177e-10 -6.6155017302174416e-05 3.1252220845967136e-05 -2.4046056707918971e-10 -4.7781468179912375e-05 3.1252177110120974e-05 -4.0356972153859655e-10 -5.6249903306573058e-05 2.546115639905101e-05 -3.2728448379648246e-10 -6.4607462200484903e-05 2.6106515282593314e-05 -3.0295770193472406e-10 -4.5965745623337423e-05 2.546115639905101e-05 -3.2728448379648246e-10 -6.4607462200484903e-05 2.6106515282593321e-05 -3.0295770193472411e-10 -4.596574562333743e-05 2.1554547291124913e-05 -2.5665748969796612e-10 -5.0793612646817229e-05 2.4368536624378239e-05 -1.762030621584347e-10 -4.6888832203877102e-05 2.546115639905101e-05 -3.2728448379648246e-10 -6.4607462200484903e-05 3.1252220845967136e-05 -2.4046056707918971e-10 -4.7781468179912375e-05 2.6106515282593321e-05 -3.0295770193472411e-10 -4.596574562333743e-05 2.4368536624378239e-05 -1.762030621584347e-10 -4.6888832203877102e-05 2.1554547291124913e-05 -2.5665748969796612e-10 -5.0793612646817229e-05 1.8757618177450554e-05 -3.7000621939264244e-10 -6.3329649668564486e-05 2.1483626164070211e-05 -1.252752195341505e-10 -6.4446039828841545e-05 1.5649098903596842e-05 -1.6163668367319443e-10 -4.9581285778248822e-05 1.8757618177450554e-05 -3.7000621939264244e-10 -6.3329649668564486e-05 2.546115639905101e-05 -3.2728448379648246e-10 -6.4607462200484903e-05 2.1554547291124913e-05 -2.5665748969796612e-10 -5.0793612646817229e-05 2.1483626164070211e-05 -1.252752195341505e-10 -6.4446039828841545e-05 2.546115639905101e-05 -3.2728448379648246e-10 -6.4607462200484903e-05 2.1554547291124913e-05 -2.5665748969796612e-10 -5.0793612646817229e-05 2.1483626164070211e-05 -1.252752195341505e-10 -6.4446039828841532e-05 2.4368536624378239e-05 -1.7620306215843468e-10 -4.6888832203877108e-05 2.1703902382228957e-05 -3.0167027730742542e-10 -7.8843085040861564e-05 2.1483626164070211e-05 -1.252752195341505e-10 -6.4446039828841545e-05 1.8757618177450557e-05 -3.7000621939264244e-10 -6.3329649668564486e-05 1.5652545723006022e-05 -1.9111782026915593e-10 -7.3204032801776106e-05 2.1483626164070211e-05 -1.252752195341505e-10 -6.4446039828841545e-05 2.1554547291124913e-05 -2.5665748969796612e-10 -5.0793612646817236e-05 1.5649098903596839e-05 -1.616366836731944e-10 -4.9581285778248808e-05 2.4368536624378239e-05 -1.762030621584347e-10 -4.6888832203877102e-05 2.1483626164070211e-05 -1.252752195341505e-10 -6.4446039828841545e-05 1.5649098903596839e-05 -1.6163668367319438e-10 -4.9581285778248808e-05 1.8757618177450554e-05 -3.7000621939264244e-10 -6.3329649668564486e-05 1.5652545723006022e-05 -1.9111782026915593e-10 -7.3204032801776106e-05 1.8757618177450554e-05 -3.7000621939264244e-10 -6.3329649668564486e-05 2.546115639905101e-05 -3.2728448379648246e-10 -6.4607462200484903e-05 2.1483626164070211e-05 -1.252752195341505e-10 -6.4446039828841545e-05 2.5501656920607313e-05 -1.6581373285640263e-10 -7.649901396823274e-05 2.1554547291124913e-05 -2.5665748969796612e-10 -5.0793612646817229e-05 1.562609713993807e-05 -3.1909785980735578e-10 -4.5036263482400544e-05 1.8757618177450554e-05 -3.7000621939264244e-10 -6.3329649668564486e-05 1.5649098903596842e-05 -1.6163668367319451e-10 -4.9581285778248815e-05 1.5626099562188127e-05 -2.0294716459647314e-12 -4.687513058894996e-05 2.1483626164070211e-05 -1.252752195341505e-10 -6.4446039828841532e-05 1.5568649790868126e-05 1.4840158392952009e-11 -7.0354912853328082e-05 1.5649098903596842e-05 -1.6163668367319443e-10 -4.9581285778248815e-05 2.1483626164070211e-05 -1.252752195341505e-10 -6.4446039828841545e-05 1.5626099562188127e-05 -2.0294716459647436e-12 -4.6875130588949947e-05 2.3453191645866579e-05 1.7389101880500955e-11 -4.6721960561684645e-05 1.5649098903596839e-05 -1.6163668367319445e-10 -4.9581285778248788e-05 2.1483626164070211e-05 -1.252752195341505e-10 -6.4446039828841545e-05 2.3453191645866576e-05 1.7389101880501e-11 -4.6721960561684659e-05 1.5626099562188127e-05 -2.0294716459647314e-12 -4.687513058894996e-05 1.5568649790868133e-05 1.4840158392952003e-11 -7.0354912853328095e-05 2.3453191645866576e-05 1.7389101880500961e-11 -4.6721960561684652e-05 1.556864979086813e-05 1.4840158392951967e-11 -7.0354912853328095e-05 2.1483626164070211e-05 -1.252752195341505e-10 -6.4446039828841545e-05 2.4382698881275508e-05 -4.5096875020431286e-12 -7.3142443789688848e-05 1.556864979086813e-05 1.4840158392951993e-11 -7.0354912853328082e-05 1.5649098903596842e-05 -1.6163668367319443e-10 -4.9581285778248815e-05 2.1483626164070211e-05 -1.252752195341505e-10 -6.4446039828841545e-05 1.5652545723006022e-05 -1.9111782026915593e-10 -7.3204032801776106e-05 2.1483626164070211e-05 -1.252752195341505e-10 -6.4446039828841545e-05 1.5649098903596839e-05 -1.616366836731944e-10 -4.9581285778248808e-05 2.3453191645866576e-05 1.7389101880500958e-11 -4.6721960561684652e-05 2.4368536624378239e-05 -1.762030621584347e-10 -4.6888832203877102e-05 1.4317349587979953e-05 -1.3320366092033977e-10 -9.3749035742405088e-05 1.556864979086813e-05 1.4840158392951993e-11 -7.0354912853328082e-05 1.8736410121646064e-05 -1.1173835034026926e-10 -9.3749027171718434e-05 1.5652545723006022e-05 -1.9111782026915593e-10 -7.3204032801776106e-05 1.8736410121646064e-05 -1.1173835034026926e-10 -9.3749027171718434e-05 2.1483626164070211e-05 -1.2527521953415048e-10 -6.4446039828841532e-05 2.2727903630576301e-05 -7.0971296490394931e-11 -9.3749018973806602e-05 2.5501656920607313e-05 -1.6581373285640263e-10 -7.649901396823274e-05 1.8736410121646064e-05 -1.1173835034026926e-10 -9.3749027171718434e-05 2.1483626164070211e-05 -1.252752195341505e-10 -6.4446039828841545e-05 1.556864979086813e-05 1.4840158392951938e-11 -7.0354912853328082e-05 2.4382698881275508e-05 -4.5096875020431286e-12 -7.3142443789688848e-05 1.8736410121646064e-05 -1.1173835034026926e-10 -9.3749027171718434e-05 1.5652545723006022e-05 -1.9111782026915593e-10 -7.3204032801776106e-05 2.1483626164070211e-05 -1.2527521953415055e-10 -6.4446039828841545e-05 2.5501656920607313e-05 -1.6581373285640263e-10 -7.649901396823274e-05 1.8736410121646064e-05 -1.1173835034026926e-10 -9.3749027171718434e-05 1.5568649790868133e-05 1.4840158392951977e-11 -7.0354912853328082e-05 2.1483626164070211e-05 -1.2527521953415045e-10 -6.4446039828841545e-05 1.5652545723006022e-05 -1.9111782026915593e-10 -7.3204032801776106e-05 1.8736410121646064e-05 -1.1173835034026926e-10 -9.3749027171718434e-05 2.2727903630576301e-05 -7.0971296490394944e-11 -9.3749018973806589e-05 2.1483626164070211e-05 -1.252752195341505e-10 -6.4446039828841545e-05 2.4382698881275508e-05 -4.5096875020431286e-12 -7.3142443789688848e-05 1.8736410121646064e-05 -1.1173835034026926e-10 -9.3749027171718434e-05 1.556864979086813e-05 1.4840158392951993e-11 -7.0354912853328082e-05 2.1039125124719735e-05 1.6690245938821611e-11 -9.3749021063269333e-05 2.4382698881275508e-05 -4.5096875020431286e-12 -7.3142443789688848e-05 2.2053319394014052e-05 -1.9473785884702461e-10 -9.3749021280241363e-05 1.8736410121646064e-05 -1.1173835034026926e-10 -9.3749027171718434e-05 2.2727903630576301e-05 -7.0971296490394931e-11 -9.3749018973806589e-05 2.5501656920607313e-05 -1.6581373285640263e-10 -7.649901396823274e-05 1.8736410121646064e-05 -1.1173835034026926e-10 -9.3749027171718434e-05 2.1039125124719738e-05 1.6690245938821608e-11 -9.3749021063269333e-05 2.2727903630576301e-05 -7.0971296490394931e-11 -9.3749018973806589e-05 2.4382698881275508e-05 -4.5096875020431286e-12 -7.3142443789688848e-05 1.4317349587979953e-05 -1.3320366092033977e-10 -9.3749035742405088e-05 1.6239106135549014e-05 -4.3802920670588182e-12 -9.3749029682919086e-05 1.8736410121646064e-05 -1.1173835034026926e-10 -9.3749027171718434e-05 1.556864979086813e-05 1.4840158392951993e-11 -7.0354912853328082e-05 2.1039125124719738e-05 1.6690245938821608e-11 -9.3749021063269333e-05 1.873641012164606e-05 -1.1173835034026925e-10 -9.3749027171718434e-05 1.6239106135549017e-05 -4.380292067058815e-12 -9.3749029682919086e-05 1.556864979086813e-05 1.4840158392951993e-11 -7.0354912853328082e-05 1.8736410121646064e-05 -1.1173835034026926e-10 -9.3749027171718434e-05 1.5928231912421271e-05 -2.4356009728459008e-10 -9.374903366761782e-05 1.4317349587979953e-05 -1.3320366092033977e-10 -9.3749035742405088e-05 1.5652545723006022e-05 -1.9111782026915593e-10 -7.3204032801776106e-05 1.5928231912421271e-05 -2.4356009728459008e-10 -9.374903366761782e-05 2.2053319394014052e-05 -1.9473785884702461e-10 -9.3749021280241363e-05 2.1703902382228957e-05 -3.0167027730742542e-10 -7.884308504086155e-05 1.5652545723006019e-05 -1.9111782026915593e-10 -7.3204032801776092e-05 2.1483626164070211e-05 -1.252752195341505e-10 -6.4446039828841545e-05 1.5652545723006022e-05 -1.9111782026915593e-10 -7.3204032801776106e-05 2.1703902382228957e-05 -3.0167027730742542e-10 -7.8843085040861564e-05 2.5501656920607313e-05 -1.6581373285640263e-10 -7.649901396823274e-05 2.2053319394014052e-05 -1.9473785884702461e-10 -9.3749021280241363e-05 2.1703902382228957e-05 -3.0167027730742542e-10 -7.8843085040861577e-05 1.5652545723006022e-05 -1.9111782026915593e-10 -7.3204032801776106e-05 2.5501656920607313e-05 -1.6581373285640261e-10 -7.6499013968232726e-05 2.2053319394014052e-05 -1.9473785884702461e-10 -9.3749021280241363e-05 1.5652545723006022e-05 -1.9111782026915593e-10 -7.3204032801776106e-05 1.8736410121646064e-05 -1.1173835034026926e-10 -9.3749027171718434e-05 2.5501656920607313e-05 -1.6581373285640261e-10 -7.6499013968232726e-05 2.2053319394014052e-05 -1.9473785884702461e-10 -9.3749021280241363e-05 1.5928231912421271e-05 -2.4356009728459008e-10 -9.374903366761782e-05 1.8736410121646064e-05 -1.1173835034026926e-10 -9.3749027171718434e-05 1.5652545723006022e-05 -1.9111782026915595e-10 -7.3204032801776119e-05 1.8757618177450554e-05 -3.7000621939264244e-10 -6.3329649668564486e-05 2.1483626164070204e-05 -1.2527521953415035e-10 -6.4446039828841559e-05 2.1703902382228957e-05 -3.0167027730742542e-10 -7.8843085040861564e-05 2.5501656920607313e-05 -1.6581373285640263e-10 -7.649901396823274e-05 2.1703902382228957e-05 -3.0167027730742542e-10 -7.8843085040861564e-05 1.8757618177450554e-05 -3.7000621939264244e-10 -6.3329649668564486e-05 1.5575007397662468e-05 -3.3051334097748798e-10 -7.7599925005455899e-05 1.5652545723006022e-05 -1.9111782026915593e-10 -7.3204032801776106e-05 2.1703902382228957e-05 -3.0167027730742542e-10 -7.8843085040861564e-05 1.5575007397662468e-05 -3.3051334097748798e-10 -7.7599925005455899e-05 1.5928231912421271e-05 -2.4356009728459008e-10 -9.374903366761782e-05 1.5652545723006022e-05 -1.9111782026915593e-10 -7.3204032801776106e-05 1.8751315989902244e-05 -3.6127346473046564e-10 -9.3749053380553449e-05 1.5575007397662468e-05 -3.3051334097748798e-10 -7.7599925005455899e-05 1.5928231912421271e-05 -2.4356009728459008e-10 -9.374903366761782e-05 2.1703902382228957e-05 -3.0167027730742542e-10 -7.8843085040861564e-05 1.5928231912421271e-05 -2.4356009728459008e-10 -9.374903366761782e-05 1.2500863139569479e-05 -3.8666669627150299e-10 -9.3749070885404818e-05 1.5575007397662468e-05 -3.3051334097748803e-10 -7.7599925005455899e-05 1.8751315989902244e-05 -3.6127346473046564e-10 -9.3749053380553449e-05 1.5928231912421271e-05 -2.4356009728459008e-10 -9.374903366761782e-05 2.2053319394014052e-05 -1.9473785884702461e-10 -9.3749021280241363e-05 1.8751315989902244e-05 -3.6127346473046559e-10 -9.3749053380553436e-05 2.1703902382228957e-05 -3.0167027730742542e-10 -7.8843085040861564e-05 2.2053319394014052e-05 -1.9473785884702461e-10 -9.3749021280241363e-05 1.8751315989902244e-05 -3.6127346473046564e-10 -9.3749053380553449e-05 2.1703902382228957e-05 -3.0167027730742542e-10 -7.8843085040861564e-05 2.5001756055836579e-05 -2.9345021843097311e-10 -9.3749026653401572e-05 1.8757618177450554e-05 -3.7000621939264244e-10 -6.3329649668564486e-05 2.1703902382228957e-05 -3.0167027730742542e-10 -7.8843085040861577e-05 2.546115639905101e-05 -3.2728448379648246e-10 -6.4607462200484903e-05 2.5501656920607313e-05 -1.6581373285640263e-10 -7.649901396823274e-05 2.2053319394014052e-05 -1.9473785884702461e-10 -9.3749021280241363e-05 2.6676553859587401e-05 -2.0316636836352236e-10 -9.3749007901908796e-05 2.1703902382228957e-05 -3.0167027730742537e-10 -7.8843085040861564e-05 2.5501656920607316e-05 -1.6581373285640261e-10 -7.649901396823274e-05 2.6676553859587401e-05 -2.0316636836352236e-10 -9.3749007901908796e-05 2.2053319394014052e-05 -1.9473785884702461e-10 -9.3749021280241363e-05 2.6618645500794487e-05 -1.2176927445990667e-10 -9.3749015746952488e-05 2.5501656920607313e-05 -1.6581373285640263e-10 -7.649901396823274e-05 3.1252210645650687e-05 -2.1300456941480177e-10 -6.6155017302174416e-05 2.546115639905101e-05 -3.2728448379648246e-10 -6.4607462200484916e-05 2.6676559881565135e-05 -2.4295198505612759e-10 -8.0023389419312825e-05 2.550165692060731e-05 -1.6581373285640261e-10 -7.6499013968232726e-05 2.1703902382228957e-05 -3.0167027730742542e-10 -7.8843085040861564e-05 2.6676559881565135e-05 -2.4295198505612759e-10 -8.0023389419312825e-05 2.546115639905101e-05 -3.2728448379648246e-10 -6.4607462200484903e-05 2.5501656920607313e-05 -1.6581373285640263e-10 -7.649901396823274e-05 2.6676559881565138e-05 -2.4295198505612759e-10 -8.0023389419312825e-05 2.1703902382228957e-05 -3.0167027730742542e-10 -7.8843085040861564e-05 2.6676553859587401e-05 -2.0316636836352236e-10 -9.3749007901908796e-05 2.5501656920607313e-05 -1.6581373285640263e-10 -7.649901396823274e-05 2.5001756055836579e-05 -2.9345021843097311e-10 -9.3749026653401572e-05 2.1703902382228953e-05 -3.0167027730742542e-10 -7.884308504086155e-05 2.2053319394014052e-05 -1.9473785884702461e-10 -9.3749021280241363e-05 2.6676553859587401e-05 -2.0316636836352236e-10 -9.3749007901908796e-05 2.5001756055836579e-05 -2.9345021843097311e-10 -9.3749026653401572e-05 2.6676559881565141e-05 -2.4295198505612759e-10 -8.0023389419312825e-05 2.1703902382228957e-05 -3.0167027730742542e-10 -7.8843085040861564e-05 2.6676553859587401e-05 -2.0316636836352236e-10 -9.3749007901908796e-05 3.1252180950304767e-05 -3.3283305281757395e-10 -9.3749015989636413e-05 3.1252212670515806e-05 -2.1338335283284229e-10 -8.0023381192114647e-05 2.6676559881565135e-05 -2.4295198505612759e-10 -8.0023389419312825e-05 2.6676553859587401e-05 -2.0316636836352236e-10 -9.3749007901908796e-05 2.5001756055836579e-05 -2.9345021843097311e-10 -9.3749026653401572e-05 3.1252180950304767e-05 -3.3283305281757395e-10 -9.3749015989636427e-05 2.6676559881565138e-05 -2.4295198505612759e-10 -8.0023389419312825e-05 2.6676553859587401e-05 -2.0316636836352236e-10 -9.3749007901908796e-05 2.6676553859587401e-05 -2.0316636836352236e-10 -9.3749007901908796e-05 3.1252180950304767e-05 -3.3283305281757395e-10 -9.3749015989636413e-05 3.1252212670515806e-05 -2.1338335283284229e-10 -8.0023381192114647e-05 3.1252200226562542e-05 -1.812651171625481e-10 -9.3749009429218704e-05 2.6676559881565138e-05 -2.4295198505612759e-10 -8.0023389419312825e-05 3.1252212670515813e-05 -2.1338335283284229e-10 -8.0023381192114647e-05 3.1252180950304767e-05 -3.3283305281757395e-10 -9.3749015989636413e-05 3.1252179111660309e-05 -3.2958876893803725e-10 -7.4999444802590558e-05 2.6676559881565138e-05 -2.4295198505612759e-10 -8.0023389419312825e-05 2.546115639905101e-05 -3.2728448379648246e-10 -6.4607462200484903e-05 3.1252210645650687e-05 -2.130045694148018e-10 -6.6155017302174416e-05 3.1252179111660309e-05 -3.2958876893803725e-10 -7.4999444802590558e-05 3.1252210645650687e-05 -2.1300456941480177e-10 -6.6155017302174416e-05 3.1252212670515806e-05 -2.1338335283284226e-10 -8.0023381192114647e-05 2.6676559881565138e-05 -2.4295198505612759e-10 -8.0023389419312825e-05 3.1252179111660309e-05 -3.2958876893803725e-10 -7.4999444802590558e-05 3.1252212670515806e-05 -2.1338335283284229e-10 -8.0023381192114647e-05 3.1252202851049148e-05 -1.2248478449664903e-10 -7.9849679584367012e-05 3.1252210645650687e-05 -2.1300456941480177e-10 -6.6155017302174416e-05 2.5501656920607313e-05 -1.6581373285640263e-10 -7.649901396823274e-05 3.1252210645650687e-05 -2.1300456941480177e-10 -6.6155017302174416e-05 2.6676559881565138e-05 -2.4295198505612759e-10 -8.0023389419312825e-05 3.1252212670515806e-05 -2.1338335283284229e-10 -8.0023381192114647e-05 2.5501656920607313e-05 -1.6581373285640263e-10 -7.649901396823274e-05 2.6676553859587401e-05 -2.0316636836352236e-10 -9.3749007901908796e-05 2.6618645500794484e-05 -1.2176927445990665e-10 -9.3749015746952488e-05 3.1252200226562542e-05 -1.812651171625481e-10 -9.3749009429218704e-05 2.5501656920607313e-05 -1.6581373285640263e-10 -7.649901396823274e-05 3.1252212670515806e-05 -2.1338335283284229e-10 -8.0023381192114647e-05 2.6676553859587401e-05 -2.0316636836352234e-10 -9.3749007901908796e-05 3.1252200226562542e-05 -1.812651171625481e-10 -9.3749009429218704e-05 2.5501656920607313e-05 -1.6581373285640263e-10 -7.649901396823274e-05 3.1252212670515806e-05 -2.1338335283284229e-10 -8.0023381192114647e-05 3.1252200226562542e-05 -1.812651171625481e-10 -9.3749009429218704e-05 3.1252202851049148e-05 -1.2248478449664903e-10 -7.9849679584367012e-05 2.5501656920607313e-05 -1.6581373285640263e-10 -7.649901396823274e-05 2.6676559881565138e-05 -2.4295198505612759e-10 -8.0023389419312825e-05 2.6676553859587401e-05 -2.0316636836352236e-10 -9.3749007901908796e-05 3.1252212670515806e-05 -2.1338335283284229e-10 -8.0023381192114647e-05 2.550165692060732e-05 -1.6581373285640268e-10 -7.649901396823274e-05 3.1252200226562542e-05 -1.812651171625481e-10 -9.3749009429218704e-05 3.1252202851049148e-05 -1.2248478449664903e-10 -7.9849679584367025e-05 2.6618645500794487e-05 -1.217692744599067e-10 -9.3749015746952488e-05 3.1252194397345082e-05 -6.2070834003185061e-11 -9.3749009262590735e-05 3.1252200226562542e-05 -1.812651171625481e-10 -9.3749009429218704e-05 2.6618645500794487e-05 -1.2176927445990665e-10 -9.3749015746952502e-05 3.1252202851049148e-05 -1.2248478449664903e-10 -7.9849679584367012e-05 2.550165692060731e-05 -1.6581373285640266e-10 -7.649901396823274e-05 3.1252202851049148e-05 -1.2248478449664903e-10 -7.9849679584367012e-05 2.6618645500794487e-05 -1.2176927445990665e-10 -9.3749015746952502e-05 2.4382698881275508e-05 -4.5096875020431245e-12 -7.3142443789688848e-05 2.550165692060732e-05 -1.6581373285640263e-10 -7.6499013968232753e-05 2.1483626164070211e-05 -1.252752195341505e-10 -6.4446039828841545e-05 2.4382698881275508e-05 -4.5096875020431399e-12 -7.3142443789688848e-05 2.2727903630576301e-05 -7.097129649039497e-11 -9.3749018973806602e-05 2.5501656920607313e-05 -1.6581373285640263e-10 -7.649901396823274e-05 3.125221081126034e-05 -7.1820871412051423e-11 -6.8178564156716091e-05 3.1252202851049148e-05 -1.2248478449664903e-10 -7.9849679584367012e-05 2.4382698881275508e-05 -4.509687502043131e-12 -7.3142443789688848e-05 2.5501656920607306e-05 -1.6581373285640266e-10 -7.649901396823274e-05 2.6618645500794487e-05 -1.2176927445990667e-10 -9.3749015746952488e-05 2.2727903630576301e-05 -7.0971296490394931e-11 -9.3749018973806589e-05 2.4382698881275508e-05 -4.5096875020431286e-12 -7.3142443789688848e-05 2.550165692060731e-05 -1.6581373285640263e-10 -7.649901396823274e-05 3.125221081126034e-05 -7.1820871412051423e-11 -6.8178564156716091e-05 2.4382698881275512e-05 -4.5096875020431164e-12 -7.3142443789688848e-05 2.1483626164070214e-05 -1.2527521953415053e-10 -6.4446039828841532e-05 2.550165692060731e-05 -1.6581373285640263e-10 -7.649901396823274e-05 2.6618645500794487e-05 -1.2176927445990667e-10 -9.3749015746952488e-05 3.1252202851049148e-05 -1.2248478449664901e-10 -7.9849679584367012e-05 3.1252201145956565e-05 -7.9010738649215088e-12 -7.8929281563263606e-05 3.1252194397345082e-05 -6.2070834003185061e-11 -9.3749009262590735e-05 2.2727903630576301e-05 -7.0971296490394931e-11 -9.3749018973806589e-05 2.6618645500794484e-05 -1.2176927445990667e-10 -9.3749015746952475e-05 2.2053319394014052e-05 -1.9473785884702461e-10 -9.3749021280241363e-05 2.5501656920607313e-05 -1.6581373285640263e-10 -7.649901396823274e-05 3.1252210645650687e-05 -2.1300456941480177e-10 -6.6155017302174416e-05 3.1252202851049148e-05 -1.2248478449664903e-10 -7.9849679584367012e-05 3.125221081126034e-05 -7.1820871412051423e-11 -6.8178564156716091e-05 2.5501656920607313e-05 -1.6581373285640263e-10 -7.649901396823274e-05 2.6618645500794487e-05 -1.2176927445990667e-10 -9.3749015746952488e-05 3.1252201145956565e-05 -7.9010738649214975e-12 -7.8929281563263593e-05 3.1252202851049148e-05 -1.2248478449664903e-10 -7.9849679584367012e-05 2.4382698881275508e-05 -4.5096875020431286e-12 -7.3142443789688848e-05 3.1252202851049148e-05 -1.2248478449664903e-10 -7.9849679584367012e-05 3.1252201145956565e-05 -7.9010738649215266e-12 -7.8929281563263606e-05 3.125221081126034e-05 -7.1820871412051423e-11 -6.8178564156716091e-05 2.4382698881275508e-05 -4.5096875020431286e-12 -7.3142443789688848e-05 3.125221081126034e-05 -7.1820871412051423e-11 -6.8178564156716091e-05 3.1252201145956565e-05 -7.9010738649215137e-12 -7.8929281563263606e-05 3.1252208976441503e-05 1.9719249172497395e-11 -6.3112706384433343e-05 2.4382698881275508e-05 -4.5096875020431286e-12 -7.3142443789688848e-05 2.2727903630576301e-05 -7.0971296490394931e-11 -9.3749018973806589e-05 2.1039125124719738e-05 1.6690245938821605e-11 -9.3749021063269333e-05 2.6311817081551476e-05 -9.5705598269628332e-12 -9.3749011828580853e-05 2.4382698881275508e-05 -4.5096875020431286e-12 -7.3142443789688848e-05 2.6311817081551476e-05 -9.5705598269628348e-12 -9.3749011828580866e-05 2.6618645500794487e-05 -1.2176927445990667e-10 -9.3749015746952488e-05 2.2727903630576301e-05 -7.0971296490394931e-11 -9.3749018973806589e-05 2.4382698881275508e-05 -4.5096875020431286e-12 -7.3142443789688848e-05 2.6311817081551476e-05 -9.5705598269628348e-12 -9.3749011828580866e-05 3.1252201145956565e-05 -7.9010738649215088e-12 -7.8929281563263606e-05 2.6618645500794487e-05 -1.2176927445990667e-10 -9.3749015746952488e-05 2.4382698881275508e-05 -4.5096875020431277e-12 -7.3142443789688848e-05 3.1252194397345082e-05 -6.2070834003185061e-11 -9.3749009262590735e-05 3.1252201145956565e-05 -7.9010738649215088e-12 -7.8929281563263606e-05 2.6311817081551476e-05 -9.5705598269628348e-12 -9.3749011828580866e-05 3.125219062318479e-05 6.050077380906648e-11 -9.3749003797800534e-05 3.1252201145956565e-05 -7.9010738649215088e-12 -7.8929281563263606e-05 2.6311817081551476e-05 -9.5705598269628122e-12 -9.374901182858088e-05 2.6618645500794491e-05 -1.217692744599067e-10 -9.3749015746952488e-05 3.1252194397345082e-05 -6.2070834003185061e-11 -9.3749009262590735e-05 2.526422222672487e-05 1.0979959905118322e-10 -9.374901001948642e-05 2.4382698881275515e-05 -4.5096875020431463e-12 -7.3142443789688848e-05 2.1454377711225803e-05 1.1030797302014665e-10 -6.4358310476133229e-05 2.427770699481674e-05 1.841092679542866e-10 -7.6560136451329049e-05 2.526422222672487e-05 1.0979959905118322e-10 -9.374901001948642e-05 3.1252200260368176e-05 1.1355502738990608e-10 -7.5786801959810255e-05 2.4382698881275508e-05 -4.5096875020431286e-12 -7.3142443789688848e-05 2.427770699481674e-05 1.841092679542866e-10 -7.6560136451329049e-05 3.125219062318479e-05 6.050077380906648e-11 -9.3749003797800534e-05 3.1252201145956565e-05 -7.9010738649215088e-12 -7.8929281563263606e-05 2.6311817081551476e-05 -9.5705598269628348e-12 -9.3749011828580866e-05 3.1252200260368176e-05 1.1355502738990608e-10 -7.5786801959810268e-05 2.145437771122581e-05 1.1030797302014657e-10 -6.4358310476133202e-05 2.4382698881275508e-05 -4.5096875020431205e-12 -7.3142443789688861e-05 3.1252200260368176e-05 1.1355502738990609e-10 -7.5786801959810282e-05 2.427770699481674e-05 1.841092679542866e-10 -7.6560136451329062e-05 2.6311817081551476e-05 -9.5705598269628348e-12 -9.3749011828580866e-05 3.125219062318479e-05 6.050077380906648e-11 -9.3749003797800534e-05 3.1252200260368176e-05 1.1355502738990608e-10 -7.5786801959810268e-05 2.526422222672487e-05 1.0979959905118322e-10 -9.374901001948642e-05 3.125219062318479e-05 6.050077380906648e-11 -9.3749003797800534e-05 3.1252200260368176e-05 1.1355502738990608e-10 -7.5786801959810268e-05 2.526422222672487e-05 1.0979959905118322e-10 -9.374901001948642e-05 3.1252187783910348e-05 1.8337392197413531e-10 -9.3748994816838279e-05 2.6311817081551476e-05 -9.5705598269628348e-12 -9.3749011828580866e-05 2.1039125124719738e-05 1.6690245938821608e-11 -9.3749021063269333e-05 2.526422222672487e-05 1.0979959905118322e-10 -9.374901001948642e-05 2.4382698881275508e-05 -4.5096875020431286e-12 -7.3142443789688848e-05 2.6311817081551476e-05 -9.5705598269628348e-12 -9.3749011828580866e-05 2.526422222672487e-05 1.0979959905118322e-10 -9.374901001948642e-05 3.1252200260368176e-05 1.1355502738990608e-10 -7.5786801959810268e-05 2.4382698881275508e-05 -4.5096875020431286e-12 -7.3142443789688848e-05 3.1252200260368176e-05 1.1355502738990608e-10 -7.5786801959810268e-05 3.1252208976441503e-05 1.9719249172497389e-11 -6.3112706384433329e-05 3.1252201145956565e-05 -7.9010738649215088e-12 -7.8929281563263606e-05 2.4382698881275508e-05 -4.5096875020431286e-12 -7.3142443789688848e-05 3.1252200260368176e-05 1.1355502738990608e-10 -7.5786801959810268e-05 3.1252201145956565e-05 -7.9010738649215088e-12 -7.8929281563263606e-05 2.6311817081551476e-05 -9.57055982696283e-12 -9.3749011828580866e-05 2.4382698881275508e-05 -4.5096875020431286e-12 -7.3142443789688848e-05 3.1252210372215794e-05 1.2202797874930008e-10 -5.7202844113969944e-05 2.4382698881275505e-05 -4.5096875020431762e-12 -7.3142443789688848e-05 2.3453191645866576e-05 1.7389101880500971e-11 -4.6721960561684652e-05 3.1252208976441503e-05 1.9719249172497395e-11 -6.3112706384433343e-05 3.1252210372215794e-05 1.2202797874930008e-10 -5.7202844113969944e-05 2.3453191645866576e-05 1.7389101880500939e-11 -4.6721960561684652e-05 2.1454377711225806e-05 1.103079730201466e-10 -6.4358310476133189e-05 2.4181291256731299e-05 2.0317737395068529e-10 -4.6714877201879664e-05 3.1252210372215794e-05 1.2202797874930008e-10 -5.7202844113969944e-05 2.1454377711225813e-05 1.103079730201466e-10 -6.4358310476133202e-05 3.1252204350396466e-05 2.2635413956206102e-10 -6.5026100516261815e-05 2.4181291256731299e-05 2.0317737395068526e-10 -4.6714877201879664e-05 3.1252200260368176e-05 1.1355502738990608e-10 -7.5786801959810268e-05 3.1252210372215801e-05 1.2202797874930008e-10 -5.7202844113969944e-05 2.1454377711225806e-05 1.1030797302014663e-10 -6.4358310476133202e-05 2.427770699481674e-05 1.841092679542866e-10 -7.6560136451329049e-05 3.1252210372215794e-05 1.2202797874930008e-10 -5.7202844113969944e-05 3.1252221088296859e-05 1.1916367683177848e-10 -4.2949248837667165e-05 2.3453191645866576e-05 1.7389101880500961e-11 -4.6721960561684652e-05 2.4181291256731299e-05 2.0317737395068526e-10 -4.6714877201879657e-05 2.3453191645866576e-05 1.7389101880500961e-11 -4.6721960561684652e-05 2.4382698881275505e-05 -4.5096875020431358e-12 -7.3142443789688848e-05 3.1252210372215794e-05 1.2202797874930008e-10 -5.7202844113969944e-05 2.145437771122581e-05 1.1030797302014657e-10 -6.4358310476133202e-05 3.1252200260368176e-05 1.1355502738990608e-10 -7.5786801959810268e-05 2.145437771122581e-05 1.1030797302014657e-10 -6.4358310476133202e-05 3.1252210372215794e-05 1.2202797874930008e-10 -5.7202844113969944e-05 2.4382698881275508e-05 -4.5096875020431286e-12 -7.3142443789688848e-05 3.1252208976441503e-05 1.9719249172497395e-11 -6.3112706384433343e-05 3.1252200260368182e-05 1.1355502738990607e-10 -7.5786801959810282e-05 3.1252210372215794e-05 1.2202797874930008e-10 -5.7202844113969944e-05 2.4382698881275508e-05 -4.5096875020431269e-12 -7.3142443789688848e-05 3.1252210372215794e-05 1.2202797874930008e-10 -5.7202844113969944e-05 3.1252215137029636e-05 -5.2612185093998361e-12 -4.8713998307094461e-05 3.1252208976441503e-05 1.9719249172497392e-11 -6.3112706384433343e-05 2.3453191645866576e-05 1.7389101880500961e-11 -4.6721960561684652e-05 3.1252210372215794e-05 1.2202797874930008e-10 -5.7202844113969944e-05 3.1252221088296859e-05 1.1916367683177848e-10 -4.2949248837667165e-05 3.1252215137029636e-05 -5.2612185093998418e-12 -4.8713998307094461e-05 2.3453191645866576e-05 1.7389101880500961e-11 -4.6721960561684652e-05 3.1252210372215794e-05 1.2202797874930008e-10 -5.7202844113969944e-05 3.1252218353275394e-05 2.1243684238263464e-10 -4.7628198628645404e-05 3.1252221088296859e-05 1.1916367683177848e-10 -4.2949248837667165e-05 2.4181291256731302e-05 2.0317737395068526e-10 -4.6714877201879664e-05 3.1252204350396466e-05 2.2635413956206102e-10 -6.5026100516261815e-05 2.4181291256731302e-05 2.0317737395068526e-10 -4.6714877201879664e-05 2.1454377711225813e-05 1.1030797302014648e-10 -6.4358310476133202e-05 2.427770699481674e-05 1.841092679542866e-10 -7.6560136451329049e-05 2.145437771122581e-05 1.1030797302014657e-10 -6.4358310476133202e-05 2.4181291256731299e-05 2.0317737395068526e-10 -4.6714877201879664e-05 2.5422469842896138e-05 3.2068488701034189e-10 -6.4144359354302514e-05 2.4277706994816747e-05 1.841092679542866e-10 -7.6560136451329062e-05 3.1252204350396466e-05 2.2635413956206102e-10 -6.5026100516261815e-05 2.1454377711225806e-05 1.1030797302014669e-10 -6.4358310476133189e-05 3.1252210372215794e-05 1.2202797874930008e-10 -5.7202844113969944e-05 2.427770699481674e-05 1.841092679542866e-10 -7.6560136451329049e-05 3.1252200260368176e-05 1.1355502738990608e-10 -7.5786801959810268e-05 3.1252204350396466e-05 2.2635413956206102e-10 -6.5026100516261815e-05 3.1252210372215794e-05 1.2202797874930008e-10 -5.7202844113969944e-05 2.427770699481674e-05 1.841092679542866e-10 -7.6560136451329049e-05 3.1252204350396466e-05 2.2635413956206102e-10 -6.5026100516261815e-05 2.5422469842896134e-05 3.2068488701034194e-10 -6.4144359354302514e-05 2.4181291256731302e-05 2.0317737395068526e-10 -4.6714877201879664e-05 2.427770699481674e-05 1.841092679542866e-10 -7.6560136451329049e-05 3.1252218353275394e-05 2.1243684238263467e-10 -4.7628198628645404e-05 3.1252210372215794e-05 1.2202797874930008e-10 -5.7202844113969944e-05 3.1252204350396466e-05 2.2635413956206102e-10 -6.5026100516261815e-05 2.4181291256731302e-05 2.0317737395068526e-10 -4.6714877201879664e-05 3.1252204350396466e-05 2.2635413956206102e-10 -6.5026100516261815e-05 2.7115165415659852e-05 3.0054103370407437e-10 -4.7445244753099505e-05 3.1252218353275394e-05 2.1243684238263467e-10 -4.7628198628645404e-05 2.4181291256731302e-05 2.0317737395068526e-10 -4.6714877201879664e-05 3.1252198774775047e-05 3.2603729757179509e-10 -5.6249883414065529e-05 3.1252218353275394e-05 2.1243684238263467e-10 -4.7628198628645404e-05 3.1252204350396466e-05 2.2635413956206102e-10 -6.5026100516261815e-05 2.7115165415659852e-05 3.0054103370407432e-10 -4.7445244753099512e-05 2.7115165415659852e-05 3.0054103370407432e-10 -4.7445244753099512e-05 3.1252198774775047e-05 3.2603729757179509e-10 -5.6249883414065529e-05 3.1252218353275394e-05 2.1243684238263467e-10 -4.7628198628645404e-05 3.125222436449859e-05 2.9862054907718813e-10 -3.7500316463960611e-05 3.1252204350396466e-05 2.2635413956206102e-10 -6.5026100516261815e-05 2.5422469842896134e-05 3.2068488701034194e-10 -6.4144359354302514e-05 3.1252198774775047e-05 3.2603729757179509e-10 -5.6249883414065529e-05 2.7115165415659848e-05 3.0054103370407422e-10 -4.7445244753099499e-05 2.7115165415659852e-05 3.0054103370407432e-10 -4.7445244753099512e-05 2.5422469842896134e-05 3.2068488701034189e-10 -6.4144359354302514e-05 2.1326590380897566e-05 3.7195907561489121e-10 -4.9040770707802507e-05 2.4181291256731302e-05 2.0317737395068526e-10 -4.6714877201879664e-05 2.5422469842896134e-05 3.2068488701034194e-10 -6.4144359354302514e-05 2.7115165415659852e-05 3.0054103370407432e-10 -4.7445244753099512e-05 3.1252204350396466e-05 2.2635413956206105e-10 -6.5026100516261815e-05 2.4181291256731302e-05 2.0317737395068526e-10 -4.6714877201879664e-05 3.1252204350396466e-05 2.2635413956206102e-10 -6.5026100516261815e-05 2.5422469842896134e-05 3.2068488701034199e-10 -6.4144359354302528e-05 3.1252160718445373e-05 3.5495404323065956e-10 -7.4999431690401827e-05 3.1252198774775047e-05 3.2603729757179509e-10 -5.6249883414065529e-05 3.1252160718445373e-05 3.5495404323065956e-10 -7.4999431690401827e-05 2.6676551596654054e-05 2.3751360023822688e-10 -8.0023385663324074e-05 2.5422469842896134e-05 3.2068488701034194e-10 -6.4144359354302514e-05 3.1252204350396466e-05 2.2635413956206102e-10 -6.5026100516261815e-05 2.6676551596654058e-05 2.3751360023822688e-10 -8.0023385663324074e-05 3.1252204350396459e-05 2.2635413956206102e-10 -6.5026100516261829e-05 3.1252208478193352e-05 2.1224731895093361e-10 -8.0023367432872569e-05 2.427770699481674e-05 1.841092679542866e-10 -7.6560136451329049e-05 2.6676551596654058e-05 2.3751360023822688e-10 -8.0023385663324074e-05 3.1252160718445373e-05 3.5495404323065956e-10 -7.4999431690401827e-05 3.1252208478193345e-05 2.1224731895093361e-10 -8.0023367432872556e-05 3.1252204350396473e-05 2.2635413956206107e-10 -6.5026100516261829e-05 2.6676543867509893e-05 2.1342285189940834e-10 -9.3749000569406935e-05 3.1252171620694339e-05 3.2542211588456804e-10 -9.3749005270091722e-05 3.1252187783910348e-05 1.8337392197413531e-10 -9.3748994816838279e-05 3.1252208478193352e-05 2.1224731895093361e-10 -8.0023367432872569e-05 2.6676543867509893e-05 2.1342285189940834e-10 -9.3749000569406935e-05 2.5001741315261621e-05 3.0861362048467291e-10 -9.3749022773671214e-05 3.1252171620694339e-05 3.2542211588456804e-10 -9.3749005270091722e-05 2.6676551596654058e-05 2.3751360023822688e-10 -8.0023385663324074e-05 3.1252160718445373e-05 3.5495404323065956e-10 -7.4999431690401827e-05 3.1252208478193352e-05 2.1224731895093361e-10 -8.0023367432872569e-05 3.1252171620694339e-05 3.2542211588456804e-10 -9.3749005270091722e-05 2.6676551596654058e-05 2.3751360023822688e-10 -8.0023385663324074e-05 3.1252208478193352e-05 2.1224731895093361e-10 -8.0023367432872569e-05 2.6676543867509893e-05 2.1342285189940837e-10 -9.3749000569406948e-05 3.1252171620694339e-05 3.2542211588456804e-10 -9.3749005270091722e-05 2.6676551596654058e-05 2.3751360023822688e-10 -8.0023385663324074e-05 2.6676543867509893e-05 2.1342285189940834e-10 -9.3749000569406935e-05 3.1252187783910348e-05 1.8337392197413531e-10 -9.3748994816838279e-05 3.1252200260368182e-05 1.1355502738990608e-10 -7.5786801959810268e-05 3.1252208478193352e-05 2.1224731895093361e-10 -8.0023367432872569e-05 3.1252187783910348e-05 1.8337392197413531e-10 -9.3748994816838279e-05 3.1252200260368176e-05 1.1355502738990608e-10 -7.5786801959810268e-05 2.5264222226724866e-05 1.0979959905118322e-10 -9.3749010019486407e-05 2.6676543867509893e-05 2.1342285189940834e-10 -9.3749000569406935e-05 2.6676543867509893e-05 2.1342285189940834e-10 -9.3749000569406935e-05 3.1252208478193352e-05 2.1224731895093361e-10 -8.0023367432872569e-05 3.1252200260368169e-05 1.1355502738990608e-10 -7.5786801959810268e-05 2.427770699481674e-05 1.8410926795428658e-10 -7.6560136451329049e-05 3.1252200260368176e-05 1.1355502738990608e-10 -7.5786801959810268e-05 3.1252208478193352e-05 2.1224731895093361e-10 -8.0023367432872569e-05 3.1252204350396466e-05 2.2635413956206102e-10 -6.5026100516261815e-05 2.427770699481674e-05 1.841092679542866e-10 -7.6560136451329049e-05 2.1676980273966486e-05 2.2288618538821567e-10 -9.3749019409622035e-05 2.6676543867509893e-05 2.1342285189940834e-10 -9.3749000569406935e-05 2.526422222672487e-05 1.0979959905118322e-10 -9.374901001948642e-05 2.427770699481674e-05 1.841092679542866e-10 -7.6560136451329049e-05 2.526422222672487e-05 1.0979959905118322e-10 -9.374901001948642e-05 2.6676543867509893e-05 2.1342285189940834e-10 -9.3749000569406935e-05 3.1252200260368169e-05 1.1355502738990608e-10 -7.5786801959810268e-05 2.427770699481674e-05 1.841092679542866e-10 -7.6560136451329049e-05 2.6676543867509893e-05 2.1342285189940834e-10 -9.3749000569406935e-05 2.5001741315261625e-05 3.0861362048467291e-10 -9.3749022773671214e-05 2.6676551596654058e-05 2.3751360023822688e-10 -8.0023385663324074e-05 2.427770699481674e-05 1.841092679542866e-10 -7.6560136451329049e-05 2.1870765811468068e-05 3.0265802108377234e-10 -7.7865997051906329e-05 2.6676551596654058e-05 2.3751360023822688e-10 -8.0023385663324074e-05 2.5001741315261625e-05 3.0861362048467291e-10 -9.3749022773671214e-05 2.427770699481674e-05 1.841092679542866e-10 -7.6560136451329049e-05 2.6676543867509893e-05 2.1342285189940834e-10 -9.3749000569406935e-05 2.1676980273966486e-05 2.2288618538821567e-10 -9.3749019409622035e-05 2.5001741315261625e-05 3.0861362048467291e-10 -9.3749022773671214e-05 2.427770699481674e-05 1.841092679542866e-10 -7.6560136451329049e-05 3.1252208478193352e-05 2.1224731895093361e-10 -8.0023367432872569e-05 2.6676543867509893e-05 2.1342285189940834e-10 -9.3749000569406948e-05 2.6676551596654054e-05 2.3751360023822688e-10 -8.002338566332406e-05 2.4277706994816737e-05 1.841092679542866e-10 -7.6560136451329049e-05 2.6676551596654058e-05 2.3751360023822688e-10 -8.0023385663324074e-05 2.1870765811468065e-05 3.0265802108377234e-10 -7.7865997051906329e-05 2.5422469842896134e-05 3.2068488701034194e-10 -6.4144359354302514e-05 2.4277706994816743e-05 1.841092679542866e-10 -7.6560136451329049e-05 2.5422469842896134e-05 3.2068488701034194e-10 -6.4144359354302514e-05 3.1252204350396459e-05 2.2635413956206102e-10 -6.5026100516261815e-05 2.6676551596654058e-05 2.3751360023822688e-10 -8.0023385663324074e-05 2.427770699481674e-05 1.841092679542866e-10 -7.6560136451329049e-05 2.1676980273966486e-05 2.2288618538821567e-10 -9.3749019409622035e-05 1.5598340553998225e-05 1.7106748130809456e-10 -7.3026409235437125e-05 2.1870765811468068e-05 3.0265802108377239e-10 -7.7865997051906329e-05 2.427770699481674e-05 1.841092679542866e-10 -7.6560136451329049e-05 2.1676980273966486e-05 2.2288618538821567e-10 -9.3749019409622035e-05 1.9068984533085934e-05 1.1614984735801612e-10 -9.3749020301131178e-05 1.5598340553998229e-05 1.7106748130809458e-10 -7.3026409235437138e-05 2.427770699481674e-05 1.841092679542866e-10 -7.6560136451329049e-05 2.5422469842896134e-05 3.2068488701034194e-10 -6.4144359354302514e-05 2.1870765811468068e-05 3.0265802108377234e-10 -7.7865997051906329e-05 1.9136758251612216e-05 2.7545350711164912e-10 -6.3597268917618325e-05 2.427770699481674e-05 1.841092679542866e-10 -7.6560136451329049e-05 1.9136758251612216e-05 2.7545350711164912e-10 -6.3597268917618325e-05 2.1870765811468068e-05 3.0265802108377239e-10 -7.7865997051906329e-05 1.5598340553998229e-05 1.7106748130809458e-10 -7.3026409235437138e-05 2.427770699481674e-05 1.841092679542866e-10 -7.6560136451329049e-05 2.1676980273966486e-05 2.2288618538821567e-10 -9.3749019409622035e-05 2.1870765811468072e-05 3.0265802108377234e-10 -7.7865997051906329e-05 2.5001741315261625e-05 3.0861362048467291e-10 -9.3749022773671214e-05 2.427770699481674e-05 1.841092679542866e-10 -7.6560136451329049e-05 1.5929249374937573e-05 3.0165988174774087e-10 -7.8313447697979499e-05 1.8751304321061824e-05 3.6413585006855706e-10 -9.3749065753884013e-05 2.1676980273966489e-05 2.2288618538821562e-10 -9.3749019409622035e-05 2.1870765811468068e-05 3.0265802108377234e-10 -7.7865997051906329e-05 2.1870765811468068e-05 3.0265802108377234e-10 -7.7865997051906329e-05 1.8751304321061827e-05 3.6413585006855706e-10 -9.3749065753884013e-05 2.1676980273966486e-05 2.2288618538821567e-10 -9.3749019409622035e-05 2.5001741315261625e-05 3.0861362048467291e-10 -9.3749022773671214e-05 2.526422222672487e-05 1.0979959905118322e-10 -9.374901001948642e-05 1.9068984533085934e-05 1.1614984735801612e-10 -9.3749020301131178e-05 2.1676980273966486e-05 2.2288618538821567e-10 -9.3749019409622035e-05 2.427770699481674e-05 1.841092679542866e-10 -7.6560136451329049e-05 1.587713792836876e-05 2.3994015500717809e-10 -9.3749030017018696e-05 2.1676980273966486e-05 2.2288618538821567e-10 -9.3749019409622035e-05 1.9068984533085934e-05 1.1614984735801612e-10 -9.3749020301131178e-05 1.5598340553998229e-05 1.7106748130809458e-10 -7.3026409235437138e-05 1.587713792836876e-05 2.3994015500717809e-10 -9.3749030017018696e-05 1.5929249374937573e-05 3.0165988174774087e-10 -7.8313447697979485e-05 2.1676980273966486e-05 2.2288618538821567e-10 -9.3749019409622035e-05 1.5598340553998229e-05 1.7106748130809458e-10 -7.3026409235437138e-05 1.8751304321061824e-05 3.6413585006855706e-10 -9.3749065753884013e-05 1.587713792836876e-05 2.3994015500717809e-10 -9.3749030017018696e-05 1.2500863254983437e-05 4.0427532022473981e-10 -9.3749079780727773e-05 1.5929249374937573e-05 3.0165988174774087e-10 -7.8313447697979499e-05 2.1676980273966486e-05 2.2288618538821567e-10 -9.3749019409622035e-05 1.587713792836876e-05 2.3994015500717809e-10 -9.3749030017018696e-05 1.8751304321061824e-05 3.6413585006855706e-10 -9.3749065753884013e-05 1.5929249374937569e-05 3.0165988174774087e-10 -7.8313447697979485e-05 2.1676980273966486e-05 2.2288618538821567e-10 -9.3749019409622035e-05 1.5929249374937573e-05 3.0165988174774087e-10 -7.8313447697979499e-05 2.1870765811468068e-05 3.0265802108377234e-10 -7.7865997051906329e-05 1.5598340553998225e-05 1.7106748130809456e-10 -7.3026409235437138e-05 1.5929249374937573e-05 3.0165988174774087e-10 -7.8313447697979499e-05 1.9136758251612216e-05 2.7545350711164912e-10 -6.3597268917618325e-05 2.1870765811468068e-05 3.0265802108377234e-10 -7.7865997051906329e-05 1.5598340553998229e-05 1.7106748130809458e-10 -7.3026409235437138e-05 1.9136758251612216e-05 2.7545350711164912e-10 -6.3597268917618325e-05 1.5621095772411233e-05 1.5918410219205946e-10 -4.9656945241001601e-05 2.145437771122581e-05 1.1030797302014656e-10 -6.4358310476133202e-05 1.5598340553998229e-05 1.7106748130809458e-10 -7.3026409235437138e-05 1.9136758251612216e-05 2.7545350711164912e-10 -6.3597268917618325e-05 1.5621095772411233e-05 1.5918410219205949e-10 -4.9656945241001594e-05 2.1326590380897566e-05 3.7195907561489121e-10 -4.9040770707802507e-05 2.4181291256731302e-05 2.0317737395068526e-10 -4.6714877201879664e-05 1.9136758251612216e-05 2.7545350711164912e-10 -6.3597268917618325e-05 1.4319807545077123e-05 2.6679574881194152e-10 -6.4658829779554113e-05 1.5621095772411237e-05 1.5918410219205946e-10 -4.9656945241001607e-05 1.5598340553998229e-05 1.7106748130809458e-10 -7.3026409235437138e-05 1.4319807545077123e-05 2.6679574881194152e-10 -6.4658829779554113e-05 1.9136758251612216e-05 2.7545350711164912e-10 -6.3597268917618325e-05 1.5929249374937573e-05 3.0165988174774087e-10 -7.8313447697979499e-05 1.5598340553998229e-05 1.7106748130809458e-10 -7.3026409235437138e-05 1.9136758251612216e-05 2.7545350711164912e-10 -6.3597268917618325e-05 2.1454377711225806e-05 1.1030797302014656e-10 -6.4358310476133189e-05 1.5621095772411237e-05 1.5918410219205946e-10 -4.9656945241001601e-05 2.4181291256731302e-05 2.0317737395068526e-10 -4.6714877201879664e-05 2.5422469842896134e-05 3.2068488701034194e-10 -6.4144359354302514e-05 1.9136758251612216e-05 2.7545350711164912e-10 -6.3597268917618325e-05 2.1454377711225806e-05 1.1030797302014656e-10 -6.4358310476133189e-05 2.427770699481674e-05 1.841092679542866e-10 -7.6560136451329049e-05 1.9136758251612216e-05 2.7545350711164912e-10 -6.3597268917618325e-05 1.5598340553998229e-05 1.7106748130809458e-10 -7.3026409235437138e-05 2.145437771122581e-05 1.1030797302014654e-10 -6.4358310476133189e-05 2.427770699481674e-05 1.841092679542866e-10 -7.6560136451329049e-05 2.5422469842896134e-05 3.2068488701034194e-10 -6.4144359354302514e-05 2.145437771122581e-05 1.1030797302014658e-10 -6.4358310476133216e-05 1.9136758251612216e-05 2.7545350711164912e-10 -6.3597268917618325e-05 2.4181291256731302e-05 2.0317737395068526e-10 -4.671487720187967e-05 2.5422469842896134e-05 3.2068488701034194e-10 -6.4144359354302514e-05 1.9136758251612216e-05 2.7545350711164912e-10 -6.3597268917618325e-05 2.1326590380897566e-05 3.7195907561489111e-10 -4.9040770707802507e-05 2.4181291256731302e-05 2.0317737395068526e-10 -4.6714877201879664e-05 1.9136758251612216e-05 2.7545350711164912e-10 -6.3597268917618325e-05 1.4319807545077123e-05 2.6679574881194152e-10 -6.4658829779554113e-05 1.6239118853956809e-05 3.1638289822704469e-10 -4.6875163348755299e-05 1.5621095772411237e-05 1.5918410219205941e-10 -4.9656945241001601e-05 1.9136758251612216e-05 2.7545350711164912e-10 -6.3597268917618325e-05 1.6239118853956809e-05 3.1638289822704469e-10 -4.6875163348755299e-05 2.1326590380897566e-05 3.7195907561489121e-10 -4.9040770707802507e-05 1.562109577241124e-05 1.5918410219205946e-10 -4.9656945241001607e-05 2.145437771122581e-05 1.1030797302014657e-10 -6.4358310476133202e-05 1.5621095772411237e-05 1.5918410219205944e-10 -4.9656945241001601e-05 1.556864979086813e-05 1.4840158392951996e-11 -7.0354912853328082e-05 1.5598340553998229e-05 1.7106748130809458e-10 -7.3026409235437138e-05 2.145437771122581e-05 1.1030797302014657e-10 -6.4358310476133202e-05 1.5626099562188127e-05 -2.0294716459647625e-12 -4.6875130588949953e-05 2.3453191645866573e-05 1.7389101880500974e-11 -4.6721960561684645e-05 1.556864979086813e-05 1.4840158392951993e-11 -7.0354912853328082e-05 2.145437771122581e-05 1.1030797302014657e-10 -6.4358310476133202e-05 1.556864979086813e-05 1.4840158392951993e-11 -7.0354912853328082e-05 2.3453191645866576e-05 1.7389101880500961e-11 -4.6721960561684652e-05 2.4382698881275508e-05 -4.5096875020431286e-12 -7.3142443789688848e-05 1.5626099562188127e-05 -2.0294716459647314e-12 -4.687513058894996e-05 2.145437771122581e-05 1.103079730201466e-10 -6.4358310476133189e-05 2.3453191645866576e-05 1.7389101880500961e-11 -4.6721960561684652e-05 1.5621095772411237e-05 1.5918410219205946e-10 -4.9656945241001601e-05 2.3453191645866576e-05 1.7389101880500961e-11 -4.6721960561684652e-05 1.5621095772411237e-05 1.5918410219205944e-10 -4.9656945241001607e-05 2.145437771122581e-05 1.1030797302014657e-10 -6.4358310476133202e-05 2.4181291256731309e-05 2.0317737395068531e-10 -4.671487720187967e-05 2.145437771122581e-05 1.1030797302014657e-10 -6.4358310476133202e-05 1.5626099562188124e-05 -2.0294716459647145e-12 -4.687513058894996e-05 1.556864979086813e-05 1.4840158392951993e-11 -7.0354912853328082e-05 1.5621095772411233e-05 1.5918410219205949e-10 -4.9656945241001594e-05 2.4382698881275508e-05 -4.5096875020431286e-12 -7.3142443789688848e-05 1.9068984533085931e-05 1.1614984735801602e-10 -9.3749020301131178e-05 1.556864979086813e-05 1.4840158392951999e-11 -7.0354912853328082e-05 2.1039125124719742e-05 1.6690245938821663e-11 -9.3749021063269333e-05 2.4382698881275508e-05 -4.5096875020431286e-12 -7.3142443789688848e-05 1.556864979086813e-05 1.4840158392951999e-11 -7.0354912853328082e-05 1.9068984533085934e-05 1.1614984735801612e-10 -9.3749020301131178e-05 2.145437771122581e-05 1.1030797302014654e-10 -6.4358310476133202e-05 1.9068984533085934e-05 1.1614984735801612e-10 -9.3749020301131178e-05 2.145437771122581e-05 1.1030797302014652e-10 -6.4358310476133202e-05 2.526422222672487e-05 1.0979959905118322e-10 -9.374901001948642e-05 2.4382698881275508e-05 -4.5096875020430987e-12 -7.3142443789688848e-05 2.145437771122581e-05 1.1030797302014657e-10 -6.4358310476133202e-05 1.5598340553998229e-05 1.7106748130809458e-10 -7.3026409235437138e-05 1.9068984533085934e-05 1.1614984735801613e-10 -9.3749020301131164e-05 2.4277706994816737e-05 1.8410926795428663e-10 -7.6560136451329049e-05 2.145437771122581e-05 1.1030797302014657e-10 -6.4358310476133202e-05 1.5568649790868133e-05 1.484015839295199e-11 -7.0354912853328095e-05 1.9068984533085934e-05 1.161498473580161e-10 -9.3749020301131178e-05 1.5598340553998229e-05 1.7106748130809458e-10 -7.3026409235437138e-05 2.526422222672487e-05 1.0979959905118322e-10 -9.374901001948642e-05 2.145437771122581e-05 1.1030797302014654e-10 -6.4358310476133189e-05 1.9068984533085934e-05 1.1614984735801612e-10 -9.3749020301131178e-05 2.427770699481674e-05 1.841092679542866e-10 -7.6560136451329049e-05 2.1039125124719738e-05 1.6690245938821608e-11 -9.3749021063269333e-05 1.9068984533085934e-05 1.1614984735801612e-10 -9.3749020301131178e-05 2.526422222672487e-05 1.0979959905118322e-10 -9.374901001948642e-05 2.4382698881275508e-05 -4.5096875020431286e-12 -7.3142443789688848e-05 1.4317345487805045e-05 1.2556899190001571e-10 -9.3749030458101142e-05 1.9068984533085934e-05 1.1614984735801612e-10 -9.3749020301131178e-05 1.556864979086813e-05 1.4840158392951993e-11 -7.0354912853328082e-05 1.5598340553998229e-05 1.7106748130809458e-10 -7.3026409235437138e-05 1.587713792836876e-05 2.3994015500717809e-10 -9.3749030017018696e-05 1.9068984533085934e-05 1.1614984735801612e-10 -9.3749020301131178e-05 1.4317345487805045e-05 1.2556899190001571e-10 -9.3749030458101142e-05 1.5598340553998229e-05 1.7106748130809458e-10 -7.3026409235437138e-05 1.6239106135549017e-05 -4.380292067058815e-12 -9.3749029682919086e-05 1.4317345487805045e-05 1.2556899190001571e-10 -9.3749030458101142e-05 1.9068984533085934e-05 1.1614984735801612e-10 -9.3749020301131178e-05 1.556864979086813e-05 1.4840158392951993e-11 -7.0354912853328082e-05 2.1039125124719738e-05 1.6690245938821608e-11 -9.3749021063269333e-05 1.6239106135549017e-05 -4.3802920670588182e-12 -9.3749029682919086e-05 1.9068984533085934e-05 1.1614984735801612e-10 -9.3749020301131178e-05 1.556864979086813e-05 1.4840158392951993e-11 -7.0354912853328082e-05 9.7378438541997009e-06 1.1882345015051091e-10 -6.423884457299687e-05 6.8267083108951902e-06 -5.9350290443971615e-13 -7.2782324364575478e-05 1.0140263020212094e-05 6.6444954538239544e-11 -9.374904171827399e-05 5.7672676632018089e-06 1.6436537398771877e-10 -7.6511859275522426e-05 1.0289856915360636e-05 -6.8864566529007949e-11 -9.3749041423792388e-05 1.0140263020212094e-05 6.6444954538239544e-11 -9.374904171827399e-05 1.6239106135549017e-05 -4.380292067058815e-12 -9.3749029682919086e-05 1.556864979086813e-05 1.4840158392951993e-11 -7.0354912853328068e-05 1.4317345487805045e-05 1.2556899190001571e-10 -9.3749030458101142e-05 9.7378438541997009e-06 1.1882345015051091e-10 -6.423884457299687e-05 9.7091448155415094e-06 2.1230591921931385e-10 -9.3749039712606602e-05 1.5598340553998229e-05 1.7106748130809458e-10 -7.3026409235437138e-05 1.0289856915360636e-05 -6.8864566529007949e-11 -9.3749041423792388e-05 1.0140263020212094e-05 6.6444954538239544e-11 -9.374904171827399e-05 1.5568649790868133e-05 1.4840158392951996e-11 -7.0354912853328068e-05 6.8267083108951928e-06 -5.9350290443969211e-13 -7.2782324364575478e-05 1.4317345487805045e-05 1.2556899190001571e-10 -9.3749030458101142e-05 1.556864979086813e-05 1.484015839295198e-11 -7.0354912853328082e-05 9.7378438541997009e-06 1.1882345015051091e-10 -6.423884457299687e-05 1.5598340553998229e-05 1.7106748130809458e-10 -7.3026409235437138e-05 1.0140263020212094e-05 6.6444954538239544e-11 -9.374904171827399e-05 9.7378438541997026e-06 1.1882345015051089e-10 -6.4238844572996856e-05 1.556864979086813e-05 1.4840158392952029e-11 -7.0354912853328068e-05 6.8267083108951911e-06 -5.9350290443969151e-13 -7.2782324364575478e-05 1.4317345487805045e-05 1.2556899190001571e-10 -9.3749030458101142e-05 1.6239106135549017e-05 -4.380292067058815e-12 -9.3749029682919086e-05 1.0140263020212094e-05 6.6444954538239544e-11 -9.374904171827399e-05 1.556864979086813e-05 1.4840158392951993e-11 -7.0354912853328082e-05 9.7091448155415094e-06 2.1230591921931385e-10 -9.3749039712606602e-05 1.4317345487805045e-05 1.2556899190001571e-10 -9.3749030458101142e-05 1.0140263020212094e-05 6.6444954538239544e-11 -9.374904171827399e-05 9.7378438541997009e-06 1.1882345015051091e-10 -6.423884457299687e-05 1.4317345487805045e-05 1.2556899190001571e-10 -9.3749030458101142e-05 1.0140263020212094e-05 6.6444954538239544e-11 -9.374904171827399e-05 9.7378438541997009e-06 1.1882345015051091e-10 -6.423884457299687e-05 1.556864979086813e-05 1.4840158392951993e-11 -7.0354912853328082e-05 1.0140263020212094e-05 6.6444954538239544e-11 -9.374904171827399e-05 9.7091448155415077e-06 2.1230591921931383e-10 -9.3749039712606602e-05 9.7378438541997009e-06 1.1882345015051091e-10 -6.4238844572996856e-05 5.7672676632018098e-06 1.643653739877188e-10 -7.6511859275522426e-05 9.7378438541997009e-06 1.1882345015051091e-10 -6.423884457299687e-05 1.5626099562188127e-05 -2.0294716459647161e-12 -4.6875130588949953e-05 7.7409262571839583e-06 2.1185689559188126e-11 -4.2280069433558182e-05 1.5621095772411237e-05 1.5918410219205946e-10 -4.9656945241001594e-05 9.7378438541997009e-06 1.1882345015051091e-10 -6.423884457299687e-05 1.556864979086813e-05 1.4840158392951999e-11 -7.0354912853328082e-05 1.562609956218813e-05 -2.0294716459646995e-12 -4.6875130588949953e-05 1.5621095772411237e-05 1.5918410219205946e-10 -4.9656945241001601e-05 9.7378438541997009e-06 1.1882345015051091e-10 -6.423884457299687e-05 1.562109577241124e-05 1.5918410219205946e-10 -4.9656945241001607e-05 7.7409262571839583e-06 2.1185689559188188e-11 -4.2280069433558182e-05 7.0370317538178832e-06 1.8525722625372957e-10 -4.5175737230938569e-05 1.5626099562188127e-05 -2.0294716459647314e-12 -4.687513058894996e-05 9.7378438541997009e-06 1.1882345015051091e-10 -6.423884457299687e-05 7.7409262571839583e-06 2.1185689559188156e-11 -4.2280069433558182e-05 6.8267083108951911e-06 -5.9350290443969151e-13 -7.2782324364575478e-05 9.7378438541997009e-06 1.1882345015051091e-10 -6.423884457299687e-05 1.5626099562188127e-05 -2.0294716459647496e-12 -4.687513058894996e-05 1.556864979086813e-05 1.4840158392951993e-11 -7.0354912853328082e-05 6.8267083108951894e-06 -5.9350290443972099e-13 -7.2782324364575464e-05 1.556864979086813e-05 1.4840158392951993e-11 -7.0354912853328082e-05 1.5621095772411237e-05 1.5918410219205946e-10 -4.9656945241001601e-05 9.7378438541997009e-06 1.1882345015051091e-10 -6.423884457299687e-05 1.5598340553998229e-05 1.7106748130809458e-10 -7.3026409235437138e-05 1.0140746101447989e-05 3.6841807926405781e-10 -5.626884554352987e-05 1.4319807545077123e-05 2.6679574881194152e-10 -6.4658829779554113e-05 9.7378438541997009e-06 1.1882345015051091e-10 -6.423884457299687e-05 1.5621095772411233e-05 1.5918410219205946e-10 -4.9656945241001614e-05 1.4319807545077123e-05 2.6679574881194152e-10 -6.4658829779554113e-05 9.7147576933005293e-06 3.2600934755965832e-10 -7.6377555483320356e-05 1.0140746101447989e-05 3.6841807926405781e-10 -5.626884554352987e-05 9.7378438541997009e-06 1.1882345015051091e-10 -6.423884457299687e-05 1.4319807545077123e-05 2.6679574881194152e-10 -6.4658829779554113e-05 9.7378438541997009e-06 1.1882345015051091e-10 -6.423884457299687e-05 1.5621095772411237e-05 1.5918410219205946e-10 -4.9656945241001601e-05 1.5598340553998229e-05 1.7106748130809458e-10 -7.3026409235437138e-05 1.0140746101447989e-05 3.6841807926405781e-10 -5.626884554352987e-05 9.7378438541997009e-06 1.1882345015051091e-10 -6.423884457299687e-05 9.714757693300531e-06 3.2600934755965826e-10 -7.6377555483320343e-05 5.7672676632018098e-06 1.643653739877188e-10 -7.6511859275522426e-05 1.0140746101447989e-05 3.6841807926405781e-10 -5.626884554352987e-05 1.5621095772411233e-05 1.5918410219205946e-10 -4.9656945241001607e-05 9.7378438541997009e-06 1.1882345015051091e-10 -6.4238844572996883e-05 7.0370317538178849e-06 1.8525722625372969e-10 -4.5175737230938576e-05 1.4319807545077123e-05 2.6679574881194152e-10 -6.4658829779554113e-05 9.714757693300531e-06 3.2600934755965832e-10 -7.6377555483320356e-05 9.7378438541996976e-06 1.1882345015051086e-10 -6.4238844572996856e-05 1.5598340553998229e-05 1.7106748130809458e-10 -7.3026409235437138e-05 1.0290282781625625e-05 3.5333025582707464e-10 -3.7140403475839999e-05 1.562109577241124e-05 1.5918410219205946e-10 -4.9656945241001601e-05 1.0140746101447989e-05 3.6841807926405781e-10 -5.626884554352987e-05 7.0370317538178832e-06 1.8525722625372959e-10 -4.5175737230938576e-05 1.0140746101447989e-05 3.6841807926405781e-10 -5.626884554352987e-05 9.7378438541997026e-06 1.1882345015051091e-10 -6.4238844572996883e-05 4.9691150248565509e-06 3.0221533535768987e-10 -6.5106868334731901e-05 7.0370317538178832e-06 1.8525722625372962e-10 -4.5175737230938569e-05 1.0290282781625625e-05 3.5333025582707464e-10 -3.7140403475839999e-05 1.6239118853956809e-05 3.1638289822704469e-10 -4.6875163348755299e-05 1.0140746101447989e-05 3.6841807926405781e-10 -5.626884554352987e-05 1.5621095772411237e-05 1.5918410219205946e-10 -4.9656945241001601e-05 1.0140746101447989e-05 3.6841807926405781e-10 -5.626884554352987e-05 1.6239118853956809e-05 3.1638289822704469e-10 -4.6875163348755299e-05 1.4319807545077123e-05 2.6679574881194152e-10 -6.4658829779554113e-05 1.5621095772411237e-05 1.5918410219205951e-10 -4.9656945241001601e-05 1.4319807545077123e-05 2.6679574881194152e-10 -6.4658829779554113e-05 1.5929249374937573e-05 3.0165988174774087e-10 -7.8313447697979499e-05 9.7147576933005293e-06 3.2600934755965832e-10 -7.6377555483320356e-05 1.5598340553998229e-05 1.7106748130809458e-10 -7.3026409235437138e-05 9.7147576933005293e-06 3.2600934755965832e-10 -7.6377555483320356e-05 1.5598340553998232e-05 1.7106748130809456e-10 -7.3026409235437125e-05 9.7091448155415094e-06 2.1230591921931385e-10 -9.3749039712606602e-05 5.7672676632018098e-06 1.643653739877188e-10 -7.6511859275522426e-05 9.7147576933005293e-06 3.2600934755965832e-10 -7.6377555483320356e-05 9.7378438541996993e-06 1.1882345015051096e-10 -6.423884457299687e-05 1.5598340553998229e-05 1.7106748130809445e-10 -7.3026409235437138e-05 5.7672676632018098e-06 1.643653739877188e-10 -7.6511859275522426e-05 1.587713792836876e-05 2.3994015500717809e-10 -9.3749030017018696e-05 9.7147576933005276e-06 3.2600934755965832e-10 -7.6377555483320356e-05 1.5929249374937573e-05 3.0165988174774087e-10 -7.8313447697979499e-05 1.5598340553998229e-05 1.7106748130809458e-10 -7.3026409235437138e-05 9.7091448155415094e-06 2.1230591921931385e-10 -9.3749039712606602e-05 1.5598340553998225e-05 1.7106748130809466e-10 -7.3026409235437125e-05 9.7378438541997009e-06 1.1882345015051086e-10 -6.4238844572996883e-05 5.7672676632018098e-06 1.643653739877188e-10 -7.6511859275522426e-05 9.7147576933005293e-06 3.2600934755965832e-10 -7.6377555483320356e-05 1.2500863254983437e-05 4.0427532022473981e-10 -9.3749079780727773e-05 1.587713792836876e-05 2.3994015500717809e-10 -9.3749030017018696e-05 1.5929249374937573e-05 3.0165988174774087e-10 -7.8313447697979499e-05 9.7147576933005293e-06 3.2600934755965832e-10 -7.6377555483320356e-05 1.2500863254983437e-05 4.0427532022473981e-10 -9.3749079780727773e-05 9.7091448155415094e-06 2.1230591921931385e-10 -9.3749039712606602e-05 1.587713792836876e-05 2.3994015500717809e-10 -9.3749030017018696e-05 9.7147576933005293e-06 3.2600934755965832e-10 -7.6377555483320356e-05 1.587713792836876e-05 2.3994015500717809e-10 -9.3749030017018696e-05 9.7091448155415094e-06 2.1230591921931385e-10 -9.3749039712606602e-05 1.5598340553998229e-05 1.7106748130809453e-10 -7.3026409235437125e-05 1.4317345487805045e-05 1.2556899190001571e-10 -9.3749030458101142e-05 9.7091448155415094e-06 2.1230591921931385e-10 -9.3749039712606602e-05 1.587713792836876e-05 2.3994015500717809e-10 -9.3749030017018696e-05 1.5598340553998229e-05 1.7106748130809458e-10 -7.3026409235437138e-05 1.2500863254983437e-05 4.0427532022473981e-10 -9.3749079780727773e-05 6.2504207077507246e-06 3.2986126349363047e-10 -9.3749077621542426e-05 9.7147576933005293e-06 3.2600934755965832e-10 -7.6377555483320356e-05 9.7091448155415094e-06 2.1230591921931385e-10 -9.3749039712606602e-05 4.9691150248565509e-06 3.0221533535768987e-10 -6.5106868334731901e-05 9.7147576933005293e-06 3.2600934755965832e-10 -7.6377555483320356e-05 4.5756368458615837e-06 2.4310233278581558e-10 -8.0023428038499477e-05 5.7672676632018098e-06 1.643653739877188e-10 -7.6511859275522426e-05 9.7147576933005293e-06 3.2600934755965832e-10 -7.6377555483320356e-05 9.7091448155415094e-06 2.1230591921931385e-10 -9.3749039712606602e-05 4.5756368458615837e-06 2.4310233278581558e-10 -8.0023428038499477e-05 5.7672676632018098e-06 1.643653739877188e-10 -7.6511859275522426e-05 9.7147576933005293e-06 3.2600934755965832e-10 -7.6377555483320356e-05 6.2504207077507238e-06 3.2986126349363037e-10 -9.3749077621542426e-05 4.5756368458615837e-06 2.4310233278581558e-10 -8.0023428038499477e-05 9.7091448155415094e-06 2.1230591921931385e-10 -9.3749039712606602e-05 4.5756314082790663e-06 2.1240773331948636e-10 -9.3749039718018587e-05 4.5756368458615837e-06 2.4310233278581558e-10 -8.0023428038499477e-05 6.2504207077507246e-06 3.2986126349363047e-10 -9.3749077621542426e-05 9.7091448155415094e-06 2.1230591921931385e-10 -9.3749039712606602e-05 9.7091448155415094e-06 2.1230591921931385e-10 -9.3749039712606602e-05 4.9680978937630308e-06 1.1859687617672578e-10 -9.3749052180945613e-05 4.5756314082790663e-06 2.1240773331948636e-10 -9.3749039718018587e-05 5.7672676632018098e-06 1.643653739877188e-10 -7.6511859275522426e-05 4.5756314082790663e-06 2.1240773331948636e-10 -9.3749039718018587e-05 4.5756368458615837e-06 2.4310233278581558e-10 -8.0023428038499464e-05 9.7091448155415094e-06 2.1230591921931383e-10 -9.3749039712606589e-05 5.7672676632018098e-06 1.6436537398771877e-10 -7.6511859275522426e-05 -3.2282756542619595e-15 2.0209842553396046e-10 -8.0023429276123182e-05 5.7190857461451574e-16 1.187420073912213e-10 -7.9849726535709159e-05 -9.524763359484819e-16 1.9140067883917783e-10 -6.6133170341704038e-05 5.7672676632018098e-06 1.643653739877188e-10 -7.6511859275522426e-05 4.9691150248565509e-06 3.0221533535768987e-10 -6.5106868334731901e-05 -3.2282754387036764e-15 2.0209842553396041e-10 -8.0023429276123182e-05 -9.5247616719340225e-16 1.9140067883917778e-10 -6.6133170341704025e-05 5.7672676632018089e-06 1.6436537398771877e-10 -7.6511859275522426e-05 5.7672676632018098e-06 1.643653739877188e-10 -7.6511859275522426e-05 -7.7514934009475985e-16 1.7901914775791956e-10 -9.3749051831773316e-05 4.9680978937630282e-06 1.1859687617672583e-10 -9.3749052180945599e-05 4.5756314082790663e-06 2.1240773331948633e-10 -9.3749039718018587e-05 4.5756368458615837e-06 2.4310233278581558e-10 -8.0023428038499477e-05 4.5756314082790663e-06 2.1240773331948636e-10 -9.3749039718018601e-05 -3.2282756542619595e-15 2.0209842553396046e-10 -8.0023429276123182e-05 5.7672676632018098e-06 1.643653739877188e-10 -7.6511859275522426e-05 -3.2282756542619595e-15 2.0209842553396046e-10 -8.0023429276123182e-05 -7.7515034194922552e-16 1.7901914775791961e-10 -9.3749051831773316e-05 5.7190857461451574e-16 1.187420073912213e-10 -7.9849726535709159e-05 5.7672676632018098e-06 1.643653739877188e-10 -7.6511859275522426e-05 -3.2282756542619595e-15 2.0209842553396046e-10 -8.0023429276123182e-05 4.5756314082790663e-06 2.1240773331948636e-10 -9.3749039718018587e-05 -7.7515014438082293e-16 1.7901914775791961e-10 -9.3749051831773329e-05 5.7672676632018098e-06 1.643653739877188e-10 -7.6511859275522426e-05 8.1527919466694081e-16 3.3273826979853114e-10 -9.3749072076212118e-05 -3.228275852698341e-15 2.0209842553396049e-10 -8.0023429276123182e-05 4.5756314082790663e-06 2.1240773331948636e-10 -9.3749039718018587e-05 -7.7515037867164542e-16 1.7901914775791961e-10 -9.3749051831773316e-05 -3.2282756542619595e-15 2.0209842553396046e-10 -8.0023429276123182e-05 4.5756368458615837e-06 2.4310233278581553e-10 -8.0023428038499464e-05 8.1527919466694081e-16 3.3273826979853114e-10 -9.3749072076212118e-05 4.5756314082790663e-06 2.1240773331948636e-10 -9.3749039718018587e-05 6.2504207077507246e-06 3.2986126349363047e-10 -9.3749077621542426e-05 8.15279330200859e-16 3.3273826979853119e-10 -9.3749072076212118e-05 4.5756368458615837e-06 2.4310233278581558e-10 -8.0023428038499477e-05 4.5756314082790663e-06 2.1240773331948636e-10 -9.3749039718018587e-05 4.5756368458615837e-06 2.4310233278581558e-10 -8.0023428038499477e-05 8.1527919466694081e-16 3.3273826979853114e-10 -9.3749072076212118e-05 1.5175094789695477e-15 2.9325557109527351e-10 -7.4999494831728874e-05 -3.2282756542619595e-15 2.0209842553396046e-10 -8.0023429276123182e-05 4.5756368458615837e-06 2.4310233278581558e-10 -8.0023428038499477e-05 -3.2282756529944246e-15 2.0209842553396046e-10 -8.0023429276123182e-05 4.9691150248565509e-06 3.0221533535768987e-10 -6.5106868334731901e-05 5.7672676632018098e-06 1.643653739877188e-10 -7.6511859275522426e-05 4.9691150248565509e-06 3.0221533535768987e-10 -6.5106868334731901e-05 1.5175082836111873e-15 2.9325557109527362e-10 -7.4999494831728887e-05 -9.524763359484819e-16 1.9140067883917783e-10 -6.6133170341704038e-05 -3.2282756542619595e-15 2.0209842553396046e-10 -8.0023429276123182e-05 1.517509849257315e-15 2.9325557109527356e-10 -7.4999494831728887e-05 4.9691150248565509e-06 3.0221533535768987e-10 -6.5106868334731901e-05 4.5756368458615837e-06 2.4310233278581558e-10 -8.0023428038499477e-05 -3.2282756542619595e-15 2.0209842553396046e-10 -8.0023429276123182e-05 -9.524763359484819e-16 1.9140067883917783e-10 -6.6133170341704038e-05 4.5920842982233364e-15 3.611378096910492e-10 -5.6249936598473253e-05 1.517509849257315e-15 2.9325557109527356e-10 -7.4999494831728887e-05 4.9691150248565509e-06 3.0221533535768987e-10 -6.5106868334731901e-05 9.7378438541997009e-06 1.1882345015051091e-10 -6.423884457299687e-05 7.0370317538178849e-06 1.8525722625372962e-10 -4.5175737230938583e-05 -9.5247750632683377e-16 1.9140067883917778e-10 -6.6133170341704038e-05 5.7672676632018106e-06 1.643653739877188e-10 -7.6511859275522426e-05 -9.524763359484819e-16 1.9140067883917783e-10 -6.6133170341704038e-05 -4.1922458935595575e-15 2.3802862311545734e-10 -4.7628268128559549e-05 4.5920842982233364e-15 3.611378096910492e-10 -5.6249936598473253e-05 4.9691150248565509e-06 3.0221533535768987e-10 -6.5106868334731901e-05 4.9691150248565509e-06 3.0221533535768987e-10 -6.5106868334731901e-05 9.7378438541997009e-06 1.1882345015051099e-10 -6.4238844572996856e-05 1.0140746101447989e-05 3.6841807926405781e-10 -5.626884554352987e-05 5.7672676632018098e-06 1.643653739877188e-10 -7.6511859275522426e-05 4.9691150248565509e-06 3.0221533535768987e-10 -6.5106868334731901e-05 7.0370317538178891e-06 1.8525722625372959e-10 -4.5175737230938576e-05 9.7378438541996959e-06 1.1882345015051091e-10 -6.4238844572996883e-05 5.7672676632018098e-06 1.643653739877188e-10 -7.6511859275522426e-05 4.9691150248565509e-06 3.0221533535768987e-10 -6.5106868334731901e-05 -9.5247492992788862e-16 1.9140067883917778e-10 -6.6133170341704038e-05 7.037031753817884e-06 1.8525722625372959e-10 -4.5175737230938576e-05 5.7672676632018089e-06 1.6436537398771877e-10 -7.6511859275522426e-05 4.9691150248565509e-06 3.0221533535768987e-10 -6.5106868334731901e-05 1.0140746101447989e-05 3.6841807926405781e-10 -5.6268845543529864e-05 9.7147576933005293e-06 3.2600934755965832e-10 -7.6377555483320356e-05 5.7672676632018098e-06 1.643653739877188e-10 -7.6511859275522426e-05 1.0140746101447989e-05 3.6841807926405781e-10 -5.626884554352987e-05 4.9691150248565509e-06 3.0221533535768987e-10 -6.5106868334731901e-05 5.3835439316682891e-06 3.3029219234107032e-10 -4.6721927826772967e-05 7.037031753817884e-06 1.8525722625372959e-10 -4.5175737230938576e-05 -4.1922466266791607e-15 2.3802862311545734e-10 -4.7628268128559549e-05 5.3835439316682899e-06 3.3029219234107032e-10 -4.6721927826772967e-05 4.9691150248565509e-06 3.0221533535768987e-10 -6.5106868334731901e-05 7.037031753817884e-06 1.8525722625372959e-10 -4.5175737230938576e-05 4.5920842982233364e-15 3.611378096910492e-10 -5.6249936598473253e-05 5.9974370425096817e-15 3.8700890660668039e-10 -3.7500389193611431e-05 5.3835439316682891e-06 3.3029219234107032e-10 -4.6721927826772967e-05 -4.1922466266791607e-15 2.3802862311545734e-10 -4.7628268128559549e-05 -4.1922466266791607e-15 2.3802862311545734e-10 -4.7628268128559549e-05 5.3835439316682908e-06 3.3029219234107032e-10 -4.6721927826772967e-05 4.5920842982233364e-15 3.611378096910492e-10 -5.6249936598473253e-05 4.9691150248565509e-06 3.0221533535768987e-10 -6.5106868334731901e-05 -4.1922466266791607e-15 2.3802862311545734e-10 -4.7628268128559549e-05 4.9691150248565509e-06 3.0221533535768987e-10 -6.5106868334731901e-05 -9.524763359484819e-16 1.9140067883917783e-10 -6.6133170341704038e-05 7.037031753817884e-06 1.8525722625372959e-10 -4.5175737230938576e-05 5.7161794640993769e-16 1.0661226777867115e-10 -5.6197674480123673e-05 -4.1922466266791607e-15 2.3802862311545734e-10 -4.7628268128559549e-05 -9.524763359484819e-16 1.9140067883917783e-10 -6.6133170341704038e-05 7.037031753817884e-06 1.8525722625372959e-10 -4.5175737230938576e-05 5.7161794640993769e-16 1.0661226777867115e-10 -5.6197674480123673e-05 -9.5247619712432762e-16 1.9140067883917783e-10 -6.6133170341704038e-05 9.7378438541997009e-06 1.1882345015051089e-10 -6.4238844572996856e-05 7.037031753817884e-06 1.8525722625372959e-10 -4.5175737230938576e-05 5.7161794640993769e-16 1.0661226777867115e-10 -5.6197674480123673e-05 9.7378438541996976e-06 1.1882345015051076e-10 -6.4238844572996883e-05 -9.5247609836819838e-16 1.9140067883917786e-10 -6.6133170341704025e-05 5.7672676632018098e-06 1.6436537398771872e-10 -7.651185927552244e-05 5.7161794640993769e-16 1.0661226777867115e-10 -5.6197674480123673e-05 -9.524763359484819e-16 1.9140067883917783e-10 -6.6133170341704038e-05 -3.7692367872975058e-16 6.7004299885769293e-11 -6.8177080296591338e-05 5.7672676632018123e-06 1.643653739877188e-10 -7.6511859275522426e-05 5.7161794640993769e-16 1.0661226777867115e-10 -5.6197674480123673e-05 7.7409262571839583e-06 2.118568955918812e-11 -4.2280069433558175e-05 9.7378438541997009e-06 1.1882345015051091e-10 -6.423884457299687e-05 6.8267083108951911e-06 -5.9350290443971584e-13 -7.2782324364575478e-05 5.7161794640993769e-16 1.0661226777867115e-10 -5.6197674480123673e-05 -3.7692367872975058e-16 6.7004299885769293e-11 -6.8177080296591338e-05 9.7378438541996993e-06 1.1882345015051096e-10 -6.423884457299687e-05 5.7672676632018115e-06 1.643653739877188e-10 -7.6511859275522426e-05 5.7161794640993769e-16 1.0661226777867115e-10 -5.6197674480123673e-05 -2.939169706131378e-16 -1.8864849410613976e-11 -6.311276076071945e-05 -1.7712088449039156e-15 3.197584877006019e-12 -4.8714057956842933e-05 6.8267083108951928e-06 -5.9350290443968575e-13 -7.2782324364575478e-05 -3.7692367872975058e-16 6.7004299885769293e-11 -6.8177080296591338e-05 5.7161794640993769e-16 1.0661226777867115e-10 -5.6197674480123673e-05 9.7378438541997009e-06 1.1882345015051091e-10 -6.423884457299687e-05 6.8267083108951911e-06 -5.9350290443969151e-13 -7.2782324364575478e-05 5.7161794640993769e-16 1.0661226777867115e-10 -5.6197674480123673e-05 9.7378438541997009e-06 1.1882345015051091e-10 -6.423884457299687e-05 7.7409262571839583e-06 2.1185689559188107e-11 -4.2280069433558175e-05 7.037031753817884e-06 1.8525722625372959e-10 -4.5175737230938576e-05 5.7161794640993769e-16 1.0661226777867115e-10 -5.6197674480123673e-05 -1.7712084665576129e-15 3.1975848770060166e-12 -4.8714057956842933e-05 7.7409262571839583e-06 2.1185689559188156e-11 -4.2280069433558182e-05 6.8267083108951928e-06 -5.9350290443974361e-13 -7.2782324364575478e-05 7.3612934880622992e-16 1.2072073698832647e-10 -4.2810770461380593e-05 -4.1922466280279306e-15 2.3802862311545734e-10 -4.7628268128559549e-05 5.7161794640993769e-16 1.0661226777867115e-10 -5.6197674480123673e-05 7.037031753817884e-06 1.8525722625372959e-10 -4.5175737230938576e-05 5.7161794640993769e-16 1.0661226777867115e-10 -5.6197674480123673e-05 -1.7712084665576129e-15 3.1975848770060166e-12 -4.8714057956842933e-05 7.3612934880622992e-16 1.2072073698832647e-10 -4.2810770461380593e-05 7.7409262571839583e-06 2.1185689559188156e-11 -4.2280069433558182e-05 -3.7692367872975058e-16 6.7004299885769293e-11 -6.8177080296591338e-05 -2.939169706131378e-16 -1.8864849410613976e-11 -6.311276076071945e-05 5.7161819459743584e-16 1.0661226777867115e-10 -5.6197674480123666e-05 6.8267083108951911e-06 -5.9350290443969151e-13 -7.2782324364575478e-05 -3.4421833692643901e-16 6.2493591614385793e-12 -7.8929332223241528e-05 5.7190857461451574e-16 1.187420073912213e-10 -7.9849726535709159e-05 4.9680978937630308e-06 1.1859687617672578e-10 -9.3749052180945613e-05 6.8267083108951919e-06 -5.9350290443967091e-13 -7.2782324364575464e-05 -3.7692367872975058e-16 6.7004299885769293e-11 -6.8177080296591338e-05 6.8267083108951911e-06 -5.9350290443969959e-13 -7.2782324364575478e-05 9.7378438541997009e-06 1.1882345015051091e-10 -6.423884457299687e-05 5.7672676632018106e-06 1.6436537398771883e-10 -7.6511859275522426e-05 4.9680978937630308e-06 1.1859687617672578e-10 -9.3749052180945613e-05 6.8267083108951911e-06 -5.9350290443968797e-13 -7.2782324364575464e-05 5.7190722866388939e-16 1.1874200739122127e-10 -7.9849726535709159e-05 5.7672676632018098e-06 1.6436537398771877e-10 -7.6511859275522426e-05 -3.4421833692643901e-16 6.2493591614385793e-12 -7.8929332223241528e-05 -2.939169706131378e-16 -1.8864849410613976e-11 -6.311276076071945e-05 -3.7692367872975058e-16 6.7004299885769293e-11 -6.8177080296591338e-05 6.8267083108951928e-06 -5.9350290443969252e-13 -7.2782324364575464e-05 -3.4421833692643901e-16 6.2493591614385793e-12 -7.8929332223241528e-05 -3.7692367872975058e-16 6.7004299885769293e-11 -6.8177080296591338e-05 5.7190857461451574e-16 1.187420073912213e-10 -7.9849726535709159e-05 6.8267083108951928e-06 -5.9350290443969151e-13 -7.2782324364575491e-05 4.9680978937630308e-06 1.1859687617672578e-10 -9.3749052180945613e-05 1.0140263020212094e-05 6.6444954538239531e-11 -9.374904171827399e-05 6.8267083108951911e-06 -5.9350290443968585e-13 -7.2782324364575478e-05 5.7672676632018089e-06 1.643653739877188e-10 -7.6511859275522426e-05 -3.7692367872975058e-16 6.7004299885769293e-11 -6.8177080296591338e-05 5.7190854633362717e-16 1.187420073912213e-10 -7.9849726535709159e-05 6.8267083108951902e-06 -5.935029044396906e-13 -7.2782324364575478e-05 5.7672676632018115e-06 1.6436537398771885e-10 -7.6511859275522426e-05 -9.524763359484819e-16 1.9140067883917783e-10 -6.6133170341704038e-05 5.7190857461451574e-16 1.187420073912213e-10 -7.9849726535709159e-05 -3.7692382561943012e-16 6.7004299885769293e-11 -6.8177080296591338e-05 5.7672676632018098e-06 1.643653739877188e-10 -7.6511859275522426e-05 4.9680978937630308e-06 1.1859687617672578e-10 -9.3749052180945613e-05 1.0140263020212094e-05 6.6444954538239544e-11 -9.374904171827399e-05 5.3835420971286253e-06 3.4297365746876818e-13 -9.3749050059971711e-05 6.8267083108951911e-06 -5.9350290443969151e-13 -7.2782324364575478e-05 4.9680978937630308e-06 1.1859687617672578e-10 -9.3749052180945613e-05 5.3835420971286261e-06 3.4297365746878282e-13 -9.3749050059971725e-05 -3.4421833692643901e-16 6.2493591614385793e-12 -7.8929332223241528e-05 6.8267083108951911e-06 -5.9350290443969151e-13 -7.2782324364575478e-05 1.0140263020212094e-05 6.6444954538239544e-11 -9.374904171827399e-05 4.9680978937630308e-06 1.1859687617672578e-10 -9.3749052180945613e-05 9.7091448155415111e-06 2.1230591921931385e-10 -9.3749039712606602e-05 5.7672676632018098e-06 1.643653739877188e-10 -7.6511859275522426e-05 5.7672676632018098e-06 1.643653739877188e-10 -7.6511859275522426e-05 4.9680978937630299e-06 1.1859687617672583e-10 -9.3749052180945613e-05 -7.7514934532796518e-16 1.7901914775791959e-10 -9.3749051831773316e-05 5.7190857461451574e-16 1.187420073912213e-10 -7.9849726535709159e-05 5.7190857461451574e-16 1.187420073912213e-10 -7.9849726535709159e-05 -3.4421834758382678e-16 6.2493591614385793e-12 -7.8929332223241528e-05 4.9680978937630308e-06 1.1859687617672578e-10 -9.3749052180945613e-05 -8.8181045648336314e-16 6.0832554140860793e-11 -9.3749055645388511e-05 4.9680978937630308e-06 1.1859687617672578e-10 -9.3749052180945613e-05 -7.7515037867164542e-16 1.7901914775791961e-10 -9.3749051831773316e-05 5.7190816608348891e-16 1.187420073912213e-10 -7.9849726535709159e-05 -8.8181045648336314e-16 6.0832554140860793e-11 -9.3749055645388511e-05 -8.8181045648336314e-16 6.0832554140860793e-11 -9.3749055645388511e-05 -3.4421833692643901e-16 6.2493591614385793e-12 -7.8929332223241528e-05 4.9680978937630308e-06 1.1859687617672578e-10 -9.3749052180945613e-05 5.3835420971286261e-06 3.4297365746878282e-13 -9.3749050059971725e-05 -3.4421833692643901e-16 6.2493591614385793e-12 -7.8929332223241528e-05 -8.8181045648336314e-16 6.0832554140860793e-11 -9.3749055645388511e-05 -1.4401994237665851e-15 -5.9832468405348943e-11 -9.374905439945239e-05 5.3835420971286261e-06 3.4297365746878282e-13 -9.3749050059971725e-05 5.3835420971286261e-06 3.4297365746878282e-13 -9.3749050059971725e-05 -1.4401991090477632e-15 -5.9832468405348943e-11 -9.3749054399452377e-05 -3.4421741296733759e-16 6.249359161438543e-12 -7.8929332223241528e-05 9.2432750486103784e-16 -1.1250876172447382e-10 -7.5786858139120306e-05 -1.4401991090477632e-15 -5.9832468405348943e-11 -9.3749054399452377e-05 5.3835420971286261e-06 3.4297365746878282e-13 -9.3749050059971725e-05 5.290903521992416e-06 -1.1804056302899633e-10 -9.3749045109301073e-05 9.2432929794075542e-16 -1.1250876172447383e-10 -7.5786858139120306e-05 -6.1062640099424495e-15 -2.0872960318395832e-10 -8.0023426556311854e-05 9.2432929794075542e-16 -1.1250876172447383e-10 -7.5786858139120306e-05 5.290903521992416e-06 -1.1804056302899631e-10 -9.374904510930106e-05 9.8215531601776275e-06 -1.1937239391388445e-10 -6.446331007385938e-05 5.290903521992416e-06 -1.1804056302899633e-10 -9.3749045109301073e-05 9.8215531601776241e-06 -1.1937239391388437e-10 -6.446331007385938e-05 9.2432955061100044e-16 -1.1250876172447383e-10 -7.5786858139120319e-05 6.8267083108951902e-06 -5.9350290443968807e-13 -7.2782324364575478e-05 -3.4421833692643901e-16 6.2493591614385793e-12 -7.8929332223241528e-05 9.2432939562852639e-16 -1.1250876172447383e-10 -7.5786858139120306e-05 -2.939169706131378e-16 -1.8864849410613976e-11 -6.311276076071945e-05 6.8267083108951928e-06 -5.9350290443969191e-13 -7.2782324364575464e-05 -3.4421833692643901e-16 6.2493591614385793e-12 -7.8929332223241528e-05 5.3835420971286253e-06 3.4297365746878484e-13 -9.3749050059971725e-05 9.2432941301163534e-16 -1.1250876172447383e-10 -7.5786858139120306e-05 6.8267083108951919e-06 -5.9350290443968908e-13 -7.2782324364575478e-05 9.2432929794075542e-16 -1.1250876172447383e-10 -7.5786858139120306e-05 5.290903521992416e-06 -1.1804056302899633e-10 -9.3749045109301073e-05 -1.4401991090477632e-15 -5.9832468405348943e-11 -9.3749054399452377e-05 5.3222099386146406e-18 -1.802632564390167e-10 -9.3749049777454307e-05 5.3835420971286261e-06 3.4297365746878282e-13 -9.3749050059971725e-05 1.0289856915360636e-05 -6.8864566529007949e-11 -9.3749041423792388e-05 5.290903521992416e-06 -1.1804056302899633e-10 -9.3749045109301073e-05 6.8267083108951911e-06 -5.9350290443969151e-13 -7.2782324364575478e-05 5.3835420971286261e-06 3.4297365746878282e-13 -9.3749050059971725e-05 5.290903521992416e-06 -1.1804056302899633e-10 -9.3749045109301073e-05 9.2433053760712837e-16 -1.1250876172447383e-10 -7.5786858139120306e-05 6.8267083108951902e-06 -5.9350290443969191e-13 -7.2782324364575464e-05 9.8790446764475642e-06 -2.0938678413440405e-10 -9.3749038205019023e-05 5.290903521992416e-06 -1.1804056302899633e-10 -9.3749045109301073e-05 1.0289856915360636e-05 -6.8864566529007949e-11 -9.3749041423792388e-05 9.8215531601776224e-06 -1.1937239391388437e-10 -6.446331007385938e-05 1.0140263020212094e-05 6.6444954538239544e-11 -9.374904171827399e-05 1.0289856915360636e-05 -6.8864566529007949e-11 -9.3749041423792388e-05 5.3835420971286261e-06 3.4297365746878282e-13 -9.3749050059971725e-05 6.8267083108951911e-06 -5.9350290443969151e-13 -7.2782324364575478e-05 1.4317349587979953e-05 -1.3320366092033977e-10 -9.3749035742405088e-05 9.8215531601776207e-06 -1.1937239391388437e-10 -6.446331007385938e-05 1.556864979086813e-05 1.4840158392951993e-11 -7.0354912853328082e-05 1.5652545723006025e-05 -1.9111782026915595e-10 -7.3204032801776119e-05 1.0289856915360636e-05 -6.8864566529007949e-11 -9.3749041423792388e-05 1.5568649790868133e-05 1.4840158392952003e-11 -7.0354912853328095e-05 9.8215531601776224e-06 -1.1937239391388439e-10 -6.446331007385938e-05 6.8267083108951919e-06 -5.9350290443972261e-13 -7.2782324364575478e-05 9.8790446764475642e-06 -2.0938678413440405e-10 -9.3749038205019023e-05 1.0289856915360636e-05 -6.8864566529007962e-11 -9.3749041423792388e-05 1.4317349587979953e-05 -1.3320366092033977e-10 -9.3749035742405088e-05 9.8215531601776207e-06 -1.1937239391388437e-10 -6.446331007385938e-05 1.4317349587979953e-05 -1.3320366092033977e-10 -9.3749035742405088e-05 9.8790446764475659e-06 -2.0938678413440407e-10 -9.3749038205019023e-05 9.8215531601776224e-06 -1.1937239391388439e-10 -6.446331007385938e-05 1.5652545723006022e-05 -1.9111782026915595e-10 -7.3204032801776092e-05 1.0289856915360636e-05 -6.8864566529007949e-11 -9.3749041423792388e-05 1.4317349587979953e-05 -1.3320366092033977e-10 -9.3749035742405088e-05 9.8215531601776224e-06 -1.1937239391388439e-10 -6.446331007385938e-05 1.5568649790868133e-05 1.4840158392952051e-11 -7.0354912853328082e-05 1.0289856915360636e-05 -6.8864566529007949e-11 -9.3749041423792388e-05 9.8215531601776224e-06 -1.1937239391388439e-10 -6.446331007385938e-05 5.290903521992416e-06 -1.1804056302899633e-10 -9.3749045109301073e-05 6.8267083108951928e-06 -5.9350290443974018e-13 -7.2782324364575491e-05 1.0289856915360636e-05 -6.8864566529007949e-11 -9.3749041423792388e-05 1.6239106135549017e-05 -4.3802920670588093e-12 -9.3749029682919086e-05 1.4317349587979953e-05 -1.3320366092033977e-10 -9.3749035742405088e-05 1.556864979086813e-05 1.4840158392951993e-11 -7.0354912853328082e-05 9.8215531601776224e-06 -1.1937239391388439e-10 -6.446331007385938e-05 1.5568649790868126e-05 1.4840158392952016e-11 -7.0354912853328068e-05 1.5626099562188127e-05 -2.0294716459647197e-12 -4.687513058894996e-05 6.8267083108951902e-06 -5.9350290443967899e-13 -7.2782324364575464e-05 7.7409262571839583e-06 2.1185689559188156e-11 -4.2280069433558182e-05 1.5649098903596839e-05 -1.6163668367319443e-10 -4.9581285778248808e-05 9.821553160177619e-06 -1.1937239391388439e-10 -6.446331007385938e-05 6.903215721958339e-06 -1.5972631389060503e-10 -4.6879651199599028e-05 9.8215531601776224e-06 -1.1937239391388439e-10 -6.446331007385938e-05 1.5649098903596842e-05 -1.6163668367319443e-10 -4.9581285778248815e-05 1.5568649790868126e-05 1.4840158392951967e-11 -7.0354912853328068e-05 1.5652545723006022e-05 -1.9111782026915593e-10 -7.3204032801776106e-05 1.5626099562188127e-05 -2.0294716459647314e-12 -4.687513058894996e-05 9.8215531601776224e-06 -1.1937239391388439e-10 -6.446331007385938e-05 7.7409262571839583e-06 2.1185689559188156e-11 -4.2280069433558182e-05 1.5649098903596842e-05 -1.6163668367319443e-10 -4.9581285778248815e-05 1.5626099562188127e-05 -2.0294716459647314e-12 -4.687513058894996e-05 1.5568649790868133e-05 1.4840158392951993e-11 -7.0354912853328082e-05 9.8215531601776241e-06 -1.1937239391388442e-10 -6.446331007385938e-05 1.5649098903596842e-05 -1.6163668367319443e-10 -4.9581285778248815e-05 1.5626099562188127e-05 -2.0294716459647314e-12 -4.687513058894996e-05 7.7409262571839583e-06 2.1185689559188156e-11 -4.2280069433558182e-05 9.8215531601776224e-06 -1.1937239391388442e-10 -6.4463310073859366e-05 6.8267083108951911e-06 -5.9350290443969151e-13 -7.2782324364575478e-05 6.8267083108951911e-06 -5.9350290443969151e-13 -7.2782324364575478e-05 9.8215531601776224e-06 -1.1937239391388439e-10 -6.446331007385938e-05 -1.7712083032197768e-15 3.1975848770060145e-12 -4.8714057956842933e-05 7.7409262571839549e-06 2.118568955918813e-11 -4.2280069433558182e-05 -2.3560691602747344e-15 -1.0850996906772047e-10 -4.2949314686567465e-05 7.7409262571839566e-06 2.1185689559188162e-11 -4.2280069433558182e-05 2.0006968024234716e-15 -1.1521467975999934e-10 -5.7231481367679747e-05 6.9032157219583365e-06 -1.5972631389060503e-10 -4.6879651199599028e-05 2.0006967182245034e-15 -1.1521467975999934e-10 -5.7231481367679747e-05 -1.7712084665576129e-15 3.1975848770060166e-12 -4.8714057956842933e-05 9.8215531601776224e-06 -1.1937239391388434e-10 -6.446331007385938e-05 7.7409262571839583e-06 2.1185689559188156e-11 -4.2280069433558182e-05 6.8267083108951911e-06 -5.9350290443969151e-13 -7.2782324364575478e-05 2.0006992306049397e-15 -1.1521467975999929e-10 -5.723148136767974e-05 -1.7712084665576129e-15 3.1975848770060166e-12 -4.8714057956842933e-05 9.8215531601776224e-06 -1.1937239391388439e-10 -6.446331007385938e-05 2.0006967182245034e-15 -1.1521467975999934e-10 -5.7231481367679747e-05 7.7409262571839583e-06 2.1185689559188146e-11 -4.2280069433558175e-05 9.8215531601776224e-06 -1.1937239391388439e-10 -6.446331007385938e-05 6.9032157219583365e-06 -1.5972631389060506e-10 -4.6879651199599022e-05 6.8267083108951911e-06 -5.9350290443969151e-13 -7.2782324364575478e-05 -1.7712084665576129e-15 3.1975848770060166e-12 -4.8714057956842933e-05 2.0006964781447287e-15 -1.1521467975999929e-10 -5.7231481367679747e-05 -2.939169706131378e-16 -1.8864849410613976e-11 -6.311276076071945e-05 -4.4928889028027578e-15 -2.3294263735092426e-10 -6.5044406471395682e-05 2.0006967182245034e-15 -1.1521467975999934e-10 -5.7231481367679747e-05 9.8215531601776224e-06 -1.1937239391388437e-10 -6.446331007385938e-05 6.9032157219583365e-06 -1.5972631389060503e-10 -4.6879651199599028e-05 2.0006967182245034e-15 -1.1521467975999934e-10 -5.7231481367679747e-05 9.2432929794075542e-16 -1.1250876172447383e-10 -7.5786858139120306e-05 9.8215531601776224e-06 -1.1937239391388439e-10 -6.446331007385938e-05 6.8267083108951902e-06 -5.9350290443973947e-13 -7.2782324364575478e-05 -4.4928889028027578e-15 -2.3294263735092426e-10 -6.5044406471395682e-05 2.0006967182245034e-15 -1.1521467975999934e-10 -5.7231481367679747e-05 9.2432947044964053e-16 -1.1250876172447383e-10 -7.5786858139120306e-05 9.8215531601776224e-06 -1.1937239391388439e-10 -6.446331007385938e-05 -2.3560691602747344e-15 -1.0850996906772047e-10 -4.2949314686567465e-05 -1.7712084665576129e-15 3.1975848770060166e-12 -4.8714057956842933e-05 2.0006967182245034e-15 -1.1521467975999934e-10 -5.7231481367679747e-05 7.7409262571839583e-06 2.1185689559188156e-11 -4.2280069433558182e-05 2.0006967182245034e-15 -1.1521467975999934e-10 -5.7231481367679747e-05 -2.9391685793088004e-16 -1.8864849410613976e-11 -6.311276076071945e-05 9.2432959866879372e-16 -1.1250876172447384e-10 -7.5786858139120306e-05 6.8267083108951877e-06 -5.9350290443965445e-13 -7.2782324364575478e-05 2.0006967182245034e-15 -1.1521467975999934e-10 -5.7231481367679747e-05 -4.219936011205813e-15 -2.3676420915908246e-10 -4.7781493486939852e-05 -2.3560692829931889e-15 -1.0850996906772047e-10 -4.2949314686567465e-05 6.9032157219583382e-06 -1.5972631389060501e-10 -4.6879651199599028e-05 -4.4928889028027578e-15 -2.3294263735092426e-10 -6.5044406471395682e-05 4.5756344285610228e-06 -2.4289570992712955e-10 -8.0023430656264884e-05 5.8813385091602584e-06 -3.1568664972762477e-10 -6.4091140129838024e-05 9.8215531601776224e-06 -1.1937239391388439e-10 -6.446331007385938e-05 -4.4928889028027578e-15 -2.3294263735092426e-10 -6.5044406471395682e-05 9.8215531601776224e-06 -1.1937239391388439e-10 -6.446331007385938e-05 5.8813385091602592e-06 -3.1568664972762477e-10 -6.4091140129838011e-05 6.9032157219583365e-06 -1.5972631389060503e-10 -4.6879651199599028e-05 -4.4928889028027578e-15 -2.3294263735092426e-10 -6.5044406471395682e-05 5.8813385091602584e-06 -3.1568664972762482e-10 -6.4091140129838024e-05 -4.219936011205813e-15 -2.3676420915908246e-10 -4.7781493486939852e-05 6.9032157219583365e-06 -1.5972631389060503e-10 -4.6879651199599028e-05 -4.4928889028027578e-15 -2.3294263735092426e-10 -6.5044406471395682e-05 -4.219936011205813e-15 -2.3676420915908246e-10 -4.7781493486939852e-05 2.0006965009349968e-15 -1.1521467975999934e-10 -5.7231481367679747e-05 6.9032157219583365e-06 -1.5972631389060503e-10 -4.6879651199599028e-05 8.3469348261680435e-15 -3.4466186396346733e-10 -7.4999484302234524e-05 8.9333907266911778e-15 -4.0660794814832639e-10 -5.624993428684181e-05 -4.4928889028027578e-15 -2.3294263735092426e-10 -6.5044406471395682e-05 5.8813385091602592e-06 -3.1568664972762482e-10 -6.4091140129838024e-05 8.9333907266911778e-15 -4.0660794814832639e-10 -5.624993428684181e-05 -4.4928889028027578e-15 -2.3294263735092426e-10 -6.5044406471395682e-05 5.8813385091602592e-06 -3.1568664972762482e-10 -6.4091140129838024e-05 -4.219936011205813e-15 -2.3676420915908246e-10 -4.7781493486939852e-05 5.8813385091602592e-06 -3.1568664972762482e-10 -6.4091140129838024e-05 5.1161978827078993e-06 -2.9973465392550553e-10 -4.5812532336752046e-05 8.9333907266911778e-15 -4.0660794814832639e-10 -5.624993428684181e-05 -4.219936011205813e-15 -2.3676420915908246e-10 -4.7781493486939852e-05 5.8813385091602592e-06 -3.1568664972762482e-10 -6.4091140129838024e-05 9.6976538302363755e-06 -2.5740289851649164e-10 -5.0793645113131561e-05 5.1161978827078993e-06 -2.9973465392550553e-10 -4.5812532336752046e-05 6.9032157219583365e-06 -1.5972631389060503e-10 -4.6879651199599028e-05 -4.219936011205813e-15 -2.3676420915908246e-10 -4.7781493486939852e-05 5.8813385091602584e-06 -3.1568664972762482e-10 -6.4091140129838024e-05 5.1161978827078993e-06 -2.9973465392550553e-10 -4.5812532336752046e-05 6.9032157219583373e-06 -1.5972631389060496e-10 -4.6879651199599022e-05 9.3990327749832119e-06 -3.0381105460181283e-10 -7.7877827312501112e-05 1.2380860317001543e-05 -3.5027118601876777e-10 -6.2881134045629004e-05 5.8813385091602592e-06 -3.1568664972762482e-10 -6.4091140129838024e-05 9.8215531601776224e-06 -1.1937239391388439e-10 -6.446331007385938e-05 9.6976538302363755e-06 -2.5740289851649164e-10 -5.0793645113131561e-05 9.8215531601776241e-06 -1.1937239391388442e-10 -6.446331007385938e-05 1.5649098903596839e-05 -1.6163668367319445e-10 -4.9581285778248828e-05 6.9032157219583365e-06 -1.5972631389060501e-10 -4.6879651199599022e-05 1.2380860317001543e-05 -3.5027118601876777e-10 -6.2881134045629004e-05 9.6976538302363755e-06 -2.5740289851649164e-10 -5.0793645113131561e-05 9.8215531601776224e-06 -1.1937239391388434e-10 -6.4463310073859366e-05 1.5649098903596842e-05 -1.6163668367319435e-10 -4.9581285778248808e-05 1.2380860317001543e-05 -3.5027118601876777e-10 -6.2881134045629004e-05 9.8215531601776224e-06 -1.1937239391388439e-10 -6.446331007385938e-05 9.3990327749832119e-06 -3.0381105460181283e-10 -7.7877827312501112e-05 1.5652545723006022e-05 -1.9111782026915593e-10 -7.3204032801776106e-05 5.8813385091602592e-06 -3.1568664972762482e-10 -6.4091140129838024e-05 9.8215531601776224e-06 -1.1937239391388434e-10 -6.446331007385938e-05 9.6976538302363755e-06 -2.5740289851649164e-10 -5.0793645113131561e-05 6.9032157219583365e-06 -1.5972631389060503e-10 -4.6879651199599028e-05 1.8757618177450554e-05 -3.7000621939264244e-10 -6.3329649668564486e-05 1.5649098903596839e-05 -1.6163668367319443e-10 -4.9581285778248808e-05 1.2380860317001543e-05 -3.5027118601876777e-10 -6.2881134045629004e-05 1.5652545723006022e-05 -1.9111782026915593e-10 -7.3204032801776106e-05 9.6976538302363755e-06 -2.5740289851649164e-10 -5.0793645113131561e-05 5.8813385091602601e-06 -3.1568664972762482e-10 -6.4091140129838024e-05 1.2380860317001543e-05 -3.5027118601876777e-10 -6.2881134045629004e-05 9.8215531601776224e-06 -1.1937239391388439e-10 -6.446331007385938e-05 1.2380860317001543e-05 -3.5027118601876777e-10 -6.2881134045629004e-05 1.5649098903596842e-05 -1.6163668367319438e-10 -4.9581285778248815e-05 9.8215531601776224e-06 -1.1937239391388434e-10 -6.4463310073859366e-05 1.5652545723006022e-05 -1.9111782026915593e-10 -7.3204032801776106e-05 1.2380860317001543e-05 -3.5027118601876777e-10 -6.2881134045629004e-05 1.8757618177450554e-05 -3.7000621939264244e-10 -6.3329649668564486e-05 1.562609713993807e-05 -3.1909785980735578e-10 -4.5036263482400537e-05 1.5649098903596842e-05 -1.616366836731944e-10 -4.9581285778248822e-05 1.2380860317001543e-05 -3.5027118601876777e-10 -6.2881134045629004e-05 1.562609713993807e-05 -3.1909785980735578e-10 -4.5036263482400544e-05 9.6976538302363755e-06 -2.5740289851649164e-10 -5.0793645113131561e-05 1.5649098903596842e-05 -1.616366836731944e-10 -4.9581285778248822e-05 1.5575007397662468e-05 -3.3051334097748798e-10 -7.7599925005455899e-05 1.8757618177450554e-05 -3.7000621939264244e-10 -6.3329649668564486e-05 1.2380860317001543e-05 -3.5027118601876777e-10 -6.2881134045629004e-05 1.5652545723006022e-05 -1.9111782026915593e-10 -7.3204032801776106e-05 9.3990327749832119e-06 -3.0381105460181283e-10 -7.7877827312501112e-05 4.5756357752545839e-06 -2.0462543489941515e-10 -9.3749039168981928e-05 9.8790446764475642e-06 -2.0938678413440405e-10 -9.3749038205019023e-05 9.8215531601776224e-06 -1.1937239391388439e-10 -6.446331007385938e-05 9.3990327749832119e-06 -3.0381105460181283e-10 -7.7877827312501112e-05 9.8215531601776224e-06 -1.1937239391388439e-10 -6.446331007385938e-05 9.8790446764475625e-06 -2.0938678413440407e-10 -9.3749038205019023e-05 1.5652545723006019e-05 -1.9111782026915593e-10 -7.3204032801776106e-05 9.3990327749832119e-06 -3.0381105460181283e-10 -7.7877827312501112e-05 9.8790446764475642e-06 -2.0938678413440405e-10 -9.3749038205019036e-05 1.5575007397662468e-05 -3.3051334097748798e-10 -7.7599925005455899e-05 1.5652545723006022e-05 -1.9111782026915598e-10 -7.3204032801776119e-05 1.2380860317001543e-05 -3.5027118601876777e-10 -6.2881134045629004e-05 9.3990327749832119e-06 -3.0381105460181283e-10 -7.7877827312501112e-05 1.5575007397662468e-05 -3.3051334097748798e-10 -7.7599925005455899e-05 1.5652545723006022e-05 -1.9111782026915593e-10 -7.3204032801776106e-05 9.8790446764475642e-06 -2.0938678413440405e-10 -9.3749038205019023e-05 1.2500863139569479e-05 -3.8666669627150299e-10 -9.3749070885404818e-05 1.5575007397662468e-05 -3.3051334097748798e-10 -7.7599925005455899e-05 1.5928231912421271e-05 -2.4356009728459008e-10 -9.374903366761782e-05 1.2500863139569479e-05 -3.8666669627150299e-10 -9.3749070885404818e-05 1.5575007397662468e-05 -3.3051334097748798e-10 -7.7599925005455899e-05 9.3990327749832119e-06 -3.0381105460181283e-10 -7.7877827312501112e-05 9.8790446764475642e-06 -2.0938678413440405e-10 -9.3749038205019023e-05 9.8790446764475642e-06 -2.0938678413440405e-10 -9.3749038205019023e-05 1.5928231912421271e-05 -2.4356009728459008e-10 -9.374903366761782e-05 1.5575007397662468e-05 -3.3051334097748798e-10 -7.7599925005455899e-05 1.5652545723006022e-05 -1.9111782026915598e-10 -7.3204032801776106e-05 1.4317349587979953e-05 -1.3320366092033977e-10 -9.3749035742405088e-05 1.5928231912421271e-05 -2.4356009728459008e-10 -9.374903366761782e-05 9.8790446764475642e-06 -2.0938678413440405e-10 -9.3749038205019023e-05 1.5652545723006022e-05 -1.9111782026915593e-10 -7.3204032801776106e-05 1.2500863139569479e-05 -3.8666669627150299e-10 -9.3749070885404818e-05 9.3990327749832119e-06 -3.0381105460181283e-10 -7.7877827312501112e-05 6.2504236789823202e-06 -3.028137252139374e-10 -9.374905940019204e-05 9.8790446764475642e-06 -2.0938678413440405e-10 -9.3749038205019023e-05 -6.1062640099424495e-15 -2.0872960318395832e-10 -8.0023426556311854e-05 -4.4928886319850333e-15 -2.329426373509242e-10 -6.5044406471395668e-05 9.2432929794075542e-16 -1.1250876172447383e-10 -7.5786858139120306e-05 9.8215531601776241e-06 -1.1937239391388437e-10 -6.446331007385938e-05 5.290903521992416e-06 -1.1804056302899633e-10 -9.3749045109301073e-05 9.8790446764475642e-06 -2.0938678413440405e-10 -9.3749038205019023e-05 4.5756357752545839e-06 -2.0462543489941515e-10 -9.3749039168981928e-05 9.8215531601776224e-06 -1.1937239391388439e-10 -6.446331007385938e-05 4.5756357752545839e-06 -2.0462543489941515e-10 -9.3749039168981928e-05 6.2504236789823185e-06 -3.028137252139374e-10 -9.374905940019204e-05 4.5756344285610219e-06 -2.428957099271295e-10 -8.0023430656264884e-05 9.3990327749832119e-06 -3.0381105460181283e-10 -7.7877827312501112e-05 4.5756357752545839e-06 -2.0462543489941515e-10 -9.3749039168981928e-05 9.3990327749832136e-06 -3.0381105460181289e-10 -7.7877827312501112e-05 4.5756344285610219e-06 -2.428957099271295e-10 -8.0023430656264884e-05 9.8215531601776258e-06 -1.1937239391388447e-10 -6.446331007385938e-05 4.5756357752545839e-06 -2.0462543489941515e-10 -9.3749039168981928e-05 6.2504236789823202e-06 -3.028137252139374e-10 -9.374905940019204e-05 9.3990327749832119e-06 -3.0381105460181283e-10 -7.7877827312501112e-05 9.8790446764475642e-06 -2.0938678413440405e-10 -9.3749038205019023e-05 5.8813385091602592e-06 -3.1568664972762482e-10 -6.4091140129838024e-05 4.5756344285610219e-06 -2.428957099271295e-10 -8.0023430656264884e-05 9.3990327749832119e-06 -3.0381105460181283e-10 -7.7877827312501112e-05 9.8215531601776224e-06 -1.1937239391388434e-10 -6.446331007385938e-05 -6.1062640099424495e-15 -2.0872960318395832e-10 -8.0023426556311854e-05 5.2909035219924134e-06 -1.1804056302899628e-10 -9.3749045109301087e-05 4.5756357752545848e-06 -2.046254348994152e-10 -9.3749039168981928e-05 9.8215531601776241e-06 -1.1937239391388437e-10 -6.4463310073859366e-05 4.5756357752545839e-06 -2.0462543489941515e-10 -9.3749039168981928e-05 4.5756344285610219e-06 -2.428957099271295e-10 -8.0023430656264884e-05 -6.1062640099424495e-15 -2.0872960318395832e-10 -8.0023426556311854e-05 9.8215531601776224e-06 -1.1937239391388439e-10 -6.446331007385938e-05 -4.4928889028027578e-15 -2.3294263735092426e-10 -6.5044406471395682e-05 -6.1062640099424495e-15 -2.0872960318395832e-10 -8.0023426556311854e-05 4.5756344285610219e-06 -2.428957099271295e-10 -8.0023430656264884e-05 9.8215531601776207e-06 -1.1937239391388439e-10 -6.4463310073859366e-05 5.3222099386146406e-18 -1.802632564390167e-10 -9.3749049777454307e-05 9.2432929794075542e-16 -1.1250876172447383e-10 -7.5786858139120306e-05 5.290903521992416e-06 -1.1804056302899633e-10 -9.3749045109301073e-05 -6.1062640099424495e-15 -2.0872960318395832e-10 -8.0023426556311854e-05 4.5756357752545839e-06 -2.0462543489941515e-10 -9.3749039168981928e-05 5.3220154885806452e-18 -1.8026325643901667e-10 -9.3749049777454294e-05 5.290903521992416e-06 -1.1804056302899633e-10 -9.3749045109301073e-05 -6.1062640099424495e-15 -2.0872960318395832e-10 -8.0023426556311854e-05 -4.4928889028027578e-15 -2.3294263735092426e-10 -6.5044406471395682e-05 4.5756344285610228e-06 -2.4289570992712955e-10 -8.0023430656264884e-05 8.3469348261680435e-15 -3.4466186396346733e-10 -7.4999484302234524e-05 5.8813385091602601e-06 -3.1568664972762472e-10 -6.4091140129838038e-05 -6.1062640099424495e-15 -2.0872960318395832e-10 -8.0023426556311854e-05 4.5756344285610228e-06 -2.4289570992712945e-10 -8.002343065626487e-05 8.3469348261680435e-15 -3.4466186396346733e-10 -7.4999484302234524e-05 -4.4928889028027578e-15 -2.3294263735092426e-10 -6.5044406471395682e-05 1.9885526504222152e-15 -3.2675193562828547e-10 -9.3749066661223023e-05 5.3222099386155111e-18 -1.802632564390167e-10 -9.3749049777454321e-05 4.5756357752545839e-06 -2.0462543489941515e-10 -9.3749039168981928e-05 -6.1062640099424495e-15 -2.0872960318395832e-10 -8.0023426556311854e-05 4.5756344285610219e-06 -2.428957099271295e-10 -8.0023430656264884e-05 8.3469347920268788e-15 -3.4466186396346733e-10 -7.4999484302234524e-05 1.9885526504222152e-15 -3.2675193562828547e-10 -9.3749066661223023e-05 -6.1062640099424495e-15 -2.0872960318395832e-10 -8.0023426556311854e-05 1.9885526504222152e-15 -3.2675193562828547e-10 -9.3749066661223023e-05 4.5756357752545839e-06 -2.0462543489941515e-10 -9.3749039168981941e-05 6.2504236789823202e-06 -3.028137252139374e-10 -9.374905940019204e-05 4.5756344285610219e-06 -2.428957099271295e-10 -8.0023430656264884e-05 4.5756344285610219e-06 -2.428957099271295e-10 -8.0023430656264884e-05 1.9885526504222152e-15 -3.2675193562828547e-10 -9.3749066661223023e-05 4.5756357752545839e-06 -2.0462543489941515e-10 -9.3749039168981928e-05 -6.1062640099424495e-15 -2.0872960318395832e-10 -8.0023426556311854e-05 
</DataArray>
</PointData>
<CellData Scalars="" Vectors="" Tensors="stress,">
<DataArray type="Float64" Name="stress" NumberOfComponents="9" format="ascii">
0.36954968093095886 -0.0059065360909368661 -0.050947439002226452 -0.0059065360909368661 -2499.7511399882301 -0.048371084703673212 -0.050947439002226452 -0.048371084703673212 -9999.568301196603 0.4030535846895873 0.010894932692245174 0.072791403712362091 0.010894932692245174 -2499.7477547130579 0.034519136467887845 0.072791403712362091 0.034519136467887845 -9999.5743852933811 0.39032125229141457 0.013006220787644421 0.0037698388769641378 0.013006220787644421 -2499.6886834573925 0.13567855507076632 0.0037698388769641378 0.13567855507076632 -9999.4943204680021 0.41005763100009768 0.020772261317012819 0.014410882276024495 0.020772261317012819 -2499.7134248955008 0.023111797482975746 0.014410882276024495 0.023111797482975746 -9999.5660212834464 0.37849158078461187 -0.0005263098565103444 0.0083671031870835577 -0.0005263098565103444 -2499.7377712253374 -0.032407939822405751 0.0083671031870835577 -0.032407939822405751 -9999.6338901096933 0.3914179028433864 -0.019781789660136086 -0.033351333583368614 -0.019781789660136086 -2499.7251867006908 0.00020682360036516911 -0.033351333583368614 0.00020682360036516911 -9999.6301528511358 0.37243208699760544 0.010469918417792608 0.042473369675235517 0.010469918417792608 -2499.7746122704848 0.062955200373153275 0.042473369675235517 0.062955200373153275 -9999.6627289474309 0.35264627653077696 -0.025513491126535278 -0.030124784076065225 -0.025513491126535278 -2499.7902373166726 0.042380761073218309 -0.030124784076065225 0.042380761073218309 -9999.7288759058865 0.35322168457514636 -0.0025836224353649809 0.018099603053542523 -0.0025836224353649809 -2499.7677638774458 -0.022448777678789611 0.018099603053542523 -0.022448777678789611 -9999.7201988383858 0.32468296149045273 0.0016836581104448063 0.0055098189502587047 0.0016836581104448063 -2499.8319366587034 0.021204018292792171 0.0055098189502587047 0.021204018292792171 -9999.7764079164826 0.36692918774963346 0.009369197621269601 -0.0039527674757664499 0.009369197621269601 -2499.7698086396913 -0.017019281295233668 -0.0039527674757664499 -0.017019281295233668 -9999.6582742461251 0.37416306076374894 0.012990306508759441 0.0042369369512016419 0.012990306508759441 -2499.7651153475308 -0.0086397236468656047 0.0042369369512016419 -0.0086397236468656047 -9999.6584890428076 0.37740820516228268 0.0042863418517383317 0.0054920040493016131 0.0042863418517383317 -2499.7513326011467 0.0051254364266242192 0.0054920040493016131 0.0051254364266242192 -9999.6601685163823 0.39449033276605405 0.014193618477286314 0.05522543758820575 0.014193618477286314 -2499.7383229276356 -0.010182752644595894 0.05522543758820575 -0.010182752644595894 -9999.6180874049205 0.40371657952507212 0.005919003564522806 0.043247671203733407 0.005919003564522806 -2499.7448737807163 -0.04490126155238805 0.043247671203733407 -0.04490126155238805 -9999.5572426922354 0.40700852548130634 0.012312510023604256 -0.057889582431521425 0.012312510023604256 -2499.6723826427856 0.090274995463457353 -0.057889582431521425 0.090274995463457353 -9999.4433370237966 0.4100885886823562 -0.0014166428828713967 -0.020891531124107132 -0.0014166428828713967 -2499.7077594397397 0.11803096633593668 -0.020891531124107132 0.11803096633593668 -9999.5208915571748 0.45776069346761084 0.0081068836185501231 -0.037651571330047429 0.0081068836185501231 -2499.6915368337268 0.059550799202003291 -0.037651571330047429 0.059550799202003291 -9999.493031236485 0.35115413970333975 -0.010379144214343593 -0.066588245870548235 -0.010379144214343593 -2499.7559716898058 0.016750457959005871 -0.066588245870548235 0.016750457959005871 -9999.6435514312579 0.37639964893422473 -0.014742844227709585 0.020887734513053147 -0.014742844227709585 -2499.7471377547804 0.017304448477652556 0.020887734513053147 0.017304448477652556 -9999.63316199982 0.37671885731924704 0.011606959390510714 0.021785489344779307 0.011606959390510714 -2499.7724135122357 0.032187681507821253 0.021785489344779307 0.032187681507821253 -9999.6591757177903 0.37390822437509996 0.0035952826479600198 0.025111155338828843 0.0035952826479600198 -2499.7670439559224 0.043515576744419471 0.025111155338828843 0.043515576744419471 -9999.6648093170134 0.4455737141164281 0.0055272031527879295 0.019540730014786234 0.0055272031527879295 -2499.6852846970692 0.093366934158190612 0.019540730014786234 0.093366934158190612 -9999.4615413242409 0.41132293752070836 -0.0033760238000691695 0.011205325793071097 -0.0033760238000691695 -2499.6897043488329 0.085992999339329745 0.011205325793071097 0.085992999339329745 -9999.4366014427233 0.36754592079978465 0.0045748530600686829 -0.00043489530139595445 0.0045748530600686829 -2499.7423327659435 0.0098861712540383451 -0.00043489530139595445 0.0098861712540383451 -9999.5606357846991 0.35871714228051133 0.0034053434414087376 0.004668228109494521 0.0034053434414087376 -2499.7651791014569 0.02511577748828131 0.004668228109494521 0.02511577748828131 -9999.6003833397499 0.37876850635154824 -0.0027125782342711062 0.0010192020690737991 -0.0027125782342711062 -2499.7644621624759 0.0084376193472053274 0.0010192020690737991 0.0084376193472053274 -9999.6127815658147 0.36739238754125836 0.0045669473983394118 -0.011118848894511757 0.0045669473983394118 -2499.7588875706224 0.0038084609336692665 -0.011118848894511757 0.0038084609336692665 -9999.6362712151331 0.38072465392724553 -0.0025165982662353412 0.0015798166114109335 -0.0025165982662353412 -2499.7534992629735 0.0013349037974421663 0.0015798166114109335 0.0013349037974421663 -9999.6156982958091 0.37125159596007506 -0.019511580415708305 -0.0010652858475168614 -0.019511580415708305 -2499.7339695608102 0.014523257890687091 -0.0010652858475168614 0.014523257890687091 -9999.6333357569838 0.37421527567494195 -0.010833088342409227 0.0095394460026909655 -0.010833088342409227 -2499.7560954130026 0.0076485140174327171 0.0095394460026909655 0.0076485140174327171 -9999.6357193578297 0.39016660328840658 -0.00031910478361836525 -0.023272643014024652 -0.00031910478361836525 -2499.7359562708211 0.014898678596637183 -0.023272643014024652 0.014898678596637183 -9999.583841372425 0.38311780883536528 -0.0094530197043517714 0.014643848682680982 -0.0094530197043517714 -2499.7395411627926 0.015970600889033904 0.014643848682680982 0.015970600889033904 -9999.5891751076542 0.38518294003932851 -0.018566217423662129 0.0026090183446285664 -0.018566217423662129 -2499.7119881295721 0.026811790758074494 0.0026090183446285664 0.026811790758074494 -9999.5809146878728 0.37800115115169319 -0.0097637496964029721 0.0030681704870403337 -0.0097637496964029721 -2499.7462262528752 0.0060780996109315311 0.0030681704870403337 0.0060780996109315311 -9999.6080102332453 0.37326706258318154 -0.015425798315704273 0.0048208882462859037 -0.015425798315704273 -2499.753137433484 0.016325847151165362 0.0048208882462859037 0.016325847151165362 -9999.6111132378537 0.3773537749730167 0.0083612077057533471 -0.0048872448051042738 0.0083612077057533471 -2499.7519384055868 0.0068890511392964981 -0.0048872448051042738 0.0068890511392964981 -9999.6110453257606 0.36818074477196205 0.0050086933121793464 -0.011298641700705048 0.0050086933121793464 -2499.7572728216273 0.0030977343867562013 -0.011298641700705048 0.0030977343867562013 -9999.6353746542009 0.3691711409672962 -0.00079684112181671769 -0.0027637640037028177 -0.00079684112181671769 -2499.7593968660221 -0.0023933919360388245 -0.0027637640037028177 -0.0023933919360388245 -9999.659256844343 0.37994454525073706 -0.00015868079197811635 -0.004493689975788584 -0.00015868079197811635 -2499.7502611374275 0.0012264139386388706 -0.004493689975788584 0.0012264139386388706 -9999.6301765915396 0.37959087045965134 -0.0005731481279061864 -0.0045623459063222072 -0.0005731481279061864 -2499.749176628131 0.00015098210212727281 -0.0045623459063222072 0.00015098210212727281 -9999.6270741151238 0.39216703815327492 0.019901919169781943 -0.00098661693664325867 0.019901919169781943 -2499.713460531575 -0.0082769416294468101 -0.00098661693664325867 -0.0082769416294468101 -9999.6127625853369 0.39393576724614832 0.013569107171929315 -0.0022302681313703943 0.013569107171929315 -2499.7142349400256 0.0036333336756797507 -0.0022302681313703943 0.0036333336756797507 -9999.6175035560336 0.38684163847028685 0.017786760867275472 0.00047129256472544512 0.017786760867275472 -2499.7240543847347 -0.0025528850846967543 0.00047129256472544512 -0.0025528850846967543 -9999.6234810836831 0.39188273051877331 0.0081678343810506759 -0.00066938107192981988 0.0081678343810506759 -2499.7287692180726 -0.0078606173190109985 -0.00066938107192981988 -0.0078606173190109985 -9999.6248834698308 0.37231429125404247 0.0060688029973081786 -0.0015714227765784017 0.0060688029973081786 -2499.7564895106198 -0.0057471002301099361 -0.0015714227765784017 -0.0057471002301099361 -9999.635826044123 0.3793556294276641 0.0050236671127059998 0.0007477675135305617 0.0050236671127059998 -2499.7304653998835 -0.012856169105361914 0.0007477675135305617 -0.012856169105361914 -9999.6302722783312 0.3870222117971025 0.00048079046496922809 0.0026495228207750188 0.00048079046496922809 -2499.7343398344478 -0.019936251614126377 0.0026495228207750188 -0.019936251614126377 -9999.6032089593846 0.3751260369845113 -0.00013640830967374257 0.00063683542703074636 -0.00013640830967374257 -2499.7529976768183 -0.0027586292826526915 0.00063683542703074636 -0.0027586292826526915 -9999.6249051120285 0.38119889578956645 0.00068676397803110224 0.0024423252702945319 0.00068676397803110224 -2499.7408673514146 -0.014013260307820019 0.0024423252702945319 -0.014013260307820019 -9999.6199726716659 0.38753195926392436 0.0015752758709226635 -0.0010052497883634715 0.0015752758709226635 -2499.7452655083125 -0.0077615453560611058 -0.0010052497883634715 -0.0077615453560611058 -9999.5930150023087 0.38300505513461758 -0.0012989219435143601 0.0042572281988668692 -0.0012989219435143601 -2499.7443024070062 -0.0073617296702650492 0.0042572281988668692 -0.0073617296702650492 -9999.6060187983567 0.38162074957472214 0.00277812451392983 0.00080361460493350023 0.00277812451392983 -2499.7552329915411 -0.013830047444571392 0.00080361460493350023 -0.013830047444571392 -9999.6127872912402 0.37457665243073279 0.0019931891442318394 -0.00031330715864896774 0.0019931891442318394 -2499.7494887438597 -0.007814295970092644 -0.00031330715864896774 -0.007814295970092644 -9999.6346845880926 0.38134769053795026 -8.2402574656189904e-05 0.0034155728508267202 -8.2402574656189904e-05 -2499.7443520084043 -0.005556588734179968 0.0034155728508267202 -0.005556588734179968 -9999.6032971570821 0.36812753446702118 -0.0055588852655112393 0.00855784679606586 -0.0055588852655112393 -2499.7521645934748 7.0696126556413219e-05 0.00855784679606586 7.0696126556413219e-05 -9999.6304451016258 0.36752573437161118 -0.0020151544211550734 0.0091081505102010851 -0.0020151544211550734 -2499.7539915720527 -0.0038719330652838835 0.0091081505102010851 -0.0038719330652838835 -9999.6033358336936 0.37611187791708289 -0.011148953258406306 0.0074128962687609601 -0.011148953258406306 -2499.7380925725661 0.001689952528977301 0.0074128962687609601 0.001689952528977301 -9999.6291522280371 0.37756550047197379 -0.0019395464288368032 0.0051506897966646648 -0.0019395464288368032 -2499.7496964772981 -0.0034058718447340652 0.0051506897966646648 -0.0034058718447340652 -9999.6260636061816 0.37157701719206671 -0.0052794944832389263 0.0084096123591734795 -0.0052794944832389263 -2499.7599552361198 0.00099832460591642302 0.0084096123591734795 0.00099832460591642302 -9999.6316882946885 0.37987638933282142 -0.0030312476721328051 0.0023481794778490439 -0.0030312476721328051 -2499.7510039016965 -0.0041633338223618921 0.0023481794778490439 -0.0041633338223618921 -9999.6219726321578 0.35701999185971545 0.0022904867600945654 0.068396567540730757 0.0022904867600945654 -2499.7639285126784 -0.071582073807803681 0.068396567540730757 -0.071582073807803681 -9999.6231080043708 0.39023283320284463 0.00188697650747245 0.0087168898694471864 0.00188697650747245 -2499.7197500399366 -0.01217893967418604 0.0087168898694471864 -0.01217893967418604 -9999.5487048820305 0.35050452384211894 -0.013687108009565279 -0.0023834955422898929 -0.013687108009565279 -2499.7642392482717 -0.0014297581715254637 -0.0023834955422898929 -0.0014297581715254637 -9999.7133997850069 0.38289343338055915 0.0099900365621754875 0.09705103942886395 0.0099900365621754875 -2499.7335270572903 -0.028982221492528243 0.09705103942886395 -0.028982221492528243 -9999.5785853105408 0.39009598385234767 0.0070062478445269919 -0.03219386232422039 0.0070062478445269919 -2499.7357789691978 -0.020902203240439121 -0.03219386232422039 -0.020902203240439121 -9999.5891441345266 0.37833075367166202 -0.0059783581752845989 0.030992572949799069 -0.0059783581752845989 -2499.7298404595485 0.046967569824573729 0.030992572949799069 0.046967569824573729 -9999.6619240352084 0.37887705673313121 -0.00075192675683561825 0.011744905796149396 -0.00075192675683561825 -2499.7401839421282 0.0033553268194737029 0.011744905796149396 0.0033553268194737029 -9999.5706277400168 0.38656697858277766 0.0089396075344744148 -0.031593309458639224 0.0089396075344744148 -2499.7353196363679 -0.020882039975956224 -0.031593309458639224 -0.020882039975956224 -9999.5899814334316 0.4124956388263854 0.0085413179081227555 0.017876581444350503 0.0085413179081227555 -2499.7197697429206 -0.016206037123422192 0.017876581444350503 -0.016206037123422192 -9999.5725452934548 0.39145901718711684 0.018277842142869694 0.05578642127120545 0.018277842142869694 -2499.7281765704492 -0.084220401407558598 0.05578642127120545 -0.084220401407558598 -9999.5928680057641 0.36749318503825634 -0.010013172645414169 0.010402446232092188 -0.010013172645414169 -2499.7704397491229 -0.056823557260088364 0.010402446232092188 -0.056823557260088364 -9999.6475473599239 0.36885960966353082 -0.0014579317889879964 0.0086199204515367001 -0.0014579317889879964 -2499.7611975151885 -0.0068580714287236333 0.0086199204515367001 -0.0068580714287236333 -9999.6486940478644 0.38755301667288222 0.00014824426667543722 0.018833247815109644 0.00014824426667543722 -2499.740700687672 -0.019846096135786695 0.018833247815109644 -0.019846096135786695 -9999.6249251128302 0.39932267066478744 0.00040827548502841288 -0.029828484416501155 0.00040827548502841288 -2499.72938012232 -0.019177123083040915 -0.029828484416501155 -0.019177123083040915 -9999.5913730044449 0.40257430928839066 0.005511764486479491 0.039094464217075131 0.005511764486479491 -2499.7230474420994 -0.047821880430958641 0.039094464217075131 -0.047821880430958641 -9999.5553935528733 0.41871293467897885 -2.0575989749249679e-05 0.064669392004919168 -2.0575989749249679e-05 -2499.7257788265856 -0.0097287470325682079 0.064669392004919168 -0.0097287470325682079 -9999.4881033419661 0.37760977174002619 -0.00077091083264365181 0.017729619504279981 -0.00077091083264365181 -2499.7726868003347 -0.0096875961466267313 0.017729619504279981 -0.0096875961466267313 -9999.6347380698589 0.39309818919628015 0.002160518169030819 0.011786974088408897 0.002160518169030819 -2499.7581452285258 -0.022521170735245732 0.011786974088408897 -0.022521170735245732 -9999.5939552861382 0.41105905551360233 0.00033371541824223951 0.039925406645462902 0.00033371541824223951 -2499.6885866979815 0.022077473459107988 0.039925406645462902 0.022077473459107988 -9999.5433812957763 0.42740299359989686 0.0052001245997698835 0.065450230805307597 0.0052001245997698835 -2499.6943087804693 -0.015593849241039792 0.065450230805307597 -0.015593849241039792 -9999.4784572083172 0.39340793731958001 0.0036646436940859332 0.0039356942047561461 0.0036646436940859332 -2499.7523371954831 0.012870748728801118 0.0039356942047561461 0.012870748728801118 -9999.6116385249989 0.37420664790806768 0.0045902619494779008 0.010717270063196338 0.0045902619494779008 -2499.7707218670348 0.0083500531559366209 0.010717270063196338 0.0083500531559366209 -9999.6632812430198 0.40123819926318383 -0.0060552977816355387 0.042834943050211183 -0.0060552977816355387 -2499.7246008877328 0.014866678131680355 0.042834943050211183 0.014866678131680355 -9999.5525065648835 0.39788462980322947 0.0026044044354076538 -0.056885284800273439 0.0026044044354076538 -2499.753866882952 0.0028350442644295981 -0.056885284800273439 0.0028350442644295981 -9999.6175011145751 0.39591686719722929 -0.0099095553499592964 0.042146642821080604 -0.0099095553499592964 -2499.7384696157792 0.015591152458910074 0.042146642821080604 0.015591152458910074 -9999.5540902654029 0.38781940745477478 -0.0076857344120179055 0.027162401076050058 -0.0076857344120179055 -2499.7370475177108 0.041584643600216131 0.027162401076050058 0.041584643600216131 -9999.5996273329729 0.39525774971434657 0.0078483531072690727 -0.043876258449565331 0.0078483531072690727 -2499.7359666280877 0.019956066165369102 -0.043876258449565331 0.019956066165369102 -9999.6433140607278 0.41223071333843109 0.0047689792409743859 -0.048747035704434255 0.0047689792409743859 -2499.7272295094299 0.022098157722509171 -0.048747035704434255 0.022098157722509171 -9999.5810050882137 0.38709489944267261 0.007278252292759203 0.019284956836600031 0.007278252292759203 -2499.7454984252186 0.026026406989672068 0.019284956836600031 0.026026406989672068 -9999.630794910765 0.40254222354997182 -0.002063659762839759 0.0038622564297838835 -0.002063659762839759 -2499.7309039934826 0.015011559744380065 0.0038622564297838835 0.015011559744380065 -9999.6067676846942 0.39607275871730963 0.0018633411683769557 0.010454473107984086 0.0018633411683769557 -2499.7466603257517 0.024220631325306385 0.010454473107984086 0.024220631325306385 -9999.5935460230721 0.37989447040217783 0.0017286554055024957 0.01751167213114968 0.0017286554055024957 -2499.7607921683384 0.025028144956138476 0.01751167213114968 0.025028144956138476 -9999.6350661392808 0.36329637534709036 0.010117974494440801 0.0017700626101486705 0.010117974494440801 -2499.7564341273942 0.010448626901052194 0.0017700626101486705 0.010448626901052194 -9999.6327139202531 0.3878352044712301 0.00079389960584949734 -0.0046320967328483675 0.00079389960584949734 -2499.7532613585126 -0.000388904171586546 -0.0046320967328483675 -0.000388904171586546 -9999.595262958419 0.38992860066991852 -0.0019003988289306925 -0.0031956099328454002 -0.0019003988289306925 -2499.7372111201803 0.015566682191746395 -0.0031956099328454002 0.015566682191746395 -9999.6198779405422 0.3732700411260339 0.0016623409163144601 -0.0092361773015454673 0.0016623409163144601 -2499.7568976060679 0.01429943075254414 -0.0092361773015454673 0.01429943075254414 -9999.6114570607424 0.41032507300496945 0.0016713075455643345 0.0076575613356908434 0.0016713075455643345 -2499.735620974182 0.0015932553233142244 0.0076575613356908434 0.0015932553233142244 -9999.5475733671083 0.37482120684853726 0.0014484556614185601 0.0078963293144624913 0.0014484556614185601 -2499.7468348220327 0.0061454343149307533 0.0078963293144624913 0.0061454343149307533 -9999.6223276032051 0.38333901296346085 -0.0034741054426410236 0.00016527628883977741 -0.0034741054426410236 -2499.748763482753 0.01071748746016965 0.00016527628883977741 0.01071748746016965 -9999.5984113704835 0.3752865996757464 0.001130723801494263 0.0029572541652669315 0.001130723801494263 -2499.7604653817771 -0.00091509439761239264 0.0029572541652669315 -0.00091509439761239264 -9999.6114317353458 0.38268788828645484 0.0014791614116323032 0.0030274505734269042 0.0014791614116323032 -2499.7396435050923 0.0038758771074753895 0.0030274505734269042 0.0038758771074753895 -9999.6026490290751 0.37990947669959496 0.0023115117635655463 0.0036563579214998754 0.0023115117635655463 -2499.7424710637229 0.0018993426165252458 0.0036563579214998754 0.0018993426165252458 -9999.6151809324765 0.38012184828221507 0.00098877433796859537 0.0006135683179309126 0.00098877433796859537 -2499.7400440720412 0.01222781492640479 0.0006135683179309126 0.01222781492640479 -9999.6191930968198 0.38383764770333073 0.0022003942753318906 0.0028115117629567976 0.0022003942753318906 -2499.7393714683676 0.0042485429821681464 0.0028115117629567976 0.0042485429821681464 -9999.6029375315702 0.37893033360933259 0.0098556793400946807 -0.0094648504971246439 0.0098556793400946807 -2499.7452288690765 0.00092107544014652376 -0.0094648504971246439 0.00092107544014652376 -9999.6235232361687 0.38663108451737571 -0.0019455904434539529 -0.00567038423264421 -0.0019455904434539529 -2499.7481423678546 0.0029207082020548114 -0.00567038423264421 0.0029207082020548114 -9999.6234606153466 0.37355676281663364 -0.0019941211561356961 0.00056707857766014058 -0.0019941211561356961 -2499.7530731737397 0.0030025913556528394 0.00056707857766014058 0.0030025913556528394 -9999.6314553289631 0.3786534442951961 -7.5813131778811049e-05 0.0026223733084407286 -7.5813131778811049e-05 -2499.7369289623275 0.0098872249272972113 0.0026223733084407286 0.0098872249272972113 -9999.6281866635254 0.38669913960256963 -0.015055642315233087 0.0016336411417796626 -0.015055642315233087 -2499.7112112063151 0.00031982607924874173 0.0016336411417796626 0.00031982607924874173 -9999.6173896691762 0.39469731175267952 -0.014408640941780244 -0.0037104639677636442 -0.014408640941780244 -2499.7104954832676 0.0019031201109100948 -0.0037104639677636442 0.0019031201109100948 -9999.610552107144 0.3859394390950257 -0.0014716304191494563 -0.0054064703963376814 -0.0014716304191494563 -2499.748114388442 0.0032220708271779586 -0.0054064703963376814 0.0032220708271779586 -9999.6220834956257 0.37924559028240878 0.0094286419991158887 -0.009260698665457312 0.0094286419991158887 -2499.7431211365315 0.002143677901585761 -0.009260698665457312 0.002143677901585761 -9999.6223623401729 0.39428471322344194 -0.010026646001122783 -0.00097572583035798743 -0.010026646001122783 -2499.7265371006561 0.014172894711919071 -0.00097572583035798743 0.014172894711919071 -9999.621261670387 0.37465637548484665 -0.0023426927435797225 0.0061150338196966914 -0.0023426927435797225 -2499.7615829311198 -0.0058472956375226204 0.0061150338196966914 -0.0058472956375226204 -9999.6646927115071 0.3800055648534908 -0.0098688980191503073 0.00010734337820395012 -0.0098688980191503073 -2499.7670881728545 0.0043015129081140913 0.00010734337820395012 0.0043015129081140913 -9999.6435810241564 0.37945529086846363 -0.005077971965987485 0.015698891844222518 -0.005077971965987485 -2499.7099904866436 -0.12502542851482873 0.015698891844222518 -0.12502542851482873 -9999.551543642101 0.41125897770371012 -0.018234790618410143 0.0091911763224743481 -0.018234790618410143 -2499.7205158130096 -0.025708390789077384 0.0091911763224743481 -0.025708390789077384 -9999.5686718281086 0.35846309163184742 -0.0067518086213082112 0.047015492814125537 -0.0067518086213082112 -2499.7823233127442 -0.068038514112686244 0.047015492814125537 -0.068038514112686244 -9999.6831619968325 0.37471606844337657 -0.0076482266442090344 0.067659175345691741 -0.0076482266442090344 -2499.753886021188 -0.041302674208327561 0.067659175345691741 -0.041302674208327561 -9999.6116445041698 0.37901690429089285 0.00025763594246984781 0.0073504912829776003 0.00025763594246984781 -2499.7535788893961 0.016893717680659392 0.0073504912829776003 0.016893717680659392 -9999.6678854435777 0.34554269663567538 -0.010946568204680283 0.034053986197503688 -0.010946568204680283 -2499.7792243097974 0.051789487766073561 0.034053986197503688 0.051789487766073561 -9999.7113806219313 0.31932991949724965 -0.0046080399114160724 0.0067234698963147821 -0.0046080399114160724 -2499.8389545002719 -0.018997483498424117 0.0067234698963147821 -0.018997483498424117 -9999.8160896927784 0.36712295068082312 -0.0073405843013092109 0.0059453474132169504 -0.0073405843013092109 -2499.7566905772755 0.0099675981077780307 0.0059453474132169504 0.0099675981077780307 -9999.6627497614536 0.35238140557567021 -0.0030261119226034465 0.029703155753850297 -0.0030261119226034465 -2499.7817986217797 0.05853003704609705 0.029703155753850297 0.05853003704609705 -9999.7344383070031 0.38342985953545394 -0.0047682726422533933 -0.0069967462213753606 -0.0047682726422533933 -2499.7548092848729 0.0061151758432060888 -0.0069967462213753606 0.0061151758432060888 -9999.6538483949444 0.3929570848692947 -0.0021090858398611044 0.00029538189437516849 -0.0021090858398611044 -2499.7402064279986 0.027168986327978928 0.00029538189437516849 0.027168986327978928 -9999.6358173403642 0.35500650298718028 0.0078987736290958392 -0.083401341833109655 0.0078987736290958392 -2499.8116246000909 -0.036255395705211413 -0.083401341833109655 -0.036255395705211413 -9999.7621088299456 0.39119495222848855 0.0076855956519919985 -0.064979550513513173 0.0076855956519919985 -2499.7537286369347 0.049026698030026183 -0.064979550513513173 0.049026698030026183 -9999.6690420281047 0.39405037373853702 -0.0048274493816004918 -0.075661486570392858 -0.0048274493816004918 -2499.7355303219902 -0.086773397671954688 -0.075661486570392858 -0.086773397671954688 -9999.643780520988 0.39417291507515984 0.0010163466957115869 -0.010476263683813158 0.0010163466957115869 -2499.6989663223526 -0.040932997403160698 -0.010476263683813158 -0.040932997403160698 -9999.5713252305068 0.37316548372746183 0.015803935387723178 -0.025345596910028689 0.015803935387723178 -2499.765532736129 -0.0058954053192792344 -0.025345596910028689 -0.0058954053192792344 -9999.6355844161553 0.37504119101640754 0.012222175038549644 -0.024673213715232123 0.012222175038549644 -2499.7586324880863 0.0091119436046938063 -0.024673213715232123 0.0091119436046938063 -9999.633309245588 0.38498477775777928 -0.010142291548437956 -0.011111657931451191 -0.010142291548437956 -2499.7677141009449 0.015104918499218911 -0.011111657931451191 0.015104918499218911 -9999.6384180645764 0.35409212351078168 0.0051533381994824344 -0.009156462711871427 0.0051533381994824344 -2499.7669189637345 -0.02222889769836911 -0.009156462711871427 -0.02222889769836911 -9999.6870693057699 0.38067673557543458 0.024528467526022994 0.0025141322346371453 0.024528467526022994 -2499.7568081416289 0.018191187052252644 0.0025141322346371453 0.018191187052252644 -9999.5757445130239 0.38504017707691673 0.0060676141862386034 0.0018891088202508399 0.0060676141862386034 -2499.7353612234074 -0.027318400259673581 0.0018891088202508399 -0.027318400259673581 -9999.5886833445784 0.44841588010194755 0.0010547312056663066 -0.036719839444194657 0.0010547312056663066 -2499.6902949658315 -0.044219565520167037 -0.036719839444194657 -0.044219565520167037 -9999.5310935458765 0.37338050480229867 0.00081121451054518359 0.0078470402615948842 0.00081121451054518359 -2499.7533152378437 -0.018458822873981262 0.0078470402615948842 -0.018458822873981262 -9999.6080697955458 0.37013246003925815 0.0037005164611663213 0.015802111834823551 0.0037005164611663213 -2499.7302386373158 -0.079711613997238598 0.015802111834823551 -0.079711613997238598 -9999.6394848048949 0.42372011610079102 -0.010248006532390247 0.0041594387736201138 -0.010248006532390247 -2499.6816053727421 -0.088030589181428476 0.0041594387736201138 -0.088030589181428476 -9999.4819377481926 0.43289661845365107 -0.0032046421792006549 0.014884786363723979 -0.0032046421792006549 -2499.6628427864293 -0.077762778670796812 0.014884786363723979 -0.077762778670796812 -9999.4629858906428 0.37495389876676199 -0.0080022629304569992 -0.003905414580458455 -0.0080022629304569992 -2499.7709957135485 -0.041287523848950514 -0.003905414580458455 -0.041287523848950514 -9999.5815921528429 0.36544081589408961 -0.0057137411017097305 -0.003106812996577446 -0.0057137411017097305 -2499.7749647454025 -0.030559743905087089 -0.003106812996577446 -0.030559743905087089 -9999.6188132324914 0.38199982156857004 0.00060606106281393957 0.0038297365863400046 0.00060606106281393957 -2499.7328957325726 -0.0057884994880623708 0.0038297365863400046 -0.0057884994880623708 -9999.616321716574 0.36090969015594965 0.0072198922386065706 -0.0034872147871283232 0.0072198922386065706 -2499.7436099376559 -0.00089747888114288799 -0.0034872147871283232 -0.00089747888114288799 -9999.6292158400975 0.37564005291096692 -0.025609792870212651 0.0045525483174060355 -0.025609792870212651 -2499.7419299690155 -0.00065005844135157531 0.0045525483174060355 -0.00065005844135157531 -9999.5940337722132 0.37539454878060496 0.0006219920028310566 0.0052052307660233055 0.0006219920028310566 -2499.7690025457969 -0.034897514743306601 0.0052052307660233055 -0.034897514743306601 -9999.620479887697 0.37036133554761363 0.0053216135323456565 -0.013436270041893295 0.0053216135323456565 -2499.733139007415 -0.0047285182934047043 -0.013436270041893295 -0.0047285182934047043 -9999.5903322956401 0.37771485697203389 0.012184019413054289 0.0076844002001053013 0.012184019413054289 -2499.7858662687063 -0.01371304960366615 0.0076844002001053013 -0.01371304960366615 -9999.6395348439582 0.37322394193324726 -0.021929977155376063 0.0027321177476551384 -0.021929977155376063 -2499.753775668853 0.008887681791520663 0.0027321177476551384 0.008887681791520663 -9999.6206968792994 0.38765351034214746 0.0076941508054230862 -0.015432980412697361 0.0076941508054230862 -2499.7365209590421 -0.004239784156652604 -0.015432980412697361 -0.004239784156652604 -9999.586611217881 0.38711625699204433 0.0081078585789368385 -0.0045344275822571944 0.0081078585789368385 -2499.7380615027851 0.00022894771791470703 -0.0045344275822571944 0.00022894771791470703 -9999.6082296229615 0.37864696696487954 -0.019353442859325012 0.0027746960568038048 -0.019353442859325012 -2499.7339942919552 0.017478375128121115 0.0027746960568038048 0.017478375128121115 -9999.608354144264 0.37458943119281685 -0.0017824349540394857 0.005417740581833641 -0.0017824349540394857 -2499.7483519701746 0.0037746414936918882 0.005417740581833641 0.0037746414936918882 -9999.6281857257491 0.37500550866252524 -0.0011483905906483423 0.0079630708642639547 -0.0011483905906483423 -2499.7531247517818 0.00084813386547466507 0.0079630708642639547 0.00084813386547466507 -9999.6291532556152 0.37578777077123959 -0.0021168207554464543 0.007196682121957565 -0.0021168207554464543 -2499.7497498785478 0.0015352321652244427 0.007196682121957565 0.0015352321652244427 -9999.6303775928227 0.36848602651343754 -0.0030621131433589211 0.010365543972056912 -0.0030621131433589211 -2499.7481995563453 0.0042608160692907404 0.010365543972056912 0.0042608160692907404 -9999.6034316454788 0.3904455224362664 -0.0029608812475711284 0.0075290859490451112 -0.0029608812475711284 -2499.7256741765173 -0.0032273177157549071 0.0075290859490451112 -0.0032273177157549071 -9999.5380324950729 0.37380195801461014 -0.0021813684456160956 0.11275776982521885 -0.0021813684456160956 -2499.7339466563535 0.035464925906247474 0.11275776982521885 0.035464925906247474 -9999.6078405016942 0.37823748573606508 0.0031581829943298084 -0.014073386128529819 0.0031581829943298084 -2499.741030537059 0.013423914443592366 -0.014073386128529819 0.013423914443592366 -9999.552201978282 0.36611389505105763 -0.00053305510464190554 0.097869484241073224 -0.00053305510464190554 -2499.7529090067655 0.059642972022174945 0.097869484241073224 0.059642972022174945 -9999.6292934900175 0.38394223572402097 0.01165194591276008 -0.0022926137162357918 0.01165194591276008 -2499.7178167053444 0.026169675353116872 -0.0022926137162357918 0.026169675353116872 -9999.5624401902496 0.3695870584037948 0.0084745154209261708 0.025682184829747712 0.0084745154209261708 -2499.7367468438824 -0.065011748285996873 0.025682184829747712 -0.065011748285996873 -9999.6716129318102 0.35403489237887698 0.0094534385823769052 -0.015003445846559771 0.0094534385823769052 -2499.7708120935049 -0.0016525095675206103 -0.015003445846559771 -0.0016525095675206103 -9999.7242511404929 0.40689639427409929 0.0050733338339590322 -0.025729731853868204 0.0050733338339590322 -2499.7262791061785 -0.0117680041580705 -0.025729731853868204 -0.0117680041580705 -9999.59216795477 0.40711647805665052 -0.0048159020459619291 0.070234817128999344 -0.0048159020459619291 -2499.7279146636702 0.087802256160798897 0.070234817128999344 0.087802256160798897 -9999.5345252733987 0.33047932514296008 -2.999664872816582e-05 0.07642674073440503 -2.999664872816582e-05 -2499.7572420907491 0.051250278413135675 0.07642674073440503 0.051250278413135675 -9999.7547213799862 0.37917495254339428 -0.0055626822848145732 0.0053811748543921567 -0.0055626822848145732 -2499.7503160638425 0.011261208439464099 0.0053811748543921567 0.011261208439464099 -9999.6870268238217 0.33121398097227939 0.0057393556739765731 -0.0012250983634203294 0.0057393556739765731 -2499.7791488462894 -0.0018488364080440078 -0.0012250983634203294 -0.0018488364080440078 -9999.740498095849 0.34356642808006654 -0.0066399867697003907 0.066521203090563169 -0.0066399867697003907 -2499.7505630132737 0.031578342766832773 0.066521203090563169 0.031578342766832773 -9999.5731090651843 0.35545026706984117 0.00075596642780765416 0.026407758170989837 0.00075596642780765416 -2499.7642572727741 -0.0046756405881751562 0.026407758170989837 -0.0046756405881751562 -9999.7071764095854 0.36911364837442306 0.0019610971888575392 0.011068680345942994 0.0019610971888575392 -2499.7767480775683 0.0031665202502608736 0.011068680345942994 0.0031665202502608736 -9999.699410659392 0.36273569174773002 0.0023127917736366493 0.0084990105392535042 0.0023127917736366493 -2499.7511098114787 -0.025934831364793354 0.0084990105392535042 -0.025934831364793354 -9999.6860773190128 0.3777481641977829 -0.0090071515626200926 -0.00025860939234628733 -0.0090071515626200926 -2499.7448059577914 0.064240904206133209 -0.00025860939234628733 0.064240904206133209 -9999.5663925993704 0.3532236057362752 0.0063090469672192426 0.026578605858730953 0.0063090469672192426 -2499.7730864337964 -0.056654885985608416 0.026578605858730953 -0.056654885985608416 -9999.7010036286483 0.37214414924073935 0.0054381622015498288 -0.01157929147546144 0.0054381622015498288 -2499.7277139807575 -0.070433888347278373 -0.01157929147546144 -0.070433888347278373 -9999.6262966850773 0.3771945445023448 0.0018795702349983495 0.013109388530214178 0.0018795702349983495 -2499.7704942868054 -0.075805191329189725 0.013109388530214178 -0.075805191329189725 -9999.6083156621389 0.32272097034137914 0.0066067385613775417 0.071048081681325648 0.0066067385613775417 -2499.8051297891352 0.020883865550204411 0.071048081681325648 0.020883865550204411 -9999.7932528923047 0.39314519743493292 0.0048951553196970587 0.0047697076785766512 0.0048951553196970587 -2499.7334521734247 -0.0075386945220543566 0.0047697076785766512 -0.0075386945220543566 -9999.6060669292856 0.38265337719076342 0.00097393750459593461 0.0075560154670029078 0.00097393750459593461 -2499.7477359189697 -0.00014035767253517406 0.0075560154670029078 -0.00014035767253517406 -9999.6313737562887 0.38487516969917124 0.0033273438054302502 0.0099173683788791323 0.0033273438054302502 -2499.7453387598193 0.0020168658397778927 0.0099173683788791323 0.0020168658397778927 -9999.6251333802029 0.38260207352141151 0.0028468633523082696 0.0053303860977962358 0.0028468633523082696 -2499.7431876856645 0.0058351701118226629 0.0053303860977962358 0.0058351701118226629 -9999.6263490613437 0.37499331646222345 0.00071895290377004331 0.00093056835157767637 0.00071895290377004331 -2499.7455810813785 -0.0010704195219659596 0.00093056835157767637 -0.0010704195219659596 -9999.6430529731624 0.3956716798124944 -0.0044243772707283704 0.0065681719784151937 -0.0044243772707283704 -2499.7353126494709 0.0059515827319955861 0.0065681719784151937 0.0059515827319955861 -9999.6332024324929 0.39289504853354629 0.0062808823403609996 0.0060453208537865066 0.0062808823403609996 -2499.7217971765367 -0.0077102620625737472 0.0060453208537865066 -0.0077102620625737472 -9999.6188566309374 0.3776228425122099 -0.00019060341989974748 0.0032165822717615811 -0.00019060341989974748 -2499.7512958999496 -0.00082183733138663229 0.0032165822717615811 -0.00082183733138663229 -9999.6418477731931 0.36827361653922708 -0.0022910065708111813 0.0068441170560618048 -0.0022910065708111813 -2499.7546740943471 -0.015921527816317393 0.0068441170560618048 -0.015921527816317393 -9999.6555510377075 0.37876454523484426 0.00210217711632971 0.0026881443473030231 0.00210217711632971 -2499.7433813011053 -0.012599737996424665 0.0026881443473030231 -0.012599737996424665 -9999.6278879371821 0.39399177919676731 0.0024308011426766099 0.0031138275026023621 0.0024308011426766099 -2499.7186338181164 0.0017007325341182877 0.0031138275026023621 0.0017007325341182877 -9999.591741552922 0.37238942054045765 0.0062262401398254352 0.0091725456875337841 0.0062262401398254352 -2499.7478953746768 -0.0057161097429911933 0.0091725456875337841 -0.0057161097429911933 -9999.6462158241193 0.36858897215370234 0.023607032031413126 -0.0021649383903650232 0.023607032031413126 -2499.780462113371 -0.014742001123067894 -0.0021649383903650232 -0.014742001123067894 -9999.6434147410837 0.37469957785469887 0.0056382146361478053 0.0098100040719373283 0.0056382146361478053 -2499.7450063262868 -0.012930689337224521 0.0098100040719373283 -0.012930689337224521 -9999.6402525289304 0.37531692393667981 -0.0030850784177748197 0.00064946908332785824 -0.0030850784177748197 -2499.7479617745948 -0.016965860900540974 0.00064946908332785824 -0.016965860900540974 -9999.6333359386299 0.38562202061439166 0.013262863830943591 0.0023395017633447424 0.013262863830943591 -2499.7422169198126 -0.0016239762953773607 0.0023395017633447424 -0.0016239762953773607 -9999.5989107352307 0.38652576765616686 0.023368031131852818 -0.0020661944708990632 0.023368031131852818 -2499.7441538329385 0.0039173797758849105 -0.0020661944708990632 0.0039173797758849105 -9999.6060375871402 0.39239079560229584 0.0064426323797279611 0.011071614188949752 0.0064426323797279611 -2499.7159169769939 0.003916269815817941 0.011071614188949752 0.003916269815817941 -9999.5988295325278 0.39271518801706407 0.024150467277755827 -0.0052310800328996265 0.024150467277755827 -2499.7522436116815 -0.030386528424514836 -0.0052310800328996265 -0.030386528424514836 -9999.5751715237056 0.37443736251498194 -0.00029683461250290272 -0.0035428612213763699 -0.00029683461250290272 -2499.7545950537078 -0.015616773318470223 -0.0035428612213763699 -0.015616773318470223 -9999.5767517135537 0.40224802280272343 -0.0062108894488300467 0.016276616722734616 -0.0062108894488300467 -2499.7358526972516 -0.028499479001993677 0.016276616722734616 -0.028499479001993677 -9999.5422120711755 0.39055433172211451 -0.0065015600738117657 0.0098359238163538976 -0.0065015600738117657 -2499.7456919401802 -0.02584319382413014 0.0098359238163538976 -0.02584319382413014 -9999.574324567544 0.35841742131242427 -0.00055589750275216593 -0.0061787771372223688 -0.00055589750275216593 -2499.7761794964713 -0.031235872293109423 -0.0061787771372223688 -0.031235872293109423 -9999.6201637272297 0.38032217392242273 0.002576905595556133 0.0082317567280369985 0.002576905595556133 -2499.7685580363072 -0.072789613541090148 0.0082317567280369985 -0.072789613541090148 -9999.5982876979833 0.42239591265229137 0.0041084331659204942 -0.012170323834652663 0.0041084331659204942 -2499.6928972198057 -0.094794907522217753 -0.012170323834652663 -0.094794907522217753 -9999.4488480781729 0.44522691190919328 -0.01024321163945735 -0.014860546971089572 -0.01024321163945735 -2499.6717958833433 -0.096926934406457721 -0.014860546971089572 -0.096926934406457721 -9999.4464840521669 0.37216575503953209 -0.010702530472784293 -0.01125946409102685 -0.010702530472784293 -2499.7529362817231 -0.070541913686108626 -0.01125946409102685 -0.070541913686108626 -9999.6325870682067 0.38165450227188558 -0.019116424842733609 -0.0070670174231963756 -0.019116424842733609 -2499.731619773198 -0.026684823127197888 -0.0070670174231963756 -0.026684823127197888 -9999.6032293358221 0.44614076513880718 -0.0021591219968164557 0.042001190231053143 -0.0021591219968164557 -2499.6811306058289 -0.046642236068870802 0.042001190231053143 -0.046642236068870802 -9999.534516446558 0.44546209434460227 -0.013436250155018377 -0.019834219655059826 -0.013436250155018377 -2499.6599034655542 -0.082607280347805123 -0.019834219655059826 -0.082607280347805123 -9999.4267677338721 0.40958679392588238 0.0023744571735174677 0.019802626742603024 0.0023744571735174677 -2499.7196240178068 -0.021963058915389411 0.019802626742603024 -0.021963058915389411 -9999.5316585878336 0.40610162735174526 -0.014554870076760165 0.041558209173672367 -0.014554870076760165 -2499.7668153659347 0.012348111952178442 0.041558209173672367 0.012348111952178442 -9999.6149744528429 0.35025344895484523 -0.018618697713357009 0.046316672148577709 -0.018618697713357009 -2499.8383328582677 -0.035899174402402423 0.046316672148577709 -0.035899174402402423 -9999.7864364756642 0.39868530077291098 0.0057653535539095267 -0.012293047810999269 0.0057653535539095267 -2499.7826730582801 0.023229194517170981 -0.012293047810999269 0.023229194517170981 -9999.6418081887023 0.415717738361991 0.0046446523535308842 0.032666963904830482 0.0046446523535308842 -2499.7536754164248 -0.11219517671383983 0.032666963904830482 -0.11219517671383983 -9999.5731310501978 0.4080671325726517 0.029424722225905142 0.093465559280578814 0.029424722225905142 -2499.6957341037669 -0.06624221382415979 0.093465559280578814 -0.06624221382415979 -9999.452447663798 0.33980678485795579 0.015872831312135204 0.096540593206922612 0.015872831312135204 -2499.776443923748 0.033563506854907443 0.096540593206922612 0.033563506854907443 -9999.6877046934333 0.34359051951832953 0.0038821327204472938 0.099463664162385612 0.0038821327204472938 -2499.7767439016257 0.010968551153837325 0.099463664162385612 0.010968551153837325 -9999.7073251446946 0.4008431687261691 0.005047393215047595 -0.02366985436719915 0.005047393215047595 -2499.7397877748981 0.0074683031411950651 -0.02366985436719915 0.0074683031411950651 -9999.6139521286277 0.40586359819178597 -0.0012789256991300318 -0.019826378128527722 -0.0012789256991300318 -2499.7343949251099 -0.0059535479890655552 -0.019826378128527722 -0.0059535479890655552 -9999.6195812508322 0.37078678203351956 0.017173638910169944 -0.033118460104788028 0.017173638910169944 -2499.779312609392 0.076002273709491419 -0.033118460104788028 0.076002273709491419 -9999.7033066017557 0.4157319142104825 0.0061086923096887284 0.007730888421065174 0.0061086923096887284 -2499.73728358277 -0.00077817418696213281 0.007730888421065174 -0.00077817418696213281 -9999.612384198259 0.34332890805308125 0.0017656335147714607 -0.0073280529109069903 0.0017656335147714607 -2499.8537285063967 -0.025168125916025019 -0.0073280529109069903 -0.025168125916025019 -9999.8114273497577 0.33108345890741475 -0.00033335745532393768 -0.058775679535372105 -0.00033335745532393768 -2499.7996691080589 0.032241852134215203 -0.058775679535372105 0.032241852134215203 -9999.7738253929492 0.35440677104143925 -0.001300720427738794 -0.037234320027825688 -0.001300720427738794 -2499.7857351505427 -0.083532139466475447 -0.037234320027825688 -0.083532139466475447 -9999.6774887517877 0.39744216151829964 0.0077271870420783997 0.0014532275713863008 0.0077271870420783997 -2499.705923686754 -0.026456555211098021 0.0014532275713863008 -0.026456555211098021 -9999.538358007736 0.38644559037093967 -0.01200255522186381 -0.062209582300364552 -0.01200255522186381 -2499.7177395506837 -0.040578486929022717 -0.062209582300364552 -0.040578486929022717 -9999.5809462969719 0.33469320806671021 0.018728288019347415 -0.010477385321868926 0.018728288019347415 -2499.7397407735002 -0.14314304417855317 -0.010477385321868926 -0.14314304417855317 -9999.53792248844 0.37730124006304777 0.0023934349276884953 -0.011860724718644633 0.0023934349276884953 -2499.7741996172867 0.02598313771386529 -0.011860724718644633 0.02598313771386529 -9999.6443145251415 0.37097729133438406 -0.012473824673888551 -0.019663065055283369 -0.012473824673888551 -2499.7464093410099 -0.0034896725214821345 -0.019663065055283369 -0.0034896725214821345 -9999.6298109371546 0.39558834474019022 -0.013033366299446805 -0.0025288219078447582 -0.013033366299446805 -2499.7508104131252 -0.0099144007385802979 -0.0025288219078447582 -0.0099144007385802979 -9999.6040440446577 0.37900391300468073 -0.0017661291872817508 0.011576623329347058 -0.0017661291872817508 -2499.7351808099747 -0.012144381489633815 0.011576623329347058 -0.012144381489633815 -9999.6377914361765 0.38259298645652962 -0.0034628750967941324 -0.0037429904691634874 -0.0034628750967941324 -2499.7349173515126 -0.01027542249266844 -0.0037429904691634874 -0.01027542249266844 -9999.6422544167945 0.38449595481870347 -0.0062536181251908532 -0.007037315362595109 -0.0062536181251908532 -2499.7299742478745 0.010345076903831796 -0.007037315362595109 0.010345076903831796 -9999.6436881659611 0.3861061159836936 -0.011915251098822525 0.004486808918954921 -0.011915251098822525 -2499.7486540738214 -0.015348239310696954 0.004486808918954921 -0.015348239310696954 -9999.6197325326175 0.38341713388581411 -0.016337722885865991 0.0053535738352366025 -0.016337722885865991 -2499.7436631302762 -0.014510132205032278 0.0053535738352366025 -0.014510132205032278 -9999.6194346624961 0.3886490637460156 -0.010559344672405373 0.0039635511866435991 -0.010559344672405373 -2499.745674249245 -0.015902065495538409 0.0039635511866435991 -0.015902065495538409 -9999.6181396572592 0.37947874559358752 -0.0020297984591695767 0.0011092529493907932 -0.0020297984591695767 -2499.7639159486389 -0.0042000119306067063 0.0011092529493907932 -0.0042000119306067063 -9999.6321874489913 0.37735367157654309 -0.0027324078075844464 0.0014066246776565094 -0.0027324078075844464 -2499.7650132172034 -0.0039910381237859838 0.0014066246776565094 -0.0039910381237859838 -9999.633045772518 0.383436926840659 -0.003909659124386157 0.00021820412075612694 -0.003909659124386157 -2499.7451500793231 0.00090674145940283779 0.00021820412075612694 0.00090674145940283779 -9999.6280958861571 0.37554093908102004 0.00053194527061767912 -0.01266277087643175 0.00053194527061767912 -2499.7501950822639 0.012376996575781618 -0.01266277087643175 0.012376996575781618 -9999.6479402610184 0.38667066992729815 -0.0049979931433525235 -0.006539640197843255 -0.0049979931433525235 -2499.7371747898401 0.0057928290689233108 -0.006539640197843255 0.0057928290689233108 -9999.6221033931979 0.38217020184765715 -0.0023939659759279301 -0.0032073116863102769 -0.0023939659759279301 -2499.7369358284295 -1.1541105777723715e-05 -0.0032073116863102769 -1.1541105777723715e-05 -9999.6358331486172 0.37985983097223652 -0.0036808862233473662 -0.0026883443642873317 -0.0036808862233473662 -2499.7420180859508 0.0010533694012337946 -0.0026883443642873317 0.0010533694012337946 -9999.6375596846046 0.38850371935041039 -0.0038611893120658325 -0.0068022403343093174 -0.0038611893120658325 -2499.732472455662 0.0052683125522889895 -0.0068022403343093174 0.0052683125522889895 -9999.6214190604551 0.38386654859777991 -0.0032235416791655705 -0.0076419898056201419 -0.0032235416791655705 -2499.7355650077075 -0.00058857435669779079 -0.0076419898056201419 -0.00058857435669779079 -9999.6377559673674 0.37745961938344408 -0.003646386066317479 -0.0039904104730794643 -0.003646386066317479 -2499.743649441747 0.002545097140227881 -0.0039904104730794643 0.002545097140227881 -9999.653775330753 0.37672902410486131 -0.0032996602021485907 -0.0049680219987067176 -0.0032996602021485907 -2499.7391971323786 0.0017391171115832549 -0.0049680219987067176 0.0017391171115832549 -9999.6605962131925 0.38053750858489366 -0.0010590338181433348 -0.0065787171834017499 -0.0010590338181433348 -2499.742344662106 0.0044234232263988815 -0.0065787171834017499 0.0044234232263988815 -9999.6208645020815 0.38425195247737065 -0.00045233436470943885 -0.0057274617629445856 -0.00045233436470943885 -2499.7386545384174 0.011329214662509912 -0.0057274617629445856 0.011329214662509912 -9999.6101713340031 0.37747268798648292 0.0041997369121279616 -0.0092615724288407364 0.0041997369121279616 -2499.7467286433744 0.011127812544174276 -0.0092615724288407364 0.011127812544174276 -9999.6329292477203 0.37157906497623117 -0.0057691087131833477 -0.005188751316836715 -0.0057691087131833477 -2499.7488482043964 -0.00082891271904372843 -0.005188751316836715 -0.00082891271904372843 -9999.6957231691031 0.39041325564835461 -0.0056520242872766351 -0.012310186650665855 -0.0056520242872766351 -2499.7245532751376 0.0080738214710436296 -0.012310186650665855 0.0080738214710436296 -9999.6235619516265 0.38032122854383488 0.0057632583582834969 -0.022559635621746565 0.0057632583582834969 -2499.7357245311841 0.024742097395233031 -0.022559635621746565 0.024742097395233031 -9999.6004557894848 0.33202389309644786 -0.0086988541261381024 -0.055789235655993252 -0.0086988541261381024 -2499.768598799169 0.0035967215162600041 -0.055789235655993252 0.0035967215162600041 -9999.7396082201776 0.35842346899139699 -0.0078211370718718198 -0.032032066413648863 -0.0078211370718718198 -2499.7670629695508 -0.0022586160489481699 -0.032032066413648863 -0.0022586160489481699 -9999.7545329064305 0.38872106686267216 -0.0069321435858192421 -0.011356265945323685 -0.0069321435858192421 -2499.7326139350444 0.0078324253281607525 -0.011356265945323685 0.0078324253281607525 -9999.6238918184135 0.33091002407672931 0.013079747288473682 -0.037562546801287067 0.013079747288473682 -2499.7716580556507 0.064460932787340441 -0.037562546801287067 0.064460932787340441 -9999.6622264142588 0.35886760886705815 0.01343372704226831 -0.020098294875879219 0.01343372704226831 -2499.7705408652923 0.023243384217096263 -0.020098294875879219 0.023243384217096263 -9999.6495645295545 0.31672847393792836 0.010579384017039922 -0.070268992354930393 0.010579384017039922 -2499.7934333498288 0.024730356351318289 -0.070268992354930393 0.024730356351318289 -9999.7007429635159 0.35876636840794163 0.0077470034657642906 0.010606588376495862 0.0077470034657642906 -2499.7719904601759 -0.080450193666886716 0.010606588376495862 -0.080450193666886716 -9999.6032126442933 0.35977694204254451 0.020298375711236182 -0.039506583059979172 0.020298375711236182 -2499.7650711841479 0.020859759202424666 -0.039506583059979172 0.020859759202424666 -9999.5887352170539 0.37601371409407858 -0.0073286079153827097 -0.016718122564923818 -0.0073286079153827097 -2499.7573840195955 -0.026957503177598346 -0.016718122564923818 -0.026957503177598346 -9999.6729676451087 0.3388154876680235 0.012761507536771199 -0.028580479751513677 0.012761507536771199 -2499.7640741730011 0.025601082639920836 -0.028580479751513677 0.025601082639920836 -9999.6043560093731 0.35652819502229249 0.0060650178883541375 -0.020808875764259938 0.0060650178883541375 -2499.7384377168405 0.011822423683952366 -0.020808875764259938 0.011822423683952366 -9999.5782285573878 0.37246286893559954 0.0079234533818918658 -0.038476935383049138 0.0079234533818918658 -2499.7255632789347 0.043167510486989691 -0.038476935383049138 0.043167510486989691 -9999.5230883780096 0.3930728923096467 0.0072825902502425127 -0.0079569985773559893 0.0072825902502425127 -2499.7686833494563 -0.09676518811807 -0.0079569985773559893 -0.09676518811807 -9999.5804998343592 0.35982219604238708 0.0048895002286187539 -0.030702007239163179 0.0048895002286187539 -2499.711347544503 0.043121595189994477 -0.030702007239163179 0.043121595189994477 -9999.5287568832882 0.3656217033685607 0.014820867707707592 -0.010596356355790704 0.014820867707707592 -2499.7453865480684 0.0061659088755732228 -0.010596356355790704 0.0061659088755732228 -9999.466405782543 0.40541728961360946 0.013856349877101342 -8.9282649867072905e-05 0.013856349877101342 -2499.7434301803705 0.031192717963676841 -8.9282649867072905e-05 0.031192717963676841 -9999.5600701469775 0.34916336791184222 -0.0013664290048715855 -0.033017090759338452 -0.0013664290048715855 -2499.7422792484922 0.0472179007824024 -0.033017090759338452 0.0472179007824024 -9999.6493870830873 0.3854180318685394 -0.0059248228200517294 -0.0092102534995319729 -0.0059248228200517294 -2499.7248541781341 0.042773594324671649 -0.0092102534995319729 0.042773594324671649 -9999.6208622395607 0.39634828621092311 0.0028657020945513259 -0.0067838436493730114 0.0028657020945513259 -2499.7559844208872 0.020523533623645562 -0.0067838436493730114 0.020523533623645562 -9999.5374386740732 0.37816201418308992 -0.00025678923015304105 -0.017336789702767419 -0.00025678923015304105 -2499.7705272225417 0.0048479390752618201 -0.017336789702767419 0.0048479390752618201 -9999.5798057110678 0.36287665398289792 -0.00055659169164688424 0.012159651193695387 -0.00055659169164688424 -2499.6985334325946 -0.037041966994701581 0.012159651193695387 -0.037041966994701581 -9999.5414976654611 0.36477330300022154 -0.023036026850763853 -0.026914512342947422 -0.023036026850763853 -2499.7613445426546 -0.082294373481970939 -0.026914512342947422 -0.082294373481970939 -9999.4597532233129 0.35225865769052689 -0.040735093638955583 -0.047202366432384346 -0.040735093638955583 -2499.7435642502351 -0.020789083422641852 -0.047202366432384346 -0.020789083422641852 -9999.5668251808384 0.37449477947427567 0.030646785768536841 0.021867419919544773 0.030646785768536841 -2499.722371971613 -0.0046104062080303265 0.021867419919544773 -0.0046104062080303265 -9999.6377510413549 0.38653679294793619 0.012799714503293001 0.047759498305143477 0.012799714503293001 -2499.7495607099172 -0.077788578408992198 0.047759498305143477 -0.077788578408992198 -9999.5193698357198 0.38121124352937841 -0.0072158091226630187 -0.021431869004572945 -0.0072158091226630187 -2499.7368036559014 -0.043073836501662299 -0.021431869004572945 -0.043073836501662299 -9999.6060140768423 0.37402517920827449 -0.010750133435954155 -0.017336682423774619 -0.010750133435954155 -2499.7616641811342 -0.039270232470300925 -0.017336682423774619 -0.039270232470300925 -9999.7002106029831 0.3975749468204981 -0.0019473772617670995 -0.0034789139781423728 -0.0019473772617670995 -2499.7643217761392 -0.022836037523120467 -0.0034789139781423728 -0.022836037523120467 -9999.6527873732612 0.36521929888272098 0.0026369762519693387 -0.0098899229817561718 0.0026369762519693387 -2499.8118416639786 0.0053474270102924493 -0.0098899229817561718 0.0053474270102924493 -9999.7496789093584 0.33571952078909817 0.013971852578456387 0.059079158605612747 0.013971852578456387 -2499.7872770083854 0.03788905398823772 0.059079158605612747 0.03788905398823772 -9999.6854379937577 0.37720093481368622 0.0011876609663837578 -0.0077125863936089445 0.0011876609663837578 -2499.7573789773337 -0.020646398504595709 -0.0077125863936089445 -0.020646398504595709 -9999.657259001915 0.36771218806416073 0.0047440781281374508 -0.015718751885287929 0.0047440781281374508 -2499.7414143427 -0.0036565272439474938 -0.015718751885287929 -0.0036565272439474938 -9999.6350818846331 0.32643048808248565 -0.011274872054508625 -0.020057194344979989 -0.011274872054508625 -2499.707855524869 0.093266668262047603 -0.020057194344979989 0.093266668262047603 -9999.5864601181602 0.39159442234865377 -0.0020472935062441425 0.0017918891712485341 -0.0020472935062441425 -2499.7093380165929 0.01581242911015579 0.0017918891712485341 0.01581242911015579 -9999.579782101855 0.34395285057907854 -0.024796963933309372 -0.051237933607236608 -0.024796963933309372 -2499.7422901863206 0.0055005672798531524 -0.051237933607236608 0.0055005672798531524 -9999.5442181072031 0.36413651507954303 0.0022233319696849038 -0.023239441813507289 0.0022233319696849038 -2499.7527133715685 0.048802483947664094 -0.023239441813507289 0.048802483947664094 -9999.6646788678481 0.38693077900298017 0.022107143914362352 0.0088262871002800572 0.022107143914362352 -2499.6871670481719 0.027842804712275238 0.0088262871002800572 0.027842804712275238 -9999.600475129495 0.35237842203896885 0.0025761405847041403 0.046748172383927721 0.0025761405847041403 -2499.7380945624272 0.058304075633485497 0.046748172383927721 0.058304075633485497 -9999.6554644333955 0.37683013515763264 0.0047641879983091953 -0.0010565958855295321 0.0047641879983091953 -2499.733550966665 0.0061337699702050941 -0.0010565958855295321 0.0061337699702050941 -9999.63344196857 0.37118411496658155 0.03343758651423321 0.020520713868734219 0.03343758651423321 -2499.7364447399159 0.0065415349140494072 0.020520713868734219 0.0065415349140494072 -9999.6340476189835 0.39249037061120456 -0.011234040872090317 0.025577789744589158 -0.011234040872090317 -2499.7472345459564 0.010130309904003126 0.025577789744589158 0.010130309904003126 -9999.5947825204203 0.4258884404550099 0.0044948313504085194 0.044168620322160401 0.0044948313504085194 -2499.6994387558047 0.078865734739994559 0.044168620322160401 0.078865734739994559 -9999.5118923006066 0.39377012969741848 -0.010078315711730713 -0.006659544308426097 -0.010078315711730713 -2499.7316983282508 0.031595051924214301 -0.006659544308426097 0.031595051924214301 -9999.5468104442498 0.40021499031297536 -0.011122421979688511 0.018274347769670879 -0.011122421979688511 -2499.7472278492851 0.050353508599616459 0.018274347769670879 0.050353508599616459 -9999.5850682386172 0.41197759696160574 -0.0064455061744070202 0.025659644133156689 -0.0064455061744070202 -2499.7240887325211 0.0071905932932168071 0.025659644133156689 0.0071905932932168071 -9999.5392535353585 0.37253481294419544 -0.0060050918124233453 0.029694012116578961 -0.0060050918124233453 -2499.7709792246283 0.030823253653124993 0.029694012116578961 0.030823253653124993 -9999.6588093569444 0.36318452278374025 -0.0064426295649529525 -0.0034077567285457633 -0.0064426295649529525 -2499.7567598210926 -0.0013678957329830155 -0.0034077567285457633 -0.0013678957329830155 -9999.6442460056787 0.36137366034972729 -0.0093173745189974871 -0.0027488312269263737 -0.0093173745189974871 -2499.7580200130215 0.0080474392941641826 -0.0027488312269263737 0.0080474392941641826 -9999.6501065521279 0.36478325893541808 0.0056031244237644377 -0.051662971716510242 0.0056031244237644377 -2499.7612142467847 0.040869971742722555 -0.051662971716510242 0.040869971742722555 -9999.6207822489832 0.37432931672049108 0.0023944558076394104 -0.002237985136162024 0.0023944558076394104 -2499.7402828259446 0.014696714865976901 -0.002237985136162024 0.014696714865976901 -9999.6455429848429 0.36939566697219561 -0.0074759693214584179 -0.052486104429437304 -0.0074759693214584179 -2499.7444725032683 -0.010479771404534932 -0.052486104429437304 -0.010479771404534932 -9999.6175105408183 0.35841093633780474 -0.0028611186033431217 -0.02720444625385551 -0.0028611186033431217 -2499.7753287991432 0.025328815050861209 -0.02720444625385551 0.025328815050861209 -9999.666268880701 0.35322802818791388 -0.0027923198798087724 -0.024619662836926182 -0.0027923198798087724 -2499.7601731193272 -0.0037603556720569031 -0.024619662836926182 -0.0037603556720569031 -9999.7016580187337 0.37858386169054536 -0.0090616917069511246 0.010192418249980115 -0.0090616917069511246 -2499.7553985515578 0.017379958173175114 0.010192418249980115 0.017379958173175114 -9999.6948684907893 0.3751002149397209 0.00034279446716700343 0.0089155197288164345 0.00034279446716700343 -2499.7431504064498 -0.003643103245394741 0.0089155197288164345 -0.003643103245394741 -9999.6540536735756 0.3821207237665476 -0.0017676691848472299 0.010293946943534138 -0.0017676691848472299 -2499.7658535358073 0.0011680061206789105 0.010293946943534138 0.0011680061206789105 -9999.6594647711336 0.34946313545606245 0.0043142967146279536 0.059725163506897938 0.0043142967146279536 -2499.7376062374406 -0.008605009823373061 0.059725163506897938 -0.008605009823373061 -9999.5820413862384 0.38198712985922612 0.01533852328821738 -0.03251801848878591 0.01533852328821738 -2499.7303893094859 -0.055778118636823748 -0.03251801848878591 -0.055778118636823748 -9999.6043167032258 0.36577740288248606 -0.0017788243404656483 -0.045332533610470641 -0.0017788243404656483 -2499.7450582915017 0.042069316755319996 -0.045332533610470641 0.042069316755319996 -9999.6320731157248 0.38411243194059352 -0.0010731803808133769 0.0045054114476670293 -0.0010731803808133769 -2499.7459374497648 0.00089400928845861927 0.0045054114476670293 0.00089400928845861927 -9999.6224838334438 0.37961650865145202 2.5406412585075866e-05 0.0010377628450441989 2.5406412585075866e-05 -2499.7497400600973 0.0036565785921993665 0.0010377628450441989 0.0036565785921993665 -9999.6292045181272 0.38451882336357812 -0.0031862205354493598 0.0066546635534336929 -0.0031862205354493598 -2499.7446194063641 0.0010582167928987474 0.0066546635534336929 0.0010582167928987474 -9999.6247866028589 0.38941489659600848 -0.0035889309808733783 0.0063130080015980639 -0.0035889309808733783 -2499.7535036638451 0.0086554487822922965 0.0063130080015980639 0.0086554487822922965 -9999.6399070652533 0.38777693168549376 -0.0019581390752968914 0.0019051717142701818 -0.0019581390752968914 -2499.7341980528031 0.0016792045262263855 0.0019051717142701818 0.0016792045262263855 -9999.625246937987 0.3897542419963429 -0.0016273451785054605 0.0054447931252070703 -0.0016273451785054605 -2499.7449263067406 6.601769308645089e-05 0.0054447931252070703 6.601769308645089e-05 -9999.6232386425181 0.37720193709719751 0.0083157281306021243 0.0049348296306561679 0.0083157281306021243 -2499.748611133763 0.001885467640704519 0.0049348296306561679 0.001885467640704519 -9999.6314863428688 0.38513179715528167 0.012736576975032388 0.0081124829839609447 0.012736576975032388 -2499.7366854610241 0.011920939231913508 0.0081124829839609447 0.011920939231913508 -9999.6086087015628 0.38149522710818928 0.0081006067328401165 0.007540301657627424 0.0081006067328401165 -2499.7384316106059 0.013949421319466637 0.007540301657627424 0.013949421319466637 -9999.6316361447771 0.37863073383618939 0.0041692612755268622 0.00036013683802593732 0.0041692612755268622 -2499.7660835672627 0.020389292283653049 0.00036013683802593732 0.020389292283653049 -9999.6186000709586 0.3820132911345695 0.003328219308484523 -0.0043405619499026216 0.003328219308484523 -2499.7373272628324 0.011676428575952968 -0.0043405619499026216 0.011676428575952968 -9999.6120797356489 0.37703637958884428 0.0043663484881883499 -0.0014714936669406598 0.0043663484881883499 -2499.7451494303359 0.0075953441447609293 -0.0014714936669406598 0.0075953441447609293 -9999.6323770484669 0.38304280897773424 0.002244236912917065 0.002043483598754392 0.002244236912917065 -2499.7427285899503 0.0057824410787361558 0.002043483598754392 0.0057824410787361558 -9999.6252647079637 0.38969174718749855 0.0078310910570571213 0.0060640198153123492 0.0078310910570571213 -2499.7264895637791 0.020778014006737067 0.0060640198153123492 0.020778014006737067 -9999.6053463548851 0.38480287865968421 0.0047919618943051273 0.0043593764039542293 0.0047919618943051273 -2499.7479714582032 0.013472499580529984 0.0043593764039542293 0.013472499580529984 -9999.6069593518041 0.37943849281145958 0.0088498497110320665 0.0020536442307275138 0.0088498497110320665 -2499.7549896503351 0.02082154715390061 0.0020536442307275138 0.02082154715390061 -9999.6161503599433 0.37603463799746351 -0.0021512022006121567 0.00042424072307767347 -0.0021512022006121567 -2499.7586780171541 0.021440217900817515 0.00042424072307767347 0.021440217900817515 -9999.6173321479037 0.38617445302043052 0.0042214951701943764 -0.00328087833401014 0.0042214951701943764 -2499.7512800573313 -9.55392065407068e-05 -0.00328087833401014 -9.55392065407068e-05 -9999.625119015418 0.38491045486762232 0.0047862266538077087 -0.010002048366459348 0.0047862266538077087 -2499.7523045652524 -0.0057562030360713834 -0.010002048366459348 -0.0057562030360713834 -9999.6312449022826 0.37465413081270071 0.010696061808726773 0.0038545616644114489 0.010696061808726773 -2499.7513322480163 0.0019266574054199737 0.0038545616644114489 0.0019266574054199737 -9999.6282184760294 0.3833515531300975 0.005308742711380994 -0.0044824885044363327 0.005308742711380994 -2499.7524999426273 -3.6738447306561284e-06 -0.0044824885044363327 -3.6738447306561284e-06 -9999.625818088738 0.37533625446201313 -0.0037261303534126683 -0.0031488567783526378 -0.0037261303534126683 -2499.7177040318111 -0.00064397136884508654 -0.0031488567783526378 -0.00064397136884508654 -9999.6191950585053 0.37592508112993528 -0.009247023705624878 -0.0020102711332583567 -0.009247023705624878 -2499.7193468856121 -0.0066485840470704716 -0.0020102711332583567 -0.0066485840470704716 -9999.6096970444632 0.3746635235447684 -0.0079541243168666301 -0.0020432785140656051 -0.0079541243168666301 -2499.7227261401713 -0.0051962173606625583 -0.0020432785140656051 -0.0051962173606625583 -9999.6092534803465 0.38096550469390422 0.00094722006266206166 -0.0092561378833124763 0.00094722006266206166 -2499.7274488624207 -0.010728851981639309 -0.0092561378833124763 -0.010728851981639309 -9999.6132971631141 0.38604468374069256 -0.0024664838247263343 -0.0033515288505441276 -0.0024664838247263343 -2499.7338968156746 -0.0076139366792631336 -0.0033515288505441276 -0.0076139366792631336 -9999.6097534488708 0.38124598983051783 -0.001773226150103429 -0.0026480050373720587 -0.001773226150103429 -2499.753800011144 -0.0070474409740199917 -0.0026480050373720587 -0.0070474409740199917 -9999.6154489037872 0.37350658296372785 3.4800831552993868e-05 -0.011172916914688358 3.4800831552993868e-05 -2499.7624224675787 0.015825350543764216 -0.011172916914688358 0.015825350543764216 -9999.6519852107758 0.38524769981813733 5.0127886789957943e-06 -0.0075756017545245413 5.0127886789957943e-06 -2499.758484907612 -0.001461344866129366 -0.0075756017545245413 -0.001461344866129366 -9999.6116224687939 0.38192503553909773 -0.0010523038836510179 -0.0025221241994586308 -0.0010523038836510179 -2499.7482197916897 0.0038347462341334904 -0.0025221241994586308 0.0038347462341334904 -9999.624415407965 0.41024653498425323 2.0956696749861725e-06 -0.00088714973435344291 2.0956696749861725e-06 -2499.7311982105143 -0.017167126023196033 -0.00088714973435344291 -0.017167126023196033 -9999.5364033384394 0.37992295986168756 -0.0010102153398058675 -0.0033570803689144668 -0.0010102153398058675 -2499.7574285696837 0.00258402098188526 -0.0033570803689144668 0.00258402098188526 -9999.6257810066763 0.3836364972089541 0.0061429923562894978 -0.010588110111939386 0.0061429923562894978 -2499.7669654969745 0.015674293072606815 -0.010588110111939386 0.015674293072606815 -9999.5959012650928 0.38928917592147627 -0.00077051351392702302 -0.0075251951986956556 -0.00077051351392702302 -2499.7463813977965 0.001839088212364004 -0.0075251951986956556 0.001839088212364004 -9999.6064394194673 0.39079232366839278 0.001715686780040534 -0.017987641524996434 0.001715686780040534 -2499.7275256967009 0.01094931819170597 -0.017987641524996434 0.01094931819170597 -9999.5720330065851 0.38411113694473897 -0.0028114074001086456 -0.0059866747169508017 -0.0028114074001086456 -2499.7446939193915 0.0057173414006683743 -0.0059866747169508017 0.0057173414006683743 -9999.601641215886 0.38155549399380106 -0.00084326444291009796 -0.0024324988639818912 -0.00084326444291009796 -2499.74537804785 0.002255348430480808 -0.0024324988639818912 0.002255348430480808 -9999.6241518422576 0.380078067390059 0.00042588250374498478 -0.0026108442207259941 0.00042588250374498478 -2499.752230374288 0.004139887030760292 -0.0026108442207259941 0.004139887030760292 -9999.6205103630236 0.37869977559239487 -0.0024447093302020686 -0.0022978733859417844 -0.0024447093302020686 -2499.7437435856264 0.0032941135223154561 -0.0022978733859417844 0.0032941135223154561 -9999.6213995682047 0.38384879173236186 -0.0015393671900932084 -0.0040723325091676088 -0.0015393671900932084 -2499.7456377062467 0.0014903847741152276 -0.0040723325091676088 0.0014903847741152276 -9999.6154571160441 0.37668087045494758 0.00072711377206565071 -0.0023791152348167088 0.00072711377206565071 -2499.7614259836864 0.0012385853078740183 -0.0023791152348167088 0.0012385853078740183 -9999.6254465677339 0.38041541427082848 -0.0012240703455908908 -0.0024844840127116186 -0.0012240703455908908 -2499.7488398336955 0.00085743837007612456 -0.0024844840127116186 0.00085743837007612456 -9999.6250945460924 0.38000519222077855 -0.0011188922260872824 -0.0023963175663084257 -0.0011188922260872824 -2499.7427322585263 0.0023791331555003126 -0.0023963175663084257 0.0023791331555003126 -9999.6238716121843 0.38122947269766883 0.00075249513351468081 -0.0027735511221180786 0.00075249513351468081 -2499.7482519332643 0.0031338547705672681 -0.0027735511221180786 0.0031338547705672681 -9999.6187474432445 0.3796016844589758 -0.002800996962200659 -0.0031992397862268263 -0.002800996962200659 -2499.7450922444004 0.001970540419279132 -0.0031992397862268263 0.001970540419279132 -9999.616661621847 0.38095531074941391 -0.00017843474899451755 -0.001620115492187324 -0.00017843474899451755 -2499.7425490942824 0.0030962432165324572 -0.001620115492187324 0.0030962432165324572 -9999.618403231827 0.3828540604099544 -0.0046225325984707785 -0.0032385409467678983 -0.0046225325984707785 -2499.7378416036536 0.0022641333198407665 -0.0032385409467678983 0.0022641333198407665 -9999.6165548865829 0.38752289487274538 -0.002089215498917836 -0.0029750925768894376 -0.002089215498917836 -2499.7290259252477 -0.0028080567135475576 -0.0029750925768894376 -0.0028080567135475576 -9999.6089031330357 0.38207135228719835 -0.0029240494133660339 -0.0022038269862605375 -0.0029240494133660339 -2499.7395231875344 0.0013640823390232981 -0.0022038269862605375 0.0013640823390232981 -9999.6199783278607 0.38723041930552426 0.0083380786376874572 -0.0022672428603982553 0.0083380786376874572 -2499.7353734921717 0.00066519850588520057 -0.0022672428603982553 0.00066519850588520057 -9999.6163566916657 0.38374985729024047 -0.0033049082106448441 -0.0031118243114178767 -0.0033049082106448441 -2499.7383060110205 0.0019421889019213268 -0.0031118243114178767 0.0019421889019213268 -9999.6176847888528 0.38446805326566391 -0.0034431052361520199 -0.0029597591492347419 -0.0034431052361520199 -2499.7357617463185 0.0028477326150095905 -0.0029597591492347419 0.0028477326150095905 -9999.6169248546576 0.38254520310306361 -0.0029570460807994692 -0.0019390923953324091 -0.0029570460807994692 -2499.7373176346246 0.0020935350148647558 -0.0019390923953324091 0.0020935350148647558 -9999.6196159348092 0.37237816254855716 -0.0025563374771211747 0.0023557446475024335 -0.0025563374771211747 -2499.730257560308 0.012473665270590573 0.0023557446475024335 0.012473665270590573 -9999.6102178335059 0.37127059077647573 -0.0076913870428944597 -0.0033184417407028377 -0.0076913870428944597 -2499.7111552048591 -0.00034940093428303953 -0.0033184417407028377 -0.00034940093428303953 -9999.6155975074653 0.37281648862517613 -0.0093549700566210627 9.5140844678098802e-05 -0.0093549700566210627 -2499.7198308146053 -0.0064359121406596387 9.5140844678098802e-05 -0.0064359121406596387 -9999.614431136546 0.37360552118025225 -0.011602638965920509 0.00067696472069656011 -0.011602638965920509 -2499.7642752509246 -0.0055367328586726217 0.00067696472069656011 -0.0055367328586726217 -9999.6253517124787 0.37840222986199024 -0.0020849551115770075 0.00047131006431300193 -0.0020849551115770075 -2499.7565617366095 -0.004642392971618392 0.00047131006431300193 -0.004642392971618392 -9999.6223002544975 0.37717872810389963 0.018234407090333311 0.0019696687340911012 0.018234407090333311 -2499.7436115344208 -0.02084898760631404 0.0019696687340911012 -0.02084898760631404 -9999.6249365923359 0.38233609444796457 0.010328080627012607 0.0029017646801321462 0.010328080627012607 -2499.7355259390242 -0.026072052591189276 0.0029017646801321462 -0.026072052591189276 -9999.6210339414101 0.38209058540815022 -0.01352594858965641 -0.0012606979344127467 -0.01352594858965641 -2499.7613710439555 -0.0056328298142034328 -0.0012606979344127467 -0.0056328298142034328 -9999.6236776492879 0.38257520017486968 0.0071209130079823539 0.0020400188241183059 0.0071209130079823539 -2499.73678491587 0.014221758507574123 0.0020400188241183059 0.014221758507574123 -9999.619905036976 0.3728434107342764 0.001970581367360124 -0.0021526475975406356 0.001970581367360124 -2499.7759155185413 0.0038337425921781687 -0.0021526475975406356 0.0038337425921781687 -9999.6293549848378 0.38378645975535619 -0.0012472999784296813 0.0010721078779170057 -0.0012472999784296813 -2499.7289279007837 0.0001403471260346123 0.0010721078779170057 0.0001403471260346123 -9999.6188388285154 0.38169063883833587 0.0086398887479084488 0.0012023276365198399 0.0086398887479084488 -2499.7374956457061 0.0010563689219793559 0.0012023276365198399 0.0010563689219793559 -9999.6227430265426 0.38274242358056654 0.021383927927745381 0.0041690320313136908 0.021383927927745381 -2499.7357374502553 -0.017872027565317694 0.0041690320313136908 -0.017872027565317694 -9999.6188229788168 0.37750606208840054 -0.0017000872909286417 0.0018111967747245217 -0.0017000872909286417 -2499.7481345264641 -0.0001574316465848824 0.0018111967747245217 -0.0001574316465848824 -9999.6233812779174 0.38217666092714353 -0.0014381341889067327 0.0012255588296739006 -0.0014381341889067327 -2499.7483207249879 -0.0010495810074644396 0.0012255588296739006 -0.0010495810074644396 -9999.6280893110015 0.38408585647994187 0.00069023569859744333 0.0034447945308784256 0.00069023569859744333 -2499.744871091325 0.0014506206007354194 0.0034447945308784256 0.0014506206007354194 -9999.6213952829821 0.3785422111996013 1.8749748380804247e-05 0.00072383852966595441 1.8749748380804247e-05 -2499.747290055454 0.00089656534055393422 0.00072383852966595441 0.00089656534055393422 -9999.6265339122292 0.37971694496991404 7.8725394258780113e-07 0.0012288709685890353 7.8725394258780113e-07 -2499.7447333303589 -0.0010438406989123905 0.0012288709685890353 -0.0010438406989123905 -9999.6239693394091 0.38117363913352165 -0.00023952611345512756 -0.00078640780066052685 -0.00023952611345512756 -2499.7478225430541 0.0014638123202530551 -0.00078640780066052685 0.0014638123202530551 -9999.6227433342247 0.37488391810984467 0.00087863817628055976 0.00073812610662571387 0.00087863817628055976 -2499.7445677838659 0.0011587475528358482 0.00073812610662571387 0.0011587475528358482 -9999.6205493018642 0.37735017893919576 0.0029161615425802728 -0.00038177783244464081 0.0029161615425802728 -2499.7537824320671 0.0024639861258037854 -0.00038177783244464081 0.0024639861258037854 -9999.6244235922713 0.38044758493379049 7.5476496323385704e-05 0.00025599071159376763 7.5476496323385704e-05 -2499.7455523778244 0.00024047650003922172 0.00025599071159376763 0.00024047650003922172 -9999.6209276748305 0.37679458836873891 0.0025903516005157633 5.8191468269797042e-05 0.0025903516005157633 -2499.7525711651119 0.0033410896503482945 5.8191468269797042e-05 0.0033410896503482945 -9999.6240627079133 0.3800693079147095 0.00081873539111811805 0.00093350552378979046 0.00081873539111811805 -2499.743129883881 0.0011229966785322176 0.00093350552378979046 0.0011229966785322176 -9999.6199818370842 0.37902785281403339 0.0022201915619874547 0.00017830914657679386 0.0022201915619874547 -2499.7498224932006 0.001003624562144978 0.00017830914657679386 0.001003624562144978 -9999.6224164696014 0.38088613596119103 -0.00015097659591213988 6.8231518525863066e-05 -0.00015097659591213988 -2499.7440685528018 0.00056406702651656815 6.8231518525863066e-05 0.00056406702651656815 -9999.6205879032968 0.38000693110370776 0.0026211817358055937 -8.0069043178809807e-05 0.0026211817358055937 -2499.7481006957787 -0.00056869685795390978 -8.0069043178809807e-05 -0.00056869685795390978 -9999.6181851814763 0.3806990899356606 0.0013531174333424878 0.00011478581291157752 0.0013531174333424878 -2499.7457125491292 0.0014149830421956722 0.00011478581291157752 0.0014149830421956722 -9999.6210842070213 0.37443996786714706 0.00086557127251299382 0.00082758907956304029 0.00086557127251299382 -2499.7449848238448 0.00062783004977973178 0.00082758907956304029 0.00062783004977973178 -9999.6219266686603 0.37740235348974238 0.00045776583660999239 0.00062554253963753581 0.00045776583660999239 -2499.7452448868135 0.00056913112348411232 0.00062554253963753581 0.00056913112348411232 -9999.6212398586213 0.37842464747336635 0.00066048785869492893 0.00070903850792092271 0.00066048785869492893 -2499.7340678155706 -0.0011260140108788619 0.00070903850792092271 -0.0011260140108788619 -9999.6161684978724 0.37639962912908231 0.0055303686585251866 0.00033455284960837162 0.0055303686585251866 -2499.7492868020508 -0.0014712553766003111 0.00033455284960837162 -0.0014712553766003111 -9999.6195202198396 0.37454593764414312 0.0031094569268589993 0.00051758697645709617 0.0031094569268589993 -2499.756824648277 0.0011316556683595991 0.00051758697645709617 0.0011316556683595991 -9999.6284240320092 0.37746633813185326 0.0030192947220309477 -0.0006269250934565207 0.0030192947220309477 -2499.7542634333058 0.0011085152636951534 -0.0006269250934565207 0.0011085152636951534 -9999.6202424221301 0.37991674665136088 0.0034662559166543788 -0.00051632725990202744 0.0034662559166543788 -2499.7463223571121 -5.8762654589372687e-05 -0.00051632725990202744 -5.8762654589372687e-05 -9999.6182862396781 0.37859788041350839 0.0055027406619658032 0.00065115343340949039 0.0055027406619658032 -2499.7414439970034 -0.0021622513304464519 0.00065115343340949039 -0.0021622513304464519 -9999.6180247534721 0.38188163924860419 -0.011511749887178901 0.0023058598089846782 -0.011511749887178901 -2499.723523102537 0.025368438289660844 0.0023058598089846782 0.025368438289660844 -9999.6154815107584 0.38271717258794524 0.0058190754845147269 0.001495248045102926 0.0058190754845147269 -2499.7395791169365 0.014861763253065874 0.001495248045102926 0.014861763253065874 -9999.6200791280244 0.38110685696665314 0.006789772536681977 0.00056329951394218369 0.006789772536681977 -2499.7484474233843 -0.0016484601346746786 0.00056329951394218369 -0.0016484601346746786 -9999.6181999780929 0.38458466461997887 0.0053581814223529062 0.0027253294829279184 0.0053581814223529062 -2499.7281579009486 -0.0048444709664181573 0.0027253294829279184 -0.0048444709664181573 -9999.6233186156896 0.38787489128117159 0.0046879782155370003 0.0028289323345234152 0.0046879782155370003 -2499.7297674173005 -0.0033511675210320391 0.0028289323345234152 -0.0033511675210320391 -9999.62443370045 0.37929215088661294 0.0032940575558111362 0.001138579910275439 0.0032940575558111362 -2499.7321578774499 -0.0060480756910692435 0.001138579910275439 -0.0060480756910692435 -9999.6267896645004 0.37811962397790921 0.011310140854734495 0.0050352767393633258 0.011310140854734495 -2499.7432352772157 -0.0031740295962663367 0.0050352767393633258 -0.0031740295962663367 -9999.6244181822476 0.37500236490268435 0.0071137936771038107 0.002414049427898135 0.0071137936771038107 -2499.7584955329967 0.013325964893738274 0.002414049427898135 0.013325964893738274 -9999.627694403669 0.38229820871310949 0.0034414610330137495 0.0018363333110755775 0.0034414610330137495 -2499.7535783704134 0.00088484544176026247 0.0018363333110755775 0.00088484544176026247 -9999.6166898346346 0.38117350877291756 0.0038942035861470863 0.0012385017435008194 0.0038942035861470863 -2499.7566588748778 -0.0021584158057521563 0.0012385017435008194 -0.0021584158057521563 -9999.6201883617759 0.37692987265472766 0.0045915374149625987 -0.00098267250177741516 0.0045915374149625987 -2499.7673009137434 0.019364571660844376 -0.00098267250177741516 0.019364571660844376 -9999.6249987308875 0.37295488403287891 0.013327464147381906 0.0034231063661991357 0.013327464147381906 -2499.7662063486023 0.017781633068807423 0.0034231063661991357 0.017781633068807423 -9999.6281299047332 0.37214926338128862 0.014934913166628478 0.0023323592945416749 0.014934913166628478 -2499.774016566691 -0.0039252301321539562 0.0023323592945416749 -0.0039252301321539562 -9999.6242542450709 0.37962091666850029 0.003317293538723759 0.0031437855868716724 0.003317293538723759 -2499.754116056356 0.0023815838485461427 0.0031437855868716724 0.0023815838485461427 -9999.6256160267367 0.37255084119533421 0.014480667966223743 0.0032828972725837957 0.014480667966223743 -2499.7666545229622 -0.0044989329362579156 0.0032828972725837957 -0.0044989329362579156 -9999.6294362275366 0.37505514566328202 -0.010163207532310547 -0.0051366193765716162 -0.010163207532310547 -2499.7575995080297 -0.0086536451199208386 -0.0051366193765716162 -0.0086536451199208386 -9999.6229726655438 0.36943739077469218 -0.0074665081752471607 7.7452885307138786e-05 -0.0074665081752471607 -2499.7454223362583 -0.012337036187091144 7.7452885307138786e-05 -0.012337036187091144 -9999.6266170370218 0.38373462912204559 -0.0012567583124171722 -0.0057083959982264787 -0.0012567583124171722 -2499.7324863695958 -0.0010085942558362149 -0.0057083959982264787 -0.0010085942558362149 -9999.6168159788358 0.36541560266414308 -0.014873255888240733 0.0036895609609928215 -0.014873255888240733 -2499.7357253102291 -0.0017229550521733472 0.0036895609609928215 -0.0017229550521733472 -9999.6281709251343 0.37246023473562673 -0.0078605431022445577 0.0049989231520157773 -0.0078605431022445577 -2499.7205297468572 0.019897978829249041 0.0049989231520157773 0.019897978829249041 -9999.6169433290434 0.36978705990804883 -0.01245993229243833 0.0080961239655152895 -0.01245993229243833 -2499.7400268219153 0.0057179778159479611 0.0080961239655152895 0.0057179778159479611 -9999.6159993888214 0.38473541584608029 -0.004491018657700907 0.00081104235141538084 -0.004491018657700907 -2499.7476299729133 0.006145636321434722 0.00081104235141538084 0.006145636321434722 -9999.6127212883002 0.37837256826605881 -0.004958546562841195 0.0023200508549052756 -0.004958546562841195 -2499.7764966968098 0.0046642311735922704 0.0023200508549052756 0.0046642311735922704 -9999.6203190099659 0.38097412770730443 -0.0020321932320100169 -0.0013980756448290776 -0.0020321932320100169 -2499.7565596394561 -0.0010101037517529221 -0.0013980756448290776 -0.0010101037517529221 -9999.6188777657226 0.38263158520203433 -0.0038716583798245122 -0.0020290203647164162 -0.0038716583798245122 -2499.7562504139842 -0.0017492760853201617 -0.0020290203647164162 -0.0017492760853201617 -9999.619291045703 0.383767716211878 -0.0031260745908860341 -0.00097281873240717687 -0.0031260745908860341 -2499.7496530286662 -0.00086417269631056115 -0.00097281873240717687 -0.00086417269631056115 -9999.6190038004097 0.37772235604643356 -0.0044760531073763307 -0.00010213573841610923 -0.0044760531073763307 -2499.7795861311915 -0.0013612119910249021 -0.00010213573841610923 -0.0013612119910249021 -9999.6235160126016 0.38149104646254273 -0.0011259436850367763 0.00023194959976535756 -0.0011259436850367763 -2499.749486260378 0.0002662633778527379 0.00023194959976535756 0.0002662633778527379 -9999.6178246542913 0.38093002074674587 -0.001284610303523101 -6.5832024120027199e-05 -0.001284610303523101 -2499.7514420367042 -0.00076232744686421938 -6.5832024120027199e-05 -0.00076232744686421938 -9999.6195600848769 0.37912696716921346 -0.0001611362800961226 -0.0010456928685016464 -0.0001611362800961226 -2499.7525535384884 0.0009314346043538535 -0.0010456928685016464 0.0009314346043538535 -9999.6217642352931 0.37792826512529132 0.0035045734718007482 -0.0010283181254635565 0.0035045734718007482 -2499.7517657695712 0.0015950010110827861 -0.0010283181254635565 0.0015950010110827861 -9999.6231657481858 0.38012927174349898 -0.00043358447402784203 -0.0018942122460430255 -0.00043358447402784203 -2499.7517430929038 0.001807235228625359 -0.0018942122460430255 0.001807235228625359 -9999.6203527387515 0.38063646979571786 0.00089415147886911378 1.9360026271897368e-05 0.00089415147886911378 -2499.7519752893659 0.00081419661728432402 1.9360026271897368e-05 0.00081419661728432402 -9999.6219484004105 0.38014852721607895 0.00046454880056451047 -0.0021983889039205451 0.00046454880056451047 -2499.7505956987898 0.0046350256816367619 -0.0021983889039205451 0.0046350256816367619 -9999.6207057271458 0.37976954142868635 -0.00078029087831231643 -0.001071868489816552 -0.00078029087831231643 -2499.7492106070968 0.0011455476708306378 -0.001071868489816552 0.0011455476708306378 -9999.6202654406807 0.38263502706467989 0.0019417093100087303 -0.00065731373797461856 0.0019417093100087303 -2499.7475317456083 -0.00076399054159992374 -0.00065731373797461856 -0.00076399054159992374 -9999.6191449809412 0.38465357584573212 -0.0027802767210465956 -0.001994823593122419 -0.0027802767210465956 -2499.7378963750889 0.0055646095661359141 -0.001994823593122419 0.0055646095661359141 -9999.6149478349762 0.37913354295233148 4.1324863468771662e-06 -0.0013365365703066345 4.1324863468771662e-06 -2499.749350734146 0.0019377066129209197 -0.0013365365703066345 0.0019377066129209197 -9999.6206050871806 0.38019149174215272 -0.00027486628750885756 -0.0022017964820406632 -0.00027486628750885756 -2499.7486254968353 0.0028181788254642015 -0.0022017964820406632 0.0028181788254642015 -9999.6192114068981 0.38080991377864848 -0.00062014521081596506 -0.0013325495838216739 -0.00062014521081596506 -2499.7439599087793 0.0017863098455563886 -0.0013325495838216739 0.0017863098455563886 -9999.6188952135635 0.3803991988334019 -0.00020125546372683559 7.9801975516602397e-06 -0.00020125546372683559 -2499.7475151966792 0.00065747759799705818 7.9801975516602397e-06 0.00065747759799705818 -9999.6217864477003 0.37969935427099699 0.00070008424697998867 -0.00057844636467052624 0.00070008424697998867 -2499.7508509164727 0.0009523082503619662 -0.00057844636467052624 0.0009523082503619662 -9999.6223241911866 0.37821857534800074 0.0001600798361481591 -0.0012100373787689023 0.0001600798361481591 -2499.7512698022729 0.001053306871881432 -0.0012100373787689023 0.001053306871881432 -9999.6222522415701 0.37918523678126803 -0.00037122254766488311 -0.0008698271558387205 -0.00037122254766488311 -2499.7490729645069 0.0010541289339016657 -0.0008698271558387205 0.0010541289339016657 -9999.6206203104375 0.378978096658102 -0.00040237443607001738 -0.00079682625073473901 -0.00040237443607001738 -2499.7509462184025 0.00049278550568487844 -0.00079682625073473901 0.00049278550568487844 -9999.621418669878 0.37808461575878027 -0.0037409581663167962 -0.0010448551693116315 -0.0037409581663167962 -2499.751003664469 0.0013550956846302142 -0.0010448551693116315 0.0013550956846302142 -9999.6212350610076 0.3795514010835177 0.00056091984201398978 -0.00045993403728061821 0.00056091984201398978 -2499.7502564163915 0.00072250239281856921 -0.00045993403728061821 0.00072250239281856921 -9999.6209314232838 0.37929019256444008 -0.00053613185064856073 -0.0009975432349165203 -0.00053613185064856073 -2499.7477315861488 0.00070648082873958629 -0.0009975432349165203 0.00070648082873958629 -9999.6202567342589 0.37947774747954099 0.00068712759816335831 -0.00076380360769690014 0.00068712759816335831 -2499.7496896934572 -0.002054124074675201 -0.00076380360769690014 -0.002054124074675201 -9999.6218928572052 0.37943469164838461 -0.00061866825310180097 -0.00081363148638047278 -0.00061866825310180097 -2499.7486599031736 0.00012434549353201874 -0.00081363148638047278 0.00012434549353201874 -9999.6209293632201 0.38021748439405201 -0.00035278516084925188 -0.00018785953579936177 -0.00035278516084925188 -2499.7483667599854 0.0012272533567738719 -0.00018785953579936177 0.0012272533567738719 -9999.6194308206577 0.37946379184541001 -0.00089231997851669902 0.00014613725488743512 -0.00089231997851669902 -2499.749168813245 0.0011772625475714449 0.00014613725488743512 0.0011772625475714449 -9999.6224563378782 0.37976566427096259 6.0579638684763555e-05 -0.00092029188090236858 6.0579638684763555e-05 -2499.7484286604231 0.00072892473372121458 -0.00092029188090236858 0.00072892473372121458 -9999.6214617086371 0.37938984780703322 0.00025157823843831003 -0.0011069743577536428 0.00025157823843831003 -2499.7477518721462 0.00079197513696271926 -0.0011069743577536428 0.00079197513696271926 -9999.6206328090993 0.37942383261906798 9.1626064887860743e-05 -0.0012086127990187379 9.1626064887860743e-05 -2499.747627644645 0.0012562633150992042 -0.0012086127990187379 0.0012562633150992042 -9999.6210246451556 0.37961110229161932 1.2788630721437006e-05 -0.0021046443198429188 1.2788630721437006e-05 -2499.7427127240694 0.00048557989066466689 -0.0021046443198429188 0.00048557989066466689 -9999.6245275681249 0.38146428042728076 -0.00049191821496547602 -5.0634901299417834e-05 -0.00049191821496547602 -2499.7390683886497 -0.0045268339426911552 -5.0634901299417834e-05 -0.0045268339426911552 -9999.6245487647175 0.38303529578115558 8.3853932696971792e-05 0.00079793835129748913 8.3853932696971792e-05 -2499.7384735278174 -0.0021819115872858674 0.00079793835129748913 -0.0021819115872858674 -9999.6199713133428 0.37880112686775647 0.00028742663459651024 -0.00028038322625434375 0.00028742663459651024 -2499.7501628110404 -0.0019204883683414664 -0.00028038322625434375 -0.0019204883683414664 -9999.6222333831993 0.38555938555850844 -0.0035281982172320828 -0.0024287703090521973 -0.0035281982172320828 -2499.7360749268864 0.0017845768943516305 -0.0024287703090521973 0.0017845768943516305 -9999.6193619183923 0.37776420771797348 0.0011368784060436284 -0.00087169934613484656 0.0011368784060436284 -2499.7490729589695 -0.0017821251476561883 -0.00087169934613484656 -0.0017821251476561883 -9999.6274351778502 0.37895180189545385 0.00078738223212231658 -0.00028713601949448275 0.00078738223212231658 -2499.7497830201241 -0.0019443196524662198 -0.00028713601949448275 -0.0019443196524662198 -9999.6221000566584 0.38053554862381134 -0.00079428796144417218 -0.00137061813074979 -0.00079428796144417218 -2499.7433786216861 -0.00066652607711148448 -0.00137061813074979 -0.00066652607711148448 -9999.620144688568 0.38068165867298376 -0.00058369379339862906 -0.0027429909941929509 -0.00058369379339862906 -2499.7400015839521 0.0023039665411488386 -0.0027429909941929509 0.0023039665411488386 -9999.619587622532 0.37979781986848593 -0.00019264790222006797 -0.0038994676224319846 -0.00019264790222006797 -2499.7428892326193 0.0042362133517599432 -0.0038994676224319846 0.0042362133517599432 -9999.6220664496905 0.38421126306457154 -0.0034507752815004233 -0.0006138444587122649 -0.0034507752815004233 -2499.7478752313218 0.005225939916272182 -0.0006138444587122649 0.005225939916272182 -9999.6220126587214 0.38318196926957171 -0.00054583928289119246 0.00062119849826558493 -0.00054583928289119246 -2499.7440275953504 -0.0035265019432699773 0.00062119849826558493 -0.0035265019432699773 -9999.621874782435 0.3760361022377765 0.0021493036563425688 0.0038086421918706037 0.0021493036563425688 -2499.7484197483973 -0.0059850084689969663 0.0038086421918706037 -0.0059850084689969663 -9999.6243627539297 0.38192372408957453 0.00064882742922621472 -0.0018347960303799482 0.00064882742922621472 -2499.7353167027686 -0.004642251293262234 -0.0018347960303799482 -0.004642251293262234 -9999.6220073659497 0.383288031189295 0.0029014984174602354 0.00036994194306316786 0.0029014984174602354 -2499.7403307271798 -0.00083352906403888483 0.00036994194306316786 -0.00083352906403888483 -9999.6186895910214 0.38212697671770002 0.00082253863935734944 0.00082335593106108718 0.00082253863935734944 -2499.7459137601236 -0.0054140555484991637 0.00082335593106108718 -0.0054140555484991637 -9999.6222502544006 0.38352176908301772 -0.0036532256201920604 -0.00064124376149266027 -0.0036532256201920604 -2499.7481844785107 0.0049043816816265462 -0.00064124376149266027 0.0049043816816265462 -9999.6248466925863 0.37840763600331684 -0.0028995552522877374 0.00022372290641214931 -0.0028995552522877374 -2499.7642387297847 0.00085640661927754991 0.00022372290641214931 0.00085640661927754991 -9999.6300495831601 0.3747736965524382 0.0026343264306666198 0.00091870446522079874 0.0026343264306666198 -2499.7474993068699 0.0013400049992924323 0.00091870446522079874 0.0013400049992924323 -9999.6267850251679 0.37782838856492162 0.0019051079904728666 -0.001244615037649055 0.0019051079904728666 -2499.7505096854848 0.0040230644790426595 -0.001244615037649055 0.0040230644790426595 -9999.6266453780081 0.37990162383539428 0.00010848481359742451 -0.001112329907300591 0.00010848481359742451 -2499.7402408213402 0.0051858395227100118 -0.001112329907300591 0.0051858395227100118 -9999.6194917028406 0.38299508118916492 -0.015141956057187989 0.0030148230707709445 -0.015141956057187989 -2499.745337791544 -0.0036440823623706819 0.0030148230707709445 -0.0036440823623706819 -9999.6172062944606 0.37998262170663111 -0.0035499811993617326 -0.0010819616127264453 -0.0035499811993617326 -2499.7620454291637 0.0021058588217783836 -0.0010819616127264453 0.0021058588217783836 -9999.6255510388837 0.37696807823886047 -0.002013579740398147 -0.0039410492536262609 -0.002013579740398147 -2499.7396046709036 0.0065387848599129939 -0.0039410492536262609 0.0065387848599129939 -9999.6147972916369 0.37562902471472626 0.010915557345182954 0.007982062132214196 0.010915557345182954 -2499.688675033527 -0.021729198790126247 0.007982062132214196 -0.021729198790126247 -9999.6122423554916 0.37304006973727155 0.0022515600639705299 0.0043266917436994845 0.0022515600639705299 -2499.7877223824594 -0.006420895546398242 0.0043266917436994845 -0.006420895546398242 -9999.6313348124895 0.36638572802075942 0.017257511753153758 0.0091343050380601198 0.017257511753153758 -2499.721781842296 -0.0051690948766918154 0.0091343050380601198 -0.0051690948766918154 -9999.6174352732778 0.38045392846106552 -0.0010435140222626732 -0.0060306130690150894 -0.0010435140222626732 -2499.7386917187578 0.00041964006231864914 -0.0060306130690150894 0.00041964006231864914 -9999.6193171913183 0.37290651112925843 0.0020504350186557468 7.7808850619476289e-05 0.0020504350186557468 -2499.7447415176102 0.015870387173890776 7.7808850619476289e-05 0.015870387173890776 -9999.6242432704021 0.36348356612143107 0.017673332796484309 0.007883286292781122 0.017673332796484309 -2499.7237792566848 -0.0051842055499946582 0.007883286292781122 -0.0051842055499946582 -9999.6268637428948 0.37407600485312287 0.0078689392676708075 -0.0042424466882948764 0.0078689392676708075 -2499.7658800021509 0.0090366535732755437 -0.0042424466882948764 0.0090366535732755437 -9999.6251042353542 0.38311632899421966 0.0032651307844163077 -0.0024662759387865663 0.0032651307844163077 -2499.7517495209468 0.0017928618872247171 -0.0024662759387865663 0.0017928618872247171 -9999.6188036695457 0.37991008567951212 -8.7691298922804028e-05 -2.8931783162988722e-05 -8.7691298922804028e-05 -2499.7499497031731 0.001419927692040801 -2.8931783162988722e-05 0.001419927692040801 -9999.6196489582217 0.38580184820239083 0.0036073582379663634 -0.0012573909225466195 0.0036073582379663634 -2499.7509796065715 0.0022440919487962674 -0.0012573909225466195 0.0022440919487962674 -9999.6169462957696 0.38489358808510588 0.0032219622396330097 0.0034486261774873128 0.0032219622396330097 -2499.7471438649736 -0.0044288405688348575 0.0034486261774873128 -0.0044288405688348575 -9999.6190461751248 0.38178575319761876 -0.0055795829981146643 0.0025296437474935374 -0.0055795829981146643 -2499.7456882204497 0.0037576885115413461 0.0025296437474935374 0.0037576885115413461 -9999.6187719945592 0.38060275823045231 0.00062873324930536392 0.00057090362497547176 0.00062873324930536392 -2499.7499459575647 0.002055193332125782 0.00057090362497547176 0.002055193332125782 -9999.6183396823399 0.37463687341096374 -0.021868243288837068 0.0048793326423037797 -0.021868243288837068 -2499.7677659646679 0.0080170406172328512 0.0048793326423037797 0.0080170406172328512 -9999.62624307031 0.36985401151105179 -0.018497264213147568 0.0032090156191770802 -0.018497264213147568 -2499.7734168565803 0.0097150987203349359 0.0032090156191770802 0.0097150987203349359 -9999.6300561560784 0.38141794117109384 -0.0049395618587775962 0.0029413183774522622 -0.0049395618587775962 -2499.7482589381252 -0.0012120174069423229 0.0029413183774522622 -0.0012120174069423229 -9999.6171561990777 0.37507834214557079 0.0017785373080641681 -0.00014237033246899955 0.0017785373080641681 -2499.789029120373 0.0010610021708998829 -0.00014237033246899955 0.0010610021708998829 -9999.6278723969517 0.37063046557159396 -0.014562202587387238 0.0061852980925323209 -0.014562202587387238 -2499.7640211657526 -0.018760246000965708 0.0061852980925323209 -0.018760246000965708 -9999.6323227827233 0.37469286547457159 -0.0054265121969401045 0.0017283352226513671 -0.0054265121969401045 -2499.7716881997276 -0.019692733345436864 0.0017283352226513671 -0.019692733345436864 -9999.6308998200111 0.37766225220002525 -0.0014101494463771014 0.00027225096891925205 -0.0014101494463771014 -2499.7500854969421 0.00031870454949967097 0.00027225096891925205 0.00031870454949967097 -9999.6210801108391 0.38119886255481106 -0.0029612773887248353 0.0002070399477815954 -0.0029612773887248353 -2499.7393664643587 0.002511061947188864 0.0002070399477815954 0.002511061947188864 -9999.6188168228909 0.3776959668884956 0.0087193269371458396 0.0061424378291121684 0.0087193269371458396 -2499.7393674869472 -0.00042448013482498936 0.0061424378291121684 -0.00042448013482498936 -9999.6237240406081 0.37629723570807982 -0.0021512920024435653 0.0023327549170062412 -0.0021512920024435653 -2499.751960513875 0.0043792538654088276 0.0023327549170062412 0.0043792538654088276 -9999.6221998308756 0.37777947543509072 -0.0033272969430539756 0.0015557576680294005 -0.0033272969430539756 -2499.7517145321326 5.9064404922537506e-07 0.0015557576680294005 5.9064404922537506e-07 -9999.6202193966892 0.38166402778915653 0.0016231350824354937 0.0015245782724377932 0.0016231350824354937 -2499.7231358073313 0.005436523693788331 0.0015245782724377932 0.005436523693788331 -9999.6261632384558 0.37733185838987993 -0.010177920576073765 0.0065148973844770808 -0.010177920576073765 -2499.7405755035525 0.0015001000774645945 0.0065148973844770808 0.0015001000774645945 -9999.6240854296047 0.38175500868965173 -0.0027287665823914663 -0.00017609190319944901 -0.0027287665823914663 -2499.7399740430119 0.0030342925019795075 -0.00017609190319944901 0.0030342925019795075 -9999.6195823879389 0.38131248555146158 -0.0046318413764750025 0.00012440721397410925 -0.0046318413764750025 -2499.7365238845814 0.0040845204785000533 0.00012440721397410925 0.0040845204785000533 -9999.617406606958 0.37530087388768152 -0.0030791853380733852 -0.00023060460911494829 -0.0030791853380733852 -2499.7564312282757 0.0020961833324690815 -0.00023060460911494829 0.0020961833324690815 -9999.6214157010218 0.38355437637073919 -0.0069863777061067445 0.00050132973774452694 -0.0069863777061067445 -2499.7231571472403 0.0092722059362131404 0.00050132973774452694 0.0092722059362131404 -9999.6247575057932 0.38056965395662701 -0.0027428602078524329 0.00024103210350290283 -0.0027428602078524329 -2499.7300892240673 0.0072833595804695506 0.00024103210350290283 0.0072833595804695506 -9999.6266452809796 0.37394574057179852 0.001014265467653042 0.0013436447865444734 0.001014265467653042 -2499.7555795502958 -0.0015269333107426064 0.0013436447865444734 -0.0015269333107426064 -9999.6245177624041 0.37303506682474108 0.00064766846720394622 0.0031580658505845349 0.00064766846720394622 -2499.7585867974467 0.0024003152357181534 0.0031580658505845349 0.0024003152357181534 -9999.6256089923008 0.37573651421553222 -0.0037167750298785461 0.00054928705139900558 -0.0037167750298785461 -2499.7616217101749 -0.0036794437382923206 0.00054928705139900558 -0.0036794437382923206 -9999.6250984894214 0.38886314923092868 -0.0015647959655913438 0.0029262636735438718 -0.0015647959655913438 -2499.7198509099171 -0.029795591355650686 0.0029262636735438718 -0.029795591355650686 -9999.6119430802846 0.37235533909006335 0.0017893298207863045 0.0013533097591107435 0.0017893298207863045 -2499.7696703656729 -0.0037652909140888369 0.0013533097591107435 -0.0037652909140888369 -9999.6278369095635 0.37493275167435058 0.0028943546060528876 0.0023847973377542075 0.0028943546060528876 -2499.7600418223337 0.004355358172688284 0.0023847973377542075 0.004355358172688284 -9999.6279826253085 0.37404969818180689 0.0020353352788082639 0.0029362309996940894 0.0020353352788082639 -2499.7606276029683 -0.0096043446185376524 0.0029362309996940894 -0.0096043446185376524 -9999.63143756719 0.37243722164566861 0.0082104292724667523 0.0050839178252317652 0.0082104292724667523 -2499.7563063151538 -0.0082436870857236499 0.0050839178252317652 -0.0082436870857236499 -9999.6281234690541 0.3761968338440056 -0.0018940885801231218 0.00046788896361249499 -0.0018940885801231218 -2499.7585561047727 0.00019577641251089517 0.00046788896361249499 0.00019577641251089517 -9999.6190024757816 0.37315350879180187 0.0081146667646607509 0.0049172996233437516 0.0081146667646607509 -2499.7554768769824 -0.0050281358183781322 0.0049172996233437516 -0.0050281358183781322 -9999.6261306959095 0.39013988041733683 0.0088206421719494599 0.0046480139360483008 0.0088206421719494599 -2499.7077343689089 -0.024012709365706542 0.0046480139360483008 -0.024012709365706542 -9999.605992532357 0.38009774245620065 0.0014929862787602865 0.00079538254510680417 0.0014929862787602865 -2499.7494148213245 -0.014695336743898224 0.00079538254510680417 -0.014695336743898224 -9999.6166219418919 0.37552861435051454 0.016176542718668321 0.0038118241718620993 0.016176542718668321 -2499.7574248308974 -0.022702846957145084 0.0038118241718620993 -0.022702846957145084 -9999.6234546286432 0.38043747757546953 -0.0014772772495501053 0.0019763066848099697 -0.0014772772495501053 -2499.7468987060693 -0.00098795052872446831 0.0019763066848099697 -0.00098795052872446831 -9999.6211572245375 0.38422468418320932 -0.0021541273752429891 0.0043173185961222771 -0.0021541273752429891 -2499.7484280845674 -0.0024333043475053273 0.0043173185961222771 -0.0024333043475053273 -9999.6209939816508 0.37671248422520875 -0.00078677047672839396 0.00048060120570880827 -0.00078677047672839396 -2499.7519000303155 -0.0010365426451244275 0.00048060120570880827 -0.0010365426451244275 -9999.6285856435461 0.38332478321080998 -4.865156600805361e-05 0.0020582713227668137 -4.865156600805361e-05 -2499.7454326173511 -0.0019552844660211122 0.0020582713227668137 -0.0019552844660211122 -9999.624635326134 0.38225373218165259 0.00033704419999580626 0.0022382268962246599 0.00033704419999580626 -2499.7383679773279 -0.0043918224700973951 0.0022382268962246599 -0.0043918224700973951 -9999.6217917077229 0.38001053172615684 -0.0013517561925410933 0.0025310429773526266 -0.0013517561925410933 -2499.7459713666231 -0.00088364137354801642 0.0025310429773526266 -0.00088364137354801642 -9999.6219957265639 0.38116485890350305 -0.00034157838930359179 0.00020228302491887007 -0.00034157838930359179 -2499.7428436784248 0.0014899939014867414 0.00020228302491887007 0.0014899939014867414 -9999.6204095299981 0.37994968965540465 -0.00091688666045837072 0.00026742128488876915 -0.00091688666045837072 -2499.7470617030758 0.0018057065481116297 0.00026742128488876915 0.0018057065481116297 -9999.620520153625 0.37866684675839224 -0.002457094854968461 -0.00011429081646952 -0.002457094854968461 -2499.7500586763936 0.0011959218736592447 -0.00011429081646952 0.0011959218736592447 -9999.6218214331075 0.37628247875045417 -0.0016743591073516834 0.00029787245875922963 -0.0016743591073516834 -2499.7540682620306 0.0001977026549866423 0.00029787245875922963 0.0001977026549866423 -9999.6231684595587 0.3787420616304189 -0.0003248836805164329 0.00073579723175498657 -0.0003248836805164329 -2499.7478725749147 0.001221839826030191 0.00073579723175498657 0.001221839826030191 -9999.6207213263351 0.37790070742465787 -0.0025697822889282919 -0.00010851577746961993 -0.0025697822889282919 -2499.7523470883607 0.00055715704002068378 -0.00010851577746961993 0.00055715704002068378 -9999.6226131972726 0.37977076870629389 -0.0021924305006913829 -0.00036116196861257777 -0.0021924305006913829 -2499.7454739868499 0.00051090041233692318 -0.00036116196861257777 0.00051090041233692318 -9999.6219538287041 0.37407817362418427 -0.001240220911838064 0.0011818447234190899 -0.001240220911838064 -2499.7494399720608 0.0016053104336606339 0.0011818447234190899 0.0016053104336606339 -9999.6218997108008 0.37990839432859502 -0.0018425709169606203 0.00070586803485639393 -0.0018425709169606203 -2499.7308140390687 0.0035432574877631851 0.00070586803485639393 0.0035432574877631851 -9999.6165005586299 0.37577629086081288 -0.001017486945286878 0.0011901856050826609 -0.001017486945286878 -2499.7433820062524 0.0010380460271335323 0.0011901856050826609 0.0010380460271335323 -9999.6212155310641 0.37865028775922838 -0.00075019664699673295 0.00034585633511596825 -0.00075019664699673295 -2499.743435410559 0.0012663212182815187 0.00034585633511596825 0.0012663212182815187 -9999.6202558389559 0.37370773437851312 0.0026606851986245225 0.0026789756066136761 0.0026606851986245225 -2499.7516509586976 -0.00031482047234021593 0.0026789756066136761 -0.00031482047234021593 -9999.6221310648652 0.37478515383008926 -0.0011748010565162659 0.00095827289987937547 -0.0011748010565162659 -2499.7455932514767 0.00025933133451871981 0.00095827289987937547 0.00025933133451871981 -9999.6221825253451 0.3749099576871231 -0.00088431686072850194 0.0022245247564569581 -0.00088431686072850194 -2499.7479014672408 0.0022708340529788984 0.0022245247564569581 0.0022708340529788984 -9999.6203766544022 0.37834756917982304 -0.0009029103622925712 0.002490898694304633 -0.0009029103622925712 -2499.7439995577133 0.00045072612311969351 0.002490898694304633 0.00045072612311969351 -9999.619428495138 0.3773674368248976 -0.0022670147884271789 0.002243843406176893 -0.0022670147884271789 -2499.7481762756015 0.0014080823584663449 0.002243843406176893 0.0014080823584663449 -9999.6203749042143 0.37808878941268631 -0.00098231904932224545 0.0025951908446586458 -0.00098231904932224545 -2499.7452024000713 0.00028038932578056119 0.0025951908446586458 0.00028038932578056119 -9999.6194702176344 0.3752824268231052 -0.0009882372317438215 0.0013356970048334915 -0.0009882372317438215 -2499.7434774990506 0.0010787260198412696 0.0013356970048334915 0.0010787260198412696 -9999.6213787229281 0.37463739345548674 -0.00020028773063351414 0.002475708031852264 -0.00020028773063351414 -2499.7432476107497 0.0014689900453959126 0.002475708031852264 0.0014689900453959126 -9999.6191900994854 0.37689244580997183 -0.001344897268984983 0.0025129503901553107 -0.001344897268984983 -2499.7440185751211 0.00057812765226117335 0.0025129503901553107 0.00057812765226117335 -9999.6193785734849 0.37800414253706549 0.0061031928139720221 0.0035967727344541345 0.0061031928139720221 -2499.7410733788429 0.0013986426324663626 0.0035967727344541345 0.0013986426324663626 -9999.6178708152584 0.3808194200428261 -0.0014131351812588493 0.0054597919220213953 -0.0014131351812588493 -2499.7443894614144 -0.0018764697415463161 0.0054597919220213953 -0.0018764697415463161 -9999.6174326411237 0.37690902103213375 -0.00060909972467551241 0.0032311433124050382 -0.00060909972467551241 -2499.7470021902677 -0.00087833685392979532 0.0032311433124050382 -0.00087833685392979532 -9999.6230157738701 0.37817578170461275 -0.00091302772593346293 0.0033169004927913193 -0.00091302772593346293 -2499.7444299252097 5.7852332247421145e-05 0.0033169004927913193 5.7852332247421145e-05 -9999.6209009100767 0.38069476812688663 -0.0014487988532460474 0.0053703820403825375 -0.0014487988532460474 -2499.7452052524031 -0.0018504746676626382 0.0053703820403825375 -0.0018504746676626382 -9999.6172209556062 0.376569200832364 -0.00087675930662226085 0.0028710989627143135 -0.00087675930662226085 -2499.7477237677417 -0.0012662780118262162 0.0028710989627143135 -0.0012662780118262162 -9999.6231603568813 0.37625980008670012 -0.0012167020146148354 0.0030579836557080853 -0.0012167020146148354 -2499.7482916700992 -0.00099167126609245315 0.0030579836557080853 -0.00099167126609245315 -9999.6225406504163 0.37546130788450682 -0.017374722326787134 0.0024093386036838638 -0.017374722326787134 -2499.7441718432929 -0.022444922575687087 0.0024093386036838638 -0.022444922575687087 -9999.6243508529042 0.38053035514894873 -0.024354668173351489 0.0010405586235719966 -0.024354668173351489 -2499.7324175249996 -0.011161324004206108 0.0010405586235719966 -0.011161324004206108 -9999.6140254500278 0.36916648890291981 0.0019338988179807316 0.004401762653287733 0.0019338988179807316 -2499.7706097655264 -0.0032320182290277444 0.004401762653287733 -0.0032320182290277444 -9999.6290000128065 0.37744281974664773 -0.0019516438730296445 0.0017572140131960623 -0.0019516438730296445 -2499.7348448938537 -0.0097575232663302813 0.0017572140131960623 -0.0097575232663302813 -9999.6152815755067 0.38216759051465488 -0.0016648883727919464 0.0029933321093267296 -0.0016648883727919464 -2499.7289860775782 -0.0018534678169999097 0.0029933321093267296 -0.0018534678169999097 -9999.6203570086873 0.37475746052950853 -0.0060172735456972097 0.0030535793794115307 -0.0060172735456972097 -2499.7574070174305 0.010117966878169682 0.0030535793794115307 0.010117966878169682 -9999.6177299290357 0.38785230562271522 -0.0012498429254835693 -0.00012344008064246736 -0.0012498429254835693 -2499.7259772675843 -0.0019795664366029087 -0.00012344008064246736 -0.0019795664366029087 -9999.6047642431768 0.38107815954481339 0.012380093577896222 -0.00068430207920755493 0.012380093577896222 -2499.7347021140613 -0.0081569024207510665 -0.00068430207920755493 -0.0081569024207510665 -9999.617389174342 0.37952527365632704 -0.0092688660747438784 0.00031206887251755688 -0.0092688660747438784 -2499.7422116141661 -0.0018287545135535765 0.00031206887251755688 -0.0018287545135535765 -9999.6108775512876 0.37699043876818905 -0.019203330817837386 -0.00010419569480291102 -0.019203330817837386 -2499.7483024151825 -0.021392368773376802 -0.00010419569480291102 -0.021392368773376802 -9999.6175173870724 0.37343374320334988 -0.0061209290178208739 0.0011713354851963231 -0.0061209290178208739 -2499.7612240390517 0.0074755187815753743 0.0011713354851963231 0.0074755187815753743 -9999.6274120432681 0.37966234389296005 0.00023966834816559202 0.0033556085763848387 0.00023966834816559202 -2499.7378265523394 0.0016565223904763116 0.0033556085763848387 0.0016565223904763116 -9999.6143407659365 0.38102408773193019 -0.00093171619954011964 0.0040779238597679068 -0.00093171619954011964 -2499.7354637281351 -0.0079171324578055646 0.0040779238597679068 -0.0079171324578055646 -9999.6120360304776 0.37737768722945475 -0.0048553296555925154 -0.0020812604150250991 -0.0048553296555925154 -2499.7555147175499 0.0022221504787012236 -0.0020812604150250991 0.0022221504787012236 -9999.6205305840667 0.36391595078021055 0.0017571145710163286 0.0031290698370867176 0.0017571145710163286 -2499.7844819240709 0.0054602894742856734 0.0031290698370867176 0.0054602894742856734 -9999.6303604607383 0.38403217929862876 -0.0057671218478830694 -0.00092376912652980536 -0.0057671218478830694 -2499.7219130553431 0.0088858425333455671 -0.00092376912652980536 0.0088858425333455671 -9999.6270266070605 0.37816216504688782 0.00010507126547464052 0.00261875534124556 0.00010507126547464052 -2499.7101367592932 0.0062099051119730575 0.00261875534124556 0.0062099051119730575 -9999.6278164303658 0.37397718347347109 0.00016178871133848286 0.00064385735504401964 0.00016178871133848286 -2499.7378187586455 0.0016423180040874286 0.00064385735504401964 0.0016423180040874286 -9999.6181909424013 0.37404805843834765 0.0013459775502721386 3.3856278605526313e-05 0.0013459775502721386 -2499.7351733807172 0.0038720990887668449 3.3856278605526313e-05 0.0038720990887668449 -9999.6191270927666 0.3835675520786026 0.012179741895775101 -0.0025415035270270891 0.012179741895775101 -2499.7248832333717 0.0012888479759567417 -0.0025415035270270891 0.0012888479759567417 -9999.6259410601779 0.36856208700919524 0.016370005695215115 -0.00020159526866336819 0.016370005695215115 -2499.7661505718315 -0.013708436541492119 -0.00020159526866336819 -0.013708436541492119 -9999.6257354857953 0.37013791651406791 0.018053367054701099 0.0006851083066976571 0.018053367054701099 -2499.7666021805053 -0.0066875434276880696 0.0006851083066976571 -0.0066875434276880696 -9999.6198161700377 0.38032023965206463 0.01941658201514769 -0.0049726165816537105 0.01941658201514769 -2499.712214652307 0.0060794556193286553 -0.0049726165816537105 0.0060794556193286553 -9999.6248263373418 0.37712879365881236 0.0039368189445884993 -0.0067497976706363261 0.0039368189445884993 -2499.7397581232208 0.011626472846728575 -0.0067497976706363261 0.011626472846728575 -9999.6316058626944 0.38019672998416354 0.0044071674658181237 -0.00034754304579109885 0.0044071674658181237 -2499.748551867302 0.0047477015286858659 -0.00034754304579109885 0.0047477015286858659 -9999.6147245968823 0.37220981495556771 0.0031648566001485426 -0.0017172772522826563 0.0031648566001485426 -2499.7776707000812 0.0046117371803120477 -0.0017172772522826563 0.0046117371803120477 -9999.62035505721 0.37581262001549476 0.00014261741986010962 0.00099430388581822626 0.00014261741986010962 -2499.7565330645775 -0.0030460947769768154 0.00099430388581822626 -0.0030460947769768154 -9999.6193705250334 0.37650331112945423 0.00023362067928461155 0.00096109506557695568 0.00023362067928461155 -2499.7540448153713 -0.0035636501415865496 0.00096109506557695568 -0.0035636501415865496 -9999.6183734222159 0.37360003736284852 -0.00093662506438707549 0.00062586748390458524 -0.00093662506438707549 -2499.7516835208207 0.0039520031314168591 0.00062586748390458524 0.0039520031314168591 -9999.6165698914847 0.36798332768194086 -0.0020428675575150934 -0.0007939852057461394 -0.0020428675575150934 -2499.7809324510908 0.0040375943408434978 -0.0007939852057461394 0.0040375943408434978 -9999.6218247738361 0.37584968113242212 0.0012001377104334243 0.0010149403278774116 0.0012001377104334243 -2499.7566250880727 0.0022952095823711716 0.0010149403278774116 0.0022952095823711716 -9999.6191314882963 0.37298263325828884 -0.0013336771208921541 0.0012663281249842839 -0.0013336771208921541 -2499.7570406152008 0.0046806007776467595 0.0012663281249842839 0.0046806007776467595 -9999.6177638998925 0.37668859748373507 -0.0021307714423164231 0.004792321749846451 -0.0021307714423164231 -2499.7333207773554 0.00089875703270081431 0.004792321749846451 0.00089875703270081431 -9999.6174099509735 0.37041479804975097 -0.010092878744698029 0.0038470361250801943 -0.010092878744698029 -2499.7584908803583 0.0094016231942077866 0.0038470361250801943 0.0094016231942077866 -9999.6247652681341 0.3679268454106932 -0.0021822051497438488 -0.0042014458849735092 -0.0021822051497438488 -2499.7357569089399 0.013964103211037582 -0.0042014458849735092 0.013964103211037582 -9999.6339496079163 0.37404693037933612 -0.016591208504026428 0.00023874353973951656 -0.016591208504026428 -2499.744830469157 0.0079957763409765903 0.00023874353973951656 0.0079957763409765903 -9999.631318101623 0.36834758817690272 -0.0050857894819245422 0.00016057028005889151 -0.0050857894819245422 -2499.775281622864 -0.015375483320895 0.00016057028005889151 -0.015375483320895 -9999.6280167503865 0.37604298381120316 -0.00053626664102297827 -0.0011306604610581417 -0.00053626664102297827 -2499.7524107886093 -0.0021481179974216502 -0.0011306604610581417 -0.0021481179974216502 -9999.6193378615571 0.37064519131308771 -0.008156544523793538 -0.0018586179994599661 -0.008156544523793538 -2499.765611902516 -0.013647966032294789 -0.0018586179994599661 -0.013647966032294789 -9999.6254195403526 0.37912575150403427 -0.0067554432463030195 -0.0021579136046057101 -0.0067554432463030195 -2499.7400674832679 -0.01075371132537839 -0.0021579136046057101 -0.01075371132537839 -9999.6193520360757 0.37746763147515594 0.0013428643810174737 0.002212942923506489 0.0013428643810174737 -2499.7485074550395 -0.0032126859732670709 0.002212942923506489 -0.0032126859732670709 -9999.6228596963265 0.38278526776184663 -0.011942050078328909 -0.0014751075814274373 -0.011942050078328909 -2499.7267885633396 -0.0026549826197879156 -0.0014751075814274373 -0.0026549826197879156 -9999.6179839625474 0.38451563519629417 0.023724360299165935 -0.0014615856925956905 0.023724360299165935 -2499.7226680643726 0.010576991375273792 -0.0014615856925956905 0.010576991375273792 -9999.6211533399619 0.3715777572369916 -0.0019748100698487453 0.001664409111981513 -0.0019748100698487453 -2499.7566929277909 -0.0039463197863369714 0.001664409111981513 -0.0039463197863369714 -9999.6264852021395 0.37471365065903228 -0.00034999739333103908 0.0021241982522042235 -0.00034999739333103908 -2499.7549262278071 -0.0037118079289939487 0.0021241982522042235 -0.0037118079289939487 -9999.6251565953862 0.37312888423002732 0.011006365808958925 -0.00090327571524539962 0.011006365808958925 -2499.756927434215 -0.0073460738822177518 -0.00090327571524539962 -0.0073460738822177518 -9999.6223153265237 0.38103722466621548 0.0128927749556332 -9.4105355856299866e-05 0.0128927749556332 -2499.7372805687592 -0.0070659540142514743 -9.4105355856299866e-05 -0.0070659540142514743 -9999.6170622708123 0.3775857593376486 -0.0030922327864423838 0.00095337527000083355 -0.0030922327864423838 -2499.7480110774827 -0.0079112662533589173 0.00095337527000083355 -0.0079112662533589173 -9999.6204310257817 0.38612483283850452 -0.010213013877720972 -0.0012337320240476402 -0.010213013877720972 -2499.7229756812903 -0.0048439124257129151 -0.0012337320240476402 -0.0048439124257129151 -9999.607915144341 0.38506479286661488 -0.011002187440494027 -0.0022903671269887127 -0.011002187440494027 -2499.7226335800224 -0.0050900582300528185 -0.0022903671269887127 -0.0050900582300528185 -9999.6127616607082 0.37567154907355871 -0.0029915505218015073 0.0011864989764944767 -0.0029915505218015073 -2499.7499285448675 -0.005995564430122613 0.0011864989764944767 -0.005995564430122613 -9999.6263397582152 0.37864360434468836 -0.0019754534689675335 0.0017932137780007906 -0.0019754534689675335 -2499.7421543901055 -0.0037938666828267742 0.0017932137780007906 -0.0037938666828267742 -9999.6230029088911 0.37708332197598793 0.00060386802156915057 0.0025098758671902033 0.00060386802156915057 -2499.7473337066322 -0.0018486745238988078 0.0025098758671902033 -0.0018486745238988078 -9999.621913522933 0.3759384972981934 0.00018318668006788753 0.003378543589860783 0.00018318668006788753 -2499.7477413323795 -0.0014704637178510893 0.003378543589860783 -0.0014704637178510893 -9999.6246230199467 0.37825434639853484 -0.00050879001393677042 0.0012067618663422763 -0.00050879001393677042 -2499.748047247389 -0.0018673688555281842 0.0012067618663422763 -0.0018673688555281842 -9999.6180911690753 0.37725198396583437 0.00014035895642893089 0.0028004515966131294 0.00014035895642893089 -2499.7478979051793 -0.00060404192845453508 0.0028004515966131294 -0.00060404192845453508 -9999.6191177574328 0.37615727344746119 0.00056402611053929259 0.0027862797214766033 0.00056402611053929259 -2499.7511445764394 -0.0035217924196331296 0.0027862797214766033 -0.0035217924196331296 -9999.6208184408933 0.37820430003921501 0.00010446958351645224 0.0013459290657920064 0.00010446958351645224 -2499.7461651469166 -0.0017246190191144706 0.0013459290657920064 -0.0017246190191144706 -9999.6181720581153 0.37769347407265741 0.00023401026589819766 0.0022381810895240051 0.00023401026589819766 -2499.7488805657649 -0.0010684244298317935 0.0022381810895240051 -0.0010684244298317935 -9999.6174219172935 0.37826229425809288 0.0008113331576959505 0.0026187073426626739 0.0008113331576959505 -2499.7435804579382 -0.00068866944911860628 0.0026187073426626739 -0.00068866944911860628 -9999.6199737404932 0.37706340576187358 0.00020682626789218743 0.0019385028404030891 0.00020682626789218743 -2499.7464656402472 -0.0017936991580427275 0.0019385028404030891 -0.0017936991580427275 -9999.6192090028708 0.38567262494507304 -0.00012065536878713701 0.0027135250738865579 -0.00012065536878713701 -2499.7278590749811 0.0048513024430576479 0.0027135250738865579 0.0048513024430576479 -9999.6091799856295 0.37675057709566317 0.00070102474283876203 0.0018234725866932422 0.00070102474283876203 -2499.7476938287546 -0.00091309769504732685 0.0018234725866932422 -0.00091309769504732685 -9999.6183493527715 0.37765398970805109 0.00056710663502137918 0.0014593250616599107 0.00056710663502137918 -2499.7473844624255 -0.002688537620997522 0.0014593250616599107 -0.002688537620997522 -9999.6191577515056 0.37597372107120464 0.0002415953987107261 0.00094347780395764858 0.0002415953987107261 -2499.7514184546726 9.7181323098993744e-05 0.00094347780395764858 9.7181323098993744e-05 -9999.6206037244774 0.37525714370349306 0.00034664613340192898 0.0024532775699412923 0.00034664613340192898 -2499.7517146276277 -0.0025544066193106119 0.0024532775699412923 -0.0025544066193106119 -9999.6243688354007 0.37629199318325846 0.00035613709751079053 0.00076939550490351394 0.00035613709751079053 -2499.7515836613002 0.00011191201338078827 0.00076939550490351394 0.00011191201338078827 -9999.6204570960108 0.37732669011529651 1.1148927030147249e-05 0.0013813364148518303 1.1148927030147249e-05 -2499.7487397125042 -0.0014317000641312916 0.0013813364148518303 -0.0014317000641312916 -9999.6191106261158 0.37716995983464585 -0.00020848725921890574 0.0015833901834412245 -0.00020848725921890574 -2499.7503199583625 -0.0013823076442349702 0.0015833901834412245 -0.0013823076442349702 -9999.6181579415206 0.37439940524382109 0.0011348927124338517 0.001579262069753895 0.0011348927124338517 -2499.7518824836316 0.00035690183904080186 0.001579262069753895 0.00035690183904080186 -9999.6205769702683 0.37756287261800026 -5.5319587449621788e-05 0.0013887290388083784 -5.5319587449621788e-05 -2499.7501746975322 -0.0014850757925159996 0.0013887290388083784 -0.0014850757925159996 -9999.6178158179573 0.37828576160973171 -0.00068753919109395406 0.0012080575033905916 -0.00068753919109395406 -2499.7479476691369 -0.0015596441935485927 0.0012080575033905916 -0.0015596441935485927 -9999.618060881141 0.37444401565699081 0.0012413513810476192 0.0017548915984662017 0.0012413513810476192 -2499.7510774754574 0.00032144322540261783 0.0017548915984662017 0.00032144322540261783 -9999.6207297976143 0.37600400729570538 0.00026952018325734363 0.00083279604768904392 0.00026952018325734363 -2499.7508854796324 4.0528158365304989e-05 0.00083279604768904392 4.0528158365304989e-05 -9999.6208348488944 0.37883529056125553 0.0033588917962927636 0.0022832713621028233 0.0033588917962927636 -2499.740666319547 0.0032366540799557697 0.0022832713621028233 0.0032366540799557697 -9999.6153081223601 0.37618296511391236 0.00088049635270464124 0.00031842094176681712 0.00088049635270464124 -2499.7523112778163 0.0017154642046079971 0.00031842094176681712 0.0017154642046079971 -9999.6188916040082 0.37500790731064626 0.00032732081578691272 0.0011765202980313916 0.00032732081578691272 -2499.7515932622227 -2.8113007601859863e-05 0.0011765202980313916 -2.8113007601859863e-05 -9999.6203971910581 0.3756038209739927 0.00048424339188642487 0.00041797399717324879 0.00048424339188642487 -2499.7515261800199 0.0010696490171540063 0.00041797399717324879 0.0010696490171540063 -9999.6180817282802 0.37501892511863844 0.00026524263451324561 0.0010436435204610461 0.00026524263451324561 -2499.7510365212947 -1.5803598216734827e-06 0.0010436435204610461 -1.5803598216734827e-06 -9999.6204701172574 0.37482907050798531 0.00019263964361096041 0.0011497441337269265 0.00019263964361096041 -2499.7511339801895 0.00010685973029467277 0.0011497441337269265 0.00010685973029467277 -9999.620695036363 0.37523433072237822 2.9957693994936765e-05 0.0010523909477342386 2.9957693994936765e-05 -2499.7501603336768 0.00047819768406043295 0.0010523909477342386 0.00047819768406043295 -9999.620049367848 0.37546887404823792 0.00012352906616175038 0.0016652889135002624 0.00012352906616175038 -2499.7510377611761 -0.00027221420896239579 0.0016652889135002624 -0.00027221420896239579 -9999.6191979546202 0.37599722358572762 -0.00027455559834659374 0.0017102149149650359 -0.00027455559834659374 -2499.7546965115534 0.00033683647757243307 0.0017102149149650359 0.00033683647757243307 -9999.6215887477738 0.378073004066664 -0.00049980836110736625 0.0016712530252789293 -0.00049980836110736625 -2499.748310863341 -0.00010112762902281247 0.0016712530252789293 -0.00010112762902281247 -9999.6195519150278 0.37690140712220455 1.3731802147325621e-05 0.0013567580408562208 1.3731802147325621e-05 -2499.7494323819137 -0.00023545943213321152 0.0013567580408562208 -0.00023545943213321152 -9999.6201191417276 0.37632466058130376 0.00027111291142458945 0.00085153468171483837 0.00027111291142458945 -2499.7499277776442 0.0003645937738383509 0.00085153468171483837 0.0003645937738383509 -9999.620499438759 0.37585059859247849 0.00036753142779656633 0.0016526868639630266 0.00036753142779656633 -2499.750597195155 -0.00022551696747541428 0.0016526868639630266 -0.00022551696747541428 -9999.6191009552786 0.37486223349878856 -0.0021817044465137353 0.00096742249297676608 -0.0021817044465137353 -2499.751604830135 -0.0010928096853604075 0.00096742249297676608 -0.0010928096853604075 -9999.621205341231 0.37667883962058113 0.00043162808908477692 0.0017627443339733873 0.00043162808908477692 -2499.7510109960913 -0.00056190722668247872 0.0017627443339733873 -0.00056190722668247872 -9999.6202533246724 0.37862615432823077 -0.0046496040100340343 0.00044348887240630575 -0.0046496040100340343 -2499.7419248876085 -0.001327946811215952 0.00044348887240630575 -0.001327946811215952 -9999.6189251618744 0.3773612548939127 -0.00062538258404487904 0.0016185589811357204 -0.00062538258404487904 -2499.7439482536047 0.00028413961217665928 0.0016185589811357204 0.00028413961217665928 -9999.6183048819876 0.3781053340244398 -0.0025440021257187168 0.00032123371056513861 -0.0025440021257187168 -2499.7438183785052 0.00050586185716383625 0.00032123371056513861 0.00050586185716383625 -9999.6198455048725 0.3768547959366515 -0.001077947341344862 0.0023889371605037013 -0.001077947341344862 -2499.7481900525167 -0.00063385567227669526 0.0023889371605037013 -0.00063385567227669526 -9999.6213747099628 0.37602120440533326 -0.0025229883175421561 0.00042444112114026211 -0.0025229883175421561 -2499.7431417102198 -0.0013896307489176252 0.00042444112114026211 -0.0013896307489176252 -9999.6198771297022 0.37748361196190672 -0.0030143651417866013 -0.00022278851065493654 -0.0030143651417866013 -2499.7424697410797 -0.00085541980661218986 -0.00022278851065493654 -0.00085541980661218986 -9999.6188103026398 0.37641448681188194 -0.0022069222669782724 0.0011244035667914432 -0.0022069222669782724 -2499.7445667664151 9.1591748059727252e-05 0.0011244035667914432 9.1591748059727252e-05 -9999.6211345023985 0.37563130795615507 -0.0027711559755189412 0.00083282843570486875 -0.0027711559755189412 -2499.7509345675976 -0.0012795058828487527 0.00083282843570486875 -0.0012795058828487527 -9999.6215221439979 0.3763935892839072 -0.0020218744051258633 0.00060450538512668572 -0.0020218744051258633 -2499.7419195303864 0.0010354892037867103 0.00060450538512668572 0.0010354892037867103 -9999.6206153619132 0.37633289482891996 -0.0013301527697653713 0.0028411751991370693 -0.0013301527697653713 -2499.7487244905215 -0.00047686535981483757 0.0028411751991370693 -0.00047686535981483757 -9999.6237010858895 0.38003874087507938 -0.002893940505030855 0.003553615310920577 -0.002893940505030855 -2499.7503001559239 -0.0033913412125912146 0.003553615310920577 -0.0033913412125912146 -9999.6205093088174 0.37638393279667071 -0.0019221101861384687 0.0010066263530461583 -0.0019221101861384687 -2499.745889058433 -0.00104667604136921 0.0010066263530461583 -0.00104667604136921 -9999.6250917836769 0.3809643778940881 -0.0023584684952226861 0.0049707640470160186 -0.0023584684952226861 -2499.7455550630011 -0.0004770372743223561 0.0049707640470160186 -0.0004770372743223561 -9999.615805411835 0.37782867963130684 -0.0018530236870632488 0.0025177523530146573 -0.0018530236870632488 -2499.7480252672067 -0.0001558649209982832 0.0025177523530146573 -0.0001558649209982832 -9999.6232611620635 0.38030887256172718 -0.0019448093928450527 0.0053946259080248637 -0.0019448093928450527 -2499.7462050205522 -0.001071102275091107 0.0053946259080248637 -0.001071102275091107 -9999.6174155158151 0.37755769455179689 -0.00085498588804005116 0.0019200723154426669 -0.00085498588804005116 -2499.7455138428249 -0.0024051425116340397 0.0019200723154426669 -0.0024051425116340397 -9999.6189454770902 0.37621090852644556 0.00040037853812201207 0.0019953816345150699 0.00040037853812201207 -2499.7522785153587 -0.0045658565159101272 0.0019953816345150699 -0.0045658565159101272 -9999.6193653055507 0.37871027344408503 0.0013809778758338447 0.0038401506781156058 0.0013809778758338447 -2499.7449823653496 -0.0021860427705178154 0.0038401506781156058 -0.0021860427705178154 -9999.6180805607437 0.38033651890509645 1.8676321470560697e-05 0.0012007301611447474 1.8676321470560697e-05 -2499.7446269716856 -0.0023274155792023521 0.0012007301611447474 -0.0023274155792023521 -9999.6182189838073 0.37707142983254016 0.00053117544206050804 0.0025335763775728992 0.00053117544206050804 -2499.75225341855 -0.0045370544776233146 0.0025335763775728992 -0.0045370544776233146 -9999.6202136423999 0.37871263449051185 -2.6395717559831236e-05 0.0014032554827281274 -2.6395717559831236e-05 -2499.7445443127526 -0.0018609723974805092 0.0014032554827281274 -0.0018609723974805092 -9999.6177620444869 0.37987795737171837 0.00167933920616663 0.0025018937308232125 0.00167933920616663 -2499.7425612223979 -0.0047840835632086964 0.0025018937308232125 -0.0047840835632086964 -9999.6196115898492 0.37803039301962826 -0.00078539004085885196 0.0020007660863825549 -0.00078539004085885196 -2499.7487041457662 -0.00012593435349117499 0.0020007660863825549 -0.00012593435349117499 -9999.6218295017152 0.38338574550289195 -7.3447310893707402e-06 0.0020392445840116125 -7.3447310893707402e-06 -2499.7327866772721 0.0013481634578056401 0.0020392445840116125 0.0013481634578056401 -9999.6164693412502 0.37641880087176105 -0.00027129724403039636 0.0018465915582055459 -0.00027129724403039636 -2499.7488853172108 -0.0045072087777953129 0.0018465915582055459 -0.0045072087777953129 -9999.6184887848794 0.37697348043548118 -0.0006147262981968934 0.0018744741901173256 -0.0006147262981968934 -2499.7474816045833 4.2466655031603295e-05 0.0018744741901173256 4.2466655031603295e-05 -9999.6217832963448 0.38694669933465775 0.0049572499761334141 0.00040320480366062839 0.0049572499761334141 -2499.7219112463808 -0.0089938459677796345 0.00040320480366062839 -0.0089938459677796345 -9999.6084610716498 0.37411815638984081 0.004339490500176145 0.0016957100970103056 0.004339490500176145 -2499.7547913173357 0.018214968076790683 0.0016957100970103056 0.018214968076790683 -9999.6277425730641 0.37630145404364157 0.0035977874496501976 0.002529686139723708 0.0035977874496501976 -2499.7515038049005 -0.0043739351435476692 0.002529686139723708 -0.0043739351435476692 -9999.6225480985595 0.37572414967034007 0.0070840580613619163 -0.00045564112951979041 0.0070840580613619163 -2499.7435888096925 -0.0016992515938909492 -0.00045564112951979041 -0.0016992515938909492 -9999.6303639237631 0.37831442369432722 0.0060098402374944362 -0.00075920044764643535 0.0060098402374944362 -2499.736873625789 -0.0005480556792463176 -0.00075920044764643535 -0.0005480556792463176 -9999.6280253789173 0.38747295099165058 0.013815784033405498 -0.00095443496684310958 0.013815784033405498 -2499.7156102789231 0.0088269779389520409 -0.00095443496684310958 0.0088269779389520409 -9999.6070420933538 0.388716477811613 0.018873001654727137 0.0014219584536476759 0.018873001654727137 -2499.7011861772444 0.0005451046054076869 0.0014219584536476759 0.0005451046054076869 -9999.6164918920476 0.39103274434182822 0.020902262429514012 -0.0021552099569817074 0.020902262429514012 -2499.7084582063444 -0.004515707807513536 -0.0021552099569817074 -0.004515707807513536 -9999.608785214723 0.37288341734711139 0.012299150194768974 -0.0037632532585121226 0.012299150194768974 -2499.7577257123594 -0.0042334900699643185 -0.0037632532585121226 -0.0042334900699643185 -9999.6251069950376 0.37608755494090929 0.0063341095026548874 -0.0031117996604734799 0.0063341095026548874 -2499.7528112729547 -0.0036873556973660016 -0.0031117996604734799 -0.0036873556973660016 -9999.6233059072638 0.37655612861635746 -0.00508604293652197 -0.0012518118583102478 -0.00508604293652197 -2499.7428194246131 0.0090640784583229106 -0.0012518118583102478 0.0090640784583229106 -9999.6227755421096 0.37129822538372537 -0.002073540945886642 0.0031359903596239747 -0.002073540945886642 -2499.7726951028126 0.0037059727810628829 0.0031359903596239747 0.0037059727810628829 -9999.6328373792167 0.37624174813845457 -0.014442285659537006 0.001141671864388627 -0.014442285659537006 -2499.7456059488168 -0.016341529681085376 0.001141671864388627 -0.016341529681085376 -9999.6230265248705 0.38032036691947724 -0.0047919647926072013 0.0012414866687322501 -0.0047919647926072013 -2499.7407153154345 0.0095785566982158343 0.0012414866687322501 0.0095785566982158343 -9999.6183489821087 0.37867424561136431 0.011086862067673224 -0.00088391717508784495 0.011086862067673224 -2499.7587650177802 -0.0056597845359647181 -0.00088391717508784495 -0.0056597845359647181 -9999.6215468549599 0.38544119549624156 -0.0027446512699154731 0.0018421072999785792 -0.0027446512699154731 -2499.7304444967904 0.00037315663848858094 0.0018421072999785792 0.00037315663848858094 -9999.6187240283143 0.38006606982526137 -0.0069913112964204854 -0.0021778025275125401 -0.0069913112964204854 -2499.7368095566217 -0.022388903311366448 -0.0021778025275125401 -0.022388903311366448 -9999.6140735550289 0.38178785018135386 0.001132059459973276 0.001638184361581807 0.001132059459973276 -2499.7359137328003 0.00031190560548566282 0.001638184361581807 0.00031190560548566282 -9999.6209770497044 0.38264850458108413 -0.0020774721601224708 0.002671571266915862 -0.0020774721601224708 -2499.7414436474501 -0.0059182346030866029 0.002671571266915862 -0.0059182346030866029 -9999.6186934953148 0.37637946034465131 -0.016503357391954618 0.00095443271311523858 -0.016503357391954618 -2499.7393578279934 -0.013906609590776497 0.00095443271311523858 -0.013906609590776497 -9999.6201701916762 0.38214708345458348 -0.0031827446479687077 0.002278177633343148 -0.0031827446479687077 -2499.7425485202448 0.0089360067340749083 0.002278177633343148 0.0089360067340749083 -9999.61968785512 0.37644066582106461 -0.0051771072373375995 -0.00033398854475308326 -0.0051771072373375995 -2499.7537893652088 -0.0001550031493025017 -0.00033398854475308326 -0.0001550031493025017 -9999.6194789235597 0.37611762025392181 -0.0016630134721168019 0.0014897762666805647 -0.0016630134721168019 -2499.7544577892563 -0.00035688894706709107 0.0014897762666805647 -0.00035688894706709107 -9999.6198558250853 0.37989331737298926 -0.0043474871947853872 0.0024572138101177643 -0.0043474871947853872 -2499.7484781000403 -0.0024142258007486816 0.0024572138101177643 -0.0024142258007486816 -9999.6164084151678 0.38104516339080874 -0.0043157712430185596 0.0016878475071280263 -0.0043157712430185596 -2499.74199019156 0.0098863419952976983 0.0016878475071280263 0.0098863419952976983 -9999.6181768453098 0.37975074460155156 8.1052803987853583e-05 -0.001032882781146327 8.1052803987853583e-05 -2499.7198626530117 -0.0065075920028903056 -0.001032882781146327 -0.0065075920028903056 -9999.6261880964375 0.38395676140862633 -0.0024502778742067216 4.9617961849435233e-05 -0.0024502778742067216 -2499.7224859953021 -0.008441226338618435 4.9617961849435233e-05 -0.008441226338618435 -9999.6258008204823 0.3729279679046158 -0.0031068774143373054 -0.0003258173228459782 -0.0031068774143373054 -2499.750589338084 -0.0011700588092935504 -0.0003258173228459782 -0.0011700588092935504 -9999.6206632784306 0.37637200845892949 -0.0033384757449430036 -0.00077257107113837264 -0.0033384757449430036 -2499.7384674799596 -0.0018554413509264123 -0.00077257107113837264 -0.0018554413509264123 -9999.6179832016351 0.3799295608587272 -0.013803715487660899 -0.0038973116606939584 -0.013803715487660899 -2499.7353981930919 -0.0038176598536665551 -0.0038973116606939584 -0.0038176598536665551 -9999.6238046857761 0.37917045943027006 0.0028018552062360029 0.0025340175852761604 0.0028018552062360029 -2499.7480942467582 0.0079270444839494303 0.0025340175852761604 0.0079270444839494303 -9999.6180227244859 0.37653643316662055 -0.0066648638735121515 8.5841154941590503e-05 -0.0066648638735121515 -2499.7529982598753 -0.0037562760298897047 8.5841154941590503e-05 -0.0037562760298897047 -9999.6231324852124 0.3679027678535931 -0.014446672822082209 -0.0013195583378546871 -0.014446672822082209 -2499.7639799326298 -0.0041003284859471023 -0.0013195583378546871 -0.0041003284859471023 -9999.6288387947316 0.37128971851780079 -0.015990263427565706 0.00077443207078431442 -0.015990263427565706 -2499.7621196528853 -0.0067660794347830233 0.00077443207078431442 -0.0067660794347830233 -9999.6195552708741 0.37348772727818869 -0.0038547559008623236 -0.0028746035823132843 -0.0038547559008623236 -2499.7530188619912 0.0011769787461162196 -0.0028746035823132843 0.0011769787461162196 -9999.6279439932478 0.37726038231267012 -0.012485991688631584 0.00021160520554985851 -0.012485991688631584 -2499.7351803488637 0.014441935249124072 0.00021160520554985851 0.014441935249124072 -9999.6227850928262 0.37519817284828605 0.00035192348737276939 0.0025106872299147653 0.00035192348737276939 -2499.755376874692 -0.00096861341444309801 0.0025106872299147653 -0.00096861341444309801 -9999.6210153901629 0.36651224549086692 0.0043388621695548742 0.0010758386820270971 0.0043388621695548742 -2499.7829858352457 0.00045748181355520501 0.0010758386820270971 0.00045748181355520501 -9999.6259526080012 0.36932707406640475 0.0079995275108084331 0.0012919969676659093 0.0079995275108084331 -2499.7737719446045 0.009937312491274497 0.0012919969676659093 0.009937312491274497 -9999.6262128558756 0.37439341718345531 0.0014225528990707212 0.0013489864140865393 0.0014225528990707212 -2499.7555901487867 -0.00080322794383391738 0.0013489864140865393 -0.00080322794383391738 -9999.6199237290857 0.37414972118131118 0.0018609498917226252 0.0020759404214913957 0.0018609498917226252 -2499.755571448266 -0.0022243334751692601 0.0020759404214913957 -0.0022243334751692601 -9999.618647498166 0.38801746245553659 0.019296315870786122 -0.0044072489054087782 0.019296315870786122 -2499.7016201655188 0.015501297693845117 -0.0044072489054087782 0.015501297693845117 -9999.6145633172491 0.38277855782143888 0.02437888160434085 -0.0051092244339088211 0.02437888160434085 -2499.7229307480193 0.0053565837324640597 -0.0051092244339088211 0.0053565837324640597 -9999.6116706058529 0.3788852341749589 0.004067448010242676 0.0041360811082995497 0.004067448010242676 -2499.7364019766137 0.00043018871292588301 0.0041360811082995497 0.00043018871292588301 -9999.6174704989971 0.37906972483688151 0.026488449360048714 -0.0029799155863656779 0.026488449360048714 -2499.7224211927623 0.0017234670740435831 -0.0029799155863656779 0.0017234670740435831 -9999.6270173612211 0.37074317147562397 0.0069931931168165998 -0.00038541725734830834 0.0069931931168165998 -2499.7415717388067 -0.012063491081789834 -0.00038541725734830834 -0.012063491081789834 -9999.6228095108236 0.37132652046420844 0.012198471287229822 0.0033805168786784634 0.012198471287229822 -2499.759489718228 -0.0065787610146799125 0.0033805168786784634 -0.0065787610146799125 -9999.6227850656142 
</DataArray>
</CellData>
</Piece>
</UnstructuredGrid>
</VTKFile>
