<?xml version="1.0"?>
<VTKFile type="UnstructuredGrid" version="0.1" byte_order="LittleEndian">
<UnstructuredGrid>
<Piece NumberOfPoints="2876" NumberOfCells="719">
<Points>
<DataArray type="Float64" NumberOfComponents="3" format="ascii">
0.14641016151452901 0.14641016151487049 0 0.31610726166346748 0.18804489794572149 0 0.312576188949791 0.31458070521983672 0.3125761889497819 0.16929708765618309 0.30074819035915368 0 0 0 0 0 0.14641016151432179 0.14641016151432179 0 0.20000000000083221 0 0.14641016151452901 0.14641016151487049 0 0 0 0 0.14641016151452901 0.14641016151487049 0 0.1464101615145241 0 0.14641016151486561 0.19999999999955789 0 0 0 0 0 0 0 0.20000000000083221 0 0.14641016151432179 0.14641016151432179 0.1464101615145241 0 0.14641016151486561 0 0.14641016151432179 0.14641016151432179 0 0.18804489794560331 0.31610726166461361 0.312576188949791 0.31458070521983672 0.3125761889497819 0 0.30074819035869899 0.1692970876565193 0.1464101615145241 0 0.14641016151486561 0.31578456131778371 0 0.1865278143482666 0.16938214347656569 0 0.30011357660650623 0.312576188949791 0.31458070521983672 0.3125761889497819 0 0 0 0 0.14641016151432179 0.14641016151432179 0.14641016151452901 0.14641016151487049 0 0.1464101615145241 0 0.14641016151486561 0.14641016151452901 0.14641016151487049 0 0.1464101615145241 0 0.14641016151486561 0.31578456131778371 0 0.1865278143482666 0.312576188949791 0.31458070521983672 0.3125761889497819 0 0.14641016151432179 0.14641016151432179 0.14641016151452901 0.14641016151487049 0 0.312576188949791 0.31458070521983672 0.3125761889497819 0 0.30074819035869899 0.1692970876565193 0 0.14641016151432179 0.14641016151432179 0.14641016151452901 0.14641016151487049 0 0.1464101615145241 0 0.14641016151486561 0.312576188949791 0.31458070521983672 0.3125761889497819 0 0.14641016151432179 0.14641016151432179 0.1464101615145241 0 0.14641016151486561 0.16938214347656569 0 0.30011357660650623 0.312576188949791 0.31458070521983672 0.3125761889497819 0 0 0.20000000000083221 0 0.14641016151432179 0.14641016151432179 0.1464101615145241 0 0.14641016151486561 0.16938214347656569 0 0.30011357660650623 0 0 0.20000000000083221 0 0.14641016151432179 0.14641016151432179 0.16938214347656569 0 0.30011357660650623 0 0.18804489794560331 0.31610726166461361 0 0.14641016151432179 0.14641016151432179 0 0.20000000000083221 0 0.14641016151452901 0.14641016151487049 0 0 0.30074819035869899 0.1692970876565193 0 0.20000000000083221 0 0.14641016151452901 0.14641016151487049 0 0.16929708765618309 0.30074819035915368 0 0 0.30074819035869899 0.1692970876565193 0.14641016151452901 0.14641016151487049 0 0.19999999999955789 0 0 0.31610726166346748 0.18804489794572149 0 0.31578456131778371 0 0.1865278143482666 0.14641016151452901 0.14641016151487049 0 0.1464101615145241 0 0.14641016151486561 0.19999999999955789 0 0 0.31578456131778371 0 0.1865278143482666 0.19999999999955789 0 0 0.31610726166346748 0.18804489794572149 0 0.3999999999989749 0 0 0.31578456131778371 0 0.1865278143482666 0.14641016151452901 0.14641016151487049 0 0.31610726166346748 0.18804489794572149 0 0.31578456131778371 0 0.1865278143482666 0.312576188949791 0.31458070521983672 0.3125761889497819 0.31610726166346748 0.18804489794572149 0 0.31578456131778371 0 0.1865278143482666 0.312576188949791 0.31458070521983672 0.3125761889497819 0.5003997205654479 0.21136633249797621 0.2258422409314382 0.31610726166346748 0.18804489794572149 0 0.49391845158624981 0 0.1323760430705655 0.5003997205654479 0.21136633249797621 0.2258422409314382 0.50966790549376417 0.16275515618023731 0 0.31610726166346748 0.18804489794572149 0 0.45812322962036273 0.31024977578535839 0 0.5003997205654479 0.21136633249797621 0.2258422409314382 0.50966790549376417 0.16275515618023731 0 0.31610726166346748 0.18804489794572149 0 0.3999999999989749 0 0 0.49391845158624981 0 0.1323760430705655 0.50966790549376417 0.16275515618023731 0 0.31610726166346748 0.18804489794572149 0 0.3999999999989749 0 0 0.49391845158624981 0 0.1323760430705655 0.31578456131778371 0 0.1865278143482666 0.49391845158624981 0 0.1323760430705655 0.31578456131778371 0 0.1865278143482666 0.47688326899416439 0 0.31741132792405607 0.5003997205654479 0.21136633249797621 0.2258422409314382 0.31610726166346748 0.18804489794572149 0 0.49391845158624981 0 0.1323760430705655 0.31578456131778371 0 0.1865278143482666 0.5003997205654479 0.21136633249797621 0.2258422409314382 0.32146143392436449 0 0.38738071487621961 0.50073570207385831 0.24848280280289631 0.52886631355986169 0.22088738526309029 0.22111069116742441 0.50004796911802929 0.31030302876556398 0 0.54179813558513157 0.32146143392436449 0 0.38738071487621961 0.16938214347656569 0 0.30011357660650623 0.312576188949791 0.31458070521983672 0.3125761889497819 0.22088738526309029 0.22111069116742441 0.50004796911802929 0.32146143392436449 0 0.38738071487621961 0.312576188949791 0.31458070521983672 0.3125761889497819 0.50073570207385831 0.24848280280289631 0.52886631355986169 0.22088738526309029 0.22111069116742441 0.50004796911802929 0.47688326899416439 0 0.31741132792405607 0.32146143392436449 0 0.38738071487621961 0.5003997205654479 0.21136633249797621 0.2258422409314382 0.50073570207385831 0.24848280280289631 0.52886631355986169 0.32146143392436449 0 0.38738071487621961 0.312576188949791 0.31458070521983672 0.3125761889497819 0.5003997205654479 0.21136633249797621 0.2258422409314382 0.50073570207385831 0.24848280280289631 0.52886631355986169 0.31578456131778371 0 0.1865278143482666 0.32146143392436449 0 0.38738071487621961 0.16938214347656569 0 0.30011357660650623 0.312576188949791 0.31458070521983672 0.3125761889497819 0.31578456131778371 0 0.1865278143482666 0.32146143392436449 0 0.38738071487621961 0.312576188949791 0.31458070521983672 0.3125761889497819 0.5003997205654479 0.21136633249797621 0.2258422409314382 0.31578456131778371 0 0.1865278143482666 0.47688326899416439 0 0.31741132792405607 0.32146143392436449 0 0.38738071487621961 0.5003997205654479 0.21136633249797621 0.2258422409314382 0.32146143392436449 0 0.38738071487621961 0.50000000000250922 0 0.48038475773043671 0.50073570207385831 0.24848280280289631 0.52886631355986169 0.31030302876556398 0 0.54179813558513157 0.47688326899416439 0 0.31741132792405607 0.32146143392436449 0 0.38738071487621961 0.50000000000250922 0 0.48038475773043671 0.50073570207385831 0.24848280280289631 0.52886631355986169 0.32146143392436449 0 0.38738071487621961 0.16370661204827031 0 0.4886650857430957 0.22088738526309029 0.22111069116742441 0.50004796911802929 0.31030302876556398 0 0.54179813558513157 0.32146143392436449 0 0.38738071487621961 0.16370661204827031 0 0.4886650857430957 0.16938214347656569 0 0.30011357660650623 0.22088738526309029 0.22111069116742441 0.50004796911802929 0 0.14641016151432179 0.14641016151432179 0.16938214347656569 0 0.30011357660650623 0 0.18804489794560331 0.31610726166461361 0.312576188949791 0.31458070521983672 0.3125761889497819 0.16370661204827031 0 0.4886650857430957 0.16938214347656569 0 0.30011357660650623 0 0.18804489794560331 0.31610726166461361 0.22088738526309029 0.22111069116742441 0.50004796911802929 0.16938214347656569 0 0.30011357660650623 0 0.18804489794560331 0.31610726166461361 0.312576188949791 0.31458070521983672 0.3125761889497819 0.22088738526309029 0.22111069116742441 0.50004796911802929 0.16370661204827031 0 0.4886650857430957 0 0 0.40000000000166441 0 0.16275515618034081 0.50966790549591257 0 0 0.60000000000138687 0.16370661204827031 0 0.4886650857430957 0 0 0.40000000000166441 0.16938214347656569 0 0.30011357660650623 0 0.18804489794560331 0.31610726166461361 0.16370661204827031 0 0.4886650857430957 0 0 0.40000000000166441 0 0.18804489794560331 0.31610726166461361 0 0.16275515618034081 0.50966790549591257 0 0 0.20000000000083221 0 0 0.40000000000166441 0.16938214347656569 0 0.30011357660650623 0 0.18804489794560331 0.31610726166461361 0.16370661204827031 0 0.4886650857430957 0 0.18804489794560331 0.31610726166461361 0.22088738526309029 0.22111069116742441 0.50004796911802929 0 0.16275515618034081 0.50966790549591257 0 0.18804489794560331 0.31610726166461361 0 0.31024977578556651 0.45812322962166352 0.22088738526309029 0.22111069116742441 0.50004796911802929 0 0.16275515618034081 0.50966790549591257 0 0.18804489794560331 0.31610726166461361 0 0.39615100178029522 0.32925244736138171 0.312576188949791 0.31458070521983672 0.3125761889497819 0 0.30074819035869899 0.1692970876565193 0 0.31024977578556651 0.45812322962166352 0.312576188949791 0.31458070521983672 0.3125761889497819 0.24769234054476261 0.52242103280823293 0.45098450226372488 0.22088738526309029 0.22111069116742441 0.50004796911802929 0 0.18804489794560331 0.31610726166461361 0 0.31024977578556651 0.45812322962166352 0 0.39615100178029522 0.32925244736138171 0.312576188949791 0.31458070521983672 0.3125761889497819 0 0.39615100178029522 0.32925244736138171 0.312576188949791 0.31458070521983672 0.3125761889497819 0.22345881830598399 0.5062398304147856 0.22345881830602041 0.24769234054476261 0.52242103280823293 0.45098450226372488 0 0.31024977578556651 0.45812322962166352 0 0.39615100178029522 0.32925244736138171 0.312576188949791 0.31458070521983672 0.3125761889497819 0.24769234054476261 0.52242103280823293 0.45098450226372488 0 0.39615100178029522 0.32925244736138171 0.312576188949791 0.31458070521983672 0.3125761889497819 0 0.30074819035869899 0.1692970876565193 0.22345881830598399 0.5062398304147856 0.22345881830602041 0 0.18804489794560331 0.31610726166461361 0 0.31024977578556651 0.45812322962166352 0.312576188949791 0.31458070521983672 0.3125761889497819 0.22088738526309029 0.22111069116742441 0.50004796911802929 0 0.31024977578556651 0.45812322962166352 0 0.39615100178029522 0.32925244736138171 0.24769234054476261 0.52242103280823293 0.45098450226372488 0 0.50000000000237477 0.51961524226909872 0.312576188949791 0.31458070521983672 0.3125761889497819 0.5004045312576143 0.47050700646456922 0.24963111222780321 0.50000000000001332 0.49999999999999561 0.49999999999999561 0.50073570207385831 0.24848280280289631 0.52886631355986169 0.312576188949791 0.31458070521983672 0.3125761889497819 0.22345881830598399 0.5062398304147856 0.22345881830602041 0.24769234054476261 0.52242103280823293 0.45098450226372488 0.5004045312576143 0.47050700646456922 0.24963111222780321 0.312576188949791 0.31458070521983672 0.3125761889497819 0.5003997205654479 0.21136633249797621 0.2258422409314382 0.5004045312576143 0.47050700646456922 0.24963111222780321 0.50073570207385831 0.24848280280289631 0.52886631355986169 0.312576188949791 0.31458070521983672 0.3125761889497819 0.24769234054476261 0.52242103280823293 0.45098450226372488 0.50000000000001332 0.49999999999999561 0.49999999999999561 0.50073570207385831 0.24848280280289631 0.52886631355986169 0.312576188949791 0.31458070521983672 0.3125761889497819 0.24769234054476261 0.52242103280823293 0.45098450226372488 0.5004045312576143 0.47050700646456922 0.24963111222780321 0.50000000000001332 0.49999999999999561 0.49999999999999561 0.312576188949791 0.31458070521983672 0.3125761889497819 0.24769234054476261 0.52242103280823293 0.45098450226372488 0.50073570207385831 0.24848280280289631 0.52886631355986169 0.22088738526309029 0.22111069116742441 0.50004796911802929 0.312576188949791 0.31458070521983672 0.3125761889497819 0.45812322962036273 0.31024977578535839 0 0.32925244736090059 0.39615100178043078 0 0.5004045312576143 0.47050700646456922 0.24963111222780321 0.32925244736090059 0.39615100178043078 0 0.22345881830598399 0.5062398304147856 0.22345881830602041 0.32446581821364329 0.60020898676454815 0 0.5004045312576143 0.47050700646456922 0.24963111222780321 0.312576188949791 0.31458070521983672 0.3125761889497819 0.45812322962036273 0.31024977578535839 0 0.5003997205654479 0.21136633249797621 0.2258422409314382 0.5004045312576143 0.47050700646456922 0.24963111222780321 0.31610726166346748 0.18804489794572149 0 0.312576188949791 0.31458070521983672 0.3125761889497819 0.45812322962036273 0.31024977578535839 0 0.32925244736090059 0.39615100178043078 0 0.312576188949791 0.31458070521983672 0.3125761889497819 0.32925244736090059 0.39615100178043078 0 0.16929708765618309 0.30074819035915368 0 0.22345881830598399 0.5062398304147856 0.22345881830602041 0.31610726166346748 0.18804489794572149 0 0.312576188949791 0.31458070521983672 0.3125761889497819 0.45812322962036273 0.31024977578535839 0 0.5003997205654479 0.21136633249797621 0.2258422409314382 0.312576188949791 0.31458070521983672 0.3125761889497819 0.32925244736090059 0.39615100178043078 0 0.22345881830598399 0.5062398304147856 0.22345881830602041 0.5004045312576143 0.47050700646456922 0.24963111222780321 0.31610726166346748 0.18804489794572149 0 0.312576188949791 0.31458070521983672 0.3125761889497819 0.32925244736090059 0.39615100178043078 0 0.16929708765618309 0.30074819035915368 0 0.32925244736090059 0.39615100178043078 0 0.32446581821364329 0.60020898676454815 0 0.51961524226956368 0.5000000000025091 0 0.5004045312576143 0.47050700646456922 0.24963111222780321 0.45812322962036273 0.31024977578535839 0 0.32925244736090059 0.39615100178043078 0 0.51961524226956368 0.5000000000025091 0 0.5004045312576143 0.47050700646456922 0.24963111222780321 0.14641016151452901 0.14641016151487049 0 0.312576188949791 0.31458070521983672 0.3125761889497819 0.16929708765618309 0.30074819035915368 0 0 0.30074819035869899 0.1692970876565193 0.312576188949791 0.31458070521983672 0.3125761889497819 0.16929708765618309 0.30074819035915368 0 0 0.30074819035869899 0.1692970876565193 0.22345881830598399 0.5062398304147856 0.22345881830602041 0.17226134197279269 0.49836539647922029 0 0.16929708765618309 0.30074819035915368 0 0 0.49836539647891548 0.17226134197271731 0.22345881830598399 0.5062398304147856 0.22345881830602041 0.32925244736090059 0.39615100178043078 0 0.17226134197279269 0.49836539647922029 0 0.16929708765618309 0.30074819035915368 0 0.22345881830598399 0.5062398304147856 0.22345881830602041 0 0.20000000000083221 0 0.16929708765618309 0.30074819035915368 0 0 0.30074819035869899 0.1692970876565193 0 0.40000000000166441 0 0.16929708765618309 0.30074819035915368 0 0 0.30074819035869899 0.1692970876565193 0 0.49836539647891548 0.17226134197271731 0 0.40000000000166441 0 0.16929708765618309 0.30074819035915368 0 0 0.30074819035869899 0.1692970876565193 0 0.49836539647891548 0.17226134197271731 0.22345881830598399 0.5062398304147856 0.22345881830602041 0 0.39615100178029522 0.32925244736138171 0 0.30074819035869899 0.1692970876565193 0 0.49836539647891548 0.17226134197271731 0.22345881830598399 0.5062398304147856 0.22345881830602041 0.17226134197279269 0.49836539647922029 0 0 0.49836539647891548 0.17226134197271731 0 0.40000000000166441 0 0 0.60000000000138687 0 0.17226134197279269 0.49836539647922029 0 0.16929708765618309 0.30074819035915368 0 0 0.49836539647891548 0.17226134197271731 0 0.40000000000166441 0 0.22345881830598399 0.5062398304147856 0.22345881830602041 0 0.69449451837103049 0.15896804272139439 0 0.60020898676435996 0.32446581821286191 0.19259015428765269 0.77719169076434647 0.19259015428773721 0.1589680427220837 0.69449451837091269 0 0.22345881830598399 0.5062398304147856 0.22345881830602041 0 0.69449451837103049 0.15896804272139439 0.19259015428765269 0.77719169076434647 0.19259015428773721 0.17226134197279269 0.49836539647922029 0 0 0.60000000000138687 0 0.1589680427220837 0.69449451837091269 0 0 0.69449451837103049 0.15896804272139439 0.1589680427220837 0.69449451837091269 0 0.22345881830598399 0.5062398304147856 0.22345881830602041 0.19259015428765269 0.77719169076434647 0.19259015428773721 0.32446581821364329 0.60020898676454815 0 0.17226134197279269 0.49836539647922029 0 0 0.49836539647891548 0.17226134197271731 0 0.60000000000138687 0 0 0.69449451837103049 0.15896804272139439 0 0.60000000000138687 0 0.1589680427220837 0.69449451837091269 0 0 0.69449451837103049 0.15896804272139439 0 0.79999999999999982 0 0.1589680427220837 0.69449451837091269 0 0.19259015428765269 0.77719169076434647 0.19259015428773721 0.31067093463127438 0.81480288849489035 0 0.32446581821364329 0.60020898676454815 0 0.17226134197279269 0.49836539647922029 0 0.1589680427220837 0.69449451837091269 0 0.22345881830598399 0.5062398304147856 0.22345881830602041 0.32446581821364329 0.60020898676454815 0 0.17226134197279269 0.49836539647922029 0 0.1589680427220837 0.69449451837091269 0 0.22345881830598399 0.5062398304147856 0.22345881830602041 0 0.69449451837103049 0.15896804272139439 0 0.69449451837103049 0.15896804272139439 0 0.60020898676435996 0.32446581821286191 0 0.81480288849496429 0.31067093462946233 0.19259015428765269 0.77719169076434647 0.19259015428773721 0 0.49836539647891548 0.17226134197271731 0.22345881830598399 0.5062398304147856 0.22345881830602041 0 0.69449451837103049 0.15896804272139439 0 0.60020898676435996 0.32446581821286191 0.17226134197279269 0.49836539647922029 0 0 0.49836539647891548 0.17226134197271731 0.22345881830598399 0.5062398304147856 0.22345881830602041 0 0.69449451837103049 0.15896804272139439 0 0.60020898676435996 0.32446581821286191 0.22516916914780419 0.77057994845201627 0.48187244075707292 0.19259015428765269 0.77719169076434647 0.19259015428773721 0.35848654557803328 0.70013656506632282 0.30029870175293161 0 0.39615100178029522 0.32925244736138171 0.22345881830598399 0.5062398304147856 0.22345881830602041 0 0.60020898676435996 0.32446581821286191 0.24769234054476261 0.52242103280823293 0.45098450226372488 0 0.60020898676435996 0.32446581821286191 0 0.81480288849496429 0.31067093462946233 0.22516916914780419 0.77057994845201627 0.48187244075707292 0.19259015428765269 0.77719169076434647 0.19259015428773721 0.22345881830598399 0.5062398304147856 0.22345881830602041 0 0.60020898676435996 0.32446581821286191 0.19259015428765269 0.77719169076434647 0.19259015428773721 0.35848654557803328 0.70013656506632282 0.30029870175293161 0 0.39615100178029522 0.32925244736138171 0 0.49836539647891548 0.17226134197271731 0.22345881830598399 0.5062398304147856 0.22345881830602041 0 0.60020898676435996 0.32446581821286191 0 0.60020898676435996 0.32446581821286191 0.24769234054476261 0.52242103280823293 0.45098450226372488 0.22516916914780419 0.77057994845201627 0.48187244075707292 0.35848654557803328 0.70013656506632282 0.30029870175293161 0.22345881830598399 0.5062398304147856 0.22345881830602041 0 0.60020898676435996 0.32446581821286191 0.24769234054476261 0.52242103280823293 0.45098450226372488 0.35848654557803328 0.70013656506632282 0.30029870175293161 0 0.39615100178029522 0.32925244736138171 0 0.60020898676435996 0.32446581821286191 0.24769234054476261 0.52242103280823293 0.45098450226372488 0 0.50000000000237477 0.51961524226909872 0 0.60020898676435996 0.32446581821286191 0.24769234054476261 0.52242103280823293 0.45098450226372488 0 0.68801781652248195 0.45664527743358641 0 0.50000000000237477 0.51961524226909872 0.24769234054476261 0.52242103280823293 0.45098450226372488 0 0.68801781652248195 0.45664527743358641 0.22516916914780419 0.77057994845201627 0.48187244075707292 0 0.66416205381430016 0.59944234540882957 0 0.60020898676435996 0.32446581821286191 0 0.68801781652248195 0.45664527743358641 0 0.81480288849496429 0.31067093462946233 0.22516916914780419 0.77057994845201627 0.48187244075707292 0 0.60020898676435996 0.32446581821286191 0.24769234054476261 0.52242103280823293 0.45098450226372488 0 0.68801781652248195 0.45664527743358641 0.22516916914780419 0.77057994845201627 0.48187244075707292 0.22516916914780419 0.77057994845201627 0.48187244075707292 0.16929708765615539 1 0.30074819035677097 0.19259015428765269 0.77719169076434647 0.19259015428773721 0.32926555316115258 1 0.39615987727515128 0 0.81480288849496429 0.31067093462946233 0.22516916914780419 0.77057994845201627 0.48187244075707292 0.16929708765615539 1 0.30074819035677097 0.19259015428765269 0.77719169076434647 0.19259015428773721 0 0.81480288849496429 0.31067093462946233 0.22516916914780419 0.77057994845201627 0.48187244075707292 0.17226134197293 1 0.49836539647645101 0 0.83630110503664845 0.50803330197135654 0 0.68801781652248195 0.45664527743358641 0 0.81480288849496429 0.31067093462946233 0.22516916914780419 0.77057994845201627 0.48187244075707292 0 0.83630110503664845 0.50803330197135654 0 0.81480288849496429 0.31067093462946233 0 1 0.3999999999989749 0.17226134197293 1 0.49836539647645101 0 0.83630110503664845 0.50803330197135654 0 0.81480288849496429 0.31067093462946233 0 1 0.3999999999989749 0.17226134197293 1 0.49836539647645101 0.16929708765615539 1 0.30074819035677097 0 0.81480288849496429 0.31067093462946233 0.22516916914780419 0.77057994845201627 0.48187244075707292 0.17226134197293 1 0.49836539647645101 0.16929708765615539 1 0.30074819035677097 0.22516916914780419 0.77057994845201627 0.48187244075707292 0.17226134197293 1 0.49836539647645101 0.16929708765615539 1 0.30074819035677097 0.32926555316115258 1 0.39615987727515128 0 0.81480288849496429 0.31067093462946233 0 1 0.3999999999989749 0.16929708765615539 1 0.30074819035677097 0 1 0.19999999999955789 0 0.81480288849496429 0.31067093462946233 0.16929708765615539 1 0.30074819035677097 0 1 0.19999999999955789 0 0.85358983848655678 0.14641016151332509 0.16929708765615539 1 0.30074819035677097 0 1 0.19999999999955789 0 0.85358983848655678 0.14641016151332509 0.14641016151352521 1 0.1464101615131837 0 1 0 0.14641016151479211 0.85358983848543113 0 0.20000000000083221 1 0 0.14641016151352521 1 0.1464101615131837 0 1 0.19999999999955789 0 1 0 0 0.85358983848655678 0.14641016151332509 0.14641016151352521 1 0.1464101615131837 0 1 0 0 0.85358983848655678 0.14641016151332509 0.14641016151479211 0.85358983848543113 0 0.14641016151352521 1 0.1464101615131837 0 1 0 0 0.79999999999999982 0 0 0.85358983848655678 0.14641016151332509 0.14641016151479211 0.85358983848543113 0 0.1589680427220837 0.69449451837091269 0 0 0.69449451837103049 0.15896804272139439 0 0.85358983848655678 0.14641016151332509 0.19259015428765269 0.77719169076434647 0.19259015428773721 0.1589680427220837 0.69449451837091269 0 0 0.79999999999999982 0 0 0.85358983848655678 0.14641016151332509 0.14641016151479211 0.85358983848543113 0 0 0.85358983848655678 0.14641016151332509 0.19259015428765269 0.77719169076434647 0.19259015428773721 0.14641016151479211 0.85358983848543113 0 0.14641016151352521 1 0.1464101615131837 0.1589680427220837 0.69449451837091269 0 0 0.69449451837103049 0.15896804272139439 0 0.79999999999999982 0 0 0.85358983848655678 0.14641016151332509 0.1589680427220837 0.69449451837091269 0 0 0.85358983848655678 0.14641016151332509 0.19259015428765269 0.77719169076434647 0.19259015428773721 0.14641016151479211 0.85358983848543113 0 0 0.81480288849496429 0.31067093462946233 0.16929708765615539 1 0.30074819035677097 0 0.85358983848655678 0.14641016151332509 0.19259015428765269 0.77719169076434647 0.19259015428773721 0 0.69449451837103049 0.15896804272139439 0 0.81480288849496429 0.31067093462946233 0 0.85358983848655678 0.14641016151332509 0.19259015428765269 0.77719169076434647 0.19259015428773721 0.19259015428765269 0.77719169076434647 0.19259015428773721 0.14641016151479211 0.85358983848543113 0 0.14641016151352521 1 0.1464101615131837 0.31067093463127438 0.81480288849489035 0 0.1589680427220837 0.69449451837091269 0 0.19259015428765269 0.77719169076434647 0.19259015428773721 0.14641016151479211 0.85358983848543113 0 0.31067093463127438 0.81480288849489035 0 0.14641016151479211 0.85358983848543113 0 0.20000000000083221 1 0 0.14641016151352521 1 0.1464101615131837 0.31067093463127438 0.81480288849489035 0 0.20000000000083221 1 0 0.14641016151352521 1 0.1464101615131837 0.31635851157303152 1 0.18818969570840721 0.31067093463127438 0.81480288849489035 0 0.19259015428765269 0.77719169076434647 0.19259015428773721 0.14641016151352521 1 0.1464101615131837 0.31635851157303152 1 0.18818969570840721 0.31067093463127438 0.81480288849489035 0 0.16929708765615539 1 0.30074819035677097 0.19259015428765269 0.77719169076434647 0.19259015428773721 0.14641016151352521 1 0.1464101615131837 0.31635851157303152 1 0.18818969570840721 0.16929708765615539 1 0.30074819035677097 0 0.85358983848655678 0.14641016151332509 0.19259015428765269 0.77719169076434647 0.19259015428773721 0.14641016151352521 1 0.1464101615131837 0.19259015428765269 0.77719169076434647 0.19259015428773721 0.31635851157303152 1 0.18818969570840721 0.35848654557803328 0.70013656506632282 0.30029870175293161 0.52894546611500048 0.79133000140429866 0.2082794184507949 0.19259015428765269 0.77719169076434647 0.19259015428773721 0.31067093463127438 0.81480288849489035 0 0.35848654557803328 0.70013656506632282 0.30029870175293161 0.52894546611500048 0.79133000140429866 0.2082794184507949 0.19259015428765269 0.77719169076434647 0.19259015428773721 0.31635851157303152 1 0.18818969570840721 0.31067093463127438 0.81480288849489035 0 0.52894546611500048 0.79133000140429866 0.2082794184507949 0.20000000000083221 1 0 0.31635851157303152 1 0.18818969570840721 0.31067093463127438 0.81480288849489035 0 0.40000000000166441 1 0 0.31635851157303152 1 0.18818969570840721 0.31067093463127438 0.81480288849489035 0 0.50803330197353713 0.83630110503668265 0 0.52894546611500048 0.79133000140429866 0.2082794184507949 0.31067093463127438 0.81480288849489035 0 0.45664527743509797 0.68801781652245086 0 0.50803330197353713 0.83630110503668265 0 0.52894546611500048 0.79133000140429866 0.2082794184507949 0.31635851157303152 1 0.18818969570840721 0.40000000000166441 1 0 0.51133491425992716 1 0.16370661204795281 0.50803330197353713 0.83630110503668265 0 0.31635851157303152 1 0.18818969570840721 0.31067093463127438 0.81480288849489035 0 0.40000000000166441 1 0 0.50803330197353713 0.83630110503668265 0 0.31635851157303152 1 0.18818969570840721 0.45820186441796368 1 0.31030302876579191 0.51133491425992716 1 0.16370661204795281 0.52894546611500048 0.79133000140429866 0.2082794184507949 0.31635851157303152 1 0.18818969570840721 0.51133491425992716 1 0.16370661204795281 0.50803330197353713 0.83630110503668265 0 0.52894546611500048 0.79133000140429866 0.2082794184507949 0.22516916914780419 0.77057994845201627 0.48187244075707292 0.32926555316115258 1 0.39615987727515128 0.35848654557803328 0.70013656506632282 0.30029870175293161 0.49983993748706529 0.75039103705932653 0.52967335724801234 0.22516916914780419 0.77057994845201627 0.48187244075707292 0.19259015428765269 0.77719169076434647 0.19259015428773721 0.32926555316115258 1 0.39615987727515128 0.35848654557803328 0.70013656506632282 0.30029870175293161 0.31635851157303152 1 0.18818969570840721 0.45820186441796368 1 0.31030302876579191 0.32926555316115258 1 0.39615987727515128 0.35848654557803328 0.70013656506632282 0.30029870175293161 0.31635851157303152 1 0.18818969570840721 0.45820186441796368 1 0.31030302876579191 0.35848654557803328 0.70013656506632282 0.30029870175293161 0.52894546611500048 0.79133000140429866 0.2082794184507949 0.19259015428765269 0.77719169076434647 0.19259015428773721 0.31635851157303152 1 0.18818969570840721 0.32926555316115258 1 0.39615987727515128 0.35848654557803328 0.70013656506632282 0.30029870175293161 0.45820186441796368 1 0.31030302876579191 0.35848654557803328 0.70013656506632282 0.30029870175293161 0.52894546611500048 0.79133000140429866 0.2082794184507949 0.49983993748706529 0.75039103705932653 0.52967335724801234 0.45820186441796368 1 0.31030302876579191 0.32926555316115258 1 0.39615987727515128 0.35848654557803328 0.70013656506632282 0.30029870175293161 0.49983993748706529 0.75039103705932653 0.52967335724801234 0.16929708765615539 1 0.30074819035677097 0.19259015428765269 0.77719169076434647 0.19259015428773721 0.31635851157303152 1 0.18818969570840721 0.32926555316115258 1 0.39615987727515128 0.22516916914780419 0.77057994845201627 0.48187244075707292 0.17226134197293 1 0.49836539647645101 0.32926555316115258 1 0.39615987727515128 0.32448110831226962 1 0.6002015905153204 0.45820186441796368 1 0.31030302876579191 0.32926555316115258 1 0.39615987727515128 0.51961524227008238 1 0.49999999999872219 0.49983993748706529 0.75039103705932653 0.52967335724801234 0.24769234054476261 0.52242103280823293 0.45098450226372488 0.22516916914780419 0.77057994845201627 0.48187244075707292 0.35848654557803328 0.70013656506632282 0.30029870175293161 0.49983993748706529 0.75039103705932653 0.52967335724801234 0.24769234054476261 0.52242103280823293 0.45098450226372488 0.35848654557803328 0.70013656506632282 0.30029870175293161 0.5004045312576143 0.47050700646456922 0.24963111222780321 0.50000000000001332 0.49999999999999561 0.49999999999999561 0.24769234054476261 0.52242103280823293 0.45098450226372488 0.35848654557803328 0.70013656506632282 0.30029870175293161 0.50000000000001332 0.49999999999999561 0.49999999999999561 0.49983993748706529 0.75039103705932653 0.52967335724801234 0.22345881830598399 0.5062398304147856 0.22345881830602041 0.24769234054476261 0.52242103280823293 0.45098450226372488 0.35848654557803328 0.70013656506632282 0.30029870175293161 0.5004045312576143 0.47050700646456922 0.24963111222780321 0.22345881830598399 0.5062398304147856 0.22345881830602041 0.35848654557803328 0.70013656506632282 0.30029870175293161 0.32446581821364329 0.60020898676454815 0 0.5004045312576143 0.47050700646456922 0.24963111222780321 0.31067093463127438 0.81480288849489035 0 0.35848654557803328 0.70013656506632282 0.30029870175293161 0.32446581821364329 0.60020898676454815 0 0.45664527743509797 0.68801781652245086 0 0.22345881830598399 0.5062398304147856 0.22345881830602041 0.19259015428765269 0.77719169076434647 0.19259015428773721 0.35848654557803328 0.70013656506632282 0.30029870175293161 0.32446581821364329 0.60020898676454815 0 0.35848654557803328 0.70013656506632282 0.30029870175293161 0.32446581821364329 0.60020898676454815 0 0.45664527743509797 0.68801781652245086 0 0.5004045312576143 0.47050700646456922 0.24963111222780321 0.19259015428765269 0.77719169076434647 0.19259015428773721 0.31067093463127438 0.81480288849489035 0 0.35848654557803328 0.70013656506632282 0.30029870175293161 0.32446581821364329 0.60020898676454815 0 0.31067093463127438 0.81480288849489035 0 0.35848654557803328 0.70013656506632282 0.30029870175293161 0.45664527743509797 0.68801781652245086 0 0.52894546611500048 0.79133000140429866 0.2082794184507949 0.35848654557803328 0.70013656506632282 0.30029870175293161 0.45664527743509797 0.68801781652245086 0 0.52894546611500048 0.79133000140429866 0.2082794184507949 0.5004045312576143 0.47050700646456922 0.24963111222780321 0.32925244736090059 0.39615100178043078 0 0.17226134197279269 0.49836539647922029 0 0.22345881830598399 0.5062398304147856 0.22345881830602041 0.32446581821364329 0.60020898676454815 0 0.32446581821364329 0.60020898676454815 0 0.45664527743509797 0.68801781652245086 0 0.51961524226956368 0.5000000000025091 0 0.5004045312576143 0.47050700646456922 0.24963111222780321 0.59944234541082553 0.66416205381394655 0 0.72722573386132172 0.60922248848163563 0 0.68456408135056701 0.68607101396845627 0.31096060989957619 0.77713227489941183 0.50036915849493024 0.21774643624003751 0.59944234541082553 0.66416205381394655 0 0.68456408135056701 0.68607101396845627 0.31096060989957619 0.77713227489941183 0.50036915849493024 0.21774643624003751 0.5004045312576143 0.47050700646456922 0.24963111222780321 0.45664527743509797 0.68801781652245086 0 0.59944234541082553 0.66416205381394655 0 0.52894546611500048 0.79133000140429866 0.2082794184507949 0.5004045312576143 0.47050700646456922 0.24963111222780321 0.51961524226956368 0.5000000000025091 0 0.59944234541082553 0.66416205381394655 0 0.67320508075660079 0.46954769941202479 0 0.5004045312576143 0.47050700646456922 0.24963111222780321 0.59944234541082553 0.66416205381394655 0 0.68456408135056701 0.68607101396845627 0.31096060989957619 0.52894546611500048 0.79133000140429866 0.2082794184507949 0.5004045312576143 0.47050700646456922 0.24963111222780321 0.59944234541082553 0.66416205381394655 0 0.77713227489941183 0.50036915849493024 0.21774643624003751 0.67320508075660079 0.46954769941202479 0 0.5004045312576143 0.47050700646456922 0.24963111222780321 0.59944234541082553 0.66416205381394655 0 0.68456408135056701 0.68607101396845627 0.31096060989957619 0.52894546611500048 0.79133000140429866 0.2082794184507949 0.81582077266975173 0.77657922508894406 0.18483084990574741 0.45664527743509797 0.68801781652245086 0 0.51961524226956368 0.5000000000025091 0 0.59944234541082553 0.66416205381394655 0 0.5004045312576143 0.47050700646456922 0.24963111222780321 0.59944234541082553 0.66416205381394655 0 0.72722573386132172 0.60922248848163563 0 0.68456408135056701 0.68607101396845627 0.31096060989957619 0.81582077266975173 0.77657922508894406 0.18483084990574741 0.45664527743509797 0.68801781652245086 0 0.59944234541082553 0.66416205381394655 0 0.50803330197353713 0.83630110503668265 0 0.52894546611500048 0.79133000140429866 0.2082794184507949 0.59944234541082553 0.66416205381394655 0 0.72722573386132172 0.60922248848163563 0 0.7054234997318658 0.80860557108880304 0 0.81582077266975173 0.77657922508894406 0.18483084990574741 0.59944234541082553 0.66416205381394655 0 0.72722573386132172 0.60922248848163563 0 0.77713227489941183 0.50036915849493024 0.21774643624003751 0.67320508075660079 0.46954769941202479 0 0.35848654557803328 0.70013656506632282 0.30029870175293161 0.68456408135056701 0.68607101396845627 0.31096060989957619 0.52894546611500048 0.79133000140429866 0.2082794184507949 0.5004045312576143 0.47050700646456922 0.24963111222780321 0.35848654557803328 0.70013656506632282 0.30029870175293161 0.68456408135056701 0.68607101396845627 0.31096060989957619 0.50000000000001332 0.49999999999999561 0.49999999999999561 0.49983993748706529 0.75039103705932653 0.52967335724801234 0.35848654557803328 0.70013656506632282 0.30029870175293161 0.68456408135056701 0.68607101396845627 0.31096060989957619 0.5004045312576143 0.47050700646456922 0.24963111222780321 0.50000000000001332 0.49999999999999561 0.49999999999999561 0.68456408135056701 0.68607101396845627 0.31096060989957619 0.7504488434426726 0.53051757989633308 0.49836643074154852 0.5004045312576143 0.47050700646456922 0.24963111222780321 0.50000000000001332 0.49999999999999561 0.49999999999999561 0.68456408135056701 0.68607101396845627 0.31096060989957619 0.77374673111774417 0.78860835645735528 0.49829081152968557 0.7504488434426726 0.53051757989633308 0.49836643074154852 0.49983993748706529 0.75039103705932653 0.52967335724801234 0.68456408135056701 0.68607101396845627 0.31096060989957619 0.7504488434426726 0.53051757989633308 0.49836643074154852 0.77713227489941183 0.50036915849493024 0.21774643624003751 0.5004045312576143 0.47050700646456922 0.24963111222780321 0.35848654557803328 0.70013656506632282 0.30029870175293161 0.68456408135056701 0.68607101396845627 0.31096060989957619 0.52894546611500048 0.79133000140429866 0.2082794184507949 0.49983993748706529 0.75039103705932653 0.52967335724801234 0.68456408135056701 0.68607101396845627 0.31096060989957619 0.7504488434426726 0.53051757989633308 0.49836643074154852 0.50000000000001332 0.49999999999999561 0.49999999999999561 0.49983993748706529 0.75039103705932653 0.52967335724801234 0.68456408135056701 0.68607101396845627 0.31096060989957619 0.61068558124908323 1 0.33127740899601937 0.52894546611500048 0.79133000140429866 0.2082794184507949 0.81582077266975173 0.77657922508894406 0.18483084990574741 0.68456408135056701 0.68607101396845627 0.31096060989957619 0.61068558124908323 1 0.33127740899601937 0.77374673111774417 0.78860835645735528 0.49829081152968557 0.49983993748706529 0.75039103705932653 0.52967335724801234 0.61068558124908323 1 0.33127740899601937 0.77374673111774417 0.78860835645735528 0.49829081152968557 0.68240285647621723 1 0.52310058211166854 0.49983993748706529 0.75039103705932653 0.52967335724801234 0.68456408135056701 0.68607101396845627 0.31096060989957619 0.61068558124908323 1 0.33127740899601937 0.81582077266975173 0.77657922508894406 0.18483084990574741 0.82751535738810444 1 0.31407731390515509 0.45820186441796368 1 0.31030302876579191 0.61068558124908323 1 0.33127740899601937 0.52894546611500048 0.79133000140429866 0.2082794184507949 0.49983993748706529 0.75039103705932653 0.52967335724801234 0.68456408135056701 0.68607101396845627 0.31096060989957619 0.61068558124908323 1 0.33127740899601937 0.82751535738810444 1 0.31407731390515509 0.77374673111774417 0.78860835645735528 0.49829081152968557 0.68456408135056701 0.68607101396845627 0.31096060989957619 0.61068558124908323 1 0.33127740899601937 0.52894546611500048 0.79133000140429866 0.2082794184507949 0.49983993748706529 0.75039103705932653 0.52967335724801234 0.51961524227008238 1 0.49999999999872219 0.61068558124908323 1 0.33127740899601937 0.68240285647621723 1 0.52310058211166854 0.49983993748706529 0.75039103705932653 0.52967335724801234 0.45820186441796368 1 0.31030302876579191 0.51961524227008238 1 0.49999999999872219 0.61068558124908323 1 0.33127740899601937 0.49983993748706529 0.75039103705932653 0.52967335724801234 0.61068558124908323 1 0.33127740899601937 0.82751535738810444 1 0.31407731390515509 0.77374673111774417 0.78860835645735528 0.49829081152968557 0.68240285647621723 1 0.52310058211166854 0.45820186441796368 1 0.31030302876579191 0.61068558124908323 1 0.33127740899601937 0.51133491425992716 1 0.16370661204795281 0.52894546611500048 0.79133000140429866 0.2082794184507949 0.61068558124908323 1 0.33127740899601937 0.51133491425992716 1 0.16370661204795281 0.52894546611500048 0.79133000140429866 0.2082794184507949 0.69988642339594154 1 0.16938214347578889 0.61068558124908323 1 0.33127740899601937 0.52894546611500048 0.79133000140429866 0.2082794184507949 0.69988642339594154 1 0.16938214347578889 0.81582077266975173 0.77657922508894406 0.18483084990574741 0.52894546611500048 0.79133000140429866 0.2082794184507949 0.7054234997318658 0.80860557108880304 0 0.69988642339594154 1 0.16938214347578889 0.81582077266975173 0.77657922508894406 0.18483084990574741 0.51133491425992716 1 0.16370661204795281 0.50803330197353713 0.83630110503668265 0 0.52894546611500048 0.79133000140429866 0.2082794184507949 0.69988642339594154 1 0.16938214347578889 0.59944234541082553 0.66416205381394655 0 0.52894546611500048 0.79133000140429866 0.2082794184507949 0.7054234997318658 0.80860557108880304 0 0.81582077266975173 0.77657922508894406 0.18483084990574741 0.51133491425992716 1 0.16370661204795281 0.60000000000138687 1 0 0.50803330197353713 0.83630110503668265 0 0.69988642339594154 1 0.16938214347578889 0.40000000000166441 1 0 0.51133491425992716 1 0.16370661204795281 0.60000000000138687 1 0 0.50803330197353713 0.83630110503668265 0 0.59944234541082553 0.66416205381394655 0 0.50803330197353713 0.83630110503668265 0 0.52894546611500048 0.79133000140429866 0.2082794184507949 0.7054234997318658 0.80860557108880304 0 0.50803330197353713 0.83630110503668265 0 0.52894546611500048 0.79133000140429866 0.2082794184507949 0.7054234997318658 0.80860557108880304 0 0.69988642339594154 1 0.16938214347578889 0.60000000000138687 1 0 0.7054234997318658 0.80860557108880304 0 0.69988642339594154 1 0.16938214347578889 0.79999999999999982 1 0 0.60000000000138687 1 0 0.50803330197353713 0.83630110503668265 0 0.7054234997318658 0.80860557108880304 0 0.69988642339594154 1 0.16938214347578889 0.61068558124908323 1 0.33127740899601937 0.69988642339594154 1 0.16938214347578889 0.81582077266975173 0.77657922508894406 0.18483084990574741 0.82751535738810444 1 0.31407731390515509 0.69988642339594154 1 0.16938214347578889 0.85358983848665693 1 0.14641016151322461 0.81582077266975173 0.77657922508894406 0.18483084990574741 0.82751535738810444 1 0.31407731390515509 0.69988642339594154 1 0.16938214347578889 0.85358983848665693 1 0.14641016151322461 0.85358983848666903 0.85358983848666903 0 0.81582077266975173 0.77657922508894406 0.18483084990574741 0.85358983848665693 1 0.14641016151322461 0.81582077266975173 0.77657922508894406 0.18483084990574741 1 0.85358983848655678 0.14641016151332509 0.82751535738810444 1 0.31407731390515509 0.69988642339594154 1 0.16938214347578889 0.85358983848665693 1 0.14641016151322461 0.79999999999999982 1 0 0.85358983848666903 0.85358983848666903 0 0.7054234997318658 0.80860557108880304 0 0.69988642339594154 1 0.16938214347578889 0.79999999999999982 1 0 0.85358983848666903 0.85358983848666903 0 0.7054234997318658 0.80860557108880304 0 0.85358983848666903 0.85358983848666903 0 0.81582077266975173 0.77657922508894406 0.18483084990574741 0.85173693729186062 0.69992182039541118 0 0.7054234997318658 0.80860557108880304 0 0.69988642339594154 1 0.16938214347578889 0.85358983848666903 0.85358983848666903 0 0.81582077266975173 0.77657922508894406 0.18483084990574741 0.81582077266975173 0.77657922508894406 0.18483084990574741 1 0.85358983848655678 0.14641016151332509 1 0.8148028884949543 0.31067093462944562 1 0.69449451837101916 0.15896804272136739 0.81582077266975173 0.77657922508894406 0.18483084990574741 1 0.85358983848655678 0.14641016151332509 0.82751535738810444 1 0.31407731390515509 1 0.8148028884949543 0.31067093462944562 0.85358983848666903 0.85358983848666903 0 0.81582077266975173 0.77657922508894406 0.18483084990574741 1 0.85358983848655678 0.14641016151332509 1 0.79999999999999982 0 0.81582077266975173 0.77657922508894406 0.18483084990574741 1 0.85358983848655678 0.14641016151332509 1 0.79999999999999982 0 1 0.69449451837101916 0.15896804272136739 0.85358983848665693 1 0.14641016151322461 0.85358983848666903 0.85358983848666903 0 0.81582077266975173 0.77657922508894406 0.18483084990574741 1 0.85358983848655678 0.14641016151332509 0.85358983848666903 0.85358983848666903 0 0.81582077266975173 0.77657922508894406 0.18483084990574741 1 0.79999999999999982 0 0.85173693729186062 0.69992182039541118 0 0.85358983848665693 1 0.14641016151322461 0.85358983848666903 0.85358983848666903 0 1 0.85358983848655678 0.14641016151332509 1 1 0 0.85358983848665693 1 0.14641016151322461 1 0.85358983848655678 0.14641016151332509 1 1 0 1 1 0.19999999999955789 0.85358983848666903 0.85358983848666903 0 1 0.85358983848655678 0.14641016151332509 1 0.79999999999999982 0 1 1 0 0.85358983848665693 1 0.14641016151322461 0.79999999999999982 1 0 0.85358983848666903 0.85358983848666903 0 1 1 0 0.85358983848665693 1 0.14641016151322461 1 0.85358983848655678 0.14641016151332509 1 1 0.19999999999955789 0.82751535738810444 1 0.31407731390515509 1 0.85358983848655678 0.14641016151332509 1 1 0.19999999999955789 0.82751535738810444 1 0.31407731390515509 1 0.8148028884949543 0.31067093462944562 1 1 0.19999999999955789 0.82751535738810444 1 0.31407731390515509 1 1 0.3999999999989749 1 0.8148028884949543 0.31067093462944562 0.68456408135056701 0.68607101396845627 0.31096060989957619 0.81582077266975173 0.77657922508894406 0.18483084990574741 0.82751535738810444 1 0.31407731390515509 0.77374673111774417 0.78860835645735528 0.49829081152968557 0.81582077266975173 0.77657922508894406 0.18483084990574741 0.82751535738810444 1 0.31407731390515509 0.77374673111774417 0.78860835645735528 0.49829081152968557 1 0.8148028884949543 0.31067093462944562 0.68456408135056701 0.68607101396845627 0.31096060989957619 0.81582077266975173 0.77657922508894406 0.18483084990574741 0.77374673111774417 0.78860835645735528 0.49829081152968557 1 0.8148028884949543 0.31067093462944562 0.82751535738810444 1 0.31407731390515509 0.77374673111774417 0.78860835645735528 0.49829081152968557 1 0.8148028884949543 0.31067093462944562 0.86762395692956074 1 0.5060815484123421 0.82751535738810444 1 0.31407731390515509 0.77374673111774417 0.78860835645735528 0.49829081152968557 0.86762395692956074 1 0.5060815484123421 0.68240285647621723 1 0.52310058211166854 0.82751535738810444 1 0.31407731390515509 1 1 0.3999999999989749 1 0.8148028884949543 0.31067093462944562 0.86762395692956074 1 0.5060815484123421 1 1 0.3999999999989749 1 0.8148028884949543 0.31067093462944562 1 0.83630110503662825 0.50803330197135588 0.86762395692956074 1 0.5060815484123421 0.77374673111774417 0.78860835645735528 0.49829081152968557 1 0.8148028884949543 0.31067093462944562 1 0.83630110503662825 0.50803330197135588 0.86762395692956074 1 0.5060815484123421 0.77374673111774417 0.78860835645735528 0.49829081152968557 1 0.8148028884949543 0.31067093462944562 1 0.68975022421527898 0.45812322962078778 1 0.83630110503662825 0.50803330197135588 0.7504488434426726 0.53051757989633308 0.49836643074154852 1 0.60020898676431722 0.32446581821274012 0.77713227489941183 0.50036915849493024 0.21774643624003751 1 0.39615100178016449 0.32925244736082498 0.68456408135056701 0.68607101396845627 0.31096060989957619 1 0.68975022421527898 0.45812322962078778 0.7504488434426726 0.53051757989633308 0.49836643074154852 1 0.60020898676431722 0.32446581821274012 0.68456408135056701 0.68607101396845627 0.31096060989957619 0.77374673111774417 0.78860835645735528 0.49829081152968557 1 0.8148028884949543 0.31067093462944562 1 0.68975022421527898 0.45812322962078778 0.68456408135056701 0.68607101396845627 0.31096060989957619 0.77374673111774417 0.78860835645735528 0.49829081152968557 1 0.68975022421527898 0.45812322962078778 0.7504488434426726 0.53051757989633308 0.49836643074154852 0.68456408135056701 0.68607101396845627 0.31096060989957619 1 0.8148028884949543 0.31067093462944562 1 0.68975022421527898 0.45812322962078778 1 0.60020898676431722 0.32446581821274012 0.68456408135056701 0.68607101396845627 0.31096060989957619 0.7504488434426726 0.53051757989633308 0.49836643074154852 1 0.60020898676431722 0.32446581821274012 0.77713227489941183 0.50036915849493024 0.21774643624003751 0.68456408135056701 0.68607101396845627 0.31096060989957619 0.81582077266975173 0.77657922508894406 0.18483084990574741 1 0.8148028884949543 0.31067093462944562 1 0.60020898676431722 0.32446581821274012 0.68456408135056701 0.68607101396845627 0.31096060989957619 0.81582077266975173 0.77657922508894406 0.18483084990574741 1 0.60020898676431722 0.32446581821274012 0.77713227489941183 0.50036915849493024 0.21774643624003751 1 0.68975022421527898 0.45812322962078778 0.7504488434426726 0.53051757989633308 0.49836643074154852 1 0.60020898676431722 0.32446581821274012 1 0.50000000000229983 0.51961524226898759 0.7504488434426726 0.53051757989633308 0.49836643074154852 1 0.60020898676431722 0.32446581821274012 1 0.39615100178016449 0.32925244736082498 1 0.50000000000229983 0.51961524226898759 1 0.69449451837101916 0.15896804272136739 0.77713227489941183 0.50036915849493024 0.21774643624003751 0.84191918937744659 0.51186163305076127 0 1 0.49836539647890021 0.17226134197269399 0.81582077266975173 0.77657922508894406 0.18483084990574741 1 0.69449451837101916 0.15896804272136739 0.77713227489941183 0.50036915849493024 0.21774643624003751 0.85173693729186062 0.69992182039541118 0 0.81582077266975173 0.77657922508894406 0.18483084990574741 1 0.60020898676431722 0.32446581821274012 1 0.69449451837101916 0.15896804272136739 0.77713227489941183 0.50036915849493024 0.21774643624003751 1 0.60020898676431722 0.32446581821274012 1 0.69449451837101916 0.15896804272136739 0.77713227489941183 0.50036915849493024 0.21774643624003751 1 0.49836539647890021 0.17226134197269399 0.72722573386132172 0.60922248848163563 0 0.81582077266975173 0.77657922508894406 0.18483084990574741 0.77713227489941183 0.50036915849493024 0.21774643624003751 0.85173693729186062 0.69992182039541118 0 0.72722573386132172 0.60922248848163563 0 0.68456408135056701 0.68607101396845627 0.31096060989957619 0.81582077266975173 0.77657922508894406 0.18483084990574741 0.77713227489941183 0.50036915849493024 0.21774643624003751 0.81582077266975173 0.77657922508894406 0.18483084990574741 1 0.8148028884949543 0.31067093462944562 1 0.60020898676431722 0.32446581821274012 1 0.69449451837101916 0.15896804272136739 0.72722573386132172 0.60922248848163563 0 0.77713227489941183 0.50036915849493024 0.21774643624003751 0.84191918937744659 0.51186163305076127 0 0.67320508075660079 0.46954769941202479 0 1 0.69449451837101916 0.15896804272136739 0.77713227489941183 0.50036915849493024 0.21774643624003751 0.84191918937744659 0.51186163305076127 0 0.85173693729186062 0.69992182039541118 0 0.72722573386132172 0.60922248848163563 0 0.77713227489941183 0.50036915849493024 0.21774643624003751 0.84191918937744659 0.51186163305076127 0 0.85173693729186062 0.69992182039541118 0 0.72722573386132172 0.60922248848163563 0 0.7054234997318658 0.80860557108880304 0 0.81582077266975173 0.77657922508894406 0.18483084990574741 0.85173693729186062 0.69992182039541118 0 1 0.79999999999999982 0 1 0.69449451837101916 0.15896804272136739 0.85173693729186062 0.69992182039541118 0 1 0.60000000000138687 0 0.81582077266975173 0.77657922508894406 0.18483084990574741 1 0.79999999999999982 0 1 0.69449451837101916 0.15896804272136739 0.85173693729186062 0.69992182039541118 0 1 0.69449451837101916 0.15896804272136739 0.84191918937744659 0.51186163305076127 0 0.85173693729186062 0.69992182039541118 0 1 0.60000000000138687 0 1 0.69449451837101916 0.15896804272136739 0.84191918937744659 0.51186163305076127 0 1 0.60000000000138687 0 1 0.49836539647890021 0.17226134197269399 0.84191918937744659 0.51186163305076127 0 1 0.60000000000138687 0 1 0.40000000000166441 0 1 0.49836539647890021 0.17226134197269399 1 0.30074819035868428 0.16929708765640439 0.80839867011859301 0.31807971531731721 0 0.85358983848570813 0.1464101615143738 0 0.68777432594363841 0.31447353261427252 0.31366778418247038 0.84191918937744659 0.51186163305076127 0 1 0.40000000000166441 0 1 0.49836539647890021 0.17226134197269399 0.80839867011859301 0.31807971531731721 0 1 0.40000000000166441 0 1 0.49836539647890021 0.17226134197269399 1 0.30074819035868428 0.16929708765640439 0.80839867011859301 0.31807971531731721 0 0.77713227489941183 0.50036915849493024 0.21774643624003751 1 0.30074819035868428 0.16929708765640439 0.80839867011859301 0.31807971531731721 0 0.68777432594363841 0.31447353261427252 0.31366778418247038 0.77713227489941183 0.50036915849493024 0.21774643624003751 0.84191918937744659 0.51186163305076127 0 0.80839867011859301 0.31807971531731721 0 0.67320508075660079 0.46954769941202479 0 0.77713227489941183 0.50036915849493024 0.21774643624003751 0.84191918937744659 0.51186163305076127 0 1 0.49836539647890021 0.17226134197269399 0.80839867011859301 0.31807971531731721 0 0.77713227489941183 0.50036915849493024 0.21774643624003751 1 0.49836539647890021 0.17226134197269399 1 0.30074819035868428 0.16929708765640439 0.80839867011859301 0.31807971531731721 0 0.77713227489941183 0.50036915849493024 0.21774643624003751 1 0.49836539647890021 0.17226134197269399 1 0.30074819035868428 0.16929708765640439 1 0.39615100178016449 0.32925244736082498 1 0.40000000000166441 0 1 0.30074819035868428 0.16929708765640439 0.80839867011859301 0.31807971531731721 0 1 0.20000000000083221 0 1 0.30074819035868428 0.16929708765640439 0.80839867011859301 0.31807971531731721 0 1 0.20000000000083221 0 0.85358983848570813 0.1464101615143738 0 1 0.30074819035868428 0.16929708765640439 1 0.20000000000083221 0 1 0.14641016151453831 0.14641016151419689 0.85358983848570813 0.1464101615143738 0 0.85358983848650494 0 0.1464101615132356 0.68592116352011878 0 0.1724872797865501 0.68777432594363841 0.31447353261427252 0.31366778418247038 0.83057691269884504 0 0.30018449338884379 0.80839867011859301 0.31807971531731721 0 0.85358983848570813 0.1464101615143738 0 0.69380980079964416 0.1619694349440581 0 0.68777432594363841 0.31447353261427252 0.31366778418247038 1 0.30074819035868428 0.16929708765640439 1 0.14641016151453831 0.14641016151419689 0.68777432594363841 0.31447353261427252 0.31366778418247038 1 0.18804489794556911 0.3161072616634244 1 0.30074819035868428 0.16929708765640439 1 0.14641016151453831 0.14641016151419689 0.85358983848570813 0.1464101615143738 0 0.68777432594363841 0.31447353261427252 0.31366778418247038 1 0.14641016151453831 0.14641016151419689 0.85358983848650494 0 0.1464101615132356 0.68777432594363841 0.31447353261427252 0.31366778418247038 0.83057691269884504 0 0.30018449338884379 1 0.14641016151453831 0.14641016151419689 0.85358983848650494 0 0.1464101615132356 0.85358983848570813 0.1464101615143738 0 0.68777432594363841 0.31447353261427252 0.31366778418247038 0.85358983848650494 0 0.1464101615132356 0.85358983848570813 0.1464101615143738 0 0.69380980079964416 0.1619694349440581 0 0.68777432594363841 0.31447353261427252 0.31366778418247038 1 0.14641016151453831 0.14641016151419689 1 0 0.19999999999955789 0.85358983848650494 0 0.1464101615132356 0.83057691269884504 0 0.30018449338884379 1 0.14641016151453831 0.14641016151419689 1 0 0.19999999999955789 0.83057691269884504 0 0.30018449338884379 1 0.18804489794556911 0.3161072616634244 1 0 0 0.79999999999947335 0 0 0.85358983848650494 0 0.1464101615132356 0.85358983848570813 0.1464101615143738 0 1 0.14641016151453831 0.14641016151419689 1 0 0.19999999999955789 1 0 0 0.85358983848650494 0 0.1464101615132356 1 0.20000000000083221 0 1 0.14641016151453831 0.14641016151419689 1 0 0 0.85358983848570813 0.1464101615143738 0 1 0.14641016151453831 0.14641016151419689 1 0 0 0.85358983848650494 0 0.1464101615132356 0.85358983848570813 0.1464101615143738 0 0.79999999999947335 0 0 0.85358983848650494 0 0.1464101615132356 0.69380980079964416 0.1619694349440581 0 0.68592116352011878 0 0.1724872797865501 0.79999999999947335 0 0 0.85358983848650494 0 0.1464101615132356 0.85358983848570813 0.1464101615143738 0 0.69380980079964416 0.1619694349440581 0 0.69380980079964416 0.1619694349440581 0 0.68592116352011878 0 0.1724872797865501 0.5003997205654479 0.21136633249797621 0.2258422409314382 0.68777432594363841 0.31447353261427252 0.31366778418247038 0.85358983848650494 0 0.1464101615132356 0.69380980079964416 0.1619694349440581 0 0.68592116352011878 0 0.1724872797865501 0.68777432594363841 0.31447353261427252 0.31366778418247038 0.79999999999947335 0 0 0.69380980079964416 0.1619694349440581 0 0.68592116352011878 0 0.1724872797865501 0.59999999999894682 0 0 0.3999999999989749 0 0 0.49391845158624981 0 0.1323760430705655 0.59999999999894682 0 0 0.50966790549376417 0.16275515618023731 0 0.69380980079964416 0.1619694349440581 0 0.68592116352011878 0 0.1724872797865501 0.59999999999894682 0 0 0.50966790549376417 0.16275515618023731 0 0.49391845158624981 0 0.1323760430705655 0.68592116352011878 0 0.1724872797865501 0.59999999999894682 0 0 0.50966790549376417 0.16275515618023731 0 0.49391845158624981 0 0.1323760430705655 0.47688326899416439 0 0.31741132792405607 0.68592116352011878 0 0.1724872797865501 0.5003997205654479 0.21136633249797621 0.2258422409314382 0.49391845158624981 0 0.1323760430705655 0.68592116352011878 0 0.1724872797865501 0.5003997205654479 0.21136633249797621 0.2258422409314382 0.50966790549376417 0.16275515618023731 0 0.69380980079964416 0.1619694349440581 0 0.68592116352011878 0 0.1724872797865501 0.5003997205654479 0.21136633249797621 0.2258422409314382 0.50966790549376417 0.16275515618023731 0 0.69380980079964416 0.1619694349440581 0 0.5003997205654479 0.21136633249797621 0.2258422409314382 0.50966790549376417 0.16275515618023731 0 0.6104699881764214 0.32043363027358418 0 0.77713227489941183 0.50036915849493024 0.21774643624003751 0.80839867011859301 0.31807971531731721 0 0.6104699881764214 0.32043363027358418 0 0.68777432594363841 0.31447353261427252 0.31366778418247038 0.69380980079964416 0.1619694349440581 0 0.5003997205654479 0.21136633249797621 0.2258422409314382 0.6104699881764214 0.32043363027358418 0 0.68777432594363841 0.31447353261427252 0.31366778418247038 0.80839867011859301 0.31807971531731721 0 0.69380980079964416 0.1619694349440581 0 0.6104699881764214 0.32043363027358418 0 0.68777432594363841 0.31447353261427252 0.31366778418247038 0.45812322962036273 0.31024977578535839 0 0.5003997205654479 0.21136633249797621 0.2258422409314382 0.50966790549376417 0.16275515618023731 0 0.6104699881764214 0.32043363027358418 0 0.45812322962036273 0.31024977578535839 0 0.5003997205654479 0.21136633249797621 0.2258422409314382 0.6104699881764214 0.32043363027358418 0 0.5004045312576143 0.47050700646456922 0.24963111222780321 0.77713227489941183 0.50036915849493024 0.21774643624003751 0.6104699881764214 0.32043363027358418 0 0.67320508075660079 0.46954769941202479 0 0.5004045312576143 0.47050700646456922 0.24963111222780321 0.5003997205654479 0.21136633249797621 0.2258422409314382 0.6104699881764214 0.32043363027358418 0 0.5004045312576143 0.47050700646456922 0.24963111222780321 0.68777432594363841 0.31447353261427252 0.31366778418247038 0.77713227489941183 0.50036915849493024 0.21774643624003751 0.6104699881764214 0.32043363027358418 0 0.5004045312576143 0.47050700646456922 0.24963111222780321 0.68777432594363841 0.31447353261427252 0.31366778418247038 0.51961524226956368 0.5000000000025091 0 0.6104699881764214 0.32043363027358418 0 0.67320508075660079 0.46954769941202479 0 0.5004045312576143 0.47050700646456922 0.24963111222780321 0.45812322962036273 0.31024977578535839 0 0.51961524226956368 0.5000000000025091 0 0.6104699881764214 0.32043363027358418 0 0.5004045312576143 0.47050700646456922 0.24963111222780321 0.77713227489941183 0.50036915849493024 0.21774643624003751 0.80839867011859301 0.31807971531731721 0 0.6104699881764214 0.32043363027358418 0 0.67320508075660079 0.46954769941202479 0 0.7504488434426726 0.53051757989633308 0.49836643074154852 0.50000000000001332 0.49999999999999561 0.49999999999999561 0.68777432594363841 0.31447353261427252 0.31366778418247038 0.50073570207385831 0.24848280280289631 0.52886631355986169 0.7504488434426726 0.53051757989633308 0.49836643074154852 0.68777432594363841 0.31447353261427252 0.31366778418247038 0.77973766487723961 0.22090161127815711 0.50014622462635805 0.50073570207385831 0.24848280280289631 0.52886631355986169 0.7504488434426726 0.53051757989633308 0.49836643074154852 0.5004045312576143 0.47050700646456922 0.24963111222780321 0.50000000000001332 0.49999999999999561 0.49999999999999561 0.68777432594363841 0.31447353261427252 0.31366778418247038 0.7504488434426726 0.53051757989633308 0.49836643074154852 0.77713227489941183 0.50036915849493024 0.21774643624003751 0.5004045312576143 0.47050700646456922 0.24963111222780321 0.68777432594363841 0.31447353261427252 0.31366778418247038 0.5003997205654479 0.21136633249797621 0.2258422409314382 0.5004045312576143 0.47050700646456922 0.24963111222780321 0.68777432594363841 0.31447353261427252 0.31366778418247038 0.50073570207385831 0.24848280280289631 0.52886631355986169 0.5004045312576143 0.47050700646456922 0.24963111222780321 0.50000000000001332 0.49999999999999561 0.49999999999999561 0.68777432594363841 0.31447353261427252 0.31366778418247038 0.50073570207385831 0.24848280280289631 0.52886631355986169 0.68777432594363841 0.31447353261427252 0.31366778418247038 0.66852282575985944 0 0.3853248791658106 0.83057691269884504 0 0.30018449338884379 0.77973766487723961 0.22090161127815711 0.50014622462635805 0.68592116352011878 0 0.1724872797865501 0.68777432594363841 0.31447353261427252 0.31366778418247038 0.66852282575985944 0 0.3853248791658106 0.83057691269884504 0 0.30018449338884379 0.47688326899416439 0 0.31741132792405607 0.5003997205654479 0.21136633249797621 0.2258422409314382 0.66852282575985944 0 0.3853248791658106 0.50073570207385831 0.24848280280289631 0.52886631355986169 0.66852282575985944 0 0.3853248791658106 0.77973766487723961 0.22090161127815711 0.50014622462635805 0.68969697123394857 0 0.54179813558228873 0.50073570207385831 0.24848280280289631 0.52886631355986169 0.68592116352011878 0 0.1724872797865501 0.5003997205654479 0.21136633249797621 0.2258422409314382 0.68777432594363841 0.31447353261427252 0.31366778418247038 0.66852282575985944 0 0.3853248791658106 0.5003997205654479 0.21136633249797621 0.2258422409314382 0.68777432594363841 0.31447353261427252 0.31366778418247038 0.66852282575985944 0 0.3853248791658106 0.50073570207385831 0.24848280280289631 0.52886631355986169 0.68777432594363841 0.31447353261427252 0.31366778418247038 0.66852282575985944 0 0.3853248791658106 0.77973766487723961 0.22090161127815711 0.50014622462635805 0.50073570207385831 0.24848280280289631 0.52886631355986169 0.47688326899416439 0 0.31741132792405607 0.68592116352011878 0 0.1724872797865501 0.5003997205654479 0.21136633249797621 0.2258422409314382 0.66852282575985944 0 0.3853248791658106 0.47688326899416439 0 0.31741132792405607 0.50000000000250922 0 0.48038475773043671 0.66852282575985944 0 0.3853248791658106 0.50073570207385831 0.24848280280289631 0.52886631355986169 0.50000000000250922 0 0.48038475773043671 0.66852282575985944 0 0.3853248791658106 0.68969697123394857 0 0.54179813558228873 0.50073570207385831 0.24848280280289631 0.52886631355986169 0.66852282575985944 0 0.3853248791658106 0.83534964916824084 0 0.4902996892628636 0.77973766487723961 0.22090161127815711 0.50014622462635805 0.68969697123394857 0 0.54179813558228873 0.68777432594363841 0.31447353261427252 0.31366778418247038 0.83057691269884504 0 0.30018449338884379 1 0.18804489794556911 0.3161072616634244 0.77973766487723961 0.22090161127815711 0.50014622462635805 1 0.14641016151453831 0.14641016151419689 0.68777432594363841 0.31447353261427252 0.31366778418247038 0.83057691269884504 0 0.30018449338884379 1 0.18804489794556911 0.3161072616634244 0.66852282575985944 0 0.3853248791658106 0.83057691269884504 0 0.30018449338884379 0.83534964916824084 0 0.4902996892628636 0.77973766487723961 0.22090161127815711 0.50014622462635805 0.83057691269884504 0 0.30018449338884379 0.83534964916824084 0 0.4902996892628636 1 0.18804489794556911 0.3161072616634244 0.77973766487723961 0.22090161127815711 0.50014622462635805 0.83057691269884504 0 0.30018449338884379 0.83534964916824084 0 0.4902996892628636 1 0 0.3999999999989749 1 0.18804489794556911 0.3161072616634244 0.83534964916824084 0 0.4902996892628636 1 0 0.3999999999989749 1 0.162755156180173 0.50966790549372887 1 0 0.59999999999894682 0.83534964916824084 0 0.4902996892628636 1 0 0.3999999999989749 1 0.18804489794556911 0.3161072616634244 1 0.162755156180173 0.50966790549372887 1 0 0.19999999999955789 0.83057691269884504 0 0.30018449338884379 1 0 0.3999999999989749 1 0.18804489794556911 0.3161072616634244 1 0.18804489794556911 0.3161072616634244 1 0.31024977578542368 0.45812322962028301 1 0.162755156180173 0.50966790549372887 0.77973766487723961 0.22090161127815711 0.50014622462635805 0.83534964916824084 0 0.4902996892628636 1 0.18804489794556911 0.3161072616634244 1 0.162755156180173 0.50966790549372887 0.77973766487723961 0.22090161127815711 0.50014622462635805 0.7504488434426726 0.53051757989633308 0.49836643074154852 0.77713227489941183 0.50036915849493024 0.21774643624003751 0.68777432594363841 0.31447353261427252 0.31366778418247038 1 0.39615100178016449 0.32925244736082498 0.68777432594363841 0.31447353261427252 0.31366778418247038 1 0.18804489794556911 0.3161072616634244 1 0.31024977578542368 0.45812322962028301 1 0.39615100178016449 0.32925244736082498 0.7504488434426726 0.53051757989633308 0.49836643074154852 0.68777432594363841 0.31447353261427252 0.31366778418247038 1 0.31024977578542368 0.45812322962028301 0.77973766487723961 0.22090161127815711 0.50014622462635805 1 0.30074819035868428 0.16929708765640439 0.68777432594363841 0.31447353261427252 0.31366778418247038 1 0.18804489794556911 0.3161072616634244 1 0.39615100178016449 0.32925244736082498 0.68777432594363841 0.31447353261427252 0.31366778418247038 1 0.18804489794556911 0.3161072616634244 1 0.31024977578542368 0.45812322962028301 0.77973766487723961 0.22090161127815711 0.50014622462635805 0.77713227489941183 0.50036915849493024 0.21774643624003751 1 0.30074819035868428 0.16929708765640439 0.68777432594363841 0.31447353261427252 0.31366778418247038 1 0.39615100178016449 0.32925244736082498 0.7504488434426726 0.53051757989633308 0.49836643074154852 0.68777432594363841 0.31447353261427252 0.31366778418247038 1 0.31024977578542368 0.45812322962028301 1 0.39615100178016449 0.32925244736082498 1 0.60020898676431722 0.32446581821274012 0.77713227489941183 0.50036915849493024 0.21774643624003751 1 0.49836539647890021 0.17226134197269399 1 0.39615100178016449 0.32925244736082498 0.7504488434426726 0.53051757989633308 0.49836643074154852 1 0.31024977578542368 0.45812322962028301 1 0.39615100178016449 0.32925244736082498 1 0.50000000000229983 0.51961524226898759 0.7504488434426726 0.53051757989633308 0.49836643074154852 1 0.33579115324550912 0.59952339316293046 0.68742751001967084 0.31250796680084852 0.687427510020161 0.78019141325921404 0.49972466465542442 0.78019141325930785 1 0.39076805646076263 0.7272421105028648 1 0.33579115324550912 0.59952339316293046 0.68742751001967084 0.31250796680084852 0.687427510020161 0.81599560342209843 0.22280203704001911 0.81599560342233202 0.7504488434426726 0.53051757989633308 0.49836643074154852 1 0.33579115324550912 0.59952339316293046 1 0.53045230059030524 0.6732050807565132 1 0.50000000000229983 0.51961524226898759 0.7504488434426726 0.53051757989633308 0.49836643074154852 1 0.31024977578542368 0.45812322962028301 1 0.33579115324550912 0.59952339316293046 0.77973766487723961 0.22090161127815711 0.50014622462635805 1 0.33579115324550912 0.59952339316293046 0.77973766487723961 0.22090161127815711 0.50014622462635805 0.68742751001967084 0.31250796680084852 0.687427510020161 0.81599560342209843 0.22280203704001911 0.81599560342233202 0.7504488434426726 0.53051757989633308 0.49836643074154852 1 0.33579115324550912 0.59952339316293046 0.77973766487723961 0.22090161127815711 0.50014622462635805 0.68742751001967084 0.31250796680084852 0.687427510020161 0.7504488434426726 0.53051757989633308 0.49836643074154852 1 0.33579115324550912 0.59952339316293046 0.78019141325921404 0.49972466465542442 0.78019141325930785 1 0.53045230059030524 0.6732050807565132 1 0.39076805646076263 0.7272421105028648 1 0.33579115324550912 0.59952339316293046 0.68742751001967084 0.31250796680084852 0.687427510020161 0.78019141325921404 0.49972466465542442 0.78019141325930785 0.7504488434426726 0.53051757989633308 0.49836643074154852 1 0.31024977578542368 0.45812322962028301 1 0.33579115324550912 0.59952339316293046 1 0.50000000000229983 0.51961524226898759 1 0.39076805646076263 0.7272421105028648 1 0.33579115324550912 0.59952339316293046 0.78019141325921404 0.49972466465542442 0.78019141325930785 1 0.53045230059030524 0.6732050807565132 1 0.39076805646076263 0.7272421105028648 1 0.33579115324550912 0.59952339316293046 1 0.1912596090855686 0.70565701451953711 0.81599560342209843 0.22280203704001911 0.81599560342233202 1 0.31024977578542368 0.45812322962028301 1 0.33579115324550912 0.59952339316293046 1 0.162755156180173 0.50966790549372887 0.77973766487723961 0.22090161127815711 0.50014622462635805 1 0.162755156180173 0.50966790549372887 1 0.1912596090855686 0.70565701451953711 0.81469961246449951 0 0.68914937826112133 0.77973766487723961 0.22090161127815711 0.50014622462635805 0.81469961246449951 0 0.68914937826112133 0.77973766487723961 0.22090161127815711 0.50014622462635805 0.68742751001967084 0.31250796680084852 0.687427510020161 0.81599560342209843 0.22280203704001911 0.81599560342233202 1 0.1912596090855686 0.70565701451953711 0.81469961246449951 0 0.68914937826112133 0.77973766487723961 0.22090161127815711 0.50014622462635805 0.81599560342209843 0.22280203704001911 0.81599560342233202 1 0.33579115324550912 0.59952339316293046 1 0.1912596090855686 0.70565701451953711 0.77973766487723961 0.22090161127815711 0.50014622462635805 0.81599560342209843 0.22280203704001911 0.81599560342233202 1 0.33579115324550912 0.59952339316293046 1 0.162755156180173 0.50966790549372887 1 0.1912596090855686 0.70565701451953711 0.77973766487723961 0.22090161127815711 0.50014622462635805 1 0.1912596090855686 0.70565701451953711 1 0 0.59999999999894682 0.81469961246449951 0 0.68914937826112133 1 0 0.79999999999947335 1 0.162755156180173 0.50966790549372887 1 0.1912596090855686 0.70565701451953711 1 0 0.59999999999894682 0.81469961246449951 0 0.68914937826112133 0.83534964916824084 0 0.4902996892628636 1 0.162755156180173 0.50966790549372887 1 0 0.59999999999894682 0.81469961246449951 0 0.68914937826112133 0.83534964916824084 0 0.4902996892628636 0.81469961246449951 0 0.68914937826112133 0.77973766487723961 0.22090161127815711 0.50014622462635805 0.68969697123394857 0 0.54179813558228873 0.83534964916824084 0 0.4902996892628636 1 0.162755156180173 0.50966790549372887 0.81469961246449951 0 0.68914937826112133 0.77973766487723961 0.22090161127815711 0.50014622462635805 0.68969697123394857 0 0.54179813558228873 0.6002015905170176 0 0.67551889168744117 0.50073570207385831 0.24848280280289631 0.52886631355986169 0.68742751001967084 0.31250796680084852 0.687427510020161 0.81469961246449951 0 0.68914937826112133 0.68969697123394857 0 0.54179813558228873 0.6002015905170176 0 0.67551889168744117 0.68742751001967084 0.31250796680084852 0.687427510020161 0.81469961246449951 0 0.68914937826112133 0.77973766487723961 0.22090161127815711 0.50014622462635805 0.68969697123394857 0 0.54179813558228873 0.68742751001967084 0.31250796680084852 0.687427510020161 0.6002015905170176 0 0.67551889168744117 0.68742751001967084 0.31250796680084852 0.687427510020161 0.50084626324420545 0.22238844715913 0.78084811589659187 0.69447607299129699 0 0.84099946107689361 0.77973766487723961 0.22090161127815711 0.50014622462635805 0.68969697123394857 0 0.54179813558228873 0.50073570207385831 0.24848280280289631 0.52886631355986169 0.68742751001967084 0.31250796680084852 0.687427510020161 0.6002015905170176 0 0.67551889168744117 0.50073570207385831 0.24848280280289631 0.52886631355986169 0.68742751001967084 0.31250796680084852 0.687427510020161 0.50084626324420545 0.22238844715913 0.78084811589659187 0.81469961246449951 0 0.68914937826112133 0.6002015905170176 0 0.67551889168744117 0.68742751001967084 0.31250796680084852 0.687427510020161 0.81599560342209843 0.22280203704001911 0.81599560342233202 0.50000000000250922 0 0.48038475773043671 0.68969697123394857 0 0.54179813558228873 0.6002015905170176 0 0.67551889168744117 0.50073570207385831 0.24848280280289631 0.52886631355986169 0.50000000000001332 0.49999999999999561 0.49999999999999561 0.50073570207385831 0.24848280280289631 0.52886631355986169 0.68742751001967084 0.31250796680084852 0.687427510020161 0.49816183246753282 0.5307146639261795 0.75045686993209071 0.7504488434426726 0.53051757989633308 0.49836643074154852 0.50000000000001332 0.49999999999999561 0.49999999999999561 0.50073570207385831 0.24848280280289631 0.52886631355986169 0.68742751001967084 0.31250796680084852 0.687427510020161 0.7504488434426726 0.53051757989633308 0.49836643074154852 0.50000000000001332 0.49999999999999561 0.49999999999999561 0.68742751001967084 0.31250796680084852 0.687427510020161 0.49816183246753282 0.5307146639261795 0.75045686993209071 0.7504488434426726 0.53051757989633308 0.49836643074154852 0.68742751001967084 0.31250796680084852 0.687427510020161 0.78019141325921404 0.49972466465542442 0.78019141325930785 0.49816183246753282 0.5307146639261795 0.75045686993209071 0.50073570207385831 0.24848280280289631 0.52886631355986169 0.68742751001967084 0.31250796680084852 0.687427510020161 0.50084626324420545 0.22238844715913 0.78084811589659187 0.49816183246753282 0.5307146639261795 0.75045686993209071 0.7504488434426726 0.53051757989633308 0.49836643074154852 0.77973766487723961 0.22090161127815711 0.50014622462635805 0.50073570207385831 0.24848280280289631 0.52886631355986169 0.68742751001967084 0.31250796680084852 0.687427510020161 0.59952339316492498 0.33579115324593939 1 0.50084626324420545 0.22238844715913 0.78084811589659187 0.49816183246753282 0.5307146639261795 0.75045686993209071 0.45812322962173568 0.31024977578554058 1 0.68742751001967084 0.31250796680084852 0.687427510020161 0.72724211050425436 0.39076805646176382 1 0.59952339316492498 0.33579115324593939 1 0.81599560342209843 0.22280203704001911 0.81599560342233202 0.68742751001967084 0.31250796680084852 0.687427510020161 0.59952339316492498 0.33579115324593939 1 0.78019141325921404 0.49972466465542442 0.78019141325930785 0.49816183246753282 0.5307146639261795 0.75045686993209071 0.68742751001967084 0.31250796680084852 0.687427510020161 0.59952339316492498 0.33579115324593939 1 0.50084626324420545 0.22238844715913 0.78084811589659187 0.81599560342209843 0.22280203704001911 0.81599560342233202 0.68742751001967084 0.31250796680084852 0.687427510020161 0.59952339316492498 0.33579115324593939 1 0.50084626324420545 0.22238844715913 0.78084811589659187 0.49816183246753282 0.5307146639261795 0.75045686993209071 0.68742751001967084 0.31250796680084852 0.687427510020161 0.72724211050425436 0.39076805646176382 1 0.59952339316492498 0.33579115324593939 1 0.78019141325921404 0.49972466465542442 0.78019141325930785 0.59952339316492498 0.33579115324593939 1 0.78019141325921404 0.49972466465542442 0.78019141325930785 0.67320508075671459 0.53045230059073867 1 0.49816183246753282 0.5307146639261795 0.75045686993209071 0.72724211050425436 0.39076805646176382 1 0.59952339316492498 0.33579115324593939 1 0.70565701452089868 0.1912596090858541 1 0.81599560342209843 0.22280203704001911 0.81599560342233202 0.72724211050425436 0.39076805646176382 1 0.59952339316492498 0.33579115324593939 1 0.78019141325921404 0.49972466465542442 0.78019141325930785 0.67320508075671459 0.53045230059073867 1 0.59952339316492498 0.33579115324593939 1 0.51961524226934941 0.50000000000250611 1 0.49816183246753282 0.5307146639261795 0.75045686993209071 0.45812322962173568 0.31024977578554058 1 0.59952339316492498 0.33579115324593939 1 0.67320508075671459 0.53045230059073867 1 0.51961524226934941 0.50000000000250611 1 0.49816183246753282 0.5307146639261795 0.75045686993209071 0.59952339316492498 0.33579115324593939 1 0.50966790549576724 0.1627551561802443 1 0.50084626324420545 0.22238844715913 0.78084811589659187 0.45812322962173568 0.31024977578554058 1 0.50966790549576724 0.1627551561802443 1 0.50084626324420545 0.22238844715913 0.78084811589659187 0.69447607299129699 0 0.84099946107689361 0.70565701452089868 0.1912596090858541 1 0.68742751001967084 0.31250796680084852 0.687427510020161 0.50084626324420545 0.22238844715913 0.78084811589659187 0.69447607299129699 0 0.84099946107689361 0.81599560342209843 0.22280203704001911 0.81599560342233202 0.50084626324420545 0.22238844715913 0.78084811589659187 0.69447607299129699 0 0.84099946107689361 0.70565701452089868 0.1912596090858541 1 0.81599560342209843 0.22280203704001911 0.81599560342233202 0.59952339316492498 0.33579115324593939 1 0.50084626324420545 0.22238844715913 0.78084811589659187 0.70565701452089868 0.1912596090858541 1 0.81599560342209843 0.22280203704001911 0.81599560342233202 0.59952339316492498 0.33579115324593939 1 0.50966790549576724 0.1627551561802443 1 0.50084626324420545 0.22238844715913 0.78084811589659187 0.70565701452089868 0.1912596090858541 1 0.6002015905170176 0 0.67551889168744117 0.68742751001967084 0.31250796680084852 0.687427510020161 0.69447607299129699 0 0.84099946107689361 0.81599560342209843 0.22280203704001911 0.81599560342233202 0.6002015905170176 0 0.67551889168744117 0.50084626324420545 0.22238844715913 0.78084811589659187 0.69447607299129699 0 0.84099946107689361 0.49836539647917322 0 0.82773865802723501 0.50966790549576724 0.1627551561802443 1 0.50084626324420545 0.22238844715913 0.78084811589659187 0.69447607299129699 0 0.84099946107689361 0.49836539647917322 0 0.82773865802723501 0.50966790549576724 0.1627551561802443 1 0.60000000000138687 0 1 0.69447607299129699 0 0.84099946107689361 0.49836539647917322 0 0.82773865802723501 0.50966790549576724 0.1627551561802443 1 0.60000000000138687 0 1 0.49836539647917322 0 0.82773865802723501 0.40000000000166441 0 1 0.50966790549576724 0.1627551561802443 1 0.60000000000138687 0 1 0.69447607299129699 0 0.84099946107689361 0.70565701452089868 0.1912596090858541 1 0.60000000000138687 0 1 0.69447607299129699 0 0.84099946107689361 0.70565701452089868 0.1912596090858541 1 0.79999999999999982 0 1 0.81469961246449951 0 0.68914937826112133 0.6002015905170176 0 0.67551889168744117 0.69447607299129699 0 0.84099946107689361 0.81599560342209843 0.22280203704001911 0.81599560342233202 0.69447607299129699 0 0.84099946107689361 0.70565701452089868 0.1912596090858541 1 0.85358983848646974 0.14641016151341191 1 0.81599560342209843 0.22280203704001911 0.81599560342233202 0.70565701452089868 0.1912596090858541 1 0.85358983848646974 0.14641016151341191 1 0.81599560342209843 0.22280203704001911 0.81599560342233202 0.85173693729199718 0.30007817960516198 1 1 0.1912596090855686 0.70565701451953711 0.81469961246449951 0 0.68914937826112133 0.81599560342209843 0.22280203704001911 0.81599560342233202 0.85358983848570524 0 0.85358983848556425 0.81469961246449951 0 0.68914937826112133 0.69447607299129699 0 0.84099946107689361 0.81599560342209843 0.22280203704001911 0.81599560342233202 0.85358983848570524 0 0.85358983848556425 0.69447607299129699 0 0.84099946107689361 0.85358983848646974 0.14641016151341191 1 0.81599560342209843 0.22280203704001911 0.81599560342233202 0.85358983848570524 0 0.85358983848556425 0.69447607299129699 0 0.84099946107689361 0.70565701452089868 0.1912596090858541 1 0.85358983848646974 0.14641016151341191 1 0.79999999999999982 0 1 0.69447607299129699 0 0.84099946107689361 0.85358983848646974 0.14641016151341191 1 0.85358983848570524 0 0.85358983848556425 0.79999999999999982 0 1 0.85358983848646974 0.14641016151341191 1 0.85358983848570524 0 0.85358983848556425 1 0 1 1 0.14641016151333891 0.85358983848640169 0.85358983848646974 0.14641016151341191 1 0.85358983848570524 0 0.85358983848556425 0.79999999999999982 0 1 1 0 1 0.85358983848646974 0.14641016151341191 1 1 0 1 1 0.14641016151333891 0.85358983848640169 1 0.19999999999955789 1 0.85358983848570524 0 0.85358983848556425 1 0 1 1 0 0.79999999999947335 1 0.14641016151333891 0.85358983848640169 1 0.1912596090855686 0.70565701451953711 0.81469961246449951 0 0.68914937826112133 0.85358983848570524 0 0.85358983848556425 1 0 0.79999999999947335 1 0.1912596090855686 0.70565701451953711 0.85358983848570524 0 0.85358983848556425 1 0 0.79999999999947335 1 0.14641016151333891 0.85358983848640169 1 0.1912596090855686 0.70565701451953711 0.81599560342209843 0.22280203704001911 0.81599560342233202 1 0.14641016151333891 0.85358983848640169 1 0.30007817960499339 0.85173693729139244 1 0.1912596090855686 0.70565701451953711 0.81599560342209843 0.22280203704001911 0.81599560342233202 0.85358983848570524 0 0.85358983848556425 1 0.14641016151333891 0.85358983848640169 0.85358983848646974 0.14641016151341191 1 0.81599560342209843 0.22280203704001911 0.81599560342233202 1 0.19999999999955789 1 0.85173693729199718 0.30007817960516198 1 0.85358983848646974 0.14641016151341191 1 0.81599560342209843 0.22280203704001911 0.81599560342233202 1 0.14641016151333891 0.85358983848640169 1 0.19999999999955789 1 0.81599560342209843 0.22280203704001911 0.81599560342233202 1 0.14641016151333891 0.85358983848640169 1 0.19999999999955789 1 1 0.30007817960499339 0.85173693729139244 0.85358983848646974 0.14641016151341191 1 0.81599560342209843 0.22280203704001911 0.81599560342233202 0.85358983848570524 0 0.85358983848556425 1 0.14641016151333891 0.85358983848640169 1 0.19999999999955789 1 0.85173693729199718 0.30007817960516198 1 1 0.30007817960499339 0.85173693729139244 1 0.3999999999989749 1 0.81599560342209843 0.22280203704001911 0.81599560342233202 1 0.19999999999955789 1 0.85173693729199718 0.30007817960516198 1 1 0.30007817960499339 0.85173693729139244 0.81599560342209843 0.22280203704001911 0.81599560342233202 0.85173693729199718 0.30007817960516198 1 1 0.30007817960499339 0.85173693729139244 0.78019141325921404 0.49972466465542442 0.78019141325930785 0.68742751001967084 0.31250796680084852 0.687427510020161 0.72724211050425436 0.39076805646176382 1 0.81599560342209843 0.22280203704001911 0.81599560342233202 0.78019141325921404 0.49972466465542442 0.78019141325930785 1 0.39076805646076263 0.7272421105028648 0.81599560342209843 0.22280203704001911 0.81599560342233202 1 0.30007817960499339 0.85173693729139244 0.78019141325921404 0.49972466465542442 0.78019141325930785 0.72724211050425436 0.39076805646176382 1 0.81599560342209843 0.22280203704001911 0.81599560342233202 0.85173693729199718 0.30007817960516198 1 0.78019141325921404 0.49972466465542442 0.78019141325930785 1 0.39076805646076263 0.7272421105028648 0.68742751001967084 0.31250796680084852 0.687427510020161 0.81599560342209843 0.22280203704001911 0.81599560342233202 0.78019141325921404 0.49972466465542442 0.78019141325930785 0.85173693729199718 0.30007817960516198 1 1 0.30007817960499339 0.85173693729139244 1 0.48813836695007229 0.84191918937727617 1 0.3999999999989749 1 0.72724211050425436 0.39076805646176382 1 0.70565701452089868 0.1912596090858541 1 0.81599560342209843 0.22280203704001911 0.81599560342233202 0.85173693729199718 0.30007817960516198 1 1 0.39076805646076263 0.7272421105028648 1 0.1912596090855686 0.70565701451953711 0.81599560342209843 0.22280203704001911 0.81599560342233202 1 0.30007817960499339 0.85173693729139244 0.85173693729199718 0.30007817960516198 1 1 0.30007817960499339 0.85173693729139244 1 0.48813836695007229 0.84191918937727617 0.78019141325921404 0.49972466465542442 0.78019141325930785 1 0.39076805646076263 0.7272421105028648 1 0.30007817960499339 0.85173693729139244 1 0.48813836695007229 0.84191918937727617 0.78019141325921404 0.49972466465542442 0.78019141325930785 1 0.39076805646076263 0.7272421105028648 1 0.48813836695007229 0.84191918937727617 0.78019141325921404 0.49972466465542442 0.78019141325930785 1 0.53045230059030524 0.6732050807565132 0.72724211050425436 0.39076805646176382 1 0.78019141325921404 0.49972466465542442 0.78019141325930785 0.84191918937756771 0.48813836695034618 1 0.67320508075671459 0.53045230059073867 1 0.72724211050425436 0.39076805646176382 1 0.85173693729199718 0.30007817960516198 1 0.78019141325921404 0.49972466465542442 0.78019141325930785 0.84191918937756771 0.48813836695034618 1 0.85173693729199718 0.30007817960516198 1 1 0.48813836695007229 0.84191918937727617 0.78019141325921404 0.49972466465542442 0.78019141325930785 0.84191918937756771 0.48813836695034618 1 1 0.48813836695007229 0.84191918937727617 0.84191918937756771 0.48813836695034618 1 1 0.3999999999989749 1 1 0.59999999999894682 1 0.85173693729199718 0.30007817960516198 1 1 0.48813836695007229 0.84191918937727617 0.84191918937756771 0.48813836695034618 1 1 0.3999999999989749 1 0.78019141325921404 0.49972466465542442 0.78019141325930785 0.80839867011861499 0.68192028468377774 1 0.77683220420328725 0.81278569633583353 0.81664766512111064 0.68649174659499257 0.68600703198516766 0.6864917465949647 0.78019141325921404 0.49972466465542442 0.78019141325930785 0.80839867011861499 0.68192028468377774 1 1 0.68192028468364885 0.80839867011854549 0.77683220420328725 0.81278569633583353 0.81664766512111064 1 0.48813836695007229 0.84191918937727617 0.84191918937756771 0.48813836695034618 1 1 0.59999999999894682 1 1 0.68192028468364885 0.80839867011854549 0.78019141325921404 0.49972466465542442 0.78019141325930785 1 0.68192028468364885 0.80839867011854549 0.77683220420328725 0.81278569633583353 0.81664766512111064 0.68649174659499257 0.68600703198516766 0.6864917465949647 0.84191918937756771 0.48813836695034618 1 1 0.59999999999894682 1 0.80839867011861499 0.68192028468377774 1 1 0.68192028468364885 0.80839867011854549 1 0.59999999999894682 1 0.80839867011861499 0.68192028468377774 1 1 0.68192028468364885 0.80839867011854549 1 0.79999999999947335 1 0.78019141325921404 0.49972466465542442 0.78019141325930785 0.84191918937756771 0.48813836695034618 1 0.80839867011861499 0.68192028468377774 1 0.67320508075671459 0.53045230059073867 1 0.78019141325921404 0.49972466465542442 0.78019141325930785 0.84191918937756771 0.48813836695034618 1 0.80839867011861499 0.68192028468377774 1 1 0.68192028468364885 0.80839867011854549 1 0.48813836695007229 0.84191918937727617 0.78019141325921404 0.49972466465542442 0.78019141325930785 1 0.68192028468364885 0.80839867011854549 1 0.53045230059030524 0.6732050807565132 1 0.48813836695007229 0.84191918937727617 0.78019141325921404 0.49972466465542442 0.78019141325930785 0.84191918937756771 0.48813836695034618 1 1 0.68192028468364885 0.80839867011854549 0.7504488434426726 0.53051757989633308 0.49836643074154852 0.78019141325921404 0.49972466465542442 0.78019141325930785 1 0.53045230059030524 0.6732050807565132 1 0.67939035495490308 0.61016512164639347 0.77374673111774417 0.78860835645735528 0.49829081152968557 0.7504488434426726 0.53051757989633308 0.49836643074154852 1 0.67939035495490308 0.61016512164639347 0.68649174659499257 0.68600703198516766 0.6864917465949647 0.77374673111774417 0.78860835645735528 0.49829081152968557 1 0.67939035495490308 0.61016512164639347 1 0.83791821520125753 0.69361520514217179 0.68649174659499257 0.68600703198516766 0.6864917465949647 1 0.68192028468364885 0.80839867011854549 1 0.67939035495490308 0.61016512164639347 0.77683220420328725 0.81278569633583353 0.81664766512111064 0.68649174659499257 0.68600703198516766 0.6864917465949647 0.77374673111774417 0.78860835645735528 0.49829081152968557 1 0.68975022421527898 0.45812322962078778 0.7504488434426726 0.53051757989633308 0.49836643074154852 1 0.67939035495490308 0.61016512164639347 0.7504488434426726 0.53051757989633308 0.49836643074154852 0.78019141325921404 0.49972466465542442 0.78019141325930785 1 0.67939035495490308 0.61016512164639347 0.68649174659499257 0.68600703198516766 0.6864917465949647 0.78019141325921404 0.49972466465542442 0.78019141325930785 1 0.68192028468364885 0.80839867011854549 1 0.67939035495490308 0.61016512164639347 0.68649174659499257 0.68600703198516766 0.6864917465949647 0.78019141325921404 0.49972466465542442 0.78019141325930785 1 0.68192028468364885 0.80839867011854549 1 0.53045230059030524 0.6732050807565132 1 0.67939035495490308 0.61016512164639347 0.7504488434426726 0.53051757989633308 0.49836643074154852 1 0.53045230059030524 0.6732050807565132 1 0.50000000000229983 0.51961524226898759 1 0.67939035495490308 0.61016512164639347 1 0.68975022421527898 0.45812322962078778 0.7504488434426726 0.53051757989633308 0.49836643074154852 1 0.50000000000229983 0.51961524226898759 1 0.67939035495490308 0.61016512164639347 0.77374673111774417 0.78860835645735528 0.49829081152968557 1 0.68975022421527898 0.45812322962078778 1 0.67939035495490308 0.61016512164639347 1 0.83630110503662825 0.50803330197135588 0.77374673111774417 0.78860835645735528 0.49829081152968557 1 0.83791821520125753 0.69361520514217179 0.77683220420328725 0.81278569633583353 0.81664766512111064 0.68649174659499257 0.68600703198516766 0.6864917465949647 0.77374673111774417 0.78860835645735528 0.49829081152968557 0.81346205468287114 1 0.68420958956387889 0.77683220420328725 0.81278569633583353 0.81664766512111064 0.68649174659499257 0.68600703198516766 0.6864917465949647 1 0.67939035495490308 0.61016512164639347 1 0.83791821520125753 0.69361520514217179 0.77683220420328725 0.81278569633583353 0.81664766512111064 0.68649174659499257 0.68600703198516766 0.6864917465949647 1 0.68192028468364885 0.80839867011854549 1 0.67939035495490308 0.61016512164639347 1 0.83791821520125753 0.69361520514217179 0.77683220420328725 0.81278569633583353 0.81664766512111064 0.77374673111774417 0.78860835645735528 0.49829081152968557 1 0.83791821520125753 0.69361520514217179 0.81346205468287114 1 0.68420958956387889 0.77683220420328725 0.81278569633583353 0.81664766512111064 0.77374673111774417 0.78860835645735528 0.49829081152968557 1 0.67939035495490308 0.61016512164639347 1 0.83791821520125753 0.69361520514217179 1 0.83630110503662825 0.50803330197135588 0.77374673111774417 0.78860835645735528 0.49829081152968557 1 0.83791821520125753 0.69361520514217179 1 0.83630110503662825 0.50803330197135588 0.86762395692956074 1 0.5060815484123421 1 0.83791821520125753 0.69361520514217179 1 0.83630110503662825 0.50803330197135588 1 1 0.59999999999894682 0.86762395692956074 1 0.5060815484123421 1 1 0.3999999999989749 1 0.83630110503662825 0.50803330197135588 1 1 0.59999999999894682 0.86762395692956074 1 0.5060815484123421 1 0.83791821520125753 0.69361520514217179 1 1 0.59999999999894682 0.86762395692956074 1 0.5060815484123421 0.81346205468287114 1 0.68420958956387889 0.77374673111774417 0.78860835645735528 0.49829081152968557 0.86762395692956074 1 0.5060815484123421 0.81346205468287114 1 0.68420958956387889 0.68240285647621723 1 0.52310058211166854 0.77374673111774417 0.78860835645735528 0.49829081152968557 1 0.83791821520125753 0.69361520514217179 0.86762395692956074 1 0.5060815484123421 0.81346205468287114 1 0.68420958956387889 1 0.83791821520125753 0.69361520514217179 1 1 0.59999999999894682 0.81346205468287114 1 0.68420958956387889 1 1 0.79999999999947335 1 0.83791821520125753 0.69361520514217179 0.81346205468287114 1 0.68420958956387889 1 1 0.79999999999947335 0.85358983848569092 1 0.85358983848569092 1 0.83791821520125753 0.69361520514217179 1 0.85358983848587056 0.85358983848587056 0.77683220420328725 0.81278569633583353 0.81664766512111064 0.85358983848569092 1 0.85358983848569092 1 0.83791821520125753 0.69361520514217179 1 1 0.79999999999947335 1 0.85358983848587056 0.85358983848587056 0.85358983848569092 1 0.85358983848569092 1 1 1 1 0.79999999999947335 1 1 0.85358983848587056 0.85358983848587056 0.85358983848587056 0.85358983848587056 1 1 1 1 0.85358983848587056 0.85358983848587056 1 0.79999999999947335 1 1 0.85358983848569092 1 0.85358983848569092 1 1 0.79999999999947335 1 1 1 1 0.85358983848587056 0.85358983848587056 0.85358983848569092 1 0.85358983848569092 1 1 1 1 0.85358983848587056 0.85358983848587056 0.85358983848587056 0.85358983848587056 1 0.85358983848569092 1 0.85358983848569092 1 0.68192028468364885 0.80839867011854549 1 0.79999999999947335 1 1 0.85358983848587056 0.85358983848587056 0.85358983848587056 0.85358983848587056 1 0.80839867011861499 0.68192028468377774 1 1 0.68192028468364885 0.80839867011854549 1 0.79999999999947335 1 0.85358983848587056 0.85358983848587056 1 1 0.68192028468364885 0.80839867011854549 1 0.85358983848587056 0.85358983848587056 0.77683220420328725 0.81278569633583353 0.81664766512111064 0.85358983848587056 0.85358983848587056 1 1 0.68192028468364885 0.80839867011854549 1 0.83791821520125753 0.69361520514217179 1 0.85358983848587056 0.85358983848587056 0.77683220420328725 0.81278569633583353 0.81664766512111064 0.80839867011861499 0.68192028468377774 1 0.77683220420328725 0.81278569633583353 0.81664766512111064 0.85358983848587056 0.85358983848587056 1 0.69361520514218133 0.83791821520130205 1 0.80839867011861499 0.68192028468377774 1 1 0.68192028468364885 0.80839867011854549 0.77683220420328725 0.81278569633583353 0.81664766512111064 0.85358983848587056 0.85358983848587056 1 0.77683220420328725 0.81278569633583353 0.81664766512111064 0.85358983848587056 0.85358983848587056 1 0.79999999999947335 1 1 0.85358983848569092 1 0.85358983848569092 0.77683220420328725 0.81278569633583353 0.81664766512111064 0.79999999999947335 1 1 0.85358983848569092 1 0.85358983848569092 0.69981550660938663 1 0.83057691269844081 0.77683220420328725 0.81278569633583353 0.81664766512111064 0.85358983848587056 0.85358983848587056 1 0.79999999999947335 1 1 0.69361520514218133 0.83791821520130205 1 1 0.85358983848587056 0.85358983848587056 0.77683220420328725 0.81278569633583353 0.81664766512111064 0.85358983848587056 0.85358983848587056 1 0.85358983848569092 1 0.85358983848569092 0.81346205468287114 1 0.68420958956387889 0.77683220420328725 0.81278569633583353 0.81664766512111064 0.85358983848569092 1 0.85358983848569092 0.69981550660938663 1 0.83057691269844081 1 0.83791821520125753 0.69361520514217179 0.81346205468287114 1 0.68420958956387889 0.77683220420328725 0.81278569633583353 0.81664766512111064 0.85358983848569092 1 0.85358983848569092 0.77683220420328725 0.81278569633583353 0.81664766512111064 0.69981550660938663 1 0.83057691269844081 0.69361520514218133 0.83791821520130205 1 0.49911199724958061 0.77872228561593948 0.77895350115271889 0.77683220420328725 0.81278569633583353 0.81664766512111064 0.69361520514218133 0.83791821520130205 1 0.61016512164652226 0.67939035495506384 1 0.49911199724958061 0.77872228561593948 0.77895350115271889 0.81346205468287114 1 0.68420958956387889 0.77683220420328725 0.81278569633583353 0.81664766512111064 0.69981550660938663 1 0.83057691269844081 0.6123333432449789 1 0.67837347745467769 0.77683220420328725 0.81278569633583353 0.81664766512111064 0.69981550660938663 1 0.83057691269844081 0.6123333432449789 1 0.67837347745467769 0.49911199724958061 0.77872228561593948 0.77895350115271889 0.77683220420328725 0.81278569633583353 0.81664766512111064 0.79999999999947335 1 1 0.69981550660938663 1 0.83057691269844081 0.69361520514218133 0.83791821520130205 1 0.69981550660938663 1 0.83057691269844081 0.69361520514218133 0.83791821520130205 1 0.59999999999894682 1 1 0.50970031073508926 1 0.83534964916803001 0.79999999999947335 1 1 0.69981550660938663 1 0.83057691269844081 0.69361520514218133 0.83791821520130205 1 0.59999999999894682 1 1 0.80839867011861499 0.68192028468377774 1 0.77683220420328725 0.81278569633583353 0.81664766512111064 0.69361520514218133 0.83791821520130205 1 0.61016512164652226 0.67939035495506384 1 0.69361520514218133 0.83791821520130205 1 0.50803330197137353 0.83630110503667787 1 0.61016512164652226 0.67939035495506384 1 0.49911199724958061 0.77872228561593948 0.77895350115271889 0.69361520514218133 0.83791821520130205 1 0.50803330197137353 0.83630110503667787 1 0.50970031073508926 1 0.83534964916803001 0.49911199724958061 0.77872228561593948 0.77895350115271889 0.50803330197137353 0.83630110503667787 1 0.59999999999894682 1 1 0.50970031073508926 1 0.83534964916803001 0.3999999999989749 1 1 0.69361520514218133 0.83791821520130205 1 0.50803330197137353 0.83630110503667787 1 0.59999999999894682 1 1 0.50970031073508926 1 0.83534964916803001 0.69981550660938663 1 0.83057691269844081 0.69361520514218133 0.83791821520130205 1 0.50970031073508926 1 0.83534964916803001 0.49911199724958061 0.77872228561593948 0.77895350115271889 0.69981550660938663 1 0.83057691269844081 0.50970031073508926 1 0.83534964916803001 0.6123333432449789 1 0.67837347745467769 0.49911199724958061 0.77872228561593948 0.77895350115271889 0.6123333432449789 1 0.67837347745467769 0.68649174659499257 0.68600703198516766 0.6864917465949647 0.49983993748706529 0.75039103705932653 0.52967335724801234 0.49911199724958061 0.77872228561593948 0.77895350115271889 0.77374673111774417 0.78860835645735528 0.49829081152968557 0.6123333432449789 1 0.67837347745467769 0.68240285647621723 1 0.52310058211166854 0.49983993748706529 0.75039103705932653 0.52967335724801234 0.6123333432449789 1 0.67837347745467769 0.49983993748706529 0.75039103705932653 0.52967335724801234 0.45820186441573879 1 0.68969697123405882 0.49911199724958061 0.77872228561593948 0.77895350115271889 0.50970031073508926 1 0.83534964916803001 0.6123333432449789 1 0.67837347745467769 0.45820186441573879 1 0.68969697123405882 0.49911199724958061 0.77872228561593948 0.77895350115271889 0.77374673111774417 0.78860835645735528 0.49829081152968557 0.6123333432449789 1 0.67837347745467769 0.68649174659499257 0.68600703198516766 0.6864917465949647 0.49983993748706529 0.75039103705932653 0.52967335724801234 0.81346205468287114 1 0.68420958956387889 0.77683220420328725 0.81278569633583353 0.81664766512111064 0.6123333432449789 1 0.67837347745467769 0.68649174659499257 0.68600703198516766 0.6864917465949647 0.77683220420328725 0.81278569633583353 0.81664766512111064 0.6123333432449789 1 0.67837347745467769 0.68649174659499257 0.68600703198516766 0.6864917465949647 0.49911199724958061 0.77872228561593948 0.77895350115271889 0.77374673111774417 0.78860835645735528 0.49829081152968557 0.81346205468287114 1 0.68420958956387889 0.6123333432449789 1 0.67837347745467769 0.68649174659499257 0.68600703198516766 0.6864917465949647 0.77374673111774417 0.78860835645735528 0.49829081152968557 0.81346205468287114 1 0.68420958956387889 0.6123333432449789 1 0.67837347745467769 0.68240285647621723 1 0.52310058211166854 0.51961524227008238 1 0.49999999999872219 0.6123333432449789 1 0.67837347745467769 0.49983993748706529 0.75039103705932653 0.52967335724801234 0.45820186441573879 1 0.68969697123405882 0.51961524227008238 1 0.49999999999872219 0.6123333432449789 1 0.67837347745467769 0.68240285647621723 1 0.52310058211166854 0.49983993748706529 0.75039103705932653 0.52967335724801234 0.68649174659499257 0.68600703198516766 0.6864917465949647 0.49816183246753282 0.5307146639261795 0.75045686993209071 0.49983993748706529 0.75039103705932653 0.52967335724801234 0.49911199724958061 0.77872228561593948 0.77895350115271889 0.7504488434426726 0.53051757989633308 0.49836643074154852 0.50000000000001332 0.49999999999999561 0.49999999999999561 0.68649174659499257 0.68600703198516766 0.6864917465949647 0.49816183246753282 0.5307146639261795 0.75045686993209071 0.7504488434426726 0.53051757989633308 0.49836643074154852 0.78019141325921404 0.49972466465542442 0.78019141325930785 0.68649174659499257 0.68600703198516766 0.6864917465949647 0.49816183246753282 0.5307146639261795 0.75045686993209071 0.7504488434426726 0.53051757989633308 0.49836643074154852 0.50000000000001332 0.49999999999999561 0.49999999999999561 0.68649174659499257 0.68600703198516766 0.6864917465949647 0.49983993748706529 0.75039103705932653 0.52967335724801234 0.77374673111774417 0.78860835645735528 0.49829081152968557 0.7504488434426726 0.53051757989633308 0.49836643074154852 0.68649174659499257 0.68600703198516766 0.6864917465949647 0.49983993748706529 0.75039103705932653 0.52967335724801234 0.50000000000001332 0.49999999999999561 0.49999999999999561 0.68649174659499257 0.68600703198516766 0.6864917465949647 0.49816183246753282 0.5307146639261795 0.75045686993209071 0.49983993748706529 0.75039103705932653 0.52967335724801234 0.78019141325921404 0.49972466465542442 0.78019141325930785 0.67320508075671459 0.53045230059073867 1 0.61016512164652226 0.67939035495506384 1 0.49816183246753282 0.5307146639261795 0.75045686993209071 0.78019141325921404 0.49972466465542442 0.78019141325930785 0.68649174659499257 0.68600703198516766 0.6864917465949647 0.61016512164652226 0.67939035495506384 1 0.49816183246753282 0.5307146639261795 0.75045686993209071 0.78019141325921404 0.49972466465542442 0.78019141325930785 0.80839867011861499 0.68192028468377774 1 0.68649174659499257 0.68600703198516766 0.6864917465949647 0.61016512164652226 0.67939035495506384 1 0.77683220420328725 0.81278569633583353 0.81664766512111064 0.68649174659499257 0.68600703198516766 0.6864917465949647 0.61016512164652226 0.67939035495506384 1 0.49911199724958061 0.77872228561593948 0.77895350115271889 0.68649174659499257 0.68600703198516766 0.6864917465949647 0.61016512164652226 0.67939035495506384 1 0.49816183246753282 0.5307146639261795 0.75045686993209071 0.49911199724958061 0.77872228561593948 0.77895350115271889 0.80839867011861499 0.68192028468377774 1 0.77683220420328725 0.81278569633583353 0.81664766512111064 0.68649174659499257 0.68600703198516766 0.6864917465949647 0.61016512164652226 0.67939035495506384 1 0.78019141325921404 0.49972466465542442 0.78019141325930785 0.80839867011861499 0.68192028468377774 1 0.67320508075671459 0.53045230059073867 1 0.61016512164652226 0.67939035495506384 1 0.61016512164652226 0.67939035495506384 1 0.45812322962090041 0.68975022421538157 1 0.49816183246753282 0.5307146639261795 0.75045686993209071 0.49911199724958061 0.77872228561593948 0.77895350115271889 0.50803330197137353 0.83630110503667787 1 0.61016512164652226 0.67939035495506384 1 0.45812322962090041 0.68975022421538157 1 0.49911199724958061 0.77872228561593948 0.77895350115271889 0.61016512164652226 0.67939035495506384 1 0.51961524226934941 0.50000000000250611 1 0.45812322962090041 0.68975022421538157 1 0.49816183246753282 0.5307146639261795 0.75045686993209071 0.67320508075671459 0.53045230059073867 1 0.61016512164652226 0.67939035495506384 1 0.51961524226934941 0.50000000000250611 1 0.49816183246753282 0.5307146639261795 0.75045686993209071 0.32446581821293602 0.60020898676440626 1 0.3115891413135391 0.68758981780459771 0.68521708032990558 0.18453958615733529 0.77655623474864555 0.81613222483915937 0.2184393375098648 0.50004596894495223 0.77634962490704662 0.51961524226934941 0.50000000000250611 1 0.32446581821293602 0.60020898676440626 1 0.49816183246753282 0.5307146639261795 0.75045686993209071 0.32925244736146098 0.39615100178034629 1 0.45812322962090041 0.68975022421538157 1 0.3115891413135391 0.68758981780459771 0.68521708032990558 0.49911199724958061 0.77872228561593948 0.77895350115271889 0.31067093462947892 0.81480288849497895 1 0.32446581821293602 0.60020898676440626 1 0.49816183246753282 0.5307146639261795 0.75045686993209071 0.2184393375098648 0.50004596894495223 0.77634962490704662 0.32925244736146098 0.39615100178034629 1 0.45812322962090041 0.68975022421538157 1 0.49816183246753282 0.5307146639261795 0.75045686993209071 0.3115891413135391 0.68758981780459771 0.68521708032990558 0.49911199724958061 0.77872228561593948 0.77895350115271889 0.32446581821293602 0.60020898676440626 1 0.49816183246753282 0.5307146639261795 0.75045686993209071 0.3115891413135391 0.68758981780459771 0.68521708032990558 0.2184393375098648 0.50004596894495223 0.77634962490704662 0.51961524226934941 0.50000000000250611 1 0.45812322962090041 0.68975022421538157 1 0.32446581821293602 0.60020898676440626 1 0.49816183246753282 0.5307146639261795 0.75045686993209071 0.45812322962090041 0.68975022421538157 1 0.32446581821293602 0.60020898676440626 1 0.3115891413135391 0.68758981780459771 0.68521708032990558 0.31067093462947892 0.81480288849497895 1 0.45812322962090041 0.68975022421538157 1 0.32446581821293602 0.60020898676440626 1 0.49816183246753282 0.5307146639261795 0.75045686993209071 0.3115891413135391 0.68758981780459771 0.68521708032990558 0.32446581821293602 0.60020898676440626 1 0.3115891413135391 0.68758981780459771 0.68521708032990558 0.31067093462947892 0.81480288849497895 1 0.18453958615733529 0.77655623474864555 0.81613222483915937 0.24769234054476261 0.52242103280823293 0.45098450226372488 0.50000000000001332 0.49999999999999561 0.49999999999999561 0.3115891413135391 0.68758981780459771 0.68521708032990558 0.49983993748706529 0.75039103705932653 0.52967335724801234 0.50000000000001332 0.49999999999999561 0.49999999999999561 0.49816183246753282 0.5307146639261795 0.75045686993209071 0.3115891413135391 0.68758981780459771 0.68521708032990558 0.49983993748706529 0.75039103705932653 0.52967335724801234 0.24769234054476261 0.52242103280823293 0.45098450226372488 0.22516916914780419 0.77057994845201627 0.48187244075707292 0.3115891413135391 0.68758981780459771 0.68521708032990558 0.49983993748706529 0.75039103705932653 0.52967335724801234 0.24769234054476261 0.52242103280823293 0.45098450226372488 0.50000000000001332 0.49999999999999561 0.49999999999999561 0.3115891413135391 0.68758981780459771 0.68521708032990558 0.2184393375098648 0.50004596894495223 0.77634962490704662 0.50000000000001332 0.49999999999999561 0.49999999999999561 0.49816183246753282 0.5307146639261795 0.75045686993209071 0.3115891413135391 0.68758981780459771 0.68521708032990558 0.2184393375098648 0.50004596894495223 0.77634962490704662 0.49816183246753282 0.5307146639261795 0.75045686993209071 0.3115891413135391 0.68758981780459771 0.68521708032990558 0.49983993748706529 0.75039103705932653 0.52967335724801234 0.49911199724958061 0.77872228561593948 0.77895350115271889 0.3115891413135391 0.68758981780459771 0.68521708032990558 0.49983993748706529 0.75039103705932653 0.52967335724801234 0.32448110831226962 1 0.6002015905153204 0.45820186441573879 1 0.68969697123405882 0.3115891413135391 0.68758981780459771 0.68521708032990558 0.32448110831226962 1 0.6002015905153204 0.45820186441573879 1 0.68969697123405882 0.31085062173747541 1 0.81469961246428202 0.3115891413135391 0.68758981780459771 0.68521708032990558 0.49983993748706529 0.75039103705932653 0.52967335724801234 0.45820186441573879 1 0.68969697123405882 0.49911199724958061 0.77872228561593948 0.77895350115271889 0.3115891413135391 0.68758981780459771 0.68521708032990558 0.32448110831226962 1 0.6002015905153204 0.31085062173747541 1 0.81469961246428202 0.18453958615733529 0.77655623474864555 0.81613222483915937 0.22516916914780419 0.77057994845201627 0.48187244075707292 0.3115891413135391 0.68758981780459771 0.68521708032990558 0.49983993748706529 0.75039103705932653 0.52967335724801234 0.32448110831226962 1 0.6002015905153204 0.3115891413135391 0.68758981780459771 0.68521708032990558 0.45820186441573879 1 0.68969697123405882 0.49911199724958061 0.77872228561593948 0.77895350115271889 0.31085062173747541 1 0.81469961246428202 0.22516916914780419 0.77057994845201627 0.48187244075707292 0.32926555316115258 1 0.39615987727515128 0.49983993748706529 0.75039103705932653 0.52967335724801234 0.32448110831226962 1 0.6002015905153204 0.22516916914780419 0.77057994845201627 0.48187244075707292 0.3115891413135391 0.68758981780459771 0.68521708032990558 0.32448110831226962 1 0.6002015905153204 0.15900053892265181 1 0.69447607299016312 0.32926555316115258 1 0.39615987727515128 0.51961524227008238 1 0.49999999999872219 0.49983993748706529 0.75039103705932653 0.52967335724801234 0.32448110831226962 1 0.6002015905153204 0.51961524227008238 1 0.49999999999872219 0.49983993748706529 0.75039103705932653 0.52967335724801234 0.32448110831226962 1 0.6002015905153204 0.45820186441573879 1 0.68969697123405882 0.50970031073508926 1 0.83534964916803001 0.45820186441573879 1 0.68969697123405882 0.49911199724958061 0.77872228561593948 0.77895350115271889 0.31085062173747541 1 0.81469961246428202 0.49911199724958061 0.77872228561593948 0.77895350115271889 0.31067093462947892 0.81480288849497895 1 0.31085062173747541 1 0.81469961246428202 0.18453958615733529 0.77655623474864555 0.81613222483915937 0.3115891413135391 0.68758981780459771 0.68521708032990558 0.49911199724958061 0.77872228561593948 0.77895350115271889 0.31085062173747541 1 0.81469961246428202 0.18453958615733529 0.77655623474864555 0.81613222483915937 0.50803330197137353 0.83630110503667787 1 0.50970031073508926 1 0.83534964916803001 0.49911199724958061 0.77872228561593948 0.77895350115271889 0.31085062173747541 1 0.81469961246428202 0.3115891413135391 0.68758981780459771 0.68521708032990558 0.49911199724958061 0.77872228561593948 0.77895350115271889 0.31067093462947892 0.81480288849497895 1 0.18453958615733529 0.77655623474864555 0.81613222483915937 0.50803330197137353 0.83630110503667787 1 0.50970031073508926 1 0.83534964916803001 0.3999999999989749 1 1 0.31085062173747541 1 0.81469961246428202 0.50803330197137353 0.83630110503667787 1 0.3999999999989749 1 1 0.31067093462947892 0.81480288849497895 1 0.31085062173747541 1 0.81469961246428202 0.50803330197137353 0.83630110503667787 1 0.49911199724958061 0.77872228561593948 0.77895350115271889 0.31067093462947892 0.81480288849497895 1 0.31085062173747541 1 0.81469961246428202 0.50803330197137353 0.83630110503667787 1 0.45812322962090041 0.68975022421538157 1 0.49911199724958061 0.77872228561593948 0.77895350115271889 0.31067093462947892 0.81480288849497895 1 0.3999999999989749 1 1 0.31067093462947892 0.81480288849497895 1 0.31085062173747541 1 0.81469961246428202 0.19999999999955789 1 1 0.31085062173747541 1 0.81469961246428202 0.1464101615132356 1 0.85358983848650494 0.18453958615733529 0.77655623474864555 0.81613222483915937 0.15900053892265181 1 0.69447607299016312 0.31067093462947892 0.81480288849497895 1 0.31085062173747541 1 0.81469961246428202 0.1464101615132356 1 0.85358983848650494 0.18453958615733529 0.77655623474864555 0.81613222483915937 0.31067093462947892 0.81480288849497895 1 0.31085062173747541 1 0.81469961246428202 0.1464101615132356 1 0.85358983848650494 0.19999999999955789 1 1 0.31067093462947892 0.81480288849497895 1 0.1464101615132356 1 0.85358983848650494 0.19999999999955789 1 1 0.14641016151332509 0.85358983848655678 1 0.31067093462947892 0.81480288849497895 1 0.14641016151332509 0.85358983848655678 1 0.18453958615733529 0.77655623474864555 0.81613222483915937 0.15896804272141651 0.69449451837104537 1 0.31067093462947892 0.81480288849497895 1 0.1464101615132356 1 0.85358983848650494 0.14641016151332509 0.85358983848655678 1 0.18453958615733529 0.77655623474864555 0.81613222483915937 0.18453958615733529 0.77655623474864555 0.81613222483915937 0 0.85358983848682146 0.85358983848668035 0 0.80860557108920617 0.70542349973054763 0 0.69992182039579531 0.85173693729137989 0.18453958615733529 0.77655623474864555 0.81613222483915937 0 0.85358983848682146 0.85358983848668035 0.15900053892265181 1 0.69447607299016312 0 0.80860557108920617 0.70542349973054763 0.14641016151332509 0.85358983848655678 1 0.18453958615733529 0.77655623474864555 0.81613222483915937 0 0.79999999999999982 1 0.15896804272141651 0.69449451837104537 1 0.1464101615132356 1 0.85358983848650494 0.14641016151332509 0.85358983848655678 1 0.18453958615733529 0.77655623474864555 0.81613222483915937 0 0.85358983848682146 0.85358983848668035 0.18453958615733529 0.77655623474864555 0.81613222483915937 0 0.85358983848682146 0.85358983848668035 0 0.79999999999999982 1 0 0.69992182039579531 0.85173693729137989 0.14641016151332509 0.85358983848655678 1 0.18453958615733529 0.77655623474864555 0.81613222483915937 0 0.85358983848682146 0.85358983848668035 0 0.79999999999999982 1 0.14641016151332509 0.85358983848655678 1 0 0.85358983848682146 0.85358983848668035 0 0.79999999999999982 1 0 1 1 0.1464101615132356 1 0.85358983848650494 0.14641016151332509 0.85358983848655678 1 0 0.85358983848682146 0.85358983848668035 0 1 1 0.1464101615132356 1 0.85358983848650494 0.19999999999955789 1 1 0.14641016151332509 0.85358983848655678 1 0 1 1 0.1464101615132356 1 0.85358983848650494 0 0.85358983848682146 0.85358983848668035 0 1 1 0 1 0.79999999999947335 0.1464101615132356 1 0.85358983848650494 0.18453958615733529 0.77655623474864555 0.81613222483915937 0 0.85358983848682146 0.85358983848668035 0.15900053892265181 1 0.69447607299016312 0 0.85358983848682146 0.85358983848668035 0 1 0.79999999999947335 0.15900053892265181 1 0.69447607299016312 0 0.80860557108920617 0.70542349973054763 0.1464101615132356 1 0.85358983848650494 0 0.85358983848682146 0.85358983848668035 0 1 0.79999999999947335 0.15900053892265181 1 0.69447607299016312 0 1 0.79999999999947335 0.15900053892265181 1 0.69447607299016312 0 1 0.59999999999894682 0 0.80860557108920617 0.70542349973054763 0.22516916914780419 0.77057994845201627 0.48187244075707292 0.3115891413135391 0.68758981780459771 0.68521708032990558 0.18453958615733529 0.77655623474864555 0.81613222483915937 0 0.80860557108920617 0.70542349973054763 0.15900053892265181 1 0.69447607299016312 0 1 0.59999999999894682 0 0.83630110503664845 0.50803330197135654 0 0.80860557108920617 0.70542349973054763 0.3115891413135391 0.68758981780459771 0.68521708032990558 0.32448110831226962 1 0.6002015905153204 0.18453958615733529 0.77655623474864555 0.81613222483915937 0.15900053892265181 1 0.69447607299016312 0.22516916914780419 0.77057994845201627 0.48187244075707292 0.3115891413135391 0.68758981780459771 0.68521708032990558 0.18453958615733529 0.77655623474864555 0.81613222483915937 0.15900053892265181 1 0.69447607299016312 0.22516916914780419 0.77057994845201627 0.48187244075707292 0.18453958615733529 0.77655623474864555 0.81613222483915937 0.15900053892265181 1 0.69447607299016312 0 0.80860557108920617 0.70542349973054763 0.32448110831226962 1 0.6002015905153204 0.31085062173747541 1 0.81469961246428202 0.18453958615733529 0.77655623474864555 0.81613222483915937 0.15900053892265181 1 0.69447607299016312 0.22516916914780419 0.77057994845201627 0.48187244075707292 0.17226134197293 1 0.49836539647645101 0.32448110831226962 1 0.6002015905153204 0.15900053892265181 1 0.69447607299016312 0.22516916914780419 0.77057994845201627 0.48187244075707292 0.17226134197293 1 0.49836539647645101 0.15900053892265181 1 0.69447607299016312 0 0.83630110503664845 0.50803330197135654 0 1 0.3999999999989749 0.17226134197293 1 0.49836539647645101 0 1 0.59999999999894682 0 0.83630110503664845 0.50803330197135654 0.17226134197293 1 0.49836539647645101 0.15900053892265181 1 0.69447607299016312 0 1 0.59999999999894682 0 0.83630110503664845 0.50803330197135654 0.22516916914780419 0.77057994845201627 0.48187244075707292 0.15900053892265181 1 0.69447607299016312 0 0.83630110503664845 0.50803330197135654 0 0.80860557108920617 0.70542349973054763 0.22516916914780419 0.77057994845201627 0.48187244075707292 0 0.83630110503664845 0.50803330197135654 0 0.80860557108920617 0.70542349973054763 0 0.66416205381430016 0.59944234540882957 0.22516916914780419 0.77057994845201627 0.48187244075707292 0.3115891413135391 0.68758981780459771 0.68521708032990558 0 0.80860557108920617 0.70542349973054763 0 0.66416205381430016 0.59944234540882957 0.3115891413135391 0.68758981780459771 0.68521708032990558 0.18453958615733529 0.77655623474864555 0.81613222483915937 0 0.80860557108920617 0.70542349973054763 0 0.66416205381430016 0.59944234540882957 0.18453958615733529 0.77655623474864555 0.81613222483915937 0 0.80860557108920617 0.70542349973054763 0 0.66416205381430016 0.59944234540882957 0 0.60922248848335758 0.72722573386012812 0.24769234054476261 0.52242103280823293 0.45098450226372488 0.3115891413135391 0.68758981780459771 0.68521708032990558 0 0.66416205381430016 0.59944234540882957 0.2184393375098648 0.50004596894495223 0.77634962490704662 0.3115891413135391 0.68758981780459771 0.68521708032990558 0.18453958615733529 0.77655623474864555 0.81613222483915937 0 0.66416205381430016 0.59944234540882957 0 0.60922248848335758 0.72722573386012812 0 0.66416205381430016 0.59944234540882957 0 0.50000000000237477 0.51961524226909872 0.2184393375098648 0.50004596894495223 0.77634962490704662 0 0.46954769941369501 0.67320508075638175 0.3115891413135391 0.68758981780459771 0.68521708032990558 0 0.66416205381430016 0.59944234540882957 0 0.60922248848335758 0.72722573386012812 0.2184393375098648 0.50004596894495223 0.77634962490704662 0.24769234054476261 0.52242103280823293 0.45098450226372488 0.22516916914780419 0.77057994845201627 0.48187244075707292 0.3115891413135391 0.68758981780459771 0.68521708032990558 0 0.66416205381430016 0.59944234540882957 0.24769234054476261 0.52242103280823293 0.45098450226372488 0 0.66416205381430016 0.59944234540882957 0 0.50000000000237477 0.51961524226909872 0.2184393375098648 0.50004596894495223 0.77634962490704662 0 0.68801781652248195 0.45664527743358641 0.22516916914780419 0.77057994845201627 0.48187244075707292 0 0.83630110503664845 0.50803330197135654 0 0.66416205381430016 0.59944234540882957 0.24769234054476261 0.52242103280823293 0.45098450226372488 0 0.68801781652248195 0.45664527743358641 0 0.66416205381430016 0.59944234540882957 0 0.50000000000237477 0.51961524226909872 0 0.66416205381430016 0.59944234540882957 0 0.60922248848335758 0.72722573386012812 0.2184393375098648 0.50004596894495223 0.77634962490704662 0 0.46954769941369501 0.67320508075638175 0 0.5118616330515301 0.84191918937737908 0 0.69992182039579531 0.85173693729137989 0.2184393375098648 0.50004596894495223 0.77634962490704662 0.15896804272141651 0.69449451837104537 1 0.3115891413135391 0.68758981780459771 0.68521708032990558 0.18453958615733529 0.77655623474864555 0.81613222483915937 0 0.60922248848335758 0.72722573386012812 0.2184393375098648 0.50004596894495223 0.77634962490704662 0.18453958615733529 0.77655623474864555 0.81613222483915937 0 0.69992182039579531 0.85173693729137989 0.2184393375098648 0.50004596894495223 0.77634962490704662 0.15896804272141651 0.69449451837104537 1 0 0.60922248848335758 0.72722573386012812 0 0.5118616330515301 0.84191918937737908 0.2184393375098648 0.50004596894495223 0.77634962490704662 0 0.46954769941369501 0.67320508075638175 0 0.60922248848335758 0.72722573386012812 0 0.5118616330515301 0.84191918937737908 0 0.69992182039579531 0.85173693729137989 0.2184393375098648 0.50004596894495223 0.77634962490704662 0.32446581821293602 0.60020898676440626 1 0.18453958615733529 0.77655623474864555 0.81613222483915937 0.2184393375098648 0.50004596894495223 0.77634962490704662 0.15896804272141651 0.69449451837104537 1 0.18453958615733529 0.77655623474864555 0.81613222483915937 0 0.60922248848335758 0.72722573386012812 0 0.69992182039579531 0.85173693729137989 0.2184393375098648 0.50004596894495223 0.77634962490704662 0.18453958615733529 0.77655623474864555 0.81613222483915937 0 0.80860557108920617 0.70542349973054763 0 0.60922248848335758 0.72722573386012812 0 0.69992182039579531 0.85173693729137989 0.32446581821293602 0.60020898676440626 1 0.2184393375098648 0.50004596894495223 0.77634962490704662 0.15896804272141651 0.69449451837104537 1 0.17226134197275911 0.49836539647894412 1 0 0.5118616330515301 0.84191918937737908 0.2184393375098648 0.50004596894495223 0.77634962490704662 0.15896804272141651 0.69449451837104537 1 0.17226134197275911 0.49836539647894412 1 0.32446581821293602 0.60020898676440626 1 0.31067093462947892 0.81480288849497895 1 0.18453958615733529 0.77655623474864555 0.81613222483915937 0.15896804272141651 0.69449451837104537 1 0.18453958615733529 0.77655623474864555 0.81613222483915937 0 0.79999999999999982 1 0 0.69992182039579531 0.85173693729137989 0.15896804272141651 0.69449451837104537 1 0 0.5118616330515301 0.84191918937737908 0 0.69992182039579531 0.85173693729137989 0.15896804272141651 0.69449451837104537 1 0 0.60000000000138687 1 0 0.79999999999999982 1 0 0.69992182039579531 0.85173693729137989 0.15896804272141651 0.69449451837104537 1 0 0.60000000000138687 1 0 0.5118616330515301 0.84191918937737908 0.15896804272141651 0.69449451837104537 1 0 0.60000000000138687 1 0.17226134197275911 0.49836539647894412 1 0 0.5118616330515301 0.84191918937737908 0 0.60000000000138687 1 0 0.40000000000166441 1 0.17226134197275911 0.49836539647894412 1 0 0.5118616330515301 0.84191918937737908 0 0.40000000000166441 1 0 0.31807971531776508 0.80839867011913336 0.17226134197275911 0.49836539647894412 1 0 0.40000000000166441 1 0 0.31807971531776508 0.80839867011913336 0.16929708765653109 0.30074819035870082 1 0.17226134197275911 0.49836539647894412 1 0 0.31807971531776508 0.80839867011913336 0.16929708765653109 0.30074819035870082 1 0.31426750628021272 0.31270343261798911 0.68761148188185484 0 0.14641016151490169 0.85358983848532144 0.2184393375098648 0.50004596894495223 0.77634962490704662 0 0.31807971531776508 0.80839867011913336 0.16929708765653109 0.30074819035870082 1 0.31426750628021272 0.31270343261798911 0.68761148188185484 0 0.5118616330515301 0.84191918937737908 0.2184393375098648 0.50004596894495223 0.77634962490704662 0 0.31807971531776508 0.80839867011913336 0 0.46954769941369501 0.67320508075638175 0 0.5118616330515301 0.84191918937737908 0.2184393375098648 0.50004596894495223 0.77634962490704662 0 0.31807971531776508 0.80839867011913336 0.17226134197275911 0.49836539647894412 1 0 0.40000000000166441 1 0 0.31807971531776508 0.80839867011913336 0.16929708765653109 0.30074819035870082 1 0 0.20000000000083221 1 0.2184393375098648 0.50004596894495223 0.77634962490704662 0.16929708765653109 0.30074819035870082 1 0.17226134197275911 0.49836539647894412 1 0.32925244736146098 0.39615100178034629 1 0.2184393375098648 0.50004596894495223 0.77634962490704662 0 0.31807971531776508 0.80839867011913336 0.16929708765653109 0.30074819035870082 1 0.17226134197275911 0.49836539647894412 1 0.16929708765653109 0.30074819035870082 1 0.32925244736146098 0.39615100178034629 1 0.31426750628021272 0.31270343261798911 0.68761148188185484 0.31610726166461628 0.1880448979455934 1 0.32446581821293602 0.60020898676440626 1 0.2184393375098648 0.50004596894495223 0.77634962490704662 0.17226134197275911 0.49836539647894412 1 0.32925244736146098 0.39615100178034629 1 0.50084626324420545 0.22238844715913 0.78084811589659187 0.49816183246753282 0.5307146639261795 0.75045686993209071 0.45812322962173568 0.31024977578554058 1 0.31426750628021272 0.31270343261798911 0.68761148188185484 0.49816183246753282 0.5307146639261795 0.75045686993209071 0.2184393375098648 0.50004596894495223 0.77634962490704662 0.32925244736146098 0.39615100178034629 1 0.31426750628021272 0.31270343261798911 0.68761148188185484 0.32925244736146098 0.39615100178034629 1 0.45812322962173568 0.31024977578554058 1 0.31426750628021272 0.31270343261798911 0.68761148188185484 0.31610726166461628 0.1880448979455934 1 0.50084626324420545 0.22238844715913 0.78084811589659187 0.45812322962173568 0.31024977578554058 1 0.31426750628021272 0.31270343261798911 0.68761148188185484 0.31610726166461628 0.1880448979455934 1 0.49816183246753282 0.5307146639261795 0.75045686993209071 0.32925244736146098 0.39615100178034629 1 0.45812322962173568 0.31024977578554058 1 0.31426750628021272 0.31270343261798911 0.68761148188185484 0.2184393375098648 0.50004596894495223 0.77634962490704662 0.16929708765653109 0.30074819035870082 1 0.32925244736146098 0.39615100178034629 1 0.31426750628021272 0.31270343261798911 0.68761148188185484 0.51961524226934941 0.50000000000250611 1 0.49816183246753282 0.5307146639261795 0.75045686993209071 0.32925244736146098 0.39615100178034629 1 0.45812322962173568 0.31024977578554058 1 0.50000000000001332 0.49999999999999561 0.49999999999999561 0.49816183246753282 0.5307146639261795 0.75045686993209071 0.2184393375098648 0.50004596894495223 0.77634962490704662 0.31426750628021272 0.31270343261798911 0.68761148188185484 0.24769234054476261 0.52242103280823293 0.45098450226372488 0.50073570207385831 0.24848280280289631 0.52886631355986169 0.31426750628021272 0.31270343261798911 0.68761148188185484 0.22088738526309029 0.22111069116742441 0.50004796911802929 0.50073570207385831 0.24848280280289631 0.52886631355986169 0.50084626324420545 0.22238844715913 0.78084811589659187 0.49816183246753282 0.5307146639261795 0.75045686993209071 0.31426750628021272 0.31270343261798911 0.68761148188185484 0.24769234054476261 0.52242103280823293 0.45098450226372488 0.50000000000001332 0.49999999999999561 0.49999999999999561 0.50073570207385831 0.24848280280289631 0.52886631355986169 0.31426750628021272 0.31270343261798911 0.68761148188185484 0.50000000000001332 0.49999999999999561 0.49999999999999561 0.50073570207385831 0.24848280280289631 0.52886631355986169 0.49816183246753282 0.5307146639261795 0.75045686993209071 0.31426750628021272 0.31270343261798911 0.68761148188185484 0.24769234054476261 0.52242103280823293 0.45098450226372488 0.50000000000001332 0.49999999999999561 0.49999999999999561 0.2184393375098648 0.50004596894495223 0.77634962490704662 0.31426750628021272 0.31270343261798911 0.68761148188185484 0.24769234054476261 0.52242103280823293 0.45098450226372488 0 0.50000000000237477 0.51961524226909872 0.2184393375098648 0.50004596894495223 0.77634962490704662 0.31426750628021272 0.31270343261798911 0.68761148188185484 0 0.31024977578556651 0.45812322962166352 0.24769234054476261 0.52242103280823293 0.45098450226372488 0 0.32043363027398297 0.61046998817722586 0.22088738526309029 0.22111069116742441 0.50004796911802929 0.24769234054476261 0.52242103280823293 0.45098450226372488 0 0.50000000000237477 0.51961524226909872 0.31426750628021272 0.31270343261798911 0.68761148188185484 0 0.32043363027398297 0.61046998817722586 0 0.50000000000237477 0.51961524226909872 0.2184393375098648 0.50004596894495223 0.77634962490704662 0.31426750628021272 0.31270343261798911 0.68761148188185484 0 0.32043363027398297 0.61046998817722586 0.24769234054476261 0.52242103280823293 0.45098450226372488 0.31426750628021272 0.31270343261798911 0.68761148188185484 0 0.32043363027398297 0.61046998817722586 0.22088738526309029 0.22111069116742441 0.50004796911802929 0 0.50000000000237477 0.51961524226909872 0.2184393375098648 0.50004596894495223 0.77634962490704662 0 0.46954769941369501 0.67320508075638175 0 0.32043363027398297 0.61046998817722586 0.31426750628021272 0.31270343261798911 0.68761148188185484 0 0.32043363027398297 0.61046998817722586 0.22088738526309029 0.22111069116742441 0.50004796911802929 0 0.16196943494415611 0.69380980080116506 0.2184393375098648 0.50004596894495223 0.77634962490704662 0 0.31807971531776508 0.80839867011913336 0.31426750628021272 0.31270343261798911 0.68761148188185484 0 0.32043363027398297 0.61046998817722586 0 0.31807971531776508 0.80839867011913336 0.31426750628021272 0.31270343261798911 0.68761148188185484 0 0.32043363027398297 0.61046998817722586 0 0.16196943494415611 0.69380980080116506 0 0.31024977578556651 0.45812322962166352 0.24769234054476261 0.52242103280823293 0.45098450226372488 0 0.50000000000237477 0.51961524226909872 0 0.32043363027398297 0.61046998817722586 0.2184393375098648 0.50004596894495223 0.77634962490704662 0 0.31807971531776508 0.80839867011913336 0 0.46954769941369501 0.67320508075638175 0 0.32043363027398297 0.61046998817722586 0 0.31024977578556651 0.45812322962166352 0 0.32043363027398297 0.61046998817722586 0.22088738526309029 0.22111069116742441 0.50004796911802929 0 0.16275515618034081 0.50966790549591257 0.31426750628021272 0.31270343261798911 0.68761148188185484 0 0.16196943494415611 0.69380980080116506 0.18818969570926641 0 0.68364148842842287 0.14641016151479661 0 0.85358983848542624 0.31426750628021272 0.31270343261798911 0.68761148188185484 0.22088738526309029 0.22111069116742441 0.50004796911802929 0 0.16196943494415611 0.69380980080116506 0.18818969570926641 0 0.68364148842842287 0.22088738526309029 0.22111069116742441 0.50004796911802929 0 0.16275515618034081 0.50966790549591257 0 0.16196943494415611 0.69380980080116506 0.18818969570926641 0 0.68364148842842287 0 0.32043363027398297 0.61046998817722586 0.22088738526309029 0.22111069116742441 0.50004796911802929 0 0.16275515618034081 0.50966790549591257 0 0.16196943494415611 0.69380980080116506 0 0.16196943494415611 0.69380980080116506 0.18818969570926641 0 0.68364148842842287 0 0 0.60000000000138687 0 0 0.79999999999999982 0 0.16275515618034081 0.50966790549591257 0 0.16196943494415611 0.69380980080116506 0.18818969570926641 0 0.68364148842842287 0 0 0.60000000000138687 0.16370661204827031 0 0.4886650857430957 0 0.16275515618034081 0.50966790549591257 0.18818969570926641 0 0.68364148842842287 0 0 0.60000000000138687 0.16370661204827031 0 0.4886650857430957 0.22088738526309029 0.22111069116742441 0.50004796911802929 0.18818969570926641 0 0.68364148842842287 0.31030302876556398 0 0.54179813558513157 0.16370661204827031 0 0.4886650857430957 0.22088738526309029 0.22111069116742441 0.50004796911802929 0 0.16275515618034081 0.50966790549591257 0.18818969570926641 0 0.68364148842842287 0.31426750628021272 0.31270343261798911 0.68761148188185484 0.18818969570926641 0 0.68364148842842287 0.39615987727709562 0 0.67073444684008199 0.30074819035913852 0 0.83070291234383831 0.50073570207385831 0.24848280280289631 0.52886631355986169 0.31426750628021272 0.31270343261798911 0.68761148188185484 0.22088738526309029 0.22111069116742441 0.50004796911802929 0.31030302876556398 0 0.54179813558513157 0.50073570207385831 0.24848280280289631 0.52886631355986169 0.31426750628021272 0.31270343261798911 0.68761148188185484 0.31030302876556398 0 0.54179813558513157 0.39615987727709562 0 0.67073444684008199 0.50084626324420545 0.22238844715913 0.78084811589659187 0.31426750628021272 0.31270343261798911 0.68761148188185484 0.39615987727709562 0 0.67073444684008199 0.30074819035913852 0 0.83070291234383831 0.31426750628021272 0.31270343261798911 0.68761148188185484 0.22088738526309029 0.22111069116742441 0.50004796911802929 0.18818969570926641 0 0.68364148842842287 0.31030302876556398 0 0.54179813558513157 0.6002015905170176 0 0.67551889168744117 0.50073570207385831 0.24848280280289631 0.52886631355986169 0.50084626324420545 0.22238844715913 0.78084811589659187 0.39615987727709562 0 0.67073444684008199 0.31426750628021272 0.31270343261798911 0.68761148188185484 0.18818969570926641 0 0.68364148842842287 0.31030302876556398 0 0.54179813558513157 0.39615987727709562 0 0.67073444684008199 0.50073570207385831 0.24848280280289631 0.52886631355986169 0.50084626324420545 0.22238844715913 0.78084811589659187 0.31426750628021272 0.31270343261798911 0.68761148188185484 0.39615987727709562 0 0.67073444684008199 0.50000000000250922 0 0.48038475773043671 0.6002015905170176 0 0.67551889168744117 0.50073570207385831 0.24848280280289631 0.52886631355986169 0.39615987727709562 0 0.67073444684008199 0.50000000000250922 0 0.48038475773043671 0.50073570207385831 0.24848280280289631 0.52886631355986169 0.31030302876556398 0 0.54179813558513157 0.39615987727709562 0 0.67073444684008199 0.6002015905170176 0 0.67551889168744117 0.50084626324420545 0.22238844715913 0.78084811589659187 0.39615987727709562 0 0.67073444684008199 0.49836539647917322 0 0.82773865802723501 0.31426750628021272 0.31270343261798911 0.68761148188185484 0.30074819035913852 0 0.83070291234383831 0.31610726166461628 0.1880448979455934 1 0.14641016151432179 0.14641016151432179 1 0.50084626324420545 0.22238844715913 0.78084811589659187 0.31426750628021272 0.31270343261798911 0.68761148188185484 0.30074819035913852 0 0.83070291234383831 0.31610726166461628 0.1880448979455934 1 0.50084626324420545 0.22238844715913 0.78084811589659187 0.30074819035913852 0 0.83070291234383831 0.49836539647917322 0 0.82773865802723501 0.31610726166461628 0.1880448979455934 1 0.50084626324420545 0.22238844715913 0.78084811589659187 0.39615987727709562 0 0.67073444684008199 0.30074819035913852 0 0.83070291234383831 0.49836539647917322 0 0.82773865802723501 0.50966790549576724 0.1627551561802443 1 0.49836539647917322 0 0.82773865802723501 0.40000000000166441 0 1 0.31610726166461628 0.1880448979455934 1 0.30074819035913852 0 0.83070291234383831 0.49836539647917322 0 0.82773865802723501 0.40000000000166441 0 1 0.31610726166461628 0.1880448979455934 1 0.50966790549576724 0.1627551561802443 1 0.50084626324420545 0.22238844715913 0.78084811589659187 0.49836539647917322 0 0.82773865802723501 0.31610726166461628 0.1880448979455934 1 0.50966790549576724 0.1627551561802443 1 0.50084626324420545 0.22238844715913 0.78084811589659187 0.45812322962173568 0.31024977578554058 1 0.31610726166461628 0.1880448979455934 1 0.30074819035913852 0 0.83070291234383831 0.40000000000166441 0 1 0.31610726166461628 0.1880448979455934 1 0.20000000000083221 0 1 0 0.31807971531776508 0.80839867011913336 0.31426750628021272 0.31270343261798911 0.68761148188185484 0 0.16196943494415611 0.69380980080116506 0 0.14641016151490169 0.85358983848532144 0.16929708765653109 0.30074819035870082 1 0.31426750628021272 0.31270343261798911 0.68761148188185484 0.31610726166461628 0.1880448979455934 1 0.14641016151432179 0.14641016151432179 1 0.30074819035913852 0 0.83070291234383831 0.20000000000083221 0 1 0.14641016151479661 0 0.85358983848542624 0.14641016151432179 0.14641016151432179 1 0.31426750628021272 0.31270343261798911 0.68761148188185484 0.30074819035913852 0 0.83070291234383831 0.14641016151479661 0 0.85358983848542624 0.14641016151432179 0.14641016151432179 1 0.30074819035913852 0 0.83070291234383831 0.31610726166461628 0.1880448979455934 1 0.20000000000083221 0 1 0.14641016151432179 0.14641016151432179 1 0.31426750628021272 0.31270343261798911 0.68761148188185484 0.18818969570926641 0 0.68364148842842287 0.30074819035913852 0 0.83070291234383831 0.14641016151479661 0 0.85358983848542624 0.16929708765653109 0.30074819035870082 1 0.31426750628021272 0.31270343261798911 0.68761148188185484 0.14641016151432179 0.14641016151432179 1 0 0.14641016151490169 0.85358983848532144 0.31426750628021272 0.31270343261798911 0.68761148188185484 0.14641016151479661 0 0.85358983848542624 0.14641016151432179 0.14641016151432179 1 0 0.14641016151490169 0.85358983848532144 0.31426750628021272 0.31270343261798911 0.68761148188185484 0 0.16196943494415611 0.69380980080116506 0.14641016151479661 0 0.85358983848542624 0 0.14641016151490169 0.85358983848532144 0 0.31807971531776508 0.80839867011913336 0.16929708765653109 0.30074819035870082 1 0 0.20000000000083221 1 0 0.14641016151490169 0.85358983848532144 0.16929708765653109 0.30074819035870082 1 0.14641016151432179 0.14641016151432179 1 0 0.20000000000083221 1 0 0.14641016151490169 0.85358983848532144 0 0.16196943494415611 0.69380980080116506 0.18818969570926641 0 0.68364148842842287 0.14641016151479661 0 0.85358983848542624 0 0 0.79999999999999982 0 0.16196943494415611 0.69380980080116506 0.14641016151479661 0 0.85358983848542624 0 0.14641016151490169 0.85358983848532144 0 0 0.79999999999999982 0.14641016151432179 0.14641016151432179 1 0 0.20000000000083221 1 0 0.14641016151490169 0.85358983848532144 0 0 1 0.14641016151479661 0 0.85358983848542624 0 0.14641016151490169 0.85358983848532144 0 0 0.79999999999999982 0 0 1 0.20000000000083221 0 1 0.14641016151479661 0 0.85358983848542624 0.14641016151432179 0.14641016151432179 1 0 0 1 0.14641016151479661 0 0.85358983848542624 0.14641016151432179 0.14641016151432179 1 0 0.14641016151490169 0.85358983848532144 0 0 1 
</DataArray>
</Points>
<Cells>
<DataArray type="UInt32" Name="connectivity" format="ascii">
0 1 2 3 4 5 6 7 8 9 10 11 12 13 14 15 16 17 18 19 20 21 22 23 24 25 26 27 28 29 30 31 32 33 34 35 36 37 38 39 40 41 42 43 44 45 46 47 48 49 50 51 52 53 54 55 56 57 58 59 60 61 62 63 64 65 66 67 68 69 70 71 72 73 74 75 76 77 78 79 80 81 82 83 84 85 86 87 88 89 90 91 92 93 94 95 96 97 98 99 100 101 102 103 104 105 106 107 108 109 110 111 112 113 114 115 116 117 118 119 120 121 122 123 124 125 126 127 128 129 130 131 132 133 134 135 136 137 138 139 140 141 142 143 144 145 146 147 148 149 150 151 152 153 154 155 156 157 158 159 160 161 162 163 164 165 166 167 168 169 170 171 172 173 174 175 176 177 178 179 180 181 182 183 184 185 186 187 188 189 190 191 192 193 194 195 196 197 198 199 200 201 202 203 204 205 206 207 208 209 210 211 212 213 214 215 216 217 218 219 220 221 222 223 224 225 226 227 228 229 230 231 232 233 234 235 236 237 238 239 240 241 242 243 244 245 246 247 248 249 250 251 252 253 254 255 256 257 258 259 260 261 262 263 264 265 266 267 268 269 270 271 272 273 274 275 276 277 278 279 280 281 282 283 284 285 286 287 288 289 290 291 292 293 294 295 296 297 298 299 300 301 302 303 304 305 306 307 308 309 310 311 312 313 314 315 316 317 318 319 320 321 322 323 324 325 326 327 328 329 330 331 332 333 334 335 336 337 338 339 340 341 342 343 344 345 346 347 348 349 350 351 352 353 354 355 356 357 358 359 360 361 362 363 364 365 366 367 368 369 370 371 372 373 374 375 376 377 378 379 380 381 382 383 384 385 386 387 388 389 390 391 392 393 394 395 396 397 398 399 400 401 402 403 404 405 406 407 408 409 410 411 412 413 414 415 416 417 418 419 420 421 422 423 424 425 426 427 428 429 430 431 432 433 434 435 436 437 438 439 440 441 442 443 444 445 446 447 448 449 450 451 452 453 454 455 456 457 458 459 460 461 462 463 464 465 466 467 468 469 470 471 472 473 474 475 476 477 478 479 480 481 482 483 484 485 486 487 488 489 490 491 492 493 494 495 496 497 498 499 500 501 502 503 504 505 506 507 508 509 510 511 512 513 514 515 516 517 518 519 520 521 522 523 524 525 526 527 528 529 530 531 532 533 534 535 536 537 538 539 540 541 542 543 544 545 546 547 548 549 550 551 552 553 554 555 556 557 558 559 560 561 562 563 564 565 566 567 568 569 570 571 572 573 574 575 576 577 578 579 580 581 582 583 584 585 586 587 588 589 590 591 592 593 594 595 596 597 598 599 600 601 602 603 604 605 606 607 608 609 610 611 612 613 614 615 616 617 618 619 620 621 622 623 624 625 626 627 628 629 630 631 632 633 634 635 636 637 638 639 640 641 642 643 644 645 646 647 648 649 650 651 652 653 654 655 656 657 658 659 660 661 662 663 664 665 666 667 668 669 670 671 672 673 674 675 676 677 678 679 680 681 682 683 684 685 686 687 688 689 690 691 692 693 694 695 696 697 698 699 700 701 702 703 704 705 706 707 708 709 710 711 712 713 714 715 716 717 718 719 720 721 722 723 724 725 726 727 728 729 730 731 732 733 734 735 736 737 738 739 740 741 742 743 744 745 746 747 748 749 750 751 752 753 754 755 756 757 758 759 760 761 762 763 764 765 766 767 768 769 770 771 772 773 774 775 776 777 778 779 780 781 782 783 784 785 786 787 788 789 790 791 792 793 794 795 796 797 798 799 800 801 802 803 804 805 806 807 808 809 810 811 812 813 814 815 816 817 818 819 820 821 822 823 824 825 826 827 828 829 830 831 832 833 834 835 836 837 838 839 840 841 842 843 844 845 846 847 848 849 850 851 852 853 854 855 856 857 858 859 860 861 862 863 864 865 866 867 868 869 870 871 872 873 874 875 876 877 878 879 880 881 882 883 884 885 886 887 888 889 890 891 892 893 894 895 896 897 898 899 900 901 902 903 904 905 906 907 908 909 910 911 912 913 914 915 916 917 918 919 920 921 922 923 924 925 926 927 928 929 930 931 932 933 934 935 936 937 938 939 940 941 942 943 944 945 946 947 948 949 950 951 952 953 954 955 956 957 958 959 960 961 962 963 964 965 966 967 968 969 970 971 972 973 974 975 976 977 978 979 980 981 982 983 984 985 986 987 988 989 990 991 992 993 994 995 996 997 998 999 1000 1001 1002 1003 1004 1005 1006 1007 1008 1009 1010 1011 1012 1013 1014 1015 1016 1017 1018 1019 1020 1021 1022 1023 1024 1025 1026 1027 1028 1029 1030 1031 1032 1033 1034 1035 1036 1037 1038 1039 1040 1041 1042 1043 1044 1045 1046 1047 1048 1049 1050 1051 1052 1053 1054 1055 1056 1057 1058 1059 1060 1061 1062 1063 1064 1065 1066 1067 1068 1069 1070 1071 1072 1073 1074 1075 1076 1077 1078 1079 1080 1081 1082 1083 1084 1085 1086 1087 1088 1089 1090 1091 1092 1093 1094 1095 1096 1097 1098 1099 1100 1101 1102 1103 1104 1105 1106 1107 1108 1109 1110 1111 1112 1113 1114 1115 1116 1117 1118 1119 1120 1121 1122 1123 1124 1125 1126 1127 1128 1129 1130 1131 1132 1133 1134 1135 1136 1137 1138 1139 1140 1141 1142 1143 1144 1145 1146 1147 1148 1149 1150 1151 1152 1153 1154 1155 1156 1157 1158 1159 1160 1161 1162 1163 1164 1165 1166 1167 1168 1169 1170 1171 1172 1173 1174 1175 1176 1177 1178 1179 1180 1181 1182 1183 1184 1185 1186 1187 1188 1189 1190 1191 1192 1193 1194 1195 1196 1197 1198 1199 1200 1201 1202 1203 1204 1205 1206 1207 1208 1209 1210 1211 1212 1213 1214 1215 1216 1217 1218 1219 1220 1221 1222 1223 1224 1225 1226 1227 1228 1229 1230 1231 1232 1233 1234 1235 1236 1237 1238 1239 1240 1241 1242 1243 1244 1245 1246 1247 1248 1249 1250 1251 1252 1253 1254 1255 1256 1257 1258 1259 1260 1261 1262 1263 1264 1265 1266 1267 1268 1269 1270 1271 1272 1273 1274 1275 1276 1277 1278 1279 1280 1281 1282 1283 1284 1285 1286 1287 1288 1289 1290 1291 1292 1293 1294 1295 1296 1297 1298 1299 1300 1301 1302 1303 1304 1305 1306 1307 1308 1309 1310 1311 1312 1313 1314 1315 1316 1317 1318 1319 1320 1321 1322 1323 1324 1325 1326 1327 1328 1329 1330 1331 1332 1333 1334 1335 1336 1337 1338 1339 1340 1341 1342 1343 1344 1345 1346 1347 1348 1349 1350 1351 1352 1353 1354 1355 1356 1357 1358 1359 1360 1361 1362 1363 1364 1365 1366 1367 1368 1369 1370 1371 1372 1373 1374 1375 1376 1377 1378 1379 1380 1381 1382 1383 1384 1385 1386 1387 1388 1389 1390 1391 1392 1393 1394 1395 1396 1397 1398 1399 1400 1401 1402 1403 1404 1405 1406 1407 1408 1409 1410 1411 1412 1413 1414 1415 1416 1417 1418 1419 1420 1421 1422 1423 1424 1425 1426 1427 1428 1429 1430 1431 1432 1433 1434 1435 1436 1437 1438 1439 1440 1441 1442 1443 1444 1445 1446 1447 1448 1449 1450 1451 1452 1453 1454 1455 1456 1457 1458 1459 1460 1461 1462 1463 1464 1465 1466 1467 1468 1469 1470 1471 1472 1473 1474 1475 1476 1477 1478 1479 1480 1481 1482 1483 1484 1485 1486 1487 1488 1489 1490 1491 1492 1493 1494 1495 1496 1497 1498 1499 1500 1501 1502 1503 1504 1505 1506 1507 1508 1509 1510 1511 1512 1513 1514 1515 1516 1517 1518 1519 1520 1521 1522 1523 1524 1525 1526 1527 1528 1529 1530 1531 1532 1533 1534 1535 1536 1537 1538 1539 1540 1541 1542 1543 1544 1545 1546 1547 1548 1549 1550 1551 1552 1553 1554 1555 1556 1557 1558 1559 1560 1561 1562 1563 1564 1565 1566 1567 1568 1569 1570 1571 1572 1573 1574 1575 1576 1577 1578 1579 1580 1581 1582 1583 1584 1585 1586 1587 1588 1589 1590 1591 1592 1593 1594 1595 1596 1597 1598 1599 1600 1601 1602 1603 1604 1605 1606 1607 1608 1609 1610 1611 1612 1613 1614 1615 1616 1617 1618 1619 1620 1621 1622 1623 1624 1625 1626 1627 1628 1629 1630 1631 1632 1633 1634 1635 1636 1637 1638 1639 1640 1641 1642 1643 1644 1645 1646 1647 1648 1649 1650 1651 1652 1653 1654 1655 1656 1657 1658 1659 1660 1661 1662 1663 1664 1665 1666 1667 1668 1669 1670 1671 1672 1673 1674 1675 1676 1677 1678 1679 1680 1681 1682 1683 1684 1685 1686 1687 1688 1689 1690 1691 1692 1693 1694 1695 1696 1697 1698 1699 1700 1701 1702 1703 1704 1705 1706 1707 1708 1709 1710 1711 1712 1713 1714 1715 1716 1717 1718 1719 1720 1721 1722 1723 1724 1725 1726 1727 1728 1729 1730 1731 1732 1733 1734 1735 1736 1737 1738 1739 1740 1741 1742 1743 1744 1745 1746 1747 1748 1749 1750 1751 1752 1753 1754 1755 1756 1757 1758 1759 1760 1761 1762 1763 1764 1765 1766 1767 1768 1769 1770 1771 1772 1773 1774 1775 1776 1777 1778 1779 1780 1781 1782 1783 1784 1785 1786 1787 1788 1789 1790 1791 1792 1793 1794 1795 1796 1797 1798 1799 1800 1801 1802 1803 1804 1805 1806 1807 1808 1809 1810 1811 1812 1813 1814 1815 1816 1817 1818 1819 1820 1821 1822 1823 1824 1825 1826 1827 1828 1829 1830 1831 1832 1833 1834 1835 1836 1837 1838 1839 1840 1841 1842 1843 1844 1845 1846 1847 1848 1849 1850 1851 1852 1853 1854 1855 1856 1857 1858 1859 1860 1861 1862 1863 1864 1865 1866 1867 1868 1869 1870 1871 1872 1873 1874 1875 1876 1877 1878 1879 1880 1881 1882 1883 1884 1885 1886 1887 1888 1889 1890 1891 1892 1893 1894 1895 1896 1897 1898 1899 1900 1901 1902 1903 1904 1905 1906 1907 1908 1909 1910 1911 1912 1913 1914 1915 1916 1917 1918 1919 1920 1921 1922 1923 1924 1925 1926 1927 1928 1929 1930 1931 1932 1933 1934 1935 1936 1937 1938 1939 1940 1941 1942 1943 1944 1945 1946 1947 1948 1949 1950 1951 1952 1953 1954 1955 1956 1957 1958 1959 1960 1961 1962 1963 1964 1965 1966 1967 1968 1969 1970 1971 1972 1973 1974 1975 1976 1977 1978 1979 1980 1981 1982 1983 1984 1985 1986 1987 1988 1989 1990 1991 1992 1993 1994 1995 1996 1997 1998 1999 2000 2001 2002 2003 2004 2005 2006 2007 2008 2009 2010 2011 2012 2013 2014 2015 2016 2017 2018 2019 2020 2021 2022 2023 2024 2025 2026 2027 2028 2029 2030 2031 2032 2033 2034 2035 2036 2037 2038 2039 2040 2041 2042 2043 2044 2045 2046 2047 2048 2049 2050 2051 2052 2053 2054 2055 2056 2057 2058 2059 2060 2061 2062 2063 2064 2065 2066 2067 2068 2069 2070 2071 2072 2073 2074 2075 2076 2077 2078 2079 2080 2081 2082 2083 2084 2085 2086 2087 2088 2089 2090 2091 2092 2093 2094 2095 2096 2097 2098 2099 2100 2101 2102 2103 2104 2105 2106 2107 2108 2109 2110 2111 2112 2113 2114 2115 2116 2117 2118 2119 2120 2121 2122 2123 2124 2125 2126 2127 2128 2129 2130 2131 2132 2133 2134 2135 2136 2137 2138 2139 2140 2141 2142 2143 2144 2145 2146 2147 2148 2149 2150 2151 2152 2153 2154 2155 2156 2157 2158 2159 2160 2161 2162 2163 2164 2165 2166 2167 2168 2169 2170 2171 2172 2173 2174 2175 2176 2177 2178 2179 2180 2181 2182 2183 2184 2185 2186 2187 2188 2189 2190 2191 2192 2193 2194 2195 2196 2197 2198 2199 2200 2201 2202 2203 2204 2205 2206 2207 2208 2209 2210 2211 2212 2213 2214 2215 2216 2217 2218 2219 2220 2221 2222 2223 2224 2225 2226 2227 2228 2229 2230 2231 2232 2233 2234 2235 2236 2237 2238 2239 2240 2241 2242 2243 2244 2245 2246 2247 2248 2249 2250 2251 2252 2253 2254 2255 2256 2257 2258 2259 2260 2261 2262 2263 2264 2265 2266 2267 2268 2269 2270 2271 2272 2273 2274 2275 2276 2277 2278 2279 2280 2281 2282 2283 2284 2285 2286 2287 2288 2289 2290 2291 2292 2293 2294 2295 2296 2297 2298 2299 2300 2301 2302 2303 2304 2305 2306 2307 2308 2309 2310 2311 2312 2313 2314 2315 2316 2317 2318 2319 2320 2321 2322 2323 2324 2325 2326 2327 2328 2329 2330 2331 2332 2333 2334 2335 2336 2337 2338 2339 2340 2341 2342 2343 2344 2345 2346 2347 2348 2349 2350 2351 2352 2353 2354 2355 2356 2357 2358 2359 2360 2361 2362 2363 2364 2365 2366 2367 2368 2369 2370 2371 2372 2373 2374 2375 2376 2377 2378 2379 2380 2381 2382 2383 2384 2385 2386 2387 2388 2389 2390 2391 2392 2393 2394 2395 2396 2397 2398 2399 2400 2401 2402 2403 2404 2405 2406 2407 2408 2409 2410 2411 2412 2413 2414 2415 2416 2417 2418 2419 2420 2421 2422 2423 2424 2425 2426 2427 2428 2429 2430 2431 2432 2433 2434 2435 2436 2437 2438 2439 2440 2441 2442 2443 2444 2445 2446 2447 2448 2449 2450 2451 2452 2453 2454 2455 2456 2457 2458 2459 2460 2461 2462 2463 2464 2465 2466 2467 2468 2469 2470 2471 2472 2473 2474 2475 2476 2477 2478 2479 2480 2481 2482 2483 2484 2485 2486 2487 2488 2489 2490 2491 2492 2493 2494 2495 2496 2497 2498 2499 2500 2501 2502 2503 2504 2505 2506 2507 2508 2509 2510 2511 2512 2513 2514 2515 2516 2517 2518 2519 2520 2521 2522 2523 2524 2525 2526 2527 2528 2529 2530 2531 2532 2533 2534 2535 2536 2537 2538 2539 2540 2541 2542 2543 2544 2545 2546 2547 2548 2549 2550 2551 2552 2553 2554 2555 2556 2557 2558 2559 2560 2561 2562 2563 2564 2565 2566 2567 2568 2569 2570 2571 2572 2573 2574 2575 2576 2577 2578 2579 2580 2581 2582 2583 2584 2585 2586 2587 2588 2589 2590 2591 2592 2593 2594 2595 2596 2597 2598 2599 2600 2601 2602 2603 2604 2605 2606 2607 2608 2609 2610 2611 2612 2613 2614 2615 2616 2617 2618 2619 2620 2621 2622 2623 2624 2625 2626 2627 2628 2629 2630 2631 2632 2633 2634 2635 2636 2637 2638 2639 2640 2641 2642 2643 2644 2645 2646 2647 2648 2649 2650 2651 2652 2653 2654 2655 2656 2657 2658 2659 2660 2661 2662 2663 2664 2665 2666 2667 2668 2669 2670 2671 2672 2673 2674 2675 2676 2677 2678 2679 2680 2681 2682 2683 2684 2685 2686 2687 2688 2689 2690 2691 2692 2693 2694 2695 2696 2697 2698 2699 2700 2701 2702 2703 2704 2705 2706 2707 2708 2709 2710 2711 2712 2713 2714 2715 2716 2717 2718 2719 2720 2721 2722 2723 2724 2725 2726 2727 2728 2729 2730 2731 2732 2733 2734 2735 2736 2737 2738 2739 2740 2741 2742 2743 2744 2745 2746 2747 2748 2749 2750 2751 2752 2753 2754 2755 2756 2757 2758 2759 2760 2761 2762 2763 2764 2765 2766 2767 2768 2769 2770 2771 2772 2773 2774 2775 2776 2777 2778 2779 2780 2781 2782 2783 2784 2785 2786 2787 2788 2789 2790 2791 2792 2793 2794 2795 2796 2797 2798 2799 2800 2801 2802 2803 2804 2805 2806 2807 2808 2809 2810 2811 2812 2813 2814 2815 2816 2817 2818 2819 2820 2821 2822 2823 2824 2825 2826 2827 2828 2829 2830 2831 2832 2833 2834 2835 2836 2837 2838 2839 2840 2841 2842 2843 2844 2845 2846 2847 2848 2849 2850 2851 2852 2853 2854 2855 2856 2857 2858 2859 2860 2861 2862 2863 2864 2865 2866 2867 2868 2869 2870 2871 2872 2873 2874 2875 
</DataArray>
<DataArray type="UInt32" Name="offsets" format="ascii">
4 8 12 16 20 24 28 32 36 40 44 48 52 56 60 64 68 72 76 80 84 88 92 96 100 104 108 112 116 120 124 128 132 136 140 144 148 152 156 160 164 168 172 176 180 184 188 192 196 200 204 208 212 216 220 224 228 232 236 240 244 248 252 256 260 264 268 272 276 280 284 288 292 296 300 304 308 312 316 320 324 328 332 336 340 344 348 352 356 360 364 368 372 376 380 384 388 392 396 400 404 408 412 416 420 424 428 432 436 440 444 448 452 456 460 464 468 472 476 480 484 488 492 496 500 504 508 512 516 520 524 528 532 536 540 544 548 552 556 560 564 568 572 576 580 584 588 592 596 600 604 608 612 616 620 624 628 632 636 640 644 648 652 656 660 664 668 672 676 680 684 688 692 696 700 704 708 712 716 720 724 728 732 736 740 744 748 752 756 760 764 768 772 776 780 784 788 792 796 800 804 808 812 816 820 824 828 832 836 840 844 848 852 856 860 864 868 872 876 880 884 888 892 896 900 904 908 912 916 920 924 928 932 936 940 944 948 952 956 960 964 968 972 976 980 984 988 992 996 1000 1004 1008 1012 1016 1020 1024 1028 1032 1036 1040 1044 1048 1052 1056 1060 1064 1068 1072 1076 1080 1084 1088 1092 1096 1100 1104 1108 1112 1116 1120 1124 1128 1132 1136 1140 1144 1148 1152 1156 1160 1164 1168 1172 1176 1180 1184 1188 1192 1196 1200 1204 1208 1212 1216 1220 1224 1228 1232 1236 1240 1244 1248 1252 1256 1260 1264 1268 1272 1276 1280 1284 1288 1292 1296 1300 1304 1308 1312 1316 1320 1324 1328 1332 1336 1340 1344 1348 1352 1356 1360 1364 1368 1372 1376 1380 1384 1388 1392 1396 1400 1404 1408 1412 1416 1420 1424 1428 1432 1436 1440 1444 1448 1452 1456 1460 1464 1468 1472 1476 1480 1484 1488 1492 1496 1500 1504 1508 1512 1516 1520 1524 1528 1532 1536 1540 1544 1548 1552 1556 1560 1564 1568 1572 1576 1580 1584 1588 1592 1596 1600 1604 1608 1612 1616 1620 1624 1628 1632 1636 1640 1644 1648 1652 1656 1660 1664 1668 1672 1676 1680 1684 1688 1692 1696 1700 1704 1708 1712 1716 1720 1724 1728 1732 1736 1740 1744 1748 1752 1756 1760 1764 1768 1772 1776 1780 1784 1788 1792 1796 1800 1804 1808 1812 1816 1820 1824 1828 1832 1836 1840 1844 1848 1852 1856 1860 1864 1868 1872 1876 1880 1884 1888 1892 1896 1900 1904 1908 1912 1916 1920 1924 1928 1932 1936 1940 1944 1948 1952 1956 1960 1964 1968 1972 1976 1980 1984 1988 1992 1996 2000 2004 2008 2012 2016 2020 2024 2028 2032 2036 2040 2044 2048 2052 2056 2060 2064 2068 2072 2076 2080 2084 2088 2092 2096 2100 2104 2108 2112 2116 2120 2124 2128 2132 2136 2140 2144 2148 2152 2156 2160 2164 2168 2172 2176 2180 2184 2188 2192 2196 2200 2204 2208 2212 2216 2220 2224 2228 2232 2236 2240 2244 2248 2252 2256 2260 2264 2268 2272 2276 2280 2284 2288 2292 2296 2300 2304 2308 2312 2316 2320 2324 2328 2332 2336 2340 2344 2348 2352 2356 2360 2364 2368 2372 2376 2380 2384 2388 2392 2396 2400 2404 2408 2412 2416 2420 2424 2428 2432 2436 2440 2444 2448 2452 2456 2460 2464 2468 2472 2476 2480 2484 2488 2492 2496 2500 2504 2508 2512 2516 2520 2524 2528 2532 2536 2540 2544 2548 2552 2556 2560 2564 2568 2572 2576 2580 2584 2588 2592 2596 2600 2604 2608 2612 2616 2620 2624 2628 2632 2636 2640 2644 2648 2652 2656 2660 2664 2668 2672 2676 2680 2684 2688 2692 2696 2700 2704 2708 2712 2716 2720 2724 2728 2732 2736 2740 2744 2748 2752 2756 2760 2764 2768 2772 2776 2780 2784 2788 2792 2796 2800 2804 2808 2812 2816 2820 2824 2828 2832 2836 2840 2844 2848 2852 2856 2860 2864 2868 2872 2876 
</DataArray>
<DataArray type="UInt32" Name="types" format="ascii">
10 10 10 10 10 10 10 10 10 10 10 10 10 10 10 10 10 10 10 10 10 10 10 10 10 10 10 10 10 10 10 10 10 10 10 10 10 10 10 10 10 10 10 10 10 10 10 10 10 10 10 10 10 10 10 10 10 10 10 10 10 10 10 10 10 10 10 10 10 10 10 10 10 10 10 10 10 10 10 10 10 10 10 10 10 10 10 10 10 10 10 10 10 10 10 10 10 10 10 10 10 10 10 10 10 10 10 10 10 10 10 10 10 10 10 10 10 10 10 10 10 10 10 10 10 10 10 10 10 10 10 10 10 10 10 10 10 10 10 10 10 10 10 10 10 10 10 10 10 10 10 10 10 10 10 10 10 10 10 10 10 10 10 10 10 10 10 10 10 10 10 10 10 10 10 10 10 10 10 10 10 10 10 10 10 10 10 10 10 10 10 10 10 10 10 10 10 10 10 10 10 10 10 10 10 10 10 10 10 10 10 10 10 10 10 10 10 10 10 10 10 10 10 10 10 10 10 10 10 10 10 10 10 10 10 10 10 10 10 10 10 10 10 10 10 10 10 10 10 10 10 10 10 10 10 10 10 10 10 10 10 10 10 10 10 10 10 10 10 10 10 10 10 10 10 10 10 10 10 10 10 10 10 10 10 10 10 10 10 10 10 10 10 10 10 10 10 10 10 10 10 10 10 10 10 10 10 10 10 10 10 10 10 10 10 10 10 10 10 10 10 10 10 10 10 10 10 10 10 10 10 10 10 10 10 10 10 10 10 10 10 10 10 10 10 10 10 10 10 10 10 10 10 10 10 10 10 10 10 10 10 10 10 10 10 10 10 10 10 10 10 10 10 10 10 10 10 10 10 10 10 10 10 10 10 10 10 10 10 10 10 10 10 10 10 10 10 10 10 10 10 10 10 10 10 10 10 10 10 10 10 10 10 10 10 10 10 10 10 10 10 10 10 10 10 10 10 10 10 10 10 10 10 10 10 10 10 10 10 10 10 10 10 10 10 10 10 10 10 10 10 10 10 10 10 10 10 10 10 10 10 10 10 10 10 10 10 10 10 10 10 10 10 10 10 10 10 10 10 10 10 10 10 10 10 10 10 10 10 10 10 10 10 10 10 10 10 10 10 10 10 10 10 10 10 10 10 10 10 10 10 10 10 10 10 10 10 10 10 10 10 10 10 10 10 10 10 10 10 10 10 10 10 10 10 10 10 10 10 10 10 10 10 10 10 10 10 10 10 10 10 10 10 10 10 10 10 10 10 10 10 10 10 10 10 10 10 10 10 10 10 10 10 10 10 10 10 10 10 10 10 10 10 10 10 10 10 10 10 10 10 10 10 10 10 10 10 10 10 10 10 10 10 10 10 10 10 10 10 10 10 10 10 10 10 10 10 10 10 10 10 10 10 10 10 10 10 10 10 10 10 10 10 10 10 10 10 10 10 10 10 10 10 10 10 10 10 10 10 10 10 10 10 10 10 10 10 10 10 10 10 10 10 10 10 10 10 10 10 10 10 10 10 10 10 10 10 10 10 10 10 10 10 10 10 10 10 10 10 10 10 10 10 10 10 10 10 10 10 10 10 10 10 10 10 10 10 10 10 10 10 10 10 10 10 10 10 10 10 
</DataArray>
</Cells>
<PointData Scalars="" Vectors="displacement," Tensors="">
<DataArray type="Float64" Name="displacement" NumberOfComponents="3" format="ascii">
4.5756402910949494e-06 -2.1910193411085132e-10 -9.7080161954731215e-10 9.878993602899145e-06 -2.1100300742310599e-10 -1.2611950870768117e-09 9.7686685694409357e-06 -9.7662422899524683e-11 -2.930458953142795e-05 5.2908890038636217e-06 -1.4558764198157521e-10 -1.2146675577512245e-09 1.646602740259646e-14 -3.2503644839208233e-10 -1.3077257688935609e-09 -2.7584437695049573e-14 -2.0287331037195389e-10 -1.3726799989521654e-05 2.0777481761308502e-14 -2.3477458740736644e-10 -1.2115001067861871e-09 4.5756402910949494e-06 -2.1910193411085132e-10 -9.7080161954731215e-10 1.646602740259646e-14 -3.2503644839208233e-10 -1.3077257688935609e-09 4.5756402910949494e-06 -2.1910193411085132e-10 -9.7080161954731215e-10 4.5756375050076223e-06 -2.3769875155277671e-10 -1.3726825401020533e-05 6.2503483063337435e-06 -3.5504265181816414e-10 -1.3765610027921762e-09 1.646602740259646e-14 -3.2503644839208233e-10 -1.3077257688935609e-09 6.3397521009509806e-15 -3.0964201719309601e-10 -1.875078290965387e-05 -2.7584438237188888e-14 -2.0287331037195389e-10 -1.3726799989521651e-05 4.5756375050076232e-06 -2.3769875155277676e-10 -1.3726825401020533e-05 -2.7584438237188888e-14 -2.0287331037195389e-10 -1.3726799989521651e-05 -1.088078525612542e-16 -1.8969837608190052e-10 -2.9635579437456556e-05 9.7686685694409374e-06 -9.766242289952467e-11 -2.9304589531427953e-05 -1.2608804387099702e-14 -8.7917046337982863e-11 -1.5872510629248046e-05 4.5756375050076232e-06 -2.3769875155277676e-10 -1.3726825401020533e-05 9.8689609290033974e-06 -3.2053089439310941e-10 -1.7487922983073123e-05 5.2935648674966859e-06 -3.0073951142942887e-10 -2.8136226679733086e-05 9.7686685694409357e-06 -9.7662422899524683e-11 -2.930458953142795e-05 1.646602740259646e-14 -3.2503644839208233e-10 -1.3077257688935609e-09 -2.7584438237188888e-14 -2.0287331037195389e-10 -1.3726799989521651e-05 4.5756402910949494e-06 -2.1910193411085132e-10 -9.7080161954731215e-10 4.5756375050076232e-06 -2.3769875155277676e-10 -1.3726825401020533e-05 4.5756402910949494e-06 -2.1910193411085132e-10 -9.7080161954731215e-10 4.5756375050076223e-06 -2.3769875155277676e-10 -1.3726825401020538e-05 9.8689609290033974e-06 -3.2053089439310941e-10 -1.7487922983073123e-05 9.7686685694409357e-06 -9.7662422899524683e-11 -2.930458953142795e-05 -2.7584438237188888e-14 -2.0287331037195389e-10 -1.3726799989521651e-05 4.5756402910949494e-06 -2.1910193411085132e-10 -9.7080161954687705e-10 9.7686685694409374e-06 -9.7662422899524722e-11 -2.9304589531427957e-05 -1.2608804387099702e-14 -8.7917046337982863e-11 -1.5872510629248046e-05 -2.7584438237188888e-14 -2.0287331037195389e-10 -1.3726799989521651e-05 4.5756402910949494e-06 -2.1910193411085132e-10 -9.7080161954692482e-10 4.5756375050076232e-06 -2.3769875155277676e-10 -1.3726825401020533e-05 9.7686685694409374e-06 -9.766242289952467e-11 -2.9304589531427957e-05 -2.7584438237188888e-14 -2.0287331037195389e-10 -1.3726799989521651e-05 4.5756375050076232e-06 -2.3769875155277676e-10 -1.3726825401020533e-05 5.2935648674966859e-06 -3.0073951142942882e-10 -2.8136226679733086e-05 9.768668569440934e-06 -9.7662422899524734e-11 -2.930458953142796e-05 6.339752841526621e-15 -3.0964201719309601e-10 -1.875078290965387e-05 -2.7584438241224063e-14 -2.0287331037195389e-10 -1.3726799989521651e-05 4.5756375050076232e-06 -2.3769875155277676e-10 -1.3726825401020533e-05 5.293564867496685e-06 -3.0073951142942887e-10 -2.8136226679733086e-05 6.339752841526621e-15 -3.0964201719309601e-10 -1.875078290965387e-05 -2.7584438743755495e-14 -2.0287331037195386e-10 -1.3726799989521651e-05 5.293564867496685e-06 -3.0073951142942887e-10 -2.8136226679733086e-05 -1.0880815214983687e-16 -1.8969837608190054e-10 -2.963557943745656e-05 -2.7584438237188888e-14 -2.0287331037195389e-10 -1.3726799989521651e-05 2.0777481761308502e-14 -2.3477458740736644e-10 -1.2115001067861871e-09 4.5756402910949494e-06 -2.1910193411085132e-10 -9.7080161954722302e-10 -1.2608804387099702e-14 -8.7917046337982863e-11 -1.5872510629248046e-05 2.0777481761308502e-14 -2.3477458740736644e-10 -1.2115001067861871e-09 4.5756402910949494e-06 -2.1910193411085132e-10 -9.7080161954731215e-10 5.2908890038636217e-06 -1.4558764198157518e-10 -1.2146675577521853e-09 -1.2608804387099702e-14 -8.7917046337982863e-11 -1.5872510629248046e-05 4.5756402910949494e-06 -2.1910193411085132e-10 -9.7080161954731215e-10 6.2503483063337435e-06 -3.5504265181816414e-10 -1.3765610027921762e-09 9.8789936028991433e-06 -2.1100300742310599e-10 -1.2611950870787376e-09 9.8689609290033974e-06 -3.2053089439310941e-10 -1.7487922983073123e-05 4.5756402910949494e-06 -2.1910193411085132e-10 -9.7080161954731215e-10 4.5756375050076232e-06 -2.3769875155277676e-10 -1.3726825401020533e-05 6.2503483063337435e-06 -3.5504265181816414e-10 -1.3765610027921762e-09 9.8689609290033974e-06 -3.2053089439310941e-10 -1.7487922983073123e-05 6.2503483063337435e-06 -3.5504265181816414e-10 -1.3765610027921762e-09 9.8789936028991433e-06 -2.1100300742310596e-10 -1.2611950870777105e-09 1.2500837365116735e-05 -3.2551890321704529e-10 -1.6298269848366478e-09 9.8689609290033974e-06 -3.2053089439310941e-10 -1.7487922983073123e-05 4.5756402910949494e-06 -2.1910193411085132e-10 -9.7080161954731215e-10 9.878993602899145e-06 -2.1100300742310599e-10 -1.2611950870764838e-09 9.8689609290033991e-06 -3.2053089439310941e-10 -1.7487922983073123e-05 9.7686685694409357e-06 -9.7662422899524683e-11 -2.930458953142795e-05 9.8789936028991433e-06 -2.1100300742310596e-10 -1.2611950870777105e-09 9.868960929003394e-06 -3.2053089439310936e-10 -1.7487922983073123e-05 9.7686685694409357e-06 -9.7662422899524696e-11 -2.9304589531427953e-05 1.5638557697210233e-05 -2.1717704494322011e-10 -2.1173444485168498e-05 9.8789936028991433e-06 -2.1100300742310596e-10 -1.2611950870777105e-09 1.5435971646727832e-05 -3.0158500085417756e-10 -1.2411370088641497e-05 1.5638557697210226e-05 -2.1717704494322006e-10 -2.1173444485168502e-05 1.5928202697904831e-05 -1.9231572627008123e-10 -1.1798400389095041e-09 9.8789936028991433e-06 -2.1100300742310596e-10 -1.2611950870777105e-09 1.4317302933628927e-05 -1.19661221278181e-10 -1.0177412497314461e-09 1.5638557697210226e-05 -2.1717704494322014e-10 -2.1173444485168509e-05 1.5928202697904831e-05 -1.9231572627008123e-10 -1.1798400389095041e-09 9.8789936028991433e-06 -2.1100300742310596e-10 -1.2611950870777105e-09 1.2500837365116735e-05 -3.2551890321704529e-10 -1.6298269848366478e-09 1.5435971646727832e-05 -3.0158500085417751e-10 -1.2411370088641501e-05 1.5928202697904831e-05 -1.9231572627008123e-10 -1.1798400389095041e-09 9.8789936028991433e-06 -2.1100300742310596e-10 -1.2611950870777105e-09 1.2500837365116735e-05 -3.2551890321704529e-10 -1.6298269848366478e-09 1.5435971646727829e-05 -3.0158500085417761e-10 -1.2411370088641506e-05 9.8689609290033974e-06 -3.2053089439310941e-10 -1.7487922983073123e-05 1.5435971646727832e-05 -3.0158500085417761e-10 -1.2411370088641502e-05 9.8689609290033974e-06 -3.2053089439310941e-10 -1.7487922983073123e-05 1.4903608652116652e-05 -3.6922572767621058e-10 -2.9757922028204813e-05 1.5638557697210226e-05 -2.1717704494322009e-10 -2.1173444485168498e-05 9.8789936028991433e-06 -2.1100300742310596e-10 -1.2611950870777105e-09 1.5435971646727829e-05 -3.0158500085417761e-10 -1.2411370088641507e-05 9.8689609290033974e-06 -3.2053089439310941e-10 -1.7487922983073119e-05 1.5638557697210226e-05 -2.1717704494322004e-10 -2.1173444485168502e-05 1.0046357423832269e-05 -2.7787165709164087e-10 -3.6317384210610143e-05 1.564908019721351e-05 -1.6205830808660456e-10 -4.9581342359515851e-05 6.903205848615966e-06 -1.597398651807934e-10 -4.6879649301062931e-05 9.6976445600722544e-06 -2.5740277653284784e-10 -5.0793657663276275e-05 1.0046357423832269e-05 -2.7787165709164087e-10 -3.6317384210610143e-05 5.293564867496685e-06 -3.0073951142942887e-10 -2.8136226679733086e-05 9.7686685694409357e-06 -9.7662422899524696e-11 -2.9304589531427946e-05 6.9032058486159652e-06 -1.597398651807934e-10 -4.6879649301062931e-05 1.0046357423832269e-05 -2.7787165709164087e-10 -3.6317384210610143e-05 9.7686685694409357e-06 -9.7662422899524683e-11 -2.930458953142795e-05 1.5649080197213513e-05 -1.6205830808660458e-10 -4.9581342359515844e-05 6.9032058486159686e-06 -1.5973986518079348e-10 -4.6879649301062938e-05 1.4903608652116652e-05 -3.6922572767621058e-10 -2.9757922028204813e-05 1.0046357423832268e-05 -2.7787165709164087e-10 -3.6317384210610143e-05 1.5638557697210226e-05 -2.1717704494322009e-10 -2.1173444485168498e-05 1.5649080197213513e-05 -1.6205830808660458e-10 -4.9581342359515844e-05 1.0046357423832269e-05 -2.7787165709164087e-10 -3.6317384210610143e-05 9.7686685694409374e-06 -9.7662422899524696e-11 -2.9304589531427946e-05 1.5638557697210222e-05 -2.1717704494322001e-10 -2.1173444485168498e-05 1.5649080197213513e-05 -1.6205830808660458e-10 -4.9581342359515844e-05 9.8689609290033974e-06 -3.2053089439310941e-10 -1.7487922983073123e-05 1.0046357423832269e-05 -2.7787165709164087e-10 -3.6317384210610143e-05 5.293564867496685e-06 -3.0073951142942887e-10 -2.8136226679733086e-05 9.7686685694409357e-06 -9.7662422899524683e-11 -2.930458953142795e-05 9.8689609290033974e-06 -3.2053089439310941e-10 -1.7487922983073123e-05 1.0046357423832269e-05 -2.7787165709164087e-10 -3.6317384210610143e-05 9.7686685694409357e-06 -9.7662422899524683e-11 -2.930458953142795e-05 1.5638557697210226e-05 -2.1717704494322009e-10 -2.1173444485168498e-05 9.8689609290033974e-06 -3.2053089439310941e-10 -1.7487922983073123e-05 1.4903608652116652e-05 -3.6922572767621058e-10 -2.9757922028204813e-05 1.0046357423832269e-05 -2.7787165709164087e-10 -3.6317384210610143e-05 1.5638557697210226e-05 -2.1717704494322009e-10 -2.1173444485168498e-05 1.0046357423832269e-05 -2.7787165709164087e-10 -3.6317384210610143e-05 1.5626071302713096e-05 -3.1909846092179056e-10 -4.5036316080773446e-05 1.5649080197213513e-05 -1.6205830808660458e-10 -4.9581342359515837e-05 9.6976445600722544e-06 -2.5740277653284784e-10 -5.0793657663276275e-05 1.4903608652116652e-05 -3.6922572767621058e-10 -2.9757922028204813e-05 1.0046357423832269e-05 -2.7787165709164087e-10 -3.6317384210610143e-05 1.5626071302713096e-05 -3.1909846092179056e-10 -4.5036316080773453e-05 1.5649080197213513e-05 -1.6205830808660458e-10 -4.9581342359515844e-05 1.0046357423832269e-05 -2.7787165709164087e-10 -3.6317384210610143e-05 5.1161892602844284e-06 -2.9973492244688163e-10 -4.5812526089942288e-05 6.903205848615966e-06 -1.597398651807934e-10 -4.6879649301062931e-05 9.6976445600722544e-06 -2.5740277653284784e-10 -5.0793657663276275e-05 1.0046357423832269e-05 -2.7787165709164087e-10 -3.6317384210610143e-05 5.1161892602844284e-06 -2.9973492244688163e-10 -4.5812526089942288e-05 5.293564867496685e-06 -3.0073951142942887e-10 -2.8136226679733086e-05 6.903205848615966e-06 -1.597398651807934e-10 -4.6879649301062931e-05 -2.7584438237188888e-14 -2.0287331037195389e-10 -1.3726799989521651e-05 5.2935648674966859e-06 -3.0073951142942887e-10 -2.8136226679733082e-05 -1.0880815214983687e-16 -1.8969837608190054e-10 -2.963557943745656e-05 9.7686685694409374e-06 -9.7662422899524683e-11 -2.930458953142795e-05 5.1161892602844284e-06 -2.9973492244688163e-10 -4.5812526089942288e-05 5.2935648674966842e-06 -3.0073951142942892e-10 -2.8136226679733086e-05 -1.0880815214983687e-16 -1.8969837608190054e-10 -2.963557943745656e-05 6.903205848615966e-06 -1.597398651807934e-10 -4.6879649301062931e-05 5.293564867496685e-06 -3.0073951142942887e-10 -2.8136226679733086e-05 -1.0880878657471531e-16 -1.8969837608190054e-10 -2.9635579437456566e-05 9.768668569440934e-06 -9.7662422899524722e-11 -2.930458953142796e-05 6.903205848615966e-06 -1.5973986518079338e-10 -4.6879649301062924e-05 5.1161892602844284e-06 -2.9973492244688163e-10 -4.5812526089942288e-05 4.666934092758034e-15 -3.6096282446809881e-10 -3.7500359403621518e-05 -5.4650644263014111e-15 -2.3725793313611829e-10 -4.7781479647208591e-05 9.7044442334795838e-15 -4.0660759859906796e-10 -5.6249920007075103e-05 5.1161892602844284e-06 -2.9973492244688163e-10 -4.5812526089942288e-05 4.666934092758034e-15 -3.6096282446809881e-10 -3.7500359403621518e-05 5.293564867496685e-06 -3.0073951142942892e-10 -2.8136226679733089e-05 -1.0880815214983687e-16 -1.8969837608190054e-10 -2.963557943745656e-05 5.1161892602844284e-06 -2.9973492244688163e-10 -4.5812526089942288e-05 4.666933754499637e-15 -3.6096282446809886e-10 -3.7500359403621525e-05 -1.0880815214983687e-16 -1.8969837608190054e-10 -2.963557943745656e-05 -5.4650644263014111e-15 -2.3725793313611829e-10 -4.7781479647208591e-05 6.339752841526621e-15 -3.0964201719309601e-10 -1.875078290965387e-05 4.666934092758034e-15 -3.6096282446809881e-10 -3.7500359403621518e-05 5.293564867496685e-06 -3.0073951142942887e-10 -2.8136226679733086e-05 -1.0880815214983687e-16 -1.8969837608190054e-10 -2.963557943745656e-05 5.1161892602844284e-06 -2.9973492244688163e-10 -4.5812526089942288e-05 -1.088077559342922e-16 -1.8969837608190054e-10 -2.9635579437456556e-05 6.903205848615966e-06 -1.5973986518079346e-10 -4.6879649301062938e-05 -5.4650644285606228e-15 -2.3725793313611829e-10 -4.7781479647208591e-05 -1.0880815214983687e-16 -1.8969837608190054e-10 -2.963557943745656e-05 -2.3467344312775647e-15 -1.0874590920209922e-10 -4.2949300631835607e-05 6.9032058486159677e-06 -1.5973986518079335e-10 -4.6879649301062931e-05 -5.4650644263014111e-15 -2.3725793313611829e-10 -4.7781479647208591e-05 -1.0880815214983687e-16 -1.8969837608190054e-10 -2.963557943745656e-05 4.008970824248494e-15 -4.7002119281550814e-11 -3.0867979861132318e-05 9.7686685694409357e-06 -9.7662422899524683e-11 -2.930458953142795e-05 -1.2608804387099702e-14 -8.7917046337982863e-11 -1.5872510629248046e-05 -2.3467346017690282e-15 -1.0874590920209919e-10 -4.2949300631835607e-05 9.768668569440934e-06 -9.7662422899524683e-11 -2.930458953142794e-05 7.74091192846336e-06 2.1079606229583793e-11 -4.2280071442435147e-05 6.903205848615966e-06 -1.597398651807934e-10 -4.6879649301062931e-05 -1.0880815214983687e-16 -1.8969837608190054e-10 -2.963557943745656e-05 -2.3467346017690282e-15 -1.0874590920209919e-10 -4.2949300631835607e-05 4.0089704773648339e-15 -4.7002119281550814e-11 -3.0867979861132318e-05 9.7686685694409357e-06 -9.7662422899524683e-11 -2.930458953142795e-05 4.0089704773648339e-15 -4.7002119281550814e-11 -3.0867979861132318e-05 9.7686685694409357e-06 -9.7662422899524683e-11 -2.930458953142795e-05 6.9835818880048093e-06 1.0422261339003451e-11 -2.0950096528234435e-05 7.74091192846336e-06 2.107960622958379e-11 -4.2280071442435147e-05 -2.3467346017690282e-15 -1.0874590920209919e-10 -4.2949300631835607e-05 4.0089703628899739e-15 -4.700211928155082e-11 -3.0867979861132318e-05 9.7686685694409357e-06 -9.7662422899524709e-11 -2.930458953142795e-05 7.74091192846336e-06 2.1079606229583793e-11 -4.2280071442435147e-05 4.0089704773648339e-15 -4.7002119281550814e-11 -3.0867979861132318e-05 9.7686685694409357e-06 -9.7662422899524683e-11 -2.930458953142795e-05 -1.2608804387099702e-14 -8.7917046337982863e-11 -1.5872510629248046e-05 6.9835818880048085e-06 1.0422261339003469e-11 -2.0950096528234435e-05 -1.0880815214983687e-16 -1.8969837608190054e-10 -2.963557943745656e-05 -2.3467343944291114e-15 -1.0874590920209921e-10 -4.2949300631835613e-05 9.7686685694409357e-06 -9.7662422899524683e-11 -2.9304589531427946e-05 6.9032058486159669e-06 -1.5973986518079346e-10 -4.6879649301062945e-05 -2.3467346017690282e-15 -1.0874590920209919e-10 -4.2949300631835607e-05 4.0089702363625262e-15 -4.700211928155082e-11 -3.0867979861132318e-05 7.7409119284633617e-06 2.107960622958379e-11 -4.228007144243514e-05 -4.289390138376533e-15 2.9898242946853597e-12 -4.8714039270935579e-05 9.7686685694409357e-06 -9.7662422899524683e-11 -2.930458953142795e-05 1.563868604092203e-05 -2.1099358163873651e-11 -2.3403614258015159e-05 1.562608031493258e-05 -1.8184049082218522e-12 -4.6875184481376153e-05 1.5649080197213513e-05 -1.6205830808660458e-10 -4.9581342359515844e-05 9.7686685694409357e-06 -9.7662422899524683e-11 -2.930458953142795e-05 6.9835818880048085e-06 1.0422261339003473e-11 -2.0950096528234432e-05 7.74091192846336e-06 2.1079606229583793e-11 -4.2280071442435147e-05 1.563868604092203e-05 -2.1099358163873647e-11 -2.3403614258015159e-05 9.7686685694409357e-06 -9.7662422899524683e-11 -2.930458953142795e-05 1.5638557697210226e-05 -2.1717704494322009e-10 -2.1173444485168502e-05 1.563868604092203e-05 -2.1099358163873647e-11 -2.3403614258015159e-05 1.5649080197213513e-05 -1.6205830808660461e-10 -4.9581342359515844e-05 9.7686685694409357e-06 -9.7662422899524683e-11 -2.930458953142795e-05 7.74091192846336e-06 2.1079606229583784e-11 -4.2280071442435147e-05 1.5626080314932584e-05 -1.8184049082218764e-12 -4.687518448137614e-05 1.5649080197213513e-05 -1.6205830808660458e-10 -4.9581342359515844e-05 9.7686685694409357e-06 -9.7662422899524683e-11 -2.930458953142795e-05 7.74091192846336e-06 2.1079606229583793e-11 -4.2280071442435147e-05 1.563868604092203e-05 -2.109935816387366e-11 -2.3403614258015162e-05 1.5626080314932584e-05 -1.8184049082219269e-12 -4.6875184481376153e-05 9.7686685694409357e-06 -9.7662422899524683e-11 -2.930458953142795e-05 7.74091192846336e-06 2.1079606229583797e-11 -4.228007144243514e-05 1.5649080197213513e-05 -1.6205830808660458e-10 -4.9581342359515844e-05 6.903205848615966e-06 -1.597398651807934e-10 -4.6879649301062931e-05 9.7686685694409357e-06 -9.7662422899524683e-11 -2.930458953142795e-05 1.4317302933628927e-05 -1.19661221278181e-10 -1.0177412497314461e-09 1.0289842991704126e-05 -7.4728679570966462e-11 -1.4010520735025722e-09 1.563868604092203e-05 -2.1099358163873628e-11 -2.3403614258015156e-05 1.0289842991704127e-05 -7.4728679570966513e-11 -1.4010520735037672e-09 6.9835818880048085e-06 1.0422261339003469e-11 -2.0950096528234435e-05 1.0140263871337483e-05 6.76936708806924e-11 -1.4693963860035298e-09 1.563868604092203e-05 -2.1099358163873647e-11 -2.3403614258015159e-05 9.7686685694409357e-06 -9.7662422899524683e-11 -2.930458953142795e-05 1.4317302933628927e-05 -1.19661221278181e-10 -1.0177412497314461e-09 1.5638557697210226e-05 -2.1717704494322009e-10 -2.1173444485168498e-05 1.563868604092203e-05 -2.1099358163873647e-11 -2.3403614258015159e-05 9.8789936028991433e-06 -2.1100300742310596e-10 -1.2611950870777105e-09 9.7686685694409357e-06 -9.7662422899524683e-11 -2.930458953142795e-05 1.4317302933628927e-05 -1.19661221278181e-10 -1.0177412497314461e-09 1.0289842991704127e-05 -7.4728679570966513e-11 -1.4010520735037672e-09 9.7686685694409357e-06 -9.7662422899524683e-11 -2.930458953142795e-05 1.0289842991704131e-05 -7.47286795709665e-11 -1.4010520734979129e-09 5.2908890038636217e-06 -1.4558764198157521e-10 -1.2146675577512245e-09 6.9835818880048085e-06 1.0422261339003469e-11 -2.0950096528234435e-05 9.8789936028991433e-06 -2.1100300742310596e-10 -1.2611950870777105e-09 9.7686685694409357e-06 -9.7662422899524592e-11 -2.9304589531427953e-05 1.4317302933628927e-05 -1.19661221278181e-10 -1.0177412497314461e-09 1.5638557697210226e-05 -2.1717704494322014e-10 -2.1173444485168502e-05 9.7686685694409357e-06 -9.7662422899524683e-11 -2.930458953142795e-05 1.0289842991704127e-05 -7.4728679570966526e-11 -1.401052073498799e-09 6.9835818880048085e-06 1.0422261339003469e-11 -2.0950096528234435e-05 1.563868604092203e-05 -2.1099358163873644e-11 -2.3403614258015156e-05 9.8789936028991433e-06 -2.1100300742310596e-10 -1.2611950870777105e-09 9.7686685694409357e-06 -9.7662422899524683e-11 -2.930458953142795e-05 1.0289842991704127e-05 -7.4728679570966513e-11 -1.4010520735037672e-09 5.2908890038636217e-06 -1.4558764198157521e-10 -1.2146675577512245e-09 1.0289842991704127e-05 -7.4728679570966513e-11 -1.4010520735037672e-09 1.0140263871337483e-05 6.76936708806924e-11 -1.4693963860041812e-09 1.6239127197677529e-05 2.3256091038087914e-11 -1.3010129882827705e-09 1.563868604092203e-05 -2.1099358163873647e-11 -2.3403614258015159e-05 1.4317302933628927e-05 -1.19661221278181e-10 -1.0177412497314461e-09 1.0289842991704127e-05 -7.4728679570966513e-11 -1.4010520735037672e-09 1.6239127197677529e-05 2.3256091038087907e-11 -1.3010129882814675e-09 1.563868604092203e-05 -2.1099358163873647e-11 -2.3403614258015159e-05 4.5756402910949494e-06 -2.1910193411085132e-10 -9.7080161954731215e-10 9.7686685694409374e-06 -9.766242289952467e-11 -2.930458953142795e-05 5.2908890038636217e-06 -1.4558764198157521e-10 -1.2146675577512245e-09 -1.2608804387099702e-14 -8.7917046337982863e-11 -1.5872510629248046e-05 9.7686685694409357e-06 -9.7662422899524683e-11 -2.930458953142795e-05 5.29088900386362e-06 -1.4558764198157521e-10 -1.2146675577544174e-09 -1.2608802739125747e-14 -8.7917046337982902e-11 -1.5872510629248042e-05 6.9835818880048093e-06 1.0422261339003465e-11 -2.0950096528234432e-05 5.3835234460625567e-06 -1.0613557804275507e-11 -1.3238136754059092e-09 5.2908890038636217e-06 -1.4558764198157521e-10 -1.2146675577512245e-09 -1.1620625275589871e-14 -5.1184977500411857e-12 -1.6150515520702542e-05 6.9835818880048085e-06 1.0422261339003469e-11 -2.0950096528234435e-05 1.0289842991704127e-05 -7.4728679570966513e-11 -1.4010520735037672e-09 5.3835234460625567e-06 -1.0613557804275507e-11 -1.3238136754059092e-09 5.2908890038636217e-06 -1.4558764198157521e-10 -1.2146675577512245e-09 6.9835818880048085e-06 1.0422261339003469e-11 -2.0950096528234435e-05 2.0777481761308502e-14 -2.3477458740736644e-10 -1.2115001067861871e-09 5.2908890038636217e-06 -1.4558764198157521e-10 -1.2146675577502567e-09 -1.2608804387099702e-14 -8.7917046337982863e-11 -1.5872510629248046e-05 2.5311764193485943e-14 -1.0459201904177249e-10 -1.5463286155854765e-09 5.2908890038636217e-06 -1.4558764198157521e-10 -1.2146675577512245e-09 -1.2608805248574744e-14 -8.7917046337982889e-11 -1.5872510629248046e-05 -1.1620624100469181e-14 -5.1184977500411768e-12 -1.6150515520702539e-05 2.5311764193485943e-14 -1.0459201904177249e-10 -1.5463286155854765e-09 5.2908890038636217e-06 -1.4558764198157521e-10 -1.2146675577512245e-09 -1.2608803706672257e-14 -8.7917046337982863e-11 -1.5872510629248052e-05 -1.1620624256628292e-14 -5.1184977500411712e-12 -1.6150515520702535e-05 6.9835818880048085e-06 1.0422261339003469e-11 -2.0950096528234435e-05 4.0089704773648339e-15 -4.7002119281550814e-11 -3.0867979861132318e-05 -1.2608804387099702e-14 -8.7917046337982863e-11 -1.5872510629248046e-05 -1.1620625275589871e-14 -5.1184977500411857e-12 -1.6150515520702542e-05 6.9835818880048085e-06 1.0422261339003469e-11 -2.0950096528234435e-05 5.3835234460625567e-06 -1.0613557804275507e-11 -1.3238136754059092e-09 -1.1620625936769622e-14 -5.1184977500411857e-12 -1.6150515520702539e-05 2.5311764000621123e-14 -1.0459201904177249e-10 -1.5463286155854765e-09 1.2106603079428306e-14 8.4016370820879509e-11 -1.4435592817923282e-09 5.3835234460625567e-06 -1.0613557804275507e-11 -1.3238136754059092e-09 5.2908890038636217e-06 -1.4558764198157521e-10 -1.2146675577512245e-09 -1.1620625156321942e-14 -5.1184977500411776e-12 -1.6150515520702545e-05 2.5311764193485943e-14 -1.0459201904177249e-10 -1.5463286155854765e-09 6.9835818880048085e-06 1.0422261339003469e-11 -2.0950096528234435e-05 -4.077508371785061e-15 9.7446182734148517e-11 -1.4904186255818101e-05 1.2447751470036054e-16 5.1547802750678513e-11 -3.0419247561406418e-05 6.0188769190828338e-06 1.4988465809846377e-10 -1.8056148385179349e-05 4.9680840057959173e-06 1.1545741475919962e-10 -1.2084210190762854e-09 6.9835818880048093e-06 1.0422261339003473e-11 -2.0950096528234439e-05 -4.0775074021804075e-15 9.744618273414853e-11 -1.4904186255818111e-05 6.0188769190828338e-06 1.4988465809846375e-10 -1.8056148385179352e-05 5.3835234460625567e-06 -1.0613557804275507e-11 -1.3238136754059092e-09 1.2106603079428306e-14 8.4016370820879509e-11 -1.4435592817923282e-09 4.9680840057959173e-06 1.1545741475919962e-10 -1.2084210190762854e-09 -4.0775074021804075e-15 9.744618273414853e-11 -1.4904186255818111e-05 4.9680840057959173e-06 1.1545741475919962e-10 -1.2084210190762854e-09 6.9835818880048093e-06 1.042226133900347e-11 -2.0950096528234439e-05 6.0188769190828329e-06 1.4988465809846375e-10 -1.8056148385179352e-05 1.0140263871337483e-05 6.76936708806924e-11 -1.4693963860035298e-09 5.3835234460625567e-06 -1.0613557804275507e-11 -1.3238136754059092e-09 -1.1620624683767147e-14 -5.1184977500411591e-12 -1.6150515520702542e-05 1.2106603079428306e-14 8.4016370820879509e-11 -1.4435592817923282e-09 -4.077507999871578e-15 9.7446182734148517e-11 -1.4904186255818113e-05 1.2106603079428306e-14 8.4016370820879509e-11 -1.4435592817923282e-09 4.9680840057959173e-06 1.1545741475919962e-10 -1.2084210190762854e-09 -4.0775074021804075e-15 9.744618273414853e-11 -1.4904186255818111e-05 5.4841962080618998e-15 2.1556383105086615e-10 -1.1743868253672158e-09 4.9680840057959173e-06 1.1545741475919962e-10 -1.2084210190762854e-09 6.0188769190828346e-06 1.4988465809846377e-10 -1.8056148385179352e-05 9.709151821875072e-06 2.284974871544776e-10 -1.3083136657754561e-09 1.0140263871337483e-05 6.76936708806924e-11 -1.4693963860035298e-09 5.3835234460625567e-06 -1.0613557804275507e-11 -1.3238136754059092e-09 4.9680840057959173e-06 1.1545741475919962e-10 -1.2084210190762854e-09 6.9835818880048085e-06 1.0422261339003469e-11 -2.0950096528234435e-05 1.0140263871337483e-05 6.76936708806924e-11 -1.4693963860035298e-09 5.3835234460625567e-06 -1.0613557804275507e-11 -1.3238136754059092e-09 4.9680840057959173e-06 1.1545741475919962e-10 -1.2084210190762854e-09 6.9835818880048085e-06 1.0422261339003469e-11 -2.0950096528234435e-05 -4.0775074021804075e-15 9.744618273414853e-11 -1.4904186255818111e-05 -4.0775074021804075e-15 9.744618273414853e-11 -1.4904186255818111e-05 1.2447790158958816e-16 5.1547802750678507e-11 -3.0419247561406407e-05 9.0048046434506372e-16 2.0100860119222545e-10 -2.9125955941227946e-05 6.0188769190828321e-06 1.4988465809846375e-10 -1.8056148385179352e-05 -1.1620625275589871e-14 -5.1184977500411857e-12 -1.6150515520702542e-05 6.9835818880048085e-06 1.0422261339003469e-11 -2.0950096528234435e-05 -4.0775074021804075e-15 9.744618273414853e-11 -1.4904186255818111e-05 1.2447790158958816e-16 5.1547802750678507e-11 -3.0419247561406407e-05 5.3835234460625567e-06 -1.0613557804275507e-11 -1.3238136754059092e-09 -1.1620625416123532e-14 -5.1184977500411494e-12 -1.6150515520702542e-05 6.9835818880048085e-06 1.0422261339003469e-11 -2.0950096528234435e-05 -4.0775086512140133e-15 9.7446182734148504e-11 -1.4904186255818113e-05 1.2447790158958816e-16 5.1547802750678507e-11 -3.0419247561406407e-05 7.0370189175574159e-06 1.8515466585711992e-10 -4.5175736099429796e-05 6.0188769190828338e-06 1.4988465809846372e-10 -1.8056148385179352e-05 1.1203451606077513e-05 1.2353366061760094e-10 -2.8153593521898126e-05 4.0089704773648339e-15 -4.7002119281550814e-11 -3.0867979861132318e-05 6.9835818880048093e-06 1.0422261339003473e-11 -2.0950096528234429e-05 1.2447790158958816e-16 5.1547802750678507e-11 -3.0419247561406407e-05 7.74091192846336e-06 2.107960622958379e-11 -4.2280071442435147e-05 1.2447790158958816e-16 5.1547802750678507e-11 -3.0419247561406407e-05 9.0048046434506372e-16 2.0100860119222545e-10 -2.9125955941227946e-05 7.0370189175574159e-06 1.8515466585711992e-10 -4.5175736099429803e-05 6.0188769190828329e-06 1.4988465809846375e-10 -1.8056148385179349e-05 6.9835818880048085e-06 1.0422261339003469e-11 -2.0950096528234435e-05 1.2447692165502699e-16 5.1547802750678513e-11 -3.0419247561406411e-05 6.0188769190828329e-06 1.4988465809846375e-10 -1.8056148385179342e-05 1.1203451606077513e-05 1.2353366061760094e-10 -2.8153593521898126e-05 4.0089704773648339e-15 -4.7002119281550814e-11 -3.0867979861132318e-05 -1.1620625275589871e-14 -5.1184977500411857e-12 -1.6150515520702542e-05 6.9835818880048085e-06 1.0422261339003469e-11 -2.0950096528234435e-05 1.2447790158958816e-16 5.1547802750678507e-11 -3.0419247561406407e-05 1.2447790158958816e-16 5.1547802750678507e-11 -3.0419247561406407e-05 7.74091192846336e-06 2.107960622958381e-11 -4.2280071442435154e-05 7.0370189175574176e-06 1.851546658571199e-10 -4.5175736099429796e-05 1.1203451606077513e-05 1.2353366061760094e-10 -2.8153593521898126e-05 6.9835818880048085e-06 1.0422261339003469e-11 -2.0950096528234435e-05 1.2447653078038986e-16 5.154780275067852e-11 -3.0419247561406407e-05 7.74091192846336e-06 2.1079606229583793e-11 -4.2280071442435147e-05 1.1203451606077513e-05 1.2353366061760094e-10 -2.8153593521898126e-05 4.0089704773648339e-15 -4.7002119281550814e-11 -3.0867979861132318e-05 1.2447746383851048e-16 5.1547802750678507e-11 -3.0419247561406407e-05 7.74091192846336e-06 2.1079606229583793e-11 -4.2280071442435147e-05 -4.289390138376533e-15 2.9898242946853597e-12 -4.8714039270935579e-05 1.2447790158958816e-16 5.1547802750678507e-11 -3.0419247561406407e-05 7.74091192846336e-06 2.1079606229583793e-11 -4.2280071442435147e-05 1.2649617529328764e-15 1.2037577068101351e-10 -4.2810756485915514e-05 -4.289390138376533e-15 2.9898242946853597e-12 -4.8714039270935579e-05 7.74091192846336e-06 2.1079606229583793e-11 -4.2280071442435147e-05 1.2649617474055763e-15 1.2037577068101351e-10 -4.28107564859155e-05 7.0370189175574168e-06 1.8515466585711992e-10 -4.5175736099429796e-05 -1.5162282997893338e-15 1.0576212218463042e-10 -5.619765579346044e-05 1.2447790158958816e-16 5.1547802750678507e-11 -3.0419247561406407e-05 1.2649617529328764e-15 1.2037577068101351e-10 -4.2810756485915514e-05 9.0048031728951883e-16 2.0100860119222545e-10 -2.9125955941227946e-05 7.0370189175574168e-06 1.8515466585711992e-10 -4.5175736099429796e-05 1.2447790158958816e-16 5.1547802750678507e-11 -3.0419247561406407e-05 7.74091192846336e-06 2.107960622958381e-11 -4.2280071442435147e-05 1.2649617529328764e-15 1.2037577068101351e-10 -4.2810756485915514e-05 7.0370189175574168e-06 1.8515466585711992e-10 -4.5175736099429803e-05 7.0370189175574168e-06 1.8515466585711992e-10 -4.5175736099429796e-05 5.290908803782253e-06 3.0292265667553277e-10 -2.8195743726572183e-05 6.0188769190828346e-06 1.4988465809846369e-10 -1.8056148385179342e-05 1.029025647750213e-05 3.5333082013808337e-10 -3.7140415860400634e-05 9.0048046434506372e-16 2.0100860119222545e-10 -2.9125955941227946e-05 7.0370189175574151e-06 1.8515466585711992e-10 -4.5175736099429796e-05 5.2909088037822522e-06 3.0292265667553282e-10 -2.8195743726572187e-05 6.0188769190828338e-06 1.4988465809846375e-10 -1.8056148385179352e-05 9.0048046434506372e-16 2.0100860119222545e-10 -2.9125955941227946e-05 7.0370189175574151e-06 1.8515466585711998e-10 -4.5175736099429803e-05 5.3835348999160762e-06 3.3029254116894145e-10 -4.6721921269590151e-05 -5.7576632230777432e-15 2.3844198965738063e-10 -4.7628253778088793e-05 1.2649617529328764e-15 1.2037577068101351e-10 -4.2810756485915514e-05 9.0048046434506372e-16 2.0100860119222545e-10 -2.9125955941227946e-05 7.0370189175574168e-06 1.8515466585711992e-10 -4.5175736099429796e-05 -5.7576632230777432e-15 2.3844198965738063e-10 -4.7628253778088793e-05 9.0048046434506372e-16 2.0100860119222545e-10 -2.9125955941227946e-05 5.2044503194519755e-15 3.870091453368613e-10 -3.750037897751219e-05 5.3835348999160778e-06 3.3029254116894134e-10 -4.6721921269590158e-05 -5.7576632230777432e-15 2.3844198965738063e-10 -4.7628253778088793e-05 9.0048046434506372e-16 2.0100860119222545e-10 -2.9125955941227946e-05 5.2044503194519755e-15 3.870091453368613e-10 -3.750037897751219e-05 5.383534899916077e-06 3.3029254116894134e-10 -4.6721921269590151e-05 5.290908803782253e-06 3.0292265667553277e-10 -2.8195743726572183e-05 9.0048046434506372e-16 2.0100860119222545e-10 -2.9125955941227946e-05 7.0370189175574151e-06 1.8515466585711998e-10 -4.517573609942981e-05 5.3835348999160728e-06 3.3029254116894145e-10 -4.6721921269590151e-05 5.290908803782253e-06 3.0292265667553277e-10 -2.8195743726572183e-05 7.0370189175574168e-06 1.8515466585711992e-10 -4.5175736099429796e-05 5.3835348999160762e-06 3.3029254116894145e-10 -4.6721921269590151e-05 5.290908803782253e-06 3.0292265667553277e-10 -2.8195743726572183e-05 1.029025647750213e-05 3.5333082013808337e-10 -3.714041586040064e-05 9.0048046434506372e-16 2.0100860119222545e-10 -2.9125955941227946e-05 5.2044500016182412e-15 3.8700914533686135e-10 -3.750037897751219e-05 5.290908803782253e-06 3.0292265667553277e-10 -2.8195743726572183e-05 4.3352828759852013e-15 3.03087835982848e-10 -1.8750808181229281e-05 9.0048046434506372e-16 2.0100860119222545e-10 -2.9125955941227946e-05 5.290908803782253e-06 3.0292265667553277e-10 -2.8195743726572183e-05 4.3352828759852013e-15 3.03087835982848e-10 -1.8750808181229281e-05 -1.9947104738065271e-14 2.0823085664388095e-10 -1.3726822328809095e-05 5.290908803782253e-06 3.0292265667553277e-10 -2.8195743726572183e-05 4.3352830156135657e-15 3.03087835982848e-10 -1.8750808181229277e-05 -1.9947104738065271e-14 2.0823085664388095e-10 -1.3726822328809095e-05 4.575642100945247e-06 2.427042884177473e-10 -1.3726869609934098e-05 1.2957235014098315e-14 3.2692413546124771e-10 -1.3300815000026442e-09 4.5756151267457489e-06 2.170496923277258e-10 -9.684279301315999e-10 6.2503644258836607e-06 3.4404627738660323e-10 -1.3290125393576313e-09 4.575642100945247e-06 2.427042884177473e-10 -1.3726869609934098e-05 4.3352828759852013e-15 3.03087835982848e-10 -1.8750808181229281e-05 1.2957235014098317e-14 3.2692413546124771e-10 -1.3300815000030507e-09 -1.9947104738065271e-14 2.0823085664388095e-10 -1.3726822328809095e-05 4.575642100945247e-06 2.427042884177473e-10 -1.3726869609934098e-05 1.2957235014098315e-14 3.2692413546124771e-10 -1.3300815000026442e-09 -1.9947105108350191e-14 2.0823085664388095e-10 -1.3726822328809095e-05 4.5756151267457489e-06 2.170496923277258e-10 -9.684279301315999e-10 4.575642100945247e-06 2.427042884177473e-10 -1.3726869609934098e-05 1.2957235014098315e-14 3.2692413546124771e-10 -1.3300815000026442e-09 5.4841954674898851e-15 2.1556383105086615e-10 -1.1743868253649942e-09 -1.9947104738065271e-14 2.0823085664388095e-10 -1.3726822328809095e-05 4.5756151267457489e-06 2.170496923277258e-10 -9.684279301315999e-10 4.9680840057959173e-06 1.1545741475919962e-10 -1.2084210190762854e-09 -4.0775074021804075e-15 9.744618273414853e-11 -1.4904186255818111e-05 -1.9947104738065271e-14 2.0823085664388095e-10 -1.3726822328809095e-05 6.0188769190828338e-06 1.4988465809846375e-10 -1.8056148385179352e-05 4.9680840057959173e-06 1.1545741475919962e-10 -1.2084210190762854e-09 5.4841962080618998e-15 2.1556383105086615e-10 -1.1743868253672158e-09 -1.9947104738065271e-14 2.0823085664388095e-10 -1.3726822328809095e-05 4.5756151267457489e-06 2.170496923277258e-10 -9.684279301315999e-10 -1.9947104738065271e-14 2.0823085664388095e-10 -1.3726822328809095e-05 6.0188769190828346e-06 1.4988465809846375e-10 -1.8056148385179352e-05 4.5756151267457497e-06 2.1704969232772577e-10 -9.6842793013146631e-10 4.575642100945247e-06 2.427042884177473e-10 -1.3726869609934098e-05 4.9680840057959173e-06 1.1545741475919962e-10 -1.2084210190762854e-09 -4.0775063940785514e-15 9.7446182734148517e-11 -1.4904186255818113e-05 5.4841962080618998e-15 2.1556383105086615e-10 -1.1743868253672158e-09 -1.9947104738065271e-14 2.0823085664388095e-10 -1.3726822328809095e-05 4.9680840057959173e-06 1.1545741475919962e-10 -1.2084210190762854e-09 -1.9947104738065271e-14 2.0823085664388095e-10 -1.3726822328809095e-05 6.0188769190828338e-06 1.4988465809846375e-10 -1.8056148385179352e-05 4.5756151267457489e-06 2.170496923277258e-10 -9.684279301315999e-10 9.0048046434506372e-16 2.0100860119222545e-10 -2.9125955941227946e-05 5.290908803782253e-06 3.0292265667553277e-10 -2.8195743726572183e-05 -1.9947104573433957e-14 2.0823085664388092e-10 -1.3726822328809095e-05 6.0188769190828338e-06 1.4988465809846375e-10 -1.8056148385179352e-05 -4.0775074021804075e-15 9.744618273414853e-11 -1.4904186255818111e-05 9.0048018284560958e-16 2.0100860119222545e-10 -2.9125955941227946e-05 -1.9947104738065271e-14 2.0823085664388095e-10 -1.3726822328809095e-05 6.0188769190828321e-06 1.4988465809846375e-10 -1.8056148385179352e-05 6.0188769190828338e-06 1.4988465809846375e-10 -1.8056148385179352e-05 4.5756151267457506e-06 2.170496923277258e-10 -9.6842793013678136e-10 4.5756421009452487e-06 2.4270428841774735e-10 -1.3726869609934099e-05 9.709151821875072e-06 2.284974871544776e-10 -1.3083136657754561e-09 4.9680840057959173e-06 1.1545741475919962e-10 -1.2084210190762854e-09 6.0188769190828346e-06 1.4988465809846377e-10 -1.8056148385179352e-05 4.5756151267457489e-06 2.170496923277258e-10 -9.684279301315999e-10 9.709151821875072e-06 2.284974871544776e-10 -1.3083136657754561e-09 4.5756151267457489e-06 2.170496923277258e-10 -9.684279301315999e-10 6.2503644258836607e-06 3.4404627738660323e-10 -1.3290125393577146e-09 4.575642100945247e-06 2.427042884177473e-10 -1.3726869609934098e-05 9.709151821875072e-06 2.284974871544776e-10 -1.3083136657754561e-09 6.2503644258836607e-06 3.4404627738660323e-10 -1.3290125393576313e-09 4.575642100945247e-06 2.427042884177473e-10 -1.3726869609934098e-05 9.8868894304744445e-06 3.1776116484188108e-10 -1.764372433131501e-05 9.709151821875072e-06 2.284974871544776e-10 -1.3083136657754561e-09 6.0188769190828338e-06 1.4988465809846375e-10 -1.8056148385179352e-05 4.575642100945247e-06 2.427042884177473e-10 -1.3726869609934098e-05 9.8868894304744445e-06 3.1776116484188113e-10 -1.764372433131501e-05 9.709151821875072e-06 2.284974871544776e-10 -1.3083136657742217e-09 5.290908803782253e-06 3.0292265667553277e-10 -2.8195743726572183e-05 6.0188769190828329e-06 1.4988465809846372e-10 -1.8056148385179352e-05 4.575642100945247e-06 2.427042884177473e-10 -1.3726869609934098e-05 9.8868894304744445e-06 3.1776116484188113e-10 -1.764372433131501e-05 5.290908803782253e-06 3.0292265667553277e-10 -2.8195743726572183e-05 -1.9947104564599836e-14 2.0823085664388097e-10 -1.3726822328809099e-05 6.0188769190828338e-06 1.4988465809846375e-10 -1.8056148385179352e-05 4.575642100945247e-06 2.427042884177473e-10 -1.3726869609934098e-05 6.0188769190828338e-06 1.4988465809846375e-10 -1.8056148385179352e-05 9.8868894304744445e-06 3.1776116484188119e-10 -1.7643724331315007e-05 1.1203451606077512e-05 1.2353366061760094e-10 -2.8153593521898133e-05 1.6530680954114537e-05 2.1298659541767512e-10 -1.9526977369434394e-05 6.0188769190828338e-06 1.4988465809846375e-10 -1.8056148385179352e-05 9.709151821875072e-06 2.284974871544776e-10 -1.3083136657732274e-09 1.1203451606077513e-05 1.2353366061760089e-10 -2.8153593521898126e-05 1.6530680954114537e-05 2.1298659541767512e-10 -1.9526977369434394e-05 6.0188769190828338e-06 1.4988465809846375e-10 -1.8056148385179352e-05 9.8868894304744462e-06 3.1776116484188113e-10 -1.764372433131501e-05 9.709151821875072e-06 2.2849748715447762e-10 -1.308313665778212e-09 1.6530680954114537e-05 2.1298659541767512e-10 -1.9526977369434394e-05 6.2503644258836607e-06 3.4404627738660323e-10 -1.3290125393576313e-09 9.8868894304744445e-06 3.1776116484188113e-10 -1.764372433131501e-05 9.709151821875072e-06 2.284974871544776e-10 -1.3083136657754561e-09 1.2500852761476331e-05 4.0628073614200549e-10 -1.5504548859750781e-09 9.8868894304744445e-06 3.1776116484188113e-10 -1.764372433131501e-05 9.709151821875072e-06 2.284974871544776e-10 -1.3083136657754561e-09 1.5877133037576836e-05 2.5337478892480677e-10 -1.2694692855341523e-09 1.6530680954114537e-05 2.1298659541767512e-10 -1.9526977369434394e-05 9.709151821875072e-06 2.284974871544776e-10 -1.3083136657754561e-09 1.4271139890881864e-05 1.2163059668838328e-10 -9.9612550192031775e-10 1.5877133037576836e-05 2.5337478892480677e-10 -1.2694692855341523e-09 1.6530680954114537e-05 2.1298659541767512e-10 -1.9526977369434397e-05 9.8868894304744445e-06 3.1776116484188113e-10 -1.764372433131501e-05 1.2500852761476331e-05 4.0628073614200549e-10 -1.5504548859750781e-09 1.5980306642777948e-05 2.9924298815785991e-10 -1.5348511968892583e-05 1.5877133037576836e-05 2.5337478892480677e-10 -1.2694692855341523e-09 9.8868894304744445e-06 3.1776116484188113e-10 -1.764372433131501e-05 9.709151821875072e-06 2.2849748715447755e-10 -1.3083136657794716e-09 1.2500852761476331e-05 4.0628073614200549e-10 -1.5504548859750781e-09 1.5877133037576836e-05 2.5337478892480677e-10 -1.2694692855341523e-09 9.8868894304744445e-06 3.1776116484188113e-10 -1.764372433131501e-05 1.4319778842730971e-05 2.4238438236932415e-10 -2.9091543787619751e-05 1.5980306642777948e-05 2.9924298815785991e-10 -1.5348511968892583e-05 1.6530680954114537e-05 2.1298659541767512e-10 -1.9526977369434394e-05 9.8868894304744445e-06 3.1776116484188113e-10 -1.764372433131501e-05 1.5980306642777948e-05 2.9924298815785991e-10 -1.5348511968892583e-05 1.5877133037576836e-05 2.5337478892480682e-10 -1.2694692855331483e-09 1.6530680954114537e-05 2.1298659541767512e-10 -1.9526977369434394e-05 7.0370189175574168e-06 1.8515466585711992e-10 -4.5175736099429796e-05 1.0290256477502129e-05 3.5333082013808337e-10 -3.7140415860400634e-05 1.1203451606077512e-05 1.2353366061760094e-10 -2.8153593521898126e-05 1.5621076143583173e-05 1.5831230713883465e-10 -4.9657000194535871e-05 7.0370189175574168e-06 1.8515466585711992e-10 -4.5175736099429796e-05 6.0188769190828313e-06 1.4988465809846377e-10 -1.8056148385179345e-05 1.029025647750213e-05 3.5333082013808337e-10 -3.714041586040064e-05 1.1203451606077513e-05 1.2353366061760094e-10 -2.8153593521898129e-05 9.8868894304744445e-06 3.1776116484188113e-10 -1.764372433131501e-05 1.4319778842730971e-05 2.4238438236932415e-10 -2.9091543787619751e-05 1.029025647750213e-05 3.5333082013808337e-10 -3.7140415860400634e-05 1.1203451606077512e-05 1.2353366061760086e-10 -2.8153593521898126e-05 9.8868894304744445e-06 3.1776116484188113e-10 -1.764372433131501e-05 1.4319778842730971e-05 2.4238438236932415e-10 -2.9091543787619751e-05 1.1203451606077512e-05 1.2353366061760086e-10 -2.8153593521898126e-05 1.6530680954114533e-05 2.1298659541767506e-10 -1.9526977369434404e-05 6.0188769190828338e-06 1.4988465809846375e-10 -1.8056148385179352e-05 9.8868894304744445e-06 3.1776116484188113e-10 -1.764372433131501e-05 1.0290256477502129e-05 3.5333082013808337e-10 -3.7140415860400634e-05 1.1203451606077513e-05 1.2353366061760092e-10 -2.8153593521898122e-05 1.4319778842730971e-05 2.4238438236932415e-10 -2.9091543787619751e-05 1.1203451606077513e-05 1.2353366061760092e-10 -2.8153593521898133e-05 1.6530680954114537e-05 2.1298659541767512e-10 -1.9526977369434394e-05 1.562107614358317e-05 1.583123071388346e-10 -4.9657000194535871e-05 1.4319778842730971e-05 2.4238438236932415e-10 -2.9091543787619751e-05 1.029025647750213e-05 3.5333082013808337e-10 -3.7140415860400634e-05 1.1203451606077513e-05 1.2353366061760089e-10 -2.8153593521898126e-05 1.562107614358317e-05 1.5831230713883463e-10 -4.9657000194535864e-05 5.290908803782253e-06 3.0292265667553277e-10 -2.8195743726572183e-05 6.0188769190828329e-06 1.4988465809846372e-10 -1.8056148385179352e-05 9.8868894304744445e-06 3.1776116484188113e-10 -1.764372433131501e-05 1.029025647750213e-05 3.5333082013808337e-10 -3.7140415860400634e-05 7.0370189175574168e-06 1.8515466585711992e-10 -4.5175736099429796e-05 5.383534899916077e-06 3.3029254116894145e-10 -4.6721921269590151e-05 1.0290256477502129e-05 3.5333082013808337e-10 -3.7140415860400627e-05 1.0140744429618875e-05 3.6841823347936705e-10 -5.6268861464972468e-05 1.4319778842730971e-05 2.4238438236932415e-10 -2.9091543787619751e-05 1.029025647750213e-05 3.5333082013808337e-10 -3.7140415860400634e-05 1.6239093534900462e-05 3.1638350014144791e-10 -4.6875224519034028e-05 1.5621076143583173e-05 1.5831230713883465e-10 -4.9657000194535871e-05 7.74091192846336e-06 2.1079606229583793e-11 -4.2280071442435147e-05 7.0370189175574168e-06 1.8515466585711992e-10 -4.5175736099429796e-05 1.1203451606077512e-05 1.2353366061760094e-10 -2.8153593521898126e-05 1.5621076143583173e-05 1.5831230713883468e-10 -4.9657000194535871e-05 7.74091192846336e-06 2.1079606229583793e-11 -4.2280071442435147e-05 1.1203451606077512e-05 1.2353366061760097e-10 -2.8153593521898129e-05 1.563868604092203e-05 -2.1099358163873615e-11 -2.3403614258015169e-05 1.5626080314932584e-05 -1.8184049082219212e-12 -4.6875184481376133e-05 7.74091192846336e-06 2.1079606229583793e-11 -4.2280071442435147e-05 1.1203451606077513e-05 1.2353366061760094e-10 -2.8153593521898126e-05 1.5626080314932584e-05 -1.8184049082219269e-12 -4.6875184481376153e-05 1.5621076143583173e-05 1.5831230713883458e-10 -4.9657000194535857e-05 6.9835818880048085e-06 1.0422261339003469e-11 -2.0950096528234435e-05 7.74091192846336e-06 2.107960622958379e-11 -4.2280071442435147e-05 1.1203451606077515e-05 1.2353366061760094e-10 -2.8153593521898126e-05 1.563868604092203e-05 -2.1099358163873647e-11 -2.3403614258015159e-05 6.9835818880048085e-06 1.0422261339003469e-11 -2.0950096528234435e-05 1.1203451606077513e-05 1.2353366061760094e-10 -2.8153593521898126e-05 1.0140263871337481e-05 6.7693670880692413e-11 -1.4693963860034346e-09 1.563868604092203e-05 -2.1099358163873647e-11 -2.3403614258015159e-05 9.709151821875072e-06 2.284974871544776e-10 -1.3083136657754561e-09 1.1203451606077513e-05 1.2353366061760092e-10 -2.8153593521898133e-05 1.0140263871337481e-05 6.7693670880692374e-11 -1.469396386002605e-09 1.4271139890881862e-05 1.2163059668838328e-10 -9.9612550191719452e-10 6.9835818880048085e-06 1.0422261339003469e-11 -2.0950096528234435e-05 6.0188769190828304e-06 1.4988465809846377e-10 -1.8056148385179349e-05 1.1203451606077513e-05 1.2353366061760094e-10 -2.8153593521898126e-05 1.0140263871337483e-05 6.76936708806924e-11 -1.46939638600297e-09 1.1203451606077513e-05 1.2353366061760094e-10 -2.8153593521898126e-05 1.0140263871337483e-05 6.76936708806924e-11 -1.4693963860035298e-09 1.4271139890881862e-05 1.2163059668838328e-10 -9.9612550191719452e-10 1.563868604092203e-05 -2.1099358163873647e-11 -2.3403614258015159e-05 6.0188769190828338e-06 1.4988465809846375e-10 -1.8056148385179352e-05 9.709151821875072e-06 2.284974871544776e-10 -1.3083136657758595e-09 1.1203451606077513e-05 1.2353366061760097e-10 -2.8153593521898129e-05 1.0140263871337483e-05 6.76936708806924e-11 -1.4693963860035298e-09 9.709151821875072e-06 2.284974871544776e-10 -1.3083136657754561e-09 1.1203451606077515e-05 1.2353366061760099e-10 -2.8153593521898129e-05 1.4271139890881862e-05 1.2163059668838328e-10 -9.9612550191719452e-10 1.6530680954114537e-05 2.1298659541767512e-10 -1.9526977369434397e-05 1.1203451606077513e-05 1.2353366061760094e-10 -2.8153593521898126e-05 1.4271139890881862e-05 1.2163059668838328e-10 -9.9612550191719452e-10 1.6530680954114537e-05 2.1298659541767512e-10 -1.9526977369434394e-05 1.563868604092203e-05 -2.1099358163873647e-11 -2.3403614258015159e-05 1.0289842991704127e-05 -7.4728679570966513e-11 -1.4010520735037672e-09 5.3835234460625567e-06 -1.0613557804275507e-11 -1.3238136754059092e-09 6.9835818880048085e-06 1.0422261339003465e-11 -2.0950096528234435e-05 1.0140263871337483e-05 6.76936708806924e-11 -1.4693963860035298e-09 1.0140263871337483e-05 6.76936708806924e-11 -1.4693963860035298e-09 1.4271139890881862e-05 1.2163059668838328e-10 -9.9612550191719452e-10 1.6239127197677529e-05 2.3256091038087936e-11 -1.3010129882855659e-09 1.563868604092203e-05 -2.1099358163873647e-11 -2.3403614258015159e-05 1.8733838848007297e-05 1.1126887404592947e-10 -9.9364040153588416e-10 2.2727343739128461e-05 8.5603175456916849e-11 -8.3438954484529416e-10 2.1394113764982246e-05 1.2777955028263069e-10 -2.9153124341201394e-05 2.4287077722179563e-05 -3.0293808834477264e-11 -2.0414469344935785e-05 1.8733838848007297e-05 1.1126887404592947e-10 -9.9364040153588416e-10 2.1394113764982249e-05 1.2777955028263072e-10 -2.9153124341201391e-05 2.4287077722179559e-05 -3.0293808834477264e-11 -2.0414469344935785e-05 1.563868604092203e-05 -2.1099358163873647e-11 -2.3403614258015159e-05 1.4271139890881862e-05 1.2163059668838328e-10 -9.9612550191719452e-10 1.8733838848007297e-05 1.1126887404592947e-10 -9.9364040153614286e-10 1.6530680954114533e-05 2.1298659541767509e-10 -1.9526977369434391e-05 1.563868604092203e-05 -2.109935816387368e-11 -2.3403614258015162e-05 1.6239127197677529e-05 2.3256091038087914e-11 -1.3010129882827705e-09 1.8733838848007297e-05 1.1126887404592947e-10 -9.9364040153589368e-10 2.1039071816155426e-05 -7.7462011303038458e-12 -1.0244491804348269e-09 1.563868604092203e-05 -2.1099358163873647e-11 -2.3403614258015159e-05 1.8733838848007297e-05 1.1126887404592947e-10 -9.9364040153588416e-10 2.1394113764982246e-05 1.2777955028263069e-10 -2.9153124341201391e-05 1.6530680954114533e-05 2.1298659541767514e-10 -1.9526977369434397e-05 1.563868604092203e-05 -2.1099358163873615e-11 -2.3403614258015159e-05 1.8733838848007297e-05 1.1126887404592947e-10 -9.9364040153588416e-10 2.4287077722179559e-05 -3.0293808834477296e-11 -2.0414469344935781e-05 2.1039071816155426e-05 -7.7462011303038458e-12 -1.0244491804348676e-09 1.563868604092203e-05 -2.1099358163873647e-11 -2.3403614258015159e-05 1.8733838848007297e-05 1.1126887404592947e-10 -9.9364040153588416e-10 2.1394113764982249e-05 1.2777955028263064e-10 -2.9153124341201394e-05 1.6530680954114537e-05 2.1298659541767519e-10 -1.9526977369434394e-05 2.5496154318880714e-05 1.9982534251961117e-10 -1.7328678833984783e-05 1.4271139890881862e-05 1.2163059668838328e-10 -9.9612550191719452e-10 1.6239127197677529e-05 2.3256091038087914e-11 -1.3010129882827705e-09 1.8733838848007297e-05 1.1126887404592947e-10 -9.9364040153588416e-10 1.563868604092203e-05 -2.1099358163873651e-11 -2.3403614258015166e-05 1.8733838848007297e-05 1.1126887404592947e-10 -9.9364040153588416e-10 2.2727343739128461e-05 8.5603175456916874e-11 -8.3438954484415668e-10 2.1394113764982246e-05 1.2777955028263074e-10 -2.9153124341201391e-05 2.5496154318880714e-05 1.9982534251961114e-10 -1.7328678833984783e-05 1.4271139890881862e-05 1.2163059668838328e-10 -9.9612550191719452e-10 1.8733838848007297e-05 1.1126887404592947e-10 -9.9364040153574065e-10 1.5877133037576836e-05 2.5337478892480677e-10 -1.269469285535714e-09 1.6530680954114537e-05 2.1298659541767512e-10 -1.9526977369434391e-05 1.8733838848007297e-05 1.1126887404592947e-10 -9.9364040153588416e-10 2.2727343739128461e-05 8.5603175456916887e-11 -8.3438954484368105e-10 2.2045997096802324e-05 1.6380920841464725e-10 -1.2740149891175899e-09 2.5496154318880714e-05 1.9982534251961114e-10 -1.7328678833984783e-05 1.8733838848007297e-05 1.1126887404592947e-10 -9.9364040153588416e-10 2.2727343739128461e-05 8.5603175456916874e-11 -8.3438954484657257e-10 2.4287077722179556e-05 -3.0293808834477354e-11 -2.0414469344935781e-05 2.1039071816155426e-05 -7.7462011303038458e-12 -1.0244491804348676e-09 1.1203451606077513e-05 1.2353366061760094e-10 -2.8153593521898126e-05 2.1394113764982246e-05 1.2777955028263069e-10 -2.9153124341201394e-05 1.6530680954114537e-05 2.1298659541767512e-10 -1.9526977369434394e-05 1.563868604092203e-05 -2.1099358163873647e-11 -2.3403614258015159e-05 1.1203451606077513e-05 1.2353366061760094e-10 -2.8153593521898126e-05 2.1394113764982246e-05 1.2777955028263069e-10 -2.9153124341201394e-05 1.5626080314932584e-05 -1.8184049082219061e-12 -4.6875184481376147e-05 1.5621076143583173e-05 1.5831230713883465e-10 -4.9657000194535871e-05 1.1203451606077513e-05 1.2353366061760094e-10 -2.8153593521898126e-05 2.1394113764982246e-05 1.2777955028263069e-10 -2.9153124341201394e-05 1.563868604092203e-05 -2.1099358163873647e-11 -2.3403614258015156e-05 1.5626080314932584e-05 -1.8184049082219023e-12 -4.6875184481376153e-05 2.1394113764982246e-05 1.2777955028263069e-10 -2.9153124341201394e-05 2.3453171142800527e-05 1.7450436009827372e-11 -4.6722107160600778e-05 1.5638686040922034e-05 -2.1099358163873683e-11 -2.3403614258015156e-05 1.5626080314932584e-05 -1.8184049082219061e-12 -4.6875184481376147e-05 2.1394113764982246e-05 1.2777955028263069e-10 -2.9153124341201394e-05 2.4181251484316052e-05 2.101197654825955e-10 -4.6715031483825681e-05 2.3453171142800527e-05 1.7450436009827372e-11 -4.6722107160600778e-05 1.5621076143583173e-05 1.5831230713883465e-10 -4.9657000194535871e-05 2.1394113764982246e-05 1.2777955028263069e-10 -2.9153124341201394e-05 2.3453171142800524e-05 1.7450436009827382e-11 -4.6722107160600778e-05 2.4287077722179559e-05 -3.0293808834477322e-11 -2.0414469344935785e-05 1.5638686040922027e-05 -2.109935816387368e-11 -2.3403614258015156e-05 1.1203451606077513e-05 1.2353366061760094e-10 -2.8153593521898126e-05 2.1394113764982246e-05 1.2777955028263069e-10 -2.9153124341201394e-05 1.6530680954114537e-05 2.1298659541767512e-10 -1.9526977369434394e-05 1.5621076143583173e-05 1.5831230713883465e-10 -4.9657000194535871e-05 2.1394113764982246e-05 1.2777955028263069e-10 -2.9153124341201394e-05 2.3453171142800527e-05 1.7450436009827372e-11 -4.6722107160600778e-05 1.5626080314932584e-05 -1.8184049082219061e-12 -4.6875184481376147e-05 1.5621076143583173e-05 1.5831230713883465e-10 -4.9657000194535871e-05 2.1394113764982246e-05 1.2777955028263069e-10 -2.9153124341201394e-05 1.9085232139849818e-05 3.3586129515060151e-10 -3.1057879549321563e-05 1.6530680954114537e-05 2.1298659541767512e-10 -1.9526977369434397e-05 2.5496154318880714e-05 1.9982534251961114e-10 -1.7328678833984783e-05 2.1394113764982246e-05 1.2777955028263069e-10 -2.9153124341201394e-05 1.9085232139849821e-05 3.3586129515060151e-10 -3.105787954932157e-05 2.4181251484316056e-05 2.1011976548259553e-10 -4.6715031483825681e-05 1.5621076143583173e-05 1.5831230713883465e-10 -4.9657000194535871e-05 1.9085232139849821e-05 3.3586129515060151e-10 -3.105787954932157e-05 2.4181251484316052e-05 2.101197654825955e-10 -4.6715031483825681e-05 2.1326566786003424e-05 3.7196031928718952e-10 -4.9040896565364076e-05 1.5621076143583177e-05 1.5831230713883471e-10 -4.9657000194535864e-05 2.1394113764982246e-05 1.2777955028263069e-10 -2.9153124341201394e-05 1.9085232139849821e-05 3.3586129515060151e-10 -3.105787954932157e-05 2.5496154318880714e-05 1.9982534251961114e-10 -1.7328678833984783e-05 2.5861640079879584e-05 3.7042012577159794e-10 -2.9445383330166607e-05 1.4319778842730971e-05 2.4238438236932415e-10 -2.9091543787619751e-05 1.9085232139849821e-05 3.3586129515060151e-10 -3.105787954932157e-05 1.6530680954114537e-05 2.1298659541767512e-10 -1.9526977369434394e-05 1.5621076143583173e-05 1.5831230713883465e-10 -4.9657000194535871e-05 2.1394113764982246e-05 1.2777955028263069e-10 -2.9153124341201394e-05 1.9085232139849821e-05 3.3586129515060151e-10 -3.105787954932157e-05 2.586164007987958e-05 3.7042012577159799e-10 -2.9445383330166593e-05 2.4181251484316052e-05 2.101197654825955e-10 -4.6715031483825681e-05 2.1394113764982246e-05 1.2777955028263069e-10 -2.9153124341201394e-05 1.9085232139849818e-05 3.3586129515060151e-10 -3.1057879549321563e-05 1.6530680954114537e-05 2.1298659541767509e-10 -1.9526977369434397e-05 1.5621076143583173e-05 1.5831230713883465e-10 -4.9657000194535871e-05 1.6239093534900462e-05 3.1638350014144791e-10 -4.6875224519034028e-05 1.9085232139849821e-05 3.3586129515060151e-10 -3.105787954932157e-05 2.1326566786003424e-05 3.7196031928718952e-10 -4.9040896565364076e-05 1.5621076143583173e-05 1.5831230713883463e-10 -4.9657000194535878e-05 1.4319778842730971e-05 2.4238438236932415e-10 -2.9091543787619751e-05 1.6239093534900462e-05 3.1638350014144791e-10 -4.6875224519034028e-05 1.9085232139849821e-05 3.3586129515060151e-10 -3.105787954932157e-05 1.5621076143583173e-05 1.5831230713883465e-10 -4.9657000194535871e-05 1.9085232139849821e-05 3.3586129515060151e-10 -3.105787954932157e-05 2.586164007987958e-05 3.7042012577159799e-10 -2.94453833301666e-05 2.4181251484316052e-05 2.101197654825955e-10 -4.6715031483825681e-05 2.1326566786003424e-05 3.7196031928718952e-10 -4.9040896565364076e-05 1.4319778842730971e-05 2.4238438236932415e-10 -2.9091543787619751e-05 1.9085232139849821e-05 3.3586129515060151e-10 -3.105787954932157e-05 1.5980306642777948e-05 2.9924298815785991e-10 -1.5348511968892583e-05 1.6530680954114537e-05 2.1298659541767512e-10 -1.9526977369434394e-05 1.9085232139849821e-05 3.3586129515060151e-10 -3.105787954932157e-05 1.5980306642777948e-05 2.9924298815785986e-10 -1.5348511968892579e-05 1.6530680954114537e-05 2.1298659541767517e-10 -1.9526977369434394e-05 2.1872925734957499e-05 3.0349008749846241e-10 -1.5880620160234385e-05 1.9085232139849821e-05 3.3586129515060151e-10 -3.105787954932157e-05 1.653068095411454e-05 2.1298659541767512e-10 -1.9526977369434394e-05 2.1872925734957499e-05 3.0349008749846241e-10 -1.5880620160234385e-05 2.5496154318880714e-05 1.9982534251961114e-10 -1.7328678833984783e-05 1.6530680954114537e-05 2.1298659541767512e-10 -1.9526977369434394e-05 2.2045997096802321e-05 1.6380920841464722e-10 -1.2740149891138868e-09 2.1872925734957499e-05 3.0349008749846241e-10 -1.5880620160234385e-05 2.5496154318880714e-05 1.9982534251961114e-10 -1.7328678833984783e-05 1.5980306642777948e-05 2.9924298815785991e-10 -1.5348511968892583e-05 1.5877133037576836e-05 2.5337478892480677e-10 -1.2694692855341523e-09 1.6530680954114537e-05 2.1298659541767512e-10 -1.9526977369434391e-05 2.1872925734957499e-05 3.0349008749846241e-10 -1.5880620160234385e-05 1.8733838848007297e-05 1.1126887404592947e-10 -9.9364040153588416e-10 1.6530680954114533e-05 2.1298659541767512e-10 -1.9526977369434397e-05 2.2045997096802324e-05 1.6380920841464725e-10 -1.2740149891175899e-09 2.5496154318880714e-05 1.9982534251961114e-10 -1.7328678833984786e-05 1.5980306642777948e-05 2.9924298815785991e-10 -1.5348511968892583e-05 1.8751290520806787e-05 3.6022491175335906e-10 -1.6139353252465322e-09 1.5877133037576836e-05 2.5337478892480677e-10 -1.2694692855341523e-09 2.1872925734957499e-05 3.0349008749846241e-10 -1.5880620160234385e-05 1.2500852761476331e-05 4.0628073614200549e-10 -1.5504548859750781e-09 1.5980306642777945e-05 2.9924298815785991e-10 -1.5348511968892583e-05 1.8751290520806783e-05 3.6022491175335906e-10 -1.6139353252451737e-09 1.5877133037576836e-05 2.5337478892480677e-10 -1.2694692855341523e-09 1.8733838848007297e-05 1.1126887404592947e-10 -9.9364040153588416e-10 1.5877133037576836e-05 2.5337478892480677e-10 -1.2694692855341523e-09 1.6530680954114537e-05 2.1298659541767512e-10 -1.9526977369434397e-05 2.2045997096802324e-05 1.6380920841464725e-10 -1.2740149891175899e-09 1.5877133037576836e-05 2.5337478892480677e-10 -1.2694692855341523e-09 1.6530680954114537e-05 2.1298659541767512e-10 -1.9526977369434394e-05 2.2045997096802324e-05 1.6380920841464725e-10 -1.2740149891175899e-09 2.1872925734957499e-05 3.0349008749846246e-10 -1.5880620160234385e-05 1.8751290520806787e-05 3.6022491175335906e-10 -1.6139353252465322e-09 2.2045997096802324e-05 1.6380920841464722e-10 -1.2740149891166298e-09 2.1872925734957499e-05 3.0349008749846241e-10 -1.5880620160234385e-05 2.5001774448217209e-05 3.0970471563025258e-10 -1.3249301866247078e-09 1.8751290520806787e-05 3.6022491175335906e-10 -1.6139353252465322e-09 1.5877133037576839e-05 2.5337478892480677e-10 -1.2694692855332515e-09 2.2045997096802324e-05 1.6380920841464725e-10 -1.2740149891175899e-09 2.1872925734957499e-05 3.0349008749846241e-10 -1.5880620160234385e-05 1.9085232139849821e-05 3.3586129515060151e-10 -3.105787954932157e-05 2.1872925734957495e-05 3.0349008749846241e-10 -1.5880620160234385e-05 2.5496154318880714e-05 1.9982534251961114e-10 -1.7328678833984783e-05 2.586164007987958e-05 3.7042012577159794e-10 -2.9445383330166597e-05 2.1872925734957499e-05 3.0349008749846241e-10 -1.5880620160234385e-05 2.667652200793317e-05 2.2790085319980675e-10 -1.3726885285624624e-05 2.5496154318880714e-05 1.9982534251961117e-10 -1.7328678833984786e-05 2.586164007987958e-05 3.7042012577159794e-10 -2.9445383330166597e-05 2.1872925734957499e-05 3.0349008749846241e-10 -1.5880620160234385e-05 2.667652200793317e-05 2.2790085319980672e-10 -1.3726885285624622e-05 2.6676489675501472e-05 2.3362744190854299e-10 -9.0107393436113618e-10 2.5496154318880714e-05 1.9982534251961117e-10 -1.7328678833984773e-05 2.667652200793317e-05 2.2790085319980672e-10 -1.3726885285624622e-05 2.5496154318880714e-05 1.9982534251961114e-10 -1.732867883398478e-05 3.1252047674247388e-05 1.9778195180632218e-10 -1.3726880709770141e-05 2.586164007987958e-05 3.7042012577159794e-10 -2.9445383330166597e-05 2.1872925734957499e-05 3.0349008749846241e-10 -1.5880620160234385e-05 2.667652200793317e-05 2.2790085319980672e-10 -1.3726885285624622e-05 2.5001774448217209e-05 3.0970471563025258e-10 -1.3249301866247078e-09 2.6676489675501472e-05 2.3362744190854299e-10 -9.0107393435730065e-10 2.2045997096802324e-05 1.6380920841464725e-10 -1.2740149891175899e-09 2.1872925734957502e-05 3.0349008749846241e-10 -1.5880620160234385e-05 2.5001774448217209e-05 3.0970471563025258e-10 -1.3249301866247078e-09 2.6676489675501472e-05 2.3362744190854299e-10 -9.0107393435730065e-10 2.2045997096802324e-05 1.6380920841464725e-10 -1.2740149891175899e-09 2.6676489675501472e-05 2.3362744190854299e-10 -9.0107393435818056e-10 2.5496154318880717e-05 1.9982534251961117e-10 -1.7328678833984786e-05 2.661855327820801e-05 1.417165046000758e-10 -1.0157388689406792e-09 2.2045997096802324e-05 1.6380920841464725e-10 -1.2740149891175899e-09 2.1872925734957499e-05 3.0349008749846246e-10 -1.5880620160234388e-05 2.6676489675501468e-05 2.3362744190854299e-10 -9.0107393435782115e-10 2.5496154318880714e-05 1.9982534251961117e-10 -1.7328678833984783e-05 2.5496154318880714e-05 1.9982534251961114e-10 -1.7328678833984783e-05 3.1252047674247388e-05 1.9778195180632218e-10 -1.3726880709770139e-05 3.1252017399873634e-05 1.9519848378482511e-10 -2.9126043883794465e-05 3.1251995074788901e-05 1.084319964489222e-10 -1.4904149350053517e-05 2.5496154318880714e-05 1.9982534251961114e-10 -1.7328678833984783e-05 3.1252047674247388e-05 1.9778195180632218e-10 -1.3726880709770143e-05 2.586164007987958e-05 3.7042012577159789e-10 -2.9445383330166593e-05 3.1252017399873634e-05 1.9519848378482511e-10 -2.9126043883794465e-05 2.6676489675501472e-05 2.3362744190854299e-10 -9.0107393435730065e-10 2.5496154318880711e-05 1.9982534251961114e-10 -1.732867883398478e-05 3.1252047674247388e-05 1.9778195180632218e-10 -1.3726880709770141e-05 3.1251943950739815e-05 1.7074123501732128e-10 -1.1794220093882279e-09 2.5496154318880714e-05 1.9982534251961114e-10 -1.7328678833984783e-05 3.1252047674247388e-05 1.9778195180632218e-10 -1.3726880709770139e-05 3.1251943950739815e-05 1.7074123501732126e-10 -1.1794220093979652e-09 3.1251995074788901e-05 1.084319964489222e-10 -1.4904149350053514e-05 2.667652200793317e-05 2.2790085319980672e-10 -1.3726885285624622e-05 2.6676489675501472e-05 2.3362744190854299e-10 -9.0107393435688302e-10 2.5496154318880717e-05 1.9982534251961111e-10 -1.7328678833984786e-05 3.1252047674247388e-05 1.9778195180632218e-10 -1.3726880709770141e-05 2.6676489675501472e-05 2.3362744190854299e-10 -9.0107393435730065e-10 2.5496154318880714e-05 1.9982534251961111e-10 -1.732867883398478e-05 3.1251943950739815e-05 1.7074123501732128e-10 -1.1794220093882279e-09 2.661855327820801e-05 1.417165046000758e-10 -1.0157388689406792e-09 2.667652200793317e-05 2.2790085319980672e-10 -1.3726885285624622e-05 2.6676489675501472e-05 2.3362744190854299e-10 -9.0107393435730065e-10 3.1252047674247388e-05 1.9778195180632218e-10 -1.3726880709770141e-05 3.125188113215408e-05 3.393148123612595e-10 -1.3634905268142883e-09 2.667652200793317e-05 2.2790085319980672e-10 -1.3726885285624622e-05 3.1252047674247388e-05 1.9778195180632218e-10 -1.3726880709770141e-05 3.125188113215408e-05 3.393148123612595e-10 -1.3634905268142883e-09 3.1251926816630945e-05 3.1732688150635647e-10 -1.8750869844110838e-05 2.6676489675501472e-05 2.3362744190854299e-10 -9.0107393435730065e-10 3.1252047674247388e-05 1.9778195180632218e-10 -1.3726880709770139e-05 3.1251943950739815e-05 1.7074123501732128e-10 -1.1794220093882279e-09 3.125188113215408e-05 3.393148123612595e-10 -1.3634905268142883e-09 2.667652200793317e-05 2.2790085319980672e-10 -1.3726885285624622e-05 2.5001774448217209e-05 3.0970471563025258e-10 -1.3249301866247078e-09 2.6676489675501475e-05 2.3362744190854299e-10 -9.0107393435654595e-10 3.125188113215408e-05 3.393148123612595e-10 -1.3634905268142883e-09 2.667652200793317e-05 2.2790085319980672e-10 -1.3726885285624622e-05 3.1252047674247388e-05 1.9778195180632218e-10 -1.3726880709770141e-05 3.1251926816630945e-05 3.1732688150635647e-10 -1.8750869844110838e-05 2.586164007987958e-05 3.7042012577159794e-10 -2.9445383330166597e-05 3.1252047674247388e-05 1.9778195180632218e-10 -1.3726880709770141e-05 3.1251926816630938e-05 3.1732688150635642e-10 -1.8750869844110838e-05 2.586164007987958e-05 3.7042012577159794e-10 -2.9445383330166593e-05 3.1252017399873634e-05 1.9519848378482511e-10 -2.9126043883794465e-05 3.1251926816630945e-05 3.1732688150635647e-10 -1.8750869844110838e-05 2.586164007987958e-05 3.7042012577159794e-10 -2.9445383330166597e-05 3.1251943104064336e-05 2.985970859556621e-10 -3.7500499194013576e-05 3.1252017399873634e-05 1.9519848378482511e-10 -2.9126043883794465e-05 2.1394113764982246e-05 1.2777955028263069e-10 -2.9153124341201394e-05 2.5496154318880714e-05 1.9982534251961114e-10 -1.7328678833984783e-05 2.586164007987958e-05 3.7042012577159794e-10 -2.9445383330166597e-05 2.4181251484316052e-05 2.101197654825955e-10 -4.6715031483825681e-05 2.5496154318880714e-05 1.9982534251961114e-10 -1.7328678833984783e-05 2.5861640079879584e-05 3.7042012577159784e-10 -2.9445383330166593e-05 2.4181251484316056e-05 2.101197654825955e-10 -4.6715031483825681e-05 3.1252017399873634e-05 1.9519848378482511e-10 -2.9126043883794465e-05 2.1394113764982246e-05 1.2777955028263069e-10 -2.9153124341201394e-05 2.5496154318880714e-05 1.9982534251961114e-10 -1.7328678833984783e-05 2.4181251484316049e-05 2.1011976548259571e-10 -4.6715031483825674e-05 3.1252017399873634e-05 1.9519848378482503e-10 -2.9126043883794461e-05 2.586164007987958e-05 3.7042012577159794e-10 -2.9445383330166597e-05 2.4181251484316052e-05 2.101197654825955e-10 -4.6715031483825681e-05 3.1252017399873634e-05 1.9519848378482511e-10 -2.9126043883794465e-05 2.7115119147521446e-05 3.0053750879745687e-10 -4.7445441774463911e-05 2.586164007987958e-05 3.7042012577159794e-10 -2.9445383330166597e-05 2.4181251484316052e-05 2.101197654825955e-10 -4.6715031483825681e-05 2.7115119147521446e-05 3.0053750879745687e-10 -4.7445441774463911e-05 2.1326566786003424e-05 3.7196031928718952e-10 -4.9040896565364076e-05 2.586164007987958e-05 3.7042012577159794e-10 -2.9445383330166597e-05 3.1251943104064336e-05 2.985970859556621e-10 -3.7500499194013583e-05 3.1252017399873634e-05 1.9519848378482511e-10 -2.9126043883794465e-05 2.7115119147521446e-05 3.0053750879745687e-10 -4.7445441774463911e-05 3.1251943104064336e-05 2.985970859556621e-10 -3.7500499194013576e-05 3.1252017399873634e-05 1.9519848378482511e-10 -2.9126043883794465e-05 3.1251967302286226e-05 2.0129947164072684e-10 -4.7628452021229466e-05 2.7115119147521446e-05 3.0053750879745687e-10 -4.7445441774463911e-05 2.4181251484316052e-05 2.101197654825955e-10 -4.6715031483825681e-05 3.1252017399873634e-05 1.9519848378482513e-10 -2.9126043883794461e-05 3.1251967302286226e-05 2.0129947164072682e-10 -4.7628452021229473e-05 2.7115119147521446e-05 3.0053750879745687e-10 -4.7445441774463911e-05 2.4181251484316052e-05 2.101197654825955e-10 -4.6715031483825681e-05 3.1252017399873634e-05 1.9519848378482511e-10 -2.9126043883794465e-05 3.1252017182579102e-05 1.2414435653991035e-10 -4.2949481011648235e-05 3.1251967302286226e-05 2.0129947164072684e-10 -4.7628452021229466e-05 2.3453171142800527e-05 1.7450436009827372e-11 -4.6722107160600778e-05 3.1252016366828484e-05 5.3813470564462731e-11 -3.0419309488462643e-05 2.4287077722179563e-05 -3.0293808834477322e-11 -2.0414469344935785e-05 3.1252009906481693e-05 -8.8539073579739045e-11 -3.086809437428326e-05 2.1394113764982246e-05 1.2777955028263069e-10 -2.9153124341201394e-05 3.1252017182579102e-05 1.2414435653991038e-10 -4.2949481011648235e-05 2.3453171142800527e-05 1.7450436009827372e-11 -4.6722107160600778e-05 3.1252016366828484e-05 5.3813470564462789e-11 -3.0419309488462643e-05 2.1394113764982246e-05 1.2777955028263069e-10 -2.9153124341201394e-05 2.4181251484316052e-05 2.1011976548259548e-10 -4.6715031483825681e-05 3.1252017399873634e-05 1.9519848378482508e-10 -2.9126043883794461e-05 3.1252017182579102e-05 1.2414435653991041e-10 -4.2949481011648235e-05 2.1394113764982246e-05 1.2777955028263069e-10 -2.9153124341201394e-05 2.4181251484316052e-05 2.101197654825955e-10 -4.6715031483825681e-05 3.1252017182579102e-05 1.2414435653991041e-10 -4.2949481011648235e-05 2.3453171142800527e-05 1.7450436009827372e-11 -4.6722107160600778e-05 2.1394113764982246e-05 1.2777955028263069e-10 -2.9153124341201394e-05 3.1252017399873634e-05 1.9519848378482518e-10 -2.9126043883794472e-05 3.1252017182579102e-05 1.2414435653991041e-10 -4.2949481011648235e-05 3.1252016366828484e-05 5.3813470564462789e-11 -3.0419309488462643e-05 2.1394113764982246e-05 1.2777955028263069e-10 -2.9153124341201394e-05 2.3453171142800524e-05 1.7450436009827385e-11 -4.6722107160600778e-05 3.1252016366828484e-05 5.3813470564462763e-11 -3.041930948846264e-05 2.4287077722179559e-05 -3.0293808834477328e-11 -2.0414469344935781e-05 2.1394113764982246e-05 1.2777955028263069e-10 -2.9153124341201394e-05 2.5496154318880717e-05 1.9982534251961111e-10 -1.7328678833984783e-05 3.1252017399873634e-05 1.9519848378482511e-10 -2.9126043883794465e-05 3.1252016366828484e-05 5.3813470564462782e-11 -3.0419309488462637e-05 2.1394113764982246e-05 1.2777955028263069e-10 -2.9153124341201394e-05 2.5496154318880711e-05 1.9982534251961111e-10 -1.7328678833984786e-05 3.1252016366828484e-05 5.3813470564462776e-11 -3.0419309488462633e-05 2.4287077722179559e-05 -3.0293808834477309e-11 -2.0414469344935792e-05 3.1252017182579102e-05 1.2414435653991041e-10 -4.2949481011648235e-05 2.3453171142800527e-05 1.7450436009827372e-11 -4.6722107160600778e-05 3.1252016366828484e-05 5.3813470564462789e-11 -3.0419309488462643e-05 3.1251919081902878e-05 4.4602924711715812e-13 -4.8714252936347331e-05 2.3453171142800527e-05 1.7450436009827372e-11 -4.6722107160600778e-05 3.1252016366828484e-05 5.3813470564462737e-11 -3.0419309488462647e-05 3.12520099064817e-05 -8.8539073579739045e-11 -3.0868094374283267e-05 3.1251919081902878e-05 4.4602924711715812e-13 -4.8714252936347331e-05 3.1251995074788901e-05 1.084319964489222e-10 -1.4904149350053517e-05 2.4287077722179559e-05 -3.0293808834477328e-11 -2.0414469344935792e-05 2.6311700985521148e-05 4.6086583451171155e-11 -1.1625169561899463e-09 3.1251946240737623e-05 -2.6271235747349281e-11 -1.6150478691981981e-05 2.5496154318880714e-05 1.9982534251961114e-10 -1.7328678833984783e-05 3.1251995074788901e-05 1.084319964489222e-10 -1.4904149350053517e-05 2.4287077722179559e-05 -3.0293808834477316e-11 -2.0414469344935785e-05 2.661855327820801e-05 1.417165046000758e-10 -1.0157388689406792e-09 2.5496154318880714e-05 1.9982534251961114e-10 -1.7328678833984783e-05 3.1252016366828477e-05 5.381347056446275e-11 -3.0419309488462633e-05 3.1251995074788901e-05 1.084319964489222e-10 -1.4904149350053517e-05 2.4287077722179559e-05 -3.0293808834477316e-11 -2.0414469344935785e-05 3.1252016366828484e-05 5.3813470564462789e-11 -3.0419309488462643e-05 3.1251995074788901e-05 1.084319964489222e-10 -1.4904149350053517e-05 2.4287077722179559e-05 -3.0293808834477296e-11 -2.0414469344935785e-05 3.1251946240737623e-05 -2.6271235747349281e-11 -1.6150478691981981e-05 2.2727343739128461e-05 8.5603175456916874e-11 -8.3438954484415668e-10 2.5496154318880714e-05 1.9982534251961114e-10 -1.7328678833984783e-05 2.4287077722179559e-05 -3.0293808834477316e-11 -2.0414469344935785e-05 2.661855327820801e-05 1.417165046000758e-10 -1.0157388689406792e-09 2.2727343739128461e-05 8.5603175456916874e-11 -8.3438954484415668e-10 2.1394113764982246e-05 1.2777955028263067e-10 -2.9153124341201398e-05 2.5496154318880714e-05 1.9982534251961114e-10 -1.7328678833984783e-05 2.4287077722179556e-05 -3.0293808834477296e-11 -2.0414469344935785e-05 2.5496154318880714e-05 1.9982534251961114e-10 -1.7328678833984783e-05 3.1252017399873634e-05 1.9519848378482511e-10 -2.9126043883794465e-05 3.1252016366828484e-05 5.3813470564462841e-11 -3.041930948846264e-05 3.1251995074788901e-05 1.084319964489222e-10 -1.4904149350053517e-05 2.2727343739128461e-05 8.5603175456916874e-11 -8.3438954484415668e-10 2.4287077722179559e-05 -3.0293808834477316e-11 -2.0414469344935785e-05 2.6311700985521148e-05 4.6086583451171155e-11 -1.1625169561959766e-09 2.1039071816155426e-05 -7.7462011303038458e-12 -1.0244491804348676e-09 3.1251995074788901e-05 1.084319964489222e-10 -1.4904149350053517e-05 2.4287077722179556e-05 -3.0293808834477341e-11 -2.0414469344935792e-05 2.6311700985521148e-05 4.6086583451171148e-11 -1.1625169561926143e-09 2.661855327820801e-05 1.4171650460007577e-10 -1.0157388689401368e-09 2.2727343739128461e-05 8.5603175456916874e-11 -8.3438954484415668e-10 2.4287077722179559e-05 -3.0293808834477316e-11 -2.0414469344935785e-05 2.6311700985521148e-05 4.6086583451171155e-11 -1.1625169561959766e-09 2.661855327820801e-05 1.417165046000758e-10 -1.0157388689406792e-09 2.2727343739128461e-05 8.5603175456916874e-11 -8.3438954484415668e-10 2.2045997096802324e-05 1.6380920841464725e-10 -1.2740149891175899e-09 2.5496154318880714e-05 1.9982534251961111e-10 -1.7328678833984783e-05 2.661855327820801e-05 1.417165046000758e-10 -1.0157388689406792e-09 3.1251943950739815e-05 1.7074123501732128e-10 -1.1794220093882279e-09 3.1251995074788894e-05 1.084319964489222e-10 -1.490414935005352e-05 2.661855327820801e-05 1.417165046000758e-10 -1.0157388689406792e-09 3.1251779105553059e-05 9.5770096247727475e-11 -1.3148070120553354e-09 2.5496154318880714e-05 1.9982534251961114e-10 -1.7328678833984783e-05 3.1251943950739808e-05 1.7074123501732123e-10 -1.1794220093916365e-09 3.1251995074788894e-05 1.0843199644892221e-10 -1.4904149350053517e-05 2.661855327820801e-05 1.417165046000758e-10 -1.0157388689406792e-09 3.1251995074788901e-05 1.084319964489222e-10 -1.4904149350053517e-05 2.6311700985521148e-05 4.6086583451171155e-11 -1.1625169561959766e-09 2.661855327820801e-05 1.4171650460007577e-10 -1.0157388689438597e-09 3.1251779105553059e-05 9.5770096247727475e-11 -1.3148070120553354e-09 3.1251995074788901e-05 1.084319964489222e-10 -1.4904149350053517e-05 2.6311700985521148e-05 4.6086583451171155e-11 -1.1625169561959766e-09 3.1251779105553059e-05 9.5770096247727475e-11 -1.3148070120553298e-09 3.1251946240737623e-05 -2.6271235747349281e-11 -1.6150478691981981e-05 2.6311700985521148e-05 4.6086583451171155e-11 -1.1625169561959766e-09 3.1251779105553059e-05 9.5770096247727475e-11 -1.3148070120553354e-09 3.1251739442848358e-05 -2.6622672225589888e-11 -1.5970008727662209e-09 3.1251946240737623e-05 -2.6271235747349281e-11 -1.6150478691981981e-05 3.12519936360103e-05 -8.4147187426692459e-11 -1.5872649875518799e-05 2.5264151485486861e-05 -1.3032927135313067e-10 -1.4003688676710892e-09 2.6676464160308066e-05 -1.7375245762034124e-10 -9.894349422908416e-10 2.1494439294210801e-05 -1.2730347763286764e-10 -2.9406957153264117e-05 2.6311700985521148e-05 4.6086583451171155e-11 -1.1625169561959766e-09 3.1251739442848358e-05 -2.6622672225589888e-11 -1.5970008727662209e-09 3.1251946240737623e-05 -2.6271235747349268e-11 -1.6150478691981981e-05 2.5264151485486861e-05 -1.3032927135313064e-10 -1.4003688676670081e-09 3.1251739442848358e-05 -2.6622672225589888e-11 -1.5970008727662209e-09 3.1251946240737623e-05 -2.6271235747349281e-11 -1.6150478691981981e-05 3.12519936360103e-05 -8.4147187426692459e-11 -1.5872649875518799e-05 2.5264151485486861e-05 -1.3032927135313064e-10 -1.4003688676670081e-09 2.4287077722179559e-05 -3.0293808834477316e-11 -2.0414469344935785e-05 3.12519936360103e-05 -8.414718742669242e-11 -1.5872649875518806e-05 2.5264151485486861e-05 -1.3032927135313064e-10 -1.4003688676663824e-09 2.1494439294210804e-05 -1.2730347763286764e-10 -2.9406957153264121e-05 2.4287077722179559e-05 -3.0293808834477316e-11 -2.0414469344935785e-05 2.6311700985521148e-05 4.6086583451171084e-11 -1.1625169561958155e-09 2.5264151485486858e-05 -1.3032927135313059e-10 -1.4003688676609621e-09 2.1039071816155426e-05 -7.7462011303038458e-12 -1.0244491804348676e-09 2.4287077722179559e-05 -3.0293808834477316e-11 -2.0414469344935785e-05 2.6311700985521148e-05 4.608658345117109e-11 -1.1625169561973278e-09 3.1251946240737623e-05 -2.627123574734931e-11 -1.6150478691981981e-05 2.5264151485486861e-05 -1.3032927135313059e-10 -1.4003688676630044e-09 2.4287077722179559e-05 -3.0293808834477316e-11 -2.0414469344935785e-05 3.1251946240737623e-05 -2.6271235747349281e-11 -1.6150478691981981e-05 3.12519936360103e-05 -8.4147187426692459e-11 -1.5872649875518803e-05 2.5264151485486861e-05 -1.3032927135313064e-10 -1.4003688676670081e-09 2.4287077722179559e-05 -3.0293808834477316e-11 -2.0414469344935785e-05 3.1251946240737623e-05 -2.6271235747349281e-11 -1.6150478691981981e-05 3.12519936360103e-05 -8.4147187426692498e-11 -1.5872649875518803e-05 3.12520099064817e-05 -8.8539073579739084e-11 -3.0868094374283267e-05 3.1251739442848358e-05 -2.6622672225589888e-11 -1.5970008727662209e-09 3.12519936360103e-05 -8.4147187426692459e-11 -1.5872649875518799e-05 2.5264151485486861e-05 -1.3032927135313064e-10 -1.4003688676670081e-09 3.1251793801667501e-05 -2.0906050604442182e-10 -1.3635349229501967e-09 3.12519936360103e-05 -8.4147187426692459e-11 -1.5872649875518799e-05 2.5264151485486865e-05 -1.3032927135313067e-10 -1.4003688676713248e-09 3.1251793801667501e-05 -2.0906050604442182e-10 -1.3635349229501967e-09 2.6676464160308066e-05 -1.7375245762034124e-10 -9.8943494229035088e-10 3.12519936360103e-05 -8.4147187426692459e-11 -1.5872649875518799e-05 3.1251793801667501e-05 -2.0906050604442182e-10 -1.3635349229501967e-09 3.1252059710168584e-05 -1.750005534568482e-10 -1.3726916451151628e-05 2.6676464160308066e-05 -1.7375245762034124e-10 -9.8943494229035088e-10 2.667647918221635e-05 -2.2888840537448395e-10 -1.3726865755815383e-05 2.1436489022735347e-05 -3.663013287310961e-10 -1.6171604407132258e-05 2.1494439294210804e-05 -1.2730347763286764e-10 -2.9406957153264121e-05 2.5957303085036502e-05 -3.0337018251437422e-10 -2.814296601061862e-05 2.5264151485486861e-05 -1.3032927135313064e-10 -1.4003688676670081e-09 2.6676464160308066e-05 -1.7375245762034124e-10 -9.8943494229035088e-10 2.168302428165907e-05 -2.2243793358045044e-10 -1.1986876359734041e-09 2.1494439294210804e-05 -1.2730347763286764e-10 -2.9406957153264117e-05 3.12519936360103e-05 -8.4147187426692459e-11 -1.5872649875518799e-05 3.1252059710168584e-05 -1.750005534568482e-10 -1.3726916451151628e-05 2.1494439294210804e-05 -1.2730347763286764e-10 -2.9406957153264121e-05 3.1252014305155664e-05 -1.7159744230385879e-10 -2.9635747849816965e-05 3.12519936360103e-05 -8.4147187426692459e-11 -1.5872649875518799e-05 3.1252059710168584e-05 -1.750005534568482e-10 -1.3726916451151628e-05 2.6676464160308062e-05 -1.7375245762034124e-10 -9.8943494229126987e-10 2.1494439294210811e-05 -1.2730347763286767e-10 -2.9406957153264124e-05 3.1252059710168584e-05 -1.750005534568482e-10 -1.3726916451151628e-05 2.667647918221635e-05 -2.28888405374484e-10 -1.3726865755815386e-05 2.1494439294210804e-05 -1.2730347763286774e-10 -2.9406957153264124e-05 2.5957303085036498e-05 -3.0337018251437417e-10 -2.8142966010618613e-05 3.1252059710168584e-05 -1.750005534568482e-10 -1.3726916451151628e-05 2.667647918221635e-05 -2.2888840537448395e-10 -1.3726865755815385e-05 2.6676464160308066e-05 -1.7375245762034124e-10 -9.8943494229074006e-10 2.1494439294210808e-05 -1.2730347763286767e-10 -2.9406957153264114e-05 2.667647918221635e-05 -2.2888840537448395e-10 -1.3726865755815383e-05 2.6676464160308066e-05 -1.7375245762034124e-10 -9.8943494229035088e-10 2.168302428165907e-05 -2.2243793358045044e-10 -1.1986876359734041e-09 2.1494439294210804e-05 -1.2730347763286764e-10 -2.9406957153264121e-05 3.1252059710168584e-05 -1.750005534568482e-10 -1.3726916451151628e-05 3.1251901867374322e-05 -3.0911602677529585e-10 -1.8750876842459381e-05 2.667647918221635e-05 -2.2888840537448395e-10 -1.3726865755815383e-05 2.5957303085036495e-05 -3.0337018251437417e-10 -2.8142966010618613e-05 3.1252059710168584e-05 -1.750005534568482e-10 -1.3726916451151628e-05 3.1251901867374322e-05 -3.0911602677529585e-10 -1.8750876842459381e-05 2.5957303085036502e-05 -3.0337018251437422e-10 -2.814296601061862e-05 3.1252014305155664e-05 -1.7159744230385879e-10 -2.9635747849816965e-05 3.1251837791739577e-05 -3.3872421470102757e-10 -1.3015570925045468e-09 2.500172592779822e-05 -3.1832516123869157e-10 -1.2118782624975499e-09 2.667647918221635e-05 -2.2888840537448395e-10 -1.3726865755815383e-05 2.6676464160308066e-05 -1.7375245762034124e-10 -9.8943494229035088e-10 3.1252059710168584e-05 -1.750005534568482e-10 -1.3726916451151628e-05 3.1251901867374322e-05 -3.0911602677529585e-10 -1.8750876842459381e-05 3.1251837791739577e-05 -3.3872421470102757e-10 -1.3015570925045468e-09 2.667647918221635e-05 -2.2888840537448395e-10 -1.3726865755815383e-05 3.1251793801667501e-05 -2.0906050604442182e-10 -1.3635349229501967e-09 3.1252059710168584e-05 -1.750005534568482e-10 -1.3726916451151628e-05 3.1251837791739577e-05 -3.3872421470102757e-10 -1.3015570925045468e-09 2.6676464160308066e-05 -1.7375245762034124e-10 -9.8943494229035088e-10 3.1252059710168584e-05 -1.750005534568482e-10 -1.3726916451151628e-05 3.1251837791739571e-05 -3.3872421470102751e-10 -1.3015570925034359e-09 2.667647918221635e-05 -2.2888840537448395e-10 -1.3726865755815383e-05 2.6676464160308066e-05 -1.7375245762034124e-10 -9.8943494229035088e-10 2.500172592779822e-05 -3.1832516123869157e-10 -1.2118782624997715e-09 2.667647918221635e-05 -2.2888840537448395e-10 -1.3726865755815383e-05 2.168302428165907e-05 -2.2243793358045044e-10 -1.1986876359734041e-09 2.1436489022735347e-05 -3.6630132873109615e-10 -1.6171604407132258e-05 2.500172592779822e-05 -3.1832516123869157e-10 -1.2118782624997715e-09 2.667647918221635e-05 -2.2888840537448395e-10 -1.3726865755815383e-05 2.6676464160308066e-05 -1.7375245762034124e-10 -9.8943494229108562e-10 2.168302428165907e-05 -2.2243793358045044e-10 -1.1986876359734041e-09 2.168302428165907e-05 -2.2243793358045044e-10 -1.1986876359734041e-09 2.1436489022735347e-05 -3.6630132873109615e-10 -1.6171604407132258e-05 1.5638557697210226e-05 -2.1717704494322009e-10 -2.1173444485168498e-05 2.1494439294210804e-05 -1.2730347763286764e-10 -2.9406957153264121e-05 2.667647918221635e-05 -2.2888840537448395e-10 -1.3726865755815383e-05 2.168302428165907e-05 -2.2243793358045044e-10 -1.1986876359734041e-09 2.1436489022735347e-05 -3.6630132873109615e-10 -1.6171604407132258e-05 2.1494439294210804e-05 -1.2730347763286764e-10 -2.9406957153264121e-05 2.500172592779822e-05 -3.1832516123869157e-10 -1.2118782624997715e-09 2.168302428165907e-05 -2.2243793358045044e-10 -1.1986876359734041e-09 2.1436489022735347e-05 -3.6630132873109615e-10 -1.6171604407132258e-05 1.8751282394252216e-05 -2.9955861271427599e-10 -1.3680770782465547e-09 1.2500837365116735e-05 -3.2551890321704529e-10 -1.6298269848366478e-09 1.5435971646727832e-05 -3.0158500085417761e-10 -1.2411370088641502e-05 1.8751282394252216e-05 -2.9955861271427599e-10 -1.3680770782465547e-09 1.5928202697904831e-05 -1.9231572627008123e-10 -1.1798400389095041e-09 2.168302428165907e-05 -2.2243793358045044e-10 -1.1986876359734041e-09 2.1436489022735344e-05 -3.6630132873109615e-10 -1.6171604407132255e-05 1.8751282394252216e-05 -2.9955861271427599e-10 -1.3680770782465547e-09 1.5928202697904831e-05 -1.9231572627008123e-10 -1.1798400389095041e-09 1.5435971646727832e-05 -3.0158500085417761e-10 -1.2411370088641502e-05 2.1436489022735347e-05 -3.6630132873109615e-10 -1.6171604407132258e-05 1.8751282394252216e-05 -2.9955861271427599e-10 -1.3680770782465547e-09 1.5928202697904831e-05 -1.9231572627008123e-10 -1.1798400389095041e-09 1.5435971646727832e-05 -3.0158500085417761e-10 -1.2411370088641502e-05 1.4903608652116652e-05 -3.6922572767621058e-10 -2.9757922028204813e-05 2.1436489022735347e-05 -3.6630132873109615e-10 -1.6171604407132258e-05 1.5638557697210226e-05 -2.1717704494322009e-10 -2.1173444485168498e-05 1.5435971646727832e-05 -3.0158500085417761e-10 -1.2411370088641502e-05 2.1436489022735347e-05 -3.6630132873109615e-10 -1.6171604407132258e-05 1.5638557697210226e-05 -2.1717704494322009e-10 -2.1173444485168498e-05 1.5928202697904831e-05 -1.9231572627008123e-10 -1.1798400389095041e-09 2.168302428165907e-05 -2.2243793358045044e-10 -1.1986876359734041e-09 2.1436489022735347e-05 -3.663013287310961e-10 -1.6171604407132258e-05 1.5638557697210226e-05 -2.1717704494322009e-10 -2.1173444485168498e-05 1.5928202697904831e-05 -1.9231572627008123e-10 -1.1798400389095041e-09 2.168302428165907e-05 -2.2243793358045044e-10 -1.1986876359734041e-09 1.5638557697210226e-05 -2.1717704494322009e-10 -2.1173444485168498e-05 1.5928202697904831e-05 -1.9231572627008123e-10 -1.1798400389095041e-09 1.9078466057711832e-05 -1.1014008151078268e-10 -1.1190285352681409e-09 2.4287077722179559e-05 -3.0293808834477316e-11 -2.0414469344935785e-05 2.5264151485486858e-05 -1.3032927135313064e-10 -1.4003688676654768e-09 1.9078466057711832e-05 -1.1014008151078267e-10 -1.1190285352673983e-09 2.1494439294210804e-05 -1.2730347763286764e-10 -2.9406957153264121e-05 2.168302428165907e-05 -2.2243793358045044e-10 -1.1986876359734041e-09 1.5638557697210226e-05 -2.1717704494322009e-10 -2.1173444485168498e-05 1.9078466057711832e-05 -1.1014008151078268e-10 -1.1190285352681409e-09 2.1494439294210804e-05 -1.2730347763286764e-10 -2.9406957153264121e-05 2.5264151485486861e-05 -1.3032927135313064e-10 -1.4003688676670081e-09 2.168302428165907e-05 -2.2243793358045044e-10 -1.1986876359734984e-09 1.9078466057711832e-05 -1.1014008151078268e-10 -1.1190285352681409e-09 2.1494439294210801e-05 -1.2730347763286761e-10 -2.9406957153264117e-05 1.4317302933628927e-05 -1.19661221278181e-10 -1.0177412497314461e-09 1.5638557697210226e-05 -2.1717704494322009e-10 -2.1173444485168498e-05 1.5928202697904831e-05 -1.9231572627008123e-10 -1.1798400389095041e-09 1.9078466057711832e-05 -1.1014008151078268e-10 -1.1190285352681409e-09 1.4317302933628927e-05 -1.19661221278181e-10 -1.0177412497314461e-09 1.5638557697210226e-05 -2.1717704494322009e-10 -2.1173444485168498e-05 1.9078466057711832e-05 -1.1014008151078268e-10 -1.1190285352681409e-09 1.563868604092203e-05 -2.1099358163873647e-11 -2.3403614258015159e-05 2.4287077722179559e-05 -3.0293808834477316e-11 -2.0414469344935785e-05 1.9078466057711832e-05 -1.1014008151078268e-10 -1.1190285352689727e-09 2.1039071816155426e-05 -7.7462011303038458e-12 -1.0244491804348676e-09 1.563868604092203e-05 -2.1099358163873647e-11 -2.3403614258015159e-05 1.5638557697210226e-05 -2.1717704494322009e-10 -2.1173444485168498e-05 1.9078466057711828e-05 -1.1014008151078268e-10 -1.1190285352675243e-09 1.5638686040922027e-05 -2.1099358163873563e-11 -2.3403614258015159e-05 2.1494439294210804e-05 -1.2730347763286764e-10 -2.9406957153264117e-05 2.4287077722179559e-05 -3.0293808834477316e-11 -2.0414469344935785e-05 1.9078466057711835e-05 -1.1014008151078268e-10 -1.119028535267595e-09 1.563868604092203e-05 -2.1099358163873647e-11 -2.3403614258015159e-05 2.1494439294210801e-05 -1.2730347763286764e-10 -2.9406957153264121e-05 1.6239127197677529e-05 2.3256091038087914e-11 -1.3010129882827705e-09 1.9078466057711832e-05 -1.1014008151078268e-10 -1.119028535267978e-09 2.1039071816155426e-05 -7.7462011303038458e-12 -1.0244491804350306e-09 1.563868604092203e-05 -2.1099358163873647e-11 -2.3403614258015159e-05 1.4317302933628927e-05 -1.19661221278181e-10 -1.0177412497314461e-09 1.6239127197677529e-05 2.3256091038087914e-11 -1.3010129882828127e-09 1.9078466057711832e-05 -1.1014008151078268e-10 -1.1190285352681409e-09 1.563868604092203e-05 -2.1099358163873647e-11 -2.3403614258015159e-05 2.4287077722179559e-05 -3.0293808834477316e-11 -2.0414469344935785e-05 2.5264151485486861e-05 -1.3032927135313064e-10 -1.4003688676670081e-09 1.9078466057711835e-05 -1.1014008151078265e-10 -1.1190285352673183e-09 2.1039071816155426e-05 -7.7462011303038458e-12 -1.0244491804348676e-09 2.3453171142800527e-05 1.7450436009827372e-11 -4.6722107160600778e-05 1.5626080314932584e-05 -1.8184049082219061e-12 -4.6875184481376147e-05 2.1494439294210804e-05 -1.2730347763286764e-10 -2.9406957153264121e-05 1.5649080197213513e-05 -1.6205830808660458e-10 -4.9581342359515844e-05 2.3453171142800527e-05 1.7450436009827372e-11 -4.6722107160600778e-05 2.1494439294210804e-05 -1.2730347763286764e-10 -2.9406957153264121e-05 2.4368499283489581e-05 -1.7852400816043908e-10 -4.688898908589585e-05 1.5649080197213513e-05 -1.6205830808660458e-10 -4.9581342359515844e-05 2.3453171142800527e-05 1.7450436009827372e-11 -4.6722107160600778e-05 1.5638686040922034e-05 -2.1099358163873625e-11 -2.3403614258015152e-05 1.5626080314932584e-05 -1.8184049082219635e-12 -4.6875184481376153e-05 2.1494439294210804e-05 -1.2730347763286764e-10 -2.9406957153264121e-05 2.3453171142800527e-05 1.7450436009827372e-11 -4.6722107160600778e-05 2.4287077722179563e-05 -3.0293808834477309e-11 -2.0414469344935785e-05 1.563868604092203e-05 -2.1099358163873638e-11 -2.3403614258015169e-05 2.1494439294210804e-05 -1.2730347763286764e-10 -2.9406957153264121e-05 1.5638557697210226e-05 -2.1717704494322009e-10 -2.1173444485168498e-05 1.563868604092203e-05 -2.1099358163873618e-11 -2.3403614258015162e-05 2.1494439294210804e-05 -1.2730347763286764e-10 -2.9406957153264121e-05 1.564908019721351e-05 -1.6205830808660456e-10 -4.9581342359515851e-05 1.563868604092203e-05 -2.1099358163873647e-11 -2.3403614258015159e-05 1.5626080314932584e-05 -1.8184049082218659e-12 -4.6875184481376153e-05 2.1494439294210804e-05 -1.2730347763286764e-10 -2.9406957153264121e-05 1.5649080197213513e-05 -1.6205830808660458e-10 -4.9581342359515844e-05 2.1494439294210804e-05 -1.2730347763286764e-10 -2.9406957153264121e-05 2.0892771730170937e-05 -3.3362549203343503e-10 -3.6124690786743476e-05 2.5957303085036498e-05 -3.0337018251437427e-10 -2.8142966010618627e-05 2.4368499283489581e-05 -1.7852400816043905e-10 -4.6888989085895857e-05 2.1436489022735347e-05 -3.6630132873109615e-10 -1.6171604407132258e-05 2.1494439294210801e-05 -1.2730347763286759e-10 -2.9406957153264121e-05 2.0892771730170937e-05 -3.3362549203343503e-10 -3.6124690786743476e-05 2.5957303085036502e-05 -3.0337018251437422e-10 -2.814296601061862e-05 1.4903608652116652e-05 -3.6922572767621058e-10 -2.9757922028204813e-05 1.5638557697210226e-05 -2.1717704494322009e-10 -2.1173444485168498e-05 2.0892771730170937e-05 -3.3362549203343503e-10 -3.6124690786743476e-05 1.5649080197213513e-05 -1.6205830808660458e-10 -4.9581342359515844e-05 2.0892771730170937e-05 -3.3362549203343503e-10 -3.6124690786743476e-05 2.4368499283489584e-05 -1.7852400816043905e-10 -4.688898908589585e-05 2.1554531994967404e-05 -2.5665886626174231e-10 -5.0793742719481491e-05 1.564908019721351e-05 -1.6205830808660456e-10 -4.9581342359515844e-05 2.1436489022735347e-05 -3.6630132873109615e-10 -1.6171604407132258e-05 1.5638557697210219e-05 -2.1717704494322011e-10 -2.1173444485168498e-05 2.1494439294210808e-05 -1.2730347763286759e-10 -2.9406957153264121e-05 2.0892771730170937e-05 -3.3362549203343503e-10 -3.6124690786743476e-05 1.5638557697210226e-05 -2.1717704494322009e-10 -2.1173444485168498e-05 2.1494439294210801e-05 -1.2730347763286764e-10 -2.9406957153264121e-05 2.0892771730170934e-05 -3.3362549203343497e-10 -3.6124690786743476e-05 1.5649080197213513e-05 -1.6205830808660458e-10 -4.9581342359515851e-05 2.1494439294210804e-05 -1.2730347763286764e-10 -2.9406957153264121e-05 2.0892771730170937e-05 -3.3362549203343503e-10 -3.6124690786743476e-05 2.4368499283489581e-05 -1.7852400816043905e-10 -4.6888989085895857e-05 1.5649080197213517e-05 -1.6205830808660461e-10 -4.9581342359515837e-05 1.4903608652116652e-05 -3.6922572767621058e-10 -2.9757922028204813e-05 2.1436489022735347e-05 -3.6630132873109615e-10 -1.6171604407132258e-05 1.5638557697210229e-05 -2.1717704494322011e-10 -2.1173444485168498e-05 2.0892771730170937e-05 -3.3362549203343503e-10 -3.6124690786743476e-05 1.4903608652116652e-05 -3.6922572767621058e-10 -2.9757922028204813e-05 1.5626071302713099e-05 -3.1909846092179056e-10 -4.5036316080773446e-05 2.0892771730170937e-05 -3.3362549203343503e-10 -3.6124690786743476e-05 1.5649080197213513e-05 -1.6205830808660458e-10 -4.9581342359515844e-05 1.5626071302713096e-05 -3.1909846092179056e-10 -4.5036316080773446e-05 2.0892771730170937e-05 -3.3362549203343503e-10 -3.6124690786743476e-05 2.1554531994967404e-05 -2.5665886626174231e-10 -5.0793742719481491e-05 1.5649080197213513e-05 -1.6205830808660458e-10 -4.9581342359515844e-05 2.0892771730170937e-05 -3.3362549203343503e-10 -3.6124690786743476e-05 2.6106481687239714e-05 -3.0295750478596914e-10 -4.5965932726599574e-05 2.4368499283489581e-05 -1.7852400816043905e-10 -4.6888989085895857e-05 2.1554531994967404e-05 -2.5665886626174231e-10 -5.0793742719481491e-05 2.1494439294210804e-05 -1.2730347763286764e-10 -2.9406957153264121e-05 2.5957303085036502e-05 -3.0337018251437417e-10 -2.814296601061862e-05 3.1252014305155664e-05 -1.7159744230385879e-10 -2.9635747849816965e-05 2.4368499283489581e-05 -1.7852400816043905e-10 -4.6888989085895857e-05 3.1252059710168584e-05 -1.750005534568482e-10 -1.3726916451151628e-05 2.1494439294210804e-05 -1.2730347763286772e-10 -2.9406957153264124e-05 2.5957303085036502e-05 -3.0337018251437422e-10 -2.814296601061862e-05 3.1252014305155664e-05 -1.7159744230385879e-10 -2.9635747849816965e-05 2.0892771730170937e-05 -3.3362549203343503e-10 -3.6124690786743476e-05 2.5957303085036502e-05 -3.0337018251437422e-10 -2.814296601061862e-05 2.6106481687239714e-05 -3.0295750478596914e-10 -4.5965932726599574e-05 2.4368499283489581e-05 -1.7852400816043905e-10 -4.6888989085895857e-05 2.5957303085036502e-05 -3.0337018251437422e-10 -2.814296601061862e-05 2.6106481687239714e-05 -3.0295750478596914e-10 -4.5965932726599574e-05 3.1252014305155664e-05 -1.7159744230385879e-10 -2.9635747849816965e-05 2.4368499283489581e-05 -1.7852400816043905e-10 -4.6888989085895857e-05 2.5957303085036502e-05 -3.0337018251437422e-10 -2.814296601061862e-05 2.6106481687239714e-05 -3.0295750478596904e-10 -4.5965932726599581e-05 3.1251891265693649e-05 -3.6346775157711211e-10 -3.7500538490101945e-05 3.1252014305155664e-05 -1.7159744230385879e-10 -2.9635747849816965e-05 2.6106481687239714e-05 -3.0295750478596914e-10 -4.5965932726599574e-05 3.1251891265693649e-05 -3.6346775157711206e-10 -3.7500538490101945e-05 3.1251989379071789e-05 -2.3044250867225199e-10 -4.778172081904615e-05 3.1251913013361654e-05 -4.0354299146468345e-10 -5.6250205325166427e-05 2.6106481687239714e-05 -3.0295750478596914e-10 -4.5965932726599574e-05 3.1251891265693656e-05 -3.6346775157711211e-10 -3.7500538490101952e-05 3.1252014305155664e-05 -1.7159744230385879e-10 -2.9635747849816965e-05 3.1251989379071782e-05 -2.3044250867225204e-10 -4.778172081904615e-05 3.1251901867374322e-05 -3.0911602677529585e-10 -1.8750876842459381e-05 2.5957303085036502e-05 -3.0337018251437422e-10 -2.814296601061862e-05 3.1251891265693649e-05 -3.6346775157711206e-10 -3.7500538490101945e-05 3.1252014305155664e-05 -1.7159744230385879e-10 -2.9635747849816965e-05 3.1252014305155664e-05 -1.7159744230385879e-10 -2.9635747849816965e-05 3.1252033840428552e-05 -1.2734589928815935e-10 -4.294950291449668e-05 3.1251989379071789e-05 -2.3044250867225212e-10 -4.7781720819046157e-05 2.4368499283489581e-05 -1.7852400816043905e-10 -4.6888989085895857e-05 2.6106481687239714e-05 -3.0295750478596914e-10 -4.5965932726599574e-05 3.1252014305155657e-05 -1.7159744230385877e-10 -2.9635747849816965e-05 3.1251989379071789e-05 -2.3044250867225217e-10 -4.7781720819046171e-05 2.4368499283489581e-05 -1.7852400816043905e-10 -4.688898908589585e-05 2.3453171142800527e-05 1.7450436009827372e-11 -4.6722107160600778e-05 2.4287077722179559e-05 -3.0293808834477296e-11 -2.0414469344935781e-05 2.1494439294210804e-05 -1.2730347763286764e-10 -2.9406957153264121e-05 3.1252009906481693e-05 -8.8539073579739084e-11 -3.0868094374283267e-05 2.1494439294210804e-05 -1.2730347763286764e-10 -2.9406957153264121e-05 3.1252014305155664e-05 -1.7159744230385879e-10 -2.9635747849816965e-05 3.1252033840428552e-05 -1.2734589928815935e-10 -4.294950291449668e-05 3.12520099064817e-05 -8.8539073579739084e-11 -3.0868094374283267e-05 2.3453171142800527e-05 1.7450436009827372e-11 -4.6722107160600778e-05 2.1494439294210804e-05 -1.2730347763286767e-10 -2.9406957153264131e-05 3.1252033840428552e-05 -1.2734589928815932e-10 -4.2949502914496667e-05 2.4368499283489577e-05 -1.7852400816043905e-10 -4.688898908589585e-05 3.12519936360103e-05 -8.4147187426692459e-11 -1.5872649875518799e-05 2.1494439294210804e-05 -1.2730347763286764e-10 -2.9406957153264117e-05 3.1252014305155664e-05 -1.7159744230385879e-10 -2.9635747849816968e-05 3.12520099064817e-05 -8.8539073579739084e-11 -3.0868094374283267e-05 2.1494439294210804e-05 -1.2730347763286764e-10 -2.9406957153264121e-05 3.1252014305155664e-05 -1.7159744230385879e-10 -2.9635747849816965e-05 3.1252033840428552e-05 -1.2734589928815937e-10 -4.2949502914496687e-05 2.4368499283489581e-05 -1.7852400816043903e-10 -4.6888989085895857e-05 2.4287077722179559e-05 -3.0293808834477316e-11 -2.0414469344935785e-05 3.12519936360103e-05 -8.4147187426692433e-11 -1.5872649875518792e-05 2.1494439294210804e-05 -1.2730347763286764e-10 -2.9406957153264121e-05 3.12520099064817e-05 -8.8539073579739084e-11 -3.0868094374283267e-05 2.3453171142800527e-05 1.7450436009827372e-11 -4.6722107160600778e-05 2.1494439294210804e-05 -1.2730347763286764e-10 -2.9406957153264117e-05 3.1252033840428552e-05 -1.2734589928815935e-10 -4.294950291449668e-05 3.12520099064817e-05 -8.8539073579739097e-11 -3.086809437428328e-05 3.1252016366828484e-05 5.3813470564462789e-11 -3.0419309488462643e-05 2.4287077722179559e-05 -3.0293808834477316e-11 -2.0414469344935785e-05 3.1251946240737623e-05 -2.6271235747349281e-11 -1.6150478691981981e-05 3.12520099064817e-05 -8.8539073579739084e-11 -3.0868094374283267e-05 2.3453171142800527e-05 1.7450436009827372e-11 -4.6722107160600778e-05 3.1252033840428545e-05 -1.2734589928815937e-10 -4.2949502914496667e-05 3.12520099064817e-05 -8.8539073579739097e-11 -3.0868094374283273e-05 3.1251919081902872e-05 4.4602924711719937e-13 -4.8714252936347317e-05 2.3453171142800527e-05 1.7450436009827372e-11 -4.6722107160600778e-05 3.1252068087313191e-05 -1.1435002170189342e-10 -5.6205533371042558e-05 2.1483646799798912e-05 -1.268934541385107e-10 -6.4446204909271326e-05 2.4382763659361568e-05 -5.2529538790266453e-12 -7.3142699487648629e-05 3.1252084068558448e-05 -8.2624500205934841e-11 -6.8178965631876797e-05 3.1252068087313191e-05 -1.1435002170189342e-10 -5.6205533371042558e-05 2.1483646799798915e-05 -1.268934541385107e-10 -6.4446204909271326e-05 2.5501729756884931e-05 -1.6534318600029469e-10 -7.6499308779775715e-05 2.3453171142800527e-05 1.7450436009827372e-11 -4.6722107160600778e-05 3.1252068087313191e-05 -1.1435002170189342e-10 -5.6205533371042572e-05 3.1252020727542721e-05 2.1370050414063576e-11 -6.3113058246727798e-05 3.1251919081902878e-05 4.4602924711715812e-13 -4.8714252936347331e-05 2.3453171142800527e-05 1.7450436009827372e-11 -4.6722107160600778e-05 3.1252033840428559e-05 -1.273458992881593e-10 -4.294950291449668e-05 3.1252068087313191e-05 -1.1435002170189342e-10 -5.6205533371042558e-05 2.4368499283489581e-05 -1.7852400816043908e-10 -4.6888989085895871e-05 3.1252068087313191e-05 -1.1435002170189342e-10 -5.6205533371042558e-05 2.4368499283489581e-05 -1.7852400816043905e-10 -4.6888989085895857e-05 2.1483646799798915e-05 -1.2689345413851073e-10 -6.4446204909271326e-05 2.5501729756884928e-05 -1.6534318600029459e-10 -7.6499308779775702e-05 2.3453171142800527e-05 1.7450436009827372e-11 -4.6722107160600778e-05 3.1252068087313191e-05 -1.1435002170189342e-10 -5.6205533371042558e-05 2.4368499283489581e-05 -1.7852400816043905e-10 -4.6888989085895857e-05 2.1483646799798915e-05 -1.268934541385107e-10 -6.4446204909271326e-05 2.3453171142800527e-05 1.7450436009827372e-11 -4.6722107160600778e-05 3.1252068087313197e-05 -1.1435002170189338e-10 -5.6205533371042558e-05 2.4382763659361568e-05 -5.2529538790266679e-12 -7.3142699487648629e-05 3.1252020727542721e-05 2.1370050414063576e-11 -6.3113058246727798e-05 3.1252084068558448e-05 -8.2624500205934841e-11 -6.8178965631876797e-05 3.1252068087313191e-05 -1.1435002170189342e-10 -5.6205533371042558e-05 2.1483646799798912e-05 -1.2689345413851078e-10 -6.4446204909271326e-05 2.4382763659361568e-05 -5.2529538790265548e-12 -7.3142699487648615e-05 2.3453171142800527e-05 1.7450436009827372e-11 -4.6722107160600778e-05 3.1252033840428552e-05 -1.2734589928815943e-10 -4.2949502914496673e-05 3.1252068087313191e-05 -1.1435002170189342e-10 -5.6205533371042558e-05 3.1251919081902878e-05 4.4602924711718973e-13 -4.8714252936347338e-05 3.1252084068558448e-05 -8.2624500205934841e-11 -6.8178965631876797e-05 3.1252068087313191e-05 -1.1435002170189342e-10 -5.6205533371042558e-05 2.4382763659361568e-05 -5.2529538790266364e-12 -7.3142699487648629e-05 3.1252020727542721e-05 2.1370050414063644e-11 -6.3113058246727798e-05 3.1252084068558448e-05 -8.2624500205934841e-11 -6.8178965631876797e-05 3.1252068087313191e-05 -1.1435002170189342e-10 -5.6205533371042558e-05 3.125206710681665e-05 -1.9969452465637641e-10 -6.6155401013253263e-05 2.5501729756884921e-05 -1.6534318600029464e-10 -7.6499308779775702e-05 3.1252033840428552e-05 -1.2734589928815935e-10 -4.294950291449668e-05 3.1252068087313191e-05 -1.1435002170189342e-10 -5.6205533371042558e-05 3.1251989379071789e-05 -2.3044250867225212e-10 -4.7781720819046157e-05 2.4368499283489581e-05 -1.7852400816043905e-10 -4.6888989085895857e-05 3.1251989379071789e-05 -2.3044250867225212e-10 -4.7781720819046157e-05 3.125206710681665e-05 -1.9969452465637641e-10 -6.6155401013253263e-05 2.54611854396302e-05 -3.2728400343614948e-10 -6.4607713842522446e-05 2.4368499283489581e-05 -1.7852400816043903e-10 -4.6888989085895857e-05 2.5461185439630196e-05 -3.2728400343614948e-10 -6.4607713842522446e-05 2.4368499283489577e-05 -1.7852400816043908e-10 -4.688898908589585e-05 2.1483646799798919e-05 -1.2689345413851065e-10 -6.4446204909271313e-05 2.5501729756884928e-05 -1.6534318600029464e-10 -7.6499308779775702e-05 3.125206710681665e-05 -1.9969452465637641e-10 -6.6155401013253263e-05 2.5461185439630196e-05 -3.2728400343614948e-10 -6.460771384252246e-05 2.4368499283489581e-05 -1.7852400816043905e-10 -4.6888989085895857e-05 2.5501729756884924e-05 -1.6534318600029464e-10 -7.6499308779775702e-05 3.1252068087313191e-05 -1.1435002170189342e-10 -5.6205533371042558e-05 3.125206710681665e-05 -1.9969452465637641e-10 -6.6155401013253263e-05 2.4368499283489581e-05 -1.7852400816043905e-10 -4.6888989085895857e-05 2.5501729756884928e-05 -1.6534318600029464e-10 -7.6499308779775702e-05 3.1252068087313191e-05 -1.1435002170189342e-10 -5.6205533371042558e-05 3.1251989379071789e-05 -2.3044250867225212e-10 -4.7781720819046157e-05 3.125206710681665e-05 -1.9969452465637641e-10 -6.6155401013253263e-05 2.4368499283489581e-05 -1.7852400816043905e-10 -4.6888989085895857e-05 3.125206710681665e-05 -1.9969452465637641e-10 -6.6155401013253263e-05 3.1251913013361654e-05 -4.0354299146468345e-10 -5.6250205325166427e-05 2.5461185439630196e-05 -3.2728400343614948e-10 -6.4607713842522446e-05 3.1252023970115408e-05 -3.2956610910953358e-10 -7.4999916876126974e-05 3.1251989379071789e-05 -2.3044250867225212e-10 -4.7781720819046157e-05 3.125206710681665e-05 -1.9969452465637641e-10 -6.6155401013253263e-05 3.1251913013361654e-05 -4.0354299146468345e-10 -5.6250205325166427e-05 2.5461185439630196e-05 -3.2728400343614948e-10 -6.4607713842522446e-05 2.6106481687239714e-05 -3.0295750478596914e-10 -4.5965932726599574e-05 3.1251989379071789e-05 -2.3044250867225207e-10 -4.7781720819046157e-05 3.1251913013361654e-05 -4.0354299146468345e-10 -5.6250205325166427e-05 2.5461185439630196e-05 -3.2728400343614948e-10 -6.4607713842522446e-05 2.6106481687239714e-05 -3.0295750478596914e-10 -4.5965932726599574e-05 2.5461185439630196e-05 -3.2728400343614948e-10 -6.4607713842522446e-05 2.4368499283489577e-05 -1.7852400816043905e-10 -4.688898908589585e-05 2.1554531994967404e-05 -2.5665886626174231e-10 -5.0793742719481491e-05 2.6106481687239714e-05 -3.0295750478596914e-10 -4.5965932726599574e-05 3.1251989379071789e-05 -2.3044250867225212e-10 -4.7781720819046164e-05 2.5461185439630196e-05 -3.2728400343614948e-10 -6.4607713842522446e-05 2.4368499283489581e-05 -1.7852400816043908e-10 -4.6888989085895857e-05 2.1554531994967404e-05 -2.5665886626174231e-10 -5.0793742719481491e-05 1.8757636417862911e-05 -3.700071430888101e-10 -6.3329757798830945e-05 1.564908019721351e-05 -1.6205830808660458e-10 -4.9581342359515844e-05 2.1483646799798915e-05 -1.2689345413851067e-10 -6.4446204909271326e-05 2.5461185439630196e-05 -3.2728400343614948e-10 -6.4607713842522446e-05 2.15545319949674e-05 -2.5665886626174225e-10 -5.0793742719481491e-05 1.8757636417862911e-05 -3.700071430888101e-10 -6.3329757798830945e-05 2.1483646799798915e-05 -1.268934541385107e-10 -6.4446204909271326e-05 2.5461185439630196e-05 -3.2728400343614948e-10 -6.4607713842522446e-05 2.4368499283489581e-05 -1.7852400816043905e-10 -4.6888989085895864e-05 2.1554531994967404e-05 -2.5665886626174231e-10 -5.0793742719481491e-05 2.1483646799798915e-05 -1.2689345413851067e-10 -6.4446204909271313e-05 1.8757636417862911e-05 -3.700071430888101e-10 -6.3329757798830945e-05 2.1483646799798915e-05 -1.2689345413851067e-10 -6.4446204909271326e-05 1.5652595167277436e-05 -1.917526186545577e-10 -7.32041019555183e-05 2.170399615561462e-05 -3.016704595084341e-10 -7.8843288528729639e-05 2.4368499283489581e-05 -1.7852400816043905e-10 -4.6888989085895857e-05 2.1554531994967404e-05 -2.5665886626174225e-10 -5.0793742719481491e-05 1.5649080197213513e-05 -1.6205830808660458e-10 -4.9581342359515844e-05 2.1483646799798912e-05 -1.2689345413851067e-10 -6.4446204909271313e-05 1.8757636417862911e-05 -3.700071430888101e-10 -6.3329757798830945e-05 1.5649080197213513e-05 -1.6205830808660458e-10 -4.9581342359515844e-05 2.1483646799798915e-05 -1.2689345413851067e-10 -6.4446204909271326e-05 1.5652595167277436e-05 -1.917526186545577e-10 -7.32041019555183e-05 2.5461185439630196e-05 -3.2728400343614948e-10 -6.4607713842522446e-05 1.8757636417862911e-05 -3.7000714308881005e-10 -6.3329757798830945e-05 2.1483646799798915e-05 -1.268934541385107e-10 -6.4446204909271326e-05 2.5501729756884928e-05 -1.6534318600029464e-10 -7.6499308779775702e-05 1.5626071302713096e-05 -3.1909846092179056e-10 -4.5036316080773446e-05 2.1554531994967404e-05 -2.5665886626174231e-10 -5.0793742719481491e-05 1.8757636417862911e-05 -3.700071430888101e-10 -6.3329757798830945e-05 1.5649080197213513e-05 -1.6205830808660458e-10 -4.9581342359515844e-05 1.5626080314932584e-05 -1.8184049082219061e-12 -4.6875184481376147e-05 1.5649080197213513e-05 -1.6205830808660458e-10 -4.9581342359515844e-05 2.1483646799798915e-05 -1.268934541385107e-10 -6.4446204909271326e-05 1.5568688300201662e-05 1.4850811902880749e-11 -7.0354987618031258e-05 2.3453171142800527e-05 1.7450436009827372e-11 -4.6722107160600778e-05 1.5626080314932584e-05 -1.8184049082219061e-12 -4.6875184481376147e-05 1.5649080197213513e-05 -1.6205830808660458e-10 -4.9581342359515844e-05 2.1483646799798915e-05 -1.268934541385107e-10 -6.4446204909271326e-05 2.3453171142800527e-05 1.7450436009827372e-11 -4.6722107160600778e-05 1.5626080314932584e-05 -1.8184049082218968e-12 -4.687518448137614e-05 2.1483646799798915e-05 -1.268934541385107e-10 -6.4446204909271326e-05 1.5568688300201662e-05 1.4850811902880685e-11 -7.0354987618031245e-05 2.3453171142800527e-05 1.7450436009827372e-11 -4.6722107160600778e-05 2.1483646799798915e-05 -1.268934541385107e-10 -6.4446204909271326e-05 2.4382763659361568e-05 -5.2529538790266453e-12 -7.3142699487648629e-05 1.5568688300201669e-05 1.4850811902880717e-11 -7.0354987618031245e-05 1.5649080197213513e-05 -1.6205830808660458e-10 -4.9581342359515844e-05 2.1483646799798919e-05 -1.2689345413851067e-10 -6.4446204909271326e-05 1.5652595167277433e-05 -1.917526186545577e-10 -7.32041019555183e-05 1.5568688300201662e-05 1.4850811902880743e-11 -7.0354987618031245e-05 2.3453171142800527e-05 1.7450436009827372e-11 -4.6722107160600778e-05 2.4368499283489581e-05 -1.7852400816043905e-10 -4.6888989085895864e-05 1.5649080197213513e-05 -1.6205830808660458e-10 -4.9581342359515844e-05 2.1483646799798915e-05 -1.268934541385107e-10 -6.4446204909271326e-05 1.8736591826119837e-05 -1.1181711632260212e-10 -9.3749181058548606e-05 1.5652595167277436e-05 -1.917526186545577e-10 -7.3204101955518314e-05 1.5568688300201659e-05 1.4850811902880759e-11 -7.0354987618031245e-05 1.4317483688277192e-05 -1.3079468009001755e-10 -9.374911253515715e-05 2.1483646799798915e-05 -1.268934541385107e-10 -6.4446204909271326e-05 2.2728113427257143e-05 -6.761351377765659e-11 -9.3749285684049049e-05 1.8736591826119837e-05 -1.1181711632260212e-10 -9.3749181058548606e-05 2.5501729756884928e-05 -1.6534318600029464e-10 -7.6499308779775702e-05 2.1483646799798915e-05 -1.268934541385107e-10 -6.4446204909271326e-05 1.8736591826119837e-05 -1.1181711632260214e-10 -9.374918105854862e-05 2.4382763659361565e-05 -5.2529538790266469e-12 -7.3142699487648615e-05 1.5568688300201662e-05 1.4850811902880749e-11 -7.0354987618031245e-05 2.1483646799798915e-05 -1.268934541385107e-10 -6.4446204909271326e-05 1.8736591826119837e-05 -1.1181711632260208e-10 -9.374918105854862e-05 1.5652595167277436e-05 -1.917526186545577e-10 -7.32041019555183e-05 2.5501729756884928e-05 -1.6534318600029464e-10 -7.6499308779775702e-05 2.1483646799798915e-05 -1.268934541385107e-10 -6.4446204909271326e-05 1.8736591826119837e-05 -1.1181711632260212e-10 -9.374918105854862e-05 1.5652595167277436e-05 -1.917526186545577e-10 -7.32041019555183e-05 1.5568688300201659e-05 1.4850811902880749e-11 -7.0354987618031231e-05 2.1483646799798915e-05 -1.268934541385107e-10 -6.4446204909271326e-05 2.272811342725715e-05 -6.761351377765672e-11 -9.3749285684049035e-05 1.8736591826119837e-05 -1.1181711632260212e-10 -9.3749181058548606e-05 2.4382763659361565e-05 -5.2529538790266502e-12 -7.3142699487648629e-05 1.8736591826119837e-05 -1.1181711632260212e-10 -9.3749181058548606e-05 2.4382763659361568e-05 -5.2529538790266453e-12 -7.3142699487648629e-05 2.1039324550889645e-05 1.6878602763080017e-11 -9.3749223387239126e-05 1.5568688300201662e-05 1.4850811902880743e-11 -7.0354987618031245e-05 2.2728113427257143e-05 -6.7613513777656642e-11 -9.3749285684049035e-05 1.8736591826119837e-05 -1.1181711632260212e-10 -9.3749181058548606e-05 2.2053527787933712e-05 -2.0134417170996127e-10 -9.3749257164635412e-05 2.5501729756884928e-05 -1.6534318600029464e-10 -7.6499308779775702e-05 2.2728113427257143e-05 -6.7613513777656642e-11 -9.3749285684049035e-05 1.8736591826119837e-05 -1.1181711632260212e-10 -9.3749181058548606e-05 2.4382763659361568e-05 -5.2529538790266453e-12 -7.3142699487648629e-05 2.1039324550889645e-05 1.6878602763080017e-11 -9.3749223387239126e-05 1.8736591826119837e-05 -1.1181711632260212e-10 -9.3749181058548606e-05 1.6239262543165666e-05 -3.7217379365253162e-12 -9.3749144281366747e-05 1.5568688300201662e-05 1.4850811902880749e-11 -7.0354987618031258e-05 1.4317483688277192e-05 -1.3079468009001755e-10 -9.374911253515715e-05 1.8736591826119837e-05 -1.1181711632260212e-10 -9.3749181058548606e-05 2.1039324550889645e-05 1.6878602763080023e-11 -9.3749223387239113e-05 1.6239262543165666e-05 -3.7217379365253283e-12 -9.3749144281366747e-05 1.5568688300201662e-05 1.4850811902880743e-11 -7.0354987618031245e-05 1.8736591826119837e-05 -1.1181711632260212e-10 -9.3749181058548606e-05 1.592838597824484e-05 -2.4243671870436572e-10 -9.3749135679585188e-05 1.5652595167277436e-05 -1.917526186545577e-10 -7.32041019555183e-05 1.4317483688277192e-05 -1.3079468009001755e-10 -9.374911253515715e-05 1.592838597824484e-05 -2.4243671870436572e-10 -9.3749135679585188e-05 1.5652595167277433e-05 -1.9175261865455772e-10 -7.32041019555183e-05 2.170399615561462e-05 -3.016704595084341e-10 -7.8843288528729639e-05 2.2053527787933712e-05 -2.0134417170996127e-10 -9.3749257164635412e-05 2.1483646799798915e-05 -1.268934541385107e-10 -6.4446204909271326e-05 1.5652595167277436e-05 -1.917526186545577e-10 -7.32041019555183e-05 2.170399615561462e-05 -3.016704595084341e-10 -7.8843288528729639e-05 2.5501729756884928e-05 -1.6534318600029464e-10 -7.6499308779775702e-05 1.5652595167277436e-05 -1.917526186545577e-10 -7.32041019555183e-05 2.1703996155614616e-05 -3.0167045950843415e-10 -7.8843288528729639e-05 2.2053527787933712e-05 -2.013441717099613e-10 -9.3749257164635412e-05 2.5501729756884928e-05 -1.6534318600029464e-10 -7.6499308779775702e-05 1.8736591826119837e-05 -1.1181711632260212e-10 -9.3749181058548606e-05 1.5652595167277436e-05 -1.917526186545577e-10 -7.32041019555183e-05 2.2053527787933712e-05 -2.0134417170996127e-10 -9.3749257164635412e-05 2.5501729756884928e-05 -1.6534318600029464e-10 -7.6499308779775702e-05 1.8736591826119837e-05 -1.1181711632260212e-10 -9.3749181058548606e-05 1.592838597824484e-05 -2.4243671870436572e-10 -9.3749135679585188e-05 1.5652595167277436e-05 -1.917526186545577e-10 -7.32041019555183e-05 2.2053527787933712e-05 -2.0134417170996127e-10 -9.3749257164635412e-05 1.8757636417862911e-05 -3.700071430888101e-10 -6.3329757798830945e-05 2.1483646799798908e-05 -1.2689345413851054e-10 -6.444620490927134e-05 2.170399615561462e-05 -3.016704595084341e-10 -7.8843288528729639e-05 2.5501729756884928e-05 -1.6534318600029464e-10 -7.6499308779775702e-05 1.8757636417862911e-05 -3.700071430888101e-10 -6.3329757798830945e-05 1.5652595167277436e-05 -1.917526186545577e-10 -7.32041019555183e-05 2.1703996155614623e-05 -3.016704595084341e-10 -7.8843288528729639e-05 1.5575072441061016e-05 -3.3051342271192778e-10 -7.7600001663623628e-05 1.592838597824484e-05 -2.4243671870436572e-10 -9.3749135679585188e-05 1.5652595167277433e-05 -1.9175261865455772e-10 -7.32041019555183e-05 2.170399615561462e-05 -3.016704595084341e-10 -7.8843288528729639e-05 1.5575072441061016e-05 -3.3051342271192778e-10 -7.7600001663623628e-05 1.592838597824484e-05 -2.4243671870436572e-10 -9.3749135679585188e-05 1.8751497393940577e-05 -3.6127215564753215e-10 -9.3749206092213458e-05 2.170399615561462e-05 -3.016704595084341e-10 -7.8843288528729639e-05 1.5575072441061016e-05 -3.3051342271192778e-10 -7.7600001663623628e-05 1.592838597824484e-05 -2.4243671870436572e-10 -9.3749135679585188e-05 1.875149739394058e-05 -3.612721556475322e-10 -9.3749206092213472e-05 1.5575072441061016e-05 -3.3051342271192778e-10 -7.7600001663623628e-05 1.2500975217039847e-05 -3.866649459068504e-10 -9.3749127700539731e-05 1.592838597824484e-05 -2.4243671870436572e-10 -9.3749135679585188e-05 1.8751497393940577e-05 -3.6127215564753215e-10 -9.3749206092213458e-05 2.170399615561462e-05 -3.016704595084341e-10 -7.8843288528729639e-05 2.2053527787933712e-05 -2.0134417170996127e-10 -9.3749257164635412e-05 1.8751497393940577e-05 -3.6127215564753215e-10 -9.3749206092213458e-05 2.170399615561462e-05 -3.016704595084341e-10 -7.8843288528729639e-05 2.2053527787933712e-05 -2.013441717099613e-10 -9.3749257164635425e-05 2.5002012016853281e-05 -2.934504795122021e-10 -9.374938865132812e-05 2.5461185439630196e-05 -3.2728400343614948e-10 -6.4607713842522446e-05 1.8757636417862911e-05 -3.700071430888101e-10 -6.3329757798830945e-05 2.170399615561462e-05 -3.016704595084341e-10 -7.8843288528729639e-05 2.5501729756884928e-05 -1.6534318600029464e-10 -7.6499308779775702e-05 2.170399615561462e-05 -3.016704595084341e-10 -7.8843288528729639e-05 2.2053527787933712e-05 -2.0134417170996127e-10 -9.3749257164635412e-05 2.6676794693411588e-05 -2.1010721149220029e-10 -9.374944472956234e-05 2.5501729756884928e-05 -1.6534318600029464e-10 -7.6499308779775702e-05 2.2053527787933712e-05 -2.0134417170996127e-10 -9.3749257164635412e-05 2.6676794693411591e-05 -2.1010721149220032e-10 -9.3749444729562353e-05 2.5501729756884928e-05 -1.6534318600029462e-10 -7.6499308779775688e-05 2.6618872006732039e-05 -1.2954090227625913e-10 -9.3749447812047684e-05 3.125206710681665e-05 -1.9969452465637641e-10 -6.6155401013253263e-05 2.5461185439630196e-05 -3.2728400343614948e-10 -6.460771384252246e-05 2.5501729756884928e-05 -1.6534318600029464e-10 -7.6499308779775702e-05 2.6676657903798812e-05 -2.4295099146856342e-10 -8.0023760594374269e-05 2.5461185439630196e-05 -3.2728400343614948e-10 -6.4607713842522446e-05 2.170399615561462e-05 -3.016704595084341e-10 -7.8843288528729639e-05 2.5501729756884928e-05 -1.6534318600029464e-10 -7.6499308779775702e-05 2.6676657903798812e-05 -2.4295099146856342e-10 -8.0023760594374269e-05 2.170399615561462e-05 -3.016704595084341e-10 -7.8843288528729639e-05 2.6676794693411585e-05 -2.1010721149220032e-10 -9.374944472956234e-05 2.5501729756884928e-05 -1.6534318600029464e-10 -7.6499308779775702e-05 2.6676657903798812e-05 -2.4295099146856342e-10 -8.0023760594374269e-05 2.170399615561462e-05 -3.016704595084341e-10 -7.8843288528729639e-05 2.2053527787933712e-05 -2.0134417170996127e-10 -9.3749257164635412e-05 2.6676794693411588e-05 -2.1010721149220029e-10 -9.374944472956234e-05 2.5002012016853281e-05 -2.934504795122021e-10 -9.374938865132812e-05 2.170399615561462e-05 -3.016704595084341e-10 -7.8843288528729639e-05 2.6676794693411585e-05 -2.1010721149220032e-10 -9.374944472956234e-05 2.6676657903798812e-05 -2.4295099146856342e-10 -8.0023760594374269e-05 2.5002012016853281e-05 -2.934504795122021e-10 -9.374938865132812e-05 2.6676794693411588e-05 -2.1010721149220029e-10 -9.374944472956234e-05 2.6676657903798812e-05 -2.4295099146856337e-10 -8.0023760594374256e-05 3.1252283481207365e-05 -3.3281166222836224e-10 -9.3749748519695729e-05 3.1252142396310514e-05 -2.0326019067307503e-10 -8.0023907150549031e-05 2.6676794693411588e-05 -2.1010721149220029e-10 -9.374944472956234e-05 2.6676657903798812e-05 -2.4295099146856342e-10 -8.0023760594374269e-05 2.5002012016853281e-05 -2.934504795122021e-10 -9.374938865132812e-05 3.1252283481207365e-05 -3.3281166222836224e-10 -9.3749748519695729e-05 2.6676794693411588e-05 -2.1010721149220029e-10 -9.374944472956234e-05 3.1252283481207365e-05 -3.3281166222836224e-10 -9.3749748519695729e-05 3.1252142396310514e-05 -2.0326019067307505e-10 -8.0023907150549045e-05 3.1252285818722543e-05 -1.8036825468813838e-10 -9.3749703549086583e-05 2.6676657903798812e-05 -2.4295099146856342e-10 -8.0023760594374269e-05 3.1252283481207365e-05 -3.3281166222836224e-10 -9.3749748519695729e-05 3.1252023970115408e-05 -3.2956610910953358e-10 -7.4999916876126974e-05 3.1252142396310514e-05 -2.0326019067307505e-10 -8.0023907150549045e-05 3.125206710681665e-05 -1.9969452465637641e-10 -6.6155401013253263e-05 2.5461185439630196e-05 -3.2728400343614948e-10 -6.4607713842522446e-05 2.6676657903798812e-05 -2.4295099146856342e-10 -8.0023760594374269e-05 3.1252023970115408e-05 -3.2956610910953358e-10 -7.4999916876126974e-05 3.125206710681665e-05 -1.9969452465637641e-10 -6.6155401013253263e-05 2.6676657903798809e-05 -2.4295099146856342e-10 -8.0023760594374283e-05 3.1252023970115408e-05 -3.2956610910953358e-10 -7.4999916876126974e-05 3.1252142396310514e-05 -2.0326019067307505e-10 -8.0023907150549045e-05 3.125206710681665e-05 -1.9969452465637641e-10 -6.6155401013253263e-05 2.5501729756884928e-05 -1.6534318600029464e-10 -7.6499308779775702e-05 3.1252142396310514e-05 -2.0326019067307505e-10 -8.0023907150549045e-05 3.1252131577221183e-05 -1.1744793727563957e-10 -7.9850185017035197e-05 3.125206710681665e-05 -1.9969452465637641e-10 -6.6155401013253263e-05 2.5501729756884928e-05 -1.6534318600029464e-10 -7.6499308779775702e-05 2.6676657903798812e-05 -2.4295099146856342e-10 -8.0023760594374256e-05 3.1252142396310514e-05 -2.0326019067307505e-10 -8.0023907150549045e-05 2.6676794693411588e-05 -2.1010721149220029e-10 -9.374944472956234e-05 2.5501729756884928e-05 -1.6534318600029464e-10 -7.6499308779775688e-05 3.1252285818722543e-05 -1.8036825468813838e-10 -9.3749703549086583e-05 2.6618872006732039e-05 -1.2954090227625913e-10 -9.3749447812047684e-05 2.6676794693411588e-05 -2.1010721149220029e-10 -9.374944472956234e-05 2.5501729756884928e-05 -1.6534318600029462e-10 -7.6499308779775702e-05 3.1252142396310514e-05 -2.0326019067307505e-10 -8.0023907150549045e-05 3.1252285818722543e-05 -1.8036825468813838e-10 -9.3749703549086583e-05 2.5501729756884928e-05 -1.6534318600029464e-10 -7.6499308779775702e-05 3.1252142396310514e-05 -2.0326019067307505e-10 -8.0023907150549045e-05 3.1252285818722543e-05 -1.8036825468813841e-10 -9.3749703549086597e-05 3.1252131577221183e-05 -1.1744793727563957e-10 -7.9850185017035197e-05 2.6676794693411588e-05 -2.1010721149220029e-10 -9.374944472956234e-05 2.5501729756884928e-05 -1.6534318600029464e-10 -7.6499308779775702e-05 2.6676657903798809e-05 -2.4295099146856342e-10 -8.0023760594374269e-05 3.1252142396310514e-05 -2.0326019067307508e-10 -8.0023907150549045e-05 3.1252285818722543e-05 -1.8036825468813838e-10 -9.3749703549086583e-05 2.6618872006732039e-05 -1.2954090227625916e-10 -9.3749447812047684e-05 3.1252131577221183e-05 -1.1744793727563957e-10 -7.9850185017035197e-05 3.1252238849693718e-05 -5.7178664043499381e-11 -9.3749709035420749e-05 2.5501729756884928e-05 -1.6534318600029464e-10 -7.6499308779775702e-05 3.1252285818722543e-05 -1.8036825468813843e-10 -9.3749703549086597e-05 2.6618872006732035e-05 -1.2954090227625916e-10 -9.3749447812047684e-05 3.1252131577221183e-05 -1.1744793727563957e-10 -7.9850185017035197e-05 2.5501729756884928e-05 -1.6534318600029464e-10 -7.6499308779775702e-05 2.6618872006732039e-05 -1.2954090227625913e-10 -9.374944781204767e-05 3.1252131577221183e-05 -1.1744793727563957e-10 -7.9850185017035197e-05 2.4382763659361568e-05 -5.2529538790266453e-12 -7.3142699487648629e-05 2.1483646799798915e-05 -1.268934541385107e-10 -6.4446204909271326e-05 2.2728113427257143e-05 -6.7613513777656681e-11 -9.3749285684049035e-05 2.5501729756884928e-05 -1.6534318600029464e-10 -7.6499308779775702e-05 2.4382763659361568e-05 -5.2529538790266582e-12 -7.3142699487648629e-05 3.1252084068558448e-05 -8.2624500205934841e-11 -6.8178965631876797e-05 2.5501729756884924e-05 -1.6534318600029469e-10 -7.6499308779775702e-05 3.1252131577221183e-05 -1.1744793727563957e-10 -7.9850185017035197e-05 2.4382763659361568e-05 -5.2529538790266453e-12 -7.3142699487648629e-05 2.2728113427257143e-05 -6.7613513777656642e-11 -9.3749285684049035e-05 2.5501729756884931e-05 -1.6534318600029464e-10 -7.6499308779775702e-05 2.6618872006732039e-05 -1.2954090227625913e-10 -9.3749447812047684e-05 2.4382763659361568e-05 -5.2529538790266453e-12 -7.3142699487648629e-05 3.1252084068558448e-05 -8.2624500205934841e-11 -6.8178965631876797e-05 2.1483646799798912e-05 -1.268934541385107e-10 -6.4446204909271326e-05 2.5501729756884924e-05 -1.6534318600029464e-10 -7.6499308779775702e-05 2.4382763659361571e-05 -5.2529538790266267e-12 -7.3142699487648629e-05 2.6618872006732039e-05 -1.2954090227625913e-10 -9.3749447812047684e-05 3.1252131577221183e-05 -1.1744793727563954e-10 -7.9850185017035197e-05 3.1252103543918412e-05 -8.538382420104853e-12 -7.892980136453055e-05 3.1252238849693718e-05 -5.7178664043499381e-11 -9.3749709035420749e-05 2.2728113427257143e-05 -6.7613513777656642e-11 -9.3749285684049035e-05 2.2053527787933712e-05 -2.0134417170996125e-10 -9.3749257164635412e-05 2.5501729756884928e-05 -1.6534318600029467e-10 -7.6499308779775702e-05 2.6618872006732039e-05 -1.2954090227625913e-10 -9.3749447812047684e-05 3.1252084068558448e-05 -8.2624500205934841e-11 -6.8178965631876797e-05 3.125206710681665e-05 -1.9969452465637641e-10 -6.6155401013253263e-05 2.5501729756884924e-05 -1.6534318600029464e-10 -7.6499308779775715e-05 3.1252131577221183e-05 -1.1744793727563957e-10 -7.9850185017035197e-05 2.6618872006732039e-05 -1.2954090227625913e-10 -9.3749447812047684e-05 3.125213157722119e-05 -1.1744793727563954e-10 -7.9850185017035197e-05 3.1252103543918412e-05 -8.5383824201048643e-12 -7.8929801364530563e-05 2.4382763659361568e-05 -5.2529538790266453e-12 -7.3142699487648629e-05 3.1252084068558448e-05 -8.2624500205934841e-11 -6.8178965631876797e-05 3.1252131577221183e-05 -1.1744793727563957e-10 -7.9850185017035197e-05 3.1252103543918412e-05 -8.538382420104853e-12 -7.892980136453055e-05 2.4382763659361568e-05 -5.2529538790266453e-12 -7.3142699487648629e-05 3.1252084068558448e-05 -8.2624500205934841e-11 -6.8178965631876797e-05 3.1252103543918412e-05 -8.5383824201048578e-12 -7.892980136453055e-05 2.4382763659361568e-05 -5.2529538790266405e-12 -7.3142699487648629e-05 3.1252020727542721e-05 2.1370050414063644e-11 -6.3113058246727798e-05 2.2728113427257143e-05 -6.7613513777656642e-11 -9.3749285684049035e-05 2.4382763659361565e-05 -5.2529538790266542e-12 -7.3142699487648629e-05 2.6312058661971725e-05 -4.338849466328233e-12 -9.3749436575250126e-05 2.1039324550889645e-05 1.6878602763080017e-11 -9.3749223387239126e-05 2.2728113427257143e-05 -6.7613513777656642e-11 -9.3749285684049035e-05 2.6618872006732039e-05 -1.2954090227625913e-10 -9.3749447812047684e-05 2.4382763659361568e-05 -5.2529538790266453e-12 -7.3142699487648629e-05 2.6312058661971725e-05 -4.338849466328229e-12 -9.3749436575250126e-05 2.6618872006732039e-05 -1.2954090227625913e-10 -9.3749447812047684e-05 3.1252103543918412e-05 -8.538382420104853e-12 -7.892980136453055e-05 2.4382763659361568e-05 -5.2529538790266453e-12 -7.3142699487648629e-05 2.6312058661971725e-05 -4.338849466328229e-12 -9.3749436575250126e-05 3.1252103543918412e-05 -8.538382420104853e-12 -7.892980136453055e-05 2.6312058661971729e-05 -4.3388494663282306e-12 -9.3749436575250126e-05 3.1252238849693718e-05 -5.7178664043499381e-11 -9.3749709035420749e-05 3.1252249420118048e-05 6.9342684683523252e-11 -9.3749694361665536e-05 2.6618872006732039e-05 -1.2954090227625913e-10 -9.3749447812047684e-05 3.1252103543918412e-05 -8.5383824201048384e-12 -7.892980136453055e-05 2.6312058661971725e-05 -4.338849466328229e-12 -9.3749436575250126e-05 3.1252238849693718e-05 -5.7178664043499381e-11 -9.3749709035420749e-05 2.4382763659361568e-05 -5.2529538790266453e-12 -7.3142699487648629e-05 2.5264438065733415e-05 1.135386593832658e-10 -9.3749355087478667e-05 2.4277781440997117e-05 1.8845388521442211e-10 -7.6560402502516084e-05 2.1454401121991293e-05 1.1098150922607301e-10 -6.4358466206845071e-05 2.4382763659361568e-05 -5.2529538790266453e-12 -7.3142699487648629e-05 2.5264438065733418e-05 1.1353865938326579e-10 -9.3749355087478667e-05 3.1252118467735261e-05 1.1624344343489607e-10 -7.5787284610346885e-05 2.4277781440997117e-05 1.8845388521442211e-10 -7.6560402502516084e-05 3.1252103543918412e-05 -8.538382420104853e-12 -7.892980136453055e-05 2.6312058661971725e-05 -4.3388494663282314e-12 -9.3749436575250126e-05 3.1252249420118048e-05 6.9342684683523252e-11 -9.3749694361665536e-05 3.1252118467735267e-05 1.1624344343489607e-10 -7.5787284610346898e-05 2.4382763659361568e-05 -5.2529538790266453e-12 -7.3142699487648629e-05 3.1252118467735267e-05 1.1624344343489608e-10 -7.5787284610346885e-05 2.4277781440997117e-05 1.8845388521442211e-10 -7.6560402502516084e-05 2.1454401121991296e-05 1.1098150922607302e-10 -6.4358466206845071e-05 2.6312058661971725e-05 -4.338849466328229e-12 -9.3749436575250126e-05 3.1252249420118048e-05 6.9342684683523252e-11 -9.3749694361665536e-05 2.5264438065733418e-05 1.1353865938326579e-10 -9.3749355087478667e-05 3.1252118467735267e-05 1.1624344343489607e-10 -7.5787284610346898e-05 3.1252249420118048e-05 6.9342684683523252e-11 -9.3749694361665536e-05 2.5264438065733418e-05 1.1353865938326579e-10 -9.3749355087478667e-05 3.1252118467735267e-05 1.1624344343489607e-10 -7.5787284610346898e-05 3.1252247819805982e-05 1.7160963196061887e-10 -9.3749687752722773e-05 2.4382763659361568e-05 -5.2529538790266453e-12 -7.3142699487648629e-05 2.6312058661971725e-05 -4.338849466328229e-12 -9.3749436575250126e-05 2.5264438065733415e-05 1.1353865938326576e-10 -9.3749355087478667e-05 2.1039324550889642e-05 1.6878602763080039e-11 -9.3749223387239113e-05 2.4382763659361568e-05 -5.2529538790266453e-12 -7.3142699487648629e-05 2.6312058661971729e-05 -4.3388494663282273e-12 -9.3749436575250126e-05 2.5264438065733418e-05 1.1353865938326579e-10 -9.3749355087478667e-05 3.1252118467735267e-05 1.1624344343489606e-10 -7.5787284610346898e-05 3.1252103543918412e-05 -8.538382420104853e-12 -7.892980136453055e-05 2.4382763659361568e-05 -5.2529538790266453e-12 -7.3142699487648629e-05 3.1252118467735267e-05 1.1624344343489607e-10 -7.5787284610346898e-05 3.1252020727542721e-05 2.1370050414063644e-11 -6.3113058246727798e-05 3.1252103543918412e-05 -8.538382420104853e-12 -7.892980136453055e-05 2.4382763659361568e-05 -5.2529538790266477e-12 -7.3142699487648629e-05 2.6312058661971725e-05 -4.338849466328229e-12 -9.3749436575250126e-05 3.1252118467735267e-05 1.1624344343489607e-10 -7.5787284610346898e-05 2.3453171142800527e-05 1.7450436009827372e-11 -4.6722107160600778e-05 2.4382763659361565e-05 -5.2529538790266469e-12 -7.3142699487648629e-05 3.1252020727542721e-05 2.1370050414063569e-11 -6.3113058246727798e-05 3.1252052957208414e-05 1.2861695215573326e-10 -5.7203172511974677e-05 2.4181251484316052e-05 2.101197654825955e-10 -4.6715031483825681e-05 2.3453171142800527e-05 1.745043600982735e-11 -4.6722107160600771e-05 3.1252052957208414e-05 1.2861695215573323e-10 -5.7203172511974684e-05 2.1454401121991296e-05 1.1098150922607302e-10 -6.4358466206845071e-05 2.4181251484316052e-05 2.101197654825955e-10 -4.6715031483825681e-05 3.1252052957208414e-05 1.2861695215573321e-10 -5.7203172511974684e-05 3.1252084658755665e-05 2.0913210754132151e-10 -6.5026468870844572e-05 2.1454401121991293e-05 1.1098150922607302e-10 -6.4358466206845057e-05 3.1252118467735267e-05 1.1624344343489607e-10 -7.5787284610346898e-05 3.1252052957208421e-05 1.2861695215573326e-10 -5.7203172511974684e-05 2.4277781440997117e-05 1.8845388521442211e-10 -7.6560402502516084e-05 2.1454401121991296e-05 1.1098150922607302e-10 -6.4358466206845071e-05 2.4181251484316052e-05 2.101197654825955e-10 -4.6715031483825681e-05 3.1252017182579109e-05 1.2414435653991041e-10 -4.2949481011648228e-05 2.3453171142800531e-05 1.7450436009827347e-11 -4.6722107160600778e-05 3.1252052957208414e-05 1.2861695215573328e-10 -5.7203172511974691e-05 2.3453171142800527e-05 1.7450436009827372e-11 -4.6722107160600778e-05 2.4382763659361565e-05 -5.2529538790266534e-12 -7.3142699487648629e-05 3.1252052957208414e-05 1.2861695215573326e-10 -5.7203172511974684e-05 2.1454401121991296e-05 1.1098150922607302e-10 -6.4358466206845071e-05 2.4382763659361568e-05 -5.2529538790266453e-12 -7.3142699487648629e-05 3.1252118467735261e-05 1.1624344343489607e-10 -7.5787284610346885e-05 3.1252052957208414e-05 1.2861695215573328e-10 -5.7203172511974684e-05 2.1454401121991296e-05 1.1098150922607302e-10 -6.4358466206845071e-05 2.4382763659361568e-05 -5.2529538790266453e-12 -7.3142699487648629e-05 3.1252118467735267e-05 1.162434434348961e-10 -7.5787284610346898e-05 3.1252020727542721e-05 2.1370050414063605e-11 -6.3113058246727798e-05 3.1252052957208414e-05 1.2861695215573326e-10 -5.7203172511974691e-05 2.3453171142800527e-05 1.7450436009827372e-11 -4.6722107160600778e-05 3.1252020727542721e-05 2.1370050414063644e-11 -6.3113058246727798e-05 3.1251919081902878e-05 4.4602924711715812e-13 -4.8714252936347331e-05 3.1252052957208414e-05 1.2861695215573326e-10 -5.7203172511974684e-05 3.1252017182579102e-05 1.2414435653991041e-10 -4.2949481011648235e-05 2.3453171142800527e-05 1.7450436009827369e-11 -4.6722107160600778e-05 3.1251919081902878e-05 4.4602924711715812e-13 -4.8714252936347331e-05 3.1252052957208414e-05 1.2861695215573326e-10 -5.7203172511974684e-05 2.4181251484316052e-05 2.101197654825955e-10 -4.6715031483825681e-05 3.1252017182579102e-05 1.2414435653991035e-10 -4.2949481011648235e-05 3.1252052957208414e-05 1.2861695215573326e-10 -5.7203172511974684e-05 3.1251967302286226e-05 2.0129947164072682e-10 -4.7628452021229466e-05 2.4181251484316052e-05 2.101197654825955e-10 -4.6715031483825681e-05 3.1252084658755665e-05 2.0913210754132151e-10 -6.5026468870844572e-05 2.4277781440997117e-05 1.8845388521442214e-10 -7.6560402502516084e-05 2.1454401121991296e-05 1.1098150922607296e-10 -6.4358466206845057e-05 2.4181251484316052e-05 2.101197654825955e-10 -4.6715031483825681e-05 2.5422497777468426e-05 3.2068568404804407e-10 -6.4144611964690051e-05 2.4277781440997121e-05 1.8845388521442214e-10 -7.6560402502516098e-05 2.1454401121991296e-05 1.1098150922607305e-10 -6.4358466206845071e-05 3.1252052957208414e-05 1.2861695215573326e-10 -5.7203172511974684e-05 3.1252084658755665e-05 2.0913210754132151e-10 -6.5026468870844572e-05 2.4277781440997114e-05 1.8845388521442214e-10 -7.6560402502516084e-05 2.1454401121991296e-05 1.1098150922607302e-10 -6.4358466206845071e-05 3.1252118467735267e-05 1.1624344343489607e-10 -7.5787284610346898e-05 3.1252052957208414e-05 1.2861695215573326e-10 -5.7203172511974684e-05 3.1252084658755665e-05 2.0913210754132151e-10 -6.5026468870844572e-05 2.4277781440997117e-05 1.8845388521442211e-10 -7.6560402502516084e-05 2.4181251484316052e-05 2.101197654825955e-10 -4.6715031483825681e-05 3.1252084658755665e-05 2.0913210754132151e-10 -6.5026468870844572e-05 2.542249777746843e-05 3.2068568404804407e-10 -6.4144611964690051e-05 2.4277781440997117e-05 1.8845388521442211e-10 -7.6560402502516084e-05 2.4181251484316052e-05 2.101197654825955e-10 -4.6715031483825681e-05 3.1252052957208407e-05 1.2861695215573321e-10 -5.7203172511974677e-05 3.1252084658755665e-05 2.0913210754132151e-10 -6.5026468870844572e-05 3.1251967302286226e-05 2.0129947164072682e-10 -4.7628452021229466e-05 2.4181251484316052e-05 2.101197654825955e-10 -4.6715031483825681e-05 3.1252084658755665e-05 2.0913210754132151e-10 -6.5026468870844572e-05 3.1251967302286219e-05 2.0129947164072682e-10 -4.7628452021229466e-05 2.7115119147521446e-05 3.0053750879745687e-10 -4.7445441774463918e-05 3.1252084658755665e-05 2.0913210754132151e-10 -6.5026468870844572e-05 3.1251967302286226e-05 2.0129947164072684e-10 -4.7628452021229466e-05 3.1251963172165908e-05 3.2601274118053154e-10 -5.6250185875921214e-05 2.7115119147521443e-05 3.0053750879745682e-10 -4.7445441774463911e-05 3.1251943104064336e-05 2.985970859556621e-10 -3.7500499194013576e-05 3.1251967302286233e-05 2.0129947164072687e-10 -4.762845202122946e-05 3.1251963172165908e-05 3.2601274118053154e-10 -5.6250185875921214e-05 2.7115119147521446e-05 3.0053750879745687e-10 -4.7445441774463911e-05 3.1252084658755665e-05 2.0913210754132151e-10 -6.5026468870844572e-05 3.1251963172165901e-05 3.2601274118053154e-10 -5.6250185875921214e-05 2.7115119147521446e-05 3.0053750879745677e-10 -4.7445441774463905e-05 2.5422497777468426e-05 3.2068568404804407e-10 -6.4144611964690051e-05 2.4181251484316052e-05 2.101197654825955e-10 -4.6715031483825681e-05 2.7115119147521449e-05 3.0053750879745682e-10 -4.7445441774463918e-05 2.5422497777468433e-05 3.2068568404804412e-10 -6.4144611964690051e-05 2.1326566786003424e-05 3.7196031928718952e-10 -4.9040896565364083e-05 2.4181251484316052e-05 2.101197654825955e-10 -4.6715031483825681e-05 3.1252084658755665e-05 2.0913210754132151e-10 -6.5026468870844572e-05 2.7115119147521446e-05 3.0053750879745687e-10 -4.7445441774463911e-05 2.542249777746843e-05 3.2068568404804407e-10 -6.4144611964690051e-05 3.1252084658755665e-05 2.0913210754132151e-10 -6.5026468870844572e-05 3.1251963172165908e-05 3.2601274118053149e-10 -5.6250185875921214e-05 2.5422497777468433e-05 3.2068568404804407e-10 -6.4144611964690051e-05 3.1252005859913674e-05 3.5492890447391392e-10 -7.4999897246150199e-05 3.1252084658755665e-05 2.0913210754132151e-10 -6.5026468870844572e-05 2.5422497777468433e-05 3.2068568404804407e-10 -6.4144611964690051e-05 3.1252005859913674e-05 3.5492890447391397e-10 -7.4999897246150185e-05 2.6676643388270351e-05 2.3751336723937431e-10 -8.0023754033626705e-05 3.1252084658755665e-05 2.0913210754132151e-10 -6.5026468870844572e-05 3.1252140135539259e-05 1.9931295157398038e-10 -8.0023884138596716e-05 2.4277781440997117e-05 1.8845388521442211e-10 -7.6560402502516084e-05 2.6676643388270344e-05 2.375133672393741e-10 -8.0023754033626705e-05 3.1252084658755665e-05 2.0913210754132151e-10 -6.5026468870844572e-05 3.1252005859913674e-05 3.5492890447391392e-10 -7.4999897246150199e-05 3.1252140135539259e-05 1.9931295157398038e-10 -8.0023884138596716e-05 2.6676643388270354e-05 2.3751336723937426e-10 -8.0023754033626705e-05 3.1252264897155031e-05 3.2540157500988524e-10 -9.3749726322363825e-05 3.1252247819805982e-05 1.7160963196061887e-10 -9.3749687752722773e-05 3.1252140135539259e-05 1.9931295157398038e-10 -8.0023884138596716e-05 2.6676778112715465e-05 2.1776051137590584e-10 -9.3749453539902479e-05 3.1252264897155031e-05 3.2540157500988524e-10 -9.3749726322363825e-05 2.6676778112715465e-05 2.1776051137590584e-10 -9.3749453539902479e-05 2.5001976276453129e-05 3.0861302979839705e-10 -9.374937719367091e-05 2.6676643388270347e-05 2.3751336723937415e-10 -8.0023754033626705e-05 3.1252005859913674e-05 3.5492890447391392e-10 -7.4999897246150199e-05 3.1252264897155031e-05 3.2540157500988529e-10 -9.3749726322363825e-05 3.1252140135539259e-05 1.9931295157398038e-10 -8.0023884138596716e-05 2.6676643388270347e-05 2.3751336723937415e-10 -8.0023754033626705e-05 3.1252264897155031e-05 3.2540157500988524e-10 -9.3749726322363825e-05 3.1252140135539259e-05 1.9931295157398038e-10 -8.0023884138596716e-05 2.6676778112715465e-05 2.1776051137590584e-10 -9.3749453539902479e-05 2.6676643388270347e-05 2.3751336723937415e-10 -8.0023754033626705e-05 3.1252118467735267e-05 1.1624344343489607e-10 -7.5787284610346898e-05 3.1252247819805982e-05 1.7160963196061887e-10 -9.3749687752722773e-05 3.1252140135539259e-05 1.9931295157398038e-10 -8.0023884138596716e-05 2.6676778112715465e-05 2.1776051137590584e-10 -9.3749453539902479e-05 2.5264438065733418e-05 1.1353865938326579e-10 -9.3749355087478667e-05 3.1252118467735267e-05 1.1624344343489607e-10 -7.5787284610346898e-05 3.1252247819805982e-05 1.7160963196061887e-10 -9.3749687752722773e-05 2.6676778112715465e-05 2.1776051137590584e-10 -9.3749453539902479e-05 3.1252118467735267e-05 1.1624344343489607e-10 -7.5787284610346898e-05 3.1252140135539259e-05 1.9931295157398038e-10 -8.0023884138596716e-05 2.4277781440997117e-05 1.8845388521442211e-10 -7.6560402502516084e-05 2.6676778112715465e-05 2.1776051137590584e-10 -9.3749453539902479e-05 3.1252118467735267e-05 1.1624344343489607e-10 -7.5787284610346898e-05 3.1252084658755665e-05 2.0913210754132151e-10 -6.5026468870844572e-05 3.1252140135539259e-05 1.9931295157398038e-10 -8.0023884138596716e-05 2.4277781440997117e-05 1.8845388521442211e-10 -7.6560402502516084e-05 2.5264438065733418e-05 1.1353865938326579e-10 -9.3749355087478667e-05 2.4277781440997114e-05 1.8845388521442209e-10 -7.6560402502516071e-05 2.6676778112715465e-05 2.1776051137590584e-10 -9.3749453539902479e-05 2.1677181878855786e-05 2.2599756876208053e-10 -9.3749238940923877e-05 2.5264438065733418e-05 1.1353865938326579e-10 -9.3749355087478667e-05 3.1252118467735267e-05 1.1624344343489608e-10 -7.5787284610346912e-05 2.4277781440997117e-05 1.8845388521442211e-10 -7.6560402502516084e-05 2.6676778112715465e-05 2.1776051137590584e-10 -9.3749453539902479e-05 2.4277781440997117e-05 1.8845388521442211e-10 -7.6560402502516084e-05 2.6676778112715465e-05 2.1776051137590584e-10 -9.3749453539902479e-05 2.5001976276453129e-05 3.0861302979839705e-10 -9.374937719367091e-05 2.6676643388270347e-05 2.375133672393741e-10 -8.0023754033626705e-05 2.4277781440997117e-05 1.8845388521442211e-10 -7.6560402502516084e-05 2.5001976276453129e-05 3.0861302979839705e-10 -9.374937719367091e-05 2.6676643388270347e-05 2.375133672393741e-10 -8.0023754033626692e-05 2.1870854452103993e-05 3.0265764314415332e-10 -7.786620632935611e-05 2.4277781440997117e-05 1.8845388521442211e-10 -7.6560402502516084e-05 2.6676778112715465e-05 2.1776051137590584e-10 -9.3749453539902479e-05 2.5001976276453129e-05 3.0861302979839705e-10 -9.3749377193670896e-05 2.1677181878855786e-05 2.2599756876208053e-10 -9.3749238940923877e-05 3.1252140135539259e-05 1.9931295157398038e-10 -8.0023884138596716e-05 2.4277781440997117e-05 1.8845388521442214e-10 -7.6560402502516098e-05 2.6676778112715465e-05 2.1776051137590584e-10 -9.3749453539902479e-05 2.6676643388270347e-05 2.375133672393741e-10 -8.0023754033626705e-05 2.542249777746843e-05 3.2068568404804407e-10 -6.4144611964690051e-05 2.4277781440997117e-05 1.8845388521442211e-10 -7.6560402502516084e-05 2.6676643388270344e-05 2.375133672393741e-10 -8.0023754033626692e-05 2.187085445210399e-05 3.0265764314415326e-10 -7.7866206329356096e-05 3.1252084658755665e-05 2.0913210754132151e-10 -6.5026468870844572e-05 2.542249777746843e-05 3.2068568404804407e-10 -6.4144611964690051e-05 2.4277781440997117e-05 1.8845388521442211e-10 -7.6560402502516084e-05 2.6676643388270347e-05 2.3751336723937421e-10 -8.0023754033626692e-05 2.4277781440997117e-05 1.8845388521442211e-10 -7.6560402502516084e-05 2.187085445210399e-05 3.0265764314415326e-10 -7.7866206329356096e-05 2.1677181878855786e-05 2.2599756876208053e-10 -9.3749238940923877e-05 1.5598389599468659e-05 1.7154995428629448e-10 -7.3026479297763766e-05 2.4277781440997117e-05 1.8845388521442211e-10 -7.6560402502516084e-05 2.1677181878855786e-05 2.2599756876208053e-10 -9.3749238940923877e-05 1.9069166843464717e-05 1.1624393200711028e-10 -9.3749180599590241e-05 1.5598389599468655e-05 1.7154995428629443e-10 -7.3026479297763752e-05 2.542249777746843e-05 3.2068568404804407e-10 -6.4144611964690051e-05 2.4277781440997117e-05 1.8845388521442211e-10 -7.6560402502516084e-05 2.187085445210399e-05 3.0265764314415326e-10 -7.7866206329356096e-05 1.9136775961492609e-05 2.7545463272511128e-10 -6.3597393931455457e-05 2.4277781440997117e-05 1.8845388521442211e-10 -7.6560402502516084e-05 2.187085445210399e-05 3.0265764314415326e-10 -7.7866206329356096e-05 1.9136775961492609e-05 2.7545463272511128e-10 -6.3597393931455457e-05 1.5598389599468659e-05 1.7154995428629448e-10 -7.3026479297763766e-05 2.4277781440997117e-05 1.8845388521442211e-10 -7.6560402502516084e-05 2.5001976276453133e-05 3.086130297983971e-10 -9.3749377193670923e-05 2.187085445210399e-05 3.0265764314415326e-10 -7.7866206329356096e-05 2.1677181878855786e-05 2.2599756876208053e-10 -9.3749238940923877e-05 2.187085445210399e-05 3.0265764314415326e-10 -7.7866206329356096e-05 2.1677181878855786e-05 2.2599756876208053e-10 -9.3749238940923877e-05 1.8751488404613641e-05 3.6413524462767392e-10 -9.3749219018564095e-05 1.5929321065174443e-05 3.0165976391826046e-10 -7.8313533412780058e-05 2.5001976276453129e-05 3.0861302979839705e-10 -9.374937719367091e-05 2.187085445210399e-05 3.0265764314415326e-10 -7.7866206329356096e-05 2.1677181878855786e-05 2.2599756876208053e-10 -9.3749238940923877e-05 1.8751488404613641e-05 3.6413524462767392e-10 -9.3749219018564095e-05 2.5264438065733418e-05 1.1353865938326579e-10 -9.3749355087478667e-05 2.4277781440997121e-05 1.8845388521442209e-10 -7.6560402502516084e-05 2.1677181878855786e-05 2.2599756876208053e-10 -9.3749238940923877e-05 1.906916684346472e-05 1.1624393200711026e-10 -9.3749180599590241e-05 2.1677181878855786e-05 2.2599756876208053e-10 -9.3749238940923877e-05 1.5877286155039237e-05 2.3830266640843958e-10 -9.3749132268340445e-05 1.906916684346472e-05 1.1624393200711026e-10 -9.3749180599590241e-05 1.5598389599468659e-05 1.7154995428629448e-10 -7.3026479297763766e-05 2.1677181878855786e-05 2.2599756876208053e-10 -9.3749238940923877e-05 1.5877286155039237e-05 2.3830266640843958e-10 -9.3749132268340445e-05 1.5929321065174443e-05 3.0165976391826056e-10 -7.8313533412780058e-05 1.5598389599468659e-05 1.7154995428629448e-10 -7.3026479297763766e-05 1.5877286155039237e-05 2.3830266640843958e-10 -9.3749132268340445e-05 1.8751488404613641e-05 3.6413524462767392e-10 -9.3749219018564095e-05 1.5929321065174443e-05 3.0165976391826046e-10 -7.8313533412780058e-05 1.2500981692735827e-05 4.042734743432868e-10 -9.3749142178782961e-05 2.1677181878855786e-05 2.2599756876208053e-10 -9.3749238940923877e-05 1.5877286155039237e-05 2.3830266640843958e-10 -9.3749132268340445e-05 1.8751488404613641e-05 3.6413524462767392e-10 -9.3749219018564095e-05 1.5929321065174439e-05 3.0165976391826046e-10 -7.8313533412780045e-05 2.187085445210399e-05 3.0265764314415326e-10 -7.7866206329356096e-05 2.1677181878855786e-05 2.259975687620805e-10 -9.3749238940923877e-05 1.5929321065174443e-05 3.0165976391826046e-10 -7.8313533412780058e-05 1.5598389599468662e-05 1.7154995428629448e-10 -7.3026479297763766e-05 2.187085445210399e-05 3.0265764314415326e-10 -7.7866206329356096e-05 1.5929321065174443e-05 3.0165976391826046e-10 -7.8313533412780058e-05 1.9136775961492609e-05 2.7545463272511128e-10 -6.3597393931455457e-05 1.5598389599468659e-05 1.7154995428629445e-10 -7.3026479297763766e-05 1.9136775961492609e-05 2.7545463272511128e-10 -6.3597393931455457e-05 2.1454401121991296e-05 1.1098150922607302e-10 -6.4358466206845057e-05 1.5621076143583177e-05 1.5831230713883468e-10 -4.9657000194535878e-05 1.5598389599468659e-05 1.7154995428629448e-10 -7.3026479297763766e-05 2.4181251484316052e-05 2.101197654825955e-10 -4.6715031483825681e-05 1.9136775961492609e-05 2.7545463272511118e-10 -6.3597393931455457e-05 2.1326566786003424e-05 3.7196031928718952e-10 -4.9040896565364076e-05 1.5621076143583173e-05 1.5831230713883465e-10 -4.9657000194535871e-05 1.9136775961492609e-05 2.7545463272511128e-10 -6.3597393931455457e-05 1.562107614358317e-05 1.5831230713883465e-10 -4.9657000194535871e-05 1.4319825871007083e-05 2.667951154710957e-10 -6.4658885024395583e-05 1.5598389599468659e-05 1.7154995428629448e-10 -7.3026479297763766e-05 1.5929321065174443e-05 3.0165976391826046e-10 -7.8313533412780058e-05 1.9136775961492609e-05 2.7545463272511128e-10 -6.3597393931455457e-05 1.4319825871007083e-05 2.667951154710957e-10 -6.4658885024395583e-05 1.5598389599468655e-05 1.7154995428629448e-10 -7.3026479297763752e-05 2.4181251484316052e-05 2.101197654825955e-10 -4.6715031483825681e-05 1.9136775961492605e-05 2.7545463272511128e-10 -6.3597393931455457e-05 2.1454401121991296e-05 1.1098150922607305e-10 -6.4358466206845071e-05 1.5621076143583173e-05 1.5831230713883465e-10 -4.9657000194535871e-05 2.542249777746843e-05 3.2068568404804407e-10 -6.4144611964690051e-05 2.4277781440997117e-05 1.8845388521442211e-10 -7.6560402502516084e-05 1.9136775961492609e-05 2.7545463272511128e-10 -6.3597393931455457e-05 2.1454401121991296e-05 1.1098150922607302e-10 -6.4358466206845071e-05 2.4277781440997117e-05 1.8845388521442211e-10 -7.6560402502516084e-05 1.9136775961492605e-05 2.7545463272511128e-10 -6.3597393931455443e-05 2.1454401121991296e-05 1.1098150922607301e-10 -6.4358466206845084e-05 1.5598389599468662e-05 1.7154995428629448e-10 -7.3026479297763766e-05 2.4181251484316052e-05 2.101197654825955e-10 -4.6715031483825681e-05 2.542249777746843e-05 3.2068568404804407e-10 -6.4144611964690051e-05 1.9136775961492612e-05 2.7545463272511128e-10 -6.3597393931455457e-05 2.1454401121991293e-05 1.1098150922607304e-10 -6.4358466206845057e-05 2.4181251484316052e-05 2.101197654825955e-10 -4.6715031483825681e-05 2.542249777746843e-05 3.2068568404804407e-10 -6.4144611964690051e-05 1.9136775961492609e-05 2.7545463272511128e-10 -6.3597393931455457e-05 2.1326566786003424e-05 3.7196031928718957e-10 -4.9040896565364076e-05 1.6239093534900462e-05 3.1638350014144791e-10 -4.6875224519034028e-05 1.9136775961492609e-05 2.7545463272511128e-10 -6.3597393931455457e-05 1.5621076143583173e-05 1.5831230713883463e-10 -4.9657000194535878e-05 1.4319825871007083e-05 2.667951154710957e-10 -6.4658885024395583e-05 1.6239093534900462e-05 3.1638350014144791e-10 -4.6875224519034028e-05 1.9136775961492609e-05 2.7545463272511128e-10 -6.3597393931455457e-05 2.1326566786003424e-05 3.7196031928718952e-10 -4.9040896565364076e-05 1.5621076143583173e-05 1.5831230713883463e-10 -4.9657000194535871e-05 2.1454401121991296e-05 1.1098150922607302e-10 -6.4358466206845071e-05 1.5568688300201662e-05 1.4850811902880743e-11 -7.0354987618031245e-05 1.5621076143583173e-05 1.5831230713883463e-10 -4.9657000194535871e-05 1.5598389599468659e-05 1.7154995428629448e-10 -7.3026479297763766e-05 2.3453171142800527e-05 1.7450436009827372e-11 -4.6722107160600778e-05 1.5626080314932584e-05 -1.8184049082219061e-12 -4.6875184481376147e-05 2.1454401121991296e-05 1.1098150922607302e-10 -6.4358466206845071e-05 1.5568688300201659e-05 1.4850811902880837e-11 -7.0354987618031245e-05 2.3453171142800527e-05 1.7450436009827372e-11 -4.6722107160600778e-05 2.4382763659361568e-05 -5.2529538790266453e-12 -7.3142699487648629e-05 2.1454401121991296e-05 1.1098150922607302e-10 -6.4358466206845071e-05 1.5568688300201666e-05 1.4850811902880779e-11 -7.0354987618031245e-05 2.3453171142800527e-05 1.7450436009827372e-11 -4.6722107160600778e-05 1.5626080314932584e-05 -1.8184049082218845e-12 -4.687518448137614e-05 2.1454401121991296e-05 1.1098150922607302e-10 -6.4358466206845071e-05 1.5621076143583173e-05 1.5831230713883465e-10 -4.9657000194535871e-05 2.4181251484316052e-05 2.101197654825955e-10 -4.6715031483825681e-05 2.3453171142800531e-05 1.7450436009827347e-11 -4.6722107160600778e-05 2.1454401121991296e-05 1.1098150922607302e-10 -6.4358466206845071e-05 1.562107614358317e-05 1.5831230713883463e-10 -4.9657000194535864e-05 1.5626080314932584e-05 -1.8184049082219061e-12 -4.6875184481376147e-05 2.1454401121991293e-05 1.1098150922607304e-10 -6.4358466206845057e-05 1.5568688300201659e-05 1.4850811902880737e-11 -7.0354987618031245e-05 1.5621076143583173e-05 1.5831230713883465e-10 -4.9657000194535871e-05 2.4382763659361568e-05 -5.2529538790266453e-12 -7.3142699487648629e-05 2.1039324550889649e-05 1.6878602763080094e-11 -9.3749223387239126e-05 1.906916684346472e-05 1.1624393200711019e-10 -9.3749180599590255e-05 1.5568688300201662e-05 1.4850811902880743e-11 -7.0354987618031245e-05 2.4382763659361568e-05 -5.2529538790266453e-12 -7.3142699487648629e-05 2.1454401121991296e-05 1.1098150922607301e-10 -6.4358466206845071e-05 1.906916684346472e-05 1.1624393200711026e-10 -9.3749180599590241e-05 1.5568688300201662e-05 1.4850811902880756e-11 -7.0354987618031245e-05 2.4382763659361568e-05 -5.2529538790266453e-12 -7.3142699487648629e-05 2.5264438065733421e-05 1.135386593832658e-10 -9.3749355087478667e-05 2.1454401121991296e-05 1.1098150922607302e-10 -6.4358466206845071e-05 1.906916684346472e-05 1.1624393200711026e-10 -9.3749180599590241e-05 2.4277781440997117e-05 1.8845388521442211e-10 -7.6560402502516084e-05 2.1454401121991293e-05 1.1098150922607304e-10 -6.4358466206845057e-05 1.9069166843464723e-05 1.162439320071103e-10 -9.3749180599590241e-05 1.5598389599468659e-05 1.7154995428629445e-10 -7.3026479297763766e-05 2.1454401121991296e-05 1.1098150922607302e-10 -6.4358466206845071e-05 1.9069166843464717e-05 1.1624393200711026e-10 -9.3749180599590228e-05 1.5568688300201662e-05 1.485081190288074e-11 -7.0354987618031245e-05 1.5598389599468659e-05 1.7154995428629448e-10 -7.3026479297763766e-05 2.5264438065733418e-05 1.1353865938326579e-10 -9.3749355087478667e-05 2.4277781440997117e-05 1.8845388521442211e-10 -7.6560402502516084e-05 2.1454401121991293e-05 1.1098150922607295e-10 -6.4358466206845057e-05 1.906916684346472e-05 1.1624393200711026e-10 -9.3749180599590241e-05 2.4382763659361568e-05 -5.2529538790266453e-12 -7.3142699487648629e-05 2.5264438065733418e-05 1.1353865938326576e-10 -9.374935508747868e-05 2.1039324550889642e-05 1.6878602763080036e-11 -9.3749223387239126e-05 1.906916684346472e-05 1.1624393200711019e-10 -9.3749180599590241e-05 1.906916684346472e-05 1.1624393200711026e-10 -9.3749180599590241e-05 1.4317476891681801e-05 1.2308858450952495e-10 -9.3749109036101518e-05 1.5568688300201662e-05 1.4850811902880743e-11 -7.0354987618031245e-05 1.5598389599468659e-05 1.7154995428629453e-10 -7.3026479297763766e-05 1.5877286155039237e-05 2.3830266640843958e-10 -9.3749132268340445e-05 1.906916684346472e-05 1.1624393200711026e-10 -9.3749180599590241e-05 1.4317476891681801e-05 1.2308858450952495e-10 -9.3749109036101518e-05 1.5598389599468659e-05 1.7154995428629448e-10 -7.3026479297763766e-05 1.906916684346472e-05 1.1624393200711026e-10 -9.3749180599590241e-05 1.6239262543165666e-05 -3.7217379365253162e-12 -9.3749144281366747e-05 1.4317476891681801e-05 1.2308858450952495e-10 -9.3749109036101518e-05 1.5568688300201662e-05 1.4850811902880743e-11 -7.0354987618031245e-05 2.1039324550889645e-05 1.6878602763080017e-11 -9.3749223387239126e-05 1.906916684346472e-05 1.1624393200711026e-10 -9.3749180599590241e-05 1.6239262543165666e-05 -3.7217379365253162e-12 -9.3749144281366747e-05 1.5568688300201662e-05 1.4850811902880743e-11 -7.0354987618031245e-05 1.0140355794177882e-05 6.68667877548702e-11 -9.374907711982432e-05 9.7378533768737728e-06 1.1936676349647452e-10 -6.4238857938108391e-05 5.7672892105088155e-06 1.6348621588391201e-10 -7.6511854528055141e-05 6.8267295487136679e-06 -7.4069468337530631e-13 -7.2782323720805217e-05 1.6239262543165666e-05 -3.7217379365253162e-12 -9.3749144281366747e-05 1.0140355794177882e-05 6.68667877548702e-11 -9.374907711982432e-05 1.5568688300201662e-05 1.4850811902880743e-11 -7.0354987618031245e-05 1.0289953380024149e-05 -7.0221846121837213e-11 -9.3749078776139108e-05 1.4317476891681801e-05 1.2308858450952495e-10 -9.3749109036101518e-05 9.7378533768737728e-06 1.1936676349647452e-10 -6.4238857938108391e-05 1.5598389599468659e-05 1.7154995428629448e-10 -7.3026479297763766e-05 9.7092354432795269e-06 2.1196283836353658e-10 -9.3749073837692105e-05 1.0140355794177882e-05 6.68667877548702e-11 -9.374907711982432e-05 1.5568688300201662e-05 1.4850811902880743e-11 -7.0354987618031245e-05 6.8267295487136679e-06 -7.4069468337530631e-13 -7.2782323720805217e-05 1.0289953380024149e-05 -7.0221846121837213e-11 -9.3749078776139108e-05 1.4317476891681801e-05 1.2308858450952495e-10 -9.3749109036101518e-05 1.5568688300201662e-05 1.485081190288073e-11 -7.0354987618031245e-05 9.7378533768737728e-06 1.1936676349647452e-10 -6.4238857938108391e-05 1.5598389599468659e-05 1.7154995428629448e-10 -7.3026479297763766e-05 1.0140355794177882e-05 6.68667877548702e-11 -9.374907711982432e-05 1.5568688300201662e-05 1.4850811902880782e-11 -7.0354987618031245e-05 9.7378533768737745e-06 1.193667634964745e-10 -6.4238857938108378e-05 6.8267295487136679e-06 -7.4069468337530631e-13 -7.2782323720805217e-05 1.6239262543165666e-05 -3.7217379365253162e-12 -9.3749144281366747e-05 1.4317476891681801e-05 1.2308858450952495e-10 -9.3749109036101518e-05 1.0140355794177882e-05 6.68667877548702e-11 -9.374907711982432e-05 1.5568688300201662e-05 1.4850811902880743e-11 -7.0354987618031245e-05 1.4317476891681801e-05 1.2308858450952495e-10 -9.3749109036101518e-05 1.0140355794177882e-05 6.68667877548702e-11 -9.374907711982432e-05 9.7378533768737728e-06 1.1936676349647452e-10 -6.4238857938108391e-05 9.7092354432795269e-06 2.1196283836353658e-10 -9.3749073837692105e-05 1.4317476891681801e-05 1.2308858450952495e-10 -9.3749109036101518e-05 1.0140355794177882e-05 6.68667877548702e-11 -9.374907711982432e-05 1.5568688300201662e-05 1.4850811902880743e-11 -7.0354987618031245e-05 9.7378533768737728e-06 1.1936676349647452e-10 -6.4238857938108391e-05 1.0140355794177882e-05 6.68667877548702e-11 -9.374907711982432e-05 9.7378533768737728e-06 1.1936676349647452e-10 -6.4238857938108391e-05 9.7092354432795269e-06 2.1196283836353658e-10 -9.3749073837692105e-05 5.7672892105088155e-06 1.6348621588391201e-10 -7.6511854528055141e-05 7.74091192846336e-06 2.1079606229583793e-11 -4.2280071442435147e-05 1.5626080314932584e-05 -1.8184049082218855e-12 -4.6875184481376147e-05 9.7378533768737728e-06 1.1936676349647452e-10 -6.4238857938108391e-05 1.5621076143583173e-05 1.5831230713883458e-10 -4.9657000194535871e-05 1.5626080314932584e-05 -1.8184049082219061e-12 -4.6875184481376147e-05 1.5568688300201666e-05 1.4850811902880737e-11 -7.0354987618031245e-05 9.7378533768737728e-06 1.1936676349647452e-10 -6.4238857938108391e-05 1.5621076143583173e-05 1.5831230713883465e-10 -4.9657000194535871e-05 7.74091192846336e-06 2.1079606229583793e-11 -4.2280071442435147e-05 7.0370189175574168e-06 1.8515466585711992e-10 -4.5175736099429796e-05 9.7378533768737728e-06 1.1936676349647452e-10 -6.4238857938108405e-05 1.5621076143583173e-05 1.5831230713883465e-10 -4.9657000194535871e-05 7.74091192846336e-06 2.1079606229583793e-11 -4.2280071442435147e-05 1.5626080314932584e-05 -1.818404908221895e-12 -4.6875184481376147e-05 9.7378533768737728e-06 1.1936676349647452e-10 -6.4238857938108391e-05 6.8267295487136679e-06 -7.4069468337530631e-13 -7.2782323720805217e-05 1.5626080314932584e-05 -1.8184049082219061e-12 -4.6875184481376147e-05 1.5568688300201666e-05 1.4850811902880785e-11 -7.0354987618031245e-05 9.7378533768737728e-06 1.1936676349647452e-10 -6.4238857938108391e-05 6.826729548713667e-06 -7.4069468337531288e-13 -7.2782323720805217e-05 1.5568688300201662e-05 1.4850811902880743e-11 -7.0354987618031245e-05 9.7378533768737728e-06 1.1936676349647452e-10 -6.4238857938108391e-05 1.5621076143583173e-05 1.5831230713883465e-10 -4.9657000194535871e-05 1.5598389599468659e-05 1.7154995428629448e-10 -7.3026479297763766e-05 9.7378533768737728e-06 1.1936676349647452e-10 -6.4238857938108391e-05 1.5621076143583173e-05 1.5831230713883465e-10 -4.9657000194535871e-05 1.0140744429618878e-05 3.6841823347936705e-10 -5.6268861464972468e-05 1.4319825871007086e-05 2.667951154710956e-10 -6.4658885024395597e-05 9.7378533768737728e-06 1.1936676349647452e-10 -6.4238857938108391e-05 1.0140744429618878e-05 3.6841823347936705e-10 -5.6268861464972468e-05 1.4319825871007083e-05 2.667951154710957e-10 -6.4658885024395583e-05 9.7147926992551988e-06 3.2600941657438116e-10 -7.6377575420129084e-05 9.7378533768737728e-06 1.1936676349647452e-10 -6.4238857938108391e-05 1.5621076143583173e-05 1.5831230713883465e-10 -4.9657000194535864e-05 1.4319825871007083e-05 2.667951154710957e-10 -6.4658885024395583e-05 1.5598389599468659e-05 1.7154995428629448e-10 -7.3026479297763766e-05 9.7378533768737728e-06 1.1936676349647452e-10 -6.4238857938108391e-05 1.014074442961888e-05 3.6841823347936705e-10 -5.6268861464972468e-05 9.7147926992551988e-06 3.2600941657438116e-10 -7.6377575420129084e-05 5.7672892105088155e-06 1.6348621588391201e-10 -7.6511854528055141e-05 7.0370189175574168e-06 1.8515466585711992e-10 -4.5175736099429796e-05 9.7378533768737728e-06 1.1936676349647452e-10 -6.4238857938108391e-05 1.5621076143583173e-05 1.5831230713883465e-10 -4.9657000194535871e-05 1.0140744429618878e-05 3.6841823347936705e-10 -5.6268861464972468e-05 9.7378533768737728e-06 1.1936676349647452e-10 -6.4238857938108391e-05 1.4319825871007083e-05 2.667951154710957e-10 -6.4658885024395583e-05 1.5598389599468659e-05 1.7154995428629445e-10 -7.3026479297763766e-05 9.7147926992551988e-06 3.2600941657438116e-10 -7.6377575420129084e-05 7.0370189175574168e-06 1.8515466585711992e-10 -4.5175736099429796e-05 1.029025647750213e-05 3.5333082013808342e-10 -3.7140415860400627e-05 1.562107614358317e-05 1.5831230713883463e-10 -4.9657000194535871e-05 1.0140744429618876e-05 3.6841823347936705e-10 -5.6268861464972474e-05 7.0370189175574168e-06 1.8515466585711992e-10 -4.5175736099429796e-05 9.7378533768737728e-06 1.193667634964745e-10 -6.4238857938108391e-05 1.0140744429618878e-05 3.6841823347936705e-10 -5.6268861464972468e-05 4.9691204257632151e-06 3.0221488711385466e-10 -6.5106858757652903e-05 1.029025647750213e-05 3.5333082013808337e-10 -3.7140415860400634e-05 1.6239093534900462e-05 3.1638350014144791e-10 -4.6875224519034028e-05 1.5621076143583173e-05 1.5831230713883465e-10 -4.9657000194535871e-05 1.0140744429618878e-05 3.6841823347936705e-10 -5.6268861464972468e-05 1.6239093534900462e-05 3.1638350014144791e-10 -4.6875224519034028e-05 1.5621076143583173e-05 1.5831230713883463e-10 -4.9657000194535878e-05 1.0140744429618876e-05 3.684182334793671e-10 -5.6268861464972468e-05 1.4319825871007083e-05 2.667951154710957e-10 -6.4658885024395583e-05 1.5929321065174443e-05 3.0165976391826046e-10 -7.8313533412780058e-05 1.4319825871007083e-05 2.667951154710957e-10 -6.4658885024395583e-05 1.5598389599468655e-05 1.7154995428629448e-10 -7.3026479297763752e-05 9.7147926992551988e-06 3.2600941657438116e-10 -7.6377575420129084e-05 1.5598389599468659e-05 1.7154995428629448e-10 -7.3026479297763766e-05 9.7092354432795269e-06 2.1196283836353658e-10 -9.3749073837692105e-05 9.7147926992551988e-06 3.2600941657438116e-10 -7.6377575420129084e-05 5.7672892105088155e-06 1.6348621588391201e-10 -7.6511854528055141e-05 9.7378533768737728e-06 1.1936676349647452e-10 -6.4238857938108391e-05 1.5598389599468655e-05 1.7154995428629445e-10 -7.3026479297763779e-05 9.7147926992552005e-06 3.2600941657438121e-10 -7.6377575420129071e-05 5.7672892105088155e-06 1.6348621588391201e-10 -7.6511854528055141e-05 1.5877286155039237e-05 2.3830266640843958e-10 -9.3749132268340445e-05 1.5929321065174443e-05 3.0165976391826046e-10 -7.8313533412780058e-05 1.5598389599468659e-05 1.7154995428629448e-10 -7.3026479297763766e-05 9.7147926992551988e-06 3.2600941657438116e-10 -7.6377575420129084e-05 9.7378533768737728e-06 1.1936676349647452e-10 -6.4238857938108391e-05 1.5598389599468659e-05 1.7154995428629448e-10 -7.3026479297763766e-05 9.7092354432795269e-06 2.1196283836353658e-10 -9.3749073837692105e-05 5.7672892105088155e-06 1.6348621588391201e-10 -7.6511854528055141e-05 1.5877286155039237e-05 2.3830266640843958e-10 -9.3749132268340445e-05 1.5929321065174443e-05 3.0165976391826046e-10 -7.8313533412780058e-05 1.2500981692735827e-05 4.042734743432868e-10 -9.3749142178782961e-05 9.7147926992551988e-06 3.2600941657438116e-10 -7.6377575420129084e-05 1.5877286155039237e-05 2.3830266640843958e-10 -9.3749132268340445e-05 1.2500981692735827e-05 4.042734743432868e-10 -9.3749142178782961e-05 9.7092354432795269e-06 2.1196283836353658e-10 -9.3749073837692105e-05 9.7147926992551988e-06 3.2600941657438116e-10 -7.6377575420129084e-05 1.5877286155039237e-05 2.3830266640843958e-10 -9.3749132268340445e-05 1.5598389599468659e-05 1.7154995428629448e-10 -7.3026479297763766e-05 9.7092354432795269e-06 2.1196283836353658e-10 -9.3749073837692105e-05 9.7147926992551988e-06 3.2600941657438116e-10 -7.6377575420129084e-05 1.5877286155039237e-05 2.3830266640843958e-10 -9.3749132268340445e-05 1.4317476891681801e-05 1.2308858450952495e-10 -9.3749109036101518e-05 1.5598389599468659e-05 1.7154995428629448e-10 -7.3026479297763766e-05 9.7092354432795269e-06 2.1196283836353658e-10 -9.3749073837692105e-05 1.2500981692735827e-05 4.042734743432868e-10 -9.3749142178782961e-05 9.7092354432795269e-06 2.1196283836353655e-10 -9.3749073837692105e-05 9.7147926992551971e-06 3.260094165743811e-10 -7.6377575420129071e-05 6.2504801581266695e-06 3.2986034079410166e-10 -9.3749090229985416e-05 9.7147926992551988e-06 3.2600941657438116e-10 -7.6377575420129084e-05 4.5756554679819242e-06 2.4310157353299839e-10 -8.0023421244842057e-05 5.7672892105088155e-06 1.6348621588391201e-10 -7.6511854528055141e-05 4.9691204257632159e-06 3.0221488711385466e-10 -6.5106858757652903e-05 9.7092354432795269e-06 2.1196283836353658e-10 -9.3749073837692105e-05 9.7147926992551988e-06 3.2600941657438116e-10 -7.6377575420129071e-05 4.5756554679819242e-06 2.4310157353299839e-10 -8.0023421244842057e-05 5.7672892105088155e-06 1.6348621588391201e-10 -7.6511854528055141e-05 9.7092354432795269e-06 2.1196283836353658e-10 -9.3749073837692105e-05 9.7147926992551988e-06 3.2600941657438116e-10 -7.6377575420129084e-05 4.5756554679819242e-06 2.4310157353299839e-10 -8.0023421244842057e-05 6.2504801581266695e-06 3.2986034079410166e-10 -9.3749090229985416e-05 9.7092354432795269e-06 2.1196283836353658e-10 -9.3749073837692105e-05 4.5756554679819242e-06 2.4310157353299839e-10 -8.0023421244842057e-05 6.2504801581266695e-06 3.2986034079410166e-10 -9.3749090229985416e-05 4.5756737574050991e-06 2.1203571495386244e-10 -9.3749045334338984e-05 9.7092354432795269e-06 2.1196283836353658e-10 -9.3749073837692105e-05 4.5756737574050991e-06 2.1203571495386244e-10 -9.3749045334338984e-05 5.7672892105088155e-06 1.6348621588391201e-10 -7.6511854528055141e-05 4.9681441423518873e-06 1.1927690468271646e-10 -9.3749058389234772e-05 9.7092354432795269e-06 2.1196283836353658e-10 -9.3749073837692105e-05 4.5756554679819242e-06 2.4310157353299839e-10 -8.0023421244842057e-05 4.5756737574050991e-06 2.1203571495386244e-10 -9.3749045334338984e-05 5.7672892105088155e-06 1.6348621588391201e-10 -7.6511854528055141e-05 5.7672892105088155e-06 1.6348621588391201e-10 -7.6511854528055141e-05 -2.8024014589628764e-15 2.0125635330394534e-10 -8.0023413289419414e-05 1.7245748407370669e-15 1.9060400712156087e-10 -6.6133150323416297e-05 1.5354338006822528e-15 1.1700933402927101e-10 -7.9849712477798819e-05 5.7672892105088155e-06 1.6348621588391201e-10 -7.6511854528055141e-05 -2.8024016117703124e-15 2.0125635330394531e-10 -8.0023413289419414e-05 4.9691204257632159e-06 3.0221488711385466e-10 -6.5106858757652889e-05 1.7245750809923746e-15 1.9060400712156087e-10 -6.6133150323416297e-05 4.5756737574050991e-06 2.1203571495386244e-10 -9.3749045334338984e-05 5.7672892105088147e-06 1.6348621588391203e-10 -7.6511854528055128e-05 5.6652814398286225e-15 1.7858841752881425e-10 -9.3749046346750534e-05 4.9681441423518873e-06 1.1927690468271646e-10 -9.3749058389234772e-05 4.5756554679819242e-06 2.4310157353299839e-10 -8.0023421244842057e-05 4.5756737574050991e-06 2.1203571495386244e-10 -9.3749045334338998e-05 5.7672892105088155e-06 1.6348621588391201e-10 -7.6511854528055141e-05 -2.8024014589628764e-15 2.0125635330394534e-10 -8.0023413289419414e-05 5.7672892105088155e-06 1.6348621588391201e-10 -7.6511854528055141e-05 -2.8024014589628764e-15 2.0125635330394534e-10 -8.0023413289419414e-05 5.6652814398286225e-15 1.7858841752881425e-10 -9.3749046346750534e-05 1.5354338006822533e-15 1.1700933402927101e-10 -7.9849712477798819e-05 4.5756737574050991e-06 2.1203571495386244e-10 -9.3749045334338984e-05 5.7672892105088164e-06 1.6348621588391198e-10 -7.6511854528055141e-05 -2.8024014589628764e-15 2.0125635330394534e-10 -8.0023413289419414e-05 5.6652814398286225e-15 1.7858841752881425e-10 -9.3749046346750534e-05 4.5756737574050991e-06 2.1203571495386244e-10 -9.3749045334338984e-05 -2.8024014589628764e-15 2.0125635330394534e-10 -8.0023413289419414e-05 5.6652814398286225e-15 1.7858841752881425e-10 -9.3749046346750534e-05 5.6926257198934536e-15 3.3273691318721083e-10 -9.3749065663026868e-05 4.5756554679819242e-06 2.4310157353299839e-10 -8.0023421244842057e-05 4.5756737574050991e-06 2.1203571495386241e-10 -9.3749045334338998e-05 -2.8024014589628764e-15 2.0125635330394534e-10 -8.0023413289419414e-05 5.6926257198934536e-15 3.3273691318721083e-10 -9.3749065663026868e-05 4.5756554679819242e-06 2.4310157353299839e-10 -8.0023421244842057e-05 6.2504801581266695e-06 3.2986034079410166e-10 -9.3749090229985416e-05 4.5756737574050991e-06 2.1203571495386244e-10 -9.3749045334338984e-05 5.6926257198934536e-15 3.3273691318721083e-10 -9.3749065663026868e-05 4.5756554679819242e-06 2.4310157353299839e-10 -8.0023421244842057e-05 -2.8024014589628764e-15 2.0125635330394534e-10 -8.0023413289419414e-05 5.6926257198934536e-15 3.3273691318721083e-10 -9.3749065663026868e-05 1.5202500579531887e-15 2.9325572288499147e-10 -7.4999480745942788e-05 4.5756554679819242e-06 2.4310157353299839e-10 -8.0023421244842057e-05 5.7672892105088155e-06 1.6348621588391201e-10 -7.6511854528055141e-05 -2.8024014589628764e-15 2.0125635330394534e-10 -8.0023413289419414e-05 4.9691204257632159e-06 3.0221488711385466e-10 -6.5106858757652903e-05 -2.8024014589628764e-15 2.0125635330394534e-10 -8.0023413289419414e-05 1.5202500579531887e-15 2.9325572288499147e-10 -7.4999480745942788e-05 4.9691204257632159e-06 3.0221488711385466e-10 -6.5106858757652903e-05 1.7245750809923746e-15 1.9060400712156087e-10 -6.6133150323416297e-05 4.5756554679819242e-06 2.4310157353299839e-10 -8.0023421244842057e-05 -2.8024014286620731e-15 2.0125635330394534e-10 -8.0023413289419414e-05 1.5202500579531887e-15 2.9325572288499147e-10 -7.4999480745942788e-05 4.9691204257632159e-06 3.0221488711385466e-10 -6.5106858757652903e-05 1.5202500579531887e-15 2.9325572288499147e-10 -7.4999480745942788e-05 4.9691204257632159e-06 3.0221488711385466e-10 -6.5106858757652903e-05 4.9905334148609534e-15 3.6113738912703852e-10 -5.6249922113651484e-05 1.7245750809923746e-15 1.9060400712156087e-10 -6.6133150323416297e-05 7.0370189175574168e-06 1.8515466585711992e-10 -4.5175736099429796e-05 9.7378533768737728e-06 1.1936676349647452e-10 -6.4238857938108391e-05 5.7672892105088155e-06 1.6348621588391201e-10 -7.6511854528055141e-05 1.7245750809923746e-15 1.9060400712156087e-10 -6.6133150323416297e-05 4.9691204257632159e-06 3.0221488711385466e-10 -6.5106858757652903e-05 4.9905334148609534e-15 3.6113738912703852e-10 -5.6249922113651484e-05 -5.7576639401837524e-15 2.3844198965738058e-10 -4.7628253778088793e-05 1.7245756326755607e-15 1.9060400712156079e-10 -6.6133150323416284e-05 9.7378533768737728e-06 1.1936676349647452e-10 -6.4238857938108391e-05 1.0140744429618878e-05 3.6841823347936705e-10 -5.6268861464972468e-05 5.7672892105088138e-06 1.6348621588391193e-10 -7.6511854528055141e-05 4.9691204257632202e-06 3.0221488711385481e-10 -6.5106858757652916e-05 7.0370189175574168e-06 1.8515466585711992e-10 -4.5175736099429796e-05 9.7378533768737728e-06 1.1936676349647452e-10 -6.4238857938108391e-05 5.7672892105088155e-06 1.6348621588391201e-10 -7.6511854528055141e-05 4.9691204257632134e-06 3.0221488711385466e-10 -6.5106858757652889e-05 7.0370189175574168e-06 1.8515466585711992e-10 -4.5175736099429796e-05 5.7672892105088155e-06 1.6348621588391201e-10 -7.6511854528055141e-05 4.9691204257632159e-06 3.0221488711385466e-10 -6.5106858757652903e-05 1.7245750809923746e-15 1.9060400712156087e-10 -6.6133150323416297e-05 1.0140744429618878e-05 3.6841823347936705e-10 -5.6268861464972468e-05 9.7147926992551988e-06 3.2600941657438116e-10 -7.6377575420129084e-05 5.7672892105088155e-06 1.6348621588391201e-10 -7.6511854528055141e-05 4.9691204257632159e-06 3.0221488711385466e-10 -6.5106858757652903e-05 7.0370189175574168e-06 1.8515466585711992e-10 -4.5175736099429796e-05 5.383534899916077e-06 3.3029254116894145e-10 -4.6721921269590151e-05 1.0140744429618878e-05 3.6841823347936705e-10 -5.6268861464972468e-05 4.9691204257632159e-06 3.0221488711385466e-10 -6.5106858757652903e-05 7.0370189175574168e-06 1.8515466585711992e-10 -4.5175736099429796e-05 5.3835348999160753e-06 3.3029254116894145e-10 -4.6721921269590145e-05 4.9691204257632159e-06 3.0221488711385466e-10 -6.5106858757652903e-05 -5.7576620728180267e-15 2.3844198965738063e-10 -4.76282537780888e-05 5.2044503194519755e-15 3.870091453368613e-10 -3.750037897751219e-05 5.3835348999160745e-06 3.3029254116894139e-10 -4.6721921269590151e-05 4.9905334148609534e-15 3.6113738912703852e-10 -5.6249922113651484e-05 -5.7576632230777432e-15 2.3844198965738063e-10 -4.7628253778088793e-05 5.3835348999160745e-06 3.3029254116894139e-10 -4.6721921269590151e-05 4.9691204257632159e-06 3.0221488711385471e-10 -6.5106858757652903e-05 4.9905334148609534e-15 3.6113738912703852e-10 -5.6249922113651484e-05 -5.7576626328733818e-15 2.3844198965738063e-10 -4.76282537780888e-05 7.0370189175574168e-06 1.8515466585711992e-10 -4.5175736099429796e-05 4.9691204257632151e-06 3.0221488711385466e-10 -6.5106858757652916e-05 -5.7576632230777432e-15 2.3844198965738063e-10 -4.7628253778088793e-05 1.7245750809923746e-15 1.9060400712156087e-10 -6.6133150323416297e-05 7.0370189175574168e-06 1.8515466585711992e-10 -4.5175736099429796e-05 -5.757662376373504e-15 2.3844198965738058e-10 -4.76282537780888e-05 1.7245762448229273e-15 1.9060400712156092e-10 -6.6133150323416297e-05 -1.5162295537867649e-15 1.0576212218463039e-10 -5.6197655793460427e-05 7.0370189175574168e-06 1.8515466585711992e-10 -4.5175736099429796e-05 9.7378533768737728e-06 1.1936676349647452e-10 -6.4238857938108391e-05 1.724575492166478e-15 1.9060400712156092e-10 -6.6133150323416297e-05 -1.5162302427329784e-15 1.0576212218463036e-10 -5.6197655793460427e-05 9.7378533768737728e-06 1.1936676349647452e-10 -6.4238857938108391e-05 5.7672892105088164e-06 1.6348621588391203e-10 -7.6511854528055141e-05 1.7245750809923746e-15 1.9060400712156087e-10 -6.6133150323416297e-05 -1.516229553786762e-15 1.0576212218463044e-10 -5.6197655793460427e-05 5.7672892105088155e-06 1.6348621588391201e-10 -7.6511854528055141e-05 1.7245760251219757e-15 1.906040071215609e-10 -6.6133150323416284e-05 -1.5162293703559371e-15 1.057621221846304e-10 -5.6197655793460413e-05 1.7379760562832174e-15 6.5713693927221675e-11 -6.8177062920276649e-05 7.74091192846336e-06 2.1079606229583793e-11 -4.2280071442435147e-05 9.7378533768737728e-06 1.1936676349647452e-10 -6.4238857938108391e-05 -1.5162287067398258e-15 1.0576212218463046e-10 -5.6197655793460427e-05 6.8267295487136687e-06 -7.4069468337533166e-13 -7.2782323720805217e-05 9.7378533768737728e-06 1.1936676349647452e-10 -6.4238857938108391e-05 5.7672892105088155e-06 1.6348621588391198e-10 -7.6511854528055141e-05 -1.5162300395038532e-15 1.0576212218463042e-10 -5.619765579346042e-05 1.7379773368786677e-15 6.5713693927221701e-11 -6.8177062920276622e-05 -1.516229553786762e-15 1.0576212218463044e-10 -5.6197655793460427e-05 -4.289390138376533e-15 2.9898242946853597e-12 -4.8714039270935579e-05 6.8267295487136696e-06 -7.4069468337533034e-13 -7.2782323720805217e-05 2.0918246083355726e-15 -1.9175442922412395e-11 -6.3112746578246031e-05 9.7378533768737728e-06 1.1936676349647452e-10 -6.4238857938108391e-05 -1.5162304556544626e-15 1.057621221846305e-10 -5.619765579346044e-05 1.737977089031737e-15 6.5713693927221753e-11 -6.8177062920276609e-05 6.826729548713667e-06 -7.4069468337534347e-13 -7.2782323720805217e-05 7.74091192846336e-06 2.1079606229583793e-11 -4.2280071442435147e-05 7.0370189175574168e-06 1.8515466585711992e-10 -4.5175736099429796e-05 9.7378533768737728e-06 1.1936676349647452e-10 -6.4238857938108391e-05 -1.516229553786762e-15 1.0576212218463044e-10 -5.6197655793460427e-05 7.74091192846336e-06 2.1079606229583793e-11 -4.2280071442435147e-05 -1.5162274345276769e-15 1.057621221846305e-10 -5.6197655793460427e-05 -4.289390138376533e-15 2.9898242946853597e-12 -4.8714039270935579e-05 6.826729548713667e-06 -7.4069468337533741e-13 -7.2782323720805217e-05 1.2649617529328764e-15 1.2037577068101351e-10 -4.2810756485915514e-05 7.0370189175574168e-06 1.8515466585711992e-10 -4.5175736099429796e-05 -5.7576632230777432e-15 2.3844198965738063e-10 -4.7628253778088793e-05 -1.516229553786762e-15 1.0576212218463044e-10 -5.6197655793460427e-05 7.74091192846336e-06 2.1079606229583793e-11 -4.2280071442435147e-05 1.2649605322324194e-15 1.2037577068101348e-10 -4.2810756485915507e-05 -1.5162272041515181e-15 1.0576212218463041e-10 -5.619765579346044e-05 -4.289390138376533e-15 2.9898242946853597e-12 -4.8714039270935579e-05 -1.516229553786762e-15 1.0576212218463044e-10 -5.6197655793460427e-05 1.7379768045649906e-15 6.5713693927221701e-11 -6.8177062920276622e-05 6.8267295487136712e-06 -7.4069468337531348e-13 -7.2782323720805217e-05 2.0918246083355726e-15 -1.9175442922412395e-11 -6.3112746578246031e-05 -1.7010504792763947e-17 5.028621326578675e-12 -7.8929318545619491e-05 1.5354338006822533e-15 1.1700933402927101e-10 -7.9849712477798819e-05 6.8267295487136687e-06 -7.4069468337528723e-13 -7.2782323720805203e-05 4.9681441423518881e-06 1.1927690468271646e-10 -9.3749058389234758e-05 9.7378533768737728e-06 1.1936676349647452e-10 -6.4238857938108391e-05 5.7672892105088164e-06 1.6348621588391201e-10 -7.6511854528055141e-05 1.7379771183020515e-15 6.5713693927221714e-11 -6.8177062920276622e-05 6.8267295487136687e-06 -7.4069468337533246e-13 -7.2782323720805217e-05 5.7672892105088155e-06 1.6348621588391201e-10 -7.6511854528055141e-05 1.5354338006822533e-15 1.1700933402927101e-10 -7.9849712477798819e-05 6.8267295487136679e-06 -7.4069468337531601e-13 -7.2782323720805217e-05 4.9681441423518873e-06 1.1927690468271644e-10 -9.3749058389234758e-05 1.7379773368786677e-15 6.5713693927221701e-11 -6.8177062920276622e-05 -1.7010504792763947e-17 5.028621326578675e-12 -7.8929318545619491e-05 6.8267295487136679e-06 -7.4069468337530237e-13 -7.2782323720805217e-05 2.0918246083355726e-15 -1.9175442922412395e-11 -6.3112746578246031e-05 1.7379773368786677e-15 6.5713693927221701e-11 -6.8177062920276622e-05 -1.7010462157042895e-17 5.0286213265786766e-12 -7.8929318545619491e-05 1.5354338006822533e-15 1.1700933402927101e-10 -7.9849712477798819e-05 6.8267295487136679e-06 -7.4069468337530631e-13 -7.2782323720805217e-05 1.0140355794177882e-05 6.68667877548702e-11 -9.374907711982432e-05 5.7672892105088155e-06 1.6348621588391201e-10 -7.6511854528055141e-05 6.8267295487136679e-06 -7.4069468337530631e-13 -7.2782323720805217e-05 4.9681441423518873e-06 1.1927690468271646e-10 -9.3749058389234772e-05 5.7672892105088155e-06 1.6348621588391201e-10 -7.6511854528055141e-05 1.7379777570331587e-15 6.5713693927221727e-11 -6.8177062920276595e-05 1.5354342295106712e-15 1.1700933402927098e-10 -7.9849712477798819e-05 6.8267295487136679e-06 -7.4069468337530631e-13 -7.2782323720805217e-05 5.7672892105088155e-06 1.6348621588391201e-10 -7.6511854528055141e-05 1.7245764277521254e-15 1.9060400712156087e-10 -6.6133150323416284e-05 1.7379794717381505e-15 6.5713693927221688e-11 -6.8177062920276609e-05 1.5354338006822531e-15 1.1700933402927103e-10 -7.9849712477798832e-05 1.0140355794177882e-05 6.68667877548702e-11 -9.374907711982432e-05 6.8267295487136679e-06 -7.4069468337530631e-13 -7.2782323720805217e-05 4.9681441423518873e-06 1.1927690468271646e-10 -9.3749058389234772e-05 5.3835897181461875e-06 3.66122058958463e-13 -9.3749057344499578e-05 -1.7010504792763947e-17 5.028621326578675e-12 -7.8929318545619491e-05 6.8267295487136687e-06 -7.4069468337528612e-13 -7.2782323720805203e-05 4.9681441423518881e-06 1.1927690468271646e-10 -9.3749058389234772e-05 5.3835897181461875e-06 3.6612205895848511e-13 -9.3749057344499578e-05 1.0140355794177882e-05 6.68667877548702e-11 -9.374907711982432e-05 9.7092354432795269e-06 2.1196283836353658e-10 -9.3749073837692105e-05 5.7672892105088155e-06 1.6348621588391201e-10 -7.6511854528055141e-05 4.9681441423518873e-06 1.1927690468271646e-10 -9.3749058389234772e-05 5.7672892105088155e-06 1.6348621588391201e-10 -7.6511854528055141e-05 5.6652828398589721e-15 1.785884175288142e-10 -9.3749046346750547e-05 1.5354338006822533e-15 1.1700933402927101e-10 -7.9849712477798819e-05 4.9681441423518856e-06 1.1927690468271651e-10 -9.3749058389234772e-05 -1.7010504792763947e-17 5.028621326578675e-12 -7.8929318545619491e-05 1.5354338006822533e-15 1.1700933402927101e-10 -7.9849712477798819e-05 4.9681441423518873e-06 1.1927690468271646e-10 -9.3749058389234772e-05 4.4409134181252074e-15 6.0452837784571723e-11 -9.3749058181006819e-05 5.6652814398286225e-15 1.7858841752881425e-10 -9.3749046346750534e-05 1.5354338006822533e-15 1.1700933402927101e-10 -7.9849712477798819e-05 4.9681441423518873e-06 1.1927690468271646e-10 -9.3749058389234772e-05 4.4409134181252074e-15 6.0452837784571723e-11 -9.3749058181006819e-05 -1.7010504792763947e-17 5.028621326578675e-12 -7.8929318545619491e-05 4.9681441423518873e-06 1.1927690468271646e-10 -9.3749058389234772e-05 4.4409134181252074e-15 6.0452837784571723e-11 -9.3749058181006819e-05 5.3835897181461875e-06 3.6612205895848269e-13 -9.3749057344499564e-05 -1.7010504792763947e-17 5.028621326578675e-12 -7.8929318545619491e-05 4.4409134181252074e-15 6.0452837784571723e-11 -9.3749058181006819e-05 5.2837136556962669e-15 -6.0600743579722513e-11 -9.3749056758215911e-05 5.3835897181461875e-06 3.66122058958463e-13 -9.3749057344499578e-05 -1.7010504792763947e-17 5.028621326578675e-12 -7.8929318545619491e-05 5.2837139704178723e-15 -6.0600743579722513e-11 -9.3749056758215898e-05 1.841216590149821e-15 -1.1215182774612466e-10 -7.5786840912727725e-05 5.3835897181461866e-06 3.6612205895846169e-13 -9.3749057344499578e-05 5.2837139704178723e-15 -6.0600743579722513e-11 -9.3749056758215898e-05 1.841216590149821e-15 -1.1215182774612466e-10 -7.5786840912727725e-05 5.2909559984556568e-06 -1.1709104537765557e-10 -9.3749050816219301e-05 5.3835897181461875e-06 3.66122058958463e-13 -9.3749057344499578e-05 1.841216590149821e-15 -1.1215182774612466e-10 -7.5786840912727725e-05 5.2909559984556568e-06 -1.1709104537765557e-10 -9.3749050816219301e-05 9.8215644100248252e-06 -1.202064260264131e-10 -6.4463322282354418e-05 -3.6621260916222555e-15 -2.0903977959534245e-10 -8.0023407905097628e-05 6.8267295487136679e-06 -7.4069468337530631e-13 -7.2782323720805217e-05 1.8412139202175267e-15 -1.1215182774612469e-10 -7.5786840912727712e-05 5.2909559984556568e-06 -1.1709104537765557e-10 -9.3749050816219301e-05 9.8215644100248252e-06 -1.2020642602641313e-10 -6.4463322282354432e-05 -1.7010504792763947e-17 5.028621326578675e-12 -7.8929318545619491e-05 6.8267295487136696e-06 -7.4069468337530591e-13 -7.2782323720805217e-05 1.841216590149821e-15 -1.1215182774612466e-10 -7.5786840912727725e-05 2.0918246083355726e-15 -1.9175442922412395e-11 -6.3112746578246031e-05 -1.7010504792763947e-17 5.028621326578675e-12 -7.8929318545619491e-05 6.8267295487136687e-06 -7.4069468337530318e-13 -7.2782323720805203e-05 1.841216590149821e-15 -1.1215182774612466e-10 -7.5786840912727725e-05 5.3835897181461875e-06 3.6612205895846588e-13 -9.3749057344499564e-05 5.2837139704178723e-15 -6.0600743579722513e-11 -9.3749056758215898e-05 1.8412162723132516e-15 -1.1215182774612468e-10 -7.5786840912727725e-05 5.2909559984556568e-06 -1.1709104537765557e-10 -9.3749050816219301e-05 6.2754979631524009e-15 -1.7918803995405574e-10 -9.3749049698073076e-05 6.8267295487136679e-06 -7.4069468337530631e-13 -7.2782323720805217e-05 5.2909559984556568e-06 -1.1709104537765557e-10 -9.3749050816219301e-05 5.3835897181461875e-06 3.66122058958463e-13 -9.3749057344499578e-05 1.0289953380024147e-05 -7.0221846121837213e-11 -9.3749078776139108e-05 6.8267295487136679e-06 -7.4069468337530631e-13 -7.2782323720805217e-05 1.8412138206552668e-15 -1.1215182774612465e-10 -7.5786840912727698e-05 5.2909559984556568e-06 -1.1709104537765557e-10 -9.3749050816219301e-05 5.3835897181461875e-06 3.66122058958463e-13 -9.3749057344499578e-05 5.2909559984556568e-06 -1.1709104537765557e-10 -9.3749050816219301e-05 1.0289953380024149e-05 -7.0221846121837213e-11 -9.3749078776139108e-05 9.8215644100248252e-06 -1.2020642602641313e-10 -6.4463322282354432e-05 9.8791372809660052e-06 -2.0711890708993488e-10 -9.3749069957343412e-05 1.0140355794177882e-05 6.68667877548702e-11 -9.374907711982432e-05 6.8267295487136679e-06 -7.4069468337530631e-13 -7.2782323720805217e-05 5.3835897181461875e-06 3.6612205895847108e-13 -9.3749057344499578e-05 1.0289953380024149e-05 -7.0221846121837213e-11 -9.3749078776139108e-05 1.5652595167277436e-05 -1.917526186545577e-10 -7.32041019555183e-05 1.5568688300201662e-05 1.4850811902880737e-11 -7.0354987618031258e-05 1.4317483688277192e-05 -1.3079468009001755e-10 -9.374911253515715e-05 9.8215644100248252e-06 -1.2020642602641313e-10 -6.4463322282354432e-05 1.5568688300201662e-05 1.4850811902880743e-11 -7.0354987618031245e-05 6.8267295487136679e-06 -7.4069468337530631e-13 -7.2782323720805217e-05 1.0289953380024149e-05 -7.0221846121837226e-11 -9.3749078776139122e-05 9.8215644100248252e-06 -1.2020642602641308e-10 -6.4463322282354432e-05 1.0289953380024149e-05 -7.0221846121837213e-11 -9.3749078776139108e-05 1.4317483688277192e-05 -1.3079468009001755e-10 -9.374911253515715e-05 9.8215644100248235e-06 -1.2020642602641313e-10 -6.4463322282354418e-05 9.8791372809660052e-06 -2.0711890708993488e-10 -9.3749069957343412e-05 1.5652595167277436e-05 -1.917526186545577e-10 -7.32041019555183e-05 1.4317483688277192e-05 -1.3079468009001755e-10 -9.374911253515715e-05 9.8215644100248235e-06 -1.202064260264131e-10 -6.4463322282354418e-05 9.8791372809660069e-06 -2.0711890708993485e-10 -9.3749069957343412e-05 1.5568688300201662e-05 1.4850811902880743e-11 -7.0354987618031245e-05 1.0289953380024145e-05 -7.0221846121837174e-11 -9.3749078776139108e-05 1.4317483688277192e-05 -1.3079468009001755e-10 -9.374911253515715e-05 9.8215644100248252e-06 -1.2020642602641313e-10 -6.4463322282354432e-05 6.8267295487136679e-06 -7.4069468337530631e-13 -7.2782323720805217e-05 5.2909559984556568e-06 -1.1709104537765557e-10 -9.3749050816219301e-05 1.0289953380024147e-05 -7.0221846121837226e-11 -9.3749078776139095e-05 9.8215644100248252e-06 -1.2020642602641313e-10 -6.4463322282354432e-05 1.6239262543165666e-05 -3.7217379365253162e-12 -9.3749144281366747e-05 1.5568688300201662e-05 1.4850811902880746e-11 -7.0354987618031245e-05 1.0289953380024149e-05 -7.0221846121837213e-11 -9.3749078776139108e-05 1.4317483688277192e-05 -1.3079468009001755e-10 -9.374911253515715e-05 1.5626080314932584e-05 -1.8184049082219061e-12 -4.6875184481376147e-05 1.5568688300201666e-05 1.4850811902880691e-11 -7.0354987618031272e-05 6.826729548713667e-06 -7.4069468337530682e-13 -7.2782323720805217e-05 9.8215644100248252e-06 -1.2020642602641313e-10 -6.4463322282354432e-05 7.74091192846336e-06 2.1079606229583793e-11 -4.2280071442435147e-05 1.564908019721351e-05 -1.6205830808660458e-10 -4.9581342359515837e-05 9.8215644100248219e-06 -1.2020642602641313e-10 -6.4463322282354432e-05 6.9032058486159686e-06 -1.597398651807934e-10 -4.6879649301062931e-05 1.5649080197213513e-05 -1.6205830808660458e-10 -4.9581342359515844e-05 1.565259516727744e-05 -1.9175261865455775e-10 -7.3204101955518314e-05 1.5568688300201662e-05 1.4850811902880737e-11 -7.0354987618031258e-05 9.8215644100248252e-06 -1.2020642602641313e-10 -6.4463322282354432e-05 7.74091192846336e-06 2.1079606229583793e-11 -4.2280071442435147e-05 1.562608031493258e-05 -1.8184049082219489e-12 -4.6875184481376133e-05 1.5649080197213517e-05 -1.6205830808660456e-10 -4.9581342359515837e-05 9.8215644100248252e-06 -1.202064260264131e-10 -6.4463322282354432e-05 1.5626080314932584e-05 -1.8184049082219061e-12 -4.6875184481376147e-05 1.5649080197213513e-05 -1.6205830808660458e-10 -4.9581342359515844e-05 1.5568688300201662e-05 1.4850811902880749e-11 -7.0354987618031245e-05 9.8215644100248252e-06 -1.2020642602641313e-10 -6.4463322282354432e-05 7.74091192846336e-06 2.1079606229583793e-11 -4.2280071442435147e-05 1.562608031493258e-05 -1.8184049082218809e-12 -4.6875184481376147e-05 6.8267295487136679e-06 -7.4069468337525946e-13 -7.2782323720805203e-05 9.8215644100248235e-06 -1.202064260264132e-10 -6.4463322282354418e-05 7.74091192846336e-06 2.1079606229583793e-11 -4.2280071442435147e-05 -4.289390138376533e-15 2.9898242946853597e-12 -4.8714039270935579e-05 6.826729548713667e-06 -7.4069468337526198e-13 -7.2782323720805203e-05 9.8215644100248235e-06 -1.2020642602641313e-10 -6.4463322282354418e-05 -2.3467346017690282e-15 -1.0874590920209919e-10 -4.2949300631835607e-05 7.7409119284633583e-06 2.10796062295838e-11 -4.2280071442435147e-05 2.6584700529192291e-15 -1.1475505906486866e-10 -5.723146418792663e-05 6.903205848615966e-06 -1.597398651807934e-10 -4.6879649301062931e-05 7.74091192846336e-06 2.1079606229583793e-11 -4.2280071442435147e-05 -4.2893912221781797e-15 2.9898242946852631e-12 -4.8714039270935565e-05 9.8215644100248252e-06 -1.2020642602641318e-10 -6.4463322282354418e-05 2.6584687086114208e-15 -1.1475505906486857e-10 -5.7231464187926644e-05 -4.289390138376533e-15 2.9898242946853597e-12 -4.8714039270935579e-05 6.8267295487136679e-06 -7.4069468337530631e-13 -7.2782323720805217e-05 9.8215644100248252e-06 -1.2020642602641313e-10 -6.4463322282354432e-05 2.6584699687203615e-15 -1.1475505906486866e-10 -5.723146418792663e-05 7.74091192846336e-06 2.1079606229583793e-11 -4.2280071442435147e-05 9.8215644100248235e-06 -1.202064260264131e-10 -6.4463322282354445e-05 2.6584690576464407e-15 -1.1475505906486864e-10 -5.7231464187926637e-05 6.9032058486159677e-06 -1.597398651807934e-10 -4.6879649301062931e-05 -4.289390138376533e-15 2.9898242946853597e-12 -4.8714039270935579e-05 6.8267295487136679e-06 -7.4069468337530631e-13 -7.2782323720805217e-05 2.0918246083355726e-15 -1.9175442922412395e-11 -6.3112746578246031e-05 2.6584699687203615e-15 -1.1475505906486866e-10 -5.723146418792663e-05 9.8215644100248252e-06 -1.2020642602641313e-10 -6.4463322282354432e-05 2.658470231645053e-15 -1.1475505906486874e-10 -5.723146418792663e-05 6.903205848615966e-06 -1.5973986518079338e-10 -4.6879649301062931e-05 -4.87022992272993e-15 -2.3376967137817409e-10 -6.504438815472941e-05 6.8267295487136679e-06 -7.4069468337530631e-13 -7.2782323720805217e-05 1.841216697887198e-15 -1.1215182774612468e-10 -7.5786840912727725e-05 9.8215644100248252e-06 -1.2020642602641313e-10 -6.4463322282354432e-05 2.6584713088134678e-15 -1.1475505906486866e-10 -5.7231464187926637e-05 1.841216590149821e-15 -1.1215182774612466e-10 -7.5786840912727725e-05 9.8215644100248252e-06 -1.2020642602641313e-10 -6.4463322282354432e-05 2.6584702692552095e-15 -1.1475505906486864e-10 -5.7231464187926637e-05 -4.87022992272993e-15 -2.3376967137817409e-10 -6.504438815472941e-05 -2.3467346017690282e-15 -1.0874590920209919e-10 -4.2949300631835607e-05 7.74091192846336e-06 2.1079606229583793e-11 -4.2280071442435147e-05 -4.289390138376533e-15 2.9898242946853597e-12 -4.8714039270935579e-05 2.6584699687203615e-15 -1.1475505906486866e-10 -5.723146418792663e-05 6.8267295487136679e-06 -7.4069468337530631e-13 -7.2782323720805217e-05 1.8412156620354946e-15 -1.1215182774612466e-10 -7.5786840912727725e-05 2.0918246083355726e-15 -1.9175442922412395e-11 -6.3112746578246031e-05 2.6584692108011286e-15 -1.1475505906486863e-10 -5.7231464187926637e-05 -2.3467346017690282e-15 -1.0874590920209919e-10 -4.2949300631835607e-05 2.6584699687203615e-15 -1.1475505906486866e-10 -5.723146418792663e-05 6.903205848615966e-06 -1.597398651807934e-10 -4.6879649301062931e-05 -5.4650644263014111e-15 -2.3725793313611829e-10 -4.7781479647208591e-05 9.8215644100248252e-06 -1.2020642602641313e-10 -6.4463322282354432e-05 -4.8702291340828352e-15 -2.3376967137817414e-10 -6.5044388154729383e-05 5.8813439525931519e-06 -3.156868313489521e-10 -6.4091133999207624e-05 4.5756553539035862e-06 -2.4289551755651949e-10 -8.0023423439875668e-05 9.8215644100248252e-06 -1.2020642602641313e-10 -6.4463322282354432e-05 6.903205848615966e-06 -1.5973986518079338e-10 -4.6879649301062938e-05 -4.87022992272993e-15 -2.3376967137817409e-10 -6.504438815472941e-05 5.8813439525931536e-06 -3.1568683134895199e-10 -6.4091133999207638e-05 6.903205848615966e-06 -1.597398651807934e-10 -4.6879649301062931e-05 -5.4650639498065277e-15 -2.3725793313611834e-10 -4.7781479647208591e-05 -4.87022992272993e-15 -2.3376967137817409e-10 -6.504438815472941e-05 5.8813439525931519e-06 -3.1568683134895199e-10 -6.4091133999207638e-05 2.6584699687203615e-15 -1.1475505906486866e-10 -5.723146418792663e-05 6.9032058486159694e-06 -1.597398651807934e-10 -4.6879649301062931e-05 -5.4650644263014111e-15 -2.3725793313611829e-10 -4.7781479647208591e-05 -4.87022992272993e-15 -2.3376967137817409e-10 -6.504438815472941e-05 -4.87022992272993e-15 -2.3376967137817409e-10 -6.504438815472941e-05 5.8813439525931502e-06 -3.1568683134895199e-10 -6.4091133999207638e-05 9.7044442334795838e-15 -4.0660759859906796e-10 -5.6249920007075103e-05 1.0256944249512858e-14 -3.4466109119889575e-10 -7.4999468305092694e-05 -5.4650644263014111e-15 -2.3725793313611829e-10 -4.7781479647208591e-05 -4.87022992272993e-15 -2.3376967137817409e-10 -6.504438815472941e-05 5.8813439525931519e-06 -3.1568683134895199e-10 -6.4091133999207638e-05 9.7044442334795838e-15 -4.0660759859906796e-10 -5.6249920007075103e-05 5.1161892602844284e-06 -2.9973492244688163e-10 -4.5812526089942288e-05 -5.4650644263014111e-15 -2.3725793313611829e-10 -4.7781479647208591e-05 5.8813439525931519e-06 -3.1568683134895199e-10 -6.4091133999207638e-05 9.7044442334795838e-15 -4.0660759859906796e-10 -5.6249920007075103e-05 5.1161892602844284e-06 -2.9973492244688163e-10 -4.5812526089942288e-05 6.903205848615966e-06 -1.597398651807934e-10 -4.6879649301062931e-05 5.8813439525931519e-06 -3.1568683134895194e-10 -6.4091133999207638e-05 9.6976445600722544e-06 -2.5740277653284784e-10 -5.0793657663276275e-05 5.1161892602844284e-06 -2.9973492244688163e-10 -4.5812526089942288e-05 6.903205848615966e-06 -1.597398651807934e-10 -4.6879649301062931e-05 -5.4650645406102435e-15 -2.3725793313611829e-10 -4.7781479647208591e-05 5.8813439525931519e-06 -3.1568683134895199e-10 -6.4091133999207638e-05 9.8215644100248252e-06 -1.2020642602641313e-10 -6.4463322282354432e-05 5.881343952593151e-06 -3.1568683134895199e-10 -6.4091133999207638e-05 1.2380872586018625e-05 -3.5027083986807595e-10 -6.2881168223854222e-05 9.3990713300098081e-06 -3.0381047465127958e-10 -7.7877844752871237e-05 1.5649080197213513e-05 -1.6205830808660458e-10 -4.9581342359515844e-05 9.8215644100248252e-06 -1.2020642602641313e-10 -6.4463322282354432e-05 6.903205848615966e-06 -1.597398651807934e-10 -4.6879649301062931e-05 9.6976445600722527e-06 -2.5740277653284779e-10 -5.0793657663276268e-05 1.5649080197213513e-05 -1.6205830808660458e-10 -4.9581342359515844e-05 9.8215644100248252e-06 -1.2020642602641315e-10 -6.4463322282354432e-05 9.6976445600722544e-06 -2.5740277653284779e-10 -5.0793657663276275e-05 1.2380872586018627e-05 -3.5027083986807606e-10 -6.2881168223854236e-05 1.5652595167277436e-05 -1.917526186545577e-10 -7.32041019555183e-05 9.8215644100248252e-06 -1.2020642602641313e-10 -6.4463322282354432e-05 1.2380872586018625e-05 -3.5027083986807595e-10 -6.2881168223854222e-05 9.3990713300098081e-06 -3.0381047465127953e-10 -7.7877844752871224e-05 9.8215644100248252e-06 -1.2020642602641313e-10 -6.4463322282354432e-05 6.9032058486159669e-06 -1.597398651807934e-10 -4.6879649301062931e-05 5.8813439525931493e-06 -3.1568683134895205e-10 -6.4091133999207638e-05 9.6976445600722544e-06 -2.5740277653284784e-10 -5.0793657663276275e-05 1.8757636417862911e-05 -3.700071430888101e-10 -6.3329757798830945e-05 1.564908019721351e-05 -1.6205830808660458e-10 -4.9581342359515837e-05 1.5652595167277436e-05 -1.917526186545577e-10 -7.32041019555183e-05 1.2380872586018625e-05 -3.5027083986807595e-10 -6.2881168223854222e-05 9.8215644100248252e-06 -1.2020642602641313e-10 -6.4463322282354432e-05 5.881343952593151e-06 -3.156868313489521e-10 -6.4091133999207638e-05 9.6976445600722527e-06 -2.5740277653284774e-10 -5.0793657663276268e-05 1.2380872586018625e-05 -3.50270839868076e-10 -6.2881168223854236e-05 1.5649080197213513e-05 -1.6205830808660458e-10 -4.9581342359515844e-05 1.5652595167277436e-05 -1.9175261865455767e-10 -7.3204101955518314e-05 9.8215644100248252e-06 -1.2020642602641315e-10 -6.4463322282354432e-05 1.2380872586018627e-05 -3.5027083986807606e-10 -6.2881168223854236e-05 1.5626071302713096e-05 -3.1909846092179056e-10 -4.5036316080773446e-05 1.8757636417862911e-05 -3.700071430888101e-10 -6.3329757798830945e-05 1.5649080197213513e-05 -1.6205830808660458e-10 -4.9581342359515844e-05 1.2380872586018625e-05 -3.5027083986807595e-10 -6.2881168223854222e-05 1.5626071302713096e-05 -3.1909846092179056e-10 -4.5036316080773446e-05 1.5649080197213513e-05 -1.6205830808660458e-10 -4.9581342359515844e-05 9.6976445600722544e-06 -2.5740277653284784e-10 -5.0793657663276268e-05 1.2380872586018625e-05 -3.5027083986807595e-10 -6.2881168223854222e-05 1.8757636417862911e-05 -3.700071430888101e-10 -6.3329757798830945e-05 1.5652595167277436e-05 -1.917526186545577e-10 -7.32041019555183e-05 1.2380872586018625e-05 -3.5027083986807595e-10 -6.2881168223854222e-05 1.5575072441061016e-05 -3.3051342271192778e-10 -7.7600001663623628e-05 9.8215644100248252e-06 -1.2020642602641313e-10 -6.4463322282354432e-05 9.3990713300098081e-06 -3.0381047465127958e-10 -7.7877844752871237e-05 9.8791372809660052e-06 -2.0711890708993488e-10 -9.3749069957343412e-05 4.5756854981428561e-06 -2.0315649497545667e-10 -9.374904011004201e-05 1.5652595167277436e-05 -1.917526186545577e-10 -7.32041019555183e-05 9.8215644100248252e-06 -1.2020642602641313e-10 -6.4463322282354432e-05 9.3990713300098081e-06 -3.0381047465127953e-10 -7.7877844752871224e-05 9.8791372809660052e-06 -2.0711890708993488e-10 -9.3749069957343412e-05 1.5652595167277436e-05 -1.917526186545577e-10 -7.32041019555183e-05 9.3990713300098098e-06 -3.0381047465127953e-10 -7.7877844752871237e-05 1.5575072441061012e-05 -3.3051342271192773e-10 -7.7600001663623628e-05 9.8791372809660052e-06 -2.0711890708993488e-10 -9.3749069957343412e-05 1.5652595167277436e-05 -1.917526186545577e-10 -7.32041019555183e-05 1.2380872586018625e-05 -3.5027083986807595e-10 -6.2881168223854222e-05 9.3990713300098115e-06 -3.0381047465127963e-10 -7.7877844752871237e-05 1.5575072441061016e-05 -3.3051342271192778e-10 -7.7600001663623641e-05 1.592838597824484e-05 -2.4243671870436572e-10 -9.3749135679585188e-05 1.5575072441061016e-05 -3.3051342271192778e-10 -7.7600001663623628e-05 1.2500975217039849e-05 -3.8666494590685045e-10 -9.3749127700539745e-05 9.8791372809660052e-06 -2.0711890708993488e-10 -9.3749069957343412e-05 9.3990713300098081e-06 -3.0381047465127958e-10 -7.7877844752871237e-05 1.5575072441061016e-05 -3.3051342271192778e-10 -7.7600001663623628e-05 1.2500975217039847e-05 -3.866649459068504e-10 -9.3749127700539731e-05 9.8791372809660052e-06 -2.0711890708993488e-10 -9.3749069957343412e-05 1.592838597824484e-05 -2.4243671870436572e-10 -9.3749135679585188e-05 1.5652595167277436e-05 -1.917526186545577e-10 -7.32041019555183e-05 1.5575072441061016e-05 -3.3051342271192778e-10 -7.7600001663623628e-05 9.8791372809660052e-06 -2.0711890708993488e-10 -9.3749069957343412e-05 1.592838597824484e-05 -2.4243671870436572e-10 -9.3749135679585188e-05 1.5652595167277433e-05 -1.917526186545577e-10 -7.32041019555183e-05 1.4317483688277192e-05 -1.3079468009001755e-10 -9.374911253515715e-05 9.8791372809660052e-06 -2.0711890708993488e-10 -9.3749069957343412e-05 9.3990713300098081e-06 -3.0381047465127958e-10 -7.7877844752871237e-05 1.2500975217039847e-05 -3.866649459068504e-10 -9.3749127700539731e-05 9.8791372809660052e-06 -2.0711890708993488e-10 -9.3749069957343412e-05 6.2504801076286819e-06 -3.0281305292531969e-10 -9.3749070247296424e-05 1.841216590149821e-15 -1.1215182774612466e-10 -7.5786840912727725e-05 9.8215644100248252e-06 -1.2020642602641313e-10 -6.4463322282354432e-05 -4.8702294719276601e-15 -2.3376967137817409e-10 -6.504438815472941e-05 -3.6621260916222555e-15 -2.0903977959534245e-10 -8.0023407905097628e-05 5.2909559984556568e-06 -1.1709104537765557e-10 -9.3749050816219301e-05 9.8215644100248269e-06 -1.2020642602641313e-10 -6.4463322282354432e-05 9.8791372809660052e-06 -2.0711890708993488e-10 -9.3749069957343412e-05 4.5756854981428561e-06 -2.0315649497545667e-10 -9.374904011004201e-05 9.3990713300098081e-06 -3.0381047465127958e-10 -7.7877844752871237e-05 6.2504801076286819e-06 -3.0281305292531969e-10 -9.3749070247296424e-05 4.5756553539035862e-06 -2.4289551755651949e-10 -8.0023423439875668e-05 4.5756854981428561e-06 -2.0315649497545667e-10 -9.374904011004201e-05 9.8215644100248252e-06 -1.2020642602641313e-10 -6.4463322282354432e-05 9.3990713300098081e-06 -3.0381047465127958e-10 -7.7877844752871237e-05 4.5756553539035862e-06 -2.4289551755651949e-10 -8.0023423439875654e-05 4.5756854981428646e-06 -2.031564949754568e-10 -9.3749040110042037e-05 9.3990713300098081e-06 -3.0381047465127958e-10 -7.7877844752871237e-05 9.8791372809660052e-06 -2.0711890708993488e-10 -9.3749069957343412e-05 6.2504801076286819e-06 -3.0281305292531969e-10 -9.3749070247296424e-05 4.5756854981428561e-06 -2.0315649497545667e-10 -9.374904011004201e-05 9.8215644100248252e-06 -1.2020642602641313e-10 -6.4463322282354432e-05 5.8813439525931544e-06 -3.1568683134895215e-10 -6.4091133999207611e-05 9.3990713300098081e-06 -3.0381047465127958e-10 -7.7877844752871237e-05 4.5756553539035862e-06 -2.4289551755651949e-10 -8.0023423439875668e-05 5.2909559984556568e-06 -1.1709104537765557e-10 -9.3749050816219301e-05 9.8215644100248252e-06 -1.202064260264131e-10 -6.4463322282354432e-05 4.5756854981428561e-06 -2.0315649497545667e-10 -9.374904011004201e-05 -3.6621260916222555e-15 -2.0903977959534245e-10 -8.0023407905097628e-05 9.8215644100248252e-06 -1.2020642602641313e-10 -6.4463322282354432e-05 4.5756553539035836e-06 -2.4289551755651954e-10 -8.0023423439875654e-05 4.575685498142857e-06 -2.0315649497545662e-10 -9.374904011004201e-05 -3.6621318914498394e-15 -2.0903977959534248e-10 -8.0023407905097614e-05 9.8215644100248252e-06 -1.2020642602641313e-10 -6.4463322282354432e-05 -4.87022992272993e-15 -2.3376967137817409e-10 -6.504438815472941e-05 4.5756553539035862e-06 -2.4289551755651949e-10 -8.0023423439875668e-05 -3.6621305224476501e-15 -2.0903977959534235e-10 -8.0023407905097628e-05 1.841216590149821e-15 -1.1215182774612466e-10 -7.5786840912727725e-05 5.2909559984556568e-06 -1.1709104537765557e-10 -9.3749050816219301e-05 6.2754979631524009e-15 -1.7918803995405574e-10 -9.3749049698073076e-05 -3.6621260916222555e-15 -2.0903977959534245e-10 -8.0023407905097628e-05 5.2909559984556568e-06 -1.1709104537765557e-10 -9.3749050816219301e-05 4.5756854981428561e-06 -2.0315649497545667e-10 -9.374904011004201e-05 6.2754977600866279e-15 -1.7918803995405574e-10 -9.3749049698073076e-05 -3.6621260916222555e-15 -2.0903977959534245e-10 -8.0023407905097628e-05 -4.87022992272993e-15 -2.3376967137817409e-10 -6.504438815472941e-05 5.8813439525931519e-06 -3.1568683134895189e-10 -6.4091133999207652e-05 4.575655353903587e-06 -2.4289551755651954e-10 -8.0023423439875668e-05 1.0256944249512858e-14 -3.4466109119889575e-10 -7.4999468305092694e-05 -4.87022992272993e-15 -2.3376967137817409e-10 -6.504438815472941e-05 4.5756553539035862e-06 -2.4289551755651949e-10 -8.0023423439875668e-05 -3.6621260916222555e-15 -2.0903977959534243e-10 -8.0023407905097628e-05 1.0256944249512858e-14 -3.4466109119889575e-10 -7.4999468305092694e-05 4.5756854981428561e-06 -2.0315649497545667e-10 -9.374904011004201e-05 6.2754977766199968e-15 -1.7918803995405574e-10 -9.3749049698073076e-05 -3.6621263432324783e-15 -2.0903977959534248e-10 -8.0023407905097628e-05 5.9913679545597893e-15 -3.2675005044253516e-10 -9.3749059269313957e-05 4.5756553539035862e-06 -2.4289551755651949e-10 -8.0023423439875668e-05 -3.6621260233396223e-15 -2.0903977959534243e-10 -8.0023407905097628e-05 1.0256944249512858e-14 -3.4466109119889575e-10 -7.4999468305092694e-05 5.9913679545597893e-15 -3.2675005044253516e-10 -9.3749059269313957e-05 6.2504801076286819e-06 -3.0281305292531969e-10 -9.3749070247296424e-05 4.5756553539035862e-06 -2.4289551755651949e-10 -8.0023423439875668e-05 4.5756854981428561e-06 -2.0315649497545667e-10 -9.374904011004201e-05 5.9913679545597893e-15 -3.2675005044253516e-10 -9.3749059269313957e-05 4.5756553539035862e-06 -2.4289551755651949e-10 -8.0023423439875668e-05 4.5756854981428561e-06 -2.0315649497545667e-10 -9.374904011004201e-05 -3.6621260916222555e-15 -2.0903977959534245e-10 -8.0023407905097628e-05 5.9913679545597893e-15 -3.2675005044253516e-10 -9.3749059269313957e-05 
</DataArray>
</PointData>
<CellData Scalars="" Vectors="" Tensors="effective_stress,">
<DataArray type="Float64" Name="effective_stress" NumberOfComponents="9" format="ascii">
0.35702116907439618 -0.005759425115533864 -0.05022919096253553 -0.005759425115533864 -2499.7557935254431 -0.048469184283990774 -0.05022919096253553 -0.048469184283990774 -9999.5749791360049 0.38909453437104013 0.010890337622958011 0.072791359907280084 0.010890337622958011 -2499.7511404727106 0.034568350212706073 0.072791359907280084 0.034568350212706073 -9999.5741801471831 0.37651919462183359 0.012511521036920034 0.0039845417714103881 0.012511521036920034 -2499.6929105815639 0.13567877941326151 0.0039845417714103881 0.13567877941326151 -9999.4975924030186 0.39749471269260539 0.020772206722079176 0.013869866844288481 0.020772206722079176 -2499.7167350600344 0.023893315014902328 0.013869866844288481 0.023893315014902328 -9999.5674019903163 0.36806346368075538 -0.00059126584437953385 0.0062117076097365498 -0.00059126584437953385 -2499.740654351544 -0.032595306971415994 0.0062117076097365498 -0.032595306971415994 -9999.6350844554217 0.37967048496557254 -0.019506239991270116 -0.034722915950169408 -0.019506239991270116 -2499.7288730067912 -0.00023364364278677385 -0.034722915950169408 -0.00023364364278677385 -9999.6328936511563 0.35889837837407867 0.010088249209299592 0.042166822386661806 0.010088249209299592 -2499.7782376243231 0.063643385541809039 0.042166822386661806 0.063643385541809039 -9999.6641305506637 0.34036946611877283 -0.025378860534577299 -0.031062618402756925 -0.025378860534577299 -2499.7942547200291 0.042023242555842444 -0.031062618402756925 0.042023242555842444 -9999.732533206412 0.34057145207725625 -0.0027977406706242176 0.017349791388596714 -0.0027977406706242176 -2499.7719314941096 -0.02252376302567427 0.017349791388596714 -0.02252376302567427 -9999.7243229742162 0.31176129409459463 0.001823902868515765 0.0047379408636061271 0.001823902868515765 -2499.8361279756155 0.020837870513332746 0.0047379408636061271 0.020837870513332746 -9999.7803499723177 0.35473917327306026 0.0096479791328234824 -0.0052473699929578288 0.0096479791328234824 -2499.7735684055201 -0.017474030542871333 -0.0052473699929578288 -0.017474030542871333 -9999.6611641797226 0.36142512342848931 0.01317917801272666 0.0039404745361935056 0.01317917801272666 -2499.7689782112539 -0.0081295737932123302 0.0039404745361935056 -0.0081295737932123302 -9999.6619059574932 0.36593730741151376 0.0042931770689997734 0.0044689368987747002 0.0042931770689997734 -2499.7545468409194 0.0057544581632100744 0.0044689368987747002 0.0057544581632100744 -9999.6622156778431 0.38039766321912794 0.014182370866778394 0.055109841863895781 0.014182370866778394 -2499.7418783227963 -0.010455777384777321 0.055109841863895781 -0.010455777384777321 -9999.6182469028972 0.38980347289316342 0.0062076518333132845 0.043082881316000868 0.0062076518333132845 -2499.7483252201164 -0.044896639762490476 0.043082881316000868 -0.044896639762490476 -9999.5578005645239 0.39439813302305993 0.012231287776893807 -0.057560747643860655 0.012231287776893807 -2499.6772695129794 0.090234510620381694 -0.057560747643860655 0.090234510620381694 -9999.4506805503188 0.39780223439925066 -0.0016501449496818393 -0.022120194675153471 -0.0016501449496818393 -2499.7118970759971 0.1174073944855536 -0.022120194675153471 0.1174073944855536 -9999.5253218318248 0.44540634936947754 0.007915583797068429 -0.037367417764256228 0.007915583797068429 -2499.6962300487794 0.059551199334740762 -0.037367417764256228 0.059551199334740762 -9999.5002621561634 0.33842382788861869 -0.010109605132946032 -0.0659552839817934 -0.010109605132946032 -2499.7608807710076 0.016840343647800182 -0.0659552839817934 0.016840343647800182 -9999.6505129641664 0.3667653857859321 -0.014441967702236977 0.017011207636642212 -0.014441967702236977 -2499.7510401541863 0.017363948882778146 0.017011207636642212 0.017363948882778146 -9999.6391944969928 0.36513217949628352 0.01240304894645898 0.02199355509460893 0.01240304894645898 -2499.7789457875811 0.031747876532976879 0.02199355509460893 0.031747876532976879 -9999.6755212122425 0.36152392297642566 0.0034064364275810041 0.025539653729525158 0.0034064364275810041 -2499.7749145656658 0.043345414059850679 0.025539653729525158 0.043345414059850679 -9999.6817870762043 0.43422577450932487 0.0062541244904511864 0.019681828545209501 0.0062541244904511864 -2499.6914922958717 0.093156770410781631 0.019681828545209501 0.093156770410781631 -9999.4771604751131 0.3998668827102847 -0.0032426813610925351 0.0089718680737860268 -0.0032426813610925351 -2499.6949548712237 0.084723602496978856 0.0089718680737860268 0.084723602496978856 -9999.4469596896542 0.35489080157458375 0.0045572788046610996 -0.0024338034661468555 0.0045572788046610996 -2499.7492921536559 0.0096689030165180156 -0.0024338034661468555 0.0096689030165180156 -9999.5765967728621 0.34751850531301898 0.0036910026637362019 0.0026253184198594681 0.0036910026637362019 -2499.7702708076458 0.023961972383858665 0.0026253184198594681 0.023961972383858665 -9999.6103400093471 0.37293945702731435 -0.0027628726277582304 -0.0029386476153376861 -0.0027628726277582304 -2499.7669416698936 0.0075971645983372582 -0.0029386476153376861 0.0075971645983372582 -9999.6166144940908 0.35654028718454356 0.0045971043578812397 -0.012759510814248642 0.0045971043578812397 -2499.7623547520861 0.0043865117479526816 -0.012759510814248642 0.0043865117479526816 -9999.6390835958646 0.37365800534644222 -0.0021925878474730147 -0.0030126709225442028 -0.0021925878474730147 -2499.7572913222393 0.0012131648695685726 -0.0030126709225442028 0.0012131648695685726 -9999.6235267102275 0.3613000502491559 -0.018832274367100575 -0.0050794049866453861 -0.018832274367100575 -2499.7398356977274 0.014830628606432583 -0.0050794049866453861 0.014830628606432583 -9999.6471909252432 0.36575931816150842 -0.01042578390247046 0.0067540969725996547 -0.01042578390247046 -2499.7616102992979 0.0070493287103090552 0.0067540969725996547 0.0070493287103090552 -9999.6488354165595 0.37922616349828786 -0.0004617227403133084 -0.024875834345039038 -0.0004617227403133084 -2499.7404869846459 0.015114121468741359 -0.024875834345039038 0.015114121468741359 -9999.5907674199625 0.37394035748772581 -0.0094670377847503387 0.011572436033020495 -0.0094670377847503387 -2499.7434501808361 0.016151504631721991 0.011572436033020495 0.016151504631721991 -9999.595402384879 0.375610725352999 -0.018540669167972257 -0.0019752818934648531 -0.018540669167972257 -2499.7157308465976 0.028313846282799204 -0.0019752818934648531 0.028313846282799204 -9999.5870918220971 0.37081087838487292 -0.0094321833496324448 -0.0013992320064062369 -0.0094321833496324448 -2499.7492951221811 0.0056066461716000049 -0.0013992320064062369 0.0056066461716000049 -9999.6124172711643 0.36404851042971131 -0.014993714250402961 0.0013135679191691452 -0.014993714250402961 -2499.7587752452973 0.016403892660491692 0.0013135679191691452 0.016403892660491692 -9999.6237679795631 0.37173685416018998 0.0083600236084026489 -0.0056009093350439798 0.0083600236084026489 -2499.7541290402314 0.0074092538802688068 -0.0056009093350439798 0.0074092538802688068 -9999.6141667327756 0.35884108299705986 0.0055567622027185501 -0.013804788811739854 0.0055567622027185501 -2499.7599428005988 0.0033692733959469479 -0.013804788811739854 0.0033692733959469479 -9999.6366911908735 0.3585298376923447 -0.00065927205547463424 -0.0049055667491302302 -0.00065927205547463424 -2499.7623431901147 -0.0027328405253683741 -0.0049055667491302302 -0.0027328405253683741 -9999.6604260294826 0.37079132907754797 0.00032721916179993121 -0.0048248406283164513 0.00032721916179993121 -2499.7527886663738 0.00093080186798033537 -0.0048248406283164513 0.00093080186798033537 -9999.6312473130274 0.36910075647574558 -0.00056760367015088516 -0.0042968510364858048 -0.00056760367015088516 -2499.7521340481153 -0.00017664739891642967 -0.0042968510364858048 -0.00017664739891642967 -9999.6284351198301 0.3865804560482502 0.019901559361234979 -0.0023675498187003541 0.019901559361234979 -2499.7150763606023 -0.0079104328578978311 -0.0023675498187003541 -0.0079104328578978311 -9999.6124257159427 0.38562770398038992 0.014340278535408202 -0.0018321843426747364 0.014340278535408202 -2499.7163393658575 0.0039873181922303047 -0.0018321843426747364 0.0039873181922303047 -9999.6182029231531 0.38133797054069873 0.017873864565389745 -0.00089580696567281848 0.017873864565389745 -2499.7253706055826 -0.0023298119040191523 -0.00089580696567281848 -0.0023298119040191523 -9999.6231139991833 0.38072095604366041 0.0081678314117486217 -0.0018793648387145367 0.0081678314117486217 -2499.7316885224509 -0.0074153730865873513 -0.0018793648387145367 -0.0074153730865873513 -9999.6259888364184 0.36748080672623473 0.0064040308375396052 -0.003591086198866833 0.0064040308375396052 -2499.7576494415616 -0.0062023790508192178 -0.003591086198866833 -0.0062023790508192178 -9999.6354737883012 0.37483101674843056 0.0051001946582951291 -0.0014701379495818401 0.0051001946582951291 -2499.7313845283152 -0.012667258855799446 -0.0014701379495818401 -0.012667258855799446 -9999.6295735006461 0.3767520919072922 0.00044041858061955562 0.00038062874693878257 0.00044041858061955562 -2499.7371888553571 -0.019884602035972421 0.00038062874693878257 -0.019884602035972421 -9999.60380526882 0.36886067688828916 1.0265054921534955e-05 0.0013133323636793648 1.0265054921534955e-05 -2499.7546230027438 -0.0028945878293598071 0.0013133323636793648 -0.0028945878293598071 -9999.6250758340502 0.3708956336367919 0.00064427325003315293 0.00017238014925169409 0.00064427325003315293 -2499.7437423424308 -0.014016238234034972 0.00017238014925169409 -0.014016238234034972 -9999.6206756923857 0.37684041222019005 0.002164822136805473 -0.0014550576247529534 0.002164822136805473 -2499.74895915463 -0.0072788458724062366 -0.0014550576247529534 -0.0072788458724062366 -9999.5970116493845 0.37370704893373841 -3.6143357372493234e-05 0.0027403827959915361 -3.6143357372493234e-05 -2499.7467489627275 -0.0076382541928978753 0.0027403827959915361 -0.0076382541928978753 -9999.6069199452159 0.37068704315697687 0.0024498057617649725 -0.0011136044084878449 0.0024498057617649725 -2499.7586088831008 -0.012995838855658803 -0.0011136044084878449 -0.012995838855658803 -9999.6148500858562 0.36661594182896806 -2.7482500985701389e-05 -0.00088822835868995753 -2.7482500985701389e-05 -2499.7518575123613 -0.0076557731354114367 -0.00088822835868995753 -0.0076557731354114367 -9999.6348678190061 0.37576388326124288 -8.3479852036055606e-05 0.00039379789905069629 -8.3479852036055606e-05 -2499.745262258275 -0.0050659698699746514 0.00039379789905069629 -0.0050659698699746514 -9999.6015873017386 0.35864248829591361 -0.0053580671241664699 0.0066149497170044924 -0.0053580671241664699 -2499.7578727343553 9.3706576990371104e-05 0.0066149497170044924 9.3706576990371104e-05 -9999.6449115986834 0.35896817208009679 -0.0011868983979916835 0.0068388205204428232 -0.0011868983979916835 -2499.7568358200201 -0.0040841553213795123 0.0068388205204428232 -0.0040841553213795123 -9999.6060010506335 0.3670899461621957 -0.011041126877114404 0.0050612782624739339 -0.011041126877114404 -2499.744088012374 0.0019170357197708654 0.0050612782624739339 0.0019170357197708654 -9999.6427808721583 0.37120017806046235 -0.0015802512114420613 0.00065890421365111251 -0.0015802512114420613 -2499.7530956077235 -0.003339335090458917 0.00065890421365111251 -0.003339335090458917 -9999.63421571664 0.36255624281238852 -0.0052603623940092412 0.0048790784658194752 -0.0052603623940092412 -2499.766103726929 0.0029108062753948616 0.0048790784658194752 0.0029108062753948616 -9999.6467059441038 0.37294242084226426 -0.0029783699705840071 -0.002358284028559865 -0.0029783699705840071 -2499.7546960597074 -0.004283199411474925 -0.002358284028559865 -0.004283199411474925 -9999.6297508702391 0.34685273350760326 0.0027089689661123611 0.06708308189354284 0.0027089689661123611 -2499.7693140203114 -0.074845173131961928 0.06708308189354284 -0.074845173131961928 -9999.6317773440405 0.37945193728637605 0.001422507105774299 0.0062107410535645613 0.001422507105774299 -2499.7246431479516 -0.01222403869778077 0.0062107410535645613 -0.01222403869778077 -9999.5569586926867 0.3386050138678911 -0.013337638577266091 -0.0072130191297219426 -0.013337638577266091 -2499.7709500623864 -0.0012354702312222798 -0.0072130191297219426 -0.0012354702312222798 -9999.7270116061063 0.37324342769699526 0.010202805611045739 0.09781497508836226 0.010202805611045739 -2499.7378539298961 -0.028982374519558096 0.09781497508836226 -0.028982374519558096 -9999.5844621564993 0.37780224948051 0.0068116684249578379 -0.032067397175524093 0.0068116684249578379 -2499.7405751641409 -0.019933073622723896 -0.032067397175524093 -0.019933073622723896 -9999.5952476033417 0.36707049631513655 -0.0058155244061668665 0.028487786653386138 -0.0058155244061668665 -2499.735351049067 0.050668040257278335 0.028487786653386138 0.050668040257278335 -9999.6723977312322 0.36893538327717579 -0.00028609843778601212 0.0087202156241801276 -0.00028609843778601212 -2499.7444743725655 0.0024808640750961786 0.0087202156241801276 0.0024808640750961786 -9999.5776803665376 0.3737782756504564 0.008901324212075637 -0.030867572233986174 0.008901324212075637 -2499.7406392354619 -0.020893939759333048 -0.030867572233986174 -0.020893939759333048 -9999.5968910781812 0.4025667454957329 0.0080543967322634098 0.018352585519971654 0.0080543967322634098 -2499.7261292747853 -0.016128004148703825 0.018352585519971654 -0.016128004148703825 -9999.587505163483 0.37950568016549369 0.01900676709614681 0.056341438441315311 0.01900676709614681 -2499.7360721849554 -0.084166654777018818 0.056341438441315311 -0.084166654777018818 -9999.6087179477272 0.35491492819460291 -0.0099295198738263805 0.0095473663332086289 -0.0099295198738263805 -2499.7745568102214 -0.056622476781740261 0.0095473663332086289 -0.056622476781740261 -9999.6521847965032 0.3561653038983934 -0.0016184532490948083 0.0077593059573075607 -0.0016184532490948083 -2499.7656968030224 -0.006222801971489389 0.0077593059573075607 -0.006222801971489389 -9999.6534887019934 0.37504108020857529 0.00023457665237987496 0.018417898600091576 0.00023457665237987496 -2499.7451156709253 -0.01978109873642353 0.018417898600091576 -0.01978109873642353 -9999.6285204594078 0.38740721984640913 0.00042216319887873263 -0.029254432705806854 0.00042216319887873263 -2499.7337540306485 -0.019112318303653286 -0.029254432705806854 -0.019112318303653286 -9999.5954107765174 0.38906228082554017 0.0055789483592084237 0.039094283934739571 0.0055789483592084237 -2499.7266131398283 -0.047761768295656537 0.039094283934739571 -0.047761768295656537 -9999.555879976866 0.40505061268311854 1.9583858329588061e-05 0.064565100525159014 1.9583858329588061e-05 -2499.7295877535789 -0.0098735695182203646 0.064565100525159014 -0.0098735695182203646 -9999.4889486625925 0.36527716800856069 -0.00080651412827200558 0.017413619852050033 -0.00080651412827200558 -2499.7767045460682 -0.0098818992370510728 0.017413619852050033 -0.0098818992370510728 -9999.6377580151529 0.38210229136075213 0.0021370449050879129 0.010515923580442177 0.0021370449050879129 -2499.7611783268944 -0.022730122132088582 0.010515923580442177 -0.022730122132088582 -9999.5943737260677 0.39776645487812473 0.00027966630017780929 0.039925329538199966 0.00027966630017780929 -2499.6923482147181 0.022112156268277117 0.039925329538199966 0.022112156268277117 -9999.5443760934777 0.41379651250677912 0.0053282835199873271 0.065372145527380243 0.0053282835199873271 -2499.6983878989004 -0.015513554365552459 0.065372145527380243 -0.015513554365552459 -9999.4796098872666 0.3820982599531817 0.0033322454741871455 0.0023802330119906401 0.0033322454741871455 -2499.7550259391633 0.013163771909148636 0.0023802330119906401 0.013163771909148636 -9999.6110351792995 0.36123233196440196 0.0043149142434230833 0.01022638008089416 0.0043149142434230833 -2499.7747119012488 0.0086175267456383153 0.01022638008089416 0.0086175267456383153 -9999.6662877322087 0.38787206927372608 -0.0063068451264828192 0.042959548963213412 -0.0063068451264828192 -2499.7281465977867 0.014858476995668779 0.042959548963213412 0.014858476995668779 -9999.552773370935 0.38443359727757426 0.0022737562882369326 -0.056094705212182017 0.0022737562882369326 -2499.7582075892828 0.0032266106211936568 -0.056094705212182017 0.0032266106211936568 -9999.6213894180728 0.38273634761026187 -0.0099788870798549513 0.042284515148821811 -0.0099788870798549513 -2499.7421705528209 0.015844497313537431 0.042284515148821811 0.015844497313537431 -9999.5546969262432 0.37408184223956159 -0.0077290476191969291 0.027162339680554148 -0.0077290476191969291 -2499.7407098040853 0.041574729703386493 0.027162339680554148 0.041574729703386493 -9999.6000159790419 0.38199916426650365 0.0075355988085738616 -0.043293867392656782 0.0075355988085738616 -2499.7403310291638 0.020076970810353506 -0.043293867392656782 0.020076970810353506 -9999.6467506578647 0.39876066096483287 0.004550884146623739 -0.048036265838104331 0.004550884146623739 -2499.7318568782307 0.022144323587774132 -0.048036265838104331 0.022144323587774132 -9999.585494821149 0.37415997631546816 0.0071093981517598194 0.01870206078638148 0.0071093981517598194 -2499.7497426488426 0.025975969093735785 0.01870206078638148 0.025975969093735785 -9999.6343169392712 0.39041744582664251 -0.0020740039968731583 0.0028276054481466417 -0.0020740039968731583 -2499.7337548570449 0.014805778043410101 0.0028276054481466417 0.014805778043410101 -9999.60721810225 0.38541626637470472 0.0018480781097316161 0.0090826568853117351 0.0018480781097316161 -2499.7494251261796 0.024401269915642843 0.0090826568853117351 0.024401269915642843 -9999.5928753087483 0.36744121917075745 0.0017308443161071032 0.017094759266853998 0.0017308443161071032 -2499.7650421692224 0.025228641897228954 0.017094759266853998 0.025228641897228954 -9999.6386153950152 0.35336747754604403 0.010150866247079036 0.00027321655124978861 0.010150866247079036 -2499.7594059483472 0.011699519833200611 0.00027321655124978861 0.011699519833200611 -9999.6352457744561 0.37790457471510308 0.00086249024289833517 -0.0049855240622491692 0.00086249024289833517 -2499.7569719323201 -7.6472710361485952e-05 -0.0049855240622491692 -7.6472710361485952e-05 -9999.5990659716426 0.37963908456322315 -0.0018229673779527021 -0.0033653172981757962 -0.0018229673779527021 -2499.740271017155 0.015254935272992043 -0.0033653172981757962 0.015254935272992043 -9999.6229822224504 0.36186610669392394 0.0016138029016136406 -0.010536940081237844 0.0016138029016136406 -2499.7615211841403 0.014065201969515329 -0.010536940081237844 0.014065201969515329 -9999.6184371779145 0.39961156267281694 0.0016553544088770173 0.0062948180050170777 0.0016553544088770173 -2499.7384541273564 0.0018544162376201712 0.0062948180050170777 0.0018544162376201712 -9999.547062347594 0.3657938696878773 0.0012035119737826439 0.0069331603440332401 0.0012035119737826439 -2499.749218949848 0.0063493289484313209 0.0069331603440332401 0.0063493289484313209 -9999.6227954158203 0.37326224821765663 -0.0036811569328858325 -0.00056614493973938806 -0.0036811569328858325 -2499.7522705643287 0.0099133936846556026 -0.00056614493973938806 0.0099133936846556026 -9999.6018933249179 0.36969064125696605 0.0011626364551005788 -1.0466875210113358e-05 0.0011626364551005788 -2499.7616563819811 -0.00057594372509583991 -1.0466875210113358e-05 -0.00057594372509583991 -9999.6094885173261 0.37668187483268412 0.0015173593472880614 7.987886419869028e-06 0.0015173593472880614 -2499.7410307304208 0.0032628863118588924 7.987886419869028e-06 0.0032628863118588924 -9999.6021501939067 0.37439287136658095 0.0023937535910357076 0.0011871252754644956 0.0023937535910357076 -2499.7433579007666 0.0018765666102353862 0.0011871252754644956 0.0018765666102353862 -9999.6134345326063 0.37408117315499112 0.00099078080111650313 -0.0016309380689563113 0.00099078080111650313 -2499.7412980548052 0.011915002608475334 -0.0016309380689563113 0.011915002608475334 -9999.6192973087636 0.37727681689921155 0.0022725149021423537 0.00038038032744225347 0.0022725149021423537 -2499.74136167903 0.0045722784761892399 0.00038038032744225347 0.0045722784761892399 -9999.6042823666139 0.36919451936819314 0.0096176864205038681 -0.011817291993793333 0.0096176864205038681 -2499.7481453302012 0.00052060810162402049 -0.011817291993793333 0.00052060810162402049 -9999.6258497861581 0.37605447439091222 -0.0022377208400212786 -0.0057890485236384848 -0.0022377208400212786 -2499.7515094687528 0.0028710640658573539 -0.0057890485236384848 0.0028710640658573539 -9999.6267129433018 0.36757398134250252 -0.0019304142539583388 -0.0015951620871419436 -0.0019304142539583388 -2499.754593275833 0.0034801057918230072 -0.0015951620871419436 0.0034801057918230072 -9999.6314801825865 0.37280007361005119 -0.0001074771361319754 0.00031581060102325864 -0.0001074771361319754 -2499.7378536412816 0.0097689476169762202 0.00031581060102325864 0.0097689476169762202 -9999.6278737422108 0.38119617181837384 -0.015103300998006913 0.00030793388941674493 -0.015103300998006913 -2499.7126112754049 -5.6289041822310537e-05 0.00030793388941674493 -5.6289041822310537e-05 -9999.617030964695 0.38648579747314216 -0.015175328212990218 -0.0034317676572754863 -0.015175328212990218 -2499.7127073142528 0.0014552825855389528 -0.0034317676572754863 0.0014552825855389528 -9999.6111365338256 0.37613054437679239 -0.0017615401678326564 -0.0060207406813788111 -0.0017615401678326564 -2499.7508005339587 0.0035990080757528631 -0.0060207406813788111 0.0035990080757528631 -9999.6231520543406 0.37003068584655807 0.0092020019262433334 -0.011935862254176755 0.0092020019262433334 -2499.7455762610061 0.0020434636476238666 -0.011935862254176755 0.0020434636476238666 -9999.6231474673768 0.3835885212311041 -0.010026445361777964 -0.002104248805608222 -0.010026445361777964 -2499.7293694430969 0.013574772821129955 -0.002104248805608222 0.013574772821129955 -9999.621843399249 0.36410896234974643 -0.0024232168474439333 0.0049461571247775282 -0.0024232168474439333 -2499.7641048223691 -0.0062696251939087233 0.0049461571247775282 -0.0062696251939087233 -9999.6649909014795 0.36740927016080605 -0.010180164942952805 0.00013415858211374143 -0.010180164942952805 -2499.7705473472247 0.0039559468450534041 0.00013415858211374143 0.0039559468450534041 -9999.6460752996154 0.36474131976638091 -0.0049896578781443157 0.015997377561247361 -0.0049896578781443157 -2499.7141384714105 -0.12502551913110801 0.015997377561247361 -0.12502551913110801 -9999.5557220503524 0.3980440625033923 -0.018234764974840584 0.0084829169063596055 -0.018234764974840584 -2499.7239710234517 -0.026169348388975777 0.0084829169063596055 -0.026169348388975777 -9999.570531625599 0.34459663302277477 -0.0066107252976061806 0.046624327551171518 -0.0066107252976061806 -2499.7859386156524 -0.068570840393476828 0.046624327551171518 -0.068570840393476828 -9999.685533959735 0.36080974316746506 -0.0077447006193999343 0.067659162809873052 -0.0077447006193999343 -2499.757242456978 -0.041294480869689648 0.067659162809873052 -0.041294480869689648 -9999.6125001798991 0.3658546337255757 0.000321557903936915 0.0068973878992437676 0.000321557903936915 -2499.7574397723629 0.016696292048038686 0.0068973878992437676 0.016696292048038686 -9999.6704919219865 0.33151975025800229 -0.011030139350549382 0.034072196683738787 -0.011030139350549382 -2499.7830764155674 0.051860390648762744 0.034072196683738787 0.051860390648762744 -9999.7123893798125 0.30591145884716298 -0.0046624569087776631 0.0063047350316765005 -0.0046624569087776631 -2499.8428510735398 -0.019137606017011421 0.0063047350316765005 -0.019137606017011421 -9999.8191890658854 0.35333977038180819 -0.0073283873833082866 0.0058160283538200019 -0.0073283873833082866 -2499.7602311062801 0.0098184820612914336 0.0058160283538200019 0.0098184820612914336 -9999.6634424797394 0.33897351433260559 -0.0030471321634409215 0.029376105133062713 -0.0030471321634409215 -2499.7859901331849 0.058560591675426876 0.029376105133062713 0.058560591675426876 -9999.7374392607981 0.37147802684614817 -0.0043575259904626122 -0.0080700327271188144 -0.0043575259904626122 -2499.7579987453205 0.0056763939214761194 -0.0080700327271188144 0.0056763939214761194 -9999.6546638595955 0.38070533318659727 -0.0020962346814815958 -0.00075675855896406574 -0.0020962346814815958 -2499.74334304698 0.027086055042218504 -0.00075675855896406574 0.027086055042218504 -9999.6364896379055 0.34122733165142244 0.0077478623571524824 -0.082946950683983001 0.0077478623571524824 -2499.8157790301866 -0.036232946841353329 -0.082946950683983001 -0.036232946841353329 -9999.765732724627 0.37739663889233072 0.0075867295652950265 -0.06446735833641698 0.0075867295652950265 -2499.7581800793487 0.049137390394144699 -0.06446735833641698 0.049137390394144699 -9999.6726352581045 0.38034485345799346 -0.0048772409504923633 -0.075240625826329732 -0.0048772409504923633 -2499.7393267514271 -0.086779276635812225 -0.075240625826329732 -0.086779276635812225 -9999.6476188895303 0.38128579626823011 0.0012895492986661761 -0.011871218620399304 0.0012895492986661761 -2499.7029538955476 -0.04213068732093822 -0.011871218620399304 -0.04213068732093822 -9999.5768405868366 0.35955432281350547 0.015833490674772695 -0.026436671705951618 0.015833490674772695 -2499.7704688727245 -0.0065161650644441418 -0.026436671705951618 -0.0065161650644441418 -9999.642549769942 0.36316000335500576 0.012293007506177484 -0.026186380703620671 0.012293007506177484 -2499.7618832389103 0.0086062138343550032 -0.026186380703620671 0.0086062138343550032 -9999.635011952847 0.37145405214687344 -0.010099465760525946 -0.011131597666235393 -0.010099465760525946 -2499.7716282907936 0.014841653851590308 -0.011131597666235393 0.014841653851590308 -9999.6412260460766 0.34549415802302974 0.004544961855680877 -0.012312912126617448 0.004544961855680877 -2499.7695451478958 -0.022091080477366631 -0.012312912126617448 -0.022091080477366631 -9999.6892666780095 0.36962249674161285 0.025388168270874433 0.000851226544000383 0.025388168270874433 -2499.7609512397376 0.015719051997621136 0.000851226544000383 0.015719051997621136 -9999.5850344165119 0.37432813223063022 0.0054953544007038252 -0.00015227866515488131 0.0054953544007038252 -2499.73998025535 -0.02703593522051051 -0.00015227866515488131 -0.02703593522051051 -9999.5968488588078 0.43538905837560327 0.0015469329329563936 -0.036337351491851799 0.0015469329329563936 -2499.6951551647744 -0.044219681672712785 -0.036337351491851799 -0.044219681672712785 -9999.5399597350461 0.36069647831754992 0.00073722552195585331 0.0087225535031620893 0.00073722552195585331 -2499.7599277387581 -0.015494618062348309 0.0087225535031620893 -0.015494618062348309 -9999.6246718990769 0.35650711042944749 0.0043974973731048528 0.017180346197778112 0.0043974973731048528 -2499.7376377574346 -0.079759934340291494 0.017180346197778112 -0.079759934340291494 -9999.658226559628 0.41259347481081932 -0.010160629600077145 0.0020959264038538095 -0.010160629600077145 -2499.6876982401759 -0.089995759795301722 0.0020959264038538095 -0.089995759795301722 -9999.493946308874 0.42285296291181207 -0.0028941955788064702 0.015731973525344667 -0.0028941955788064702 -2499.6671241081422 -0.077619181259866499 0.015731973525344667 -0.077619181259866499 -9999.4709619714395 0.36352624926439603 -0.0081818685905824737 -0.0055514943787784432 -0.0081818685905824737 -2499.7773043444722 -0.040951692038106557 -0.0055514943787784432 -0.040951692038106557 -9999.595206265878 0.35253160750926327 -0.0059452947092724258 -0.0051119642629942064 -0.0059452947092724258 -2499.7827467754751 -0.030621190478541394 -0.0051119642629942064 -0.030621190478541394 -9999.636648965723 0.37466257884352672 5.1794765481984195e-05 -0.0007057089906084002 5.1794765481984195e-05 -2499.737002349274 -0.0057029354076121308 -0.0007057089906084002 -0.0057029354076121308 -9999.6258413168398 0.35076421947917424 0.0070736971926645964 -0.005790089953734423 0.0070736971926645964 -2499.7467009153588 -0.0013178960007280693 -0.005790089953734423 -0.0013178960007280693 -9999.6316987741357 0.36654116463432729 -0.025754123473480973 0.00048950978634820785 -0.025754123473480973 -2499.7451538354871 -0.0010450019181007519 0.00048950978634820785 -0.0010450019181007519 -9999.5981856521357 0.36536021697202159 0.00044302758466521069 0.0023247869376064045 0.00044302758466521069 -2499.7737359589369 -0.035786393377179593 0.0023247869376064045 -0.035786393377179593 -9999.6296001100145 0.35879054422650825 0.0051205302859188215 -0.014761065345737734 0.0051205302859188215 -2499.7372876770278 -0.0048099813166118111 -0.014761065345737734 -0.0048099813166118111 -9999.5957507932726 0.36940658303774399 0.011525919070659901 0.0053223372178763384 0.011525919070659901 -2499.7911281580014 -0.01421916961999159 0.0053223372178763384 -0.01421916961999159 -9999.6526577452805 0.36487995221068559 -0.02253035700811068 -0.0013612200064017088 -0.02253035700811068 -2499.7582941940454 0.0090217184804259887 -0.0013612200064017088 0.0090217184804259887 -9999.6309956692439 0.37664712627338304 0.0073613589745605071 -0.017030707856065419 0.0073613589745605071 -2499.7404210060758 -0.0041733239941095235 -0.017030707856065419 -0.0041733239941095235 -9999.5917858109424 0.38248567149275914 0.0081318109151200732 -0.0050944398035426275 0.0081318109151200732 -2499.7401031830996 -2.1305856989783933e-06 -0.0050944398035426275 -2.1305856989783933e-06 -9999.6119452474595 0.36973136296364828 -0.019706957755775079 -0.0018182386738772038 -0.019706957755775079 -2499.7391755936442 0.016666533433635777 -0.0018182386738772038 0.016666533433635777 -9999.6215618713068 0.36726795671347645 -0.0021749999073995101 0.00083267249829077628 -0.0021749999073995101 -2499.7525788838175 0.0038742178177608722 0.00083267249829077628 0.0038742178177608722 -9999.6377315102345 0.36647374361928087 -0.00099177204013927074 0.0040820665908540832 -0.00099177204013927074 -2499.7586262998429 -0.00025377735619258601 0.0040820665908540832 -0.00025377735619258601 -9999.6430037744631 0.36873378703603521 -0.0024838515252082025 0.0025527709630068784 -0.0024838515252082025 -2499.7543043001715 0.0015710499255874311 0.0025527709630068784 0.0015710499255874311 -9999.6399365827965 0.35938655710126 -0.0035452026236509385 0.008254646608747862 -0.0035452026236509385 -2499.7511696767606 0.0043794515163426695 0.008254646608747862 0.0043794515163426695 -9999.6063352212841 0.38003864797587994 -0.0033019256509114513 0.0051314651659595256 -0.0033019256509114513 -2499.7301055277112 -0.0026172675306952442 0.0051314651659595256 -0.0026172675306952442 -9999.5453536988571 0.36202937078514719 -0.0023657365845876632 0.11409160961520071 -0.0023657365845876632 -2499.739189921555 0.035553098781604078 0.11409160961520071 0.035553098781604078 -9999.6163120836591 0.36714218565833912 0.0030301179638995389 -0.015522925810965371 0.0030301179638995389 -2499.7456193550688 0.013295812701193266 -0.015522925810965371 0.013295812701193266 -9999.5593986200729 0.35434766071898594 -0.0010087843626239378 0.097843174775334774 -0.0010087843626239378 -2499.7583314738899 0.061855517809362937 0.097843174775334774 0.061855517809362937 -9999.6391874429501 0.37257056935289234 0.011382474057083911 -0.0036888443528880349 0.011382474057083911 -2499.7226960942194 0.026094036173447688 -0.0036888443528880349 0.026094036173447688 -9999.5698019428528 0.35834769346729445 0.0088940020239350187 0.024041313208272186 0.0088940020239350187 -2499.7420253902019 -0.068451146065399371 0.024041313208272186 -0.068451146065399371 -9999.6821281425 0.34277032180216338 0.0094330004890487533 -0.018888989260403832 0.0094330004890487533 -2499.7766595426192 -0.001610840474768338 -0.018888989260403832 -0.001610840474768338 -9999.7371922519233 0.39397052650111902 0.004583912215237987 -0.025050815453624004 0.004583912215237987 -2499.7307215553105 -0.011721796038586973 -0.025050815453624004 -0.011721796038586973 -9999.5964754453453 0.39547922295014359 -0.0064214630349226347 0.070528598582983215 -0.0064214630349226347 -2499.7346532444126 0.087891405297028297 0.070528598582983215 0.087891405297028297 -9999.5500070521339 0.3191477862692409 0.0028054082237638283 0.081850962681983219 0.0028054082237638283 -2499.76615729675 0.056910273512585263 0.081850962681983219 0.056910273512585263 -9999.7870228610955 0.36800074173265784 -0.0037148570894662216 0.0015238828518704395 -0.0037148570894662216 -2499.7578557753141 0.010748290817446104 0.0015238828518704395 0.010748290817446104 -9999.7112905385984 0.31913666181412736 0.0060347153560896165 0.00014455130497026403 0.0060347153560896165 -2499.7863947850219 -0.0025753643035386631 0.00014455130497026403 -0.0025753643035386631 -9999.7577841919774 0.33221922179882313 -0.0082821323306758489 0.066795920465657826 -0.0082821323306758489 -2499.7561516694414 0.031722861439636194 0.066795920465657826 0.031722861439636194 -9999.5882305962987 0.35135716044965193 0.0012651480893022342 0.021533231192279345 0.0012651480893022342 -2499.7707151537256 -0.0049522226399858482 0.021533231192279345 -0.0049522226399858482 -9999.7291413399907 0.35657681445582057 0.00092826963138000667 0.0050350282149338454 0.00092826963138000667 -2499.7858881024777 0.00069453072637770674 0.0050350282149338454 0.00069453072637770674 -9999.7280840763524 0.34819252319084626 -0.00072769421965091993 0.0073596002730482724 -0.00072769421965091993 -2499.7613923090353 -0.023296375823974813 0.0073596002730482724 -0.023296375823974813 -9999.7139090955097 0.36573064489084572 -0.010135195639506531 1.4464257973467731e-05 -0.010135195639506531 -2499.7511887699184 0.064393364533106123 1.4464257973467731e-05 0.064393364533106123 -9999.5818801832083 0.33684439284468226 0.0039522905358556071 0.029120775257069909 0.0039522905358556071 -2499.7827787623701 -0.059939547256362857 0.029120775257069909 -0.059939547256362857 -9999.7305467735514 0.36001748375338138 0.0061345707664065569 -0.010291129379733241 0.0061345707664065569 -2499.7347798043324 -0.070514097314320012 -0.010291129379733241 -0.070514097314320012 -9999.6445809339129 0.36121304094194784 0.0028422800940530509 0.013406904686777882 0.0028422800940530509 -2499.7828516700756 -0.075533251517873962 0.013406904686777882 -0.075533251517873962 -9999.6480372917995 0.3041166215974751 0.0055885333143296115 0.072597390622880675 0.0055885333143296115 -2499.8185075556839 0.0209581945858896 0.072597390622880675 0.0209581945858896 -9999.834007422116 0.38401426241262016 0.0055926767607790374 0.0030690110712257024 0.0055926767607790374 -2499.7413456721529 -0.007163125198076159 0.0030690110712257024 -0.007163125198076159 -9999.6299248409468 0.37873826668419497 0.001109648090902743 0.002202236261112489 0.001109648090902743 -2499.7511316939735 -0.0003785178278121748 0.002202236261112489 -0.0003785178278121748 -9999.6397587973061 0.3799554102242837 0.004637319975645246 0.0057108265640977152 0.004637319975645246 -2499.7488556859589 0.00072636480172150186 0.0057108265640977152 0.00072636480172150186 -9999.6375399765875 0.37773943267075083 0.0034429579720437671 -0.006595129178094794 0.0034429579720437671 -2499.7457763175162 0.011316477656691859 -0.006595129178094794 0.011316477656691859 -9999.6405540128962 0.35953004320208493 -0.0010793629395903503 -0.013241363802990236 -0.0010793629395903503 -2499.7543032861349 -0.0011422327602303994 -0.013241363802990236 -0.0011422327602303994 -9999.672264992445 0.38145469971979651 -0.0030671679736470028 0.003094500921179133 -0.0030671679736470028 -2499.745807768229 0.0065293098721213028 0.003094500921179133 0.0065293098721213028 -9999.6682589106204 0.38696995299505943 0.0040683007335400919 0.0014594007372608075 0.0040683007335400919 -2499.7284324723123 -0.0040921957352111349 0.0014594007372608075 -0.0040921957352111349 -9999.6308559500212 0.36819793097947695 -0.00058242296875653373 -0.0091319937650951033 -0.00058242296875653373 -2499.7605977127723 -0.00075572065088636009 -0.0091319937650951033 -0.00075572065088636009 -9999.6688642238332 0.3528987269105528 -0.0034082933692030082 0.0071954303066377179 -0.0034082933692030082 -2499.7669989608694 -0.014985828102908272 0.0071954303066377179 -0.014985828102908272 -9999.6870343943792 0.36231199981057216 0.0014279568526268036 -0.011599216183640237 0.0014279568526268036 -2499.7550931808078 -0.013673225145566903 -0.011599216183640237 -0.013673225145566903 -9999.6563428798254 0.37823936446420703 0.004987145388104873 -0.0070919860372669064 0.004987145388104873 -2499.7307797171115 0.00088670555123826489 -0.0070919860372669064 0.00088670555123826489 -9999.6171216386283 0.3582176414265632 0.0044453190274971743 0.0079806912735875812 0.0044453190274971743 -2499.763103847934 -0.0064958884071302236 0.0079806912735875812 -0.0064958884071302236 -9999.6888847892224 0.36000394181337469 0.022965223812322598 -0.0070437796448459267 0.022965223812322598 -2499.7860180906609 -0.015945241397275822 -0.0070437796448459267 -0.015945241397275822 -9999.6574730168304 0.36002494840613508 0.0044069505734772776 0.00069673482812504517 0.0044069505734772776 -2499.7596500705058 -0.011519370972337128 0.00069673482812504517 -0.011519370972337128 -9999.6791186059563 0.37142371704430843 -0.00366937763658781 -0.0060148161219331087 -0.00366937763658781 -2499.7528372653715 -0.017374739861224953 -0.0060148161219331087 -0.017374739861224953 -9999.6462260169028 0.37770429761621926 0.012864596651713911 -0.0082818656464951346 0.012864596651713911 -2499.7495093314628 -0.0023419684503096505 -0.0082818656464951346 -0.0023419684503096505 -9999.6215604836689 0.37821842502899017 0.022990081086528377 -0.0066616660878935363 0.022990081086528377 -2499.7491465768867 0.0030977555261415546 -0.0066616660878935363 0.0030977555261415546 -9999.6190990347604 0.38072773093517753 0.0089395045796578781 0.0066454061282001931 0.0089395045796578781 -2499.7298782561247 0.0067239745694678277 0.0066454061282001931 0.0067239745694678277 -9999.6298762743791 0.38339045395787252 0.024178514773907471 -0.011224041129707985 0.024178514773907471 -2499.7590138345126 -0.030829227644517232 -0.011224041129707985 -0.030829227644517232 -9999.5927351825649 0.36210389653524544 -0.00026214415832698235 -0.005198740934702073 -0.00026214415832698235 -2499.7640437206073 -0.016238376144968925 -0.005198740934702073 -0.016238376144968925 -9999.6020205577152 0.38689799658027368 -0.0049176557625302889 0.012779835726632882 -0.0049176557625302889 -2499.7485955548837 -0.027506692686756651 0.012779835726632882 -0.027506692686756651 -9999.5712117463409 0.37384557142831909 -0.0053693550974428308 0.0053418798970596981 -0.0053693550974428308 -2499.7597845149658 -0.025623329039717646 0.0053418798970596981 -0.025623329039717646 -9999.6066158561807 0.34904818365174606 -0.0006974287811091634 -0.0087693585269335017 -0.0006974287811091634 -2499.7827513759021 -0.031330451909553858 -0.0087693585269335017 -0.031330451909553858 -9999.6367074679674 0.36528519783564661 0.0045287677227094994 0.0040488971235390636 0.0045287677227094994 -2499.7789199130943 -0.069082239643421417 0.0040488971235390636 -0.069082239643421417 -9999.6280929818313 0.41087100725098935 0.0038551510150930182 -0.01458967742155437 0.0038551510150930182 -2499.7017900476544 -0.092744787852325317 -0.01458967742155437 -0.092744787852325317 -9999.4716606642469 0.43289615646674384 -0.0099751395168271306 -0.014132501804922648 -0.0099751395168271306 -2499.6796399566838 -0.096927083688829796 -0.014132501804922648 -0.096927083688829796 -9999.4642940957037 0.36274486015311608 -0.0092144352813336508 -0.0099602669929881316 -0.0092144352813336508 -2499.7586113819502 -0.070617706597317975 -0.0099602669929881316 -0.070617706597317975 -9999.6498472273361 0.37033081417484937 -0.018459535111963545 -0.0063124731975676696 -0.018459535111963545 -2499.7410642333912 -0.029862397589113243 -0.0063124731975676696 -0.029862397589113243 -9999.623367755139 0.42629667341413985 -0.0032329487594806375 0.044291730783500349 -0.0032329487594806375 -2499.6963064644037 -0.046642560364382496 0.044291730783500349 -0.046642560364382496 -9999.5663617494811 0.43093674731926512 -0.012905040673700671 -0.018513917928727613 -0.012905040673700671 -2499.6722791121711 -0.083020239280688274 -0.018513917928727613 -0.083020239280688274 -9999.4565825575846 0.39683088998117455 0.0037034686811190376 0.013721581931349647 0.0037034686811190376 -2499.734123601635 -0.02341842867235755 0.013721581931349647 -0.02341842867235755 -9999.5652802234217 0.37571249743541557 -0.015600697407114573 0.042403987173884161 -0.015600697407114573 -2499.7885760663767 0.011969999532311704 0.042403987173884161 0.011969999532311704 -9999.6600070797558 0.31506706040318022 -0.020645384113247556 0.040470990989547317 -0.020645384113247556 -2499.8630543336308 -0.036824682465066871 0.040470990989547317 -0.036824682465066871 -9999.8381172506997 0.26293209511004534 0.0065036497990111648 -0.014585029168529218 0.0065036497990111648 -2499.8380751353643 0.022008291602787722 -0.014585029168529218 0.022008291602787722 -9999.7206718652196 0.38175216580631571 0.0030745037300805318 0.0266559683880895 0.0030745037300805318 -2499.7775928665628 -0.11452806615632671 0.0266559683880895 -0.11452806615632671 -9999.6201107018587 0.38546155737275622 0.02941539917236928 0.095275931122380253 0.02941539917236928 -2499.7127054192592 -0.065849819415020855 0.095275931122380253 -0.065849819415020855 -9999.4854334201518 0.31078851560838672 0.01934826098458697 0.099676052172828628 0.01934826098458697 -2499.7959611545084 0.033709266951304745 0.099676052172828628 0.033709266951304745 -9999.7324765625544 0.31842934372616583 0.0037630370409700263 0.1005005732471318 0.0037630370409700263 -2499.7955619703821 0.013511290990209091 0.1005005732471318 0.013511290990209091 -9999.7486925748744 0.26311470853090668 0.0038826060410370525 -0.019561538559173641 0.0038826060410370525 -2499.8056748947615 0.0019492604888000642 -0.019561538559173641 0.0019492604888000642 -9999.7142199328991 0.27400399408634257 -0.0050701689037230997 -0.018305309649804258 -0.0050701689037230997 -2499.7903747750033 -0.0048978134236676851 -0.018305309649804258 -0.0048978134236676851 -9999.7123903903575 0.21753910612455196 0.027876537176439436 -0.035978049531926237 0.027876537176439436 -2499.8419809861402 0.068943159297539636 -0.035978049531926237 0.068943159297539636 -9999.7978740266153 0.27808828547426856 0.0050479345477444128 0.0077995895126150572 0.0050479345477444128 -2499.8011228581613 -0.0035394901860854588 0.0077995895126150572 -0.0035394901860854588 -9999.7065842837947 0.20298343955101927 0.0015869584357494429 -0.015901174189366429 0.0015869584357494429 -2499.912026318078 -0.026903536768884351 -0.015901174189366429 -0.026903536768884351 -9999.8969381658062 0.16933034628084995 -0.00022217087758020539 -0.064453620537228584 -0.00022217087758020539 -2499.8633047900425 0.031610570087800771 -0.064453620537228584 0.031610570087800771 -9999.8628062297357 0.18929618173381277 -0.0080105358211267561 -0.035375441225892035 -0.0080105358211267561 -2499.8506524420241 -0.083908370740158889 -0.035375441225892035 -0.083908370740158889 -9999.7774207671664 0.19448695613573364 -0.01032197713766117 -0.0098433554940129397 -0.01032197713766117 -2499.7779650702123 -0.024627986303585203 -0.0098433554940129397 -0.024627986303585203 -9999.6490463412538 0.21412907729142205 -0.017404106035986702 -0.056584430093856802 -0.017404106035986702 -2499.7839537519499 -0.041766484614181171 -0.056584430093856802 -0.041766484614181171 -9999.6870912397808 0.19696012708643262 0.0047776449164874391 0.0022656911065602192 0.0047776449164874391 -2499.7998088331915 -0.1431393348125489 0.0022656911065602192 -0.1431393348125489 -9999.625718532192 0.17039476138779719 -0.018467864790688911 -0.017115299042870902 -0.018467864790688911 -2499.844566434349 0.026168675427015842 -0.017115299042870902 0.026168675427015842 -9999.7443572413176 0.16830480164480832 -0.035909098443464647 -0.023955775958711456 -0.035909098443464647 -2499.8183795600153 -0.0021639247943312512 -0.023955775958711456 -0.0021639247943312512 -9999.7445628679998 0.20328426585092529 -0.032408159623871745 -0.0021409736891655484 -0.032408159623871745 -2499.8184465516351 -0.0082775492610380752 -0.0021409736891655484 -0.0082775492610380752 -9999.7184655501424 0.33864773064306064 0.0029503743161803375 0.0058368653590150643 0.0029503743161803375 -2499.7613688322808 -0.011943922935643059 0.0058368653590150643 -0.011943922935643059 -9999.6868340754445 0.27206000694957311 -0.0025247040887331554 -0.015030519879474014 -0.0025247040887331554 -2499.7822561823814 -0.010737873658626995 -0.015030519879474014 -0.010737873658626995 -9999.7149163416634 0.2673365042860496 0.024563643448219995 -0.020730082784211845 0.024563643448219995 -2499.7550965592022 0.012333406491961796 -0.020730082784211845 0.012333406491961796 -9999.7129089889058 0.28956691337407392 -0.0050667764907940949 -0.0019673488668559003 -0.0050667764907940949 -2499.791166124538 -0.016738452996833075 -0.0019673488668559003 -0.016738452996833075 -9999.6958082046494 0.35215634938867879 -0.015469383078244692 -0.010463792134032701 -0.015469383078244692 -2499.7679383041705 -0.014567066968083964 -0.010463792134032701 -0.014567066968083964 -9999.6721363099168 0.19265830963377084 -0.03199428996356167 0.0072792637374732294 -0.03199428996356167 -2499.8127422555935 -0.015565378233077354 0.0072792637374732294 -0.015565378233077354 -9999.726600816779 0.13097147655025765 -0.013365719498277195 -0.019170614878021297 -0.013365719498277195 -2499.8528079418065 -0.00068404559078771854 -0.019170614878021297 -0.00068404559078771854 -9999.771619315281 0.23410979219852379 0.011145579316838527 -0.025310002345804605 0.011145579316838527 -2499.8270078503442 -0.002770583891106071 -0.025310002345804605 -0.002770583891106071 -9999.7387191011803 0.25201302437380946 -0.016577861483480387 -0.023819752975214215 -0.016577861483480387 -2499.8168313417018 0.0042642188145691762 -0.023819752975214215 0.0042642188145691762 -9999.7336675327078 0.2689177991711631 0.0019314882298263319 -0.019368451246918994 0.0019314882298263319 -2499.7912352508129 0.012957491197084892 -0.019368451246918994 0.012957491197084892 -9999.7138086977484 0.29144798394281679 -0.0085863912005776019 -0.0084743087472816114 -0.0085863912005776019 -2499.7798914563646 -0.0042753603020173614 -0.0084743087472816114 -0.0042753603020173614 -9999.704966581292 0.28839844600270226 0.0027471318502142929 -0.0085963170054128568 0.0027471318502142929 -2499.7873830734629 0.01222217671238468 -0.0085963170054128568 0.01222217671238468 -9999.7108765511857 0.29016854677320225 -0.0040879725037132062 -0.00606282315993667 -0.0040879725037132062 -2499.7753494895114 0.0013195398887546617 -0.00606282315993667 0.0013195398887546617 -9999.6917438919627 0.28943979380255769 -0.0020886499107252718 -0.010788642719489872 -0.0020886499107252718 -2499.7919870165151 0.0062951347472335328 -0.010788642719489872 0.0062951347472335328 -9999.7230184744531 0.29125115848182759 -0.014121800874820891 -0.012535854827206094 -0.014121800874820891 -2499.7719350770922 -0.000131090346712881 -0.012535854827206094 -0.000131090346712881 -9999.6989106004512 0.28939362078745035 -0.0028453861963266798 -0.026330124434934987 -0.0028453861963266798 -2499.7940565610534 -0.0033552429331393796 -0.026330124434934987 -0.0033552429331393796 -9999.7250720646171 0.29471482896951784 -0.0029345457788638105 -0.028307748217571316 -0.0029345457788638105 -2499.7728414622284 0.0028784864753106376 -0.028307748217571316 0.0028784864753106376 -9999.7207750169091 0.23197225881540362 0.017385520744742994 -0.027951290504461213 0.017385520744742994 -2499.8079784915199 0.0016797231237433152 -0.027951290504461213 0.0016797231237433152 -9999.7341759726005 0.23444598954665707 0.0012128467480311787 -0.035476326419484394 0.0012128467480311787 -2499.8010400062694 0.012584344505569334 -0.035476326419484394 0.012584344505569334 -9999.7184542420982 0.23816710969197175 0.0088257989999431831 -0.019331432392846182 0.0088257989999431831 -2499.8028907725316 0.0084547632191060984 -0.019331432392846182 0.0084547632191060984 -9999.7155476296193 0.24089506562862487 -0.0031726902041410336 -0.011084708811976748 -0.0031726902041410336 -2499.7991130991486 -0.0012483358512279212 -0.011084708811976748 -0.0012483358512279212 -9999.7749164101351 0.25985237658096594 -0.0014752055275046258 -0.0071061744522467052 -0.0014752055275046258 -2499.778756986489 0.0093419125100808742 -0.0071061744522467052 0.0093419125100808742 -9999.7208141053234 0.24498317906954981 0.012213072003304541 -0.015886182706253749 0.012213072003304541 -2499.7950098568244 0.024425447719295335 -0.015886182706253749 0.024425447719295335 -9999.7014735929388 0.29562448525408308 -0.0071555831027886319 -0.052045076086592645 -0.0071555831027886319 -2499.7878235611702 0.0035301478698049893 -0.052045076086592645 0.0035301478698049893 -9999.7862077829013 0.33170440733874784 -0.0075523973410643024 -0.035496286301622604 -0.0075523973410643024 -2499.7813065234786 -0.0009195287193506374 -0.035496286301622604 -0.0009195287193506374 -9999.7923653456564 0.24958840293675166 -0.0072419311875583717 -0.0077585784661096113 -0.0072419311875583717 -2499.8036817924749 0.0051003043200239517 -0.0077585784661096113 0.0051003043200239517 -9999.7290650448595 0.30678592583040759 0.015020036226266808 -0.035363013474761867 0.015020036226266808 -2499.7893152831662 0.063535334652697228 -0.035363013474761867 0.063535334652697228 -9999.7054325556201 0.23749910675768141 0.011826473890267544 -0.02949384211868028 0.011826473890267544 -2499.8220946054785 0.021554406655734604 -0.02949384211868028 0.021554406655734604 -9999.7270392473984 0.28627082363768602 0.0097899768257854892 -0.068765785781868011 0.0097899768257854892 -2499.8146210548225 0.023641370668153111 -0.068765785781868011 0.023641370668153111 -9999.7464157922041 0.32350218823361254 0.0087540487539444073 0.014637877043150227 0.0087540487539444073 -2499.7905569377567 -0.080612019889906322 0.014637877043150227 -0.080612019889906322 -9999.649308256312 0.17524579668506826 0.030678474919790595 -0.027692083166792697 0.030678474919790595 -2499.8419661063103 0.021350086455105666 -0.027692083166792697 0.021350086455105666 -9999.6930524994732 0.2303686819864639 -0.015420129610173368 -0.018688050008522625 -0.015420129610173368 -2499.8210649044972 -0.02454315936876908 -0.018688050008522625 -0.02454315936876908 -9999.7607894047796 0.1292796602006922 0.010992937312382031 -0.009056348985177709 0.010992937312382031 -2499.8460420786851 0.02536197222530177 -0.009056348985177709 0.02536197222530177 -9999.716188913937 0.13659170538016951 0.010846337829716623 -0.004843528603487357 0.010846337829716623 -2499.8222668288395 0.010422819642826653 -0.004843528603487357 0.010422819642826653 -9999.6918186937801 0.16281662353094362 0.0068561342886395314 -0.026512422605112912 0.0068561342886395314 -2499.8060951283669 0.042542530810186552 -0.026512422605112912 0.042542530810186552 -9999.6319826739473 0.2963675895821325 0.0037374794337435863 -0.019513486960931914 0.0037374794337435863 -2499.8064462764232 -0.097070895794445278 -0.019513486960931914 -0.097070895794445278 -9999.6435195205886 0.16625609731589566 0.012173868209586469 -0.022179231733624627 0.012173868209586469 -2499.7777630850419 0.040622172222787301 -0.022179231733624627 0.040622172222787301 -9999.6301029518418 0.19105852032339499 0.0061962924064998016 0.0077269778842156689 0.0061962924064998016 -2499.8135804873118 0.0054564998476962501 0.0077269778842156689 0.0054564998476962501 -9999.5635277984984 0.31040142929396097 0.020261731513227368 -0.011381394066575012 0.020261731513227368 -2499.7808056221697 0.029559112984316016 -0.011381394066575012 0.029559112984316016 -9999.622685118331 0.32973528413115399 -0.002456260330555347 -0.030767847702218354 -0.002456260330555347 -2499.7504294571954 0.04622789815944673 -0.030767847702218354 0.04622789815944673 -9999.6890425014644 0.24942042203012008 -0.0027465894494305876 -0.019349140280009888 -0.0027465894494305876 -2499.770952507241 0.041277566519860087 -0.019349140280009888 0.041277566519860087 -9999.6999931101036 0.26414980683852873 -0.0071470619363828989 -0.0050753283677397384 -0.0071470619363828989 -2499.8092814912939 0.021626231915781328 -0.0050753283677397384 0.021626231915781328 -9999.6170632387602 0.23831798108949442 -0.010578179594406861 -0.015192261363836224 -0.010578179594406861 -2499.8323613948278 0.0047414051408480873 -0.015192261363836224 0.0047414051408480873 -9999.6861349071678 0.18185241645589359 -0.0048217426242821368 0.032598535520867888 -0.0048217426242821368 -2499.7738419868183 -0.038893431319827865 0.032598535520867888 -0.038893431319827865 -9999.6420960313626 0.17779561862559856 -0.030226541381500695 -0.003300122667042299 -0.030226541381500695 -2499.8282013396415 -0.086475700690973933 -0.003300122667042299 -0.086475700690973933 -9999.5597255470075 0.15601194596956702 -0.043803426798012697 -0.02605441556431376 -0.043803426798012697 -2499.8279163906518 -0.019033258426588873 -0.02605441556431376 -0.019033258426588873 -9999.6779321869744 0.35136511026757944 0.031946156896202289 0.018905937723729949 0.031946156896202289 -2499.7411350024649 -0.0034818095396076387 0.018905937723729949 -0.0034818095396076387 -9999.6846089130831 0.36707058782440072 0.013534760662301963 0.048707746245750583 0.013534760662301963 -2499.7626448595493 -0.078373771865555733 0.048707746245750583 -0.078373771865555733 -9999.5544192334455 0.27779590381305752 -0.011913680069159091 -0.031949194653407176 -0.011913680069159091 -2499.7945549255528 -0.037638750510723185 -0.031949194653407176 -0.037638750510723185 -9999.6991374459139 0.27124856143109355 -0.013984553338483155 -0.029161115567148954 -0.013984553338483155 -2499.8151363659144 -0.033163135840766245 -0.029161115567148954 -0.033163135840766245 -9999.7742931192697 0.30482085984476726 -0.0083457511360039427 -0.0082552411677170312 -0.0083457511360039427 -2499.8026260039351 -0.020492008557539521 -0.0082552411677170312 -0.020492008557539521 -9999.7212869026298 0.26512195456803056 -0.00072339882826587439 -0.021517988679306654 -0.00072339882826587439 -2499.8537218379834 0.009134178624208289 -0.021517988679306654 0.009134178624208289 -9999.8193672500747 0.31287442045595526 0.014268488908585394 0.06045702672034281 0.014268488908585394 -2499.8072873081665 0.041278063281424693 0.06045702672034281 0.041278063281424693 -9999.7268205204418 0.17790089535719744 0.028557196355218827 -0.013963257451450772 0.028557196355218827 -2499.8230067527966 -0.022755995899842674 -0.013963257451450772 -0.022755995899842674 -9999.7577232352032 0.15353856251385878 0.030176155251541211 -0.030503149206651869 0.030176155251541211 -2499.8156949481736 -0.0078017067230575776 -0.030503149206651869 -0.0078017067230575776 -9999.7552294028319 0.19629854070626607 0.0029705105166788343 -0.0067813899304997871 0.0029705105166788343 -2499.7664644062097 0.093265481718739995 -0.0067813899304997871 0.093265481718739995 -9999.6720692807721 0.19585202441043947 0.02372805179790935 -0.0083665949573514808 0.02372805179790935 -2499.7745980502887 0.013253160679588233 -0.0083665949573514808 0.013253160679588233 -9999.6823292106328 0.15017609731911893 -0.027936394899781294 -0.028241666610178906 -0.027936394899781294 -2499.8110073179305 0.0064018282715485042 -0.028241666610178906 0.0064018282715485042 -9999.6535327863567 0.21721481328263767 0.01308825008565594 -0.01719512944288043 0.01308825008565594 -2499.8101617445668 0.050544936738236818 -0.01719512944288043 0.050544936738236818 -9999.7568295772999 0.3643956909490953 0.023698147254309895 0.0038757574811825179 0.023698147254309895 -2499.7038750092411 0.024202161346693174 0.0038757574811825179 0.024202161346693174 -9999.6436211805267 0.32663877396117819 0.002441568766928949 0.047359653491356957 0.002441568766928949 -2499.7602258172037 0.05893422643276662 0.047359653491356957 0.05893422643276662 -9999.7058518985614 0.36638330984078493 0.0061790324543144863 -0.0068668690328195225 0.0061790324543144863 -2499.7451022579744 0.005213092568283173 -0.0068668690328195225 0.005213092568283173 -9999.6654045661671 0.35138823588295054 0.035471277677140187 0.016462725580879578 0.035471277677140187 -2499.7511054697707 0.0056024944046839664 0.016462725580879578 0.0056024944046839664 -9999.6689946975403 0.37524091402854665 -0.0092917806443007372 0.026537703237950488 -0.0092917806443007372 -2499.7597333252124 0.010130858670801851 0.026537703237950488 0.010130858670801851 -9999.6263700777727 0.41436214031311336 0.0050099464107446132 0.044399077929507202 0.0050099464107446132 -2499.7051724121529 0.078866250869767729 0.044399077929507202 0.078866250869767729 -9999.5274372993117 0.38057904601069259 -0.0093340736348702449 -0.0063285067098036718 -0.0093340736348702449 -2499.7421235809315 0.031827996873286329 -0.0063285067098036718 0.031827996873286329 -9999.5768651766466 0.38717635718379739 -0.010297522223731866 0.014975019476185597 -0.010297522223731866 -2499.7555905200902 0.04814654998104978 0.014975019476185597 0.04814654998104978 -9999.609616518137 0.40123272815435485 -0.0065110808998774528 0.022527411088958615 -0.0065110808998774528 -2499.730484747206 0.007058646893256082 0.022527411088958615 0.007058646893256082 -9999.5548712350064 0.3622528616285513 -0.0054737783667645956 0.025409004053573811 -0.0054737783667645956 -2499.7772011079292 0.030614785735185029 0.025409004053573811 0.030614785735185029 -9999.6753460036671 0.35353163910191943 -0.0058779625146364589 -0.0032255147774964965 -0.0058779625146364589 -2499.7645294426334 0.0026901245701894672 -0.0032255147774964965 0.0026901245701894672 -9999.6627959873276 0.35220141370008107 -0.009920004835786967 -0.002334015106033184 -0.009920004835786967 -2499.7661318433184 0.0079547306245929539 -0.002334015106033184 0.0079547306245929539 -9999.6663420449113 0.35411308369475591 0.0029030831479050262 -0.049790842140986058 0.0029030831479050262 -2499.7688627682696 0.038016850119674928 -0.049790842140986058 0.038016850119674928 -9999.6523854844254 0.36597188049154283 0.0027118997927375842 -0.006630492202930327 0.0027118997927375842 -2499.7511867628477 0.011360628869624634 -0.006630492202930327 0.011360628869624634 -9999.6736446965715 0.35704099171243797 -0.007503404999065811 -0.05053801222455287 -0.007503404999065811 -2499.757519142966 -0.010615644181594275 -0.05053801222455287 -0.010615644181594275 -9999.6507740851321 0.34899119322986344 -0.0036233932934655114 -0.026812875824906157 -0.0036233932934655114 -2499.7831037894539 0.025191623426625967 -0.026812875824906157 0.025191623426625967 -9999.6824816522712 0.34429968369340713 -0.0031787078937199572 -0.02407213382659279 -0.0031787078937199572 -2499.766600781335 -0.0033369924954058661 -0.02407213382659279 -0.0033369924954058661 -9999.7169833363005 0.364969144933184 -0.0092510568228358694 0.0033802875900619256 -0.0092510568228358694 -2499.765980220066 0.020955446520247278 0.0033802875900619256 0.020955446520247278 -9999.7254571070953 0.36905963755452831 -0.00025519976363583621 0.0019128919502691133 -0.00025519976363583621 -2499.7512858973378 -0.0029027860325072652 0.0019128919502691133 -0.0029027860325072652 -9999.6791464690978 0.37102056402454764 -0.0035947915138801142 0.0047732152138451056 -0.0035947915138801142 -2499.7730624292444 0.0028512875533124316 0.0047732152138451056 0.0028512875533124316 -9999.6861776058322 0.33894192433808712 0.0042671586498930682 0.060216041301839107 0.0042671586498930682 -2499.7432901395505 -0.0084805116015304882 0.060216041301839107 -0.0084805116015304882 -9999.5969807264119 0.37334026568123591 0.014914684135427882 -0.031922960958089552 0.014914684135427882 -2499.7364702650484 -0.055756533245573586 -0.031922960958089552 -0.055756533245573586 -9999.6188862785857 0.3521316642990413 -0.0029720181285566036 -0.044693963316107387 -0.0029720181285566036 -2499.7571897200282 0.042576589428294731 -0.044693963316107387 0.042576589428294731 -9999.6712759434704 0.37580773933768796 -0.00083698198737873963 -0.0071170355793128692 -0.00083698198737873963 -2499.7534574519277 0.001059336290381907 -0.0071170355793128692 0.001059336290381907 -9999.646045756821 0.36495316202763206 0.0018136526802642605 -0.012298982271204295 0.0018136526802642605 -2499.7592517730418 0.0040916333085760925 -0.012298982271204295 0.0040916333085760925 -9999.6555276272848 0.38100835734553584 -0.0034819250647234045 -0.0039907321335022061 -0.0034819250647234045 -2499.7462976542693 -0.0030160072774378932 -0.0039907321335022061 -0.0030160072774378932 -9999.6356032967105 0.37610775277767061 -0.0042160275321602957 0.0030927483697951175 -0.0042160275321602957 -2499.7632181039971 0.0090496477232591133 0.0030927483697951175 0.0090496477232591133 -9999.6744924815466 0.38417157407184277 -0.0026856290575674614 -0.0052611603373406979 -0.0026856290575674614 -2499.7383845649119 0.0019068176014798155 -0.0052611603373406979 0.0019068176014798155 -9999.6370557422779 0.38646214590562522 -0.0019810053573351694 -0.0017658763435974834 -0.0019810053573351694 -2499.7485791274917 7.2149990046455059e-05 -0.0017658763435974834 7.2149990046455059e-05 -9999.6356595974903 0.35683494946715655 0.0095566242473853376 -0.0040937754010883509 0.0095566242473853376 -2499.7639438274746 0.00060748704231627926 -0.0040937754010883509 0.00060748704231627926 -9999.6675558930747 0.36734991370065018 0.014088359296989664 0.00058911420819640625 0.014088359296989664 -2499.7503110674711 0.010816614654004297 0.00058911420819640625 0.010816614654004297 -9999.6402628155374 0.37326039300023695 0.0088093264282991038 0.0010475615072209621 0.0088093264282991038 -2499.7437711064304 0.014521622302709147 0.0010475615072209621 0.014521622302709147 -9999.6450043474797 0.36318308771228658 0.0020459821396699683 -0.0081007573544411571 0.0020459821396699683 -2499.7778183336495 0.020169277571767452 -0.0081007573544411571 0.020169277571767452 -9999.6471771981014 0.37163148419494973 0.0039288085845709964 -0.0087322206047701911 0.0039288085845709964 -2499.7482522830524 0.010393868238679715 -0.0087322206047701911 0.010393868238679715 -9999.6406083985112 0.37122409872699791 0.005078185227384676 -0.0087290670630864042 0.005078185227384676 -2499.7509814416671 0.0077362331146559882 -0.0087290670630864042 0.0077362331146559882 -9999.6451096910696 0.3671278261090265 0.0030366496558199146 -0.011727919604709314 0.0030366496558199146 -2499.7546729522719 0.00556095288106917 -0.011727919604709314 0.00556095288106917 -9999.6528826964404 0.37679129766820552 0.0082194780445306592 0.00087404324040107895 0.0082194780445306592 -2499.7368081236555 0.018934795720724651 0.00087404324040107895 0.018934795720724651 -9999.6344994087849 0.37701134775829814 0.0052324772549760395 -0.0021491080906343996 0.0052324772549760395 -2499.7528542978835 0.01347753324535006 -0.0021491080906343996 0.01347753324535006 -9999.6180212575055 0.37072494559652114 0.0087220055700140131 -0.0048437327477586223 0.0087220055700140131 -2499.764051751863 0.021969180383166531 -0.0048437327477586223 0.021969180383166531 -9999.6430079448983 0.35958956055947056 -0.0037876034435555331 -0.011260455765295774 -0.0037876034435555331 -2499.7707924955575 0.022601914416100044 -0.011260455765295774 0.022601914416100044 -9999.6451429041554 0.29103689569637936 -0.0031623844552844927 -0.0032354091745219193 -0.0031623844552844927 -2499.7881394892156 -0.00099768795894306095 -0.0032354091745219193 -0.00099768795894306095 -9999.6869079184471 0.2819479064510233 -0.0020000229038302751 -0.02095080459912424 -0.0020000229038302751 -2499.7978432282066 -0.0047587302281044686 -0.02095080459912424 -0.0047587302281044686 -9999.7191295209232 0.35400605370523408 0.009450889982274592 -0.0048232634680971387 0.009450889982274592 -2499.7700763605126 0.0046805742276774254 -0.0048232634680971387 0.0046805742276774254 -9999.6783442664637 0.27721790149388426 0.00037650460147822806 -0.01051269072922878 0.00037650460147822806 -2499.7973500251078 0.0031468854449485661 -0.01051269072922878 0.0031468854449485661 -9999.7039625850121 0.18367161209201299 0.014319669224092585 -0.004597722525431891 0.014319669224092585 -2499.7825359312833 -0.0008544811571482569 -0.004597722525431891 -0.0008544811571482569 -9999.7239587243894 0.17464538233616622 0.0020862954701070385 -0.0080910210945148719 0.0020862954701070385 -2499.7957787451705 -0.0077388817080645822 -0.0080910210945148719 -0.0077388817080645822 -9999.7387008742662 0.166821835697192 0.0066752691410575868 -0.012703594851700473 0.0066752691410575868 -2499.7978447893165 -0.0089103600921589532 -0.012703594851700473 -0.0089103600921589532 -9999.73399080749 0.19004090874477697 0.017441911379993971 -0.010997241096447397 0.017441911379993971 -2499.7956350687637 -0.013348937465707422 -0.010997241096447397 -0.013348937465707422 -9999.7322223886149 0.26250677206189721 0.0082637950588620029 -0.020638892741771997 0.0082637950588620029 -2499.7999039119059 -0.010509466239454923 -0.020638892741771997 -0.010509466239454923 -9999.7105631951599 0.24723635980831205 -0.0094493988790782246 -0.02164176493351988 -0.0094493988790782246 -2499.8117830550163 -0.0061385765357044875 -0.02164176493351988 -0.0061385765357044875 -9999.7158076478354 0.28039565268170463 0.010486842788742354 -0.018431018125738774 0.010486842788742354 -2499.7990093341291 0.016391539230653507 -0.018431018125738774 0.016391539230653507 -9999.7133599456974 0.28475363374764129 -0.00042672208289936363 -0.0060831876385236683 -0.00042672208289936363 -2499.8159502286808 -0.0029239991417853162 -0.0060831876385236683 -0.0029239991417853162 -9999.7090515617219 0.29496419640418026 -0.0012576587698529575 -0.0044207380515217665 -0.0012576587698529575 -2499.7819896622532 0.0042390766902826726 -0.0044207380515217665 0.0042390766902826726 -9999.6756715661722 0.31057827262975479 1.2759923372500197e-05 -0.0087547465309398831 1.2759923372500197e-05 -2499.7890241719942 -0.014193884831001924 -0.0087547465309398831 -0.014193884831001924 -9999.6332920602981 0.285772138032371 -0.003292168282656634 -0.0047816142500778369 -0.003292168282656634 -2499.8085411395687 -0.0087183973846549634 -0.0047816142500778369 -0.0087183973846549634 -9999.6976701893564 0.28575686675958423 0.013136484752095934 -0.021890965531838447 0.013136484752095934 -2499.8113527037062 0.010739024391568819 -0.021890965531838447 0.010739024391568819 -9999.6807408565383 0.2944128035715039 0.00044125762583544816 -0.0060044587580705411 0.00044125762583544816 -2499.7887015448841 0.009243948837138305 -0.0060044587580705411 0.009243948837138305 -9999.688273738102 0.25706371099931857 0.0031230265620221962 -0.0082476524756884828 0.0031230265620221962 -2499.7846101737377 0.011806648230958672 -0.0082476524756884828 0.011806648230958672 -9999.675096263958 0.22366111729479599 -0.021911706504896697 -0.0241289452642377 -0.021911706504896697 -2499.8094125536272 0.0079309949123853585 -0.0241289452642377 0.0079309949123853585 -9999.7149469684337 0.31236022328812396 0.010248631733890375 -0.00968108229471909 0.010248631733890375 -2499.7766407715444 0.00056205718829005491 -0.00968108229471909 0.00056205718829005491 -9999.6824696547592 0.30636335863437125 -0.020878979378498315 -0.0099984218754798349 -0.020878979378498315 -2499.8009836422543 -0.0079660413648525719 -0.0099984218754798349 -0.0079660413648525719 -9999.7089640441827 0.2064216219678201 -0.020658035075239698 0.01469947443001729 -0.020658035075239698 -2499.8152167246408 0.0037386017338576494 0.01469947443001729 0.0037386017338576494 -9999.7465012066605 0.28118342841230515 -0.0018341261348095092 -0.0091733797607957968 -0.0018341261348095092 -2499.7949897960962 0.0010969502427542466 -0.0091733797607957968 0.0010969502427542466 -9999.713236105179 0.31368025685333123 -0.022495265101854407 -0.0097826357746271242 -0.022495265101854407 -2499.7930136767163 0.0047647675455664285 -0.0097826357746271242 0.0047647675455664285 -9999.6861152708916 0.30312187501840526 -0.0011169953049227025 -0.023221674363412603 -0.0011169953049227025 -2499.7820167924638 -7.1965260985962232e-06 -0.023221674363412603 -7.1965260985962232e-06 -9999.6835673852474 0.25596932058675748 -0.013636218349608199 -0.011344661872499273 -0.013636218349608199 -2499.7911180635338 -0.000636571719951462 -0.011344661872499273 -0.000636571719951462 -9999.700274170973 0.27903286246873904 0.021479536152166013 -0.033012239110576047 0.021479536152166013 -2499.7961506813917 0.010014208459324436 -0.033012239110576047 0.010014208459324436 -9999.7374170865805 0.21025435573392315 -0.028303952450626925 -0.0011565149034140632 -0.028303952450626925 -2499.8133384016382 0.0041149795997625915 -0.0011565149034140632 0.0041149795997625915 -9999.7370928948458 0.24081931519594946 -0.014276677089126708 -0.020160112895609927 -0.014276677089126708 -2499.8029957617773 0.0022918687354831491 -0.020160112895609927 0.0022918687354831491 -9999.7410411814126 0.22353948884483543 -0.00054711051128430305 -0.032095008125907043 -0.00054711051128430305 -2499.8218975081381 0.00082392565673217177 -0.032095008125907043 0.00082392565673217177 -9999.7460364079961 0.26414222297898959 0.012415484876009533 -0.0099565252312459052 0.012415484876009533 -2499.7940011239079 -0.003802371364145074 -0.0099565252312459052 -0.003802371364145074 -9999.7152242846823 0.24703936522996628 -0.0027757336424420291 -0.0022466633354270016 -0.0027757336424420291 -2499.800380007121 -0.0057038423765334301 -0.0022466633354270016 -0.0057038423765334301 -9999.7330381840111 0.38049746014166885 0.0086682767531881047 -0.013932951162132667 0.0086682767531881047 -2499.7476007569212 0.0016798841497802641 -0.013932951162132667 0.0016798841497802641 -9999.6575115046871 0.25991597372376418 -0.0027512983587007211 -0.012746902420985862 -0.0027512983587007211 -2499.7889679342825 0.0025133711833404959 -0.012746902420985862 0.0025133711833404959 -9999.6970092183365 0.26239195579364605 0.0092854081858926019 -0.011584953403144027 0.0092854081858926019 -2499.7968429094863 0.011911231625163055 -0.011584953403144027 0.011911231625163055 -9999.6989191546563 0.25221921824413585 0.0079635744833381275 -0.0016401991779275704 0.0079635744833381275 -2499.8073230597656 0.0031753333250890137 -0.0016401991779275704 0.0031753333250890137 -9999.7365517548315 0.18276228585818899 0.01062443466321291 -0.003090720108957612 0.01062443466321291 -2499.8087274589998 0.014176295562720043 -0.003090720108957612 0.014176295562720043 -9999.7622667488758 0.18007576617560517 0.0090909256853834927 -0.011361604005287518 0.0090909256853834927 -2499.7854983048392 -0.0025669866590760648 -0.011361604005287518 -0.0025669866590760648 -9999.7479469470345 0.17974210913598654 0.0021922054428127613 -0.011580334538848547 0.0021922054428127613 -2499.7875423706719 -0.0025435010065848473 -0.011580334538848547 -0.0025435010065848473 -9999.7167622340239 0.35624263457543748 -0.012988391724527829 -0.0078091250088618835 -0.012988391724527829 -2499.7812938782381 -0.0046811313654870901 -0.0078091250088618835 -0.0046811313654870901 -9999.6718614348902 0.24848971027779498 -0.010562011222020017 -0.0071393531688954681 -0.010562011222020017 -2499.8092700364332 -0.0023631748654224793 -0.0071393531688954681 -0.0023631748654224793 -9999.7046215301925 0.37144680003348185 0.01804552518042921 -0.005949269441771321 0.01804552518042921 -2499.7495915507743 -0.023014106072878349 -0.005949269441771321 -0.023014106072878349 -9999.6414405640953 0.37520551094894472 0.0098504185892406004 -0.012253380402398761 0.0098504185892406004 -2499.7457114977842 -0.02566967436359846 -0.012253380402398761 -0.02566967436359846 -9999.6525746962361 0.36580484716432693 -0.015050553435085493 -0.011252640550083015 -0.015050553435085493 -2499.776778000064 -0.003667512045467447 -0.011252640550083015 -0.003667512045467447 -9999.6660650615468 0.38172801127439016 0.0059371414645377277 -0.0062380929393839324 0.0059371414645377277 -2499.7434298239241 0.014297385867848789 -0.0062380929393839324 0.014297385867848789 -9999.6438128751033 0.35882554548334156 0.0006086516215498476 -0.0053503648564401374 0.0006086516215498476 -2499.7874333433447 0.0036556127624862711 -0.0053503648564401374 0.0036556127624862711 -9999.6586422574983 0.379065727987836 -0.0012854491356090111 -0.0090729272760654567 -0.0012854491356090111 -2499.7323483317159 -0.0012636897972697625 -0.0090729272760654567 -0.0012636897972697625 -9999.6261909846653 0.37052489496636554 0.0080498191575814632 -0.0098821372475867975 0.0080498191575814632 -2499.7512472036433 0.0020567498257832995 -0.0098821372475867975 0.0020567498257832995 -9999.6644044486893 0.37655554556295101 0.02068685446662312 -0.0015366568850367912 0.02068685446662312 -2499.7403749109599 -0.017767469009413617 -0.0015366568850367912 -0.017767469009413617 -9999.6305081565006 0.37521239588022581 -0.00098984849038618282 -0.0093614201923628571 -0.00098984849038618282 -2499.7509656463153 -0.00023381825758406194 -0.0093614201923628571 -0.00023381825758406194 -9999.6333588035523 0.37177994482408394 -0.00043248275286779652 -0.0037406311434295958 -0.00043248275286779652 -2499.7580562716248 -0.0020645343201977084 -0.0037406311434295958 -0.0020645343201977084 -9999.6573082782197 0.3797808428753342 0.0010913828481355823 -0.0027546093410819594 0.0010913828481355823 -2499.7482468592607 0.0057639136230136501 -0.0027546093410819594 0.0057639136230136501 -9999.6332735117139 0.37386582722751882 0.0020757548606605237 -0.011606033185671549 0.0020757548606605237 -2499.7568228319788 -1.8647783690539654e-05 -0.011606033185671549 -1.8647783690539654e-05 -9999.6625933310297 0.37588296263788834 -0.00062215280252638839 -0.0090673831582535058 -0.00062215280252638839 -2499.7472024020999 -0.0021880537788092624 -0.0090673831582535058 -0.0021880537788092624 -9999.6308010325483 0.36813539241848048 0.0016120343383942189 -0.0054542641503303457 0.0016120343383942189 -2499.757567231356 0.0011729033773804076 -0.0054542641503303457 0.0011729033773804076 -9999.6515126912927 0.41011770843397244 0.00061427667403760045 -0.0029394564335234463 0.00061427667403760045 -2499.7358733070705 0.00011607868884766503 -0.0029394564335234463 0.00011607868884766503 -9999.6221429495126 0.38119195874696743 0.01550932242939515 -0.013810450766868598 0.01550932242939515 -2499.7559634847412 0.00019954530944232829 -0.013810450766868598 0.00019954530944232829 -9999.6439858438571 0.37910948575245129 -0.0017090519002339144 -0.0041650200473668519 -0.0017090519002339144 -2499.749197608779 -0.0036169611639707 -0.0041650200473668519 -0.0036169611639707 -9999.6357932053197 0.37148942384737893 0.0095180941103223324 -0.0075135750357731013 0.0095180941103223324 -2499.7600696472418 0.011478157004603418 -0.0075135750357731013 0.011478157004603418 -9999.644745542977 0.38851877925026201 0.0013965213633621498 0.00045391290586849209 0.0013965213633621498 -2499.7432081512861 -0.00012754015006066766 0.00045391290586849209 -0.00012754015006066766 -9999.6297002567935 0.40730658605662029 -0.0055629614556515728 -0.011738811286704731 -0.0055629614556515728 -2499.7488082618565 0.0050944501308549661 -0.011738811286704731 0.0050944501308549661 -9999.6380283164435 0.38272615117239184 0.0028331926830394887 -0.00057617800121079199 0.0028331926830394887 -2499.7449435396411 0.00033750012880773284 -0.00057617800121079199 0.00033750012880773284 -9999.6268832312253 0.40111853063353919 0.0021447095190078452 0.00045445087016560137 0.0021447095190078452 -2499.7412445988703 -0.0041053560707950965 0.00045445087016560137 -0.0041053560707950965 -9999.6316041690734 0.39727869878333877 0.0029826108733490286 -0.0083245565256220289 0.0029826108733490286 -2499.747251254852 0.0063430791124119423 -0.0083245565256220289 0.0063430791124119423 -9999.6396075336124 0.40985207343828733 0.00054829613210719691 -0.0030177515000104904 0.00054829613210719691 -2499.7366752874809 -0.00018669353630684782 -0.0030177515000104904 -0.00018669353630684782 -9999.6226036595581 0.40688887039141264 -0.00033411512156555391 -0.0040970200279843993 -0.00033411512156555391 -2499.7382032874957 -0.0007124187977751717 -0.0040970200279843993 -0.0007124187977751717 -9999.6236545286301 0.41395692055175459 -0.00072710417068949651 -0.00259937870214344 -0.00072710417068949651 -2499.7255160817313 -0.0014854595192446141 -0.00259937870214344 -0.0014854595192446141 -9999.6184599834451 0.40040771398844299 0.010540234546148289 -0.0064289647998521104 0.010540234546148289 -2499.7482262802773 -0.0023578551517857704 -0.0064289647998521104 -0.0023578551517857704 -9999.6261258956747 0.36346583918930264 -6.1454239282181591e-05 -0.013945831743512827 -6.1454239282181591e-05 -2499.7708388354222 -0.0017387184561812319 -0.013945831743512827 -0.0017387184561812319 -9999.6746431701467 0.37202203521701449 0.0029975450138907817 0.00045614007831318304 0.0029975450138907817 -2499.7595938723007 -0.0018174931328758248 0.00045614007831318304 -0.0018174931328758248 -9999.6337742750002 0.37767152718515717 -0.0037791336586282011 -0.00064868790286709554 -0.0037791336586282011 -2499.7442732836389 0.00086543870202149265 -0.00064868790286709554 0.00086543870202149265 -9999.6277764132501 0.4079123544788672 0.0045228296611989488 -0.0081776381775853224 0.0045228296611989488 -2499.7329357808894 0.00076086876106273849 -0.0081776381775853224 0.00076086876106273849 -9999.6191618054236 0.36750272233621217 -0.010106532131145429 -0.013017691075219773 -0.010106532131145429 -2499.7312370918444 0.027679980392349535 -0.013017691075219773 0.027679980392349535 -9999.6277560316812 0.38838984699941648 0.0062314259442432796 -0.0082719836718752049 0.0062314259442432796 -2499.7437560800736 0.014670952137748827 -0.0082719836718752049 0.014670952137748827 -9999.6413184414232 0.38993548781036225 0.007968765861230985 -0.0057424653296038741 0.007968765861230985 -2499.7488346904615 -0.00071727066642779391 -0.0057424653296038741 -0.00071727066642779391 -9999.6280887170815 0.39496504222552176 0.00097063454280604811 0.001566415186971426 0.00097063454280604811 -2499.7256270332146 -0.0066478277931310004 0.001566415186971426 -0.0066478277931310004 -9999.6263329647809 0.4234023621011147 0.0056645362970969143 0.0024886187238735147 0.0056645362970969143 -2499.72141913421 -0.0015352990958490409 0.0024886187238735147 -0.0015352990958490409 -9999.6293252362011 0.40898456202558009 0.0012745669883263838 0.0028589369685505517 0.0012745669883263838 -2499.7259034814069 -0.0094392244282062165 0.0028589369685505517 -0.0094392244282062165 -9999.6259143582065 0.40937487217161106 0.0087170248273779408 -0.0059164447629882488 0.0087170248273779408 -2499.7445663071212 0.0025545146054355428 -0.0059164447629882488 0.0025545146054355428 -9999.6471801162988 0.36964799369161483 0.0048643411775069235 -0.0060806518217759731 0.0048643411775069235 -2499.7654529477804 0.010337863233871758 -0.0060806518217759731 0.010337863233871758 -9999.6510134166165 0.38850594332870969 -0.00078790895786185616 -0.016258899556305551 -0.00078790895786185616 -2499.7624911371149 0.0090674942475743592 -0.016258899556305551 0.0090674942475743592 -9999.6581498794985 0.38439780995577166 0.00010051435588240287 -0.019473768210445996 0.00010051435588240287 -2499.769208554022 -0.0032414206871180795 -0.019473768210445996 -0.0032414206871180795 -9999.6714299540508 0.25586639754328644 0.0011194182792469212 -0.0078147623426048085 0.0011194182792469212 -2499.8209902039307 0.023519777791079832 -0.0078147623426048085 0.023519777791079832 -9999.7227636034368 0.35277458859309263 0.011603304035850824 -0.020349190213892143 0.011603304035850824 -2499.78568878443 0.021352890811613179 -0.020349190213892143 0.021352890811613179 -9999.686722934719 0.34502932310169854 0.016560492813379207 -0.00061550455939141102 0.016560492813379207 -2499.7976979472278 -0.0023424527971656062 -0.00061550455939141102 -0.0023424527971656062 -9999.6900393051183 0.39453038856299827 -0.003891509690133594 -0.015031341101348517 -0.003891509690133594 -2499.7560957056921 0.002278228712384589 -0.015031341101348517 0.002278228712384589 -9999.6316741170012 0.35125504337338498 0.011182761347944551 0.0044364390942064347 0.011182761347944551 -2499.7871825850743 -0.0098768566967919469 0.0044364390942064347 -0.0098768566967919469 -9999.6712895074379 0.21265352659975179 -0.01192662544737657 -0.023560078361697379 -0.01192662544737657 -2499.8353733137756 0.0082680525629257318 -0.023560078361697379 0.0082680525629257318 -9999.7759828207418 0.25086394019581348 -0.0003631398002533065 -0.04211115958969458 -0.0003631398002533065 -2499.8064193157779 -0.0056548208640379016 -0.04211115958969458 -0.0056548208640379016 -9999.7330536315967 0.21163691617402947 -0.002567294828664593 -0.034990272422874114 -0.002567294828664593 -2499.8218882750261 0.0040886830865929369 -0.034990272422874114 0.0040886830865929369 -9999.8040768313658 0.16517580482832273 -0.010544173433019506 0.0085913336624798831 -0.010544173433019506 -2499.8298405086407 0.0026219039827992674 0.0085913336624798831 0.0026219039827992674 -9999.8319879356422 0.1804703053276171 0.0096150506074514225 0.00033172145413118415 0.0096150506074514225 -2499.7909573846791 0.028136657831055345 0.00033172145413118415 0.028136657831055345 -9999.7344473751655 0.15294791799533414 0.0018811682425290133 -0.0094536203614552505 0.0018811682425290133 -2499.8306846238047 0.0051163367188564735 -0.0094536203614552505 0.0051163367188564735 -9999.7894692302652 0.2409223419135742 -0.0027110852718869385 -0.020045227905029606 -0.0027110852718869385 -2499.8237910542002 0.0097749069936980959 -0.020045227905029606 0.0097749069936980959 -9999.7601599287373 0.22634837828809395 -0.01055300376534183 -0.02265728793645394 -0.01055300376534183 -2499.8518303443561 0.0039880127042124514 -0.02265728793645394 0.0039880127042124514 -9999.7732579806761 0.24186327353709203 -0.004043834259063692 -0.028717466586385854 -0.004043834259063692 -2499.8143150344858 -0.0027612318299361505 -0.028717466586385854 -0.0027612318299361505 -9999.7088925095959 0.22482296678026614 -0.0045686504610982295 -0.016040771792177111 -0.0045686504610982295 -2499.8325618987456 -0.03845241574163083 -0.016040771792177111 -0.03845241574163083 -9999.7612136290118 0.21567060027427942 -0.00092123214276982647 0.0029928504955023527 -0.00092123214276982647 -2499.841072995082 0.0018765861314022914 0.0029928504955023527 0.0018765861314022914 -9999.8031023751246 0.23214493220348231 -0.006142439578307464 -0.0017663449143583421 -0.006142439578307464 -2499.8413777120268 -0.00077777895785402507 -0.0017663449143583421 -0.00077777895785402507 -9999.7268313803688 0.19990747744668624 -0.0064758578202930113 -0.034464072547052638 -0.0064758578202930113 -2499.8423294273962 -0.001441888751287479 -0.034464072547052638 -0.001441888751287479 -9999.8156043683121 0.23168278942102916 -0.00081605707918757167 -0.010127870227734093 -0.00081605707918757167 -2499.8248110311361 0.025883691501803696 -0.010127870227734093 0.025883691501803696 -9999.7545800750522 0.24095116562011754 0.00045580477844073286 -0.00044439881730795605 0.00045580477844073286 -2499.8132166187611 -0.0033725051853252808 -0.00044439881730795605 -0.0033725051853252808 -9999.7238406049692 0.34459628813056042 0.0044391468930185096 -0.0068928113996662432 0.0044391468930185096 -2499.7692751709938 0.0027428931625763653 -0.0068928113996662432 0.0027428931625763653 -9999.6588677758355 0.24584247863913333 -0.0041386501124805698 -0.023718404761893908 -0.0041386501124805698 -2499.8193171352168 0.0034239901851833565 -0.023718404761893908 0.0034239901851833565 -9999.7613011068133 0.38687295866839122 0.00053433732320736351 -0.025664317605333054 0.00053433732320736351 -2499.7636006754446 -0.0036610415554605424 -0.025664317605333054 -0.0036610415554605424 -9999.6667192344212 0.29582616102379689 9.0293774391839849e-05 0.010183556264564686 9.0293774391839849e-05 -2499.7863515386616 0.0070917462799116038 0.010183556264564686 0.0070917462799116038 -9999.6784031193747 0.19034709144398221 -0.00041173133303904971 -0.035718710445507895 -0.00041173133303904971 -2499.8479052680013 -0.003702880252376417 -0.035718710445507895 -0.003702880252376417 -9999.8139433357137 0.38105221408841317 -0.00030167237547869957 -0.021558754964644322 -0.00030167237547869957 -2499.7550264757519 -0.0035029621803914779 -0.021558754964644322 -0.0035029621803914779 -9999.6696450647141 0.23968034765857738 0.0013606860619298257 -0.022526188724441454 0.0013606860619298257 -2499.8217764536384 0.0070661243112226657 -0.022526188724441454 0.0070661243112226657 -9999.7555765636789 0.23304928736251895 -0.002816154445706764 -0.0038654776344628772 -0.002816154445706764 -2499.816473532439 -0.0050181029139366728 -0.0038654776344628772 -0.0050181029139366728 -9999.7295135985551 0.24072562611581816 -0.0063904204851548841 -0.025838718851446174 -0.0063904204851548841 -2499.8224139346876 0.0022053236280044075 -0.025838718851446174 0.0022053236280044075 -9999.765115409049 0.23817233786030556 -0.010812568035778247 -0.019279858430763852 -0.010812568035778247 -2499.8083586688554 0.0008518259710399434 -0.019279858430763852 0.0008518259710399434 -9999.7710252034667 0.39472070999363496 0.0018637739553112971 -0.0239210732288484 0.0018637739553112971 -2499.7546659308737 -0.00075553999340627342 -0.0239210732288484 -0.00075553999340627342 -9999.6597823851662 0.39075613037311996 0.002701695080897547 -0.024512458476237953 0.002701695080897547 -2499.7504498418093 0.0013715834102185909 -0.024512458476237953 0.0013715834102185909 -9999.6585872987052 0.23666373621017556 0.00098465441329066358 -5.5526645155623555e-05 0.00098465441329066358 -2499.8036217494518 0.0016621615977783222 -5.5526645155623555e-05 0.0016621615977783222 -9999.717660089249 0.19062068068888038 0.0028522163866559957 -0.031889889993180986 0.0028522163866559957 -2499.8394961101367 0.0047355119713756721 -0.031889889993180986 0.0047355119713756721 -9999.8016478186801 0.18648726421088213 0.0017177810570043646 -0.035289905288664158 0.0017177810570043646 -2499.8386799839354 0.0013389876080509566 -0.035289905288664158 0.0013389876080509566 -9999.8083037024044 0.30616767839273962 -0.0060978677441062071 0.00019456153677310795 -0.0060978677441062071 -2499.7813487212134 0.0013498158724587483 0.00019456153677310795 0.0013498158724587483 -9999.6769537158179 0.28384530528637697 -0.0023496242281174397 -0.0063455139397774474 -0.0023496242281174397 -2499.7877052927997 0.00052674793187179603 -0.0063455139397774474 0.00052674793187179603 -9999.6811863139264 0.17906849219434662 0.0086895065106204847 -0.035179880920622963 0.0086895065106204847 -2499.8407430069419 0.0025837496959866257 -0.035179880920622963 0.0025837496959866257 -9999.8018935311447 0.28876056380613591 -0.0028730818995792609 -0.0013173937225019472 -0.0028730818995792609 -2499.7818512238555 -0.002687640480871778 -0.0013173937225019472 -0.002687640480871778 -9999.6657437145623 0.22415817251567205 -0.011472515840822485 -0.046829819566482911 -0.011472515840822485 -2499.8284901976567 0.0056392317383142654 -0.046829819566482911 0.0056392317383142654 -9999.783636803164 0.23445031827577623 -0.00080174748869627811 -0.043062386248493567 -0.00080174748869627811 -2499.8370179479825 0.00027543431860976852 -0.043062386248493567 0.00027543431860976852 -9999.7870560047559 0.39043154566752492 -0.003470395807561517 -0.021233361127087846 -0.003470395807561517 -2499.7565216459061 0.009588049688773026 -0.021233361127087846 0.009588049688773026 -9999.66177675771 0.29086018031284766 -0.0086967154900053148 -0.008659604436616064 -0.0086967154900053148 -2499.7901576804697 0.010091650908179872 -0.008659604436616064 0.010091650908179872 -9999.6975497490566 0.23325604817364365 0.0077097258847718475 -0.014679179871563974 0.0077097258847718475 -2499.8212186880082 0.0012214262956149469 -0.014679179871563974 0.0012214262956149469 -9999.7745615404565 0.23744565193203471 0.01075944302272515 0.00056553820888893824 0.01075944302272515 -2499.8049383148245 0.006925516343471827 0.00056553820888893824 0.006925516343471827 -9999.71724949903 0.24956240643132332 0.016169169504934036 -0.0079774708697186725 0.016169169504934036 -2499.7911013205594 0.0013439195936371107 -0.0079774708697186725 0.0013439195936371107 -9999.7013138191069 0.30379913683646009 -0.00078802376592749038 -0.022306182034299127 -0.00078802376592749038 -2499.7697457522736 -0.0039654551248418102 -0.022306182034299127 -0.0039654551248418102 -9999.6796607207943 0.30141359055778594 0.0058020316078713323 -0.017824268523327191 0.0058020316078713323 -2499.7856750424362 -0.0087299563538181246 -0.017824268523327191 -0.0087299563538181246 -9999.6863443239999 0.29170802178509803 0.015112094718813671 -0.014482427233815542 0.015112094718813671 -2499.7959248542061 0.015523096521064872 -0.014482427233815542 0.015523096521064872 -9999.7338430084928 0.28005947926249064 -0.0038667002862226756 -0.0083049718487018254 -0.0038667002862226756 -2499.7853023217813 0.0027122243829182935 -0.0083049718487018254 0.0027122243829182935 -9999.7212578070539 0.30519715258014912 -0.010702056166220894 -0.013044452894064307 -0.010702056166220894 -2499.780005394563 0.00064643748919479549 -0.013044452894064307 0.00064643748919479549 -9999.6847188760548 0.28947351022337386 -0.0096184310909629544 -0.014659882994237705 -0.0096184310909629544 -2499.7997696647294 -0.011840921037219232 -0.014659882994237705 -0.011840921037219232 -9999.7344892558558 0.22820991943081026 0.013774553196528722 -0.017949618123566324 0.013774553196528722 -2499.8122119093732 -0.0083017470187769504 -0.017949618123566324 -0.0083017470187769504 -9999.7530298583442 0.22507018048736427 0.019127585217984511 0.0059180743189699569 0.019127585217984511 -2499.806052632292 -0.002987773577842745 0.0059180743189699569 -0.002987773577842745 -9999.7362905720202 0.22695547176772379 0.024591610103092052 -0.0056125316654060953 0.024591610103092052 -2499.8109183819051 0.0011096758016719832 -0.0056125316654060953 0.0011096758016719832 -9999.7411766383229 0.25168032466831392 -0.022363454779350402 -0.0065402479276599479 -0.022363454779350402 -2499.8206442985256 0.0081122982464876259 -0.0065402479276599479 0.0081122982464876259 -9999.7361543546849 0.28325354446383244 0.019377810738465728 -0.012143994894813659 0.019377810738465728 -2499.772246027379 -0.0068667956547869835 -0.012143994894813659 -0.0068667956547869835 -9999.6878964404787 0.3670964113269406 0.0066930954245427859 -0.008889129661838524 0.0066930954245427859 -2499.7658897705169 -0.0077094346470403252 -0.008889129661838524 -0.0077094346470403252 -9999.6651323361766 0.31261692952102749 -0.0049505150730083866 0.0071907062465470517 -0.0049505150730083866 -2499.797492929385 0.0023843023700464983 0.0071907062465470517 0.0023843023700464983 -9999.6882036475508 0.26676016602610275 0.00077177650522071428 -0.020645175918616587 0.00077177650522071428 -2499.814995077445 0.004796619999979157 -0.020645175918616587 0.004796619999979157 -9999.7445036339468 0.28536588905262761 0.0023559349723946688 -0.01064451351066964 0.0023559349723946688 -2499.7881714666992 -0.0074458543331274996 -0.01064451351066964 -0.0074458543331274996 -9999.6911552355887 0.24107517774609732 -0.011079564323030304 0.010637689795657934 -0.011079564323030304 -2499.8264488720924 0.0066148672503913986 0.010637689795657934 0.0066148672503913986 -9999.7420360282995 0.22770534424684286 0.010324709131990541 0.011907736008197389 0.010324709131990541 -2499.8306149465898 -0.00030896315365680493 0.011907736008197389 -0.00030896315365680493 -9999.7462691921974 0.12132524698736802 -0.0086113017313635132 0.015069050181409693 -0.0086113017313635132 -2499.8392613213605 0.0019384451989026275 0.015069050181409693 0.0019384451989026275 -9999.7750766781155 0.16552823402707872 0.00054358624423474222 -0.0069844308363826713 0.00054358624423474222 -2499.8299991749391 0.0054858785706528579 -0.0069844308363826713 0.0054858785706528579 -9999.7594586903615 0.19555867021153972 -0.028851062833008166 -0.020637609466575668 -0.028851062833008166 -2499.8025296413434 0.010913600169260462 -0.020637609466575668 0.010913600169260462 -9999.7267409362139 0.35364577868085689 -0.015409854056464181 0.001634824184293393 -0.015409854056464181 -2499.7703906484498 -0.0035350628195374156 0.001634824184293393 -0.0035350628195374156 -9999.6749292491077 0.2886041358433431 0.0021828766803890232 -0.013609061017632484 0.0021828766803890232 -2499.8045985396038 0.0033820935514086159 -0.013609061017632484 0.0033820935514086159 -9999.7068443328608 0.20093009176889609 -0.021297386141163874 -0.013207291652179265 -0.021297386141163874 -2499.8087123044279 0.0039603122695552884 -0.013207291652179265 0.0039603122695552884 -9999.7576306429764 0.189715585373051 -0.016520191643611709 0.0029088474875607062 -0.016520191643611709 -2499.7522427209624 -0.033003956192260375 0.0029088474875607062 -0.033003956192260375 -9999.7230314378758 0.24599818226351999 0.012681437587301768 -0.023214980088596349 0.012681437587301768 -2499.8543037805662 -0.0038793838430137839 -0.023214980088596349 -0.0038793838430137839 -9999.7728400032429 0.1469449606447597 -0.00077410281012665894 -0.016378025233279914 -0.00077410281012665894 -2499.8095932956312 -0.0040842036796675529 -0.016378025233279914 -0.0040842036796675529 -9999.78707640629 0.19711296965033398 0.0020651666826597345 -0.036141588669124758 0.0020651666826597345 -2499.8270121972309 -0.0040242642717203125 -0.036141588669124758 -0.0040242642717203125 -9999.8127456446673 0.26368092873235582 -0.008129986185226569 -0.044506032434583176 -0.008129986185226569 -2499.7996665925639 0.015953980062477058 -0.044506032434583176 0.015953980062477058 -9999.7228510633868 0.16824747047940036 0.012195029834477705 0.012255083565833047 0.012195029834477705 -2499.8135182825645 -0.0099124963599024341 0.012255083565833047 -0.0099124963599024341 -9999.8258557851514 0.2123823299898504 0.0081248218859702112 -0.019588989965996007 0.0081248218859702112 -2499.842967814664 -0.0049643740876490483 -0.019588989965996007 -0.0049643740876490483 -9999.7834767542954 0.18426136917878466 -0.0079404307561496551 -0.033406295791792218 -0.0079404307561496551 -2499.8581363888443 0.0051920046171289869 -0.033406295791792218 0.0051920046171289869 -9999.8115258623729 0.21568415704496147 0.011286171116322005 -0.048065194478112971 0.011286171116322005 -2499.8278484279435 -0.0095174389607564081 -0.048065194478112971 -0.0095174389607564081 -9999.7788528575838 0.26199004913360113 -0.0092417168364011641 0.0085710377079522004 -0.0092417168364011641 -2499.8189441279465 0.0024961435383374919 0.0085710377079522004 0.0024961435383374919 -9999.7232019233634 0.26056055075241602 0.0003658601555281138 -0.022786631527196732 0.0003658601555281138 -2499.824176646669 -0.0010842270930879749 -0.022786631527196732 -0.0010842270930879749 -9999.7625817578082 0.39116341842600377 -0.0030819090949425337 -0.023810144160961499 -0.0030819090949425337 -2499.7520822239376 -0.00641847540919116 -0.023810144160961499 -0.00641847540919116 -9999.6543288432295 0.30025972376097343 0.010196034006202177 -0.0050365866445645224 0.010196034006202177 -2499.7884016890603 -0.010683309752494097 -0.0050365866445645224 -0.010683309752494097 -9999.6937019055913 0.34111572425535996 -0.023185479029976336 -0.016221912173932651 -0.023185479029976336 -2499.7935144123167 0.013676368740561884 -0.016221912173932651 0.013676368740561884 -9999.6849720843747 0.34386051711135224 -0.020208066898227267 0.00080170830187853426 -0.020208066898227267 -2499.7917218049033 0.0062820970888424199 0.00080170830187853426 0.0062820970888424199 -9999.6679992498102 0.38664592232817085 -0.0014587652568208084 -0.025066354508453514 -0.0014587652568208084 -2499.7608233981082 0.0042136263182328548 -0.025066354508453514 0.0042136263182328548 -9999.6622834269729 0.24653112927990151 0.0071106250622081802 0.006511969701932685 0.0071106250622081802 -2499.8470955548146 0.0019983158563263714 0.006511969701932685 0.0019983158563263714 -9999.7333741814655 0.34705455537277885 -0.013290580172245284 -0.017044653359334916 -0.013290580172245284 -2499.7864736789479 -0.02118315722054831 -0.017044653359334916 -0.02118315722054831 -9999.6892739674458 0.28140538308070973 0.00070776665807822242 -0.0063718269439050346 0.00070776665807822242 -2499.8155675963899 -0.024824096633892623 -0.0063718269439050346 -0.024824096633892623 -9999.7163849830686 0.37375705006888893 0.00012132012516982357 -0.00016548084749956615 0.00012132012516982357 -2499.7549704668945 0.0012486813748182612 -0.00016548084749956615 0.0012486813748182612 -9999.6299221496938 0.37740662121450441 0.0027378695981879093 -0.00090019528397533577 0.0027378695981879093 -2499.7409548261521 0.0021261154188323417 -0.00090019528397533577 0.0021261154188323417 -9999.6263062258149 0.37363348694270826 0.011054438422111817 -0.0012419777467584936 0.011054438422111817 -2499.7483223999607 0.0019298445304229972 -0.0012419777467584936 0.0019298445304229972 -9999.6461977894141 0.37219963024745084 0.00061037573097882589 -0.0070974541104078526 0.00061037573097882589 -2499.7591874245509 0.0052616179063988966 -0.0070974541104078526 0.0052616179063988966 -9999.6408397429295 0.38912922815143247 0.00046185513224882013 -0.01117856297059916 0.00046185513224882013 -2499.7560672198379 -0.0050533522244222695 -0.01117856297059916 -0.0050533522244222695 -9999.6403532431359 0.39135477493437065 -0.00027858478656440921 0.00047840343904681504 -0.00027858478656440921 -2499.7233692718964 0.0067439246085996274 0.00047840343904681504 0.0067439246085996274 -9999.6291074693181 0.39661268645431846 -0.0086248088895456432 -0.0051876336874556728 -0.0086248088895456432 -2499.7431817371034 -0.0053827390802325681 -0.0051876336874556728 -0.0053827390802325681 -9999.6461111631361 0.39493182038677332 -0.00068221360273799936 -0.0068959712771174964 -0.00068221360273799936 -2499.7395412189471 0.0077572966201842064 -0.0068959712771174964 0.0077572966201842064 -9999.6347948333023 0.41170608596985403 -0.0048036096202253393 -0.0073458955540672832 -0.0048036096202253393 -2499.7287140892895 0.0019548303789633792 -0.0073458955540672832 0.0019548303789633792 -9999.6187964714409 0.40511725601754733 -0.0030335732319538566 -0.0077675371114906966 -0.0030335732319538566 -2499.7497018102877 0.0012554191744129639 -0.0077675371114906966 0.0012554191744129639 -9999.6240153118597 0.41689803867848241 -0.0056004771905766998 0.0024322652279806789 -0.0056004771905766998 -2499.7152721351595 0.007016629879217362 0.0024322652279806789 0.007016629879217362 -9999.6305594674996 0.41230980085310875 0.00059162666000365431 -0.0040464812048242038 0.00059162666000365431 -2499.721670785384 0.0084658806699735578 -0.0040464812048242038 0.0084658806699735578 -9999.622952380756 0.38234321331765386 -0.001338800039428547 -0.00019265303617999052 -0.001338800039428547 -2499.7559904353966 -0.0015826105336600449 -0.00019265303617999052 -0.0015826105336600449 -9999.6323460131207 0.3777787442340923 0.00038237525849239861 -0.0066623888899925987 0.00038237525849239861 -2499.7619712681771 0.0026325531489419518 -0.0066623888899925987 0.0026325531489419518 -9999.6430191255859 0.37253687711563543 -0.0040905026349281233 -0.0082581667575141182 -0.0040905026349281233 -2499.7644127506646 -0.0043006858336411824 -0.0082581667575141182 -0.0043006858336411824 -9999.6325623037155 0.37548607562985126 0.00082227600338917115 -0.0025327495923193055 0.00082227600338917115 -2499.730905646994 -0.029612154752157949 -0.0025327495923193055 -0.029612154752157949 -9999.634666177888 0.37203863058675779 0.00086316168395347359 -0.0057928483984142076 0.00086316168395347359 -2499.7712960319677 -0.0051733920527112787 -0.0057928483984142076 -0.0051733920527112787 -9999.6340551482099 0.37561003924020042 0.0032909140996737335 -0.0015230589779093862 0.0032909140996737335 -2499.7613262019604 0.0028873806859337492 -0.0015230589779093862 0.0028873806859337492 -9999.6329248916081 0.36254361214014352 0.0023257984668073467 -6.2580445955973119e-05 0.0023257984668073467 -2499.7690146984969 -0.01028903869791975 -6.2580445955973119e-05 -0.01028903869791975 -9999.6548610660611 0.36292184362537228 0.0082053788518134402 -0.0053412978500091413 0.0082053788518134402 -2499.7691702492702 -0.0093817173947172705 -0.0053412978500091413 -0.0093817173947172705 -9999.6694377023814 0.36805293368706771 -0.0014018583760940471 -0.011176960713783046 -0.0014018583760940471 -2499.7699990456913 -0.0016203740942728473 -0.011176960713783046 -0.0016203740942728473 -9999.6570276278617 0.36474023798473354 0.0081782163896540715 -0.0058831249803006358 0.0081782163896540715 -2499.7673569641775 -0.0087334028712575673 -0.0058831249803006358 -0.0087334028712575673 -9999.6641197785102 0.3828448472704622 0.011278368170540391 -0.0089975156629975572 0.011278368170540391 -2499.7210611129158 -0.028158973978861468 -0.0089975156629975572 -0.028158973978861468 -9999.6388700743191 0.37709919709232054 0.0016540863848180931 -0.008283788572953199 0.0016540863848180931 -2499.753191501035 -0.014791387197419681 -0.008283788572953199 -0.014791387197419681 -9999.6301276450831 0.3660687534884346 0.016555889663764423 -0.0009755895134730963 0.016555889663764423 -2499.7645632512631 -0.023290362331863435 -0.0009755895134730963 -0.023290362331863435 -9999.6439463960087 0.37835355485003674 -0.00086839252326631131 -0.0060685864900733577 -0.00086839252326631131 -2499.7491960922107 0.00035504322841006797 -0.0060685864900733577 0.00035504322841006797 -9999.6287736892045 0.38112278271728428 -0.0021146887468393993 -0.0007162172739754169 -0.0021146887468393993 -2499.7508133368719 -0.0072457239639334148 -0.0007162172739754169 -0.0072457239639334148 -9999.6295031188929 0.37119397516789832 -0.0027261674645738107 -0.011857183293614071 -0.0027261674645738107 -2499.7615491824713 0.0019300257508803043 -0.011857183293614071 0.0019300257508803043 -9999.6639253905687 0.37557065564215009 -0.0013404745904352401 -0.0024697572373497678 -0.0013404745904352401 -2499.7536552282909 -0.00092709224736609031 -0.0024697572373497678 -0.00092709224736609031 -9999.6476813634472 0.37215980912878877 -0.001569182867998644 -0.0018487565785108018 -0.001569182867998644 -2499.744006953737 -0.0045484976120633291 -0.0018487565785108018 -0.0045484976120633291 -9999.6440467938664 0.37916968459762757 -0.0022436990485368812 -0.0066713326405078988 -0.0022436990485368812 -2499.7490419372416 -0.00065933274709095713 -0.0066713326405078988 -0.00065933274709095713 -9999.6317196149757 0.3801074945658911 -0.0048250877368052163 0.00027618611420621164 -0.0048250877368052163 -2499.7452007471074 0.0021799548048875295 0.00027618611420621164 0.0021799548048875295 -9999.6279848844861 0.37921858887648341 0.0014818923475351155 -0.0032940607343334705 0.0014818923475351155 -2499.7509613532507 0.0077393425735863275 -0.0032940607343334705 0.0077393425735863275 -9999.6376240939644 0.38978086471797724 0.0038301990309469007 -0.015349075427366188 0.0038301990309469007 -2499.7508757172527 -0.00083796085164067335 -0.015349075427366188 -0.00083796085164067335 -9999.6434933957171 0.37479339907577014 -0.0073627275521977523 -0.0053394901206047507 -0.0073627275521977523 -2499.7572434634408 -0.008571201004087925 -0.0053394901206047507 -0.008571201004087925 -9999.64218949926 0.38744967485126836 -0.0010503838061506621 0.0018689390217332402 -0.0010503838061506621 -2499.7484071799681 0.0026289150428056018 0.0018689390217332402 0.0026289150428056018 -9999.6323946142147 0.38951437172363512 -0.012960183582363177 -0.015692188397224527 -0.012960183582363177 -2499.7535055173439 0.0023333011913564405 -0.015692188397224527 0.0023333011913564405 -9999.6440739935915 0.39263641209436173 -0.0031844347191490562 -0.0095399098208872601 -0.0031844347191490562 -2499.7456144032785 -0.0034728592945612036 -0.0095399098208872601 -0.0034728592945612036 -9999.6382256489233 0.40936041678651236 -0.00088882225710667844 -0.0029734162943668707 -0.00088882225710667844 -2499.7406674507911 0.0026509365270612761 -0.0029734162943668707 0.0026509365270612761 -9999.6232434097437 0.41491367757953412 -0.0011354347428450748 -0.0033371002718922682 -0.0011354347428450748 -2499.7225995116623 0.0039734353231324349 -0.0033371002718922682 0.0039734353231324349 -9999.6186418702855 0.41084611132646387 -0.001322710704516103 -0.0026303494050807785 -0.001322710704516103 -2499.7358723897305 0.0016707395316188922 -0.0026303494050807785 0.0016707395316188922 -9999.6217249459442 0.40789793012299924 -0.00072451933586850127 -0.0048426720641145948 -0.00072451933586850127 -2499.7366839547758 0.0028621181736525614 -0.0048426720641145948 0.0028621181736525614 -9999.6217858966411 0.38979983699482545 0.002369773218827705 0.0045177464053267613 0.002369773218827705 -2499.7480861850809 -0.00042812553510884754 0.0045177464053267613 -0.00042812553510884754 -9999.6234151211756 0.40862811244687691 -0.0013670213949941619 0.0024696162399777677 -0.0013670213949941619 -2499.7366941095829 0.00038860722270328552 0.0024696162399777677 0.00038860722270328552 -9999.6239704215513 0.3880021886443501 -0.0078787404142258814 0.0042418015200382797 -0.0078787404142258814 -2499.7441587412613 0.0030835454563202802 0.0042418015200382797 0.0030835454563202802 -9999.6240038015476 0.3881485080364655 -0.0015618532234981789 0.0029481358610610187 -0.0015618532234981789 -2499.7406881041625 0.00053213502542348579 0.0029481358610610187 0.00053213502542348579 -9999.619466448783 0.37712272233784461 -0.0021486957803594983 0.006210741727045388 -0.0021486957803594983 -2499.7500038616745 0.0021124413415236631 0.006210741727045388 0.0021124413415236631 -9999.6287199489598 0.38639499916916975 8.0476737163835419e-05 0.0021933299540251028 8.0476737163835419e-05 -2499.7432782022797 0.0019312731201353017 0.0021933299540251028 0.0019312731201353017 -9999.6216478309834 0.40693867091249558 -0.0025900963929662985 0.0042175983762717806 -0.0025900963929662985 -2499.7381709858491 0.0039155021104306797 0.0042175983762717806 0.0039155021104306797 -9999.6240595564304 0.40602371833847428 -0.0006124588159051661 0.00014115917838353198 -0.0006124588159051661 -2499.7349227213044 0.00086282621850841679 0.00014115917838353198 0.00086282621850841679 -9999.6153746545715 0.39594053219570924 0.0044675000850259283 0.0018897553500210051 0.0044675000850259283 -2499.7406829293877 4.2627574657672085e-05 0.0018897553500210051 4.2627574657672085e-05 -9999.6197615782439 0.39594224248560295 0.006442172484251503 0.0053716228903795127 0.006442172484251503 -2499.7371147561857 0.0010260569442834822 0.0053716228903795127 0.0010260569442834822 -9999.6187399713817 0.375669655009915 -0.0020899408460005589 0.0021488795182449394 -0.0020899408460005589 -2499.7463146979917 -0.0018512576261855429 0.0021488795182449394 -0.0018512576261855429 -9999.6179462373839 0.37913544648108655 -0.0020346991133433565 0.00085013066109240754 -0.0020346991133433565 -2499.7490165340851 -0.00065955230274994392 0.00085013066109240754 -0.00065955230274994392 -9999.6315832753771 0.37299432737609095 -0.0016092483940569682 1.1157666449435055e-05 -0.0016092483940569682 -2499.7458875649404 -8.0670163697504904e-05 1.1157666449435055e-05 -8.0670163697504904e-05 -9999.6212067751767 0.37574984496040997 -0.0010380116008246558 0.0015428006754518719 -0.0010380116008246558 -2499.7467558975522 -0.00098104595417680684 0.0015428006754518719 -0.00098104595417680684 -9999.619698319435 0.38302231719626434 -0.00052830239207560703 0.00087301268467854243 -0.00052830239207560703 -2499.7475951560327 -0.00044749426706403028 0.00087301268467854243 -0.00044749426706403028 -9999.6303196024564 0.38193418285845837 -0.00093325743785702651 0.0027000321806553984 -0.00093325743785702651 -2499.7479820091548 0.00031783679878572002 0.0027000321806553984 0.00031783679878572002 -9999.6275005125353 0.3746263521588844 -0.016693166982047453 0.00034790605423040688 -0.016693166982047453 -2499.7458493958511 -0.022705299978042603 0.00034790605423040688 -0.022705299978042603 -9999.6301262724337 0.38306663326147827 -0.023959201004424967 -0.0028363810124574229 -0.023959201004424967 -2499.7327143713792 -0.011433456688791921 -0.0028363810124574229 -0.011433456688791921 -9999.617053678583 0.37612270459430874 0.0013187679194671398 0.004743675641293521 0.0013187679194671398 -2499.7699593377693 -0.0032981093354464974 0.004743675641293521 -0.0032981093354464974 -9999.6331566885528 0.38738921832373308 -0.001193866741047607 0.0016384861737606116 -0.001193866741047607 -2499.7325457761162 -0.010089426880654173 0.0016384861737606116 -0.010089426880654173 -9999.6152354332062 0.37722909087324297 -0.0017412998687433877 -5.8749033513549875e-05 -0.0017412998687433877 -2499.7301629578628 -0.0014493983735519578 -5.8749033513549875e-05 -0.0014493983735519578 -9999.6199883865065 0.38450543832186668 -0.0068386582712036542 0.0018379217563051498 -0.0068386582712036542 -2499.7555768630828 0.010023007900144876 0.0018379217563051498 0.010023007900144876 -9999.6193862099317 0.38162840745280846 -0.0010982802018612847 -0.0032836934324222966 -0.0010982802018612847 -2499.728463819396 -0.0010615973333187867 -0.0032836934324222966 -0.0010615973333187867 -9999.6091411182388 0.38251701617991785 0.012062515766464409 -0.0029733641531493049 0.012062515766464409 -2499.7345037612777 -0.0082005169806507183 -0.0029733641531493049 -0.0082005169806507183 -9999.617554032815 0.37155329205052112 -0.0094234335746331485 -0.0046641127128168591 -0.0094234335746331485 -2499.7451108109854 -0.0021623182908570016 -0.0046641127128168591 -0.0021623182908570016 -9999.6159002441855 0.37458971638989169 -0.019015245149514359 -0.0013036504988122033 -0.019015245149514359 -2499.7501319494622 -0.021818486779466184 -0.0013036504988122033 -0.021818486779466184 -9999.6238325345403 0.38775830080976448 -0.0055056615486192562 0.00084266691192169674 -0.0055056615486192562 -2499.7592353463669 0.0062364944566297709 0.00084266691192169674 0.0062364944566297709 -9999.6329090750805 0.39238911935717624 0.00013369450887920284 0.0053350096932263114 0.00013369450887920284 -2499.7347494010182 0.0027260520355412154 0.0053350096932263114 0.0027260520355412154 -9999.6153645802115 0.38927627871089499 -0.0008543131672444533 0.0019694627499120543 -0.0008543131672444533 -2499.7359382197428 -0.007006277219261392 0.0019694627499120543 -0.007006277219261392 -9999.6230047912977 0.38887341839625833 -0.0055521022604679629 0.0031303614123316947 -0.0055521022604679629 -2499.7550370203976 0.00090503438889300014 0.0031303614123316947 0.00090503438889300014 -9999.6302121833251 0.37756791850551963 -0.0043562286199044301 0.0063912693931342801 -0.0043562286199044301 -2499.7819704503272 0.0014828930216026492 0.0063912693931342801 0.0014828930216026492 -9999.6288714099064 0.39888068267646304 -0.009219201679561799 0.0013708612495975103 -0.009219201679561799 -2499.7178626291316 0.010093327906361083 0.0013708612495975103 0.010093327906361083 -9999.6296701531537 0.41077261494137929 0.00021634298529104451 0.0011623249083640985 0.00021634298529104451 -2499.7003646928206 0.006930813175131334 0.0011623249083640985 0.006930813175131334 -9999.6234520698126 0.40251914093960295 0.0042731171920006991 0.0033896833310791408 0.0042731171920006991 -2499.7321529688384 -0.00041535510172252543 0.0033896833310791408 -0.00041535510172252543 -9999.6216904153607 0.40439222480574699 0.0016872286902733999 0.003738121704373043 0.0016872286902733999 -2499.7273738930417 0.0015871746900302242 0.003738121704373043 0.0015871746900302242 -9999.6215904937908 0.4146586715032754 0.012495669823227376 -0.00016521365250810049 0.012495669823227376 -2499.7172394823901 -1.4881787137710489e-05 -0.00016521365250810049 -1.4881787137710489e-05 -9999.6271950863484 0.38206920686934609 0.016054600514817236 -0.0032879350105758931 0.016054600514817236 -2499.7620536866416 -0.014294261291070143 -0.0032879350105758931 -0.014294261291070143 -9999.6244279635794 0.38651933385153825 0.016853298377005083 0.00417914591207591 0.016853298377005083 -2499.7630022643734 -0.006926531274075387 0.00417914591207591 -0.006926531274075387 -9999.6232768656118 0.39599329718112131 0.016325587565367065 -0.0031872163754087524 0.016325587565367065 -2499.7085850160038 0.0064611436719133053 -0.0031872163754087524 0.0064611436719133053 -9999.6267209136422 0.40992016619202332 0.0043049322738839546 -0.0067330886995478068 0.0043049322738839546 -2499.7304583899859 0.012196588912047446 -0.0067330886995478068 0.012196588912047446 -9999.6281077577514 0.41161586524503946 0.0042972813775265066 -0.0004027389650218538 0.0042972813775265066 -2499.741158585819 0.0045522796972363722 -0.0004027389650218538 0.0045522796972363722 -9999.6138809644763 0.40427169883150782 0.0035597921832050397 -0.0018784819390020857 0.0035597921832050397 -2499.7689765311952 0.004444184613021207 -0.0018784819390020857 0.004444184613021207 -9999.619196609121 0.38881077390760765 0.00021479955620684957 -0.0014793681330047548 0.00021479955620684957 -2499.7524097364894 -0.0026119543072127271 -0.0014793681330047548 -0.0026119543072127271 -9999.6182036149912 0.38733008577946748 -0.0018254179605055078 -0.0010703384714361164 -0.0018254179605055078 -2499.7508014678333 -0.0036444398701860337 -0.0010703384714361164 -0.0036444398701860337 -9999.6175554772126 0.4052807041171036 -0.00089234053347408623 0.0045818484140909277 -0.00089234053347408623 -2499.7436989048492 0.0041042450393433683 0.0045818484140909277 0.0041042450393433683 -9999.6137536011593 0.38205688386642578 -0.0025271059767262988 0.0022440313805418555 -0.0025271059767262988 -2499.7778241039823 0.0044738364217664639 0.0022440313805418555 0.0044738364217664639 -9999.6250600735893 0.38741758594369458 0.0013275823267454214 -0.0017392768968420569 0.0013275823267454214 -2499.7539395969234 0.0030258821170718875 -0.0017392768968420569 0.0030258821170718875 -9999.6222519980438 0.39598358988223481 0.0067231329493040483 0.0011844995369756361 0.0067231329493040483 -2499.7512865275166 0.0047767272480996326 0.0011844995369756361 0.0047767272480996326 -9999.6177632891522 0.40867835961034871 -0.0021464760103363165 0.0016929609628277831 -0.0021464760103363165 -2499.7242959683135 0.0012282025854801759 0.0016929609628277831 0.0012282025854801759 -9999.6141592241802 0.39256166356062749 -0.013269147762832806 0.0041897589399013668 -0.013269147762832806 -2499.752669102616 0.0098532196916494286 0.0041897589399013668 0.0098532196916494286 -9999.6252806109405 0.39978722544856282 -0.0018616825296747519 -0.0012029971912852488 -0.0018616825296747519 -2499.7274720214327 0.013446223205392016 -0.0012029971912852488 0.013446223205392016 -9999.6336839725082 0.38800430055744073 -0.016591105739261897 -0.0011908547749044374 -0.016591105739261897 -2499.7405877206547 0.0069144609333307017 -0.0011908547749044374 0.0069144609333307017 -9999.6306043723889 0.38359902927550138 -0.0052651339891699057 0.0013180997875679168 -0.0052651339891699057 -2499.7703551305785 -0.015294279912268394 0.0013180997875679168 -0.015294279912268394 -9999.6252335354438 0.37948351251907297 -0.00058576952771251592 -0.0028213510286150267 -0.00058576952771251592 -2499.75128090406 -0.0030479575825665961 -0.0028213510286150267 -0.0030479575825665961 -9999.6202893445225 0.38132840952494007 -0.0068313484084885009 7.5526562795857899e-05 -0.0068313484084885009 -2499.7619928168624 -0.014472388851572759 7.5526562795857899e-05 -0.014472388851572759 -9999.6239270665828 0.38328840045505785 -0.0067560380303087406 -0.0033452204615969094 -0.0067560380303087406 -2499.7382892088517 -0.011954008941756911 -0.0033452204615969094 -0.011954008941756911 -9999.6180663230698 0.38436131948901675 0.0037972286716307507 0.0040162454934034031 0.0037972286716307507 -2499.7477934463027 0.0011115058587165549 0.0040162454934034031 0.0011115058587165549 -9999.6208537633665 0.38796244877448771 -0.011799193046803311 -0.0033440229744883254 -0.011799193046803311 -2499.7242596460965 -0.0034631070193427149 -0.0033440229744883254 -0.0034631070193427149 -9999.6133851879931 0.38667406524473336 0.02319051309897005 -0.0032192124162975233 0.02319051309897005 -2499.7229812129081 0.0097149776484002359 -0.0032192124162975233 0.0097149776484002359 -9999.6223062334902 0.37154715989345277 -0.0020518834783284506 -0.00020243105791450944 -0.0020518834783284506 -2499.7563503734364 -0.0039564815397170605 -0.00020243105791450944 -0.0039564815397170605 -9999.6271480678897 0.3808671981041698 -0.00058084584707840392 0.0032480686386406887 -0.00058084584707840392 -2499.7525470558494 -0.0032895144986468949 0.0032480686386406887 -0.0032895144986468949 -9999.6229487968631 0.37891030568584938 0.012177873674904027 -0.00075697252941608895 0.012177873674904027 -2499.7553696504856 -0.0079072850076045142 -0.00075697252941608895 -0.0079072850076045142 -9999.6234387684235 0.38116079951032589 0.013336886195983583 -0.0031981005795387318 0.013336886195983583 -2499.7370533540798 -0.00752920793956946 -0.0031981005795387318 -0.00752920793956946 -9999.6164566532643 0.37220173741309281 -0.0031740573783579501 0.0015914575578790391 -0.0031740573783579501 -2499.7495014052074 -0.0075067931170451629 0.0015914575578790391 -0.0075067931170451629 -9999.6209772017792 0.38058602357159543 -0.010212567015795454 -0.0025706223750603385 -0.010212567015795454 -2499.7245222153579 -0.0052908525722159538 -0.0025706223750603385 -0.0052908525722159538 -9999.6075521189123 0.38434930757216534 -0.012641184835035735 -0.00091079188314324711 -0.012641184835035735 -2499.7228001955291 -0.0053449761308002053 -0.00091079188314324711 -0.0053449761308002053 -9999.6117024248488 0.3723902979036211 -0.00062770998799765044 -0.000755956772763966 -0.00062770998799765044 -2499.7497384547587 -0.0064339541750086937 -0.000755956772763966 -0.0064339541750086937 -9999.6243188794942 0.37306925812913505 -0.002040561898538797 -0.00055309727213170845 -0.002040561898538797 -2499.7428162085989 -0.0044440200799726881 -0.00055309727213170845 -0.0044440200799726881 -9999.6218413054012 0.37782676750748578 -0.0015877851445728099 0.0017560418200446293 -0.0015877851445728099 -2499.7476598013986 -0.00085985630903451238 0.0017560418200446293 -0.00085985630903451238 -9999.6237593184251 0.37717946601333097 -0.0045408439340337732 0.0056439629979649908 -0.0045408439340337732 -2499.7453653078337 -0.0027789504565589596 0.0056439629979649908 -0.0027789504565589596 -9999.6193008944938 0.39215854394205962 -0.00045111333477654107 -0.0018986673494509887 -0.00045111333477654107 -2499.7433049458032 -0.0014582296280423179 -0.0018986673494509887 -0.0014582296280423179 -9999.6139077662301 0.37738582008387311 -0.00010355356241350461 0.0031431697389052715 -0.00010355356241350461 -2499.7477363889966 -0.0016385900307795964 0.0031431697389052715 -0.0016385900307795964 -9999.6193096131774 0.37785597458423581 0.0045390730671919155 8.8733178245092859e-05 0.0045390730671919155 -2499.750573906751 -0.0020998164654884022 8.8733178245092859e-05 -0.0020998164654884022 -9999.6195691791145 0.38866797696391586 0.00017709334090624303 -0.0006996151823841501 0.00017709334090624303 -2499.7437393953187 -0.001257013063877821 -0.0006996151823841501 -0.001257013063877821 -9999.6176238995249 0.38276313330243283 -0.0040096608768831702 -0.0033491693384348764 -0.0040096608768831702 -2499.7480641370039 -0.0029494379232346546 -0.0033491693384348764 -0.0029494379232346546 -9999.6188312261002 0.37738836686685318 0.00069070813468027903 0.0030371222783287521 0.00069070813468027903 -2499.7445861995279 -0.00033171598965964222 0.0030371222783287521 -0.00033171598965964222 -9999.623198310439 0.37399145366180164 -0.001782518211475052 0.0027502281195666001 -0.001782518211475052 -2499.7478731330602 -0.0018189392358181067 0.0027502281195666001 -0.0018189392358181067 -9999.6202650312734 0.38033523471131048 -0.00015441916388320636 0.00041299018786844499 -0.00015441916388320636 -2499.7281566434485 0.0044131506665507914 0.00041299018786844499 0.0044131506665507914 -9999.6074301185363 0.37094871150566178 0.00068224978570804594 -0.0011272991996520432 0.00068224978570804594 -2499.749030399681 -0.001661500664340565 -0.0011272991996520432 -0.001661500664340565 -9999.6170825454756 0.38910892719468393 0.00072841495524170619 -0.0011403768539821613 0.00072841495524170619 -2499.7440956093742 -0.0019899533126590541 -0.0011403768539821613 -0.0019899533126590541 -9999.6155080952194 0.39092165847614524 0.00020367094618768851 0.0041959386226153583 0.00020367094618768851 -2499.7482418590553 0.00062812900796416216 0.0041959386226153583 0.00062812900796416216 -9999.6215815034011 0.38394429226900684 -7.1175404546141468e-06 0.005038736569986213 -7.1175404546141468e-06 -2499.7475404539 -0.002892231506848475 0.005038736569986213 -0.002892231506848475 -9999.6158364615767 0.39139346100273542 0.00053764771408665486 0.0041585286380723119 0.00053764771408665486 -2499.7485225799101 0.0010548360091888753 0.0041585286380723119 0.0010548360091888753 -9999.622146845024 0.38838812044559745 0.00014771250778385569 -0.0010643866025930038 0.00014771250778385569 -2499.7458926479903 -0.00052854464956908487 -0.0010643866025930038 -0.00052854464956908487 -9999.6165999777077 0.38756146026571514 -3.701195520024254e-05 -0.0011471794059616514 -3.701195520024254e-05 -2499.7479170528604 -0.0013055465715297032 -0.0011471794059616514 -0.0013055465715297032 -9999.6178829699638 0.40544317580861389 0.0014040474385552462 0.0018036816945823375 0.0014040474385552462 -2499.7441307106565 0.00081472121291881194 0.0018036816945823375 0.00081472121291881194 -9999.6190119845924 0.38901147152319027 0.00078132198713059501 -0.0015759688312755316 0.00078132198713059501 -2499.7474914097274 -0.0010846449094970012 -0.0015759688312755316 -0.0010846449094970012 -9999.6178447800557 0.39102869149064645 -0.00057288765636401284 -0.0012289882597542601 -0.00057288765636401284 -2499.7443903097083 -0.0013750873649769346 -0.0012289882597542601 -0.0013750873649769346 -9999.6173483542952 0.40626266746585316 0.001757459968319567 0.0016489154641021742 0.001757459968319567 -2499.7420504006877 8.678099766257219e-05 0.0016489154641021742 8.678099766257219e-05 -9999.6177896522058 0.39110317126323935 0.00060168722833493988 0.003724111481460568 0.00060168722833493988 -2499.746811712499 0.00013560530715039931 0.003724111481460568 0.00013560530715039931 -9999.6211333711253 0.40950835778130568 0.0035448835533299049 0.0022135843755677342 0.0035448835533299049 -2499.7331692908137 0.0032633608461765107 0.0022135843755677342 0.0032633608461765107 -9999.6144714430338 0.39701931030504056 -0.0046147001479752321 0.001527976095530903 -0.0046147001479752321 -2499.7471445517585 0.0024769099363766145 0.001527976095530903 0.0024769099363766145 -9999.6188400872707 0.4055198163514433 0.00066751612300968918 7.2967304731719196e-05 0.00066751612300968918 -2499.7446001873868 0.00055751142076587712 7.2967304731719196e-05 0.00055751142076587712 -9999.6217008526583 0.407105135054735 0.00075718778992785521 -0.0014583606789528858 0.00075718778992785521 -2499.7433167352392 0.0030319163452077191 -0.0014583606789528858 0.0030319163452077191 -9999.6166432354948 0.40501396848230797 0.00093407377784122784 -0.00024152346486516763 0.00093407377784122784 -2499.7434394896427 0.00028052420748281293 -0.00024152346486516763 0.00028052420748281293 -9999.6215385739051 0.4039933408221259 0.00033175687197103439 2.7573412808123976e-05 0.00033175687197103439 -2499.7439271909625 0.00024096836932585575 2.7573412808123976e-05 0.00024096836932585575 -9999.6218092674026 0.40401896269759163 0.00038912736551007665 -7.4457886512391269e-05 0.00038912736551007665 -2499.7441042724204 0.00034761354436341207 -7.4457886512391269e-05 0.00034761354436341207 -9999.6215318677096 0.40647213001921045 -0.00074167982398207221 0.001192101070046192 -0.00074167982398207221 -2499.7438540443991 -0.0007298491764231585 0.001192101070046192 -0.0007298491764231585 -9999.6195472618856 0.38792832882359107 0.0015883252832657963 0.0048576184530020328 0.0015883252832657963 -2499.7509206020632 -9.0725206973729655e-05 0.0048576184530020328 -9.0725206973729655e-05 -9999.6205078995954 0.38978430568113254 0.00027802533595828842 0.0048261016354445019 0.00027802533595828842 -2499.7450582151714 0.0012177134467492579 0.0048261016354445019 0.0012177134467492579 -9999.6184097558762 0.38833334064474911 0.00015189283448360639 -0.0010506018243177095 0.00015189283448360639 -2499.7463808752509 -0.0011197553435522423 -0.0010506018243177095 -0.0011197553435522423 -9999.6163309570766 0.39072730447151116 -0.00054471045665487484 0.0036968280355722527 -0.00054471045665487484 -2499.7473902103211 5.4762547279096907e-05 0.0036968280355722527 5.4762547279096907e-05 -9999.6213758195227 0.4087930583882553 0.00055733445456430247 0.00057691188158059958 0.00055733445456430247 -2499.7431863988213 -0.00079041309436433949 0.00057691188158059958 -0.00079041309436433949 -9999.6187132464183 0.40672590328267688 -0.0038090877943763625 0.00029840822753612883 -0.0038090877943763625 -2499.7434838709878 -0.0013630166515667952 0.00029840822753612883 -0.0013630166515667952 -9999.6187804795318 0.39134769407428394 -0.00056457652717142523 0.0045258276495587779 -0.00056457652717142523 -2499.7479993060824 -0.00079080469004111364 0.0045258276495587779 -0.00079080469004111364 -9999.6209896619439 0.40815561849558435 -0.0047682177437497614 0.0032592812767688883 -0.0047682177437497614 -2499.735709654803 -0.0018026851175818592 0.0032592812767688883 -0.0018026851175818592 -9999.6167316503088 0.41121533115619968 -0.0011902039140608695 0.0013175556141504785 -0.0011902039140608695 -2499.7337218664416 0.00049690336163621396 0.0013175556141504785 0.00049690336163621396 -9999.6147111800037 0.37660171880406779 -0.0025634143142801193 0.0046275863187474897 -0.0025634143142801193 -2499.7460556207611 -0.00014973164275033923 0.0046275863187474897 -0.00014973164275033923 -9999.6285873967881 0.38570731773234002 -0.002342178165003166 0.0026587330365828166 -0.002342178165003166 -2499.7462059488425 -0.0024726774463488255 0.0026587330365828166 -0.0024726774463488255 -9999.6242707528963 0.40778919098829647 -0.0018429980838708566 -0.0016614240812486969 -0.0018429980838708566 -2499.7362212583148 -0.0015823874055058695 -0.0016614240812486969 -0.0015823874055058695 -9999.6165683571835 0.39010253738615575 0.0044665044102052791 0.0017794627201510593 0.0044665044102052791 -2499.739824639234 -0.0018692342819122132 0.0017794627201510593 -0.0018692342819122132 -9999.6225588792022 0.39775169206041028 -0.0067059985637271131 0.00064412045048811706 -0.0067059985637271131 -2499.7405935777133 -0.00013631160436489154 0.00064412045048811706 -0.00013631160436489154 -9999.6211887982063 0.40141057894561527 -0.00090004572391661798 0.0027138687719343579 -0.00090004572391661798 -2499.7445306481322 -0.0012581155988300452 0.0027138687719343579 -0.0012581155988300452 -9999.6205969580296 0.4067821310063664 -0.00050886022147030377 0.0041122938619082561 -0.00050886022147030377 -2499.7371294016093 -0.0022930018603801727 0.0041122938619082561 -0.0022930018603801727 -9999.6256935164365 0.38342686418900485 -0.0018763543549236102 0.0012164519505404314 -0.0018763543549236102 -2499.7480719536238 -0.001841227898694342 0.0012164519505404314 -0.001841227898694342 -9999.629896838509 0.37551244054884592 -0.0025133202506101987 0.000264771703768929 -0.0025133202506101987 -2499.751207410849 -0.003125499176348967 0.000264771703768929 -0.003125499176348967 -9999.6192987510531 0.38228491997567193 -0.0021597963151008294 0.00012783349484379869 -0.0021597963151008294 -2499.7451018754723 -0.0021083086600697243 0.00012783349484379869 -0.0021083086600697243 -9999.6286646631161 0.37688937917300791 -0.0017741053830814466 0.0018517243070164113 -0.0017741053830814466 -2499.7459246191811 -6.3945992678782204e-06 0.0018517243070164113 -6.3945992678782204e-06 -9999.6141486089873 0.37950672665895979 -0.00080292305483900886 -0.00079874712173477747 -0.00080292305483900886 -2499.7494931523993 -0.00020079265980399441 -0.00079874712173477747 -0.00020079265980399441 -9999.6317699082847 0.37502501758581275 -0.0025725457916436056 0.0013330230237897922 -0.0025725457916436056 -2499.747837736219 -0.0022917747992323712 0.0013330230237897922 -0.0022917747992323712 -9999.6203930553838 0.37449629420348174 -0.0012894438101921808 0.0027584630643104902 -0.0012894438101921808 -2499.7460863574252 -0.0014381628370756516 0.0027584630643104902 -0.0014381628370756516 -9999.6196387508026 0.37117962468238375 1.1329830613623915e-07 -0.00040361881383432774 1.1329830613623915e-07 -2499.7533580029194 -0.0045517204962379765 -0.00040361881383432774 -0.0045517204962379765 -9999.6188137662593 0.3762268934151507 0.0053928023843973867 0.0083549734226835426 0.0053928023843973867 -2499.7472993030424 -0.0026695927990658674 0.0083549734226835426 -0.0026695927990658674 -9999.621218516113 0.38321103226462583 0.0011248045123880487 -2.957366086775437e-05 0.0011248045123880487 -2499.7435052912178 -0.0015715039644419448 -2.957366086775437e-05 -0.0015715039644419448 -9999.6160835006231 0.37711949355980323 0.00046121500675546864 0.0033293005503765016 0.00046121500675546864 -2499.7530027342373 -0.0050197912141811685 0.0033293005503765016 -0.0050197912141811685 -9999.6231036503232 0.38896660346063072 5.81575090456872e-05 -0.00045398225211101817 5.81575090456872e-05 -2499.7424269218704 -0.0022101739341451321 -0.00045398225211101817 -0.0022101739341451321 -9999.6177434177735 0.38118361790020572 0.0033226814333762369 0.0022816522218818136 0.0033226814333762369 -2499.7421597993152 -0.0057571403067413485 0.0022816522218818136 -0.0057571403067413485 -9999.6213813885697 0.38260765293125587 0.0019373048955524073 -0.001689790155069204 0.0019373048955524073 -2499.7469648076058 0.00068387297233130084 -0.001689790155069204 0.00068387297233130084 -9999.6202021209756 0.38800301268508974 -0.00015976948486668622 -0.00170970473413945 -0.00015976948486668622 -2499.7304013077305 0.0010473664515302517 -0.00170970473413945 0.0010473664515302517 -9999.6147035562208 0.37019603853332228 -0.00019894204870875634 -0.0013470421017700573 -0.00019894204870875634 -2499.7505900526758 -0.0035948467593698297 -0.0013470421017700573 -0.0035948467593698297 -9999.6185407467565 0.3884419032765436 -0.00054597043208070087 -0.00049232458422920899 -0.00054597043208070087 -2499.7441839400999 -0.00078459338692482561 -0.00049232458422920899 -0.00078459338692482561 -9999.6180921141568 0.38251190359915199 0.0050176433911216407 -0.0018133788043996901 0.0050176433911216407 -2499.7225090582269 -0.0084827854825562099 -0.0018133788043996901 -0.0084827854825562099 -9999.6077243147211 0.37778072458968381 0.0045048903684155369 0.0022582726060136338 0.0045048903684155369 -2499.7543164925009 0.017279349039768022 0.0022582726060136338 0.017279349039768022 -9999.6281839636358 0.37970168465426468 0.003765221462725548 0.0028092198981539696 0.003765221462725548 -2499.7512656726826 -0.0054601058163825655 0.0028092198981539696 -0.0054601058163825655 -9999.6237140322883 0.37333017773109844 0.0045706858049120586 -0.0026846704308809421 0.0045706858049120586 -2499.7439461103268 -0.0014007889822096331 -0.0026846704308809421 -0.0014007889822096331 -9999.6286165402562 0.37421181903846445 0.0060181415367214046 -0.0029384558529272908 0.0060181415367214046 -2499.7368259288469 -0.00039425307477358729 -0.0029384558529272908 -0.00039425307477358729 -9999.62660546396 0.391082280104456 0.013815217972143603 -0.0028389767621774809 0.013815217972143603 -2499.7147231987128 0.009625081413105363 -0.0028389767621774809 0.009625081413105363 -9999.6050593034597 0.39299911312008362 0.018904983832374156 -0.00074301541644672398 0.018904983832374156 -2499.6995410596091 0.00090464200729911681 -0.00074301541644672398 0.00090464200729911681 -9999.6125740968309 0.39071708592427967 0.022512506933668061 -0.00107611513340089 0.022512506933668061 -2499.7087504401238 -0.0045099790331732947 -0.00107611513340089 -0.0045099790331732947 -9999.6084244052145 0.3696879754929796 0.012247379374581591 -0.0060811593757534865 0.012247379374581591 -2499.7583641597835 -0.0036662871984844969 -0.0060811593757534865 -0.0036662871984844969 -9999.6244410401232 0.37130498518308741 0.0064723189644686095 -0.0021004322607041104 0.0064723189644686095 -2499.7543160894529 -0.0039591521868942436 -0.0021004322607041104 -0.0039591521868942436 -9999.6242833322685 0.3813543411779392 -0.005160612850299103 -0.001394349852034793 -0.005160612850299103 -2499.7418083590564 0.009861338582368262 -0.001394349852034793 0.009861338582368262 -9999.6224624023016 0.36723218878432817 -0.0019543609314460449 1.5450952105311444e-05 -0.0019543609314460449 -2499.7731936196997 0.0030421393712458666 1.5450952105311444e-05 0.0030421393712458666 -9999.6303257803393 0.37400791277104872 -0.015082311811161264 -0.0014191088030202081 -0.015082311811161264 -2499.7467941068644 -0.016068094906586339 -0.0014191088030202081 -0.016068094906586339 -9999.6245832613713 0.3896414375576569 -0.0043810495408330846 -0.00083367401020950638 -0.0043810495408330846 -2499.7394789885639 0.0096331837535217346 -0.00083367401020950638 0.0096331837535217346 -9999.6216400220947 0.37864380737255487 0.011664105275565342 -0.0028583905786945252 0.011664105275565342 -2499.7589528728863 -0.0056224000591100776 -0.0028583905786945252 -0.0056224000591100776 -9999.6216409355402 0.38625092399581717 -0.0018882847868618852 -0.0017055938096746104 -0.0018882847868618852 -2499.7316506824222 0.0017549059421071433 -0.0017055938096746104 0.0017549059421071433 -9999.6234277462136 0.38345040574495215 -0.0069881472202447809 -0.0044453836198954377 -0.0069881472202447809 -2499.7369565252484 -0.021552910126047209 -0.0044453836198954377 -0.021552910126047209 -9999.6169787212202 0.38806460088517269 0.0011648016290254498 0.0012344111455604434 0.0011648016290254498 -2499.7354169981286 0.00024653137188579421 0.0012344111455604434 0.00024653137188579421 -9999.6242662855184 0.38150516394125589 -0.0025983569332254375 -0.0031953507550497307 -0.0025983569332254375 -2499.744663447249 -0.0057387973070035514 -0.0031953507550497307 -0.0057387973070035514 -9999.6297514890284 0.37213526186496892 -0.016798231844080056 -0.00036888881732011214 -0.016798231844080056 -2499.7415492462223 -0.014347370021823735 -0.00036888881732011214 -0.014347370021823735 -9999.6240136442793 0.38323210784074035 -0.0032827055027294764 0.00069362555058205544 -0.0032827055027294764 -2499.7434290144483 0.010150613581572543 0.00069362555058205544 0.010150613581572543 -9999.6231533617902 0.40357655130242165 -0.0040044355987901986 0.0032065782870631665 -0.0040044355987901986 -2499.7462115771859 9.7479337227923679e-05 0.0032065782870631665 9.7479337227923679e-05 -9999.6171266036781 0.38393943557093735 -0.00042240434298338597 0.0014529300701724424 -0.00042240434298338597 -2499.7532026725767 0.00011529443781910231 0.0014529300701724424 0.00011529443781910231 -9999.6236465031179 0.39334937810417614 -0.0045674026130533129 0.0029429204225266403 -0.0045674026130533129 -2499.7461230927493 -0.0010666872776710079 0.0029429204225266403 -0.0010666872776710079 -9999.6204326846928 0.39446867784863571 -0.0051043750832167264 -0.00048452837836521212 -0.0051043750832167264 -2499.7398138789977 0.010739750552602345 -0.00048452837836521212 0.010739750552602345 -9999.6217534429124 0.41511449599965999 0.0015153345577704758 0.0025836764107225463 0.0015153345577704758 -2499.709524588101 -0.0078296705069078598 0.0025836764107225463 -0.0078296705069078598 -9999.6241978747312 0.39890190384176094 -0.0041062587686212324 0.0021333535012786342 -0.0041062587686212324 -2499.7177231099304 -0.0084722268875339068 0.0021333535012786342 -0.0084722268875339068 -9999.6265142423799 0.40608169168456243 -0.0023217757466302349 0.0040645939734531567 -0.0023217757466302349 -2499.7431950467344 -0.0004595145143184709 0.0040645939734531567 -0.0004595145143184709 -9999.6237970182046 0.40943422088639636 -0.0045611786181430011 0.0032612668474030215 -0.0045611786181430011 -2499.7299830019392 0.00039910941904963693 0.0032612668474030215 0.00039910941904963693 -9999.6198947290159 0.4098877012511366 -0.012980354066614956 -0.0022446091898018494 -0.012980354066614956 -2499.7267353109346 -0.0025878266424115282 -0.0022446091898018494 -0.0025878266424115282 -9999.6239326543728 0.38371380428725388 0.0027104321648902911 -0.0011969261959166033 0.0027104321648902911 -2499.7460259796208 0.0077572771951963659 -0.0011969261959166033 0.0077572771951963659 -9999.6162378817753 0.40476548648439348 -0.0072500531726714043 0.0028946928941877559 -0.0072500531726714043 -2499.745722047388 -0.0035919174151786137 0.0028946928941877559 -0.0035919174151786137 -9999.6205698606936 0.38293617278577585 -0.014192921691943527 -0.0004610324431268964 -0.014192921691943527 -2499.7595405606335 -0.0038665319079882465 -0.0004610324431268964 -0.0038665319079882465 -9999.630126509699 0.38640412333188578 -0.016035122126312203 0.0020242576078999264 -0.016035122126312203 -2499.758403222826 -0.0064573501103950548 0.0020242576078999264 -0.0064573501103950548 -9999.6203158197823 0.40021044984496257 -0.0020584971850589537 -0.000160150186275132 -0.0020584971850589537 -2499.7448081479961 0.0012701991436188109 -0.000160150186275132 0.0012701991436188109 -9999.6261371916407 0.39169682389365335 -0.013943959395667054 -0.0014336393178382423 -0.013943959395667054 -2499.7315628979504 0.014771620401916152 -0.0014336393178382423 0.014771620401916152 -9999.6216846066964 0.3909204438841698 0.00040411546082369521 0.0062099961360218003 0.00040411546082369521 -2499.7513290499801 -0.001273838461656851 0.0062099961360218003 -0.001273838461656851 -9999.618932910842 0.3822357954832114 0.0043901301493919423 0.0049195026203960879 0.0043901301493919423 -2499.7785101698428 -0.00013346832656679908 0.0049195026203960879 -0.00013346832656679908 -9999.6240673639404 0.37775542657254846 0.0051287921701627381 -0.0026276752960256999 0.0051287921701627381 -2499.7710900483216 0.0095472292759950506 -0.0026276752960256999 0.0095472292759950506 -9999.6233510451057 0.40730061677095364 0.001254324989036236 0.00088813184811442625 0.001254324989036236 -2499.7470120914513 -0.0020310014333517756 0.00088813184811442625 -0.0020310014333517756 -9999.62084530008 0.40874136505590286 0.00068263703012380605 0.0018352508304815274 0.00068263703012380605 -2499.7475280456638 -0.0029259308807922935 0.0018352508304815274 -0.0029259308807922935 -9999.6196373447892 0.39956891132442252 0.022332647643017442 -0.0020615937464754097 0.022332647643017442 -2499.6985191708345 0.015873154126893496 -0.0020615937464754097 0.015873154126893496 -9999.6116667292717 0.39994824794257511 0.024335807225201886 -0.0075620309326041024 0.024335807225201886 -2499.7174488446785 0.0061440848767233547 -0.0075620309326041024 0.0061440848767233547 -9999.6056350828876 0.41531029142242915 0.0042540420307166822 0.0033228564680030104 0.0042540420307166822 -2499.7267135841357 -0.00073239377888967283 0.0033228564680030104 -0.00073239377888967283 -9999.6172886489403 0.39441234858168173 0.02648820208122309 -0.004748496492538834 0.02648820208122309 -2499.718681107428 0.0030787423829679028 -0.004748496492538834 0.0030787423829679028 -9999.6265493003302 0.40139915721283614 0.0092914739442128205 0.0015358924429165199 0.0092914739442128205 -2499.7326835117101 -0.010692077990825055 0.0015358924429165199 -0.010692077990825055 -9999.6219230820498 0.3977816901224287 0.016374876836654319 0.0046142167957441416 0.016374876836654319 -2499.7520182303597 -0.0059117765686096391 0.0046142167957441416 -0.0059117765686096391 -9999.6209343461815 
</DataArray>
</CellData>
</Piece>
</UnstructuredGrid>
</VTKFile>
