<?xml version="1.0"?>
<VTKFile type="UnstructuredGrid" version="0.1" byte_order="LittleEndian">
<UnstructuredGrid>
<Piece NumberOfPoints="2876" NumberOfCells="719">
<Points>
<DataArray type="Float64" NumberOfComponents="3" format="ascii">
0.14641016151452901 0.14641016151487049 0 0.31610726166346748 0.18804489794572149 0 0.312576188949791 0.31458070521983672 0.3125761889497819 0.16929708765618309 0.30074819035915368 0 0 0 0 0 0.14641016151432179 0.14641016151432179 0 0.20000000000083221 0 0.14641016151452901 0.14641016151487049 0 0 0 0 0.14641016151452901 0.14641016151487049 0 0.1464101615145241 0 0.14641016151486561 0.19999999999955789 0 0 0 0 0 0 0 0.20000000000083221 0 0.14641016151432179 0.14641016151432179 0.1464101615145241 0 0.14641016151486561 0 0.14641016151432179 0.14641016151432179 0 0.18804489794560331 0.31610726166461361 0.312576188949791 0.31458070521983672 0.3125761889497819 0 0.30074819035869899 0.1692970876565193 0.1464101615145241 0 0.14641016151486561 0.31578456131778371 0 0.1865278143482666 0.16938214347656569 0 0.30011357660650623 0.312576188949791 0.31458070521983672 0.3125761889497819 0 0 0 0 0.14641016151432179 0.14641016151432179 0.14641016151452901 0.14641016151487049 0 0.1464101615145241 0 0.14641016151486561 0.14641016151452901 0.14641016151487049 0 0.1464101615145241 0 0.14641016151486561 0.31578456131778371 0 0.1865278143482666 0.312576188949791 0.31458070521983672 0.3125761889497819 0 0.14641016151432179 0.14641016151432179 0.14641016151452901 0.14641016151487049 0 0.312576188949791 0.31458070521983672 0.3125761889497819 0 0.30074819035869899 0.1692970876565193 0 0.14641016151432179 0.14641016151432179 0.14641016151452901 0.14641016151487049 0 0.1464101615145241 0 0.14641016151486561 0.312576188949791 0.31458070521983672 0.3125761889497819 0 0.14641016151432179 0.14641016151432179 0.1464101615145241 0 0.14641016151486561 0.16938214347656569 0 0.30011357660650623 0.312576188949791 0.31458070521983672 0.3125761889497819 0 0 0.20000000000083221 0 0.14641016151432179 0.14641016151432179 0.1464101615145241 0 0.14641016151486561 0.16938214347656569 0 0.30011357660650623 0 0 0.20000000000083221 0 0.14641016151432179 0.14641016151432179 0.16938214347656569 0 0.30011357660650623 0 0.18804489794560331 0.31610726166461361 0 0.14641016151432179 0.14641016151432179 0 0.20000000000083221 0 0.14641016151452901 0.14641016151487049 0 0 0.30074819035869899 0.1692970876565193 0 0.20000000000083221 0 0.14641016151452901 0.14641016151487049 0 0.16929708765618309 0.30074819035915368 0 0 0.30074819035869899 0.1692970876565193 0.14641016151452901 0.14641016151487049 0 0.19999999999955789 0 0 0.31610726166346748 0.18804489794572149 0 0.31578456131778371 0 0.1865278143482666 0.14641016151452901 0.14641016151487049 0 0.1464101615145241 0 0.14641016151486561 0.19999999999955789 0 0 0.31578456131778371 0 0.1865278143482666 0.19999999999955789 0 0 0.31610726166346748 0.18804489794572149 0 0.3999999999989749 0 0 0.31578456131778371 0 0.1865278143482666 0.14641016151452901 0.14641016151487049 0 0.31610726166346748 0.18804489794572149 0 0.31578456131778371 0 0.1865278143482666 0.312576188949791 0.31458070521983672 0.3125761889497819 0.31610726166346748 0.18804489794572149 0 0.31578456131778371 0 0.1865278143482666 0.312576188949791 0.31458070521983672 0.3125761889497819 0.5003997205654479 0.21136633249797621 0.2258422409314382 0.31610726166346748 0.18804489794572149 0 0.49391845158624981 0 0.1323760430705655 0.5003997205654479 0.21136633249797621 0.2258422409314382 0.50966790549376417 0.16275515618023731 0 0.31610726166346748 0.18804489794572149 0 0.45812322962036273 0.31024977578535839 0 0.5003997205654479 0.21136633249797621 0.2258422409314382 0.50966790549376417 0.16275515618023731 0 0.31610726166346748 0.18804489794572149 0 0.3999999999989749 0 0 0.49391845158624981 0 0.1323760430705655 0.50966790549376417 0.16275515618023731 0 0.31610726166346748 0.18804489794572149 0 0.3999999999989749 0 0 0.49391845158624981 0 0.1323760430705655 0.31578456131778371 0 0.1865278143482666 0.49391845158624981 0 0.1323760430705655 0.31578456131778371 0 0.1865278143482666 0.47688326899416439 0 0.31741132792405607 0.5003997205654479 0.21136633249797621 0.2258422409314382 0.31610726166346748 0.18804489794572149 0 0.49391845158624981 0 0.1323760430705655 0.31578456131778371 0 0.1865278143482666 0.5003997205654479 0.21136633249797621 0.2258422409314382 0.32146143392436449 0 0.38738071487621961 0.50073570207385831 0.24848280280289631 0.52886631355986169 0.22088738526309029 0.22111069116742441 0.50004796911802929 0.31030302876556398 0 0.54179813558513157 0.32146143392436449 0 0.38738071487621961 0.16938214347656569 0 0.30011357660650623 0.312576188949791 0.31458070521983672 0.3125761889497819 0.22088738526309029 0.22111069116742441 0.50004796911802929 0.32146143392436449 0 0.38738071487621961 0.312576188949791 0.31458070521983672 0.3125761889497819 0.50073570207385831 0.24848280280289631 0.52886631355986169 0.22088738526309029 0.22111069116742441 0.50004796911802929 0.47688326899416439 0 0.31741132792405607 0.32146143392436449 0 0.38738071487621961 0.5003997205654479 0.21136633249797621 0.2258422409314382 0.50073570207385831 0.24848280280289631 0.52886631355986169 0.32146143392436449 0 0.38738071487621961 0.312576188949791 0.31458070521983672 0.3125761889497819 0.5003997205654479 0.21136633249797621 0.2258422409314382 0.50073570207385831 0.24848280280289631 0.52886631355986169 0.31578456131778371 0 0.1865278143482666 0.32146143392436449 0 0.38738071487621961 0.16938214347656569 0 0.30011357660650623 0.312576188949791 0.31458070521983672 0.3125761889497819 0.31578456131778371 0 0.1865278143482666 0.32146143392436449 0 0.38738071487621961 0.312576188949791 0.31458070521983672 0.3125761889497819 0.5003997205654479 0.21136633249797621 0.2258422409314382 0.31578456131778371 0 0.1865278143482666 0.47688326899416439 0 0.31741132792405607 0.32146143392436449 0 0.38738071487621961 0.5003997205654479 0.21136633249797621 0.2258422409314382 0.32146143392436449 0 0.38738071487621961 0.50000000000250922 0 0.48038475773043671 0.50073570207385831 0.24848280280289631 0.52886631355986169 0.31030302876556398 0 0.54179813558513157 0.47688326899416439 0 0.31741132792405607 0.32146143392436449 0 0.38738071487621961 0.50000000000250922 0 0.48038475773043671 0.50073570207385831 0.24848280280289631 0.52886631355986169 0.32146143392436449 0 0.38738071487621961 0.16370661204827031 0 0.4886650857430957 0.22088738526309029 0.22111069116742441 0.50004796911802929 0.31030302876556398 0 0.54179813558513157 0.32146143392436449 0 0.38738071487621961 0.16370661204827031 0 0.4886650857430957 0.16938214347656569 0 0.30011357660650623 0.22088738526309029 0.22111069116742441 0.50004796911802929 0 0.14641016151432179 0.14641016151432179 0.16938214347656569 0 0.30011357660650623 0 0.18804489794560331 0.31610726166461361 0.312576188949791 0.31458070521983672 0.3125761889497819 0.16370661204827031 0 0.4886650857430957 0.16938214347656569 0 0.30011357660650623 0 0.18804489794560331 0.31610726166461361 0.22088738526309029 0.22111069116742441 0.50004796911802929 0.16938214347656569 0 0.30011357660650623 0 0.18804489794560331 0.31610726166461361 0.312576188949791 0.31458070521983672 0.3125761889497819 0.22088738526309029 0.22111069116742441 0.50004796911802929 0.16370661204827031 0 0.4886650857430957 0 0 0.40000000000166441 0 0.16275515618034081 0.50966790549591257 0 0 0.60000000000138687 0.16370661204827031 0 0.4886650857430957 0 0 0.40000000000166441 0.16938214347656569 0 0.30011357660650623 0 0.18804489794560331 0.31610726166461361 0.16370661204827031 0 0.4886650857430957 0 0 0.40000000000166441 0 0.18804489794560331 0.31610726166461361 0 0.16275515618034081 0.50966790549591257 0 0 0.20000000000083221 0 0 0.40000000000166441 0.16938214347656569 0 0.30011357660650623 0 0.18804489794560331 0.31610726166461361 0.16370661204827031 0 0.4886650857430957 0 0.18804489794560331 0.31610726166461361 0.22088738526309029 0.22111069116742441 0.50004796911802929 0 0.16275515618034081 0.50966790549591257 0 0.18804489794560331 0.31610726166461361 0 0.31024977578556651 0.45812322962166352 0.22088738526309029 0.22111069116742441 0.50004796911802929 0 0.16275515618034081 0.50966790549591257 0 0.18804489794560331 0.31610726166461361 0 0.39615100178029522 0.32925244736138171 0.312576188949791 0.31458070521983672 0.3125761889497819 0 0.30074819035869899 0.1692970876565193 0 0.31024977578556651 0.45812322962166352 0.312576188949791 0.31458070521983672 0.3125761889497819 0.24769234054476261 0.52242103280823293 0.45098450226372488 0.22088738526309029 0.22111069116742441 0.50004796911802929 0 0.18804489794560331 0.31610726166461361 0 0.31024977578556651 0.45812322962166352 0 0.39615100178029522 0.32925244736138171 0.312576188949791 0.31458070521983672 0.3125761889497819 0 0.39615100178029522 0.32925244736138171 0.312576188949791 0.31458070521983672 0.3125761889497819 0.22345881830598399 0.5062398304147856 0.22345881830602041 0.24769234054476261 0.52242103280823293 0.45098450226372488 0 0.31024977578556651 0.45812322962166352 0 0.39615100178029522 0.32925244736138171 0.312576188949791 0.31458070521983672 0.3125761889497819 0.24769234054476261 0.52242103280823293 0.45098450226372488 0 0.39615100178029522 0.32925244736138171 0.312576188949791 0.31458070521983672 0.3125761889497819 0 0.30074819035869899 0.1692970876565193 0.22345881830598399 0.5062398304147856 0.22345881830602041 0 0.18804489794560331 0.31610726166461361 0 0.31024977578556651 0.45812322962166352 0.312576188949791 0.31458070521983672 0.3125761889497819 0.22088738526309029 0.22111069116742441 0.50004796911802929 0 0.31024977578556651 0.45812322962166352 0 0.39615100178029522 0.32925244736138171 0.24769234054476261 0.52242103280823293 0.45098450226372488 0 0.50000000000237477 0.51961524226909872 0.312576188949791 0.31458070521983672 0.3125761889497819 0.5004045312576143 0.47050700646456922 0.24963111222780321 0.50000000000001332 0.49999999999999561 0.49999999999999561 0.50073570207385831 0.24848280280289631 0.52886631355986169 0.312576188949791 0.31458070521983672 0.3125761889497819 0.22345881830598399 0.5062398304147856 0.22345881830602041 0.24769234054476261 0.52242103280823293 0.45098450226372488 0.5004045312576143 0.47050700646456922 0.24963111222780321 0.312576188949791 0.31458070521983672 0.3125761889497819 0.5003997205654479 0.21136633249797621 0.2258422409314382 0.5004045312576143 0.47050700646456922 0.24963111222780321 0.50073570207385831 0.24848280280289631 0.52886631355986169 0.312576188949791 0.31458070521983672 0.3125761889497819 0.24769234054476261 0.52242103280823293 0.45098450226372488 0.50000000000001332 0.49999999999999561 0.49999999999999561 0.50073570207385831 0.24848280280289631 0.52886631355986169 0.312576188949791 0.31458070521983672 0.3125761889497819 0.24769234054476261 0.52242103280823293 0.45098450226372488 0.5004045312576143 0.47050700646456922 0.24963111222780321 0.50000000000001332 0.49999999999999561 0.49999999999999561 0.312576188949791 0.31458070521983672 0.3125761889497819 0.24769234054476261 0.52242103280823293 0.45098450226372488 0.50073570207385831 0.24848280280289631 0.52886631355986169 0.22088738526309029 0.22111069116742441 0.50004796911802929 0.312576188949791 0.31458070521983672 0.3125761889497819 0.45812322962036273 0.31024977578535839 0 0.32925244736090059 0.39615100178043078 0 0.5004045312576143 0.47050700646456922 0.24963111222780321 0.32925244736090059 0.39615100178043078 0 0.22345881830598399 0.5062398304147856 0.22345881830602041 0.32446581821364329 0.60020898676454815 0 0.5004045312576143 0.47050700646456922 0.24963111222780321 0.312576188949791 0.31458070521983672 0.3125761889497819 0.45812322962036273 0.31024977578535839 0 0.5003997205654479 0.21136633249797621 0.2258422409314382 0.5004045312576143 0.47050700646456922 0.24963111222780321 0.31610726166346748 0.18804489794572149 0 0.312576188949791 0.31458070521983672 0.3125761889497819 0.45812322962036273 0.31024977578535839 0 0.32925244736090059 0.39615100178043078 0 0.312576188949791 0.31458070521983672 0.3125761889497819 0.32925244736090059 0.39615100178043078 0 0.16929708765618309 0.30074819035915368 0 0.22345881830598399 0.5062398304147856 0.22345881830602041 0.31610726166346748 0.18804489794572149 0 0.312576188949791 0.31458070521983672 0.3125761889497819 0.45812322962036273 0.31024977578535839 0 0.5003997205654479 0.21136633249797621 0.2258422409314382 0.312576188949791 0.31458070521983672 0.3125761889497819 0.32925244736090059 0.39615100178043078 0 0.22345881830598399 0.5062398304147856 0.22345881830602041 0.5004045312576143 0.47050700646456922 0.24963111222780321 0.31610726166346748 0.18804489794572149 0 0.312576188949791 0.31458070521983672 0.3125761889497819 0.32925244736090059 0.39615100178043078 0 0.16929708765618309 0.30074819035915368 0 0.32925244736090059 0.39615100178043078 0 0.32446581821364329 0.60020898676454815 0 0.51961524226956368 0.5000000000025091 0 0.5004045312576143 0.47050700646456922 0.24963111222780321 0.45812322962036273 0.31024977578535839 0 0.32925244736090059 0.39615100178043078 0 0.51961524226956368 0.5000000000025091 0 0.5004045312576143 0.47050700646456922 0.24963111222780321 0.14641016151452901 0.14641016151487049 0 0.312576188949791 0.31458070521983672 0.3125761889497819 0.16929708765618309 0.30074819035915368 0 0 0.30074819035869899 0.1692970876565193 0.312576188949791 0.31458070521983672 0.3125761889497819 0.16929708765618309 0.30074819035915368 0 0 0.30074819035869899 0.1692970876565193 0.22345881830598399 0.5062398304147856 0.22345881830602041 0.17226134197279269 0.49836539647922029 0 0.16929708765618309 0.30074819035915368 0 0 0.49836539647891548 0.17226134197271731 0.22345881830598399 0.5062398304147856 0.22345881830602041 0.32925244736090059 0.39615100178043078 0 0.17226134197279269 0.49836539647922029 0 0.16929708765618309 0.30074819035915368 0 0.22345881830598399 0.5062398304147856 0.22345881830602041 0 0.20000000000083221 0 0.16929708765618309 0.30074819035915368 0 0 0.30074819035869899 0.1692970876565193 0 0.40000000000166441 0 0.16929708765618309 0.30074819035915368 0 0 0.30074819035869899 0.1692970876565193 0 0.49836539647891548 0.17226134197271731 0 0.40000000000166441 0 0.16929708765618309 0.30074819035915368 0 0 0.30074819035869899 0.1692970876565193 0 0.49836539647891548 0.17226134197271731 0.22345881830598399 0.5062398304147856 0.22345881830602041 0 0.39615100178029522 0.32925244736138171 0 0.30074819035869899 0.1692970876565193 0 0.49836539647891548 0.17226134197271731 0.22345881830598399 0.5062398304147856 0.22345881830602041 0.17226134197279269 0.49836539647922029 0 0 0.49836539647891548 0.17226134197271731 0 0.40000000000166441 0 0 0.60000000000138687 0 0.17226134197279269 0.49836539647922029 0 0.16929708765618309 0.30074819035915368 0 0 0.49836539647891548 0.17226134197271731 0 0.40000000000166441 0 0.22345881830598399 0.5062398304147856 0.22345881830602041 0 0.69449451837103049 0.15896804272139439 0 0.60020898676435996 0.32446581821286191 0.19259015428765269 0.77719169076434647 0.19259015428773721 0.1589680427220837 0.69449451837091269 0 0.22345881830598399 0.5062398304147856 0.22345881830602041 0 0.69449451837103049 0.15896804272139439 0.19259015428765269 0.77719169076434647 0.19259015428773721 0.17226134197279269 0.49836539647922029 0 0 0.60000000000138687 0 0.1589680427220837 0.69449451837091269 0 0 0.69449451837103049 0.15896804272139439 0.1589680427220837 0.69449451837091269 0 0.22345881830598399 0.5062398304147856 0.22345881830602041 0.19259015428765269 0.77719169076434647 0.19259015428773721 0.32446581821364329 0.60020898676454815 0 0.17226134197279269 0.49836539647922029 0 0 0.49836539647891548 0.17226134197271731 0 0.60000000000138687 0 0 0.69449451837103049 0.15896804272139439 0 0.60000000000138687 0 0.1589680427220837 0.69449451837091269 0 0 0.69449451837103049 0.15896804272139439 0 0.79999999999999982 0 0.1589680427220837 0.69449451837091269 0 0.19259015428765269 0.77719169076434647 0.19259015428773721 0.31067093463127438 0.81480288849489035 0 0.32446581821364329 0.60020898676454815 0 0.17226134197279269 0.49836539647922029 0 0.1589680427220837 0.69449451837091269 0 0.22345881830598399 0.5062398304147856 0.22345881830602041 0.32446581821364329 0.60020898676454815 0 0.17226134197279269 0.49836539647922029 0 0.1589680427220837 0.69449451837091269 0 0.22345881830598399 0.5062398304147856 0.22345881830602041 0 0.69449451837103049 0.15896804272139439 0 0.69449451837103049 0.15896804272139439 0 0.60020898676435996 0.32446581821286191 0 0.81480288849496429 0.31067093462946233 0.19259015428765269 0.77719169076434647 0.19259015428773721 0 0.49836539647891548 0.17226134197271731 0.22345881830598399 0.5062398304147856 0.22345881830602041 0 0.69449451837103049 0.15896804272139439 0 0.60020898676435996 0.32446581821286191 0.17226134197279269 0.49836539647922029 0 0 0.49836539647891548 0.17226134197271731 0.22345881830598399 0.5062398304147856 0.22345881830602041 0 0.69449451837103049 0.15896804272139439 0 0.60020898676435996 0.32446581821286191 0.22516916914780419 0.77057994845201627 0.48187244075707292 0.19259015428765269 0.77719169076434647 0.19259015428773721 0.35848654557803328 0.70013656506632282 0.30029870175293161 0 0.39615100178029522 0.32925244736138171 0.22345881830598399 0.5062398304147856 0.22345881830602041 0 0.60020898676435996 0.32446581821286191 0.24769234054476261 0.52242103280823293 0.45098450226372488 0 0.60020898676435996 0.32446581821286191 0 0.81480288849496429 0.31067093462946233 0.22516916914780419 0.77057994845201627 0.48187244075707292 0.19259015428765269 0.77719169076434647 0.19259015428773721 0.22345881830598399 0.5062398304147856 0.22345881830602041 0 0.60020898676435996 0.32446581821286191 0.19259015428765269 0.77719169076434647 0.19259015428773721 0.35848654557803328 0.70013656506632282 0.30029870175293161 0 0.39615100178029522 0.32925244736138171 0 0.49836539647891548 0.17226134197271731 0.22345881830598399 0.5062398304147856 0.22345881830602041 0 0.60020898676435996 0.32446581821286191 0 0.60020898676435996 0.32446581821286191 0.24769234054476261 0.52242103280823293 0.45098450226372488 0.22516916914780419 0.77057994845201627 0.48187244075707292 0.35848654557803328 0.70013656506632282 0.30029870175293161 0.22345881830598399 0.5062398304147856 0.22345881830602041 0 0.60020898676435996 0.32446581821286191 0.24769234054476261 0.52242103280823293 0.45098450226372488 0.35848654557803328 0.70013656506632282 0.30029870175293161 0 0.39615100178029522 0.32925244736138171 0 0.60020898676435996 0.32446581821286191 0.24769234054476261 0.52242103280823293 0.45098450226372488 0 0.50000000000237477 0.51961524226909872 0 0.60020898676435996 0.32446581821286191 0.24769234054476261 0.52242103280823293 0.45098450226372488 0 0.68801781652248195 0.45664527743358641 0 0.50000000000237477 0.51961524226909872 0.24769234054476261 0.52242103280823293 0.45098450226372488 0 0.68801781652248195 0.45664527743358641 0.22516916914780419 0.77057994845201627 0.48187244075707292 0 0.66416205381430016 0.59944234540882957 0 0.60020898676435996 0.32446581821286191 0 0.68801781652248195 0.45664527743358641 0 0.81480288849496429 0.31067093462946233 0.22516916914780419 0.77057994845201627 0.48187244075707292 0 0.60020898676435996 0.32446581821286191 0.24769234054476261 0.52242103280823293 0.45098450226372488 0 0.68801781652248195 0.45664527743358641 0.22516916914780419 0.77057994845201627 0.48187244075707292 0.22516916914780419 0.77057994845201627 0.48187244075707292 0.16929708765615539 1 0.30074819035677097 0.19259015428765269 0.77719169076434647 0.19259015428773721 0.32926555316115258 1 0.39615987727515128 0 0.81480288849496429 0.31067093462946233 0.22516916914780419 0.77057994845201627 0.48187244075707292 0.16929708765615539 1 0.30074819035677097 0.19259015428765269 0.77719169076434647 0.19259015428773721 0 0.81480288849496429 0.31067093462946233 0.22516916914780419 0.77057994845201627 0.48187244075707292 0.17226134197293 1 0.49836539647645101 0 0.83630110503664845 0.50803330197135654 0 0.68801781652248195 0.45664527743358641 0 0.81480288849496429 0.31067093462946233 0.22516916914780419 0.77057994845201627 0.48187244075707292 0 0.83630110503664845 0.50803330197135654 0 0.81480288849496429 0.31067093462946233 0 1 0.3999999999989749 0.17226134197293 1 0.49836539647645101 0 0.83630110503664845 0.50803330197135654 0 0.81480288849496429 0.31067093462946233 0 1 0.3999999999989749 0.17226134197293 1 0.49836539647645101 0.16929708765615539 1 0.30074819035677097 0 0.81480288849496429 0.31067093462946233 0.22516916914780419 0.77057994845201627 0.48187244075707292 0.17226134197293 1 0.49836539647645101 0.16929708765615539 1 0.30074819035677097 0.22516916914780419 0.77057994845201627 0.48187244075707292 0.17226134197293 1 0.49836539647645101 0.16929708765615539 1 0.30074819035677097 0.32926555316115258 1 0.39615987727515128 0 0.81480288849496429 0.31067093462946233 0 1 0.3999999999989749 0.16929708765615539 1 0.30074819035677097 0 1 0.19999999999955789 0 0.81480288849496429 0.31067093462946233 0.16929708765615539 1 0.30074819035677097 0 1 0.19999999999955789 0 0.85358983848655678 0.14641016151332509 0.16929708765615539 1 0.30074819035677097 0 1 0.19999999999955789 0 0.85358983848655678 0.14641016151332509 0.14641016151352521 1 0.1464101615131837 0 1 0 0.14641016151479211 0.85358983848543113 0 0.20000000000083221 1 0 0.14641016151352521 1 0.1464101615131837 0 1 0.19999999999955789 0 1 0 0 0.85358983848655678 0.14641016151332509 0.14641016151352521 1 0.1464101615131837 0 1 0 0 0.85358983848655678 0.14641016151332509 0.14641016151479211 0.85358983848543113 0 0.14641016151352521 1 0.1464101615131837 0 1 0 0 0.79999999999999982 0 0 0.85358983848655678 0.14641016151332509 0.14641016151479211 0.85358983848543113 0 0.1589680427220837 0.69449451837091269 0 0 0.69449451837103049 0.15896804272139439 0 0.85358983848655678 0.14641016151332509 0.19259015428765269 0.77719169076434647 0.19259015428773721 0.1589680427220837 0.69449451837091269 0 0 0.79999999999999982 0 0 0.85358983848655678 0.14641016151332509 0.14641016151479211 0.85358983848543113 0 0 0.85358983848655678 0.14641016151332509 0.19259015428765269 0.77719169076434647 0.19259015428773721 0.14641016151479211 0.85358983848543113 0 0.14641016151352521 1 0.1464101615131837 0.1589680427220837 0.69449451837091269 0 0 0.69449451837103049 0.15896804272139439 0 0.79999999999999982 0 0 0.85358983848655678 0.14641016151332509 0.1589680427220837 0.69449451837091269 0 0 0.85358983848655678 0.14641016151332509 0.19259015428765269 0.77719169076434647 0.19259015428773721 0.14641016151479211 0.85358983848543113 0 0 0.81480288849496429 0.31067093462946233 0.16929708765615539 1 0.30074819035677097 0 0.85358983848655678 0.14641016151332509 0.19259015428765269 0.77719169076434647 0.19259015428773721 0 0.69449451837103049 0.15896804272139439 0 0.81480288849496429 0.31067093462946233 0 0.85358983848655678 0.14641016151332509 0.19259015428765269 0.77719169076434647 0.19259015428773721 0.19259015428765269 0.77719169076434647 0.19259015428773721 0.14641016151479211 0.85358983848543113 0 0.14641016151352521 1 0.1464101615131837 0.31067093463127438 0.81480288849489035 0 0.1589680427220837 0.69449451837091269 0 0.19259015428765269 0.77719169076434647 0.19259015428773721 0.14641016151479211 0.85358983848543113 0 0.31067093463127438 0.81480288849489035 0 0.14641016151479211 0.85358983848543113 0 0.20000000000083221 1 0 0.14641016151352521 1 0.1464101615131837 0.31067093463127438 0.81480288849489035 0 0.20000000000083221 1 0 0.14641016151352521 1 0.1464101615131837 0.31635851157303152 1 0.18818969570840721 0.31067093463127438 0.81480288849489035 0 0.19259015428765269 0.77719169076434647 0.19259015428773721 0.14641016151352521 1 0.1464101615131837 0.31635851157303152 1 0.18818969570840721 0.31067093463127438 0.81480288849489035 0 0.16929708765615539 1 0.30074819035677097 0.19259015428765269 0.77719169076434647 0.19259015428773721 0.14641016151352521 1 0.1464101615131837 0.31635851157303152 1 0.18818969570840721 0.16929708765615539 1 0.30074819035677097 0 0.85358983848655678 0.14641016151332509 0.19259015428765269 0.77719169076434647 0.19259015428773721 0.14641016151352521 1 0.1464101615131837 0.19259015428765269 0.77719169076434647 0.19259015428773721 0.31635851157303152 1 0.18818969570840721 0.35848654557803328 0.70013656506632282 0.30029870175293161 0.52894546611500048 0.79133000140429866 0.2082794184507949 0.19259015428765269 0.77719169076434647 0.19259015428773721 0.31067093463127438 0.81480288849489035 0 0.35848654557803328 0.70013656506632282 0.30029870175293161 0.52894546611500048 0.79133000140429866 0.2082794184507949 0.19259015428765269 0.77719169076434647 0.19259015428773721 0.31635851157303152 1 0.18818969570840721 0.31067093463127438 0.81480288849489035 0 0.52894546611500048 0.79133000140429866 0.2082794184507949 0.20000000000083221 1 0 0.31635851157303152 1 0.18818969570840721 0.31067093463127438 0.81480288849489035 0 0.40000000000166441 1 0 0.31635851157303152 1 0.18818969570840721 0.31067093463127438 0.81480288849489035 0 0.50803330197353713 0.83630110503668265 0 0.52894546611500048 0.79133000140429866 0.2082794184507949 0.31067093463127438 0.81480288849489035 0 0.45664527743509797 0.68801781652245086 0 0.50803330197353713 0.83630110503668265 0 0.52894546611500048 0.79133000140429866 0.2082794184507949 0.31635851157303152 1 0.18818969570840721 0.40000000000166441 1 0 0.51133491425992716 1 0.16370661204795281 0.50803330197353713 0.83630110503668265 0 0.31635851157303152 1 0.18818969570840721 0.31067093463127438 0.81480288849489035 0 0.40000000000166441 1 0 0.50803330197353713 0.83630110503668265 0 0.31635851157303152 1 0.18818969570840721 0.45820186441796368 1 0.31030302876579191 0.51133491425992716 1 0.16370661204795281 0.52894546611500048 0.79133000140429866 0.2082794184507949 0.31635851157303152 1 0.18818969570840721 0.51133491425992716 1 0.16370661204795281 0.50803330197353713 0.83630110503668265 0 0.52894546611500048 0.79133000140429866 0.2082794184507949 0.22516916914780419 0.77057994845201627 0.48187244075707292 0.32926555316115258 1 0.39615987727515128 0.35848654557803328 0.70013656506632282 0.30029870175293161 0.49983993748706529 0.75039103705932653 0.52967335724801234 0.22516916914780419 0.77057994845201627 0.48187244075707292 0.19259015428765269 0.77719169076434647 0.19259015428773721 0.32926555316115258 1 0.39615987727515128 0.35848654557803328 0.70013656506632282 0.30029870175293161 0.31635851157303152 1 0.18818969570840721 0.45820186441796368 1 0.31030302876579191 0.32926555316115258 1 0.39615987727515128 0.35848654557803328 0.70013656506632282 0.30029870175293161 0.31635851157303152 1 0.18818969570840721 0.45820186441796368 1 0.31030302876579191 0.35848654557803328 0.70013656506632282 0.30029870175293161 0.52894546611500048 0.79133000140429866 0.2082794184507949 0.19259015428765269 0.77719169076434647 0.19259015428773721 0.31635851157303152 1 0.18818969570840721 0.32926555316115258 1 0.39615987727515128 0.35848654557803328 0.70013656506632282 0.30029870175293161 0.45820186441796368 1 0.31030302876579191 0.35848654557803328 0.70013656506632282 0.30029870175293161 0.52894546611500048 0.79133000140429866 0.2082794184507949 0.49983993748706529 0.75039103705932653 0.52967335724801234 0.45820186441796368 1 0.31030302876579191 0.32926555316115258 1 0.39615987727515128 0.35848654557803328 0.70013656506632282 0.30029870175293161 0.49983993748706529 0.75039103705932653 0.52967335724801234 0.16929708765615539 1 0.30074819035677097 0.19259015428765269 0.77719169076434647 0.19259015428773721 0.31635851157303152 1 0.18818969570840721 0.32926555316115258 1 0.39615987727515128 0.22516916914780419 0.77057994845201627 0.48187244075707292 0.17226134197293 1 0.49836539647645101 0.32926555316115258 1 0.39615987727515128 0.32448110831226962 1 0.6002015905153204 0.45820186441796368 1 0.31030302876579191 0.32926555316115258 1 0.39615987727515128 0.51961524227008238 1 0.49999999999872219 0.49983993748706529 0.75039103705932653 0.52967335724801234 0.24769234054476261 0.52242103280823293 0.45098450226372488 0.22516916914780419 0.77057994845201627 0.48187244075707292 0.35848654557803328 0.70013656506632282 0.30029870175293161 0.49983993748706529 0.75039103705932653 0.52967335724801234 0.24769234054476261 0.52242103280823293 0.45098450226372488 0.35848654557803328 0.70013656506632282 0.30029870175293161 0.5004045312576143 0.47050700646456922 0.24963111222780321 0.50000000000001332 0.49999999999999561 0.49999999999999561 0.24769234054476261 0.52242103280823293 0.45098450226372488 0.35848654557803328 0.70013656506632282 0.30029870175293161 0.50000000000001332 0.49999999999999561 0.49999999999999561 0.49983993748706529 0.75039103705932653 0.52967335724801234 0.22345881830598399 0.5062398304147856 0.22345881830602041 0.24769234054476261 0.52242103280823293 0.45098450226372488 0.35848654557803328 0.70013656506632282 0.30029870175293161 0.5004045312576143 0.47050700646456922 0.24963111222780321 0.22345881830598399 0.5062398304147856 0.22345881830602041 0.35848654557803328 0.70013656506632282 0.30029870175293161 0.32446581821364329 0.60020898676454815 0 0.5004045312576143 0.47050700646456922 0.24963111222780321 0.31067093463127438 0.81480288849489035 0 0.35848654557803328 0.70013656506632282 0.30029870175293161 0.32446581821364329 0.60020898676454815 0 0.45664527743509797 0.68801781652245086 0 0.22345881830598399 0.5062398304147856 0.22345881830602041 0.19259015428765269 0.77719169076434647 0.19259015428773721 0.35848654557803328 0.70013656506632282 0.30029870175293161 0.32446581821364329 0.60020898676454815 0 0.35848654557803328 0.70013656506632282 0.30029870175293161 0.32446581821364329 0.60020898676454815 0 0.45664527743509797 0.68801781652245086 0 0.5004045312576143 0.47050700646456922 0.24963111222780321 0.19259015428765269 0.77719169076434647 0.19259015428773721 0.31067093463127438 0.81480288849489035 0 0.35848654557803328 0.70013656506632282 0.30029870175293161 0.32446581821364329 0.60020898676454815 0 0.31067093463127438 0.81480288849489035 0 0.35848654557803328 0.70013656506632282 0.30029870175293161 0.45664527743509797 0.68801781652245086 0 0.52894546611500048 0.79133000140429866 0.2082794184507949 0.35848654557803328 0.70013656506632282 0.30029870175293161 0.45664527743509797 0.68801781652245086 0 0.52894546611500048 0.79133000140429866 0.2082794184507949 0.5004045312576143 0.47050700646456922 0.24963111222780321 0.32925244736090059 0.39615100178043078 0 0.17226134197279269 0.49836539647922029 0 0.22345881830598399 0.5062398304147856 0.22345881830602041 0.32446581821364329 0.60020898676454815 0 0.32446581821364329 0.60020898676454815 0 0.45664527743509797 0.68801781652245086 0 0.51961524226956368 0.5000000000025091 0 0.5004045312576143 0.47050700646456922 0.24963111222780321 0.59944234541082553 0.66416205381394655 0 0.72722573386132172 0.60922248848163563 0 0.68456408135056701 0.68607101396845627 0.31096060989957619 0.77713227489941183 0.50036915849493024 0.21774643624003751 0.59944234541082553 0.66416205381394655 0 0.68456408135056701 0.68607101396845627 0.31096060989957619 0.77713227489941183 0.50036915849493024 0.21774643624003751 0.5004045312576143 0.47050700646456922 0.24963111222780321 0.45664527743509797 0.68801781652245086 0 0.59944234541082553 0.66416205381394655 0 0.52894546611500048 0.79133000140429866 0.2082794184507949 0.5004045312576143 0.47050700646456922 0.24963111222780321 0.51961524226956368 0.5000000000025091 0 0.59944234541082553 0.66416205381394655 0 0.67320508075660079 0.46954769941202479 0 0.5004045312576143 0.47050700646456922 0.24963111222780321 0.59944234541082553 0.66416205381394655 0 0.68456408135056701 0.68607101396845627 0.31096060989957619 0.52894546611500048 0.79133000140429866 0.2082794184507949 0.5004045312576143 0.47050700646456922 0.24963111222780321 0.59944234541082553 0.66416205381394655 0 0.77713227489941183 0.50036915849493024 0.21774643624003751 0.67320508075660079 0.46954769941202479 0 0.5004045312576143 0.47050700646456922 0.24963111222780321 0.59944234541082553 0.66416205381394655 0 0.68456408135056701 0.68607101396845627 0.31096060989957619 0.52894546611500048 0.79133000140429866 0.2082794184507949 0.81582077266975173 0.77657922508894406 0.18483084990574741 0.45664527743509797 0.68801781652245086 0 0.51961524226956368 0.5000000000025091 0 0.59944234541082553 0.66416205381394655 0 0.5004045312576143 0.47050700646456922 0.24963111222780321 0.59944234541082553 0.66416205381394655 0 0.72722573386132172 0.60922248848163563 0 0.68456408135056701 0.68607101396845627 0.31096060989957619 0.81582077266975173 0.77657922508894406 0.18483084990574741 0.45664527743509797 0.68801781652245086 0 0.59944234541082553 0.66416205381394655 0 0.50803330197353713 0.83630110503668265 0 0.52894546611500048 0.79133000140429866 0.2082794184507949 0.59944234541082553 0.66416205381394655 0 0.72722573386132172 0.60922248848163563 0 0.7054234997318658 0.80860557108880304 0 0.81582077266975173 0.77657922508894406 0.18483084990574741 0.59944234541082553 0.66416205381394655 0 0.72722573386132172 0.60922248848163563 0 0.77713227489941183 0.50036915849493024 0.21774643624003751 0.67320508075660079 0.46954769941202479 0 0.35848654557803328 0.70013656506632282 0.30029870175293161 0.68456408135056701 0.68607101396845627 0.31096060989957619 0.52894546611500048 0.79133000140429866 0.2082794184507949 0.5004045312576143 0.47050700646456922 0.24963111222780321 0.35848654557803328 0.70013656506632282 0.30029870175293161 0.68456408135056701 0.68607101396845627 0.31096060989957619 0.50000000000001332 0.49999999999999561 0.49999999999999561 0.49983993748706529 0.75039103705932653 0.52967335724801234 0.35848654557803328 0.70013656506632282 0.30029870175293161 0.68456408135056701 0.68607101396845627 0.31096060989957619 0.5004045312576143 0.47050700646456922 0.24963111222780321 0.50000000000001332 0.49999999999999561 0.49999999999999561 0.68456408135056701 0.68607101396845627 0.31096060989957619 0.7504488434426726 0.53051757989633308 0.49836643074154852 0.5004045312576143 0.47050700646456922 0.24963111222780321 0.50000000000001332 0.49999999999999561 0.49999999999999561 0.68456408135056701 0.68607101396845627 0.31096060989957619 0.77374673111774417 0.78860835645735528 0.49829081152968557 0.7504488434426726 0.53051757989633308 0.49836643074154852 0.49983993748706529 0.75039103705932653 0.52967335724801234 0.68456408135056701 0.68607101396845627 0.31096060989957619 0.7504488434426726 0.53051757989633308 0.49836643074154852 0.77713227489941183 0.50036915849493024 0.21774643624003751 0.5004045312576143 0.47050700646456922 0.24963111222780321 0.35848654557803328 0.70013656506632282 0.30029870175293161 0.68456408135056701 0.68607101396845627 0.31096060989957619 0.52894546611500048 0.79133000140429866 0.2082794184507949 0.49983993748706529 0.75039103705932653 0.52967335724801234 0.68456408135056701 0.68607101396845627 0.31096060989957619 0.7504488434426726 0.53051757989633308 0.49836643074154852 0.50000000000001332 0.49999999999999561 0.49999999999999561 0.49983993748706529 0.75039103705932653 0.52967335724801234 0.68456408135056701 0.68607101396845627 0.31096060989957619 0.61068558124908323 1 0.33127740899601937 0.52894546611500048 0.79133000140429866 0.2082794184507949 0.81582077266975173 0.77657922508894406 0.18483084990574741 0.68456408135056701 0.68607101396845627 0.31096060989957619 0.61068558124908323 1 0.33127740899601937 0.77374673111774417 0.78860835645735528 0.49829081152968557 0.49983993748706529 0.75039103705932653 0.52967335724801234 0.61068558124908323 1 0.33127740899601937 0.77374673111774417 0.78860835645735528 0.49829081152968557 0.68240285647621723 1 0.52310058211166854 0.49983993748706529 0.75039103705932653 0.52967335724801234 0.68456408135056701 0.68607101396845627 0.31096060989957619 0.61068558124908323 1 0.33127740899601937 0.81582077266975173 0.77657922508894406 0.18483084990574741 0.82751535738810444 1 0.31407731390515509 0.45820186441796368 1 0.31030302876579191 0.61068558124908323 1 0.33127740899601937 0.52894546611500048 0.79133000140429866 0.2082794184507949 0.49983993748706529 0.75039103705932653 0.52967335724801234 0.68456408135056701 0.68607101396845627 0.31096060989957619 0.61068558124908323 1 0.33127740899601937 0.82751535738810444 1 0.31407731390515509 0.77374673111774417 0.78860835645735528 0.49829081152968557 0.68456408135056701 0.68607101396845627 0.31096060989957619 0.61068558124908323 1 0.33127740899601937 0.52894546611500048 0.79133000140429866 0.2082794184507949 0.49983993748706529 0.75039103705932653 0.52967335724801234 0.51961524227008238 1 0.49999999999872219 0.61068558124908323 1 0.33127740899601937 0.68240285647621723 1 0.52310058211166854 0.49983993748706529 0.75039103705932653 0.52967335724801234 0.45820186441796368 1 0.31030302876579191 0.51961524227008238 1 0.49999999999872219 0.61068558124908323 1 0.33127740899601937 0.49983993748706529 0.75039103705932653 0.52967335724801234 0.61068558124908323 1 0.33127740899601937 0.82751535738810444 1 0.31407731390515509 0.77374673111774417 0.78860835645735528 0.49829081152968557 0.68240285647621723 1 0.52310058211166854 0.45820186441796368 1 0.31030302876579191 0.61068558124908323 1 0.33127740899601937 0.51133491425992716 1 0.16370661204795281 0.52894546611500048 0.79133000140429866 0.2082794184507949 0.61068558124908323 1 0.33127740899601937 0.51133491425992716 1 0.16370661204795281 0.52894546611500048 0.79133000140429866 0.2082794184507949 0.69988642339594154 1 0.16938214347578889 0.61068558124908323 1 0.33127740899601937 0.52894546611500048 0.79133000140429866 0.2082794184507949 0.69988642339594154 1 0.16938214347578889 0.81582077266975173 0.77657922508894406 0.18483084990574741 0.52894546611500048 0.79133000140429866 0.2082794184507949 0.7054234997318658 0.80860557108880304 0 0.69988642339594154 1 0.16938214347578889 0.81582077266975173 0.77657922508894406 0.18483084990574741 0.51133491425992716 1 0.16370661204795281 0.50803330197353713 0.83630110503668265 0 0.52894546611500048 0.79133000140429866 0.2082794184507949 0.69988642339594154 1 0.16938214347578889 0.59944234541082553 0.66416205381394655 0 0.52894546611500048 0.79133000140429866 0.2082794184507949 0.7054234997318658 0.80860557108880304 0 0.81582077266975173 0.77657922508894406 0.18483084990574741 0.51133491425992716 1 0.16370661204795281 0.60000000000138687 1 0 0.50803330197353713 0.83630110503668265 0 0.69988642339594154 1 0.16938214347578889 0.40000000000166441 1 0 0.51133491425992716 1 0.16370661204795281 0.60000000000138687 1 0 0.50803330197353713 0.83630110503668265 0 0.59944234541082553 0.66416205381394655 0 0.50803330197353713 0.83630110503668265 0 0.52894546611500048 0.79133000140429866 0.2082794184507949 0.7054234997318658 0.80860557108880304 0 0.50803330197353713 0.83630110503668265 0 0.52894546611500048 0.79133000140429866 0.2082794184507949 0.7054234997318658 0.80860557108880304 0 0.69988642339594154 1 0.16938214347578889 0.60000000000138687 1 0 0.7054234997318658 0.80860557108880304 0 0.69988642339594154 1 0.16938214347578889 0.79999999999999982 1 0 0.60000000000138687 1 0 0.50803330197353713 0.83630110503668265 0 0.7054234997318658 0.80860557108880304 0 0.69988642339594154 1 0.16938214347578889 0.61068558124908323 1 0.33127740899601937 0.69988642339594154 1 0.16938214347578889 0.81582077266975173 0.77657922508894406 0.18483084990574741 0.82751535738810444 1 0.31407731390515509 0.69988642339594154 1 0.16938214347578889 0.85358983848665693 1 0.14641016151322461 0.81582077266975173 0.77657922508894406 0.18483084990574741 0.82751535738810444 1 0.31407731390515509 0.69988642339594154 1 0.16938214347578889 0.85358983848665693 1 0.14641016151322461 0.85358983848666903 0.85358983848666903 0 0.81582077266975173 0.77657922508894406 0.18483084990574741 0.85358983848665693 1 0.14641016151322461 0.81582077266975173 0.77657922508894406 0.18483084990574741 1 0.85358983848655678 0.14641016151332509 0.82751535738810444 1 0.31407731390515509 0.69988642339594154 1 0.16938214347578889 0.85358983848665693 1 0.14641016151322461 0.79999999999999982 1 0 0.85358983848666903 0.85358983848666903 0 0.7054234997318658 0.80860557108880304 0 0.69988642339594154 1 0.16938214347578889 0.79999999999999982 1 0 0.85358983848666903 0.85358983848666903 0 0.7054234997318658 0.80860557108880304 0 0.85358983848666903 0.85358983848666903 0 0.81582077266975173 0.77657922508894406 0.18483084990574741 0.85173693729186062 0.69992182039541118 0 0.7054234997318658 0.80860557108880304 0 0.69988642339594154 1 0.16938214347578889 0.85358983848666903 0.85358983848666903 0 0.81582077266975173 0.77657922508894406 0.18483084990574741 0.81582077266975173 0.77657922508894406 0.18483084990574741 1 0.85358983848655678 0.14641016151332509 1 0.8148028884949543 0.31067093462944562 1 0.69449451837101916 0.15896804272136739 0.81582077266975173 0.77657922508894406 0.18483084990574741 1 0.85358983848655678 0.14641016151332509 0.82751535738810444 1 0.31407731390515509 1 0.8148028884949543 0.31067093462944562 0.85358983848666903 0.85358983848666903 0 0.81582077266975173 0.77657922508894406 0.18483084990574741 1 0.85358983848655678 0.14641016151332509 1 0.79999999999999982 0 0.81582077266975173 0.77657922508894406 0.18483084990574741 1 0.85358983848655678 0.14641016151332509 1 0.79999999999999982 0 1 0.69449451837101916 0.15896804272136739 0.85358983848665693 1 0.14641016151322461 0.85358983848666903 0.85358983848666903 0 0.81582077266975173 0.77657922508894406 0.18483084990574741 1 0.85358983848655678 0.14641016151332509 0.85358983848666903 0.85358983848666903 0 0.81582077266975173 0.77657922508894406 0.18483084990574741 1 0.79999999999999982 0 0.85173693729186062 0.69992182039541118 0 0.85358983848665693 1 0.14641016151322461 0.85358983848666903 0.85358983848666903 0 1 0.85358983848655678 0.14641016151332509 1 1 0 0.85358983848665693 1 0.14641016151322461 1 0.85358983848655678 0.14641016151332509 1 1 0 1 1 0.19999999999955789 0.85358983848666903 0.85358983848666903 0 1 0.85358983848655678 0.14641016151332509 1 0.79999999999999982 0 1 1 0 0.85358983848665693 1 0.14641016151322461 0.79999999999999982 1 0 0.85358983848666903 0.85358983848666903 0 1 1 0 0.85358983848665693 1 0.14641016151322461 1 0.85358983848655678 0.14641016151332509 1 1 0.19999999999955789 0.82751535738810444 1 0.31407731390515509 1 0.85358983848655678 0.14641016151332509 1 1 0.19999999999955789 0.82751535738810444 1 0.31407731390515509 1 0.8148028884949543 0.31067093462944562 1 1 0.19999999999955789 0.82751535738810444 1 0.31407731390515509 1 1 0.3999999999989749 1 0.8148028884949543 0.31067093462944562 0.68456408135056701 0.68607101396845627 0.31096060989957619 0.81582077266975173 0.77657922508894406 0.18483084990574741 0.82751535738810444 1 0.31407731390515509 0.77374673111774417 0.78860835645735528 0.49829081152968557 0.81582077266975173 0.77657922508894406 0.18483084990574741 0.82751535738810444 1 0.31407731390515509 0.77374673111774417 0.78860835645735528 0.49829081152968557 1 0.8148028884949543 0.31067093462944562 0.68456408135056701 0.68607101396845627 0.31096060989957619 0.81582077266975173 0.77657922508894406 0.18483084990574741 0.77374673111774417 0.78860835645735528 0.49829081152968557 1 0.8148028884949543 0.31067093462944562 0.82751535738810444 1 0.31407731390515509 0.77374673111774417 0.78860835645735528 0.49829081152968557 1 0.8148028884949543 0.31067093462944562 0.86762395692956074 1 0.5060815484123421 0.82751535738810444 1 0.31407731390515509 0.77374673111774417 0.78860835645735528 0.49829081152968557 0.86762395692956074 1 0.5060815484123421 0.68240285647621723 1 0.52310058211166854 0.82751535738810444 1 0.31407731390515509 1 1 0.3999999999989749 1 0.8148028884949543 0.31067093462944562 0.86762395692956074 1 0.5060815484123421 1 1 0.3999999999989749 1 0.8148028884949543 0.31067093462944562 1 0.83630110503662825 0.50803330197135588 0.86762395692956074 1 0.5060815484123421 0.77374673111774417 0.78860835645735528 0.49829081152968557 1 0.8148028884949543 0.31067093462944562 1 0.83630110503662825 0.50803330197135588 0.86762395692956074 1 0.5060815484123421 0.77374673111774417 0.78860835645735528 0.49829081152968557 1 0.8148028884949543 0.31067093462944562 1 0.68975022421527898 0.45812322962078778 1 0.83630110503662825 0.50803330197135588 0.7504488434426726 0.53051757989633308 0.49836643074154852 1 0.60020898676431722 0.32446581821274012 0.77713227489941183 0.50036915849493024 0.21774643624003751 1 0.39615100178016449 0.32925244736082498 0.68456408135056701 0.68607101396845627 0.31096060989957619 1 0.68975022421527898 0.45812322962078778 0.7504488434426726 0.53051757989633308 0.49836643074154852 1 0.60020898676431722 0.32446581821274012 0.68456408135056701 0.68607101396845627 0.31096060989957619 0.77374673111774417 0.78860835645735528 0.49829081152968557 1 0.8148028884949543 0.31067093462944562 1 0.68975022421527898 0.45812322962078778 0.68456408135056701 0.68607101396845627 0.31096060989957619 0.77374673111774417 0.78860835645735528 0.49829081152968557 1 0.68975022421527898 0.45812322962078778 0.7504488434426726 0.53051757989633308 0.49836643074154852 0.68456408135056701 0.68607101396845627 0.31096060989957619 1 0.8148028884949543 0.31067093462944562 1 0.68975022421527898 0.45812322962078778 1 0.60020898676431722 0.32446581821274012 0.68456408135056701 0.68607101396845627 0.31096060989957619 0.7504488434426726 0.53051757989633308 0.49836643074154852 1 0.60020898676431722 0.32446581821274012 0.77713227489941183 0.50036915849493024 0.21774643624003751 0.68456408135056701 0.68607101396845627 0.31096060989957619 0.81582077266975173 0.77657922508894406 0.18483084990574741 1 0.8148028884949543 0.31067093462944562 1 0.60020898676431722 0.32446581821274012 0.68456408135056701 0.68607101396845627 0.31096060989957619 0.81582077266975173 0.77657922508894406 0.18483084990574741 1 0.60020898676431722 0.32446581821274012 0.77713227489941183 0.50036915849493024 0.21774643624003751 1 0.68975022421527898 0.45812322962078778 0.7504488434426726 0.53051757989633308 0.49836643074154852 1 0.60020898676431722 0.32446581821274012 1 0.50000000000229983 0.51961524226898759 0.7504488434426726 0.53051757989633308 0.49836643074154852 1 0.60020898676431722 0.32446581821274012 1 0.39615100178016449 0.32925244736082498 1 0.50000000000229983 0.51961524226898759 1 0.69449451837101916 0.15896804272136739 0.77713227489941183 0.50036915849493024 0.21774643624003751 0.84191918937744659 0.51186163305076127 0 1 0.49836539647890021 0.17226134197269399 0.81582077266975173 0.77657922508894406 0.18483084990574741 1 0.69449451837101916 0.15896804272136739 0.77713227489941183 0.50036915849493024 0.21774643624003751 0.85173693729186062 0.69992182039541118 0 0.81582077266975173 0.77657922508894406 0.18483084990574741 1 0.60020898676431722 0.32446581821274012 1 0.69449451837101916 0.15896804272136739 0.77713227489941183 0.50036915849493024 0.21774643624003751 1 0.60020898676431722 0.32446581821274012 1 0.69449451837101916 0.15896804272136739 0.77713227489941183 0.50036915849493024 0.21774643624003751 1 0.49836539647890021 0.17226134197269399 0.72722573386132172 0.60922248848163563 0 0.81582077266975173 0.77657922508894406 0.18483084990574741 0.77713227489941183 0.50036915849493024 0.21774643624003751 0.85173693729186062 0.69992182039541118 0 0.72722573386132172 0.60922248848163563 0 0.68456408135056701 0.68607101396845627 0.31096060989957619 0.81582077266975173 0.77657922508894406 0.18483084990574741 0.77713227489941183 0.50036915849493024 0.21774643624003751 0.81582077266975173 0.77657922508894406 0.18483084990574741 1 0.8148028884949543 0.31067093462944562 1 0.60020898676431722 0.32446581821274012 1 0.69449451837101916 0.15896804272136739 0.72722573386132172 0.60922248848163563 0 0.77713227489941183 0.50036915849493024 0.21774643624003751 0.84191918937744659 0.51186163305076127 0 0.67320508075660079 0.46954769941202479 0 1 0.69449451837101916 0.15896804272136739 0.77713227489941183 0.50036915849493024 0.21774643624003751 0.84191918937744659 0.51186163305076127 0 0.85173693729186062 0.69992182039541118 0 0.72722573386132172 0.60922248848163563 0 0.77713227489941183 0.50036915849493024 0.21774643624003751 0.84191918937744659 0.51186163305076127 0 0.85173693729186062 0.69992182039541118 0 0.72722573386132172 0.60922248848163563 0 0.7054234997318658 0.80860557108880304 0 0.81582077266975173 0.77657922508894406 0.18483084990574741 0.85173693729186062 0.69992182039541118 0 1 0.79999999999999982 0 1 0.69449451837101916 0.15896804272136739 0.85173693729186062 0.69992182039541118 0 1 0.60000000000138687 0 0.81582077266975173 0.77657922508894406 0.18483084990574741 1 0.79999999999999982 0 1 0.69449451837101916 0.15896804272136739 0.85173693729186062 0.69992182039541118 0 1 0.69449451837101916 0.15896804272136739 0.84191918937744659 0.51186163305076127 0 0.85173693729186062 0.69992182039541118 0 1 0.60000000000138687 0 1 0.69449451837101916 0.15896804272136739 0.84191918937744659 0.51186163305076127 0 1 0.60000000000138687 0 1 0.49836539647890021 0.17226134197269399 0.84191918937744659 0.51186163305076127 0 1 0.60000000000138687 0 1 0.40000000000166441 0 1 0.49836539647890021 0.17226134197269399 1 0.30074819035868428 0.16929708765640439 0.80839867011859301 0.31807971531731721 0 0.85358983848570813 0.1464101615143738 0 0.68777432594363841 0.31447353261427252 0.31366778418247038 0.84191918937744659 0.51186163305076127 0 1 0.40000000000166441 0 1 0.49836539647890021 0.17226134197269399 0.80839867011859301 0.31807971531731721 0 1 0.40000000000166441 0 1 0.49836539647890021 0.17226134197269399 1 0.30074819035868428 0.16929708765640439 0.80839867011859301 0.31807971531731721 0 0.77713227489941183 0.50036915849493024 0.21774643624003751 1 0.30074819035868428 0.16929708765640439 0.80839867011859301 0.31807971531731721 0 0.68777432594363841 0.31447353261427252 0.31366778418247038 0.77713227489941183 0.50036915849493024 0.21774643624003751 0.84191918937744659 0.51186163305076127 0 0.80839867011859301 0.31807971531731721 0 0.67320508075660079 0.46954769941202479 0 0.77713227489941183 0.50036915849493024 0.21774643624003751 0.84191918937744659 0.51186163305076127 0 1 0.49836539647890021 0.17226134197269399 0.80839867011859301 0.31807971531731721 0 0.77713227489941183 0.50036915849493024 0.21774643624003751 1 0.49836539647890021 0.17226134197269399 1 0.30074819035868428 0.16929708765640439 0.80839867011859301 0.31807971531731721 0 0.77713227489941183 0.50036915849493024 0.21774643624003751 1 0.49836539647890021 0.17226134197269399 1 0.30074819035868428 0.16929708765640439 1 0.39615100178016449 0.32925244736082498 1 0.40000000000166441 0 1 0.30074819035868428 0.16929708765640439 0.80839867011859301 0.31807971531731721 0 1 0.20000000000083221 0 1 0.30074819035868428 0.16929708765640439 0.80839867011859301 0.31807971531731721 0 1 0.20000000000083221 0 0.85358983848570813 0.1464101615143738 0 1 0.30074819035868428 0.16929708765640439 1 0.20000000000083221 0 1 0.14641016151453831 0.14641016151419689 0.85358983848570813 0.1464101615143738 0 0.85358983848650494 0 0.1464101615132356 0.68592116352011878 0 0.1724872797865501 0.68777432594363841 0.31447353261427252 0.31366778418247038 0.83057691269884504 0 0.30018449338884379 0.80839867011859301 0.31807971531731721 0 0.85358983848570813 0.1464101615143738 0 0.69380980079964416 0.1619694349440581 0 0.68777432594363841 0.31447353261427252 0.31366778418247038 1 0.30074819035868428 0.16929708765640439 1 0.14641016151453831 0.14641016151419689 0.68777432594363841 0.31447353261427252 0.31366778418247038 1 0.18804489794556911 0.3161072616634244 1 0.30074819035868428 0.16929708765640439 1 0.14641016151453831 0.14641016151419689 0.85358983848570813 0.1464101615143738 0 0.68777432594363841 0.31447353261427252 0.31366778418247038 1 0.14641016151453831 0.14641016151419689 0.85358983848650494 0 0.1464101615132356 0.68777432594363841 0.31447353261427252 0.31366778418247038 0.83057691269884504 0 0.30018449338884379 1 0.14641016151453831 0.14641016151419689 0.85358983848650494 0 0.1464101615132356 0.85358983848570813 0.1464101615143738 0 0.68777432594363841 0.31447353261427252 0.31366778418247038 0.85358983848650494 0 0.1464101615132356 0.85358983848570813 0.1464101615143738 0 0.69380980079964416 0.1619694349440581 0 0.68777432594363841 0.31447353261427252 0.31366778418247038 1 0.14641016151453831 0.14641016151419689 1 0 0.19999999999955789 0.85358983848650494 0 0.1464101615132356 0.83057691269884504 0 0.30018449338884379 1 0.14641016151453831 0.14641016151419689 1 0 0.19999999999955789 0.83057691269884504 0 0.30018449338884379 1 0.18804489794556911 0.3161072616634244 1 0 0 0.79999999999947335 0 0 0.85358983848650494 0 0.1464101615132356 0.85358983848570813 0.1464101615143738 0 1 0.14641016151453831 0.14641016151419689 1 0 0.19999999999955789 1 0 0 0.85358983848650494 0 0.1464101615132356 1 0.20000000000083221 0 1 0.14641016151453831 0.14641016151419689 1 0 0 0.85358983848570813 0.1464101615143738 0 1 0.14641016151453831 0.14641016151419689 1 0 0 0.85358983848650494 0 0.1464101615132356 0.85358983848570813 0.1464101615143738 0 0.79999999999947335 0 0 0.85358983848650494 0 0.1464101615132356 0.69380980079964416 0.1619694349440581 0 0.68592116352011878 0 0.1724872797865501 0.79999999999947335 0 0 0.85358983848650494 0 0.1464101615132356 0.85358983848570813 0.1464101615143738 0 0.69380980079964416 0.1619694349440581 0 0.69380980079964416 0.1619694349440581 0 0.68592116352011878 0 0.1724872797865501 0.5003997205654479 0.21136633249797621 0.2258422409314382 0.68777432594363841 0.31447353261427252 0.31366778418247038 0.85358983848650494 0 0.1464101615132356 0.69380980079964416 0.1619694349440581 0 0.68592116352011878 0 0.1724872797865501 0.68777432594363841 0.31447353261427252 0.31366778418247038 0.79999999999947335 0 0 0.69380980079964416 0.1619694349440581 0 0.68592116352011878 0 0.1724872797865501 0.59999999999894682 0 0 0.3999999999989749 0 0 0.49391845158624981 0 0.1323760430705655 0.59999999999894682 0 0 0.50966790549376417 0.16275515618023731 0 0.69380980079964416 0.1619694349440581 0 0.68592116352011878 0 0.1724872797865501 0.59999999999894682 0 0 0.50966790549376417 0.16275515618023731 0 0.49391845158624981 0 0.1323760430705655 0.68592116352011878 0 0.1724872797865501 0.59999999999894682 0 0 0.50966790549376417 0.16275515618023731 0 0.49391845158624981 0 0.1323760430705655 0.47688326899416439 0 0.31741132792405607 0.68592116352011878 0 0.1724872797865501 0.5003997205654479 0.21136633249797621 0.2258422409314382 0.49391845158624981 0 0.1323760430705655 0.68592116352011878 0 0.1724872797865501 0.5003997205654479 0.21136633249797621 0.2258422409314382 0.50966790549376417 0.16275515618023731 0 0.69380980079964416 0.1619694349440581 0 0.68592116352011878 0 0.1724872797865501 0.5003997205654479 0.21136633249797621 0.2258422409314382 0.50966790549376417 0.16275515618023731 0 0.69380980079964416 0.1619694349440581 0 0.5003997205654479 0.21136633249797621 0.2258422409314382 0.50966790549376417 0.16275515618023731 0 0.6104699881764214 0.32043363027358418 0 0.77713227489941183 0.50036915849493024 0.21774643624003751 0.80839867011859301 0.31807971531731721 0 0.6104699881764214 0.32043363027358418 0 0.68777432594363841 0.31447353261427252 0.31366778418247038 0.69380980079964416 0.1619694349440581 0 0.5003997205654479 0.21136633249797621 0.2258422409314382 0.6104699881764214 0.32043363027358418 0 0.68777432594363841 0.31447353261427252 0.31366778418247038 0.80839867011859301 0.31807971531731721 0 0.69380980079964416 0.1619694349440581 0 0.6104699881764214 0.32043363027358418 0 0.68777432594363841 0.31447353261427252 0.31366778418247038 0.45812322962036273 0.31024977578535839 0 0.5003997205654479 0.21136633249797621 0.2258422409314382 0.50966790549376417 0.16275515618023731 0 0.6104699881764214 0.32043363027358418 0 0.45812322962036273 0.31024977578535839 0 0.5003997205654479 0.21136633249797621 0.2258422409314382 0.6104699881764214 0.32043363027358418 0 0.5004045312576143 0.47050700646456922 0.24963111222780321 0.77713227489941183 0.50036915849493024 0.21774643624003751 0.6104699881764214 0.32043363027358418 0 0.67320508075660079 0.46954769941202479 0 0.5004045312576143 0.47050700646456922 0.24963111222780321 0.5003997205654479 0.21136633249797621 0.2258422409314382 0.6104699881764214 0.32043363027358418 0 0.5004045312576143 0.47050700646456922 0.24963111222780321 0.68777432594363841 0.31447353261427252 0.31366778418247038 0.77713227489941183 0.50036915849493024 0.21774643624003751 0.6104699881764214 0.32043363027358418 0 0.5004045312576143 0.47050700646456922 0.24963111222780321 0.68777432594363841 0.31447353261427252 0.31366778418247038 0.51961524226956368 0.5000000000025091 0 0.6104699881764214 0.32043363027358418 0 0.67320508075660079 0.46954769941202479 0 0.5004045312576143 0.47050700646456922 0.24963111222780321 0.45812322962036273 0.31024977578535839 0 0.51961524226956368 0.5000000000025091 0 0.6104699881764214 0.32043363027358418 0 0.5004045312576143 0.47050700646456922 0.24963111222780321 0.77713227489941183 0.50036915849493024 0.21774643624003751 0.80839867011859301 0.31807971531731721 0 0.6104699881764214 0.32043363027358418 0 0.67320508075660079 0.46954769941202479 0 0.7504488434426726 0.53051757989633308 0.49836643074154852 0.50000000000001332 0.49999999999999561 0.49999999999999561 0.68777432594363841 0.31447353261427252 0.31366778418247038 0.50073570207385831 0.24848280280289631 0.52886631355986169 0.7504488434426726 0.53051757989633308 0.49836643074154852 0.68777432594363841 0.31447353261427252 0.31366778418247038 0.77973766487723961 0.22090161127815711 0.50014622462635805 0.50073570207385831 0.24848280280289631 0.52886631355986169 0.7504488434426726 0.53051757989633308 0.49836643074154852 0.5004045312576143 0.47050700646456922 0.24963111222780321 0.50000000000001332 0.49999999999999561 0.49999999999999561 0.68777432594363841 0.31447353261427252 0.31366778418247038 0.7504488434426726 0.53051757989633308 0.49836643074154852 0.77713227489941183 0.50036915849493024 0.21774643624003751 0.5004045312576143 0.47050700646456922 0.24963111222780321 0.68777432594363841 0.31447353261427252 0.31366778418247038 0.5003997205654479 0.21136633249797621 0.2258422409314382 0.5004045312576143 0.47050700646456922 0.24963111222780321 0.68777432594363841 0.31447353261427252 0.31366778418247038 0.50073570207385831 0.24848280280289631 0.52886631355986169 0.5004045312576143 0.47050700646456922 0.24963111222780321 0.50000000000001332 0.49999999999999561 0.49999999999999561 0.68777432594363841 0.31447353261427252 0.31366778418247038 0.50073570207385831 0.24848280280289631 0.52886631355986169 0.68777432594363841 0.31447353261427252 0.31366778418247038 0.66852282575985944 0 0.3853248791658106 0.83057691269884504 0 0.30018449338884379 0.77973766487723961 0.22090161127815711 0.50014622462635805 0.68592116352011878 0 0.1724872797865501 0.68777432594363841 0.31447353261427252 0.31366778418247038 0.66852282575985944 0 0.3853248791658106 0.83057691269884504 0 0.30018449338884379 0.47688326899416439 0 0.31741132792405607 0.5003997205654479 0.21136633249797621 0.2258422409314382 0.66852282575985944 0 0.3853248791658106 0.50073570207385831 0.24848280280289631 0.52886631355986169 0.66852282575985944 0 0.3853248791658106 0.77973766487723961 0.22090161127815711 0.50014622462635805 0.68969697123394857 0 0.54179813558228873 0.50073570207385831 0.24848280280289631 0.52886631355986169 0.68592116352011878 0 0.1724872797865501 0.5003997205654479 0.21136633249797621 0.2258422409314382 0.68777432594363841 0.31447353261427252 0.31366778418247038 0.66852282575985944 0 0.3853248791658106 0.5003997205654479 0.21136633249797621 0.2258422409314382 0.68777432594363841 0.31447353261427252 0.31366778418247038 0.66852282575985944 0 0.3853248791658106 0.50073570207385831 0.24848280280289631 0.52886631355986169 0.68777432594363841 0.31447353261427252 0.31366778418247038 0.66852282575985944 0 0.3853248791658106 0.77973766487723961 0.22090161127815711 0.50014622462635805 0.50073570207385831 0.24848280280289631 0.52886631355986169 0.47688326899416439 0 0.31741132792405607 0.68592116352011878 0 0.1724872797865501 0.5003997205654479 0.21136633249797621 0.2258422409314382 0.66852282575985944 0 0.3853248791658106 0.47688326899416439 0 0.31741132792405607 0.50000000000250922 0 0.48038475773043671 0.66852282575985944 0 0.3853248791658106 0.50073570207385831 0.24848280280289631 0.52886631355986169 0.50000000000250922 0 0.48038475773043671 0.66852282575985944 0 0.3853248791658106 0.68969697123394857 0 0.54179813558228873 0.50073570207385831 0.24848280280289631 0.52886631355986169 0.66852282575985944 0 0.3853248791658106 0.83534964916824084 0 0.4902996892628636 0.77973766487723961 0.22090161127815711 0.50014622462635805 0.68969697123394857 0 0.54179813558228873 0.68777432594363841 0.31447353261427252 0.31366778418247038 0.83057691269884504 0 0.30018449338884379 1 0.18804489794556911 0.3161072616634244 0.77973766487723961 0.22090161127815711 0.50014622462635805 1 0.14641016151453831 0.14641016151419689 0.68777432594363841 0.31447353261427252 0.31366778418247038 0.83057691269884504 0 0.30018449338884379 1 0.18804489794556911 0.3161072616634244 0.66852282575985944 0 0.3853248791658106 0.83057691269884504 0 0.30018449338884379 0.83534964916824084 0 0.4902996892628636 0.77973766487723961 0.22090161127815711 0.50014622462635805 0.83057691269884504 0 0.30018449338884379 0.83534964916824084 0 0.4902996892628636 1 0.18804489794556911 0.3161072616634244 0.77973766487723961 0.22090161127815711 0.50014622462635805 0.83057691269884504 0 0.30018449338884379 0.83534964916824084 0 0.4902996892628636 1 0 0.3999999999989749 1 0.18804489794556911 0.3161072616634244 0.83534964916824084 0 0.4902996892628636 1 0 0.3999999999989749 1 0.162755156180173 0.50966790549372887 1 0 0.59999999999894682 0.83534964916824084 0 0.4902996892628636 1 0 0.3999999999989749 1 0.18804489794556911 0.3161072616634244 1 0.162755156180173 0.50966790549372887 1 0 0.19999999999955789 0.83057691269884504 0 0.30018449338884379 1 0 0.3999999999989749 1 0.18804489794556911 0.3161072616634244 1 0.18804489794556911 0.3161072616634244 1 0.31024977578542368 0.45812322962028301 1 0.162755156180173 0.50966790549372887 0.77973766487723961 0.22090161127815711 0.50014622462635805 0.83534964916824084 0 0.4902996892628636 1 0.18804489794556911 0.3161072616634244 1 0.162755156180173 0.50966790549372887 0.77973766487723961 0.22090161127815711 0.50014622462635805 0.7504488434426726 0.53051757989633308 0.49836643074154852 0.77713227489941183 0.50036915849493024 0.21774643624003751 0.68777432594363841 0.31447353261427252 0.31366778418247038 1 0.39615100178016449 0.32925244736082498 0.68777432594363841 0.31447353261427252 0.31366778418247038 1 0.18804489794556911 0.3161072616634244 1 0.31024977578542368 0.45812322962028301 1 0.39615100178016449 0.32925244736082498 0.7504488434426726 0.53051757989633308 0.49836643074154852 0.68777432594363841 0.31447353261427252 0.31366778418247038 1 0.31024977578542368 0.45812322962028301 0.77973766487723961 0.22090161127815711 0.50014622462635805 1 0.30074819035868428 0.16929708765640439 0.68777432594363841 0.31447353261427252 0.31366778418247038 1 0.18804489794556911 0.3161072616634244 1 0.39615100178016449 0.32925244736082498 0.68777432594363841 0.31447353261427252 0.31366778418247038 1 0.18804489794556911 0.3161072616634244 1 0.31024977578542368 0.45812322962028301 0.77973766487723961 0.22090161127815711 0.50014622462635805 0.77713227489941183 0.50036915849493024 0.21774643624003751 1 0.30074819035868428 0.16929708765640439 0.68777432594363841 0.31447353261427252 0.31366778418247038 1 0.39615100178016449 0.32925244736082498 0.7504488434426726 0.53051757989633308 0.49836643074154852 0.68777432594363841 0.31447353261427252 0.31366778418247038 1 0.31024977578542368 0.45812322962028301 1 0.39615100178016449 0.32925244736082498 1 0.60020898676431722 0.32446581821274012 0.77713227489941183 0.50036915849493024 0.21774643624003751 1 0.49836539647890021 0.17226134197269399 1 0.39615100178016449 0.32925244736082498 0.7504488434426726 0.53051757989633308 0.49836643074154852 1 0.31024977578542368 0.45812322962028301 1 0.39615100178016449 0.32925244736082498 1 0.50000000000229983 0.51961524226898759 0.7504488434426726 0.53051757989633308 0.49836643074154852 1 0.33579115324550912 0.59952339316293046 0.68742751001967084 0.31250796680084852 0.687427510020161 0.78019141325921404 0.49972466465542442 0.78019141325930785 1 0.39076805646076263 0.7272421105028648 1 0.33579115324550912 0.59952339316293046 0.68742751001967084 0.31250796680084852 0.687427510020161 0.81599560342209843 0.22280203704001911 0.81599560342233202 0.7504488434426726 0.53051757989633308 0.49836643074154852 1 0.33579115324550912 0.59952339316293046 1 0.53045230059030524 0.6732050807565132 1 0.50000000000229983 0.51961524226898759 0.7504488434426726 0.53051757989633308 0.49836643074154852 1 0.31024977578542368 0.45812322962028301 1 0.33579115324550912 0.59952339316293046 0.77973766487723961 0.22090161127815711 0.50014622462635805 1 0.33579115324550912 0.59952339316293046 0.77973766487723961 0.22090161127815711 0.50014622462635805 0.68742751001967084 0.31250796680084852 0.687427510020161 0.81599560342209843 0.22280203704001911 0.81599560342233202 0.7504488434426726 0.53051757989633308 0.49836643074154852 1 0.33579115324550912 0.59952339316293046 0.77973766487723961 0.22090161127815711 0.50014622462635805 0.68742751001967084 0.31250796680084852 0.687427510020161 0.7504488434426726 0.53051757989633308 0.49836643074154852 1 0.33579115324550912 0.59952339316293046 0.78019141325921404 0.49972466465542442 0.78019141325930785 1 0.53045230059030524 0.6732050807565132 1 0.39076805646076263 0.7272421105028648 1 0.33579115324550912 0.59952339316293046 0.68742751001967084 0.31250796680084852 0.687427510020161 0.78019141325921404 0.49972466465542442 0.78019141325930785 0.7504488434426726 0.53051757989633308 0.49836643074154852 1 0.31024977578542368 0.45812322962028301 1 0.33579115324550912 0.59952339316293046 1 0.50000000000229983 0.51961524226898759 1 0.39076805646076263 0.7272421105028648 1 0.33579115324550912 0.59952339316293046 0.78019141325921404 0.49972466465542442 0.78019141325930785 1 0.53045230059030524 0.6732050807565132 1 0.39076805646076263 0.7272421105028648 1 0.33579115324550912 0.59952339316293046 1 0.1912596090855686 0.70565701451953711 0.81599560342209843 0.22280203704001911 0.81599560342233202 1 0.31024977578542368 0.45812322962028301 1 0.33579115324550912 0.59952339316293046 1 0.162755156180173 0.50966790549372887 0.77973766487723961 0.22090161127815711 0.50014622462635805 1 0.162755156180173 0.50966790549372887 1 0.1912596090855686 0.70565701451953711 0.81469961246449951 0 0.68914937826112133 0.77973766487723961 0.22090161127815711 0.50014622462635805 0.81469961246449951 0 0.68914937826112133 0.77973766487723961 0.22090161127815711 0.50014622462635805 0.68742751001967084 0.31250796680084852 0.687427510020161 0.81599560342209843 0.22280203704001911 0.81599560342233202 1 0.1912596090855686 0.70565701451953711 0.81469961246449951 0 0.68914937826112133 0.77973766487723961 0.22090161127815711 0.50014622462635805 0.81599560342209843 0.22280203704001911 0.81599560342233202 1 0.33579115324550912 0.59952339316293046 1 0.1912596090855686 0.70565701451953711 0.77973766487723961 0.22090161127815711 0.50014622462635805 0.81599560342209843 0.22280203704001911 0.81599560342233202 1 0.33579115324550912 0.59952339316293046 1 0.162755156180173 0.50966790549372887 1 0.1912596090855686 0.70565701451953711 0.77973766487723961 0.22090161127815711 0.50014622462635805 1 0.1912596090855686 0.70565701451953711 1 0 0.59999999999894682 0.81469961246449951 0 0.68914937826112133 1 0 0.79999999999947335 1 0.162755156180173 0.50966790549372887 1 0.1912596090855686 0.70565701451953711 1 0 0.59999999999894682 0.81469961246449951 0 0.68914937826112133 0.83534964916824084 0 0.4902996892628636 1 0.162755156180173 0.50966790549372887 1 0 0.59999999999894682 0.81469961246449951 0 0.68914937826112133 0.83534964916824084 0 0.4902996892628636 0.81469961246449951 0 0.68914937826112133 0.77973766487723961 0.22090161127815711 0.50014622462635805 0.68969697123394857 0 0.54179813558228873 0.83534964916824084 0 0.4902996892628636 1 0.162755156180173 0.50966790549372887 0.81469961246449951 0 0.68914937826112133 0.77973766487723961 0.22090161127815711 0.50014622462635805 0.68969697123394857 0 0.54179813558228873 0.6002015905170176 0 0.67551889168744117 0.50073570207385831 0.24848280280289631 0.52886631355986169 0.68742751001967084 0.31250796680084852 0.687427510020161 0.81469961246449951 0 0.68914937826112133 0.68969697123394857 0 0.54179813558228873 0.6002015905170176 0 0.67551889168744117 0.68742751001967084 0.31250796680084852 0.687427510020161 0.81469961246449951 0 0.68914937826112133 0.77973766487723961 0.22090161127815711 0.50014622462635805 0.68969697123394857 0 0.54179813558228873 0.68742751001967084 0.31250796680084852 0.687427510020161 0.6002015905170176 0 0.67551889168744117 0.68742751001967084 0.31250796680084852 0.687427510020161 0.50084626324420545 0.22238844715913 0.78084811589659187 0.69447607299129699 0 0.84099946107689361 0.77973766487723961 0.22090161127815711 0.50014622462635805 0.68969697123394857 0 0.54179813558228873 0.50073570207385831 0.24848280280289631 0.52886631355986169 0.68742751001967084 0.31250796680084852 0.687427510020161 0.6002015905170176 0 0.67551889168744117 0.50073570207385831 0.24848280280289631 0.52886631355986169 0.68742751001967084 0.31250796680084852 0.687427510020161 0.50084626324420545 0.22238844715913 0.78084811589659187 0.81469961246449951 0 0.68914937826112133 0.6002015905170176 0 0.67551889168744117 0.68742751001967084 0.31250796680084852 0.687427510020161 0.81599560342209843 0.22280203704001911 0.81599560342233202 0.50000000000250922 0 0.48038475773043671 0.68969697123394857 0 0.54179813558228873 0.6002015905170176 0 0.67551889168744117 0.50073570207385831 0.24848280280289631 0.52886631355986169 0.50000000000001332 0.49999999999999561 0.49999999999999561 0.50073570207385831 0.24848280280289631 0.52886631355986169 0.68742751001967084 0.31250796680084852 0.687427510020161 0.49816183246753282 0.5307146639261795 0.75045686993209071 0.7504488434426726 0.53051757989633308 0.49836643074154852 0.50000000000001332 0.49999999999999561 0.49999999999999561 0.50073570207385831 0.24848280280289631 0.52886631355986169 0.68742751001967084 0.31250796680084852 0.687427510020161 0.7504488434426726 0.53051757989633308 0.49836643074154852 0.50000000000001332 0.49999999999999561 0.49999999999999561 0.68742751001967084 0.31250796680084852 0.687427510020161 0.49816183246753282 0.5307146639261795 0.75045686993209071 0.7504488434426726 0.53051757989633308 0.49836643074154852 0.68742751001967084 0.31250796680084852 0.687427510020161 0.78019141325921404 0.49972466465542442 0.78019141325930785 0.49816183246753282 0.5307146639261795 0.75045686993209071 0.50073570207385831 0.24848280280289631 0.52886631355986169 0.68742751001967084 0.31250796680084852 0.687427510020161 0.50084626324420545 0.22238844715913 0.78084811589659187 0.49816183246753282 0.5307146639261795 0.75045686993209071 0.7504488434426726 0.53051757989633308 0.49836643074154852 0.77973766487723961 0.22090161127815711 0.50014622462635805 0.50073570207385831 0.24848280280289631 0.52886631355986169 0.68742751001967084 0.31250796680084852 0.687427510020161 0.59952339316492498 0.33579115324593939 1 0.50084626324420545 0.22238844715913 0.78084811589659187 0.49816183246753282 0.5307146639261795 0.75045686993209071 0.45812322962173568 0.31024977578554058 1 0.68742751001967084 0.31250796680084852 0.687427510020161 0.72724211050425436 0.39076805646176382 1 0.59952339316492498 0.33579115324593939 1 0.81599560342209843 0.22280203704001911 0.81599560342233202 0.68742751001967084 0.31250796680084852 0.687427510020161 0.59952339316492498 0.33579115324593939 1 0.78019141325921404 0.49972466465542442 0.78019141325930785 0.49816183246753282 0.5307146639261795 0.75045686993209071 0.68742751001967084 0.31250796680084852 0.687427510020161 0.59952339316492498 0.33579115324593939 1 0.50084626324420545 0.22238844715913 0.78084811589659187 0.81599560342209843 0.22280203704001911 0.81599560342233202 0.68742751001967084 0.31250796680084852 0.687427510020161 0.59952339316492498 0.33579115324593939 1 0.50084626324420545 0.22238844715913 0.78084811589659187 0.49816183246753282 0.5307146639261795 0.75045686993209071 0.68742751001967084 0.31250796680084852 0.687427510020161 0.72724211050425436 0.39076805646176382 1 0.59952339316492498 0.33579115324593939 1 0.78019141325921404 0.49972466465542442 0.78019141325930785 0.59952339316492498 0.33579115324593939 1 0.78019141325921404 0.49972466465542442 0.78019141325930785 0.67320508075671459 0.53045230059073867 1 0.49816183246753282 0.5307146639261795 0.75045686993209071 0.72724211050425436 0.39076805646176382 1 0.59952339316492498 0.33579115324593939 1 0.70565701452089868 0.1912596090858541 1 0.81599560342209843 0.22280203704001911 0.81599560342233202 0.72724211050425436 0.39076805646176382 1 0.59952339316492498 0.33579115324593939 1 0.78019141325921404 0.49972466465542442 0.78019141325930785 0.67320508075671459 0.53045230059073867 1 0.59952339316492498 0.33579115324593939 1 0.51961524226934941 0.50000000000250611 1 0.49816183246753282 0.5307146639261795 0.75045686993209071 0.45812322962173568 0.31024977578554058 1 0.59952339316492498 0.33579115324593939 1 0.67320508075671459 0.53045230059073867 1 0.51961524226934941 0.50000000000250611 1 0.49816183246753282 0.5307146639261795 0.75045686993209071 0.59952339316492498 0.33579115324593939 1 0.50966790549576724 0.1627551561802443 1 0.50084626324420545 0.22238844715913 0.78084811589659187 0.45812322962173568 0.31024977578554058 1 0.50966790549576724 0.1627551561802443 1 0.50084626324420545 0.22238844715913 0.78084811589659187 0.69447607299129699 0 0.84099946107689361 0.70565701452089868 0.1912596090858541 1 0.68742751001967084 0.31250796680084852 0.687427510020161 0.50084626324420545 0.22238844715913 0.78084811589659187 0.69447607299129699 0 0.84099946107689361 0.81599560342209843 0.22280203704001911 0.81599560342233202 0.50084626324420545 0.22238844715913 0.78084811589659187 0.69447607299129699 0 0.84099946107689361 0.70565701452089868 0.1912596090858541 1 0.81599560342209843 0.22280203704001911 0.81599560342233202 0.59952339316492498 0.33579115324593939 1 0.50084626324420545 0.22238844715913 0.78084811589659187 0.70565701452089868 0.1912596090858541 1 0.81599560342209843 0.22280203704001911 0.81599560342233202 0.59952339316492498 0.33579115324593939 1 0.50966790549576724 0.1627551561802443 1 0.50084626324420545 0.22238844715913 0.78084811589659187 0.70565701452089868 0.1912596090858541 1 0.6002015905170176 0 0.67551889168744117 0.68742751001967084 0.31250796680084852 0.687427510020161 0.69447607299129699 0 0.84099946107689361 0.81599560342209843 0.22280203704001911 0.81599560342233202 0.6002015905170176 0 0.67551889168744117 0.50084626324420545 0.22238844715913 0.78084811589659187 0.69447607299129699 0 0.84099946107689361 0.49836539647917322 0 0.82773865802723501 0.50966790549576724 0.1627551561802443 1 0.50084626324420545 0.22238844715913 0.78084811589659187 0.69447607299129699 0 0.84099946107689361 0.49836539647917322 0 0.82773865802723501 0.50966790549576724 0.1627551561802443 1 0.60000000000138687 0 1 0.69447607299129699 0 0.84099946107689361 0.49836539647917322 0 0.82773865802723501 0.50966790549576724 0.1627551561802443 1 0.60000000000138687 0 1 0.49836539647917322 0 0.82773865802723501 0.40000000000166441 0 1 0.50966790549576724 0.1627551561802443 1 0.60000000000138687 0 1 0.69447607299129699 0 0.84099946107689361 0.70565701452089868 0.1912596090858541 1 0.60000000000138687 0 1 0.69447607299129699 0 0.84099946107689361 0.70565701452089868 0.1912596090858541 1 0.79999999999999982 0 1 0.81469961246449951 0 0.68914937826112133 0.6002015905170176 0 0.67551889168744117 0.69447607299129699 0 0.84099946107689361 0.81599560342209843 0.22280203704001911 0.81599560342233202 0.69447607299129699 0 0.84099946107689361 0.70565701452089868 0.1912596090858541 1 0.85358983848646974 0.14641016151341191 1 0.81599560342209843 0.22280203704001911 0.81599560342233202 0.70565701452089868 0.1912596090858541 1 0.85358983848646974 0.14641016151341191 1 0.81599560342209843 0.22280203704001911 0.81599560342233202 0.85173693729199718 0.30007817960516198 1 1 0.1912596090855686 0.70565701451953711 0.81469961246449951 0 0.68914937826112133 0.81599560342209843 0.22280203704001911 0.81599560342233202 0.85358983848570524 0 0.85358983848556425 0.81469961246449951 0 0.68914937826112133 0.69447607299129699 0 0.84099946107689361 0.81599560342209843 0.22280203704001911 0.81599560342233202 0.85358983848570524 0 0.85358983848556425 0.69447607299129699 0 0.84099946107689361 0.85358983848646974 0.14641016151341191 1 0.81599560342209843 0.22280203704001911 0.81599560342233202 0.85358983848570524 0 0.85358983848556425 0.69447607299129699 0 0.84099946107689361 0.70565701452089868 0.1912596090858541 1 0.85358983848646974 0.14641016151341191 1 0.79999999999999982 0 1 0.69447607299129699 0 0.84099946107689361 0.85358983848646974 0.14641016151341191 1 0.85358983848570524 0 0.85358983848556425 0.79999999999999982 0 1 0.85358983848646974 0.14641016151341191 1 0.85358983848570524 0 0.85358983848556425 1 0 1 1 0.14641016151333891 0.85358983848640169 0.85358983848646974 0.14641016151341191 1 0.85358983848570524 0 0.85358983848556425 0.79999999999999982 0 1 1 0 1 0.85358983848646974 0.14641016151341191 1 1 0 1 1 0.14641016151333891 0.85358983848640169 1 0.19999999999955789 1 0.85358983848570524 0 0.85358983848556425 1 0 1 1 0 0.79999999999947335 1 0.14641016151333891 0.85358983848640169 1 0.1912596090855686 0.70565701451953711 0.81469961246449951 0 0.68914937826112133 0.85358983848570524 0 0.85358983848556425 1 0 0.79999999999947335 1 0.1912596090855686 0.70565701451953711 0.85358983848570524 0 0.85358983848556425 1 0 0.79999999999947335 1 0.14641016151333891 0.85358983848640169 1 0.1912596090855686 0.70565701451953711 0.81599560342209843 0.22280203704001911 0.81599560342233202 1 0.14641016151333891 0.85358983848640169 1 0.30007817960499339 0.85173693729139244 1 0.1912596090855686 0.70565701451953711 0.81599560342209843 0.22280203704001911 0.81599560342233202 0.85358983848570524 0 0.85358983848556425 1 0.14641016151333891 0.85358983848640169 0.85358983848646974 0.14641016151341191 1 0.81599560342209843 0.22280203704001911 0.81599560342233202 1 0.19999999999955789 1 0.85173693729199718 0.30007817960516198 1 0.85358983848646974 0.14641016151341191 1 0.81599560342209843 0.22280203704001911 0.81599560342233202 1 0.14641016151333891 0.85358983848640169 1 0.19999999999955789 1 0.81599560342209843 0.22280203704001911 0.81599560342233202 1 0.14641016151333891 0.85358983848640169 1 0.19999999999955789 1 1 0.30007817960499339 0.85173693729139244 0.85358983848646974 0.14641016151341191 1 0.81599560342209843 0.22280203704001911 0.81599560342233202 0.85358983848570524 0 0.85358983848556425 1 0.14641016151333891 0.85358983848640169 1 0.19999999999955789 1 0.85173693729199718 0.30007817960516198 1 1 0.30007817960499339 0.85173693729139244 1 0.3999999999989749 1 0.81599560342209843 0.22280203704001911 0.81599560342233202 1 0.19999999999955789 1 0.85173693729199718 0.30007817960516198 1 1 0.30007817960499339 0.85173693729139244 0.81599560342209843 0.22280203704001911 0.81599560342233202 0.85173693729199718 0.30007817960516198 1 1 0.30007817960499339 0.85173693729139244 0.78019141325921404 0.49972466465542442 0.78019141325930785 0.68742751001967084 0.31250796680084852 0.687427510020161 0.72724211050425436 0.39076805646176382 1 0.81599560342209843 0.22280203704001911 0.81599560342233202 0.78019141325921404 0.49972466465542442 0.78019141325930785 1 0.39076805646076263 0.7272421105028648 0.81599560342209843 0.22280203704001911 0.81599560342233202 1 0.30007817960499339 0.85173693729139244 0.78019141325921404 0.49972466465542442 0.78019141325930785 0.72724211050425436 0.39076805646176382 1 0.81599560342209843 0.22280203704001911 0.81599560342233202 0.85173693729199718 0.30007817960516198 1 0.78019141325921404 0.49972466465542442 0.78019141325930785 1 0.39076805646076263 0.7272421105028648 0.68742751001967084 0.31250796680084852 0.687427510020161 0.81599560342209843 0.22280203704001911 0.81599560342233202 0.78019141325921404 0.49972466465542442 0.78019141325930785 0.85173693729199718 0.30007817960516198 1 1 0.30007817960499339 0.85173693729139244 1 0.48813836695007229 0.84191918937727617 1 0.3999999999989749 1 0.72724211050425436 0.39076805646176382 1 0.70565701452089868 0.1912596090858541 1 0.81599560342209843 0.22280203704001911 0.81599560342233202 0.85173693729199718 0.30007817960516198 1 1 0.39076805646076263 0.7272421105028648 1 0.1912596090855686 0.70565701451953711 0.81599560342209843 0.22280203704001911 0.81599560342233202 1 0.30007817960499339 0.85173693729139244 0.85173693729199718 0.30007817960516198 1 1 0.30007817960499339 0.85173693729139244 1 0.48813836695007229 0.84191918937727617 0.78019141325921404 0.49972466465542442 0.78019141325930785 1 0.39076805646076263 0.7272421105028648 1 0.30007817960499339 0.85173693729139244 1 0.48813836695007229 0.84191918937727617 0.78019141325921404 0.49972466465542442 0.78019141325930785 1 0.39076805646076263 0.7272421105028648 1 0.48813836695007229 0.84191918937727617 0.78019141325921404 0.49972466465542442 0.78019141325930785 1 0.53045230059030524 0.6732050807565132 0.72724211050425436 0.39076805646176382 1 0.78019141325921404 0.49972466465542442 0.78019141325930785 0.84191918937756771 0.48813836695034618 1 0.67320508075671459 0.53045230059073867 1 0.72724211050425436 0.39076805646176382 1 0.85173693729199718 0.30007817960516198 1 0.78019141325921404 0.49972466465542442 0.78019141325930785 0.84191918937756771 0.48813836695034618 1 0.85173693729199718 0.30007817960516198 1 1 0.48813836695007229 0.84191918937727617 0.78019141325921404 0.49972466465542442 0.78019141325930785 0.84191918937756771 0.48813836695034618 1 1 0.48813836695007229 0.84191918937727617 0.84191918937756771 0.48813836695034618 1 1 0.3999999999989749 1 1 0.59999999999894682 1 0.85173693729199718 0.30007817960516198 1 1 0.48813836695007229 0.84191918937727617 0.84191918937756771 0.48813836695034618 1 1 0.3999999999989749 1 0.78019141325921404 0.49972466465542442 0.78019141325930785 0.80839867011861499 0.68192028468377774 1 0.77683220420328725 0.81278569633583353 0.81664766512111064 0.68649174659499257 0.68600703198516766 0.6864917465949647 0.78019141325921404 0.49972466465542442 0.78019141325930785 0.80839867011861499 0.68192028468377774 1 1 0.68192028468364885 0.80839867011854549 0.77683220420328725 0.81278569633583353 0.81664766512111064 1 0.48813836695007229 0.84191918937727617 0.84191918937756771 0.48813836695034618 1 1 0.59999999999894682 1 1 0.68192028468364885 0.80839867011854549 0.78019141325921404 0.49972466465542442 0.78019141325930785 1 0.68192028468364885 0.80839867011854549 0.77683220420328725 0.81278569633583353 0.81664766512111064 0.68649174659499257 0.68600703198516766 0.6864917465949647 0.84191918937756771 0.48813836695034618 1 1 0.59999999999894682 1 0.80839867011861499 0.68192028468377774 1 1 0.68192028468364885 0.80839867011854549 1 0.59999999999894682 1 0.80839867011861499 0.68192028468377774 1 1 0.68192028468364885 0.80839867011854549 1 0.79999999999947335 1 0.78019141325921404 0.49972466465542442 0.78019141325930785 0.84191918937756771 0.48813836695034618 1 0.80839867011861499 0.68192028468377774 1 0.67320508075671459 0.53045230059073867 1 0.78019141325921404 0.49972466465542442 0.78019141325930785 0.84191918937756771 0.48813836695034618 1 0.80839867011861499 0.68192028468377774 1 1 0.68192028468364885 0.80839867011854549 1 0.48813836695007229 0.84191918937727617 0.78019141325921404 0.49972466465542442 0.78019141325930785 1 0.68192028468364885 0.80839867011854549 1 0.53045230059030524 0.6732050807565132 1 0.48813836695007229 0.84191918937727617 0.78019141325921404 0.49972466465542442 0.78019141325930785 0.84191918937756771 0.48813836695034618 1 1 0.68192028468364885 0.80839867011854549 0.7504488434426726 0.53051757989633308 0.49836643074154852 0.78019141325921404 0.49972466465542442 0.78019141325930785 1 0.53045230059030524 0.6732050807565132 1 0.67939035495490308 0.61016512164639347 0.77374673111774417 0.78860835645735528 0.49829081152968557 0.7504488434426726 0.53051757989633308 0.49836643074154852 1 0.67939035495490308 0.61016512164639347 0.68649174659499257 0.68600703198516766 0.6864917465949647 0.77374673111774417 0.78860835645735528 0.49829081152968557 1 0.67939035495490308 0.61016512164639347 1 0.83791821520125753 0.69361520514217179 0.68649174659499257 0.68600703198516766 0.6864917465949647 1 0.68192028468364885 0.80839867011854549 1 0.67939035495490308 0.61016512164639347 0.77683220420328725 0.81278569633583353 0.81664766512111064 0.68649174659499257 0.68600703198516766 0.6864917465949647 0.77374673111774417 0.78860835645735528 0.49829081152968557 1 0.68975022421527898 0.45812322962078778 0.7504488434426726 0.53051757989633308 0.49836643074154852 1 0.67939035495490308 0.61016512164639347 0.7504488434426726 0.53051757989633308 0.49836643074154852 0.78019141325921404 0.49972466465542442 0.78019141325930785 1 0.67939035495490308 0.61016512164639347 0.68649174659499257 0.68600703198516766 0.6864917465949647 0.78019141325921404 0.49972466465542442 0.78019141325930785 1 0.68192028468364885 0.80839867011854549 1 0.67939035495490308 0.61016512164639347 0.68649174659499257 0.68600703198516766 0.6864917465949647 0.78019141325921404 0.49972466465542442 0.78019141325930785 1 0.68192028468364885 0.80839867011854549 1 0.53045230059030524 0.6732050807565132 1 0.67939035495490308 0.61016512164639347 0.7504488434426726 0.53051757989633308 0.49836643074154852 1 0.53045230059030524 0.6732050807565132 1 0.50000000000229983 0.51961524226898759 1 0.67939035495490308 0.61016512164639347 1 0.68975022421527898 0.45812322962078778 0.7504488434426726 0.53051757989633308 0.49836643074154852 1 0.50000000000229983 0.51961524226898759 1 0.67939035495490308 0.61016512164639347 0.77374673111774417 0.78860835645735528 0.49829081152968557 1 0.68975022421527898 0.45812322962078778 1 0.67939035495490308 0.61016512164639347 1 0.83630110503662825 0.50803330197135588 0.77374673111774417 0.78860835645735528 0.49829081152968557 1 0.83791821520125753 0.69361520514217179 0.77683220420328725 0.81278569633583353 0.81664766512111064 0.68649174659499257 0.68600703198516766 0.6864917465949647 0.77374673111774417 0.78860835645735528 0.49829081152968557 0.81346205468287114 1 0.68420958956387889 0.77683220420328725 0.81278569633583353 0.81664766512111064 0.68649174659499257 0.68600703198516766 0.6864917465949647 1 0.67939035495490308 0.61016512164639347 1 0.83791821520125753 0.69361520514217179 0.77683220420328725 0.81278569633583353 0.81664766512111064 0.68649174659499257 0.68600703198516766 0.6864917465949647 1 0.68192028468364885 0.80839867011854549 1 0.67939035495490308 0.61016512164639347 1 0.83791821520125753 0.69361520514217179 0.77683220420328725 0.81278569633583353 0.81664766512111064 0.77374673111774417 0.78860835645735528 0.49829081152968557 1 0.83791821520125753 0.69361520514217179 0.81346205468287114 1 0.68420958956387889 0.77683220420328725 0.81278569633583353 0.81664766512111064 0.77374673111774417 0.78860835645735528 0.49829081152968557 1 0.67939035495490308 0.61016512164639347 1 0.83791821520125753 0.69361520514217179 1 0.83630110503662825 0.50803330197135588 0.77374673111774417 0.78860835645735528 0.49829081152968557 1 0.83791821520125753 0.69361520514217179 1 0.83630110503662825 0.50803330197135588 0.86762395692956074 1 0.5060815484123421 1 0.83791821520125753 0.69361520514217179 1 0.83630110503662825 0.50803330197135588 1 1 0.59999999999894682 0.86762395692956074 1 0.5060815484123421 1 1 0.3999999999989749 1 0.83630110503662825 0.50803330197135588 1 1 0.59999999999894682 0.86762395692956074 1 0.5060815484123421 1 0.83791821520125753 0.69361520514217179 1 1 0.59999999999894682 0.86762395692956074 1 0.5060815484123421 0.81346205468287114 1 0.68420958956387889 0.77374673111774417 0.78860835645735528 0.49829081152968557 0.86762395692956074 1 0.5060815484123421 0.81346205468287114 1 0.68420958956387889 0.68240285647621723 1 0.52310058211166854 0.77374673111774417 0.78860835645735528 0.49829081152968557 1 0.83791821520125753 0.69361520514217179 0.86762395692956074 1 0.5060815484123421 0.81346205468287114 1 0.68420958956387889 1 0.83791821520125753 0.69361520514217179 1 1 0.59999999999894682 0.81346205468287114 1 0.68420958956387889 1 1 0.79999999999947335 1 0.83791821520125753 0.69361520514217179 0.81346205468287114 1 0.68420958956387889 1 1 0.79999999999947335 0.85358983848569092 1 0.85358983848569092 1 0.83791821520125753 0.69361520514217179 1 0.85358983848587056 0.85358983848587056 0.77683220420328725 0.81278569633583353 0.81664766512111064 0.85358983848569092 1 0.85358983848569092 1 0.83791821520125753 0.69361520514217179 1 1 0.79999999999947335 1 0.85358983848587056 0.85358983848587056 0.85358983848569092 1 0.85358983848569092 1 1 1 1 0.79999999999947335 1 1 0.85358983848587056 0.85358983848587056 0.85358983848587056 0.85358983848587056 1 1 1 1 0.85358983848587056 0.85358983848587056 1 0.79999999999947335 1 1 0.85358983848569092 1 0.85358983848569092 1 1 0.79999999999947335 1 1 1 1 0.85358983848587056 0.85358983848587056 0.85358983848569092 1 0.85358983848569092 1 1 1 1 0.85358983848587056 0.85358983848587056 0.85358983848587056 0.85358983848587056 1 0.85358983848569092 1 0.85358983848569092 1 0.68192028468364885 0.80839867011854549 1 0.79999999999947335 1 1 0.85358983848587056 0.85358983848587056 0.85358983848587056 0.85358983848587056 1 0.80839867011861499 0.68192028468377774 1 1 0.68192028468364885 0.80839867011854549 1 0.79999999999947335 1 0.85358983848587056 0.85358983848587056 1 1 0.68192028468364885 0.80839867011854549 1 0.85358983848587056 0.85358983848587056 0.77683220420328725 0.81278569633583353 0.81664766512111064 0.85358983848587056 0.85358983848587056 1 1 0.68192028468364885 0.80839867011854549 1 0.83791821520125753 0.69361520514217179 1 0.85358983848587056 0.85358983848587056 0.77683220420328725 0.81278569633583353 0.81664766512111064 0.80839867011861499 0.68192028468377774 1 0.77683220420328725 0.81278569633583353 0.81664766512111064 0.85358983848587056 0.85358983848587056 1 0.69361520514218133 0.83791821520130205 1 0.80839867011861499 0.68192028468377774 1 1 0.68192028468364885 0.80839867011854549 0.77683220420328725 0.81278569633583353 0.81664766512111064 0.85358983848587056 0.85358983848587056 1 0.77683220420328725 0.81278569633583353 0.81664766512111064 0.85358983848587056 0.85358983848587056 1 0.79999999999947335 1 1 0.85358983848569092 1 0.85358983848569092 0.77683220420328725 0.81278569633583353 0.81664766512111064 0.79999999999947335 1 1 0.85358983848569092 1 0.85358983848569092 0.69981550660938663 1 0.83057691269844081 0.77683220420328725 0.81278569633583353 0.81664766512111064 0.85358983848587056 0.85358983848587056 1 0.79999999999947335 1 1 0.69361520514218133 0.83791821520130205 1 1 0.85358983848587056 0.85358983848587056 0.77683220420328725 0.81278569633583353 0.81664766512111064 0.85358983848587056 0.85358983848587056 1 0.85358983848569092 1 0.85358983848569092 0.81346205468287114 1 0.68420958956387889 0.77683220420328725 0.81278569633583353 0.81664766512111064 0.85358983848569092 1 0.85358983848569092 0.69981550660938663 1 0.83057691269844081 1 0.83791821520125753 0.69361520514217179 0.81346205468287114 1 0.68420958956387889 0.77683220420328725 0.81278569633583353 0.81664766512111064 0.85358983848569092 1 0.85358983848569092 0.77683220420328725 0.81278569633583353 0.81664766512111064 0.69981550660938663 1 0.83057691269844081 0.69361520514218133 0.83791821520130205 1 0.49911199724958061 0.77872228561593948 0.77895350115271889 0.77683220420328725 0.81278569633583353 0.81664766512111064 0.69361520514218133 0.83791821520130205 1 0.61016512164652226 0.67939035495506384 1 0.49911199724958061 0.77872228561593948 0.77895350115271889 0.81346205468287114 1 0.68420958956387889 0.77683220420328725 0.81278569633583353 0.81664766512111064 0.69981550660938663 1 0.83057691269844081 0.6123333432449789 1 0.67837347745467769 0.77683220420328725 0.81278569633583353 0.81664766512111064 0.69981550660938663 1 0.83057691269844081 0.6123333432449789 1 0.67837347745467769 0.49911199724958061 0.77872228561593948 0.77895350115271889 0.77683220420328725 0.81278569633583353 0.81664766512111064 0.79999999999947335 1 1 0.69981550660938663 1 0.83057691269844081 0.69361520514218133 0.83791821520130205 1 0.69981550660938663 1 0.83057691269844081 0.69361520514218133 0.83791821520130205 1 0.59999999999894682 1 1 0.50970031073508926 1 0.83534964916803001 0.79999999999947335 1 1 0.69981550660938663 1 0.83057691269844081 0.69361520514218133 0.83791821520130205 1 0.59999999999894682 1 1 0.80839867011861499 0.68192028468377774 1 0.77683220420328725 0.81278569633583353 0.81664766512111064 0.69361520514218133 0.83791821520130205 1 0.61016512164652226 0.67939035495506384 1 0.69361520514218133 0.83791821520130205 1 0.50803330197137353 0.83630110503667787 1 0.61016512164652226 0.67939035495506384 1 0.49911199724958061 0.77872228561593948 0.77895350115271889 0.69361520514218133 0.83791821520130205 1 0.50803330197137353 0.83630110503667787 1 0.50970031073508926 1 0.83534964916803001 0.49911199724958061 0.77872228561593948 0.77895350115271889 0.50803330197137353 0.83630110503667787 1 0.59999999999894682 1 1 0.50970031073508926 1 0.83534964916803001 0.3999999999989749 1 1 0.69361520514218133 0.83791821520130205 1 0.50803330197137353 0.83630110503667787 1 0.59999999999894682 1 1 0.50970031073508926 1 0.83534964916803001 0.69981550660938663 1 0.83057691269844081 0.69361520514218133 0.83791821520130205 1 0.50970031073508926 1 0.83534964916803001 0.49911199724958061 0.77872228561593948 0.77895350115271889 0.69981550660938663 1 0.83057691269844081 0.50970031073508926 1 0.83534964916803001 0.6123333432449789 1 0.67837347745467769 0.49911199724958061 0.77872228561593948 0.77895350115271889 0.6123333432449789 1 0.67837347745467769 0.68649174659499257 0.68600703198516766 0.6864917465949647 0.49983993748706529 0.75039103705932653 0.52967335724801234 0.49911199724958061 0.77872228561593948 0.77895350115271889 0.77374673111774417 0.78860835645735528 0.49829081152968557 0.6123333432449789 1 0.67837347745467769 0.68240285647621723 1 0.52310058211166854 0.49983993748706529 0.75039103705932653 0.52967335724801234 0.6123333432449789 1 0.67837347745467769 0.49983993748706529 0.75039103705932653 0.52967335724801234 0.45820186441573879 1 0.68969697123405882 0.49911199724958061 0.77872228561593948 0.77895350115271889 0.50970031073508926 1 0.83534964916803001 0.6123333432449789 1 0.67837347745467769 0.45820186441573879 1 0.68969697123405882 0.49911199724958061 0.77872228561593948 0.77895350115271889 0.77374673111774417 0.78860835645735528 0.49829081152968557 0.6123333432449789 1 0.67837347745467769 0.68649174659499257 0.68600703198516766 0.6864917465949647 0.49983993748706529 0.75039103705932653 0.52967335724801234 0.81346205468287114 1 0.68420958956387889 0.77683220420328725 0.81278569633583353 0.81664766512111064 0.6123333432449789 1 0.67837347745467769 0.68649174659499257 0.68600703198516766 0.6864917465949647 0.77683220420328725 0.81278569633583353 0.81664766512111064 0.6123333432449789 1 0.67837347745467769 0.68649174659499257 0.68600703198516766 0.6864917465949647 0.49911199724958061 0.77872228561593948 0.77895350115271889 0.77374673111774417 0.78860835645735528 0.49829081152968557 0.81346205468287114 1 0.68420958956387889 0.6123333432449789 1 0.67837347745467769 0.68649174659499257 0.68600703198516766 0.6864917465949647 0.77374673111774417 0.78860835645735528 0.49829081152968557 0.81346205468287114 1 0.68420958956387889 0.6123333432449789 1 0.67837347745467769 0.68240285647621723 1 0.52310058211166854 0.51961524227008238 1 0.49999999999872219 0.6123333432449789 1 0.67837347745467769 0.49983993748706529 0.75039103705932653 0.52967335724801234 0.45820186441573879 1 0.68969697123405882 0.51961524227008238 1 0.49999999999872219 0.6123333432449789 1 0.67837347745467769 0.68240285647621723 1 0.52310058211166854 0.49983993748706529 0.75039103705932653 0.52967335724801234 0.68649174659499257 0.68600703198516766 0.6864917465949647 0.49816183246753282 0.5307146639261795 0.75045686993209071 0.49983993748706529 0.75039103705932653 0.52967335724801234 0.49911199724958061 0.77872228561593948 0.77895350115271889 0.7504488434426726 0.53051757989633308 0.49836643074154852 0.50000000000001332 0.49999999999999561 0.49999999999999561 0.68649174659499257 0.68600703198516766 0.6864917465949647 0.49816183246753282 0.5307146639261795 0.75045686993209071 0.7504488434426726 0.53051757989633308 0.49836643074154852 0.78019141325921404 0.49972466465542442 0.78019141325930785 0.68649174659499257 0.68600703198516766 0.6864917465949647 0.49816183246753282 0.5307146639261795 0.75045686993209071 0.7504488434426726 0.53051757989633308 0.49836643074154852 0.50000000000001332 0.49999999999999561 0.49999999999999561 0.68649174659499257 0.68600703198516766 0.6864917465949647 0.49983993748706529 0.75039103705932653 0.52967335724801234 0.77374673111774417 0.78860835645735528 0.49829081152968557 0.7504488434426726 0.53051757989633308 0.49836643074154852 0.68649174659499257 0.68600703198516766 0.6864917465949647 0.49983993748706529 0.75039103705932653 0.52967335724801234 0.50000000000001332 0.49999999999999561 0.49999999999999561 0.68649174659499257 0.68600703198516766 0.6864917465949647 0.49816183246753282 0.5307146639261795 0.75045686993209071 0.49983993748706529 0.75039103705932653 0.52967335724801234 0.78019141325921404 0.49972466465542442 0.78019141325930785 0.67320508075671459 0.53045230059073867 1 0.61016512164652226 0.67939035495506384 1 0.49816183246753282 0.5307146639261795 0.75045686993209071 0.78019141325921404 0.49972466465542442 0.78019141325930785 0.68649174659499257 0.68600703198516766 0.6864917465949647 0.61016512164652226 0.67939035495506384 1 0.49816183246753282 0.5307146639261795 0.75045686993209071 0.78019141325921404 0.49972466465542442 0.78019141325930785 0.80839867011861499 0.68192028468377774 1 0.68649174659499257 0.68600703198516766 0.6864917465949647 0.61016512164652226 0.67939035495506384 1 0.77683220420328725 0.81278569633583353 0.81664766512111064 0.68649174659499257 0.68600703198516766 0.6864917465949647 0.61016512164652226 0.67939035495506384 1 0.49911199724958061 0.77872228561593948 0.77895350115271889 0.68649174659499257 0.68600703198516766 0.6864917465949647 0.61016512164652226 0.67939035495506384 1 0.49816183246753282 0.5307146639261795 0.75045686993209071 0.49911199724958061 0.77872228561593948 0.77895350115271889 0.80839867011861499 0.68192028468377774 1 0.77683220420328725 0.81278569633583353 0.81664766512111064 0.68649174659499257 0.68600703198516766 0.6864917465949647 0.61016512164652226 0.67939035495506384 1 0.78019141325921404 0.49972466465542442 0.78019141325930785 0.80839867011861499 0.68192028468377774 1 0.67320508075671459 0.53045230059073867 1 0.61016512164652226 0.67939035495506384 1 0.61016512164652226 0.67939035495506384 1 0.45812322962090041 0.68975022421538157 1 0.49816183246753282 0.5307146639261795 0.75045686993209071 0.49911199724958061 0.77872228561593948 0.77895350115271889 0.50803330197137353 0.83630110503667787 1 0.61016512164652226 0.67939035495506384 1 0.45812322962090041 0.68975022421538157 1 0.49911199724958061 0.77872228561593948 0.77895350115271889 0.61016512164652226 0.67939035495506384 1 0.51961524226934941 0.50000000000250611 1 0.45812322962090041 0.68975022421538157 1 0.49816183246753282 0.5307146639261795 0.75045686993209071 0.67320508075671459 0.53045230059073867 1 0.61016512164652226 0.67939035495506384 1 0.51961524226934941 0.50000000000250611 1 0.49816183246753282 0.5307146639261795 0.75045686993209071 0.32446581821293602 0.60020898676440626 1 0.3115891413135391 0.68758981780459771 0.68521708032990558 0.18453958615733529 0.77655623474864555 0.81613222483915937 0.2184393375098648 0.50004596894495223 0.77634962490704662 0.51961524226934941 0.50000000000250611 1 0.32446581821293602 0.60020898676440626 1 0.49816183246753282 0.5307146639261795 0.75045686993209071 0.32925244736146098 0.39615100178034629 1 0.45812322962090041 0.68975022421538157 1 0.3115891413135391 0.68758981780459771 0.68521708032990558 0.49911199724958061 0.77872228561593948 0.77895350115271889 0.31067093462947892 0.81480288849497895 1 0.32446581821293602 0.60020898676440626 1 0.49816183246753282 0.5307146639261795 0.75045686993209071 0.2184393375098648 0.50004596894495223 0.77634962490704662 0.32925244736146098 0.39615100178034629 1 0.45812322962090041 0.68975022421538157 1 0.49816183246753282 0.5307146639261795 0.75045686993209071 0.3115891413135391 0.68758981780459771 0.68521708032990558 0.49911199724958061 0.77872228561593948 0.77895350115271889 0.32446581821293602 0.60020898676440626 1 0.49816183246753282 0.5307146639261795 0.75045686993209071 0.3115891413135391 0.68758981780459771 0.68521708032990558 0.2184393375098648 0.50004596894495223 0.77634962490704662 0.51961524226934941 0.50000000000250611 1 0.45812322962090041 0.68975022421538157 1 0.32446581821293602 0.60020898676440626 1 0.49816183246753282 0.5307146639261795 0.75045686993209071 0.45812322962090041 0.68975022421538157 1 0.32446581821293602 0.60020898676440626 1 0.3115891413135391 0.68758981780459771 0.68521708032990558 0.31067093462947892 0.81480288849497895 1 0.45812322962090041 0.68975022421538157 1 0.32446581821293602 0.60020898676440626 1 0.49816183246753282 0.5307146639261795 0.75045686993209071 0.3115891413135391 0.68758981780459771 0.68521708032990558 0.32446581821293602 0.60020898676440626 1 0.3115891413135391 0.68758981780459771 0.68521708032990558 0.31067093462947892 0.81480288849497895 1 0.18453958615733529 0.77655623474864555 0.81613222483915937 0.24769234054476261 0.52242103280823293 0.45098450226372488 0.50000000000001332 0.49999999999999561 0.49999999999999561 0.3115891413135391 0.68758981780459771 0.68521708032990558 0.49983993748706529 0.75039103705932653 0.52967335724801234 0.50000000000001332 0.49999999999999561 0.49999999999999561 0.49816183246753282 0.5307146639261795 0.75045686993209071 0.3115891413135391 0.68758981780459771 0.68521708032990558 0.49983993748706529 0.75039103705932653 0.52967335724801234 0.24769234054476261 0.52242103280823293 0.45098450226372488 0.22516916914780419 0.77057994845201627 0.48187244075707292 0.3115891413135391 0.68758981780459771 0.68521708032990558 0.49983993748706529 0.75039103705932653 0.52967335724801234 0.24769234054476261 0.52242103280823293 0.45098450226372488 0.50000000000001332 0.49999999999999561 0.49999999999999561 0.3115891413135391 0.68758981780459771 0.68521708032990558 0.2184393375098648 0.50004596894495223 0.77634962490704662 0.50000000000001332 0.49999999999999561 0.49999999999999561 0.49816183246753282 0.5307146639261795 0.75045686993209071 0.3115891413135391 0.68758981780459771 0.68521708032990558 0.2184393375098648 0.50004596894495223 0.77634962490704662 0.49816183246753282 0.5307146639261795 0.75045686993209071 0.3115891413135391 0.68758981780459771 0.68521708032990558 0.49983993748706529 0.75039103705932653 0.52967335724801234 0.49911199724958061 0.77872228561593948 0.77895350115271889 0.3115891413135391 0.68758981780459771 0.68521708032990558 0.49983993748706529 0.75039103705932653 0.52967335724801234 0.32448110831226962 1 0.6002015905153204 0.45820186441573879 1 0.68969697123405882 0.3115891413135391 0.68758981780459771 0.68521708032990558 0.32448110831226962 1 0.6002015905153204 0.45820186441573879 1 0.68969697123405882 0.31085062173747541 1 0.81469961246428202 0.3115891413135391 0.68758981780459771 0.68521708032990558 0.49983993748706529 0.75039103705932653 0.52967335724801234 0.45820186441573879 1 0.68969697123405882 0.49911199724958061 0.77872228561593948 0.77895350115271889 0.3115891413135391 0.68758981780459771 0.68521708032990558 0.32448110831226962 1 0.6002015905153204 0.31085062173747541 1 0.81469961246428202 0.18453958615733529 0.77655623474864555 0.81613222483915937 0.22516916914780419 0.77057994845201627 0.48187244075707292 0.3115891413135391 0.68758981780459771 0.68521708032990558 0.49983993748706529 0.75039103705932653 0.52967335724801234 0.32448110831226962 1 0.6002015905153204 0.3115891413135391 0.68758981780459771 0.68521708032990558 0.45820186441573879 1 0.68969697123405882 0.49911199724958061 0.77872228561593948 0.77895350115271889 0.31085062173747541 1 0.81469961246428202 0.22516916914780419 0.77057994845201627 0.48187244075707292 0.32926555316115258 1 0.39615987727515128 0.49983993748706529 0.75039103705932653 0.52967335724801234 0.32448110831226962 1 0.6002015905153204 0.22516916914780419 0.77057994845201627 0.48187244075707292 0.3115891413135391 0.68758981780459771 0.68521708032990558 0.32448110831226962 1 0.6002015905153204 0.15900053892265181 1 0.69447607299016312 0.32926555316115258 1 0.39615987727515128 0.51961524227008238 1 0.49999999999872219 0.49983993748706529 0.75039103705932653 0.52967335724801234 0.32448110831226962 1 0.6002015905153204 0.51961524227008238 1 0.49999999999872219 0.49983993748706529 0.75039103705932653 0.52967335724801234 0.32448110831226962 1 0.6002015905153204 0.45820186441573879 1 0.68969697123405882 0.50970031073508926 1 0.83534964916803001 0.45820186441573879 1 0.68969697123405882 0.49911199724958061 0.77872228561593948 0.77895350115271889 0.31085062173747541 1 0.81469961246428202 0.49911199724958061 0.77872228561593948 0.77895350115271889 0.31067093462947892 0.81480288849497895 1 0.31085062173747541 1 0.81469961246428202 0.18453958615733529 0.77655623474864555 0.81613222483915937 0.3115891413135391 0.68758981780459771 0.68521708032990558 0.49911199724958061 0.77872228561593948 0.77895350115271889 0.31085062173747541 1 0.81469961246428202 0.18453958615733529 0.77655623474864555 0.81613222483915937 0.50803330197137353 0.83630110503667787 1 0.50970031073508926 1 0.83534964916803001 0.49911199724958061 0.77872228561593948 0.77895350115271889 0.31085062173747541 1 0.81469961246428202 0.3115891413135391 0.68758981780459771 0.68521708032990558 0.49911199724958061 0.77872228561593948 0.77895350115271889 0.31067093462947892 0.81480288849497895 1 0.18453958615733529 0.77655623474864555 0.81613222483915937 0.50803330197137353 0.83630110503667787 1 0.50970031073508926 1 0.83534964916803001 0.3999999999989749 1 1 0.31085062173747541 1 0.81469961246428202 0.50803330197137353 0.83630110503667787 1 0.3999999999989749 1 1 0.31067093462947892 0.81480288849497895 1 0.31085062173747541 1 0.81469961246428202 0.50803330197137353 0.83630110503667787 1 0.49911199724958061 0.77872228561593948 0.77895350115271889 0.31067093462947892 0.81480288849497895 1 0.31085062173747541 1 0.81469961246428202 0.50803330197137353 0.83630110503667787 1 0.45812322962090041 0.68975022421538157 1 0.49911199724958061 0.77872228561593948 0.77895350115271889 0.31067093462947892 0.81480288849497895 1 0.3999999999989749 1 1 0.31067093462947892 0.81480288849497895 1 0.31085062173747541 1 0.81469961246428202 0.19999999999955789 1 1 0.31085062173747541 1 0.81469961246428202 0.1464101615132356 1 0.85358983848650494 0.18453958615733529 0.77655623474864555 0.81613222483915937 0.15900053892265181 1 0.69447607299016312 0.31067093462947892 0.81480288849497895 1 0.31085062173747541 1 0.81469961246428202 0.1464101615132356 1 0.85358983848650494 0.18453958615733529 0.77655623474864555 0.81613222483915937 0.31067093462947892 0.81480288849497895 1 0.31085062173747541 1 0.81469961246428202 0.1464101615132356 1 0.85358983848650494 0.19999999999955789 1 1 0.31067093462947892 0.81480288849497895 1 0.1464101615132356 1 0.85358983848650494 0.19999999999955789 1 1 0.14641016151332509 0.85358983848655678 1 0.31067093462947892 0.81480288849497895 1 0.14641016151332509 0.85358983848655678 1 0.18453958615733529 0.77655623474864555 0.81613222483915937 0.15896804272141651 0.69449451837104537 1 0.31067093462947892 0.81480288849497895 1 0.1464101615132356 1 0.85358983848650494 0.14641016151332509 0.85358983848655678 1 0.18453958615733529 0.77655623474864555 0.81613222483915937 0.18453958615733529 0.77655623474864555 0.81613222483915937 0 0.85358983848682146 0.85358983848668035 0 0.80860557108920617 0.70542349973054763 0 0.69992182039579531 0.85173693729137989 0.18453958615733529 0.77655623474864555 0.81613222483915937 0 0.85358983848682146 0.85358983848668035 0.15900053892265181 1 0.69447607299016312 0 0.80860557108920617 0.70542349973054763 0.14641016151332509 0.85358983848655678 1 0.18453958615733529 0.77655623474864555 0.81613222483915937 0 0.79999999999999982 1 0.15896804272141651 0.69449451837104537 1 0.1464101615132356 1 0.85358983848650494 0.14641016151332509 0.85358983848655678 1 0.18453958615733529 0.77655623474864555 0.81613222483915937 0 0.85358983848682146 0.85358983848668035 0.18453958615733529 0.77655623474864555 0.81613222483915937 0 0.85358983848682146 0.85358983848668035 0 0.79999999999999982 1 0 0.69992182039579531 0.85173693729137989 0.14641016151332509 0.85358983848655678 1 0.18453958615733529 0.77655623474864555 0.81613222483915937 0 0.85358983848682146 0.85358983848668035 0 0.79999999999999982 1 0.14641016151332509 0.85358983848655678 1 0 0.85358983848682146 0.85358983848668035 0 0.79999999999999982 1 0 1 1 0.1464101615132356 1 0.85358983848650494 0.14641016151332509 0.85358983848655678 1 0 0.85358983848682146 0.85358983848668035 0 1 1 0.1464101615132356 1 0.85358983848650494 0.19999999999955789 1 1 0.14641016151332509 0.85358983848655678 1 0 1 1 0.1464101615132356 1 0.85358983848650494 0 0.85358983848682146 0.85358983848668035 0 1 1 0 1 0.79999999999947335 0.1464101615132356 1 0.85358983848650494 0.18453958615733529 0.77655623474864555 0.81613222483915937 0 0.85358983848682146 0.85358983848668035 0.15900053892265181 1 0.69447607299016312 0 0.85358983848682146 0.85358983848668035 0 1 0.79999999999947335 0.15900053892265181 1 0.69447607299016312 0 0.80860557108920617 0.70542349973054763 0.1464101615132356 1 0.85358983848650494 0 0.85358983848682146 0.85358983848668035 0 1 0.79999999999947335 0.15900053892265181 1 0.69447607299016312 0 1 0.79999999999947335 0.15900053892265181 1 0.69447607299016312 0 1 0.59999999999894682 0 0.80860557108920617 0.70542349973054763 0.22516916914780419 0.77057994845201627 0.48187244075707292 0.3115891413135391 0.68758981780459771 0.68521708032990558 0.18453958615733529 0.77655623474864555 0.81613222483915937 0 0.80860557108920617 0.70542349973054763 0.15900053892265181 1 0.69447607299016312 0 1 0.59999999999894682 0 0.83630110503664845 0.50803330197135654 0 0.80860557108920617 0.70542349973054763 0.3115891413135391 0.68758981780459771 0.68521708032990558 0.32448110831226962 1 0.6002015905153204 0.18453958615733529 0.77655623474864555 0.81613222483915937 0.15900053892265181 1 0.69447607299016312 0.22516916914780419 0.77057994845201627 0.48187244075707292 0.3115891413135391 0.68758981780459771 0.68521708032990558 0.18453958615733529 0.77655623474864555 0.81613222483915937 0.15900053892265181 1 0.69447607299016312 0.22516916914780419 0.77057994845201627 0.48187244075707292 0.18453958615733529 0.77655623474864555 0.81613222483915937 0.15900053892265181 1 0.69447607299016312 0 0.80860557108920617 0.70542349973054763 0.32448110831226962 1 0.6002015905153204 0.31085062173747541 1 0.81469961246428202 0.18453958615733529 0.77655623474864555 0.81613222483915937 0.15900053892265181 1 0.69447607299016312 0.22516916914780419 0.77057994845201627 0.48187244075707292 0.17226134197293 1 0.49836539647645101 0.32448110831226962 1 0.6002015905153204 0.15900053892265181 1 0.69447607299016312 0.22516916914780419 0.77057994845201627 0.48187244075707292 0.17226134197293 1 0.49836539647645101 0.15900053892265181 1 0.69447607299016312 0 0.83630110503664845 0.50803330197135654 0 1 0.3999999999989749 0.17226134197293 1 0.49836539647645101 0 1 0.59999999999894682 0 0.83630110503664845 0.50803330197135654 0.17226134197293 1 0.49836539647645101 0.15900053892265181 1 0.69447607299016312 0 1 0.59999999999894682 0 0.83630110503664845 0.50803330197135654 0.22516916914780419 0.77057994845201627 0.48187244075707292 0.15900053892265181 1 0.69447607299016312 0 0.83630110503664845 0.50803330197135654 0 0.80860557108920617 0.70542349973054763 0.22516916914780419 0.77057994845201627 0.48187244075707292 0 0.83630110503664845 0.50803330197135654 0 0.80860557108920617 0.70542349973054763 0 0.66416205381430016 0.59944234540882957 0.22516916914780419 0.77057994845201627 0.48187244075707292 0.3115891413135391 0.68758981780459771 0.68521708032990558 0 0.80860557108920617 0.70542349973054763 0 0.66416205381430016 0.59944234540882957 0.3115891413135391 0.68758981780459771 0.68521708032990558 0.18453958615733529 0.77655623474864555 0.81613222483915937 0 0.80860557108920617 0.70542349973054763 0 0.66416205381430016 0.59944234540882957 0.18453958615733529 0.77655623474864555 0.81613222483915937 0 0.80860557108920617 0.70542349973054763 0 0.66416205381430016 0.59944234540882957 0 0.60922248848335758 0.72722573386012812 0.24769234054476261 0.52242103280823293 0.45098450226372488 0.3115891413135391 0.68758981780459771 0.68521708032990558 0 0.66416205381430016 0.59944234540882957 0.2184393375098648 0.50004596894495223 0.77634962490704662 0.3115891413135391 0.68758981780459771 0.68521708032990558 0.18453958615733529 0.77655623474864555 0.81613222483915937 0 0.66416205381430016 0.59944234540882957 0 0.60922248848335758 0.72722573386012812 0 0.66416205381430016 0.59944234540882957 0 0.50000000000237477 0.51961524226909872 0.2184393375098648 0.50004596894495223 0.77634962490704662 0 0.46954769941369501 0.67320508075638175 0.3115891413135391 0.68758981780459771 0.68521708032990558 0 0.66416205381430016 0.59944234540882957 0 0.60922248848335758 0.72722573386012812 0.2184393375098648 0.50004596894495223 0.77634962490704662 0.24769234054476261 0.52242103280823293 0.45098450226372488 0.22516916914780419 0.77057994845201627 0.48187244075707292 0.3115891413135391 0.68758981780459771 0.68521708032990558 0 0.66416205381430016 0.59944234540882957 0.24769234054476261 0.52242103280823293 0.45098450226372488 0 0.66416205381430016 0.59944234540882957 0 0.50000000000237477 0.51961524226909872 0.2184393375098648 0.50004596894495223 0.77634962490704662 0 0.68801781652248195 0.45664527743358641 0.22516916914780419 0.77057994845201627 0.48187244075707292 0 0.83630110503664845 0.50803330197135654 0 0.66416205381430016 0.59944234540882957 0.24769234054476261 0.52242103280823293 0.45098450226372488 0 0.68801781652248195 0.45664527743358641 0 0.66416205381430016 0.59944234540882957 0 0.50000000000237477 0.51961524226909872 0 0.66416205381430016 0.59944234540882957 0 0.60922248848335758 0.72722573386012812 0.2184393375098648 0.50004596894495223 0.77634962490704662 0 0.46954769941369501 0.67320508075638175 0 0.5118616330515301 0.84191918937737908 0 0.69992182039579531 0.85173693729137989 0.2184393375098648 0.50004596894495223 0.77634962490704662 0.15896804272141651 0.69449451837104537 1 0.3115891413135391 0.68758981780459771 0.68521708032990558 0.18453958615733529 0.77655623474864555 0.81613222483915937 0 0.60922248848335758 0.72722573386012812 0.2184393375098648 0.50004596894495223 0.77634962490704662 0.18453958615733529 0.77655623474864555 0.81613222483915937 0 0.69992182039579531 0.85173693729137989 0.2184393375098648 0.50004596894495223 0.77634962490704662 0.15896804272141651 0.69449451837104537 1 0 0.60922248848335758 0.72722573386012812 0 0.5118616330515301 0.84191918937737908 0.2184393375098648 0.50004596894495223 0.77634962490704662 0 0.46954769941369501 0.67320508075638175 0 0.60922248848335758 0.72722573386012812 0 0.5118616330515301 0.84191918937737908 0 0.69992182039579531 0.85173693729137989 0.2184393375098648 0.50004596894495223 0.77634962490704662 0.32446581821293602 0.60020898676440626 1 0.18453958615733529 0.77655623474864555 0.81613222483915937 0.2184393375098648 0.50004596894495223 0.77634962490704662 0.15896804272141651 0.69449451837104537 1 0.18453958615733529 0.77655623474864555 0.81613222483915937 0 0.60922248848335758 0.72722573386012812 0 0.69992182039579531 0.85173693729137989 0.2184393375098648 0.50004596894495223 0.77634962490704662 0.18453958615733529 0.77655623474864555 0.81613222483915937 0 0.80860557108920617 0.70542349973054763 0 0.60922248848335758 0.72722573386012812 0 0.69992182039579531 0.85173693729137989 0.32446581821293602 0.60020898676440626 1 0.2184393375098648 0.50004596894495223 0.77634962490704662 0.15896804272141651 0.69449451837104537 1 0.17226134197275911 0.49836539647894412 1 0 0.5118616330515301 0.84191918937737908 0.2184393375098648 0.50004596894495223 0.77634962490704662 0.15896804272141651 0.69449451837104537 1 0.17226134197275911 0.49836539647894412 1 0.32446581821293602 0.60020898676440626 1 0.31067093462947892 0.81480288849497895 1 0.18453958615733529 0.77655623474864555 0.81613222483915937 0.15896804272141651 0.69449451837104537 1 0.18453958615733529 0.77655623474864555 0.81613222483915937 0 0.79999999999999982 1 0 0.69992182039579531 0.85173693729137989 0.15896804272141651 0.69449451837104537 1 0 0.5118616330515301 0.84191918937737908 0 0.69992182039579531 0.85173693729137989 0.15896804272141651 0.69449451837104537 1 0 0.60000000000138687 1 0 0.79999999999999982 1 0 0.69992182039579531 0.85173693729137989 0.15896804272141651 0.69449451837104537 1 0 0.60000000000138687 1 0 0.5118616330515301 0.84191918937737908 0.15896804272141651 0.69449451837104537 1 0 0.60000000000138687 1 0.17226134197275911 0.49836539647894412 1 0 0.5118616330515301 0.84191918937737908 0 0.60000000000138687 1 0 0.40000000000166441 1 0.17226134197275911 0.49836539647894412 1 0 0.5118616330515301 0.84191918937737908 0 0.40000000000166441 1 0 0.31807971531776508 0.80839867011913336 0.17226134197275911 0.49836539647894412 1 0 0.40000000000166441 1 0 0.31807971531776508 0.80839867011913336 0.16929708765653109 0.30074819035870082 1 0.17226134197275911 0.49836539647894412 1 0 0.31807971531776508 0.80839867011913336 0.16929708765653109 0.30074819035870082 1 0.31426750628021272 0.31270343261798911 0.68761148188185484 0 0.14641016151490169 0.85358983848532144 0.2184393375098648 0.50004596894495223 0.77634962490704662 0 0.31807971531776508 0.80839867011913336 0.16929708765653109 0.30074819035870082 1 0.31426750628021272 0.31270343261798911 0.68761148188185484 0 0.5118616330515301 0.84191918937737908 0.2184393375098648 0.50004596894495223 0.77634962490704662 0 0.31807971531776508 0.80839867011913336 0 0.46954769941369501 0.67320508075638175 0 0.5118616330515301 0.84191918937737908 0.2184393375098648 0.50004596894495223 0.77634962490704662 0 0.31807971531776508 0.80839867011913336 0.17226134197275911 0.49836539647894412 1 0 0.40000000000166441 1 0 0.31807971531776508 0.80839867011913336 0.16929708765653109 0.30074819035870082 1 0 0.20000000000083221 1 0.2184393375098648 0.50004596894495223 0.77634962490704662 0.16929708765653109 0.30074819035870082 1 0.17226134197275911 0.49836539647894412 1 0.32925244736146098 0.39615100178034629 1 0.2184393375098648 0.50004596894495223 0.77634962490704662 0 0.31807971531776508 0.80839867011913336 0.16929708765653109 0.30074819035870082 1 0.17226134197275911 0.49836539647894412 1 0.16929708765653109 0.30074819035870082 1 0.32925244736146098 0.39615100178034629 1 0.31426750628021272 0.31270343261798911 0.68761148188185484 0.31610726166461628 0.1880448979455934 1 0.32446581821293602 0.60020898676440626 1 0.2184393375098648 0.50004596894495223 0.77634962490704662 0.17226134197275911 0.49836539647894412 1 0.32925244736146098 0.39615100178034629 1 0.50084626324420545 0.22238844715913 0.78084811589659187 0.49816183246753282 0.5307146639261795 0.75045686993209071 0.45812322962173568 0.31024977578554058 1 0.31426750628021272 0.31270343261798911 0.68761148188185484 0.49816183246753282 0.5307146639261795 0.75045686993209071 0.2184393375098648 0.50004596894495223 0.77634962490704662 0.32925244736146098 0.39615100178034629 1 0.31426750628021272 0.31270343261798911 0.68761148188185484 0.32925244736146098 0.39615100178034629 1 0.45812322962173568 0.31024977578554058 1 0.31426750628021272 0.31270343261798911 0.68761148188185484 0.31610726166461628 0.1880448979455934 1 0.50084626324420545 0.22238844715913 0.78084811589659187 0.45812322962173568 0.31024977578554058 1 0.31426750628021272 0.31270343261798911 0.68761148188185484 0.31610726166461628 0.1880448979455934 1 0.49816183246753282 0.5307146639261795 0.75045686993209071 0.32925244736146098 0.39615100178034629 1 0.45812322962173568 0.31024977578554058 1 0.31426750628021272 0.31270343261798911 0.68761148188185484 0.2184393375098648 0.50004596894495223 0.77634962490704662 0.16929708765653109 0.30074819035870082 1 0.32925244736146098 0.39615100178034629 1 0.31426750628021272 0.31270343261798911 0.68761148188185484 0.51961524226934941 0.50000000000250611 1 0.49816183246753282 0.5307146639261795 0.75045686993209071 0.32925244736146098 0.39615100178034629 1 0.45812322962173568 0.31024977578554058 1 0.50000000000001332 0.49999999999999561 0.49999999999999561 0.49816183246753282 0.5307146639261795 0.75045686993209071 0.2184393375098648 0.50004596894495223 0.77634962490704662 0.31426750628021272 0.31270343261798911 0.68761148188185484 0.24769234054476261 0.52242103280823293 0.45098450226372488 0.50073570207385831 0.24848280280289631 0.52886631355986169 0.31426750628021272 0.31270343261798911 0.68761148188185484 0.22088738526309029 0.22111069116742441 0.50004796911802929 0.50073570207385831 0.24848280280289631 0.52886631355986169 0.50084626324420545 0.22238844715913 0.78084811589659187 0.49816183246753282 0.5307146639261795 0.75045686993209071 0.31426750628021272 0.31270343261798911 0.68761148188185484 0.24769234054476261 0.52242103280823293 0.45098450226372488 0.50000000000001332 0.49999999999999561 0.49999999999999561 0.50073570207385831 0.24848280280289631 0.52886631355986169 0.31426750628021272 0.31270343261798911 0.68761148188185484 0.50000000000001332 0.49999999999999561 0.49999999999999561 0.50073570207385831 0.24848280280289631 0.52886631355986169 0.49816183246753282 0.5307146639261795 0.75045686993209071 0.31426750628021272 0.31270343261798911 0.68761148188185484 0.24769234054476261 0.52242103280823293 0.45098450226372488 0.50000000000001332 0.49999999999999561 0.49999999999999561 0.2184393375098648 0.50004596894495223 0.77634962490704662 0.31426750628021272 0.31270343261798911 0.68761148188185484 0.24769234054476261 0.52242103280823293 0.45098450226372488 0 0.50000000000237477 0.51961524226909872 0.2184393375098648 0.50004596894495223 0.77634962490704662 0.31426750628021272 0.31270343261798911 0.68761148188185484 0 0.31024977578556651 0.45812322962166352 0.24769234054476261 0.52242103280823293 0.45098450226372488 0 0.32043363027398297 0.61046998817722586 0.22088738526309029 0.22111069116742441 0.50004796911802929 0.24769234054476261 0.52242103280823293 0.45098450226372488 0 0.50000000000237477 0.51961524226909872 0.31426750628021272 0.31270343261798911 0.68761148188185484 0 0.32043363027398297 0.61046998817722586 0 0.50000000000237477 0.51961524226909872 0.2184393375098648 0.50004596894495223 0.77634962490704662 0.31426750628021272 0.31270343261798911 0.68761148188185484 0 0.32043363027398297 0.61046998817722586 0.24769234054476261 0.52242103280823293 0.45098450226372488 0.31426750628021272 0.31270343261798911 0.68761148188185484 0 0.32043363027398297 0.61046998817722586 0.22088738526309029 0.22111069116742441 0.50004796911802929 0 0.50000000000237477 0.51961524226909872 0.2184393375098648 0.50004596894495223 0.77634962490704662 0 0.46954769941369501 0.67320508075638175 0 0.32043363027398297 0.61046998817722586 0.31426750628021272 0.31270343261798911 0.68761148188185484 0 0.32043363027398297 0.61046998817722586 0.22088738526309029 0.22111069116742441 0.50004796911802929 0 0.16196943494415611 0.69380980080116506 0.2184393375098648 0.50004596894495223 0.77634962490704662 0 0.31807971531776508 0.80839867011913336 0.31426750628021272 0.31270343261798911 0.68761148188185484 0 0.32043363027398297 0.61046998817722586 0 0.31807971531776508 0.80839867011913336 0.31426750628021272 0.31270343261798911 0.68761148188185484 0 0.32043363027398297 0.61046998817722586 0 0.16196943494415611 0.69380980080116506 0 0.31024977578556651 0.45812322962166352 0.24769234054476261 0.52242103280823293 0.45098450226372488 0 0.50000000000237477 0.51961524226909872 0 0.32043363027398297 0.61046998817722586 0.2184393375098648 0.50004596894495223 0.77634962490704662 0 0.31807971531776508 0.80839867011913336 0 0.46954769941369501 0.67320508075638175 0 0.32043363027398297 0.61046998817722586 0 0.31024977578556651 0.45812322962166352 0 0.32043363027398297 0.61046998817722586 0.22088738526309029 0.22111069116742441 0.50004796911802929 0 0.16275515618034081 0.50966790549591257 0.31426750628021272 0.31270343261798911 0.68761148188185484 0 0.16196943494415611 0.69380980080116506 0.18818969570926641 0 0.68364148842842287 0.14641016151479661 0 0.85358983848542624 0.31426750628021272 0.31270343261798911 0.68761148188185484 0.22088738526309029 0.22111069116742441 0.50004796911802929 0 0.16196943494415611 0.69380980080116506 0.18818969570926641 0 0.68364148842842287 0.22088738526309029 0.22111069116742441 0.50004796911802929 0 0.16275515618034081 0.50966790549591257 0 0.16196943494415611 0.69380980080116506 0.18818969570926641 0 0.68364148842842287 0 0.32043363027398297 0.61046998817722586 0.22088738526309029 0.22111069116742441 0.50004796911802929 0 0.16275515618034081 0.50966790549591257 0 0.16196943494415611 0.69380980080116506 0 0.16196943494415611 0.69380980080116506 0.18818969570926641 0 0.68364148842842287 0 0 0.60000000000138687 0 0 0.79999999999999982 0 0.16275515618034081 0.50966790549591257 0 0.16196943494415611 0.69380980080116506 0.18818969570926641 0 0.68364148842842287 0 0 0.60000000000138687 0.16370661204827031 0 0.4886650857430957 0 0.16275515618034081 0.50966790549591257 0.18818969570926641 0 0.68364148842842287 0 0 0.60000000000138687 0.16370661204827031 0 0.4886650857430957 0.22088738526309029 0.22111069116742441 0.50004796911802929 0.18818969570926641 0 0.68364148842842287 0.31030302876556398 0 0.54179813558513157 0.16370661204827031 0 0.4886650857430957 0.22088738526309029 0.22111069116742441 0.50004796911802929 0 0.16275515618034081 0.50966790549591257 0.18818969570926641 0 0.68364148842842287 0.31426750628021272 0.31270343261798911 0.68761148188185484 0.18818969570926641 0 0.68364148842842287 0.39615987727709562 0 0.67073444684008199 0.30074819035913852 0 0.83070291234383831 0.50073570207385831 0.24848280280289631 0.52886631355986169 0.31426750628021272 0.31270343261798911 0.68761148188185484 0.22088738526309029 0.22111069116742441 0.50004796911802929 0.31030302876556398 0 0.54179813558513157 0.50073570207385831 0.24848280280289631 0.52886631355986169 0.31426750628021272 0.31270343261798911 0.68761148188185484 0.31030302876556398 0 0.54179813558513157 0.39615987727709562 0 0.67073444684008199 0.50084626324420545 0.22238844715913 0.78084811589659187 0.31426750628021272 0.31270343261798911 0.68761148188185484 0.39615987727709562 0 0.67073444684008199 0.30074819035913852 0 0.83070291234383831 0.31426750628021272 0.31270343261798911 0.68761148188185484 0.22088738526309029 0.22111069116742441 0.50004796911802929 0.18818969570926641 0 0.68364148842842287 0.31030302876556398 0 0.54179813558513157 0.6002015905170176 0 0.67551889168744117 0.50073570207385831 0.24848280280289631 0.52886631355986169 0.50084626324420545 0.22238844715913 0.78084811589659187 0.39615987727709562 0 0.67073444684008199 0.31426750628021272 0.31270343261798911 0.68761148188185484 0.18818969570926641 0 0.68364148842842287 0.31030302876556398 0 0.54179813558513157 0.39615987727709562 0 0.67073444684008199 0.50073570207385831 0.24848280280289631 0.52886631355986169 0.50084626324420545 0.22238844715913 0.78084811589659187 0.31426750628021272 0.31270343261798911 0.68761148188185484 0.39615987727709562 0 0.67073444684008199 0.50000000000250922 0 0.48038475773043671 0.6002015905170176 0 0.67551889168744117 0.50073570207385831 0.24848280280289631 0.52886631355986169 0.39615987727709562 0 0.67073444684008199 0.50000000000250922 0 0.48038475773043671 0.50073570207385831 0.24848280280289631 0.52886631355986169 0.31030302876556398 0 0.54179813558513157 0.39615987727709562 0 0.67073444684008199 0.6002015905170176 0 0.67551889168744117 0.50084626324420545 0.22238844715913 0.78084811589659187 0.39615987727709562 0 0.67073444684008199 0.49836539647917322 0 0.82773865802723501 0.31426750628021272 0.31270343261798911 0.68761148188185484 0.30074819035913852 0 0.83070291234383831 0.31610726166461628 0.1880448979455934 1 0.14641016151432179 0.14641016151432179 1 0.50084626324420545 0.22238844715913 0.78084811589659187 0.31426750628021272 0.31270343261798911 0.68761148188185484 0.30074819035913852 0 0.83070291234383831 0.31610726166461628 0.1880448979455934 1 0.50084626324420545 0.22238844715913 0.78084811589659187 0.30074819035913852 0 0.83070291234383831 0.49836539647917322 0 0.82773865802723501 0.31610726166461628 0.1880448979455934 1 0.50084626324420545 0.22238844715913 0.78084811589659187 0.39615987727709562 0 0.67073444684008199 0.30074819035913852 0 0.83070291234383831 0.49836539647917322 0 0.82773865802723501 0.50966790549576724 0.1627551561802443 1 0.49836539647917322 0 0.82773865802723501 0.40000000000166441 0 1 0.31610726166461628 0.1880448979455934 1 0.30074819035913852 0 0.83070291234383831 0.49836539647917322 0 0.82773865802723501 0.40000000000166441 0 1 0.31610726166461628 0.1880448979455934 1 0.50966790549576724 0.1627551561802443 1 0.50084626324420545 0.22238844715913 0.78084811589659187 0.49836539647917322 0 0.82773865802723501 0.31610726166461628 0.1880448979455934 1 0.50966790549576724 0.1627551561802443 1 0.50084626324420545 0.22238844715913 0.78084811589659187 0.45812322962173568 0.31024977578554058 1 0.31610726166461628 0.1880448979455934 1 0.30074819035913852 0 0.83070291234383831 0.40000000000166441 0 1 0.31610726166461628 0.1880448979455934 1 0.20000000000083221 0 1 0 0.31807971531776508 0.80839867011913336 0.31426750628021272 0.31270343261798911 0.68761148188185484 0 0.16196943494415611 0.69380980080116506 0 0.14641016151490169 0.85358983848532144 0.16929708765653109 0.30074819035870082 1 0.31426750628021272 0.31270343261798911 0.68761148188185484 0.31610726166461628 0.1880448979455934 1 0.14641016151432179 0.14641016151432179 1 0.30074819035913852 0 0.83070291234383831 0.20000000000083221 0 1 0.14641016151479661 0 0.85358983848542624 0.14641016151432179 0.14641016151432179 1 0.31426750628021272 0.31270343261798911 0.68761148188185484 0.30074819035913852 0 0.83070291234383831 0.14641016151479661 0 0.85358983848542624 0.14641016151432179 0.14641016151432179 1 0.30074819035913852 0 0.83070291234383831 0.31610726166461628 0.1880448979455934 1 0.20000000000083221 0 1 0.14641016151432179 0.14641016151432179 1 0.31426750628021272 0.31270343261798911 0.68761148188185484 0.18818969570926641 0 0.68364148842842287 0.30074819035913852 0 0.83070291234383831 0.14641016151479661 0 0.85358983848542624 0.16929708765653109 0.30074819035870082 1 0.31426750628021272 0.31270343261798911 0.68761148188185484 0.14641016151432179 0.14641016151432179 1 0 0.14641016151490169 0.85358983848532144 0.31426750628021272 0.31270343261798911 0.68761148188185484 0.14641016151479661 0 0.85358983848542624 0.14641016151432179 0.14641016151432179 1 0 0.14641016151490169 0.85358983848532144 0.31426750628021272 0.31270343261798911 0.68761148188185484 0 0.16196943494415611 0.69380980080116506 0.14641016151479661 0 0.85358983848542624 0 0.14641016151490169 0.85358983848532144 0 0.31807971531776508 0.80839867011913336 0.16929708765653109 0.30074819035870082 1 0 0.20000000000083221 1 0 0.14641016151490169 0.85358983848532144 0.16929708765653109 0.30074819035870082 1 0.14641016151432179 0.14641016151432179 1 0 0.20000000000083221 1 0 0.14641016151490169 0.85358983848532144 0 0.16196943494415611 0.69380980080116506 0.18818969570926641 0 0.68364148842842287 0.14641016151479661 0 0.85358983848542624 0 0 0.79999999999999982 0 0.16196943494415611 0.69380980080116506 0.14641016151479661 0 0.85358983848542624 0 0.14641016151490169 0.85358983848532144 0 0 0.79999999999999982 0.14641016151432179 0.14641016151432179 1 0 0.20000000000083221 1 0 0.14641016151490169 0.85358983848532144 0 0 1 0.14641016151479661 0 0.85358983848542624 0 0.14641016151490169 0.85358983848532144 0 0 0.79999999999999982 0 0 1 0.20000000000083221 0 1 0.14641016151479661 0 0.85358983848542624 0.14641016151432179 0.14641016151432179 1 0 0 1 0.14641016151479661 0 0.85358983848542624 0.14641016151432179 0.14641016151432179 1 0 0.14641016151490169 0.85358983848532144 0 0 1 
</DataArray>
</Points>
<Cells>
<DataArray type="UInt32" Name="connectivity" format="ascii">
0 1 2 3 4 5 6 7 8 9 10 11 12 13 14 15 16 17 18 19 20 21 22 23 24 25 26 27 28 29 30 31 32 33 34 35 36 37 38 39 40 41 42 43 44 45 46 47 48 49 50 51 52 53 54 55 56 57 58 59 60 61 62 63 64 65 66 67 68 69 70 71 72 73 74 75 76 77 78 79 80 81 82 83 84 85 86 87 88 89 90 91 92 93 94 95 96 97 98 99 100 101 102 103 104 105 106 107 108 109 110 111 112 113 114 115 116 117 118 119 120 121 122 123 124 125 126 127 128 129 130 131 132 133 134 135 136 137 138 139 140 141 142 143 144 145 146 147 148 149 150 151 152 153 154 155 156 157 158 159 160 161 162 163 164 165 166 167 168 169 170 171 172 173 174 175 176 177 178 179 180 181 182 183 184 185 186 187 188 189 190 191 192 193 194 195 196 197 198 199 200 201 202 203 204 205 206 207 208 209 210 211 212 213 214 215 216 217 218 219 220 221 222 223 224 225 226 227 228 229 230 231 232 233 234 235 236 237 238 239 240 241 242 243 244 245 246 247 248 249 250 251 252 253 254 255 256 257 258 259 260 261 262 263 264 265 266 267 268 269 270 271 272 273 274 275 276 277 278 279 280 281 282 283 284 285 286 287 288 289 290 291 292 293 294 295 296 297 298 299 300 301 302 303 304 305 306 307 308 309 310 311 312 313 314 315 316 317 318 319 320 321 322 323 324 325 326 327 328 329 330 331 332 333 334 335 336 337 338 339 340 341 342 343 344 345 346 347 348 349 350 351 352 353 354 355 356 357 358 359 360 361 362 363 364 365 366 367 368 369 370 371 372 373 374 375 376 377 378 379 380 381 382 383 384 385 386 387 388 389 390 391 392 393 394 395 396 397 398 399 400 401 402 403 404 405 406 407 408 409 410 411 412 413 414 415 416 417 418 419 420 421 422 423 424 425 426 427 428 429 430 431 432 433 434 435 436 437 438 439 440 441 442 443 444 445 446 447 448 449 450 451 452 453 454 455 456 457 458 459 460 461 462 463 464 465 466 467 468 469 470 471 472 473 474 475 476 477 478 479 480 481 482 483 484 485 486 487 488 489 490 491 492 493 494 495 496 497 498 499 500 501 502 503 504 505 506 507 508 509 510 511 512 513 514 515 516 517 518 519 520 521 522 523 524 525 526 527 528 529 530 531 532 533 534 535 536 537 538 539 540 541 542 543 544 545 546 547 548 549 550 551 552 553 554 555 556 557 558 559 560 561 562 563 564 565 566 567 568 569 570 571 572 573 574 575 576 577 578 579 580 581 582 583 584 585 586 587 588 589 590 591 592 593 594 595 596 597 598 599 600 601 602 603 604 605 606 607 608 609 610 611 612 613 614 615 616 617 618 619 620 621 622 623 624 625 626 627 628 629 630 631 632 633 634 635 636 637 638 639 640 641 642 643 644 645 646 647 648 649 650 651 652 653 654 655 656 657 658 659 660 661 662 663 664 665 666 667 668 669 670 671 672 673 674 675 676 677 678 679 680 681 682 683 684 685 686 687 688 689 690 691 692 693 694 695 696 697 698 699 700 701 702 703 704 705 706 707 708 709 710 711 712 713 714 715 716 717 718 719 720 721 722 723 724 725 726 727 728 729 730 731 732 733 734 735 736 737 738 739 740 741 742 743 744 745 746 747 748 749 750 751 752 753 754 755 756 757 758 759 760 761 762 763 764 765 766 767 768 769 770 771 772 773 774 775 776 777 778 779 780 781 782 783 784 785 786 787 788 789 790 791 792 793 794 795 796 797 798 799 800 801 802 803 804 805 806 807 808 809 810 811 812 813 814 815 816 817 818 819 820 821 822 823 824 825 826 827 828 829 830 831 832 833 834 835 836 837 838 839 840 841 842 843 844 845 846 847 848 849 850 851 852 853 854 855 856 857 858 859 860 861 862 863 864 865 866 867 868 869 870 871 872 873 874 875 876 877 878 879 880 881 882 883 884 885 886 887 888 889 890 891 892 893 894 895 896 897 898 899 900 901 902 903 904 905 906 907 908 909 910 911 912 913 914 915 916 917 918 919 920 921 922 923 924 925 926 927 928 929 930 931 932 933 934 935 936 937 938 939 940 941 942 943 944 945 946 947 948 949 950 951 952 953 954 955 956 957 958 959 960 961 962 963 964 965 966 967 968 969 970 971 972 973 974 975 976 977 978 979 980 981 982 983 984 985 986 987 988 989 990 991 992 993 994 995 996 997 998 999 1000 1001 1002 1003 1004 1005 1006 1007 1008 1009 1010 1011 1012 1013 1014 1015 1016 1017 1018 1019 1020 1021 1022 1023 1024 1025 1026 1027 1028 1029 1030 1031 1032 1033 1034 1035 1036 1037 1038 1039 1040 1041 1042 1043 1044 1045 1046 1047 1048 1049 1050 1051 1052 1053 1054 1055 1056 1057 1058 1059 1060 1061 1062 1063 1064 1065 1066 1067 1068 1069 1070 1071 1072 1073 1074 1075 1076 1077 1078 1079 1080 1081 1082 1083 1084 1085 1086 1087 1088 1089 1090 1091 1092 1093 1094 1095 1096 1097 1098 1099 1100 1101 1102 1103 1104 1105 1106 1107 1108 1109 1110 1111 1112 1113 1114 1115 1116 1117 1118 1119 1120 1121 1122 1123 1124 1125 1126 1127 1128 1129 1130 1131 1132 1133 1134 1135 1136 1137 1138 1139 1140 1141 1142 1143 1144 1145 1146 1147 1148 1149 1150 1151 1152 1153 1154 1155 1156 1157 1158 1159 1160 1161 1162 1163 1164 1165 1166 1167 1168 1169 1170 1171 1172 1173 1174 1175 1176 1177 1178 1179 1180 1181 1182 1183 1184 1185 1186 1187 1188 1189 1190 1191 1192 1193 1194 1195 1196 1197 1198 1199 1200 1201 1202 1203 1204 1205 1206 1207 1208 1209 1210 1211 1212 1213 1214 1215 1216 1217 1218 1219 1220 1221 1222 1223 1224 1225 1226 1227 1228 1229 1230 1231 1232 1233 1234 1235 1236 1237 1238 1239 1240 1241 1242 1243 1244 1245 1246 1247 1248 1249 1250 1251 1252 1253 1254 1255 1256 1257 1258 1259 1260 1261 1262 1263 1264 1265 1266 1267 1268 1269 1270 1271 1272 1273 1274 1275 1276 1277 1278 1279 1280 1281 1282 1283 1284 1285 1286 1287 1288 1289 1290 1291 1292 1293 1294 1295 1296 1297 1298 1299 1300 1301 1302 1303 1304 1305 1306 1307 1308 1309 1310 1311 1312 1313 1314 1315 1316 1317 1318 1319 1320 1321 1322 1323 1324 1325 1326 1327 1328 1329 1330 1331 1332 1333 1334 1335 1336 1337 1338 1339 1340 1341 1342 1343 1344 1345 1346 1347 1348 1349 1350 1351 1352 1353 1354 1355 1356 1357 1358 1359 1360 1361 1362 1363 1364 1365 1366 1367 1368 1369 1370 1371 1372 1373 1374 1375 1376 1377 1378 1379 1380 1381 1382 1383 1384 1385 1386 1387 1388 1389 1390 1391 1392 1393 1394 1395 1396 1397 1398 1399 1400 1401 1402 1403 1404 1405 1406 1407 1408 1409 1410 1411 1412 1413 1414 1415 1416 1417 1418 1419 1420 1421 1422 1423 1424 1425 1426 1427 1428 1429 1430 1431 1432 1433 1434 1435 1436 1437 1438 1439 1440 1441 1442 1443 1444 1445 1446 1447 1448 1449 1450 1451 1452 1453 1454 1455 1456 1457 1458 1459 1460 1461 1462 1463 1464 1465 1466 1467 1468 1469 1470 1471 1472 1473 1474 1475 1476 1477 1478 1479 1480 1481 1482 1483 1484 1485 1486 1487 1488 1489 1490 1491 1492 1493 1494 1495 1496 1497 1498 1499 1500 1501 1502 1503 1504 1505 1506 1507 1508 1509 1510 1511 1512 1513 1514 1515 1516 1517 1518 1519 1520 1521 1522 1523 1524 1525 1526 1527 1528 1529 1530 1531 1532 1533 1534 1535 1536 1537 1538 1539 1540 1541 1542 1543 1544 1545 1546 1547 1548 1549 1550 1551 1552 1553 1554 1555 1556 1557 1558 1559 1560 1561 1562 1563 1564 1565 1566 1567 1568 1569 1570 1571 1572 1573 1574 1575 1576 1577 1578 1579 1580 1581 1582 1583 1584 1585 1586 1587 1588 1589 1590 1591 1592 1593 1594 1595 1596 1597 1598 1599 1600 1601 1602 1603 1604 1605 1606 1607 1608 1609 1610 1611 1612 1613 1614 1615 1616 1617 1618 1619 1620 1621 1622 1623 1624 1625 1626 1627 1628 1629 1630 1631 1632 1633 1634 1635 1636 1637 1638 1639 1640 1641 1642 1643 1644 1645 1646 1647 1648 1649 1650 1651 1652 1653 1654 1655 1656 1657 1658 1659 1660 1661 1662 1663 1664 1665 1666 1667 1668 1669 1670 1671 1672 1673 1674 1675 1676 1677 1678 1679 1680 1681 1682 1683 1684 1685 1686 1687 1688 1689 1690 1691 1692 1693 1694 1695 1696 1697 1698 1699 1700 1701 1702 1703 1704 1705 1706 1707 1708 1709 1710 1711 1712 1713 1714 1715 1716 1717 1718 1719 1720 1721 1722 1723 1724 1725 1726 1727 1728 1729 1730 1731 1732 1733 1734 1735 1736 1737 1738 1739 1740 1741 1742 1743 1744 1745 1746 1747 1748 1749 1750 1751 1752 1753 1754 1755 1756 1757 1758 1759 1760 1761 1762 1763 1764 1765 1766 1767 1768 1769 1770 1771 1772 1773 1774 1775 1776 1777 1778 1779 1780 1781 1782 1783 1784 1785 1786 1787 1788 1789 1790 1791 1792 1793 1794 1795 1796 1797 1798 1799 1800 1801 1802 1803 1804 1805 1806 1807 1808 1809 1810 1811 1812 1813 1814 1815 1816 1817 1818 1819 1820 1821 1822 1823 1824 1825 1826 1827 1828 1829 1830 1831 1832 1833 1834 1835 1836 1837 1838 1839 1840 1841 1842 1843 1844 1845 1846 1847 1848 1849 1850 1851 1852 1853 1854 1855 1856 1857 1858 1859 1860 1861 1862 1863 1864 1865 1866 1867 1868 1869 1870 1871 1872 1873 1874 1875 1876 1877 1878 1879 1880 1881 1882 1883 1884 1885 1886 1887 1888 1889 1890 1891 1892 1893 1894 1895 1896 1897 1898 1899 1900 1901 1902 1903 1904 1905 1906 1907 1908 1909 1910 1911 1912 1913 1914 1915 1916 1917 1918 1919 1920 1921 1922 1923 1924 1925 1926 1927 1928 1929 1930 1931 1932 1933 1934 1935 1936 1937 1938 1939 1940 1941 1942 1943 1944 1945 1946 1947 1948 1949 1950 1951 1952 1953 1954 1955 1956 1957 1958 1959 1960 1961 1962 1963 1964 1965 1966 1967 1968 1969 1970 1971 1972 1973 1974 1975 1976 1977 1978 1979 1980 1981 1982 1983 1984 1985 1986 1987 1988 1989 1990 1991 1992 1993 1994 1995 1996 1997 1998 1999 2000 2001 2002 2003 2004 2005 2006 2007 2008 2009 2010 2011 2012 2013 2014 2015 2016 2017 2018 2019 2020 2021 2022 2023 2024 2025 2026 2027 2028 2029 2030 2031 2032 2033 2034 2035 2036 2037 2038 2039 2040 2041 2042 2043 2044 2045 2046 2047 2048 2049 2050 2051 2052 2053 2054 2055 2056 2057 2058 2059 2060 2061 2062 2063 2064 2065 2066 2067 2068 2069 2070 2071 2072 2073 2074 2075 2076 2077 2078 2079 2080 2081 2082 2083 2084 2085 2086 2087 2088 2089 2090 2091 2092 2093 2094 2095 2096 2097 2098 2099 2100 2101 2102 2103 2104 2105 2106 2107 2108 2109 2110 2111 2112 2113 2114 2115 2116 2117 2118 2119 2120 2121 2122 2123 2124 2125 2126 2127 2128 2129 2130 2131 2132 2133 2134 2135 2136 2137 2138 2139 2140 2141 2142 2143 2144 2145 2146 2147 2148 2149 2150 2151 2152 2153 2154 2155 2156 2157 2158 2159 2160 2161 2162 2163 2164 2165 2166 2167 2168 2169 2170 2171 2172 2173 2174 2175 2176 2177 2178 2179 2180 2181 2182 2183 2184 2185 2186 2187 2188 2189 2190 2191 2192 2193 2194 2195 2196 2197 2198 2199 2200 2201 2202 2203 2204 2205 2206 2207 2208 2209 2210 2211 2212 2213 2214 2215 2216 2217 2218 2219 2220 2221 2222 2223 2224 2225 2226 2227 2228 2229 2230 2231 2232 2233 2234 2235 2236 2237 2238 2239 2240 2241 2242 2243 2244 2245 2246 2247 2248 2249 2250 2251 2252 2253 2254 2255 2256 2257 2258 2259 2260 2261 2262 2263 2264 2265 2266 2267 2268 2269 2270 2271 2272 2273 2274 2275 2276 2277 2278 2279 2280 2281 2282 2283 2284 2285 2286 2287 2288 2289 2290 2291 2292 2293 2294 2295 2296 2297 2298 2299 2300 2301 2302 2303 2304 2305 2306 2307 2308 2309 2310 2311 2312 2313 2314 2315 2316 2317 2318 2319 2320 2321 2322 2323 2324 2325 2326 2327 2328 2329 2330 2331 2332 2333 2334 2335 2336 2337 2338 2339 2340 2341 2342 2343 2344 2345 2346 2347 2348 2349 2350 2351 2352 2353 2354 2355 2356 2357 2358 2359 2360 2361 2362 2363 2364 2365 2366 2367 2368 2369 2370 2371 2372 2373 2374 2375 2376 2377 2378 2379 2380 2381 2382 2383 2384 2385 2386 2387 2388 2389 2390 2391 2392 2393 2394 2395 2396 2397 2398 2399 2400 2401 2402 2403 2404 2405 2406 2407 2408 2409 2410 2411 2412 2413 2414 2415 2416 2417 2418 2419 2420 2421 2422 2423 2424 2425 2426 2427 2428 2429 2430 2431 2432 2433 2434 2435 2436 2437 2438 2439 2440 2441 2442 2443 2444 2445 2446 2447 2448 2449 2450 2451 2452 2453 2454 2455 2456 2457 2458 2459 2460 2461 2462 2463 2464 2465 2466 2467 2468 2469 2470 2471 2472 2473 2474 2475 2476 2477 2478 2479 2480 2481 2482 2483 2484 2485 2486 2487 2488 2489 2490 2491 2492 2493 2494 2495 2496 2497 2498 2499 2500 2501 2502 2503 2504 2505 2506 2507 2508 2509 2510 2511 2512 2513 2514 2515 2516 2517 2518 2519 2520 2521 2522 2523 2524 2525 2526 2527 2528 2529 2530 2531 2532 2533 2534 2535 2536 2537 2538 2539 2540 2541 2542 2543 2544 2545 2546 2547 2548 2549 2550 2551 2552 2553 2554 2555 2556 2557 2558 2559 2560 2561 2562 2563 2564 2565 2566 2567 2568 2569 2570 2571 2572 2573 2574 2575 2576 2577 2578 2579 2580 2581 2582 2583 2584 2585 2586 2587 2588 2589 2590 2591 2592 2593 2594 2595 2596 2597 2598 2599 2600 2601 2602 2603 2604 2605 2606 2607 2608 2609 2610 2611 2612 2613 2614 2615 2616 2617 2618 2619 2620 2621 2622 2623 2624 2625 2626 2627 2628 2629 2630 2631 2632 2633 2634 2635 2636 2637 2638 2639 2640 2641 2642 2643 2644 2645 2646 2647 2648 2649 2650 2651 2652 2653 2654 2655 2656 2657 2658 2659 2660 2661 2662 2663 2664 2665 2666 2667 2668 2669 2670 2671 2672 2673 2674 2675 2676 2677 2678 2679 2680 2681 2682 2683 2684 2685 2686 2687 2688 2689 2690 2691 2692 2693 2694 2695 2696 2697 2698 2699 2700 2701 2702 2703 2704 2705 2706 2707 2708 2709 2710 2711 2712 2713 2714 2715 2716 2717 2718 2719 2720 2721 2722 2723 2724 2725 2726 2727 2728 2729 2730 2731 2732 2733 2734 2735 2736 2737 2738 2739 2740 2741 2742 2743 2744 2745 2746 2747 2748 2749 2750 2751 2752 2753 2754 2755 2756 2757 2758 2759 2760 2761 2762 2763 2764 2765 2766 2767 2768 2769 2770 2771 2772 2773 2774 2775 2776 2777 2778 2779 2780 2781 2782 2783 2784 2785 2786 2787 2788 2789 2790 2791 2792 2793 2794 2795 2796 2797 2798 2799 2800 2801 2802 2803 2804 2805 2806 2807 2808 2809 2810 2811 2812 2813 2814 2815 2816 2817 2818 2819 2820 2821 2822 2823 2824 2825 2826 2827 2828 2829 2830 2831 2832 2833 2834 2835 2836 2837 2838 2839 2840 2841 2842 2843 2844 2845 2846 2847 2848 2849 2850 2851 2852 2853 2854 2855 2856 2857 2858 2859 2860 2861 2862 2863 2864 2865 2866 2867 2868 2869 2870 2871 2872 2873 2874 2875 
</DataArray>
<DataArray type="UInt32" Name="offsets" format="ascii">
4 8 12 16 20 24 28 32 36 40 44 48 52 56 60 64 68 72 76 80 84 88 92 96 100 104 108 112 116 120 124 128 132 136 140 144 148 152 156 160 164 168 172 176 180 184 188 192 196 200 204 208 212 216 220 224 228 232 236 240 244 248 252 256 260 264 268 272 276 280 284 288 292 296 300 304 308 312 316 320 324 328 332 336 340 344 348 352 356 360 364 368 372 376 380 384 388 392 396 400 404 408 412 416 420 424 428 432 436 440 444 448 452 456 460 464 468 472 476 480 484 488 492 496 500 504 508 512 516 520 524 528 532 536 540 544 548 552 556 560 564 568 572 576 580 584 588 592 596 600 604 608 612 616 620 624 628 632 636 640 644 648 652 656 660 664 668 672 676 680 684 688 692 696 700 704 708 712 716 720 724 728 732 736 740 744 748 752 756 760 764 768 772 776 780 784 788 792 796 800 804 808 812 816 820 824 828 832 836 840 844 848 852 856 860 864 868 872 876 880 884 888 892 896 900 904 908 912 916 920 924 928 932 936 940 944 948 952 956 960 964 968 972 976 980 984 988 992 996 1000 1004 1008 1012 1016 1020 1024 1028 1032 1036 1040 1044 1048 1052 1056 1060 1064 1068 1072 1076 1080 1084 1088 1092 1096 1100 1104 1108 1112 1116 1120 1124 1128 1132 1136 1140 1144 1148 1152 1156 1160 1164 1168 1172 1176 1180 1184 1188 1192 1196 1200 1204 1208 1212 1216 1220 1224 1228 1232 1236 1240 1244 1248 1252 1256 1260 1264 1268 1272 1276 1280 1284 1288 1292 1296 1300 1304 1308 1312 1316 1320 1324 1328 1332 1336 1340 1344 1348 1352 1356 1360 1364 1368 1372 1376 1380 1384 1388 1392 1396 1400 1404 1408 1412 1416 1420 1424 1428 1432 1436 1440 1444 1448 1452 1456 1460 1464 1468 1472 1476 1480 1484 1488 1492 1496 1500 1504 1508 1512 1516 1520 1524 1528 1532 1536 1540 1544 1548 1552 1556 1560 1564 1568 1572 1576 1580 1584 1588 1592 1596 1600 1604 1608 1612 1616 1620 1624 1628 1632 1636 1640 1644 1648 1652 1656 1660 1664 1668 1672 1676 1680 1684 1688 1692 1696 1700 1704 1708 1712 1716 1720 1724 1728 1732 1736 1740 1744 1748 1752 1756 1760 1764 1768 1772 1776 1780 1784 1788 1792 1796 1800 1804 1808 1812 1816 1820 1824 1828 1832 1836 1840 1844 1848 1852 1856 1860 1864 1868 1872 1876 1880 1884 1888 1892 1896 1900 1904 1908 1912 1916 1920 1924 1928 1932 1936 1940 1944 1948 1952 1956 1960 1964 1968 1972 1976 1980 1984 1988 1992 1996 2000 2004 2008 2012 2016 2020 2024 2028 2032 2036 2040 2044 2048 2052 2056 2060 2064 2068 2072 2076 2080 2084 2088 2092 2096 2100 2104 2108 2112 2116 2120 2124 2128 2132 2136 2140 2144 2148 2152 2156 2160 2164 2168 2172 2176 2180 2184 2188 2192 2196 2200 2204 2208 2212 2216 2220 2224 2228 2232 2236 2240 2244 2248 2252 2256 2260 2264 2268 2272 2276 2280 2284 2288 2292 2296 2300 2304 2308 2312 2316 2320 2324 2328 2332 2336 2340 2344 2348 2352 2356 2360 2364 2368 2372 2376 2380 2384 2388 2392 2396 2400 2404 2408 2412 2416 2420 2424 2428 2432 2436 2440 2444 2448 2452 2456 2460 2464 2468 2472 2476 2480 2484 2488 2492 2496 2500 2504 2508 2512 2516 2520 2524 2528 2532 2536 2540 2544 2548 2552 2556 2560 2564 2568 2572 2576 2580 2584 2588 2592 2596 2600 2604 2608 2612 2616 2620 2624 2628 2632 2636 2640 2644 2648 2652 2656 2660 2664 2668 2672 2676 2680 2684 2688 2692 2696 2700 2704 2708 2712 2716 2720 2724 2728 2732 2736 2740 2744 2748 2752 2756 2760 2764 2768 2772 2776 2780 2784 2788 2792 2796 2800 2804 2808 2812 2816 2820 2824 2828 2832 2836 2840 2844 2848 2852 2856 2860 2864 2868 2872 2876 
</DataArray>
<DataArray type="UInt32" Name="types" format="ascii">
10 10 10 10 10 10 10 10 10 10 10 10 10 10 10 10 10 10 10 10 10 10 10 10 10 10 10 10 10 10 10 10 10 10 10 10 10 10 10 10 10 10 10 10 10 10 10 10 10 10 10 10 10 10 10 10 10 10 10 10 10 10 10 10 10 10 10 10 10 10 10 10 10 10 10 10 10 10 10 10 10 10 10 10 10 10 10 10 10 10 10 10 10 10 10 10 10 10 10 10 10 10 10 10 10 10 10 10 10 10 10 10 10 10 10 10 10 10 10 10 10 10 10 10 10 10 10 10 10 10 10 10 10 10 10 10 10 10 10 10 10 10 10 10 10 10 10 10 10 10 10 10 10 10 10 10 10 10 10 10 10 10 10 10 10 10 10 10 10 10 10 10 10 10 10 10 10 10 10 10 10 10 10 10 10 10 10 10 10 10 10 10 10 10 10 10 10 10 10 10 10 10 10 10 10 10 10 10 10 10 10 10 10 10 10 10 10 10 10 10 10 10 10 10 10 10 10 10 10 10 10 10 10 10 10 10 10 10 10 10 10 10 10 10 10 10 10 10 10 10 10 10 10 10 10 10 10 10 10 10 10 10 10 10 10 10 10 10 10 10 10 10 10 10 10 10 10 10 10 10 10 10 10 10 10 10 10 10 10 10 10 10 10 10 10 10 10 10 10 10 10 10 10 10 10 10 10 10 10 10 10 10 10 10 10 10 10 10 10 10 10 10 10 10 10 10 10 10 10 10 10 10 10 10 10 10 10 10 10 10 10 10 10 10 10 10 10 10 10 10 10 10 10 10 10 10 10 10 10 10 10 10 10 10 10 10 10 10 10 10 10 10 10 10 10 10 10 10 10 10 10 10 10 10 10 10 10 10 10 10 10 10 10 10 10 10 10 10 10 10 10 10 10 10 10 10 10 10 10 10 10 10 10 10 10 10 10 10 10 10 10 10 10 10 10 10 10 10 10 10 10 10 10 10 10 10 10 10 10 10 10 10 10 10 10 10 10 10 10 10 10 10 10 10 10 10 10 10 10 10 10 10 10 10 10 10 10 10 10 10 10 10 10 10 10 10 10 10 10 10 10 10 10 10 10 10 10 10 10 10 10 10 10 10 10 10 10 10 10 10 10 10 10 10 10 10 10 10 10 10 10 10 10 10 10 10 10 10 10 10 10 10 10 10 10 10 10 10 10 10 10 10 10 10 10 10 10 10 10 10 10 10 10 10 10 10 10 10 10 10 10 10 10 10 10 10 10 10 10 10 10 10 10 10 10 10 10 10 10 10 10 10 10 10 10 10 10 10 10 10 10 10 10 10 10 10 10 10 10 10 10 10 10 10 10 10 10 10 10 10 10 10 10 10 10 10 10 10 10 10 10 10 10 10 10 10 10 10 10 10 10 10 10 10 10 10 10 10 10 10 10 10 10 10 10 10 10 10 10 10 10 10 10 10 10 10 10 10 10 10 10 10 10 10 10 10 10 10 10 10 10 10 10 10 10 10 10 10 10 10 10 10 10 10 10 10 10 10 10 10 10 10 10 10 10 10 10 10 10 10 10 10 10 10 10 10 10 10 10 10 10 10 10 10 10 10 10 10 10 10 10 10 10 10 10 10 10 10 10 
</DataArray>
</Cells>
<PointData Scalars="" Vectors="displacement," Tensors="">
<DataArray type="Float64" Name="displacement" NumberOfComponents="3" format="ascii">
4.5756595659775224e-06 -2.1916187397909144e-10 -9.7080166476844699e-10 9.8790292415508563e-06 -2.1138407848921104e-10 -1.2611945777634591e-09 9.7686979804790073e-06 -9.7460249350737091e-11 -2.9304582083461183e-05 5.2909101661683438e-06 -1.4591111259817549e-10 -1.2146668700895103e-09 1.8232890415709687e-14 -3.2503620850861354e-10 -1.3077256573179389e-09 -2.584884685360581e-14 -2.0313018369343754e-10 -1.3726806638545269e-05 2.2317251339717331e-14 -2.3487976511948831e-10 -1.2115002440682889e-09 4.5756595659775224e-06 -2.1916187397909144e-10 -9.7080166476844699e-10 1.8232890415709687e-14 -3.2503620850861354e-10 -1.3077256573179389e-09 4.5756595659775224e-06 -2.1916187397909144e-10 -9.7080166476844699e-10 4.5756541830335446e-06 -2.3769820892193039e-10 -1.3726827209006661e-05 6.2503721626642364e-06 -3.5504189422860596e-10 -1.3765600878597221e-09 1.8232890415709687e-14 -3.2503620850861354e-10 -1.3077256573179389e-09 7.9735703006059799e-15 -3.0964154645130569e-10 -1.875078808458138e-05 -2.5848847395747406e-14 -2.0313018369343754e-10 -1.3726806638545266e-05 4.5756541830335455e-06 -2.3769820892193045e-10 -1.3726827209006661e-05 -2.5848847395747406e-14 -2.0313018369343754e-10 -1.3726806638545266e-05 1.3211104052536338e-15 -1.8997531860662585e-10 -2.9635589509259242e-05 9.768697980479009e-06 -9.7460249350737078e-11 -2.9304582083461187e-05 -1.0808186201682366e-14 -8.8210089595557366e-11 -1.5872517033875782e-05 4.5756541830335455e-06 -2.3769820892193045e-10 -1.3726827209006661e-05 9.8689943117130477e-06 -3.2053067333106182e-10 -1.7487917443229491e-05 5.2935820705956844e-06 -3.0073924657898334e-10 -2.813622914816163e-05 9.7686979804790073e-06 -9.7460249350737091e-11 -2.9304582083461183e-05 1.8232890415709687e-14 -3.2503620850861354e-10 -1.3077256573179389e-09 -2.5848847395747406e-14 -2.0313018369343754e-10 -1.3726806638545266e-05 4.5756595659775224e-06 -2.1916187397909144e-10 -9.7080166476844699e-10 4.5756541830335455e-06 -2.3769820892193045e-10 -1.3726827209006661e-05 4.5756595659775224e-06 -2.1916187397909144e-10 -9.7080166476844699e-10 4.5756541830335446e-06 -2.3769820892193045e-10 -1.3726827209006667e-05 9.8689943117130477e-06 -3.2053067333106182e-10 -1.7487917443229491e-05 9.7686979804790073e-06 -9.7460249350737091e-11 -2.9304582083461183e-05 -2.5848847395747406e-14 -2.0313018369343754e-10 -1.3726806638545266e-05 4.5756595659775224e-06 -2.1916187397909144e-10 -9.7080166476801189e-10 9.768697980479009e-06 -9.746024935073713e-11 -2.930458208346119e-05 -1.0808186201682366e-14 -8.8210089595557366e-11 -1.5872517033875782e-05 -2.5848847395747406e-14 -2.0313018369343754e-10 -1.3726806638545266e-05 4.5756595659775224e-06 -2.1916187397909144e-10 -9.7080166476805966e-10 4.5756541830335455e-06 -2.3769820892193045e-10 -1.3726827209006661e-05 9.768697980479009e-06 -9.7460249350737078e-11 -2.930458208346119e-05 -2.5848847395747406e-14 -2.0313018369343754e-10 -1.3726806638545266e-05 4.5756541830335455e-06 -2.3769820892193045e-10 -1.3726827209006661e-05 5.2935820705956844e-06 -3.0073924657898329e-10 -2.813622914816163e-05 9.7686979804790056e-06 -9.7460249350737143e-11 -2.9304582083461193e-05 7.9735710411843205e-15 -3.0964154645130569e-10 -1.875078808458138e-05 -2.5848847399782468e-14 -2.0313018369343754e-10 -1.3726806638545266e-05 4.5756541830335455e-06 -2.3769820892193045e-10 -1.3726827209006661e-05 5.2935820705956835e-06 -3.0073924657898334e-10 -2.813622914816163e-05 7.9735710411843205e-15 -3.0964154645130569e-10 -1.875078808458138e-05 -2.5848847902315658e-14 -2.0313018369343751e-10 -1.3726806638545266e-05 5.2935820705956835e-06 -3.0073924657898334e-10 -2.813622914816163e-05 1.321110105664149e-15 -1.8997531860662588e-10 -2.9635589509259245e-05 -2.5848847395747406e-14 -2.0313018369343754e-10 -1.3726806638545266e-05 2.2317251339717331e-14 -2.3487976511948831e-10 -1.2115002440682889e-09 4.5756595659775224e-06 -2.1916187397909144e-10 -9.7080166476835786e-10 -1.0808186201682366e-14 -8.8210089595557366e-11 -1.5872517033875782e-05 2.2317251339717331e-14 -2.3487976511948831e-10 -1.2115002440682889e-09 4.5756595659775224e-06 -2.1916187397909144e-10 -9.7080166476844699e-10 5.2909101661683438e-06 -1.4591111259817547e-10 -1.214666870090471e-09 -1.0808186201682366e-14 -8.8210089595557366e-11 -1.5872517033875782e-05 4.5756595659775224e-06 -2.1916187397909144e-10 -9.7080166476844699e-10 6.2503721626642364e-06 -3.5504189422860596e-10 -1.3765600878597221e-09 9.8790292415508546e-06 -2.1138407848921104e-10 -1.261194577765385e-09 9.8689943117130477e-06 -3.2053067333106182e-10 -1.7487917443229491e-05 4.5756595659775224e-06 -2.1916187397909144e-10 -9.7080166476844699e-10 4.5756541830335455e-06 -2.3769820892193045e-10 -1.3726827209006661e-05 6.2503721626642364e-06 -3.5504189422860596e-10 -1.3765600878597221e-09 9.8689943117130477e-06 -3.2053067333106182e-10 -1.7487917443229491e-05 6.2503721626642364e-06 -3.5504189422860596e-10 -1.3765600878597221e-09 9.8790292415508546e-06 -2.1138407848921102e-10 -1.2611945777643579e-09 1.2500879968076139e-05 -3.2551801459255107e-10 -1.629824591794777e-09 9.8689943117130477e-06 -3.2053067333106182e-10 -1.7487917443229491e-05 4.5756595659775224e-06 -2.1916187397909144e-10 -9.7080166476844699e-10 9.8790292415508563e-06 -2.1138407848921104e-10 -1.2611945777631312e-09 9.8689943117130494e-06 -3.2053067333106182e-10 -1.7487917443229491e-05 9.7686979804790073e-06 -9.7460249350737091e-11 -2.9304582083461183e-05 9.8790292415508546e-06 -2.1138407848921102e-10 -1.2611945777643579e-09 9.8689943117130443e-06 -3.2053067333106177e-10 -1.7487917443229491e-05 9.7686979804790073e-06 -9.7460249350737104e-11 -2.9304582083461187e-05 1.5638602541004177e-05 -2.175875386973896e-10 -2.1173417576523231e-05 9.8790292415508546e-06 -2.1138407848921102e-10 -1.2611945777643579e-09 1.543601931534353e-05 -3.015843204662809e-10 -1.2411355219812537e-05 1.563860254100417e-05 -2.1758753869738955e-10 -2.1173417576523234e-05 1.5928250011610241e-05 -1.9399799292415749e-10 -1.1798388266998301e-09 9.8790292415508546e-06 -2.1138407848921102e-10 -1.2611945777643579e-09 1.4317348651638015e-05 -1.2025080309708629e-10 -1.0177386376455245e-09 1.563860254100417e-05 -2.1758753869738962e-10 -2.1173417576523241e-05 1.5928250011610241e-05 -1.9399799292415749e-10 -1.1798388266998301e-09 9.8790292415508546e-06 -2.1138407848921102e-10 -1.2611945777643579e-09 1.2500879968076139e-05 -3.2551801459255107e-10 -1.629824591794777e-09 1.543601931534353e-05 -3.0158432046628085e-10 -1.2411355219812541e-05 1.5928250011610241e-05 -1.9399799292415749e-10 -1.1798388266998301e-09 9.8790292415508546e-06 -2.1138407848921102e-10 -1.2611945777643579e-09 1.2500879968076139e-05 -3.2551801459255107e-10 -1.629824591794777e-09 1.5436019315343527e-05 -3.0158432046628096e-10 -1.2411355219812546e-05 9.8689943117130477e-06 -3.2053067333106182e-10 -1.7487917443229491e-05 1.543601931534353e-05 -3.0158432046628096e-10 -1.2411355219812542e-05 9.8689943117130477e-06 -3.2053067333106182e-10 -1.7487917443229491e-05 1.4903648477604456e-05 -3.6922471588994957e-10 -2.975788816410158e-05 1.563860254100417e-05 -2.1758753869738957e-10 -2.1173417576523231e-05 9.8790292415508546e-06 -2.1138407848921102e-10 -1.2611945777643579e-09 1.5436019315343527e-05 -3.0158432046628096e-10 -1.2411355219812547e-05 9.8689943117130477e-06 -3.2053067333106182e-10 -1.7487917443229487e-05 1.563860254100417e-05 -2.1758753869738952e-10 -2.1173417576523234e-05 1.0046383562677725e-05 -2.7787092774713607e-10 -3.631737208292774e-05 1.5649098903596859e-05 -1.6163667036200383e-10 -4.9581285778237892e-05 6.9032157219580061e-06 -1.5972628854031032e-10 -4.6879651199621499e-05 9.6976538301985182e-06 -2.5740289847185274e-10 -5.0793645113127251e-05 1.0046383562677725e-05 -2.7787092774713607e-10 -3.631737208292774e-05 5.2935820705956835e-06 -3.0073924657898334e-10 -2.813622914816163e-05 9.7686979804790073e-06 -9.7460249350737104e-11 -2.930458208346118e-05 6.9032157219580053e-06 -1.5972628854031032e-10 -4.6879651199621499e-05 1.0046383562677725e-05 -2.7787092774713607e-10 -3.631737208292774e-05 9.7686979804790073e-06 -9.7460249350737091e-11 -2.9304582083461183e-05 1.5649098903596862e-05 -1.6163667036200386e-10 -4.9581285778237885e-05 6.9032157219580087e-06 -1.597262885403104e-10 -4.6879651199621505e-05 1.4903648477604456e-05 -3.6922471588994957e-10 -2.975788816410158e-05 1.0046383562677723e-05 -2.7787092774713607e-10 -3.631737208292774e-05 1.563860254100417e-05 -2.1758753869738957e-10 -2.1173417576523231e-05 1.5649098903596862e-05 -1.6163667036200386e-10 -4.9581285778237885e-05 1.0046383562677725e-05 -2.7787092774713607e-10 -3.631737208292774e-05 9.768697980479009e-06 -9.7460249350737104e-11 -2.930458208346118e-05 1.5638602541004167e-05 -2.1758753869738949e-10 -2.1173417576523231e-05 1.5649098903596862e-05 -1.6163667036200386e-10 -4.9581285778237885e-05 9.8689943117130477e-06 -3.2053067333106182e-10 -1.7487917443229491e-05 1.0046383562677725e-05 -2.7787092774713607e-10 -3.631737208292774e-05 5.2935820705956835e-06 -3.0073924657898334e-10 -2.813622914816163e-05 9.7686979804790073e-06 -9.7460249350737091e-11 -2.9304582083461183e-05 9.8689943117130477e-06 -3.2053067333106182e-10 -1.7487917443229491e-05 1.0046383562677725e-05 -2.7787092774713607e-10 -3.631737208292774e-05 9.7686979804790073e-06 -9.7460249350737091e-11 -2.9304582083461183e-05 1.563860254100417e-05 -2.1758753869738957e-10 -2.1173417576523231e-05 9.8689943117130477e-06 -3.2053067333106182e-10 -1.7487917443229491e-05 1.4903648477604456e-05 -3.6922471588994957e-10 -2.975788816410158e-05 1.0046383562677725e-05 -2.7787092774713607e-10 -3.631737208292774e-05 1.563860254100417e-05 -2.1758753869738957e-10 -2.1173417576523231e-05 1.0046383562677725e-05 -2.7787092774713607e-10 -3.631737208292774e-05 1.5626097139893164e-05 -3.1909785981644014e-10 -4.5036263482353991e-05 1.5649098903596862e-05 -1.6163667036200386e-10 -4.9581285778237878e-05 9.6976538301985182e-06 -2.5740289847185274e-10 -5.0793645113127251e-05 1.4903648477604456e-05 -3.6922471588994957e-10 -2.975788816410158e-05 1.0046383562677725e-05 -2.7787092774713607e-10 -3.631737208292774e-05 1.5626097139893164e-05 -3.1909785981644014e-10 -4.5036263482353998e-05 1.5649098903596862e-05 -1.6163667036200386e-10 -4.9581285778237885e-05 1.0046383562677725e-05 -2.7787092774713607e-10 -3.631737208292774e-05 5.1161978826768759e-06 -2.9973465394546214e-10 -4.5812532336753496e-05 6.9032157219580061e-06 -1.5972628854031032e-10 -4.6879651199621499e-05 9.6976538301985182e-06 -2.5740289847185274e-10 -5.0793645113127251e-05 1.0046383562677725e-05 -2.7787092774713607e-10 -3.631737208292774e-05 5.1161978826768759e-06 -2.9973465394546214e-10 -4.5812532336753496e-05 5.2935820705956835e-06 -3.0073924657898334e-10 -2.813622914816163e-05 6.9032157219580061e-06 -1.5972628854031032e-10 -4.6879651199621499e-05 -2.5848847395747406e-14 -2.0313018369343754e-10 -1.3726806638545266e-05 5.2935820705956844e-06 -3.0073924657898334e-10 -2.8136229148161627e-05 1.321110105664149e-15 -1.8997531860662588e-10 -2.9635589509259245e-05 9.768697980479009e-06 -9.7460249350737091e-11 -2.9304582083461183e-05 5.1161978826768759e-06 -2.9973465394546214e-10 -4.5812532336753496e-05 5.2935820705956827e-06 -3.0073924657898339e-10 -2.813622914816163e-05 1.321110105664149e-15 -1.8997531860662588e-10 -2.9635589509259245e-05 6.9032157219580061e-06 -1.5972628854031032e-10 -4.6879651199621499e-05 5.2935820705956835e-06 -3.0073924657898334e-10 -2.813622914816163e-05 1.3211094712339143e-15 -1.8997531860662588e-10 -2.9635589509259252e-05 9.7686979804790056e-06 -9.746024935073713e-11 -2.9304582083461193e-05 6.9032157219580061e-06 -1.597262885403103e-10 -4.6879651199621492e-05 5.1161978826768759e-06 -2.9973465394546214e-10 -4.5812532336753496e-05 5.7382375082516937e-15 -3.6096256959847493e-10 -3.7500369408419161e-05 -4.2199895565272831e-15 -2.3676412988302607e-10 -4.778149348692737e-05 8.9333938479447609e-15 -4.0660794812619828e-10 -5.6249934286874289e-05 5.1161978826768759e-06 -2.9973465394546214e-10 -4.5812532336753496e-05 5.7382375082516937e-15 -3.6096256959847493e-10 -3.7500369408419161e-05 5.2935820705956835e-06 -3.0073924657898339e-10 -2.8136229148161634e-05 1.321110105664149e-15 -1.8997531860662588e-10 -2.9635589509259245e-05 5.1161978826768759e-06 -2.9973465394546214e-10 -4.5812532336753496e-05 5.7382371699927264e-15 -3.6096256959847499e-10 -3.7500369408419168e-05 1.321110105664149e-15 -1.8997531860662588e-10 -2.9635589509259245e-05 -4.2199895565272831e-15 -2.3676412988302607e-10 -4.778149348692737e-05 7.9735710411843205e-15 -3.0964154645130569e-10 -1.875078808458138e-05 5.7382375082516937e-15 -3.6096256959847493e-10 -3.7500369408419161e-05 5.2935820705956835e-06 -3.0073924657898334e-10 -2.813622914816163e-05 1.321110105664149e-15 -1.8997531860662588e-10 -2.9635589509259245e-05 5.1161978826768759e-06 -2.9973465394546214e-10 -4.5812532336753496e-05 1.3211105018803894e-15 -1.8997531860662588e-10 -2.9635589509259242e-05 6.9032157219580061e-06 -1.5972628854031037e-10 -4.6879651199621505e-05 -4.2199895587866422e-15 -2.3676412988302607e-10 -4.778149348692737e-05 1.321110105664149e-15 -1.8997531860662588e-10 -2.9635589509259245e-05 -2.3560785929424698e-15 -1.0850989156408232e-10 -4.2949314686499073e-05 6.9032157219580078e-06 -1.5972628854031027e-10 -4.6879651199621499e-05 -4.2199895565272831e-15 -2.3676412988302607e-10 -4.778149348692737e-05 1.321110105664149e-15 -1.8997531860662588e-10 -2.9635589509259245e-05 5.3512478449041951e-15 -4.6988743187277577e-11 -3.0867990788711696e-05 9.7686979804790073e-06 -9.7460249350737091e-11 -2.9304582083461183e-05 -1.0808186201682366e-14 -8.8210089595557366e-11 -1.5872517033875782e-05 -2.356078763434177e-15 -1.0850989156408229e-10 -4.2949314686499073e-05 9.7686979804790056e-06 -9.7460249350737091e-11 -2.9304582083461173e-05 7.7409262571956762e-06 2.1185722325363299e-11 -4.2280069433527743e-05 6.9032157219580061e-06 -1.5972628854031032e-10 -4.6879651199621499e-05 1.321110105664149e-15 -1.8997531860662588e-10 -2.9635589509259245e-05 -2.356078763434177e-15 -1.0850989156408229e-10 -4.2949314686499073e-05 5.3512474980194905e-15 -4.6988743187277577e-11 -3.0867990788711696e-05 9.7686979804790073e-06 -9.7460249350737091e-11 -2.9304582083461183e-05 5.3512474980194905e-15 -4.6988743187277577e-11 -3.0867990788711696e-05 9.7686979804790073e-06 -9.7460249350737091e-11 -2.9304582083461183e-05 6.9836045325905533e-06 1.0675210623822454e-11 -2.0950096604816737e-05 7.7409262571956762e-06 2.1185722325363296e-11 -4.2280069433527743e-05 -2.356078763434177e-15 -1.0850989156408229e-10 -4.2949314686499073e-05 5.3512473835448908e-15 -4.6988743187277583e-11 -3.0867990788711696e-05 9.7686979804790073e-06 -9.7460249350737117e-11 -2.9304582083461183e-05 7.7409262571956762e-06 2.1185722325363299e-11 -4.2280069433527743e-05 5.3512474980194905e-15 -4.6988743187277577e-11 -3.0867990788711696e-05 9.7686979804790073e-06 -9.7460249350737091e-11 -2.9304582083461183e-05 -1.0808186201682366e-14 -8.8210089595557366e-11 -1.5872517033875782e-05 6.9836045325905525e-06 1.0675210623822472e-11 -2.0950096604816737e-05 1.321110105664149e-15 -1.8997531860662588e-10 -2.9635589509259245e-05 -2.3560785560951757e-15 -1.085098915640823e-10 -4.2949314686499079e-05 9.7686979804790073e-06 -9.7460249350737078e-11 -2.930458208346118e-05 6.903215721958007e-06 -1.5972628854031037e-10 -4.6879651199621512e-05 -2.356078763434177e-15 -1.0850989156408229e-10 -4.2949314686499073e-05 5.3512472570167363e-15 -4.6988743187277583e-11 -3.0867990788711696e-05 7.7409262571956779e-06 2.1185722325363296e-11 -4.2280069433527736e-05 -1.7711969490534492e-15 3.1976503909110433e-12 -4.8714057956763163e-05 9.7686979804790073e-06 -9.7460249350737091e-11 -2.9304582083461183e-05 1.5638728231690267e-05 -2.0591797051022455e-11 -2.3403587076929577e-05 1.5626099562216987e-05 -2.0294280806043077e-12 -4.6875130588935378e-05 1.5649098903596862e-05 -1.6163667036200386e-10 -4.9581285778237885e-05 9.7686979804790073e-06 -9.7460249350737091e-11 -2.9304582083461183e-05 6.9836045325905525e-06 1.0675210623822477e-11 -2.0950096604816734e-05 7.7409262571956762e-06 2.1185722325363299e-11 -4.2280069433527743e-05 1.5638728231690267e-05 -2.0591797051022452e-11 -2.3403587076929577e-05 9.7686979804790073e-06 -9.7460249350737091e-11 -2.9304582083461183e-05 1.563860254100417e-05 -2.1758753869738957e-10 -2.1173417576523234e-05 1.5638728231690267e-05 -2.0591797051022452e-11 -2.3403587076929577e-05 1.5649098903596862e-05 -1.6163667036200389e-10 -4.9581285778237885e-05 9.7686979804790073e-06 -9.7460249350737091e-11 -2.9304582083461183e-05 7.7409262571956762e-06 2.1185722325363289e-11 -4.2280069433527743e-05 1.562609956221699e-05 -2.0294280806043319e-12 -4.6875130588935364e-05 1.5649098903596862e-05 -1.6163667036200386e-10 -4.9581285778237885e-05 9.7686979804790073e-06 -9.7460249350737091e-11 -2.9304582083461183e-05 7.7409262571956762e-06 2.1185722325363299e-11 -4.2280069433527743e-05 1.5638728231690267e-05 -2.0591797051022465e-11 -2.3403587076929581e-05 1.562609956221699e-05 -2.0294280806043824e-12 -4.6875130588935378e-05 9.7686979804790073e-06 -9.7460249350737091e-11 -2.9304582083461183e-05 7.7409262571956762e-06 2.1185722325363302e-11 -4.2280069433527736e-05 1.5649098903596862e-05 -1.6163667036200386e-10 -4.9581285778237885e-05 6.9032157219580061e-06 -1.5972628854031032e-10 -4.6879651199621499e-05 9.7686979804790073e-06 -9.7460249350737091e-11 -2.9304582083461183e-05 1.4317348651638015e-05 -1.2025080309708629e-10 -1.0177386376455245e-09 1.0289879559324185e-05 -7.4252993542891888e-11 -1.4010513974143784e-09 1.5638728231690267e-05 -2.0591797051022433e-11 -2.3403587076929574e-05 1.0289879559324187e-05 -7.425299354289194e-11 -1.4010513974155735e-09 6.9836045325905525e-06 1.0675210623822472e-11 -2.0950096604816737e-05 1.0140302205623359e-05 6.8437917846350877e-11 -1.4693955343115282e-09 1.5638728231690267e-05 -2.0591797051022452e-11 -2.3403587076929577e-05 9.7686979804790073e-06 -9.7460249350737091e-11 -2.9304582083461183e-05 1.4317348651638015e-05 -1.2025080309708629e-10 -1.0177386376455245e-09 1.563860254100417e-05 -2.1758753869738957e-10 -2.1173417576523231e-05 1.5638728231690267e-05 -2.0591797051022452e-11 -2.3403587076929577e-05 9.8790292415508546e-06 -2.1138407848921102e-10 -1.2611945777643579e-09 9.7686979804790073e-06 -9.7460249350737091e-11 -2.9304582083461183e-05 1.4317348651638015e-05 -1.2025080309708629e-10 -1.0177386376455245e-09 1.0289879559324187e-05 -7.425299354289194e-11 -1.4010513974155735e-09 9.7686979804790073e-06 -9.7460249350737091e-11 -2.9304582083461183e-05 1.028987955932419e-05 -7.4252993542891927e-11 -1.4010513974097191e-09 5.2909101661683438e-06 -1.4591111259817549e-10 -1.2146668700895103e-09 6.9836045325905525e-06 1.0675210623822472e-11 -2.0950096604816737e-05 9.8790292415508546e-06 -2.1138407848921102e-10 -1.2611945777643579e-09 9.7686979804790073e-06 -9.7460249350737001e-11 -2.9304582083461187e-05 1.4317348651638015e-05 -1.2025080309708629e-10 -1.0177386376455245e-09 1.563860254100417e-05 -2.1758753869738962e-10 -2.1173417576523234e-05 9.7686979804790073e-06 -9.7460249350737091e-11 -2.9304582083461183e-05 1.0289879559324187e-05 -7.4252993542891953e-11 -1.4010513974106053e-09 6.9836045325905525e-06 1.0675210623822472e-11 -2.0950096604816737e-05 1.5638728231690267e-05 -2.0591797051022449e-11 -2.3403587076929574e-05 9.8790292415508546e-06 -2.1138407848921102e-10 -1.2611945777643579e-09 9.7686979804790073e-06 -9.7460249350737091e-11 -2.9304582083461183e-05 1.0289879559324187e-05 -7.425299354289194e-11 -1.4010513974155735e-09 5.2909101661683438e-06 -1.4591111259817549e-10 -1.2146668700895103e-09 1.0289879559324187e-05 -7.425299354289194e-11 -1.4010513974155735e-09 1.0140302205623359e-05 6.8437917846350877e-11 -1.4693955343121797e-09 1.6239173531312202e-05 2.4338193748980577e-11 -1.3010110273859567e-09 1.5638728231690267e-05 -2.0591797051022452e-11 -2.3403587076929577e-05 1.4317348651638015e-05 -1.2025080309708629e-10 -1.0177386376455245e-09 1.0289879559324187e-05 -7.425299354289194e-11 -1.4010513974155735e-09 1.6239173531312202e-05 2.433819374898057e-11 -1.3010110273846537e-09 1.5638728231690267e-05 -2.0591797051022452e-11 -2.3403587076929577e-05 4.5756595659775224e-06 -2.1916187397909144e-10 -9.7080166476844699e-10 9.768697980479009e-06 -9.7460249350737078e-11 -2.9304582083461183e-05 5.2909101661683438e-06 -1.4591111259817549e-10 -1.2146668700895103e-09 -1.0808186201682366e-14 -8.8210089595557366e-11 -1.5872517033875782e-05 9.7686979804790073e-06 -9.7460249350737091e-11 -2.9304582083461183e-05 5.2909101661683421e-06 -1.4591111259817549e-10 -1.2146668700927032e-09 -1.0808184553702115e-14 -8.8210089595557405e-11 -1.5872517033875779e-05 6.9836045325905533e-06 1.0675210623822469e-11 -2.0950096604816734e-05 5.383544297754112e-06 -1.0167032502303818e-11 -1.3238130380487981e-09 5.2909101661683438e-06 -1.4591111259817549e-10 -1.2146668700895103e-09 -1.0017162690010141e-14 -5.0543014340869106e-12 -1.6150521151554558e-05 6.9836045325905525e-06 1.0675210623822472e-11 -2.0950096604816737e-05 1.0289879559324187e-05 -7.425299354289194e-11 -1.4010513974155735e-09 5.383544297754112e-06 -1.0167032502303818e-11 -1.3238130380487981e-09 5.2909101661683438e-06 -1.4591111259817549e-10 -1.2146668700895103e-09 6.9836045325905525e-06 1.0675210623822472e-11 -2.0950096604816737e-05 2.2317251339717331e-14 -2.3487976511948831e-10 -1.2115002440682889e-09 5.2909101661683438e-06 -1.4591111259817549e-10 -1.2146668700885425e-09 -1.0808186201682366e-14 -8.8210089595557366e-11 -1.5872517033875782e-05 2.7471718200137661e-14 -1.0456502375255458e-10 -1.5463287323560541e-09 5.2909101661683438e-06 -1.4591111259817549e-10 -1.2146668700895103e-09 -1.0808187063160854e-14 -8.8210089595557392e-11 -1.5872517033875782e-05 -1.0017161514884749e-14 -5.0543014340869017e-12 -1.6150521151554555e-05 2.7471718200137661e-14 -1.0456502375255458e-10 -1.5463287323560541e-09 5.2909101661683438e-06 -1.4591111259817549e-10 -1.2146668700895103e-09 -1.0808185521253716e-14 -8.8210089595557366e-11 -1.5872517033875789e-05 -1.0017161671044e-14 -5.0543014340868961e-12 -1.6150521151554552e-05 6.9836045325905525e-06 1.0675210623822472e-11 -2.0950096604816737e-05 5.3512474980194905e-15 -4.6988743187277577e-11 -3.0867990788711696e-05 -1.0808186201682366e-14 -8.8210089595557366e-11 -1.5872517033875782e-05 -1.0017162690010141e-14 -5.0543014340869106e-12 -1.6150521151554558e-05 6.9836045325905525e-06 1.0675210623822472e-11 -2.0950096604816737e-05 5.383544297754112e-06 -1.0167032502303818e-11 -1.3238130380487981e-09 -1.0017163351192454e-14 -5.0543014340869106e-12 -1.6150521151554555e-05 2.7471718007272097e-14 -1.0456502375255458e-10 -1.5463287323560541e-09 1.4020181324661892e-14 8.4422678987974041e-11 -1.4435594256133821e-09 5.383544297754112e-06 -1.0167032502303818e-11 -1.3238130380487981e-09 5.2909101661683438e-06 -1.4591111259817549e-10 -1.2146668700895103e-09 -1.0017162570741669e-14 -5.0543014340869025e-12 -1.6150521151554562e-05 2.7471718200137661e-14 -1.0456502375255458e-10 -1.5463287323560541e-09 6.9836045325905525e-06 1.0675210623822472e-11 -2.0950096604816737e-05 -2.3690758950984106e-15 9.801528025007945e-11 -1.4904192553066817e-05 1.6771456493173192e-15 5.2130436836973751e-11 -3.0419259943980577e-05 6.0188986824675937e-06 1.5020774841347834e-10 -1.8056150251445622e-05 4.9681042359178501e-06 1.1615967093410986e-10 -1.2084208054760257e-09 6.9836045325905533e-06 1.0675210623822477e-11 -2.0950096604816741e-05 -2.3690749254896593e-15 9.8015280250079463e-11 -1.4904192553066827e-05 6.0188986824675937e-06 1.5020774841347831e-10 -1.8056150251445625e-05 5.383544297754112e-06 -1.0167032502303818e-11 -1.3238130380487981e-09 1.4020181324661892e-14 8.4422678987974041e-11 -1.4435594256133821e-09 4.9681042359178501e-06 1.1615967093410986e-10 -1.2084208054760257e-09 -2.3690749254896593e-15 9.8015280250079463e-11 -1.4904192553066827e-05 4.9681042359178501e-06 1.1615967093410986e-10 -1.2084208054760257e-09 6.9836045325905533e-06 1.0675210623822474e-11 -2.0950096604816741e-05 6.0188986824675929e-06 1.5020774841347831e-10 -1.8056150251445625e-05 1.0140302205623359e-05 6.8437917846350877e-11 -1.4693955343115282e-09 5.383544297754112e-06 -1.0167032502303818e-11 -1.3238130380487981e-09 -1.0017162098185125e-14 -5.054301434086884e-12 -1.6150521151554558e-05 1.4020181324661892e-14 8.4422678987974041e-11 -1.4435594256133821e-09 -2.3690755231831447e-15 9.801528025007945e-11 -1.4904192553066829e-05 1.4020181324661892e-14 8.4422678987974041e-11 -1.4435594256133821e-09 4.9681042359178501e-06 1.1615967093410986e-10 -1.2084208054760257e-09 -2.3690749254896593e-15 9.8015280250079463e-11 -1.4904192553066827e-05 7.0418398431534282e-15 2.162315989055052e-10 -1.1743868072876088e-09 4.9681042359178501e-06 1.1615967093410986e-10 -1.2084208054760257e-09 6.0188986824675946e-06 1.5020774841347834e-10 -1.8056150251445625e-05 9.709189986570331e-06 2.2963225275019721e-10 -1.3083131808207368e-09 1.0140302205623359e-05 6.8437917846350877e-11 -1.4693955343115282e-09 5.383544297754112e-06 -1.0167032502303818e-11 -1.3238130380487981e-09 4.9681042359178501e-06 1.1615967093410986e-10 -1.2084208054760257e-09 6.9836045325905525e-06 1.0675210623822472e-11 -2.0950096604816737e-05 1.0140302205623359e-05 6.8437917846350877e-11 -1.4693955343115282e-09 5.383544297754112e-06 -1.0167032502303818e-11 -1.3238130380487981e-09 4.9681042359178501e-06 1.1615967093410986e-10 -1.2084208054760257e-09 6.9836045325905525e-06 1.0675210623822472e-11 -2.0950096604816737e-05 -2.3690749254896593e-15 9.8015280250079463e-11 -1.4904192553066827e-05 -2.3690749254896593e-15 9.8015280250079463e-11 -1.4904192553066827e-05 1.6771460362069004e-15 5.2130436836973744e-11 -3.0419259943980567e-05 2.695875993047493e-15 2.0098451096991858e-10 -2.9125966424887185e-05 6.018898682467592e-06 1.5020774841347831e-10 -1.8056150251445625e-05 -1.0017162690010141e-14 -5.0543014340869106e-12 -1.6150521151554558e-05 6.9836045325905525e-06 1.0675210623822472e-11 -2.0950096604816737e-05 -2.3690749254896593e-15 9.8015280250079463e-11 -1.4904192553066827e-05 1.6771460362069004e-15 5.2130436836973744e-11 -3.0419259943980567e-05 5.383544297754112e-06 -1.0167032502303818e-11 -1.3238130380487981e-09 -1.0017162830544359e-14 -5.0543014340868735e-12 -1.6150521151554558e-05 6.9836045325905525e-06 1.0675210623822472e-11 -2.0950096604816737e-05 -2.3690761745276917e-15 9.8015280250079437e-11 -1.4904192553066829e-05 1.6771460362069004e-15 5.2130436836973744e-11 -3.0419259943980567e-05 7.0370317538178019e-06 1.8525723786360307e-10 -4.5175737230873856e-05 6.0188986824675937e-06 1.5020774841347828e-10 -1.8056150251445625e-05 1.120348321877054e-05 1.2379957361385237e-10 -2.8153580855278877e-05 5.3512474980194905e-15 -4.6988743187277577e-11 -3.0867990788711696e-05 6.9836045325905533e-06 1.0675210623822477e-11 -2.0950096604816731e-05 1.6771460362069004e-15 5.2130436836973744e-11 -3.0419259943980567e-05 7.7409262571956762e-06 2.1185722325363296e-11 -4.2280069433527743e-05 1.6771460362069004e-15 5.2130436836973744e-11 -3.0419259943980567e-05 2.695875993047493e-15 2.0098451096991858e-10 -2.9125966424887185e-05 7.0370317538178019e-06 1.8525723786360307e-10 -4.5175737230873863e-05 6.0188986824675929e-06 1.5020774841347831e-10 -1.8056150251445622e-05 6.9836045325905525e-06 1.0675210623822472e-11 -2.0950096604816737e-05 1.6771450562683672e-15 5.2130436836973751e-11 -3.0419259943980571e-05 6.0188986824675929e-06 1.5020774841347831e-10 -1.8056150251445615e-05 1.120348321877054e-05 1.2379957361385237e-10 -2.8153580855278877e-05 5.3512474980194905e-15 -4.6988743187277577e-11 -3.0867990788711696e-05 -1.0017162690010141e-14 -5.0543014340869106e-12 -1.6150521151554558e-05 6.9836045325905525e-06 1.0675210623822472e-11 -2.0950096604816737e-05 1.6771460362069004e-15 5.2130436836973744e-11 -3.0419259943980567e-05 1.6771460362069004e-15 5.2130436836973744e-11 -3.0419259943980567e-05 7.7409262571956762e-06 2.1185722325363315e-11 -4.228006943352775e-05 7.0370317538178035e-06 1.8525723786360305e-10 -4.5175737230873856e-05 1.120348321877054e-05 1.2379957361385237e-10 -2.8153580855278877e-05 6.9836045325905525e-06 1.0675210623822472e-11 -2.0950096604816737e-05 1.6771446653949117e-15 5.2130436836973757e-11 -3.0419259943980567e-05 7.7409262571956762e-06 2.1185722325363299e-11 -4.2280069433527743e-05 1.120348321877054e-05 1.2379957361385237e-10 -2.8153580855278877e-05 5.3512474980194905e-15 -4.6988743187277577e-11 -3.0867990788711696e-05 1.6771455984550126e-15 5.2130436836973744e-11 -3.0419259943980567e-05 7.7409262571956762e-06 2.1185722325363299e-11 -4.2280069433527743e-05 -1.7711969490534492e-15 3.1976503909110433e-12 -4.8714057956763163e-05 1.6771460362069004e-15 5.2130436836973744e-11 -3.0419259943980567e-05 7.7409262571956762e-06 2.1185722325363299e-11 -4.2280069433527743e-05 7.3612192498506594e-16 1.2072073407449764e-10 -4.2810770461270546e-05 -1.7711969490534492e-15 3.1976503909110433e-12 -4.8714057956763163e-05 7.7409262571956762e-06 2.1185722325363299e-11 -4.2280069433527743e-05 7.3612191945775335e-16 1.2072073407449764e-10 -4.2810770461270533e-05 7.0370317538178027e-06 1.8525723786360307e-10 -4.5175737230873856e-05 5.716120969559145e-16 1.0661228492656905e-10 -5.6197674479991651e-05 1.6771460362069004e-15 5.2130436836973744e-11 -3.0419259943980567e-05 7.3612192498506594e-16 1.2072073407449764e-10 -4.2810770461270546e-05 2.6958758459916797e-15 2.0098451096991858e-10 -2.9125966424887185e-05 7.0370317538178027e-06 1.8525723786360307e-10 -4.5175737230873856e-05 1.6771460362069004e-15 5.2130436836973744e-11 -3.0419259943980567e-05 7.7409262571956762e-06 2.1185722325363315e-11 -4.2280069433527743e-05 7.3612192498506594e-16 1.2072073407449764e-10 -4.2810770461270546e-05 7.0370317538178027e-06 1.8525723786360307e-10 -4.5175737230873863e-05 7.0370317538178027e-06 1.8525723786360307e-10 -4.5175737230873856e-05 5.2909254682317491e-06 3.0292219805821316e-10 -2.8195746386249312e-05 6.0188986824675946e-06 1.5020774841347826e-10 -1.8056150251445615e-05 1.0290282781611603e-05 3.5333025583564273e-10 -3.7140403475833703e-05 2.695875993047493e-15 2.0098451096991858e-10 -2.9125966424887185e-05 7.037031753817801e-06 1.8525723786360307e-10 -4.5175737230873856e-05 5.2909254682317483e-06 3.0292219805821321e-10 -2.8195746386249315e-05 6.0188986824675937e-06 1.5020774841347831e-10 -1.8056150251445625e-05 2.695875993047493e-15 2.0098451096991858e-10 -2.9125966424887185e-05 7.037031753817801e-06 1.8525723786360312e-10 -4.5175737230873863e-05 5.3835439316491834e-06 3.3029219232541438e-10 -4.6721927826731178e-05 -4.1922489159129405e-15 2.3802859506236089e-10 -4.7628268128440409e-05 7.3612192498506594e-16 1.2072073407449764e-10 -4.2810770461270546e-05 2.695875993047493e-15 2.0098451096991858e-10 -2.9125966424887185e-05 7.0370317538178027e-06 1.8525723786360307e-10 -4.5175737230873856e-05 -4.1922489159129405e-15 2.3802859506236089e-10 -4.7628268128440409e-05 2.695875993047493e-15 2.0098451096991858e-10 -2.9125966424887185e-05 5.9974281666917418e-15 3.8700890660683202e-10 -3.7500389193523692e-05 5.3835439316491851e-06 3.3029219232541423e-10 -4.6721927826731185e-05 -4.1922489159129405e-15 2.3802859506236089e-10 -4.7628268128440409e-05 2.695875993047493e-15 2.0098451096991858e-10 -2.9125966424887185e-05 5.9974281666917418e-15 3.8700890660683202e-10 -3.7500389193523692e-05 5.3835439316491843e-06 3.3029219232541423e-10 -4.6721927826731178e-05 5.2909254682317491e-06 3.0292219805821316e-10 -2.8195746386249312e-05 2.695875993047493e-15 2.0098451096991858e-10 -2.9125966424887185e-05 7.037031753817801e-06 1.8525723786360312e-10 -4.5175737230873869e-05 5.38354393164918e-06 3.3029219232541433e-10 -4.6721927826731178e-05 5.2909254682317491e-06 3.0292219805821316e-10 -2.8195746386249312e-05 7.0370317538178027e-06 1.8525723786360307e-10 -4.5175737230873856e-05 5.3835439316491834e-06 3.3029219232541433e-10 -4.6721927826731178e-05 5.2909254682317491e-06 3.0292219805821316e-10 -2.8195746386249312e-05 1.0290282781611603e-05 3.5333025583564273e-10 -3.714040347583371e-05 2.695875993047493e-15 2.0098451096991858e-10 -2.9125966424887185e-05 5.9974278488570065e-15 3.8700890660683207e-10 -3.7500389193523692e-05 5.2909254682317491e-06 3.0292219805821316e-10 -2.8195746386249312e-05 5.7757587885612329e-15 3.0308755157079673e-10 -1.8750812796505107e-05 2.695875993047493e-15 2.0098451096991858e-10 -2.9125966424887185e-05 5.2909254682317491e-06 3.0292219805821316e-10 -2.8195746386249312e-05 5.7757587885612329e-15 3.0308755157079673e-10 -1.8750812796505107e-05 -1.8436268270069628e-14 2.0868948543240669e-10 -1.3726827394517959e-05 5.2909254682317491e-06 3.0292219805821316e-10 -2.8195746386249312e-05 5.7757589281908161e-15 3.0308755157079673e-10 -1.8750812796505104e-05 -1.8436268270069628e-14 2.0868948543240669e-10 -1.3726827394517959e-05 4.5756595050735454e-06 2.4270380470102357e-10 -1.3726870395662768e-05 1.4987074901934291e-14 3.2692378432315383e-10 -1.3300813219402964e-09 4.5756339469291883e-06 2.1789120835212715e-10 -9.6842764996858597e-10 6.2503896926346748e-06 3.4404573265877833e-10 -1.3290117811724069e-09 4.5756595050735454e-06 2.4270380470102357e-10 -1.3726870395662768e-05 5.7757587885612329e-15 3.0308755157079673e-10 -1.8750812796505107e-05 1.4987074901934291e-14 3.2692378432315383e-10 -1.3300813219407029e-09 -1.8436268270069628e-14 2.0868948543240669e-10 -1.3726827394517959e-05 4.5756595050735454e-06 2.4270380470102357e-10 -1.3726870395662768e-05 1.4987074901934291e-14 3.2692378432315383e-10 -1.3300813219402964e-09 -1.8436268640356128e-14 2.0868948543240669e-10 -1.3726827394517959e-05 4.5756339469291883e-06 2.1789120835212715e-10 -9.6842764996858597e-10 4.5756595050735454e-06 2.4270380470102357e-10 -1.3726870395662768e-05 1.4987074901934291e-14 3.2692378432315383e-10 -1.3300813219402964e-09 7.0418391025783676e-15 2.162315989055052e-10 -1.1743868072853872e-09 -1.8436268270069628e-14 2.0868948543240669e-10 -1.3726827394517959e-05 4.5756339469291883e-06 2.1789120835212715e-10 -9.6842764996858597e-10 4.9681042359178501e-06 1.1615967093410986e-10 -1.2084208054760257e-09 -2.3690749254896593e-15 9.8015280250079463e-11 -1.4904192553066827e-05 -1.8436268270069628e-14 2.0868948543240669e-10 -1.3726827394517959e-05 6.0188986824675937e-06 1.5020774841347831e-10 -1.8056150251445625e-05 4.9681042359178501e-06 1.1615967093410986e-10 -1.2084208054760257e-09 7.0418398431534282e-15 2.162315989055052e-10 -1.1743868072876088e-09 -1.8436268270069628e-14 2.0868948543240669e-10 -1.3726827394517959e-05 4.5756339469291883e-06 2.1789120835212715e-10 -9.6842764996858597e-10 -1.8436268270069628e-14 2.0868948543240669e-10 -1.3726827394517959e-05 6.0188986824675946e-06 1.5020774841347831e-10 -1.8056150251445625e-05 4.5756339469291892e-06 2.1789120835212713e-10 -9.6842764996845238e-10 4.5756595050735454e-06 2.4270380470102357e-10 -1.3726870395662768e-05 4.9681042359178501e-06 1.1615967093410986e-10 -1.2084208054760257e-09 -2.3690739173836992e-15 9.801528025007945e-11 -1.4904192553066829e-05 7.0418398431534282e-15 2.162315989055052e-10 -1.1743868072876088e-09 -1.8436268270069628e-14 2.0868948543240669e-10 -1.3726827394517959e-05 4.9681042359178501e-06 1.1615967093410986e-10 -1.2084208054760257e-09 -1.8436268270069628e-14 2.0868948543240669e-10 -1.3726827394517959e-05 6.0188986824675937e-06 1.5020774841347831e-10 -1.8056150251445625e-05 4.5756339469291883e-06 2.1789120835212715e-10 -9.6842764996858597e-10 2.695875993047493e-15 2.0098451096991858e-10 -2.9125966424887185e-05 5.2909254682317491e-06 3.0292219805821316e-10 -2.8195746386249312e-05 -1.8436268105437651e-14 2.0868948543240666e-10 -1.3726827394517959e-05 6.0188986824675937e-06 1.5020774841347831e-10 -1.8056150251445625e-05 -2.3690749254896593e-15 9.8015280250079463e-11 -1.4904192553066827e-05 2.6958757115470212e-15 2.0098451096991858e-10 -2.9125966424887185e-05 -1.8436268270069628e-14 2.0868948543240669e-10 -1.3726827394517959e-05 6.018898682467592e-06 1.5020774841347831e-10 -1.8056150251445625e-05 6.0188986824675937e-06 1.5020774841347831e-10 -1.8056150251445625e-05 4.57563394692919e-06 2.1789120835212715e-10 -9.6842764997376742e-10 4.5756595050735471e-06 2.4270380470102362e-10 -1.3726870395662769e-05 9.709189986570331e-06 2.2963225275019721e-10 -1.3083131808207368e-09 4.9681042359178501e-06 1.1615967093410986e-10 -1.2084208054760257e-09 6.0188986824675946e-06 1.5020774841347834e-10 -1.8056150251445625e-05 4.5756339469291883e-06 2.1789120835212715e-10 -9.6842764996858597e-10 9.709189986570331e-06 2.2963225275019721e-10 -1.3083131808207368e-09 4.5756339469291883e-06 2.1789120835212715e-10 -9.6842764996858597e-10 6.2503896926346748e-06 3.4404573265877833e-10 -1.3290117811724903e-09 4.5756595050735454e-06 2.4270380470102357e-10 -1.3726870395662768e-05 9.709189986570331e-06 2.2963225275019721e-10 -1.3083131808207368e-09 6.2503896926346748e-06 3.4404573265877833e-10 -1.3290117811724069e-09 4.5756595050735454e-06 2.4270380470102357e-10 -1.3726870395662768e-05 9.8869240622761027e-06 3.1776070662666808e-10 -1.7643716060502448e-05 9.709189986570331e-06 2.2963225275019721e-10 -1.3083131808207368e-09 6.0188986824675937e-06 1.5020774841347831e-10 -1.8056150251445625e-05 4.5756595050735454e-06 2.4270380470102357e-10 -1.3726870395662768e-05 9.8869240622761027e-06 3.1776070662666813e-10 -1.7643716060502448e-05 9.709189986570331e-06 2.2963225275019721e-10 -1.3083131808195024e-09 5.2909254682317491e-06 3.0292219805821316e-10 -2.8195746386249312e-05 6.0188986824675929e-06 1.5020774841347828e-10 -1.8056150251445625e-05 4.5756595050735454e-06 2.4270380470102357e-10 -1.3726870395662768e-05 9.8869240622761027e-06 3.1776070662666813e-10 -1.7643716060502448e-05 5.2909254682317491e-06 3.0292219805821316e-10 -2.8195746386249312e-05 -1.8436268096604409e-14 2.0868948543240671e-10 -1.3726827394517963e-05 6.0188986824675937e-06 1.5020774841347831e-10 -1.8056150251445625e-05 4.5756595050735454e-06 2.4270380470102357e-10 -1.3726870395662768e-05 6.0188986824675937e-06 1.5020774841347831e-10 -1.8056150251445625e-05 9.8869240622761027e-06 3.1776070662666818e-10 -1.7643716060502444e-05 1.1203483218770539e-05 1.2379957361385237e-10 -2.8153580855278884e-05 1.6530727647612994e-05 2.1288521695976865e-10 -1.9526949278787022e-05 6.0188986824675937e-06 1.5020774841347831e-10 -1.8056150251445625e-05 9.709189986570331e-06 2.2963225275019721e-10 -1.3083131808185081e-09 1.120348321877054e-05 1.2379957361385232e-10 -2.8153580855278877e-05 1.6530727647612994e-05 2.1288521695976865e-10 -1.9526949278787022e-05 6.0188986824675937e-06 1.5020774841347831e-10 -1.8056150251445625e-05 9.8869240622761043e-06 3.1776070662666813e-10 -1.7643716060502448e-05 9.709189986570331e-06 2.2963225275019723e-10 -1.3083131808234927e-09 1.6530727647612994e-05 2.1288521695976865e-10 -1.9526949278787022e-05 6.2503896926346748e-06 3.4404573265877833e-10 -1.3290117811724069e-09 9.8869240622761027e-06 3.1776070662666813e-10 -1.7643716060502448e-05 9.709189986570331e-06 2.2963225275019721e-10 -1.3083131808207368e-09 1.2500897218653372e-05 4.0628017276559457e-10 -1.5504538227634152e-09 9.8869240622761027e-06 3.1776070662666813e-10 -1.7643716060502448e-05 9.709189986570331e-06 2.2963225275019721e-10 -1.3083131808207368e-09 1.5877184983520513e-05 2.5286800185625348e-10 -1.2694667548723638e-09 1.6530727647612994e-05 2.1288521695976865e-10 -1.9526949278787022e-05 9.709189986570331e-06 2.2963225275019721e-10 -1.3083131808207368e-09 1.4271189655655236e-05 1.2253954628353728e-10 -9.9612318895824441e-10 1.5877184983520513e-05 2.5286800185625348e-10 -1.2694667548723638e-09 1.6530727647612994e-05 2.1288521695976865e-10 -1.9526949278787025e-05 9.8869240622761027e-06 3.1776070662666813e-10 -1.7643716060502448e-05 1.2500897218653372e-05 4.0628017276559457e-10 -1.5504538227634152e-09 1.5980354705469348e-05 2.9924205556121345e-10 -1.5348491066606818e-05 1.5877184983520513e-05 2.5286800185625348e-10 -1.2694667548723638e-09 9.8869240622761027e-06 3.1776070662666813e-10 -1.7643716060502448e-05 9.709189986570331e-06 2.2963225275019716e-10 -1.3083131808247523e-09 1.2500897218653372e-05 4.0628017276559457e-10 -1.5504538227634152e-09 1.5877184983520513e-05 2.5286800185625348e-10 -1.2694667548723638e-09 9.8869240622761027e-06 3.1776070662666813e-10 -1.7643716060502448e-05 1.4319818325639263e-05 2.4238405439881306e-10 -2.9091513482407228e-05 1.5980354705469348e-05 2.9924205556121345e-10 -1.5348491066606818e-05 1.6530727647612994e-05 2.1288521695976865e-10 -1.9526949278787022e-05 9.8869240622761027e-06 3.1776070662666813e-10 -1.7643716060502448e-05 1.5980354705469348e-05 2.9924205556121345e-10 -1.5348491066606818e-05 1.5877184983520513e-05 2.5286800185625353e-10 -1.2694667548713598e-09 1.6530727647612994e-05 2.1288521695976865e-10 -1.9526949278787022e-05 7.0370317538178027e-06 1.8525723786360307e-10 -4.5175737230873856e-05 1.0290282781611601e-05 3.5333025583564273e-10 -3.7140403475833703e-05 1.1203483218770539e-05 1.2379957361385237e-10 -2.8153580855278877e-05 1.5621095772431362e-05 1.5918411750129418e-10 -4.9656945241015275e-05 7.0370317538178027e-06 1.8525723786360307e-10 -4.5175737230873856e-05 6.0188986824675912e-06 1.5020774841347834e-10 -1.8056150251445618e-05 1.0290282781611603e-05 3.5333025583564273e-10 -3.714040347583371e-05 1.120348321877054e-05 1.2379957361385237e-10 -2.815358085527888e-05 9.8869240622761027e-06 3.1776070662666813e-10 -1.7643716060502448e-05 1.4319818325639263e-05 2.4238405439881306e-10 -2.9091513482407228e-05 1.0290282781611603e-05 3.5333025583564273e-10 -3.7140403475833703e-05 1.1203483218770539e-05 1.2379957361385229e-10 -2.8153580855278877e-05 9.8869240622761027e-06 3.1776070662666813e-10 -1.7643716060502448e-05 1.4319818325639263e-05 2.4238405439881306e-10 -2.9091513482407228e-05 1.1203483218770539e-05 1.2379957361385229e-10 -2.8153580855278877e-05 1.653072764761299e-05 2.128852169597686e-10 -1.9526949278787032e-05 6.0188986824675937e-06 1.5020774841347831e-10 -1.8056150251445625e-05 9.8869240622761027e-06 3.1776070662666813e-10 -1.7643716060502448e-05 1.0290282781611601e-05 3.5333025583564273e-10 -3.7140403475833703e-05 1.120348321877054e-05 1.2379957361385234e-10 -2.8153580855278874e-05 1.4319818325639263e-05 2.4238405439881306e-10 -2.9091513482407228e-05 1.120348321877054e-05 1.2379957361385234e-10 -2.8153580855278884e-05 1.6530727647612994e-05 2.1288521695976865e-10 -1.9526949278787022e-05 1.5621095772431359e-05 1.5918411750129413e-10 -4.9656945241015275e-05 1.4319818325639263e-05 2.4238405439881306e-10 -2.9091513482407228e-05 1.0290282781611603e-05 3.5333025583564273e-10 -3.7140403475833703e-05 1.120348321877054e-05 1.2379957361385232e-10 -2.8153580855278877e-05 1.5621095772431359e-05 1.5918411750129415e-10 -4.9656945241015268e-05 5.2909254682317491e-06 3.0292219805821316e-10 -2.8195746386249312e-05 6.0188986824675929e-06 1.5020774841347828e-10 -1.8056150251445625e-05 9.8869240622761027e-06 3.1776070662666813e-10 -1.7643716060502448e-05 1.0290282781611603e-05 3.5333025583564273e-10 -3.7140403475833703e-05 7.0370317538178027e-06 1.8525723786360307e-10 -4.5175737230873856e-05 5.3835439316491843e-06 3.3029219232541433e-10 -4.6721927826731178e-05 1.0290282781611601e-05 3.5333025583564273e-10 -3.7140403475833697e-05 1.0140746101451471e-05 3.6841807924659266e-10 -5.6268845543530887e-05 1.4319818325639263e-05 2.4238405439881306e-10 -2.9091513482407228e-05 1.0290282781611603e-05 3.5333025583564273e-10 -3.7140403475833703e-05 1.6239118853992815e-05 3.1638289824126832e-10 -4.6875163348786098e-05 1.5621095772431362e-05 1.5918411750129418e-10 -4.9656945241015275e-05 7.7409262571956762e-06 2.1185722325363299e-11 -4.2280069433527743e-05 7.0370317538178027e-06 1.8525723786360307e-10 -4.5175737230873856e-05 1.1203483218770539e-05 1.2379957361385237e-10 -2.8153580855278877e-05 1.5621095772431362e-05 1.591841175012942e-10 -4.9656945241015275e-05 7.7409262571956762e-06 2.1185722325363299e-11 -4.2280069433527743e-05 1.1203483218770539e-05 1.2379957361385239e-10 -2.815358085527888e-05 1.5638728231690267e-05 -2.059179705102242e-11 -2.3403587076929587e-05 1.562609956221699e-05 -2.0294280806043763e-12 -4.6875130588935357e-05 7.7409262571956762e-06 2.1185722325363299e-11 -4.2280069433527743e-05 1.120348321877054e-05 1.2379957361385237e-10 -2.8153580855278877e-05 1.562609956221699e-05 -2.029428080604382e-12 -4.6875130588935378e-05 1.5621095772431362e-05 1.591841175012941e-10 -4.9656945241015262e-05 6.9836045325905525e-06 1.0675210623822472e-11 -2.0950096604816737e-05 7.7409262571956762e-06 2.1185722325363296e-11 -4.2280069433527743e-05 1.1203483218770542e-05 1.2379957361385237e-10 -2.8153580855278877e-05 1.5638728231690267e-05 -2.0591797051022452e-11 -2.3403587076929577e-05 6.9836045325905525e-06 1.0675210623822472e-11 -2.0950096604816737e-05 1.120348321877054e-05 1.2379957361385237e-10 -2.8153580855278877e-05 1.0140302205623357e-05 6.843791784635089e-11 -1.4693955343114331e-09 1.5638728231690267e-05 -2.0591797051022452e-11 -2.3403587076929577e-05 9.709189986570331e-06 2.2963225275019721e-10 -1.3083131808207368e-09 1.120348321877054e-05 1.2379957361385234e-10 -2.8153580855278884e-05 1.0140302205623357e-05 6.8437917846350851e-11 -1.4693955343106035e-09 1.4271189655655234e-05 1.2253954628353728e-10 -9.9612318895512118e-10 6.9836045325905525e-06 1.0675210623822472e-11 -2.0950096604816737e-05 6.0188986824675903e-06 1.5020774841347834e-10 -1.8056150251445622e-05 1.120348321877054e-05 1.2379957361385237e-10 -2.8153580855278877e-05 1.0140302205623359e-05 6.8437917846350877e-11 -1.4693955343109685e-09 1.120348321877054e-05 1.2379957361385237e-10 -2.8153580855278877e-05 1.0140302205623359e-05 6.8437917846350877e-11 -1.4693955343115282e-09 1.4271189655655234e-05 1.2253954628353728e-10 -9.9612318895512118e-10 1.5638728231690267e-05 -2.0591797051022452e-11 -2.3403587076929577e-05 6.0188986824675937e-06 1.5020774841347831e-10 -1.8056150251445625e-05 9.709189986570331e-06 2.2963225275019721e-10 -1.3083131808211402e-09 1.120348321877054e-05 1.2379957361385239e-10 -2.815358085527888e-05 1.0140302205623359e-05 6.8437917846350877e-11 -1.4693955343115282e-09 9.709189986570331e-06 2.2963225275019721e-10 -1.3083131808207368e-09 1.1203483218770542e-05 1.2379957361385242e-10 -2.815358085527888e-05 1.4271189655655234e-05 1.2253954628353728e-10 -9.9612318895512118e-10 1.6530727647612994e-05 2.1288521695976865e-10 -1.9526949278787025e-05 1.120348321877054e-05 1.2379957361385237e-10 -2.8153580855278877e-05 1.4271189655655234e-05 1.2253954628353728e-10 -9.9612318895512118e-10 1.6530727647612994e-05 2.1288521695976865e-10 -1.9526949278787022e-05 1.5638728231690267e-05 -2.0591797051022452e-11 -2.3403587076929577e-05 1.0289879559324187e-05 -7.425299354289194e-11 -1.4010513974155735e-09 5.383544297754112e-06 -1.0167032502303818e-11 -1.3238130380487981e-09 6.9836045325905525e-06 1.0675210623822469e-11 -2.0950096604816737e-05 1.0140302205623359e-05 6.8437917846350877e-11 -1.4693955343115282e-09 1.0140302205623359e-05 6.8437917846350877e-11 -1.4693955343115282e-09 1.4271189655655234e-05 1.2253954628353728e-10 -9.9612318895512118e-10 1.6239173531312202e-05 2.4338193748980596e-11 -1.3010110273887522e-09 1.5638728231690267e-05 -2.0591797051022452e-11 -2.3403587076929577e-05 1.8733897007229157e-05 1.10584145670682e-10 -9.9364073943199336e-10 2.2727406297947934e-05 8.4134944570596782e-11 -8.3438618808663915e-10 2.1394147777644497e-05 1.2417173357931729e-10 -2.9153047680325871e-05 2.4287130250885913e-05 -3.119103997913034e-11 -2.0414398007010207e-05 1.8733897007229157e-05 1.10584145670682e-10 -9.9364073943199336e-10 2.13941477776445e-05 1.2417173357931732e-10 -2.9153047680325868e-05 2.4287130250885909e-05 -3.119103997913034e-11 -2.0414398007010207e-05 1.5638728231690267e-05 -2.0591797051022452e-11 -2.3403587076929577e-05 1.4271189655655234e-05 1.2253954628353728e-10 -9.9612318895512118e-10 1.8733897007229157e-05 1.10584145670682e-10 -9.9364073943225206e-10 1.653072764761299e-05 2.1288521695976862e-10 -1.9526949278787019e-05 1.5638728231690267e-05 -2.0591797051022484e-11 -2.3403587076929581e-05 1.6239173531312202e-05 2.4338193748980577e-11 -1.3010110273859567e-09 1.8733897007229157e-05 1.10584145670682e-10 -9.9364073943200287e-10 2.1039126345688912e-05 -6.5016416629995734e-12 -1.0244444783717228e-09 1.5638728231690267e-05 -2.0591797051022452e-11 -2.3403587076929577e-05 1.8733897007229157e-05 1.10584145670682e-10 -9.9364073943199336e-10 2.1394147777644497e-05 1.2417173357931729e-10 -2.9153047680325868e-05 1.653072764761299e-05 2.1288521695976867e-10 -1.9526949278787025e-05 1.5638728231690267e-05 -2.0591797051022417e-11 -2.3403587076929577e-05 1.8733897007229157e-05 1.10584145670682e-10 -9.9364073943199336e-10 2.4287130250885909e-05 -3.1191039979130372e-11 -2.0414398007010204e-05 2.1039126345688912e-05 -6.5016416629995734e-12 -1.0244444783717635e-09 1.5638728231690267e-05 -2.0591797051022452e-11 -2.3403587076929577e-05 1.8733897007229157e-05 1.10584145670682e-10 -9.9364073943199336e-10 2.13941477776445e-05 1.2417173357931727e-10 -2.9153047680325871e-05 1.6530727647612994e-05 2.1288521695976873e-10 -1.9526949278787022e-05 2.5496216248062315e-05 1.933346505886704e-10 -1.732861850446451e-05 1.4271189655655234e-05 1.2253954628353728e-10 -9.9612318895512118e-10 1.6239173531312202e-05 2.4338193748980577e-11 -1.3010110273859567e-09 1.8733897007229157e-05 1.10584145670682e-10 -9.9364073943199336e-10 1.5638728231690267e-05 -2.0591797051022455e-11 -2.3403587076929584e-05 1.8733897007229157e-05 1.10584145670682e-10 -9.9364073943199336e-10 2.2727406297947934e-05 8.4134944570596821e-11 -8.3438618808550168e-10 2.1394147777644497e-05 1.2417173357931735e-10 -2.9153047680325868e-05 2.5496216248062315e-05 1.9333465058867037e-10 -1.732861850446451e-05 1.4271189655655234e-05 1.2253954628353728e-10 -9.9612318895512118e-10 1.8733897007229157e-05 1.10584145670682e-10 -9.9364073943184984e-10 1.5877184983520513e-05 2.5286800185625348e-10 -1.2694667548739256e-09 1.6530727647612994e-05 2.1288521695976865e-10 -1.9526949278787019e-05 1.8733897007229157e-05 1.10584145670682e-10 -9.9364073943199336e-10 2.2727406297947934e-05 8.4134944570596834e-11 -8.3438618808502605e-10 2.2046056778098071e-05 1.5949458458448284e-10 -1.2740117528606467e-09 2.5496216248062315e-05 1.9333465058867037e-10 -1.732861850446451e-05 1.8733897007229157e-05 1.10584145670682e-10 -9.9364073943199336e-10 2.2727406297947934e-05 8.4134944570596821e-11 -8.3438618808791756e-10 2.4287130250885906e-05 -3.1191039979130431e-11 -2.0414398007010204e-05 2.1039126345688912e-05 -6.5016416629995734e-12 -1.0244444783717635e-09 1.120348321877054e-05 1.2379957361385237e-10 -2.8153580855278877e-05 2.1394147777644497e-05 1.2417173357931729e-10 -2.9153047680325871e-05 1.6530727647612994e-05 2.1288521695976865e-10 -1.9526949278787022e-05 1.5638728231690267e-05 -2.0591797051022452e-11 -2.3403587076929577e-05 1.120348321877054e-05 1.2379957361385237e-10 -2.8153580855278877e-05 2.1394147777644497e-05 1.2417173357931729e-10 -2.9153047680325871e-05 1.562609956221699e-05 -2.0294280806043614e-12 -4.6875130588935371e-05 1.5621095772431362e-05 1.5918411750129418e-10 -4.9656945241015275e-05 1.120348321877054e-05 1.2379957361385237e-10 -2.8153580855278877e-05 2.1394147777644497e-05 1.2417173357931729e-10 -2.9153047680325871e-05 1.5638728231690267e-05 -2.0591797051022452e-11 -2.3403587076929574e-05 1.562609956221699e-05 -2.0294280806043577e-12 -4.6875130588935378e-05 2.1394147777644497e-05 1.2417173357931729e-10 -2.9153047680325871e-05 2.3453191645924357e-05 1.7389095769902028e-11 -4.6721960561686888e-05 1.563872823169027e-05 -2.0591797051022484e-11 -2.3403587076929574e-05 1.562609956221699e-05 -2.0294280806043614e-12 -4.6875130588935371e-05 2.1394147777644497e-05 1.2417173357931729e-10 -2.9153047680325871e-05 2.4181291256768491e-05 2.0317736643933334e-10 -4.6714877201911275e-05 2.3453191645924357e-05 1.7389095769902028e-11 -4.6721960561686888e-05 1.5621095772431362e-05 1.5918411750129418e-10 -4.9656945241015275e-05 2.1394147777644497e-05 1.2417173357931729e-10 -2.9153047680325871e-05 2.3453191645924354e-05 1.7389095769902037e-11 -4.6721960561686888e-05 2.4287130250885909e-05 -3.1191039979130398e-11 -2.0414398007010207e-05 1.5638728231690264e-05 -2.0591797051022484e-11 -2.3403587076929574e-05 1.120348321877054e-05 1.2379957361385237e-10 -2.8153580855278877e-05 2.1394147777644497e-05 1.2417173357931729e-10 -2.9153047680325871e-05 1.6530727647612994e-05 2.1288521695976865e-10 -1.9526949278787022e-05 1.5621095772431362e-05 1.5918411750129418e-10 -4.9656945241015275e-05 2.1394147777644497e-05 1.2417173357931729e-10 -2.9153047680325871e-05 2.3453191645924357e-05 1.7389095769902028e-11 -4.6721960561686888e-05 1.562609956221699e-05 -2.0294280806043614e-12 -4.6875130588935371e-05 1.5621095772431362e-05 1.5918411750129418e-10 -4.9656945241015275e-05 2.1394147777644497e-05 1.2417173357931729e-10 -2.9153047680325871e-05 1.9085275584004362e-05 3.3586008262222102e-10 -3.1057816425475264e-05 1.6530727647612994e-05 2.1288521695976865e-10 -1.9526949278787025e-05 2.5496216248062315e-05 1.9333465058867037e-10 -1.732861850446451e-05 2.1394147777644497e-05 1.2417173357931729e-10 -2.9153047680325871e-05 1.9085275584004365e-05 3.3586008262222102e-10 -3.1057816425475271e-05 2.4181291256768494e-05 2.0317736643933336e-10 -4.6714877201911275e-05 1.5621095772431362e-05 1.5918411750129418e-10 -4.9656945241015275e-05 1.9085275584004365e-05 3.3586008262222102e-10 -3.1057816425475271e-05 2.4181291256768491e-05 2.0317736643933334e-10 -4.6714877201911275e-05 2.1326590380916221e-05 3.7195907561071338e-10 -4.9040770707868427e-05 1.5621095772431366e-05 1.5918411750129423e-10 -4.9656945241015268e-05 2.1394147777644497e-05 1.2417173357931729e-10 -2.9153047680325871e-05 1.9085275584004365e-05 3.3586008262222102e-10 -3.1057816425475271e-05 2.5496216248062315e-05 1.9333465058867037e-10 -1.732861850446451e-05 2.5861686221571956e-05 3.704202141590207e-10 -2.9445277681107024e-05 1.4319818325639263e-05 2.4238405439881306e-10 -2.9091513482407228e-05 1.9085275584004365e-05 3.3586008262222102e-10 -3.1057816425475271e-05 1.6530727647612994e-05 2.1288521695976865e-10 -1.9526949278787022e-05 1.5621095772431362e-05 1.5918411750129418e-10 -4.9656945241015275e-05 2.1394147777644497e-05 1.2417173357931729e-10 -2.9153047680325871e-05 1.9085275584004365e-05 3.3586008262222102e-10 -3.1057816425475271e-05 2.5861686221571952e-05 3.7042021415902075e-10 -2.9445277681107011e-05 2.4181291256768491e-05 2.0317736643933334e-10 -4.6714877201911275e-05 2.1394147777644497e-05 1.2417173357931729e-10 -2.9153047680325871e-05 1.9085275584004362e-05 3.3586008262222102e-10 -3.1057816425475264e-05 1.6530727647612994e-05 2.1288521695976862e-10 -1.9526949278787025e-05 1.5621095772431362e-05 1.5918411750129418e-10 -4.9656945241015275e-05 1.6239118853992815e-05 3.1638289824126832e-10 -4.6875163348786098e-05 1.9085275584004365e-05 3.3586008262222102e-10 -3.1057816425475271e-05 2.1326590380916221e-05 3.7195907561071338e-10 -4.9040770707868427e-05 1.5621095772431362e-05 1.5918411750129415e-10 -4.9656945241015282e-05 1.4319818325639263e-05 2.4238405439881306e-10 -2.9091513482407228e-05 1.6239118853992815e-05 3.1638289824126832e-10 -4.6875163348786098e-05 1.9085275584004365e-05 3.3586008262222102e-10 -3.1057816425475271e-05 1.5621095772431362e-05 1.5918411750129418e-10 -4.9656945241015275e-05 1.9085275584004365e-05 3.3586008262222102e-10 -3.1057816425475271e-05 2.5861686221571952e-05 3.7042021415902075e-10 -2.9445277681107017e-05 2.4181291256768491e-05 2.0317736643933334e-10 -4.6714877201911275e-05 2.1326590380916221e-05 3.7195907561071338e-10 -4.9040770707868427e-05 1.4319818325639263e-05 2.4238405439881306e-10 -2.9091513482407228e-05 1.9085275584004365e-05 3.3586008262222102e-10 -3.1057816425475271e-05 1.5980354705469348e-05 2.9924205556121345e-10 -1.5348491066606818e-05 1.6530727647612994e-05 2.1288521695976865e-10 -1.9526949278787022e-05 1.9085275584004365e-05 3.3586008262222102e-10 -3.1057816425475271e-05 1.5980354705469348e-05 2.992420555612134e-10 -1.5348491066606814e-05 1.6530727647612994e-05 2.128852169597687e-10 -1.9526949278787022e-05 2.1872980408114017e-05 3.0348956663672489e-10 -1.5880581045683004e-05 1.9085275584004365e-05 3.3586008262222102e-10 -3.1057816425475271e-05 1.6530727647612997e-05 2.1288521695976865e-10 -1.9526949278787022e-05 2.1872980408114017e-05 3.0348956663672489e-10 -1.5880581045683004e-05 2.5496216248062315e-05 1.9333465058867037e-10 -1.732861850446451e-05 1.6530727647612994e-05 2.1288521695976865e-10 -1.9526949278787022e-05 2.2046056778098067e-05 1.5949458458448282e-10 -1.2740117528569437e-09 2.1872980408114017e-05 3.0348956663672489e-10 -1.5880581045683004e-05 2.5496216248062315e-05 1.9333465058867037e-10 -1.732861850446451e-05 1.5980354705469348e-05 2.9924205556121345e-10 -1.5348491066606818e-05 1.5877184983520513e-05 2.5286800185625348e-10 -1.2694667548723638e-09 1.6530727647612994e-05 2.1288521695976865e-10 -1.9526949278787019e-05 2.1872980408114017e-05 3.0348956663672489e-10 -1.5880581045683004e-05 1.8733897007229157e-05 1.10584145670682e-10 -9.9364073943199336e-10 1.653072764761299e-05 2.1288521695976865e-10 -1.9526949278787025e-05 2.2046056778098071e-05 1.5949458458448284e-10 -1.2740117528606467e-09 2.5496216248062315e-05 1.9333465058867037e-10 -1.7328618504464513e-05 1.5980354705469348e-05 2.9924205556121345e-10 -1.5348491066606818e-05 1.8751346812439316e-05 3.6022326190961548e-10 -1.613930850433876e-09 1.5877184983520513e-05 2.5286800185625348e-10 -1.2694667548723638e-09 2.1872980408114017e-05 3.0348956663672489e-10 -1.5880581045683004e-05 1.2500897218653372e-05 4.0628017276559457e-10 -1.5504538227634152e-09 1.5980354705469345e-05 2.9924205556121345e-10 -1.5348491066606818e-05 1.8751346812439312e-05 3.6022326190961548e-10 -1.6139308504325175e-09 1.5877184983520513e-05 2.5286800185625348e-10 -1.2694667548723638e-09 1.8733897007229157e-05 1.10584145670682e-10 -9.9364073943199336e-10 1.5877184983520513e-05 2.5286800185625348e-10 -1.2694667548723638e-09 1.6530727647612994e-05 2.1288521695976865e-10 -1.9526949278787025e-05 2.2046056778098071e-05 1.5949458458448284e-10 -1.2740117528606467e-09 1.5877184983520513e-05 2.5286800185625348e-10 -1.2694667548723638e-09 1.6530727647612994e-05 2.1288521695976865e-10 -1.9526949278787022e-05 2.2046056778098071e-05 1.5949458458448284e-10 -1.2740117528606467e-09 2.1872980408114017e-05 3.0348956663672494e-10 -1.5880581045683004e-05 1.8751346812439316e-05 3.6022326190961548e-10 -1.613930850433876e-09 2.2046056778098071e-05 1.5949458458448282e-10 -1.2740117528596866e-09 2.1872980408114017e-05 3.0348956663672489e-10 -1.5880581045683004e-05 2.5001846917481942e-05 3.0970333461846076e-10 -1.3249272500264349e-09 1.8751346812439316e-05 3.6022326190961548e-10 -1.613930850433876e-09 1.5877184983520517e-05 2.5286800185625348e-10 -1.269466754871463e-09 2.2046056778098071e-05 1.5949458458448284e-10 -1.2740117528606467e-09 2.1872980408114017e-05 3.0348956663672489e-10 -1.5880581045683004e-05 1.9085275584004365e-05 3.3586008262222102e-10 -3.1057816425475271e-05 2.1872980408114014e-05 3.0348956663672489e-10 -1.5880581045683004e-05 2.5496216248062315e-05 1.9333465058867037e-10 -1.732861850446451e-05 2.5861686221571952e-05 3.704202141590207e-10 -2.9445277681107014e-05 2.1872980408114017e-05 3.0348956663672489e-10 -1.5880581045683004e-05 2.6676601852885966e-05 2.2790150206044264e-10 -1.3726829147098945e-05 2.5496216248062315e-05 1.933346505886704e-10 -1.7328618504464513e-05 2.5861686221571952e-05 3.704202141590207e-10 -2.9445277681107014e-05 2.1872980408114017e-05 3.0348956663672489e-10 -1.5880581045683004e-05 2.6676601852885966e-05 2.2790150206044261e-10 -1.3726829147098943e-05 2.667656510265551e-05 2.2823695741857366e-10 -9.0106914115641697e-10 2.5496216248062315e-05 1.933346505886704e-10 -1.73286185044645e-05 2.6676601852885966e-05 2.2790150206044261e-10 -1.3726829147098943e-05 2.5496216248062315e-05 1.9333465058867037e-10 -1.7328618504464507e-05 3.125229174228861e-05 2.0713244388828626e-10 -1.3726812635614305e-05 2.5861686221571952e-05 3.704202141590207e-10 -2.9445277681107014e-05 2.1872980408114017e-05 3.0348956663672489e-10 -1.5880581045683004e-05 2.6676601852885966e-05 2.2790150206044261e-10 -1.3726829147098943e-05 2.5001846917481942e-05 3.0970333461846076e-10 -1.3249272500264349e-09 2.667656510265551e-05 2.2823695741857366e-10 -9.0106914115258144e-10 2.2046056778098071e-05 1.5949458458448284e-10 -1.2740117528606467e-09 2.1872980408114021e-05 3.0348956663672489e-10 -1.5880581045683004e-05 2.5001846917481942e-05 3.0970333461846076e-10 -1.3249272500264349e-09 2.667656510265551e-05 2.2823695741857366e-10 -9.0106914115258144e-10 2.2046056778098071e-05 1.5949458458448284e-10 -1.2740117528606467e-09 2.667656510265551e-05 2.2823695741857366e-10 -9.0106914115346135e-10 2.5496216248062318e-05 1.933346505886704e-10 -1.7328618504464513e-05 2.6618640202195176e-05 1.347016866729587e-10 -1.0157339416227544e-09 2.2046056778098071e-05 1.5949458458448284e-10 -1.2740117528606467e-09 2.1872980408114017e-05 3.0348956663672494e-10 -1.5880581045683007e-05 2.6676565102655506e-05 2.2823695741857363e-10 -9.0106914115310204e-10 2.5496216248062315e-05 1.933346505886704e-10 -1.732861850446451e-05 2.5496216248062315e-05 1.9333465058867037e-10 -1.732861850446451e-05 3.125229174228861e-05 2.0713244388828626e-10 -1.3726812635614303e-05 3.1252227769368055e-05 2.1197400433385951e-10 -2.912589773745074e-05 3.1252243242006118e-05 1.0837643337889084e-10 -1.4904087436839473e-05 2.5496216248062315e-05 1.9333465058867037e-10 -1.732861850446451e-05 3.125229174228861e-05 2.0713244388828626e-10 -1.3726812635614306e-05 2.5861686221571952e-05 3.7042021415902064e-10 -2.9445277681107011e-05 3.1252227769368055e-05 2.1197400433385951e-10 -2.912589773745074e-05 2.667656510265551e-05 2.2823695741857366e-10 -9.0106914115258144e-10 2.5496216248062312e-05 1.9333465058867043e-10 -1.7328618504464507e-05 3.125229174228861e-05 2.0713244388828626e-10 -1.3726812635614305e-05 3.1252205147419592e-05 1.7756930301518301e-10 -1.1794477174032175e-09 2.5496216248062315e-05 1.9333465058867037e-10 -1.732861850446451e-05 3.125229174228861e-05 2.0713244388828626e-10 -1.3726812635614303e-05 3.1252205147419592e-05 1.7756930301518301e-10 -1.1794477174129549e-09 3.1252243242006118e-05 1.0837643337889085e-10 -1.490408743683947e-05 2.6676601852885966e-05 2.2790150206044261e-10 -1.3726829147098943e-05 2.667656510265551e-05 2.2823695741857366e-10 -9.0106914115216381e-10 2.5496216248062318e-05 1.9333465058867037e-10 -1.7328618504464513e-05 3.125229174228861e-05 2.0713244388828626e-10 -1.3726812635614305e-05 2.667656510265551e-05 2.2823695741857366e-10 -9.0106914115258144e-10 2.5496216248062315e-05 1.9333465058867035e-10 -1.7328618504464507e-05 3.1252205147419592e-05 1.7756930301518301e-10 -1.1794477174032175e-09 2.6618640202195176e-05 1.347016866729587e-10 -1.0157339416227544e-09 2.6676601852885966e-05 2.2790150206044261e-10 -1.3726829147098943e-05 2.667656510265551e-05 2.2823695741857366e-10 -9.0106914115258144e-10 3.125229174228861e-05 2.0713244388828626e-10 -1.3726812635614305e-05 3.1252155135514323e-05 3.3934059036677895e-10 -1.3635117487628864e-09 2.6676601852885966e-05 2.2790150206044261e-10 -1.3726829147098943e-05 3.125229174228861e-05 2.0713244388828626e-10 -1.3726812635614305e-05 3.1252155135514323e-05 3.3934059036677895e-10 -1.3635117487628864e-09 3.125225014021146e-05 3.1735148472141564e-10 -1.8750785986986564e-05 2.667656510265551e-05 2.2823695741857366e-10 -9.0106914115258144e-10 3.125229174228861e-05 2.0713244388828626e-10 -1.3726812635614303e-05 3.1252205147419592e-05 1.7756930301518301e-10 -1.1794477174032175e-09 3.1252155135514323e-05 3.3934059036677895e-10 -1.3635117487628864e-09 2.6676601852885966e-05 2.2790150206044261e-10 -1.3726829147098943e-05 2.5001846917481942e-05 3.0970333461846076e-10 -1.3249272500264349e-09 2.6676565102655513e-05 2.2823695741857368e-10 -9.0106914115182674e-10 3.1252155135514323e-05 3.3934059036677895e-10 -1.3635117487628864e-09 2.6676601852885966e-05 2.2790150206044261e-10 -1.3726829147098943e-05 3.125229174228861e-05 2.0713244388828626e-10 -1.3726812635614305e-05 3.125225014021146e-05 3.1735148472141564e-10 -1.8750785986986564e-05 2.5861686221571952e-05 3.704202141590207e-10 -2.9445277681107014e-05 3.125229174228861e-05 2.0713244388828626e-10 -1.3726812635614305e-05 3.1252250140211453e-05 3.1735148472141559e-10 -1.8750785986986564e-05 2.5861686221571952e-05 3.704202141590207e-10 -2.9445277681107011e-05 3.1252227769368055e-05 2.1197400433385951e-10 -2.912589773745074e-05 3.125225014021146e-05 3.1735148472141564e-10 -1.8750785986986564e-05 2.5861686221571952e-05 3.704202141590207e-10 -2.9445277681107014e-05 3.1252224364462344e-05 2.9862054908690305e-10 -3.7500316463996545e-05 3.1252227769368055e-05 2.1197400433385951e-10 -2.912589773745074e-05 2.1394147777644497e-05 1.2417173357931729e-10 -2.9153047680325871e-05 2.5496216248062315e-05 1.9333465058867037e-10 -1.732861850446451e-05 2.5861686221571952e-05 3.704202141590207e-10 -2.9445277681107014e-05 2.4181291256768491e-05 2.0317736643933334e-10 -4.6714877201911275e-05 2.5496216248062315e-05 1.9333465058867037e-10 -1.732861850446451e-05 2.5861686221571956e-05 3.7042021415902059e-10 -2.9445277681107011e-05 2.4181291256768494e-05 2.0317736643933336e-10 -4.6714877201911275e-05 3.1252227769368055e-05 2.1197400433385951e-10 -2.912589773745074e-05 2.1394147777644497e-05 1.2417173357931729e-10 -2.9153047680325871e-05 2.5496216248062315e-05 1.9333465058867037e-10 -1.732861850446451e-05 2.4181291256768487e-05 2.0317736643933347e-10 -4.6714877201911268e-05 3.1252227769368055e-05 2.1197400433385946e-10 -2.9125897737450737e-05 2.5861686221571952e-05 3.704202141590207e-10 -2.9445277681107014e-05 2.4181291256768491e-05 2.0317736643933334e-10 -4.6714877201911275e-05 3.1252227769368055e-05 2.1197400433385951e-10 -2.912589773745074e-05 2.7115165415620915e-05 3.0054103371666308e-10 -4.7445244753122816e-05 2.5861686221571952e-05 3.704202141590207e-10 -2.9445277681107014e-05 2.4181291256768491e-05 2.0317736643933334e-10 -4.6714877201911275e-05 2.7115165415620915e-05 3.0054103371666308e-10 -4.7445244753122816e-05 2.1326590380916221e-05 3.7195907561071338e-10 -4.9040770707868427e-05 2.5861686221571952e-05 3.704202141590207e-10 -2.9445277681107014e-05 3.1252224364462344e-05 2.9862054908690305e-10 -3.7500316463996552e-05 3.1252227769368055e-05 2.1197400433385951e-10 -2.912589773745074e-05 2.7115165415620915e-05 3.0054103371666308e-10 -4.7445244753122816e-05 3.1252224364462344e-05 2.9862054908690305e-10 -3.7500316463996545e-05 3.1252227769368055e-05 2.1197400433385951e-10 -2.912589773745074e-05 3.125221835329062e-05 2.1243688632028081e-10 -4.7628198628675531e-05 2.7115165415620915e-05 3.0054103371666308e-10 -4.7445244753122816e-05 2.4181291256768491e-05 2.0317736643933334e-10 -4.6714877201911275e-05 3.1252227769368055e-05 2.1197400433385953e-10 -2.9125897737450737e-05 3.125221835329062e-05 2.1243688632028078e-10 -4.7628198628675538e-05 2.7115165415620915e-05 3.0054103371666308e-10 -4.7445244753122816e-05 2.4181291256768491e-05 2.0317736643933334e-10 -4.6714877201911275e-05 3.1252227769368055e-05 2.1197400433385951e-10 -2.912589773745074e-05 3.1252221088335748e-05 1.1916367595387665e-10 -4.2949248837689364e-05 3.125221835329062e-05 2.1243688632028081e-10 -4.7628198628675531e-05 2.3453191645924357e-05 1.7389095769902028e-11 -4.6721960561686888e-05 3.1252240479821838e-05 4.9585515986631194e-11 -3.0419163935347557e-05 2.4287130250885913e-05 -3.1191039979130398e-11 -2.0414398007010207e-05 3.1252239407208838e-05 -8.84956434351227e-11 -3.0867943560040831e-05 2.1394147777644497e-05 1.2417173357931729e-10 -2.9153047680325871e-05 3.1252221088335748e-05 1.1916367595387668e-10 -4.2949248837689364e-05 2.3453191645924357e-05 1.7389095769902028e-11 -4.6721960561686888e-05 3.1252240479821838e-05 4.9585515986631246e-11 -3.0419163935347557e-05 2.1394147777644497e-05 1.2417173357931729e-10 -2.9153047680325871e-05 2.4181291256768491e-05 2.0317736643933331e-10 -4.6714877201911275e-05 3.1252227769368055e-05 2.1197400433385948e-10 -2.9125897737450737e-05 3.1252221088335748e-05 1.191636759538767e-10 -4.2949248837689364e-05 2.1394147777644497e-05 1.2417173357931729e-10 -2.9153047680325871e-05 2.4181291256768491e-05 2.0317736643933334e-10 -4.6714877201911275e-05 3.1252221088335748e-05 1.191636759538767e-10 -4.2949248837689364e-05 2.3453191645924357e-05 1.7389095769902028e-11 -4.6721960561686888e-05 2.1394147777644497e-05 1.2417173357931729e-10 -2.9153047680325871e-05 3.1252227769368055e-05 2.1197400433385959e-10 -2.9125897737450747e-05 3.1252221088335748e-05 1.191636759538767e-10 -4.2949248837689364e-05 3.1252240479821838e-05 4.9585515986631246e-11 -3.0419163935347557e-05 2.1394147777644497e-05 1.2417173357931729e-10 -2.9153047680325871e-05 2.3453191645924354e-05 1.7389095769902041e-11 -4.6721960561686888e-05 3.1252240479821838e-05 4.958551598663122e-11 -3.0419163935347554e-05 2.4287130250885909e-05 -3.1191039979130405e-11 -2.0414398007010204e-05 2.1394147777644497e-05 1.2417173357931729e-10 -2.9153047680325871e-05 2.5496216248062318e-05 1.9333465058867035e-10 -1.732861850446451e-05 3.1252227769368055e-05 2.1197400433385951e-10 -2.912589773745074e-05 3.1252240479821838e-05 4.9585515986631233e-11 -3.0419163935347551e-05 2.1394147777644497e-05 1.2417173357931729e-10 -2.9153047680325871e-05 2.5496216248062312e-05 1.9333465058867035e-10 -1.7328618504464513e-05 3.1252240479821838e-05 4.9585515986631233e-11 -3.0419163935347547e-05 2.4287130250885909e-05 -3.1191039979130385e-11 -2.0414398007010214e-05 3.1252221088335748e-05 1.191636759538767e-10 -4.2949248837689364e-05 2.3453191645924357e-05 1.7389095769902028e-11 -4.6721960561686888e-05 3.1252240479821838e-05 4.9585515986631246e-11 -3.0419163935347557e-05 3.125221513709485e-05 -5.2612365016123975e-12 -4.8713998307059306e-05 2.3453191645924357e-05 1.7389095769902028e-11 -4.6721960561686888e-05 3.1252240479821838e-05 4.95855159866312e-11 -3.0419163935347561e-05 3.1252239407208845e-05 -8.84956434351227e-11 -3.0867943560040838e-05 3.125221513709485e-05 -5.2612365016123975e-12 -4.8713998307059306e-05 3.1252243242006118e-05 1.0837643337889084e-10 -1.4904087436839473e-05 2.4287130250885909e-05 -3.1191039979130405e-11 -2.0414398007010214e-05 2.6311771519127288e-05 3.5610369496230154e-11 -1.1625159479377076e-09 3.1252222071089001e-05 -2.7032210243746279e-11 -1.6150416095985114e-05 2.5496216248062315e-05 1.9333465058867037e-10 -1.732861850446451e-05 3.1252243242006118e-05 1.0837643337889084e-10 -1.4904087436839473e-05 2.4287130250885909e-05 -3.1191039979130392e-11 -2.0414398007010207e-05 2.6618640202195176e-05 1.347016866729587e-10 -1.0157339416227544e-09 2.5496216248062315e-05 1.9333465058867037e-10 -1.732861850446451e-05 3.1252240479821832e-05 4.9585515986631213e-11 -3.0419163935347547e-05 3.1252243242006118e-05 1.0837643337889084e-10 -1.4904087436839473e-05 2.4287130250885909e-05 -3.1191039979130392e-11 -2.0414398007010207e-05 3.1252240479821838e-05 4.9585515986631246e-11 -3.0419163935347557e-05 3.1252243242006118e-05 1.0837643337889084e-10 -1.4904087436839473e-05 2.4287130250885909e-05 -3.1191039979130372e-11 -2.0414398007010207e-05 3.1252222071089001e-05 -2.7032210243746279e-11 -1.6150416095985114e-05 2.2727406297947934e-05 8.4134944570596821e-11 -8.3438618808550168e-10 2.5496216248062315e-05 1.9333465058867037e-10 -1.732861850446451e-05 2.4287130250885909e-05 -3.1191039979130392e-11 -2.0414398007010207e-05 2.6618640202195176e-05 1.347016866729587e-10 -1.0157339416227544e-09 2.2727406297947934e-05 8.4134944570596821e-11 -8.3438618808550168e-10 2.1394147777644497e-05 1.2417173357931727e-10 -2.9153047680325874e-05 2.5496216248062315e-05 1.9333465058867037e-10 -1.732861850446451e-05 2.4287130250885906e-05 -3.1191039979130366e-11 -2.0414398007010207e-05 2.5496216248062315e-05 1.9333465058867037e-10 -1.732861850446451e-05 3.1252227769368055e-05 2.1197400433385951e-10 -2.912589773745074e-05 3.1252240479821838e-05 4.9585515986631304e-11 -3.0419163935347554e-05 3.1252243242006118e-05 1.0837643337889084e-10 -1.4904087436839473e-05 2.2727406297947934e-05 8.4134944570596821e-11 -8.3438618808550168e-10 2.4287130250885909e-05 -3.1191039979130392e-11 -2.0414398007010207e-05 2.6311771519127288e-05 3.561036949623016e-11 -1.162515947943738e-09 2.1039126345688912e-05 -6.5016416629995734e-12 -1.0244444783717635e-09 3.1252243242006118e-05 1.0837643337889084e-10 -1.4904087436839473e-05 2.4287130250885906e-05 -3.1191039979130411e-11 -2.0414398007010214e-05 2.6311771519127288e-05 3.5610369496230147e-11 -1.1625159479403757e-09 2.6618640202195176e-05 1.3470168667295867e-10 -1.015733941622212e-09 2.2727406297947934e-05 8.4134944570596821e-11 -8.3438618808550168e-10 2.4287130250885909e-05 -3.1191039979130392e-11 -2.0414398007010207e-05 2.6311771519127288e-05 3.561036949623016e-11 -1.162515947943738e-09 2.6618640202195176e-05 1.347016866729587e-10 -1.0157339416227544e-09 2.2727406297947934e-05 8.4134944570596821e-11 -8.3438618808550168e-10 2.2046056778098071e-05 1.5949458458448284e-10 -1.2740117528606467e-09 2.5496216248062315e-05 1.9333465058867035e-10 -1.732861850446451e-05 2.6618640202195176e-05 1.347016866729587e-10 -1.0157339416227544e-09 3.1252205147419592e-05 1.7756930301518301e-10 -1.1794477174032175e-09 3.1252243242006112e-05 1.0837643337889084e-10 -1.4904087436839476e-05 2.6618640202195176e-05 1.347016866729587e-10 -1.0157339416227544e-09 3.1252104554305228e-05 9.3232497166403547e-11 -1.3148255783593227e-09 2.5496216248062315e-05 1.9333465058867037e-10 -1.732861850446451e-05 3.1252205147419585e-05 1.7756930301518296e-10 -1.1794477174066261e-09 3.1252243242006112e-05 1.0837643337889085e-10 -1.4904087436839473e-05 2.6618640202195176e-05 1.347016866729587e-10 -1.0157339416227544e-09 3.1252243242006118e-05 1.0837643337889084e-10 -1.4904087436839473e-05 2.6311771519127288e-05 3.561036949623016e-11 -1.162515947943738e-09 2.6618640202195176e-05 1.3470168667295867e-10 -1.0157339416259349e-09 3.1252104554305228e-05 9.3232497166403547e-11 -1.3148255783593227e-09 3.1252243242006118e-05 1.0837643337889084e-10 -1.4904087436839473e-05 2.6311771519127288e-05 3.561036949623016e-11 -1.162515947943738e-09 3.1252104554305228e-05 9.3232497166403547e-11 -1.3148255783593171e-09 3.1252222071089001e-05 -2.7032210243746279e-11 -1.6150416095985114e-05 2.6311771519127288e-05 3.561036949623016e-11 -1.162515947943738e-09 3.1252104554305228e-05 9.3232497166403547e-11 -1.3148255783593227e-09 3.1252068598792748e-05 -3.0953748396645006e-11 -1.5970235005152105e-09 3.1252222071089001e-05 -2.7032210243746279e-11 -1.6150416095985114e-05 3.1252219264042102e-05 -8.5503752202443844e-11 -1.5872588076344213e-05 2.5264203988591065e-05 -1.2620370964075789e-10 -1.4003638876458236e-09 2.6676529926762187e-05 -1.6691486763630762e-10 -9.8943495286276445e-10 2.1494475609026678e-05 -1.2331982988849201e-10 -2.9406872732635325e-05 2.6311771519127288e-05 3.561036949623016e-11 -1.162515947943738e-09 3.1252068598792748e-05 -3.0953748396645006e-11 -1.5970235005152105e-09 3.1252222071089001e-05 -2.7032210243746266e-11 -1.6150416095985114e-05 2.5264203988591065e-05 -1.2620370964075786e-10 -1.4003638876417425e-09 3.1252068598792748e-05 -3.0953748396645006e-11 -1.5970235005152105e-09 3.1252222071089001e-05 -2.7032210243746279e-11 -1.6150416095985114e-05 3.1252219264042102e-05 -8.5503752202443844e-11 -1.5872588076344213e-05 2.5264203988591065e-05 -1.2620370964075786e-10 -1.4003638876417425e-09 2.4287130250885909e-05 -3.1191039979130392e-11 -2.0414398007010207e-05 3.1252219264042102e-05 -8.5503752202443805e-11 -1.587258807634422e-05 2.5264203988591065e-05 -1.2620370964075786e-10 -1.4003638876411167e-09 2.1494475609026681e-05 -1.2331982988849201e-10 -2.9406872732635328e-05 2.4287130250885909e-05 -3.1191039979130392e-11 -2.0414398007010207e-05 2.6311771519127288e-05 3.5610369496230102e-11 -1.1625159479435769e-09 2.5264203988591061e-05 -1.2620370964075781e-10 -1.4003638876356964e-09 2.1039126345688912e-05 -6.5016416629995734e-12 -1.0244444783717635e-09 2.4287130250885909e-05 -3.1191039979130392e-11 -2.0414398007010207e-05 2.6311771519127288e-05 3.5610369496230102e-11 -1.1625159479450892e-09 3.1252222071089001e-05 -2.7032210243746305e-11 -1.6150416095985114e-05 2.5264203988591065e-05 -1.2620370964075781e-10 -1.4003638876377387e-09 2.4287130250885909e-05 -3.1191039979130392e-11 -2.0414398007010207e-05 3.1252222071089001e-05 -2.7032210243746279e-11 -1.6150416095985114e-05 3.1252219264042102e-05 -8.5503752202443857e-11 -1.5872588076344216e-05 2.5264203988591065e-05 -1.2620370964075786e-10 -1.4003638876417425e-09 2.4287130250885909e-05 -3.1191039979130392e-11 -2.0414398007010207e-05 3.1252222071089001e-05 -2.7032210243746279e-11 -1.6150416095985114e-05 3.1252219264042102e-05 -8.5503752202443882e-11 -1.5872588076344216e-05 3.1252239407208845e-05 -8.8495643435122739e-11 -3.0867943560040838e-05 3.1252068598792748e-05 -3.0953748396645006e-11 -1.5970235005152105e-09 3.1252219264042102e-05 -8.5503752202443844e-11 -1.5872588076344213e-05 2.5264203988591065e-05 -1.2620370964075786e-10 -1.4003638876417425e-09 3.1252088612001917e-05 -2.2319735036041053e-10 -1.3635522514266936e-09 3.1252219264042102e-05 -8.5503752202443844e-11 -1.5872588076344213e-05 2.5264203988591068e-05 -1.2620370964075786e-10 -1.4003638876460591e-09 3.1252088612001917e-05 -2.2319735036041053e-10 -1.3635522514266936e-09 2.6676529926762187e-05 -1.6691486763630762e-10 -9.8943495286227373e-10 3.1252219264042102e-05 -8.5503752202443844e-11 -1.5872588076344213e-05 3.1252088612001917e-05 -2.2319735036041053e-10 -1.3635522514266936e-09 3.1252259867534418e-05 -1.8865799932546906e-10 -1.3726852501152548e-05 2.6676529926762187e-05 -1.6691486763630762e-10 -9.8943495286227373e-10 2.6676548497419958e-05 -2.2889021708706372e-10 -1.3726809500333992e-05 2.1436545248381506e-05 -3.6630026882073862e-10 -1.617156274582063e-05 2.1494475609026681e-05 -1.2331982988849201e-10 -2.9406872732635328e-05 2.5957360151171732e-05 -3.0337060183276929e-10 -2.8142857110151173e-05 2.5264203988591065e-05 -1.2620370964075786e-10 -1.4003638876417425e-09 2.6676529926762187e-05 -1.6691486763630762e-10 -9.8943495286227373e-10 2.16830772742801e-05 -2.2196739195684447e-10 -1.1986845656252303e-09 2.1494475609026681e-05 -1.2331982988849201e-10 -2.9406872732635325e-05 3.1252219264042102e-05 -8.5503752202443844e-11 -1.5872588076344213e-05 3.1252259867534418e-05 -1.8865799932546906e-10 -1.3726852501152548e-05 2.1494475609026681e-05 -1.2331982988849201e-10 -2.9406872732635328e-05 3.125223689319994e-05 -1.8906558456825215e-10 -2.9635598088001583e-05 3.1252219264042102e-05 -8.5503752202443844e-11 -1.5872588076344213e-05 3.1252259867534418e-05 -1.8865799932546906e-10 -1.3726852501152548e-05 2.6676529926762184e-05 -1.6691486763630762e-10 -9.8943495286319273e-10 2.1494475609026688e-05 -1.2331982988849201e-10 -2.9406872732635332e-05 3.1252259867534418e-05 -1.8865799932546906e-10 -1.3726852501152548e-05 2.6676548497419958e-05 -2.2889021708706377e-10 -1.3726809500333995e-05 2.1494475609026681e-05 -1.2331982988849211e-10 -2.9406872732635332e-05 2.5957360151171729e-05 -3.0337060183276924e-10 -2.8142857110151167e-05 3.1252259867534418e-05 -1.8865799932546906e-10 -1.3726852501152548e-05 2.6676548497419958e-05 -2.2889021708706372e-10 -1.3726809500333993e-05 2.6676529926762187e-05 -1.6691486763630762e-10 -9.8943495286266292e-10 2.1494475609026685e-05 -1.2331982988849203e-10 -2.9406872732635322e-05 2.6676548497419958e-05 -2.2889021708706372e-10 -1.3726809500333992e-05 2.6676529926762187e-05 -1.6691486763630762e-10 -9.8943495286227373e-10 2.16830772742801e-05 -2.2196739195684447e-10 -1.1986845656252303e-09 2.1494475609026681e-05 -1.2331982988849201e-10 -2.9406872732635328e-05 3.1252259867534418e-05 -1.8865799932546906e-10 -1.3726852501152548e-05 3.125221056905938e-05 -3.0913841792137347e-10 -1.8750802270738478e-05 2.6676548497419958e-05 -2.2889021708706372e-10 -1.3726809500333992e-05 2.5957360151171726e-05 -3.0337060183276924e-10 -2.8142857110151167e-05 3.1252259867534418e-05 -1.8865799932546906e-10 -1.3726852501152548e-05 3.125221056905938e-05 -3.0913841792137347e-10 -1.8750802270738478e-05 2.5957360151171732e-05 -3.0337060183276929e-10 -2.8142857110151173e-05 3.125223689319994e-05 -1.8906558456825215e-10 -2.9635598088001583e-05 3.1252093418492849e-05 -3.3874952372628222e-10 -1.3015784311609803e-09 2.5001793399707735e-05 -3.1832273123726419e-10 -1.2118720403187642e-09 2.6676548497419958e-05 -2.2889021708706372e-10 -1.3726809500333992e-05 2.6676529926762187e-05 -1.6691486763630762e-10 -9.8943495286227373e-10 3.1252259867534418e-05 -1.8865799932546906e-10 -1.3726852501152548e-05 3.125221056905938e-05 -3.0913841792137347e-10 -1.8750802270738478e-05 3.1252093418492849e-05 -3.3874952372628222e-10 -1.3015784311609803e-09 2.6676548497419958e-05 -2.2889021708706372e-10 -1.3726809500333992e-05 3.1252088612001917e-05 -2.2319735036041053e-10 -1.3635522514266936e-09 3.1252259867534418e-05 -1.8865799932546906e-10 -1.3726852501152548e-05 3.1252093418492849e-05 -3.3874952372628222e-10 -1.3015784311609803e-09 2.6676529926762187e-05 -1.6691486763630762e-10 -9.8943495286227373e-10 3.1252259867534418e-05 -1.8865799932546906e-10 -1.3726852501152548e-05 3.1252093418492843e-05 -3.3874952372628216e-10 -1.3015784311598693e-09 2.6676548497419958e-05 -2.2889021708706372e-10 -1.3726809500333992e-05 2.6676529926762187e-05 -1.6691486763630762e-10 -9.8943495286227373e-10 2.5001793399707735e-05 -3.1832273123726419e-10 -1.2118720403209858e-09 2.6676548497419958e-05 -2.2889021708706372e-10 -1.3726809500333992e-05 2.16830772742801e-05 -2.2196739195684447e-10 -1.1986845656252303e-09 2.1436545248381506e-05 -3.6630026882073868e-10 -1.617156274582063e-05 2.5001793399707735e-05 -3.1832273123726419e-10 -1.2118720403209858e-09 2.6676548497419958e-05 -2.2889021708706372e-10 -1.3726809500333992e-05 2.6676529926762187e-05 -1.6691486763630762e-10 -9.8943495286300847e-10 2.16830772742801e-05 -2.2196739195684447e-10 -1.1986845656252303e-09 2.16830772742801e-05 -2.2196739195684447e-10 -1.1986845656252303e-09 2.1436545248381506e-05 -3.6630026882073868e-10 -1.617156274582063e-05 1.563860254100417e-05 -2.1758753869738957e-10 -2.1173417576523231e-05 2.1494475609026681e-05 -1.2331982988849201e-10 -2.9406872732635328e-05 2.6676548497419958e-05 -2.2889021708706372e-10 -1.3726809500333992e-05 2.16830772742801e-05 -2.2196739195684447e-10 -1.1986845656252303e-09 2.1436545248381506e-05 -3.6630026882073868e-10 -1.617156274582063e-05 2.1494475609026681e-05 -1.2331982988849201e-10 -2.9406872732635328e-05 2.5001793399707735e-05 -3.1832273123726419e-10 -1.2118720403209858e-09 2.16830772742801e-05 -2.2196739195684447e-10 -1.1986845656252303e-09 2.1436545248381506e-05 -3.6630026882073868e-10 -1.617156274582063e-05 1.8751337410418541e-05 -2.9955773107383467e-10 -1.3680734683116513e-09 1.2500879968076139e-05 -3.2551801459255107e-10 -1.629824591794777e-09 1.543601931534353e-05 -3.0158432046628096e-10 -1.2411355219812542e-05 1.8751337410418541e-05 -2.9955773107383467e-10 -1.3680734683116513e-09 1.5928250011610241e-05 -1.9399799292415749e-10 -1.1798388266998301e-09 2.16830772742801e-05 -2.2196739195684447e-10 -1.1986845656252303e-09 2.1436545248381502e-05 -3.6630026882073868e-10 -1.6171562745820627e-05 1.8751337410418541e-05 -2.9955773107383467e-10 -1.3680734683116513e-09 1.5928250011610241e-05 -1.9399799292415749e-10 -1.1798388266998301e-09 1.543601931534353e-05 -3.0158432046628096e-10 -1.2411355219812542e-05 2.1436545248381506e-05 -3.6630026882073868e-10 -1.617156274582063e-05 1.8751337410418541e-05 -2.9955773107383467e-10 -1.3680734683116513e-09 1.5928250011610241e-05 -1.9399799292415749e-10 -1.1798388266998301e-09 1.543601931534353e-05 -3.0158432046628096e-10 -1.2411355219812542e-05 1.4903648477604456e-05 -3.6922471588994957e-10 -2.975788816410158e-05 2.1436545248381506e-05 -3.6630026882073868e-10 -1.617156274582063e-05 1.563860254100417e-05 -2.1758753869738957e-10 -2.1173417576523231e-05 1.543601931534353e-05 -3.0158432046628096e-10 -1.2411355219812542e-05 2.1436545248381506e-05 -3.6630026882073868e-10 -1.617156274582063e-05 1.563860254100417e-05 -2.1758753869738957e-10 -2.1173417576523231e-05 1.5928250011610241e-05 -1.9399799292415749e-10 -1.1798388266998301e-09 2.16830772742801e-05 -2.2196739195684447e-10 -1.1986845656252303e-09 2.1436545248381506e-05 -3.6630026882073862e-10 -1.617156274582063e-05 1.563860254100417e-05 -2.1758753869738957e-10 -2.1173417576523231e-05 1.5928250011610241e-05 -1.9399799292415749e-10 -1.1798388266998301e-09 2.16830772742801e-05 -2.2196739195684447e-10 -1.1986845656252303e-09 1.563860254100417e-05 -2.1758753869738957e-10 -2.1173417576523231e-05 1.5928250011610241e-05 -1.9399799292415749e-10 -1.1798388266998301e-09 1.9078517001859627e-05 -1.078612953299329e-10 -1.1190276217378806e-09 2.4287130250885909e-05 -3.1191039979130392e-11 -2.0414398007010207e-05 2.5264203988591061e-05 -1.2620370964075786e-10 -1.4003638876402112e-09 1.9078517001859627e-05 -1.0786129532993289e-10 -1.119027621737138e-09 2.1494475609026681e-05 -1.2331982988849201e-10 -2.9406872732635328e-05 2.16830772742801e-05 -2.2196739195684447e-10 -1.1986845656252303e-09 1.563860254100417e-05 -2.1758753869738957e-10 -2.1173417576523231e-05 1.9078517001859627e-05 -1.078612953299329e-10 -1.1190276217378806e-09 2.1494475609026681e-05 -1.2331982988849201e-10 -2.9406872732635328e-05 2.5264203988591065e-05 -1.2620370964075786e-10 -1.4003638876417425e-09 2.16830772742801e-05 -2.2196739195684447e-10 -1.1986845656253246e-09 1.9078517001859627e-05 -1.078612953299329e-10 -1.1190276217378806e-09 2.1494475609026678e-05 -1.2331982988849198e-10 -2.9406872732635325e-05 1.4317348651638015e-05 -1.2025080309708629e-10 -1.0177386376455245e-09 1.563860254100417e-05 -2.1758753869738957e-10 -2.1173417576523231e-05 1.5928250011610241e-05 -1.9399799292415749e-10 -1.1798388266998301e-09 1.9078517001859627e-05 -1.078612953299329e-10 -1.1190276217378806e-09 1.4317348651638015e-05 -1.2025080309708629e-10 -1.0177386376455245e-09 1.563860254100417e-05 -2.1758753869738957e-10 -2.1173417576523231e-05 1.9078517001859627e-05 -1.078612953299329e-10 -1.1190276217378806e-09 1.5638728231690267e-05 -2.0591797051022452e-11 -2.3403587076929577e-05 2.4287130250885909e-05 -3.1191039979130392e-11 -2.0414398007010207e-05 1.9078517001859627e-05 -1.078612953299329e-10 -1.1190276217387123e-09 2.1039126345688912e-05 -6.5016416629995734e-12 -1.0244444783717635e-09 1.5638728231690267e-05 -2.0591797051022452e-11 -2.3403587076929577e-05 1.563860254100417e-05 -2.1758753869738957e-10 -2.1173417576523231e-05 1.9078517001859624e-05 -1.078612953299329e-10 -1.1190276217372639e-09 1.5638728231690264e-05 -2.0591797051022371e-11 -2.3403587076929577e-05 2.1494475609026681e-05 -1.2331982988849201e-10 -2.9406872732635325e-05 2.4287130250885909e-05 -3.1191039979130392e-11 -2.0414398007010207e-05 1.9078517001859631e-05 -1.078612953299329e-10 -1.1190276217373346e-09 1.5638728231690267e-05 -2.0591797051022452e-11 -2.3403587076929577e-05 2.1494475609026678e-05 -1.2331982988849201e-10 -2.9406872732635328e-05 1.6239173531312202e-05 2.4338193748980577e-11 -1.3010110273859567e-09 1.9078517001859627e-05 -1.078612953299329e-10 -1.1190276217377176e-09 2.1039126345688912e-05 -6.5016416629995734e-12 -1.0244444783719265e-09 1.5638728231690267e-05 -2.0591797051022452e-11 -2.3403587076929577e-05 1.4317348651638015e-05 -1.2025080309708629e-10 -1.0177386376455245e-09 1.6239173531312202e-05 2.4338193748980577e-11 -1.3010110273859989e-09 1.9078517001859627e-05 -1.078612953299329e-10 -1.1190276217378806e-09 1.5638728231690267e-05 -2.0591797051022452e-11 -2.3403587076929577e-05 2.4287130250885909e-05 -3.1191039979130392e-11 -2.0414398007010207e-05 2.5264203988591065e-05 -1.2620370964075786e-10 -1.4003638876417425e-09 1.9078517001859631e-05 -1.0786129532993287e-10 -1.1190276217370579e-09 2.1039126345688912e-05 -6.5016416629995734e-12 -1.0244444783717635e-09 2.3453191645924357e-05 1.7389095769902028e-11 -4.6721960561686888e-05 1.562609956221699e-05 -2.0294280806043614e-12 -4.6875130588935371e-05 2.1494475609026681e-05 -1.2331982988849201e-10 -2.9406872732635328e-05 1.5649098903596862e-05 -1.6163667036200386e-10 -4.9581285778237885e-05 2.3453191645924357e-05 1.7389095769902028e-11 -4.6721960561686888e-05 2.1494475609026681e-05 -1.2331982988849201e-10 -2.9406872732635328e-05 2.4368536624381895e-05 -1.7620308177235905e-10 -4.6888832203836464e-05 1.5649098903596862e-05 -1.6163667036200386e-10 -4.9581285778237885e-05 2.3453191645924357e-05 1.7389095769902028e-11 -4.6721960561686888e-05 1.563872823169027e-05 -2.0591797051022429e-11 -2.340358707692957e-05 1.562609956221699e-05 -2.0294280806044171e-12 -4.6875130588935378e-05 2.1494475609026681e-05 -1.2331982988849201e-10 -2.9406872732635328e-05 2.3453191645924357e-05 1.7389095769902028e-11 -4.6721960561686888e-05 2.4287130250885913e-05 -3.1191039979130385e-11 -2.0414398007010207e-05 1.5638728231690267e-05 -2.0591797051022439e-11 -2.3403587076929587e-05 2.1494475609026681e-05 -1.2331982988849201e-10 -2.9406872732635328e-05 1.563860254100417e-05 -2.1758753869738957e-10 -2.1173417576523231e-05 1.5638728231690267e-05 -2.0591797051022423e-11 -2.3403587076929581e-05 2.1494475609026681e-05 -1.2331982988849201e-10 -2.9406872732635328e-05 1.5649098903596859e-05 -1.6163667036200383e-10 -4.9581285778237892e-05 1.5638728231690267e-05 -2.0591797051022452e-11 -2.3403587076929577e-05 1.562609956221699e-05 -2.0294280806043206e-12 -4.6875130588935378e-05 2.1494475609026681e-05 -1.2331982988849201e-10 -2.9406872732635328e-05 1.5649098903596862e-05 -1.6163667036200386e-10 -4.9581285778237885e-05 2.1494475609026681e-05 -1.2331982988849201e-10 -2.9406872732635328e-05 2.0892812652451533e-05 -3.3362511066195681e-10 -3.6124602896698807e-05 2.5957360151171729e-05 -3.0337060183276934e-10 -2.814285711015118e-05 2.4368536624381895e-05 -1.7620308177235902e-10 -4.6888832203836471e-05 2.1436545248381506e-05 -3.6630026882073868e-10 -1.617156274582063e-05 2.1494475609026678e-05 -1.2331982988849196e-10 -2.9406872732635328e-05 2.0892812652451533e-05 -3.3362511066195681e-10 -3.6124602896698807e-05 2.5957360151171732e-05 -3.0337060183276929e-10 -2.8142857110151173e-05 1.4903648477604456e-05 -3.6922471588994957e-10 -2.975788816410158e-05 1.563860254100417e-05 -2.1758753869738957e-10 -2.1173417576523231e-05 2.0892812652451533e-05 -3.3362511066195681e-10 -3.6124602896698807e-05 1.5649098903596862e-05 -1.6163667036200386e-10 -4.9581285778237885e-05 2.0892812652451533e-05 -3.3362511066195681e-10 -3.6124602896698807e-05 2.4368536624381898e-05 -1.7620308177235902e-10 -4.6888832203836464e-05 2.155454729109963e-05 -2.5665748969904906e-10 -5.0793612646743706e-05 1.5649098903596859e-05 -1.6163667036200383e-10 -4.9581285778237885e-05 2.1436545248381506e-05 -3.6630026882073868e-10 -1.617156274582063e-05 1.5638602541004163e-05 -2.175875386973896e-10 -2.1173417576523231e-05 2.1494475609026685e-05 -1.2331982988849196e-10 -2.9406872732635328e-05 2.0892812652451533e-05 -3.3362511066195681e-10 -3.6124602896698807e-05 1.563860254100417e-05 -2.1758753869738957e-10 -2.1173417576523231e-05 2.1494475609026678e-05 -1.2331982988849201e-10 -2.9406872732635328e-05 2.0892812652451529e-05 -3.3362511066195676e-10 -3.6124602896698807e-05 1.5649098903596862e-05 -1.6163667036200386e-10 -4.9581285778237892e-05 2.1494475609026681e-05 -1.2331982988849201e-10 -2.9406872732635328e-05 2.0892812652451533e-05 -3.3362511066195681e-10 -3.6124602896698807e-05 2.4368536624381895e-05 -1.7620308177235902e-10 -4.6888832203836471e-05 1.5649098903596866e-05 -1.6163667036200389e-10 -4.9581285778237878e-05 1.4903648477604456e-05 -3.6922471588994957e-10 -2.975788816410158e-05 2.1436545248381506e-05 -3.6630026882073868e-10 -1.617156274582063e-05 1.5638602541004174e-05 -2.175875386973896e-10 -2.1173417576523231e-05 2.0892812652451533e-05 -3.3362511066195681e-10 -3.6124602896698807e-05 1.4903648477604456e-05 -3.6922471588994957e-10 -2.975788816410158e-05 1.5626097139893168e-05 -3.1909785981644014e-10 -4.5036263482353991e-05 2.0892812652451533e-05 -3.3362511066195681e-10 -3.6124602896698807e-05 1.5649098903596862e-05 -1.6163667036200386e-10 -4.9581285778237885e-05 1.5626097139893164e-05 -3.1909785981644014e-10 -4.5036263482353991e-05 2.0892812652451533e-05 -3.3362511066195681e-10 -3.6124602896698807e-05 2.155454729109963e-05 -2.5665748969904906e-10 -5.0793612646743706e-05 1.5649098903596862e-05 -1.6163667036200386e-10 -4.9581285778237885e-05 2.0892812652451533e-05 -3.3362511066195681e-10 -3.6124602896698807e-05 2.6106515282538606e-05 -3.0295770192679171e-10 -4.5965745623237257e-05 2.4368536624381895e-05 -1.7620308177235902e-10 -4.6888832203836471e-05 2.155454729109963e-05 -2.5665748969904906e-10 -5.0793612646743706e-05 2.1494475609026681e-05 -1.2331982988849201e-10 -2.9406872732635328e-05 2.5957360151171732e-05 -3.0337060183276924e-10 -2.8142857110151173e-05 3.125223689319994e-05 -1.8906558456825215e-10 -2.9635598088001583e-05 2.4368536624381895e-05 -1.7620308177235902e-10 -4.6888832203836471e-05 3.1252259867534418e-05 -1.8865799932546906e-10 -1.3726852501152548e-05 2.1494475609026681e-05 -1.2331982988849208e-10 -2.9406872732635332e-05 2.5957360151171732e-05 -3.0337060183276929e-10 -2.8142857110151173e-05 3.125223689319994e-05 -1.8906558456825215e-10 -2.9635598088001583e-05 2.0892812652451533e-05 -3.3362511066195681e-10 -3.6124602896698807e-05 2.5957360151171732e-05 -3.0337060183276929e-10 -2.8142857110151173e-05 2.6106515282538606e-05 -3.0295770192679171e-10 -4.5965745623237257e-05 2.4368536624381895e-05 -1.7620308177235902e-10 -4.6888832203836471e-05 2.5957360151171732e-05 -3.0337060183276929e-10 -2.8142857110151173e-05 2.6106515282538606e-05 -3.0295770192679171e-10 -4.5965745623237257e-05 3.125223689319994e-05 -1.8906558456825215e-10 -2.9635598088001583e-05 2.4368536624381895e-05 -1.7620308177235902e-10 -4.6888832203836471e-05 2.5957360151171732e-05 -3.0337060183276929e-10 -2.8142857110151173e-05 2.6106515282538606e-05 -3.0295770192679161e-10 -4.5965745623237263e-05 3.1252185159311201e-05 -3.6349393376230966e-10 -3.7500355623337239e-05 3.125223689319994e-05 -1.8906558456825215e-10 -2.9635598088001583e-05 2.6106515282538606e-05 -3.0295770192679171e-10 -4.5965745623237257e-05 3.1252185159311201e-05 -3.6349393376230961e-10 -3.7500355623337239e-05 3.1252220845968512e-05 -2.404605950742156e-10 -4.7781468179874923e-05 3.125217711013267e-05 -4.0356972154392768e-10 -5.6249903306519153e-05 2.6106515282538606e-05 -3.0295770192679171e-10 -4.5965745623237257e-05 3.1252185159311208e-05 -3.6349393376230966e-10 -3.7500355623337246e-05 3.125223689319994e-05 -1.8906558456825215e-10 -2.9635598088001583e-05 3.1252220845968505e-05 -2.4046059507421566e-10 -4.7781468179874923e-05 3.125221056905938e-05 -3.0913841792137347e-10 -1.8750802270738478e-05 2.5957360151171732e-05 -3.0337060183276929e-10 -2.8142857110151173e-05 3.1252185159311201e-05 -3.6349393376230961e-10 -3.7500355623337239e-05 3.125223689319994e-05 -1.8906558456825215e-10 -2.9635598088001583e-05 3.125223689319994e-05 -1.8906558456825215e-10 -2.9635598088001583e-05 3.1252229695241002e-05 -1.2538427889891647e-10 -4.2949274724113885e-05 3.1252220845968512e-05 -2.4046059507421571e-10 -4.778146817987493e-05 2.4368536624381895e-05 -1.7620308177235902e-10 -4.6888832203836471e-05 2.6106515282538606e-05 -3.0295770192679171e-10 -4.5965745623237257e-05 3.1252236893199933e-05 -1.8906558456825215e-10 -2.9635598088001583e-05 3.1252220845968512e-05 -2.4046059507421576e-10 -4.7781468179874943e-05 2.4368536624381895e-05 -1.7620308177235902e-10 -4.6888832203836464e-05 2.3453191645924357e-05 1.7389095769902028e-11 -4.6721960561686888e-05 2.4287130250885909e-05 -3.1191039979130372e-11 -2.0414398007010204e-05 2.1494475609026681e-05 -1.2331982988849201e-10 -2.9406872732635328e-05 3.1252239407208838e-05 -8.8495643435122739e-11 -3.0867943560040838e-05 2.1494475609026681e-05 -1.2331982988849201e-10 -2.9406872732635328e-05 3.125223689319994e-05 -1.8906558456825215e-10 -2.9635598088001583e-05 3.1252229695241002e-05 -1.2538427889891647e-10 -4.2949274724113885e-05 3.1252239407208845e-05 -8.8495643435122739e-11 -3.0867943560040838e-05 2.3453191645924357e-05 1.7389095769902028e-11 -4.6721960561686888e-05 2.1494475609026681e-05 -1.2331982988849203e-10 -2.9406872732635338e-05 3.1252229695241002e-05 -1.2538427889891644e-10 -4.2949274724113872e-05 2.4368536624381891e-05 -1.7620308177235902e-10 -4.6888832203836464e-05 3.1252219264042102e-05 -8.5503752202443844e-11 -1.5872588076344213e-05 2.1494475609026681e-05 -1.2331982988849201e-10 -2.9406872732635325e-05 3.125223689319994e-05 -1.8906558456825215e-10 -2.9635598088001586e-05 3.1252239407208845e-05 -8.8495643435122739e-11 -3.0867943560040838e-05 2.1494475609026681e-05 -1.2331982988849201e-10 -2.9406872732635328e-05 3.125223689319994e-05 -1.8906558456825215e-10 -2.9635598088001583e-05 3.1252229695241002e-05 -1.2538427889891649e-10 -4.2949274724113892e-05 2.4368536624381895e-05 -1.76203081772359e-10 -4.6888832203836471e-05 2.4287130250885909e-05 -3.1191039979130392e-11 -2.0414398007010207e-05 3.1252219264042102e-05 -8.5503752202443818e-11 -1.5872588076344206e-05 2.1494475609026681e-05 -1.2331982988849201e-10 -2.9406872732635328e-05 3.1252239407208845e-05 -8.8495643435122739e-11 -3.0867943560040838e-05 2.3453191645924357e-05 1.7389095769902028e-11 -4.6721960561686888e-05 2.1494475609026681e-05 -1.2331982988849201e-10 -2.9406872732635325e-05 3.1252229695241002e-05 -1.2538427889891647e-10 -4.2949274724113885e-05 3.1252239407208845e-05 -8.8495643435122751e-11 -3.0867943560040852e-05 3.1252240479821838e-05 4.9585515986631246e-11 -3.0419163935347557e-05 2.4287130250885909e-05 -3.1191039979130392e-11 -2.0414398007010207e-05 3.1252222071089001e-05 -2.7032210243746279e-11 -1.6150416095985114e-05 3.1252239407208845e-05 -8.8495643435122739e-11 -3.0867943560040838e-05 2.3453191645924357e-05 1.7389095769902028e-11 -4.6721960561686888e-05 3.1252229695240995e-05 -1.2538427889891649e-10 -4.2949274724113872e-05 3.1252239407208845e-05 -8.8495643435122751e-11 -3.0867943560040845e-05 3.1252215137094844e-05 -5.2612365016123587e-12 -4.8713998307059292e-05 2.3453191645924357e-05 1.7389095769902028e-11 -4.6721960561686888e-05 3.1252220872324999e-05 -1.1277609671493947e-10 -5.6205220372991748e-05 2.1483626164113809e-05 -1.2527524918501675e-10 -6.4446039828849229e-05 2.4382698881362465e-05 -4.5096877328957425e-12 -7.314244378970091e-05 3.1252210811341167e-05 -7.1820897779332645e-11 -6.8178564156654467e-05 3.1252220872324999e-05 -1.1277609671493947e-10 -5.6205220372991748e-05 2.1483626164113812e-05 -1.2527524918501675e-10 -6.4446039828849229e-05 2.5501656920685606e-05 -1.6581375172278217e-10 -7.6499013968190713e-05 2.3453191645924357e-05 1.7389095769902028e-11 -4.6721960561686888e-05 3.1252220872324999e-05 -1.1277609671493946e-10 -5.6205220372991761e-05 3.1252208976522669e-05 1.971925799684434e-11 -6.3112706384414274e-05 3.125221513709485e-05 -5.2612365016123975e-12 -4.8713998307059306e-05 2.3453191645924357e-05 1.7389095769902028e-11 -4.6721960561686888e-05 3.1252229695241009e-05 -1.2538427889891642e-10 -4.2949274724113885e-05 3.1252220872324999e-05 -1.1277609671493947e-10 -5.6205220372991748e-05 2.4368536624381895e-05 -1.7620308177235905e-10 -4.6888832203836485e-05 3.1252220872324999e-05 -1.1277609671493947e-10 -5.6205220372991748e-05 2.4368536624381895e-05 -1.7620308177235902e-10 -4.6888832203836471e-05 2.1483626164113812e-05 -1.2527524918501678e-10 -6.4446039828849229e-05 2.5501656920685603e-05 -1.6581375172278206e-10 -7.64990139681907e-05 2.3453191645924357e-05 1.7389095769902028e-11 -4.6721960561686888e-05 3.1252220872324999e-05 -1.1277609671493947e-10 -5.6205220372991748e-05 2.4368536624381895e-05 -1.7620308177235902e-10 -4.6888832203836471e-05 2.1483626164113812e-05 -1.2527524918501675e-10 -6.4446039828849229e-05 2.3453191645924357e-05 1.7389095769902028e-11 -4.6721960561686888e-05 3.1252220872325006e-05 -1.1277609671493943e-10 -5.6205220372991748e-05 2.4382698881362465e-05 -4.5096877328957643e-12 -7.314244378970091e-05 3.1252208976522669e-05 1.971925799684434e-11 -6.3112706384414274e-05 3.1252210811341167e-05 -7.1820897779332645e-11 -6.8178564156654467e-05 3.1252220872324999e-05 -1.1277609671493947e-10 -5.6205220372991748e-05 2.1483626164113809e-05 -1.252752491850168e-10 -6.4446039828849229e-05 2.4382698881362465e-05 -4.5096877328956666e-12 -7.3142443789700896e-05 2.3453191645924357e-05 1.7389095769902028e-11 -4.6721960561686888e-05 3.1252229695241002e-05 -1.2538427889891654e-10 -4.2949274724113878e-05 3.1252220872324999e-05 -1.1277609671493947e-10 -5.6205220372991748e-05 3.125221513709485e-05 -5.2612365016123676e-12 -4.8713998307059312e-05 3.1252210811341167e-05 -7.1820897779332645e-11 -6.8178564156654467e-05 3.1252220872324999e-05 -1.1277609671493947e-10 -5.6205220372991748e-05 2.4382698881362465e-05 -4.5096877328957344e-12 -7.314244378970091e-05 3.1252208976522669e-05 1.9719257996844408e-11 -6.3112706384414274e-05 3.1252210811341167e-05 -7.1820897779332645e-11 -6.8178564156654467e-05 3.1252220872324999e-05 -1.1277609671493947e-10 -5.6205220372991748e-05 3.1252210645719771e-05 -2.1300460276379143e-10 -6.6155017302111627e-05 2.5501656920685596e-05 -1.6581375172278212e-10 -7.64990139681907e-05 3.1252229695241002e-05 -1.2538427889891647e-10 -4.2949274724113885e-05 3.1252220872324999e-05 -1.1277609671493947e-10 -5.6205220372991748e-05 3.1252220845968512e-05 -2.4046059507421571e-10 -4.778146817987493e-05 2.4368536624381895e-05 -1.7620308177235902e-10 -4.6888832203836471e-05 3.1252220845968512e-05 -2.4046059507421571e-10 -4.778146817987493e-05 3.1252210645719771e-05 -2.1300460276379143e-10 -6.6155017302111627e-05 2.5461156399090506e-05 -3.2728448379162386e-10 -6.4607462200357062e-05 2.4368536624381895e-05 -1.76203081772359e-10 -4.6888832203836471e-05 2.5461156399090502e-05 -3.2728448379162386e-10 -6.4607462200357062e-05 2.4368536624381891e-05 -1.7620308177235905e-10 -4.6888832203836464e-05 2.1483626164113816e-05 -1.252752491850167e-10 -6.4446039828849216e-05 2.5501656920685603e-05 -1.6581375172278212e-10 -7.64990139681907e-05 3.1252210645719771e-05 -2.1300460276379143e-10 -6.6155017302111627e-05 2.5461156399090502e-05 -3.2728448379162386e-10 -6.4607462200357075e-05 2.4368536624381895e-05 -1.7620308177235902e-10 -4.6888832203836471e-05 2.5501656920685599e-05 -1.6581375172278212e-10 -7.64990139681907e-05 3.1252220872324999e-05 -1.1277609671493947e-10 -5.6205220372991748e-05 3.1252210645719771e-05 -2.1300460276379143e-10 -6.6155017302111627e-05 2.4368536624381895e-05 -1.7620308177235902e-10 -4.6888832203836471e-05 2.5501656920685603e-05 -1.6581375172278212e-10 -7.64990139681907e-05 3.1252220872324999e-05 -1.1277609671493947e-10 -5.6205220372991748e-05 3.1252220845968512e-05 -2.4046059507421571e-10 -4.778146817987493e-05 3.1252210645719771e-05 -2.1300460276379143e-10 -6.6155017302111627e-05 2.4368536624381895e-05 -1.7620308177235902e-10 -4.6888832203836471e-05 3.1252210645719771e-05 -2.1300460276379143e-10 -6.6155017302111627e-05 3.125217711013267e-05 -4.0356972154392768e-10 -5.6249903306519153e-05 2.5461156399090502e-05 -3.2728448379162386e-10 -6.4607462200357062e-05 3.1252179111782472e-05 -3.2958876893473204e-10 -7.4999444802492871e-05 3.1252220845968512e-05 -2.4046059507421571e-10 -4.778146817987493e-05 3.1252210645719771e-05 -2.1300460276379143e-10 -6.6155017302111627e-05 3.125217711013267e-05 -4.0356972154392768e-10 -5.6249903306519153e-05 2.5461156399090502e-05 -3.2728448379162386e-10 -6.4607462200357062e-05 2.6106515282538606e-05 -3.0295770192679171e-10 -4.5965745623237257e-05 3.1252220845968512e-05 -2.4046059507421566e-10 -4.778146817987493e-05 3.125217711013267e-05 -4.0356972154392768e-10 -5.6249903306519153e-05 2.5461156399090502e-05 -3.2728448379162386e-10 -6.4607462200357062e-05 2.6106515282538606e-05 -3.0295770192679171e-10 -4.5965745623237257e-05 2.5461156399090502e-05 -3.2728448379162386e-10 -6.4607462200357062e-05 2.4368536624381891e-05 -1.7620308177235902e-10 -4.6888832203836464e-05 2.155454729109963e-05 -2.5665748969904906e-10 -5.0793612646743706e-05 2.6106515282538606e-05 -3.0295770192679171e-10 -4.5965745623237257e-05 3.1252220845968512e-05 -2.4046059507421571e-10 -4.7781468179874936e-05 2.5461156399090502e-05 -3.2728448379162386e-10 -6.4607462200357062e-05 2.4368536624381895e-05 -1.7620308177235905e-10 -4.6888832203836471e-05 2.155454729109963e-05 -2.5665748969904906e-10 -5.0793612646743706e-05 1.8757618177442853e-05 -3.7000621938254339e-10 -6.3329649668519627e-05 1.5649098903596859e-05 -1.6163667036200386e-10 -4.9581285778237885e-05 2.1483626164113812e-05 -1.2527524918501673e-10 -6.4446039828849229e-05 2.5461156399090502e-05 -3.2728448379162386e-10 -6.4607462200357062e-05 2.1554547291099627e-05 -2.56657489699049e-10 -5.0793612646743706e-05 1.8757618177442853e-05 -3.7000621938254339e-10 -6.3329649668519627e-05 2.1483626164113812e-05 -1.2527524918501675e-10 -6.4446039828849229e-05 2.5461156399090502e-05 -3.2728448379162386e-10 -6.4607462200357062e-05 2.4368536624381895e-05 -1.76203081772359e-10 -4.6888832203836478e-05 2.155454729109963e-05 -2.5665748969904906e-10 -5.0793612646743706e-05 2.1483626164113812e-05 -1.2527524918501673e-10 -6.4446039828849216e-05 1.8757618177442853e-05 -3.7000621938254339e-10 -6.3329649668519627e-05 2.1483626164113812e-05 -1.2527524918501673e-10 -6.4446039828849229e-05 1.5652545723039429e-05 -1.9111783524167512e-10 -7.3204032801781811e-05 2.1703902382284546e-05 -3.0167027733737179e-10 -7.8843085040798368e-05 2.4368536624381895e-05 -1.7620308177235902e-10 -4.6888832203836471e-05 2.155454729109963e-05 -2.56657489699049e-10 -5.0793612646743706e-05 1.5649098903596862e-05 -1.6163667036200386e-10 -4.9581285778237885e-05 2.1483626164113809e-05 -1.2527524918501673e-10 -6.4446039828849216e-05 1.8757618177442853e-05 -3.7000621938254339e-10 -6.3329649668519627e-05 1.5649098903596862e-05 -1.6163667036200386e-10 -4.9581285778237885e-05 2.1483626164113812e-05 -1.2527524918501673e-10 -6.4446039828849229e-05 1.5652545723039429e-05 -1.9111783524167512e-10 -7.3204032801781811e-05 2.5461156399090502e-05 -3.2728448379162386e-10 -6.4607462200357062e-05 1.8757618177442853e-05 -3.7000621938254334e-10 -6.3329649668519627e-05 2.1483626164113812e-05 -1.2527524918501675e-10 -6.4446039828849229e-05 2.5501656920685603e-05 -1.6581375172278212e-10 -7.64990139681907e-05 1.5626097139893164e-05 -3.1909785981644014e-10 -4.5036263482353991e-05 2.155454729109963e-05 -2.5665748969904906e-10 -5.0793612646743706e-05 1.8757618177442853e-05 -3.7000621938254339e-10 -6.3329649668519627e-05 1.5649098903596862e-05 -1.6163667036200386e-10 -4.9581285778237885e-05 1.562609956221699e-05 -2.0294280806043614e-12 -4.6875130588935371e-05 1.5649098903596862e-05 -1.6163667036200386e-10 -4.9581285778237885e-05 2.1483626164113812e-05 -1.2527524918501675e-10 -6.4446039828849229e-05 1.55686497909219e-05 1.4840151229646302e-11 -7.0354912853336349e-05 2.3453191645924357e-05 1.7389095769902028e-11 -4.6721960561686888e-05 1.562609956221699e-05 -2.0294280806043614e-12 -4.6875130588935371e-05 1.5649098903596862e-05 -1.6163667036200386e-10 -4.9581285778237885e-05 2.1483626164113812e-05 -1.2527524918501675e-10 -6.4446039828849229e-05 2.3453191645924357e-05 1.7389095769902028e-11 -4.6721960561686888e-05 1.562609956221699e-05 -2.0294280806043521e-12 -4.6875130588935364e-05 2.1483626164113812e-05 -1.2527524918501675e-10 -6.4446039828849229e-05 1.55686497909219e-05 1.4840151229646238e-11 -7.0354912853336335e-05 2.3453191645924357e-05 1.7389095769902028e-11 -4.6721960561686888e-05 2.1483626164113812e-05 -1.2527524918501675e-10 -6.4446039828849229e-05 2.4382698881362465e-05 -4.5096877328957425e-12 -7.314244378970091e-05 1.5568649790921906e-05 1.484015122964627e-11 -7.0354912853336335e-05 1.5649098903596862e-05 -1.6163667036200386e-10 -4.9581285778237885e-05 2.1483626164113816e-05 -1.2527524918501673e-10 -6.4446039828849229e-05 1.5652545723039426e-05 -1.9111783524167512e-10 -7.3204032801781811e-05 1.55686497909219e-05 1.4840151229646296e-11 -7.0354912853336335e-05 2.3453191645924357e-05 1.7389095769902028e-11 -4.6721960561686888e-05 2.4368536624381895e-05 -1.7620308177235902e-10 -4.6888832203836478e-05 1.5649098903596862e-05 -1.6163667036200386e-10 -4.9581285778237885e-05 2.1483626164113812e-05 -1.2527524918501675e-10 -6.4446039828849229e-05 1.8736410121742128e-05 -1.117383567199629e-10 -9.3749027171752342e-05 1.5652545723039429e-05 -1.9111783524167512e-10 -7.3204032801781825e-05 1.5568649790921896e-05 1.4840151229646312e-11 -7.0354912853336335e-05 1.43173495880625e-05 -1.332037192130763e-10 -9.3749035742444553e-05 2.1483626164113812e-05 -1.2527524918501675e-10 -6.4446039828849229e-05 2.2727903630685663e-05 -7.0971291802878877e-11 -9.3749018973821185e-05 1.8736410121742128e-05 -1.117383567199629e-10 -9.3749027171752342e-05 2.5501656920685603e-05 -1.6581375172278212e-10 -7.64990139681907e-05 2.1483626164113812e-05 -1.2527524918501675e-10 -6.4446039828849229e-05 1.8736410121742128e-05 -1.1173835671996292e-10 -9.3749027171752356e-05 2.4382698881362461e-05 -4.5096877328957441e-12 -7.3142443789700896e-05 1.55686497909219e-05 1.4840151229646302e-11 -7.0354912853336335e-05 2.1483626164113812e-05 -1.2527524918501675e-10 -6.4446039828849229e-05 1.8736410121742128e-05 -1.1173835671996286e-10 -9.3749027171752356e-05 1.5652545723039429e-05 -1.9111783524167512e-10 -7.3204032801781811e-05 2.5501656920685603e-05 -1.6581375172278212e-10 -7.64990139681907e-05 2.1483626164113812e-05 -1.2527524918501675e-10 -6.4446039828849229e-05 1.8736410121742128e-05 -1.117383567199629e-10 -9.3749027171752356e-05 1.5652545723039429e-05 -1.9111783524167512e-10 -7.3204032801781811e-05 1.5568649790921896e-05 1.4840151229646302e-11 -7.0354912853336322e-05 2.1483626164113812e-05 -1.2527524918501675e-10 -6.4446039828849229e-05 2.272790363068567e-05 -7.0971291802879019e-11 -9.3749018973821171e-05 1.8736410121742128e-05 -1.117383567199629e-10 -9.3749027171752342e-05 2.4382698881362461e-05 -4.5096877328957466e-12 -7.314244378970091e-05 1.8736410121742128e-05 -1.117383567199629e-10 -9.3749027171752342e-05 2.4382698881362465e-05 -4.5096877328957425e-12 -7.314244378970091e-05 2.103912512480495e-05 1.6690266535492263e-11 -9.374902106330644e-05 1.55686497909219e-05 1.4840151229646296e-11 -7.0354912853336335e-05 2.2727903630685663e-05 -7.0971291802878929e-11 -9.3749018973821171e-05 1.8736410121742128e-05 -1.117383567199629e-10 -9.3749027171752342e-05 2.2053319394095207e-05 -1.9473787094979984e-10 -9.3749021280210978e-05 2.5501656920685603e-05 -1.6581375172278212e-10 -7.64990139681907e-05 2.2727903630685663e-05 -7.0971291802878929e-11 -9.3749018973821171e-05 1.8736410121742128e-05 -1.117383567199629e-10 -9.3749027171752342e-05 2.4382698881362465e-05 -4.5096877328957425e-12 -7.314244378970091e-05 2.103912512480495e-05 1.6690266535492263e-11 -9.374902106330644e-05 1.8736410121742128e-05 -1.117383567199629e-10 -9.3749027171752342e-05 1.6239106135636973e-05 -4.3803087536009127e-12 -9.3749029682953293e-05 1.55686497909219e-05 1.4840151229646302e-11 -7.0354912853336349e-05 1.43173495880625e-05 -1.332037192130763e-10 -9.3749035742444553e-05 1.8736410121742128e-05 -1.117383567199629e-10 -9.3749027171752342e-05 2.103912512480495e-05 1.669026653549227e-11 -9.3749021063306426e-05 1.6239106135636973e-05 -4.3803087536009248e-12 -9.3749029682953293e-05 1.55686497909219e-05 1.4840151229646296e-11 -7.0354912853336335e-05 1.8736410121742128e-05 -1.117383567199629e-10 -9.3749027171752342e-05 1.5928231912449128e-05 -2.4356011375018043e-10 -9.3749033667628499e-05 1.5652545723039429e-05 -1.9111783524167512e-10 -7.3204032801781811e-05 1.43173495880625e-05 -1.332037192130763e-10 -9.3749035742444553e-05 1.5928231912449128e-05 -2.4356011375018043e-10 -9.3749033667628499e-05 1.5652545723039426e-05 -1.9111783524167514e-10 -7.3204032801781811e-05 2.1703902382284546e-05 -3.0167027733737179e-10 -7.8843085040798368e-05 2.2053319394095207e-05 -1.9473787094979984e-10 -9.3749021280210978e-05 2.1483626164113812e-05 -1.2527524918501675e-10 -6.4446039828849229e-05 1.5652545723039429e-05 -1.9111783524167512e-10 -7.3204032801781811e-05 2.1703902382284546e-05 -3.0167027733737179e-10 -7.8843085040798368e-05 2.5501656920685603e-05 -1.6581375172278212e-10 -7.64990139681907e-05 1.5652545723039429e-05 -1.9111783524167512e-10 -7.3204032801781811e-05 2.1703902382284542e-05 -3.0167027733737179e-10 -7.8843085040798368e-05 2.2053319394095207e-05 -1.9473787094979987e-10 -9.3749021280210978e-05 2.5501656920685603e-05 -1.6581375172278212e-10 -7.64990139681907e-05 1.8736410121742128e-05 -1.117383567199629e-10 -9.3749027171752342e-05 1.5652545723039429e-05 -1.9111783524167512e-10 -7.3204032801781811e-05 2.2053319394095207e-05 -1.9473787094979984e-10 -9.3749021280210978e-05 2.5501656920685603e-05 -1.6581375172278212e-10 -7.64990139681907e-05 1.8736410121742128e-05 -1.117383567199629e-10 -9.3749027171752342e-05 1.5928231912449128e-05 -2.4356011375018043e-10 -9.3749033667628499e-05 1.5652545723039429e-05 -1.9111783524167512e-10 -7.3204032801781811e-05 2.2053319394095207e-05 -1.9473787094979984e-10 -9.3749021280210978e-05 1.8757618177442853e-05 -3.7000621938254339e-10 -6.3329649668519627e-05 2.1483626164113806e-05 -1.252752491850166e-10 -6.4446039828849243e-05 2.1703902382284546e-05 -3.0167027733737179e-10 -7.8843085040798368e-05 2.5501656920685603e-05 -1.6581375172278212e-10 -7.64990139681907e-05 1.8757618177442853e-05 -3.7000621938254339e-10 -6.3329649668519627e-05 1.5652545723039429e-05 -1.9111783524167512e-10 -7.3204032801781811e-05 2.1703902382284549e-05 -3.0167027733737179e-10 -7.8843085040798368e-05 1.5575007397643108e-05 -3.3051334096421675e-10 -7.7599925005453622e-05 1.5928231912449128e-05 -2.4356011375018043e-10 -9.3749033667628499e-05 1.5652545723039426e-05 -1.9111783524167514e-10 -7.3204032801781811e-05 2.1703902382284546e-05 -3.0167027733737179e-10 -7.8843085040798368e-05 1.5575007397643108e-05 -3.3051334096421675e-10 -7.7599925005453622e-05 1.5928231912449128e-05 -2.4356011375018043e-10 -9.3749033667628499e-05 1.8751315989916925e-05 -3.6127346473421975e-10 -9.3749053380518999e-05 2.1703902382284546e-05 -3.0167027733737179e-10 -7.8843085040798368e-05 1.5575007397643108e-05 -3.3051334096421675e-10 -7.7599925005453622e-05 1.5928231912449128e-05 -2.4356011375018043e-10 -9.3749033667628499e-05 1.8751315989916928e-05 -3.612734647342198e-10 -9.3749053380519013e-05 1.5575007397643108e-05 -3.3051334096421675e-10 -7.7599925005453622e-05 1.2500863139527319e-05 -3.8666669633174624e-10 -9.3749070885445205e-05 1.5928231912449128e-05 -2.4356011375018043e-10 -9.3749033667628499e-05 1.8751315989916925e-05 -3.6127346473421975e-10 -9.3749053380518999e-05 2.1703902382284546e-05 -3.0167027733737179e-10 -7.8843085040798368e-05 2.2053319394095207e-05 -1.9473787094979984e-10 -9.3749021280210978e-05 1.8751315989916925e-05 -3.6127346473421975e-10 -9.3749053380518999e-05 2.1703902382284546e-05 -3.0167027733737179e-10 -7.8843085040798368e-05 2.2053319394095207e-05 -1.9473787094979987e-10 -9.3749021280210992e-05 2.5001756055886656e-05 -2.9345021841147207e-10 -9.3749026653306095e-05 2.5461156399090502e-05 -3.2728448379162386e-10 -6.4607462200357062e-05 1.8757618177442853e-05 -3.7000621938254339e-10 -6.3329649668519627e-05 2.1703902382284546e-05 -3.0167027733737179e-10 -7.8843085040798368e-05 2.5501656920685603e-05 -1.6581375172278212e-10 -7.64990139681907e-05 2.1703902382284546e-05 -3.0167027733737179e-10 -7.8843085040798368e-05 2.2053319394095207e-05 -1.9473787094979984e-10 -9.3749021280210978e-05 2.6676553859665583e-05 -2.0316636969980413e-10 -9.3749007901833918e-05 2.5501656920685603e-05 -1.6581375172278212e-10 -7.64990139681907e-05 2.2053319394095207e-05 -1.9473787094979984e-10 -9.3749021280210978e-05 2.6676553859665586e-05 -2.0316636969980415e-10 -9.3749007901833931e-05 2.5501656920685603e-05 -1.6581375172278209e-10 -7.6499013968190686e-05 2.6618645500878042e-05 -1.2176926230835769e-10 -9.3749015746923784e-05 3.1252210645719771e-05 -2.1300460276379143e-10 -6.6155017302111627e-05 2.5461156399090502e-05 -3.2728448379162386e-10 -6.4607462200357075e-05 2.5501656920685603e-05 -1.6581375172278212e-10 -7.64990139681907e-05 2.6676559881663895e-05 -2.4295198505055953e-10 -8.0023389419192438e-05 2.5461156399090502e-05 -3.2728448379162386e-10 -6.4607462200357062e-05 2.1703902382284546e-05 -3.0167027733737179e-10 -7.8843085040798368e-05 2.5501656920685603e-05 -1.6581375172278212e-10 -7.64990139681907e-05 2.6676559881663895e-05 -2.4295198505055953e-10 -8.0023389419192438e-05 2.1703902382284546e-05 -3.0167027733737179e-10 -7.8843085040798368e-05 2.6676553859665579e-05 -2.0316636969980415e-10 -9.3749007901833918e-05 2.5501656920685603e-05 -1.6581375172278212e-10 -7.64990139681907e-05 2.6676559881663895e-05 -2.4295198505055953e-10 -8.0023389419192438e-05 2.1703902382284546e-05 -3.0167027733737179e-10 -7.8843085040798368e-05 2.2053319394095207e-05 -1.9473787094979984e-10 -9.3749021280210978e-05 2.6676553859665583e-05 -2.0316636969980413e-10 -9.3749007901833918e-05 2.5001756055886656e-05 -2.9345021841147207e-10 -9.3749026653306095e-05 2.1703902382284546e-05 -3.0167027733737179e-10 -7.8843085040798368e-05 2.6676553859665579e-05 -2.0316636969980415e-10 -9.3749007901833918e-05 2.6676559881663895e-05 -2.4295198505055953e-10 -8.0023389419192438e-05 2.5001756055886656e-05 -2.9345021841147207e-10 -9.3749026653306095e-05 2.6676553859665583e-05 -2.0316636969980413e-10 -9.3749007901833918e-05 2.6676559881663895e-05 -2.4295198505055948e-10 -8.0023389419192425e-05 3.1252180950416799e-05 -3.3283305284940303e-10 -9.3749015989441826e-05 3.1252212670634052e-05 -2.1338336211009389e-10 -8.0023381192012027e-05 2.6676553859665583e-05 -2.0316636969980413e-10 -9.3749007901833918e-05 2.6676559881663895e-05 -2.4295198505055953e-10 -8.0023389419192438e-05 2.5001756055886656e-05 -2.9345021841147207e-10 -9.3749026653306095e-05 3.1252180950416799e-05 -3.3283305284940303e-10 -9.3749015989441826e-05 2.6676553859665583e-05 -2.0316636969980413e-10 -9.3749007901833918e-05 3.1252180950416799e-05 -3.3283305284940303e-10 -9.3749015989441826e-05 3.1252212670634052e-05 -2.1338336211009392e-10 -8.002338119201204e-05 3.1252200226634153e-05 -1.8126510496471911e-10 -9.3749009429100621e-05 2.6676559881663895e-05 -2.4295198505055953e-10 -8.0023389419192438e-05 3.1252180950416799e-05 -3.3283305284940303e-10 -9.3749015989441826e-05 3.1252179111782472e-05 -3.2958876893473204e-10 -7.4999444802492871e-05 3.1252212670634052e-05 -2.1338336211009392e-10 -8.002338119201204e-05 3.1252210645719771e-05 -2.1300460276379143e-10 -6.6155017302111627e-05 2.5461156399090502e-05 -3.2728448379162386e-10 -6.4607462200357062e-05 2.6676559881663895e-05 -2.4295198505055953e-10 -8.0023389419192438e-05 3.1252179111782472e-05 -3.2958876893473204e-10 -7.4999444802492871e-05 3.1252210645719771e-05 -2.1300460276379143e-10 -6.6155017302111627e-05 2.6676559881663892e-05 -2.4295198505055953e-10 -8.0023389419192452e-05 3.1252179111782472e-05 -3.2958876893473204e-10 -7.4999444802492871e-05 3.1252212670634052e-05 -2.1338336211009392e-10 -8.002338119201204e-05 3.1252210645719771e-05 -2.1300460276379143e-10 -6.6155017302111627e-05 2.5501656920685603e-05 -1.6581375172278212e-10 -7.64990139681907e-05 3.1252212670634052e-05 -2.1338336211009392e-10 -8.002338119201204e-05 3.1252202851143392e-05 -1.2248479573771282e-10 -7.9849679584293381e-05 3.1252210645719771e-05 -2.1300460276379143e-10 -6.6155017302111627e-05 2.5501656920685603e-05 -1.6581375172278212e-10 -7.64990139681907e-05 2.6676559881663895e-05 -2.4295198505055953e-10 -8.0023389419192425e-05 3.1252212670634052e-05 -2.1338336211009392e-10 -8.002338119201204e-05 2.6676553859665583e-05 -2.0316636969980413e-10 -9.3749007901833918e-05 2.5501656920685603e-05 -1.6581375172278214e-10 -7.6499013968190686e-05 3.1252200226634153e-05 -1.8126510496471911e-10 -9.3749009429100621e-05 2.6618645500878042e-05 -1.2176926230835769e-10 -9.3749015746923784e-05 2.6676553859665583e-05 -2.0316636969980413e-10 -9.3749007901833918e-05 2.5501656920685603e-05 -1.6581375172278206e-10 -7.64990139681907e-05 3.1252212670634052e-05 -2.1338336211009392e-10 -8.002338119201204e-05 3.1252200226634153e-05 -1.8126510496471911e-10 -9.3749009429100621e-05 2.5501656920685603e-05 -1.6581375172278212e-10 -7.64990139681907e-05 3.1252212670634052e-05 -2.1338336211009392e-10 -8.002338119201204e-05 3.1252200226634153e-05 -1.8126510496471911e-10 -9.3749009429100634e-05 3.1252202851143392e-05 -1.2248479573771282e-10 -7.9849679584293381e-05 2.6676553859665583e-05 -2.0316636969980413e-10 -9.3749007901833918e-05 2.5501656920685603e-05 -1.6581375172278212e-10 -7.64990139681907e-05 2.6676559881663892e-05 -2.4295198505055953e-10 -8.0023389419192438e-05 3.1252212670634052e-05 -2.1338336211009395e-10 -8.002338119201204e-05 3.1252200226634153e-05 -1.8126510496471911e-10 -9.3749009429100621e-05 2.6618645500878042e-05 -1.2176926230835772e-10 -9.3749015746923784e-05 3.1252202851143392e-05 -1.2248479573771282e-10 -7.9849679584293381e-05 3.1252194397412452e-05 -6.20707868172333e-11 -9.3749009262545822e-05 2.5501656920685603e-05 -1.6581375172278212e-10 -7.64990139681907e-05 3.1252200226634153e-05 -1.8126510496471917e-10 -9.3749009429100634e-05 2.6618645500878038e-05 -1.2176926230835772e-10 -9.3749015746923784e-05 3.1252202851143392e-05 -1.2248479573771282e-10 -7.9849679584293381e-05 2.5501656920685603e-05 -1.6581375172278212e-10 -7.64990139681907e-05 2.6618645500878042e-05 -1.2176926230835769e-10 -9.3749015746923771e-05 3.1252202851143392e-05 -1.2248479573771282e-10 -7.9849679584293381e-05 2.4382698881362465e-05 -4.5096877328957425e-12 -7.314244378970091e-05 2.1483626164113812e-05 -1.2527524918501675e-10 -6.4446039828849229e-05 2.2727903630685663e-05 -7.0971291802878954e-11 -9.3749018973821171e-05 2.5501656920685603e-05 -1.6581375172278212e-10 -7.64990139681907e-05 2.4382698881362465e-05 -4.5096877328957554e-12 -7.314244378970091e-05 3.1252210811341167e-05 -7.1820897779332645e-11 -6.8178564156654467e-05 2.5501656920685599e-05 -1.6581375172278217e-10 -7.64990139681907e-05 3.1252202851143392e-05 -1.2248479573771282e-10 -7.9849679584293381e-05 2.4382698881362465e-05 -4.5096877328957425e-12 -7.314244378970091e-05 2.2727903630685663e-05 -7.0971291802878929e-11 -9.3749018973821171e-05 2.5501656920685606e-05 -1.6581375172278212e-10 -7.64990139681907e-05 2.6618645500878042e-05 -1.2176926230835769e-10 -9.3749015746923784e-05 2.4382698881362465e-05 -4.5096877328957425e-12 -7.314244378970091e-05 3.1252210811341167e-05 -7.1820897779332645e-11 -6.8178564156654467e-05 2.1483626164113809e-05 -1.2527524918501675e-10 -6.4446039828849229e-05 2.5501656920685599e-05 -1.6581375172278212e-10 -7.64990139681907e-05 2.4382698881362468e-05 -4.5096877328957239e-12 -7.314244378970091e-05 2.6618645500878042e-05 -1.2176926230835769e-10 -9.3749015746923784e-05 3.1252202851143392e-05 -1.2248479573771279e-10 -7.9849679584293381e-05 3.1252201146035793e-05 -7.9010369326952223e-12 -7.8929281563220374e-05 3.1252194397412452e-05 -6.20707868172333e-11 -9.3749009262545822e-05 2.2727903630685663e-05 -7.0971291802878929e-11 -9.3749018973821171e-05 2.2053319394095207e-05 -1.9473787094979981e-10 -9.3749021280210978e-05 2.5501656920685603e-05 -1.6581375172278214e-10 -7.64990139681907e-05 2.6618645500878042e-05 -1.2176926230835769e-10 -9.3749015746923784e-05 3.1252210811341167e-05 -7.1820897779332645e-11 -6.8178564156654467e-05 3.1252210645719771e-05 -2.1300460276379143e-10 -6.6155017302111627e-05 2.5501656920685599e-05 -1.6581375172278212e-10 -7.6499013968190713e-05 3.1252202851143392e-05 -1.2248479573771282e-10 -7.9849679584293381e-05 2.6618645500878042e-05 -1.2176926230835769e-10 -9.3749015746923784e-05 3.1252202851143399e-05 -1.2248479573771279e-10 -7.9849679584293381e-05 3.1252201146035793e-05 -7.9010369326952336e-12 -7.8929281563220387e-05 2.4382698881362465e-05 -4.5096877328957425e-12 -7.314244378970091e-05 3.1252210811341167e-05 -7.1820897779332645e-11 -6.8178564156654467e-05 3.1252202851143392e-05 -1.2248479573771282e-10 -7.9849679584293381e-05 3.1252201146035793e-05 -7.9010369326952223e-12 -7.8929281563220374e-05 2.4382698881362465e-05 -4.5096877328957425e-12 -7.314244378970091e-05 3.1252210811341167e-05 -7.1820897779332645e-11 -6.8178564156654467e-05 3.1252201146035793e-05 -7.9010369326952272e-12 -7.8929281563220374e-05 2.4382698881362465e-05 -4.5096877328957385e-12 -7.314244378970091e-05 3.1252208976522669e-05 1.9719257996844408e-11 -6.3112706384414274e-05 2.2727903630685663e-05 -7.0971291802878929e-11 -9.3749018973821171e-05 2.4382698881362461e-05 -4.5096877328957514e-12 -7.314244378970091e-05 2.6311817081641902e-05 -9.57050397419573e-12 -9.3749011828600829e-05 2.103912512480495e-05 1.6690266535492263e-11 -9.374902106330644e-05 2.2727903630685663e-05 -7.0971291802878929e-11 -9.3749018973821171e-05 2.6618645500878042e-05 -1.2176926230835769e-10 -9.3749015746923784e-05 2.4382698881362465e-05 -4.5096877328957425e-12 -7.314244378970091e-05 2.6311817081641902e-05 -9.5705039741957267e-12 -9.3749011828600829e-05 2.6618645500878042e-05 -1.2176926230835769e-10 -9.3749015746923784e-05 3.1252201146035793e-05 -7.9010369326952223e-12 -7.8929281563220374e-05 2.4382698881362465e-05 -4.5096877328957425e-12 -7.314244378970091e-05 2.6311817081641902e-05 -9.5705039741957267e-12 -9.3749011828600829e-05 3.1252201146035793e-05 -7.9010369326952223e-12 -7.8929281563220374e-05 2.6311817081641905e-05 -9.5705039741957267e-12 -9.3749011828600829e-05 3.1252194397412452e-05 -6.20707868172333e-11 -9.3749009262545822e-05 3.1252190623222615e-05 6.0500896757607018e-11 -9.3749003797801063e-05 2.6618645500878042e-05 -1.2176926230835769e-10 -9.3749015746923784e-05 3.1252201146035793e-05 -7.9010369326952046e-12 -7.8929281563220374e-05 2.6311817081641902e-05 -9.5705039741957267e-12 -9.3749011828600829e-05 3.1252194397412452e-05 -6.20707868172333e-11 -9.3749009262545822e-05 2.4382698881362465e-05 -4.5096877328957425e-12 -7.314244378970091e-05 2.5264222226738026e-05 1.0979968166892826e-10 -9.3749010019538015e-05 2.4277706994803482e-05 1.8410926263002519e-10 -7.6560136451385454e-05 2.1454377711268609e-05 1.1030793447411849e-10 -6.4358310476194893e-05 2.4382698881362465e-05 -4.5096877328957425e-12 -7.314244378970091e-05 2.5264222226738029e-05 1.0979968166892824e-10 -9.3749010019538015e-05 3.1252200260419892e-05 1.1355513473363891e-10 -7.5786801959812762e-05 2.4277706994803482e-05 1.8410926263002519e-10 -7.6560136451385454e-05 3.1252201146035793e-05 -7.9010369326952223e-12 -7.8929281563220374e-05 2.6311817081641902e-05 -9.5705039741957267e-12 -9.3749011828600829e-05 3.1252190623222615e-05 6.0500896757607018e-11 -9.3749003797801063e-05 3.1252200260419899e-05 1.1355513473363891e-10 -7.5786801959812776e-05 2.4382698881362465e-05 -4.5096877328957425e-12 -7.314244378970091e-05 3.1252200260419899e-05 1.1355513473363892e-10 -7.5786801959812762e-05 2.4277706994803482e-05 1.8410926263002519e-10 -7.6560136451385454e-05 2.1454377711268612e-05 1.103079344741185e-10 -6.4358310476194893e-05 2.6311817081641902e-05 -9.5705039741957267e-12 -9.3749011828600829e-05 3.1252190623222615e-05 6.0500896757607018e-11 -9.3749003797801063e-05 2.5264222226738029e-05 1.0979968166892824e-10 -9.3749010019538015e-05 3.1252200260419899e-05 1.1355513473363891e-10 -7.5786801959812776e-05 3.1252190623222615e-05 6.0500896757607018e-11 -9.3749003797801063e-05 2.5264222226738029e-05 1.0979968166892824e-10 -9.3749010019538015e-05 3.1252200260419899e-05 1.1355513473363891e-10 -7.5786801959812776e-05 3.1252187783769008e-05 1.8337408520004738e-10 -9.3748994816804561e-05 2.4382698881362465e-05 -4.5096877328957425e-12 -7.314244378970091e-05 2.6311817081641902e-05 -9.5705039741957267e-12 -9.3749011828600829e-05 2.5264222226738026e-05 1.0979968166892822e-10 -9.3749010019538015e-05 2.1039125124804946e-05 1.6690266535492286e-11 -9.3749021063306426e-05 2.4382698881362465e-05 -4.5096877328957425e-12 -7.314244378970091e-05 2.6311817081641905e-05 -9.5705039741957235e-12 -9.3749011828600829e-05 2.5264222226738029e-05 1.0979968166892824e-10 -9.3749010019538015e-05 3.1252200260419899e-05 1.135551347336389e-10 -7.5786801959812776e-05 3.1252201146035793e-05 -7.9010369326952223e-12 -7.8929281563220374e-05 2.4382698881362465e-05 -4.5096877328957425e-12 -7.314244378970091e-05 3.1252200260419899e-05 1.1355513473363891e-10 -7.5786801959812776e-05 3.1252208976522669e-05 1.9719257996844408e-11 -6.3112706384414274e-05 3.1252201146035793e-05 -7.9010369326952223e-12 -7.8929281563220374e-05 2.4382698881362465e-05 -4.5096877328957449e-12 -7.314244378970091e-05 2.6311817081641902e-05 -9.5705039741957267e-12 -9.3749011828600829e-05 3.1252200260419899e-05 1.1355513473363891e-10 -7.5786801959812776e-05 2.3453191645924357e-05 1.7389095769902028e-11 -4.6721960561686888e-05 2.4382698881362461e-05 -4.5096877328957441e-12 -7.314244378970091e-05 3.1252208976522669e-05 1.971925799684434e-11 -6.3112706384414274e-05 3.1252210372300585e-05 1.2202801809499226e-10 -5.7202844113991113e-05 2.4181291256768491e-05 2.0317736643933334e-10 -4.6714877201911275e-05 2.3453191645924357e-05 1.7389095769902008e-11 -4.6721960561686882e-05 3.1252210372300585e-05 1.2202801809499223e-10 -5.720284411399112e-05 2.1454377711268612e-05 1.103079344741185e-10 -6.4358310476194893e-05 2.4181291256768491e-05 2.0317736643933334e-10 -4.6714877201911275e-05 3.1252210372300585e-05 1.220280180949922e-10 -5.720284411399112e-05 3.1252204350471967e-05 2.2635419525415059e-10 -6.5026100516265203e-05 2.1454377711268609e-05 1.103079344741185e-10 -6.435831047619488e-05 3.1252200260419899e-05 1.1355513473363891e-10 -7.5786801959812776e-05 3.1252210372300592e-05 1.2202801809499226e-10 -5.720284411399112e-05 2.4277706994803482e-05 1.8410926263002519e-10 -7.6560136451385454e-05 2.1454377711268612e-05 1.103079344741185e-10 -6.4358310476194893e-05 2.4181291256768491e-05 2.0317736643933334e-10 -4.6714877201911275e-05 3.1252221088335754e-05 1.191636759538767e-10 -4.2949248837689357e-05 2.3453191645924361e-05 1.7389095769902002e-11 -4.6721960561686888e-05 3.1252210372300585e-05 1.2202801809499228e-10 -5.7202844113991127e-05 2.3453191645924357e-05 1.7389095769902028e-11 -4.6721960561686888e-05 2.4382698881362461e-05 -4.5096877328957498e-12 -7.314244378970091e-05 3.1252210372300585e-05 1.2202801809499226e-10 -5.720284411399112e-05 2.1454377711268612e-05 1.103079344741185e-10 -6.4358310476194893e-05 2.4382698881362465e-05 -4.5096877328957425e-12 -7.314244378970091e-05 3.1252200260419892e-05 1.1355513473363891e-10 -7.5786801959812762e-05 3.1252210372300585e-05 1.2202801809499228e-10 -5.720284411399112e-05 2.1454377711268612e-05 1.103079344741185e-10 -6.4358310476194893e-05 2.4382698881362465e-05 -4.5096877328957425e-12 -7.314244378970091e-05 3.1252200260419899e-05 1.1355513473363893e-10 -7.5786801959812776e-05 3.1252208976522669e-05 1.971925799684437e-11 -6.3112706384414274e-05 3.1252210372300585e-05 1.2202801809499226e-10 -5.7202844113991127e-05 2.3453191645924357e-05 1.7389095769902028e-11 -4.6721960561686888e-05 3.1252208976522669e-05 1.9719257996844408e-11 -6.3112706384414274e-05 3.125221513709485e-05 -5.2612365016123975e-12 -4.8713998307059306e-05 3.1252210372300585e-05 1.2202801809499226e-10 -5.720284411399112e-05 3.1252221088335748e-05 1.191636759538767e-10 -4.2949248837689364e-05 2.3453191645924357e-05 1.7389095769902024e-11 -4.6721960561686888e-05 3.125221513709485e-05 -5.2612365016123975e-12 -4.8713998307059306e-05 3.1252210372300585e-05 1.2202801809499226e-10 -5.720284411399112e-05 2.4181291256768491e-05 2.0317736643933334e-10 -4.6714877201911275e-05 3.1252221088335748e-05 1.1916367595387665e-10 -4.2949248837689364e-05 3.1252210372300585e-05 1.2202801809499226e-10 -5.720284411399112e-05 3.125221835329062e-05 2.1243688632028078e-10 -4.7628198628675531e-05 2.4181291256768491e-05 2.0317736643933334e-10 -4.6714877201911275e-05 3.1252204350471967e-05 2.2635419525415059e-10 -6.5026100516265203e-05 2.4277706994803482e-05 1.8410926263002521e-10 -7.6560136451385454e-05 2.1454377711268612e-05 1.1030793447411845e-10 -6.435831047619488e-05 2.4181291256768491e-05 2.0317736643933334e-10 -4.6714877201911275e-05 2.5422469842887312e-05 3.2068488701648231e-10 -6.4144359354320919e-05 2.4277706994803486e-05 1.8410926263002516e-10 -7.6560136451385468e-05 2.1454377711268612e-05 1.1030793447411853e-10 -6.4358310476194893e-05 3.1252210372300585e-05 1.2202801809499226e-10 -5.720284411399112e-05 3.1252204350471967e-05 2.2635419525415059e-10 -6.5026100516265203e-05 2.4277706994803479e-05 1.8410926263002524e-10 -7.6560136451385454e-05 2.1454377711268612e-05 1.103079344741185e-10 -6.4358310476194893e-05 3.1252200260419899e-05 1.1355513473363891e-10 -7.5786801959812776e-05 3.1252210372300585e-05 1.2202801809499226e-10 -5.720284411399112e-05 3.1252204350471967e-05 2.2635419525415059e-10 -6.5026100516265203e-05 2.4277706994803482e-05 1.8410926263002519e-10 -7.6560136451385454e-05 2.4181291256768491e-05 2.0317736643933334e-10 -4.6714877201911275e-05 3.1252204350471967e-05 2.2635419525415059e-10 -6.5026100516265203e-05 2.5422469842887315e-05 3.2068488701648231e-10 -6.4144359354320919e-05 2.4277706994803482e-05 1.8410926263002519e-10 -7.6560136451385454e-05 2.4181291256768491e-05 2.0317736643933334e-10 -4.6714877201911275e-05 3.1252210372300578e-05 1.2202801809499223e-10 -5.7202844113991113e-05 3.1252204350471967e-05 2.2635419525415059e-10 -6.5026100516265203e-05 3.125221835329062e-05 2.1243688632028078e-10 -4.7628198628675531e-05 2.4181291256768491e-05 2.0317736643933334e-10 -4.6714877201911275e-05 3.1252204350471967e-05 2.2635419525415059e-10 -6.5026100516265203e-05 3.1252218353290613e-05 2.1243688632028078e-10 -4.7628198628675531e-05 2.7115165415620915e-05 3.0054103371666308e-10 -4.7445244753122823e-05 3.1252204350471967e-05 2.2635419525415059e-10 -6.5026100516265203e-05 3.125221835329062e-05 2.1243688632028081e-10 -4.7628198628675531e-05 3.1252198774786444e-05 3.2603729756451699e-10 -5.6249883414078797e-05 2.7115165415620912e-05 3.0054103371666303e-10 -4.7445244753122816e-05 3.1252224364462344e-05 2.9862054908690305e-10 -3.7500316463996545e-05 3.1252218353290627e-05 2.1243688632028083e-10 -4.7628198628675525e-05 3.1252198774786444e-05 3.2603729756451699e-10 -5.6249883414078797e-05 2.7115165415620915e-05 3.0054103371666308e-10 -4.7445244753122816e-05 3.1252204350471967e-05 2.2635419525415059e-10 -6.5026100516265203e-05 3.1252198774786437e-05 3.2603729756451699e-10 -5.6249883414078797e-05 2.7115165415620915e-05 3.0054103371666303e-10 -4.7445244753122809e-05 2.5422469842887312e-05 3.2068488701648231e-10 -6.4144359354320919e-05 2.4181291256768491e-05 2.0317736643933334e-10 -4.6714877201911275e-05 2.7115165415620919e-05 3.0054103371666303e-10 -4.7445244753122823e-05 2.5422469842887318e-05 3.2068488701648236e-10 -6.4144359354320919e-05 2.1326590380916221e-05 3.7195907561071338e-10 -4.9040770707868434e-05 2.4181291256768491e-05 2.0317736643933334e-10 -4.6714877201911275e-05 3.1252204350471967e-05 2.2635419525415059e-10 -6.5026100516265203e-05 2.7115165415620915e-05 3.0054103371666308e-10 -4.7445244753122816e-05 2.5422469842887315e-05 3.2068488701648231e-10 -6.4144359354320919e-05 3.1252204350471967e-05 2.2635419525415059e-10 -6.5026100516265203e-05 3.1252198774786444e-05 3.2603729756451693e-10 -5.6249883414078797e-05 2.5422469842887318e-05 3.2068488701648231e-10 -6.4144359354320919e-05 3.125216071839308e-05 3.549540432441028e-10 -7.4999431690345842e-05 3.1252204350471967e-05 2.2635419525415059e-10 -6.5026100516265203e-05 2.5422469842887318e-05 3.2068488701648231e-10 -6.4144359354320919e-05 3.125216071839308e-05 3.5495404324410285e-10 -7.4999431690345828e-05 2.667655159652335e-05 2.3751360026934293e-10 -8.0023385663346002e-05 3.1252204350471967e-05 2.2635419525415059e-10 -6.5026100516265203e-05 3.1252208478093531e-05 2.1224741584280453e-10 -8.0023367432838051e-05 2.4277706994803482e-05 1.8410926263002519e-10 -7.6560136451385454e-05 2.6676551596523343e-05 2.3751360026934272e-10 -8.0023385663346002e-05 3.1252204350471967e-05 2.2635419525415059e-10 -6.5026100516265203e-05 3.125216071839308e-05 3.549540432441028e-10 -7.4999431690345842e-05 3.1252208478093531e-05 2.1224741584280453e-10 -8.0023367432838051e-05 2.6676551596523354e-05 2.3751360026934288e-10 -8.0023385663346002e-05 3.1252171620464603e-05 3.2542211588837395e-10 -9.3749005269966687e-05 3.1252187783769008e-05 1.8337408520004738e-10 -9.3748994816804561e-05 3.1252208478093531e-05 2.1224741584280453e-10 -8.0023367432838051e-05 2.6676543867308323e-05 2.1342301109725301e-10 -9.3749000569382825e-05 3.1252171620464603e-05 3.2542211588837395e-10 -9.3749005269966687e-05 2.6676543867308323e-05 2.1342301109725301e-10 -9.3749000569382825e-05 2.5001741315044659e-05 3.0861362046178379e-10 -9.374902277366624e-05 2.6676551596523347e-05 2.3751360026934278e-10 -8.0023385663346002e-05 3.125216071839308e-05 3.549540432441028e-10 -7.4999431690345842e-05 3.1252171620464603e-05 3.25422115888374e-10 -9.3749005269966687e-05 3.1252208478093531e-05 2.1224741584280453e-10 -8.0023367432838051e-05 2.6676551596523347e-05 2.3751360026934278e-10 -8.0023385663346002e-05 3.1252171620464603e-05 3.2542211588837395e-10 -9.3749005269966687e-05 3.1252208478093531e-05 2.1224741584280453e-10 -8.0023367432838051e-05 2.6676543867308323e-05 2.1342301109725301e-10 -9.3749000569382825e-05 2.6676551596523347e-05 2.3751360026934278e-10 -8.0023385663346002e-05 3.1252200260419899e-05 1.1355513473363891e-10 -7.5786801959812776e-05 3.1252187783769008e-05 1.8337408520004736e-10 -9.3748994816804561e-05 3.1252208478093531e-05 2.1224741584280453e-10 -8.0023367432838051e-05 2.6676543867308323e-05 2.1342301109725301e-10 -9.3749000569382825e-05 2.5264222226738029e-05 1.0979968166892824e-10 -9.3749010019538015e-05 3.1252200260419899e-05 1.1355513473363891e-10 -7.5786801959812776e-05 3.1252187783769008e-05 1.8337408520004738e-10 -9.3748994816804561e-05 2.6676543867308323e-05 2.1342301109725301e-10 -9.3749000569382825e-05 3.1252200260419899e-05 1.1355513473363891e-10 -7.5786801959812776e-05 3.1252208478093531e-05 2.1224741584280453e-10 -8.0023367432838051e-05 2.4277706994803482e-05 1.8410926263002519e-10 -7.6560136451385454e-05 2.6676543867308323e-05 2.1342301109725301e-10 -9.3749000569382825e-05 3.1252200260419899e-05 1.1355513473363891e-10 -7.5786801959812776e-05 3.1252204350471967e-05 2.2635419525415059e-10 -6.5026100516265203e-05 3.1252208478093531e-05 2.1224741584280453e-10 -8.0023367432838051e-05 2.4277706994803482e-05 1.8410926263002519e-10 -7.6560136451385454e-05 2.5264222226738029e-05 1.0979968166892824e-10 -9.3749010019538015e-05 2.4277706994803479e-05 1.8410926263002516e-10 -7.6560136451385441e-05 2.6676543867308323e-05 2.1342301109725301e-10 -9.3749000569382825e-05 2.1676980273911073e-05 2.2288616902764334e-10 -9.3749019409663777e-05 2.5264222226738029e-05 1.0979968166892824e-10 -9.3749010019538015e-05 3.1252200260419899e-05 1.1355513473363892e-10 -7.5786801959812789e-05 2.4277706994803482e-05 1.8410926263002519e-10 -7.6560136451385454e-05 2.6676543867308323e-05 2.1342301109725301e-10 -9.3749000569382825e-05 2.4277706994803482e-05 1.8410926263002519e-10 -7.6560136451385454e-05 2.6676543867308323e-05 2.1342301109725301e-10 -9.3749000569382825e-05 2.5001741315044659e-05 3.0861362046178379e-10 -9.374902277366624e-05 2.6676551596523347e-05 2.3751360026934272e-10 -8.0023385663346002e-05 2.4277706994803482e-05 1.8410926263002519e-10 -7.6560136451385454e-05 2.5001741315044659e-05 3.0861362046178379e-10 -9.374902277366624e-05 2.6676551596523347e-05 2.3751360026934272e-10 -8.0023385663345988e-05 2.1870765811418287e-05 3.0265802105059831e-10 -7.7865997051936294e-05 2.4277706994803482e-05 1.8410926263002519e-10 -7.6560136451385454e-05 2.6676543867308323e-05 2.1342301109725301e-10 -9.3749000569382825e-05 2.5001741315044659e-05 3.0861362046178379e-10 -9.3749022773666226e-05 2.1676980273911073e-05 2.2288616902764334e-10 -9.3749019409663777e-05 3.1252208478093531e-05 2.1224741584280453e-10 -8.0023367432838051e-05 2.4277706994803482e-05 1.8410926263002519e-10 -7.6560136451385468e-05 2.6676543867308323e-05 2.1342301109725301e-10 -9.3749000569382825e-05 2.6676551596523347e-05 2.3751360026934272e-10 -8.0023385663346002e-05 2.5422469842887315e-05 3.2068488701648231e-10 -6.4144359354320919e-05 2.4277706994803482e-05 1.8410926263002519e-10 -7.6560136451385454e-05 2.6676551596523343e-05 2.3751360026934272e-10 -8.0023385663345988e-05 2.1870765811418283e-05 3.0265802105059831e-10 -7.7865997051936281e-05 3.1252204350471967e-05 2.2635419525415059e-10 -6.5026100516265203e-05 2.5422469842887315e-05 3.2068488701648231e-10 -6.4144359354320919e-05 2.4277706994803482e-05 1.8410926263002519e-10 -7.6560136451385454e-05 2.6676551596523347e-05 2.3751360026934278e-10 -8.0023385663345988e-05 2.4277706994803482e-05 1.8410926263002519e-10 -7.6560136451385454e-05 2.1870765811418283e-05 3.0265802105059831e-10 -7.7865997051936281e-05 2.1676980273911073e-05 2.2288616902764334e-10 -9.3749019409663777e-05 1.5598340554011307e-05 1.7106746898843991e-10 -7.3026409235499751e-05 2.4277706994803482e-05 1.8410926263002519e-10 -7.6560136451385454e-05 2.1676980273911073e-05 2.2288616902764334e-10 -9.3749019409663777e-05 1.9068984533112636e-05 1.1614985780629744e-10 -9.374902030119646e-05 1.5598340554011303e-05 1.7106746898843986e-10 -7.3026409235499737e-05 2.5422469842887315e-05 3.2068488701648231e-10 -6.4144359354320919e-05 2.4277706994803482e-05 1.8410926263002519e-10 -7.6560136451385454e-05 2.1870765811418283e-05 3.0265802105059831e-10 -7.7865997051936281e-05 1.9136758251624481e-05 2.7545350711997676e-10 -6.3597268917666843e-05 2.4277706994803482e-05 1.8410926263002519e-10 -7.6560136451385454e-05 2.1870765811418283e-05 3.0265802105059831e-10 -7.7865997051936281e-05 1.9136758251624481e-05 2.7545350711997676e-10 -6.3597268917666843e-05 1.5598340554011307e-05 1.7106746898843991e-10 -7.3026409235499751e-05 2.4277706994803482e-05 1.8410926263002519e-10 -7.6560136451385454e-05 2.5001741315044662e-05 3.0861362046178384e-10 -9.3749022773666253e-05 2.1870765811418283e-05 3.0265802105059831e-10 -7.7865997051936281e-05 2.1676980273911073e-05 2.2288616902764334e-10 -9.3749019409663777e-05 2.1870765811418283e-05 3.0265802105059831e-10 -7.7865997051936281e-05 2.1676980273911073e-05 2.2288616902764334e-10 -9.3749019409663777e-05 1.8751304320982629e-05 3.6413585008631213e-10 -9.3749065753935689e-05 1.5929249374919341e-05 3.0165988178791109e-10 -7.8313447698058429e-05 2.5001741315044659e-05 3.0861362046178379e-10 -9.374902277366624e-05 2.1870765811418283e-05 3.0265802105059831e-10 -7.7865997051936281e-05 2.1676980273911073e-05 2.2288616902764334e-10 -9.3749019409663777e-05 1.8751304320982629e-05 3.6413585008631213e-10 -9.3749065753935689e-05 2.5264222226738029e-05 1.0979968166892824e-10 -9.3749010019538015e-05 2.4277706994803486e-05 1.8410926263002516e-10 -7.6560136451385454e-05 2.1676980273911073e-05 2.2288616902764334e-10 -9.3749019409663777e-05 1.906898453311264e-05 1.1614985780629743e-10 -9.374902030119646e-05 2.1676980273911073e-05 2.2288616902764334e-10 -9.3749019409663777e-05 1.5877137928358798e-05 2.3994012281412843e-10 -9.3749030017125246e-05 1.906898453311264e-05 1.1614985780629743e-10 -9.374902030119646e-05 1.5598340554011307e-05 1.7106746898843991e-10 -7.3026409235499751e-05 2.1676980273911073e-05 2.2288616902764334e-10 -9.3749019409663777e-05 1.5877137928358798e-05 2.3994012281412843e-10 -9.3749030017125246e-05 1.5929249374919341e-05 3.0165988178791119e-10 -7.8313447698058429e-05 1.5598340554011307e-05 1.7106746898843991e-10 -7.3026409235499751e-05 1.5877137928358798e-05 2.3994012281412843e-10 -9.3749030017125246e-05 1.8751304320982629e-05 3.6413585008631213e-10 -9.3749065753935689e-05 1.5929249374919341e-05 3.0165988178791109e-10 -7.8313447698058429e-05 1.2500863255006651e-05 4.0427532027394486e-10 -9.3749079780782403e-05 2.1676980273911073e-05 2.2288616902764334e-10 -9.3749019409663777e-05 1.5877137928358798e-05 2.3994012281412843e-10 -9.3749030017125246e-05 1.8751304320982629e-05 3.6413585008631213e-10 -9.3749065753935689e-05 1.5929249374919338e-05 3.0165988178791109e-10 -7.8313447698058415e-05 2.1870765811418283e-05 3.0265802105059831e-10 -7.7865997051936281e-05 2.1676980273911073e-05 2.2288616902764331e-10 -9.3749019409663777e-05 1.5929249374919341e-05 3.0165988178791109e-10 -7.8313447698058429e-05 1.559834055401131e-05 1.7106746898843991e-10 -7.3026409235499751e-05 2.1870765811418283e-05 3.0265802105059831e-10 -7.7865997051936281e-05 1.5929249374919341e-05 3.0165988178791109e-10 -7.8313447698058429e-05 1.9136758251624481e-05 2.7545350711997676e-10 -6.3597268917666843e-05 1.5598340554011307e-05 1.7106746898843988e-10 -7.3026409235499751e-05 1.9136758251624481e-05 2.7545350711997676e-10 -6.3597268917666843e-05 2.1454377711268612e-05 1.103079344741185e-10 -6.435831047619488e-05 1.5621095772431366e-05 1.591841175012942e-10 -4.9656945241015282e-05 1.5598340554011307e-05 1.7106746898843991e-10 -7.3026409235499751e-05 2.4181291256768491e-05 2.0317736643933334e-10 -4.6714877201911275e-05 1.9136758251624481e-05 2.7545350711997666e-10 -6.3597268917666843e-05 2.1326590380916221e-05 3.7195907561071338e-10 -4.9040770707868427e-05 1.5621095772431362e-05 1.5918411750129418e-10 -4.9656945241015275e-05 1.9136758251624481e-05 2.7545350711997676e-10 -6.3597268917666843e-05 1.5621095772431359e-05 1.5918411750129418e-10 -4.9656945241015275e-05 1.431980754508011e-05 2.6679574883554139e-10 -6.4658829779588712e-05 1.5598340554011307e-05 1.7106746898843991e-10 -7.3026409235499751e-05 1.5929249374919341e-05 3.0165988178791109e-10 -7.8313447698058429e-05 1.9136758251624481e-05 2.7545350711997676e-10 -6.3597268917666843e-05 1.431980754508011e-05 2.6679574883554139e-10 -6.4658829779588712e-05 1.5598340554011303e-05 1.7106746898843991e-10 -7.3026409235499737e-05 2.4181291256768491e-05 2.0317736643933334e-10 -4.6714877201911275e-05 1.9136758251624477e-05 2.7545350711997676e-10 -6.3597268917666843e-05 2.1454377711268612e-05 1.1030793447411851e-10 -6.4358310476194893e-05 1.5621095772431362e-05 1.5918411750129418e-10 -4.9656945241015275e-05 2.5422469842887315e-05 3.2068488701648231e-10 -6.4144359354320919e-05 2.4277706994803482e-05 1.8410926263002519e-10 -7.6560136451385454e-05 1.9136758251624481e-05 2.7545350711997676e-10 -6.3597268917666843e-05 2.1454377711268612e-05 1.103079344741185e-10 -6.4358310476194893e-05 2.4277706994803482e-05 1.8410926263002519e-10 -7.6560136451385454e-05 1.9136758251624477e-05 2.7545350711997676e-10 -6.3597268917666829e-05 2.1454377711268612e-05 1.1030793447411849e-10 -6.4358310476194907e-05 1.559834055401131e-05 1.7106746898843991e-10 -7.3026409235499751e-05 2.4181291256768491e-05 2.0317736643933334e-10 -4.6714877201911275e-05 2.5422469842887315e-05 3.2068488701648231e-10 -6.4144359354320919e-05 1.9136758251624484e-05 2.7545350711997676e-10 -6.3597268917666843e-05 2.1454377711268609e-05 1.1030793447411851e-10 -6.435831047619488e-05 2.4181291256768491e-05 2.0317736643933334e-10 -4.6714877201911275e-05 2.5422469842887315e-05 3.2068488701648231e-10 -6.4144359354320919e-05 1.9136758251624481e-05 2.7545350711997676e-10 -6.3597268917666843e-05 2.1326590380916221e-05 3.7195907561071343e-10 -4.9040770707868427e-05 1.6239118853992815e-05 3.1638289824126832e-10 -4.6875163348786098e-05 1.9136758251624481e-05 2.7545350711997676e-10 -6.3597268917666843e-05 1.5621095772431362e-05 1.5918411750129415e-10 -4.9656945241015282e-05 1.431980754508011e-05 2.6679574883554139e-10 -6.4658829779588712e-05 1.6239118853992815e-05 3.1638289824126832e-10 -4.6875163348786098e-05 1.9136758251624481e-05 2.7545350711997676e-10 -6.3597268917666843e-05 2.1326590380916221e-05 3.7195907561071338e-10 -4.9040770707868427e-05 1.5621095772431362e-05 1.5918411750129415e-10 -4.9656945241015275e-05 2.1454377711268612e-05 1.103079344741185e-10 -6.4358310476194893e-05 1.55686497909219e-05 1.4840151229646296e-11 -7.0354912853336335e-05 1.5621095772431362e-05 1.5918411750129418e-10 -4.9656945241015275e-05 1.5598340554011307e-05 1.7106746898843991e-10 -7.3026409235499751e-05 2.3453191645924357e-05 1.7389095769902028e-11 -4.6721960561686888e-05 1.562609956221699e-05 -2.0294280806043614e-12 -4.6875130588935371e-05 2.1454377711268612e-05 1.103079344741185e-10 -6.4358310476194893e-05 1.5568649790921896e-05 1.484015122964639e-11 -7.0354912853336335e-05 2.3453191645924357e-05 1.7389095769902028e-11 -4.6721960561686888e-05 2.4382698881362465e-05 -4.5096877328957425e-12 -7.314244378970091e-05 2.1454377711268612e-05 1.103079344741185e-10 -6.4358310476194893e-05 1.5568649790921903e-05 1.4840151229646331e-11 -7.0354912853336335e-05 2.3453191645924357e-05 1.7389095769902028e-11 -4.6721960561686888e-05 1.562609956221699e-05 -2.0294280806043396e-12 -4.6875130588935364e-05 2.1454377711268612e-05 1.103079344741185e-10 -6.4358310476194893e-05 1.5621095772431362e-05 1.5918411750129418e-10 -4.9656945241015275e-05 2.4181291256768491e-05 2.0317736643933334e-10 -4.6714877201911275e-05 2.3453191645924361e-05 1.7389095769902002e-11 -4.6721960561686888e-05 2.1454377711268612e-05 1.103079344741185e-10 -6.4358310476194893e-05 1.5621095772431359e-05 1.5918411750129415e-10 -4.9656945241015268e-05 1.562609956221699e-05 -2.0294280806043614e-12 -4.6875130588935371e-05 2.1454377711268609e-05 1.1030793447411851e-10 -6.435831047619488e-05 1.5568649790921896e-05 1.4840151229646289e-11 -7.0354912853336335e-05 1.5621095772431362e-05 1.5918411750129418e-10 -4.9656945241015275e-05 2.4382698881362465e-05 -4.5096877328957425e-12 -7.314244378970091e-05 2.1039125124804953e-05 1.6690266535492341e-11 -9.374902106330644e-05 1.906898453311264e-05 1.1614985780629735e-10 -9.3749020301196474e-05 1.55686497909219e-05 1.4840151229646296e-11 -7.0354912853336335e-05 2.4382698881362465e-05 -4.5096877328957425e-12 -7.314244378970091e-05 2.1454377711268612e-05 1.1030793447411849e-10 -6.4358310476194893e-05 1.906898453311264e-05 1.1614985780629743e-10 -9.374902030119646e-05 1.55686497909219e-05 1.4840151229646309e-11 -7.0354912853336335e-05 2.4382698881362465e-05 -4.5096877328957425e-12 -7.314244378970091e-05 2.5264222226738033e-05 1.0979968166892826e-10 -9.3749010019538015e-05 2.1454377711268612e-05 1.103079344741185e-10 -6.4358310476194893e-05 1.906898453311264e-05 1.1614985780629743e-10 -9.374902030119646e-05 2.4277706994803482e-05 1.8410926263002519e-10 -7.6560136451385454e-05 2.1454377711268609e-05 1.1030793447411851e-10 -6.435831047619488e-05 1.9068984533112643e-05 1.1614985780629746e-10 -9.374902030119646e-05 1.5598340554011307e-05 1.7106746898843988e-10 -7.3026409235499751e-05 2.1454377711268612e-05 1.103079344741185e-10 -6.4358310476194893e-05 1.9068984533112636e-05 1.1614985780629743e-10 -9.3749020301196447e-05 1.55686497909219e-05 1.4840151229646293e-11 -7.0354912853336335e-05 1.5598340554011307e-05 1.7106746898843991e-10 -7.3026409235499751e-05 2.5264222226738029e-05 1.0979968166892824e-10 -9.3749010019538015e-05 2.4277706994803482e-05 1.8410926263002519e-10 -7.6560136451385454e-05 2.1454377711268609e-05 1.1030793447411843e-10 -6.435831047619488e-05 1.906898453311264e-05 1.1614985780629743e-10 -9.374902030119646e-05 2.4382698881362465e-05 -4.5096877328957425e-12 -7.314244378970091e-05 2.5264222226738029e-05 1.0979968166892822e-10 -9.3749010019538028e-05 2.1039125124804946e-05 1.6690266535492283e-11 -9.374902106330644e-05 1.906898453311264e-05 1.1614985780629735e-10 -9.374902030119646e-05 1.906898453311264e-05 1.1614985780629743e-10 -9.374902030119646e-05 1.43173454878345e-05 1.2556898842787765e-10 -9.3749030458174678e-05 1.55686497909219e-05 1.4840151229646296e-11 -7.0354912853336335e-05 1.5598340554011307e-05 1.7106746898843996e-10 -7.3026409235499751e-05 1.5877137928358798e-05 2.3994012281412843e-10 -9.3749030017125246e-05 1.906898453311264e-05 1.1614985780629743e-10 -9.374902030119646e-05 1.43173454878345e-05 1.2556898842787765e-10 -9.3749030458174678e-05 1.5598340554011307e-05 1.7106746898843991e-10 -7.3026409235499751e-05 1.906898453311264e-05 1.1614985780629743e-10 -9.374902030119646e-05 1.6239106135636973e-05 -4.3803087536009127e-12 -9.3749029682953293e-05 1.43173454878345e-05 1.2556898842787765e-10 -9.3749030458174678e-05 1.55686497909219e-05 1.4840151229646296e-11 -7.0354912853336335e-05 2.103912512480495e-05 1.6690266535492263e-11 -9.374902106330644e-05 1.906898453311264e-05 1.1614985780629743e-10 -9.374902030119646e-05 1.6239106135636973e-05 -4.3803087536009127e-12 -9.3749029682953293e-05 1.55686497909219e-05 1.4840151229646296e-11 -7.0354912853336335e-05 1.0140263020257964e-05 6.6444897417093476e-11 -9.3749041718282948e-05 9.7378438542097044e-06 1.1882344388544568e-10 -6.4238844572961118e-05 5.7672676631931802e-06 1.6436535236726615e-10 -7.651185927543897e-05 6.8267083109206808e-06 -5.9352505068490087e-13 -7.2782324364543724e-05 1.6239106135636973e-05 -4.3803087536009127e-12 -9.3749029682953293e-05 1.0140263020257964e-05 6.6444897417093476e-11 -9.3749041718282948e-05 1.55686497909219e-05 1.4840151229646296e-11 -7.0354912853336335e-05 1.0289856915466395e-05 -6.8864629658433298e-11 -9.3749041423798189e-05 1.43173454878345e-05 1.2556898842787765e-10 -9.3749030458174678e-05 9.7378438542097044e-06 1.1882344388544568e-10 -6.4238844572961118e-05 1.5598340554011307e-05 1.7106746898843991e-10 -7.3026409235499751e-05 9.709144815549502e-06 2.1230588455146835e-10 -9.3749039712612701e-05 1.0140263020257964e-05 6.6444897417093476e-11 -9.3749041718282948e-05 1.55686497909219e-05 1.4840151229646296e-11 -7.0354912853336335e-05 6.8267083109206808e-06 -5.9352505068490087e-13 -7.2782324364543724e-05 1.0289856915466395e-05 -6.8864629658433298e-11 -9.3749041423798189e-05 1.43173454878345e-05 1.2556898842787765e-10 -9.3749030458174678e-05 1.55686497909219e-05 1.4840151229646283e-11 -7.0354912853336335e-05 9.7378438542097044e-06 1.1882344388544568e-10 -6.4238844572961118e-05 1.5598340554011307e-05 1.7106746898843991e-10 -7.3026409235499751e-05 1.0140263020257964e-05 6.6444897417093476e-11 -9.3749041718282948e-05 1.55686497909219e-05 1.4840151229646335e-11 -7.0354912853336335e-05 9.7378438542097061e-06 1.1882344388544565e-10 -6.4238844572961105e-05 6.8267083109206808e-06 -5.9352505068490087e-13 -7.2782324364543724e-05 1.6239106135636973e-05 -4.3803087536009127e-12 -9.3749029682953293e-05 1.43173454878345e-05 1.2556898842787765e-10 -9.3749030458174678e-05 1.0140263020257964e-05 6.6444897417093476e-11 -9.3749041718282948e-05 1.55686497909219e-05 1.4840151229646296e-11 -7.0354912853336335e-05 1.43173454878345e-05 1.2556898842787765e-10 -9.3749030458174678e-05 1.0140263020257964e-05 6.6444897417093476e-11 -9.3749041718282948e-05 9.7378438542097044e-06 1.1882344388544568e-10 -6.4238844572961118e-05 9.709144815549502e-06 2.1230588455146835e-10 -9.3749039712612701e-05 1.43173454878345e-05 1.2556898842787765e-10 -9.3749030458174678e-05 1.0140263020257964e-05 6.6444897417093476e-11 -9.3749041718282948e-05 1.55686497909219e-05 1.4840151229646296e-11 -7.0354912853336335e-05 9.7378438542097044e-06 1.1882344388544568e-10 -6.4238844572961118e-05 1.0140263020257964e-05 6.6444897417093476e-11 -9.3749041718282948e-05 9.7378438542097044e-06 1.1882344388544568e-10 -6.4238844572961118e-05 9.709144815549502e-06 2.1230588455146835e-10 -9.3749039712612701e-05 5.7672676631931802e-06 1.6436535236726615e-10 -7.651185927543897e-05 7.7409262571956762e-06 2.1185722325363299e-11 -4.2280069433527743e-05 1.562609956221699e-05 -2.0294280806043408e-12 -4.6875130588935371e-05 9.7378438542097044e-06 1.1882344388544568e-10 -6.4238844572961118e-05 1.5621095772431362e-05 1.591841175012941e-10 -4.9656945241015275e-05 1.562609956221699e-05 -2.0294280806043614e-12 -4.6875130588935371e-05 1.5568649790921903e-05 1.4840151229646289e-11 -7.0354912853336335e-05 9.7378438542097044e-06 1.1882344388544568e-10 -6.4238844572961118e-05 1.5621095772431362e-05 1.5918411750129418e-10 -4.9656945241015275e-05 7.7409262571956762e-06 2.1185722325363299e-11 -4.2280069433527743e-05 7.0370317538178027e-06 1.8525723786360307e-10 -4.5175737230873856e-05 9.7378438542097044e-06 1.1882344388544568e-10 -6.4238844572961132e-05 1.5621095772431362e-05 1.5918411750129418e-10 -4.9656945241015275e-05 7.7409262571956762e-06 2.1185722325363299e-11 -4.2280069433527743e-05 1.562609956221699e-05 -2.0294280806043505e-12 -4.6875130588935371e-05 9.7378438542097044e-06 1.1882344388544568e-10 -6.4238844572961118e-05 6.8267083109206808e-06 -5.9352505068490087e-13 -7.2782324364543724e-05 1.562609956221699e-05 -2.0294280806043614e-12 -4.6875130588935371e-05 1.5568649790921903e-05 1.4840151229646338e-11 -7.0354912853336335e-05 9.7378438542097044e-06 1.1882344388544568e-10 -6.4238844572961118e-05 6.82670831092068e-06 -5.9352505068490733e-13 -7.2782324364543724e-05 1.55686497909219e-05 1.4840151229646296e-11 -7.0354912853336335e-05 9.7378438542097044e-06 1.1882344388544568e-10 -6.4238844572961118e-05 1.5621095772431362e-05 1.5918411750129418e-10 -4.9656945241015275e-05 1.5598340554011307e-05 1.7106746898843991e-10 -7.3026409235499751e-05 9.7378438542097044e-06 1.1882344388544568e-10 -6.4238844572961118e-05 1.5621095772431362e-05 1.5918411750129418e-10 -4.9656945241015275e-05 1.0140746101451474e-05 3.6841807924659266e-10 -5.6268845543530887e-05 1.4319807545080113e-05 2.6679574883554129e-10 -6.4658829779588726e-05 9.7378438542097044e-06 1.1882344388544568e-10 -6.4238844572961118e-05 1.0140746101451474e-05 3.6841807924659266e-10 -5.6268845543530887e-05 1.431980754508011e-05 2.6679574883554139e-10 -6.4658829779588712e-05 9.7147576932691196e-06 3.2600934758082551e-10 -7.6377555483328705e-05 9.7378438542097044e-06 1.1882344388544568e-10 -6.4238844572961118e-05 1.5621095772431362e-05 1.5918411750129418e-10 -4.9656945241015268e-05 1.431980754508011e-05 2.6679574883554139e-10 -6.4658829779588712e-05 1.5598340554011307e-05 1.7106746898843991e-10 -7.3026409235499751e-05 9.7378438542097044e-06 1.1882344388544568e-10 -6.4238844572961118e-05 1.0140746101451476e-05 3.6841807924659266e-10 -5.6268845543530887e-05 9.7147576932691196e-06 3.2600934758082551e-10 -7.6377555483328705e-05 5.7672676631931802e-06 1.6436535236726615e-10 -7.651185927543897e-05 7.0370317538178027e-06 1.8525723786360307e-10 -4.5175737230873856e-05 9.7378438542097044e-06 1.1882344388544568e-10 -6.4238844572961118e-05 1.5621095772431362e-05 1.5918411750129418e-10 -4.9656945241015275e-05 1.0140746101451474e-05 3.6841807924659266e-10 -5.6268845543530887e-05 9.7378438542097044e-06 1.1882344388544568e-10 -6.4238844572961118e-05 1.431980754508011e-05 2.6679574883554139e-10 -6.4658829779588712e-05 1.5598340554011307e-05 1.7106746898843988e-10 -7.3026409235499751e-05 9.7147576932691196e-06 3.2600934758082551e-10 -7.6377555483328705e-05 7.0370317538178027e-06 1.8525723786360307e-10 -4.5175737230873856e-05 1.0290282781611603e-05 3.5333025583564278e-10 -3.7140403475833697e-05 1.5621095772431359e-05 1.5918411750129415e-10 -4.9656945241015275e-05 1.0140746101451472e-05 3.6841807924659266e-10 -5.6268845543530894e-05 7.0370317538178027e-06 1.8525723786360307e-10 -4.5175737230873856e-05 9.7378438542097044e-06 1.1882344388544565e-10 -6.4238844572961118e-05 1.0140746101451474e-05 3.6841807924659266e-10 -5.6268845543530887e-05 4.9691150248574242e-06 3.0221533537607955e-10 -6.5106868334715041e-05 1.0290282781611603e-05 3.5333025583564273e-10 -3.7140403475833703e-05 1.6239118853992815e-05 3.1638289824126832e-10 -4.6875163348786098e-05 1.5621095772431362e-05 1.5918411750129418e-10 -4.9656945241015275e-05 1.0140746101451474e-05 3.6841807924659266e-10 -5.6268845543530887e-05 1.6239118853992815e-05 3.1638289824126832e-10 -4.6875163348786098e-05 1.5621095772431362e-05 1.5918411750129415e-10 -4.9656945241015282e-05 1.0140746101451472e-05 3.6841807924659271e-10 -5.6268845543530887e-05 1.431980754508011e-05 2.6679574883554139e-10 -6.4658829779588712e-05 1.5929249374919341e-05 3.0165988178791109e-10 -7.8313447698058429e-05 1.431980754508011e-05 2.6679574883554139e-10 -6.4658829779588712e-05 1.5598340554011303e-05 1.7106746898843991e-10 -7.3026409235499737e-05 9.7147576932691196e-06 3.2600934758082551e-10 -7.6377555483328705e-05 1.5598340554011307e-05 1.7106746898843991e-10 -7.3026409235499751e-05 9.709144815549502e-06 2.1230588455146835e-10 -9.3749039712612701e-05 9.7147576932691196e-06 3.2600934758082551e-10 -7.6377555483328705e-05 5.7672676631931802e-06 1.6436535236726615e-10 -7.651185927543897e-05 9.7378438542097044e-06 1.1882344388544568e-10 -6.4238844572961118e-05 1.5598340554011303e-05 1.7106746898843988e-10 -7.3026409235499765e-05 9.7147576932691213e-06 3.2600934758082556e-10 -7.6377555483328691e-05 5.7672676631931802e-06 1.6436535236726615e-10 -7.651185927543897e-05 1.5877137928358798e-05 2.3994012281412843e-10 -9.3749030017125246e-05 1.5929249374919341e-05 3.0165988178791109e-10 -7.8313447698058429e-05 1.5598340554011307e-05 1.7106746898843991e-10 -7.3026409235499751e-05 9.7147576932691196e-06 3.2600934758082551e-10 -7.6377555483328705e-05 9.7378438542097044e-06 1.1882344388544568e-10 -6.4238844572961118e-05 1.5598340554011307e-05 1.7106746898843991e-10 -7.3026409235499751e-05 9.709144815549502e-06 2.1230588455146835e-10 -9.3749039712612701e-05 5.7672676631931802e-06 1.6436535236726615e-10 -7.651185927543897e-05 1.5877137928358798e-05 2.3994012281412843e-10 -9.3749030017125246e-05 1.5929249374919341e-05 3.0165988178791109e-10 -7.8313447698058429e-05 1.2500863255006651e-05 4.0427532027394486e-10 -9.3749079780782403e-05 9.7147576932691196e-06 3.2600934758082551e-10 -7.6377555483328705e-05 1.5877137928358798e-05 2.3994012281412843e-10 -9.3749030017125246e-05 1.2500863255006651e-05 4.0427532027394486e-10 -9.3749079780782403e-05 9.709144815549502e-06 2.1230588455146835e-10 -9.3749039712612701e-05 9.7147576932691196e-06 3.2600934758082551e-10 -7.6377555483328705e-05 1.5877137928358798e-05 2.3994012281412843e-10 -9.3749030017125246e-05 1.5598340554011307e-05 1.7106746898843991e-10 -7.3026409235499751e-05 9.709144815549502e-06 2.1230588455146835e-10 -9.3749039712612701e-05 9.7147576932691196e-06 3.2600934758082551e-10 -7.6377555483328705e-05 1.5877137928358798e-05 2.3994012281412843e-10 -9.3749030017125246e-05 1.43173454878345e-05 1.2556898842787765e-10 -9.3749030458174678e-05 1.5598340554011307e-05 1.7106746898843991e-10 -7.3026409235499751e-05 9.709144815549502e-06 2.1230588455146835e-10 -9.3749039712612701e-05 1.2500863255006651e-05 4.0427532027394486e-10 -9.3749079780782403e-05 9.709144815549502e-06 2.1230588455146833e-10 -9.3749039712612701e-05 9.7147576932691179e-06 3.2600934758082545e-10 -7.6377555483328691e-05 6.2504207077799379e-06 3.2986126352122713e-10 -9.3749077621566767e-05 9.7147576932691196e-06 3.2600934758082551e-10 -7.6377555483328705e-05 4.5756368458252739e-06 2.4310233279298103e-10 -8.0023428038451881e-05 5.7672676631931802e-06 1.6436535236726615e-10 -7.651185927543897e-05 4.9691150248574251e-06 3.0221533537607955e-10 -6.5106868334715041e-05 9.709144815549502e-06 2.1230588455146835e-10 -9.3749039712612701e-05 9.7147576932691196e-06 3.2600934758082551e-10 -7.6377555483328691e-05 4.5756368458252739e-06 2.4310233279298103e-10 -8.0023428038451881e-05 5.7672676631931802e-06 1.6436535236726615e-10 -7.651185927543897e-05 9.709144815549502e-06 2.1230588455146835e-10 -9.3749039712612701e-05 9.7147576932691196e-06 3.2600934758082551e-10 -7.6377555483328705e-05 4.5756368458252739e-06 2.4310233279298103e-10 -8.0023428038451881e-05 6.2504207077799379e-06 3.2986126352122713e-10 -9.3749077621566767e-05 9.709144815549502e-06 2.1230588455146835e-10 -9.3749039712612701e-05 4.5756368458252739e-06 2.4310233279298103e-10 -8.0023428038451881e-05 6.2504207077799379e-06 3.2986126352122713e-10 -9.3749077621566767e-05 4.5756314082995247e-06 2.1240772979833018e-10 -9.3749039717893226e-05 9.709144815549502e-06 2.1230588455146835e-10 -9.3749039712612701e-05 4.5756314082995247e-06 2.1240772979833018e-10 -9.3749039717893226e-05 5.7672676631931802e-06 1.6436535236726615e-10 -7.651185927543897e-05 4.9680978937815495e-06 1.1859679365011938e-10 -9.3749052180850068e-05 9.709144815549502e-06 2.1230588455146835e-10 -9.3749039712612701e-05 4.5756368458252739e-06 2.4310233279298103e-10 -8.0023428038451881e-05 4.5756314082995247e-06 2.1240772979833018e-10 -9.3749039717893226e-05 5.7672676631931802e-06 1.6436535236726615e-10 -7.651185927543897e-05 5.7672676631931802e-06 1.6436535236726615e-10 -7.651185927543897e-05 -3.2283068410080396e-15 2.0209841753163572e-10 -8.002342927597443e-05 -9.5243645942538583e-16 1.9140067127878087e-10 -6.613317034152257e-05 5.7189373581716684e-16 1.1874198456120987e-10 -7.9849726535589463e-05 5.7672676631931802e-06 1.6436535236726615e-10 -7.651185927543897e-05 -3.228306993815786e-15 2.0209841753163569e-10 -8.002342927597443e-05 4.9691150248574251e-06 3.0221533537607955e-10 -6.5106868334715028e-05 -9.5243621917097566e-16 1.9140067127878087e-10 -6.613317034152257e-05 4.5756314082995247e-06 2.1240772979833018e-10 -9.3749039717893226e-05 5.7672676631931794e-06 1.6436535236726618e-10 -7.6511859275438956e-05 -7.7509516057494155e-16 1.7901911443100503e-10 -9.3749051831640515e-05 4.9680978937815495e-06 1.1859679365011938e-10 -9.3749052180850068e-05 4.5756368458252739e-06 2.4310233279298103e-10 -8.0023428038451881e-05 4.5756314082995247e-06 2.1240772979833018e-10 -9.374903971789324e-05 5.7672676631931802e-06 1.6436535236726615e-10 -7.651185927543897e-05 -3.2283068410080396e-15 2.0209841753163572e-10 -8.002342927597443e-05 5.7672676631931802e-06 1.6436535236726615e-10 -7.651185927543897e-05 -3.2283068410080396e-15 2.0209841753163572e-10 -8.002342927597443e-05 -7.7509516057494155e-16 1.7901911443100503e-10 -9.3749051831640515e-05 5.7189373581716714e-16 1.1874198456120987e-10 -7.9849726535589463e-05 4.5756314082995247e-06 2.1240772979833018e-10 -9.3749039717893226e-05 5.767267663193181e-06 1.6436535236726613e-10 -7.651185927543897e-05 -3.2283068410080396e-15 2.0209841753163572e-10 -8.002342927597443e-05 -7.7509516057494155e-16 1.7901911443100503e-10 -9.3749051831640515e-05 4.5756314082995247e-06 2.1240772979833018e-10 -9.3749039717893226e-05 -3.2283068410080396e-15 2.0209841753163572e-10 -8.002342927597443e-05 -7.7509516057494155e-16 1.7901911443100503e-10 -9.3749051831640515e-05 8.1533074490890583e-16 3.327382697836665e-10 -9.3749072076046655e-05 4.5756368458252739e-06 2.4310233279298103e-10 -8.0023428038451881e-05 4.5756314082995247e-06 2.1240772979833015e-10 -9.374903971789324e-05 -3.2283068410080396e-15 2.0209841753163572e-10 -8.002342927597443e-05 8.1533074490890583e-16 3.327382697836665e-10 -9.3749072076046655e-05 4.5756368458252739e-06 2.4310233279298103e-10 -8.0023428038451881e-05 6.2504207077799379e-06 3.2986126352122713e-10 -9.3749077621566767e-05 4.5756314082995247e-06 2.1240772979833018e-10 -9.3749039717893226e-05 8.1533074490890583e-16 3.327382697836665e-10 -9.3749072076046655e-05 4.5756368458252739e-06 2.4310233279298103e-10 -8.0023428038451881e-05 -3.2283068410080396e-15 2.0209841753163572e-10 -8.002342927597443e-05 8.1533074490890583e-16 3.327382697836665e-10 -9.3749072076046655e-05 1.5174616847728817e-15 2.9325557110360208e-10 -7.4999494831626932e-05 4.5756368458252739e-06 2.4310233279298103e-10 -8.0023428038451881e-05 5.7672676631931802e-06 1.6436535236726615e-10 -7.651185927543897e-05 -3.2283068410080396e-15 2.0209841753163572e-10 -8.002342927597443e-05 4.9691150248574251e-06 3.0221533537607955e-10 -6.5106868334715041e-05 -3.2283068410080396e-15 2.0209841753163572e-10 -8.002342927597443e-05 1.5174616847728817e-15 2.9325557110360208e-10 -7.4999494831626932e-05 4.9691150248574251e-06 3.0221533537607955e-10 -6.5106868334715041e-05 -9.5243621917097566e-16 1.9140067127878087e-10 -6.613317034152257e-05 4.5756368458252739e-06 2.4310233279298103e-10 -8.0023428038451881e-05 -3.2283068107072075e-15 2.0209841753163572e-10 -8.002342927597443e-05 1.5174616847728817e-15 2.9325557110360208e-10 -7.4999494831626932e-05 4.9691150248574251e-06 3.0221533537607955e-10 -6.5106868334715041e-05 1.5174616847728817e-15 2.9325557110360208e-10 -7.4999494831626932e-05 4.9691150248574251e-06 3.0221533537607955e-10 -6.5106868334715041e-05 4.5920942166918653e-15 3.6113780969122446e-10 -5.6249936598403749e-05 -9.5243621917097566e-16 1.9140067127878087e-10 -6.613317034152257e-05 7.0370317538178027e-06 1.8525723786360307e-10 -4.5175737230873856e-05 9.7378438542097044e-06 1.1882344388544568e-10 -6.4238844572961118e-05 5.7672676631931802e-06 1.6436535236726615e-10 -7.651185927543897e-05 -9.5243621917097566e-16 1.9140067127878087e-10 -6.613317034152257e-05 4.9691150248574251e-06 3.0221533537607955e-10 -6.5106868334715041e-05 4.5920942166918653e-15 3.6113780969122446e-10 -5.6249936598403749e-05 -4.1922496330181711e-15 2.3802859506236084e-10 -4.7628268128440409e-05 -9.5243566748838811e-16 1.9140067127878079e-10 -6.6133170341522556e-05 9.7378438542097044e-06 1.1882344388544568e-10 -6.4238844572961118e-05 1.0140746101451474e-05 3.6841807924659266e-10 -5.6268845543530887e-05 5.7672676631931785e-06 1.6436535236726607e-10 -7.651185927543897e-05 4.9691150248574293e-06 3.022153353760797e-10 -6.5106868334715055e-05 7.0370317538178027e-06 1.8525723786360307e-10 -4.5175737230873856e-05 9.7378438542097044e-06 1.1882344388544568e-10 -6.4238844572961118e-05 5.7672676631931802e-06 1.6436535236726615e-10 -7.651185927543897e-05 4.9691150248574225e-06 3.0221533537607955e-10 -6.5106868334715028e-05 7.0370317538178027e-06 1.8525723786360307e-10 -4.5175737230873856e-05 5.7672676631931802e-06 1.6436535236726615e-10 -7.651185927543897e-05 4.9691150248574251e-06 3.0221533537607955e-10 -6.5106868334715041e-05 -9.5243621917097566e-16 1.9140067127878087e-10 -6.613317034152257e-05 1.0140746101451474e-05 3.6841807924659266e-10 -5.6268845543530887e-05 9.7147576932691196e-06 3.2600934758082551e-10 -7.6377555483328705e-05 5.7672676631931802e-06 1.6436535236726615e-10 -7.651185927543897e-05 4.9691150248574251e-06 3.0221533537607955e-10 -6.5106868334715041e-05 7.0370317538178027e-06 1.8525723786360307e-10 -4.5175737230873856e-05 5.3835439316491843e-06 3.3029219232541433e-10 -4.6721927826731178e-05 1.0140746101451474e-05 3.6841807924659266e-10 -5.6268845543530887e-05 4.9691150248574251e-06 3.0221533537607955e-10 -6.5106868334715041e-05 7.0370317538178027e-06 1.8525723786360307e-10 -4.5175737230873856e-05 5.3835439316491826e-06 3.3029219232541433e-10 -4.6721927826731171e-05 4.9691150248574251e-06 3.0221533537607955e-10 -6.5106868334715041e-05 -4.1922477656523957e-15 2.3802859506236089e-10 -4.7628268128440415e-05 5.9974281666917418e-15 3.8700890660683202e-10 -3.7500389193523692e-05 5.3835439316491817e-06 3.3029219232541428e-10 -4.6721927826731178e-05 4.5920942166918653e-15 3.6113780969122446e-10 -5.6249936598403749e-05 -4.1922489159129405e-15 2.3802859506236089e-10 -4.7628268128440409e-05 5.3835439316491817e-06 3.3029219232541428e-10 -4.6721927826731178e-05 4.9691150248574251e-06 3.022153353760796e-10 -6.5106868334715041e-05 4.5920942166918653e-15 3.6113780969122446e-10 -5.6249936598403749e-05 -4.1922483257092196e-15 2.3802859506236089e-10 -4.7628268128440415e-05 7.0370317538178027e-06 1.8525723786360307e-10 -4.5175737230873856e-05 4.9691150248574242e-06 3.0221533537607955e-10 -6.5106868334715055e-05 -4.1922489159129405e-15 2.3802859506236089e-10 -4.7628268128440409e-05 -9.5243621917097566e-16 1.9140067127878087e-10 -6.613317034152257e-05 7.0370317538178027e-06 1.8525723786360307e-10 -4.5175737230873856e-05 -4.1922480692071575e-15 2.3802859506236084e-10 -4.7628268128440415e-05 -9.5243505533830246e-16 1.9140067127878089e-10 -6.613317034152257e-05 5.7161084295619765e-16 1.0661228492656901e-10 -5.6197674479991638e-05 7.0370317538178027e-06 1.8525723786360307e-10 -4.5175737230873856e-05 9.7378438542097044e-06 1.1882344388544568e-10 -6.4238844572961118e-05 -9.5243580799442539e-16 1.9140067127878092e-10 -6.613317034152257e-05 5.7161015400627912e-16 1.0661228492656898e-10 -5.6197674479991638e-05 9.7378438542097044e-06 1.1882344388544568e-10 -6.4238844572961118e-05 5.767267663193181e-06 1.6436535236726618e-10 -7.651185927543897e-05 -9.5243621917097566e-16 1.9140067127878087e-10 -6.613317034152257e-05 5.7161084295619706e-16 1.0661228492656906e-10 -5.6197674479991638e-05 5.7672676631931802e-06 1.6436535236726615e-10 -7.651185927543897e-05 -9.5243527504489981e-16 1.9140067127878089e-10 -6.6133170341522556e-05 5.7161102638633986e-16 1.0661228492656902e-10 -5.6197674479991624e-05 -3.7689206023368665e-16 6.7004295873348321e-11 -6.8177080296478838e-05 7.7409262571956762e-06 2.1185722325363299e-11 -4.2280069433527743e-05 9.7378438542097044e-06 1.1882344388544568e-10 -6.4238844572961118e-05 5.716116900054266e-16 1.0661228492656908e-10 -5.6197674479991638e-05 6.8267083109206817e-06 -5.9352505068492621e-13 -7.2782324364543724e-05 9.7378438542097044e-06 1.1882344388544568e-10 -6.4238844572961118e-05 5.7672676631931802e-06 1.6436535236726613e-10 -7.651185927543897e-05 5.716103572409204e-16 1.0661228492656905e-10 -5.6197674479991631e-05 -3.7689077964301569e-16 6.7004295873348347e-11 -6.8177080296478811e-05 5.7161084295619706e-16 1.0661228492656906e-10 -5.6197674479991638e-05 -1.7711969490534492e-15 3.1976503909110433e-12 -4.8714057956763163e-05 6.8267083109206825e-06 -5.93525050684925e-13 -7.2782324364543724e-05 -2.9390728044727716e-16 -1.88647975967179e-11 -6.3112760760684905e-05 9.7378438542097044e-06 1.1882344388544568e-10 -6.4238844572961118e-05 5.7160994110852129e-16 1.0661228492656912e-10 -5.6197674479991651e-05 -3.7689102748013117e-16 6.7004295873348399e-11 -6.8177080296478798e-05 6.82670831092068e-06 -5.9352505068493793e-13 -7.2782324364543724e-05 7.7409262571956762e-06 2.1185722325363299e-11 -4.2280069433527743e-05 7.0370317538178027e-06 1.8525723786360307e-10 -4.5175737230873856e-05 9.7378438542097044e-06 1.1882344388544568e-10 -6.4238844572961118e-05 5.7161084295619706e-16 1.0661228492656906e-10 -5.6197674479991638e-05 7.7409262571956762e-06 2.1185722325363299e-11 -4.2280069433527743e-05 5.7161296222634464e-16 1.0661228492656912e-10 -5.6197674479991638e-05 -1.7711969490534492e-15 3.1976503909110433e-12 -4.8714057956763163e-05 6.82670831092068e-06 -5.9352505068493217e-13 -7.2782324364543724e-05 7.3612192498506594e-16 1.2072073407449764e-10 -4.2810770461270546e-05 7.0370317538178027e-06 1.8525723786360307e-10 -4.5175737230873856e-05 -4.1922489159129405e-15 2.3802859506236089e-10 -4.7628268128440409e-05 5.7161084295619706e-16 1.0661228492656906e-10 -5.6197674479991638e-05 7.7409262571956762e-06 2.1185722325363299e-11 -4.2280069433527743e-05 7.3612070428234818e-16 1.2072073407449761e-10 -4.2810770461270539e-05 5.7161319259579182e-16 1.0661228492656903e-10 -5.6197674479991651e-05 -1.7711969490534492e-15 3.1976503909110433e-12 -4.8714057956763163e-05 5.7161084295619706e-16 1.0661228492656906e-10 -5.6197674479991638e-05 -3.7689131195503793e-16 6.7004295873348347e-11 -6.8177080296478811e-05 6.8267083109206842e-06 -5.9352505068490844e-13 -7.2782324364543724e-05 -2.9390728044727716e-16 -1.88647975967179e-11 -6.3112760760684905e-05 -3.4419491011828193e-16 6.2492984112438103e-12 -7.8929332223246163e-05 5.7189373581716714e-16 1.1874198456120987e-10 -7.9849726535589463e-05 6.8267083109206817e-06 -5.9352505068488168e-13 -7.2782324364543711e-05 4.9680978937815503e-06 1.1859679365011938e-10 -9.3749052180850054e-05 9.7378438542097044e-06 1.1882344388544568e-10 -6.4238844572961118e-05 5.767267663193181e-06 1.6436535236726615e-10 -7.651185927543897e-05 -3.7689099821297344e-16 6.700429587334836e-11 -6.8177080296478811e-05 6.8267083109206817e-06 -5.9352505068492702e-13 -7.2782324364543724e-05 5.7672676631931802e-06 1.6436535236726615e-10 -7.651185927543897e-05 5.7189373581716714e-16 1.1874198456120987e-10 -7.9849726535589463e-05 6.8267083109206808e-06 -5.9352505068491066e-13 -7.2782324364543724e-05 4.9680978937815495e-06 1.1859679365011936e-10 -9.3749052180850054e-05 -3.7689077964301569e-16 6.7004295873348347e-11 -6.8177080296478811e-05 -3.4419491011828193e-16 6.2492984112438103e-12 -7.8929332223246163e-05 6.8267083109206808e-06 -5.9352505068489693e-13 -7.2782324364543724e-05 -2.9390728044727716e-16 -1.88647975967179e-11 -6.3112760760684905e-05 -3.7689077964301569e-16 6.7004295873348347e-11 -6.8177080296478811e-05 -3.4419486748269351e-16 6.2492984112438119e-12 -7.8929332223246163e-05 5.7189373581716714e-16 1.1874198456120987e-10 -7.9849726535589463e-05 6.8267083109206808e-06 -5.9352505068490087e-13 -7.2782324364543724e-05 1.0140263020257964e-05 6.6444897417093476e-11 -9.3749041718282948e-05 5.7672676631931802e-06 1.6436535236726615e-10 -7.651185927543897e-05 6.8267083109206808e-06 -5.9352505068490087e-13 -7.2782324364543724e-05 4.9680978937815495e-06 1.1859679365011938e-10 -9.3749052180850068e-05 5.7672676631931802e-06 1.6436535236726615e-10 -7.651185927543897e-05 -3.7689035949313629e-16 6.7004295873348373e-11 -6.8177080296478784e-05 5.7189416464571157e-16 1.1874198456120984e-10 -7.9849726535589463e-05 6.8267083109206808e-06 -5.9352505068490087e-13 -7.2782324364543724e-05 5.7672676631931802e-06 1.6436535236726615e-10 -7.651185927543897e-05 -9.5243487241625698e-16 1.9140067127878087e-10 -6.6133170341522556e-05 -3.7688864479150953e-16 6.7004295873348321e-11 -6.8177080296478798e-05 5.7189373581716763e-16 1.1874198456120989e-10 -7.9849726535589476e-05 1.0140263020257964e-05 6.6444897417093476e-11 -9.3749041718282948e-05 6.8267083109206808e-06 -5.9352505068490087e-13 -7.2782324364543724e-05 4.9680978937815495e-06 1.1859679365011938e-10 -9.3749052180850068e-05 5.3835420971616604e-06 3.4286211403875912e-13 -9.3749050059911267e-05 -3.4419491011828193e-16 6.2492984112438103e-12 -7.8929332223246163e-05 6.8267083109206817e-06 -5.9352505068488088e-13 -7.2782324364543711e-05 4.9680978937815503e-06 1.1859679365011938e-10 -9.3749052180850068e-05 5.3835420971616604e-06 3.4286211403878113e-13 -9.3749050059911267e-05 1.0140263020257964e-05 6.6444897417093476e-11 -9.3749041718282948e-05 9.709144815549502e-06 2.1230588455146835e-10 -9.3749039712612701e-05 5.7672676631931802e-06 1.6436535236726615e-10 -7.651185927543897e-05 4.9680978937815495e-06 1.1859679365011938e-10 -9.3749052180850068e-05 5.7672676631931802e-06 1.6436535236726615e-10 -7.651185927543897e-05 -7.7509376056805149e-16 1.79019114431005e-10 -9.3749051831640528e-05 5.7189373581716714e-16 1.1874198456120987e-10 -7.9849726535589463e-05 4.9680978937815478e-06 1.1859679365011944e-10 -9.3749052180850068e-05 -3.4419491011828193e-16 6.2492984112438103e-12 -7.8929332223246163e-05 5.7189373581716714e-16 1.1874198456120987e-10 -7.9849726535589463e-05 4.9680978937815495e-06 1.1859679365011938e-10 -9.3749052180850068e-05 -8.8179025870797396e-16 6.083241905563682e-11 -9.3749055645382697e-05 -7.7509516057494155e-16 1.7901911443100503e-10 -9.3749051831640515e-05 5.7189373581716714e-16 1.1874198456120987e-10 -7.9849726535589463e-05 4.9680978937815495e-06 1.1859679365011938e-10 -9.3749052180850068e-05 -8.8179025870797396e-16 6.083241905563682e-11 -9.3749055645382697e-05 -3.4419491011828193e-16 6.2492984112438103e-12 -7.8929332223246163e-05 4.9680978937815495e-06 1.1859679365011938e-10 -9.3749052180850068e-05 -8.8179025870797396e-16 6.083241905563682e-11 -9.3749055645382697e-05 5.3835420971616604e-06 3.4286211403877866e-13 -9.3749050059911253e-05 -3.4419491011828193e-16 6.2492984112438103e-12 -7.8929332223246163e-05 -8.8179025870797396e-16 6.083241905563682e-11 -9.3749055645382697e-05 -1.4402068095330318e-15 -5.9832563625748228e-11 -9.3749054399449436e-05 5.3835420971616604e-06 3.4286211403875912e-13 -9.3749050059911267e-05 -3.4419491011828193e-16 6.2492984112438103e-12 -7.8929332223246163e-05 -1.4402064948142099e-15 -5.9832563625748228e-11 -9.3749054399449422e-05 9.2435307009368982e-16 -1.1250875619807566e-10 -7.5786858139144429e-05 5.3835420971616595e-06 3.4286211403875816e-13 -9.3749050059911267e-05 -1.4402064948142099e-15 -5.9832563625748228e-11 -9.3749054399449422e-05 9.2435307009368982e-16 -1.1250875619807566e-10 -7.5786858139144429e-05 5.2909035220067681e-06 -1.1804060731614267e-10 -9.3749045109350242e-05 5.3835420971616604e-06 3.4286211403875912e-13 -9.3749050059911267e-05 9.2435307009368982e-16 -1.1250875619807566e-10 -7.5786858139144429e-05 5.2909035220067681e-06 -1.1804060731614267e-10 -9.3749045109350242e-05 9.8215531601955829e-06 -1.1937238793751649e-10 -6.4463310073875548e-05 -6.1062871524565892e-15 -2.0872960381265801e-10 -8.0023426556350194e-05 6.8267083109206808e-06 -5.9352505068490087e-13 -7.2782324364543724e-05 9.2435040017845537e-16 -1.1250875619807569e-10 -7.5786858139144416e-05 5.2909035220067681e-06 -1.1804060731614267e-10 -9.3749045109350242e-05 9.8215531601955829e-06 -1.1937238793751651e-10 -6.4463310073875561e-05 -3.4419491011828193e-16 6.2492984112438103e-12 -7.8929332223246163e-05 6.8267083109206825e-06 -5.9352505068490057e-13 -7.2782324364543724e-05 9.2435307009368982e-16 -1.1250875619807566e-10 -7.5786858139144429e-05 -2.9390728044727716e-16 -1.88647975967179e-11 -6.3112760760684905e-05 -3.4419491011828193e-16 6.2492984112438103e-12 -7.8929332223246163e-05 6.8267083109206817e-06 -5.9352505068489774e-13 -7.2782324364543711e-05 9.2435307009368982e-16 -1.1250875619807566e-10 -7.5786858139144429e-05 5.3835420971616604e-06 3.428621140387622e-13 -9.3749050059911253e-05 -1.4402064948142099e-15 -5.9832563625748228e-11 -9.3749054399449422e-05 9.2435275226027249e-16 -1.1250875619807567e-10 -7.5786858139144429e-05 5.2909035220067681e-06 -1.1804060731614267e-10 -9.3749045109350242e-05 5.3029315732846494e-18 -1.8026330526394594e-10 -9.3749049777474921e-05 6.8267083109206808e-06 -5.9352505068490087e-13 -7.2782324364543724e-05 5.2909035220067681e-06 -1.1804060731614267e-10 -9.3749045109350242e-05 5.3835420971616604e-06 3.4286211403875912e-13 -9.3749050059911267e-05 1.0289856915466393e-05 -6.8864629658433298e-11 -9.3749041423798189e-05 6.8267083109206808e-06 -5.9352505068490087e-13 -7.2782324364543724e-05 9.2435030061496408e-16 -1.1250875619807565e-10 -7.5786858139144402e-05 5.2909035220067681e-06 -1.1804060731614267e-10 -9.3749045109350242e-05 5.3835420971616604e-06 3.4286211403875912e-13 -9.3749050059911267e-05 5.2909035220067681e-06 -1.1804060731614267e-10 -9.3749045109350242e-05 1.0289856915466395e-05 -6.8864629658433298e-11 -9.3749041423798189e-05 9.8215531601955829e-06 -1.1937238793751651e-10 -6.4463310073875561e-05 9.8790446764479623e-06 -2.0938678889071635e-10 -9.3749038205066524e-05 1.0140263020257964e-05 6.6444897417093476e-11 -9.3749041718282948e-05 6.8267083109206808e-06 -5.9352505068490087e-13 -7.2782324364543724e-05 5.3835420971616604e-06 3.4286211403876715e-13 -9.3749050059911267e-05 1.0289856915466395e-05 -6.8864629658433298e-11 -9.3749041423798189e-05 1.5652545723039429e-05 -1.9111783524167512e-10 -7.3204032801781811e-05 1.55686497909219e-05 1.4840151229646289e-11 -7.0354912853336349e-05 1.43173495880625e-05 -1.332037192130763e-10 -9.3749035742444553e-05 9.8215531601955829e-06 -1.1937238793751651e-10 -6.4463310073875561e-05 1.55686497909219e-05 1.4840151229646296e-11 -7.0354912853336335e-05 6.8267083109206808e-06 -5.9352505068490087e-13 -7.2782324364543724e-05 1.0289856915466395e-05 -6.886462965843331e-11 -9.3749041423798202e-05 9.8215531601955829e-06 -1.1937238793751646e-10 -6.4463310073875561e-05 1.0289856915466395e-05 -6.8864629658433298e-11 -9.3749041423798189e-05 1.43173495880625e-05 -1.332037192130763e-10 -9.3749035742444553e-05 9.8215531601955812e-06 -1.1937238793751651e-10 -6.4463310073875548e-05 9.8790446764479623e-06 -2.0938678889071635e-10 -9.3749038205066524e-05 1.5652545723039429e-05 -1.9111783524167512e-10 -7.3204032801781811e-05 1.43173495880625e-05 -1.332037192130763e-10 -9.3749035742444553e-05 9.8215531601955812e-06 -1.1937238793751649e-10 -6.4463310073875548e-05 9.879044676447964e-06 -2.0938678889071632e-10 -9.3749038205066524e-05 1.55686497909219e-05 1.4840151229646296e-11 -7.0354912853336335e-05 1.0289856915466392e-05 -6.8864629658433259e-11 -9.3749041423798189e-05 1.43173495880625e-05 -1.332037192130763e-10 -9.3749035742444553e-05 9.8215531601955829e-06 -1.1937238793751651e-10 -6.4463310073875561e-05 6.8267083109206808e-06 -5.9352505068490087e-13 -7.2782324364543724e-05 5.2909035220067681e-06 -1.1804060731614267e-10 -9.3749045109350242e-05 1.0289856915466393e-05 -6.886462965843331e-11 -9.3749041423798175e-05 9.8215531601955829e-06 -1.1937238793751651e-10 -6.4463310073875561e-05 1.6239106135636973e-05 -4.3803087536009127e-12 -9.3749029682953293e-05 1.55686497909219e-05 1.4840151229646299e-11 -7.0354912853336335e-05 1.0289856915466395e-05 -6.8864629658433298e-11 -9.3749041423798189e-05 1.43173495880625e-05 -1.332037192130763e-10 -9.3749035742444553e-05 1.562609956221699e-05 -2.0294280806043614e-12 -4.6875130588935371e-05 1.5568649790921903e-05 1.4840151229646244e-11 -7.0354912853336362e-05 6.82670831092068e-06 -5.9352505068490137e-13 -7.2782324364543724e-05 9.8215531601955829e-06 -1.1937238793751651e-10 -6.4463310073875561e-05 7.7409262571956762e-06 2.1185722325363299e-11 -4.2280069433527743e-05 1.5649098903596859e-05 -1.6163667036200386e-10 -4.9581285778237878e-05 9.8215531601955795e-06 -1.1937238793751651e-10 -6.4463310073875561e-05 6.9032157219580087e-06 -1.5972628854031032e-10 -4.6879651199621499e-05 1.5649098903596862e-05 -1.6163667036200386e-10 -4.9581285778237885e-05 1.5652545723039432e-05 -1.9111783524167517e-10 -7.3204032801781825e-05 1.55686497909219e-05 1.4840151229646289e-11 -7.0354912853336349e-05 9.8215531601955829e-06 -1.1937238793751651e-10 -6.4463310073875561e-05 7.7409262571956762e-06 2.1185722325363299e-11 -4.2280069433527743e-05 1.5626099562216987e-05 -2.0294280806044038e-12 -4.6875130588935357e-05 1.5649098903596866e-05 -1.6163667036200383e-10 -4.9581285778237878e-05 9.8215531601955829e-06 -1.1937238793751649e-10 -6.4463310073875561e-05 1.562609956221699e-05 -2.0294280806043614e-12 -4.6875130588935371e-05 1.5649098903596862e-05 -1.6163667036200386e-10 -4.9581285778237885e-05 1.55686497909219e-05 1.4840151229646299e-11 -7.0354912853336335e-05 9.8215531601955829e-06 -1.1937238793751651e-10 -6.4463310073875561e-05 7.7409262571956762e-06 2.1185722325363299e-11 -4.2280069433527743e-05 1.5626099562216987e-05 -2.0294280806043363e-12 -4.6875130588935371e-05 6.8267083109206808e-06 -5.9352505068485432e-13 -7.2782324364543711e-05 9.8215531601955812e-06 -1.1937238793751659e-10 -6.4463310073875548e-05 7.7409262571956762e-06 2.1185722325363299e-11 -4.2280069433527743e-05 -1.7711969490534492e-15 3.1976503909110433e-12 -4.8714057956763163e-05 6.82670831092068e-06 -5.9352505068485674e-13 -7.2782324364543711e-05 9.8215531601955812e-06 -1.1937238793751651e-10 -6.4463310073875548e-05 -2.356078763434177e-15 -1.0850989156408229e-10 -4.2949314686499073e-05 7.7409262571956745e-06 2.1185722325363305e-11 -4.2280069433527743e-05 2.0006802188128621e-15 -1.1521461890039019e-10 -5.7231481367643921e-05 6.9032157219580061e-06 -1.5972628854031032e-10 -4.6879651199621499e-05 7.7409262571956762e-06 2.1185722325363299e-11 -4.2280069433527743e-05 -1.771198032813662e-15 3.1976503909109439e-12 -4.8714057956763149e-05 9.8215531601955829e-06 -1.1937238793751657e-10 -6.4463310073875548e-05 2.0006788744600525e-15 -1.152146189003901e-10 -5.7231481367643935e-05 -1.7711969490534492e-15 3.1976503909110433e-12 -4.8714057956763163e-05 6.8267083109206808e-06 -5.9352505068490087e-13 -7.2782324364543724e-05 9.8215531601955829e-06 -1.1937238793751651e-10 -6.4463310073875561e-05 2.000680134613894e-15 -1.1521461890039019e-10 -5.7231481367643921e-05 7.7409262571956762e-06 2.1185722325363299e-11 -4.2280069433527743e-05 9.8215531601955812e-06 -1.1937238793751649e-10 -6.4463310073875575e-05 2.0006792235356294e-15 -1.1521461890039017e-10 -5.7231481367643928e-05 6.9032157219580078e-06 -1.5972628854031032e-10 -4.6879651199621499e-05 -1.7711969490534492e-15 3.1976503909110433e-12 -4.8714057956763163e-05 6.8267083109206808e-06 -5.9352505068490087e-13 -7.2782324364543724e-05 -2.9390728044727716e-16 -1.88647975967179e-11 -6.3112760760684905e-05 2.000680134613894e-15 -1.1521461890039019e-10 -5.7231481367643921e-05 9.8215531601955829e-06 -1.1937238793751651e-10 -6.4463310073875561e-05 2.0006803975449902e-15 -1.1521461890039027e-10 -5.7231481367643921e-05 6.9032157219580061e-06 -1.597262885403103e-10 -4.6879651199621499e-05 -4.4928910067921422e-15 -2.3294257727782919e-10 -6.504440647141204e-05 6.8267083109206808e-06 -5.9352505068490087e-13 -7.2782324364543724e-05 9.2435317783287834e-16 -1.1250875619807567e-10 -7.5786858139144429e-05 9.8215531601955829e-06 -1.1937238793751651e-10 -6.4463310073875561e-05 2.0006814747054655e-15 -1.1521461890039019e-10 -5.7231481367643928e-05 9.2435307009368982e-16 -1.1250875619807566e-10 -7.5786858139144429e-05 9.8215531601955829e-06 -1.1937238793751651e-10 -6.4463310073875561e-05 2.0006804351483973e-15 -1.1521461890039018e-10 -5.7231481367643928e-05 -4.4928910067921422e-15 -2.3294257727782919e-10 -6.504440647141204e-05 -2.356078763434177e-15 -1.0850989156408229e-10 -4.2949314686499073e-05 7.7409262571956762e-06 2.1185722325363299e-11 -4.2280069433527743e-05 -1.7711969490534492e-15 3.1976503909110433e-12 -4.8714057956763163e-05 2.000680134613894e-15 -1.1521461890039019e-10 -5.7231481367643921e-05 6.8267083109206808e-06 -5.9352505068490087e-13 -7.2782324364543724e-05 9.2435214198225021e-16 -1.1250875619807566e-10 -7.5786858139144429e-05 -2.9390728044727716e-16 -1.88647975967179e-11 -6.3112760760684905e-05 2.0006793766970174e-15 -1.1521461890039015e-10 -5.7231481367643928e-05 -2.356078763434177e-15 -1.0850989156408229e-10 -4.2949314686499073e-05 2.000680134613894e-15 -1.1521461890039019e-10 -5.7231481367643921e-05 6.9032157219580061e-06 -1.5972628854031032e-10 -4.6879651199621499e-05 -4.2199895565272831e-15 -2.3676412988302607e-10 -4.778149348692737e-05 9.8215531601955829e-06 -1.1937238793751651e-10 -6.4463310073875561e-05 -4.4928902181382499e-15 -2.3294257727782924e-10 -6.5044406471412013e-05 5.8813385091090849e-06 -3.1568664974062593e-10 -6.4091140129899661e-05 4.575634428532382e-06 -2.4289570996939967e-10 -8.0023430656328906e-05 9.8215531601955829e-06 -1.1937238793751651e-10 -6.4463310073875561e-05 6.9032157219580061e-06 -1.597262885403103e-10 -4.6879651199621505e-05 -4.4928910067921422e-15 -2.3294257727782919e-10 -6.504440647141204e-05 5.8813385091090866e-06 -3.1568664974062582e-10 -6.4091140129899675e-05 6.9032157219580061e-06 -1.5972628854031032e-10 -4.6879651199621499e-05 -4.2199890800328666e-15 -2.3676412988302613e-10 -4.778149348692737e-05 -4.4928910067921422e-15 -2.3294257727782919e-10 -6.504440647141204e-05 5.8813385091090849e-06 -3.1568664974062582e-10 -6.4091140129899675e-05 2.000680134613894e-15 -1.1521461890039019e-10 -5.7231481367643921e-05 6.9032157219580095e-06 -1.5972628854031032e-10 -4.6879651199621499e-05 -4.2199895565272831e-15 -2.3676412988302607e-10 -4.778149348692737e-05 -4.4928910067921422e-15 -2.3294257727782919e-10 -6.504440647141204e-05 -4.4928910067921422e-15 -2.3294257727782919e-10 -6.504440647141204e-05 5.8813385091090832e-06 -3.1568664974062582e-10 -6.4091140129899675e-05 8.9333938479447609e-15 -4.0660794812619828e-10 -5.6249934286874289e-05 8.3469862919002778e-15 -3.4466186388538432e-10 -7.4999484302346088e-05 -4.2199895565272831e-15 -2.3676412988302607e-10 -4.778149348692737e-05 -4.4928910067921422e-15 -2.3294257727782919e-10 -6.504440647141204e-05 5.8813385091090849e-06 -3.1568664974062582e-10 -6.4091140129899675e-05 8.9333938479447609e-15 -4.0660794812619828e-10 -5.6249934286874289e-05 5.1161978826768759e-06 -2.9973465394546214e-10 -4.5812532336753496e-05 -4.2199895565272831e-15 -2.3676412988302607e-10 -4.778149348692737e-05 5.8813385091090849e-06 -3.1568664974062582e-10 -6.4091140129899675e-05 8.9333938479447609e-15 -4.0660794812619828e-10 -5.6249934286874289e-05 5.1161978826768759e-06 -2.9973465394546214e-10 -4.5812532336753496e-05 6.9032157219580061e-06 -1.5972628854031032e-10 -4.6879651199621499e-05 5.8813385091090849e-06 -3.1568664974062577e-10 -6.4091140129899675e-05 9.6976538301985182e-06 -2.5740289847185274e-10 -5.0793645113127251e-05 5.1161978826768759e-06 -2.9973465394546214e-10 -4.5812532336753496e-05 6.9032157219580061e-06 -1.5972628854031032e-10 -4.6879651199621499e-05 -4.2199896708363379e-15 -2.3676412988302607e-10 -4.778149348692737e-05 5.8813385091090849e-06 -3.1568664974062582e-10 -6.4091140129899675e-05 9.8215531601955829e-06 -1.1937238793751651e-10 -6.4463310073875561e-05 5.881338509109084e-06 -3.1568664974062582e-10 -6.4091140129899675e-05 1.2380860316948479e-05 -3.5027118608430441e-10 -6.2881134045596031e-05 9.3990327749360441e-06 -3.03811054555618e-10 -7.7877827312522214e-05 1.5649098903596862e-05 -1.6163667036200386e-10 -4.9581285778237885e-05 9.8215531601955829e-06 -1.1937238793751651e-10 -6.4463310073875561e-05 6.9032157219580061e-06 -1.5972628854031032e-10 -4.6879651199621499e-05 9.6976538301985165e-06 -2.5740289847185269e-10 -5.0793645113127245e-05 1.5649098903596862e-05 -1.6163667036200386e-10 -4.9581285778237885e-05 9.8215531601955829e-06 -1.1937238793751654e-10 -6.4463310073875561e-05 9.6976538301985182e-06 -2.5740289847185269e-10 -5.0793645113127251e-05 1.2380860316948481e-05 -3.5027118608430451e-10 -6.2881134045596044e-05 1.5652545723039429e-05 -1.9111783524167512e-10 -7.3204032801781811e-05 9.8215531601955829e-06 -1.1937238793751651e-10 -6.4463310073875561e-05 1.2380860316948479e-05 -3.5027118608430441e-10 -6.2881134045596031e-05 9.3990327749360441e-06 -3.0381105455561795e-10 -7.78778273125222e-05 9.8215531601955829e-06 -1.1937238793751651e-10 -6.4463310073875561e-05 6.903215721958007e-06 -1.5972628854031032e-10 -4.6879651199621499e-05 5.8813385091090823e-06 -3.1568664974062588e-10 -6.4091140129899675e-05 9.6976538301985182e-06 -2.5740289847185274e-10 -5.0793645113127251e-05 1.8757618177442853e-05 -3.7000621938254339e-10 -6.3329649668519627e-05 1.5649098903596859e-05 -1.6163667036200386e-10 -4.9581285778237878e-05 1.5652545723039429e-05 -1.9111783524167512e-10 -7.3204032801781811e-05 1.2380860316948479e-05 -3.5027118608430441e-10 -6.2881134045596031e-05 9.8215531601955829e-06 -1.1937238793751651e-10 -6.4463310073875561e-05 5.881338509109084e-06 -3.1568664974062593e-10 -6.4091140129899675e-05 9.6976538301985165e-06 -2.5740289847185263e-10 -5.0793645113127245e-05 1.2380860316948479e-05 -3.5027118608430446e-10 -6.2881134045596044e-05 1.5649098903596862e-05 -1.6163667036200386e-10 -4.9581285778237885e-05 1.5652545723039429e-05 -1.9111783524167509e-10 -7.3204032801781825e-05 9.8215531601955829e-06 -1.1937238793751654e-10 -6.4463310073875561e-05 1.2380860316948481e-05 -3.5027118608430451e-10 -6.2881134045596044e-05 1.5626097139893164e-05 -3.1909785981644014e-10 -4.5036263482353991e-05 1.8757618177442853e-05 -3.7000621938254339e-10 -6.3329649668519627e-05 1.5649098903596862e-05 -1.6163667036200386e-10 -4.9581285778237885e-05 1.2380860316948479e-05 -3.5027118608430441e-10 -6.2881134045596031e-05 1.5626097139893164e-05 -3.1909785981644014e-10 -4.5036263482353991e-05 1.5649098903596862e-05 -1.6163667036200386e-10 -4.9581285778237885e-05 9.6976538301985182e-06 -2.5740289847185274e-10 -5.0793645113127245e-05 1.2380860316948479e-05 -3.5027118608430441e-10 -6.2881134045596031e-05 1.8757618177442853e-05 -3.7000621938254339e-10 -6.3329649668519627e-05 1.5652545723039429e-05 -1.9111783524167512e-10 -7.3204032801781811e-05 1.2380860316948479e-05 -3.5027118608430441e-10 -6.2881134045596031e-05 1.5575007397643108e-05 -3.3051334096421675e-10 -7.7599925005453622e-05 9.8215531601955829e-06 -1.1937238793751651e-10 -6.4463310073875561e-05 9.3990327749360441e-06 -3.03811054555618e-10 -7.7877827312522214e-05 9.8790446764479623e-06 -2.0938678889071635e-10 -9.3749038205066524e-05 4.57563577524615e-06 -2.0462546247752377e-10 -9.3749039169022626e-05 1.5652545723039429e-05 -1.9111783524167512e-10 -7.3204032801781811e-05 9.8215531601955829e-06 -1.1937238793751651e-10 -6.4463310073875561e-05 9.3990327749360441e-06 -3.0381105455561795e-10 -7.78778273125222e-05 9.8790446764479623e-06 -2.0938678889071635e-10 -9.3749038205066524e-05 1.5652545723039429e-05 -1.9111783524167512e-10 -7.3204032801781811e-05 9.3990327749360457e-06 -3.0381105455561795e-10 -7.7877827312522214e-05 1.5575007397643105e-05 -3.305133409642167e-10 -7.7599925005453622e-05 9.8790446764479623e-06 -2.0938678889071635e-10 -9.3749038205066524e-05 1.5652545723039429e-05 -1.9111783524167512e-10 -7.3204032801781811e-05 1.2380860316948479e-05 -3.5027118608430441e-10 -6.2881134045596031e-05 9.3990327749360474e-06 -3.0381105455561805e-10 -7.7877827312522214e-05 1.5575007397643108e-05 -3.3051334096421675e-10 -7.7599925005453636e-05 1.5928231912449128e-05 -2.4356011375018043e-10 -9.3749033667628499e-05 1.5575007397643108e-05 -3.3051334096421675e-10 -7.7599925005453622e-05 1.2500863139527321e-05 -3.8666669633174629e-10 -9.3749070885445218e-05 9.8790446764479623e-06 -2.0938678889071635e-10 -9.3749038205066524e-05 9.3990327749360441e-06 -3.03811054555618e-10 -7.7877827312522214e-05 1.5575007397643108e-05 -3.3051334096421675e-10 -7.7599925005453622e-05 1.2500863139527319e-05 -3.8666669633174624e-10 -9.3749070885445205e-05 9.8790446764479623e-06 -2.0938678889071635e-10 -9.3749038205066524e-05 1.5928231912449128e-05 -2.4356011375018043e-10 -9.3749033667628499e-05 1.5652545723039429e-05 -1.9111783524167512e-10 -7.3204032801781811e-05 1.5575007397643108e-05 -3.3051334096421675e-10 -7.7599925005453622e-05 9.8790446764479623e-06 -2.0938678889071635e-10 -9.3749038205066524e-05 1.5928231912449128e-05 -2.4356011375018043e-10 -9.3749033667628499e-05 1.5652545723039426e-05 -1.9111783524167512e-10 -7.3204032801781811e-05 1.43173495880625e-05 -1.332037192130763e-10 -9.3749035742444553e-05 9.8790446764479623e-06 -2.0938678889071635e-10 -9.3749038205066524e-05 9.3990327749360441e-06 -3.03811054555618e-10 -7.7877827312522214e-05 1.2500863139527319e-05 -3.8666669633174624e-10 -9.3749070885445205e-05 9.8790446764479623e-06 -2.0938678889071635e-10 -9.3749038205066524e-05 6.2504236788993373e-06 -3.0281372512497284e-10 -9.3749059400196865e-05 9.2435307009368982e-16 -1.1250875619807566e-10 -7.5786858139144429e-05 9.8215531601955829e-06 -1.1937238793751651e-10 -6.4463310073875561e-05 -4.4928905559903891e-15 -2.3294257727782919e-10 -6.504440647141204e-05 -6.1062871524565892e-15 -2.0872960381265801e-10 -8.0023426556350194e-05 5.2909035220067681e-06 -1.1804060731614267e-10 -9.3749045109350242e-05 9.8215531601955846e-06 -1.1937238793751651e-10 -6.4463310073875561e-05 9.8790446764479623e-06 -2.0938678889071635e-10 -9.3749038205066524e-05 4.57563577524615e-06 -2.0462546247752377e-10 -9.3749039169022626e-05 9.3990327749360441e-06 -3.03811054555618e-10 -7.7877827312522214e-05 6.2504236788993373e-06 -3.0281372512497284e-10 -9.3749059400196865e-05 4.575634428532382e-06 -2.4289570996939967e-10 -8.0023430656328906e-05 4.57563577524615e-06 -2.0462546247752377e-10 -9.3749039169022626e-05 9.8215531601955829e-06 -1.1937238793751651e-10 -6.4463310073875561e-05 9.3990327749360441e-06 -3.03811054555618e-10 -7.7877827312522214e-05 4.575634428532382e-06 -2.4289570996939967e-10 -8.0023430656328892e-05 4.5756357752461585e-06 -2.046254624775239e-10 -9.3749039169022653e-05 9.3990327749360441e-06 -3.03811054555618e-10 -7.7877827312522214e-05 9.8790446764479623e-06 -2.0938678889071635e-10 -9.3749038205066524e-05 6.2504236788993373e-06 -3.0281372512497284e-10 -9.3749059400196865e-05 4.57563577524615e-06 -2.0462546247752377e-10 -9.3749039169022626e-05 9.8215531601955829e-06 -1.1937238793751651e-10 -6.4463310073875561e-05 5.8813385091090874e-06 -3.1568664974062598e-10 -6.4091140129899648e-05 9.3990327749360441e-06 -3.03811054555618e-10 -7.7877827312522214e-05 4.575634428532382e-06 -2.4289570996939967e-10 -8.0023430656328906e-05 5.2909035220067681e-06 -1.1804060731614267e-10 -9.3749045109350242e-05 9.8215531601955829e-06 -1.1937238793751649e-10 -6.4463310073875561e-05 4.57563577524615e-06 -2.0462546247752377e-10 -9.3749039169022626e-05 -6.1062871524565892e-15 -2.0872960381265801e-10 -8.0023426556350194e-05 9.8215531601955829e-06 -1.1937238793751651e-10 -6.4463310073875561e-05 4.5756344285323795e-06 -2.4289570996939967e-10 -8.0023430656328892e-05 4.5756357752461509e-06 -2.0462546247752372e-10 -9.3749039169022626e-05 -6.10629295222006e-15 -2.0872960381265803e-10 -8.0023426556350181e-05 9.8215531601955829e-06 -1.1937238793751651e-10 -6.4463310073875561e-05 -4.4928910067921422e-15 -2.3294257727782919e-10 -6.504440647141204e-05 4.575634428532382e-06 -2.4289570996939967e-10 -8.0023430656328906e-05 -6.1062915832617274e-15 -2.087296038126579e-10 -8.0023426556350194e-05 9.2435307009368982e-16 -1.1250875619807566e-10 -7.5786858139144429e-05 5.2909035220067681e-06 -1.1804060731614267e-10 -9.3749045109350242e-05 5.3029315732846494e-18 -1.8026330526394594e-10 -9.3749049777474921e-05 -6.1062871524565892e-15 -2.0872960381265801e-10 -8.0023426556350194e-05 5.2909035220067681e-06 -1.1804060731614267e-10 -9.3749045109350242e-05 4.57563577524615e-06 -2.0462546247752377e-10 -9.3749039169022626e-05 5.3027285095257199e-18 -1.8026330526394594e-10 -9.3749049777474921e-05 -6.1062871524565892e-15 -2.0872960381265801e-10 -8.0023426556350194e-05 -4.4928910067921422e-15 -2.3294257727782919e-10 -6.504440647141204e-05 5.8813385091090849e-06 -3.1568664974062572e-10 -6.4091140129899688e-05 4.5756344285323829e-06 -2.4289570996939972e-10 -8.0023430656328906e-05 8.3469862919002778e-15 -3.4466186388538432e-10 -7.4999484302346088e-05 -4.4928910067921422e-15 -2.3294257727782919e-10 -6.504440647141204e-05 4.575634428532382e-06 -2.4289570996939967e-10 -8.0023430656328906e-05 -6.1062871524565892e-15 -2.0872960381265798e-10 -8.0023426556350194e-05 8.3469862919002778e-15 -3.4466186388538432e-10 -7.4999484302346088e-05 4.57563577524615e-06 -2.0462546247752377e-10 -9.3749039169022626e-05 5.3027450429080951e-18 -1.8026330526394594e-10 -9.3749049777474921e-05 -6.1062874040640778e-15 -2.0872960381265803e-10 -8.0023426556350194e-05 1.9885239676883456e-15 -3.2675193558921995e-10 -9.3749066661278887e-05 4.575634428532382e-06 -2.4289570996939967e-10 -8.0023430656328906e-05 -6.1062870841742691e-15 -2.0872960381265798e-10 -8.0023426556350194e-05 8.3469862919002778e-15 -3.4466186388538432e-10 -7.4999484302346088e-05 1.9885239676883456e-15 -3.2675193558921995e-10 -9.3749066661278887e-05 6.2504236788993373e-06 -3.0281372512497284e-10 -9.3749059400196865e-05 4.575634428532382e-06 -2.4289570996939967e-10 -8.0023430656328906e-05 4.57563577524615e-06 -2.0462546247752377e-10 -9.3749039169022626e-05 1.9885239676883456e-15 -3.2675193558921995e-10 -9.3749066661278887e-05 4.575634428532382e-06 -2.4289570996939967e-10 -8.0023430656328906e-05 4.57563577524615e-06 -2.0462546247752377e-10 -9.3749039169022626e-05 -6.1062871524565892e-15 -2.0872960381265801e-10 -8.0023426556350194e-05 1.9885239676883456e-15 -3.2675193558921995e-10 -9.3749066661278887e-05 
</DataArray>
</PointData>
<CellData Scalars="" Vectors="" Tensors="effective_stress,">
<DataArray type="Float64" Name="effective_stress" NumberOfComponents="9" format="ascii">
0.36954968328298832 -0.0059065329329418218 -0.050947440795622592 -0.0059065329329418218 -2499.7511399854588 -0.048371084004348419 -0.050947440795622592 -0.048371084004348419 -9999.5683011936253 0.40305359876465496 0.010894934309463679 0.072791403716124969 0.010894934309463679 -2499.7477546924606 0.034519139326356918 0.072791403716124969 0.034519139326356918 -9999.574385255386 0.39032124569329096 0.013006224985957146 0.003769828419363408 0.013006224985957146 -2499.6886834458537 0.13567855507512833 0.003769828419363408 0.13567855507512833 -9999.4943204617011 0.41005761000633356 0.020772261327783093 0.014410866573143721 0.020772261327783093 -2499.7134248749567 0.023111791486826405 0.014410866573143721 0.023111791486826405 -9999.5660212392613 0.37849157670734712 -0.00052631044530477428 0.0083671015761410672 -0.00052631044530477428 -2499.7377712384764 -0.032407939559561783 0.0083671015761410672 -0.032407939559561783 -9999.6338901145918 0.39141791025667771 -0.019781785194593553 -0.033351330095456433 -0.019781785194593553 -2499.7251866887027 0.00020682251943071606 -0.033351330095456433 0.00020682251943071606 -9999.630152840431 0.37243207648657517 0.010469925118965009 0.042473357499375197 0.010469925118965009 -2499.7746122553517 0.062955205850357743 0.042473357499375197 0.062955205850357743 -9999.6627289290918 0.35264629073844844 -0.025513482228299356 -0.030124790647164446 -0.025513482228299356 -2499.7902373018105 0.042380759206935181 -0.030124790647164446 0.042380759206935181 -9999.7288758952727 0.35322168779703134 -0.0025836214157295128 0.018099598492653968 -0.0025836214157295128 -2499.76776388196 -0.022448782120591204 0.018099598492653968 -0.022448782120591204 -9999.7201988214929 0.32468295798867075 0.0016836674093360284 0.0055098074763009208 0.0016836674093360284 -2499.8319366462047 0.021204019650440387 0.0055098074763009208 0.021204019650440387 -9999.7764079045664 0.36692917411795634 0.0093692035244157187 -0.0039527697481389623 0.0093692035244157187 -2499.7698086316313 -0.017019278974203189 -0.0039527697481389623 -0.017019278974203189 -9999.6582742390892 0.37416303417921881 0.012990308814254971 0.0042369229449832346 0.012990308814254971 -2499.7651153371544 -0.008639734199277882 0.0042369229449832346 -0.008639734199277882 -9999.658489033729 0.37740818687598221 0.0042863400027124653 0.0054919861245252832 0.0042863400027124653 -2499.7513325875507 0.005125427589064202 0.0054919861245252832 0.005125427589064202 -9999.6601685142814 0.3944903376682305 0.014193617682185555 0.055225434996373224 0.014193617682185555 -2499.738322929355 -0.010182759277086006 0.055225434996373224 -0.010182759277086006 -9999.6180873812791 0.40371658792219023 0.0059190076315240418 0.043247669177568698 0.0059190076315240418 -2499.7448737734994 -0.044901263458143104 0.043247669177568698 -0.044901263458143104 -9999.5572426760336 0.40700853050293517 0.012312514539600049 -0.057889587695468092 0.012312514539600049 -2499.6723826290063 0.09027499623025266 -0.057889587695468092 0.09027499623025266 -9999.4433370156366 0.41008860560691573 -0.0014166357918417583 -0.020891539329568332 -0.0014166357918417583 -2499.7077594205248 0.1180309661008323 -0.020891539329568332 0.1180309661008323 -9999.5208915436688 0.45776070312695083 0.0081068882547235405 -0.037651577706642458 0.0081068882547235405 -2499.6915368204341 0.059550799199955096 -0.037651577706642458 0.059550799199955096 -9999.4930312273027 0.351154141807001 -0.010379137628570045 -0.06658824919475137 -0.010379137628570045 -2499.7559716802257 0.016750457133639429 -0.06658824919475137 0.016750457133639429 -9999.6435514261393 0.37639964808276716 -0.014742837653008441 0.020887733647214191 -0.014742837653008441 -2499.7471377461729 0.017304447668891498 0.020887733647214191 0.017304447668891498 -9999.6331619956345 0.37671885031170937 0.011606965763360989 0.021785487779928669 0.011606965763360989 -2499.7724135058161 0.032187678520414043 0.021785487779928669 0.032187678520414043 -9999.6591757091664 0.37390822081545394 0.003595292185141194 0.02511115352398971 0.003595292185141194 -2499.7670439409908 0.043515575717347571 0.02511115352398971 0.043515575717347571 -9999.6648093067452 0.44557370887230346 0.0055272041448634693 0.019540721967287511 0.0055272041448634693 -2499.6852846860065 0.093366934634062301 0.019540721967287511 0.093366934634062301 -9999.4615413060383 0.41132293280134036 -0.0033760216085000003 0.011205321515717515 -0.0033760216085000003 -2499.6897043389536 0.085993001379165435 0.011205321515717515 0.085993001379165435 -9999.4366014328207 0.36754592016859533 0.0045748608480336087 -0.00043489359040904674 0.0045748608480336087 -2499.7423327581328 0.0098861686556119821 -0.00043489359040904674 0.0098861686556119821 -9999.5606357747583 0.3587171386893715 0.0034053510901448543 0.0046682286011900942 0.0034053510901448543 -2499.765179095652 0.025115775420545106 0.0046682286011900942 0.025115775420545106 -9999.6003833387877 0.37876850253269367 -0.0027125727042276167 0.0010192149125032302 -0.0027125727042276167 -2499.7644621559484 0.0084376159711609944 0.0010192149125032302 0.0084376159711609944 -9999.6127815730506 0.36739236211542448 0.0045669549405058206 -0.011118845098280872 0.0045669549405058206 -2499.7588875738566 0.0038084597215402027 -0.011118845098280872 0.0038084597215402027 -9999.6362712360915 0.38072464875131118 -0.0025165908470484513 0.0015798258737049764 -0.0025165908470484513 -2499.7534992593 0.0013349021994599752 0.0015798258737049764 0.0013349021994599752 -9999.6156983074579 0.37125160139476066 -0.019511571217422058 -0.0010652802402546513 -0.019511571217422058 -2499.733969553381 0.014523253739753272 -0.0010652802402546513 0.014523253739753272 -9999.6333357544427 0.3742152822233038 -0.01083308028635287 0.0095394485383621941 -0.01083308028635287 -2499.7560954033811 0.0076485121701352909 0.0095394485383621941 0.0076485121701352909 -9999.6357193551867 0.39016659198227899 -0.00031909716655205422 -0.023272647573321592 -0.00031909716655205422 -2499.735956265069 0.014898677507972025 -0.023272647573321592 0.014898677507972025 -9999.5838413679758 0.38311780886188274 -0.0094530128762920287 0.014643847718616598 -0.0094530128762920287 -2499.7395411533807 0.015970599905273275 0.014643847718616598 0.015970599905273275 -9999.5891750997198 0.3851829409295533 -0.018566210191727543 0.002609019870760676 -0.018566210191727543 -2499.7119881220033 0.026811787571659806 0.002609019870760676 0.026811787571659806 -9999.5809146803604 0.37800115323625505 -0.0097637439537248683 0.003068186031669029 -0.0097637439537248683 -2499.7462262484605 0.0060780944550060667 0.003068186031669029 0.0060780944550060667 -9999.6080102390697 0.3732670745557698 -0.015425791948433708 0.0048208980579147465 -0.015425791948433708 -2499.7531374224345 0.016325841000252694 0.0048208980579147465 0.016325841000252694 -9999.6111132270998 0.37735376277851174 0.0083612140540249916 -0.0048872348106669961 0.0083612140540249916 -2499.7519383996569 0.0068890468119207071 -0.0048872348106669961 0.0068890468119207071 -9999.6110453357105 0.36818072066034802 0.0050087009574537322 -0.011298637928121025 0.0050087009574537322 -2499.7572728198238 0.0030977300812082831 -0.011298637928121025 0.0030977300812082831 -9999.6353746688001 0.36917113706931559 -0.00079683937178603309 -0.0027637696848614723 -0.00079683937178603309 -2499.7593968557221 -0.0023933875877446553 -0.0027637696848614723 -0.0023933875877446553 -9999.659256847217 0.37994454068447681 -0.00015867857712262637 -0.0044936957056052051 -0.00015867857712262637 -2499.7502611266677 0.0012264120441614068 -0.0044936957056052051 0.0012264120441614068 -9999.6301765997468 0.37959086121190921 -0.00057314664178478056 -0.0045623487978332378 -0.00057314664178478056 -2499.7491766230505 0.00015098377161848475 -0.0045623487978332378 0.00015098377161848475 -9999.6270741351727 0.39216702346311649 0.019901919152380897 -0.00098661713127512485 0.019901919152380897 -2499.7134604921448 -0.008276936920992739 -0.00098661713127512485 -0.008276936920992739 -9999.6127626077432 0.39393574782479845 0.013569107699732012 -0.0022302713018689246 0.013569107699732012 -2499.7142349250398 0.0036333343614387559 -0.0022302713018689246 0.0036333343614387559 -9999.6175035666856 0.38684162412755541 0.017786755799157866 0.00047128876758506522 0.017786755799157866 -2499.7240543575826 -0.0025528754786137142 0.00047128876758506522 -0.0025528754786137142 -9999.623481092538 0.391882700102542 0.0081678344000363362 -0.0006693906761938706 0.0081678344000363362 -2499.728769212712 -0.0078606206179756555 -0.0006693906761938706 -0.0078606206179756555 -9999.6248835080332 0.37231428845370829 0.0060687976620341019 -0.0015714280489191879 0.0060687976620341019 -2499.7564894961342 -0.0057470936521895055 -0.0015714280489191879 -0.0057470936521895055 -9999.6358260539891 0.37935562854909222 0.0050236570933871183 0.0007477573071810184 0.0050236570933871183 -2499.7304653960709 -0.012856147061029333 0.0007477573071810184 -0.012856147061029333 -9999.6302722851269 0.3870222082859982 0.00048079148685823379 0.0026495188138540016 0.00048079148685823379 -2499.7343398551766 -0.01993624843953512 0.0026495188138540016 -0.01993624843953512 -9999.6032089544442 0.3751260311491933 -0.00013641500273011559 0.0006368240083247656 -0.00013641500273011559 -2499.7529976811666 -0.0027586256410359056 0.0006368240083247656 -0.0027586256410359056 -9999.6249051358536 0.38119889600875467 0.00068676555932838113 0.0024423214281341643 0.00068676555932838113 -2499.7408673703285 -0.014013242269356851 0.0024423214281341643 -0.014013242269356851 -9999.6199726536197 0.3875319608632708 0.0015752792321831401 -0.0010052505429030134 0.0015752792321831401 -2499.7452655096904 -0.0077615368486476655 -0.0010052505429030134 -0.0077615368486476655 -9999.5930149984542 0.38300505526967754 -0.00129891890352125 0.0042572248319174832 -0.00129891890352125 -2499.7443024273507 -0.0073617136058601318 0.0042572248319174832 -0.0073617136058601318 -9999.6060187837193 0.38162074788669997 0.0027781255475018362 0.00080361185757737985 0.0027781255475018362 -2499.7552330014646 -0.013830043829784699 0.00080361185757737985 -0.013830043829784699 -9999.612787287595 0.37457665838155663 0.0019931832607116041 -0.00031331725676864153 0.0019931832607116041 -2499.7494887196717 -0.0078142793354345486 -0.00031331725676864153 -0.0078142793354345486 -9999.6346845892258 0.38134769643329491 -8.2401945443543888e-05 0.0034155673574787215 -8.2401945443543888e-05 -2499.7443520233728 -0.0055565706188644981 0.0034155673574787215 -0.0055565706188644981 -9999.603297137448 0.36812753195306414 -0.0055588842680434659 0.00855785342901072 -0.0055588842680434659 -2499.7521645819897 7.0699575189792085e-05 0.00855785342901072 7.0699575189792085e-05 -9999.6304451047363 0.36752573855108039 -0.0020151512626947199 0.0091081543723703362 -0.0020151512626947199 -2499.7539915737198 -0.0038719225481145259 0.0091081543723703362 -0.0038719225481145259 -9999.6033358308796 0.3761118746624561 -0.011148951250396621 0.0074129011786681076 -0.011148951250396621 -2499.7380925707448 0.001689954383323311 0.0074129011786681076 0.001689954383323311 -9999.6291522308729 0.37756551958773343 -0.0019395393955173633 0.0051506846261872852 -0.0019395393955173633 -2499.7496964561569 -0.0034058736073347973 0.0051506846261872852 -0.0034058736073347973 -9999.6260635856997 0.3715770201970372 -0.0052794931544177352 0.0084096143546048552 -0.0052794931544177352 -2499.7599552381453 0.00099833466674681404 0.0084096143546048552 0.00099833466674681404 -9999.6316883015661 0.37987638941649493 -0.0030312478364279173 0.0023481840753447614 -0.0030312478364279173 -2499.7510038989767 -0.0041633271912360215 0.0023481840753447614 -0.0041633271912360215 -9999.62197263298 0.35701999813750263 0.0022904858857187372 0.068396568493426457 0.0022904858857187372 -2499.7639285147152 -0.071582070794192987 0.068396568493426457 -0.071582070794192987 -9999.6231079989448 0.39023283367305339 0.0018869726941107036 0.0087168910117725318 0.0018869726941107036 -2499.719750053659 -0.012178940049679454 0.0087168910117725318 -0.012178940049679454 -9999.5487048747545 0.35050451685083317 -0.013687106375792259 -0.0023834953271943959 -0.013687106375792259 -2499.7642392446323 -0.0014297589646048436 -0.0023834953271943959 -0.0014297589646048436 -9999.7133997789497 0.38289344698207345 0.0099900404373632363 0.097051038740952472 0.0099900404373632363 -2499.7335270487129 -0.028982221077752612 0.097051038740952472 -0.028982221077752612 -9999.5785853032885 0.39009598246764199 0.007006249708977833 -0.032193865924455167 0.007006249708977833 -2499.7357789792723 -0.020902200776617974 -0.032193865924455167 -0.020902200776617974 -9999.589144133739 0.37833075530329552 -0.0059783510868650393 0.030992571520528145 -0.0059783510868650393 -2499.7298404442781 0.046967566426701524 0.030992571520528145 0.046967566426701524 -9999.6619240269447 0.37887705943694527 -0.0007519251061172405 0.011744905672912864 -0.0007519251061172405 -2499.7401839518311 0.0033553308860518882 0.011744905672912864 0.0033553308860518882 -9999.5706277365152 0.38656697657006434 0.0089396091087311502 -0.031593310347940495 0.0089396091087311502 -2499.7353196325521 -0.020882039657779509 -0.031593310347940495 -0.020882039657779509 -9999.5899814312761 0.41249565266070931 0.0085413129760782986 0.017876579235146794 0.0085413129760782986 -2499.7197697521224 -0.016206036659869211 0.017876579235146794 -0.016206036659869211 -9999.5725452811712 0.39145902558720991 0.018277840707510373 0.055786419445274321 0.018277840707510373 -2499.7281765742982 -0.084220400750922908 0.055786419445274321 -0.084220400750922908 -9999.5928679935005 0.36749319017076232 -0.010013167091588055 0.010402441242604255 -0.010013167091588055 -2499.7704397455282 -0.056823557251448165 0.010402441242604255 -0.056823557251448165 -9999.6475473527498 0.36885961065530637 -0.0014579311031714722 0.0086199155314545806 -0.0014579311031714722 -2499.7611975250661 -0.006858068562905828 0.0086199155314545806 -0.006858068562905828 -9999.6486940452978 0.38755301304354361 0.0001482357695142772 0.018833250330317242 0.0001482357695142772 -2499.7407006928734 -0.019846097608905211 0.018833250330317242 -0.019846097608905211 -9999.6249251025001 0.39932268802658655 0.00040826829793490227 -0.029828479531989138 0.00040826829793490227 -2499.7293801211972 -0.01917712494127663 -0.029828479531989138 -0.01917712494127663 -9999.5913729895965 0.40257432409653693 0.005511764951667688 0.039094464220802316 0.005511764951667688 -2499.7230474318712 -0.047821882533831184 0.039094464220802316 -0.047821882533831184 -9999.5553935343123 0.41871294774357809 -2.0577780722834393e-05 0.064669394118696488 -2.0577780722834393e-05 -2499.7257788258557 -0.0097287478165486406 0.064669394118696488 -0.0097287478165486406 -9999.4881033209585 0.37760976982553984 -0.00077090934148424167 0.017729612981838727 -0.00077090934148424167 -2499.772686808386 -0.0096875936127744922 0.017729612981838727 -0.0096875936127744922 -9999.6347380685147 0.39309818600804647 0.0021605194232292933 0.011786970499542804 0.0021605194232292933 -2499.7581452364425 -0.022521167385548324 0.011786970499542804 -0.022521167385548324 -9999.5939552828531 0.41105903473538463 0.00033371475861532739 0.039925406656992901 0.00033371475861532739 -2499.6885867102906 0.022077469767309177 0.039925406656992901 0.022077469767309177 -9999.543381281379 0.42740299152583944 0.005200113044590015 0.065450236529397188 0.005200113044590015 -2499.6943087823242 -0.015593853846001572 0.065450236529397188 -0.015593853846001572 -9999.4784571866203 0.39340792767279709 0.0036646388199173228 0.0039356846386908728 0.0036646388199173228 -2499.7523371938155 0.012870751902937627 0.0039356846386908728 0.012870751902937627 -9999.6116385060159 0.37420663206125937 0.0045902580052440082 0.010717267790596452 0.0045902580052440082 -2499.7707218688674 0.008350054738457402 0.010717267790596452 0.008350054738457402 -9999.6632812305379 0.40123818015035795 -0.0060552989449989842 0.042834943817221416 -0.0060552989449989842 -2499.7246008941315 0.014866675391051909 0.042834943817221416 0.014866675391051909 -9999.5525065420497 0.39788463734488 0.0026043980518496521 -0.056885282759047917 0.0026043980518496521 -2499.7538668786156 0.0028350470718212575 -0.056885282759047917 0.0028350470718212575 -9999.6175010979459 0.39591684919128056 -0.0099095551398148077 0.04214664412734237 -0.0099095551398148077 -2499.7384696223198 0.01559115185182236 0.04214664412734237 0.01559115185182236 -9999.5540902456214 0.387819387452494 -0.0076857351250659185 0.027162401064279751 -0.0076857351250659185 -2499.7370475205453 0.041584639996569778 0.027162401064279751 0.041584639996569778 -9999.5996273094697 0.3952577562906478 0.007848345605614173 -0.043876258466853252 0.007848345605614173 -2499.7359666365496 0.019956069556859635 -0.043876258466853252 0.019956069556859635 -9999.6433140448553 0.4122307270409809 0.004768977301756315 -0.048747030892390908 0.004768977301756315 -2499.7272295102593 0.02209815689947147 -0.048747030892390908 0.02209815689947147 -9999.5810050747768 0.38709489170207689 0.0072782527630946663 0.019284957254058099 0.0072782527630946663 -2499.7454984317142 0.026026405069785596 0.019284957254058099 0.026026405069785596 -9999.6307949005331 0.40254220285578413 -0.0020636575608957014 0.003862251132431993 -0.0020636575608957014 -2499.7309039930919 0.015011563489679247 0.003862251132431993 0.015011563489679247 -9999.6067676687053 0.39607276235074096 0.0018633422575974681 0.010454468156694929 0.0018633422575974681 -2499.7466603256635 0.024220633650315904 0.010454468156694929 0.024220633650315904 -9999.5935460004912 0.37989446586836095 0.0017286573268007397 0.017511674296670776 0.0017286573268007397 -2499.7607921737558 0.025028145269061497 0.017511674296670776 0.025028145269061497 -9999.63506612936 0.36329637882715815 0.010117973171313879 0.0017700614453133312 0.010117973171313879 -2499.7564341285042 0.010448630860082631 0.0017700614453133312 0.010448630860082631 -9999.6327139059049 0.38783520501419844 0.00079390340841387986 -0.0046320998853843776 0.00079390340841387986 -2499.7532613636231 -0.00038889085172399973 -0.0046320998853843776 -0.00038889085172399973 -9999.5952629559706 0.3899285905204124 -0.0019003960244366874 -0.0031956098953287437 -0.0019003960244366874 -2499.7372111182272 0.015566685966433624 -0.0031956098953287437 0.015566685966433624 -9999.6198779289934 0.37327004565668176 0.001662339547794614 -0.0092361777510632237 0.001662339547794614 -2499.7568976009811 0.014299436190867709 -0.0092361777510632237 0.014299436190867709 -9999.6114570474001 0.41032507308182176 0.0016713086673169762 0.0076575570194563625 0.0016713086673169762 -2499.7356209774334 0.0015932630667521153 0.0076575570194563625 0.0015932630667521153 -9999.5475733554358 0.37482120447566558 0.0014484582172722468 0.0078963252194625966 0.0014484582172722468 -2499.7468348288121 0.0061454411672912101 0.0078963252194625966 0.0061454411672912101 -9999.6223275952325 0.38333901206772225 -0.0034741045159203798 0.00016527157936252479 -0.0034741045159203798 -2499.7487634826343 0.010717495278186107 0.00016527157936252479 0.010717495278186107 -9999.5984113656341 0.37528660761017818 0.001130722884851857 0.0029572467328762286 0.001130722884851857 -2499.7604653818762 -0.00091507176406935287 0.0029572467328762286 -0.00091507176406935287 -9999.6114317224128 0.38268788750519889 0.0014791600206365979 0.0030274431546786218 0.0014791600206365979 -2499.7396435317523 0.0038758955615776358 0.0030274431546786218 0.0038758955615776358 -9999.602649024433 0.37990948180231499 0.0023115133469039798 0.003656347431501672 0.0023115133469039798 -2499.7424710674295 0.0018993513708664977 0.003656347431501672 0.0018993513708664977 -9999.6151809151634 0.3801218576759311 0.00098877637041151073 0.00061355865182122216 0.00098877637041151073 -2499.7400440612887 0.012227819326653844 0.00061355865182122216 0.012227819326653844 -9999.6191930698806 0.38383765308572038 0.0022003956030102641 0.0028115028608226567 0.0022003956030102641 -2499.7393714717609 0.0042485523172217654 0.0028115028608226567 0.0042485523172217654 -9999.6029375124199 0.37893033546720289 0.0098556783310320001 -0.0094648530739505077 0.0098556783310320001 -2499.7452288655022 0.00092107426007714821 -0.0094648530739505077 0.00092107426007714821 -9999.6235232209183 0.38663107373213279 -0.0019455882490286118 -0.0056703852158079826 -0.0019455882490286118 -2499.7481423669415 0.0029207067732386349 -0.0056703852158079826 0.0029207067732386349 -9999.6234606042253 0.37355676751212741 -0.0019941181725796758 0.00056706816303631058 -0.0019941181725796758 -2499.7530731675415 0.0030025807868696575 0.00056706816303631058 0.0030025807868696575 -9999.6314553062548 0.37865344571036985 -7.5808106549120347e-05 0.0026223644636047538 -7.5808106549120347e-05 -2499.7369289724356 0.0098872219696204411 0.0026223644636047538 0.0098872219696204411 -9999.6281866476202 0.38669913804187672 -0.015055640041825805 0.0016336261751348502 -0.015055640041825805 -2499.7112111905681 0.00031981937627278967 0.0016336261751348502 0.00031981937627278967 -9999.6173896468281 0.3946973008914938 -0.014408641612091565 -0.0037104746925251675 -0.014408641612091565 -2499.710495479093 0.0019031198135053273 -0.0037104746925251675 0.0019031198135053273 -9999.610552102542 0.38593943503656192 -0.0014716304721197337 -0.0054064753476268379 -0.0014716304721197337 -2499.7481143912555 0.0032220651446550619 -0.0054064753476268379 0.0032220651446550619 -9999.6220834912783 0.37924559706351602 0.0094286390833619033 -0.0092607048536592629 0.0094286390833619033 -2499.7431211380481 0.002143672004876862 -0.0092607048536592629 0.002143672004876862 -9999.6223623327605 0.39428471219025596 -0.01002664600315549 -0.00097573074754109257 -0.01002664600315549 -2499.7265370850441 0.014172888511438941 -0.00097573074754109257 0.014172888511438941 -9999.6212616298326 0.37465636857223217 -0.0023426942855590965 0.0061150333226578368 -0.0023426942855590965 -2499.7615829182946 -0.0058473036879149731 0.0061150333226578368 -0.0058473036879149731 -9999.664692691691 0.38000555748158149 -0.0098688978929749663 0.00010734373881859938 -0.0098688978929749663 -2499.7670881590043 0.0043015030053084047 0.00010734373881859938 0.0043015030053084047 -9999.643581009248 0.3794552816311807 -0.0050779675350221126 0.015698891065661913 -0.0050779675350221126 -2499.7099904802253 -0.12502542850416248 0.015698891065661913 -0.12502542850416248 -9999.5515436364331 0.41125896818616853 -0.018234790619628197 0.0091911760991933988 -0.018234790619628197 -2499.7205158015495 -0.025708399773975543 0.0091911760991933988 -0.025708399773975543 -9999.5686718206489 0.35846308009263339 -0.0067518058714734 0.047015490038802454 -0.0067518058714734 -2499.7823233015201 -0.068038519652873219 0.047015490038802454 -0.068038519652873219 -9999.6831619790028 0.37471605415657905 -0.0076482275925812762 0.067659175345721301 -0.0076482275925812762 -2499.7538860128111 -0.041302677023769857 0.067659175345721301 -0.041302677023769857 -9999.6116444762356 0.37901688253896282 0.00025763855013139977 0.0073504871124896454 0.00025763855013139977 -2499.7535788899177 0.016893717121064356 0.0073504871124896454 0.016893717121064356 -9999.6678854306465 0.34554267911267911 -0.010946567545816875 0.034053985935096176 -0.010946567545816875 -2499.7792243090448 0.051789485857027417 0.034053985935096176 0.051789485857027417 -9999.7113805967256 0.3193299013730666 -0.0046080339881028609 0.0067234650017553577 -0.0046080339881028609 -2499.8389544968122 -0.018997486328771629 0.0067234650017553577 -0.018997486328771629 -9999.8160896806039 0.36712293272830721 -0.0073405836866974397 0.0059453474514157278 -0.0073405836866974397 -2499.7566905740582 0.0099675959068008524 0.0059453474514157278 0.0099675959068008524 -9999.6627497357986 0.35238138396437946 -0.0030261091325757133 0.029703151190630245 -0.0030261091325757133 -2499.7817986248242 0.05853003692495673 0.029703151190630245 0.05853003692495673 -9999.7344382945776 0.38342984174357753 -0.0047682678730336207 -0.0069967520689715457 -0.0047682678730336207 -2499.7548092836173 0.0061151725667514256 -0.0069967520689715457 0.0061151725667514256 -9999.6538483774693 0.3929570657860495 -0.0021090836939049347 0.00029537710588556365 -0.0021090836939049347 -2499.7402064255543 0.027168988132416416 0.00029537710588556365 0.027168988132416416 -9999.6358173199515 0.35500650310147297 0.0078987715488896271 -0.083401343193099331 0.0078987715488896271 -2499.8116245952974 -0.036255396148915098 -0.083401343193099331 -0.036255396148915098 -9999.7621088149044 0.39119494980480229 0.0076855902047468297 -0.064979552204851299 0.0076855902047468297 -2499.753728636033 0.049026700080823674 -0.064979552204851299 0.049026700080823674 -9999.6690420121467 0.39405037472093773 -0.004827451272081125 -0.075661486360262931 -0.004827451272081125 -2499.7355303069867 -0.086773399597076514 -0.075661486360262931 -0.086773399597076514 -9999.6437805106398 0.39417291192057746 0.0010163487714304476 -0.010476265817487729 0.0010163487714304476 -2499.6989663006343 -0.040932998292404321 -0.010476265817487729 -0.040932998292404321 -9999.5713252209007 0.3731654782893481 0.015803937499463547 -0.025345601139545086 0.015803937499463547 -2499.7655327292678 -0.0058954029148730325 -0.025345601139545086 -0.0058954029148730325 -9999.6355844044429 0.37504118477329484 0.01222217883276247 -0.024673216722476354 0.01222217883276247 -2499.7586324831159 0.0091119403294896983 -0.024673216722476354 0.0091119403294896983 -9999.6333092314489 0.38498475950291322 -0.010142285460432412 -0.011111663244264491 -0.010142285460432412 -2499.7677140982469 0.015104914250741786 -0.011111663244264491 0.015104914250741786 -9999.6384180529203 0.35409213483399071 0.0051533373232083811 -0.0091564630020002369 0.0051533373232083811 -2499.7669189568078 -0.022228887413575649 -0.0091564630020002369 -0.022228887413575649 -9999.6870693050805 0.38067674513740712 0.024528463377845706 0.0025141280746083794 0.024528463377845706 -2499.7568081538593 0.01819119702122407 0.0025141280746083794 0.01819119702122407 -9999.5757445034469 0.38504019310562398 0.0060676134610620942 0.0018891056156462582 0.0060676134610620942 -2499.7353612125694 -0.027318395465499634 0.0018891056156462582 -0.027318395465499634 -9999.5886833302957 0.44841587517537596 0.0010547331199247806 -0.036719839890885342 0.0010547331199247806 -2499.6902949453183 -0.044219565508421321 -0.036719839890885342 -0.044219565508421321 -9999.5310935393554 0.37338051057486155 0.00081121494170027569 0.007847044892514532 0.00081121494170027569 -2499.7533152233746 -0.018458817423834262 0.007847044892514532 -0.018458817423834262 -9999.608069794378 0.37013246139258626 0.0037005152052676446 0.015802116261445481 0.0037005152052676446 -2499.7302386367901 -0.079711612252303055 0.015802116261445481 -0.079711612252303055 -9999.6394848098444 0.42372012323357922 -0.010248006377073571 0.0041594372223698883 -0.010248006377073571 -2499.681605361563 -0.088030591703391448 0.0041594372223698883 -0.088030591703391448 -9999.4819377452368 0.43289662682180663 -0.0032046386983696842 0.014884788184669706 -0.0032046386983696842 -2499.6628427666451 -0.077762776881006551 0.014884788184669706 -0.077762776881006551 -9999.4629858809658 0.3749539054683737 -0.0080022650810860352 -0.0039054112203302793 -0.0080022650810860352 -2499.7709957096845 -0.041287524571998802 -0.0039054112203302793 -0.041287524571998802 -9999.5815921503672 0.36544082038790293 -0.0057137434266025435 -0.0031068119546375783 -0.0057137434266025435 -2499.7749647421892 -0.030559742750483565 -0.0031068119546375783 -0.030559742750483565 -9999.6188132356001 0.38199982849164371 0.00060606048891533731 0.0038297300670819823 0.00060606048891533731 -2499.7328957346144 -0.0057885035806748419 0.0038297300670819823 -0.0057885035806748419 -9999.6163217053272 0.36090969992380906 0.0072198953170747836 -0.0034872187443397706 0.0072198953170747836 -2499.7436099392044 -0.00089748032132774824 -0.0034872187443397706 -0.00089748032132774824 -9999.6292158238539 0.3756400625952665 -0.025609793417997927 0.0045525488376370049 -0.025609793417997927 -2499.7419299734593 -0.00065005962051145616 0.0045525488376370049 -0.00065005962051145616 -9999.594033769612 0.37539455882961192 0.00062198848674331619 0.0052052314854336146 0.00062198848674331619 -2499.7690025477486 -0.034897512411475873 0.0052052314854336146 -0.034897512411475873 -9999.6204798843537 0.37036134494371709 0.0053216191778370815 -0.013436271268801647 0.0053216191778370815 -2499.7331390099303 -0.0047285200671467464 -0.013436271268801647 -0.0047285200671467464 -9999.5903322923514 0.37771486527162779 0.012184014781631362 0.0076843995657327469 0.012184014781631362 -2499.7858662709359 -0.013713048703721142 0.0076843995657327469 -0.013713048703721142 -9999.6395348446313 0.37322394967759465 -0.02192997791762278 0.0027321170082359458 -0.02192997791762278 -2499.7537756745796 0.0088876805243671697 0.0027321170082359458 0.0088876805243671697 -9999.620696881022 0.38765351180336438 0.0076941523349235291 -0.01543298175874952 0.0076941523349235291 -2499.7365209549298 -0.0042397853471811686 -0.01543298175874952 -0.0042397853471811686 -9999.5866112148669 0.38711626404619892 0.0081078558386522143 -0.004534434195193171 0.0081078558386522143 -2499.7380615069505 0.00022894149833518895 -0.004534434195193171 0.00022894149833518895 -9999.608229626414 0.37864698039629729 -0.019353439860172475 0.0027746976538765011 -0.019353439860172475 -2499.7339942957678 0.01747837258153595 0.0027746976538765011 0.01747837258153595 -9999.6083541484513 0.37458943476667628 -0.0017824370420333399 0.0054177354077182827 -0.0017824370420333399 -2499.7483519764769 0.0037746449396296455 0.0054177354077182827 0.0037746449396296455 -9999.6281857218455 0.37500551191715203 -0.001148393978395796 0.0079630722539150156 -0.001148393978395796 -2499.7531247512497 0.00084813337434752611 0.0079630722539150156 0.00084813337434752611 -9999.6291532587111 0.37578776849932183 -0.0021168213379939597 0.0071966859725307586 -0.0021168213379939597 -2499.7497498921066 0.0015352265836554579 0.0071966859725307586 0.0015352265836554579 -9999.6303776011664 0.36848603133287838 -0.0030621150777938098 0.010365547223045724 -0.0030621150777938098 -2499.7481995515213 0.0042608185640347074 0.010365547223045724 0.0042608185640347074 -9999.6034316392052 0.39044552962207035 -0.0029608824335836453 0.0075290876875442336 -0.0029608824335836453 -2499.7256741681831 -0.0032273180308948213 0.0075290876875442336 -0.0032273180308948213 -9999.5380324846628 0.3738019606156629 -0.002181373536833453 0.11275777149070881 -0.002181373536833453 -2499.7339466691283 0.035464931873541453 0.11275777149070881 0.035464931873541453 -9999.6078405006356 0.3782374969768455 0.0031581820806118469 -0.014073389896006039 0.0031581820806118469 -2499.7410305315552 0.013423918722408864 -0.014073389896006039 0.013423918722408864 -9999.55220196954 0.36611389991276155 -0.00053306151802071057 0.097869487322668647 -0.00053306151802071057 -2499.7529090101925 0.059642974791586312 0.097869487322668647 0.059642974791586312 -9999.6292934845078 0.38394224514312414 0.011651942367044432 -0.0022926190227958859 0.011651942367044432 -2499.7178167150014 0.026169680697824604 -0.0022926190227958859 0.026169680697824604 -9999.5624401844489 0.36958706482334946 0.0084745123967576753 0.025682183867502317 0.0084745123967576753 -2499.7367468544103 -0.06501174564300527 0.025682183867502317 -0.06501174564300527 -9999.6716129313427 0.35403490168357621 0.009453433759979691 -0.015003446108948992 0.009453433759979691 -2499.7708120953248 -0.0016525087462468946 -0.015003446108948992 -0.0016525087462468946 -9999.7242511364238 0.40689641606482285 0.0050733284235762646 -0.025729727715714329 0.0050733284235762646 -2499.7262791130015 -0.011768005356324107 -0.025729727715714329 -0.011768005356324107 -9999.5921679408057 0.40711648830665581 -0.004815909158057732 0.070234814659897782 -0.004815909158057732 -2499.7279146769283 0.087802256450239702 0.070234814659897782 0.087802256450239702 -9999.5345252630286 0.33047933887337422 -3.0007447742157016e-05 0.076426739747603278 -3.0007447742157016e-05 -2499.7572420990291 0.051250278715087916 0.076426739747603278 0.051250278715087916 -9999.7547213803391 0.37917495769340803 -0.0055626896115363346 0.0053811754887647112 -0.0055626896115363346 -2499.7503160640631 0.011261206924928047 0.0053811754887647112 0.011261206924928047 -9999.687026824522 0.33121399421997921 0.0057393512402533417 -0.0012250975726146862 0.0057393512402533417 -2499.7791488472676 -0.0018488359355615103 -0.0012250975726146862 -0.0018488359355615103 -9999.7404980916344 0.34356641741396743 -0.0066399994003009284 0.066521200450259388 -0.0066399994003009284 -2499.7505630287014 0.031578342570927287 0.066521200450259388 0.031578342570927287 -9999.5731090605841 0.35545028280910174 0.0007559578029654678 0.026407756710796093 0.0007559578029654678 -2499.7642572730974 -0.0046756415135860152 0.026407756710796093 -0.0046756415135860152 -9999.7071764069879 0.36911365266792018 0.0019610876586087602 0.011068679127674841 0.0019610876586087602 -2499.7767480879947 0.0031665199169310654 0.011068679127674841 0.0031665199169310654 -9999.6994106537677 0.36273569775369197 0.0023127814139908762 0.0084990120485599618 0.0023127814139908762 -2499.7511098061577 -0.025934831700851646 0.0084990120485599618 -0.025934831700851646 -9999.6860773187473 0.37774817272247674 -0.009007161895229189 -0.00025861189371229054 -0.009007161895229189 -2499.7448059744343 0.064240904126841705 -0.00025861189371229054 0.064240904126841705 -9999.5663925902772 0.35322361976886896 0.0063090317535270425 0.026578607787087094 0.0063090317535270425 -2499.7730864039258 -0.056654886239812186 0.026578607787087094 -0.056654886239812186 -9999.701003620401 0.37214416238566628 0.0054381544654500472 -0.011579287642204117 0.0054381544654500472 -2499.7277139713724 -0.070433885663434614 -0.011579287642204117 -0.070433885663434614 -9999.6262966848572 0.37719455266278601 0.0018795545033902638 0.013109391357222791 0.0018795545033902638 -2499.7704942685059 -0.075805185061139702 0.013109391357222791 -0.075805185061139702 -9999.6083156683599 0.32272097754004536 0.0066067220966689131 0.071048081513432629 0.0066067220966689131 -2499.8051298073251 0.020883870248536468 0.071048081513432629 0.020883870248536468 -9999.7932528909532 0.39314520818288656 0.0048951485696374555 0.0047697089746208121 0.0048951485696374555 -2499.7334521769794 -0.0075386981825431576 0.0047697089746208121 -0.0075386981825431576 -9999.6060669299295 0.38265338528526627 0.00097393127660572274 0.0075560165087864561 0.00097393127660572274 -2499.7477359300074 -0.00014035955973668024 0.0075560165087864561 -0.00014035955973668024 -9999.6313737604396 0.38487517920111713 0.0033273371122045244 0.0099173689381473196 0.0033273371122045244 -2499.7453387661917 0.0020168653627479216 0.0099173689381473196 0.0020168653627479216 -9999.6251333833534 0.38260208691917796 0.0028468528890655898 0.0053303878275983152 0.0028468528890655898 -2499.7431876821884 0.0058351682409920613 0.0053303878275983152 0.0058351682409920613 -9999.6263490607562 0.37499332623883674 0.00071894630397873263 0.00093056980858818861 0.00071894630397873263 -2499.7455810782376 -0.0010704218150294764 0.00093056980858818861 -0.0010704218150294764 -9999.643052971016 0.39567168620993698 -0.0044243859375723785 0.006568175448137481 -0.0044243859375723785 -2499.735312648781 0.005951580701093917 0.006568175448137481 0.005951580701093917 -9999.6332024337844 0.39289505968918093 0.0062808755075489803 0.0060453220567211474 0.0062808755075489803 -2499.7217971783757 -0.0077102653031033697 0.0060453220567211474 -0.0077102653031033697 -9999.6188566316523 0.3776228521774101 -0.00019061271194772186 0.0032165844359042239 -0.00019061271194772186 -2499.7512959090323 -0.00082184199345647357 0.0032165844359042239 -0.00082184199345647357 -9999.6418477742482 0.36827362264011754 -0.0022910126159450817 0.0068441222115325218 -0.0022910126159450817 -2499.7546740918256 -0.015921529616775842 0.0068441222115325218 -0.015921529616775842 -9999.655551039581 0.37876455478499338 0.0021021710312010035 0.0026881454105023295 0.0021021710312010035 -2499.7433812971653 -0.012599739839060931 0.0026881454105023295 -0.012599739839060931 -9999.6278879356032 0.39399178421854231 0.0024307954298469631 0.0031138290241869981 0.0024307954298469631 -2499.7186338198276 0.0017007268343149917 0.0031138290241869981 0.0017007268343149917 -9999.5917415638432 0.37238941540636006 0.0062262366379099432 0.0091725457359643769 0.0062262366379099432 -2499.7478953753862 -0.0057161081249432755 0.0091725457359643769 -0.0057161081249432755 -9999.6462158326594 0.36858897346155572 0.023607030626215643 -0.0021649420724543234 0.023607030626215643 -2499.7804621152418 -0.014742000482783624 -0.0021649420724543234 -0.014742000482783624 -9999.6434147442706 0.37469957619214256 0.0056382105706545456 0.0098100070273403617 0.0056382105706545456 -2499.7450063234446 -0.012930693371060897 0.0098100070273403617 -0.012930693371060897 -9999.6402525292906 0.37531693762412033 -0.0030850839512443773 0.00064947092869260814 -0.0030850839512443773 -2499.7479617693361 -0.01696586259004107 0.00064947092869260814 -0.01696586259004107 -9999.6333359364344 0.38562200001524616 0.013262867606638348 0.0023395003827317851 0.013262867606638348 -2499.7422169348274 -0.001623978670068027 0.0023395003827317851 -0.001623978670068027 -9999.5989107501809 0.38652576381446124 0.023368034832046164 -0.0020661924118030583 0.023368034832046164 -2499.7441538421981 0.0039173773984657601 -0.0020661924118030583 0.0039173773984657601 -9999.6060375958259 0.39239078983700892 0.0064426278376465088 0.011071616258391259 0.0064426278376465088 -2499.7159169780007 0.003916262432539952 0.011071616258391259 0.003916262432539952 -9999.5988295450043 0.39271518919031223 0.024150464908787032 -0.0052310812947098384 0.024150464908787032 -2499.7522436106606 -0.030386529816496477 -0.0052310812947098384 -0.030386529816496477 -9999.5751715270708 0.37443736642421754 -0.00029683707288753747 -0.0035428583605607855 -0.00029683707288753747 -2499.7545950538629 -0.015616774929043231 -0.0035428583605607855 -0.015616774929043231 -9999.5767517243603 0.40224802782108782 -0.0062108944768478995 0.016276619782274793 -0.0062108944768478995 -2499.7358526914568 -0.028499482471033843 0.016276619782274793 -0.028499482471033843 -9999.5422120796593 0.39055433702765185 -0.006501564982950115 0.0098359252469890635 -0.006501564982950115 -2499.7456919330052 -0.025843193747050464 0.0098359252469890635 -0.025843193747050464 -9999.5743245748163 0.35841742833571288 -0.00055590013913289771 -0.006178774857744429 -0.00055590013913289771 -2499.7761794925559 -0.031235871020243167 -0.006178774857744429 -0.031235871020243167 -9999.6201637298091 0.38032217843783656 0.002576896064491116 0.008231757740759349 0.002576896064491116 -2499.7685580300995 -0.072789610206655198 0.008231757740759349 -0.072789610206655198 -9999.5982877045681 0.42239591956627009 0.004108431586885529 -0.012170322465863137 0.004108431586885529 -2499.6928972113819 -0.094794906053039085 -0.012170322465863137 -0.094794906053039085 -9999.4488480859945 0.445226913942675 -0.010243212038069396 -0.014860544131429787 -0.010243212038069396 -2499.671795875608 -0.096926934400131948 -0.014860544131429787 -0.096926934400131948 -9999.446484057853 0.37216576358521614 -0.010702539798797928 -0.011259460272513788 -0.010702539798797928 -2499.752936275082 -0.070541911012247022 -0.011259460272513788 -0.070541911012247022 -9999.6325870698201 0.38165451248369209 -0.019116429671351708 -0.0070670131362362554 -0.019116429671351708 -2499.7316197653049 -0.026684823409141245 -0.0070670131362362554 -0.026684823409141245 -9999.6032293382359 0.44614078150045083 -0.0021591229226774755 0.042001192326427184 -0.0021591229226774755 -2499.6811305915448 -0.046642236065558978 0.042001192326427184 -0.046642236065558978 -9999.5345164544051 0.44546210342923587 -0.013436253551578209 -0.019834216268894672 -0.013436253551578209 -2499.6599034555475 -0.082607279602174011 -0.019834216268894672 -0.082607279602174011 -9999.4267677445969 0.40958678977403906 0.0023744531073882635 0.019802626843556936 0.0023744531073882635 -2499.719624011243 -0.02196306142514004 0.019802626843556936 -0.02196306142514004 -9999.531658599919 0.4061016276709779 -0.014554873110867924 0.041558209879440255 -0.014554873110867924 -2499.7668153594032 0.012348110626362541 0.041558209879440255 0.012348110626362541 -9999.614974469534 0.3502534513795581 -0.018618700345170002 0.046316673212402293 -0.018618700345170002 -2499.8383328488958 -0.035899172889912734 0.046316673212402293 -0.035899172889912734 -9999.786436486911 0.39868530469811958 0.0057653485826353202 -0.012293046203694757 0.0057653485826353202 -2499.7826730497909 0.023229192809822052 -0.012293046203694757 0.023229192809822052 -9999.6418082037108 0.4157177414126938 0.0046446517733586788 0.032666962400786974 0.0046446517733586788 -2499.7536754005059 -0.11219517692737224 0.032666962400786974 -0.11219517692737224 -9999.5731310618194 0.40806714256939425 0.029424719825424425 0.093465559858504355 0.029424719825424425 -2499.6957340879835 -0.066242215445984409 0.093465559858504355 -0.066242215445984409 -9999.4524476728493 0.3398068008135503 0.015872823658494559 0.096540594723809992 0.015872823658494559 -2499.7764439048733 0.033563509524568408 0.096540594723809992 0.033563509524568408 -9999.6877046975605 0.34359052919307942 0.0038821293174291505 0.099463667083455221 0.0038821293174291505 -2499.7767438929714 0.010968552051053848 0.099463667083455221 0.010968552051053848 -9999.7073251535803 0.40084317653020207 0.0050473900297426655 -0.023669851677141196 0.0050473900297426655 -2499.7397877515391 0.0074683067346086318 -0.023669851677141196 0.0074683067346086318 -9999.6139521334862 0.40586360115048592 -0.0012789284514310613 -0.01982637582523239 -0.0012789284514310613 -2499.7343949227215 -0.0059535464929467707 -0.01982637582523239 -0.0059535464929467707 -9999.6195812623755 0.37078678809249299 0.017173634001743075 -0.033118458745796803 0.017173634001743075 -2499.7793126005804 0.076002275505558381 -0.033118458745796803 0.076002275505558381 -9999.7033066111017 0.41573192138343984 0.0061086880133804471 0.0077308897211878502 0.0061086880133804471 -2499.7372835604174 -0.00077817620376663399 0.0077308897211878502 -0.00077817620376663399 -9999.6123842020388 0.34332891407336774 0.0017656289422256152 -0.0073280509632240864 0.0017656289422256152 -2499.8537284950676 -0.025168124767105837 -0.0073280509632240864 -0.025168124767105837 -9999.811427359351 0.33108346648339404 -0.00033336241671517823 -0.058775678581754046 -0.00033336241671517823 -2499.7996690920641 0.032241855334224689 -0.058775678581754046 0.032241855334224689 -9999.7738253998941 0.35440677255310027 -0.0013007251099389702 -0.037234315654219835 -0.0013007251099389702 -2499.7857351360381 -0.083532139734476041 -0.037234315654219835 -0.083532139734476041 -9999.6774887628399 0.39744215348400758 0.0077271786181306173 0.0014532294198943418 0.0077271786181306173 -2499.7059236761879 -0.026456555205186305 0.0014532294198943418 -0.026456555205186305 -9999.5383580202979 0.38644559677399248 -0.012002561511938511 -0.062209579937992393 -0.012002561511938511 -2499.7177395331855 -0.040578486137074599 -0.062209579937992393 -0.040578486137074599 -9999.5809463042187 0.33469319969951911 0.018728286071681748 -0.0104773848870785 0.018728286071681748 -2499.7397407615281 -0.14314304418183271 -0.0104773848870785 -0.14314304418183271 -9999.5379225044308 0.37730122998436855 0.0023934263696461164 -0.011860721903303784 0.0023934263696461164 -2499.7741996085006 0.025983138324590982 -0.011860721903303784 0.025983138324590982 -9999.6443145427766 0.37097728048684075 -0.012473829791262894 -0.019663061362734879 -0.012473829791262894 -2499.7464093356225 -0.0034896679430858057 -0.019663061362734879 -0.0034896679430858057 -9999.6298109499567 0.39558833036062424 -0.013033375609020764 -0.0025288181195719517 -0.013033375609020764 -2499.7508104148283 -0.0099143993911638972 -0.0025288181195719517 -0.0099143993911638972 -9999.6040440534343 0.37900392145184014 -0.0017661400618035408 0.011576628254260868 -0.0017661400618035408 -2499.7351807974201 -0.012144385425926885 0.011576628254260868 -0.012144385425926885 -9999.6377914330587 0.38259298838738687 -0.0034628787124061991 -0.0037429868443723535 -0.0034628787124061991 -2499.7349173437169 -0.01027542531301151 -0.0037429868443723535 -0.01027542531301151 -9999.6422544168618 0.38449594612507099 -0.0062536177752356009 -0.0070373121170632658 -0.0062536177752356009 -2499.72997426859 0.010345076047087787 -0.0070373121170632658 0.010345076047087787 -9999.6436881760274 0.38610610288014868 -0.011915262480985907 0.0044868085988127859 -0.011915262480985907 -2499.7486540703176 -0.015348239590821322 0.0044868085988127859 -0.015348239590821322 -9999.6197325204121 0.38341710182521638 -0.016337731541667184 0.0053535806127911201 -0.016337731541667184 -2499.7436631340925 -0.014510135078126041 0.0053535806127911201 -0.014510135078126041 -9999.6194346599223 0.38864906248636544 -0.010559352411635248 0.0039635476050534635 -0.010559352411635248 -2499.7456742410668 -0.015902068135801528 0.0039635476050534635 -0.015902068135801528 -9999.6181396396205 0.37947875130157627 -0.0020298009218636531 0.0011092526092397748 -0.0020298009218636531 -2499.7639159552218 -0.0042000014564109733 0.0011092526092397748 -0.0042000014564109733 -9999.6321874451605 0.37735366679612525 -0.0027324125610171182 0.001406627040296371 -0.0027324125610171182 -2499.7650132261178 -0.0039910257692099549 0.001406627040296371 -0.0039910257692099549 -9999.6330457724271 0.38343693032220472 -0.0039096593839430711 0.00021820662914251443 -0.0039096593839430711 -2499.7451500528741 0.00090674810962809715 0.00021820662914251443 0.00090674810962809715 -9999.6280958739608 0.37554093772052966 0.00053194627295249843 -0.012662764350352518 0.00053194627295249843 -2499.7501950724109 0.012376989164295082 -0.012662764350352518 0.012376989164295082 -9999.6479402595614 0.38667067204914929 -0.0049979970142717866 -0.0065396358727412007 -0.0049979970142717866 -2499.7371747806401 0.0057928289024857804 -0.0065396358727412007 0.0057928289024857804 -9999.6221033921447 0.38217019975263611 -0.0023939683038579507 -0.0032073074662548606 -0.0023939683038579507 -2499.7369358324081 -1.1545758752617985e-05 -0.0032073074662548606 -1.1545758752617985e-05 -9999.6358331511419 0.37985982897862414 -0.0036808883100909384 -0.0026883398236350331 -0.0036808883100909384 -2499.7420180881877 0.001053365179359389 -0.0026883398236350331 0.001053365179359389 -9999.6375596884045 0.38850372166234592 -0.0038611933160741857 -0.00680223630843102 -0.0038611933160741857 -2499.732472447211 0.0052683117228298215 -0.00680223630843102 0.0052683117228298215 -9999.621419057914 0.38386655050226182 -0.0032235448012341364 -0.007641984999622764 -0.0032235448012341364 -2499.7355649998581 -0.00058857539943346637 -0.007641984999622764 -0.00058857539943346637 -9999.6377559678385 0.37745962030112423 -0.003646390120498237 -0.0039904067352836137 -0.003646390120498237 -2499.7436494345525 0.0025450974144405336 -0.0039904067352836137 0.0025450974144405336 -9999.6537753326302 0.37672902540907671 -0.0032996635049699027 -0.0049680172907073938 -0.0032996635049699027 -2499.7391971265547 0.0017391171909366676 -0.0049680172907073938 0.0017391171909366676 -9999.6605962142421 0.38053751779898448 -0.0010590392199045658 -0.0065787074336185469 -0.0010590392199045658 -2499.7423446441881 0.0044234154811420012 -0.0065787074336185469 0.0044234154811420012 -9999.6208644857998 0.38425196240132209 -0.00045233382747100108 -0.0057274489363408065 -0.00045233382747100108 -2499.7386545221443 0.011329206547799231 -0.0057274489363408065 0.011329206547799231 -9999.6101713179705 0.37747268675366286 0.0041997300516862851 -0.0092615713419945678 0.0041997300516862851 -2499.7467286328233 0.011127809838399116 -0.0092615713419945678 0.011127809838399116 -9999.6329292402079 0.37157906473921776 -0.0057691172052234266 -0.005188751635063063 -0.0057691172052234266 -2499.7488481990654 -0.00082891417541356913 -0.005188751635063063 -0.00082891417541356913 -9999.6957231754513 0.39041325893890644 -0.0056520311065828034 -0.012310182470173459 -0.0056520311065828034 -2499.7245532665866 0.0080738269816720276 -0.012310182470173459 0.0080738269816720276 -9999.6235619551026 0.38032122631398124 0.0057632533955926215 -0.022559628657290887 0.0057632533955926215 -2499.735724523588 0.024742101219089818 -0.022559628657290887 0.024742101219089818 -9999.6004557974848 0.33202389430134149 -0.0086988544541112406 -0.055789231732977118 -0.0086988544541112406 -2499.7685987951322 0.0035967215763158117 -0.055789231732977118 0.0035967215763158117 -9999.7396082239993 0.35842345844753254 -0.0078211388549760466 -0.032032065457315184 -0.0078211388549760466 -2499.7670629674258 -0.0022586144859815249 -0.032032065457315184 -0.0022586144859815249 -9999.7545329101667 0.38872106877943224 -0.0069321511719376561 -0.011356262283698015 -0.0069321511719376561 -2499.7326139274273 0.0078324305201817879 -0.011356262283698015 0.0078324305201817879 -9999.6238918228009 0.33091002634129602 0.013079736938786208 -0.037562546594493124 0.013079736938786208 -2499.7716580814313 0.064460935050574902 -0.037562546594493124 0.064460935050574902 -9999.6622264160378 0.35886761473531481 0.013433717210115898 -0.02009829947283806 0.013433717210115898 -2499.7705408539723 0.02324338843369303 -0.02009829947283806 0.02324338843369303 -9999.6495645239193 0.31672848189797498 0.010579381986404759 -0.070268993069029784 0.010579381986404759 -2499.7934333381622 0.024730362678555579 -0.070268993069029784 0.024730362678555579 -9999.7007429545101 0.35876638115763348 0.0077469948169366573 0.010606590462648946 0.0077469948169366573 -2499.7719904383198 -0.080450191415833039 0.010606590462648946 -0.080450191415833039 -9999.6032126484697 0.35977695303019219 0.020298369956515919 -0.039506585398873223 0.020298369956515919 -2499.7650711629221 0.020859758594545141 -0.039506585398873223 0.020859758594545141 -9999.5887352164227 0.37601372095640118 -0.0073286127060619728 -0.016718121849777126 -0.0073286127060619728 -2499.757383993347 -0.026957503785711379 -0.016718121849777126 -0.026957503785711379 -9999.6729676472187 0.33881549643697362 0.012761499956529029 -0.028580482634308013 0.012761499956529029 -2499.7640741633768 0.025601084451975883 -0.028580482634308013 0.025601084451975883 -9999.6043560122016 0.35652820284872178 0.0060650132739941097 -0.020808876710589175 0.0060650132739941097 -2499.7384377043645 0.011822418639440002 -0.020808876710589175 0.011822418639440002 -9999.5782285497025 0.37246287442303583 0.0079234528048944333 -0.038476935627454106 0.0079234528048944333 -2499.7255632476772 0.04316751593305751 -0.038476935627454106 0.04316751593305751 -9999.5230883562581 0.39307289153111924 0.007282595871037122 -0.0079569900044589303 0.007282595871037122 -2499.7686833533289 -0.096765184660284831 -0.0079569900044589303 -0.096765184660284831 -9999.5804998207423 0.3598221961829583 0.0048894944141342316 -0.030702009136985314 0.0048894944141342316 -2499.7113475456667 0.043121607196550393 -0.030702009136985314 0.043121607196550393 -9999.5287568709773 0.36562171065747862 0.014820859324600701 -0.010596353553342819 0.014820859324600701 -2499.7453865457082 0.006165914010580309 -0.010596353553342819 0.006165914010580309 -9999.4664057572663 0.40541728966491064 0.013856350971971843 -8.9274571564601501e-05 0.013856350971971843 -2499.7434301791473 0.03119271593141093 -8.9274571564601501e-05 0.03119271593141093 -9999.5600701323565 0.34916337057749658 -0.0013664312848602491 -0.033017090770993685 -0.0013664312848602491 -2499.7422792528782 0.047217902864192446 -0.033017090770993685 0.047217902864192446 -9999.6493870794147 0.3854180247998617 -0.0059248193960536061 -0.0092102516682026347 -0.0059248193960536061 -2499.7248541876083 0.042773597412495534 -0.0092102516682026347 0.042773597412495534 -9999.6208622375962 0.39634828755174417 0.0028657023005982671 -0.0067838380833649681 0.0028657023005982671 -2499.7559844207317 0.020523529032984177 -0.0067838380833649681 0.020523529032984177 -9999.5374386531294 0.37816201181067299 -0.0002567882594131099 -0.017336780359528348 -0.0002567882594131099 -2499.7705272283401 0.0048479387231594728 -0.017336780359528348 0.0048479387231594728 -9999.5798057096017 0.36287664869200786 -0.0005565888764534066 0.012159656123012633 -0.0005565888764534066 -2499.698533446021 -0.037041957815260651 0.012159656123012633 -0.037041957815260651 -9999.5414976367028 0.36477329052255725 -0.023036027648454853 -0.02691450393658476 -0.023036027648454853 -2499.7613445488578 -0.082294366443478206 -0.02691450393658476 -0.082294366443478206 -9999.4597531945528 0.35225864488984371 -0.040735095614797295 -0.047202359217088319 -0.040735095614797295 -2499.7435642541368 -0.020789073044852557 -0.047202359217088319 -0.020789073044852557 -9999.5668251579154 0.37449477543941612 0.030646795790154398 0.021867427829420194 0.030646795790154398 -2499.7223719761141 -0.0046104092416499043 0.021867427829420194 -0.0046104092416499043 -9999.6377510381026 0.38653678539731118 0.012799717944033805 0.047759499649935699 0.012799717944033805 -2499.7495607190967 -0.077788577448609814 0.047759499649935699 -0.077788577448609814 -9999.5193698316634 0.38121123859673389 -0.0072158032970241863 -0.021431861665860197 -0.0072158032970241863 -2499.7368036645557 -0.043073825396504617 -0.021431861665860197 -0.043073825396504617 -9999.6060140822865 0.37402517807140612 -0.010750129375955087 -0.017336673944555514 -0.010750129375955087 -2499.761664184015 -0.039270226137887221 -0.017336673944555514 -0.039270226137887221 -9999.7002105952561 0.39757493580782466 -0.0019473769230663428 -0.0034789153473866463 -0.0019473769230663428 -2499.7643217952045 -0.022836046100565 -0.0034789153473866463 -0.022836046100565 -9999.6527873788455 0.36521929649029516 0.0026369774361528521 -0.0098899195604644774 0.0026369774361528521 -2499.8118416788702 0.0053474200208256661 -0.0098899195604644774 0.0053474200208256661 -9999.7496788915232 0.33571951344265472 0.013971853255505292 0.059079160072144532 0.013971853255505292 -2499.7872770252548 0.037889046501732082 0.059079160072144532 0.037889046501732082 -9999.6854379789002 0.37720093691314105 0.0011876632060013707 -0.0077125875059209648 0.0011876632060013707 -2499.7573790173683 -0.02064640479056834 -0.0077125875059209648 -0.02064640479056834 -9999.6572590097931 0.36771219963338808 0.0047440859676500177 -0.015718749190909875 0.0047440859676500177 -2499.7414143711721 -0.0036565253753906291 -0.015718749190909875 -0.0036565253753906291 -9999.6350818836909 0.32643047902865874 -0.01127486690070939 -0.020057195317191634 -0.01127486690070939 -2499.7078555432408 0.093266668272617814 -0.020057195317191634 0.093266668272617814 -9999.5864600779514 0.39159442868951472 -0.0020472890436315089 0.0017918901453413127 -0.0020472890436315089 -2499.7093380479168 0.015812426835945914 0.0017918901453413127 0.015812426835945914 -9999.5797820791922 0.3439528264938238 -0.024796964607303539 -0.051237926219720065 -0.024796964607303539 -2499.7422902320595 0.0055005683185073706 -0.051237926219720065 0.0055005683185073706 -9999.5442181014569 0.36413651155322824 0.0022233388983836991 -0.023239443293231604 0.0022233388983836991 -2499.7527133979111 0.048802476701923586 -0.023239443293231604 0.048802476701923586 -9999.6646788401722 0.38693078615301602 0.02210714886918775 0.0088262936528735736 0.02210714886918775 -2499.6871670416672 0.027842810559832287 0.0088262936528735736 0.027842810559832287 -9999.6004750871671 0.35237842379520184 0.0025761368357960918 0.046748170447420689 0.0025761368357960918 -2499.7380945694467 0.058304078549385963 0.046748170447420689 0.058304078549385963 -9999.655464387648 0.37683012966317619 0.0047641931165514819 -0.0010565920611043111 0.0047641931165514819 -2499.7335509696918 0.0061337657475633023 -0.0010565920611043111 0.0061337657475633023 -9999.6334419568921 0.37118411471192303 0.033437596175569316 0.020520723277911657 0.033437596175569316 -2499.7364447413161 0.0065415307190050953 0.020520723277911657 0.0065415307190050953 -9999.6340476051901 0.39249037693120359 -0.0112340348232201 0.025577788509144717 -0.0112340348232201 -2499.747234543674 0.01013030990523256 0.025577788509144717 0.01013030990523256 -9999.5947824940777 0.4258884103223376 0.0044948385041960748 0.044168618062152498 0.0044948385041960748 -2499.6994387542513 0.078865734733624626 0.044168618062152498 0.078865734733624626 -9999.5118922910151 0.39377011680856122 -0.010078309895690862 -0.0066595419274506629 -0.010078309895690862 -2499.7316983255214 0.031595054134384598 -0.0066595419274506629 0.031595054134384598 -9999.5468104226002 0.40021497913525345 -0.0111224116545981 0.018274352377415232 -0.0111224116545981 -2499.7472278401792 0.0503535098706972 0.018274352377415232 0.0503535098706972 -9999.5850682177988 0.41197758338859103 -0.0064454980895949227 0.025659644340976229 -0.0064454980895949227 -2499.7240887290873 0.0071905907730069885 0.025659644340976229 0.0071905907730069885 -9999.5392535299943 0.37253479891451924 -0.0060050844592736781 0.02969401407199998 -0.0060050844592736781 -2499.7709792205442 0.03082325051538376 0.02969401407199998 0.03082325051538376 -9999.6588093501796 0.36318450238611244 -0.0064426275734828092 -0.0034077579557603155 -0.0064426275734828092 -2499.7567598298501 -0.0013679012135575097 -0.0034077579557603155 -0.0013679012135575097 -9999.6442460024173 0.36137364732358995 -0.0093173702689786919 -0.0027488329068064712 -0.0093173702689786919 -2499.7580199972499 0.0080474377822559173 -0.0027488329068064712 0.0080474377822559173 -9999.6501065440189 0.36478325514235621 0.0056031171801492613 -0.051662970572181166 0.0056031171801492613 -2499.761214241893 0.040869968222978059 -0.051662970572181166 0.040869968222978059 -9999.6207822405486 0.37432931509329137 0.0023944597958174309 -0.0022379834117600694 0.0023944597958174309 -2499.740282809631 0.014696711719352606 -0.0022379834117600694 0.014696711719352606 -9999.6455429731304 0.36939566348837616 -0.0074759723994395413 -0.052486103194443329 -0.0074759723994395413 -2499.7444724979132 -0.010479772975720697 -0.052486103194443329 -0.010479772975720697 -9999.6175105321108 0.35841092144205167 -0.0028611114233863706 -0.027204447933627918 -0.0028611114233863706 -2499.7753287889973 0.025328814063976787 -0.027204447933627918 0.025328814063976787 -9999.6662688744655 0.35322801143229299 -0.0027923168491356619 -0.024619666578161059 -0.0027923168491356619 -2499.7601731183267 -0.0037603568039230595 -0.024619666578161059 -0.0037603568039230595 -9999.7016580137115 0.37858386078823969 -0.0090616949897935339 0.010192416301379126 -0.0090616949897935339 -2499.7553985716804 0.017379960017706253 0.010192416301379126 0.017379960017706253 -9999.6948684892996 0.37510022281821875 0.00034279395344915392 0.0089155194846171071 0.00034279395344915392 -2499.7431503969792 -0.0036431058524897253 0.0089155194846171071 -0.0036431058524897253 -9999.6540536606735 0.38212072938813435 -0.0017676728230497309 0.010293944807585831 -0.0017676728230497309 -2499.7658535375385 0.0011680023480948876 0.010293944807585831 0.0011680023480948876 -9999.6594647605889 0.34946312842794214 0.0043142928773037357 0.059725162086718908 0.0043142928773037357 -2499.7376062564581 -0.0086050102639809445 0.059725162086718908 -0.0086050102639809445 -9999.5820413816273 0.381987109451984 0.015338524358657943 -0.032518020692813232 0.015338524358657943 -2499.7303893223948 -0.055778118002910396 -0.032518020692813232 -0.055778118002910396 -9999.60431670043 0.3657773909121933 -0.0017788331375755808 -0.04533253120856845 -0.0017788331375755808 -2499.7450583077671 0.042069320609366578 -0.04533253120856845 0.042069320609366578 -9999.6320731186679 0.38411244352391805 -0.0010731836334255929 0.0045054144662799445 -0.0010731836334255929 -2499.7459374368627 0.00089400830711383605 0.0045054144662799445 0.00089400830711383605 -9999.622483840174 0.37961651377690941 2.5409160125292041e-05 0.0010377707549196202 2.5409160125292041e-05 -2499.7497400556463 0.0036565749452392993 0.0010377707549196202 0.0036565749452392993 -9999.6292045187929 0.38451883312313839 -0.0031862203680624677 0.006654663709241504 -0.0031862203680624677 -2499.744619402707 0.0010582173999864608 0.006654663709241504 0.0010582173999864608 -9999.6247866038902 0.38941490091156084 -0.0035889319162325959 0.0063130102638524477 -0.0035889319162325959 -2499.7535036612221 0.0086554488598267199 0.0063130102638524477 0.0086554488598267199 -9999.6399070672524 0.38777693256633938 -0.0019581414488332068 0.0019051750805374468 -0.0019581414488332068 -2499.734198049603 0.0016792063864841111 0.0019051750805374468 0.0016792063864841111 -9999.6252469394385 0.38975424747195575 -0.0016273442592219974 0.0054447965894723893 -0.0016273442592219974 -2499.744926292597 6.6021133534377441e-05 0.0054447965894723893 6.6021133534377441e-05 -9999.6232386429765 0.37720194720895961 0.0083157394824683595 0.0049348355032634572 0.0083157394824683595 -2499.7486111358912 0.0018854598126836208 0.0049348355032634572 0.0018854598126836208 -9999.6314863406224 0.38513180290283344 0.012736587969980881 0.0081124852013090276 0.012736587969980881 -2499.7366854596248 0.011920934439672237 0.0081124852013090276 0.011920934439672237 -9999.6086086844862 0.38149521061859559 0.0081006167111603213 0.0075403107639431255 0.0081006167111603213 -2499.738431610459 0.013949416787454538 0.0075403107639431255 0.013949416787454538 -9999.6316361494319 0.37863074090626014 0.0041692636574772284 0.0003601569878810551 0.0041692636574772284 -2499.7660835690294 0.020389285507008026 0.0003601569878810551 0.020389285507008026 -9999.6186000703892 0.38201328860486683 0.0033282260587904535 -0.0043405615488154581 0.0033282260587904535 -2499.7373272637824 0.011676423496282951 -0.0043405615488154581 0.011676423496282951 -9999.6120797215535 0.37703636701553478 0.0043663553858649985 -0.0014714872750118957 0.0043663553858649985 -2499.745149438093 0.0075953382302031969 -0.0014714872750118957 0.0075953382302031969 -9999.63237705356 0.38304281317414279 0.0022442447353518864 0.0020434936604942777 0.0022442447353518864 -2499.7427285933272 0.0057824348837129946 0.0020434936604942777 0.0057824348837129946 -9999.6252647123292 0.3896917401752944 0.0078310997192787765 0.006064023850740341 0.0078310997192787765 -2499.7264895560756 0.020778012596565532 0.006064023850740341 0.020778012596565532 -9999.605346338958 0.38480285905370692 0.0047919679786780078 0.0043593895625235746 0.0047919679786780078 -2499.7479714578594 0.013472493481458514 0.0043593895625235746 0.013472493481458514 -9999.6069593522807 0.37943848999202601 0.0088498535806952744 0.002053667371001211 0.0088498535806952744 -2499.754989645975 0.020821541532313859 0.002053667371001211 0.020821541532313859 -9999.6161503611074 0.37603462779588881 -0.0021511928907629943 0.00042426509207871277 -0.0021511928907629943 -2499.7586780305464 0.021440208932745008 0.00042426509207871277 0.021440208932745008 -9999.6173321557471 0.38617444839474047 0.0042215008562182478 -0.0032808727531801196 0.0042215008562182478 -2499.7512800685608 -9.554678206313838e-05 -0.0032808727531801196 -9.554678206313838e-05 -9999.6251190181938 0.3849104520304536 0.0047862323393026047 -0.0100020463405599 0.0047862323393026047 -2499.7523045756489 -0.0057562042454719631 -0.0100020463405599 -0.0057562042454719631 -9999.6312448998233 0.37465414673897612 0.010696073247168328 0.0038545715578948148 0.010696073247168328 -2499.7513322484538 0.0019266471426817589 0.0038545715578948148 0.0019266471426817589 -9999.6282184581942 0.38335155308973867 0.0053087490710131378 -0.0044824791093560634 0.0053087490710131378 -2499.7524999509465 -3.6841702240053564e-06 -0.0044824791093560634 -3.6841702240053564e-06 -9999.6258180768364 0.37533623011626105 -0.003726113853061902 -0.0031488581626035739 -0.003726113853061902 -2499.717704057151 -0.00064397194091725396 -0.0031488581626035739 -0.00064397194091725396 -9999.6191950562406 0.37592507784574991 -0.0092470136877015607 -0.0020102600265090587 -0.0092470136877015607 -2499.7193469047597 -0.0066485878523963038 -0.0020102600265090587 -0.0066485878523963038 -9999.6096970490034 0.37466349924579845 -0.0079541057304200191 -0.002043279755525873 -0.0079541057304200191 -2499.7227261684875 -0.005196219744902919 -0.002043279755525873 -0.005196219744902919 -9999.6092534942218 0.38096549723650242 0.00094723051361162575 -0.0092561486608246923 0.00094723051361162575 -2499.7274488868616 -0.010728855720117281 -0.0092561486608246923 -0.010728855720117281 -9999.6132971741172 0.38604468339326559 -0.0024664792604790139 -0.0033515196191729046 -0.0024664792604790139 -2499.7338968263084 -0.0076139331122249132 -0.0033515196191729046 -0.0076139331122249132 -9999.6097534505479 0.38124599008244786 -0.0017732182316343818 -0.0026479989246581681 -0.0017732182316343818 -2499.7538000234358 -0.0070474512385771959 -0.0026479989246581681 -0.0070474512385771959 -9999.6154489102373 0.37350658390460012 3.4804409911003836e-05 -0.01117290816091554 3.4804409911003836e-05 -2499.7624224700039 0.015825348492853664 -0.01117290816091554 0.015825348492853664 -9999.6519852125839 0.38524769938067038 5.02024278013595e-06 -0.0075755935108645645 5.02024278013595e-06 -2499.7584849089062 -0.0014613448029194842 -0.0075755935108645645 -0.0014613448029194842 -9999.6116224668858 0.38192503697428037 -0.0010523015969736427 -0.00252211654697021 -0.0010523015969736427 -2499.7482197882955 0.0038347426598193124 -0.00252211654697021 0.0038347426598193124 -9999.6244154088563 0.41024652936630446 2.1029910605499524e-06 -0.00088714327057459741 2.1029910605499524e-06 -2499.7311982180809 -0.017167118028737605 -0.00088714327057459741 -0.017167118028737605 -9999.5364033516325 0.37992295875483251 -0.0010102091271468397 -0.0033570722412150644 -0.0010102091271468397 -2499.7574285736846 0.0025840204179985449 -0.0033570722412150644 0.0025840204179985449 -9999.6257810018487 0.38363649916664144 0.0061429964367557821 -0.010588100211407436 0.0061429964367557821 -2499.7669654959127 0.015674293130587102 -0.010588100211407436 0.015674293130587102 -9999.5959012634776 0.38928917749217362 -0.00077051005846364741 -0.0075251874259265605 -0.00077051005846364741 -2499.7463813931408 0.0018390847035334446 -0.0075251874259265605 0.0018390847035334446 -9999.6064394247514 0.39079232319045332 0.0017156841751581448 -0.017987635644431066 0.0017156841751581448 -2499.727525686666 0.010949318080747616 -0.017987635644431066 0.010949318080747616 -9999.5720330070089 0.38411114618429565 -0.0028114001118587154 -0.0059866639239771757 -0.0028114001118587154 -2499.7446939040037 0.0057173419463651953 -0.0059866639239771757 0.0057173419463651953 -9999.6016412128047 0.38155550343981304 -0.00084325864867921662 -0.0024324864798472845 -0.00084325864867921662 -2499.7453780314172 0.002255346375022782 -0.0024324864798472845 0.002255346375022782 -9999.6241518423049 0.38007807968006091 0.00042588404235479379 -0.0026108267029485432 0.00042588404235479379 -2499.7522303715841 0.004139884917094605 -0.0026108267029485432 0.004139884917094605 -9999.6205103513676 0.3786997830211476 -0.0024447066092305849 -0.0022978646866249619 -0.0024447066092305849 -2499.7437435692318 0.0032941125937213656 -0.0022978646866249619 0.0032941125937213656 -9999.6213995693834 0.38384880087096462 -0.0015393644356580631 -0.0040723194360907655 -0.0015393644356580631 -2499.7456376966825 0.0014903833207426942 -0.0040723194360907655 0.0014903833207426942 -9999.6154571004208 0.37668087621568702 0.00072711665020095718 -0.002379097355515114 0.00072711665020095718 -2499.761425993931 0.0012385748214001069 -0.002379097355515114 0.0012385748214001069 -9999.6254465707934 0.38041541911297827 -0.0012240643404018339 -0.0024844703493727138 -0.0012240643404018339 -2499.7488398306486 0.0008574299640145 -0.0024844703493727138 0.0008574299640145 -9999.6250945547981 0.38000519885360973 -0.0011188869646089556 -0.0023963077564985724 -0.0011188869646089556 -2499.7427322379599 0.0023791278817952843 -0.0023963077564985724 0.0023791278817952843 -9999.6238716121225 0.38122949406715634 0.00075249851183954611 -0.0027735342819141806 0.00075249851183954611 -2499.7482519015302 0.0031338441112893634 -0.0027735342819141806 0.0031338441112893634 -9999.6187474171456 0.37960169702637359 -0.0028009912273367858 -0.0031992252115742303 -0.0028009912273367858 -2499.7450922251737 0.0019705401682585943 -0.0031992252115742303 0.0019705401682585943 -9999.6166616037517 0.38095533174418961 -0.00017843271264688407 -0.0016200984155148035 -0.00017843271264688407 -2499.7425490592286 0.0030962306973378872 -0.0016200984155148035 0.0030962306973378872 -9999.6184032035526 0.38285407217881584 -0.0046225335299466055 -0.0032385277081630193 -0.0046225335299466055 -2499.7378415951698 0.0022641337236564141 -0.0032385277081630193 0.0022641337236564141 -9999.6165548775352 0.38752289809417562 -0.0020892107510628935 -0.0029750831254204968 -0.0020892107510628935 -2499.729025930159 -0.0028080491829314269 -0.0029750831254204968 -0.0028080491829314269 -9999.6089031262181 0.38207135548657334 -0.0029240472847099214 -0.0022038175375200808 -0.0029240472847099214 -2499.7395231936298 0.0013640712541018729 -0.0022038175375200808 0.0013640712541018729 -9999.6199783117881 0.38723042433775845 0.0083380813856450339 -0.0022672286031593103 0.0083380813856450339 -2499.7353734997623 0.00066518325911602005 -0.0022672286031593103 0.00066518325911602005 -9999.6163566931082 0.38374986483540852 -0.0033049098675142913 -0.0031118134047574131 -0.0033049098675142913 -2499.7383060182319 0.0019421739707468078 -0.0031118134047574131 0.0019421739707468078 -9999.6176847886236 0.38446806541105616 -0.003443105608340602 -0.0029597461070807185 -0.003443105608340602 -2499.7357617397493 0.0028477312389441067 -0.0029597461070807185 0.0028477312389441067 -9999.6169248506631 0.38254520919144852 -0.0029570422450566972 -0.0019390796096558915 -0.0029570422450566972 -2499.7373176295459 0.0020935359425493516 -0.0019390796096558915 0.0020935359425493516 -9999.6196159198153 0.37237817821551289 -0.0025563376813071137 0.0023557549939141609 -0.0025563376813071137 -2499.7302575678477 0.012473662294723908 0.0023557549939141609 0.012473662294723908 -9999.6102178095825 0.37127059011959318 -0.0076913823349547272 -0.00331844200809428 -0.0076913823349547272 -2499.7111552199931 -0.00034940210753120482 -0.00331844200809428 -0.00034940210753120482 -9999.6155974980866 0.37281649569922592 -0.0093549618865300943 9.5146150670188945e-05 -0.0093549618865300943 -2499.7198308278475 -0.0064359139068983495 9.5146150670188945e-05 -0.0064359139068983495 -9999.614431127804 0.37360551988399493 -0.011602629593280733 0.00067699316423386335 -0.011602629593280733 -2499.7642752564498 -0.0055367415056934988 0.00067699316423386335 -0.0055367415056934988 -9999.6253516977704 0.37840223507623705 -0.0020849476538789546 0.00047132519102888182 -0.0020849476538789546 -2499.7565617426344 -0.0046424052570728236 0.00047132519102888182 -0.0046424052570728236 -9999.6223002418137 0.3771787253963339 0.01823440749699292 0.0019696789731824538 0.01823440749699292 -2499.7436115451064 -0.020848998758992821 0.0019696789731824538 -0.020848998758992821 -9999.6249366108423 0.38233611672694678 0.010328084518963415 0.0029017907381785335 0.010328084518963415 -2499.7355259405822 -0.026072063668834744 0.0029017907381785335 -0.026072063668834744 -9999.6210339319477 0.38209060866938671 -0.013525944422946565 -0.0012606727632373804 -0.013525944422946565 -2499.7613710444348 -0.0056328414457311737 -0.0012606727632373804 -0.0056328414457311737 -9999.6236776375281 0.38257521656305471 0.0071209163143368046 0.0020400351240823511 0.0071209163143368046 -2499.736784918472 0.014221751112472703 0.0020400351240823511 0.014221751112472703 -9999.619905028736 0.37284340903897828 0.001970581815829436 -0.0021526380558043456 0.001970581815829436 -2499.7759155279564 0.0038337307689744193 -0.0021526380558043456 0.0038337307689744193 -9999.6293549998809 0.3837864611778059 -0.0012472986623877011 0.0010721150119934464 -0.0012472986623877011 -2499.7289279089491 0.00014033544221092598 0.0010721150119934464 0.00014033544221092598 -9999.6188388385963 0.3816906523425132 0.0086398927061064126 0.0012023487361148 0.0086398927061064126 -2499.7374956567764 0.0010563587873093638 0.0012023487361148 0.0010563587873093638 -9999.6227430462095 0.38274242780607892 0.021383933866787726 0.0041690455855132313 0.021383933866787726 -2499.7357374457442 -0.017872032552077144 0.0041690455855132313 -0.017872032552077144 -9999.6188229864274 0.37750607644375123 -0.0017000855143241671 0.0018111992521880893 -0.0017000855143241671 -2499.7481345139513 -0.00015744008283036237 0.0018111992521880893 -0.00015744008283036237 -9999.623381280373 0.38217667587014148 -0.0014381376050004936 0.0012255602879207572 -0.0014381376050004936 -2499.7483207091318 -0.0010495832646029157 0.0012255602879207572 -0.0010495832646029157 -9999.6280893073563 0.38408586485820706 0.00069023218320048542 0.0034447954467395903 0.00069023218320048542 -2499.7448710919889 0.0014506111892842455 0.0034447954467395903 0.0014506111892842455 -9999.6213952898215 0.37854222921487235 1.8755971361603639e-05 0.00072384228951705154 1.8755971361603639e-05 -2499.7472900370703 0.00089656651152836275 0.00072384228951705154 0.00089656651152836275 -9999.6265339065267 0.37971695313626697 7.8485968504687573e-07 0.0012288751190681069 7.8485968504687573e-07 -2499.7447333280352 -0.0010438457411510171 0.0012288751190681069 -0.0010438457411510171 -9999.6239693435418 0.38117363967648998 -0.00023952405501060682 -0.00078639878574904287 -0.00023952405501060682 -2499.7478225437371 0.0014638017607353504 -0.00078639878574904287 0.0014638017607353504 -9999.6227433497843 0.37488392282648419 0.00087865622823009998 0.00073813603012240492 0.00087865622823009998 -2499.7445677843043 0.0011587413831648519 0.00073813603012240492 0.0011587413831648519 -9999.6205493145026 0.37735019325873509 0.0029161646358766211 -0.0003817604874711833 0.0029161646358766211 -2499.7537824191172 0.002463981116306968 -0.0003817604874711833 0.002463981116306968 -9999.6244235854956 0.3804475985375575 7.5480981940283806e-05 0.0002559982876846334 7.5480981940283806e-05 -2499.7455523642611 0.00024048029627010692 0.0002559982876846334 0.00024048029627010692 -9999.6209276766458 0.37679460040362756 0.0025903534962084425 5.8205478126183152e-05 0.0025903534962084425 -2499.7525711663848 0.0033410783489671303 5.8205478126183152e-05 0.0033410783489671303 -9999.6240627066545 0.3800693183684416 0.00081873617434087879 0.00093351120358420303 0.00081873617434087879 -2499.743129879771 0.0011229980918869842 0.00093351120358420303 0.0011229980918869842 -9999.6199818431051 0.37902786215454398 0.0022201981735365103 0.00017832410048868041 0.0022201981735365103 -2499.7498224805113 0.0010036232561105862 0.00017832410048868041 0.0010036232561105862 -9999.6224164660161 0.38088614871685422 -0.00015097920332352997 6.823357762186788e-05 -0.00015097920332352997 -2499.7440685379606 0.00056407006240988267 6.823357762186788e-05 0.00056407006240988267 -9999.6205879077334 0.38000694166476023 0.0026211893106459945 -8.005597919691354e-05 0.0026211893106459945 -2499.7481006825765 -0.00056870372645789757 -8.005597919691354e-05 -0.00056870372645789757 -9999.6181851705915 0.3806991129713424 0.0013531141751928096 0.00011479669410618953 0.0013531141751928096 -2499.7457125282308 0.0014149832313705701 0.00011479669410618953 0.0014149832313705701 -9999.6210841969842 0.37443997944455987 0.00086558508320595806 0.00082759567521861754 0.00086558508320595806 -2499.744984811427 0.00062782848362985533 0.00082759567521861754 0.00062782848362985533 -9999.6219266731932 0.37740235047203896 0.00045777302757092869 0.00062554710893891752 0.00045777302757092869 -2499.7452448852 0.00056912864420155529 0.00062554710893891752 0.00056912864420155529 -9999.621239869346 0.37842464198638481 0.00066051880666448404 0.00070904439417063259 0.00066051880666448404 -2499.7340678348983 -0.0011260233331995551 0.00070904439417063259 -0.0011260233331995551 -9999.6161685112584 0.37639965507241868 0.0055303746653379143 0.00033456187520641834 0.0055303746653379143 -2499.749286800251 -0.0014712613829033216 0.00033456187520641834 -0.0014712613829033216 -9999.6195202196195 0.37454595525923651 0.0031094584651020635 0.00051759992220468121 0.0031094584651020635 -2499.7568246458395 0.0011316517411614768 0.00051759992220468121 0.0011316517411614768 -9999.6284240125387 0.37746635074472579 0.0030192958338699158 -0.00062691495986655354 0.0030192958338699158 -2499.754263437193 0.001108508759898541 -0.00062691495986655354 0.001108508759898541 -9999.6202424202165 0.37991676205274416 0.0034662631664028956 -0.00051631601309054531 0.0034662631664028956 -2499.7463223497289 -5.8774620811163913e-05 -0.00051631601309054531 -5.8774620811163913e-05 -9999.618286236695 0.37859790612856159 0.0055027522036471543 0.00065116492987726815 0.0055027522036471543 -2499.7414439858185 -0.0021622615895466879 0.00065116492987726815 -0.0021622615895466879 -9999.6180247546654 0.38188163212907966 -0.011511742588254395 0.0023058856240822934 -0.011511742588254395 -2499.7235231167579 0.025368428088768269 0.0023058856240822934 0.025368428088768269 -9999.6154815195623 0.38271721160708694 0.0058190862476278638 0.0014952675119275227 0.0058190862476278638 -2499.7395791129529 0.014861761090287473 0.0014952675119275227 0.014861761090287473 -9999.6200791241536 0.38110689775885476 0.0067897821258200014 0.0005633130349451676 0.0067897821258200014 -2499.7484474188827 -0.0016484631942148553 0.0005633130349451676 -0.0016484631942148553 -9999.6181999716537 0.38458470681507606 0.0053581931795830678 0.0027253407351963688 0.0053581931795830678 -2499.7281578975853 -0.0048444751664646901 0.0027253407351963688 -0.0048444751664646901 -9999.6233186039353 0.38787491998664336 0.0046879877747102033 0.0028289485017012339 0.0046879877747102033 -2499.7297674194106 -0.0033511703131807735 0.0028289485017012339 -0.0033511703131807735 -9999.6244336972013 0.37929217475357291 0.0032940675066362723 0.001138584590080427 0.0032940675066362723 -2499.7321578794163 -0.0060480808297143085 0.001138584590080427 -0.0060480808297143085 -9999.6267896633653 0.37811964270258613 0.011310150852003806 0.0050352828584436793 0.011310150852003806 -2499.7432352777141 -0.0031740371832711389 0.0050352828584436793 -0.0031740371832711389 -9999.6244181776347 0.37500238133725361 0.007113794519829659 0.0024140758634985104 0.007113794519829659 -2499.7584955395723 0.013325951977094519 0.0024140758634985104 0.013325951977094519 -9999.627694412593 0.38229820745982579 0.0034414667266223125 0.0018363442604822922 0.0034414667266223125 -2499.7535783806834 0.0008848384786688257 0.0018363442604822922 0.0008848384786688257 -9999.6166898335359 0.38117351165419677 0.003894208969679458 0.001238510790244618 0.003894208969679458 -2499.756658864113 -0.0021584232454188168 0.001238510790244618 -0.0021584232454188168 -9999.6201883571885 0.37692988405251526 0.0045915335822049805 -0.00098265858650847804 0.0045915335822049805 -2499.767300921465 0.019364558187589864 -0.00098265858650847804 0.019364558187589864 -9999.6249987350093 0.37295490502037865 0.013327464189208119 0.0034231332429044414 0.013327464189208119 -2499.7662063541848 0.017781620601454051 0.0034231332429044414 0.017781620601454051 -9999.6281299141847 0.37214929305082478 0.014934910615864092 0.0023323704554059077 0.014934910615864092 -2499.7740165652085 -0.003925239263480762 0.0023323704554059077 -0.003925239263480762 -9999.6242542389991 0.37962092144516646 0.0033173032348653916 0.0031437925827049185 0.0033173032348653916 -2499.7541160569053 0.0023815731583454181 0.0031437925827049185 0.0023815731583454181 -9999.6256160207849 0.37255087403173093 0.014480671417954703 0.0032829027018124179 0.014480671417954703 -2499.7666545140128 -0.0044989438647462521 0.0032829027018124179 -0.0044989438647462521 -9999.6294362208719 0.37505517242061615 -0.010163210584410543 -0.0051366091083764331 -0.010163210584410543 -2499.7575994987365 -0.0086536628205067245 -0.0051366091083764331 -0.0086536628205067245 -9999.6229726406673 0.36943742802941415 -0.0074665050432089902 7.7463944762712345e-05 -0.0074665050432089902 -2499.7454223245168 -0.012337049077359552 7.7463944762712345e-05 -0.012337049077359552 -9999.6266170236449 0.38373464488540776 -0.0012567635936913679 -0.005708388373022899 -0.0012567635936913679 -2499.7324863512677 -0.001008604587696027 -0.005708388373022899 -0.001008604587696027 -9999.6168159457302 0.36541563647006114 -0.014873256219758539 0.0036895598241244443 -0.014873256219758539 -2499.7357252927959 -0.0017229608129127882 0.0036895598241244443 -0.0017229608129127882 -9999.6281708638708 0.37246025967215246 -0.0078605483441733653 0.0049989287108473945 -0.0078605483441733653 -2499.7205297573546 0.019897971367754508 0.0049989287108473945 0.019897971367754508 -9999.6169433262203 0.3697870975411206 -0.012459935744256686 0.0080961331186699681 -0.012459935744256686 -2499.7400268144665 0.0057179806481144624 0.0080961331186699681 0.0057179806481144624 -9999.6159993524052 0.38473543535928911 -0.004491024165676108 0.00081106213110615499 -0.004491024165676108 -2499.7476299618947 0.0061456352559616789 0.00081106213110615499 0.0061456352559616789 -9999.6127212593856 0.37837259046136751 -0.004958547144137522 0.0023200708346848842 -0.004958547144137522 -2499.7764966910836 0.0046642252509627724 0.0023200708346848842 0.0046642252509627724 -9999.6203189849184 0.38097412328716018 -0.0020321894587829181 -0.0013980584972159704 -0.0020321894587829181 -2499.7565596321965 -0.0010101107909576967 -0.0013980584972159704 -0.0010101107909576967 -9999.6188777676798 0.38263160432506993 -0.0038716711704621029 -0.0020290154916438041 -0.0038716711704621029 -2499.7562503958925 -0.0017492720071459189 -0.0020290154916438041 -0.0017492720071459189 -9999.6192910253048 0.3837677472301948 -0.0031260802936417705 -0.0009728204931889195 -0.0031260802936417705 -2499.7496530148555 -0.00086417412603623234 -0.0009728204931889195 -0.00086417412603623234 -9999.6190037718225 0.37772237773742745 -0.0044760555300675103 -0.00010213073619524948 -0.0044760555300675103 -2499.7795861315158 -0.0013612221523544576 -0.00010213073619524948 -0.0013612221523544576 -9999.6235160065899 0.38149104418880597 -0.0011259397985934338 0.00023195715766632929 -0.0011259397985934338 -2499.7494862410695 0.00026625979080563411 0.00023195715766632929 0.00026625979080563411 -9999.6178246447453 0.38093002564528433 -0.0012846036368784758 -6.5820457166410051e-05 -0.0012846036368784758 -2499.7514420333537 -0.00076233686195337214 -6.5820457166410051e-05 -0.00076233686195337214 -9999.6195600797728 0.37912697687761465 -0.00016113547417220827 -0.0010456828404130647 -0.00016113547417220827 -2499.7525535277923 0.00093143334743217565 -0.0010456828404130647 0.00093143334743217565 -9999.621764235224 0.37792828542751522 0.0035045789232903035 -0.0010282993862347212 0.0035045789232903035 -2499.7517657541666 0.0015949978314893087 -0.0010282993862347212 0.0015949978314893087 -9999.6231657412227 0.38012927841282362 -0.00043358352177849598 -0.0018941964754048968 -0.00043358352177849598 -2499.7517430820508 0.0018072359616780886 -0.0018941964754048968 0.0018072359616780886 -9999.6203527368707 0.38063644828616816 0.00089415726473740748 1.9371359485376161e-05 0.00089415726473740748 -2499.7519752872968 0.00081419381422165316 1.9371359485376161e-05 0.00081419381422165316 -9999.6219484095964 0.38014853952336125 0.00046455036662835288 -0.0021983684446240659 0.00046455036662835288 -2499.7505956851091 0.0046350263874046504 -0.0021983684446240659 0.0046350263874046504 -9999.6207057190986 0.37976954272016883 -0.0007802920846343795 -0.001071864568075398 -0.0007802920846343795 -2499.7492105803358 0.0011455495896370849 -0.001071864568075398 0.0011455495896370849 -9999.6202654418594 0.38263501821711543 0.0019417198792390025 -0.00065730758797144517 0.0019417198792390025 -2499.7475317409589 -0.00076399563295126427 -0.00065730758797144517 -0.00076399563295126427 -9999.6191449823091 0.38465358502435265 -0.0027802747118491726 -0.0019948115514125675 -0.0027802747118491726 -2499.737896367591 0.0055646144141974219 -0.0019948115514125675 0.0055646144141974219 -9999.6149478222796 0.37913355005912308 4.1334514566609233e-06 -0.0013365298145799898 4.1334514566609233e-06 -2499.7493507042182 0.0019377107006448568 -0.0013365298145799898 0.0019377107006448568 -9999.6206050826113 0.38019149533101881 -0.00027486563403613805 -0.0022017844603396952 -0.00027486563403613805 -2499.7486254671221 0.0028181851230328903 -0.0022017844603396952 0.0028181851230328903 -9999.6192114007717 0.38080992692630389 -0.00062014065783652151 -0.0013325414183782414 -0.00062014065783652151 -2499.7439598650508 0.0017863089833554113 -0.0013325414183782414 0.0017863089833554113 -9999.6188951919466 0.38039920331721078 -0.00020125207234214602 7.9833189374767244e-06 -0.00020125207234214602 -2499.7475151738381 0.00065747990447562188 7.9833189374767244e-06 0.00065747990447562188 -9999.6217864470927 0.37969933769818454 0.0007000948480575793 -0.00057843695140036289 0.0007000948480575793 -2499.7508508984338 0.00095230629085563123 -0.00057843695140036289 0.00095230629085563123 -9999.6223242003798 0.37821857486414956 0.00016008583414659649 -0.0012100252497475594 0.00016008583414659649 -2499.7512697803541 0.0010533065033087041 -0.0012100252497475594 0.0010533065033087041 -9999.6222522487878 0.37918521990832232 -0.0003712222013351257 -0.00086982210450514685 -0.0003712222013351257 -2499.7490729328183 0.0010541308911342639 -0.00086982210450514685 0.0010541308911342639 -9999.6206203183319 0.37897808557681856 -0.00040237016632953607 -0.0007968176287249662 -0.00040237016632953607 -2499.7509462002308 0.0004927835987018625 -0.0007968176287249662 0.0004927835987018625 -9999.6214186806756 0.37808459707048314 -0.0037409785682871247 -0.0010448409157106653 -0.0037409785682871247 -2499.7510036819476 0.0013551092957868605 -0.0010448409157106653 0.0013551092957868605 -9999.621235083343 0.37955140807389398 0.00056092700814792951 -0.0004599313097060076 0.00056092700814792951 -2499.750256422185 0.00072251156052516308 -0.0004599313097060076 0.00072251156052516308 -9999.6209314323569 0.37929017918941099 -0.0005361330827514544 -0.00099753691938531119 -0.0005361330827514544 -2499.7477315497399 0.00070648094151692931 -0.00099753691938531119 0.00070648094151692931 -9999.6202567382788 0.37947776386863552 0.00068713593259233968 -0.00076380622590477287 0.00068713593259233968 -2499.7496896859593 -0.0020541337385111547 -0.00076380622590477287 -0.0020541337385111547 -9999.6218928435846 0.37943469203128188 -0.00061867287097879323 -0.00081363284516555723 -0.00061867287097879323 -2499.7486598841078 0.00012434691598173231 -0.00081363284516555723 0.00012434691598173231 -9999.6209293627253 0.38021746527647338 -0.00035280912922385291 -0.0001878641687653726 -0.00035280912922385291 -2499.7483667426504 0.0012272669082449283 -0.0001878641687653726 0.0012272669082449283 -9999.6194308127633 0.37946378799642844 -0.00089232624187960633 0.00014614036990678869 -0.00089232624187960633 -2499.7491687967467 0.0011772641837524134 0.00014614036990678869 0.0011772641837524134 -9999.6224563409014 0.37976568683143341 6.057706914734326e-05 -0.00092028710787417367 6.057706914734326e-05 -2499.7484286348831 0.00072892650769063039 -0.00092028710787417367 0.00072892650769063039 -9999.6214617055739 0.37938986420886067 0.00025157682110128407 -0.0011069677166233305 0.00025157682110128407 -2499.7477518206051 0.0007919770810076443 -0.0011069677166233305 0.0007919770810076443 -9999.6206327833206 0.37942383793154022 9.1625438164220745e-05 -0.0012086009730865044 9.1625438164220745e-05 -2499.7476276030166 0.001256262688912102 -0.0012086009730865044 0.001256262688912102 -9999.6210246460541 0.3796111098995425 1.2792677272465726e-05 -0.0021046341933015356 1.2792677272465726e-05 -2499.7427127000024 0.00048556935144006275 -0.0021046341933015356 0.00048556935144006275 -9999.6245275685633 0.38146428901018226 -0.00049191271230191076 -5.0629845645744354e-05 -0.00049191271230191076 -2499.7390683936119 -0.0045268416856742988 -5.0629845645744354e-05 -0.0045268416856742988 -9999.6245487826563 0.38303531582278083 8.3860614140066764e-05 0.000797945333943062 8.3860614140066764e-05 -2499.7384735113455 -0.0021819061739734025 0.000797945333943062 -0.0021819061739734025 -9999.6199713074056 0.37880112811862432 0.00028742617553526723 -0.00028038375785399694 0.00028742617553526723 -2499.75016284291 -0.0019204810178052867 -0.00028038375785399694 -0.0019204810178052867 -9999.6222333812311 0.38555938796889677 -0.0035281986510399864 -0.0024287587789331155 -0.0035281986510399864 -2499.7360749273648 0.0017845829167129068 -0.0024287587789331155 0.0017845829167129068 -9999.6193619179976 0.37776421907028634 0.0011368831392441596 -0.00087169213566085091 0.0011368831392441596 -2499.7490729668339 -0.0017821357359935064 -0.00087169213566085091 -0.0017821357359935064 -9999.6274351843185 0.3789518217061385 0.00078738461920175966 -0.00028713656774925767 0.00078738461920175966 -2499.7497829966478 -0.001944311719853431 -0.00028713656774925767 -0.001944311719853431 -9999.6221000362402 0.38053555433543806 -0.00079428350991709445 -0.0013706159461435163 -0.00079428350991709445 -2499.7433785800476 -0.00066652170244196896 -0.0013706159461435163 -0.00066652170244196896 -9999.6201446670239 0.3806816706387508 -0.00058369234121962831 -0.0027429826056959428 -0.00058369234121962831 -2499.7400015537855 0.0023039598781906534 -0.0027429826056959428 0.0023039598781906534 -9999.6195876167149 0.37979782640104531 -0.00019265154206568992 -0.0038994511199916815 -0.00019265154206568992 -2499.7428892116313 0.0042362121494079474 -0.0038994511199916815 0.0042362121494079474 -9999.6220664442444 0.38421126503033065 -0.0034507787745493533 -0.00061383236243273132 -0.0034507787745493533 -2499.7478752081029 0.0052259488675190369 -0.00061383236243273132 0.0052259488675190369 -9999.622012652133 0.38318201743231839 -0.00054585310728138495 0.000621201712419861 -0.00054585310728138495 -2499.7440275733629 -0.0035265027108835056 0.000621201712419861 -0.0035265027108835056 -9999.6218747727544 0.3760360504873006 0.0021493204506109059 0.003808635454333853 0.0021493204506109059 -2499.7484197734466 -0.0059850024745173869 0.003808635454333853 -0.0059850024745173869 -9999.6243627819949 0.38192371487093624 0.00064884995601561385 -0.0018348217872699024 0.00064884995601561385 -2499.7353166997564 -0.0046422427931247512 -0.0018348217872699024 -0.0046422427931247512 -9999.6220073922013 0.38328806807467686 0.0029015184673338301 0.0003699465341924224 0.0029015184673338301 -2499.7403307207132 -0.00083351278590271249 0.0003699465341924224 -0.00083351278590271249 -9999.618689570847 0.38212701210250088 0.00082254390098680796 0.00082335700426483527 0.00082254390098680796 -2499.7459137530122 -0.005414051064690284 0.00082335700426483527 -0.005414051064690284 -9999.6222502525416 0.3835217701325746 -0.003653226447971121 -0.00064123098036361625 -0.003653226447971121 -2499.7481844668509 0.0049043856488424353 -0.00064123098036361625 0.0049043856488424353 -9999.6248466750258 0.37840763447957215 -0.002899559893207497 0.0002237357239209814 -0.002899559893207497 -2499.764238734288 0.00085641067380493041 0.0002237357239209814 0.00085641067380493041 -9999.6300495702872 0.37477370791413023 0.0026343162765756628 0.00091871647600783035 0.0026343162765756628 -2499.7474993318369 0.0013400085263128858 0.00091871647600783035 0.0013400085263128858 -9999.6267850141903 0.37782840771251358 0.0019051016990893344 -0.001244605693500489 0.0019051016990893344 -2499.7505097047124 0.004023066045192536 -0.001244605693500489 0.004023066045192536 -9999.6266453666904 0.37990163743597805 0.00010847440033768391 -0.0011123186868644552 0.00010847440033768391 -2499.7402408523594 0.0051858380402336479 -0.0011123186868644552 0.0051858380402336479 -9999.6194917030371 0.38299505016038893 -0.01514196517219378 0.0030148357091093203 -0.01514196517219378 -2499.7453377954207 -0.0036440851881707204 0.0030148357091093203 -0.0036440851881707204 -9999.6172062931528 0.37998263159170165 -0.0035499881288939203 -0.0010819505841936916 -0.0035499881288939203 -2499.7620454320313 0.0021058617430753657 -0.0010819505841936916 0.0021058617430753657 -9999.6255510319534 0.37696807410065958 -0.0020136029176033785 -0.0039410546351064113 -0.0020136029176033785 -2499.7396046997037 0.006538790425111074 -0.0039410546351064113 0.006538790425111074 -9999.6147972652398 0.3756290356250247 0.010915546258714645 0.0079820502760412637 0.010915546258714645 -2499.6886750701451 -0.021729180585680297 0.0079820502760412637 -0.021729180585680297 -9999.6122423754277 0.37304005320947908 0.0022515637733562244 0.0043266641341688228 0.0022515637733562244 -2499.7877224041167 -0.0064208850162685849 0.0043266641341688228 -0.0064208850162685849 -9999.6313347981923 0.36638573115851614 0.017257513351966416 0.0091342859195719939 0.017257513351966416 -2499.7217818939462 -0.0051690734162548324 0.0091342859195719939 -0.0051690734162548324 -9999.6174352639209 0.3804539322409255 -0.0010435425492196573 -0.0060306215782475192 -0.0010435425492196573 -2499.7386918002449 0.00041966450226027519 -0.0060306215782475192 0.00041966450226027519 -9999.6193171945779 0.37290647611007444 0.0020504298830759451 7.7808359492337331e-05 0.0020504298830759451 -2499.7447416345167 0.015870390718191629 7.7808359492337331e-05 0.015870390718191629 -9999.6242432680301 0.3634835787670454 0.017673332785948334 0.007883277146902401 0.017673332785948334 -2499.7237793138447 -0.005184194629691774 0.007883277146902401 -0.005184194629691774 -9999.6268637195099 0.37407598964819044 0.0078689226864773823 -0.0042424526182003319 0.0078689226864773823 -2499.7658800880581 0.009036668156113592 -0.0042424526182003319 0.009036668156113592 -9999.625104213992 0.38311634208730538 0.003265099995105894 -0.0024662925461598206 0.003265099995105894 -2499.7517495323264 0.0017928855268110055 -0.0024662925461598206 0.0017928855268110055 -9999.6188036624153 0.3799100946434919 -8.7733924502716998e-05 -2.893324381147977e-05 -8.7733924502716998e-05 -2499.749949658797 0.0014199449469742831 -2.893324381147977e-05 0.0014199449469742831 -9999.6196489498034 0.38580183240628685 0.0036073466180459165 -0.0012574104375744355 0.0036073466180459165 -2499.750979633729 0.0022441298096964601 -0.0012574104375744355 0.0022441298096964601 -9999.6169462799298 0.38489357908838429 0.0032219553348188171 0.0034485984087950783 0.0032219553348188171 -2499.7471438761513 -0.0044288234548730543 0.0034485984087950783 -0.0044288234548730543 -9999.6190461579972 0.38178567040813505 -0.0055795812177268644 0.0025296406238339841 -0.0055795812177268644 -2499.7456882253737 0.0037577185148620629 0.0025296406238339841 0.0037577185148620629 -9999.6187719960035 0.3806027279169939 0.00062871472098482636 0.00057089703659585211 0.00062871472098482636 -2499.7499459343508 0.0020552284513541963 0.00057089703659585211 0.0020552284513541963 -9999.6183396658234 0.37463680391920207 -0.021868201868169387 0.0048793152018333785 -0.021868201868169387 -2499.7677660443551 0.0080170594537776196 0.0048793152018333785 0.0080170594537776196 -9999.6262430772185 0.3698539705010262 -0.01849727662799204 0.0032089869091578294 -0.01849727662799204 -2499.7734168620873 0.0097151041773031466 0.0032089869091578294 0.0097151041773031466 -9999.6300561484641 0.38141782057937235 -0.0049395323422042822 0.0029413120610115584 -0.0049395323422042822 -2499.7482590419168 -0.001211994311233866 0.0029413120610115584 -0.001211994311233866 -9999.6171562288509 0.37507832160690668 0.00177853700543989 -0.00014239055280995672 0.00177853700543989 -2499.7890291497665 0.0010610333847580478 -0.00014239055280995672 0.0010610333847580478 -9999.6278723802279 0.37063041325654922 -0.014562215681330593 0.0061852757135056891 -0.014562215681330593 -2499.7640211810731 -0.01876023930071824 0.0061852757135056891 -0.01876023930071824 -9999.6323228030578 0.37469286653140443 -0.0054265224321456487 0.0017283134729950689 -0.0054265224321456487 -2499.7716882076784 -0.019692730889801169 0.0017283134729950689 -0.019692730889801169 -9999.630899828262 0.37766225145742283 -0.0014101561748439372 0.00027224200675846078 -0.0014101561748439372 -2499.7500854909454 0.00031870782822807087 0.00027224200675846078 0.00031870782822807087 -9999.6210801034867 0.38119885586820601 -0.0029612958821273461 0.00020703323025372811 -0.0029612958821273461 -2499.7393664859319 0.0025110675578616792 0.00020703323025372811 0.0025110675578616792 -9999.618816824197 0.37769595812824264 0.0087193186278817156 0.0061424296436598524 0.0087193186278817156 -2499.7393674858777 -0.00042447215491847601 0.0061424296436598524 -0.00042447215491847601 -9999.6237240388691 0.37629723999361886 -0.002151298061312059 0.0023327386388700688 -0.002151298061312059 -2499.7519605049411 0.0043792584365291987 0.0023327386388700688 0.0043792584365291987 -9999.6221998147594 0.37777938809631451 -0.003327313537487657 0.0015557426486338954 -0.003327313537487657 -2499.7517145518686 5.9679950936697423e-07 0.0015557426486338954 5.9679950936697423e-07 -9999.6202194114703 0.38166401203307032 0.0016231252047455291 0.0015245775866787881 0.0016231252047455291 -2499.7231358011904 0.0054365272117138375 0.0015245775866787881 0.0054365272117138375 -9999.6261632384521 0.37733178130838496 -0.010177942368419693 0.0065148855355801061 -0.010177942368419693 -2499.7405755174477 0.0015001041792856995 0.0065148855355801061 0.0015001041792856995 -9999.6240854484713 0.38175499050976214 -0.0027287712462692008 -0.00017609686619834974 -0.0027287712462692008 -2499.739974085277 0.0030343032958626281 -0.00017609686619834974 0.0030343032958626281 -9999.6195823935341 0.38131243982570595 -0.0046318535241534793 0.00012442148707236811 -0.0046318535241534793 -2499.7365239281862 0.0040845175644790288 0.00012442148707236811 0.0040845175644790288 -9999.6174066496533 0.37530083973979345 -0.0030791864853473641 -0.00023059322276708372 -0.0030791864853473641 -2499.7564312364339 0.0020961772061127704 -0.00023059322276708372 0.0020961772061127704 -9999.6214157318645 0.38355432909884257 -0.0069863831222985867 0.00050132674732594751 -0.0069863831222985867 -2499.7231571378015 0.0092722190038330154 0.00050132674732594751 0.0092722190038330154 -9999.6247574995068 0.38056962983682752 -0.0027428683162091893 0.00024103653237261824 -0.0027428683162091893 -2499.7300892168241 0.0072833633203117643 0.00024103653237261824 0.0072833633203117643 -9999.6266452877317 0.37394571825825551 0.0010142614512621739 0.0013436496079464177 0.0010142614512621739 -2499.7555795538847 -0.0015269369614543393 0.0013436496079464177 -0.0015269369614543393 -9999.6245177803539 0.37303504718511249 0.00064766626302298997 0.0031580638134869332 0.00064766626302298997 -2499.7585867987145 0.0024003120524866972 0.0031580638134869332 0.0024003120524866972 -9999.6256090000898 0.37573652321771078 -0.0037167842193407442 0.00054928286408539861 -0.0037167842193407442 -2499.7616217037048 -0.003679447892409371 0.00054928286408539861 -0.003679447892409371 -9999.6250985054066 0.38886316157504552 -0.0015648017577603139 0.0029262621501402464 -0.0015648017577603139 -2499.7198509029317 -0.029795600389661558 0.0029262621501402464 -0.029795600389661558 -9999.6119430655272 0.37235533848797786 0.0017893277240389484 0.0013533046361544621 0.0017893277240389484 -2499.7696703702259 -0.0037652943246939685 0.0013533046361544621 -0.0037652943246939685 -9999.6278369308202 0.37493274907683372 0.0028943505097894923 0.0023847864358685911 0.0028943505097894923 -2499.7600418243237 0.0043553581454034429 0.0023847864358685911 0.0043553581454034429 -9999.6279826530081 0.3740497032094936 0.0020353275135567353 0.0029362282912188675 0.0020353275135567353 -2499.7606275967109 -0.0096043507353442692 0.0029362282912188675 -0.0096043507353442692 -9999.6314375836591 0.37243720936567115 0.0082104240520194539 0.0050839143961525224 0.0082104240520194539 -2499.7563063095786 -0.0082436786633479642 0.0050839143961525224 -0.0082436786633479642 -9999.6281234846101 0.3761968331564276 -0.0018940935267156359 0.00046787810970272403 -0.0018940935267156359 -2499.7585560922116 0.00019578387446017587 0.00046787810970272403 0.00019578387446017587 -9999.6190024745556 0.37315349942582543 0.0081146619320789041 0.0049173022650279563 0.0081146619320789041 -2499.7554768684868 -0.0050281366693525342 0.0049173022650279563 -0.0050281366693525342 -9999.6261307009336 0.39013987665202876 0.0088206373065406497 0.0046480162312718676 0.0088206373065406497 -2499.7077343616529 -0.024012714186028461 0.0046480162312718676 -0.024012714186028461 -9999.6059925137597 0.38009774381316674 0.0014929879122237699 0.00079537245073879603 0.0014929879122237699 -2499.7494148287524 -0.014695339427817089 0.00079537245073879603 -0.014695339427817089 -9999.6166219484512 0.37552860109099129 0.01617654515962047 0.0038118121046863962 0.01617654515962047 -2499.7574248414821 -0.022702848946209997 0.0038118121046863962 -0.022702848946209997 -9999.6234546332089 0.38043747908886871 -0.0014772917058910925 0.0019762991341849556 -0.0014772917058910925 -2499.7468987109942 -0.00098796289239544421 0.0019762991341849556 -0.00098796289239544421 -9999.6211572428183 0.38422469691795413 -0.0021541426680071665 0.0043173224603378912 -0.0021541426680071665 -2499.7484280868739 -0.0024333255532837939 0.0043173224603378912 -0.0024333255532837939 -9999.620993984121 0.3767124845348917 -0.00078677644900364274 0.00048060261906357482 -0.00078677644900364274 -2499.7519000538773 -0.001036555534483341 0.00048060261906357482 -0.001036555534483341 -9999.6285856559098 0.38332478301344963 -4.8660421393507177e-05 0.0020582685058343486 -4.8660421393507177e-05 -2499.7454326346433 -0.0019552940466383006 0.0020582685058343486 -0.0019552940466383006 -9999.624635357417 0.38225373132718232 0.0003370364014377257 0.002238224422399071 0.0003370364014377257 -2499.7383679839559 -0.0043918352492937629 0.002238224422399071 -0.0043918352492937629 -9999.621791735095 0.38001052690719916 -0.0013517643987956858 0.0025310381688541383 -0.0013517643987956858 -2499.7459713799808 -0.00088365321971650701 0.0025310381688541383 -0.00088365321971650701 -9999.6219957391295 0.38116486070885003 -0.0003415926784801392 0.0002022850949288113 -0.0003415926784801392 -2499.742843687437 0.001489990178924927 0.0002022850949288113 0.001489990178924927 -9999.6204095416324 0.37994969506553389 -0.00091689503290595447 0.0002674182724149432 -0.00091689503290595447 -2499.7470617161348 0.0018057005227092304 0.0002674182724149432 0.0018057005227092304 -9999.6205201583944 0.37866684311484278 -0.0024570925996310368 -0.00011429087680880912 -0.0024570925996310368 -2499.7500586668129 0.0011959225575992605 -0.00011429087680880912 0.0011959225575992605 -9999.6218214315013 0.37628247758357247 -0.0016743730807439912 0.00029787045059492812 -0.0016743730807439912 -2499.7540682510403 0.00019771028746617958 0.00029787045059492812 0.00019771028746617958 -9999.6231684577142 0.37874206554215561 -0.00032489374681434272 0.00073579068885010201 -0.00032489374681434272 -2499.7478725786473 0.0012218366173328832 0.00073579068885010201 0.0012218366173328832 -9999.6207213308862 0.377900690059505 -0.0025697804278629194 -0.00010851596016436815 -0.0025697804278629194 -2499.7523471203067 0.00055716613678669091 -0.00010851596016436815 0.00055716613678669091 -9999.6226132090887 0.37977076228344231 -0.002192432761545595 -0.00036115832335781306 -0.002192432761545595 -2499.7454739813911 0.0005109044250275474 -0.00036115832335781306 0.0005109044250275474 -9999.6219538346559 0.37407816407721839 -0.0012402238917890562 0.0011818464367934212 -0.0012402238917890562 -2499.7494399813795 0.0016053040744736791 0.0011818464367934212 0.0016053040744736791 -9999.6218997279611 0.37990837564575486 -0.0018425781334439478 0.0007058681185299065 -0.0018425781334439478 -2499.7308140726636 0.0035432465410849545 0.0007058681185299065 0.0035432465410849545 -9999.6165005855219 0.37577628486724279 -0.0010174958569447341 0.0011901912876055576 -0.0010174958569447341 -2499.7433820009228 0.0010380369039921788 0.0011901912876055576 0.0010380369039921788 -9999.6212155443864 0.37865029056411004 -0.00075020196650029953 0.00034586049514473416 -0.00075020196650029953 -2499.7434354096258 0.0012663117577176308 0.00034586049514473416 0.0012663117577176308 -9999.6202558508085 0.37370774900409742 0.0026606795819142689 0.002678964499864378 0.0026606795819142689 -2499.7516509538041 -0.00031482043050345965 0.002678964499864378 -0.00031482043050345965 -9999.6221310684141 0.3747851593325322 -0.0011748037331748102 0.00095827115910651628 -0.0011748037331748102 -2499.7455932484572 0.00025932845892384648 0.00095827115910651628 0.00025932845892384648 -9999.622182532652 0.37490995142798056 -0.00088431880998139645 0.0022245080126594985 -0.00088431880998139645 -2499.7479014916426 0.0022708332835463807 0.0022245080126594985 0.0022708332835463807 -9999.6203766754988 0.37834758393000811 -0.0009029206413332957 0.0024908987315939157 -0.0009029206413332957 -2499.7439995522982 0.00045071794011164457 0.0024908987315939157 0.00045071794011164457 -9999.6194285003166 0.37736743861296418 -0.0022670227930017862 0.0022438309551944258 -0.0022670227930017862 -2499.7481762825837 0.0014080754972383147 0.0022438309551944258 0.0014080754972383147 -9999.620374924536 0.37808879814656393 -0.00098232157507460618 0.0025951877069019247 -0.00098232157507460618 -2499.7452024022587 0.00028038420168741141 0.0025951877069019247 0.00028038420168741141 -9999.6194702284502 0.37528243697852304 -0.00098823701466304106 0.0013356895215110853 -0.00098823701466304106 -2499.7434774812664 0.0010787123474074178 0.0013356895215110853 0.0010787123474074178 -9999.6213787275919 0.37463739283248287 -0.00020028209747802866 0.0024756917628110386 -0.00020028209747802866 -2499.7432476010181 0.0014689837735204492 0.0024756917628110386 0.0014689837735204492 -9999.6191901099501 0.37689245153887896 -0.0013448967733254227 0.0025129386194748804 -0.0013448967733254227 -2499.7440185520209 0.00057811525675788289 0.0025129386194748804 0.00057811525675788289 -9999.6193785848045 0.37800415284527844 0.0061031883431498721 0.0035967544645245653 0.0061031883431498721 -2499.7410733672123 0.0013986364740503632 0.0035967544645245653 0.0013986364740503632 -9999.6178708224124 0.38081942953340331 -0.001413134348523892 0.0054597878247477638 -0.001413134348523892 -2499.7443894650869 -0.0018764793949230807 0.0054597878247477638 -0.0018764793949230807 -9999.6174326254695 0.3769090331006737 -0.00060910216542460136 0.0032311357799699181 -0.00060910216542460136 -2499.7470021980125 -0.00087834865735203493 0.0032311357799699181 -0.00087834865735203493 -9999.6230157808568 0.37817578832527943 -0.00091302815236359372 0.0033168893642141484 -0.00091302815236359372 -2499.7444299295112 5.7851601468428271e-05 0.0033168893642141484 5.7851601468428271e-05 -9999.6209009073082 0.38069477323460887 -0.001448799516149499 0.0053703813332504069 -0.001448799516149499 -2499.7452052539438 -0.0018504791823943378 0.0053703813332504069 -0.0018504791823943378 -9999.6172209544875 0.37656921018015055 -0.00087676131068330774 0.0028710970964311855 -0.00087676131068330774 -2499.7477237705575 -0.0012662838798860321 0.0028710970964311855 -0.0012662838798860321 -9999.6231603651122 0.37625980481971055 -0.0012167074842203366 0.003057969640394731 -0.0012167074842203366 -2499.7482916740692 -0.00099168357155576814 0.003057969640394731 -0.00099168357155576814 -9999.6225406677077 0.37546131032286212 -0.017374721631680093 0.0024093271804304095 -0.017374721631680093 -2499.7441718432765 -0.022444930164510879 0.0024093271804304095 -0.022444930164510879 -9999.6243508540392 0.38053036613018776 -0.024354670868188738 0.0010405436150904279 -0.024354670868188738 -2499.7324175204849 -0.011161328868183773 0.0010405436150904279 -0.011161328868183773 -9999.6140254509664 0.36916648768419691 0.0019338976829689769 0.0044017451909894589 0.0019338976829689769 -2499.7706097696555 -0.0032320238551619695 0.0044017451909894589 -0.0032320238551619695 -9999.6290000335612 0.37744280931451613 -0.001951640731441287 0.0017571863136254251 -0.001951640731441287 -2499.7348448973553 -0.0097575274730843375 0.0017571863136254251 -0.0097575274730843375 -9999.6152815857386 0.38216759555962199 -0.0016648879577400102 0.0029933212937969245 -0.0016648879577400102 -2499.7289860789306 -0.0018534770742917317 0.0029933212937969245 -0.0018534770742917317 -9999.6203570151902 0.3747574667158915 -0.0060172778721649597 0.0030535587211488746 -0.0060172778721649597 -2499.7574070180581 0.010117963739048719 0.0030535587211488746 0.010117963739048719 -9999.6177299518313 0.38785230826579209 -0.0012498446672105958 -0.00012344812785158865 -0.0012498446672105958 -2499.7259772736852 -0.0019795720245383563 -0.00012344812785158865 -0.0019795720245383563 -9999.6047642483027 0.38107815858256799 0.012380091414881847 -0.00068430805913521908 0.012380091414881847 -2499.7347021174382 -0.0081569109879637836 -0.00068430805913521908 -0.0081569109879637836 -9999.6173891879371 0.37952529520589451 -0.0092688637704820415 0.00031206558014673647 -0.0092688637704820415 -2499.7422116145844 -0.0018287569037056528 0.00031206558014673647 -0.0018287569037056528 -9999.6108775499924 0.37699044410874194 -0.019203329242963058 -0.00010420927537779789 -0.019203329242963058 -2499.7483024221583 -0.021392371289721268 -0.00010420927537779789 -0.021392371289721268 -9999.6175173958036 0.37343374815372954 -0.0061209330463036921 0.0011713150379364379 -0.0061209330463036921 -2499.7612240363987 0.0074755183711658901 0.0011713150379364379 0.0074755183711658901 -9999.6274120599228 0.37966235153271555 0.00023966320719539039 0.0033555921199877048 0.00023966320719539039 -2499.7378265440084 0.0016565127234571264 0.0033555921199877048 0.0016565127234571264 -9999.6143407748714 0.3810241008795856 -0.00093172157060038632 0.0040779064484013361 -0.00093172157060038632 -2499.7354637135613 -0.0079171452780428808 0.0040779064484013361 -0.0079171452780428808 -9999.6120360216592 0.37737769216965944 -0.0048553342287500426 -0.0020812768325413344 -0.0048553342287500426 -2499.755514711811 0.0022221455417366087 -0.0020812768325413344 0.0022221455417366087 -9999.6205305996209 0.36391595231543761 0.0017571068724388864 0.0031290536044252804 0.0017571068724388864 -2499.7844819310667 0.0054602902819169685 0.0031290536044252804 0.0054602902819169685 -9999.6303604795685 0.38403218835446751 -0.0057671127470728945 -0.00092377191140258219 -0.0057671127470728945 -2499.721913033527 0.0088858460821938934 -0.00092377191140258219 0.0088858460821938934 -9999.6270266076535 0.37816215982093127 0.00010507625537629212 0.0026187488838331774 0.00010507625537629212 -2499.7101367407704 0.0062099045753711835 0.0026187488838331774 0.0062099045753711835 -9999.6278164276227 0.37397717332169123 0.00016177890100524134 0.00064383618405372545 0.00016177890100524134 -2499.737818757525 0.0016423075521743158 0.00064383618405372545 0.0016423075521743158 -9999.6181909586066 0.37404803585764057 0.0013459690721026943 3.3834665373433381e-05 0.0013459690721026943 -2499.7351734148106 0.0038720954453310696 3.3834665373433381e-05 0.0038720954453310696 -9999.6191271233765 0.38356754890082811 0.012179745767040881 -0.0025414972187718377 0.012179745767040881 -2499.7248832191563 0.0012888404125988018 -0.0025414972187718377 0.0012888404125988018 -9999.6259410751118 0.36856209454708733 0.016370002146400695 -0.00020161670181551017 0.016370002146400695 -2499.7661505544711 -0.013708446150303644 -0.00020161670181551017 -0.013708446150303644 -9999.6257354626287 0.37013791940080409 0.018053361122685293 0.00068509630000335164 0.018053361122685293 -2499.7666021730183 -0.0066875544453068869 0.00068509630000335164 -0.0066875544453068869 -9999.6198161857683 0.38032024861968239 0.019416589586947884 -0.0049726173128874507 0.019416589586947884 -2499.7122146383335 0.0060794416422140785 -0.0049726173128874507 0.0060794416422140785 -9999.6248263653542 0.37712878466845723 0.0039368153980564036 -0.0067498172902560327 0.0039368153980564036 -2499.7397581207697 0.011626448469542083 -0.0067498172902560327 0.011626448469542083 -9999.6316058783741 0.38019674129645864 0.0044071647694114129 -0.0003475682597127161 0.0044071647694114129 -2499.7485518107806 0.0047477016923949122 -0.0003475682597127161 0.0047477016923949122 -9999.6147245784196 0.37220981075006421 0.0031648424280247191 -0.0017173041483147244 0.0031648424280247191 -2499.7776706899749 0.0046117249439703301 -0.0017173041483147244 0.0046117249439703301 -9999.6203550368591 0.37581260711522191 0.00014261581867130828 0.00099429065994627308 0.00014261581867130828 -2499.7565330659872 -0.0030460883754130919 0.00099429065994627308 -0.0030460883754130919 -9999.6193705565274 0.3765033061918075 0.00023362011434830202 0.00096107283661694964 0.00023362011434830202 -2499.7540448113414 -0.0035636676930153044 0.00096107283661694964 -0.0035636676930153044 -9999.6183734320148 0.37360007819734165 -0.00093662331464802392 0.00062586987951362971 -0.00093662331464802392 -2499.751683450615 0.0039520060236100107 0.00062586987951362971 0.0039520060236100107 -9999.6165698508048 0.36798333223441659 -0.0020428755711711585 -0.00079399325477425009 -0.0020428755711711585 -2499.7809324339491 0.0040375856870014104 -0.00079399325477425009 0.0040375856870014104 -9999.6218247427551 0.37584967789462098 0.0012001352801621051 0.0010149290410481626 0.0012001352801621051 -2499.7566250797345 0.0022952116887609009 0.0010149290410481626 0.0022952116887609009 -9999.6191314909702 0.37298265622666804 -0.0013336656457472104 0.0012663237339438638 -0.0013336656457472104 -2499.7570405678907 0.0046806143509456888 0.0012663237339438638 0.0046806143509456888 -9999.6177638793451 0.37668861889960681 -0.0021307657385766718 0.0047923173478920944 -0.0021307657385766718 -2499.7333207537604 0.00089875908452086151 0.0047923173478920944 0.00089875908452086151 -9999.6174099446616 0.37041480602238153 -0.010092885872968867 0.0038470245981443441 -0.010092885872968867 -2499.7584908649042 0.0094016154616838321 0.0038470245981443441 0.0094016154616838321 -9999.6247652300226 0.36792685811815318 -0.0021822048842382313 -0.0042014680802822113 -0.0021822048842382313 -2499.7357569059677 0.013964076209049381 -0.0042014680802822113 0.013964076209049381 -9999.6339496184046 0.37404691552364966 -0.016591208499985119 0.00023872406200098339 -0.016591208499985119 -2499.7448304598111 0.0079957682028179988 0.00023872406200098339 0.0079957682028179988 -9999.6313180712532 0.36834758127588429 -0.0050857952120672775 0.00016054327306846972 -0.0050857952120672775 -2499.7752816112079 -0.015375493862848089 0.00016054327306846972 -0.015375493862848089 -9999.628016733288 0.37604298194673902 -0.00053626711714547734 -0.0011306848409731174 -0.00053626711714547734 -2499.7524107870577 -0.0021481331195900566 -0.0011306848409731174 -0.0021481331195900566 -9999.6193378727694 0.37064518095940002 -0.0081565481318773975 -0.001858645026004524 -0.0081565481318773975 -2499.7656118958876 -0.013647976488755376 -0.001858645026004524 -0.013647976488755376 -9999.6254195253641 0.37912576024609734 -0.0067554432553995555 -0.0021579307185675134 -0.0067554432553995555 -2499.7400674718119 -0.01075373114872491 -0.0021579307185675134 -0.01075373114872491 -9999.6193520148008 0.37746761951780172 0.0013428523555173988 0.002212918821896892 0.0013428523555173988 -2499.7485074656615 -0.0032127007689268794 0.002212918821896892 -0.0032127007689268794 -9999.6228597028421 0.38278528272167023 -0.011942052892569159 -0.0014751268372492632 -0.011942052892569159 -2499.7267885404217 -0.0026549956974122324 -0.0014751268372492632 -0.0026549956974122324 -9999.6179839277538 0.38451564515344216 0.023724352766152784 -0.0014615848631365225 0.023724352766152784 -2499.7226680499953 0.010576983767350612 -0.0014615848631365225 0.010576983767350612 -9999.6211532792222 0.37157778092796434 -0.0019748050995147259 0.0016643824601487722 -0.0019748050995147259 -2499.7566929146528 -0.0039463388275180478 0.0016643824601487722 -0.0039463388275180478 -9999.6264851946853 0.37471364888278913 -0.00034999677795280459 0.0021241734884824837 -0.00034999677795280459 -2499.7549262242892 -0.0037118267919140635 0.0021241734884824837 -0.0037118267919140635 -9999.6251565958628 0.37312887682855944 0.011006363487059842 -0.00090328771693748422 0.011006363487059842 -2499.7569274274792 -0.0073460873300064122 -0.00090328771693748422 -0.0073460873300064122 -9999.6223153309456 0.3810372262596502 0.012892772033785284 -9.4108581834007055e-05 0.012892772033785284 -2499.737280577363 -0.0070659593361597217 -9.4108581834007055e-05 -0.0070659593361597217 -9999.6170622865393 0.37758575104567171 -0.0030922295728457866 0.0009533670854580123 -0.0030922295728457866 -2499.7480110854003 -0.0079112721687124576 0.0009533670854580123 -0.0079112721687124576 -9999.6204310446192 0.38612482273492787 -0.010213013880452343 -0.0012337406060396461 -0.010213013880452343 -2499.7229756688102 -0.0048439225065521896 -0.0012337406060396461 -0.0048439225065521896 -9999.6079151528575 0.38506478760984919 -0.011002189646255184 -0.0022903730223333696 -0.011002189646255184 -2499.7226335673386 -0.0050900671194540337 -0.0022903730223333696 -0.0050900671194540337 -9999.6127616732283 0.37567155522992834 -0.0029915439392696561 0.0011864841694659845 -0.0029915439392696561 -2499.7499285458798 -0.0059955823016935028 0.0011864841694659845 -0.0059955823016935028 -9999.6263397329058 0.37864360854018742 -0.001975448697632682 0.0017932068249137956 -0.001975448697632682 -2499.7421544038216 -0.0037938597779429983 0.0017932068249137956 -0.0037938597779429983 -9999.6230028782884 0.37708332601459915 0.00060386562355201588 0.0025098626547332969 0.00060386562355201588 -2499.7473337119286 -0.0018486685821699211 0.0025098626547332969 -0.0018486685821699211 -9999.6219135116789 0.37593849013774161 0.00018318953142972515 0.003378526346750732 0.00018318953142972515 -2499.747741353488 -0.0014704455461469479 0.003378526346750732 -0.0014704455461469479 -9999.6246230540346 0.37825433906073158 -0.00050878895785803381 0.0012067431434843456 -0.00050878895785803381 -2499.7480472539664 -0.0018673623144422891 0.0012067431434843456 -0.0018673623144422891 -9999.6180911729753 0.37725198736552557 0.00014035470344832986 0.0028004404332477861 0.00014035470344832986 -2499.7478979026155 -0.00060404180658224504 0.0028004404332477861 -0.00060404180658224504 -9999.6191177572055 0.3761572772054933 0.00056402137198443094 0.0027862660383561888 0.00056402137198443094 -2499.7511445753662 -0.0035217908334743697 0.0027862660383561888 -0.0035217908334743697 -9999.6208184464049 0.378204296435797 0.00010445985888557843 0.0013459301844704896 0.00010445985888557843 -2499.7461651781869 -0.0017246075667571859 0.0013459301844704896 -0.0017246075667571859 -9999.6181720879395 0.37769347815628862 0.0002340032134454407 0.0022381671005859971 0.0002340032134454407 -2499.7488805642606 -0.0010684259905247018 0.0022381671005859971 -0.0010684259905247018 -9999.6174219262211 0.37826229646998399 0.00081132962261205172 0.0026186949344264576 0.00081132962261205172 -2499.7435804643083 -0.00068866936703670945 0.0026186949344264576 -0.00068866936703670945 -9999.6199737376301 0.37706340549812012 0.00020681860147739949 0.001938495644935756 0.00020681860147739949 -2499.7464656613674 -0.0017936944332177518 0.001938495644935756 -0.0017936944332177518 -9999.6192090076765 0.38567262286233017 -0.00012065023717481368 0.0027135162165166093 -0.00012065023717481368 -2499.7278590935402 0.0048513069859836833 0.0027135162165166093 0.0048513069859836833 -9999.6091799752612 0.3767505770047137 0.00070102160112028248 0.0018234659273730358 0.00070102160112028248 -2499.7476938594791 -0.00091308530863898341 0.0018234659273730358 -0.00091308530863898341 -9999.6183493413118 0.37765399517047626 0.00056710016510080419 0.0014593201885872986 0.00056710016510080419 -2499.7473844893066 -0.0026885280167334713 0.0014593201885872986 -0.0026885280167334713 -9999.6191577493664 0.37597373330208939 0.00024159752459058156 0.00094348269703914411 0.00024159752459058156 -2499.7514184337488 9.7190267752012005e-05 0.00094348269703914411 9.7190267752012005e-05 -9999.6206037431111 0.37525715098308865 0.00034664012579022161 0.0024532658262614859 0.00034664012579022161 -2499.7517146234459 -0.0025544070667820051 0.0024532658262614859 -0.0025544070667820051 -9999.6243688345312 0.37629200181254419 0.00035612886973349946 0.00076938968231843319 0.00035612886973349946 -2499.7515836516141 0.00011190482609890751 0.00076938968231843319 0.00011190482609890751 -9999.6204570817281 0.37732668134412961 1.1148124142614695e-05 0.0013813396853947779 1.1148124142614695e-05 -2499.7487397431505 -0.0014316964770841878 0.0013813396853947779 -0.0014316964770841878 -9999.6191106771876 0.37716996490053134 -0.00020848344621434827 0.0015833930265216623 -0.00020848344621434827 -2499.750319945193 -0.0013822926684952108 0.0015833930265216623 -0.0013822926684952108 -9999.6181579810582 0.37439942046330543 0.0011348952543201174 0.0015792435224284418 0.0011348952543201174 -2499.7518824706531 0.00035689529613591731 0.0015792435224284418 0.00035689529613591731 -9999.6205769595472 0.37756287439242442 -5.5326333036234643e-05 0.0013887219192838529 -5.5326333036234643e-05 -2499.7501746962416 -0.0014850759907858446 0.0013887219192838529 -0.0014850759907858446 -9999.6178158232142 0.37828574753075372 -0.00068753938866388323 0.001208042824146105 -0.00068753938866388323 -2499.747947682019 -0.0015596362691212562 0.001208042824146105 -0.0015596362691212562 -9999.6180609058792 0.37444403823610628 0.0012413586615122086 0.0017548719533806434 0.0012413586615122086 -2499.7510774499424 0.00032143499265657738 0.0017548719533806434 0.00032143499265657738 -9999.6207297840083 0.37600403623218881 0.00026952036485073972 0.00083280767375981668 0.00026952036485073972 -2499.7508854489733 4.0520575566915795e-05 0.00083280767375981668 4.0520575566915795e-05 -9999.6208348162618 0.3788353018971975 0.0033588937573739049 0.0022832486647530459 0.0033588937573739049 -2499.7406663040783 0.0032366430484671582 0.0022832486647530459 0.0032366430484671582 -9999.6153081193552 0.37618298063898692 0.00088048522841611271 0.00031841642885410693 0.00088048522841611271 -2499.7523112444287 0.0017154564375232439 0.00031841642885410693 0.0017154564375232439 -9999.6188915860184 0.37500791814818513 0.00032732849311442776 0.0011765267699956894 0.00032732849311442776 -2499.7515932420647 -2.8109916229368537e-05 0.0011765267699956894 -2.8109916229368537e-05 -9999.6203972144722 0.37560384167227312 0.00048424452631341819 0.00041798148777161259 0.00048424452631341819 -2499.7515261279186 0.0010696578465285711 0.00041798148777161259 0.0010696578465285711 -9999.6180817441127 0.37501894814886327 0.0002652494230506298 0.0010436625543661648 0.0002652494230506298 -2499.7510364974896 -1.5944715414661914e-06 0.0010436625543661648 -1.5944715414661914e-06 -9999.6204701105744 0.37482908786660118 0.00019264041158909039 0.0011497571576910559 0.00019264041158909039 -2499.7511339941175 0.00010684594235499389 0.0011497571576910559 0.00010684594235499389 -9999.6206950297019 0.3752343471369386 2.9960097293553616e-05 0.0010524024146434385 2.9960097293553616e-05 -2499.7501603542951 0.0004781845800607698 0.0010524024146434385 0.0004781845800607698 -9999.6200493582874 0.3754688732278737 0.00012353678234838244 0.0016652880149194971 0.00012353678234838244 -2499.7510378004645 -0.00027220720949117094 0.0016652880149194971 -0.00027220720949117094 -9999.6191979742325 0.37599722621735054 -0.00027455835823547844 0.0017102149909078435 -0.00027455835823547844 -2499.7546965153201 0.00033683078072499484 0.0017102149909078435 0.00033683078072499484 -9999.6215887591788 0.37807300436543301 -0.00049980889213935113 0.001671253615313617 -0.00049980889213935113 -2499.7483108759407 -0.00010112370455317432 0.001671253615313617 -0.00010112370455317432 -9999.6195519278444 0.37690140087579493 1.373106046570244e-05 0.0013567617961598444 1.373106046570244e-05 -2499.74943241644 -0.00023547785804112209 0.0013567617961598444 -0.00023547785804112209 -9999.6201191788423 0.37632467274670489 0.00027111424747986346 0.00085154605676507344 0.00027111424747986346 -2499.7499277981624 0.00036458088152357959 0.00085154605676507344 0.00036458088152357959 -9999.6204994233631 0.37585060313358554 0.00036753802428288532 0.0016526773051737109 0.00036753802428288532 -2499.7505972159588 -0.00022552931841346435 0.0016526773051737109 -0.00022552931841346435 -9999.6191009502509 0.37486228699890489 -0.0021816975386547942 0.00096742574896779843 -0.0021816975386547942 -2499.7516048455418 -0.0010928028424359582 0.00096742574896779843 -0.0010928028424359582 -9999.6212053197032 0.37667883500944299 0.0004316359307249597 0.0017627382767386734 0.0004316359307249597 -2499.751011031638 -0.00056190017130575143 0.0017627382767386734 -0.00056190017130575143 -9999.6202533254946 0.37862617557584599 -0.0046495824088102142 0.00044350065763865132 -0.0046495824088102142 -2499.7419249114646 -0.0013279451050038915 0.00044350065763865132 -0.0013279451050038915 -9999.6189251650412 0.37736129104951033 -0.00062538075933101824 0.0016185449785552919 -0.00062538075933101824 -2499.7439482365794 0.00028412535175448284 0.0016185449785552919 0.00028412535175448284 -9999.6183048649436 0.37810533244510225 -0.0025439990630728576 0.00032124587960424833 -0.0025439990630728576 -2499.7438183817872 0.00050585300914463005 0.00032124587960424833 0.00050585300914463005 -9999.6198455185731 0.37685481014796096 -0.0010779469394501611 0.0023889419271654333 -0.0010779469394501611 -2499.7481900510656 -0.00063385726389242336 0.0023889419271654333 -0.00063385726389242336 -9999.6213747066358 0.37602121101099328 -0.0025229741842048709 0.00042444187056389637 -0.0025229741842048709 -2499.7431417374091 -0.0013896280979679432 0.00042444187056389637 -0.0013896280979679432 -9999.6198771364925 0.37748362471666042 -0.0030143554545033584 -0.0002227805380243808 -0.0030143554545033584 -2499.7424697661891 -0.00085542681699735112 -0.0002227805380243808 -0.00085542681699735112 -9999.6188103175482 0.37641447691839858 -0.0022069149592540537 0.0011244072193221655 -0.0022069149592540537 -2499.7445667718057 9.158965440292377e-05 0.0011244072193221655 9.158965440292377e-05 -9999.6211345065749 0.37563135787604551 -0.0027711513953627281 0.00083284002175787464 -0.0027711513953627281 -2499.7509345621584 -0.0012795007205568254 0.00083284002175787464 -0.0012795007205568254 -9999.6215221358361 0.37639357717671373 -0.0020218655042628375 0.00060450368619058281 -0.0020218655042628375 -2499.7419195182688 0.0010354916921642143 0.00060450368619058281 0.0010354916921642143 -9999.6206153694693 0.37633290112671602 -0.0013301492404445528 0.0028411718326424307 -0.0013301492404445528 -2499.7487244954887 -0.00047686441939731594 0.0028411718326424307 -0.00047686441939731594 -9999.6237010975128 0.38003873608386129 -0.002893939750408879 0.0035536229888748494 -0.002893939750408879 -2499.7503001587434 -0.0033913389124791138 0.0035536229888748494 -0.0033913389124791138 -9999.6205093203844 0.37638393681618698 -0.0019221089776809801 0.0010066353042930132 -0.0019221089776809801 -2499.7458890574057 -0.0010466810381331015 0.0010066353042930132 -0.0010466810381331015 -9999.6250917891721 0.38096438131469768 -0.0023584609984876083 0.0049707680541359878 -0.0023584609984876083 -2499.7455550545801 -0.00047703861832815164 0.0049707680541359878 -0.00047703861832815164 -9999.6158054285843 0.37782868199978736 -0.0018530231476884505 0.002517758495741873 -0.0018530231476884505 -2499.7480252586865 -0.00015587335178679496 0.002517758495741873 -0.00015587335178679496 -9999.6232611684627 0.38030887923059709 -0.0019448046150149618 0.0053946261227793002 -0.0019448046150149618 -2499.746205021695 -0.0010710998594731791 0.0053946261227793002 -0.0010710998594731791 -9999.6174155128956 0.37755769535635864 -0.00085499098220026266 0.0019200657800411136 -0.00085499098220026266 -2499.7455138583086 -0.002405144334261422 0.0019200657800411136 -0.002405144334261422 -9999.6189454812647 0.37621090226127762 0.00040037186694737853 0.0019953694591094973 0.00040037186694737853 -2499.7522785207998 -0.0045658543185709277 0.0019953694591094973 -0.0045658543185709277 -9999.6193653309638 0.37871028435256449 0.0013809721483333927 0.0038401439160224982 0.0013809721483333927 -2499.7449823599782 -0.0021860336855752394 0.0038401439160224982 -0.0021860336855752394 -9999.6180805433323 0.38033651759906206 1.8672892261362845e-05 0.0012007269033347256 1.8672892261362845e-05 -2499.7446269840839 -0.0023274167342606233 0.0012007269033347256 -0.0023274167342606233 -9999.6182189936553 0.37707143744955829 0.00053117064268195114 0.0025335718671612995 0.00053117064268195114 -2499.7522534118998 -0.0045370482221187558 0.0025335718671612995 -0.0045370482221187558 -9999.6202136366846 0.3787126366960365 -2.6407370031710127e-05 0.001403259539983992 -2.6407370031710127e-05 -2499.7445443215847 -0.0018609718772495398 0.001403259539983992 -0.0018609718772495398 -9999.6177620734816 0.37987796068227908 0.0016793336489479543 0.0025018902565534518 0.0016793336489479543 -2499.7425612228344 -0.0047840719562373124 0.0025018902565534518 -0.0047840719562373124 -9999.6196115934144 0.37803038521997223 -0.00078539155587133667 0.0020007627872473677 -0.00078539155587133667 -2499.7487041640434 -0.00012593138262673165 0.0020007627872473677 -0.00012593138262673165 -9999.6218295381113 0.38338573461120973 -7.3490950643936674e-06 0.0020392410939962247 -7.3490950643936674e-06 -2499.7327867041745 0.0013481590503943153 0.0020392410939962247 0.0013481590503943153 -9999.6164693807732 0.37641879649891052 -0.00027130361431817671 0.0018465806451786193 -0.00027130361431817671 -2499.7488853276336 -0.0045072077873555827 0.0018465806451786193 -0.0045072077873555827 -9999.6184888108255 0.37697348462461377 -0.00061473488696426118 0.001874478723948414 -0.00061473488696426118 -2499.7474816051817 4.2460227632545866e-05 0.001874478723948414 4.2460227632545866e-05 -9999.6217833256014 0.38694668786877173 0.004957240555590537 0.00040319492381968303 0.004957240555590537 -2499.7219112616649 -0.0089938383098342456 0.00040319492381968303 -0.0089938383098342456 -9999.6084611017068 0.3741181526092987 0.0043394911362232046 0.0016957113679154645 0.0043394911362232046 -2499.7547913076742 0.018214973079977881 0.0016957113679154645 0.018214973079977881 -9999.6277425751177 0.37630145077446286 0.0035977882132050311 0.0025296830053775921 0.0035977882132050311 -2499.7515037944672 -0.0043739297252614051 0.0025296830053775921 -0.0043739297252614051 -9999.6225480979338 0.37572413835238905 0.0070840570226909511 -0.00045564846823253902 0.0070840570226909511 -2499.7435888104042 -0.0016992527671391144 -0.00045564846823253902 -0.0016992527671391144 -9999.6303639424113 0.37831441532216559 0.0060098308206957204 -0.00075920965400655405 0.0060098308206957204 -2499.7368736380613 -0.00054804996034363285 -0.00075920965400655405 -0.00054804996034363285 -9999.6280253996338 0.38747291735307954 0.013815784014074409 -0.00095443412828899454 0.013815784014074409 -2499.7156102611498 0.0088269910920644179 -0.00095443412828899454 0.0088269910920644179 -9999.607042136864 0.38871645613502892 0.018873003460856158 0.0014219550339475973 0.018873003460856158 -2499.7011861427486 0.00054510809968633112 0.0014219550339475973 0.00054510809968633112 -9999.6164919044259 0.39103272284000923 0.020902260780047741 -0.0021552136422542389 0.020902260780047741 -2499.7084581697368 -0.0045157035565352999 -0.0021552136422542389 -0.0045157035565352999 -9999.6087852415858 0.37288340763552696 0.012299156074727355 -0.0037632510084222304 0.012299156074727355 -2499.7577257121338 -0.0042334948361713032 -0.0037632510084222304 -0.0042334948361713032 -9999.6251070302642 0.3760875453317567 0.0063341040457440155 -0.0031118099831246582 0.0063341040457440155 -2499.7528112637538 -0.0036873557745593644 -0.0031118099831246582 -0.0036873557745593644 -9999.6233059362239 0.37655612577145803 -0.0050860340044550046 -0.0012517925242718775 -0.0050860340044550046 -2499.7428194253553 0.0090640770633854117 -0.0012517925242718775 0.0090640770633854117 -9999.6227755499349 0.37129822650604183 -0.0020735357744467928 0.0031359963700765547 -0.0020735357744467928 -2499.7726950941878 0.0037059651422168827 0.0031359963700765547 0.0037059651422168827 -9999.6328373762972 0.37624174362463236 -0.014442276028506403 0.0011416768120398046 -0.014442276028506403 -2499.7456059446959 -0.016341535058927548 0.0011416768120398046 -0.016341535058927548 -9999.6230265153135 0.38032037406810559 -0.0047919579264503881 0.0012414969460223801 -0.0047919579264503881 -2499.7407153200274 0.0095785503135630279 0.0012414969460223801 0.0095785503135630279 -9999.6183490073527 0.37867425062859184 0.011086865890111493 -0.00088390377823088784 0.011086865890111493 -2499.758765013748 -0.0056597879238324822 -0.00088390377823088784 -0.0056597879238324822 -9999.6215468675982 0.38544121794473085 -0.0027446427658054523 0.0018421158692945028 -0.0027446427658054523 -2499.7304444928209 0.00037314564542612061 0.0018421158692945028 0.00037314564542612061 -9999.6187240299914 0.38006606560884393 -0.0069913021559158545 -0.0021777888214273844 -0.0069913021559158545 -2499.7368095580387 -0.022388904743820603 -0.0021777888214273844 -0.022388904743820603 -9999.6140735642002 0.38178786244793628 0.0011320674741182001 0.0016381917389480805 0.0011320674741182001 -2499.7359137295998 0.00031189532455755398 0.0016381917389480805 0.00031189532455755398 -9999.6209770539572 0.38264853162309009 -0.0020774655440097961 0.0026715767289715586 -0.0020774655440097961 -2499.7414436337576 -0.0059182400430017879 0.0026715767289715586 -0.0059182400430017879 -9999.6186934890356 0.37637945749156643 -0.016503349573033739 0.00095443934242211981 -0.016503349573033739 -2499.7393578215924 -0.01390661585082853 0.00095443934242211981 -0.01390661585082853 -9999.6201701847094 0.38214709775638767 -0.0031827346419080337 0.0022781830274993808 -0.0031827346419080337 -2499.7425485289823 0.0089360032816330204 0.0022781830274993808 0.0089360032816330204 -9999.6196878774354 0.37644066077689331 -0.0051770928825270804 -0.00033398848245269619 -0.0051770928825270804 -2499.7537893703211 -0.00015500601830353844 -0.00033398848245269619 -0.00015500601830353844 -9999.6194789374968 0.37611763658060227 -0.0016630086371212192 0.0014897811674927652 -0.0016630086371212192 -2499.7544577859717 -0.00035689183914655587 0.0014897811674927652 -0.00035689183914655587 -9999.619855831952 0.37989332783035934 -0.004347477706537913 0.0024572186890168268 -0.004347477706537913 -2499.7484781056046 -0.002414226639757544 0.0024572186890168268 -0.002414226639757544 -9999.61640842411 0.38104516701059765 -0.0043157607946783944 0.001687856953139999 -0.0043157607946783944 -2499.7419902047222 0.009886338257274474 0.001687856953139999 0.009886338257274474 -9999.6181768746865 0.37975075882786768 8.106239722350389e-05 -0.0010328760472475551 8.106239722350389e-05 -2499.7198626577647 -0.0065075915699708275 -0.0010328760472475551 -0.0065075915699708275 -9999.6261881076134 0.38395676993604866 -0.0024502663315134573 4.962048484458137e-05 -0.0024502663315134573 -2499.7224859999806 -0.0084412258111115079 4.962048484458137e-05 -0.0084412258111115079 -9999.6258008376826 0.3729279841505786 -0.0031068705103452082 -0.00032580861443420872 -0.0031068705103452082 -2499.750589341445 -0.0011700616261691721 -0.00032580861443420872 -0.0011700616261691721 -9999.6206632795202 0.37637201696384182 -0.0033384622143884171 -0.00077256070653675124 -0.0033384622143884171 -2499.7384675129515 -0.0018554503294581082 -0.00077256070653675124 -0.0018554503294581082 -9999.6179832143862 0.37992958395079768 -0.013803702822548045 -0.0038973223745415453 -0.013803702822548045 -2499.7353981883552 -0.0038176645484782057 -0.0038973223745415453 -0.0038176645484782057 -9999.623804679788 0.3791704583200044 0.0028018492890368313 0.0025340165839224937 0.0028018492890368313 -2499.7480942577022 0.0079270309433923103 0.0025340165839224937 0.0079270309433923103 -9999.618022740804 0.3765364250048151 -0.0066648513796764564 8.5840118117630482e-05 -0.0066648513796764564 -2499.7529982799952 -0.0037562816032732371 8.5840118117630482e-05 -0.0037562816032732371 -9999.6231325043336 0.3679027518555813 -0.014446654859829058 -0.0013195579231251031 -0.014446654859829058 -2499.7639799504432 -0.0041003335609275382 -0.0013195579231251031 -0.0041003335609275382 -9999.6288387744935 0.37128970566118369 -0.015990256650599145 0.00077444174985430436 -0.015990256650599145 -2499.7621196591535 -0.0067660830563909258 0.00077444174985430436 -0.0067660830563909258 -9999.6195552649224 0.37348771841243433 -0.0038547298746353445 -0.002874612902814988 -0.0038547298746353445 -2499.7530188757646 0.001176973170004203 -0.002874612902814988 0.001176973170004203 -9999.6279439881691 0.37726037282664038 -0.012485981196532721 0.00021162094344617799 -0.012485981196532721 -2499.7351803485017 0.014441936414186785 0.00021162094344617799 0.014441936414186785 -9999.6227850894502 0.3751981612003874 0.00035192908078315877 0.0025106888570007868 0.00035192908078315877 -2499.7553768920188 -0.00096862282816800871 0.0025106888570007868 -0.00096862282816800871 -9999.6210154052969 0.36651223938042676 0.0043388670590426975 0.0010758372773125302 0.0043388670590426975 -2499.7829858415816 0.00045748230968456483 0.0010758372773125302 0.00045748230968456483 -9999.6259526112299 0.36932706110746949 0.0079995295375902276 0.0012919953014716157 0.0079995295375902276 -2499.7737719655452 0.0099373015018500155 0.0012919953014716157 0.0099373015018500155 -9999.6262128769667 0.37439342881225457 0.0014225550844547616 0.0013489771790773375 0.0014225550844547616 -2499.7555901476462 -0.00080323624933953397 0.0013489771790773375 -0.00080323624933953397 -9999.6199237176043 0.3741497211776732 0.0018609598191006299 0.002075932286970783 0.0018609598191006299 -2499.7555714578484 -0.0022243461471589399 0.002075932286970783 -0.0022243461471589399 -9999.6186474872666 0.38801745276123256 0.019296317860853382 -0.0044072337077523116 0.019296317860853382 -2499.7016201276519 0.015501322774071014 -0.0044072337077523116 0.015501322774071014 -9999.614563304156 0.38277853606109602 0.024378886931098076 -0.0051092101966787595 0.024378886931098076 -2499.7229307437428 0.0053565903072012588 -0.0051092101966787595 0.0053565903072012588 -9999.6116706188095 0.37888521976856282 0.0040674502397702039 0.004136078197916504 0.0040674502397702039 -2499.7364020059722 0.00043018617361667566 0.004136078197916504 0.00043018617361667566 -9999.6174705042904 0.37906971228221664 0.026488449315548446 -0.0029799066905979998 0.026488449315548446 -2499.7224211900284 0.0017234829947483377 -0.0029799066905979998 0.0017234829947483377 -9999.6270173358207 0.37074312658205599 0.0069932074211236164 -0.00038541582398465835 0.0069932074211236164 -2499.7415717656268 -0.012063497109920718 -0.00038541582398465835 -0.012063497109920718 -9999.6228094976468 0.37132650223065866 0.012198470355774628 0.0033805182029027492 0.012198470355774628 -2499.7594897340532 -0.0065787591029220494 0.0033805182029027492 -0.0065787591029220494 -9999.6227850721407 
</DataArray>
</CellData>
</Piece>
</UnstructuredGrid>
</VTKFile>
