<?xml version="1.0"?>
<VTKFile type="UnstructuredGrid" version="0.1" byte_order="LittleEndian">
<UnstructuredGrid>
<Piece NumberOfPoints="880" NumberOfCells="299">
<Points>
<DataArray type="Float64" NumberOfComponents="3" format="ascii">
-0 0 0 0.18653882694645291 0.22249173546702489 0 0 0.25000000000104189 0 -0 0 0 0.18653882694645291 0.22249173546702489 0 0.24999999999941089 0 0 0.24999999999941089 0 0 0.35015135319464608 0.1900339269648805 0 0.49999999999869182 0 0 0.18653882694645291 0.22249173546702489 0 0.24999999999941089 0 0 0.35015135319464608 0.1900339269648805 0 0.35015135319464608 0.1900339269648805 0 0.49924741621175961 0.21507969613896921 0 0.49999999999869182 0 0 0.35015135319464608 0.1900339269648805 0 0.49924741621175961 0.21507969613896921 0 0.40587285776242238 0.32419148732968017 0 0.37764981543668408 0.41341486499350411 0 0.41576443813007791 0.48093483781626972 0 0.45418244162583959 0.41624787166862259 0 0.37764981543668408 0.41341486499350411 0 0.45418244162583959 0.41624787166862259 0 0.40587285776242238 0.32419148732968017 0 0.41576443813007791 0.48093483781626972 0 0.46566719828045178 0.47702825415921918 0 0.45418244162583959 0.41624787166862259 0 0.41576443813007791 0.48093483781626972 0 0.46566719828045178 0.47702825415921918 0 0.4638583922372429 0.51470588235294135 0 0.46566719828045178 0.47702825415921918 0 0.49954900152271581 0.45107191084564019 0 0.5 0.5 0 0.46566719828045178 0.47702825415921918 0 0.4638583922372429 0.51470588235294135 0 0.5 0.5 0 0.46566719828045178 0.47702825415921918 0 0.49954900152271581 0.45107191084564019 0 0.45418244162583959 0.41624787166862259 0 0.45418244162583959 0.41624787166862259 0 0.49435464945626773 0.33318442629318029 0 0.54876010062294855 0.39662628167175101 0 0.45418244162583959 0.41624787166862259 0 0.49435464945626773 0.33318442629318029 0 0.40587285776242238 0.32419148732968017 0 0.49924741621175961 0.21507969613896921 0 0.49435464945626773 0.33318442629318029 0 0.40587285776242238 0.32419148732968017 0 0.35015135319464608 0.1900339269648805 0 0.40587285776242238 0.32419148732968017 0 0.29145599617909779 0.35026601625021492 0 0.37764981543668408 0.41341486499350411 0 0.40587285776242238 0.32419148732968017 0 0.29145599617909779 0.35026601625021492 0 0.18653882694645291 0.22249173546702489 0 0.35015135319464608 0.1900339269648805 0 0.29145599617909779 0.35026601625021492 0 0.29145599617909779 0.35026601625021492 0 0.32540781287085369 0.49175159894608172 0 0.17872124008781709 0.39692711089439497 0 0.37764981543668408 0.41341486499350411 0 0.29145599617909779 0.35026601625021492 0 0.32540781287085369 0.49175159894608172 0 0.37764981543668408 0.41341486499350411 0 0.41576443813007791 0.48093483781626972 0 0.32540781287085369 0.49175159894608172 0 0.17872124008781709 0.39692711089439497 0 0 0.25000000000104189 0 0 0.50000000000206157 0 0.17872124008781709 0.39692711089439497 0 0 0.50000000000206157 0 0.22453074737734591 0.51613635929252633 0 0.32540781287085369 0.49175159894608172 0 0.17872124008781709 0.39692711089439497 0 0.22453074737734591 0.51613635929252633 0 0.18653882694645291 0.22249173546702489 0 0.29145599617909779 0.35026601625021492 0 0.17872124008781709 0.39692711089439497 0 0.18653882694645291 0.22249173546702489 0 0.17872124008781709 0.39692711089439497 0 0 0.25000000000104189 0 0 0.50000000000206157 0 0.18442368612951149 0.62734948407416979 0 0 0.75000000000034772 0 0.18442368612951149 0.62734948407416979 0 0.22727208279115291 0.72949159435386135 0 0 0.75000000000034772 0 0.18442368612951149 0.62734948407416979 0 0.22727208279115291 0.72949159435386135 0 0.31346558946927339 0.67110784456164874 0 0.18442368612951149 0.62734948407416979 0 0.22453074737734591 0.51613635929252633 0 0.31771010312359771 0.58585679504088894 0 0 0.50000000000206157 0 0.18442368612951149 0.62734948407416979 0 0.22453074737734591 0.51613635929252633 0 0 1 0 0.096516139048187316 0.89789944498939644 0 0 0.75000000000034772 0 0 1 0 0.096516139048187316 0.89789944498939644 0 0.1596341872805197 1 0 0.096516139048187316 0.89789944498939644 0 0 0.75000000000034772 0 0.1644705180525495 0.8200994301041713 0 0.1644705180525495 0.8200994301041713 0 0.2386314078659193 0.92924778694987087 0 0.27155609766735261 0.80398965554903801 0 0.22727208279115291 0.72949159435386135 0 0 0.75000000000034772 0 0.1644705180525495 0.8200994301041713 0 0.22727208279115291 0.72949159435386135 0 0.1644705180525495 0.8200994301041713 0 0.27155609766735261 0.80398965554903801 0 0.096516139048187316 0.89789944498939644 0 0.1644705180525495 0.8200994301041713 0 0.2386314078659193 0.92924778694987087 0 0.096516139048187316 0.89789944498939644 0 0.2386314078659193 0.92924778694987087 0 0.1596341872805197 1 0 0.2386314078659193 0.92924778694987087 0 0.1596341872805197 1 0 0.27591592301363282 1 0 0.36061858902161292 1 0 0.32789203369730929 0.94219211037003092 0 0.27591592301363282 1 0 0.36061858902161292 1 0 0.32789203369730929 0.94219211037003092 0 0.39382242252278338 0.95440420122950598 0 0.2386314078659193 0.92924778694987087 0 0.32789203369730929 0.94219211037003092 0 0.27591592301363282 1 0 0.2386314078659193 0.92924778694987087 0 0.32789203369730929 0.94219211037003092 0 0.31834856208730472 0.88134829947972904 0 0.32789203369730929 0.94219211037003092 0 0.37746652222901839 0.8987532801416368 0 0.39382242252278338 0.95440420122950598 0 0.32789203369730929 0.94219211037003092 0 0.31834856208730472 0.88134829947972904 0 0.37746652222901839 0.8987532801416368 0 0.2386314078659193 0.92924778694987087 0 0.31834856208730472 0.88134829947972904 0 0.27155609766735261 0.80398965554903801 0 0.31834856208730472 0.88134829947972904 0 0.36493375430404612 0.82333914183704071 0 0.37746652222901839 0.8987532801416368 0 0.31834856208730472 0.88134829947972904 0 0.36493375430404612 0.82333914183704071 0 0.27155609766735261 0.80398965554903801 0 0.22727208279115291 0.72949159435386135 0 0.27155609766735261 0.80398965554903801 0 0.32984265945580837 0.74432890077789404 0 0.36493375430404612 0.82333914183704071 0 0.27155609766735261 0.80398965554903801 0 0.32984265945580837 0.74432890077789404 0 0.36493375430404612 0.82333914183704071 0 0.39746869305290999 0.7595658224757349 0 0.32984265945580837 0.74432890077789404 0 0.36493375430404612 0.82333914183704071 0 0.39746869305290999 0.7595658224757349 0 0.42893012659725649 0.81084715169569632 0 0.39746869305290999 0.7595658224757349 0 0.42893012659725649 0.81084715169569632 0 0.44651949253391748 0.77225997208621999 0 0.39746869305290999 0.7595658224757349 0 0.44651949253391748 0.77225997208621999 0 0.43412357948152142 0.72128778687215156 0 0.44651949253391748 0.77225997208621999 0 0.47786860714145291 0.77730227330627721 0 0.47220206448452873 0.74892462649306213 0 0.47786860714145291 0.77730227330627721 0 0.47220206448452873 0.74892462649306213 0 0.5 0.76470588235294124 0 0.47786860714145291 0.77730227330627721 0 0.5 0.79411764705882359 0 0.5 0.76470588235294124 0 0.47062147868881782 0.80650323854033878 0 0.5 0.82352941176470584 0 0.5 0.79411764705882359 0 0.47786860714145291 0.77730227330627721 0 0.47062147868881782 0.80650323854033878 0 0.5 0.79411764705882359 0 0.44651949253391748 0.77225997208621999 0 0.47786860714145291 0.77730227330627721 0 0.47062147868881782 0.80650323854033878 0 0.42893012659725649 0.81084715169569632 0 0.44651949253391748 0.77225997208621999 0 0.47062147868881782 0.80650323854033878 0 0.42893012659725649 0.81084715169569632 0 0.47062147868881782 0.80650323854033878 0 0.46181179062043481 0.83858979842637782 0 0.42893012659725649 0.81084715169569632 0 0.46181179062043481 0.83858979842637782 0 0.42880856207355889 0.86677159981903118 0 0.46181179062043481 0.83858979842637782 0 0.5 0.85294117647058831 0 0.5 0.82352941176470584 0 0.47062147868881782 0.80650323854033878 0 0.46181179062043481 0.83858979842637782 0 0.5 0.82352941176470584 0 0.46181179062043481 0.83858979842637782 0 0.47032448519202857 0.86718057681700655 0 0.5 0.85294117647058831 0 0.47032448519202857 0.86718057681700655 0 0.5 0.88235294117647056 0 0.5 0.85294117647058831 0 0.46181179062043481 0.83858979842637782 0 0.47032448519202857 0.86718057681700655 0 0.42880856207355889 0.86677159981903118 0 0.36493375430404612 0.82333914183704071 0 0.42880856207355889 0.86677159981903118 0 0.37746652222901839 0.8987532801416368 0 0.36493375430404612 0.82333914183704071 0 0.42893012659725649 0.81084715169569632 0 0.42880856207355889 0.86677159981903118 0 0.37746652222901839 0.8987532801416368 0 0.42822627495986648 0.92083108049218854 0 0.39382242252278338 0.95440420122950598 0 0.42880856207355889 0.86677159981903118 0 0.37746652222901839 0.8987532801416368 0 0.42822627495986648 0.92083108049218854 0 0.47032448519202857 0.86718057681700655 0 0.42880856207355889 0.86677159981903118 0 0.46100207326614928 0.89524736819256467 0 0.42880856207355889 0.86677159981903118 0 0.42822627495986648 0.92083108049218854 0 0.46100207326614928 0.89524736819256467 0 0.47032448519202857 0.86718057681700655 0 0.46100207326614928 0.89524736819256467 0 0.5 0.88235294117647056 0 0.46100207326614928 0.89524736819256467 0 0.5 0.91176470588235292 0 0.5 0.88235294117647056 0 0.46100207326614928 0.89524736819256467 0 0.46949408183482899 0.92833826413560594 0 0.5 0.91176470588235292 0 0.46949408183482899 0.92833826413560594 0 0.5 0.94117647058823528 0 0.5 0.91176470588235292 0 0.42822627495986648 0.92083108049218854 0 0.46100207326614928 0.89524736819256467 0 0.46949408183482899 0.92833826413560594 0 0.46949408183482899 0.92833826413560594 0 0.44768478605684647 0.9646709673379662 0 0.47596308696979028 0.95620709615192379 0 0.42822627495986648 0.92083108049218854 0 0.46949408183482899 0.92833826413560594 0 0.44768478605684647 0.9646709673379662 0 0.44768478605684647 0.9646709673379662 0 0.47596308696979028 0.95620709615192379 0 0.47818194888216242 0.97829325975680159 0 0.46949408183482899 0.92833826413560594 0 0.47596308696979028 0.95620709615192379 0 0.5 0.94117647058823528 0 0.47596308696979028 0.95620709615192379 0 0.47818194888216242 0.97829325975680159 0 0.5 0.97058823529411764 0 0.47596308696979028 0.95620709615192379 0 0.5 0.97058823529411764 0 0.5 0.94117647058823528 0 0.47818194888216242 0.97829325975680159 0 0.46726187138417491 1 0 0.5 1 0 0.47818194888216242 0.97829325975680159 0 0.5 0.97058823529411764 0 0.5 1 0 0.44768478605684647 0.9646709673379662 0 0.47818194888216242 0.97829325975680159 0 0.46726187138417491 1 0 0.44768478605684647 0.9646709673379662 0 0.46726187138417491 1 0 0.42231823435723009 1 0 0.44768478605684647 0.9646709673379662 0 0.42231823435723009 1 0 0.39382242252278338 0.95440420122950598 0 0.42822627495986648 0.92083108049218854 0 0.44768478605684647 0.9646709673379662 0 0.39382242252278338 0.95440420122950598 0 0.36061858902161292 1 0 0.42231823435723009 1 0 0.39382242252278338 0.95440420122950598 0 0.31771010312359771 0.58585679504088894 0 0.3872154068451229 0.6301386882447304 0 0.41980724897053312 0.55867199730355355 0 0.32540781287085369 0.49175159894608172 0 0.31771010312359771 0.58585679504088894 0 0.41980724897053312 0.55867199730355355 0 0.32540781287085369 0.49175159894608172 0 0.22453074737734591 0.51613635929252633 0 0.31771010312359771 0.58585679504088894 0 0.18442368612951149 0.62734948407416979 0 0.31771010312359771 0.58585679504088894 0 0.31346558946927339 0.67110784456164874 0 0.22727208279115291 0.72949159435386135 0 0.32984265945580837 0.74432890077789404 0 0.31346558946927339 0.67110784456164874 0 0.39746869305290999 0.7595658224757349 0 0.32984265945580837 0.74432890077789404 0 0.38513711431054509 0.69312683393047636 0 0.32984265945580837 0.74432890077789404 0 0.31346558946927339 0.67110784456164874 0 0.38513711431054509 0.69312683393047636 0 0.31771010312359771 0.58585679504088894 0 0.31346558946927339 0.67110784456164874 0 0.3872154068451229 0.6301386882447304 0 0.31346558946927339 0.67110784456164874 0 0.3872154068451229 0.6301386882447304 0 0.38513711431054509 0.69312683393047636 0 0.3872154068451229 0.6301386882447304 0 0.38513711431054509 0.69312683393047636 0 0.4390556798454946 0.66199025953586599 0 0.3872154068451229 0.6301386882447304 0 0.4390556798454946 0.66199025953586599 0 0.44702869549010399 0.61002701911053991 0 0.39746869305290999 0.7595658224757349 0 0.38513711431054509 0.69312683393047636 0 0.43412357948152142 0.72128778687215156 0 0.38513711431054509 0.69312683393047636 0 0.43412357948152142 0.72128778687215156 0 0.4390556798454946 0.66199025953586599 0 0.43412357948152142 0.72128778687215156 0 0.47636314644728822 0.72058823529411908 0 0.47220206448452873 0.74892462649306213 0 0.44651949253391748 0.77225997208621999 0 0.43412357948152142 0.72128778687215156 0 0.47220206448452873 0.74892462649306213 0 0.43412357948152142 0.72128778687215156 0 0.46330219403010409 0.69594601192744354 0 0.4390556798454946 0.66199025953586599 0 0.43412357948152142 0.72128778687215156 0 0.46330219403010409 0.69594601192744354 0 0.47636314644728822 0.72058823529411908 0 0.46330219403010409 0.69594601192744354 0 0.47636314644728822 0.72058823529411908 0 0.5 0.70588235294117663 0 0.46330219403010409 0.69594601192744354 0 0.5 0.67647058823529438 0 0.5 0.70588235294117663 0 0.47636314644728822 0.72058823529411908 0 0.5 0.73529411764705888 0 0.5 0.70588235294117663 0 0.47220206448452873 0.74892462649306213 0 0.5 0.73529411764705888 0 0.5 0.76470588235294124 0 0.47636314644728822 0.72058823529411908 0 0.47220206448452873 0.74892462649306213 0 0.5 0.73529411764705888 0 0.4390556798454946 0.66199025953586599 0 0.47501372853621993 0.66300743809067952 0 0.47271076880550111 0.63357150722538136 0 0.4390556798454946 0.66199025953586599 0 0.47271076880550111 0.63357150722538136 0 0.44702869549010399 0.61002701911053991 0 0.46330219403010409 0.69594601192744354 0 0.4390556798454946 0.66199025953586599 0 0.47501372853621993 0.66300743809067952 0 0.46330219403010409 0.69594601192744354 0 0.47501372853621993 0.66300743809067952 0 0.5 0.67647058823529438 0 0.47501372853621993 0.66300743809067952 0 0.5 0.64705882352941191 0 0.5 0.67647058823529438 0 0.47501372853621993 0.66300743809067952 0 0.47271076880550111 0.63357150722538136 0 0.5 0.64705882352941191 0 0.47271076880550111 0.63357150722538136 0 0.5 0.61764705882352966 0 0.5 0.64705882352941191 0 0.47784843225772261 0.60532339797118362 0 0.5 0.5882352941176473 0 0.5 0.61764705882352966 0 0.47271076880550111 0.63357150722538136 0 0.47784843225772261 0.60532339797118362 0 0.5 0.61764705882352966 0 0.46950269699300751 0.57713611057881953 0 0.5 0.55882352941176494 0 0.5 0.5882352941176473 0 0.47784843225772261 0.60532339797118362 0 0.46950269699300751 0.57713611057881953 0 0.5 0.5882352941176473 0 0.46950269699300751 0.57713611057881953 0 0.44702869549010399 0.61002701911053991 0 0.41980724897053312 0.55867199730355355 0 0.47784843225772261 0.60532339797118362 0 0.46950269699300751 0.57713611057881953 0 0.44702869549010399 0.61002701911053991 0 0.47271076880550111 0.63357150722538136 0 0.47784843225772261 0.60532339797118362 0 0.44702869549010399 0.61002701911053991 0 0.3872154068451229 0.6301386882447304 0 0.44702869549010399 0.61002701911053991 0 0.41980724897053312 0.55867199730355355 0 0.41576443813007791 0.48093483781626972 0 0.32540781287085369 0.49175159894608172 0 0.41980724897053312 0.55867199730355355 0 0.41576443813007791 0.48093483781626972 0 0.41980724897053312 0.55867199730355355 0 0.4638583922372429 0.51470588235294135 0 0.41980724897053312 0.55867199730355355 0 0.4638583922372429 0.51470588235294135 0 0.47063366764015668 0.5477498568705923 0 0.46950269699300751 0.57713611057881953 0 0.41980724897053312 0.55867199730355355 0 0.47063366764015668 0.5477498568705923 0 0.46950269699300751 0.57713611057881953 0 0.47063366764015668 0.5477498568705923 0 0.5 0.55882352941176494 0 0.47063366764015668 0.5477498568705923 0 0.5 0.52941176470588269 0 0.5 0.55882352941176494 0 0.4638583922372429 0.51470588235294135 0 0.47063366764015668 0.5477498568705923 0 0.5 0.52941176470588269 0 0.4638583922372429 0.51470588235294135 0 0.5 0.5 0 0.5 0.52941176470588269 0 0.5 0.52941176470588269 0 0.52629893369322589 0.51330452493555312 0 0.52820848765230954 0.54540076010342464 0 0.5 0.5 0 0.5 0.52941176470588269 0 0.52629893369322589 0.51330452493555312 0 0.5 0.5 0 0.5 0.52941176470588269 0 0.5 0.52941176470588269 0 0.5 0.55882352941176494 0 0.52820848765230954 0.54540076010342464 0 0.5 0.52941176470588269 0 0.5 0.55882352941176494 0 0.5 0.55882352941176494 0 0.52820848765230954 0.54540076010342464 0 0.52246722155046366 0.57417151085839346 0 0.52820848765230954 0.54540076010342464 0 0.56199650931215228 0.51957997397013023 0 0.55931585964581554 0.57571189932143541 0 0.52629893369322589 0.51330452493555312 0 0.56199650931215228 0.51957997397013023 0 0.54128967150166729 0.47213012589832831 0 0.52629893369322589 0.51330452493555312 0 0.52820848765230954 0.54540076010342464 0 0.56199650931215228 0.51957997397013023 0 0.56199650931215228 0.51957997397013023 0 0.61174067805461174 0.54148194547208961 0 0.60345082206666756 0.47575908627627911 0 0.56199650931215228 0.51957997397013023 0 0.61174067805461174 0.54148194547208961 0 0.55931585964581554 0.57571189932143541 0 0.61174067805461174 0.54148194547208961 0 0.61264973759093866 0.60999664295093947 0 0.55931585964581554 0.57571189932143541 0 0.61264973759093866 0.60999664295093947 0 0.55931585964581554 0.57571189932143541 0 0.55828304378107996 0.63546085023637511 0 0.55931585964581554 0.57571189932143541 0 0.52754891270107895 0.60396918438229519 0 0.55828304378107996 0.63546085023637511 0 0.52754891270107895 0.60396918438229519 0 0.52222323737415433 0.63323059203007803 0 0.55828304378107996 0.63546085023637511 0 0.52820848765230954 0.54540076010342464 0 0.55931585964581554 0.57571189932143541 0 0.52246722155046366 0.57417151085839346 0 0.55931585964581554 0.57571189932143541 0 0.52246722155046366 0.57417151085839346 0 0.52754891270107895 0.60396918438229519 0 0.52246722155046366 0.57417151085839346 0 0.5 0.5882352941176473 0 0.52754891270107895 0.60396918438229519 0 0.5 0.55882352941176494 0 0.52246722155046366 0.57417151085839346 0 0.5 0.5882352941176473 0 0.5 0.55882352941176494 0 0.5 0.5882352941176473 0 0.52754891270107895 0.60396918438229519 0 0.5 0.61764705882352966 0 0.52222323737415433 0.63323059203007803 0 0.5 0.5882352941176473 0 0.5 0.61764705882352966 0 0.5 0.5882352941176473 0 0.52754891270107895 0.60396918438229519 0 0.5 0.61764705882352966 0 0.5 0.61764705882352966 0 0.52222323737415433 0.63323059203007803 0 0.5 0.64705882352941191 0 0.5 0.61764705882352966 0 0.5 0.64705882352941191 0 0.52222323737415433 0.63323059203007803 0 0.5 0.64705882352941191 0 0.52736180768426655 0.66304505109048573 0 0.5 0.64705882352941191 0 0.5 0.67647058823529438 0 0.52736180768426655 0.66304505109048573 0 0.5 0.64705882352941191 0 0.5 0.67647058823529438 0 0.5 0.67647058823529438 0 0.52736180768426655 0.66304505109048573 0 0.52189318962165776 0.69193883095305098 0 0.52736180768426655 0.66304505109048573 0 0.52189318962165776 0.69193883095305098 0 0.55852327729743823 0.69498827241231187 0 0.52736180768426655 0.66304505109048573 0 0.55828304378107996 0.63546085023637511 0 0.55852327729743823 0.69498827241231187 0 0.52222323737415433 0.63323059203007803 0 0.52736180768426655 0.66304505109048573 0 0.55828304378107996 0.63546085023637511 0 0.5 0.73529411764705888 0 0.52547133540542634 0.72058823529411897 0 0.5211984712236245 0.75134107022269114 0 0.5 0.73529411764705888 0 0.52547133540542634 0.72058823529411897 0 0.5 0.70588235294117663 0 0.5 0.73529411764705888 0 0.5 0.70588235294117663 0 0.52547133540542634 0.72058823529411897 0 0.5 0.70588235294117663 0 0.52189318962165776 0.69193883095305098 0 0.5 0.67647058823529438 0 0.5 0.70588235294117663 0 0.52189318962165776 0.69193883095305098 0 0.5 0.67647058823529438 0 0.5 0.70588235294117663 0 0.52547133540542634 0.72058823529411897 0 0.52189318962165776 0.69193883095305098 0 0.55852327729743823 0.69498827241231187 0 0.52547133540542634 0.72058823529411897 0 0.5211984712236245 0.75134107022269114 0 0.55458114032207428 0.75544804615062711 0 0.52547133540542634 0.72058823529411897 0 0.55852327729743823 0.69498827241231187 0 0.55458114032207428 0.75544804615062711 0 0.55852327729743823 0.69498827241231187 0 0.6088970477846376 0.72715446211577472 0 0.55458114032207428 0.75544804615062711 0 0.55852327729743823 0.69498827241231187 0 0.6088970477846376 0.72715446211577472 0 0.60110770968787908 0.67045598539422102 0 0.61264973759093866 0.60999664295093947 0 0.55828304378107996 0.63546085023637511 0 0.60110770968787908 0.67045598539422102 0 0.55828304378107996 0.63546085023637511 0 0.55852327729743823 0.69498827241231187 0 0.60110770968787908 0.67045598539422102 0 0.61264973759093866 0.60999664295093947 0 0.60110770968787908 0.67045598539422102 0 0.66621429167335955 0.68470300534742679 0 0.6088970477846376 0.72715446211577472 0 0.66621429167335955 0.68470300534742679 0 0.6817340940367822 0.76923101696744944 0 0.6088970477846376 0.72715446211577472 0 0.60110770968787908 0.67045598539422102 0 0.66621429167335955 0.68470300534742679 0 0.66621429167335955 0.68470300534742679 0 0.6817340940367822 0.76923101696744944 0 0.7828103453665094 0.69876044407634474 0 0.66621429167335955 0.68470300534742679 0 0.69354174170208815 0.57892485983477626 0 0.7828103453665094 0.69876044407634474 0 0.69354174170208815 0.57892485983477626 0 0.77935529174931761 0.49004815756283893 0 0.66681557370681976 0.49435464945626773 0 0.61174067805461174 0.54148194547208961 0 0.69354174170208815 0.57892485983477626 0 0.66681557370681976 0.49435464945626773 0 0.61174067805461174 0.54148194547208961 0 0.60345082206666756 0.47575908627627911 0 0.66681557370681976 0.49435464945626773 0 0.61174067805461174 0.54148194547208961 0 0.61264973759093866 0.60999664295093947 0 0.69354174170208815 0.57892485983477626 0 0.61264973759093866 0.60999664295093947 0 0.66621429167335955 0.68470300534742679 0 0.69354174170208815 0.57892485983477626 0 0.60145933092659498 0.94808652648958736 0 0.57768176564240026 1 0 0.63938141097836054 1 0 0.60145933092659498 0.94808652648958736 0 0.55381003699196441 0.97073734537240042 0 0.55652711631508067 0.93435010280744335 0 0.60145933092659498 0.94808652648958736 0 0.57768176564240026 1 0 0.55381003699196441 0.97073734537240042 0 0.57768176564240026 1 0 0.53273812861558045 1 0 0.55381003699196441 0.97073734537240042 0 0.53273812861558045 1 0 0.55381003699196441 0.97073734537240042 0 0.52191028766292435 0.97912620202886635 0 0.53273812861558045 1 0 0.52191028766292435 0.97912620202886635 0 0.5 1 0 0.52191028766292435 0.97912620202886635 0 0.5 0.97058823529411764 0 0.5 1 0 0.5 0.97058823529411764 0 0.5 1 0 0.5 0.97058823529411764 0 0.5 0.94117647058823528 0 0.5 0.97058823529411764 0 0.5 0.94117647058823528 0 0.52554900427979434 0.95492408164812537 0 0.52191028766292435 0.97912620202886635 0 0.5 0.97058823529411764 0 0.52554900427979434 0.95492408164812537 0 0.5 0.94117647058823528 0 0.52554900427979434 0.95492408164812537 0 0.52149395742518578 0.9280464911497236 0 0.55381003699196441 0.97073734537240042 0 0.52554900427979434 0.95492408164812537 0 0.55652711631508067 0.93435010280744335 0 0.55381003699196441 0.97073734537240042 0 0.52191028766292435 0.97912620202886635 0 0.52554900427979434 0.95492408164812537 0 0.52554900427979434 0.95492408164812537 0 0.55652711631508067 0.93435010280744335 0 0.52149395742518578 0.9280464911497236 0 0.55652711631508067 0.93435010280744335 0 0.52982914238326484 0.89727189043838895 0 0.57507719038536997 0.89743529736491356 0 0.55652711631508067 0.93435010280744335 0 0.52149395742518578 0.9280464911497236 0 0.52982914238326484 0.89727189043838895 0 0.52149395742518578 0.9280464911497236 0 0.5 0.91176470588235292 0 0.52982914238326484 0.89727189043838895 0 0.5 0.94117647058823528 0 0.5 0.91176470588235292 0 0.5 0.94117647058823528 0 0.52149395742518578 0.9280464911497236 0 0.5 0.91176470588235292 0 0.5 0.91176470588235292 0 0.5 0.88235294117647056 0 0.52982914238326484 0.89727189043838895 0 0.5 0.91176470588235292 0 0.5 0.88235294117647056 0 0.5 0.88235294117647056 0 0.52982914238326484 0.89727189043838895 0 0.51991574276818808 0.86764705882352966 0 0.52982914238326484 0.89727189043838895 0 0.57507719038536997 0.89743529736491356 0 0.54799184932697576 0.8599032232094268 0 0.60145933092659498 0.94808652648958736 0 0.55652711631508067 0.93435010280744335 0 0.57507719038536997 0.89743529736491356 0 0.60145933092659498 0.94808652648958736 0 0.57507719038536997 0.89743529736491356 0 0.63427031498547037 0.88927276979110648 0 0.57507719038536997 0.89743529736491356 0 0.58994607995897996 0.84812355238296233 0 0.63427031498547037 0.88927276979110648 0 0.58994607995897996 0.84812355238296233 0 0.64153141236229239 0.83072478436463804 0 0.63427031498547037 0.88927276979110648 0 0.58994607995897996 0.84812355238296233 0 0.60049020024666178 0.78900583008989877 0 0.64153141236229239 0.83072478436463804 0 0.58994607995897996 0.84812355238296233 0 0.54799184932697576 0.8599032232094268 0 0.55206941203846505 0.81091931303809783 0 0.58994607995897996 0.84812355238296233 0 0.55206941203846505 0.81091931303809783 0 0.60049020024666178 0.78900583008989877 0 0.57507719038536997 0.89743529736491356 0 0.58994607995897996 0.84812355238296233 0 0.54799184932697576 0.8599032232094268 0 0.52982914238326484 0.89727189043838895 0 0.54799184932697576 0.8599032232094268 0 0.51991574276818808 0.86764705882352966 0 0.54799184932697576 0.8599032232094268 0 0.51991574276818808 0.86764705882352966 0 0.52395085592512047 0.83729395211968571 0 0.51991574276818808 0.86764705882352966 0 0.5 0.85294117647058831 0 0.52395085592512047 0.83729395211968571 0 0.5 0.88235294117647056 0 0.5 0.85294117647058831 0 0.5 0.88235294117647056 0 0.51991574276818808 0.86764705882352966 0 0.5 0.85294117647058831 0 0.5 0.82352941176470584 0 0.52395085592512047 0.83729395211968571 0 0.52039202967084142 0.80930587873000437 0 0.5 0.85294117647058831 0 0.5 0.82352941176470584 0 0.5 0.85294117647058831 0 0.5 0.82352941176470584 0 0.52395085592512047 0.83729395211968571 0 0.52395085592512047 0.83729395211968571 0 0.55206941203846505 0.81091931303809783 0 0.52039202967084142 0.80930587873000437 0 0.54799184932697576 0.8599032232094268 0 0.52395085592512047 0.83729395211968571 0 0.55206941203846505 0.81091931303809783 0 0.55206941203846505 0.81091931303809783 0 0.52039202967084142 0.80930587873000437 0 0.52593988039062167 0.78066906966870908 0 0.55206941203846505 0.81091931303809783 0 0.52593988039062167 0.78066906966870908 0 0.55458114032207428 0.75544804615062711 0 0.52039202967084142 0.80930587873000437 0 0.5 0.79411764705882359 0 0.52593988039062167 0.78066906966870908 0 0.5 0.82352941176470584 0 0.5 0.79411764705882359 0 0.5 0.82352941176470584 0 0.52039202967084142 0.80930587873000437 0 0.5 0.79411764705882359 0 0.5 0.73529411764705888 0 0.5 0.76470588235294124 0 0.5 0.73529411764705888 0 0.5 0.76470588235294124 0 0.5211984712236245 0.75134107022269114 0 0.5 0.79411764705882359 0 0.5 0.76470588235294124 0 0.52593988039062167 0.78066906966870908 0 0.5 0.79411764705882359 0 0.5 0.76470588235294124 0 0.5 0.76470588235294124 0 0.52593988039062167 0.78066906966870908 0 0.5211984712236245 0.75134107022269114 0 0.52593988039062167 0.78066906966870908 0 0.5211984712236245 0.75134107022269114 0 0.55458114032207428 0.75544804615062711 0 0.6088970477846376 0.72715446211577472 0 0.55458114032207428 0.75544804615062711 0 0.60049020024666178 0.78900583008989877 0 0.55206941203846505 0.81091931303809783 0 0.55458114032207428 0.75544804615062711 0 0.60049020024666178 0.78900583008989877 0 0.6817340940367822 0.76923101696744944 0 0.70916369539323409 0.86041409043207073 0 0.80987878298654392 0.8110307373443908 0 0.6088970477846376 0.72715446211577472 0 0.60049020024666178 0.78900583008989877 0 0.6817340940367822 0.76923101696744944 0 0.60049020024666178 0.78900583008989877 0 0.6817340940367822 0.76923101696744944 0 0.64153141236229239 0.83072478436463804 0 0.70916369539323409 0.86041409043207073 0 0.64153141236229239 0.83072478436463804 0 0.63427031498547037 0.88927276979110648 0 0.6817340940367822 0.76923101696744944 0 0.70916369539323409 0.86041409043207073 0 0.64153141236229239 0.83072478436463804 0 0.70916369539323409 0.86041409043207073 0 0.68173274398262862 0.93660593960145366 0 0.63427031498547037 0.88927276979110648 0 0.60145933092659498 0.94808652648958736 0 0.68173274398262862 0.93660593960145366 0 0.63427031498547037 0.88927276979110648 0 0.70916369539323409 0.86041409043207073 0 0.68173274398262862 0.93660593960145366 0 0.78222494485339233 0.91531439423588867 0 0.68173274398262862 0.93660593960145366 0 0.72408407698689681 1 0 0.78222494485339233 0.91531439423588867 0 0.60145933092659498 0.94808652648958736 0 0.68173274398262862 0.93660593960145366 0 0.63938141097836054 1 0 0.68173274398262862 0.93660593960145366 0 0.72408407698689681 1 0 0.63938141097836054 1 0 1 1 0 0.89611933618281592 0.89173516444576184 0 1 0.74999999999934008 0 0.72408407698689681 1 0 0.84036581271988753 1 0 0.78222494485339233 0.91531439423588867 0 0.84036581271988753 1 0 0.78222494485339233 0.91531439423588867 0 0.89611933618281592 0.89173516444576184 0 0.6817340940367822 0.76923101696744944 0 0.80987878298654392 0.8110307373443908 0 0.7828103453665094 0.69876044407634474 0 0.80987878298654392 0.8110307373443908 0 0.7828103453665094 0.69876044407634474 0 1 0.74999999999934008 0 0.78222494485339233 0.91531439423588867 0 0.80987878298654392 0.8110307373443908 0 0.89611933618281592 0.89173516444576184 0 0.70916369539323409 0.86041409043207073 0 0.78222494485339233 0.91531439423588867 0 0.80987878298654392 0.8110307373443908 0 0.80987878298654392 0.8110307373443908 0 0.89611933618281592 0.89173516444576184 0 1 0.74999999999934008 0 0.84036581271988753 1 0 1 1 0 0.89611933618281592 0.89173516444576184 0 0.84549316180028322 0.59867304496468476 0 1 0.74999999999934008 0 1 0.49999999999869182 0 0.69354174170208815 0.57892485983477626 0 0.84549316180028322 0.59867304496468476 0 0.77935529174931761 0.49004815756283893 0 0.84549316180028322 0.59867304496468476 0 1 0.49999999999869182 0 0.77935529174931761 0.49004815756283893 0 0.69354174170208815 0.57892485983477626 0 0.84549316180028322 0.59867304496468476 0 0.7828103453665094 0.69876044407634474 0 0.84549316180028322 0.59867304496468476 0 0.7828103453665094 0.69876044407634474 0 1 0.74999999999934008 0 1 0.49999999999869182 0 0.77935529174931761 0.49004815756283893 0 0.80451351819826811 0.35479918680564199 0 0.80451351819826811 0.35479918680564199 0 1 0.24999999999941089 0 0.79923457477009219 0.1751534052300894 0 1 0.49999999999869182 0 0.80451351819826811 0.35479918680564199 0 1 0.24999999999941089 0 1 0 0 0.79923457477009219 0.1751534052300894 0 0.74999999999934008 0 0 1 0.24999999999941089 0 1 0 0 0.79923457477009219 0.1751534052300894 0 0.49999999999869182 0 0 0.62537763927714929 0.14286513648320209 0 0.74999999999934008 0 0 0.79923457477009219 0.1751534052300894 0 0.62537763927714929 0.14286513648320209 0 0.6197279975813802 0.30020319976287241 0 0.79923457477009219 0.1751534052300894 0 0.62537763927714929 0.14286513648320209 0 0.74999999999934008 0 0 0.49924741621175961 0.21507969613896921 0 0.49999999999869182 0 0 0.62537763927714929 0.14286513648320209 0 0.49924741621175961 0.21507969613896921 0 0.62537763927714929 0.14286513648320209 0 0.6197279975813802 0.30020319976287241 0 0.49924741621175961 0.21507969613896921 0 0.49435464945626773 0.33318442629318029 0 0.6197279975813802 0.30020319976287241 0 0.49435464945626773 0.33318442629318029 0 0.6197279975813802 0.30020319976287241 0 0.54876010062294855 0.39662628167175101 0 0.6197279975813802 0.30020319976287241 0 0.54876010062294855 0.39662628167175101 0 0.66576775508844777 0.41353720431697111 0 0.49954900152271581 0.45107191084564019 0 0.45418244162583959 0.41624787166862259 0 0.54876010062294855 0.39662628167175101 0 0.49954900152271581 0.45107191084564019 0 0.54876010062294855 0.39662628167175101 0 0.54128967150166729 0.47213012589832831 0 0.49954900152271581 0.45107191084564019 0 0.5 0.5 0 0.54128967150166729 0.47213012589832831 0 0.5 0.5 0 0.52629893369322589 0.51330452493555312 0 0.54128967150166729 0.47213012589832831 0 0.54876010062294855 0.39662628167175101 0 0.54128967150166729 0.47213012589832831 0 0.60345082206666756 0.47575908627627911 0 0.56199650931215228 0.51957997397013023 0 0.54128967150166729 0.47213012589832831 0 0.60345082206666756 0.47575908627627911 0 0.54876010062294855 0.39662628167175101 0 0.60345082206666756 0.47575908627627911 0 0.66576775508844777 0.41353720431697111 0 0.77935529174931761 0.49004815756283893 0 0.80451351819826811 0.35479918680564199 0 0.66576775508844777 0.41353720431697111 0 0.60345082206666756 0.47575908627627911 0 0.66576775508844777 0.41353720431697111 0 0.66681557370681976 0.49435464945626773 0 0.77935529174931761 0.49004815756283893 0 0.66576775508844777 0.41353720431697111 0 0.66681557370681976 0.49435464945626773 0 0.80451351819826811 0.35479918680564199 0 0.79923457477009219 0.1751534052300894 0 0.6197279975813802 0.30020319976287241 0 0.80451351819826811 0.35479918680564199 0 0.6197279975813802 0.30020319976287241 0 0.66576775508844777 0.41353720431697111 0 
</DataArray>
</Points>
<Cells>
<DataArray type="UInt32" Name="connectivity" format="ascii">
0 1 2 3 4 5 6 7 8 9 10 11 12 13 14 15 16 17 18 19 20 21 22 23 24 25 26 27 28 29 30 31 32 33 34 35 36 37 38 39 40 41 42 43 44 45 46 47 48 49 50 51 52 53 54 55 56 57 58 59 60 61 62 63 64 65 66 67 68 69 70 71 72 73 74 75 76 77 78 79 80 81 82 83 84 85 86 87 88 89 90 91 92 93 94 95 96 97 98 99 100 101 102 103 104 105 106 107 108 109 110 111 112 113 114 115 116 117 118 119 120 121 122 123 124 125 126 127 128 129 130 131 132 133 134 135 136 137 138 139 140 141 142 143 144 145 146 147 148 149 150 151 152 153 154 155 156 157 158 159 160 161 162 163 164 165 166 167 168 169 170 171 172 173 174 175 176 177 178 179 180 181 182 183 184 185 186 187 188 189 190 191 192 193 194 195 196 197 198 199 200 201 202 203 204 205 206 207 208 209 210 211 212 213 214 215 216 217 218 219 220 221 222 223 224 225 226 227 228 229 230 231 232 233 234 235 236 237 238 239 240 241 242 243 244 245 246 247 248 249 250 251 252 253 254 255 256 257 258 259 260 261 262 263 264 265 266 267 268 269 270 271 272 273 274 275 276 277 278 279 280 281 282 283 284 285 286 287 288 289 290 291 292 293 294 295 296 297 298 299 300 301 302 303 304 305 306 307 308 309 310 311 312 313 314 315 316 317 318 319 320 321 322 323 324 325 326 327 328 329 330 331 332 333 334 335 336 337 338 339 340 341 342 343 344 345 346 347 348 349 350 351 352 353 354 355 356 357 358 359 360 361 362 363 364 365 366 367 368 369 370 371 372 373 374 375 376 377 378 379 380 381 382 383 384 385 386 387 388 389 390 391 392 393 394 395 396 397 398 399 400 401 402 403 404 405 406 407 408 409 410 411 412 413 414 415 416 417 418 419 420 421 422 423 424 425 426 427 428 429 430 431 432 433 434 435 436 437 438 439 440 441 442 443 444 445 446 447 448 449 450 451 452 453 454 455 456 457 458 459 460 461 462 463 464 465 466 467 468 469 470 471 472 473 474 475 476 477 478 479 480 481 482 483 484 485 486 487 488 489 490 491 492 493 494 495 496 497 498 499 500 501 502 503 504 505 506 507 508 509 510 511 512 513 514 515 516 517 518 519 520 521 522 523 524 525 526 527 528 529 530 531 532 533 534 535 536 537 538 539 540 541 542 543 544 545 546 547 548 549 550 551 552 553 554 555 556 557 558 559 560 561 562 563 564 565 566 567 568 569 570 571 572 573 574 575 576 577 578 579 580 581 582 583 584 585 586 587 588 589 590 591 592 593 594 595 596 597 598 599 600 601 602 603 604 605 606 607 608 609 610 611 612 613 614 615 616 617 618 619 620 621 622 623 624 625 626 627 628 629 630 631 632 633 634 635 636 637 638 639 640 641 642 643 644 645 646 647 648 649 650 651 652 653 654 655 656 657 658 659 660 661 662 663 664 665 666 667 668 669 670 671 672 673 674 675 676 677 678 679 680 681 682 683 684 685 686 687 688 689 690 691 692 693 694 695 696 697 698 699 700 701 702 703 704 705 706 707 708 709 710 711 712 713 714 715 716 717 718 719 720 721 722 723 724 725 726 727 728 729 730 731 732 733 734 735 736 737 738 739 740 741 742 743 744 745 746 747 748 749 750 751 752 753 754 755 756 757 758 759 760 761 762 763 764 765 766 767 768 769 770 771 772 773 774 775 776 777 778 779 780 781 782 783 784 785 786 787 788 789 790 791 792 793 794 795 796 797 798 799 800 801 802 803 804 805 806 807 808 809 810 811 812 813 814 815 816 817 818 819 820 821 822 823 824 825 826 827 828 829 830 831 832 833 834 835 836 837 838 839 840 841 842 843 844 845 846 847 848 849 850 851 852 853 854 855 856 857 858 859 860 861 862 863 864 865 866 867 868 869 870 871 872 873 874 875 876 877 878 879 
</DataArray>
<DataArray type="UInt32" Name="offsets" format="ascii">
3 6 9 12 15 18 21 24 27 30 33 36 39 42 45 48 51 54 57 60 63 66 69 72 75 78 81 84 87 90 93 96 99 102 105 108 111 114 117 120 123 126 129 132 135 138 141 144 147 150 153 156 159 162 165 168 171 174 177 180 183 186 189 192 195 198 201 204 207 210 213 216 219 222 225 228 231 234 237 240 243 246 249 252 255 258 261 264 267 270 273 276 279 282 285 288 291 294 297 300 303 306 309 312 315 318 321 324 327 330 333 336 339 342 345 348 351 354 357 360 363 366 369 372 375 378 381 384 387 390 393 396 399 402 405 408 411 414 417 420 423 425 428 430 433 436 439 442 445 448 451 454 457 460 463 466 469 472 474 477 479 482 485 487 490 493 495 498 501 504 507 510 513 515 518 521 523 526 529 532 535 538 541 544 547 550 553 556 559 562 565 568 571 574 577 580 583 586 589 592 595 597 599 602 605 608 611 614 617 620 623 626 628 631 634 636 639 642 645 648 651 654 657 660 663 666 669 672 675 677 680 683 685 688 691 694 697 700 703 705 708 710 713 716 718 721 724 727 730 733 736 739 742 745 748 751 754 757 760 763 766 769 772 775 778 781 784 787 790 793 796 799 802 805 808 811 814 817 820 823 826 829 832 835 838 841 844 847 850 853 856 859 862 865 868 871 874 877 880 
</DataArray>
<DataArray type="UInt32" Name="types" format="ascii">
5 5 5 5 5 5 5 5 5 5 5 5 5 5 5 5 5 5 5 5 5 5 5 5 5 5 5 5 5 5 5 5 5 5 5 5 5 5 5 5 5 5 5 5 5 5 5 5 5 5 5 5 5 5 5 5 5 5 5 5 5 5 5 5 5 5 5 5 5 5 5 5 5 5 5 5 5 5 5 5 5 5 5 5 5 5 5 5 5 5 5 5 5 5 5 5 5 5 5 5 5 5 5 5 5 5 5 5 5 5 5 5 5 5 5 5 5 5 5 5 5 5 5 5 5 5 5 5 5 5 5 5 5 5 5 5 5 5 5 5 5 3 5 3 5 5 5 5 5 5 5 5 5 5 5 5 5 5 3 5 3 5 5 3 5 5 3 5 5 5 5 5 5 3 5 5 3 5 5 5 5 5 5 5 5 5 5 5 5 5 5 5 5 5 5 5 5 5 5 5 5 3 3 5 5 5 5 5 5 5 5 5 3 5 5 3 5 5 5 5 5 5 5 5 5 5 5 5 5 3 5 5 3 5 5 5 5 5 5 3 5 3 5 5 3 5 5 5 5 5 5 5 5 5 5 5 5 5 5 5 5 5 5 5 5 5 5 5 5 5 5 5 5 5 5 5 5 5 5 5 5 5 5 5 5 5 5 5 5 5 5 5 5 5 5 5 5 5 5 
</DataArray>
</Cells>
<PointData Scalars="" Vectors="displacement," Tensors="">
<DataArray type="Float64" Name="displacement" NumberOfComponents="3" format="ascii">
-6.5647934845898965e-05 -1.583388438704311e-05 0 -0.012248758796870703 -0.021315085978185769 0 -2.9841779183724742e-06 -3.719538563550593e-06 0 -6.5647934845898965e-05 -1.583388438704311e-05 0 -0.012248758796870703 -0.021315085978185769 0 -0.041939429003051955 -0.040757691441837933 0 -0.041939429003051955 -0.040757691441837933 0 -0.027806781901252228 -0.052918347976649203 0 -0.072170501171449297 -0.090304494895938239 0 -0.012248758796870703 -0.021315085978185769 0 -0.041939429003051955 -0.040757691441837933 0 -0.027806781901252228 -0.052918347976649203 0 -0.027806781901252228 -0.052918347976649203 0 -0.03303463392604597 -0.086346116731984487 0 -0.072170501171449297 -0.090304494895938239 0 -0.027806781901252228 -0.052918347976649203 0 -0.03303463392604597 -0.086346116731984487 0 -0.014325951196582946 -0.063164566124567167 0 -0.0030884238666254839 -0.056247948132520584 0 0.0049224117453772597 -0.065031911693775868 0 -0.0033926075455221385 -0.07384074178832406 0 -0.0030884238666254839 -0.056247948132520584 0 -0.0033926075455221385 -0.07384074178832406 0 -0.014325951196582946 -0.063164566124567167 0 0.0049224117453772597 -0.065031911693775868 0 0.0056819432270693747 -0.076547469122375547 0 -0.0033926075455221385 -0.07384074178832406 0 0.0049224117453772597 -0.065031911693775868 0 0.0056819432270693747 -0.076547469122375547 0 0.010425900074910293 -0.076886592371354839 0 0.0056819432270693747 -0.076547469122375547 0 0.0013907564238130924 -0.085289877739512729 0 0.012062320439981821 -0.085838591402493766 0 0.0056819432270693747 -0.076547469122375547 0 0.010425900074910293 -0.076886592371354839 0 0.012062320439981821 -0.085838591402493766 0 0.0056819432270693747 -0.076547469122375547 0 0.0013907564238130924 -0.085289877739512729 0 -0.0033926075455221385 -0.07384074178832406 0 -0.0033926075455221385 -0.07384074178832406 0 -0.015567063955382347 -0.084341676289862041 0 -0.0074768286926821447 -0.097699841745388816 0 -0.0033926075455221385 -0.07384074178832406 0 -0.015567063955382347 -0.084341676289862041 0 -0.014325951196582946 -0.063164566124567167 0 -0.03303463392604597 -0.086346116731984487 0 -0.015567063955382347 -0.084341676289862041 0 -0.014325951196582946 -0.063164566124567167 0 -0.027806781901252228 -0.052918347976649203 0 -0.014325951196582946 -0.063164566124567167 0 -0.0076743675003671666 -0.038924506985148107 0 -0.0030884238666254839 -0.056247948132520584 0 -0.014325951196582946 -0.063164566124567167 0 -0.0076743675003671666 -0.038924506985148107 0 -0.012248758796870703 -0.021315085978185769 0 -0.027806781901252228 -0.052918347976649203 0 -0.0076743675003671666 -0.038924506985148107 0 -0.0076743675003671666 -0.038924506985148107 0 0.0036474131764952251 -0.045823020025979572 0 -0.002707697171151362 -0.019767656807308 0 -0.0030884238666254839 -0.056247948132520584 0 -0.0076743675003671666 -0.038924506985148107 0 0.0036474131764952251 -0.045823020025979572 0 -0.0030884238666254839 -0.056247948132520584 0 0.0049224117453772597 -0.065031911693775868 0 0.0036474131764952251 -0.045823020025979572 0 -0.002707697171151362 -0.019767656807308 0 -2.9841779183724742e-06 -3.719538563550593e-06 0 4.6552018724996487e-07 -7.656594181698402e-06 0 -0.002707697171151362 -0.019767656807308 0 4.6552018724996487e-07 -7.656594181698402e-06 0 0.0035772135321978688 -0.028070627957018895 0 0.0036474131764952251 -0.045823020025979572 0 -0.002707697171151362 -0.019767656807308 0 0.0035772135321978688 -0.028070627957018895 0 -0.012248758796870703 -0.021315085978185769 0 -0.0076743675003671666 -0.038924506985148107 0 -0.002707697171151362 -0.019767656807308 0 -0.012248758796870703 -0.021315085978185769 0 -0.002707697171151362 -0.019767656807308 0 -2.9841779183724742e-06 -3.719538563550593e-06 0 4.6552018724996487e-07 -7.656594181698402e-06 0 0.0063878934526739447 -0.023114698350150606 0 9.844656812924691e-06 -4.7113089830877248e-06 0 0.0063878934526739447 -0.023114698350150606 0 0.012481528609434717 -0.03124907637118339 0 9.844656812924691e-06 -4.7113089830877248e-06 0 0.0063878934526739447 -0.023114698350150606 0 0.012481528609434717 -0.03124907637118339 0 0.014181806706210441 -0.046402418454767877 0 0.0063878934526739447 -0.023114698350150606 0 0.0035772135321978688 -0.028070627957018895 0 0.009948066963807874 -0.045756329811934913 0 4.6552018724996487e-07 -7.656594181698402e-06 0 0.0063878934526739447 -0.023114698350150606 0 0.0035772135321978688 -0.028070627957018895 0 5.0995936682323754e-05 -1.8657898823030525e-05 0 0.009520598510519793 -0.012443667957809948 0 9.844656812924691e-06 -4.7113089830877248e-06 0 5.0995936682323754e-05 -1.8657898823030525e-05 0 0.009520598510519793 -0.012443667957809948 0 0.028038527469200273 -0.02726505002058463 0 0.009520598510519793 -0.012443667957809948 0 9.844656812924691e-06 -4.7113089830877248e-06 0 0.011980190198066407 -0.022506591324663251 0 0.011980190198066407 -0.022506591324663251 0 0.027564652537881408 -0.038819302723224779 0 0.01957574434852926 -0.04141815804981587 0 0.012481528609434717 -0.03124907637118339 0 9.844656812924691e-06 -4.7113089830877248e-06 0 0.011980190198066407 -0.022506591324663251 0 0.012481528609434717 -0.03124907637118339 0 0.011980190198066407 -0.022506591324663251 0 0.01957574434852926 -0.04141815804981587 0 0.009520598510519793 -0.012443667957809948 0 0.011980190198066407 -0.022506591324663251 0 0.027564652537881408 -0.038819302723224779 0 0.009520598510519793 -0.012443667957809948 0 0.027564652537881408 -0.038819302723224779 0 0.028038527469200273 -0.02726505002058463 0 0.027564652537881408 -0.038819302723224779 0 0.028038527469200273 -0.02726505002058463 0 0.041398732975198624 -0.047869605126194335 0 0.047709044543467985 -0.063337220543922032 0 0.036787857414353267 -0.05596308089091568 0 0.041398732975198624 -0.047869605126194335 0 0.047709044543467985 -0.063337220543922032 0 0.036787857414353267 -0.05596308089091568 0 0.042342003153368932 -0.068827118049943459 0 0.027564652537881408 -0.038819302723224779 0 0.036787857414353267 -0.05596308089091568 0 0.041398732975198624 -0.047869605126194335 0 0.027564652537881408 -0.038819302723224779 0 0.036787857414353267 -0.05596308089091568 0 0.029541840773741061 -0.052391740712307698 0 0.036787857414353267 -0.05596308089091568 0 0.035219375186325882 -0.064417346017472704 0 0.042342003153368932 -0.068827118049943459 0 0.036787857414353267 -0.05596308089091568 0 0.029541840773741061 -0.052391740712307698 0 0.035219375186325882 -0.064417346017472704 0 0.027564652537881408 -0.038819302723224779 0 0.029541840773741061 -0.052391740712307698 0 0.01957574434852926 -0.04141815804981587 0 0.029541840773741061 -0.052391740712307698 0 0.027620188579767769 -0.060082883390227937 0 0.035219375186325882 -0.064417346017472704 0 0.029541840773741061 -0.052391740712307698 0 0.027620188579767769 -0.060082883390227937 0 0.01957574434852926 -0.04141815804981587 0 0.012481528609434717 -0.03124907637118339 0 0.01957574434852926 -0.04141815804981587 0 0.019633633016856871 -0.051207542119227858 0 0.027620188579767769 -0.060082883390227937 0 0.01957574434852926 -0.04141815804981587 0 0.019633633016856871 -0.051207542119227858 0 0.027620188579767769 -0.060082883390227937 0 0.024789383135988795 -0.065141033004531668 0 0.019633633016856871 -0.051207542119227858 0 0.027620188579767769 -0.060082883390227937 0 0.024789383135988795 -0.065141033004531668 0 0.030634774818518954 -0.072316384623178243 0 0.024789383135988795 -0.065141033004531668 0 0.030634774818518954 -0.072316384623178243 0 0.028507625070479495 -0.075176241582372461 0 0.024789383135988795 -0.065141033004531668 0 0.028507625070479495 -0.075176241582372461 0 0.02388139421441083 -0.07198921248622249 0 0.028507625070479495 -0.075176241582372461 0 0.030554682238064849 -0.08148144458150483 0 0.027943573401642101 -0.08009752770322931 0 0.030554682238064849 -0.08148144458150483 0 0.027943573401642101 -0.08009752770322931 0 0.030540550467877792 -0.085859517123872714 0 0.030554682238064849 -0.08148144458150483 0 0.033081622640271813 -0.085935093378967611 0 0.030540550467877792 -0.085859517123872714 0 0.032653242854253334 -0.080344236392449128 0 0.035642279448637043 -0.086019004537220764 0 0.033081622640271813 -0.085935093378967611 0 0.030554682238064849 -0.08148144458150483 0 0.032653242854253334 -0.080344236392449128 0 0.033081622640271813 -0.085935093378967611 0 0.028507625070479495 -0.075176241582372461 0 0.030554682238064849 -0.08148144458150483 0 0.032653242854253334 -0.080344236392449128 0 0.030634774818518954 -0.072316384623178243 0 0.028507625070479495 -0.075176241582372461 0 0.032653242854253334 -0.080344236392449128 0 0.030634774818518954 -0.072316384623178243 0 0.032653242854253334 -0.080344236392449128 0 0.034978451744270035 -0.079092603471188738 0 0.030634774818518954 -0.072316384623178243 0 0.034978451744270035 -0.079092603471188738 0 0.035472841324989422 -0.073504138538102559 0 0.034978451744270035 -0.079092603471188738 0 0.03818608314523083 -0.086113573584971764 0 0.035642279448637043 -0.086019004537220764 0 0.032653242854253334 -0.080344236392449128 0 0.034978451744270035 -0.079092603471188738 0 0.035642279448637043 -0.086019004537220764 0 0.034978451744270035 -0.079092603471188738 0 0.037877182880812522 -0.08104932856456902 0 0.03818608314523083 -0.086113573584971764 0 0.037877182880812522 -0.08104932856456902 0 0.040669708311944719 -0.086209454534846394 0 0.03818608314523083 -0.086113573584971764 0 0.034978451744270035 -0.079092603471188738 0 0.037877182880812522 -0.08104932856456902 0 0.035472841324989422 -0.073504138538102559 0 0.027620188579767769 -0.060082883390227937 0 0.035472841324989422 -0.073504138538102559 0 0.035219375186325882 -0.064417346017472704 0 0.027620188579767769 -0.060082883390227937 0 0.030634774818518954 -0.072316384623178243 0 0.035472841324989422 -0.073504138538102559 0 0.035219375186325882 -0.064417346017472704 0 0.040365406533450471 -0.074623936540453475 0 0.042342003153368932 -0.068827118049943459 0 0.035472841324989422 -0.073504138538102559 0 0.035219375186325882 -0.064417346017472704 0 0.040365406533450471 -0.074623936540453475 0 0.037877182880812522 -0.08104932856456902 0 0.035472841324989422 -0.073504138538102559 0 0.039825043550392902 -0.079903830456672723 0 0.035472841324989422 -0.073504138538102559 0 0.040365406533450471 -0.074623936540453475 0 0.039825043550392902 -0.079903830456672723 0 0.037877182880812522 -0.08104932856456902 0 0.039825043550392902 -0.079903830456672723 0 0.040669708311944719 -0.086209454534846394 0 0.039825043550392902 -0.079903830456672723 0 0.043032463885358668 -0.086322326669901112 0 0.040669708311944719 -0.086209454534846394 0 0.039825043550392902 -0.079903830456672723 0 0.042959104717278894 -0.081897984710950722 0 0.043032463885358668 -0.086322326669901112 0 0.042959104717278894 -0.081897984710950722 0 0.045158840256519818 -0.086449893448780818 0 0.043032463885358668 -0.086322326669901112 0 0.040365406533450471 -0.074623936540453475 0 0.039825043550392902 -0.079903830456672723 0 0.042959104717278894 -0.081897984710950722 0 0.042959104717278894 -0.081897984710950722 0 0.045526006975351793 -0.078872314844877375 0 0.045498868825921121 -0.083317275183021941 0 0.040365406533450471 -0.074623936540453475 0 0.042959104717278894 -0.081897984710950722 0 0.045526006975351793 -0.078872314844877375 0 0.045526006975351793 -0.078872314844877375 0 0.045498868825921121 -0.083317275183021941 0 0.047265591018979071 -0.083960588503582997 0 0.042959104717278894 -0.081897984710950722 0 0.045498868825921121 -0.083317275183021941 0 0.045158840256519818 -0.086449893448780818 0 0.045498868825921121 -0.083317275183021941 0 0.047265591018979071 -0.083960588503582997 0 0.046853389240493676 -0.086611620017068042 0 0.045498868825921121 -0.083317275183021941 0 0.046853389240493676 -0.086611620017068042 0 0.045158840256519818 -0.086449893448780818 0 0.047265591018979071 -0.083960588503582997 0 0.049948612901983061 -0.082106119673507977 0 0.04796365283375878 -0.086721498108557185 0 0.047265591018979071 -0.083960588503582997 0 0.046853389240493676 -0.086611620017068042 0 0.04796365283375878 -0.086721498108557185 0 0.045526006975351793 -0.078872314844877375 0 0.047265591018979071 -0.083960588503582997 0 0.049948612901983061 -0.082106119673507977 0 0.045526006975351793 -0.078872314844877375 0 0.049948612901983061 -0.082106119673507977 0 0.050032693000572961 -0.074589625416283556 0 0.045526006975351793 -0.078872314844877375 0 0.050032693000572961 -0.074589625416283556 0 0.042342003153368932 -0.068827118049943459 0 0.040365406533450471 -0.074623936540453475 0 0.045526006975351793 -0.078872314844877375 0 0.042342003153368932 -0.068827118049943459 0 0.047709044543467985 -0.063337220543922032 0 0.050032693000572961 -0.074589625416283556 0 0.042342003153368932 -0.068827118049943459 0 0.009948066963807874 -0.045756329811934913 0 0.015374932139894973 -0.060883762983433176 0 0.011969329362079777 -0.067063535274922481 0 0.0036474131764952251 -0.045823020025979572 0 0.009948066963807874 -0.045756329811934913 0 0.011969329362079777 -0.067063535274922481 0 0.0036474131764952251 -0.045823020025979572 0 0.0035772135321978688 -0.028070627957018895 0 0.009948066963807874 -0.045756329811934913 0 0.0063878934526739447 -0.023114698350150606 0 0.009948066963807874 -0.045756329811934913 0 0.014181806706210441 -0.046402418454767877 0 0.012481528609434717 -0.03124907637118339 0 0.019633633016856871 -0.051207542119227858 0 0.014181806706210441 -0.046402418454767877 0 0.024789383135988795 -0.065141033004531668 0 0.019633633016856871 -0.051207542119227858 0 0.019346182623144758 -0.061416220866306055 0 0.019633633016856871 -0.051207542119227858 0 0.014181806706210441 -0.046402418454767877 0 0.019346182623144758 -0.061416220866306055 0 0.009948066963807874 -0.045756329811934913 0 0.014181806706210441 -0.046402418454767877 0 0.015374932139894973 -0.060883762983433176 0 0.014181806706210441 -0.046402418454767877 0 0.015374932139894973 -0.060883762983433176 0 0.019346182623144758 -0.061416220866306055 0 0.015374932139894973 -0.060883762983433176 0 0.019346182623144758 -0.061416220866306055 0 0.019737071688365131 -0.072346967569566281 0 0.015374932139894973 -0.060883762983433176 0 0.019737071688365131 -0.072346967569566281 0 0.016438324729622582 -0.073677428936069336 0 0.024789383135988795 -0.065141033004531668 0 0.019346182623144758 -0.061416220866306055 0 0.02388139421441083 -0.07198921248622249 0 0.019346182623144758 -0.061416220866306055 0 0.02388139421441083 -0.07198921248622249 0 0.019737071688365131 -0.072346967569566281 0 0.02388139421441083 -0.07198921248622249 0 0.025806600722290154 -0.080748664095433617 0 0.027943573401642101 -0.08009752770322931 0 0.028507625070479495 -0.075176241582372461 0 0.02388139421441083 -0.07198921248622249 0 0.027943573401642101 -0.08009752770322931 0 0.02388139421441083 -0.07198921248622249 0 0.023323938502945177 -0.077815913031224357 0 0.019737071688365131 -0.072346967569566281 0 0.02388139421441083 -0.07198921248622249 0 0.023323938502945177 -0.077815913031224357 0 0.025806600722290154 -0.080748664095433617 0 0.023323938502945177 -0.077815913031224357 0 0.025806600722290154 -0.080748664095433617 0 0.025590592181840597 -0.085728749462112952 0 0.023323938502945177 -0.077815913031224357 0 0.023217178688357702 -0.08567457051450196 0 0.025590592181840597 -0.085728749462112952 0 0.025806600722290154 -0.080748664095433617 0 0.028038051833686312 -0.085789081432872311 0 0.025590592181840597 -0.085728749462112952 0 0.027943573401642101 -0.08009752770322931 0 0.028038051833686312 -0.085789081432872311 0 0.030540550467877792 -0.085859517123872714 0 0.025806600722290154 -0.080748664095433617 0 0.027943573401642101 -0.08009752770322931 0 0.028038051833686312 -0.085789081432872311 0 0.019737071688365131 -0.072346967569566281 0 0.021238322198464887 -0.080178053903509378 0 0.019021446924104225 -0.079522130698902876 0 0.019737071688365131 -0.072346967569566281 0 0.019021446924104225 -0.079522130698902876 0 0.016438324729622582 -0.073677428936069336 0 0.023323938502945177 -0.077815913031224357 0 0.019737071688365131 -0.072346967569566281 0 0.021238322198464887 -0.080178053903509378 0 0.023323938502945177 -0.077815913031224357 0 0.021238322198464887 -0.080178053903509378 0 0.023217178688357702 -0.08567457051450196 0 0.021238322198464887 -0.080178053903509378 0 0.02093150883953716 -0.085631597173748158 0 0.023217178688357702 -0.08567457051450196 0 0.021238322198464887 -0.080178053903509378 0 0.019021446924104225 -0.079522130698902876 0 0.02093150883953716 -0.085631597173748158 0 0.019021446924104225 -0.079522130698902876 0 0.018750766711501946 -0.08559891554483598 0 0.02093150883953716 -0.085631597173748158 0 0.01716959152307419 -0.080592874257990291 0 0.016699336900757044 -0.085579189288757074 0 0.018750766711501946 -0.08559891554483598 0 0.019021446924104225 -0.079522130698902876 0 0.01716959152307419 -0.080592874257990291 0 0.018750766711501946 -0.08559891554483598 0 0.01500493474384333 -0.078634691896214179 0 0.0148121286582759 -0.085575690649148758 0 0.016699336900757044 -0.085579189288757074 0 0.01716959152307419 -0.080592874257990291 0 0.01500493474384333 -0.078634691896214179 0 0.016699336900757044 -0.085579189288757074 0 0.01500493474384333 -0.078634691896214179 0 0.016438324729622582 -0.073677428936069336 0 0.011969329362079777 -0.067063535274922481 0 0.01716959152307419 -0.080592874257990291 0 0.01500493474384333 -0.078634691896214179 0 0.016438324729622582 -0.073677428936069336 0 0.019021446924104225 -0.079522130698902876 0 0.01716959152307419 -0.080592874257990291 0 0.016438324729622582 -0.073677428936069336 0 0.015374932139894973 -0.060883762983433176 0 0.016438324729622582 -0.073677428936069336 0 0.011969329362079777 -0.067063535274922481 0 0.0049224117453772597 -0.065031911693775868 0 0.0036474131764952251 -0.045823020025979572 0 0.011969329362079777 -0.067063535274922481 0 0.0049224117453772597 -0.065031911693775868 0 0.011969329362079777 -0.067063535274922481 0 0.010425900074910293 -0.076886592371354839 0 0.011969329362079777 -0.067063535274922481 0 0.010425900074910293 -0.076886592371354839 0 0.013113774149581389 -0.078767634531361611 0 0.01500493474384333 -0.078634691896214179 0 0.011969329362079777 -0.067063535274922481 0 0.013113774149581389 -0.078767634531361611 0 0.01500493474384333 -0.078634691896214179 0 0.013113774149581389 -0.078767634531361611 0 0.0148121286582759 -0.085575690649148758 0 0.013113774149581389 -0.078767634531361611 0 0.013143336701562805 -0.085582791395986194 0 0.0148121286582759 -0.085575690649148758 0 0.010425900074910293 -0.076886592371354839 0 0.013113774149581389 -0.078767634531361611 0 0.013143336701562805 -0.085582791395986194 0 0.010425900074910293 -0.076886592371354839 0 0.012062320439981821 -0.085838591402493766 0 0.013143336701562805 -0.085582791395986194 0 0.013147968963772284 -0.086157807058152389 0 0.011305647070217698 -0.091643213274954005 0 0.01351750266943948 -0.092042223091485548 0 0.012062320439981821 -0.085838591402493766 0 0.013147968963772284 -0.086157807058152389 0 0.011305647070217698 -0.091643213274954005 0 0.012100797816572237 -0.085849030044201469 0 0.013139920285955776 -0.085868668981426921 0 0.013147968963772284 -0.086157807058152389 0 0.014817299234100615 -0.086210821521330264 0 0.01351750266943948 -0.092042223091485548 0 0.013139920285955776 -0.085868668981426921 0 0.014819163832148676 -0.085895473266521305 0 0.014817299234100615 -0.086210821521330264 0 0.01351750266943948 -0.092042223091485548 0 0.015634604764556196 -0.090899844897320808 0 0.01351750266943948 -0.092042223091485548 0 0.010346807939365463 -0.10044308027764255 0 0.015452724998140197 -0.09923968728362316 0 0.011305647070217698 -0.091643213274954005 0 0.010346807939365463 -0.10044308027764255 0 0.004575625288507826 -0.096079659012725291 0 0.011305647070217698 -0.091643213274954005 0 0.01351750266943948 -0.092042223091485548 0 0.010346807939365463 -0.10044308027764255 0 0.010346807939365463 -0.10044308027764255 0 0.011281281544141764 -0.11234240002093708 0 0.0035214846105141753 -0.1112664335490091 0 0.010346807939365463 -0.10044308027764255 0 0.011281281544141764 -0.11234240002093708 0 0.015452724998140197 -0.09923968728362316 0 0.011281281544141764 -0.11234240002093708 0 0.018169347123831427 -0.11191027951549078 0 0.015452724998140197 -0.09923968728362316 0 0.018169347123831427 -0.11191027951549078 0 0.015452724998140197 -0.09923968728362316 0 0.020526598415577493 -0.098863094833497173 0 0.015452724998140197 -0.09923968728362316 0 0.017870650510310962 -0.092033284830181195 0 0.020526598415577493 -0.098863094833497173 0 0.017870650510310962 -0.092033284830181195 0 0.020095301426911034 -0.090976117190240152 0 0.020526598415577493 -0.098863094833497173 0 0.01351750266943948 -0.092042223091485548 0 0.015452724998140197 -0.09923968728362316 0 0.015634604764556196 -0.090899844897320808 0 0.015452724998140197 -0.09923968728362316 0 0.015634604764556196 -0.090899844897320808 0 0.017870650510310962 -0.092033284830181195 0 0.015634604764556196 -0.090899844897320808 0 0.01670673218702352 -0.086280551848260195 0 0.017870650510310962 -0.092033284830181195 0 0.014817299234100615 -0.086210821521330264 0 0.015634604764556196 -0.090899844897320808 0 0.01670673218702352 -0.086280551848260195 0 0.014819163832148676 -0.085895473266521305 0 0.016703988484244328 -0.08593098659969689 0 0.017870650510310962 -0.092033284830181195 0 0.018759863443019789 -0.086348763528476868 0 0.020095301426911034 -0.090976117190240152 0 0.016703988484244328 -0.08593098659969689 0 0.018756702618747904 -0.085975030791753573 0 0.01670673218702352 -0.086280551848260195 0 0.017870650510310962 -0.092033284830181195 0 0.018759863443019789 -0.086348763528476868 0 0.018759863443019789 -0.086348763528476868 0 0.020095301426911034 -0.090976117190240152 0 0.020942158752927896 -0.086419368926161338 0 0.018756702618747904 -0.085975030791753573 0 0.020937826055662245 -0.086026611698532221 0 0.020095301426911034 -0.090976117190240152 0 0.020942158752927896 -0.086419368926161338 0 0.022592648079477921 -0.092086184700134063 0 0.020942158752927896 -0.086419368926161338 0 0.02322962261361183 -0.086494332786818465 0 0.022592648079477921 -0.092086184700134063 0 0.020937826055662245 -0.086026611698532221 0 0.023224274492619344 -0.086085665205513195 0 0.02322962261361183 -0.086494332786818465 0 0.022592648079477921 -0.092086184700134063 0 0.024921700395602094 -0.090996319879735887 0 0.022592648079477921 -0.092086184700134063 0 0.024921700395602094 -0.090996319879735887 0 0.025888752164588504 -0.098901655909985911 0 0.022592648079477921 -0.092086184700134063 0 0.020526598415577493 -0.098863094833497173 0 0.025888752164588504 -0.098901655909985911 0 0.020095301426911034 -0.090976117190240152 0 0.022592648079477921 -0.092086184700134063 0 0.020526598415577493 -0.098863094833497173 0 0.02805350505410445 -0.086655896167599833 0 0.027509674173723169 -0.091747848112308822 0 0.03011092507248184 -0.0909223242199904 0 0.02805350505410445 -0.086655896167599833 0 0.027509674173723169 -0.091747848112308822 0 0.025604724014522358 -0.086573849770661959 0 0.028046317994185586 -0.086223447966970998 0 0.025598435037069735 -0.086151930441006067 0 0.027509674173723169 -0.091747848112308822 0 0.025604724014522358 -0.086573849770661959 0 0.024921700395602094 -0.090996319879735887 0 0.02322962261361183 -0.086494332786818465 0 0.025604724014522358 -0.086573849770661959 0 0.024921700395602094 -0.090996319879735887 0 0.023224274492619344 -0.086085665205513195 0 0.025598435037069735 -0.086151930441006067 0 0.027509674173723169 -0.091747848112308822 0 0.024921700395602094 -0.090996319879735887 0 0.025888752164588504 -0.098901655909985911 0 0.027509674173723169 -0.091747848112308822 0 0.03011092507248184 -0.0909223242199904 0 0.031530587323776026 -0.097927794064097018 0 0.027509674173723169 -0.091747848112308822 0 0.025888752164588504 -0.098901655909985911 0 0.031530587323776026 -0.097927794064097018 0 0.025888752164588504 -0.098901655909985911 0 0.030067202771237252 -0.11049345921614459 0 0.031530587323776026 -0.097927794064097018 0 0.025888752164588504 -0.098901655909985911 0 0.030067202771237252 -0.11049345921614459 0 0.024176687475770002 -0.10887343090261646 0 0.018169347123831427 -0.11191027951549078 0 0.020526598415577493 -0.098863094833497173 0 0.024176687475770002 -0.10887343090261646 0 0.020526598415577493 -0.098863094833497173 0 0.025888752164588504 -0.098901655909985911 0 0.024176687475770002 -0.10887343090261646 0 0.018169347123831427 -0.11191027951549078 0 0.024176687475770002 -0.10887343090261646 0 0.026289749252185069 -0.12507238448548402 0 0.030067202771237252 -0.11049345921614459 0 0.026289749252185069 -0.12507238448548402 0 0.03663618616561231 -0.12870563735186308 0 0.030067202771237252 -0.11049345921614459 0 0.024176687475770002 -0.10887343090261646 0 0.026289749252185069 -0.12507238448548402 0 0.026289749252185069 -0.12507238448548402 0 0.03663618616561231 -0.12870563735186308 0 0.028841626220255726 -0.15633407831978308 0 0.026289749252185069 -0.12507238448548402 0 0.014254646730121378 -0.13296711174480152 0 0.028841626220255726 -0.15633407831978308 0 0.014254646730121378 -0.13296711174480152 0 0.0022097853208730002 -0.15714110636052123 0 0.0044879577955312146 -0.12705315162092679 0 0.011281281544141764 -0.11234240002093708 0 0.014254646730121378 -0.13296711174480152 0 0.0044879577955312146 -0.12705315162092679 0 0.011281281544141764 -0.11234240002093708 0 0.0035214846105141753 -0.1112664335490091 0 0.0044879577955312146 -0.12705315162092679 0 0.011281281544141764 -0.11234240002093708 0 0.018169347123831427 -0.11191027951549078 0 0.014254646730121378 -0.13296711174480152 0 0.018169347123831427 -0.11191027951549078 0 0.026289749252185069 -0.12507238448548402 0 0.014254646730121378 -0.13296711174480152 0 0.057611480438695184 -0.11016206282388417 0 0.065030537674056407 -0.10664122441050582 0 0.0731825581720804 -0.12163855010212109 0 0.057611480438695184 -0.11016206282388417 0 0.055340192860042478 -0.099241875827659934 0 0.050614131400327257 -0.098916284788615652 0 0.057611480438695184 -0.11016206282388417 0 0.065030537674056407 -0.10664122441050582 0 0.055340192860042478 -0.099241875827659934 0 0.065030537674056407 -0.10664122441050582 0 0.057030943492455584 -0.095855804835069058 0 0.055340192860042478 -0.099241875827659934 0 0.057030943492455584 -0.095855804835069058 0 0.055340192860042478 -0.099241875827659934 0 0.051081701815473661 -0.091688094660149766 0 0.057030943492455584 -0.095855804835069058 0 0.051081701815473661 -0.091688094660149766 0 0.047995109424270516 -0.087100397144656103 0 0.051081701815473661 -0.091688094660149766 0 0.046872107212966654 -0.087084559802001124 0 0.047995109424270516 -0.087100397144656103 0 0.046859329919080747 -0.086848522826580787 0 0.047954032288036519 -0.086893655238711107 0 0.046859329919080747 -0.086848522826580787 0 0.045165543425918941 -0.086787658231779807 0 0.046872107212966654 -0.087084559802001124 0 0.045181193251910133 -0.087131673388774727 0 0.04924436725711305 -0.092014455870689502 0 0.051081701815473661 -0.091688094660149766 0 0.046872107212966654 -0.087084559802001124 0 0.04924436725711305 -0.092014455870689502 0 0.045181193251910133 -0.087131673388774727 0 0.04924436725711305 -0.092014455870689502 0 0.046380986697848375 -0.091116708496704668 0 0.055340192860042478 -0.099241875827659934 0 0.04924436725711305 -0.092014455870689502 0 0.050614131400327257 -0.098916284788615652 0 0.055340192860042478 -0.099241875827659934 0 0.051081701815473661 -0.091688094660149766 0 0.04924436725711305 -0.092014455870689502 0 0.04924436725711305 -0.092014455870689502 0 0.050614131400327257 -0.098916284788615652 0 0.046380986697848375 -0.091116708496704668 0 0.050614131400327257 -0.098916284788615652 0 0.044138534031075267 -0.092689761700416817 0 0.047708877313508966 -0.10273177112620985 0 0.050614131400327257 -0.098916284788615652 0 0.046380986697848375 -0.091116708496704668 0 0.044138534031075267 -0.092689761700416817 0 0.046380986697848375 -0.091116708496704668 0 0.043053556880550271 -0.087106968990677783 0 0.044138534031075267 -0.092689761700416817 0 0.045165543425918941 -0.086787658231779807 0 0.043041035248984776 -0.086713665264330914 0 0.045181193251910133 -0.087131673388774727 0 0.046380986697848375 -0.091116708496704668 0 0.043053556880550271 -0.087106968990677783 0 0.043053556880550271 -0.087106968990677783 0 0.040690361929048437 -0.08705717603295729 0 0.044138534031075267 -0.092689761700416817 0 0.043041035248984776 -0.086713665264330914 0 0.040679069399034311 -0.086633076540460763 0 0.040690361929048437 -0.08705717603295729 0 0.044138534031075267 -0.092689761700416817 0 0.040706668358118717 -0.090768686078322822 0 0.044138534031075267 -0.092689761700416817 0 0.047708877313508966 -0.10273177112620985 0 0.041690294145565007 -0.096491503687991059 0 0.057611480438695184 -0.11016206282388417 0 0.050614131400327257 -0.098916284788615652 0 0.047708877313508966 -0.10273177112620985 0 0.057611480438695184 -0.11016206282388417 0 0.047708877313508966 -0.10273177112620985 0 0.0511998024185812 -0.11715114400511105 0 0.047708877313508966 -0.10273177112620985 0 0.04287641047316941 -0.10589888463262195 0 0.0511998024185812 -0.11715114400511105 0 0.04287641047316941 -0.10589888463262195 0 0.043421407873421178 -0.11859817717111776 0 0.0511998024185812 -0.11715114400511105 0 0.04287641047316941 -0.10589888463262195 0 0.036538954295333076 -0.10834053593335753 0 0.043421407873421178 -0.11859817717111776 0 0.04287641047316941 -0.10589888463262195 0 0.041690294145565007 -0.096491503687991059 0 0.036928843301223375 -0.097319023706042493 0 0.04287641047316941 -0.10589888463262195 0 0.036928843301223375 -0.097319023706042493 0 0.036538954295333076 -0.10834053593335753 0 0.047708877313508966 -0.10273177112620985 0 0.04287641047316941 -0.10589888463262195 0 0.041690294145565007 -0.096491503687991059 0 0.044138534031075267 -0.092689761700416817 0 0.041690294145565007 -0.096491503687991059 0 0.040706668358118717 -0.090768686078322822 0 0.041690294145565007 -0.096491503687991059 0 0.040706668358118717 -0.090768686078322822 0 0.038139121702103658 -0.091515192884626145 0 0.040706668358118717 -0.090768686078322822 0 0.038206072891979248 -0.086988276769195169 0 0.038139121702103658 -0.091515192884626145 0 0.040679069399034311 -0.086633076540460763 0 0.03819551882860623 -0.086550159692773881 0 0.040690361929048437 -0.08705717603295729 0 0.040706668358118717 -0.090768686078322822 0 0.038206072891979248 -0.086988276769195169 0 0.035661603079261257 -0.086909759894988156 0 0.038139121702103658 -0.091515192884626145 0 0.035355797493620264 -0.090814410400824108 0 0.03819551882860623 -0.086550159692773881 0 0.035651853779286459 -0.086464732264843844 0 0.038206072891979248 -0.086988276769195169 0 0.035661603079261257 -0.086909759894988156 0 0.038139121702103658 -0.091515192884626145 0 0.038139121702103658 -0.091515192884626145 0 0.036928843301223375 -0.097319023706042493 0 0.035355797493620264 -0.090814410400824108 0 0.041690294145565007 -0.096491503687991059 0 0.038139121702103658 -0.091515192884626145 0 0.036928843301223375 -0.097319023706042493 0 0.036928843301223375 -0.097319023706042493 0 0.035355797493620264 -0.090814410400824108 0 0.032955473505019289 -0.091881214852131604 0 0.036928843301223375 -0.097319023706042493 0 0.032955473505019289 -0.091881214852131604 0 0.031530587323776026 -0.097927794064097018 0 0.035355797493620264 -0.090814410400824108 0 0.033099904474435823 -0.086825532855121679 0 0.032955473505019289 -0.091881214852131604 0 0.035651853779286459 -0.086464732264843844 0 0.033091026741677056 -0.086380846145762483 0 0.035661603079261257 -0.086909759894988156 0 0.035355797493620264 -0.090814410400824108 0 0.033099904474435823 -0.086825532855121679 0 0.028046317994185586 -0.086223447966970998 0 0.030549412253949242 -0.086300320825029572 0 0.02805350505410445 -0.086655896167599833 0 0.030557453434866509 -0.086740331641008528 0 0.03011092507248184 -0.0909223242199904 0 0.033099904474435823 -0.086825532855121679 0 0.030557453434866509 -0.086740331641008528 0 0.032955473505019289 -0.091881214852131604 0 0.033091026741677056 -0.086380846145762483 0 0.030549412253949242 -0.086300320825029572 0 0.030557453434866509 -0.086740331641008528 0 0.032955473505019289 -0.091881214852131604 0 0.03011092507248184 -0.0909223242199904 0 0.032955473505019289 -0.091881214852131604 0 0.03011092507248184 -0.0909223242199904 0 0.031530587323776026 -0.097927794064097018 0 0.030067202771237252 -0.11049345921614459 0 0.031530587323776026 -0.097927794064097018 0 0.036538954295333076 -0.10834053593335753 0 0.036928843301223375 -0.097319023706042493 0 0.031530587323776026 -0.097927794064097018 0 0.036538954295333076 -0.10834053593335753 0 0.03663618616561231 -0.12870563735186308 0 0.051001429923001274 -0.1364296501873172 0 0.046040460694805128 -0.16392067069511018 0 0.030067202771237252 -0.11049345921614459 0 0.036538954295333076 -0.10834053593335753 0 0.03663618616561231 -0.12870563735186308 0 0.036538954295333076 -0.10834053593335753 0 0.03663618616561231 -0.12870563735186308 0 0.043421407873421178 -0.11859817717111776 0 0.051001429923001274 -0.1364296501873172 0 0.043421407873421178 -0.11859817717111776 0 0.0511998024185812 -0.11715114400511105 0 0.03663618616561231 -0.12870563735186308 0 0.051001429923001274 -0.1364296501873172 0 0.043421407873421178 -0.11859817717111776 0 0.051001429923001274 -0.1364296501873172 0 0.063172874759878817 -0.13046793614357613 0 0.0511998024185812 -0.11715114400511105 0 0.057611480438695184 -0.11016206282388417 0 0.063172874759878817 -0.13046793614357613 0 0.0511998024185812 -0.11715114400511105 0 0.051001429923001274 -0.1364296501873172 0 0.063172874759878817 -0.13046793614357613 0 0.065198879042465949 -0.15735084219228654 0 0.063172874759878817 -0.13046793614357613 0 0.081445723760455654 -0.14348185800516647 0 0.065198879042465949 -0.15735084219228654 0 0.057611480438695184 -0.11016206282388417 0 0.063172874759878817 -0.13046793614357613 0 0.0731825581720804 -0.12163855010212109 0 0.063172874759878817 -0.13046793614357613 0 0.081445723760455654 -0.14348185800516647 0 0.0731825581720804 -0.12163855010212109 0 0.090738218929628259 -0.22292399670341465 0 0.06426135840951934 -0.18984706691205783 0 0.036824073362807408 -0.2168808181804176 0 0.081445723760455654 -0.14348185800516647 0 0.088576544938643323 -0.17501185631216606 0 0.065198879042465949 -0.15735084219228654 0 0.088576544938643323 -0.17501185631216606 0 0.065198879042465949 -0.15735084219228654 0 0.06426135840951934 -0.18984706691205783 0 0.03663618616561231 -0.12870563735186308 0 0.046040460694805128 -0.16392067069511018 0 0.028841626220255726 -0.15633407831978308 0 0.046040460694805128 -0.16392067069511018 0 0.028841626220255726 -0.15633407831978308 0 0.036824073362807408 -0.2168808181804176 0 0.065198879042465949 -0.15735084219228654 0 0.046040460694805128 -0.16392067069511018 0 0.06426135840951934 -0.18984706691205783 0 0.051001429923001274 -0.1364296501873172 0 0.065198879042465949 -0.15735084219228654 0 0.046040460694805128 -0.16392067069511018 0 0.046040460694805128 -0.16392067069511018 0 0.06426135840951934 -0.18984706691205783 0 0.036824073362807408 -0.2168808181804176 0 0.088576544938643323 -0.17501185631216606 0 0.090738218929628259 -0.22292399670341465 0 0.06426135840951934 -0.18984706691205783 0 0.015765061795628355 -0.17402463523860173 0 0.036824073362807408 -0.2168808181804176 0 0.0023217403224334884 -0.21605294506388723 0 0.014254646730121378 -0.13296711174480152 0 0.015765061795628355 -0.17402463523860173 0 0.0022097853208730002 -0.15714110636052123 0 0.015765061795628355 -0.17402463523860173 0 0.0023217403224334884 -0.21605294506388723 0 0.0022097853208730002 -0.15714110636052123 0 0.014254646730121378 -0.13296711174480152 0 0.015765061795628355 -0.17402463523860173 0 0.028841626220255726 -0.15633407831978308 0 0.015765061795628355 -0.17402463523860173 0 0.028841626220255726 -0.15633407831978308 0 0.036824073362807408 -0.2168808181804176 0 0.0023217403224334884 -0.21605294506388723 0 0.0022097853208730002 -0.15714110636052123 0 -0.017827509888835004 -0.16549883327538864 0 -0.017827509888835004 -0.16549883327538864 0 -0.038088891865998467 -0.22318596164817298 0 -0.051091269737086678 -0.16577946045226521 0 0.0023217403224334884 -0.21605294506388723 0 -0.017827509888835004 -0.16549883327538864 0 -0.038088891865998467 -0.22318596164817298 0 -0.09806478814653849 -0.22899477507844451 0 -0.051091269737086678 -0.16577946045226521 0 -0.091840262192162569 -0.15390510753503664 0 -0.038088891865998467 -0.22318596164817298 0 -0.09806478814653849 -0.22899477507844451 0 -0.051091269737086678 -0.16577946045226521 0 -0.072170501171449297 -0.090304494895938239 0 -0.052286358481380933 -0.11848172038605886 0 -0.091840262192162569 -0.15390510753503664 0 -0.051091269737086678 -0.16577946045226521 0 -0.052286358481380933 -0.11848172038605886 0 -0.023571780904031635 -0.11568504309356487 0 -0.051091269737086678 -0.16577946045226521 0 -0.052286358481380933 -0.11848172038605886 0 -0.091840262192162569 -0.15390510753503664 0 -0.03303463392604597 -0.086346116731984487 0 -0.072170501171449297 -0.090304494895938239 0 -0.052286358481380933 -0.11848172038605886 0 -0.03303463392604597 -0.086346116731984487 0 -0.052286358481380933 -0.11848172038605886 0 -0.023571780904031635 -0.11568504309356487 0 -0.03303463392604597 -0.086346116731984487 0 -0.015567063955382347 -0.084341676289862041 0 -0.023571780904031635 -0.11568504309356487 0 -0.015567063955382347 -0.084341676289862041 0 -0.023571780904031635 -0.11568504309356487 0 -0.0074768286926821447 -0.097699841745388816 0 -0.023571780904031635 -0.11568504309356487 0 -0.0074768286926821447 -0.097699841745388816 0 -0.0067992418244148586 -0.12757037000560315 0 0.0013907564238130924 -0.085289877739512729 0 -0.0033926075455221385 -0.07384074178832406 0 -0.0074768286926821447 -0.097699841745388816 0 0.0013907564238130924 -0.085289877739512729 0 -0.0074768286926821447 -0.097699841745388816 0 0.004575625288507826 -0.096079659012725291 0 0.0013907564238130924 -0.085289877739512729 0 0.012062320439981821 -0.085838591402493766 0 0.004575625288507826 -0.096079659012725291 0 0.012062320439981821 -0.085838591402493766 0 0.011305647070217698 -0.091643213274954005 0 0.004575625288507826 -0.096079659012725291 0 -0.0074768286926821447 -0.097699841745388816 0 0.004575625288507826 -0.096079659012725291 0 0.0035214846105141753 -0.1112664335490091 0 0.010346807939365463 -0.10044308027764255 0 0.004575625288507826 -0.096079659012725291 0 0.0035214846105141753 -0.1112664335490091 0 -0.0074768286926821447 -0.097699841745388816 0 0.0035214846105141753 -0.1112664335490091 0 -0.0067992418244148586 -0.12757037000560315 0 0.0022097853208730002 -0.15714110636052123 0 -0.017827509888835004 -0.16549883327538864 0 -0.0067992418244148586 -0.12757037000560315 0 0.0035214846105141753 -0.1112664335490091 0 -0.0067992418244148586 -0.12757037000560315 0 0.0044879577955312146 -0.12705315162092679 0 0.0022097853208730002 -0.15714110636052123 0 -0.0067992418244148586 -0.12757037000560315 0 0.0044879577955312146 -0.12705315162092679 0 -0.017827509888835004 -0.16549883327538864 0 -0.051091269737086678 -0.16577946045226521 0 -0.023571780904031635 -0.11568504309356487 0 -0.017827509888835004 -0.16549883327538864 0 -0.023571780904031635 -0.11568504309356487 0 -0.0067992418244148586 -0.12757037000560315 0 
</DataArray>
</PointData>
<CellData Scalars="region_id," Vectors="" Tensors="effective_stress,">
<DataArray type="Float64" Name="region_id" format="ascii">
1 1 1 1 1 1 1 1 1 1 1 1 1 1 1 1 1 1 1 1 1 1 1 1 1 1 1 1 1 1 1 1 1 1 1 1 1 1 1 1 1 1 1 1 1 1 1 1 1 1 1 1 1 1 1 1 1 1 1 1 1 1 1 1 1 1 1 1 1 1 1 1 1 1 1 1 1 1 1 1 1 1 1 1 1 1 1 1 1 1 1 1 1 1 1 1 1 1 1 1 1 1 1 1 1 1 1 1 1 1 1 1 1 1 1 1 1 1 1 1 1 1 1 1 1 1 1 1 1 1 1 1 1 1 1 1 1 1 1 1 1 6 1 6 1 1 1 1 1 1 1 1 1 1 1 1 1 1 6 1 6 1 1 6 1 1 6 1 1 1 1 1 1 6 1 1 6 1 1 1 1 1 1 1 1 1 1 1 1 1 1 1 1 1 1 1 1 1 1 1 1 6 6 1 1 1 1 1 1 1 1 1 6 1 1 6 1 1 1 1 1 1 1 1 1 1 1 1 1 6 1 1 6 1 1 1 1 1 1 6 1 6 1 1 6 1 1 1 1 1 1 1 1 1 1 1 1 1 1 1 1 1 1 1 1 1 1 1 1 1 1 1 1 1 1 1 1 1 1 1 1 1 1 1 1 1 1 1 1 1 1 1 1 1 1 1 1 1 1 
</DataArray>
<DataArray type="Float64" Name="effective_stress" NumberOfComponents="9" format="ascii">
-0.078713048687779313 -0.04559539033098052 0 -0.04559539033098052 -0.02618599502041306 0 0 0 -0.026224760927048098 -0.18463308986835208 -0.030918313799413497 0 -0.030918313799413497 -0.017914871930755777 0 0 0 -0.050636990449776972 -0.12892664418348226 -0.024035531868605714 0 -0.024035531868605714 0.00017779120615218913 0 0 0 -0.032187213244332519 -0.073588304082433317 -0.029467347155364101 0 -0.029467347155364101 0.011980257208426007 0 0 0 -0.015402011718501835 -0.07166599502424903 -0.018172263922281041 0 -0.018172263922281041 -0.0051053244254698482 0 0 0 -0.019192829862429733 -0.059806301543009532 -0.041419769045500369 0 -0.041419769045500369 -0.00073240628660165008 0 0 0 -0.015134676957402782 -0.010389701160517739 -0.042557216383662277 0 -0.042557216383662277 -0.0038252419286960437 0 0 0 -0.003553735772303418 -0.0083436349421923683 -0.04272044947124598 0 -0.04272044947124598 0.0022869396980937928 0 0 0 -0.0015141738110246439 0.031452565543337752 -0.034616518249751857 0 -0.034616518249751857 0.0095069953497102233 0 0 0 0.010239890223261994 0.022143950921332589 -0.042088070337005706 0 -0.042088070337005706 -0.014116911070511051 0 0 0 0.0020067599627053845 0.044674326477392889 -0.018804629924240146 0 -0.018804629924240146 0.0055321293020371698 0 0 0 0.012551613944857487 0.10959611326241916 -0.05029113470114277 0 -0.05029113470114277 0.013803552374042516 0 0 0 0.03084991640911542 -0.011391595463657866 -0.041549670033059816 0 -0.041549670033059816 0.0001372800851766609 0 0 0 -0.0028135788446204124 -0.015078209168752799 -0.044620694408872119 0 -0.044620694408872119 0.00020804227759907423 0 0 0 -0.0037175417227884588 -0.029014396707974704 -0.042854757560653101 0 -0.042854757560653101 0.0011752470813960469 0 0 0 -0.0069597874066446852 -0.031913358491118482 -0.037341041316983015 0 -0.037341041316983015 -0.0031423550238475137 0 0 0 -0.0087639283787415111 -0.03438020894680887 -0.038233675636567613 0 -0.038233675636567613 -0.00013799138425965585 0 0 0 -0.0086295500827671054 -0.033533686011185185 -0.037344894545999541 0 -0.037344894545999541 0.00089878770256204832 0 0 0 -0.0081587245771557321 -0.083645247564683417 -0.036673591221834126 0 -0.036673591221834126 -0.0088130461920598591 0 0 0 -0.023114573439185826 -0.014840830614429134 -0.036210171620930792 0 -0.036210171620930792 -0.012690416104357775 0 0 0 -0.0068828116796967476 -0.0081496789926108759 -0.047565338172767729 0 -0.047565338172767729 -0.0034007271887420143 0 0 0 -0.0028876015453382087 0.028045881973670916 -0.044019345181029484 0 -0.044019345181029484 -0.00073142893344047 0 0 0 0.006828613260057681 -0.018180347825855311 -0.044223411343637664 0 -0.044223411343637664 -0.0060769140459224933 0 0 0 -0.0060643154679444512 0.006088708443454896 -0.03018532552838199 0 -0.03018532552838199 -0.021688269977095415 0 0 0 -0.00389989038341014 0.014016245827487783 -0.051372980779745794 0 -0.051372980779745794 0.0026957176770242008 0 0 0 0.004177990876127996 -0.02567464007584206 -0.04627208522843073 0 -0.04627208522843073 -0.0071937358418738551 0 0 0 -0.0082170939794289771 -0.068046972306971765 -0.024636157384161674 0 -0.024636157384161674 -0.018654688632001412 0 0 0 -0.021675415234743291 0.041535062620752718 -0.050105544733881589 0 -0.050105544733881589 0.013857587423765047 0 0 0 0.013848162511129442 0.061206968331767059 -0.041633463254655133 0 -0.041633463254655133 -0.0021746478560815408 0 0 0 0.014758080118921393 0.05436168423752008 -0.055559267433374276 0 -0.055559267433374276 0.013230101415140777 0 0 0 0.016897946413165221 0.039217145758628863 -0.054563157922409442 0 -0.054563157922409442 -0.006992387008096651 0 0 0 0.0080561896876330391 0.016309140983450529 -0.03788600842190086 0 -0.03788600842190086 0.0049048890914194232 0 0 0 0.0053035075187174846 0.11792366557662733 -0.051451783915399708 0 -0.051451783915399708 0.03924838307555862 0 0 0 0.039293012163046488 0.19452712905733277 -0.039077761087660798 0 -0.039077761087660798 0.022548049452950775 0 0 0 0.054268794627570879 0.078296195289635426 -0.046633665837082214 0 -0.046633665837082214 0.033749905099282732 0 0 0 0.028011525097229546 0.089916057566898147 -0.037922503107121461 0 -0.037922503107121461 0.001460283069544821 0 0 0 0.022844085159110725 0.070117322106868538 -0.041075836327373619 0 -0.041075836327373619 0.024738757037546133 0 0 0 0.023714019786103671 0.08233454275203482 -0.052898877878635175 0 -0.052898877878635175 -0.0034198507667119737 0 0 0 0.019728672996330701 0.12377656927886707 -0.045222517048013215 0 -0.045222517048013215 0.011957306277284419 0 0 0 0.033933468889037866 0.10673470265214942 -0.02347913618654171 0 -0.02347913618654171 -0.002007652989428621 0 0 0 0.026181762415680224 0.12405879772454595 -0.016885267788857322 0 -0.016885267788857322 0.004511967202911471 0 0 0 0.032142691231864334 0.07972661141178583 -0.014345915010388538 0 -0.014345915010388538 0.00078123392967766048 0 0 0 0.020126961335365873 0.058379537583864188 -0.013520678979824119 0 -0.013520678979824119 -0.00092036733067812904 0 0 0 0.014364792563296508 0.085848139020660297 -0.014048519609612523 0 -0.014048519609612523 -0.0022236630197425278 0 0 0 0.020906119000229484 0.093979438693021444 -0.03301803079973932 0 -0.03301803079973932 0.00014119492269815126 0 0 0 0.023530158403929857 0.067562955480283737 -0.032661868927098825 0 -0.032661868927098825 -0.0021784018409365391 0 0 0 0.01634613840983673 0.065477944052641804 -0.034433160412221775 0 -0.034433160412221775 -0.008134049141904659 0 0 0 0.014335973727684262 0.078555989518827821 -0.041560793361851131 0 -0.041560793361851131 -0.0042226368391229396 0 0 0 0.018583338169926217 0.073786898022401959 -0.042768407863485847 0 -0.042768407863485847 -0.0019516766348552927 0 0 0 0.017958805346886708 0.071988467603313872 -0.042882955147137358 0 -0.042882955147137358 -0.0015503479933681175 0 0 0 0.017609529902486404 0.064342967130446571 -0.052979251528662064 0 -0.052979251528662064 -0.0028672426473065338 0 0 0 0.015368931120785023 0.075797511913656995 -0.050128029203703225 0 -0.050128029203703225 -0.0024076585664705163 0 0 0 0.018347463336796654 0.062035291875569359 -0.050450772696718049 0 -0.050450772696718049 -0.0040030614934703501 0 0 0 0.014508057595524676 0.066236956386497237 -0.047647741864338178 0 -0.047647741864338178 0.00050871424712450874 0 0 0 0.01668641765840545 0.059203321569097356 -0.047975850416421162 0 -0.047975850416421162 0.0014688097508570586 0 0 0 0.015168032829988576 0.061543605093419496 -0.049551270211693699 0 -0.049551270211693699 0.0059770419429172605 0 0 0 0.016880161759084134 0.059053185887480319 -0.04724160798631602 0 -0.04724160798631602 0.010200234043554524 0 0 0 0.017313354982758877 0.052414724949445046 -0.047928180099231277 0 -0.047928180099231277 0.008596386952593682 0 0 0 0.015252777975509335 0.057214411658481623 -0.045155156573236654 0 -0.045155156573236654 0.016330571701386187 0 0 0 0.018386245839966842 0.060401657511825135 -0.041777872074831301 0 -0.041777872074831301 0.017090707831294516 0 0 0 0.019373091335779913 0.056446763076633655 -0.043959881613183205 0 -0.043959881613183205 0.0089446959154581007 0 0 0 0.016347864748022856 0.057791634107607681 -0.045896087154615101 0 -0.045896087154615101 0.0080095379854663307 0 0 0 0.016450293023268614 0.062494518169028679 -0.045201795764618469 0 -0.045201795764618469 0.0055357207700728051 0 0 0 0.017007559734775246 0.063428636384769588 -0.042302375007043258 0 -0.042302375007043258 0.0059237975996495607 0 0 0 0.017338108496104843 0.062143584258841922 -0.040470509597908433 0 -0.040470509597908433 -0.0023753966309982832 0 0 0 0.014942046906960882 0.060504358799811975 -0.038461640656383689 0 -0.038461640656383689 0.016738415468167567 0 0 0 0.019310693566994885 0.057011312917416512 -0.039811662470822684 0 -0.039811662470822684 0.006096385645834923 0 0 0 0.015776924640812984 0.055841008629357425 -0.036821720737043373 0 -0.036821720737043373 0.0021609729683998991 0 0 0 0.014500495399439373 0.059809900942092264 -0.03510999177726315 0 -0.03510999177726315 0.016459351198577998 0 0 0 0.019067313035167288 0.062751330341532019 -0.038883783908410408 0 -0.038883783908410408 0.0055903865093041016 0 0 0 0.017085429212708836 0.063452718010119979 -0.040902602235320662 0 -0.040902602235320662 -0.0059748887700696862 0 0 0 0.014369457310012601 0.068158102150395972 -0.04349520250325202 0 -0.04349520250325202 -0.0003881155798552971 0 0 0 0.016942496642635141 0.053656533709690035 -0.031379031766290838 0 -0.031379031766290838 -0.0067496919675023026 0 0 0 0.011726710435546961 0.064962825629640397 -0.040001202713834449 0 -0.040001202713834449 -0.0026372800503602356 0 0 0 0.015581386394819985 0.060656577416532409 -0.037280866905008932 0 -0.037280866905008932 -0.00056913840881112066 0 0 0 0.015021859751930267 0.056483941697545892 -0.035068548891790674 0 -0.035068548891790674 -0.0053210127675073007 0 0 0 0.012790732232509702 0.054338002308284616 -0.032174104459882891 0 -0.032174104459882891 0.0026638991165540693 0 0 0 0.014250475356209547 0.056330219972470008 -0.033050588501237044 0 -0.033050588501237044 0.014683243892839482 0 0 0 0.017753365966327372 0.048633944784788385 -0.029375906523766648 0 -0.029375906523766648 -0.0053610353506368114 0 0 0 0.010818227358538046 0.048284540420117761 -0.030036739628836628 0 -0.030036739628836628 0.011468424959335533 0 0 0 0.014938241344863323 0.051120469766258392 -0.036386769568880428 0 -0.036386769568880428 0.00022446554153310316 0 0 0 0.012836233826947874 0.024127649382545302 -0.030322753578385209 0 -0.030322753578385209 -0.0063604435354962519 0 0 0 0.004441801461762207 0.045966874668336155 -0.029944833661433717 0 -0.029944833661433717 -0.0063427351664953058 0 0 0 0.0099060348754602678 0.021595284257240221 -0.033324201538105225 0 -0.033324201538105225 -0.0066112741719051016 0 0 0 0.0037460025213338355 0.037670388269053945 -0.023666629520422644 0 -0.023666629520422644 -0.0067021442178804014 0 0 0 0.0077420610127934553 0.0043068227632336864 -0.019277023681342431 0 -0.019277023681342431 -0.015994461512674141 0 0 0 -0.0029219096873605022 0.024057928349681346 -0.030459627013911028 0 -0.030459627013911028 0.0021540259066772371 0 0 0 0.0065529885640895902 -0.066953627516911585 -0.019151027962508227 0 -0.019151027962508227 -0.0068402562389640043 0 0 0 -0.018448470938968953 -0.0081683626079460669 -0.034030676198965382 0 -0.034030676198965382 -0.0067076996539885414 0 0 0 -0.0037190155654835966 0.0022828558092149454 -0.017214175911643648 0 -0.017214175911643648 0.0020656791228073068 0 0 0 0.0010871337330056186 -0.0017884465532962968 -0.016409071164794176 0 -0.016409071164794176 0.00062118776169839407 0 0 0 -0.00029181469789957282 0.032268623771998073 -0.013931897801264748 0 -0.013931897801264748 -0.0011445283331883438 0 0 0 0.0077810238597025294 0.0419048516360426 -0.033449613068965545 0 -0.033449613068965545 -0.0024955644463154902 0 0 0 0.0098523217974317567 0.040230781535386506 -0.014895796975069223 0 -0.014895796975069223 0.00017827969882766581 0 0 0 0.010102265308553515 0.040408231070264422 -0.058727049364957096 0 -0.058727049364957096 0.0029028224471542297 0 0 0 0.010827763379354705 0.039464216674524516 -0.05721985484592701 0 -0.05721985484592701 -0.0046870803326600069 0 0 0 0.0086942840854661342 0.01508005750273067 -0.044397442632029036 0 -0.044397442632029036 -0.0098665683887023681 0 0 0 0.0013033722785071034 0.044886045737877578 -0.049259236259965561 0 -0.049259236259965561 -0.0024126844911456224 0 0 0 0.010618340311682989 0.063978316808101399 -0.052179704411942605 0 -0.052179704411942605 -0.0030390853347908031 0 0 0 0.015234807868327649 0.064922223413846514 -0.052444546312957488 0 -0.052444546312957488 0.0018014137479556158 0 0 0 0.016680909290450519 0.055309834978645875 -0.056257239834957895 0 -0.056257239834957895 -0.0030633116755784395 0 0 0 0.013061630825766876 0.04687368006459209 -0.061747942124779132 0 -0.061747942124779132 -0.0034140081604077457 0 0 0 0.010864917976046114 0.056505143409378789 -0.056015627202166046 0 -0.056015627202166046 0.0026100605400585231 0 0 0 0.014778800987359286 0.047232607217714273 -0.058850006613481498 0 -0.058850006613481498 -0.00072128648549441704 0 0 0 0.011627830183054907 0.046459575998565483 -0.058655776955838013 0 -0.058655776955838013 0.0073719004696219947 0 0 0 0.013457869117046828 0.0539329388082391 -0.053223563110401995 0 -0.053223563110401995 -0.0011311976531316326 0 0 0 0.013200435288776929 0.055463902215449556 -0.054098282942221076 0 -0.054098282942221076 0.0063545762098018432 0 0 0 0.015454619606312836 0.053333033478052183 -0.050076800638314475 0 -0.050076800638314475 0.0097865828968992652 0 0 0 0.015779904093737862 0.054246606913011863 -0.0499045833305648 0 -0.0499045833305648 0.0041697602234115339 0 0 0 0.014604091784105933 0.049240786559126226 -0.054388820995605824 0 -0.054388820995605824 0.0042539710172051493 0 0 0 0.013373689394082899 0.052594745746391447 -0.052640240158152385 0 -0.052640240158152385 0.0079100137728680409 0 0 0 0.015126189879814955 0.046109622468174405 -0.053887887241285348 0 -0.053887887241285348 0.009480631051375088 0 0 0 0.013897563379887345 0.047162382574425399 -0.053770675558924896 0 -0.053770675558924896 0.013755904358116133 0 0 0 0.015229571733135661 0.050339659282237381 -0.051501660367769819 0 -0.051501660367769819 0.014591846954539633 0 0 0 0.016232876559194365 0.053185504507470283 -0.048334671498473702 0 -0.048334671498473702 0.015174033775541496 0 0 0 0.017089884570753 0.049157780533894274 -0.050675411175383323 0 -0.050675411175383323 0.0082393350972671531 0 0 0 0.014349278907790336 0.04554658377511922 -0.058171988203847155 0 -0.058171988203847155 0.0095756978768242185 0 0 0 0.01378057041298586 0.041320405319718256 -0.060363697589446264 0 -0.060363697589446264 0.005062896694438157 0 0 0 0.011595825503539103 0.045207572486404168 -0.056095678714089492 0 -0.056095678714089492 0.0090274951466164932 0 0 0 0.013558766908255415 0.043216137563477419 -0.056108484414437054 0 -0.056108484414437054 0.0085846381716214726 0 0 0 0.012950193933774723 0.044204849442003091 -0.056592568522203734 0 -0.056592568522203734 0.013176449989329875 0 0 0 0.014345324857833353 0.038923707527751414 -0.059512931664005508 0 -0.059512931664005508 0.0076845133817267652 0 0 0 0.011652055227369437 0.039573148859805451 -0.059673550849607904 0 -0.059673550849607904 0.012005795878053505 0 0 0 0.012894736184464906 0.038823326996441532 -0.062347456383060607 0 -0.062347456383060607 0.012225703445019054 0 0 0 0.01276225761036498 0.036879513489525229 -0.061221050290040102 0 -0.061221050290040102 0.0091960480340026463 0 0 0 0.011518890380882052 0.038600642087763593 -0.065400080882592637 0 -0.065400080882592637 0.012739996699460132 0 0 0 0.012835159696805709 0.036214446057719563 -0.063695591691734776 0 -0.063695591691734776 0.0096206079373273301 0 0 0 0.011458763498761682 0.040290169545967036 -0.064925812384489301 0 -0.064925812384489301 0.0063015026015520448 0 0 0 0.011647918036879756 0.039536674123163751 -0.063229149023699138 0 -0.063229149023699138 0.010081978319510743 0 0 0 0.01240466311066879 0.040439220955853367 -0.061189051915803039 0 -0.061189051915803039 0.010292474477922142 0 0 0 0.012682923858443912 0.042676155782648717 -0.060972594431755123 0 -0.060972594431755123 0.00027405031147065273 0 0 0 0.010737551523529898 0.023775782449480642 -0.050009307419412181 0 -0.050009307419412181 -0.0080590092488836973 0 0 0 0.0039291933001492363 0.057715274639946072 -0.059550376843527486 0 -0.059550376843527486 0.0044968653243801227 0 0 0 0.01555303499108162 0.042250152516970285 -0.063514731886696096 0 -0.063514731886696096 0.0041630667580010439 0 0 0 0.011603304818742943 0.042229168313452359 -0.066180082288267217 0 -0.066180082288267217 0.0094100497092837188 0 0 0 0.012909804505684352 0.037968602404727422 -0.065827414113192484 0 -0.065827414113192484 0.0080316857466353475 0 0 0 0.011500072037840856 0.043821998427886921 -0.070073652321556379 0 -0.070073652321556379 0.01486485322793385 0 0 0 0.014671712913955082 0.051793873115881767 -0.066127386486925843 0 -0.066127386486925843 0.0084314144770577526 0 0 0 0.015056321898234665 0.075758846496813526 -0.0829595677415077 0 -0.0829595677415077 0.034529962401612213 0 0 0 0.027572202224606324 -0.032249013348893962 -0.055232220290155176 0 -0.055232220290155176 -0.010772658315811867 0 0 0 -0.010755417916176624 -0.061276142735048958 -0.071325719082603323 0 -0.071325719082603323 -0.032002268690235362 0 0 0 -0.023319602856321137 0.0010846186301591842 0.26317523402917686 0 0.26317523402917686 -0.070862339461200463 0 0 0 -0.017444430207774531 -0.023605911790518113 -0.060330216276631266 0 -0.060330216276631266 -0.0097912951280901897 0 0 0 -0.00834930172965191 0.022363200476604561 -0.13652184587300553 0 -0.13652184587300553 -0.089755807117199993 0 0 0 -0.016848151660155963 -0.01535222066280495 -0.054556848790920931 0 -0.054556848790920931 -0.0069397298372422256 0 0 0 -0.0055729876250116828 -0.026327387229364785 -0.060516345666495552 0 -0.060516345666495552 0.0018131264185221596 0 0 0 -0.0061285652027107673 -0.055933695502280556 -0.042022683423321661 0 -0.042022683423321661 -0.00060156257495691534 0 0 0 -0.014133814519309396 -0.046360684687355977 -0.070260815388612619 0 -0.070260815388612619 -0.013044957654198941 0 0 0 -0.014851410585388622 -0.036336333959393063 -0.0492567998055774 0 -0.0492567998055774 0.0034747716057683675 0 0 0 -0.0082153905884061462 -0.021068597903172614 -0.061424324890785476 0 -0.061424324890785476 0.0034396680918913347 0 0 0 -0.0044072324528203755 -0.012753681180936519 -0.057194703185598383 0 -0.057194703185598383 0.0059252684164977781 0 0 0 -0.0017071031911097406 -0.0034666883550251715 -0.061644031332654503 0 -0.061644031332654503 0.0011613854606868923 0 0 0 -0.00057632572358468082 0.0002646387200418987 -0.055916377777810222 0 -0.055916377777810222 0.0026682170696883389 0 0 0 0.00073321394743264268 0.0071578352341605256 -0.05646447440366531 0 -0.05646447440366531 -0.001494924510615947 0 0 0 0.001415727680885881 -0.011699871713116039 -0.061640442266806872 0 -0.061640442266806872 -0.0096734648298428816 0 0 0 -0.0053433341357398412 -0.0095313548295148376 -0.059969208353001173 0 -0.059969208353001173 -0.0025755905336284357 0 0 0 -0.0030267363407856518 -0.0018842832002226029 -0.052851162679812602 0 -0.052851162679812602 -0.0034949807866571092 0 0 0 -0.0013448159967199835 -0.0099566481726918177 -0.05713791354275366 0 -0.05713791354275366 -0.0058477692475560339 0 0 0 -0.0039511043550617408 0.0270970394281278 -0.10962533651917283 0 -0.10962533651917283 -0.1197626751744636 0 0 0 -0.023166408936582172 0.0065877103994622654 -0.052000190000127233 0 -0.052000190000127233 0.00052290612886984889 0 0 0 0.0017776541320830841 0.039052005508921184 -0.11072986336318991 0 -0.11072986336318991 -0.14671626802220317 0 0 0 -0.026916065628284969 0.0019293964922362239 -0.055075144096968009 0 -0.055075144096968009 -0.0018306781051129484 0 0 0 2.4679596780874391e-05 0.0087145238183061746 -0.05293600336765969 0 -0.05293600336765969 0.00034421885007862585 0 0 0 0.0022646856670962556 0.04832983623242626 -0.10891159790458005 0 -0.10891159790458005 -0.17095680984010642 0 0 0 -0.030656743401905828 0.014504161450346276 -0.049810585526084528 0 -0.049810585526084528 0.0030112828984663054 0 0 0 0.0043788610872033118 0.016838088868070943 -0.051137550628980399 0 -0.051137550628980399 0.0028940069428586329 0 0 0 0.0049330239527324493 0.058250262375054263 -0.10549817519768112 0 -0.10549817519768112 -0.19475063119253377 0 0 0 -0.034125092204362772 0.021101641920910019 -0.048353600756758208 0 -0.048353600756758208 0.0059049484558979515 0 0 0 0.0067516475942019927 0.022030067815995091 -0.052513148543553712 0 -0.052513148543553712 0.0040597677907325824 0 0 0 0.0065224589016819601 0.016285067850301704 -0.051572877536292139 0 -0.051572877536292139 0.0056799303787289368 0 0 0 0.0054912495572576603 0.0084112580365966472 -0.05446662438123262 0 -0.05446662438123262 0.0033041406382527949 0 0 0 0.0029288496687122634 0.035453066427121316 -0.044702605874934798 0 -0.044702605874934798 0.010736892888455252 0 0 0 0.011547489828894086 0.030946546348284754 -0.047304446455560312 0 -0.047304446455560312 0.0073399661204813782 0 0 0 0.0095716281171918105 0.080246483287055526 -0.09470926487546194 0 -0.09470926487546194 -0.23262139973699902 0 0 0 -0.038093729112475216 0.028900477309694361 -0.046123147945349996 0 -0.046123147945349996 0.0086424583383175602 0 0 0 0.0093857339120029248 0.023198111364755469 -0.049188208856577154 0 -0.049188208856577154 0.0048488878408607938 0 0 0 0.0070117498014039548 0.069333827345019472 -0.1008668212784869 0 -0.1008668212784869 -0.21721064493914355 0 0 0 -0.036969204398531019 0.023186347658465223 -0.051170558246518505 0 -0.051170558246518505 0.0085072242609501303 0 0 0 0.0079233929798538383 0.036986989583495111 -0.048240005676592368 0 -0.048240005676592368 0.0099025692665236087 0 0 0 0.0117223897125045 0.030205067651498219 -0.047961154785040372 0 -0.047961154785040372 0.01230959645343388 0 0 0 0.010628666026233136 0.027337888656860265 -0.05440575165475614 0 -0.05440575165475614 0.010242584403182375 0 0 0 0.0093951182650106047 0.023180343370007073 -0.052341453513325198 0 -0.052341453513325198 0.011282472415623968 0 0 0 0.008615703946407649 0.0061308825364675412 -0.055074160765467395 0 -0.055074160765467395 0.0072155635124877548 0 0 0 0.0033366115122388518 0.014112958327762526 -0.057584925821208888 0 -0.057584925821208888 0.0050206261799722197 0 0 0 0.0047833961269337141 0.013388112453511958 -0.059222249172368735 0 -0.059222249172368735 0.0072589623268332626 0 0 0 0.0051617686950862773 0.027455897610687896 -0.053411564443713311 0 -0.053411564443713311 0.012643208814169471 0 0 0 0.01002477660621437 0.014340009536900789 -0.059022818265808352 0 -0.059022818265808352 0.010948169144291142 0 0 0 0.0063220446702978994 0.011303156730913769 -0.059130307128695714 0 -0.059130307128695714 0.010580284443966581 0 0 0 0.0054708602937200285 0.01158853161268325 -0.061169467062189731 0 -0.061169467062189731 0.0094146127901097998 0 0 0 0.0052507861006982903 -0.013007313878213744 -0.058550559935625246 0 -0.058550559935625246 0.011009925671642273 0 0 0 -0.00049934705164278448 -0.018606974321564773 -0.054305258033605586 0 -0.054305258033605586 0.0059567536957136902 0 0 0 -0.0031625551564629095 -0.017917997674814945 -0.053247550467687366 0 -0.053247550467687366 0.01070182733853553 0 0 0 -0.0018040425840698537 -0.0077890578039264136 -0.062365805318995604 0 -0.062365805318995604 0.0077623384948101691 0 0 0 -6.6798272790324908e-06 -0.0029696906058063743 -0.057890914360504309 0 -0.057890914360504309 0.0077552934223463765 0 0 0 0.0011964007041349589 0.14114499557757032 -0.015856780454760355 0 -0.015856780454760355 0.00063732798388782541 0 0 0 0.035445580890364425 0.1253137586122981 -0.041468030112422172 0 -0.041468030112422172 0.012949837600943592 0 0 0 0.034565899053310423 0.15833820874436505 -0.016461810445156155 0 -0.016461810445156155 0.0021266875687266928 0 0 0 0.040116224078272922 0.19075282939320215 -0.02161083442110294 0 -0.02161083442110294 0.0026850607810455784 0 0 0 0.048359472543561655 0.19306771823690627 -0.025885678892349162 0 -0.025885678892349162 -0.0077573927323970615 0 0 0 0.046327581376127691 0.30683018475275237 -0.050239408506662864 0 -0.050239408506662864 0.037279746526521107 0 0 0 0.086027482819818424 0.21248454786686088 -0.068686586487814283 0 -0.068686586487814283 0.070253814995333119 0 0 0 0.070684590715548445 0.2396672974109606 -0.21488242028408422 0 -0.21488242028408422 -0.083791115522643622 0 0 0 0.038969045472072139 0.16364995825051665 -0.0058898191538787614 0 -0.0058898191538787614 -0.16618561106102447 0 0 0 -0.000633913202648273 0.15435988163422909 -0.053794104950719346 0 -0.053794104950719346 0.053161946625065681 0 0 0 0.051880457064823693 0.17741872724738483 -0.041776775225721652 0 -0.041776775225721652 0.040897046050200281 0 0 0 0.05457894332439639 0.13084708193207262 -0.039442451044104487 0 -0.039442451044104487 0.038312964446442166 0 0 0 0.042290011594628529 0.15397584256364738 -0.040216674588251067 0 -0.040216674588251067 0.022611182327910928 0 0 0 0.04414675622288966 0.18252191883885582 -0.057165936247573379 0 -0.057165936247573379 0.036278048030410126 0 0 0 0.054699991717316321 0.12547761280654535 -0.052760307820484464 0 -0.052760307820484464 0.042031649269593352 0 0 0 0.041877315519034841 0.09091552288733995 -0.04150588149997525 0 -0.04150588149997525 0.021612558850374386 0 0 0 0.028132020434428417 0.11975572067986717 -0.048148487998851047 0 -0.048148487998851047 0.030577223989177948 0 0 0 0.037583236167261225 0.099378749610561701 -0.036667429582519673 0 -0.036667429582519673 0.033647043458259862 0 0 0 0.033256448267205641 0.16004550776096949 -0.043513400910626387 0 -0.043513400910626387 -0.21499932602810645 0 0 0 -0.013738454566805558 0.11967605956461158 -0.045430415813507707 0 -0.045430415813507707 0.038996073683888799 0 0 0 0.039668033312125095 0.089816399405000427 -0.043053169388371115 0 -0.043053169388371115 0.028132975201670747 0 0 0 0.02948734365166774 0.14087900930820751 -0.052454081842313371 0 -0.052454081842313371 -0.24530876880021424 0 0 0 -0.02610743987298747 0.082300634512572968 -0.038064050181730313 0 -0.038064050181730313 0.025308338443320366 0 0 0 0.026902243238973389 0.091789308997272112 -0.047289964307686568 0 -0.047289964307686568 0.024066894635267566 0 0 0 0.028964050908135031 0.12919363181353638 -0.043315106393277902 0 -0.043315106393277902 0.022343150140136547 0 0 0 0.037884195488418149 0.08881661878886199 -0.036961120976403694 0 -0.036961120976403694 0.0098862815517251068 0 0 0 0.024675725085146982 0.086910025535050783 -0.049648867890633164 0 -0.049648867890633164 0.018702459581138364 0 0 0 0.026403121279047315 0.06692237520691946 -0.043282059085179903 0 -0.043282059085179903 0.015833071053577008 0 0 0 0.020688861565124173 0.058545287873574936 -0.052419430352276475 0 -0.052419430352276475 0.016556621618564638 0 0 0 0.018775477373034977 0.067547019060465341 -0.049119439816617372 0 -0.049119439816617372 0.020580510355847625 0 0 0 0.022031882354078269 0.053125274918814247 -0.044888707495620794 0 -0.044888707495620794 0.018525015396883227 0 0 0 0.017912572578924202 0.071656982177277173 -0.043556996769084533 0 -0.043556996769084533 0.019940762249706978 0 0 0 0.022899436106745885 0.074822060671479007 -0.043064281380904346 0 -0.043064281380904346 0.028223695092495671 0 0 0 0.025761438940993808 0.071664825414304634 -0.044762158226386739 0 -0.044762158226386739 0.021116575688175931 0 0 0 0.023195350275620141 0.068715642242519914 -0.038864774937657276 0 -0.038864774937657276 0.022283153904465891 0 0 0 0.022749699036746396 0.13109327025864559 -0.067220588886357291 0 -0.067220588886357291 -0.25701401085856901 0 0 0 -0.031480185150002171 0.074889473432934617 -0.04144982214017523 0 -0.04144982214017523 0.02246441117853859 0 0 0 0.024338471152868246 0.059673018962504321 -0.039530082264312316 0 -0.039530082264312316 0.01921393821464612 0 0 0 0.019721739294287888 0.11969896225093635 -0.071532616906779367 0 -0.071532616906779367 -0.26991715120928461 0 0 0 -0.037554547239579961 0.063400233344759416 -0.04169624210398859 0 -0.04169624210398859 0.018285865810345747 0 0 0 0.020421524788776235 0.054291957710645766 -0.044661877899833557 0 -0.044661877899833557 0.019247526030516493 0 0 0 0.018384870935290731 0.062527438742261299 -0.042059324667184206 0 -0.042059324667184206 0.020509146544079204 0 0 0 0.020759146321585153 0.052933514753482402 -0.045073980345552309 0 -0.045073980345552309 0.014974548346548655 0 0 0 0.016977015775007986 0.045515763929737774 -0.044321911448968021 0 -0.044321911448968021 0.016744271187675297 0 0 0 0.015565008779353295 0.050317992188071869 -0.04128477255084817 0 -0.04128477255084817 0.016173441854421267 0 0 0 0.016622858510623395 0.11154766677856287 -0.079664896694112031 0 -0.079664896694112031 -0.26704443627573937 0 0 0 -0.038874192374350969 0.053760209646225743 -0.042551581047222564 0 -0.042551581047222564 0.014865435902917223 0 0 0 0.017156411387285964 0.08959003748145733 -0.091050310448110849 0 -0.091050310448110849 -0.2489288860650305 0 0 0 -0.039834712145861317 0.037983263224162032 -0.045581485494914808 0 -0.045581485494914808 0.0095988945724311808 0 0 0 0.011895539449148358 0.045939811384367202 -0.043983404221942468 0 -0.043983404221942468 0.012223306429618663 0 0 0 0.014540779453496633 0.10159437071973798 -0.08591228327003364 0 -0.08591228327003364 -0.25817370628456615 0 0 0 -0.039144833891199937 0.043361409120505012 -0.042650761466224263 0 -0.042650761466224263 0.013677672013145958 0 0 0 0.014259770283412632 0.037960824740220694 -0.047225477100559354 0 -0.047225477100559354 0.013993614212063354 0 0 0 0.012988609738071061 0.03704325206746728 -0.048317095737280769 0 -0.048317095737280769 0.016209072265774171 0 0 0 0.013313081083310419 0.044363912554681605 -0.051332344366735838 0 -0.051332344366735838 0.015515359655053698 0 0 0 0.014969818052433657 0.028365158425529918 -0.049545252478895296 0 -0.049545252478895296 0.0070402521002853602 0 0 0 0.0088513526314537849 0.033397562632353023 -0.056839360849388121 0 -0.056839360849388121 0.011946014728593468 0 0 0 0.011335894340236713 0.040267118648192879 -0.047349463163647187 0 -0.047349463163647187 0.014041333096085573 0 0 0 0.013577112936069446 0.058148460499871879 -0.048460906479351806 0 -0.048460906479351806 0.011307437656062902 0 0 0 0.017363974538983751 0.056850946074644082 -0.047302333159363719 0 -0.047302333159363719 0.012317732704455908 0 0 0 0.017292169694775039 0.075372905957279301 -0.031798741091924709 0 -0.031798741091924709 0.0072544753028821463 0 0 0 0.020656845315040306 0.10098955322301884 -0.038380908613389511 0 -0.038380908613389511 0.0078298195121093705 0 0 0 0.027204843183782024 0.062337335876114369 -0.036343644250887097 0 -0.036343644250887097 -8.1434410147962488e-05 0 0 0 0.015563975366491595 0.076080705544494587 -0.012696240182736629 0 -0.012696240182736629 0.0005325168189072027 0 0 0 0.019153305590850545 0.10873876955007744 -0.0127632254565863 0 -0.0127632254565863 0.0012018197226688621 0 0 0 0.02748514731818652 0.10386429233519168 -0.013925166367231956 0 -0.013925166367231956 -0.0005830098801578032 0 0 0 0.025820320613758496 0.02647434267616916 -0.031025315614322146 0 -0.031025315614322146 -0.016959447472663092 0 0 0 0.0023787238008765588 0.064632839620939908 -0.014880434272522114 0 -0.014880434272522114 -0.0023371808054184484 0 0 0 0.015573914703880476 0.046962645931973634 -0.016386959700811499 0 -0.016386959700811499 0.0038284803398915823 0 0 0 0.012697781567966304 0.02992826538098381 -0.050910748690138535 0 -0.050910748690138535 0.008449919766368108 0 0 0 0.0095945462868379794 0.00062563708689558628 -0.050259314702245872 0 -0.050259314702245872 -0.00020072451130176416 0 0 0 0.00010622814389851798 0.032481695147612705 -0.038406329564790287 0 -0.038406329564790287 -0.0034623136297606827 0 0 0 0.0072548453794630541 0.05199459826467745 -0.032835615775360982 0 -0.032835615775360982 0.0058268772714167305 0 0 0 0.014455368884023434 0.014419390739080273 -0.031007402248984517 0 -0.031007402248984517 -0.013923559693732601 0 0 0 0.0001239577613369458 0.0092354640728339321 -0.027429493882904533 0 -0.027429493882904533 -0.015626160093829 0 0 0 -0.0015976740052486837 3.0524121985342489e-05 -0.054448539782663008 0 -0.054448539782663008 -0.0035220839231921985 0 0 0 -0.0008728899503016585 -0.0042340412324863852 -0.057017329681403273 0 -0.057017329681403273 0.009113907768367735 0 0 0 0.0012199666339702819 -0.003383615813444707 -0.055733501523866025 0 -0.055733501523866025 0.006699258999856017 0 0 0 0.00082891079660285527 -0.0050270451805328742 -0.057812841888215685 0 -0.057812841888215685 0.0057507718012943521 0 0 0 0.00018093165519039722 0.0069528580467904111 -0.058132202421699086 0 -0.058132202421699086 0.0043255249721410038 0 0 0 0.0028195957547328399 -0.0025365628253114503 -0.048211611836233528 0 -0.048211611836233528 0.011985060602577979 0 0 0 0.00236212444431666 -0.0011458380433850834 -0.041761746911290615 0 -0.041761746911290615 0.010364572112343984 0 0 0 0.0023046835172397806 -0.0089755484349344772 -0.047262729482187044 0 -0.047262729482187044 0.027442354614728437 0 0 0 0.0046167015449484761 -0.023223720946540682 -0.024285006273350229 0 -0.024285006273350229 0.010002769376179277 0 0 0 -0.0033052378925903514 -0.020314115420170337 -0.021878738376625906 0 -0.021878738376625906 0.018012898829160042 0 0 0 -0.0005753041477524496 -0.08400180664097126 -0.018469181452803324 0 -0.018469181452803324 -0.00023247885843702409 0 0 0 -0.021058571374852064 -0.029027798728455789 -0.036795281667176265 0 -0.036795281667176265 -0.0011924679448857001 0 0 0 -0.0075550666683353307 -0.042338480062235118 -0.012130893715365784 0 -0.012130893715365784 -0.0043469576596855131 0 0 0 -0.011671359430480144 -0.051242943971464873 -0.025177734010730146 0 -0.025177734010730146 0.0016367692847393334 0 0 0 -0.012401543671681343 -0.05546228085584351 -0.027600458653890825 0 -0.027600458653890825 -0.0090928350163228533 0 0 0 -0.016138778968041556 -0.027582799971851722 -0.040554611810412089 0 -0.040554611810412089 -0.0020606615380715648 0 0 0 -0.0074108653774807801 -0.028416615692159031 -0.040181458653814617 0 -0.040181458653814617 -0.0061357292656456508 0 0 0 -0.0086380862394512814 -0.020380062936295351 -0.040153755823939097 0 -0.040153755823939097 -0.0081129622825699688 0 0 0 -0.00712325630471633 -0.01391508989716117 -0.039948375323828 0 -0.039948375323828 -0.0047472772694314713 0 0 0 -0.0046655917916481604 -0.0064041633179072743 -0.038915503197244905 0 -0.038915503197244905 -0.0063179613136021828 0 0 0 -0.0031805311578774198 -0.04421916393291344 -0.01423982736157503 0 -0.01423982736157503 -0.024204527419791958 0 0 0 -0.017105922838176323 -0.10369834556910351 -0.041294116141819881 0 -0.041294116141819881 -0.0098950141250186974 0 0 0 -0.028398339923530469 -0.032431028906580409 -0.034845337992609138 0 -0.034845337992609138 -0.01368896628785618 0 0 0 -0.011529998798609067 -0.023608719071270268 -0.045116197266655833 0 -0.045116197266655833 0.0081745492180173018 0 0 0 -0.003858542463313297 -0.016839916895685703 -0.042450538014472461 0 -0.042450538014472461 0.00030547052125884377 0 0 0 -0.0041336115936067008 -0.017086273027238821 -0.049428406979363626 0 -0.049428406979363626 0.0069772605711200808 0 0 0 -0.00252725311402964 -0.027132199788670985 -0.044791775729706496 0 -0.044791775729706496 0.0012671707016334022 0 0 0 -0.0064662572717593125 -0.013925282412442841 -0.050848303947472584 0 -0.050848303947472584 0.0058769131901186267 0 0 0 -0.0020120923055810813 -0.024767204644349505 -0.034615828874792864 0 -0.034615828874792864 0.0019487981892433136 0 0 0 -0.0057046016137765072 -0.015126195910800388 -0.046922995865033124 0 -0.046922995865033124 0.00058263734600960682 0 0 0 -0.0036358896411978758 
</DataArray>
</CellData>
</Piece>
</UnstructuredGrid>
</VTKFile>
