<?xml version="1.0"?>
<VTKFile type="UnstructuredGrid" version="0.1" byte_order="LittleEndian">
<UnstructuredGrid>
<Piece NumberOfPoints="880" NumberOfCells="299">
<Points>
<DataArray type="Float64" NumberOfComponents="3" format="ascii">
-0 0 0 0.18653882694645291 0.22249173546702489 0 0 0.25000000000104189 0 -0 0 0 0.18653882694645291 0.22249173546702489 0 0.24999999999941089 0 0 0.24999999999941089 0 0 0.35015135319464608 0.1900339269648805 0 0.49999999999869182 0 0 0.18653882694645291 0.22249173546702489 0 0.24999999999941089 0 0 0.35015135319464608 0.1900339269648805 0 0.35015135319464608 0.1900339269648805 0 0.49924741621175961 0.21507969613896921 0 0.49999999999869182 0 0 0.35015135319464608 0.1900339269648805 0 0.49924741621175961 0.21507969613896921 0 0.40587285776242238 0.32419148732968017 0 0.37764981543668408 0.41341486499350411 0 0.41576443813007791 0.48093483781626972 0 0.45418244162583959 0.41624787166862259 0 0.37764981543668408 0.41341486499350411 0 0.45418244162583959 0.41624787166862259 0 0.40587285776242238 0.32419148732968017 0 0.41576443813007791 0.48093483781626972 0 0.46566719828045178 0.47702825415921918 0 0.45418244162583959 0.41624787166862259 0 0.41576443813007791 0.48093483781626972 0 0.46566719828045178 0.47702825415921918 0 0.4638583922372429 0.51470588235294135 0 0.46566719828045178 0.47702825415921918 0 0.49954900152271581 0.45107191084564019 0 0.5 0.5 0 0.46566719828045178 0.47702825415921918 0 0.4638583922372429 0.51470588235294135 0 0.5 0.5 0 0.46566719828045178 0.47702825415921918 0 0.49954900152271581 0.45107191084564019 0 0.45418244162583959 0.41624787166862259 0 0.45418244162583959 0.41624787166862259 0 0.49435464945626773 0.33318442629318029 0 0.54876010062294855 0.39662628167175101 0 0.45418244162583959 0.41624787166862259 0 0.49435464945626773 0.33318442629318029 0 0.40587285776242238 0.32419148732968017 0 0.49924741621175961 0.21507969613896921 0 0.49435464945626773 0.33318442629318029 0 0.40587285776242238 0.32419148732968017 0 0.35015135319464608 0.1900339269648805 0 0.40587285776242238 0.32419148732968017 0 0.29145599617909779 0.35026601625021492 0 0.37764981543668408 0.41341486499350411 0 0.40587285776242238 0.32419148732968017 0 0.29145599617909779 0.35026601625021492 0 0.18653882694645291 0.22249173546702489 0 0.35015135319464608 0.1900339269648805 0 0.29145599617909779 0.35026601625021492 0 0.29145599617909779 0.35026601625021492 0 0.32540781287085369 0.49175159894608172 0 0.17872124008781709 0.39692711089439497 0 0.37764981543668408 0.41341486499350411 0 0.29145599617909779 0.35026601625021492 0 0.32540781287085369 0.49175159894608172 0 0.37764981543668408 0.41341486499350411 0 0.41576443813007791 0.48093483781626972 0 0.32540781287085369 0.49175159894608172 0 0.17872124008781709 0.39692711089439497 0 0 0.25000000000104189 0 0 0.50000000000206157 0 0.17872124008781709 0.39692711089439497 0 0 0.50000000000206157 0 0.22453074737734591 0.51613635929252633 0 0.32540781287085369 0.49175159894608172 0 0.17872124008781709 0.39692711089439497 0 0.22453074737734591 0.51613635929252633 0 0.18653882694645291 0.22249173546702489 0 0.29145599617909779 0.35026601625021492 0 0.17872124008781709 0.39692711089439497 0 0.18653882694645291 0.22249173546702489 0 0.17872124008781709 0.39692711089439497 0 0 0.25000000000104189 0 0 0.50000000000206157 0 0.18442368612951149 0.62734948407416979 0 0 0.75000000000034772 0 0.18442368612951149 0.62734948407416979 0 0.22727208279115291 0.72949159435386135 0 0 0.75000000000034772 0 0.18442368612951149 0.62734948407416979 0 0.22727208279115291 0.72949159435386135 0 0.31346558946927339 0.67110784456164874 0 0.18442368612951149 0.62734948407416979 0 0.22453074737734591 0.51613635929252633 0 0.31771010312359771 0.58585679504088894 0 0 0.50000000000206157 0 0.18442368612951149 0.62734948407416979 0 0.22453074737734591 0.51613635929252633 0 0 1 0 0.096516139048187316 0.89789944498939644 0 0 0.75000000000034772 0 0 1 0 0.096516139048187316 0.89789944498939644 0 0.1596341872805197 1 0 0.096516139048187316 0.89789944498939644 0 0 0.75000000000034772 0 0.1644705180525495 0.8200994301041713 0 0.1644705180525495 0.8200994301041713 0 0.2386314078659193 0.92924778694987087 0 0.27155609766735261 0.80398965554903801 0 0.22727208279115291 0.72949159435386135 0 0 0.75000000000034772 0 0.1644705180525495 0.8200994301041713 0 0.22727208279115291 0.72949159435386135 0 0.1644705180525495 0.8200994301041713 0 0.27155609766735261 0.80398965554903801 0 0.096516139048187316 0.89789944498939644 0 0.1644705180525495 0.8200994301041713 0 0.2386314078659193 0.92924778694987087 0 0.096516139048187316 0.89789944498939644 0 0.2386314078659193 0.92924778694987087 0 0.1596341872805197 1 0 0.2386314078659193 0.92924778694987087 0 0.1596341872805197 1 0 0.27591592301363282 1 0 0.36061858902161292 1 0 0.32789203369730929 0.94219211037003092 0 0.27591592301363282 1 0 0.36061858902161292 1 0 0.32789203369730929 0.94219211037003092 0 0.39382242252278338 0.95440420122950598 0 0.2386314078659193 0.92924778694987087 0 0.32789203369730929 0.94219211037003092 0 0.27591592301363282 1 0 0.2386314078659193 0.92924778694987087 0 0.32789203369730929 0.94219211037003092 0 0.31834856208730472 0.88134829947972904 0 0.32789203369730929 0.94219211037003092 0 0.37746652222901839 0.8987532801416368 0 0.39382242252278338 0.95440420122950598 0 0.32789203369730929 0.94219211037003092 0 0.31834856208730472 0.88134829947972904 0 0.37746652222901839 0.8987532801416368 0 0.2386314078659193 0.92924778694987087 0 0.31834856208730472 0.88134829947972904 0 0.27155609766735261 0.80398965554903801 0 0.31834856208730472 0.88134829947972904 0 0.36493375430404612 0.82333914183704071 0 0.37746652222901839 0.8987532801416368 0 0.31834856208730472 0.88134829947972904 0 0.36493375430404612 0.82333914183704071 0 0.27155609766735261 0.80398965554903801 0 0.22727208279115291 0.72949159435386135 0 0.27155609766735261 0.80398965554903801 0 0.32984265945580837 0.74432890077789404 0 0.36493375430404612 0.82333914183704071 0 0.27155609766735261 0.80398965554903801 0 0.32984265945580837 0.74432890077789404 0 0.36493375430404612 0.82333914183704071 0 0.39746869305290999 0.7595658224757349 0 0.32984265945580837 0.74432890077789404 0 0.36493375430404612 0.82333914183704071 0 0.39746869305290999 0.7595658224757349 0 0.42893012659725649 0.81084715169569632 0 0.39746869305290999 0.7595658224757349 0 0.42893012659725649 0.81084715169569632 0 0.44651949253391748 0.77225997208621999 0 0.39746869305290999 0.7595658224757349 0 0.44651949253391748 0.77225997208621999 0 0.43412357948152142 0.72128778687215156 0 0.44651949253391748 0.77225997208621999 0 0.47786860714145291 0.77730227330627721 0 0.47220206448452873 0.74892462649306213 0 0.47786860714145291 0.77730227330627721 0 0.47220206448452873 0.74892462649306213 0 0.5 0.76470588235294124 0 0.47786860714145291 0.77730227330627721 0 0.5 0.79411764705882359 0 0.5 0.76470588235294124 0 0.47062147868881782 0.80650323854033878 0 0.5 0.82352941176470584 0 0.5 0.79411764705882359 0 0.47786860714145291 0.77730227330627721 0 0.47062147868881782 0.80650323854033878 0 0.5 0.79411764705882359 0 0.44651949253391748 0.77225997208621999 0 0.47786860714145291 0.77730227330627721 0 0.47062147868881782 0.80650323854033878 0 0.42893012659725649 0.81084715169569632 0 0.44651949253391748 0.77225997208621999 0 0.47062147868881782 0.80650323854033878 0 0.42893012659725649 0.81084715169569632 0 0.47062147868881782 0.80650323854033878 0 0.46181179062043481 0.83858979842637782 0 0.42893012659725649 0.81084715169569632 0 0.46181179062043481 0.83858979842637782 0 0.42880856207355889 0.86677159981903118 0 0.46181179062043481 0.83858979842637782 0 0.5 0.85294117647058831 0 0.5 0.82352941176470584 0 0.47062147868881782 0.80650323854033878 0 0.46181179062043481 0.83858979842637782 0 0.5 0.82352941176470584 0 0.46181179062043481 0.83858979842637782 0 0.47032448519202857 0.86718057681700655 0 0.5 0.85294117647058831 0 0.47032448519202857 0.86718057681700655 0 0.5 0.88235294117647056 0 0.5 0.85294117647058831 0 0.46181179062043481 0.83858979842637782 0 0.47032448519202857 0.86718057681700655 0 0.42880856207355889 0.86677159981903118 0 0.36493375430404612 0.82333914183704071 0 0.42880856207355889 0.86677159981903118 0 0.37746652222901839 0.8987532801416368 0 0.36493375430404612 0.82333914183704071 0 0.42893012659725649 0.81084715169569632 0 0.42880856207355889 0.86677159981903118 0 0.37746652222901839 0.8987532801416368 0 0.42822627495986648 0.92083108049218854 0 0.39382242252278338 0.95440420122950598 0 0.42880856207355889 0.86677159981903118 0 0.37746652222901839 0.8987532801416368 0 0.42822627495986648 0.92083108049218854 0 0.47032448519202857 0.86718057681700655 0 0.42880856207355889 0.86677159981903118 0 0.46100207326614928 0.89524736819256467 0 0.42880856207355889 0.86677159981903118 0 0.42822627495986648 0.92083108049218854 0 0.46100207326614928 0.89524736819256467 0 0.47032448519202857 0.86718057681700655 0 0.46100207326614928 0.89524736819256467 0 0.5 0.88235294117647056 0 0.46100207326614928 0.89524736819256467 0 0.5 0.91176470588235292 0 0.5 0.88235294117647056 0 0.46100207326614928 0.89524736819256467 0 0.46949408183482899 0.92833826413560594 0 0.5 0.91176470588235292 0 0.46949408183482899 0.92833826413560594 0 0.5 0.94117647058823528 0 0.5 0.91176470588235292 0 0.42822627495986648 0.92083108049218854 0 0.46100207326614928 0.89524736819256467 0 0.46949408183482899 0.92833826413560594 0 0.46949408183482899 0.92833826413560594 0 0.44768478605684647 0.9646709673379662 0 0.47596308696979028 0.95620709615192379 0 0.42822627495986648 0.92083108049218854 0 0.46949408183482899 0.92833826413560594 0 0.44768478605684647 0.9646709673379662 0 0.44768478605684647 0.9646709673379662 0 0.47596308696979028 0.95620709615192379 0 0.47818194888216242 0.97829325975680159 0 0.46949408183482899 0.92833826413560594 0 0.47596308696979028 0.95620709615192379 0 0.5 0.94117647058823528 0 0.47596308696979028 0.95620709615192379 0 0.47818194888216242 0.97829325975680159 0 0.5 0.97058823529411764 0 0.47596308696979028 0.95620709615192379 0 0.5 0.97058823529411764 0 0.5 0.94117647058823528 0 0.47818194888216242 0.97829325975680159 0 0.46726187138417491 1 0 0.5 1 0 0.47818194888216242 0.97829325975680159 0 0.5 0.97058823529411764 0 0.5 1 0 0.44768478605684647 0.9646709673379662 0 0.47818194888216242 0.97829325975680159 0 0.46726187138417491 1 0 0.44768478605684647 0.9646709673379662 0 0.46726187138417491 1 0 0.42231823435723009 1 0 0.44768478605684647 0.9646709673379662 0 0.42231823435723009 1 0 0.39382242252278338 0.95440420122950598 0 0.42822627495986648 0.92083108049218854 0 0.44768478605684647 0.9646709673379662 0 0.39382242252278338 0.95440420122950598 0 0.36061858902161292 1 0 0.42231823435723009 1 0 0.39382242252278338 0.95440420122950598 0 0.31771010312359771 0.58585679504088894 0 0.3872154068451229 0.6301386882447304 0 0.41980724897053312 0.55867199730355355 0 0.32540781287085369 0.49175159894608172 0 0.31771010312359771 0.58585679504088894 0 0.41980724897053312 0.55867199730355355 0 0.32540781287085369 0.49175159894608172 0 0.22453074737734591 0.51613635929252633 0 0.31771010312359771 0.58585679504088894 0 0.18442368612951149 0.62734948407416979 0 0.31771010312359771 0.58585679504088894 0 0.31346558946927339 0.67110784456164874 0 0.22727208279115291 0.72949159435386135 0 0.32984265945580837 0.74432890077789404 0 0.31346558946927339 0.67110784456164874 0 0.39746869305290999 0.7595658224757349 0 0.32984265945580837 0.74432890077789404 0 0.38513711431054509 0.69312683393047636 0 0.32984265945580837 0.74432890077789404 0 0.31346558946927339 0.67110784456164874 0 0.38513711431054509 0.69312683393047636 0 0.31771010312359771 0.58585679504088894 0 0.31346558946927339 0.67110784456164874 0 0.3872154068451229 0.6301386882447304 0 0.31346558946927339 0.67110784456164874 0 0.3872154068451229 0.6301386882447304 0 0.38513711431054509 0.69312683393047636 0 0.3872154068451229 0.6301386882447304 0 0.38513711431054509 0.69312683393047636 0 0.4390556798454946 0.66199025953586599 0 0.3872154068451229 0.6301386882447304 0 0.4390556798454946 0.66199025953586599 0 0.44702869549010399 0.61002701911053991 0 0.39746869305290999 0.7595658224757349 0 0.38513711431054509 0.69312683393047636 0 0.43412357948152142 0.72128778687215156 0 0.38513711431054509 0.69312683393047636 0 0.43412357948152142 0.72128778687215156 0 0.4390556798454946 0.66199025953586599 0 0.43412357948152142 0.72128778687215156 0 0.47636314644728822 0.72058823529411908 0 0.47220206448452873 0.74892462649306213 0 0.44651949253391748 0.77225997208621999 0 0.43412357948152142 0.72128778687215156 0 0.47220206448452873 0.74892462649306213 0 0.43412357948152142 0.72128778687215156 0 0.46330219403010409 0.69594601192744354 0 0.4390556798454946 0.66199025953586599 0 0.43412357948152142 0.72128778687215156 0 0.46330219403010409 0.69594601192744354 0 0.47636314644728822 0.72058823529411908 0 0.46330219403010409 0.69594601192744354 0 0.47636314644728822 0.72058823529411908 0 0.5 0.70588235294117663 0 0.46330219403010409 0.69594601192744354 0 0.5 0.67647058823529438 0 0.5 0.70588235294117663 0 0.47636314644728822 0.72058823529411908 0 0.5 0.73529411764705888 0 0.5 0.70588235294117663 0 0.47220206448452873 0.74892462649306213 0 0.5 0.73529411764705888 0 0.5 0.76470588235294124 0 0.47636314644728822 0.72058823529411908 0 0.47220206448452873 0.74892462649306213 0 0.5 0.73529411764705888 0 0.4390556798454946 0.66199025953586599 0 0.47501372853621993 0.66300743809067952 0 0.47271076880550111 0.63357150722538136 0 0.4390556798454946 0.66199025953586599 0 0.47271076880550111 0.63357150722538136 0 0.44702869549010399 0.61002701911053991 0 0.46330219403010409 0.69594601192744354 0 0.4390556798454946 0.66199025953586599 0 0.47501372853621993 0.66300743809067952 0 0.46330219403010409 0.69594601192744354 0 0.47501372853621993 0.66300743809067952 0 0.5 0.67647058823529438 0 0.47501372853621993 0.66300743809067952 0 0.5 0.64705882352941191 0 0.5 0.67647058823529438 0 0.47501372853621993 0.66300743809067952 0 0.47271076880550111 0.63357150722538136 0 0.5 0.64705882352941191 0 0.47271076880550111 0.63357150722538136 0 0.5 0.61764705882352966 0 0.5 0.64705882352941191 0 0.47784843225772261 0.60532339797118362 0 0.5 0.5882352941176473 0 0.5 0.61764705882352966 0 0.47271076880550111 0.63357150722538136 0 0.47784843225772261 0.60532339797118362 0 0.5 0.61764705882352966 0 0.46950269699300751 0.57713611057881953 0 0.5 0.55882352941176494 0 0.5 0.5882352941176473 0 0.47784843225772261 0.60532339797118362 0 0.46950269699300751 0.57713611057881953 0 0.5 0.5882352941176473 0 0.46950269699300751 0.57713611057881953 0 0.44702869549010399 0.61002701911053991 0 0.41980724897053312 0.55867199730355355 0 0.47784843225772261 0.60532339797118362 0 0.46950269699300751 0.57713611057881953 0 0.44702869549010399 0.61002701911053991 0 0.47271076880550111 0.63357150722538136 0 0.47784843225772261 0.60532339797118362 0 0.44702869549010399 0.61002701911053991 0 0.3872154068451229 0.6301386882447304 0 0.44702869549010399 0.61002701911053991 0 0.41980724897053312 0.55867199730355355 0 0.41576443813007791 0.48093483781626972 0 0.32540781287085369 0.49175159894608172 0 0.41980724897053312 0.55867199730355355 0 0.41576443813007791 0.48093483781626972 0 0.41980724897053312 0.55867199730355355 0 0.4638583922372429 0.51470588235294135 0 0.41980724897053312 0.55867199730355355 0 0.4638583922372429 0.51470588235294135 0 0.47063366764015668 0.5477498568705923 0 0.46950269699300751 0.57713611057881953 0 0.41980724897053312 0.55867199730355355 0 0.47063366764015668 0.5477498568705923 0 0.46950269699300751 0.57713611057881953 0 0.47063366764015668 0.5477498568705923 0 0.5 0.55882352941176494 0 0.47063366764015668 0.5477498568705923 0 0.5 0.52941176470588269 0 0.5 0.55882352941176494 0 0.4638583922372429 0.51470588235294135 0 0.47063366764015668 0.5477498568705923 0 0.5 0.52941176470588269 0 0.4638583922372429 0.51470588235294135 0 0.5 0.5 0 0.5 0.52941176470588269 0 0.5 0.52941176470588269 0 0.52629893369322589 0.51330452493555312 0 0.52820848765230954 0.54540076010342464 0 0.5 0.5 0 0.5 0.52941176470588269 0 0.52629893369322589 0.51330452493555312 0 0.5 0.5 0 0.5 0.52941176470588269 0 0.5 0.52941176470588269 0 0.5 0.55882352941176494 0 0.52820848765230954 0.54540076010342464 0 0.5 0.52941176470588269 0 0.5 0.55882352941176494 0 0.5 0.55882352941176494 0 0.52820848765230954 0.54540076010342464 0 0.52246722155046366 0.57417151085839346 0 0.52820848765230954 0.54540076010342464 0 0.56199650931215228 0.51957997397013023 0 0.55931585964581554 0.57571189932143541 0 0.52629893369322589 0.51330452493555312 0 0.56199650931215228 0.51957997397013023 0 0.54128967150166729 0.47213012589832831 0 0.52629893369322589 0.51330452493555312 0 0.52820848765230954 0.54540076010342464 0 0.56199650931215228 0.51957997397013023 0 0.56199650931215228 0.51957997397013023 0 0.61174067805461174 0.54148194547208961 0 0.60345082206666756 0.47575908627627911 0 0.56199650931215228 0.51957997397013023 0 0.61174067805461174 0.54148194547208961 0 0.55931585964581554 0.57571189932143541 0 0.61174067805461174 0.54148194547208961 0 0.61264973759093866 0.60999664295093947 0 0.55931585964581554 0.57571189932143541 0 0.61264973759093866 0.60999664295093947 0 0.55931585964581554 0.57571189932143541 0 0.55828304378107996 0.63546085023637511 0 0.55931585964581554 0.57571189932143541 0 0.52754891270107895 0.60396918438229519 0 0.55828304378107996 0.63546085023637511 0 0.52754891270107895 0.60396918438229519 0 0.52222323737415433 0.63323059203007803 0 0.55828304378107996 0.63546085023637511 0 0.52820848765230954 0.54540076010342464 0 0.55931585964581554 0.57571189932143541 0 0.52246722155046366 0.57417151085839346 0 0.55931585964581554 0.57571189932143541 0 0.52246722155046366 0.57417151085839346 0 0.52754891270107895 0.60396918438229519 0 0.52246722155046366 0.57417151085839346 0 0.5 0.5882352941176473 0 0.52754891270107895 0.60396918438229519 0 0.5 0.55882352941176494 0 0.52246722155046366 0.57417151085839346 0 0.5 0.5882352941176473 0 0.5 0.55882352941176494 0 0.5 0.5882352941176473 0 0.52754891270107895 0.60396918438229519 0 0.5 0.61764705882352966 0 0.52222323737415433 0.63323059203007803 0 0.5 0.5882352941176473 0 0.5 0.61764705882352966 0 0.5 0.5882352941176473 0 0.52754891270107895 0.60396918438229519 0 0.5 0.61764705882352966 0 0.5 0.61764705882352966 0 0.52222323737415433 0.63323059203007803 0 0.5 0.64705882352941191 0 0.5 0.61764705882352966 0 0.5 0.64705882352941191 0 0.52222323737415433 0.63323059203007803 0 0.5 0.64705882352941191 0 0.52736180768426655 0.66304505109048573 0 0.5 0.64705882352941191 0 0.5 0.67647058823529438 0 0.52736180768426655 0.66304505109048573 0 0.5 0.64705882352941191 0 0.5 0.67647058823529438 0 0.5 0.67647058823529438 0 0.52736180768426655 0.66304505109048573 0 0.52189318962165776 0.69193883095305098 0 0.52736180768426655 0.66304505109048573 0 0.52189318962165776 0.69193883095305098 0 0.55852327729743823 0.69498827241231187 0 0.52736180768426655 0.66304505109048573 0 0.55828304378107996 0.63546085023637511 0 0.55852327729743823 0.69498827241231187 0 0.52222323737415433 0.63323059203007803 0 0.52736180768426655 0.66304505109048573 0 0.55828304378107996 0.63546085023637511 0 0.5 0.73529411764705888 0 0.52547133540542634 0.72058823529411897 0 0.5211984712236245 0.75134107022269114 0 0.5 0.73529411764705888 0 0.52547133540542634 0.72058823529411897 0 0.5 0.70588235294117663 0 0.5 0.73529411764705888 0 0.5 0.70588235294117663 0 0.52547133540542634 0.72058823529411897 0 0.5 0.70588235294117663 0 0.52189318962165776 0.69193883095305098 0 0.5 0.67647058823529438 0 0.5 0.70588235294117663 0 0.52189318962165776 0.69193883095305098 0 0.5 0.67647058823529438 0 0.5 0.70588235294117663 0 0.52547133540542634 0.72058823529411897 0 0.52189318962165776 0.69193883095305098 0 0.55852327729743823 0.69498827241231187 0 0.52547133540542634 0.72058823529411897 0 0.5211984712236245 0.75134107022269114 0 0.55458114032207428 0.75544804615062711 0 0.52547133540542634 0.72058823529411897 0 0.55852327729743823 0.69498827241231187 0 0.55458114032207428 0.75544804615062711 0 0.55852327729743823 0.69498827241231187 0 0.6088970477846376 0.72715446211577472 0 0.55458114032207428 0.75544804615062711 0 0.55852327729743823 0.69498827241231187 0 0.6088970477846376 0.72715446211577472 0 0.60110770968787908 0.67045598539422102 0 0.61264973759093866 0.60999664295093947 0 0.55828304378107996 0.63546085023637511 0 0.60110770968787908 0.67045598539422102 0 0.55828304378107996 0.63546085023637511 0 0.55852327729743823 0.69498827241231187 0 0.60110770968787908 0.67045598539422102 0 0.61264973759093866 0.60999664295093947 0 0.60110770968787908 0.67045598539422102 0 0.66621429167335955 0.68470300534742679 0 0.6088970477846376 0.72715446211577472 0 0.66621429167335955 0.68470300534742679 0 0.6817340940367822 0.76923101696744944 0 0.6088970477846376 0.72715446211577472 0 0.60110770968787908 0.67045598539422102 0 0.66621429167335955 0.68470300534742679 0 0.66621429167335955 0.68470300534742679 0 0.6817340940367822 0.76923101696744944 0 0.7828103453665094 0.69876044407634474 0 0.66621429167335955 0.68470300534742679 0 0.69354174170208815 0.57892485983477626 0 0.7828103453665094 0.69876044407634474 0 0.69354174170208815 0.57892485983477626 0 0.77935529174931761 0.49004815756283893 0 0.66681557370681976 0.49435464945626773 0 0.61174067805461174 0.54148194547208961 0 0.69354174170208815 0.57892485983477626 0 0.66681557370681976 0.49435464945626773 0 0.61174067805461174 0.54148194547208961 0 0.60345082206666756 0.47575908627627911 0 0.66681557370681976 0.49435464945626773 0 0.61174067805461174 0.54148194547208961 0 0.61264973759093866 0.60999664295093947 0 0.69354174170208815 0.57892485983477626 0 0.61264973759093866 0.60999664295093947 0 0.66621429167335955 0.68470300534742679 0 0.69354174170208815 0.57892485983477626 0 0.60145933092659498 0.94808652648958736 0 0.57768176564240026 1 0 0.63938141097836054 1 0 0.60145933092659498 0.94808652648958736 0 0.55381003699196441 0.97073734537240042 0 0.55652711631508067 0.93435010280744335 0 0.60145933092659498 0.94808652648958736 0 0.57768176564240026 1 0 0.55381003699196441 0.97073734537240042 0 0.57768176564240026 1 0 0.53273812861558045 1 0 0.55381003699196441 0.97073734537240042 0 0.53273812861558045 1 0 0.55381003699196441 0.97073734537240042 0 0.52191028766292435 0.97912620202886635 0 0.53273812861558045 1 0 0.52191028766292435 0.97912620202886635 0 0.5 1 0 0.52191028766292435 0.97912620202886635 0 0.5 0.97058823529411764 0 0.5 1 0 0.5 0.97058823529411764 0 0.5 1 0 0.5 0.97058823529411764 0 0.5 0.94117647058823528 0 0.5 0.97058823529411764 0 0.5 0.94117647058823528 0 0.52554900427979434 0.95492408164812537 0 0.52191028766292435 0.97912620202886635 0 0.5 0.97058823529411764 0 0.52554900427979434 0.95492408164812537 0 0.5 0.94117647058823528 0 0.52554900427979434 0.95492408164812537 0 0.52149395742518578 0.9280464911497236 0 0.55381003699196441 0.97073734537240042 0 0.52554900427979434 0.95492408164812537 0 0.55652711631508067 0.93435010280744335 0 0.55381003699196441 0.97073734537240042 0 0.52191028766292435 0.97912620202886635 0 0.52554900427979434 0.95492408164812537 0 0.52554900427979434 0.95492408164812537 0 0.55652711631508067 0.93435010280744335 0 0.52149395742518578 0.9280464911497236 0 0.55652711631508067 0.93435010280744335 0 0.52982914238326484 0.89727189043838895 0 0.57507719038536997 0.89743529736491356 0 0.55652711631508067 0.93435010280744335 0 0.52149395742518578 0.9280464911497236 0 0.52982914238326484 0.89727189043838895 0 0.52149395742518578 0.9280464911497236 0 0.5 0.91176470588235292 0 0.52982914238326484 0.89727189043838895 0 0.5 0.94117647058823528 0 0.5 0.91176470588235292 0 0.5 0.94117647058823528 0 0.52149395742518578 0.9280464911497236 0 0.5 0.91176470588235292 0 0.5 0.91176470588235292 0 0.5 0.88235294117647056 0 0.52982914238326484 0.89727189043838895 0 0.5 0.91176470588235292 0 0.5 0.88235294117647056 0 0.5 0.88235294117647056 0 0.52982914238326484 0.89727189043838895 0 0.51991574276818808 0.86764705882352966 0 0.52982914238326484 0.89727189043838895 0 0.57507719038536997 0.89743529736491356 0 0.54799184932697576 0.8599032232094268 0 0.60145933092659498 0.94808652648958736 0 0.55652711631508067 0.93435010280744335 0 0.57507719038536997 0.89743529736491356 0 0.60145933092659498 0.94808652648958736 0 0.57507719038536997 0.89743529736491356 0 0.63427031498547037 0.88927276979110648 0 0.57507719038536997 0.89743529736491356 0 0.58994607995897996 0.84812355238296233 0 0.63427031498547037 0.88927276979110648 0 0.58994607995897996 0.84812355238296233 0 0.64153141236229239 0.83072478436463804 0 0.63427031498547037 0.88927276979110648 0 0.58994607995897996 0.84812355238296233 0 0.60049020024666178 0.78900583008989877 0 0.64153141236229239 0.83072478436463804 0 0.58994607995897996 0.84812355238296233 0 0.54799184932697576 0.8599032232094268 0 0.55206941203846505 0.81091931303809783 0 0.58994607995897996 0.84812355238296233 0 0.55206941203846505 0.81091931303809783 0 0.60049020024666178 0.78900583008989877 0 0.57507719038536997 0.89743529736491356 0 0.58994607995897996 0.84812355238296233 0 0.54799184932697576 0.8599032232094268 0 0.52982914238326484 0.89727189043838895 0 0.54799184932697576 0.8599032232094268 0 0.51991574276818808 0.86764705882352966 0 0.54799184932697576 0.8599032232094268 0 0.51991574276818808 0.86764705882352966 0 0.52395085592512047 0.83729395211968571 0 0.51991574276818808 0.86764705882352966 0 0.5 0.85294117647058831 0 0.52395085592512047 0.83729395211968571 0 0.5 0.88235294117647056 0 0.5 0.85294117647058831 0 0.5 0.88235294117647056 0 0.51991574276818808 0.86764705882352966 0 0.5 0.85294117647058831 0 0.5 0.82352941176470584 0 0.52395085592512047 0.83729395211968571 0 0.52039202967084142 0.80930587873000437 0 0.5 0.85294117647058831 0 0.5 0.82352941176470584 0 0.5 0.85294117647058831 0 0.5 0.82352941176470584 0 0.52395085592512047 0.83729395211968571 0 0.52395085592512047 0.83729395211968571 0 0.55206941203846505 0.81091931303809783 0 0.52039202967084142 0.80930587873000437 0 0.54799184932697576 0.8599032232094268 0 0.52395085592512047 0.83729395211968571 0 0.55206941203846505 0.81091931303809783 0 0.55206941203846505 0.81091931303809783 0 0.52039202967084142 0.80930587873000437 0 0.52593988039062167 0.78066906966870908 0 0.55206941203846505 0.81091931303809783 0 0.52593988039062167 0.78066906966870908 0 0.55458114032207428 0.75544804615062711 0 0.52039202967084142 0.80930587873000437 0 0.5 0.79411764705882359 0 0.52593988039062167 0.78066906966870908 0 0.5 0.82352941176470584 0 0.5 0.79411764705882359 0 0.5 0.82352941176470584 0 0.52039202967084142 0.80930587873000437 0 0.5 0.79411764705882359 0 0.5 0.73529411764705888 0 0.5 0.76470588235294124 0 0.5 0.73529411764705888 0 0.5 0.76470588235294124 0 0.5211984712236245 0.75134107022269114 0 0.5 0.79411764705882359 0 0.5 0.76470588235294124 0 0.52593988039062167 0.78066906966870908 0 0.5 0.79411764705882359 0 0.5 0.76470588235294124 0 0.5 0.76470588235294124 0 0.52593988039062167 0.78066906966870908 0 0.5211984712236245 0.75134107022269114 0 0.52593988039062167 0.78066906966870908 0 0.5211984712236245 0.75134107022269114 0 0.55458114032207428 0.75544804615062711 0 0.6088970477846376 0.72715446211577472 0 0.55458114032207428 0.75544804615062711 0 0.60049020024666178 0.78900583008989877 0 0.55206941203846505 0.81091931303809783 0 0.55458114032207428 0.75544804615062711 0 0.60049020024666178 0.78900583008989877 0 0.6817340940367822 0.76923101696744944 0 0.70916369539323409 0.86041409043207073 0 0.80987878298654392 0.8110307373443908 0 0.6088970477846376 0.72715446211577472 0 0.60049020024666178 0.78900583008989877 0 0.6817340940367822 0.76923101696744944 0 0.60049020024666178 0.78900583008989877 0 0.6817340940367822 0.76923101696744944 0 0.64153141236229239 0.83072478436463804 0 0.70916369539323409 0.86041409043207073 0 0.64153141236229239 0.83072478436463804 0 0.63427031498547037 0.88927276979110648 0 0.6817340940367822 0.76923101696744944 0 0.70916369539323409 0.86041409043207073 0 0.64153141236229239 0.83072478436463804 0 0.70916369539323409 0.86041409043207073 0 0.68173274398262862 0.93660593960145366 0 0.63427031498547037 0.88927276979110648 0 0.60145933092659498 0.94808652648958736 0 0.68173274398262862 0.93660593960145366 0 0.63427031498547037 0.88927276979110648 0 0.70916369539323409 0.86041409043207073 0 0.68173274398262862 0.93660593960145366 0 0.78222494485339233 0.91531439423588867 0 0.68173274398262862 0.93660593960145366 0 0.72408407698689681 1 0 0.78222494485339233 0.91531439423588867 0 0.60145933092659498 0.94808652648958736 0 0.68173274398262862 0.93660593960145366 0 0.63938141097836054 1 0 0.68173274398262862 0.93660593960145366 0 0.72408407698689681 1 0 0.63938141097836054 1 0 1 1 0 0.89611933618281592 0.89173516444576184 0 1 0.74999999999934008 0 0.72408407698689681 1 0 0.84036581271988753 1 0 0.78222494485339233 0.91531439423588867 0 0.84036581271988753 1 0 0.78222494485339233 0.91531439423588867 0 0.89611933618281592 0.89173516444576184 0 0.6817340940367822 0.76923101696744944 0 0.80987878298654392 0.8110307373443908 0 0.7828103453665094 0.69876044407634474 0 0.80987878298654392 0.8110307373443908 0 0.7828103453665094 0.69876044407634474 0 1 0.74999999999934008 0 0.78222494485339233 0.91531439423588867 0 0.80987878298654392 0.8110307373443908 0 0.89611933618281592 0.89173516444576184 0 0.70916369539323409 0.86041409043207073 0 0.78222494485339233 0.91531439423588867 0 0.80987878298654392 0.8110307373443908 0 0.80987878298654392 0.8110307373443908 0 0.89611933618281592 0.89173516444576184 0 1 0.74999999999934008 0 0.84036581271988753 1 0 1 1 0 0.89611933618281592 0.89173516444576184 0 0.84549316180028322 0.59867304496468476 0 1 0.74999999999934008 0 1 0.49999999999869182 0 0.69354174170208815 0.57892485983477626 0 0.84549316180028322 0.59867304496468476 0 0.77935529174931761 0.49004815756283893 0 0.84549316180028322 0.59867304496468476 0 1 0.49999999999869182 0 0.77935529174931761 0.49004815756283893 0 0.69354174170208815 0.57892485983477626 0 0.84549316180028322 0.59867304496468476 0 0.7828103453665094 0.69876044407634474 0 0.84549316180028322 0.59867304496468476 0 0.7828103453665094 0.69876044407634474 0 1 0.74999999999934008 0 1 0.49999999999869182 0 0.77935529174931761 0.49004815756283893 0 0.80451351819826811 0.35479918680564199 0 0.80451351819826811 0.35479918680564199 0 1 0.24999999999941089 0 0.79923457477009219 0.1751534052300894 0 1 0.49999999999869182 0 0.80451351819826811 0.35479918680564199 0 1 0.24999999999941089 0 1 0 0 0.79923457477009219 0.1751534052300894 0 0.74999999999934008 0 0 1 0.24999999999941089 0 1 0 0 0.79923457477009219 0.1751534052300894 0 0.49999999999869182 0 0 0.62537763927714929 0.14286513648320209 0 0.74999999999934008 0 0 0.79923457477009219 0.1751534052300894 0 0.62537763927714929 0.14286513648320209 0 0.6197279975813802 0.30020319976287241 0 0.79923457477009219 0.1751534052300894 0 0.62537763927714929 0.14286513648320209 0 0.74999999999934008 0 0 0.49924741621175961 0.21507969613896921 0 0.49999999999869182 0 0 0.62537763927714929 0.14286513648320209 0 0.49924741621175961 0.21507969613896921 0 0.62537763927714929 0.14286513648320209 0 0.6197279975813802 0.30020319976287241 0 0.49924741621175961 0.21507969613896921 0 0.49435464945626773 0.33318442629318029 0 0.6197279975813802 0.30020319976287241 0 0.49435464945626773 0.33318442629318029 0 0.6197279975813802 0.30020319976287241 0 0.54876010062294855 0.39662628167175101 0 0.6197279975813802 0.30020319976287241 0 0.54876010062294855 0.39662628167175101 0 0.66576775508844777 0.41353720431697111 0 0.49954900152271581 0.45107191084564019 0 0.45418244162583959 0.41624787166862259 0 0.54876010062294855 0.39662628167175101 0 0.49954900152271581 0.45107191084564019 0 0.54876010062294855 0.39662628167175101 0 0.54128967150166729 0.47213012589832831 0 0.49954900152271581 0.45107191084564019 0 0.5 0.5 0 0.54128967150166729 0.47213012589832831 0 0.5 0.5 0 0.52629893369322589 0.51330452493555312 0 0.54128967150166729 0.47213012589832831 0 0.54876010062294855 0.39662628167175101 0 0.54128967150166729 0.47213012589832831 0 0.60345082206666756 0.47575908627627911 0 0.56199650931215228 0.51957997397013023 0 0.54128967150166729 0.47213012589832831 0 0.60345082206666756 0.47575908627627911 0 0.54876010062294855 0.39662628167175101 0 0.60345082206666756 0.47575908627627911 0 0.66576775508844777 0.41353720431697111 0 0.77935529174931761 0.49004815756283893 0 0.80451351819826811 0.35479918680564199 0 0.66576775508844777 0.41353720431697111 0 0.60345082206666756 0.47575908627627911 0 0.66576775508844777 0.41353720431697111 0 0.66681557370681976 0.49435464945626773 0 0.77935529174931761 0.49004815756283893 0 0.66576775508844777 0.41353720431697111 0 0.66681557370681976 0.49435464945626773 0 0.80451351819826811 0.35479918680564199 0 0.79923457477009219 0.1751534052300894 0 0.6197279975813802 0.30020319976287241 0 0.80451351819826811 0.35479918680564199 0 0.6197279975813802 0.30020319976287241 0 0.66576775508844777 0.41353720431697111 0 
</DataArray>
</Points>
<Cells>
<DataArray type="UInt32" Name="connectivity" format="ascii">
0 1 2 3 4 5 6 7 8 9 10 11 12 13 14 15 16 17 18 19 20 21 22 23 24 25 26 27 28 29 30 31 32 33 34 35 36 37 38 39 40 41 42 43 44 45 46 47 48 49 50 51 52 53 54 55 56 57 58 59 60 61 62 63 64 65 66 67 68 69 70 71 72 73 74 75 76 77 78 79 80 81 82 83 84 85 86 87 88 89 90 91 92 93 94 95 96 97 98 99 100 101 102 103 104 105 106 107 108 109 110 111 112 113 114 115 116 117 118 119 120 121 122 123 124 125 126 127 128 129 130 131 132 133 134 135 136 137 138 139 140 141 142 143 144 145 146 147 148 149 150 151 152 153 154 155 156 157 158 159 160 161 162 163 164 165 166 167 168 169 170 171 172 173 174 175 176 177 178 179 180 181 182 183 184 185 186 187 188 189 190 191 192 193 194 195 196 197 198 199 200 201 202 203 204 205 206 207 208 209 210 211 212 213 214 215 216 217 218 219 220 221 222 223 224 225 226 227 228 229 230 231 232 233 234 235 236 237 238 239 240 241 242 243 244 245 246 247 248 249 250 251 252 253 254 255 256 257 258 259 260 261 262 263 264 265 266 267 268 269 270 271 272 273 274 275 276 277 278 279 280 281 282 283 284 285 286 287 288 289 290 291 292 293 294 295 296 297 298 299 300 301 302 303 304 305 306 307 308 309 310 311 312 313 314 315 316 317 318 319 320 321 322 323 324 325 326 327 328 329 330 331 332 333 334 335 336 337 338 339 340 341 342 343 344 345 346 347 348 349 350 351 352 353 354 355 356 357 358 359 360 361 362 363 364 365 366 367 368 369 370 371 372 373 374 375 376 377 378 379 380 381 382 383 384 385 386 387 388 389 390 391 392 393 394 395 396 397 398 399 400 401 402 403 404 405 406 407 408 409 410 411 412 413 414 415 416 417 418 419 420 421 422 423 424 425 426 427 428 429 430 431 432 433 434 435 436 437 438 439 440 441 442 443 444 445 446 447 448 449 450 451 452 453 454 455 456 457 458 459 460 461 462 463 464 465 466 467 468 469 470 471 472 473 474 475 476 477 478 479 480 481 482 483 484 485 486 487 488 489 490 491 492 493 494 495 496 497 498 499 500 501 502 503 504 505 506 507 508 509 510 511 512 513 514 515 516 517 518 519 520 521 522 523 524 525 526 527 528 529 530 531 532 533 534 535 536 537 538 539 540 541 542 543 544 545 546 547 548 549 550 551 552 553 554 555 556 557 558 559 560 561 562 563 564 565 566 567 568 569 570 571 572 573 574 575 576 577 578 579 580 581 582 583 584 585 586 587 588 589 590 591 592 593 594 595 596 597 598 599 600 601 602 603 604 605 606 607 608 609 610 611 612 613 614 615 616 617 618 619 620 621 622 623 624 625 626 627 628 629 630 631 632 633 634 635 636 637 638 639 640 641 642 643 644 645 646 647 648 649 650 651 652 653 654 655 656 657 658 659 660 661 662 663 664 665 666 667 668 669 670 671 672 673 674 675 676 677 678 679 680 681 682 683 684 685 686 687 688 689 690 691 692 693 694 695 696 697 698 699 700 701 702 703 704 705 706 707 708 709 710 711 712 713 714 715 716 717 718 719 720 721 722 723 724 725 726 727 728 729 730 731 732 733 734 735 736 737 738 739 740 741 742 743 744 745 746 747 748 749 750 751 752 753 754 755 756 757 758 759 760 761 762 763 764 765 766 767 768 769 770 771 772 773 774 775 776 777 778 779 780 781 782 783 784 785 786 787 788 789 790 791 792 793 794 795 796 797 798 799 800 801 802 803 804 805 806 807 808 809 810 811 812 813 814 815 816 817 818 819 820 821 822 823 824 825 826 827 828 829 830 831 832 833 834 835 836 837 838 839 840 841 842 843 844 845 846 847 848 849 850 851 852 853 854 855 856 857 858 859 860 861 862 863 864 865 866 867 868 869 870 871 872 873 874 875 876 877 878 879 
</DataArray>
<DataArray type="UInt32" Name="offsets" format="ascii">
3 6 9 12 15 18 21 24 27 30 33 36 39 42 45 48 51 54 57 60 63 66 69 72 75 78 81 84 87 90 93 96 99 102 105 108 111 114 117 120 123 126 129 132 135 138 141 144 147 150 153 156 159 162 165 168 171 174 177 180 183 186 189 192 195 198 201 204 207 210 213 216 219 222 225 228 231 234 237 240 243 246 249 252 255 258 261 264 267 270 273 276 279 282 285 288 291 294 297 300 303 306 309 312 315 318 321 324 327 330 333 336 339 342 345 348 351 354 357 360 363 366 369 372 375 378 381 384 387 390 393 396 399 402 405 408 411 414 417 420 423 425 428 430 433 436 439 442 445 448 451 454 457 460 463 466 469 472 474 477 479 482 485 487 490 493 495 498 501 504 507 510 513 515 518 521 523 526 529 532 535 538 541 544 547 550 553 556 559 562 565 568 571 574 577 580 583 586 589 592 595 597 599 602 605 608 611 614 617 620 623 626 628 631 634 636 639 642 645 648 651 654 657 660 663 666 669 672 675 677 680 683 685 688 691 694 697 700 703 705 708 710 713 716 718 721 724 727 730 733 736 739 742 745 748 751 754 757 760 763 766 769 772 775 778 781 784 787 790 793 796 799 802 805 808 811 814 817 820 823 826 829 832 835 838 841 844 847 850 853 856 859 862 865 868 871 874 877 880 
</DataArray>
<DataArray type="UInt32" Name="types" format="ascii">
5 5 5 5 5 5 5 5 5 5 5 5 5 5 5 5 5 5 5 5 5 5 5 5 5 5 5 5 5 5 5 5 5 5 5 5 5 5 5 5 5 5 5 5 5 5 5 5 5 5 5 5 5 5 5 5 5 5 5 5 5 5 5 5 5 5 5 5 5 5 5 5 5 5 5 5 5 5 5 5 5 5 5 5 5 5 5 5 5 5 5 5 5 5 5 5 5 5 5 5 5 5 5 5 5 5 5 5 5 5 5 5 5 5 5 5 5 5 5 5 5 5 5 5 5 5 5 5 5 5 5 5 5 5 5 5 5 5 5 5 5 3 5 3 5 5 5 5 5 5 5 5 5 5 5 5 5 5 3 5 3 5 5 3 5 5 3 5 5 5 5 5 5 3 5 5 3 5 5 5 5 5 5 5 5 5 5 5 5 5 5 5 5 5 5 5 5 5 5 5 5 3 3 5 5 5 5 5 5 5 5 5 3 5 5 3 5 5 5 5 5 5 5 5 5 5 5 5 5 3 5 5 3 5 5 5 5 5 5 3 5 3 5 5 3 5 5 5 5 5 5 5 5 5 5 5 5 5 5 5 5 5 5 5 5 5 5 5 5 5 5 5 5 5 5 5 5 5 5 5 5 5 5 5 5 5 5 5 5 5 5 5 5 5 5 5 5 5 5 
</DataArray>
</Cells>
<PointData Scalars="" Vectors="displacement," Tensors="">
<DataArray type="Float64" Name="displacement" NumberOfComponents="3" format="ascii">
-8.0779983718019654e-06 2.0748201960268614e-07 0 -0.0025515963744666978 -0.0088640696444351706 0 -0.0016819002688147095 -0.00072594131359468713 0 -8.0779983718019654e-06 2.0748201960268614e-07 0 -0.0025515963744666978 -0.0088640696444351706 0 -3.4281327056603776e-06 -1.4624950367074263e-05 0 -3.4281327056603776e-06 -1.4624950367074263e-05 0 -0.0022652307006655451 -0.016319877708728153 0 -2.6463539573075805e-06 -3.2004829435553206e-05 0 -0.0025515963744666978 -0.0088640696444351706 0 -3.4281327056603776e-06 -1.4624950367074263e-05 0 -0.0022652307006655451 -0.016319877708728153 0 -0.0022652307006655451 -0.016319877708728153 0 0.0019454307515272332 -0.027883130227437596 0 -2.6463539573075805e-06 -3.2004829435553206e-05 0 -0.0022652307006655451 -0.016319877708728153 0 0.0019454307515272332 -0.027883130227437596 0 0.0063007037959342538 -0.034284784127005113 0 0.014922232419908353 -0.039646153395069737 0 0.02607013217388874 -0.05326506922310513 0 0.017573092175587779 -0.053235505463340417 0 0.014922232419908353 -0.039646153395069737 0 0.017573092175587779 -0.053235505463340417 0 0.0063007037959342538 -0.034284784127005113 0 0.02607013217388874 -0.05326506922310513 0 0.028031710596066895 -0.064458540436868231 0 0.017573092175587779 -0.053235505463340417 0 0.02607013217388874 -0.05326506922310513 0 0.028031710596066895 -0.064458540436868231 0 0.035120251330851657 -0.069409412331133152 0 0.028031710596066895 -0.064458540436868231 0 0.025720857794458835 -0.067600962611804954 0 0.037858285891252876 -0.083011418942889603 0 0.028031710596066895 -0.064458540436868231 0 0.035120251330851657 -0.069409412331133152 0 0.037858285891252876 -0.083011418942889603 0 0.028031710596066895 -0.064458540436868231 0 0.025720857794458835 -0.067600962611804954 0 0.017573092175587779 -0.053235505463340417 0 0.017573092175587779 -0.053235505463340417 0 0.010768565731993647 -0.045432617642583065 0 0.020534091118223508 -0.062308407274533038 0 0.017573092175587779 -0.053235505463340417 0 0.010768565731993647 -0.045432617642583065 0 0.0063007037959342538 -0.034284784127005113 0 0.0019454307515272332 -0.027883130227437596 0 0.010768565731993647 -0.045432617642583065 0 0.0063007037959342538 -0.034284784127005113 0 -0.0022652307006655451 -0.016319877708728153 0 0.0063007037959342538 -0.034284784127005113 0 0.0062924038511601053 -0.024066030406538087 0 0.014922232419908353 -0.039646153395069737 0 0.0063007037959342538 -0.034284784127005113 0 0.0062924038511601053 -0.024066030406538087 0 -0.0025515963744666978 -0.0088640696444351706 0 -0.0022652307006655451 -0.016319877708728153 0 0.0062924038511601053 -0.024066030406538087 0 0.0062924038511601053 -0.024066030406538087 0 0.023691984068694754 -0.037511276870559801 0 0.0094090755953471165 -0.014579523666536257 0 0.014922232419908353 -0.039646153395069737 0 0.0062924038511601053 -0.024066030406538087 0 0.023691984068694754 -0.037511276870559801 0 0.014922232419908353 -0.039646153395069737 0 0.02607013217388874 -0.05326506922310513 0 0.023691984068694754 -0.037511276870559801 0 0.0094090755953471165 -0.014579523666536257 0 -0.0016819002688147095 -0.00072594131359468713 0 0.020401530966359625 0.0029663652795346969 0 0.0094090755953471165 -0.014579523666536257 0 0.020401530966359625 0.0029663652795346969 0 0.025172065865009832 -0.024825858649573637 0 0.023691984068694754 -0.037511276870559801 0 0.0094090755953471165 -0.014579523666536257 0 0.025172065865009832 -0.024825858649573637 0 -0.0025515963744666978 -0.0088640696444351706 0 0.0062924038511601053 -0.024066030406538087 0 0.0094090755953471165 -0.014579523666536257 0 -0.0025515963744666978 -0.0088640696444351706 0 0.0094090755953471165 -0.014579523666536257 0 -0.0016819002688147095 -0.00072594131359468713 0 0.020401530966359625 0.0029663652795346969 0 0.039434163490162211 -0.023034880026267864 0 0.05725020056254615 0.0036069184355532382 0 0.039434163490162211 -0.023034880026267864 0 0.055365802082203312 -0.032323175184437364 0 0.05725020056254615 0.0036069184355532382 0 0.039434163490162211 -0.023034880026267864 0 0.055365802082203312 -0.032323175184437364 0 0.048086998563240883 -0.046053103843702044 0 0.039434163490162211 -0.023034880026267864 0 0.025172065865009832 -0.024825858649573637 0 0.036942126017761076 -0.042683962912383175 0 0.020401530966359625 0.0029663652795346969 0 0.039434163490162211 -0.023034880026267864 0 0.025172065865009832 -0.024825858649573637 0 0.098747515607208208 0.0041000063264987818 0 0.081641023742985111 -0.012034393964081009 0 0.05725020056254615 0.0036069184355532382 0 0.098747515607208208 0.0041000063264987818 0 0.081641023742985111 -0.012034393964081009 0 0.099147411321360512 -0.022908943823414154 0 0.081641023742985111 -0.012034393964081009 0 0.05725020056254615 0.0036069184355532382 0 0.068880491305090844 -0.023132286968440465 0 0.068880491305090844 -0.023132286968440465 0 0.086780705147360498 -0.036838515900162599 0 0.066625755212009849 -0.041909994619757307 0 0.055365802082203312 -0.032323175184437364 0 0.05725020056254615 0.0036069184355532382 0 0.068880491305090844 -0.023132286968440465 0 0.055365802082203312 -0.032323175184437364 0 0.068880491305090844 -0.023132286968440465 0 0.066625755212009849 -0.041909994619757307 0 0.081641023742985111 -0.012034393964081009 0 0.068880491305090844 -0.023132286968440465 0 0.086780705147360498 -0.036838515900162599 0 0.081641023742985111 -0.012034393964081009 0 0.086780705147360498 -0.036838515900162599 0 0.099147411321360512 -0.022908943823414154 0 0.086780705147360498 -0.036838515900162599 0 0.099147411321360512 -0.022908943823414154 0 0.099530266112266452 -0.043876993060276905 0 0.099083480189943604 -0.060824051505516084 0 0.088519030491376882 -0.054207541718424332 0 0.099530266112266452 -0.043876993060276905 0 0.099083480189943604 -0.060824051505516084 0 0.088519030491376882 -0.054207541718424332 0 0.089507748977606758 -0.068321789930489762 0 0.086780705147360498 -0.036838515900162599 0 0.088519030491376882 -0.054207541718424332 0 0.099530266112266452 -0.043876993060276905 0 0.086780705147360498 -0.036838515900162599 0 0.088519030491376882 -0.054207541718424332 0 0.078683172259583531 -0.052078010369038495 0 0.088519030491376882 -0.054207541718424332 0 0.080766453604457916 -0.064602851370679351 0 0.089507748977606758 -0.068321789930489762 0 0.088519030491376882 -0.054207541718424332 0 0.078683172259583531 -0.052078010369038495 0 0.080766453604457916 -0.064602851370679351 0 0.086780705147360498 -0.036838515900162599 0 0.078683172259583531 -0.052078010369038495 0 0.066625755212009849 -0.041909994619757307 0 0.078683172259583531 -0.052078010369038495 0 0.069664672904628841 -0.060907685401870131 0 0.080766453604457916 -0.064602851370679351 0 0.078683172259583531 -0.052078010369038495 0 0.069664672904628841 -0.060907685401870131 0 0.066625755212009849 -0.041909994619757307 0 0.055365802082203312 -0.032323175184437364 0 0.066625755212009849 -0.041909994619757307 0 0.058498136255792747 -0.051818531589959207 0 0.069664672904628841 -0.060907685401870131 0 0.066625755212009849 -0.041909994619757307 0 0.058498136255792747 -0.051818531589959207 0 0.069664672904628841 -0.060907685401870131 0 0.061055663690942591 -0.066374147004777437 0 0.058498136255792747 -0.051818531589959207 0 0.069664672904628841 -0.060907685401870131 0 0.061055663690942591 -0.066374147004777437 0 0.067959804956290698 -0.074445570002759934 0 0.061055663690942591 -0.066374147004777437 0 0.067959804956290698 -0.074445570002759934 0 0.062929734208434618 -0.07736602050803984 0 0.061055663690942591 -0.066374147004777437 0 0.062929734208434618 -0.07736602050803984 0 0.056530397589757232 -0.073267373060832433 0 0.062929734208434618 -0.07736602050803984 0 0.063636925015384926 -0.084340007217112115 0 0.060151547516304492 -0.082382451021144762 0 0.063636925015384926 -0.084340007217112115 0 0.060151547516304492 -0.082382451021144762 0 0.062119198733599362 -0.088849899120492057 0 0.063636925015384926 -0.084340007217112115 0 0.065741554029851795 -0.089573670946674705 0 0.062119198733599362 -0.088849899120492057 0 0.067355335219473969 -0.083468471818762782 0 0.069461167583312666 -0.09026804883791939 0 0.065741554029851795 -0.089573670946674705 0 0.063636925015384926 -0.084340007217112115 0 0.067355335219473969 -0.083468471818762782 0 0.065741554029851795 -0.089573670946674705 0 0.062929734208434618 -0.07736602050803984 0 0.063636925015384926 -0.084340007217112115 0 0.067355335219473969 -0.083468471818762782 0 0.067959804956290698 -0.074445570002759934 0 0.062929734208434618 -0.07736602050803984 0 0.067355335219473969 -0.083468471818762782 0 0.067959804956290698 -0.074445570002759934 0 0.067355335219473969 -0.083468471818762782 0 0.071565993681148091 -0.082275013984611664 0 0.067959804956290698 -0.074445570002759934 0 0.071565993681148091 -0.082275013984611664 0 0.075536294163810566 -0.075577030625686104 0 0.071565993681148091 -0.082275013984611664 0 0.073252006193729388 -0.090921408759136416 0 0.069461167583312666 -0.09026804883791939 0 0.067355335219473969 -0.083468471818762782 0 0.071565993681148091 -0.082275013984611664 0 0.069461167583312666 -0.09026804883791939 0 0.071565993681148091 -0.082275013984611664 0 0.075317164881580329 -0.084735243321957157 0 0.073252006193729388 -0.090921408759136416 0 0.075317164881580329 -0.084735243321957157 0 0.077082933256838029 -0.091523451363151334 0 0.073252006193729388 -0.090921408759136416 0 0.071565993681148091 -0.082275013984611664 0 0.075317164881580329 -0.084735243321957157 0 0.075536294163810566 -0.075577030625686104 0 0.069664672904628841 -0.060907685401870131 0 0.075536294163810566 -0.075577030625686104 0 0.080766453604457916 -0.064602851370679351 0 0.069664672904628841 -0.060907685401870131 0 0.067959804956290698 -0.074445570002759934 0 0.075536294163810566 -0.075577030625686104 0 0.080766453604457916 -0.064602851370679351 0 0.08328434004110076 -0.07615512965224755 0 0.089507748977606758 -0.068321789930489762 0 0.075536294163810566 -0.075577030625686104 0 0.080766453604457916 -0.064602851370679351 0 0.08328434004110076 -0.07615512965224755 0 0.075317164881580329 -0.084735243321957157 0 0.075536294163810566 -0.075577030625686104 0 0.079170206650056599 -0.083251876284854587 0 0.075536294163810566 -0.075577030625686104 0 0.08328434004110076 -0.07615512965224755 0 0.079170206650056599 -0.083251876284854587 0 0.075317164881580329 -0.084735243321957157 0 0.079170206650056599 -0.083251876284854587 0 0.077082933256838029 -0.091523451363151334 0 0.079170206650056599 -0.083251876284854587 0 0.080890831390483448 -0.092072680194443438 0 0.077082933256838029 -0.091523451363151334 0 0.079170206650056599 -0.083251876284854587 0 0.083461008006931139 -0.085700455960699223 0 0.080890831390483448 -0.092072680194443438 0 0.083461008006931139 -0.085700455960699223 0 0.084550579350053778 -0.092572243202510562 0 0.080890831390483448 -0.092072680194443438 0 0.08328434004110076 -0.07615512965224755 0 0.079170206650056599 -0.083251876284854587 0 0.083461008006931139 -0.085700455960699223 0 0.083461008006931139 -0.085700455960699223 0 0.089422101732707676 -0.080832643455367559 0 0.087097898478436131 -0.087550890406113135 0 0.08328434004110076 -0.07615512965224755 0 0.083461008006931139 -0.085700455960699223 0 0.089422101732707676 -0.080832643455367559 0 0.089422101732707676 -0.080832643455367559 0 0.087097898478436131 -0.087550890406113135 0 0.089893448046515223 -0.088259436803973829 0 0.083461008006931139 -0.085700455960699223 0 0.087097898478436131 -0.087550890406113135 0 0.084550579350053778 -0.092572243202510562 0 0.087097898478436131 -0.087550890406113135 0 0.089893448046515223 -0.088259436803973829 0 0.087752048943021757 -0.093027194775237271 0 0.087097898478436131 -0.087550890406113135 0 0.087752048943021757 -0.093027194775237271 0 0.084550579350053778 -0.092572243202510562 0 0.089893448046515223 -0.088259436803973829 0 0.094871029636076284 -0.084874890639250591 0 0.09033939566078357 -0.093300969725159555 0 0.089893448046515223 -0.088259436803973829 0 0.087752048943021757 -0.093027194775237271 0 0.09033939566078357 -0.093300969725159555 0 0.089422101732707676 -0.080832643455367559 0 0.089893448046515223 -0.088259436803973829 0 0.094871029636076284 -0.084874890639250591 0 0.089422101732707676 -0.080832643455367559 0 0.094871029636076284 -0.084874890639250591 0 0.097542763375028721 -0.074399504160510749 0 0.089422101732707676 -0.080832643455367559 0 0.097542763375028721 -0.074399504160510749 0 0.089507748977606758 -0.068321789930489762 0 0.08328434004110076 -0.07615512965224755 0 0.089422101732707676 -0.080832643455367559 0 0.089507748977606758 -0.068321789930489762 0 0.099083480189943604 -0.060824051505516084 0 0.097542763375028721 -0.074399504160510749 0 0.089507748977606758 -0.068321789930489762 0 0.036942126017761076 -0.042683962912383175 0 0.044741424186213859 -0.059298299096665008 0 0.037627328853133878 -0.061705489528518571 0 0.023691984068694754 -0.037511276870559801 0 0.036942126017761076 -0.042683962912383175 0 0.037627328853133878 -0.061705489528518571 0 0.023691984068694754 -0.037511276870559801 0 0.025172065865009832 -0.024825858649573637 0 0.036942126017761076 -0.042683962912383175 0 0.039434163490162211 -0.023034880026267864 0 0.036942126017761076 -0.042683962912383175 0 0.048086998563240883 -0.046053103843702044 0 0.055365802082203312 -0.032323175184437364 0 0.058498136255792747 -0.051818531589959207 0 0.048086998563240883 -0.046053103843702044 0 0.061055663690942591 -0.066374147004777437 0 0.058498136255792747 -0.051818531589959207 0 0.05241615815066674 -0.061636369939942565 0 0.058498136255792747 -0.051818531589959207 0 0.048086998563240883 -0.046053103843702044 0 0.05241615815066674 -0.061636369939942565 0 0.036942126017761076 -0.042683962912383175 0 0.048086998563240883 -0.046053103843702044 0 0.044741424186213859 -0.059298299096665008 0 0.048086998563240883 -0.046053103843702044 0 0.044741424186213859 -0.059298299096665008 0 0.05241615815066674 -0.061636369939942565 0 0.044741424186213859 -0.059298299096665008 0 0.05241615815066674 -0.061636369939942565 0 0.04972866239316396 -0.072300361224155382 0 0.044741424186213859 -0.059298299096665008 0 0.04972866239316396 -0.072300361224155382 0 0.044548485962441722 -0.071737251661246157 0 0.061055663690942591 -0.066374147004777437 0 0.05241615815066674 -0.061636369939942565 0 0.056530397589757232 -0.073267373060832433 0 0.05241615815066674 -0.061636369939942565 0 0.056530397589757232 -0.073267373060832433 0 0.04972866239316396 -0.072300361224155382 0 0.056530397589757232 -0.073267373060832433 0 0.056809106290071291 -0.082503142580635069 0 0.060151547516304492 -0.082382451021144762 0 0.062929734208434618 -0.07736602050803984 0 0.056530397589757232 -0.073267373060832433 0 0.060151547516304492 -0.082382451021144762 0 0.056530397589757232 -0.073267373060832433 0 0.053933913713989638 -0.078906295158112219 0 0.04972866239316396 -0.072300361224155382 0 0.056530397589757232 -0.073267373060832433 0 0.053933913713989638 -0.078906295158112219 0 0.056809106290071291 -0.082503142580635069 0 0.053933913713989638 -0.078906295158112219 0 0.056809106290071291 -0.082503142580635069 0 0.055255283882957293 -0.087355313857650871 0 0.053933913713989638 -0.078906295158112219 0 0.05204560329749193 -0.086602472368052824 0 0.055255283882957293 -0.087355313857650871 0 0.056809106290071291 -0.082503142580635069 0 0.058617775008833285 -0.088106965826831099 0 0.055255283882957293 -0.087355313857650871 0 0.060151547516304492 -0.082382451021144762 0 0.058617775008833285 -0.088106965826831099 0 0.062119198733599362 -0.088849899120492057 0 0.056809106290071291 -0.082503142580635069 0 0.060151547516304492 -0.082382451021144762 0 0.058617775008833285 -0.088106965826831099 0 0.04972866239316396 -0.072300361224155382 0 0.050392998773959585 -0.08050971706104243 0 0.047456781854441049 -0.078968508772937027 0 0.04972866239316396 -0.072300361224155382 0 0.047456781854441049 -0.078968508772937027 0 0.044548485962441722 -0.071737251661246157 0 0.053933913713989638 -0.078906295158112219 0 0.04972866239316396 -0.072300361224155382 0 0.050392998773959585 -0.08050971706104243 0 0.053933913713989638 -0.078906295158112219 0 0.050392998773959585 -0.08050971706104243 0 0.05204560329749193 -0.086602472368052824 0 0.050392998773959585 -0.08050971706104243 0 0.049001736320470904 -0.085864212666474801 0 0.05204560329749193 -0.086602472368052824 0 0.050392998773959585 -0.08050971706104243 0 0.047456781854441049 -0.078968508772937027 0 0.049001736320470904 -0.085864212666474801 0 0.047456781854441049 -0.078968508772937027 0 0.046141755448355908 -0.085152264310241477 0 0.049001736320470904 -0.085864212666474801 0 0.044746132980391227 -0.079215314031344172 0 0.043498780909585685 -0.084497913786552331 0 0.046141755448355908 -0.085152264310241477 0 0.047456781854441049 -0.078968508772937027 0 0.044746132980391227 -0.079215314031344172 0 0.046141755448355908 -0.085152264310241477 0 0.041829346681406497 -0.075847730737525335 0 0.04113295758094402 -0.083875032553898998 0 0.043498780909585685 -0.084497913786552331 0 0.044746132980391227 -0.079215314031344172 0 0.041829346681406497 -0.075847730737525335 0 0.043498780909585685 -0.084497913786552331 0 0.041829346681406497 -0.075847730737525335 0 0.044548485962441722 -0.071737251661246157 0 0.037627328853133878 -0.061705489528518571 0 0.044746132980391227 -0.079215314031344172 0 0.041829346681406497 -0.075847730737525335 0 0.044548485962441722 -0.071737251661246157 0 0.047456781854441049 -0.078968508772937027 0 0.044746132980391227 -0.079215314031344172 0 0.044548485962441722 -0.071737251661246157 0 0.044741424186213859 -0.059298299096665008 0 0.044548485962441722 -0.071737251661246157 0 0.037627328853133878 -0.061705489528518571 0 0.02607013217388874 -0.05326506922310513 0 0.023691984068694754 -0.037511276870559801 0 0.037627328853133878 -0.061705489528518571 0 0.02607013217388874 -0.05326506922310513 0 0.037627328853133878 -0.061705489528518571 0 0.035120251330851657 -0.069409412331133152 0 0.037627328853133878 -0.061705489528518571 0 0.035120251330851657 -0.069409412331133152 0 0.03931505461686309 -0.074366073410185321 0 0.041829346681406497 -0.075847730737525335 0 0.037627328853133878 -0.061705489528518571 0 0.03931505461686309 -0.074366073410185321 0 0.041829346681406497 -0.075847730737525335 0 0.03931505461686309 -0.074366073410185321 0 0.04113295758094402 -0.083875032553898998 0 0.03931505461686309 -0.074366073410185321 0 0.039091905677096202 -0.083433328439767057 0 0.04113295758094402 -0.083875032553898998 0 0.035120251330851657 -0.069409412331133152 0 0.03931505461686309 -0.074366073410185321 0 0.039091905677096202 -0.083433328439767057 0 0.035120251330851657 -0.069409412331133152 0 0.037858285891252876 -0.083011418942889603 0 0.039091905677096202 -0.083433328439767057 0 0.039157453688000464 -0.084083305875688533 0 0.037041715882050852 -0.081341971399562313 0 0.039211034822599064 -0.084381062361273323 0 0.037858285891252876 -0.083011418942889603 0 0.039157453688000464 -0.084083305875688533 0 0.037041715882050852 -0.081341971399562313 0 0.037903421474888468 -0.08326090819222913 0 0.039119738574285974 -0.083715831894123641 0 0.039157453688000464 -0.084083305875688533 0 0.041195367941906827 -0.084647862778699137 0 0.039211034822599064 -0.084381062361273323 0 0.039119738574285974 -0.083715831894123641 0 0.041169418523696363 -0.084289455119422443 0 0.041195367941906827 -0.084647862778699137 0 0.039211034822599064 -0.084381062361273323 0 0.04176626431795246 -0.086200398461195496 0 0.039211034822599064 -0.084381062361273323 0 0.037195885333017376 -0.083295422548091053 0 0.041495813641869446 -0.089491894903677205 0 0.037041715882050852 -0.081341971399562313 0 0.037195885333017376 -0.083295422548091053 0 0.032192989665544194 -0.075488286842984878 0 0.037041715882050852 -0.081341971399562313 0 0.039211034822599064 -0.084381062361273323 0 0.037195885333017376 -0.083295422548091053 0 0.037195885333017376 -0.083295422548091053 0 0.039482810596042389 -0.091095993841407166 0 0.033322092544593937 -0.080616966187010863 0 0.037195885333017376 -0.083295422548091053 0 0.039482810596042389 -0.091095993841407166 0 0.041495813641869446 -0.089491894903677205 0 0.039482810596042389 -0.091095993841407166 0 0.045632303136836971 -0.10114494307478784 0 0.041495813641869446 -0.089491894903677205 0 0.045632303136836971 -0.10114494307478784 0 0.041495813641869446 -0.089491894903677205 0 0.047315342404091958 -0.095307106561333274 0 0.041495813641869446 -0.089491894903677205 0 0.044160417847513816 -0.088548582024289987 0 0.047315342404091958 -0.095307106561333274 0 0.044160417847513816 -0.088548582024289987 0 0.047290643281421386 -0.089606448054049589 0 0.047315342404091958 -0.095307106561333274 0 0.039211034822599064 -0.084381062361273323 0 0.041495813641869446 -0.089491894903677205 0 0.04176626431795246 -0.086200398461195496 0 0.041495813641869446 -0.089491894903677205 0 0.04176626431795246 -0.086200398461195496 0 0.044160417847513816 -0.088548582024289987 0 0.04176626431795246 -0.086200398461195496 0 0.043571902010165114 -0.085365309718560489 0 0.044160417847513816 -0.088548582024289987 0 0.041195367941906827 -0.084647862778699137 0 0.04176626431795246 -0.086200398461195496 0 0.043571902010165114 -0.085365309718560489 0 0.041169418523696363 -0.084289455119422443 0 0.043537589101497756 -0.084936284000863088 0 0.044160417847513816 -0.088548582024289987 0 0.046219008226935261 -0.086110453583305588 0 0.047290643281421386 -0.089606448054049589 0 0.043537589101497756 -0.084936284000863088 0 0.046182347102479919 -0.085638725952260769 0 0.043571902010165114 -0.085365309718560489 0 0.044160417847513816 -0.088548582024289987 0 0.046219008226935261 -0.086110453583305588 0 0.046219008226935261 -0.086110453583305588 0 0.047290643281421386 -0.089606448054049589 0 0.049083290841166104 -0.086887594454777076 0 0.046182347102479919 -0.085638725952260769 0 0.049044242099626933 -0.086379860601283637 0 0.047290643281421386 -0.089606448054049589 0 0.049083290841166104 -0.086887594454777076 0 0.050137898552226522 -0.092122800014426159 0 0.049083290841166104 -0.086887594454777076 0 0.052129641265857514 -0.087687300474519267 0 0.050137898552226522 -0.092122800014426159 0 0.049044242099626933 -0.086379860601283637 0 0.052089128180091183 -0.087146727274632546 0 0.052129641265857514 -0.087687300474519267 0 0.050137898552226522 -0.092122800014426159 0 0.053532906333959351 -0.092680219462899296 0 0.050137898552226522 -0.092122800014426159 0 0.053532906333959351 -0.092680219462899296 0 0.053914278754464938 -0.10081678253427817 0 0.050137898552226522 -0.092122800014426159 0 0.047315342404091958 -0.095307106561333274 0 0.053914278754464938 -0.10081678253427817 0 0.047290643281421386 -0.089606448054049589 0 0.050137898552226522 -0.092122800014426159 0 0.047315342404091958 -0.095307106561333274 0 0.058701328563331143 -0.089298867802611384 0 0.056539804226009023 -0.095091894372038549 0 0.060383259336778794 -0.095640133487118806 0 0.058701328563331143 -0.089298867802611384 0 0.056539804226009023 -0.095091894372038549 0 0.055339890763933017 -0.088495170589414751 0 0.058660841976556473 -0.088701008996626654 0 0.05529900382005952 -0.087924803412409686 0 0.056539804226009023 -0.095091894372038549 0 0.055339890763933017 -0.088495170589414751 0 0.053532906333959351 -0.092680219462899296 0 0.052129641265857514 -0.087687300474519267 0 0.055339890763933017 -0.088495170589414751 0 0.053532906333959351 -0.092680219462899296 0 0.052089128180091183 -0.087146727274632546 0 0.05529900382005952 -0.087924803412409686 0 0.056539804226009023 -0.095091894372038549 0 0.053532906333959351 -0.092680219462899296 0 0.053914278754464938 -0.10081678253427817 0 0.056539804226009023 -0.095091894372038549 0 0.060383259336778794 -0.095640133487118806 0 0.060921143216307531 -0.10535618258352882 0 0.056539804226009023 -0.095091894372038549 0 0.053914278754464938 -0.10081678253427817 0 0.060921143216307531 -0.10535618258352882 0 0.053914278754464938 -0.10081678253427817 0 0.059116599815202377 -0.11672847578792533 0 0.060921143216307531 -0.10535618258352882 0 0.053914278754464938 -0.10081678253427817 0 0.059116599815202377 -0.11672847578792533 0 0.052352064113577089 -0.10728068874393527 0 0.045632303136836971 -0.10114494307478784 0 0.047315342404091958 -0.095307106561333274 0 0.052352064113577089 -0.10728068874393527 0 0.047315342404091958 -0.095307106561333274 0 0.053914278754464938 -0.10081678253427817 0 0.052352064113577089 -0.10728068874393527 0 0.045632303136836971 -0.10114494307478784 0 0.052352064113577089 -0.10728068874393527 0 0.057077340734169965 -0.12373242104503782 0 0.059116599815202377 -0.11672847578792533 0 0.057077340734169965 -0.12373242104503782 0 0.069647874600397577 -0.14386900760937027 0 0.059116599815202377 -0.11672847578792533 0 0.052352064113577089 -0.10728068874393527 0 0.057077340734169965 -0.12373242104503782 0 0.057077340734169965 -0.12373242104503782 0 0.069647874600397577 -0.14386900760937027 0 0.067302044527251692 -0.1515276028749416 0 0.057077340734169965 -0.12373242104503782 0 0.045728086394726822 -0.10923968539338728 0 0.067302044527251692 -0.1515276028749416 0 0.045728086394726822 -0.10923968539338728 0 0.041702447232334815 -0.103908038591344 0 0.036886652447803973 -0.090530088921095597 0 0.039482810596042389 -0.091095993841407166 0 0.045728086394726822 -0.10923968539338728 0 0.036886652447803973 -0.090530088921095597 0 0.039482810596042389 -0.091095993841407166 0 0.033322092544593937 -0.080616966187010863 0 0.036886652447803973 -0.090530088921095597 0 0.039482810596042389 -0.091095993841407166 0 0.045632303136836971 -0.10114494307478784 0 0.045728086394726822 -0.10923968539338728 0 0.045632303136836971 -0.10114494307478784 0 0.057077340734169965 -0.12373242104503782 0 0.045728086394726822 -0.10923968539338728 0 0.098875480326476459 -0.15488357222276444 0 0.11672928526960349 -0.15747009422190819 0 0.12262207778578701 -0.1858991786238878 0 0.098875480326476459 -0.15488357222276444 0 0.098808692253498642 -0.13407422214271511 0 0.088882196602142985 -0.1273492060409068 0 0.098875480326476459 -0.15488357222276444 0 0.11672928526960349 -0.15747009422190819 0 0.098808692253498642 -0.13407422214271511 0 0.11672928526960349 -0.15747009422190819 0 0.10860632937069507 -0.12851271708297188 0 0.098808692253498642 -0.13407422214271511 0 0.10860632937069507 -0.12851271708297188 0 0.098808692253498642 -0.13407422214271511 0 0.093631642288899752 -0.11157370276285504 0 0.10860632937069507 -0.12851271708297188 0 0.093631642288899752 -0.11157370276285504 0 0.090438625077690668 -0.094370395375346194 0 0.093631642288899752 -0.11157370276285504 0 0.087775020726599817 -0.094018724913212615 0 0.090438625077690668 -0.094370395375346194 0 0.087765990570581515 -0.093517567338660429 0 0.090327355814700111 -0.093738863968402614 0 0.087765990570581515 -0.093517567338660429 0 0.084570104931250625 -0.093173520037727803 0 0.087775020726599817 -0.094018724913212615 0 0.084602768382263133 -0.093817378783833019 0 0.088841790379342991 -0.1106569637923452 0 0.093631642288899752 -0.11157370276285504 0 0.087775020726599817 -0.094018724913212615 0 0.088841790379342991 -0.1106569637923452 0 0.084602768382263133 -0.093817378783833019 0 0.088841790379342991 -0.1106569637923452 0 0.08436212760960464 -0.10577366293508961 0 0.098808692253498642 -0.13407422214271511 0 0.088841790379342991 -0.1106569637923452 0 0.088882196602142985 -0.1273492060409068 0 0.098808692253498642 -0.13407422214271511 0 0.093631642288899752 -0.11157370276285504 0 0.088841790379342991 -0.1106569637923452 0 0.088841790379342991 -0.1106569637923452 0 0.088882196602142985 -0.1273492060409068 0 0.08436212760960464 -0.10577366293508961 0 0.088882196602142985 -0.1273492060409068 0 0.079627257635025969 -0.10787541678778251 0 0.083003912787699183 -0.13053926721762477 0 0.088882196602142985 -0.1273492060409068 0 0.08436212760960464 -0.10577366293508961 0 0.079627257635025969 -0.10787541678778251 0 0.08436212760960464 -0.10577366293508961 0 0.080945622898001099 -0.093397618287993991 0 0.079627257635025969 -0.10787541678778251 0 0.084570104931250625 -0.093173520037727803 0 0.080917613781986988 -0.092721320230804941 0 0.084602768382263133 -0.093817378783833019 0 0.08436212760960464 -0.10577366293508961 0 0.080945622898001099 -0.093397618287993991 0 0.080945622898001099 -0.093397618287993991 0 0.077145576121614171 -0.092863164100979195 0 0.079627257635025969 -0.10787541678778251 0 0.080917613781986988 -0.092721320230804941 0 0.077113830226476845 -0.092183032747432697 0 0.077145576121614171 -0.092863164100979195 0 0.079627257635025969 -0.10787541678778251 0 0.075333126041707207 -0.10135987400383648 0 0.079627257635025969 -0.10787541678778251 0 0.083003912787699183 -0.13053926721762477 0 0.074955402268385873 -0.11293964327690452 0 0.098875480326476459 -0.15488357222276444 0 0.088882196602142985 -0.1273492060409068 0 0.083003912787699183 -0.13053926721762477 0 0.098875480326476459 -0.15488357222276444 0 0.083003912787699183 -0.13053926721762477 0 0.087737393206572242 -0.15423018359482402 0 0.083003912787699183 -0.13053926721762477 0 0.075694086329819082 -0.12842890108759702 0 0.087737393206572242 -0.15423018359482402 0 0.075694086329819082 -0.12842890108759702 0 0.077091238903401332 -0.14402250684017098 0 0.087737393206572242 -0.15423018359482402 0 0.075694086329819082 -0.12842890108759702 0 0.06726173677425315 -0.12343676017505287 0 0.077091238903401332 -0.14402250684017098 0 0.075694086329819082 -0.12842890108759702 0 0.074955402268385873 -0.11293964327690452 0 0.068250028400306542 -0.10970103730113509 0 0.075694086329819082 -0.12842890108759702 0 0.068250028400306542 -0.10970103730113509 0 0.06726173677425315 -0.12343676017505287 0 0.083003912787699183 -0.13053926721762477 0 0.075694086329819082 -0.12842890108759702 0 0.074955402268385873 -0.11293964327690452 0 0.079627257635025969 -0.10787541678778251 0 0.074955402268385873 -0.11293964327690452 0 0.075333126041707207 -0.10135987400383648 0 0.074955402268385873 -0.11293964327690452 0 0.075333126041707207 -0.10135987400383648 0 0.071162123985010858 -0.10125977695190837 0 0.075333126041707207 -0.10135987400383648 0 0.073320445578808444 -0.092256564468973346 0 0.071162123985010858 -0.10125977695190837 0 0.077113830226476845 -0.092183032747432697 0 0.07328670821033377 -0.091578799049671131 0 0.077145576121614171 -0.092863164100979195 0 0.075333126041707207 -0.10135987400383648 0 0.073320445578808444 -0.092256564468973346 0 0.069535884627544967 -0.09157760854981678 0 0.071162123985010858 -0.10125977695190837 0 0.06766806345845075 -0.098358845420615557 0 0.07328670821033377 -0.091578799049671131 0 0.069499015365497518 -0.090915660541276921 0 0.073320445578808444 -0.092256564468973346 0 0.069535884627544967 -0.09157760854981678 0 0.071162123985010858 -0.10125977695190837 0 0.071162123985010858 -0.10125977695190837 0 0.068250028400306542 -0.10970103730113509 0 0.06766806345845075 -0.098358845420615557 0 0.074955402268385873 -0.11293964327690452 0 0.071162123985010858 -0.10125977695190837 0 0.068250028400306542 -0.10970103730113509 0 0.068250028400306542 -0.10970103730113509 0 0.06766806345845075 -0.098358845420615557 0 0.063792401944720759 -0.098615486966262655 0 0.068250028400306542 -0.10970103730113509 0 0.063792401944720759 -0.098615486966262655 0 0.060921143216307531 -0.10535618258352882 0 0.06766806345845075 -0.098358845420615557 0 0.065820320865666457 -0.090852022563698009 0 0.063792401944720759 -0.098615486966262655 0 0.069499015365497518 -0.090915660541276921 0 0.065781817302836512 -0.090207279230170342 0 0.069535884627544967 -0.09157760854981678 0 0.06766806345845075 -0.098358845420615557 0 0.065820320865666457 -0.090852022563698009 0 0.058660841976556473 -0.088701008996626654 0 0.06216128351752704 -0.089465317691173551 0 0.058701328563331143 -0.089298867802611384 0 0.062201187490249367 -0.090088010949451749 0 0.060383259336778794 -0.095640133487118806 0 0.065820320865666457 -0.090852022563698009 0 0.062201187490249367 -0.090088010949451749 0 0.063792401944720759 -0.098615486966262655 0 0.065781817302836512 -0.090207279230170342 0 0.06216128351752704 -0.089465317691173551 0 0.062201187490249367 -0.090088010949451749 0 0.063792401944720759 -0.098615486966262655 0 0.060383259336778794 -0.095640133487118806 0 0.063792401944720759 -0.098615486966262655 0 0.060383259336778794 -0.095640133487118806 0 0.060921143216307531 -0.10535618258352882 0 0.059116599815202377 -0.11672847578792533 0 0.060921143216307531 -0.10535618258352882 0 0.06726173677425315 -0.12343676017505287 0 0.068250028400306542 -0.10970103730113509 0 0.060921143216307531 -0.10535618258352882 0 0.06726173677425315 -0.12343676017505287 0 0.069647874600397577 -0.14386900760937027 0 0.08935643798250556 -0.17271440783895073 0 0.089452672308941605 -0.18586249080194608 0 0.059116599815202377 -0.11672847578792533 0 0.06726173677425315 -0.12343676017505287 0 0.069647874600397577 -0.14386900760937027 0 0.06726173677425315 -0.12343676017505287 0 0.069647874600397577 -0.14386900760937027 0 0.077091238903401332 -0.14402250684017098 0 0.08935643798250556 -0.17271440783895073 0 0.077091238903401332 -0.14402250684017098 0 0.087737393206572242 -0.15423018359482402 0 0.069647874600397577 -0.14386900760937027 0 0.08935643798250556 -0.17271440783895073 0 0.077091238903401332 -0.14402250684017098 0 0.08935643798250556 -0.17271440783895073 0 0.10540156327112427 -0.18428076465050194 0 0.087737393206572242 -0.15423018359482402 0 0.098875480326476459 -0.15488357222276444 0 0.10540156327112427 -0.18428076465050194 0 0.087737393206572242 -0.15423018359482402 0 0.08935643798250556 -0.17271440783895073 0 0.10540156327112427 -0.18428076465050194 0 0.10991001132425671 -0.20744282422609067 0 0.10540156327112427 -0.18428076465050194 0 0.12783598314897959 -0.21496163000012708 0 0.10991001132425671 -0.20744282422609067 0 0.098875480326476459 -0.15488357222276444 0 0.10540156327112427 -0.18428076465050194 0 0.12262207778578701 -0.1858991786238878 0 0.10540156327112427 -0.18428076465050194 0 0.12783598314897959 -0.21496163000012708 0 0.12262207778578701 -0.1858991786238878 0 0.14876230173910387 -0.27896353183037115 0 0.11527057855266788 -0.22621495123074356 0 0.095471892546158857 -0.20629338253637927 0 0.12783598314897959 -0.21496163000012708 0 0.13535500296283806 -0.24438810180739184 0 0.10991001132425671 -0.20744282422609067 0 0.13535500296283806 -0.24438810180739184 0 0.10991001132425671 -0.20744282422609067 0 0.11527057855266788 -0.22621495123074356 0 0.069647874600397577 -0.14386900760937027 0 0.089452672308941605 -0.18586249080194608 0 0.067302044527251692 -0.1515276028749416 0 0.089452672308941605 -0.18586249080194608 0 0.067302044527251692 -0.1515276028749416 0 0.095471892546158857 -0.20629338253637927 0 0.10991001132425671 -0.20744282422609067 0 0.089452672308941605 -0.18586249080194608 0 0.11527057855266788 -0.22621495123074356 0 0.08935643798250556 -0.17271440783895073 0 0.10991001132425671 -0.20744282422609067 0 0.089452672308941605 -0.18586249080194608 0 0.089452672308941605 -0.18586249080194608 0 0.11527057855266788 -0.22621495123074356 0 0.095471892546158857 -0.20629338253637927 0 0.13535500296283806 -0.24438810180739184 0 0.14876230173910387 -0.27896353183037115 0 0.11527057855266788 -0.22621495123074356 0 0.05857046729847587 -0.13847893635700576 0 0.095471892546158857 -0.20629338253637927 0 0.059433478898357248 -0.13481515672560671 0 0.045728086394726822 -0.10923968539338728 0 0.05857046729847587 -0.13847893635700576 0 0.041702447232334815 -0.103908038591344 0 0.05857046729847587 -0.13847893635700576 0 0.059433478898357248 -0.13481515672560671 0 0.041702447232334815 -0.103908038591344 0 0.045728086394726822 -0.10923968539338728 0 0.05857046729847587 -0.13847893635700576 0 0.067302044527251692 -0.1515276028749416 0 0.05857046729847587 -0.13847893635700576 0 0.067302044527251692 -0.1515276028749416 0 0.095471892546158857 -0.20629338253637927 0 0.059433478898357248 -0.13481515672560671 0 0.041702447232334815 -0.103908038591344 0 0.028902145180917275 -0.076457834808359368 0 0.028902145180917275 -0.076457834808359368 0 0.034040508230594728 -0.069624615109860316 0 0.010581294462154982 -0.035318629375074385 0 0.059433478898357248 -0.13481515672560671 0 0.028902145180917275 -0.076457834808359368 0 0.034040508230594728 -0.069624615109860316 0 3.1893992951358012e-05 -8.082221228193699e-05 0 0.010581294462154982 -0.035318629375074385 0 -5.8335106267436563e-06 -3.8062855066239123e-05 0 0.034040508230594728 -0.069624615109860316 0 3.1893992951358012e-05 -8.082221228193699e-05 0 0.010581294462154982 -0.035318629375074385 0 -2.6463539573075805e-06 -3.2004829435553206e-05 0 0.0027205764443608946 -0.022205958942512528 0 -5.8335106267436563e-06 -3.8062855066239123e-05 0 0.010581294462154982 -0.035318629375074385 0 0.0027205764443608946 -0.022205958942512528 0 0.012888594093210033 -0.050375223972699376 0 0.010581294462154982 -0.035318629375074385 0 0.0027205764443608946 -0.022205958942512528 0 -5.8335106267436563e-06 -3.8062855066239123e-05 0 0.0019454307515272332 -0.027883130227437596 0 -2.6463539573075805e-06 -3.2004829435553206e-05 0 0.0027205764443608946 -0.022205958942512528 0 0.0019454307515272332 -0.027883130227437596 0 0.0027205764443608946 -0.022205958942512528 0 0.012888594093210033 -0.050375223972699376 0 0.0019454307515272332 -0.027883130227437596 0 0.010768565731993647 -0.045432617642583065 0 0.012888594093210033 -0.050375223972699376 0 0.010768565731993647 -0.045432617642583065 0 0.012888594093210033 -0.050375223972699376 0 0.020534091118223508 -0.062308407274533038 0 0.012888594093210033 -0.050375223972699376 0 0.020534091118223508 -0.062308407274533038 0 0.027399213969629944 -0.07587799043734729 0 0.025720857794458835 -0.067600962611804954 0 0.017573092175587779 -0.053235505463340417 0 0.020534091118223508 -0.062308407274533038 0 0.025720857794458835 -0.067600962611804954 0 0.020534091118223508 -0.062308407274533038 0 0.032192989665544194 -0.075488286842984878 0 0.025720857794458835 -0.067600962611804954 0 0.037858285891252876 -0.083011418942889603 0 0.032192989665544194 -0.075488286842984878 0 0.037858285891252876 -0.083011418942889603 0 0.037041715882050852 -0.081341971399562313 0 0.032192989665544194 -0.075488286842984878 0 0.020534091118223508 -0.062308407274533038 0 0.032192989665544194 -0.075488286842984878 0 0.033322092544593937 -0.080616966187010863 0 0.037195885333017376 -0.083295422548091053 0 0.032192989665544194 -0.075488286842984878 0 0.033322092544593937 -0.080616966187010863 0 0.020534091118223508 -0.062308407274533038 0 0.033322092544593937 -0.080616966187010863 0 0.027399213969629944 -0.07587799043734729 0 0.041702447232334815 -0.103908038591344 0 0.028902145180917275 -0.076457834808359368 0 0.027399213969629944 -0.07587799043734729 0 0.033322092544593937 -0.080616966187010863 0 0.027399213969629944 -0.07587799043734729 0 0.036886652447803973 -0.090530088921095597 0 0.041702447232334815 -0.103908038591344 0 0.027399213969629944 -0.07587799043734729 0 0.036886652447803973 -0.090530088921095597 0 0.028902145180917275 -0.076457834808359368 0 0.010581294462154982 -0.035318629375074385 0 0.012888594093210033 -0.050375223972699376 0 0.028902145180917275 -0.076457834808359368 0 0.012888594093210033 -0.050375223972699376 0 0.027399213969629944 -0.07587799043734729 0 
</DataArray>
</PointData>
<CellData Scalars="region_id," Vectors="" Tensors="effective_stress,">
<DataArray type="Float64" Name="region_id" format="ascii">
1 1 1 1 1 1 1 1 1 1 1 1 1 1 1 1 1 1 1 1 1 1 1 1 1 1 1 1 1 1 1 1 1 1 1 1 1 1 1 1 1 1 1 1 1 1 1 1 1 1 1 1 1 1 1 1 1 1 1 1 1 1 1 1 1 1 1 1 1 1 1 1 1 1 1 1 1 1 1 1 1 1 1 1 1 1 1 1 1 1 1 1 1 1 1 1 1 1 1 1 1 1 1 1 1 1 1 1 1 1 1 1 1 1 1 1 1 1 1 1 1 1 1 1 1 1 1 1 1 1 1 1 1 1 1 1 1 1 1 1 1 6 1 6 1 1 1 1 1 1 1 1 1 1 1 1 1 1 6 1 6 1 1 6 1 1 6 1 1 1 1 1 1 6 1 1 6 1 1 1 1 1 1 1 1 1 1 1 1 1 1 1 1 1 1 1 1 1 1 1 1 6 6 1 1 1 1 1 1 1 1 1 6 1 1 6 1 1 1 1 1 1 1 1 1 1 1 1 1 6 1 1 6 1 1 1 1 1 1 6 1 6 1 1 6 1 1 1 1 1 1 1 1 1 1 1 1 1 1 1 1 1 1 1 1 1 1 1 1 1 1 1 1 1 1 1 1 1 1 1 1 1 1 1 1 1 1 1 1 1 1 1 1 1 1 1 1 1 1 
</DataArray>
<DataArray type="Float64" Name="effective_stress" NumberOfComponents="9" format="ascii">
-0.0079413717889062173 -0.020300245755435847 0 -0.020300245755435847 -0.0057453587909101177 0 0 0 -0.0034216826449540833 -0.015894154683208574 -0.0046027566231345123 0 -0.0046027566231345123 -0.04774198233015247 0 0 0 -0.015909034253340261 -0.034302311742297767 -0.0047893065323158547 0 -0.0047893065323158547 -0.10291694199487224 0 0 0 -0.034304813434292501 -0.023038614564523607 -0.027310998455712398 0 -0.027310998455712398 -0.067346011693740021 0 0 0 -0.022596156564565907 -0.019830035410333954 -0.018647765763147875 0 -0.018647765763147875 -0.1449430929221151 0 0 0 -0.041193282083112258 -0.021134666962492707 -0.0012647033493995014 0 -0.0012647033493995014 -0.12365760265629966 0 0 0 -0.036198067404698081 -0.0064928648694952684 -0.010026969541961028 0 -0.010026969541961028 -0.11270763308848741 0 0 0 -0.029800124489495733 -0.0091233758545757881 -0.026787784560109683 0 -0.026787784560109683 -0.12561208681742825 0 0 0 -0.033683865668000995 0.0063343898666551324 -0.029214208719057715 0 -0.029214208719057715 -0.14742620447791643 0 0 0 -0.035272953652815298 0.0080057188517265176 -0.017894672951493801 0 -0.017894672951493801 -0.1495506186619715 0 0 0 -0.035386224952561163 0.020417420603406566 -0.03389602069603781 0 -0.03389602069603781 -0.32589173263950055 0 0 0 -0.076368578009023524 0.12543552465315505 -0.097115475564507947 0 -0.097115475564507947 -0.12079773508939734 0 0 0 0.0011594473909395941 0.0082923811433860961 -0.017206741739629439 0 -0.017206741739629439 -0.15295962608015179 0 0 0 -0.036166811234191354 0.0020341455739234793 -0.0081625099645707966 0 -0.0081625099645707966 -0.16570619467602893 0 0 0 -0.040918012275526355 -0.010814689939056016 -0.0038514984391850859 0 -0.0038514984391850859 -0.16106182331140392 0 0 0 -0.042969128312614985 -0.010000447297293017 -0.013578783306101017 0 -0.013578783306101017 -0.16671173704033476 0 0 0 -0.044178046084406938 -0.01934642574102205 -0.02046622553781284 0 -0.02046622553781284 -0.10078762307103935 0 0 0 -0.030033512203015346 -0.0095096640079915216 -0.0027389875304306421 0 -0.0027389875304306421 -0.10471981596967915 0 0 0 -0.028557369994417683 -0.012077696963731746 -0.00047942866746441236 0 -0.00047942866746441236 -0.078834247437168117 0 0 0 -0.022727986100224973 -0.0018455978332531375 0.0022305705626903746 0 0.0022305705626903746 -0.073228318603257597 0 0 0 -0.01876847910912767 -0.010475405841907592 -0.005912669239116583 0 -0.005912669239116583 -0.07034162494195334 0 0 0 -0.020204257695965233 0.013103364762066375 -0.018078112316590345 0 -0.018078112316590345 -0.098825956778861357 0 0 0 -0.021430648004198735 -0.0067666382650461813 -0.00052924711343154806 0 -0.00052924711343154806 0.013498295375605696 0 0 0 0.0016829142776398766 -0.0012981217398290584 0.002658607273832235 0 0.002658607273832235 -0.042541652301489652 0 0 0 -0.010959943510329688 0.0052137425199786924 -0.003169786979981673 0 -0.003169786979981673 -0.034988233613505559 0 0 0 -0.0074436227733817029 -0.013993074677454621 -0.012382350357002546 0 -0.012382350357002546 -0.044373441985351203 0 0 0 -0.014591629165701454 -0.0073981112455378788 0.0080130263994119457 0 0.0080130263994119457 -0.03974780378973846 0 0 0 -0.011786478758819085 0.0027296309978431773 0.0018555710715175205 0 0.0018555710715175205 0.0036429037983122317 0 0 0 0.0015931336990388624 -0.0028000906020425845 -0.0026381915758744946 0 -0.0026381915758744946 -0.02623212940338112 0 0 0 -0.0072580550013559113 0.012303386551633003 -0.0091848176650937419 0 -0.0091848176650937419 -0.015927610809783777 0 0 0 -0.00090605606453771081 0.011992437196225919 -0.0094209784788230333 0 -0.0094209784788230333 -0.04053289940820054 0 0 0 -0.0071351155529936483 0.0029461942228744958 0.0042759339231029023 0 0.0042759339231029023 -0.028686079241407231 0 0 0 -0.0064349712546331872 -0.0011866411877710812 0.00036313269699020552 0 0.00036313269699020552 0.0017082946054469764 0 0 0 0.00013041335441902908 0.0022404435543754639 0.0002883294387777055 0 0.0002883294387777055 -0.0012949113905806886 0 0 0 0.0002363830409486678 0.00089347926449821757 0.00070148322704625954 0 0.00070148322704625954 0.00079777526086219352 0 0 0 0.00042281363134009931 0.0016032081807326737 -0.0057841556271695516 0 -0.0057841556271695516 -0.0056892713240126458 0 0 0 -0.0010215157858200208 0.0031419667240361604 -0.0023598259547212173 0 -0.0023598259547212173 -0.0082151704365324707 0 0 0 -0.0012683009281240776 -0.0071241976228465093 -0.011400982297401996 0 -0.011400982297401996 -0.026314431692800067 0 0 0 -0.0083596573289116544 -0.0033012153179346887 -0.0034862440761053159 0 -0.0034862440761053159 -0.0098662159473950906 0 0 0 -0.0032918578163324691 -0.0016581549044730609 -0.00089685707562585024 0 -0.00089685707562585024 0.0011622854400863969 0 0 0 -0.00012396736609666947 0.0021684525935531662 -0.00074238533487039349 0 -0.00074238533487039349 -0.0040305645047705729 0 0 0 -0.00046552797780433086 -0.006804919976431123 -0.0057359435037480644 0 -0.0057359435037480644 -0.0035355397250754206 0 0 0 -0.0025851149253766637 -0.022264175333714553 -0.0083188872205248177 0 -0.0083188872205248177 0.00060811811997052434 0 0 0 -0.0054140143034359656 -0.0073238277172348876 -0.0044279190664420626 0 -0.0044279190664420626 0.001094946721311274 0 0 0 -0.0015572202489809173 -0.0067060095511762285 -0.012651501982294873 0 -0.012651501982294873 -0.0071235839091130515 0 0 0 -0.0034573983650723061 -0.019544775345582077 -0.020742724156506631 0 -0.020742724156506631 -0.010923771166519547 0 0 0 -0.0076171366280253783 -0.01628485018803294 -0.019050682312714118 0 -0.019050682312714118 -0.0074065904200941168 0 0 0 -0.0059228601520318058 -0.011611690678386993 -0.015502246273598183 0 -0.015502246273598183 -0.016235940565574314 0 0 0 -0.0069619078109902921 -0.016021139025018505 -0.02358668015903026 0 -0.02358668015903026 -0.02080626298803212 0 0 0 -0.0092068505032626979 -0.0034928869576964089 -0.018308803321781364 0 -0.018308803321781364 -0.011381063467233554 0 0 0 -0.0037184876062324596 0.0045166400804150242 -0.016831927430415089 0 -0.016831927430415089 -0.016820316281515202 0 0 0 -0.0030759190502750444 -0.0065658062345767543 -0.023232566929025887 0 -0.023232566929025887 -0.031180733558924367 0 0 0 -0.0094366349483752665 -0.00067458446355747603 -0.028795012836493716 0 -0.028795012836493716 -0.023271075101858052 0 0 0 -0.0059864148913539028 -0.010249692879372219 -0.032610038053650148 0 -0.032610038053650148 -0.02972030434692885 0 0 0 -0.0099924993065751422 -0.0046694922689397012 -0.034314579113268184 0 -0.034314579113268184 -0.026806312473997451 0 0 0 -0.0078689511857343297 -0.0037413289789739457 -0.037149159121096537 0 -0.037149159121096537 -0.030743742209029978 0 0 0 -0.0086212677970012308 -0.0066742399931467578 -0.038455082090454062 0 -0.038455082090454062 -0.029291819099872551 0 0 0 -0.0089915147732546608 -0.008731252425346725 -0.038261552279777566 0 -0.038261552279777566 -0.030008041656668372 0 0 0 -0.0096848235205038713 -0.008018943337798401 -0.037849634466858517 0 -0.037849634466858517 -0.028921772675489787 0 0 0 -0.0092351790033222692 -0.011380232393366274 -0.036519187391809149 0 -0.036519187391809149 -0.028976182320261668 0 0 0 -0.010089103678407207 -0.011377640315460735 -0.036419831447745299 0 -0.036419831447745299 -0.029678379531863808 0 0 0 -0.010264004961830886 -0.0073597475592566131 -0.036281825949832008 0 -0.036281825949832008 -0.028470424345051093 0 0 0 -0.008957542976076649 -0.010800013480125714 -0.035606586566235721 0 -0.035606586566235721 -0.029320646603995693 0 0 0 -0.01003016502103049 -0.010172178814950028 -0.035124262783608459 0 -0.035124262783608459 -0.027796350001337622 0 0 0 -0.00949213220407219 -0.013832855052906545 -0.034067187470846971 0 -0.034067187470846971 -0.026703272177821313 0 0 0 -0.01013403180768202 -0.014030170529884867 -0.035671411678257436 0 -0.035671411678257436 -0.028371909986098398 0 0 0 -0.010600520128996038 -0.013621029898165715 -0.035231894941241571 0 -0.035231894941241571 -0.028789747304017732 0 0 0 -0.010602694300545834 -0.015361164246166237 -0.034239352158773162 0 -0.034239352158773162 -0.027503600142265716 0 0 0 -0.010716191097107919 -0.016698033668132606 -0.035212291504575832 0 -0.035212291504575832 -0.027400089661651528 0 0 0 -0.011024530832446366 -0.016079642516882264 -0.034891868644695734 0 -0.034891868644695734 -0.027150891346780837 0 0 0 -0.0108076334659159 -0.01594328952496088 -0.029044578822899625 0 -0.029044578822899625 -0.018341032714806138 0 0 0 -0.0085710805599417683 -0.0085144846777468475 -0.032042140700067195 0 -0.032042140700067195 -0.024918765971050361 0 0 0 -0.0083583126621992188 -0.025720749472438409 -0.0256952819931896 0 -0.0256952819931896 -0.0084975963028315338 0 0 0 -0.0085545864438174579 -0.020443739087813162 -0.031483458463165637 0 -0.031483458463165637 -0.020770694431399006 0 0 0 -0.010303608379803042 -0.016071925220604077 -0.034123475312763885 0 -0.034123475312763885 -0.027067159749364578 0 0 0 -0.010784771242492219 -0.021772425209845764 -0.033440665915560053 0 -0.033440665915560053 -0.021269672368076559 0 0 0 -0.010760524394480581 -0.018869682889062545 -0.03375709789629866 0 -0.03375709789629866 -0.027378002612846508 0 0 0 -0.011561921375477735 -0.020327143252701019 -0.035523511761857252 0 -0.035523511761857252 -0.026694413365760283 0 0 0 -0.011755389154615381 -0.021696886100489532 -0.034332307121267114 0 -0.034332307121267114 -0.026320446756052052 0 0 0 -0.012004333214135354 -0.026773329771804688 -0.037472511705565537 0 -0.037472511705565537 -0.027041928349836208 0 0 0 -0.013453814530409947 -0.030444877352798994 -0.03745774839064131 0 -0.03745774839064131 -0.026525978750733703 0 0 0 -0.014242714025883285 -0.052602753107927391 -0.040345293334443699 0 -0.040345293334443699 -0.028755752514946664 0 0 0 -0.020339626405718292 -0.029412469146580023 -0.032107994203909612 0 -0.032107994203909612 -0.014481628526827883 0 0 0 -0.010973524418352087 -0.054804241494134764 -0.043626661196801975 0 -0.043626661196801975 -0.026773080397134663 0 0 0 -0.020394330472817357 -0.0317938631707817 -0.033295804228028469 0 -0.033295804228028469 -0.027277719988552329 0 0 0 -0.014767895789833396 -0.065852519688625433 -0.036086841301600892 0 -0.036086841301600892 -0.032383149426909896 0 0 0 -0.024558917278883763 -0.051679175215778805 -0.043889739955653151 0 -0.043889739955653151 -0.033725968776149085 0 0 0 -0.021351285997981861 -0.15552825081126231 -0.039081384697675636 0 -0.039081384697675636 -0.023638581285598592 0 0 0 -0.04479170802421506 -0.084221256788814536 -0.053536398216478376 0 -0.053536398216478376 -0.038002657113453076 0 0 0 -0.030555978475566903 -0.074304559507095691 -0.024849814260266778 0 -0.024849814260266778 0.0043313003933476146 0 0 0 -0.017493314778437075 -0.06543961980158558 -0.018361298685280136 0 -0.018361298685280136 -0.0060906417925021827 0 0 0 -0.017882565398521788 -0.042536019117240698 -0.013464090529702211 0 -0.013464090529702211 0.00019263859567353325 0 0 0 -0.010585845130391625 -0.03864063100150894 -0.03112414976480693 0 -0.03112414976480693 -0.017074430508480565 0 0 0 -0.013928765377497321 -0.028280499842845197 -0.011278378293211003 0 -0.011278378293211003 -0.0049335230578582134 0 0 0 -0.0083035057251759081 0.022020847335112281 -0.034025558663072136 0 -0.034025558663072136 -0.054920377373310458 0 0 0 -0.0082248825095494471 0.02551492088739583 -0.024368142625018685 0 -0.024368142625018685 -0.068049731942022851 0 0 0 -0.010633702763656761 -0.0029230331743196336 0.00022970522818757666 0 0.00022970522818757666 -0.071981995731818793 0 0 0 -0.018726257226534621 0.00777653537549855 -0.012157912411977237 0 -0.012157912411977237 -0.048178775735925439 0 0 0 -0.010100560090106736 -0.0026115602082866785 -0.017907486428696349 0 -0.017907486428696349 -0.040806143466739275 0 0 0 -0.010854425918756461 -0.0024216016661842699 -0.03179050838833046 0 -0.03179050838833046 -0.035718483008925217 0 0 0 -0.0095350211687773023 0.0086117785362645333 -0.027728524352989226 0 -0.027728524352989226 -0.031615548078106681 0 0 0 -0.0057509423854604919 0.013704680893622062 -0.030063077628594781 0 -0.030063077628594781 -0.048595018603598356 0 0 0 -0.0087225844274941289 0.0097475911038334417 -0.032544225177126712 0 -0.032544225177126712 -0.043522759404086786 0 0 0 -0.0084437920750633499 0.0073030137539301619 -0.040375486843479469 0 -0.040375486843479469 -0.04502454833764126 0 0 0 -0.0094303836459278569 0.02030184692107545 -0.047410975497764962 0 -0.047410975497764962 -0.041308354954653348 0 0 0 -0.0052516270083944327 0.00020489830061776182 -0.036713668925158816 0 -0.036713668925158816 -0.032459304424150459 0 0 0 -0.0080636015308831466 0.0069030998731878235 -0.040605329199638496 0 -0.040605329199638496 -0.034404059916648189 0 0 0 -0.0068752400108650358 -0.00087952936792112801 -0.039959915846020551 0 -0.039959915846020551 -0.030071103594376147 0 0 0 -0.0077376582405743743 -0.0049848895276312088 -0.038177187088873188 0 -0.038177187088873188 -0.030411484301026359 0 0 0 -0.0088490934571645585 -0.00020405490779895619 -0.043164077276215018 0 -0.043164077276215018 -0.037298150605903135 0 0 0 -0.0093755513784257172 -0.0017764678255937083 -0.042780162735427063 0 -0.042780162735427063 -0.032389920315327725 0 0 0 -0.0085415970352304971 -0.0049920699060571616 -0.043488250479446711 0 -0.043488250479446711 -0.031471649318552952 0 0 0 -0.0091159298061525007 -0.0024880178416042398 -0.045669019547081136 0 -0.045669019547081136 -0.028132390636624205 0 0 0 -0.0076551021195570002 -0.0037534252627833276 -0.04274208672108093 0 -0.04274208672108093 -0.02851105316986402 0 0 0 -0.008066119608161948 -0.0062654270638584642 -0.039708241978722469 0 -0.039708241978722469 -0.029032189804724329 0 0 0 -0.0088244042171456982 -0.0077553396237140526 -0.040513636881659654 0 -0.040513636881659654 -0.032448693315690336 0 0 0 -0.010051008234851555 0.0049968300819831502 -0.051521477234207136 0 -0.051521477234207136 -0.035212180230907997 0 0 0 -0.0075538375372312672 0.0040369029825632063 -0.054203090239828722 0 -0.054203090239828722 -0.049187994981134464 0 0 0 -0.011287772999642898 0.0054679100027320571 -0.045783970657596762 0 -0.045783970657596762 -0.032494375806491949 0 0 0 -0.0067566164509398341 -0.0044883992896536107 -0.046679548448327113 0 -0.046679548448327113 -0.035531594983456039 0 0 0 -0.010004998568277523 0.0024121011040048046 -0.050731105304055113 0 -0.050731105304055113 -0.025970184809227526 0 0 0 -0.0058895209263054582 -0.0044294973824781231 -0.054712455253473902 0 -0.054712455253473902 -0.037635801889849774 0 0 0 -0.010516324818081971 0.00058338042613659269 -0.057394647740801163 0 -0.057394647740801163 -0.025625533577349646 0 0 0 -0.0062605382878033744 0.0067135061571190757 -0.066310602006493524 0 -0.066310602006493524 -0.021493276940086403 0 0 0 -0.0036949426957419984 -0.0040514595819454158 -0.060101933590591239 0 -0.060101933590591239 -0.040104918160247194 0 0 0 -0.011039094435548291 0.022087773643611808 -0.07819685708397206 0 -0.07819685708397206 -0.015227234823023128 0 0 0 0.0017151347051471699 0.0070604756348563447 -0.068539966776137717 0 -0.068539966776137717 -0.040076555173800266 0 0 0 -0.0082540198847359525 0.029362298867740444 -0.060792171696604502 0 -0.060792171696604502 -0.049315712275163071 0 0 0 -0.0049883533518556566 0.0072660948387259783 -0.060962162083925353 0 -0.060962162083925353 -0.046187678029308121 0 0 0 -0.0097303957976455635 0.011429491031661437 -0.059318678063950192 0 -0.059318678063950192 -0.035020754357934725 0 0 0 -0.0058978158315681484 0.013974057326721578 -0.046566212747405356 0 -0.046566212747405356 -0.072391123439063065 0 0 0 -0.014604266528085386 0.013055691011347237 -0.015919991604707057 0 -0.015919991604707057 -0.10113436101763074 0 0 0 -0.022019667501570805 0.066519157667262269 -0.050051138088891611 0 -0.050051138088891611 -0.078704170438382876 0 0 0 -0.0030462531927801517 0.031617957254877038 -0.061755391387043224 0 -0.061755391387043224 -0.090530731691599087 0 0 0 -0.01472819360918054 0.038223532653800407 -0.069813892442955272 0 -0.069813892442955272 -0.051799887546775558 0 0 0 -0.00339408872324376 0.010266947356778265 -0.085498937237858952 0 -0.085498937237858952 -0.062692479767163467 0 0 0 -0.013106383102596354 0.036876095006457721 -0.099498380857011903 0 -0.099498380857011903 -0.0037271042036985946 0 0 0 0.0082872477006896705 0.045504887230091356 -0.097134903731963651 0 -0.097134903731963651 -0.066808741908510938 0 0 0 -0.0053259636696048329 0.10565202130481577 -0.13609877411490151 0 -0.13609877411490151 0.019916089348182897 0 0 0 0.031392027663249777 -0.084153893739754015 0.045779521366482001 0 0.045779521366482001 -0.13188215544475268 0 0 0 -0.054009012296126757 -0.078652665967531718 0.050435329488850211 0 0.050435329488850211 -0.065091321418684539 0 0 0 -0.035935996846554234 -0.22540816915102369 0.35423638333770668 0 0.35423638333770668 -1.724992681921492 0 0 0 -0.48760021276814314 -0.052527526980998628 0.027845399576694074 0 0.027845399576694074 -0.037983772676184302 0 0 0 -0.022627824914295509 -0.012377355204137075 -0.058050590244988598 0 -0.058050590244988598 -2.0844660154854751 0 0 0 -0.52421084267240303 -0.064350670272451449 0.023929833559454106 0 0.023929833559454106 -0.093753936689842998 0 0 0 -0.03952615174057339 -0.046562298833468518 0.0089364324500383896 0 0.0089364324500383896 -0.13603278601922542 0 0 0 -0.045648771213173456 -0.079413352075188737 0.03368533040493335 0 0.03368533040493335 -0.18896815431433911 0 0 0 -0.067095376597381851 -0.046130350117697179 0.011825372968291892 0 0.011825372968291892 -0.11393414693822623 0 0 0 -0.04001612426398083 -0.0531764230941143 0.00056183470007009628 0 0.00056183470007009628 -0.17545939019470214 0 0 0 -0.057158953322204109 -0.031788889042295598 -0.011521688192654755 0 -0.011521688192654755 -0.13374561152225373 0 0 0 -0.041383625141137248 -0.033963843594575494 -0.01431563841359107 0 -0.01431563841359107 -0.16599469281756285 0 0 0 -0.049989634103034475 -0.022258314036378568 -0.022623350888759608 0 -0.022623350888759608 -0.11407879953602507 0 0 0 -0.034084278393100909 -0.036384900592614455 -0.0082547629374936093 0 -0.0082547629374936093 -0.11812151176681573 0 0 0 -0.038626603089857436 -0.032719252179697594 -0.019284448974826285 0 -0.019284448974826285 -0.07938885660636974 0 0 0 -0.028027027196516924 -0.045308884402443628 0.00026479091887854356 0 0.00026479091887854356 -0.10085225572917889 0 0 0 -0.036540285032905739 -0.038541002174527161 -0.0017854651616874342 0 -0.0017854651616874342 -0.081142765820438889 0 0 0 -0.029920941998741624 -0.058796945233029252 0.002730387392003486 0 0.002730387392003486 -0.08943974986680514 0 0 0 -0.037059173774958598 -0.045502881328489675 0.011345428321284157 0 0.011345428321284157 -0.041187036128468524 0 0 0 -0.02167247936423955 -0.066498509505947823 -0.059740327806593996 0 -0.059740327806593996 -2.3679989131938441 0 0 0 -0.60862435567497641 -0.05149220695067136 -0.0057503614202563114 0 -0.0057503614202563114 -0.078445568041393798 0 0 0 -0.03248444374801629 -0.053077778948022569 -0.054299528808883224 0 -0.054299528808883224 -2.5652154033845136 0 0 0 -0.65457329558313404 -0.046181534128654445 -0.0044315269102945809 0 -0.0044315269102945809 -0.04241772887097417 0 0 0 -0.022149815749907154 -0.034650763789441985 -0.016559433400147761 0 -0.016559433400147761 -0.039734563535179568 0 0 0 -0.018596331831155499 -0.055099327023754086 -0.070964926612646195 0 -0.070964926612646195 -2.706214769464566 0 0 0 -0.69032852412215107 -0.04589412779874813 -0.023647290354677941 0 -0.023647290354677941 -0.07629213327648543 0 0 0 -0.030546565268808168 -0.037241822458405106 -0.028748330207773343 0 -0.028748330207773343 -0.041416612468784968 0 0 0 -0.01966460873179763 -0.049383741389760871 -0.075374720106083259 0 -0.075374720106083259 -2.7976310491418417 0 0 0 -0.7117536976328438 -0.042063052591114092 -0.029918018803635538 0 -0.029918018803635538 -0.072782689788366994 0 0 0 -0.028711435594870105 -0.023408911472723976 -0.039793662988630851 0 -0.039793662988630851 -0.072210369396810137 0 0 0 -0.02390482021738341 -0.02762543209081969 -0.029623581838360336 0 -0.029623581838360336 -0.10714000535485924 0 0 0 -0.033691359361419759 -0.029441111160844469 -0.023242897452196543 0 -0.023242897452196543 -0.071434292459437221 0 0 0 -0.025218850905070478 -0.038070203038015782 -0.054159648217383172 0 -0.054159648217383172 -0.070010702951564419 0 0 0 -0.027020226497395106 -0.033581883044783156 -0.051568315461083092 0 -0.051568315461083092 -0.040341379946858602 0 0 0 -0.018480815747910384 -0.046676981693508424 -0.091417522252527306 0 -0.091417522252527306 -2.8305979126580212 0 0 0 -0.71931872358786109 -0.039787040964491371 -0.04798576586577552 0 -0.04798576586577552 -0.072847426313281005 0 0 0 -0.028158616819442983 -0.02661217525082149 -0.039801149809381764 0 -0.039801149809381764 -0.038169481250483361 0 0 0 -0.016195414125326213 -0.046314451329067197 -0.08393880610361748 0 -0.08393880610361748 -2.8372609434481149 0 0 0 -0.72089384869431683 -0.020781848662755426 -0.045054587882936259 0 -0.045054587882936259 -0.067758589271672831 0 0 0 -0.022135109483607168 -0.022045509903431154 -0.063569304519666803 0 -0.063569304519666803 -0.068454875856799657 0 0 0 -0.02262509644005764 -0.02333598101741674 -0.050826253894647344 0 -0.050826253894647344 -0.10481237934000021 0 0 0 -0.032037090089354292 -0.003020019622156922 -0.055797891890329243 0 -0.055797891890329243 -0.09898293925951962 0 0 0 -0.02550073972041933 -0.01840002909564209 -0.045753944040517969 0 -0.045753944040517969 -0.15022673487002081 0 0 0 -0.042156690991415835 -0.02577782956550545 -0.0218221926175034 0 -0.0218221926175034 -0.15148668386747755 0 0 0 -0.044316128358245721 -0.0041555484117239694 -0.037555744395253887 0 -0.037555744395253887 -0.09923168569519189 0 0 0 -0.025846808526728965 -0.0019032791943588423 -0.040500477270313695 0 -0.040500477270313695 -0.1539371480504832 0 0 0 -0.038960106811210538 0.0027846523477043084 -0.050489185454312469 0 -0.050489185454312469 -0.20169215458277301 0 0 0 -0.049726875558767314 0.0030900439237730171 -0.044080963787127114 0 -0.044080963787127114 -0.1440429706802176 0 0 0 -0.035238231689111194 0.0060689125693594997 -0.031519219926711917 0 -0.031519219926711917 -0.21009045841592372 0 0 0 -0.051005386461641086 0.0099598140317470329 -0.035657999492556214 0 -0.035657999492556214 -0.20211862223943394 0 0 0 -0.04803970205192179 -0.017107995760633266 -0.014353087197156722 0 -0.014353087197156722 -0.19927097484621303 0 0 0 -0.054094742651711547 -0.030704098362178245 -0.018762001648878007 0 -0.018762001648878007 -0.19871099260822911 0 0 0 -0.057353772742601783 -0.022211431325256853 -0.0095585147483849831 0 -0.0095585147483849831 -0.16215577597241476 0 0 0 -0.046091801824417883 -0.015266481531589726 -0.026531723584375499 0 -0.026531723584375499 -0.15933291491951487 0 0 0 -0.043649849112776147 -0.015840950661085595 -0.020026252365708097 0 -0.020026252365708097 -0.19813922175108523 0 0 0 -0.053495043103042705 0.010263251127700879 -0.02924254659282477 0 -0.02924254659282477 -0.27483495400556124 0 0 0 -0.066142925719465118 0.072915328926648648 -0.10437233031077742 0 -0.10437233031077742 -0.21615375781326396 0 0 0 -0.035809607221653827 0.12517858553470773 -0.05923606942013171 0 -0.05923606942013171 -0.29895819258379097 0 0 0 -0.043444901762270671 0.10732142356090768 -0.071735843857473239 0 -0.071735843857473239 -0.25639254679058254 0 0 0 -0.037267780807418882 0.21373658915205218 -0.10050864724157038 0 -0.10050864724157038 -0.34701612342878141 0 0 0 -0.03331988356918214 0.55772085156480111 -0.24534543169414125 0 -0.24534543169414125 -0.10264614898165991 0 0 0 0.11376867564578563 0.27362904620500705 -0.28239957205091271 0 -0.28239957205091271 0.078455766641624347 0 0 0 0.088021203211658072 0.43224378646164041 -0.63845484432260946 0 -0.63845484432260946 -0.65848784837811536 0 0 0 -0.056561015479132948 -0.016939434543928655 -0.12692696910573886 0 -0.12692696910573886 -1.2533913562298835 0 0 0 -0.31758269769346725 0.1267188718945802 -0.21902761731771081 0 -0.21902761731771081 0.034937471006026399 0 0 0 0.040414085725152038 0.15575341226010164 -0.20720533189698342 0 -0.20720533189698342 -0.1076303364611908 0 0 0 0.012030768949727877 0.063759209894869828 -0.18271682931190403 0 -0.18271682931190403 -0.074227595388473233 0 0 0 -0.0026170963734006847 0.13568880552197249 -0.1635875236818396 0 -0.1635875236818396 -0.20735404206934938 0 0 0 -0.017916309136844388 0.20785184792618039 -0.20531846373610085 0 -0.20531846373610085 -0.090556697237144768 0 0 0 0.029323787672258961 0.085656845312326091 -0.17925247294214097 0 -0.17925247294214097 -0.068779268361248036 0 0 0 0.0042193942377697358 0.022706965430334236 -0.12156060360944521 0 -0.12156060360944521 -0.16841101914198253 0 0 0 -0.036426013427911963 0.078383227257069699 -0.16757248053369428 0 -0.16757248053369428 -0.074065132795982258 0 0 0 0.0010795236152716381 0.013129629223685768 -0.14292379154480905 0 -0.14292379154480905 -0.07320578647155962 0 0 0 -0.015019039311968463 0.026891500947044733 -0.17275938674731606 0 -0.17275938674731606 -1.6310141327916767 0 0 0 -0.40103065796114379 0.072004980990980405 -0.17625514284906341 0 -0.17625514284906341 0.0087783463478992019 0 0 0 0.020195831834719735 0.015023564128480313 -0.14599388858391071 0 -0.14599388858391071 -0.014375017139576214 0 0 0 0.00016213674722591396 -0.027464743623795584 -0.15615602726273892 0 -0.15615602726273892 -1.9613441875719673 0 0 0 -0.4972022327990544 -0.0093310831969222185 -0.1326701541978198 0 -0.1326701541978198 -0.069115936790757004 0 0 0 -0.019611754996919917 0.045757338614196952 -0.13579281145109778 0 -0.13579281145109778 -0.099668691464958492 0 0 0 -0.013477838212690108 0.1039015190657786 -0.12767245684293044 0 -0.12767245684293044 -0.17018884650350818 0 0 0 -0.016571831859432562 0.036337107710148531 -0.072701761254210018 0 -0.072701761254210018 -0.25874024906280946 0 0 0 -0.055600785338165148 0.05748915192687154 -0.097570179297194137 0 -0.097570179297194137 -0.16277787459124282 0 0 0 -0.02632218066609282 0.022295057048067779 -0.073430046328740339 0 -0.073430046328740339 -0.22839192141959508 0 0 0 -0.051524216092881936 0.037120815801364171 -0.078013745153157288 0 -0.078013745153157288 -0.14465626412633092 0 0 0 -0.026883862081241605 0.029193205112407417 -0.10214858905431912 0 -0.10214858905431912 -0.096046279935544376 0 0 0 -0.016713268705784157 -0.0011377248369550674 -0.079581349607657614 0 -0.079581349607657614 -0.15706925806829908 0 0 0 -0.039551745726313592 0.010297927975917609 -0.099488567367235881 0 -0.099488567367235881 -0.17616596157357134 0 0 0 -0.041467008399413585 -0.0008572448775824304 -0.11852140876213468 0 -0.11852140876213468 -0.080282658448842081 0 0 0 -0.020284975831606045 0.006318231835352961 -0.11531802111366596 0 -0.11531802111366596 -0.062256464130016731 0 0 0 -0.013984558073666165 -0.023781394247027743 -0.11065946608821675 0 -0.11065946608821675 -0.070152767995216525 0 0 0 -0.023483540560561122 -0.035264329824599372 -0.14485095337488474 0 -0.14485095337488474 -2.2031089871570089 0 0 0 -0.55959332924533101 -0.0022174301559092502 -0.12472302035635052 0 -0.12472302035635052 -0.022738490039382331 0 0 0 -0.0062389800488229508 -0.027526478634600116 -0.098595861776696436 0 -0.098595861776696436 -0.069298318828090899 0 0 0 -0.024206199365673031 -0.042929795547934191 -0.13816857449131703 0 -0.13816857449131703 -2.4192922556256349 0 0 0 -0.61555551279337806 -0.016494361155151349 -0.10492389505985367 0 -0.10492389505985367 -0.030121588386461617 0 0 0 -0.011653987385403353 -0.0088901280850366415 -0.092708070308294088 0 -0.092708070308294088 -0.065362745533851463 0 0 0 -0.018563218404721971 -0.0072031829524896729 -0.10150531755463565 0 -0.10150531755463565 -0.10781058389474163 0 0 0 -0.028753441711807826 -0.01028613684734947 -0.086986535517587144 0 -0.086986535517587144 -0.067230350955692408 0 0 0 -0.019379121950760192 -0.016956402504916035 -0.073632227099513892 0 -0.073632227099513892 -0.10450878128095331 0 0 0 -0.030366295946467226 -0.03248384550020722 -0.077570182009896516 0 -0.077570182009896516 -0.068953371223074544 0 0 0 -0.025359304180820441 -0.042495302823226666 -0.12043329262235147 0 -0.12043329262235147 -2.5832279892211432 0 0 0 -0.65643082301113509 -0.014044546866984531 -0.089368685244502699 0 -0.089368685244502699 -0.030996100718902575 0 0 0 -0.01126016189647161 -0.04620595769654301 -0.099427113760100383 0 -0.099427113760100383 -2.7872948514553855 0 0 0 -0.70837520228798212 -0.023615140750688688 -0.063932829893352583 0 -0.063932829893352583 -0.036491305042307721 0 0 0 -0.015026611448248992 -0.027648815539678129 -0.075881518828861294 0 -0.075881518828861294 -0.036924426389890463 0 0 0 -0.016143310482392481 -0.044534138247627197 -0.10900094394514781 0 -0.10900094394514781 -2.7056918941773915 0 0 0 -0.68755650810629731 -0.035037821766707555 -0.0710632940273217 0 -0.0710632940273217 -0.068896116455116285 0 0 0 -0.025983484555455627 -0.019982241925513927 -0.067311793513573193 0 -0.067311793513573193 -0.065861988698774576 0 0 0 -0.021461057656072452 -0.013255382430977902 -0.059705965535826522 0 -0.059705965535826522 -0.16159045148949147 0 0 0 -0.043711458480117371 0.011016236744939928 -0.076742802677372213 0 -0.076742802677372213 -0.095611428811717275 0 0 0 -0.02114879801669442 0.01524488099925897 -0.024332909541105452 0 -0.024332909541105452 -0.25247533014261037 0 0 0 -0.059307612285837863 0.01722115129382909 -0.058830548474836042 0 -0.058830548474836042 -0.15161591685618575 0 0 0 -0.033598691390588992 0.0045578954908431779 -0.053209734549513832 0 -0.053209734549513832 -0.21021530071574013 0 0 0 -0.051414351306224404 0.029446824896551038 -0.054387484408537912 0 -0.054387484408537912 -0.21977609072324089 0 0 0 -0.047582316456672324 0.03257227120674383 -0.057042693397620359 0 -0.057042693397620359 -0.22108128861917242 0 0 0 -0.047127254353107106 0.031409314487774231 -0.040373332133773032 0 -0.040373332133773032 -0.28758551226977236 0 0 0 -0.064044049445499407 0.047700416154941472 -0.057842545437057802 0 -0.057842545437057802 -0.23379549332584082 0 0 0 -0.046523769292724948 0.014575126970170105 -0.015549770155980691 0 -0.015549770155980691 -0.26626130727373976 0 0 0 -0.06292154507589226 0.010350091476381662 -0.0031920754104749482 0 -0.0031920754104749482 -0.30489570337079286 0 0 0 -0.073636402973602855 0.039918280411761264 -0.019419287643402727 0 -0.019419287643402727 -0.30533447046672402 0 0 0 -0.066354047513740744 -0.028033553433726821 -0.01213841422211448 0 -0.01213841422211448 -0.28107789783623982 0 0 0 -0.077277862817491716 0.0040251861050409343 0.003331818449013868 0 0.003331818449013868 -0.30871757495186658 0 0 0 -0.076173097211706342 -0.027415272671653224 0.0012034404154148319 0 0.0012034404154148319 -0.28916449920489606 0 0 0 -0.079144942969137322 0.0016476351209647189 0.0045570863853695576 0 0.0045570863853695576 -0.30120771779713773 0 0 0 -0.074890020669043211 0.019001046589096404 -0.029483302413988666 0 -0.029483302413988666 -0.25625219936980193 0 0 0 -0.059312788195176269 0.0018817772086912044 -0.0059293426472714628 0 -0.0059293426472714628 -0.2764994741192589 0 0 0 -0.068654424227641897 0.0052439998515356745 0.0004184396123558809 0 0.0004184396123558809 -0.28113764264919705 0 0 0 -0.068973410699415427 0.022930316541689533 -0.01636437566609783 0 -0.01636437566609783 -0.28852697792786763 0 0 0 -0.066399165346544442 0.0053283628430063068 0.0053928808946269169 0 0.0053928808946269169 -0.30413428567581113 0 0 0 -0.074701480708201151 -0.010973731789856056 0.0048687028919015152 0 0.0048687028919015152 -0.30168164584104185 0 0 0 -0.078163844407724392 0.0028109467676093458 -0.0058907211288240779 0 -0.0058907211288240779 -0.30403678120263578 0 0 0 -0.075306458608756621 -0.003516066549094754 -0.020517535113977622 0 -0.020517535113977622 -0.23410970120914865 0 0 0 -0.05940644193956085 -0.0053071382859172789 -0.0079640511617828924 0 -0.0079640511617828924 -0.25728944773444362 0 0 0 -0.065649146505090239 -0.011596020397636742 -0.013061202114204792 0 -0.013061202114204792 -0.25133341633426398 0 0 0 -0.065732359182975153 0.013614951450341944 -0.018446376297387157 0 -0.018446376297387157 -0.26338791859142741 0 0 0 -0.062443241785271414 -0.00029454537989631602 -0.0084616295564328321 0 -0.0084616295564328321 -0.242350232781811 0 0 0 -0.060661194540426816 0.0050578770424864888 0.0052765560286993501 0 0.0052765560286993501 -0.23987290899562197 0 0 0 -0.058703757988283867 -0.0074203335341317816 -0.0013065114220636997 0 -0.0013065114220636997 -0.28061975540602857 0 0 0 -0.072010022235040105 -0.080370343494097884 0.024092572292163598 0 0.024092572292163598 -0.2415939425280921 0 0 0 -0.08049107150554749 -0.031908806830476547 0.027545568043906489 0 0.027545568043906489 -0.30735645197385902 0 0 0 -0.084816314701083889 -0.062090389574495655 0.0076193796062229346 0 0.0076193796062229346 -0.18623037311811833 0 0 0 -0.062080190673153492 -0.032626336403602976 0.0095669346677703763 0 0.0095669346677703763 -0.20345232199420879 0 0 0 -0.059019664599452931 -0.033028969564758627 0.0041029272706472244 0 0.0041029272706472244 -0.21383918617598122 0 0 0 -0.061717038935184959 -0.038212774429640425 -0.0080361039472027079 0 -0.0080361039472027079 -0.15097145562508998 0 0 0 -0.047296057513682599 -0.019595623788558503 0.0030020466999646639 0 0.0030020466999646639 -0.19975257500935462 0 0 0 -0.05483704969947828 -0.016394346125658849 -0.001256059179191138 0 -0.001256059179191138 -0.16747117003492781 0 0 0 -0.045966379040146679 -0.01957830869916527 0.0098004262334696474 0 0.0098004262334696474 -0.20861251174127415 0 0 0 -0.057047705110109814 -0.024395585395091957 0.0088177193364055717 0 0.0088177193364055717 -0.20974129580077039 0 0 0 -0.058534220298965572 -0.015114398135687379 0.0036749953592300211 0 0.0036749953592300211 -0.24649225299450739 0 0 0 -0.065401662782548664 0.014555558038422178 0.026234894811895615 0 0.026234894811895615 -0.19148638827479503 0 0 0 -0.044232707559093254 -0.089818482036829059 0.087034979334072338 0 0.087034979334072338 -0.36560130121766238 0 0 0 -0.11385494581362286 -0.13204987736056695 0.081695983802490046 0 0.081695983802490046 -0.15125782248148933 0 0 0 -0.070826924960514015 -0.061752924969150635 0.033365819230469218 0 0.033365819230469218 -0.21436876512677555 0 0 0 -0.069030422523981561 -0.037968429588955022 0.010100544322699911 0 0.010100544322699911 -0.15333811698397859 0 0 0 -0.047826636643233333 -0.02011513951088767 0.017117316335515276 0 0.017117316335515276 -0.18589907316294574 0 0 0 -0.05150355316845831 -0.022161348671759194 0.0028461030564267131 0 0.0028461030564267131 -0.24328425777814425 0 0 0 -0.066361401612475807 -0.045718097705993277 0.0053901825909681289 0 0.0053901825909681289 -0.20719143549642749 0 0 0 -0.063227383300605122 -0.01515445634100071 -0.0035870817878830841 0 -0.0035870817878830841 -0.19669772472289981 0 0 0 -0.052963045265975062 -0.022300838629074504 0.01046924624386629 0 0.01046924624386629 -0.24937849599807016 0 0 0 -0.067919833656786138 -0.0096311814675845153 0.0082564770105132412 0 0.0082564770105132412 -0.2064682748597374 0 0 0 -0.054024864081830493 
</DataArray>
</CellData>
</Piece>
</UnstructuredGrid>
</VTKFile>
