<?xml version="1.0"?>
<VTKFile type="UnstructuredGrid" version="0.1" byte_order="LittleEndian">
<UnstructuredGrid>
<Piece NumberOfPoints="880" NumberOfCells="299">
<Points>
<DataArray type="Float64" NumberOfComponents="3" format="ascii">
0 0.25000000000104189 0 -0 0 0 0.18653882694645291 0.22249173546702489 0 -0 0 0 0.24999999999941089 0 0 0.18653882694645291 0.22249173546702489 0 0.24999999999941089 0 0 0.49999999999869182 0 0 0.35015135319464608 0.1900339269648805 0 0.24999999999941089 0 0 0.35015135319464608 0.1900339269648805 0 0.18653882694645291 0.22249173546702489 0 0.35015135319464608 0.1900339269648805 0 0.49999999999869182 0 0 0.49924741621175961 0.21507969613896921 0 0.40587285776242238 0.32419148732968017 0 0.35015135319464608 0.1900339269648805 0 0.49924741621175961 0.21507969613896921 0 0.45418244162583959 0.41624787166862259 0 0.41576443813007791 0.48093483781626972 0 0.37764981543668408 0.41341486499350411 0 0.40587285776242238 0.32419148732968017 0 0.45418244162583959 0.41624787166862259 0 0.37764981543668408 0.41341486499350411 0 0.45418244162583959 0.41624787166862259 0 0.46566719828045178 0.47702825415921918 0 0.41576443813007791 0.48093483781626972 0 0.46566719828045178 0.47702825415921918 0 0.4638583922372429 0.51470588235294135 0 0.41576443813007791 0.48093483781626972 0 0.49954900152271581 0.45107191084564019 0 0.5 0.5 0 0.46566719828045178 0.47702825415921918 0 0.46566719828045178 0.47702825415921918 0 0.5 0.5 0 0.4638583922372429 0.51470588235294135 0 0.49954900152271581 0.45107191084564019 0 0.46566719828045178 0.47702825415921918 0 0.45418244162583959 0.41624787166862259 0 0.45418244162583959 0.41624787166862259 0 0.49435464945626773 0.33318442629318029 0 0.54876010062294855 0.39662628167175101 0 0.49435464945626773 0.33318442629318029 0 0.45418244162583959 0.41624787166862259 0 0.40587285776242238 0.32419148732968017 0 0.49435464945626773 0.33318442629318029 0 0.40587285776242238 0.32419148732968017 0 0.49924741621175961 0.21507969613896921 0 0.35015135319464608 0.1900339269648805 0 0.40587285776242238 0.32419148732968017 0 0.29145599617909779 0.35026601625021492 0 0.40587285776242238 0.32419148732968017 0 0.37764981543668408 0.41341486499350411 0 0.29145599617909779 0.35026601625021492 0 0.18653882694645291 0.22249173546702489 0 0.35015135319464608 0.1900339269648805 0 0.29145599617909779 0.35026601625021492 0 0.32540781287085369 0.49175159894608172 0 0.17872124008781709 0.39692711089439497 0 0.29145599617909779 0.35026601625021492 0 0.37764981543668408 0.41341486499350411 0 0.32540781287085369 0.49175159894608172 0 0.29145599617909779 0.35026601625021492 0 0.41576443813007791 0.48093483781626972 0 0.32540781287085369 0.49175159894608172 0 0.37764981543668408 0.41341486499350411 0 0 0.50000000000206157 0 0 0.25000000000104189 0 0.17872124008781709 0.39692711089439497 0 0 0.50000000000206157 0 0.17872124008781709 0.39692711089439497 0 0.22453074737734591 0.51613635929252633 0 0.17872124008781709 0.39692711089439497 0 0.32540781287085369 0.49175159894608172 0 0.22453074737734591 0.51613635929252633 0 0.17872124008781709 0.39692711089439497 0 0.18653882694645291 0.22249173546702489 0 0.29145599617909779 0.35026601625021492 0 0.17872124008781709 0.39692711089439497 0 0 0.25000000000104189 0 0.18653882694645291 0.22249173546702489 0 0 0.75000000000034772 0 0 0.50000000000206157 0 0.18442368612951149 0.62734948407416979 0 0 0.75000000000034772 0 0.18442368612951149 0.62734948407416979 0 0.22727208279115291 0.72949159435386135 0 0.18442368612951149 0.62734948407416979 0 0.31346558946927339 0.67110784456164874 0 0.22727208279115291 0.72949159435386135 0 0.31771010312359771 0.58585679504088894 0 0.18442368612951149 0.62734948407416979 0 0.22453074737734591 0.51613635929252633 0 0.18442368612951149 0.62734948407416979 0 0 0.50000000000206157 0 0.22453074737734591 0.51613635929252633 0 0 1 0 0 0.75000000000034772 0 0.096516139048187316 0.89789944498939644 0 0.1596341872805197 1 0 0 1 0 0.096516139048187316 0.89789944498939644 0 0 0.75000000000034772 0 0.1644705180525495 0.8200994301041713 0 0.096516139048187316 0.89789944498939644 0 0.2386314078659193 0.92924778694987087 0 0.1644705180525495 0.8200994301041713 0 0.27155609766735261 0.80398965554903801 0 0.1644705180525495 0.8200994301041713 0 0 0.75000000000034772 0 0.22727208279115291 0.72949159435386135 0 0.1644705180525495 0.8200994301041713 0 0.22727208279115291 0.72949159435386135 0 0.27155609766735261 0.80398965554903801 0 0.1644705180525495 0.8200994301041713 0 0.2386314078659193 0.92924778694987087 0 0.096516139048187316 0.89789944498939644 0 0.2386314078659193 0.92924778694987087 0 0.1596341872805197 1 0 0.096516139048187316 0.89789944498939644 0 0.27591592301363282 1 0 0.1596341872805197 1 0 0.2386314078659193 0.92924778694987087 0 0.36061858902161292 1 0 0.27591592301363282 1 0 0.32789203369730929 0.94219211037003092 0 0.36061858902161292 1 0 0.32789203369730929 0.94219211037003092 0 0.39382242252278338 0.95440420122950598 0 0.32789203369730929 0.94219211037003092 0 0.27591592301363282 1 0 0.2386314078659193 0.92924778694987087 0 0.31834856208730472 0.88134829947972904 0 0.32789203369730929 0.94219211037003092 0 0.2386314078659193 0.92924778694987087 0 0.39382242252278338 0.95440420122950598 0 0.32789203369730929 0.94219211037003092 0 0.37746652222901839 0.8987532801416368 0 0.37746652222901839 0.8987532801416368 0 0.32789203369730929 0.94219211037003092 0 0.31834856208730472 0.88134829947972904 0 0.31834856208730472 0.88134829947972904 0 0.2386314078659193 0.92924778694987087 0 0.27155609766735261 0.80398965554903801 0 0.37746652222901839 0.8987532801416368 0 0.31834856208730472 0.88134829947972904 0 0.36493375430404612 0.82333914183704071 0 0.36493375430404612 0.82333914183704071 0 0.31834856208730472 0.88134829947972904 0 0.27155609766735261 0.80398965554903801 0 0.22727208279115291 0.72949159435386135 0 0.32984265945580837 0.74432890077789404 0 0.27155609766735261 0.80398965554903801 0 0.32984265945580837 0.74432890077789404 0 0.36493375430404612 0.82333914183704071 0 0.27155609766735261 0.80398965554903801 0 0.36493375430404612 0.82333914183704071 0 0.32984265945580837 0.74432890077789404 0 0.39746869305290999 0.7595658224757349 0 0.42893012659725649 0.81084715169569632 0 0.36493375430404612 0.82333914183704071 0 0.39746869305290999 0.7595658224757349 0 0.44651949253391748 0.77225997208621999 0 0.42893012659725649 0.81084715169569632 0 0.39746869305290999 0.7595658224757349 0 0.44651949253391748 0.77225997208621999 0 0.39746869305290999 0.7595658224757349 0 0.43412357948152142 0.72128778687215156 0 0.44651949253391748 0.77225997208621999 0 0.47220206448452873 0.74892462649306213 0 0.47786860714145291 0.77730227330627721 0 0.47220206448452873 0.74892462649306213 0 0.5 0.76470588235294124 0 0.47786860714145291 0.77730227330627721 0 0.5 0.76470588235294124 0 0.5 0.79411764705882359 0 0.47786860714145291 0.77730227330627721 0 0.5 0.79411764705882359 0 0.5 0.82352941176470584 0 0.47062147868881782 0.80650323854033878 0 0.5 0.79411764705882359 0 0.47062147868881782 0.80650323854033878 0 0.47786860714145291 0.77730227330627721 0 0.47062147868881782 0.80650323854033878 0 0.44651949253391748 0.77225997208621999 0 0.47786860714145291 0.77730227330627721 0 0.47062147868881782 0.80650323854033878 0 0.42893012659725649 0.81084715169569632 0 0.44651949253391748 0.77225997208621999 0 0.46181179062043481 0.83858979842637782 0 0.42893012659725649 0.81084715169569632 0 0.47062147868881782 0.80650323854033878 0 0.42880856207355889 0.86677159981903118 0 0.42893012659725649 0.81084715169569632 0 0.46181179062043481 0.83858979842637782 0 0.5 0.82352941176470584 0 0.5 0.85294117647058831 0 0.46181179062043481 0.83858979842637782 0 0.5 0.82352941176470584 0 0.46181179062043481 0.83858979842637782 0 0.47062147868881782 0.80650323854033878 0 0.46181179062043481 0.83858979842637782 0 0.5 0.85294117647058831 0 0.47032448519202857 0.86718057681700655 0 0.5 0.85294117647058831 0 0.5 0.88235294117647056 0 0.47032448519202857 0.86718057681700655 0 0.42880856207355889 0.86677159981903118 0 0.46181179062043481 0.83858979842637782 0 0.47032448519202857 0.86718057681700655 0 0.42880856207355889 0.86677159981903118 0 0.37746652222901839 0.8987532801416368 0 0.36493375430404612 0.82333914183704071 0 0.42880856207355889 0.86677159981903118 0 0.36493375430404612 0.82333914183704071 0 0.42893012659725649 0.81084715169569632 0 0.39382242252278338 0.95440420122950598 0 0.37746652222901839 0.8987532801416368 0 0.42822627495986648 0.92083108049218854 0 0.42822627495986648 0.92083108049218854 0 0.37746652222901839 0.8987532801416368 0 0.42880856207355889 0.86677159981903118 0 0.46100207326614928 0.89524736819256467 0 0.42880856207355889 0.86677159981903118 0 0.47032448519202857 0.86718057681700655 0 0.42822627495986648 0.92083108049218854 0 0.42880856207355889 0.86677159981903118 0 0.46100207326614928 0.89524736819256467 0 0.5 0.88235294117647056 0 0.46100207326614928 0.89524736819256467 0 0.47032448519202857 0.86718057681700655 0 0.5 0.88235294117647056 0 0.5 0.91176470588235292 0 0.46100207326614928 0.89524736819256467 0 0.46100207326614928 0.89524736819256467 0 0.5 0.91176470588235292 0 0.46949408183482899 0.92833826413560594 0 0.5 0.91176470588235292 0 0.5 0.94117647058823528 0 0.46949408183482899 0.92833826413560594 0 0.42822627495986648 0.92083108049218854 0 0.46100207326614928 0.89524736819256467 0 0.46949408183482899 0.92833826413560594 0 0.44768478605684647 0.9646709673379662 0 0.46949408183482899 0.92833826413560594 0 0.47596308696979028 0.95620709615192379 0 0.44768478605684647 0.9646709673379662 0 0.42822627495986648 0.92083108049218854 0 0.46949408183482899 0.92833826413560594 0 0.44768478605684647 0.9646709673379662 0 0.47596308696979028 0.95620709615192379 0 0.47818194888216242 0.97829325975680159 0 0.46949408183482899 0.92833826413560594 0 0.5 0.94117647058823528 0 0.47596308696979028 0.95620709615192379 0 0.47596308696979028 0.95620709615192379 0 0.5 0.97058823529411764 0 0.47818194888216242 0.97829325975680159 0 0.5 0.94117647058823528 0 0.5 0.97058823529411764 0 0.47596308696979028 0.95620709615192379 0 0.5 1 0 0.46726187138417491 1 0 0.47818194888216242 0.97829325975680159 0 0.5 0.97058823529411764 0 0.5 1 0 0.47818194888216242 0.97829325975680159 0 0.46726187138417491 1 0 0.44768478605684647 0.9646709673379662 0 0.47818194888216242 0.97829325975680159 0 0.46726187138417491 1 0 0.42231823435723009 1 0 0.44768478605684647 0.9646709673379662 0 0.44768478605684647 0.9646709673379662 0 0.42231823435723009 1 0 0.39382242252278338 0.95440420122950598 0 0.44768478605684647 0.9646709673379662 0 0.39382242252278338 0.95440420122950598 0 0.42822627495986648 0.92083108049218854 0 0.42231823435723009 1 0 0.36061858902161292 1 0 0.39382242252278338 0.95440420122950598 0 0.31771010312359771 0.58585679504088894 0 0.41980724897053312 0.55867199730355355 0 0.3872154068451229 0.6301386882447304 0 0.32540781287085369 0.49175159894608172 0 0.41980724897053312 0.55867199730355355 0 0.31771010312359771 0.58585679504088894 0 0.32540781287085369 0.49175159894608172 0 0.31771010312359771 0.58585679504088894 0 0.22453074737734591 0.51613635929252633 0 0.18442368612951149 0.62734948407416979 0 0.31771010312359771 0.58585679504088894 0 0.31346558946927339 0.67110784456164874 0 0.31346558946927339 0.67110784456164874 0 0.32984265945580837 0.74432890077789404 0 0.22727208279115291 0.72949159435386135 0 0.39746869305290999 0.7595658224757349 0 0.32984265945580837 0.74432890077789404 0 0.38513711431054509 0.69312683393047636 0 0.38513711431054509 0.69312683393047636 0 0.32984265945580837 0.74432890077789404 0 0.31346558946927339 0.67110784456164874 0 0.31771010312359771 0.58585679504088894 0 0.3872154068451229 0.6301386882447304 0 0.31346558946927339 0.67110784456164874 0 0.3872154068451229 0.6301386882447304 0 0.38513711431054509 0.69312683393047636 0 0.31346558946927339 0.67110784456164874 0 0.4390556798454946 0.66199025953586599 0 0.38513711431054509 0.69312683393047636 0 0.3872154068451229 0.6301386882447304 0 0.4390556798454946 0.66199025953586599 0 0.3872154068451229 0.6301386882447304 0 0.44702869549010399 0.61002701911053991 0 0.39746869305290999 0.7595658224757349 0 0.38513711431054509 0.69312683393047636 0 0.43412357948152142 0.72128778687215156 0 0.43412357948152142 0.72128778687215156 0 0.38513711431054509 0.69312683393047636 0 0.4390556798454946 0.66199025953586599 0 0.43412357948152142 0.72128778687215156 0 0.47636314644728822 0.72058823529411908 0 0.47220206448452873 0.74892462649306213 0 0.44651949253391748 0.77225997208621999 0 0.43412357948152142 0.72128778687215156 0 0.47220206448452873 0.74892462649306213 0 0.43412357948152142 0.72128778687215156 0 0.4390556798454946 0.66199025953586599 0 0.46330219403010409 0.69594601192744354 0 0.43412357948152142 0.72128778687215156 0 0.46330219403010409 0.69594601192744354 0 0.47636314644728822 0.72058823529411908 0 0.46330219403010409 0.69594601192744354 0 0.5 0.70588235294117663 0 0.47636314644728822 0.72058823529411908 0 0.5 0.67647058823529438 0 0.5 0.70588235294117663 0 0.46330219403010409 0.69594601192744354 0 0.5 0.70588235294117663 0 0.5 0.73529411764705888 0 0.47636314644728822 0.72058823529411908 0 0.5 0.73529411764705888 0 0.5 0.76470588235294124 0 0.47220206448452873 0.74892462649306213 0 0.47636314644728822 0.72058823529411908 0 0.5 0.73529411764705888 0 0.47220206448452873 0.74892462649306213 0 0.4390556798454946 0.66199025953586599 0 0.47271076880550111 0.63357150722538136 0 0.47501372853621993 0.66300743809067952 0 0.4390556798454946 0.66199025953586599 0 0.44702869549010399 0.61002701911053991 0 0.47271076880550111 0.63357150722538136 0 0.46330219403010409 0.69594601192744354 0 0.4390556798454946 0.66199025953586599 0 0.47501372853621993 0.66300743809067952 0 0.5 0.67647058823529438 0 0.46330219403010409 0.69594601192744354 0 0.47501372853621993 0.66300743809067952 0 0.5 0.64705882352941191 0 0.5 0.67647058823529438 0 0.47501372853621993 0.66300743809067952 0 0.47271076880550111 0.63357150722538136 0 0.5 0.64705882352941191 0 0.47501372853621993 0.66300743809067952 0 0.5 0.61764705882352966 0 0.5 0.64705882352941191 0 0.47271076880550111 0.63357150722538136 0 0.5 0.5882352941176473 0 0.5 0.61764705882352966 0 0.47784843225772261 0.60532339797118362 0 0.5 0.61764705882352966 0 0.47271076880550111 0.63357150722538136 0 0.47784843225772261 0.60532339797118362 0 0.5 0.55882352941176494 0 0.5 0.5882352941176473 0 0.46950269699300751 0.57713611057881953 0 0.46950269699300751 0.57713611057881953 0 0.5 0.5882352941176473 0 0.47784843225772261 0.60532339797118362 0 0.44702869549010399 0.61002701911053991 0 0.41980724897053312 0.55867199730355355 0 0.46950269699300751 0.57713611057881953 0 0.44702869549010399 0.61002701911053991 0 0.46950269699300751 0.57713611057881953 0 0.47784843225772261 0.60532339797118362 0 0.47271076880550111 0.63357150722538136 0 0.44702869549010399 0.61002701911053991 0 0.47784843225772261 0.60532339797118362 0 0.3872154068451229 0.6301386882447304 0 0.41980724897053312 0.55867199730355355 0 0.44702869549010399 0.61002701911053991 0 0.32540781287085369 0.49175159894608172 0 0.41576443813007791 0.48093483781626972 0 0.41980724897053312 0.55867199730355355 0 0.41576443813007791 0.48093483781626972 0 0.4638583922372429 0.51470588235294135 0 0.41980724897053312 0.55867199730355355 0 0.41980724897053312 0.55867199730355355 0 0.4638583922372429 0.51470588235294135 0 0.47063366764015668 0.5477498568705923 0 0.46950269699300751 0.57713611057881953 0 0.41980724897053312 0.55867199730355355 0 0.47063366764015668 0.5477498568705923 0 0.5 0.55882352941176494 0 0.46950269699300751 0.57713611057881953 0 0.47063366764015668 0.5477498568705923 0 0.5 0.52941176470588269 0 0.5 0.55882352941176494 0 0.47063366764015668 0.5477498568705923 0 0.4638583922372429 0.51470588235294135 0 0.5 0.52941176470588269 0 0.47063366764015668 0.5477498568705923 0 0.5 0.5 0 0.5 0.52941176470588269 0 0.4638583922372429 0.51470588235294135 0 0.52820848765230954 0.54540076010342464 0 0.5 0.52941176470588269 0 0.52629893369322589 0.51330452493555312 0 0.5 0.52941176470588269 0 0.5 0.5 0 0.52629893369322589 0.51330452493555312 0 0.5 0.52941176470588269 0 0.5 0.5 0 0.5 0.55882352941176494 0 0.5 0.52941176470588269 0 0.52820848765230954 0.54540076010342464 0 0.5 0.55882352941176494 0 0.5 0.52941176470588269 0 0.52246722155046366 0.57417151085839346 0 0.5 0.55882352941176494 0 0.52820848765230954 0.54540076010342464 0 0.56199650931215228 0.51957997397013023 0 0.55931585964581554 0.57571189932143541 0 0.52820848765230954 0.54540076010342464 0 0.54128967150166729 0.47213012589832831 0 0.56199650931215228 0.51957997397013023 0 0.52629893369322589 0.51330452493555312 0 0.56199650931215228 0.51957997397013023 0 0.52820848765230954 0.54540076010342464 0 0.52629893369322589 0.51330452493555312 0 0.61174067805461174 0.54148194547208961 0 0.56199650931215228 0.51957997397013023 0 0.60345082206666756 0.47575908627627911 0 0.61174067805461174 0.54148194547208961 0 0.55931585964581554 0.57571189932143541 0 0.56199650931215228 0.51957997397013023 0 0.61264973759093866 0.60999664295093947 0 0.55931585964581554 0.57571189932143541 0 0.61174067805461174 0.54148194547208961 0 0.61264973759093866 0.60999664295093947 0 0.55828304378107996 0.63546085023637511 0 0.55931585964581554 0.57571189932143541 0 0.55931585964581554 0.57571189932143541 0 0.55828304378107996 0.63546085023637511 0 0.52754891270107895 0.60396918438229519 0 0.55828304378107996 0.63546085023637511 0 0.52222323737415433 0.63323059203007803 0 0.52754891270107895 0.60396918438229519 0 0.55931585964581554 0.57571189932143541 0 0.52246722155046366 0.57417151085839346 0 0.52820848765230954 0.54540076010342464 0 0.55931585964581554 0.57571189932143541 0 0.52754891270107895 0.60396918438229519 0 0.52246722155046366 0.57417151085839346 0 0.52754891270107895 0.60396918438229519 0 0.5 0.5882352941176473 0 0.52246722155046366 0.57417151085839346 0 0.5 0.5882352941176473 0 0.5 0.55882352941176494 0 0.52246722155046366 0.57417151085839346 0 0.5 0.5882352941176473 0 0.5 0.55882352941176494 0 0.52222323737415433 0.63323059203007803 0 0.5 0.61764705882352966 0 0.52754891270107895 0.60396918438229519 0 0.5 0.61764705882352966 0 0.5 0.5882352941176473 0 0.5 0.61764705882352966 0 0.5 0.5882352941176473 0 0.52754891270107895 0.60396918438229519 0 0.5 0.64705882352941191 0 0.5 0.61764705882352966 0 0.52222323737415433 0.63323059203007803 0 0.5 0.64705882352941191 0 0.5 0.61764705882352966 0 0.52736180768426655 0.66304505109048573 0 0.5 0.64705882352941191 0 0.52222323737415433 0.63323059203007803 0 0.5 0.67647058823529438 0 0.5 0.64705882352941191 0 0.52736180768426655 0.66304505109048573 0 0.5 0.67647058823529438 0 0.5 0.64705882352941191 0 0.52189318962165776 0.69193883095305098 0 0.5 0.67647058823529438 0 0.52736180768426655 0.66304505109048573 0 0.55852327729743823 0.69498827241231187 0 0.52189318962165776 0.69193883095305098 0 0.52736180768426655 0.66304505109048573 0 0.55828304378107996 0.63546085023637511 0 0.55852327729743823 0.69498827241231187 0 0.52736180768426655 0.66304505109048573 0 0.55828304378107996 0.63546085023637511 0 0.52736180768426655 0.66304505109048573 0 0.52222323737415433 0.63323059203007803 0 0.5 0.73529411764705888 0 0.52547133540542634 0.72058823529411897 0 0.5211984712236245 0.75134107022269114 0 0.5 0.73529411764705888 0 0.5 0.70588235294117663 0 0.52547133540542634 0.72058823529411897 0 0.5 0.73529411764705888 0 0.5 0.70588235294117663 0 0.5 0.70588235294117663 0 0.52189318962165776 0.69193883095305098 0 0.52547133540542634 0.72058823529411897 0 0.5 0.70588235294117663 0 0.5 0.67647058823529438 0 0.52189318962165776 0.69193883095305098 0 0.5 0.70588235294117663 0 0.5 0.67647058823529438 0 0.52189318962165776 0.69193883095305098 0 0.55852327729743823 0.69498827241231187 0 0.52547133540542634 0.72058823529411897 0 0.52547133540542634 0.72058823529411897 0 0.55458114032207428 0.75544804615062711 0 0.5211984712236245 0.75134107022269114 0 0.55852327729743823 0.69498827241231187 0 0.55458114032207428 0.75544804615062711 0 0.52547133540542634 0.72058823529411897 0 0.6088970477846376 0.72715446211577472 0 0.55458114032207428 0.75544804615062711 0 0.55852327729743823 0.69498827241231187 0 0.6088970477846376 0.72715446211577472 0 0.55852327729743823 0.69498827241231187 0 0.60110770968787908 0.67045598539422102 0 0.60110770968787908 0.67045598539422102 0 0.55828304378107996 0.63546085023637511 0 0.61264973759093866 0.60999664295093947 0 0.60110770968787908 0.67045598539422102 0 0.55852327729743823 0.69498827241231187 0 0.55828304378107996 0.63546085023637511 0 0.66621429167335955 0.68470300534742679 0 0.60110770968787908 0.67045598539422102 0 0.61264973759093866 0.60999664295093947 0 0.6088970477846376 0.72715446211577472 0 0.66621429167335955 0.68470300534742679 0 0.6817340940367822 0.76923101696744944 0 0.66621429167335955 0.68470300534742679 0 0.6088970477846376 0.72715446211577472 0 0.60110770968787908 0.67045598539422102 0 0.6817340940367822 0.76923101696744944 0 0.66621429167335955 0.68470300534742679 0 0.7828103453665094 0.69876044407634474 0 0.66621429167335955 0.68470300534742679 0 0.69354174170208815 0.57892485983477626 0 0.7828103453665094 0.69876044407634474 0 0.69354174170208815 0.57892485983477626 0 0.66681557370681976 0.49435464945626773 0 0.77935529174931761 0.49004815756283893 0 0.61174067805461174 0.54148194547208961 0 0.66681557370681976 0.49435464945626773 0 0.69354174170208815 0.57892485983477626 0 0.66681557370681976 0.49435464945626773 0 0.61174067805461174 0.54148194547208961 0 0.60345082206666756 0.47575908627627911 0 0.61264973759093866 0.60999664295093947 0 0.61174067805461174 0.54148194547208961 0 0.69354174170208815 0.57892485983477626 0 0.66621429167335955 0.68470300534742679 0 0.61264973759093866 0.60999664295093947 0 0.69354174170208815 0.57892485983477626 0 0.63938141097836054 1 0 0.57768176564240026 1 0 0.60145933092659498 0.94808652648958736 0 0.60145933092659498 0.94808652648958736 0 0.55381003699196441 0.97073734537240042 0 0.55652711631508067 0.93435010280744335 0 0.57768176564240026 1 0 0.55381003699196441 0.97073734537240042 0 0.60145933092659498 0.94808652648958736 0 0.57768176564240026 1 0 0.53273812861558045 1 0 0.55381003699196441 0.97073734537240042 0 0.55381003699196441 0.97073734537240042 0 0.53273812861558045 1 0 0.52191028766292435 0.97912620202886635 0 0.53273812861558045 1 0 0.5 1 0 0.52191028766292435 0.97912620202886635 0 0.5 1 0 0.5 0.97058823529411764 0 0.52191028766292435 0.97912620202886635 0 0.5 1 0 0.5 0.97058823529411764 0 0.5 0.97058823529411764 0 0.5 0.94117647058823528 0 0.5 0.97058823529411764 0 0.5 0.94117647058823528 0 0.52554900427979434 0.95492408164812537 0 0.5 0.97058823529411764 0 0.52554900427979434 0.95492408164812537 0 0.52191028766292435 0.97912620202886635 0 0.5 0.94117647058823528 0 0.52149395742518578 0.9280464911497236 0 0.52554900427979434 0.95492408164812537 0 0.55381003699196441 0.97073734537240042 0 0.52554900427979434 0.95492408164812537 0 0.55652711631508067 0.93435010280744335 0 0.52554900427979434 0.95492408164812537 0 0.55381003699196441 0.97073734537240042 0 0.52191028766292435 0.97912620202886635 0 0.52554900427979434 0.95492408164812537 0 0.52149395742518578 0.9280464911497236 0 0.55652711631508067 0.93435010280744335 0 0.52982914238326484 0.89727189043838895 0 0.57507719038536997 0.89743529736491356 0 0.55652711631508067 0.93435010280744335 0 0.52149395742518578 0.9280464911497236 0 0.52982914238326484 0.89727189043838895 0 0.55652711631508067 0.93435010280744335 0 0.52149395742518578 0.9280464911497236 0 0.5 0.91176470588235292 0 0.52982914238326484 0.89727189043838895 0 0.5 0.94117647058823528 0 0.5 0.91176470588235292 0 0.5 0.94117647058823528 0 0.5 0.91176470588235292 0 0.52149395742518578 0.9280464911497236 0 0.5 0.91176470588235292 0 0.5 0.88235294117647056 0 0.52982914238326484 0.89727189043838895 0 0.5 0.91176470588235292 0 0.5 0.88235294117647056 0 0.52982914238326484 0.89727189043838895 0 0.5 0.88235294117647056 0 0.51991574276818808 0.86764705882352966 0 0.54799184932697576 0.8599032232094268 0 0.57507719038536997 0.89743529736491356 0 0.52982914238326484 0.89727189043838895 0 0.57507719038536997 0.89743529736491356 0 0.60145933092659498 0.94808652648958736 0 0.55652711631508067 0.93435010280744335 0 0.63427031498547037 0.88927276979110648 0 0.60145933092659498 0.94808652648958736 0 0.57507719038536997 0.89743529736491356 0 0.63427031498547037 0.88927276979110648 0 0.57507719038536997 0.89743529736491356 0 0.58994607995897996 0.84812355238296233 0 0.63427031498547037 0.88927276979110648 0 0.58994607995897996 0.84812355238296233 0 0.64153141236229239 0.83072478436463804 0 0.64153141236229239 0.83072478436463804 0 0.58994607995897996 0.84812355238296233 0 0.60049020024666178 0.78900583008989877 0 0.55206941203846505 0.81091931303809783 0 0.58994607995897996 0.84812355238296233 0 0.54799184932697576 0.8599032232094268 0 0.60049020024666178 0.78900583008989877 0 0.58994607995897996 0.84812355238296233 0 0.55206941203846505 0.81091931303809783 0 0.58994607995897996 0.84812355238296233 0 0.57507719038536997 0.89743529736491356 0 0.54799184932697576 0.8599032232094268 0 0.54799184932697576 0.8599032232094268 0 0.52982914238326484 0.89727189043838895 0 0.51991574276818808 0.86764705882352966 0 0.52395085592512047 0.83729395211968571 0 0.54799184932697576 0.8599032232094268 0 0.51991574276818808 0.86764705882352966 0 0.5 0.85294117647058831 0 0.52395085592512047 0.83729395211968571 0 0.51991574276818808 0.86764705882352966 0 0.5 0.88235294117647056 0 0.5 0.85294117647058831 0 0.5 0.88235294117647056 0 0.5 0.85294117647058831 0 0.51991574276818808 0.86764705882352966 0 0.52395085592512047 0.83729395211968571 0 0.5 0.82352941176470584 0 0.52039202967084142 0.80930587873000437 0 0.5 0.85294117647058831 0 0.5 0.82352941176470584 0 0.5 0.85294117647058831 0 0.5 0.82352941176470584 0 0.52395085592512047 0.83729395211968571 0 0.55206941203846505 0.81091931303809783 0 0.52395085592512047 0.83729395211968571 0 0.52039202967084142 0.80930587873000437 0 0.55206941203846505 0.81091931303809783 0 0.54799184932697576 0.8599032232094268 0 0.52395085592512047 0.83729395211968571 0 0.52593988039062167 0.78066906966870908 0 0.55206941203846505 0.81091931303809783 0 0.52039202967084142 0.80930587873000437 0 0.55458114032207428 0.75544804615062711 0 0.55206941203846505 0.81091931303809783 0 0.52593988039062167 0.78066906966870908 0 0.5 0.79411764705882359 0 0.52593988039062167 0.78066906966870908 0 0.52039202967084142 0.80930587873000437 0 0.5 0.82352941176470584 0 0.5 0.79411764705882359 0 0.5 0.82352941176470584 0 0.5 0.79411764705882359 0 0.52039202967084142 0.80930587873000437 0 0.5 0.76470588235294124 0 0.5 0.73529411764705888 0 0.5 0.76470588235294124 0 0.5 0.73529411764705888 0 0.5211984712236245 0.75134107022269114 0 0.5 0.79411764705882359 0 0.5 0.76470588235294124 0 0.52593988039062167 0.78066906966870908 0 0.5 0.79411764705882359 0 0.5 0.76470588235294124 0 0.52593988039062167 0.78066906966870908 0 0.5 0.76470588235294124 0 0.5211984712236245 0.75134107022269114 0 0.55458114032207428 0.75544804615062711 0 0.52593988039062167 0.78066906966870908 0 0.5211984712236245 0.75134107022269114 0 0.60049020024666178 0.78900583008989877 0 0.55458114032207428 0.75544804615062711 0 0.6088970477846376 0.72715446211577472 0 0.60049020024666178 0.78900583008989877 0 0.55206941203846505 0.81091931303809783 0 0.55458114032207428 0.75544804615062711 0 0.6817340940367822 0.76923101696744944 0 0.80987878298654392 0.8110307373443908 0 0.70916369539323409 0.86041409043207073 0 0.60049020024666178 0.78900583008989877 0 0.6088970477846376 0.72715446211577472 0 0.6817340940367822 0.76923101696744944 0 0.64153141236229239 0.83072478436463804 0 0.60049020024666178 0.78900583008989877 0 0.6817340940367822 0.76923101696744944 0 0.63427031498547037 0.88927276979110648 0 0.64153141236229239 0.83072478436463804 0 0.70916369539323409 0.86041409043207073 0 0.64153141236229239 0.83072478436463804 0 0.6817340940367822 0.76923101696744944 0 0.70916369539323409 0.86041409043207073 0 0.68173274398262862 0.93660593960145366 0 0.63427031498547037 0.88927276979110648 0 0.70916369539323409 0.86041409043207073 0 0.68173274398262862 0.93660593960145366 0 0.60145933092659498 0.94808652648958736 0 0.63427031498547037 0.88927276979110648 0 0.78222494485339233 0.91531439423588867 0 0.68173274398262862 0.93660593960145366 0 0.70916369539323409 0.86041409043207073 0 0.72408407698689681 1 0 0.68173274398262862 0.93660593960145366 0 0.78222494485339233 0.91531439423588867 0 0.68173274398262862 0.93660593960145366 0 0.63938141097836054 1 0 0.60145933092659498 0.94808652648958736 0 0.72408407698689681 1 0 0.63938141097836054 1 0 0.68173274398262862 0.93660593960145366 0 1 0.74999999999934008 0 1 1 0 0.89611933618281592 0.89173516444576184 0 0.84036581271988753 1 0 0.72408407698689681 1 0 0.78222494485339233 0.91531439423588867 0 0.84036581271988753 1 0 0.78222494485339233 0.91531439423588867 0 0.89611933618281592 0.89173516444576184 0 0.80987878298654392 0.8110307373443908 0 0.6817340940367822 0.76923101696744944 0 0.7828103453665094 0.69876044407634474 0 1 0.74999999999934008 0 0.80987878298654392 0.8110307373443908 0 0.7828103453665094 0.69876044407634474 0 0.78222494485339233 0.91531439423588867 0 0.80987878298654392 0.8110307373443908 0 0.89611933618281592 0.89173516444576184 0 0.80987878298654392 0.8110307373443908 0 0.78222494485339233 0.91531439423588867 0 0.70916369539323409 0.86041409043207073 0 0.80987878298654392 0.8110307373443908 0 1 0.74999999999934008 0 0.89611933618281592 0.89173516444576184 0 1 1 0 0.84036581271988753 1 0 0.89611933618281592 0.89173516444576184 0 1 0.49999999999869182 0 1 0.74999999999934008 0 0.84549316180028322 0.59867304496468476 0 0.84549316180028322 0.59867304496468476 0 0.69354174170208815 0.57892485983477626 0 0.77935529174931761 0.49004815756283893 0 1 0.49999999999869182 0 0.84549316180028322 0.59867304496468476 0 0.77935529174931761 0.49004815756283893 0 0.69354174170208815 0.57892485983477626 0 0.84549316180028322 0.59867304496468476 0 0.7828103453665094 0.69876044407634474 0 0.84549316180028322 0.59867304496468476 0 1 0.74999999999934008 0 0.7828103453665094 0.69876044407634474 0 0.80451351819826811 0.35479918680564199 0 1 0.49999999999869182 0 0.77935529174931761 0.49004815756283893 0 1 0.24999999999941089 0 0.80451351819826811 0.35479918680564199 0 0.79923457477009219 0.1751534052300894 0 1 0.24999999999941089 0 1 0.49999999999869182 0 0.80451351819826811 0.35479918680564199 0 0.74999999999934008 0 0 1 0 0 0.79923457477009219 0.1751534052300894 0 1 0 0 1 0.24999999999941089 0 0.79923457477009219 0.1751534052300894 0 0.49999999999869182 0 0 0.74999999999934008 0 0 0.62537763927714929 0.14286513648320209 0 0.62537763927714929 0.14286513648320209 0 0.79923457477009219 0.1751534052300894 0 0.6197279975813802 0.30020319976287241 0 0.62537763927714929 0.14286513648320209 0 0.74999999999934008 0 0 0.79923457477009219 0.1751534052300894 0 0.49999999999869182 0 0 0.62537763927714929 0.14286513648320209 0 0.49924741621175961 0.21507969613896921 0 0.62537763927714929 0.14286513648320209 0 0.6197279975813802 0.30020319976287241 0 0.49924741621175961 0.21507969613896921 0 0.6197279975813802 0.30020319976287241 0 0.49435464945626773 0.33318442629318029 0 0.49924741621175961 0.21507969613896921 0 0.54876010062294855 0.39662628167175101 0 0.49435464945626773 0.33318442629318029 0 0.6197279975813802 0.30020319976287241 0 0.66576775508844777 0.41353720431697111 0 0.54876010062294855 0.39662628167175101 0 0.6197279975813802 0.30020319976287241 0 0.49954900152271581 0.45107191084564019 0 0.45418244162583959 0.41624787166862259 0 0.54876010062294855 0.39662628167175101 0 0.54128967150166729 0.47213012589832831 0 0.49954900152271581 0.45107191084564019 0 0.54876010062294855 0.39662628167175101 0 0.54128967150166729 0.47213012589832831 0 0.5 0.5 0 0.49954900152271581 0.45107191084564019 0 0.5 0.5 0 0.54128967150166729 0.47213012589832831 0 0.52629893369322589 0.51330452493555312 0 0.60345082206666756 0.47575908627627911 0 0.54128967150166729 0.47213012589832831 0 0.54876010062294855 0.39662628167175101 0 0.60345082206666756 0.47575908627627911 0 0.56199650931215228 0.51957997397013023 0 0.54128967150166729 0.47213012589832831 0 0.66576775508844777 0.41353720431697111 0 0.60345082206666756 0.47575908627627911 0 0.54876010062294855 0.39662628167175101 0 0.66576775508844777 0.41353720431697111 0 0.80451351819826811 0.35479918680564199 0 0.77935529174931761 0.49004815756283893 0 0.66681557370681976 0.49435464945626773 0 0.60345082206666756 0.47575908627627911 0 0.66576775508844777 0.41353720431697111 0 0.66681557370681976 0.49435464945626773 0 0.66576775508844777 0.41353720431697111 0 0.77935529174931761 0.49004815756283893 0 0.79923457477009219 0.1751534052300894 0 0.80451351819826811 0.35479918680564199 0 0.6197279975813802 0.30020319976287241 0 0.80451351819826811 0.35479918680564199 0 0.66576775508844777 0.41353720431697111 0 0.6197279975813802 0.30020319976287241 0 
</DataArray>
</Points>
<Cells>
<DataArray type="UInt32" Name="connectivity" format="ascii">
0 1 2 3 4 5 6 7 8 9 10 11 12 13 14 15 16 17 18 19 20 21 22 23 24 25 26 27 28 29 30 31 32 33 34 35 36 37 38 39 40 41 42 43 44 45 46 47 48 49 50 51 52 53 54 55 56 57 58 59 60 61 62 63 64 65 66 67 68 69 70 71 72 73 74 75 76 77 78 79 80 81 82 83 84 85 86 87 88 89 90 91 92 93 94 95 96 97 98 99 100 101 102 103 104 105 106 107 108 109 110 111 112 113 114 115 116 117 118 119 120 121 122 123 124 125 126 127 128 129 130 131 132 133 134 135 136 137 138 139 140 141 142 143 144 145 146 147 148 149 150 151 152 153 154 155 156 157 158 159 160 161 162 163 164 165 166 167 168 169 170 171 172 173 174 175 176 177 178 179 180 181 182 183 184 185 186 187 188 189 190 191 192 193 194 195 196 197 198 199 200 201 202 203 204 205 206 207 208 209 210 211 212 213 214 215 216 217 218 219 220 221 222 223 224 225 226 227 228 229 230 231 232 233 234 235 236 237 238 239 240 241 242 243 244 245 246 247 248 249 250 251 252 253 254 255 256 257 258 259 260 261 262 263 264 265 266 267 268 269 270 271 272 273 274 275 276 277 278 279 280 281 282 283 284 285 286 287 288 289 290 291 292 293 294 295 296 297 298 299 300 301 302 303 304 305 306 307 308 309 310 311 312 313 314 315 316 317 318 319 320 321 322 323 324 325 326 327 328 329 330 331 332 333 334 335 336 337 338 339 340 341 342 343 344 345 346 347 348 349 350 351 352 353 354 355 356 357 358 359 360 361 362 363 364 365 366 367 368 369 370 371 372 373 374 375 376 377 378 379 380 381 382 383 384 385 386 387 388 389 390 391 392 393 394 395 396 397 398 399 400 401 402 403 404 405 406 407 408 409 410 411 412 413 414 415 416 417 418 419 420 421 422 423 424 425 426 427 428 429 430 431 432 433 434 435 436 437 438 439 440 441 442 443 444 445 446 447 448 449 450 451 452 453 454 455 456 457 458 459 460 461 462 463 464 465 466 467 468 469 470 471 472 473 474 475 476 477 478 479 480 481 482 483 484 485 486 487 488 489 490 491 492 493 494 495 496 497 498 499 500 501 502 503 504 505 506 507 508 509 510 511 512 513 514 515 516 517 518 519 520 521 522 523 524 525 526 527 528 529 530 531 532 533 534 535 536 537 538 539 540 541 542 543 544 545 546 547 548 549 550 551 552 553 554 555 556 557 558 559 560 561 562 563 564 565 566 567 568 569 570 571 572 573 574 575 576 577 578 579 580 581 582 583 584 585 586 587 588 589 590 591 592 593 594 595 596 597 598 599 600 601 602 603 604 605 606 607 608 609 610 611 612 613 614 615 616 617 618 619 620 621 622 623 624 625 626 627 628 629 630 631 632 633 634 635 636 637 638 639 640 641 642 643 644 645 646 647 648 649 650 651 652 653 654 655 656 657 658 659 660 661 662 663 664 665 666 667 668 669 670 671 672 673 674 675 676 677 678 679 680 681 682 683 684 685 686 687 688 689 690 691 692 693 694 695 696 697 698 699 700 701 702 703 704 705 706 707 708 709 710 711 712 713 714 715 716 717 718 719 720 721 722 723 724 725 726 727 728 729 730 731 732 733 734 735 736 737 738 739 740 741 742 743 744 745 746 747 748 749 750 751 752 753 754 755 756 757 758 759 760 761 762 763 764 765 766 767 768 769 770 771 772 773 774 775 776 777 778 779 780 781 782 783 784 785 786 787 788 789 790 791 792 793 794 795 796 797 798 799 800 801 802 803 804 805 806 807 808 809 810 811 812 813 814 815 816 817 818 819 820 821 822 823 824 825 826 827 828 829 830 831 832 833 834 835 836 837 838 839 840 841 842 843 844 845 846 847 848 849 850 851 852 853 854 855 856 857 858 859 860 861 862 863 864 865 866 867 868 869 870 871 872 873 874 875 876 877 878 879 
</DataArray>
<DataArray type="UInt32" Name="offsets" format="ascii">
3 6 9 12 15 18 21 24 27 30 33 36 39 42 45 48 51 54 57 60 63 66 69 72 75 78 81 84 87 90 93 96 99 102 105 108 111 114 117 120 123 126 129 132 135 138 141 144 147 150 153 156 159 162 165 168 171 174 177 180 183 186 189 192 195 198 201 204 207 210 213 216 219 222 225 228 231 234 237 240 243 246 249 252 255 258 261 264 267 270 273 276 279 282 285 288 291 294 297 300 303 306 309 312 315 318 321 324 327 330 333 336 339 342 345 348 351 354 357 360 363 366 369 372 375 378 381 384 387 390 393 396 399 402 405 408 411 414 417 420 423 425 428 430 433 436 439 442 445 448 451 454 457 460 463 466 469 472 474 477 479 482 485 487 490 493 495 498 501 504 507 510 513 515 518 521 523 526 529 532 535 538 541 544 547 550 553 556 559 562 565 568 571 574 577 580 583 586 589 592 595 597 599 602 605 608 611 614 617 620 623 626 628 631 634 636 639 642 645 648 651 654 657 660 663 666 669 672 675 677 680 683 685 688 691 694 697 700 703 705 708 710 713 716 718 721 724 727 730 733 736 739 742 745 748 751 754 757 760 763 766 769 772 775 778 781 784 787 790 793 796 799 802 805 808 811 814 817 820 823 826 829 832 835 838 841 844 847 850 853 856 859 862 865 868 871 874 877 880 
</DataArray>
<DataArray type="UInt32" Name="types" format="ascii">
5 5 5 5 5 5 5 5 5 5 5 5 5 5 5 5 5 5 5 5 5 5 5 5 5 5 5 5 5 5 5 5 5 5 5 5 5 5 5 5 5 5 5 5 5 5 5 5 5 5 5 5 5 5 5 5 5 5 5 5 5 5 5 5 5 5 5 5 5 5 5 5 5 5 5 5 5 5 5 5 5 5 5 5 5 5 5 5 5 5 5 5 5 5 5 5 5 5 5 5 5 5 5 5 5 5 5 5 5 5 5 5 5 5 5 5 5 5 5 5 5 5 5 5 5 5 5 5 5 5 5 5 5 5 5 5 5 5 5 5 5 3 5 3 5 5 5 5 5 5 5 5 5 5 5 5 5 5 3 5 3 5 5 3 5 5 3 5 5 5 5 5 5 3 5 5 3 5 5 5 5 5 5 5 5 5 5 5 5 5 5 5 5 5 5 5 5 5 5 5 5 3 3 5 5 5 5 5 5 5 5 5 3 5 5 3 5 5 5 5 5 5 5 5 5 5 5 5 5 3 5 5 3 5 5 5 5 5 5 3 5 3 5 5 3 5 5 5 5 5 5 5 5 5 5 5 5 5 5 5 5 5 5 5 5 5 5 5 5 5 5 5 5 5 5 5 5 5 5 5 5 5 5 5 5 5 5 5 5 5 5 5 5 5 5 5 5 5 5 
</DataArray>
</Cells>
<PointData Scalars="" Vectors="displacement," Tensors="">
<DataArray type="Float64" Name="displacement" NumberOfComponents="3" format="ascii">
-2.9835807046209734e-06 -3.7195100391661792e-06 0 -6.5647415608376656e-05 -1.5833472319379194e-05 0 -0.012248298155807903 -0.021314977424445342 0 -6.5647415608376656e-05 -1.5833472319379194e-05 0 -0.041938932068196454 -0.04075741589864474 0 -0.012248298155807903 -0.021314977424445342 0 -0.041938932068196454 -0.04075741589864474 0 -0.072169719549597056 -0.090304489764189588 0 -0.027805975120413558 -0.052918180397400018 0 -0.041938932068196454 -0.04075741589864474 0 -0.027805975120413558 -0.052918180397400018 0 -0.012248298155807903 -0.021314977424445342 0 -0.027805975120413558 -0.052918180397400018 0 -0.072169719549597056 -0.090304489764189588 0 -0.033033596792684243 -0.086346193316882314 0 -0.014324676593369643 -0.063164369950630198 0 -0.027805975120413554 -0.052918180397400018 0 -0.033033596792684243 -0.086346193316882314 0 -0.0033903317791624571 -0.073840488682461375 0 0.0049250332101112753 -0.065032085030613238 0 -0.003086764180405501 -0.056247808203807412 0 -0.014324676593369643 -0.063164369950630198 0 -0.0033903317791624571 -0.073840488682461375 0 -0.003086764180405501 -0.056247808203807412 0 -0.0033903317791624571 -0.073840488682461375 0 0.0056862420106936016 -0.076547283208318995 0 0.0049250332101112753 -0.065032085030613238 0 0.0056862420106936016 -0.076547283208318995 0 0.010429146378022324 -0.076887814105948304 0 0.0049250332101112753 -0.065032085030613238 0 0.0013939991992686052 -0.08529009433350801 0 0.012070810101006045 -0.085838792291184449 0 0.0056862420106936016 -0.076547283208318995 0 0.0056862420106936016 -0.076547283208318995 0 0.012070810101006043 -0.085838792291184449 0 0.010429146378022324 -0.076887814105948304 0 0.0013939991992686052 -0.08529009433350801 0 0.0056862420106936016 -0.076547283208318995 0 -0.0033903317791624571 -0.073840488682461375 0 -0.0033903317791624571 -0.073840488682461375 0 -0.015565621462267079 -0.08434180899411256 0 -0.0074747539786386933 -0.097700418401237762 0 -0.015565621462267079 -0.08434180899411256 0 -0.0033903317791624571 -0.073840488682461375 0 -0.014324676593369643 -0.063164369950630198 0 -0.015565621462267079 -0.08434180899411256 0 -0.014324676593369643 -0.063164369950630198 0 -0.033033596792684243 -0.086346193316882314 0 -0.027805975120413558 -0.052918180397400018 0 -0.014324676593369643 -0.063164369950630198 0 -0.0076733672544136945 -0.038924476541811692 0 -0.014324676593369643 -0.063164369950630198 0 -0.0030867641804055018 -0.056247808203807419 0 -0.0076733672544136945 -0.038924476541811692 0 -0.012248298155807903 -0.021314977424445342 0 -0.027805975120413558 -0.052918180397400018 0 -0.0076733672544136945 -0.038924476541811692 0 0.0036483765446301943 -0.045823470521099648 0 -0.0027072459778989832 -0.019767786591320519 0 -0.0076733672544136945 -0.038924476541811692 0 -0.003086764180405501 -0.056247808203807412 0 0.0036483765446301943 -0.045823470521099648 0 -0.0076733672544136945 -0.038924476541811692 0 0.0049250332101112753 -0.065032085030613238 0 0.0036483765446301943 -0.045823470521099648 0 -0.003086764180405501 -0.056247808203807412 0 4.6586238086037691e-07 -7.657010729968749e-06 0 -2.9835807046209734e-06 -3.7195100391661792e-06 0 -0.0027072459778989832 -0.019767786591320519 0 4.6586238086037691e-07 -7.657010729968749e-06 0 -0.0027072459778989832 -0.019767786591320519 0 0.0035775211451020287 -0.028070989340784828 0 -0.0027072459778989832 -0.019767786591320519 0 0.0036483765446301943 -0.045823470521099648 0 0.0035775211451020287 -0.028070989340784828 0 -0.0027072459778989832 -0.019767786591320519 0 -0.012248298155807903 -0.021314977424445342 0 -0.0076733672544136945 -0.038924476541811692 0 -0.0027072459778989832 -0.019767786591320519 0 -2.9835807046209734e-06 -3.7195100391661792e-06 0 -0.012248298155807903 -0.021314977424445342 0 9.8441828384847963e-06 -4.7113774221614385e-06 0 4.6586238086037691e-07 -7.657010729968749e-06 0 0.0063876486287903055 -0.023114897220086278 0 9.8441828384847963e-06 -4.7113774221614385e-06 0 0.0063876486287903055 -0.023114897220086278 0 0.012480757797844206 -0.031248848674745422 0 0.0063876486287903055 -0.023114897220086278 0 0.014180627175175436 -0.046402349828023826 0 0.012480757797844206 -0.031248848674745422 0 0.0099476012265240828 -0.045756684249306664 0 0.0063876486287903055 -0.023114897220086278 0 0.0035775211451020287 -0.028070989340784828 0 0.0063876486287903055 -0.023114897220086278 0 4.6586238086019035e-07 -7.6570107299690777e-06 0 0.0035775211451020287 -0.028070989340784828 0 5.0994486578905904e-05 -1.8657397964669161e-05 0 9.8441828384847963e-06 -4.7113774221614385e-06 0 0.0095202788675564608 -0.012443427444877793 0 0.028037635221142023 -0.027264366179893237 0 5.0994486578905904e-05 -1.8657397964669161e-05 0 0.0095202788675564608 -0.012443427444877793 0 9.8441828384847963e-06 -4.7113774221614385e-06 0 0.011979646474174745 -0.022506249110854182 0 0.0095202788675564608 -0.012443427444877793 0 0.027563734278286733 -0.038818269807552874 0 0.011979646474174745 -0.022506249110854182 0 0.019574656184749333 -0.041417394933720833 0 0.011979646474174745 -0.022506249110854182 0 9.8441828384847963e-06 -4.7113774221614385e-06 0 0.012480757797844206 -0.031248848674745422 0 0.011979646474174745 -0.022506249110854182 0 0.012480757797844206 -0.031248848674745422 0 0.019574656184749333 -0.041417394933720833 0 0.011979646474174745 -0.022506249110854182 0 0.027563734278286733 -0.038818269807552874 0 0.0095202788675564608 -0.012443427444877793 0 0.027563734278286733 -0.038818269807552874 0 0.028037635221142023 -0.027264366179893237 0 0.0095202788675564608 -0.012443427444877793 0 0.041397377186728514 -0.047868172231306502 0 0.028037635221142023 -0.027264366179893237 0 0.027563734278286733 -0.038818269807552874 0 0.047707761101461833 -0.063334731377116302 0 0.041397377186728514 -0.047868172231306502 0 0.036786722302252793 -0.055961144753067855 0 0.047707761101461833 -0.063334731377116302 0 0.036786722302252793 -0.055961144753067855 0 0.042340924796814616 -0.06882397005796001 0 0.036786722302252793 -0.055961144753067855 0 0.041397377186728514 -0.047868172231306502 0 0.027563734278286733 -0.038818269807552874 0 0.029540542088267181 -0.052390232302944512 0 0.036786722302252793 -0.055961144753067855 0 0.027563734278286733 -0.038818269807552874 0 0.042340924796814616 -0.06882397005796001 0 0.036786722302252793 -0.055961144753067855 0 0.035217664264475763 -0.064415159464471572 0 0.035217664264475763 -0.064415159464471572 0 0.036786722302252793 -0.055961144753067855 0 0.029540542088267181 -0.052390232302944512 0 0.029540542088267181 -0.052390232302944512 0 0.027563734278286733 -0.038818269807552874 0 0.019574656184749333 -0.041417394933720833 0 0.035217664264475763 -0.064415159464471572 0 0.029540542088267181 -0.052390232302944512 0 0.02761836637497719 -0.060081645661835548 0 0.02761836637497719 -0.060081645661835548 0 0.029540542088267181 -0.052390232302944512 0 0.019574656184749333 -0.041417394933720833 0 0.012480757797844206 -0.031248848674745422 0 0.019632110603649295 -0.051206975341935641 0 0.019574656184749333 -0.041417394933720833 0 0.019632110603649295 -0.051206975341935641 0 0.02761836637497719 -0.060081645661835541 0 0.019574656184749333 -0.041417394933720833 0 0.02761836637497719 -0.060081645661835548 0 0.019632110603649295 -0.051206975341935648 0 0.024787252330810042 -0.065140337095946257 0 0.030632349552789442 -0.072315425495619423 0 0.02761836637497719 -0.060081645661835548 0 0.024787252330810042 -0.065140337095946257 0 0.028505126937586632 -0.075175644393848967 0 0.030632349552789442 -0.072315425495619423 0 0.024787252330810042 -0.065140337095946257 0 0.028505126937586632 -0.075175644393848967 0 0.024787252330810042 -0.065140337095946257 0 0.023878984740497159 -0.071988760603558813 0 0.028505126937586632 -0.075175644393848967 0 0.027940931560107799 -0.080097189474097566 0 0.030552040654057911 -0.081481106775473863 0 0.027940931560107799 -0.080097189474097566 0 0.030537814434102396 -0.085859470186713763 0 0.030552040654057911 -0.081481106775473863 0 0.030537814434102396 -0.085859470186713763 0 0.033078951450295595 -0.085935041322145744 0 0.030552040654057911 -0.081481106775473863 0 0.033078951450295595 -0.085935041322145744 0 0.035639294588310555 -0.086018891966711003 0 0.032650550665923671 -0.080343757134073795 0 0.033078951450295595 -0.085935041322145744 0 0.032650550665923671 -0.080343757134073795 0 0.030552040654057911 -0.081481106775473863 0 0.032650550665923671 -0.080343757134073795 0 0.028505126937586632 -0.075175644393848967 0 0.030552040654057911 -0.081481106775473863 0 0.032650550665923671 -0.080343757134073795 0 0.030632349552789442 -0.072315425495619423 0 0.028505126937586632 -0.075175644393848967 0 0.034975602375150933 -0.079091825381766373 0 0.030632349552789442 -0.072315425495619423 0 0.032650550665923671 -0.080343757134073795 0 0.03547025660874361 -0.073502538411870252 0 0.030632349552789442 -0.072315425495619423 0 0.034975602375150933 -0.079091825381766373 0 0.035639294588310555 -0.086018891966711003 0 0.038183010881982192 -0.086113502388513688 0 0.034975602375150933 -0.079091825381766373 0 0.035639294588310555 -0.086018891966711003 0 0.034975602375150933 -0.079091825381766373 0 0.032650550665923671 -0.080343757134073795 0 0.034975602375150933 -0.079091825381766373 0 0.038183010881982192 -0.086113502388513688 0 0.037874058348690523 -0.081048490223956188 0 0.038183010881982192 -0.086113502388513688 0 0.040666073646087382 -0.086209359410751848 0 0.037874058348690523 -0.081048490223956188 0 0.03547025660874361 -0.073502538411870252 0 0.034975602375150926 -0.079091825381766359 0 0.037874058348690523 -0.081048490223956188 0 0.03547025660874361 -0.073502538411870252 0 0.035217664264475763 -0.064415159464471572 0 0.02761836637497719 -0.060081645661835548 0 0.03547025660874361 -0.073502538411870252 0 0.02761836637497719 -0.060081645661835548 0 0.030632349552789442 -0.072315425495619423 0 0.042340924796814616 -0.06882397005796001 0 0.035217664264475763 -0.064415159464471572 0 0.040363006953582407 -0.074620999581608505 0 0.040363006953582407 -0.074620999581608505 0 0.035217664264475763 -0.064415159464471572 0 0.03547025660874361 -0.073502538411870252 0 0.039821721294180927 -0.07990238340550665 0 0.03547025660874361 -0.073502538411870252 0 0.037874058348690523 -0.081048490223956188 0 0.040363006953582407 -0.074620999581608505 0 0.03547025660874361 -0.073502538411870252 0 0.039821721294180927 -0.07990238340550665 0 0.040666073646087382 -0.086209359410751848 0 0.039821721294180927 -0.079902383405506636 0 0.037874058348690523 -0.081048490223956188 0 0.040666073646087382 -0.086209359410751848 0 0.043028078898790678 -0.086322296485402683 0 0.039821721294180927 -0.07990238340550665 0 0.039821721294180927 -0.07990238340550665 0 0.043028078898790678 -0.086322296485402683 0 0.042954964051022532 -0.081895862381912654 0 0.043028078898790678 -0.086322296485402683 0 0.045151315258336051 -0.086450138819272548 0 0.042954964051022532 -0.081895862381912654 0 0.040363006953582407 -0.074620999581608505 0 0.039821721294180927 -0.07990238340550665 0 0.042954964051022532 -0.081895862381912654 0 0.045525328481399875 -0.07886750030241807 0 0.042954964051022532 -0.081895862381912654 0 0.045495851368578463 -0.083312883904848811 0 0.045525328481399875 -0.07886750030241807 0 0.040363006953582407 -0.074620999581608505 0 0.042954964051022532 -0.081895862381912654 0 0.045525328481399875 -0.07886750030241807 0 0.04549585136857847 -0.083312883904848811 0 0.04726700348967626 -0.083953662468493603 0 0.042954964051022532 -0.081895862381912654 0 0.045151315258336051 -0.086450138819272548 0 0.045495851368578463 -0.083312883904848811 0 0.045495851368578463 -0.083312883904848811 0 0.046849628950848092 -0.086608291459453549 0 0.04726700348967626 -0.083953662468493603 0 0.045151315258336051 -0.086450138819272548 0 0.046849628950848092 -0.086608291459453549 0 0.045495851368578463 -0.083312883904848811 0 0.047978991849452229 -0.086715195080448698 0 0.049952019998928253 -0.082100574286848582 0 0.04726700348967626 -0.083953662468493603 0 0.046849628950848092 -0.086608291459453549 0 0.047978991849452229 -0.086715195080448698 0 0.04726700348967626 -0.083953662468493603 0 0.049952019998928253 -0.082100574286848582 0 0.045525328481399875 -0.07886750030241807 0 0.04726700348967626 -0.083953662468493603 0 0.049952019998928253 -0.082100574286848582 0 0.050032554256533406 -0.074585619299363151 0 0.045525328481399875 -0.07886750030241807 0 0.045525328481399875 -0.07886750030241807 0 0.050032554256533406 -0.074585619299363151 0 0.042340924796814616 -0.06882397005796001 0 0.045525328481399875 -0.07886750030241807 0 0.042340924796814616 -0.06882397005796001 0 0.040363006953582407 -0.074620999581608505 0 0.050032554256533406 -0.074585619299363151 0 0.047707761101461833 -0.063334731377116302 0 0.042340924796814616 -0.06882397005796001 0 0.0099476012265240828 -0.045756684249306664 0 0.011968847433807852 -0.067064504113153012 0 0.015373295894014228 -0.060884019972437711 0 0.0036483765446301943 -0.045823470521099648 0 0.011968847433807852 -0.067064504113153012 0 0.0099476012265240828 -0.045756684249306664 0 0.0036483765446301943 -0.045823470521099648 0 0.0099476012265240828 -0.045756684249306664 0 0.0035775211451020287 -0.028070989340784828 0 0.0063876486287903055 -0.023114897220086278 0 0.0099476012265240828 -0.045756684249306664 0 0.014180627175175436 -0.046402349828023826 0 0.014180627175175436 -0.046402349828023826 0 0.019632110603649295 -0.051206975341935641 0 0.012480757797844206 -0.031248848674745422 0 0.024787252330810042 -0.065140337095946257 0 0.019632110603649295 -0.051206975341935641 0 0.019344230156169376 -0.061415966978942825 0 0.019344230156169376 -0.061415966978942825 0 0.019632110603649295 -0.051206975341935641 0 0.014180627175175436 -0.046402349828023826 0 0.0099476012265240828 -0.045756684249306664 0 0.015373295894014229 -0.060884019972437711 0 0.014180627175175436 -0.046402349828023826 0 0.015373295894014228 -0.060884019972437711 0 0.019344230156169376 -0.061415966978942825 0 0.014180627175175436 -0.046402349828023826 0 0.019734596782394774 -0.072346745433666801 0 0.019344230156169376 -0.061415966978942825 0 0.015373295894014228 -0.060884019972437711 0 0.019734596782394774 -0.072346745433666801 0 0.015373295894014228 -0.060884019972437711 0 0.01643592338078436 -0.07367746572792995 0 0.024787252330810042 -0.065140337095946257 0 0.019344230156169376 -0.061415966978942825 0 0.023878984740497159 -0.071988760603558813 0 0.023878984740497159 -0.071988760603558813 0 0.019344230156169373 -0.061415966978942825 0 0.019734596782394774 -0.072346745433666801 0 0.023878984740497159 -0.071988760603558813 0 0.025803931569658992 -0.080748397393799853 0 0.027940931560107799 -0.080097189474097566 0 0.028505126937586632 -0.075175644393848967 0 0.023878984740497159 -0.071988760603558813 0 0.027940931560107799 -0.080097189474097566 0 0.023878984740497159 -0.071988760603558813 0 0.019734596782394774 -0.072346745433666801 0 0.023321285182357737 -0.077815598319772167 0 0.023878984740497159 -0.071988760603558813 0 0.023321285182357737 -0.077815598319772167 0 0.025803931569658992 -0.080748397393799839 0 0.023321285182357737 -0.077815598319772167 0 0.025587759741857993 -0.085728668194218857 0 0.025803931569658992 -0.080748397393799839 0 0.023214187969909809 -0.085674561203479743 0 0.025587759741857993 -0.085728668194218857 0 0.023321285182357737 -0.077815598319772167 0 0.025587759741857993 -0.085728668194218857 0 0.028035309508736485 -0.085789014405642364 0 0.025803931569658992 -0.080748397393799839 0 0.028035309508736485 -0.085789014405642364 0 0.030537814434102396 -0.085859470186713763 0 0.027940931560107799 -0.080097189474097566 0 0.025803931569658992 -0.080748397393799839 0 0.028035309508736485 -0.085789014405642364 0 0.027940931560107799 -0.080097189474097566 0 0.019734596782394774 -0.072346745433666801 0 0.019018610549422586 -0.079521872098904642 0 0.021235473225667215 -0.080177813476555782 0 0.019734596782394774 -0.072346745433666801 0 0.01643592338078436 -0.07367746572792995 0 0.019018610549422586 -0.079521872098904642 0 0.023321285182357737 -0.077815598319772167 0 0.019734596782394771 -0.072346745433666787 0 0.021235473225667215 -0.080177813476555782 0 0.023214187969909809 -0.085674561203479743 0 0.023321285182357734 -0.077815598319772153 0 0.021235473225667215 -0.080177813476555782 0 0.020928378471969322 -0.08563142422588034 0 0.023214187969909809 -0.085674561203479743 0 0.021235473225667215 -0.080177813476555782 0 0.019018610549422586 -0.079521872098904642 0 0.020928378471969322 -0.08563142422588034 0 0.021235473225667215 -0.080177813476555782 0 0.01874747335310778 -0.08559914254854778 0 0.020928378471969322 -0.08563142422588034 0 0.019018610549422586 -0.079521872098904642 0 0.016695580188629808 -0.08557804220700399 0 0.01874747335310778 -0.08559914254854778 0 0.017166378468797067 -0.080592574627913485 0 0.01874747335310778 -0.08559914254854778 0 0.019018610549422586 -0.079521872098904642 0 0.017166378468797067 -0.080592574627913485 0 0.014807979783071221 -0.085578210953046685 0 0.016695580188629808 -0.08557804220700399 0 0.015002791356504435 -0.078634879253923734 0 0.015002791356504435 -0.078634879253923734 0 0.016695580188629808 -0.08557804220700399 0 0.017166378468797067 -0.080592574627913485 0 0.01643592338078436 -0.07367746572792995 0 0.011968847433807852 -0.067064504113153012 0 0.015002791356504435 -0.078634879253923734 0 0.01643592338078436 -0.07367746572792995 0 0.015002791356504435 -0.07863487925392372 0 0.017166378468797067 -0.080592574627913485 0 0.019018610549422586 -0.079521872098904642 0 0.01643592338078436 -0.07367746572792995 0 0.017166378468797067 -0.080592574627913485 0 0.015373295894014228 -0.060884019972437711 0 0.011968847433807852 -0.067064504113153012 0 0.01643592338078436 -0.07367746572792995 0 0.0036483765446301943 -0.045823470521099648 0 0.0049250332101112761 -0.065032085030613238 0 0.011968847433807852 -0.067064504113153012 0 0.0049250332101112753 -0.065032085030613238 0 0.010429146378022324 -0.076887814105948304 0 0.011968847433807852 -0.067064504113153012 0 0.011968847433807852 -0.067064504113153012 0 0.010429146378022324 -0.076887814105948304 0 0.01311214678184857 -0.078768331074823325 0 0.015002791356504435 -0.078634879253923734 0 0.011968847433807852 -0.067064504113153012 0 0.01311214678184857 -0.078768331074823325 0 0.014807979783071221 -0.085578210953046685 0 0.015002791356504435 -0.078634879253923734 0 0.01311214678184857 -0.078768331074823325 0 0.013144862227899196 -0.085579462016024371 0 0.014807979783071221 -0.085578210953046685 0 0.01311214678184857 -0.078768331074823325 0 0.010429146378022324 -0.076887814105948304 0 0.013144862227899196 -0.085579462016024371 0 0.01311214678184857 -0.078768331074823325 0 0.012070810101006043 -0.085838792291184449 0 0.013144862227899196 -0.085579462016024371 0 0.010429146378022324 -0.076887814105948304 0 0.013516268342190737 -0.09204115117210529 0 0.013150286400740868 -0.086161047723529741 0 0.011310213235836149 -0.09164259456823573 0 0.013150286400740868 -0.086161047723529741 0 0.012070810101006043 -0.085838792291184449 0 0.011310213235836149 -0.09164259456823573 0 0.013133585638260182 -0.085868478798682424 0 0.012088749128279983 -0.085848623712946784 0 0.014812672695080376 -0.086208133856582242 0 0.013150286400740868 -0.086161047723529741 0 0.013516268342190737 -0.09204115117210529 0 0.014814806322753922 -0.085895350265320872 0 0.013133585638260182 -0.085868478798682424 0 0.015632129154485686 -0.090899612295360546 0 0.014812672695080376 -0.086208133856582242 0 0.013516268342190737 -0.09204115117210529 0 0.010348679799547371 -0.10044238190483763 0 0.015451117632893025 -0.099239389801932226 0 0.013516268342190737 -0.09204115117210529 0 0.0045793843509345416 -0.096080324900101641 0 0.010348679799547371 -0.10044238190483763 0 0.011310213235836149 -0.09164259456823573 0 0.010348679799547371 -0.10044238190483763 0 0.013516268342190737 -0.09204115117210529 0 0.011310213235836149 -0.09164259456823573 0 0.011281729533700258 -0.11234192485698141 0 0.010348679799547371 -0.10044238190483763 0 0.0035236699136360762 -0.11126651078175873 0 0.011281729533700258 -0.11234192485698141 0 0.015451117632893025 -0.099239389801932226 0 0.010348679799547371 -0.10044238190483763 0 0.018167931873834028 -0.11191031113103146 0 0.015451117632893025 -0.099239389801932226 0 0.011281729533700258 -0.11234192485698141 0 0.018167931873834028 -0.11191031113103146 0 0.020524077111931945 -0.098863380863127695 0 0.015451117632893025 -0.099239389801932226 0 0.015451117632893025 -0.099239389801932226 0 0.020524077111931945 -0.098863380863127709 0 0.017867651923994993 -0.092033405337137011 0 0.020524077111931945 -0.098863380863127695 0 0.020092399871339612 -0.090976269278784688 0 0.017867651923994993 -0.092033405337137011 0 0.015451117632893025 -0.099239389801932226 0 0.015632129154485686 -0.090899612295360546 0 0.013516268342190737 -0.09204115117210529 0 0.015451117632893025 -0.099239389801932226 0 0.017867651923994993 -0.092033405337137011 0 0.015632129154485686 -0.090899612295360546 0 0.017867651923994993 -0.092033405337137011 0 0.01670320074560212 -0.086281822346864739 0 0.015632129154485686 -0.090899612295360546 0 0.01670320074560212 -0.086281822346864739 0 0.014812672695080376 -0.086208133856582242 0 0.015632129154485686 -0.090899612295360546 0 0.016698032975442072 -0.08593080508665546 0 0.014814806322753922 -0.085895350265320872 0 0.020092399871339612 -0.090976269278784688 0 0.018756505551464117 -0.086348447729420311 0 0.017867651923994993 -0.092033405337137011 0 0.018752427384144094 -0.085974891097419223 0 0.016698032975442072 -0.08593080508665546 0 0.018756505551464117 -0.086348447729420311 0 0.01670320074560212 -0.086281822346864739 0 0.017867651923994993 -0.092033405337137011 0 0.020939037220296098 -0.08641954125132971 0 0.018756505551464117 -0.086348447729420311 0 0.020092399871339612 -0.090976269278784688 0 0.020933632755865884 -0.08602645349447112 0 0.018752427384144094 -0.085974891097419223 0 0.022589817932814719 -0.092086442205067925 0 0.020939037220296098 -0.08641954125132971 0 0.020092399871339612 -0.090976269278784688 0 0.023226667810116872 -0.086494342422674814 0 0.020939037220296098 -0.08641954125132971 0 0.022589817932814719 -0.092086442205067925 0 0.023220524267507439 -0.086085513850744172 0 0.020933632755865884 -0.08602645349447112 0 0.024918946594462546 -0.090996563735432787 0 0.023226667810116872 -0.086494342422674814 0 0.022589817932814719 -0.092086442205067925 0 0.025886244862551762 -0.098902165592032437 0 0.024918946594462546 -0.090996563735432787 0 0.022589817932814719 -0.092086442205067925 0 0.020524077111931945 -0.098863380863127695 0 0.025886244862551758 -0.098902165592032423 0 0.022589817932814719 -0.092086442205067925 0 0.020524077111931945 -0.098863380863127695 0 0.022589817932814719 -0.092086442205067925 0 0.020092399871339612 -0.090976269278784688 0 0.028050769995700386 -0.086655909918225221 0 0.027506987766952977 -0.091748165028641318 0 0.030108278304474552 -0.090922621404973536 0 0.028050769995700386 -0.086655909918225221 0 0.025601900053808229 -0.086573889463152018 0 0.027506987766952977 -0.091748165028641318 0 0.028043073213749544 -0.086223303097628573 0 0.02559492590437833 -0.086151786652042803 0 0.025601900053808229 -0.086573889463152018 0 0.024918946594462546 -0.090996563735432801 0 0.027506987766952977 -0.091748165028641318 0 0.025601900053808229 -0.086573889463152018 0 0.023226667810116872 -0.086494342422674814 0 0.024918946594462546 -0.090996563735432787 0 0.02559492590437833 -0.086151786652042803 0 0.023220524267507439 -0.086085513850744172 0 0.024918946594462546 -0.090996563735432787 0 0.025886244862551762 -0.098902165592032437 0 0.027506987766952977 -0.091748165028641318 0 0.027506987766952977 -0.091748165028641318 0 0.031528076284894478 -0.097928477600367159 0 0.030108278304474552 -0.090922621404973536 0 0.025886244862551762 -0.098902165592032437 0 0.031528076284894478 -0.097928477600367173 0 0.027506987766952977 -0.091748165028641318 0 0.030065076323554603 -0.11049435662216166 0 0.031528076284894478 -0.097928477600367159 0 0.025886244862551762 -0.098902165592032437 0 0.030065076323554603 -0.11049435662216166 0 0.025886244862551762 -0.098902165592032437 0 0.024174575610763964 -0.10887397201348327 0 0.024174575610763964 -0.10887397201348327 0 0.020524077111931945 -0.098863380863127695 0 0.018167931873834028 -0.11191031113103146 0 0.024174575610763964 -0.10887397201348327 0 0.025886244862551762 -0.098902165592032437 0 0.020524077111931945 -0.098863380863127695 0 0.026288189101228928 -0.12507302181162983 0 0.024174575610763964 -0.10887397201348327 0 0.018167931873834028 -0.11191031113103146 0 0.030065076323554603 -0.11049435662216166 0 0.026288189101228928 -0.12507302181162983 0 0.036634552172841062 -0.12870681694635064 0 0.026288189101228928 -0.12507302181162983 0 0.030065076323554603 -0.11049435662216166 0 0.024174575610763964 -0.10887397201348327 0 0.036634552172841062 -0.12870681694635064 0 0.026288189101228928 -0.12507302181162983 0 0.028840723981720811 -0.15633440336846569 0 0.026288189101228928 -0.12507302181162983 0 0.014254413855568885 -0.13296700065303829 0 0.028840723981720811 -0.15633440336846569 0 0.014254413855568885 -0.13296700065303829 0 0.0044890666801703626 -0.1270530172425513 0 0.0022104932215721764 -0.15714096562609406 0 0.011281729533700258 -0.11234192485698141 0 0.0044890666801703626 -0.1270530172425513 0 0.014254413855568885 -0.13296700065303829 0 0.0044890666801703626 -0.1270530172425513 0 0.011281729533700258 -0.11234192485698141 0 0.0035236699136360762 -0.11126651078175873 0 0.018167931873834028 -0.11191031113103146 0 0.011281729533700258 -0.11234192485698141 0 0.014254413855568885 -0.13296700065303829 0 0.026288189101228928 -0.12507302181162983 0 0.018167931873834028 -0.11191031113103146 0 0.014254413855568885 -0.13296700065303829 0 0.073181318735702577 -0.12164144144012697 0 0.065030803551754141 -0.10664572041840593 0 0.057610696492238378 -0.11016583947962341 0 0.057610696492238378 -0.11016583947962341 0 0.055340993427238382 -0.099247848126209987 0 0.050611977097755889 -0.098920363146871346 0 0.065030803551754141 -0.10664572041840593 0 0.055340993427238382 -0.099247848126209987 0 0.057610696492238378 -0.11016583947962341 0 0.065030803551754141 -0.10664572041840593 0 0.057035693717243957 -0.095862598093191337 0 0.055340993427238382 -0.099247848126209987 0 0.055340993427238382 -0.099247848126209987 0 0.057035693717243957 -0.095862598093191337 0 0.051085091779252662 -0.091696847544792195 0 0.057035693717243957 -0.095862598093191337 0 0.048013395665054921 -0.087111570357547963 0 0.051085091779252662 -0.091696847544792195 0 0.048013395665054921 -0.087111570357547963 0 0.046869146188135168 -0.087088691905016016 0 0.051085091779252662 -0.091696847544792195 0 0.04797225564224572 -0.086894454252980285 0 0.046860430600705889 -0.086848471120208645 0 0.046860430600705889 -0.086848471120208645 0 0.045162660709812397 -0.086787549026735508 0 0.046869146188135168 -0.087088691905016016 0 0.045173299636156024 -0.087130684406164824 0 0.04924215244464631 -0.092019874694820147 0 0.046869146188135168 -0.087088691905016016 0 0.04924215244464631 -0.092019874694820147 0 0.051085091779252662 -0.091696847544792195 0 0.045173299636156024 -0.087130684406164824 0 0.046376143939785015 -0.09111866665040208 0 0.04924215244464631 -0.092019874694820147 0 0.055340993427238382 -0.099247848126209987 0 0.04924215244464631 -0.092019874694820147 0 0.050611977097755889 -0.098920363146871346 0 0.04924215244464631 -0.092019874694820147 0 0.055340993427238382 -0.099247848126209987 0 0.051085091779252662 -0.091696847544792195 0 0.04924215244464631 -0.092019874694820147 0 0.046376143939785015 -0.09111866665040208 0 0.050611977097755889 -0.098920363146871346 0 0.044135008772888694 -0.092691128279259447 0 0.047706650340722134 -0.10273449125080582 0 0.050611977097755889 -0.098920363146871346 0 0.046376143939785015 -0.09111866665040208 0 0.044135008772888694 -0.092691128279259447 0 0.050611977097755889 -0.098920363146871346 0 0.046376143939785015 -0.09111866665040208 0 0.043049497675120361 -0.087107124375028433 0 0.044135008772888694 -0.092691128279259447 0 0.045162660709812397 -0.086787549026735508 0 0.043038843668634065 -0.08671358482726188 0 0.045173299636156024 -0.087130684406164824 0 0.043049497675120361 -0.087107124375028433 0 0.046376143939785015 -0.09111866665040208 0 0.043049497675120361 -0.087107124375028433 0 0.040686666162730721 -0.087057107696319663 0 0.044135008772888694 -0.092691128279259447 0 0.043038843668634065 -0.08671358482726188 0 0.040676671195663788 -0.086632950778031334 0 0.044135008772888694 -0.092691128279259447 0 0.040686666162730721 -0.087057107696319663 0 0.040703412890824263 -0.090769282896616982 0 0.041687445789534448 -0.096492736540464433 0 0.047706650340722134 -0.10273449125080582 0 0.044135008772888694 -0.092691128279259447 0 0.047706650340722134 -0.10273449125080582 0 0.057610696492238378 -0.11016583947962341 0 0.050611977097755889 -0.098920363146871346 0 0.051198237469357546 -0.1171536539116034 0 0.057610696492238378 -0.11016583947962341 0 0.047706650340722134 -0.10273449125080582 0 0.051198237469357546 -0.1171536539116034 0 0.047706650340722134 -0.10273449125080582 0 0.042874142323832493 -0.10590071940732453 0 0.051198237469357546 -0.1171536539116034 0 0.042874142323832493 -0.10590071940732453 0 0.043419566054235158 -0.11859996693085201 0 0.043419566054235158 -0.11859996693085201 0 0.042874142323832493 -0.10590071940732453 0 0.036536719407981075 -0.1083418263678753 0 0.03692624002480737 -0.097319917823391208 0 0.042874142323832493 -0.10590071940732453 0 0.041687445789534448 -0.096492736540464433 0 0.036536719407981075 -0.1083418263678753 0 0.042874142323832493 -0.10590071940732453 0 0.03692624002480737 -0.097319917823391208 0 0.042874142323832493 -0.10590071940732453 0 0.047706650340722134 -0.10273449125080582 0 0.041687445789534448 -0.096492736540464433 0 0.041687445789534448 -0.096492736540464433 0 0.044135008772888694 -0.092691128279259447 0 0.040703412890824263 -0.090769282896616982 0 0.038136223435765941 -0.091515721300167122 0 0.041687445789534448 -0.096492736540464433 0 0.040703412890824263 -0.090769282896616982 0 0.038203036741003921 -0.086988220523868745 0 0.038136223435765941 -0.091515721300167122 0 0.040703412890824263 -0.090769282896616982 0 0.040676671195663788 -0.086632950778031334 0 0.038193002445339685 -0.086550051486419408 0 0.040686666162730721 -0.087057107696319663 0 0.038203036741003921 -0.086988220523868745 0 0.040703412890824263 -0.090769282896616982 0 0.038136223435765941 -0.091515721300167122 0 0.035658725770473555 -0.086909756929838614 0 0.03535306131370964 -0.090814774715340787 0 0.038193002445339685 -0.086550051486419408 0 0.035649170741159565 -0.086464598761983841 0 0.038203036741003921 -0.086988220523868745 0 0.035658725770473555 -0.086909756929838614 0 0.038136223435765941 -0.091515721300167122 0 0.03692624002480737 -0.097319917823391208 0 0.038136223435765941 -0.091515721300167122 0 0.03535306131370964 -0.090814774715340787 0 0.03692624002480737 -0.097319917823391208 0 0.041687445789534448 -0.096492736540464419 0 0.038136223435765941 -0.091515721300167122 0 0.032952808581531816 -0.091881616504688526 0 0.03692624002480737 -0.097319917823391194 0 0.03535306131370964 -0.090814774715340787 0 0.031528076284894478 -0.097928477600367159 0 0.03692624002480737 -0.097319917823391208 0 0.032952808581531816 -0.091881616504688526 0 0.033097196386164401 -0.086825516749934412 0 0.032952808581531816 -0.091881616504688526 0 0.03535306131370964 -0.090814774715340787 0 0.035649170741159565 -0.086464598761983841 0 0.033088144484182139 -0.086380702502522139 0 0.035658725770473555 -0.086909756929838614 0 0.033097196386164401 -0.086825516749934412 0 0.03535306131370964 -0.090814774715340787 0 0.0305463708689813 -0.086300182133292505 0 0.028043073213749544 -0.086223303097628573 0 0.030554760144601269 -0.086740342472478221 0 0.028050769995700386 -0.086655909918225221 0 0.030108278304474552 -0.090922621404973536 0 0.033097196386164401 -0.086825516749934412 0 0.030554760144601269 -0.086740342472478221 0 0.032952808581531816 -0.091881616504688526 0 0.033088144484182139 -0.086380702502522139 0 0.0305463708689813 -0.086300182133292505 0 0.032952808581531816 -0.091881616504688526 0 0.030554760144601269 -0.086740342472478221 0 0.030108278304474552 -0.090922621404973536 0 0.031528076284894478 -0.097928477600367159 0 0.032952808581531816 -0.091881616504688526 0 0.030108278304474552 -0.090922621404973536 0 0.036536719407981075 -0.1083418263678753 0 0.031528076284894478 -0.097928477600367159 0 0.030065076323554603 -0.11049435662216166 0 0.036536719407981075 -0.1083418263678753 0 0.03692624002480737 -0.097319917823391208 0 0.031528076284894478 -0.097928477600367159 0 0.036634552172841062 -0.12870681694635064 0 0.046039245368054545 -0.1639212481073124 0 0.050999980887191057 -0.1364311836446338 0 0.036536719407981075 -0.1083418263678753 0 0.030065076323554603 -0.11049435662216166 0 0.036634552172841062 -0.12870681694635064 0 0.043419566054235158 -0.11859996693085201 0 0.036536719407981075 -0.1083418263678753 0 0.036634552172841062 -0.12870681694635064 0 0.051198237469357546 -0.1171536539116034 0 0.043419566054235158 -0.11859996693085201 0 0.050999980887191057 -0.1364311836446338 0 0.043419566054235158 -0.11859996693085201 0 0.036634552172841062 -0.12870681694635064 0 0.050999980887191057 -0.1364311836446338 0 0.063171597532217807 -0.13047007002773481 0 0.051198237469357546 -0.1171536539116034 0 0.050999980887191057 -0.1364311836446338 0 0.063171597532217807 -0.13047007002773481 0 0.057610696492238378 -0.11016583947962341 0 0.051198237469357546 -0.1171536539116034 0 0.06519740337196353 -0.1573518391474289 0 0.063171597532217807 -0.13047007002773481 0 0.050999980887191057 -0.1364311836446338 0 0.081443887827453765 -0.14348340800433645 0 0.063171597532217807 -0.13047007002773481 0 0.06519740337196353 -0.1573518391474289 0 0.063171597532217807 -0.13047007002773481 0 0.073181318735702577 -0.12164144144012697 0 0.057610696492238378 -0.11016583947962341 0 0.081443887827453765 -0.14348340800433645 0 0.073181318735702577 -0.12164144144012697 0 0.063171597532217807 -0.13047007002773481 0 0.036823309229430848 -0.21688033265689918 0 0.090736228530356358 -0.22292362956756978 0 0.064259912428011753 -0.18984726104484209 0 0.088574546185030176 -0.17501240547639085 0 0.081443887827453765 -0.14348340800433645 0 0.06519740337196353 -0.1573518391474289 0 0.088574546185030176 -0.17501240547639085 0 0.06519740337196353 -0.1573518391474289 0 0.064259912428011753 -0.18984726104484209 0 0.046039245368054545 -0.1639212481073124 0 0.036634552172841062 -0.12870681694635064 0 0.028840723981720811 -0.15633440336846569 0 0.036823309229430848 -0.21688033265689918 0 0.046039245368054531 -0.1639212481073124 0 0.028840723981720811 -0.15633440336846569 0 0.06519740337196353 -0.1573518391474289 0 0.046039245368054545 -0.1639212481073124 0 0.064259912428011753 -0.18984726104484209 0 0.046039245368054545 -0.1639212481073124 0 0.06519740337196353 -0.1573518391474289 0 0.050999980887191057 -0.1364311836446338 0 0.046039245368054545 -0.1639212481073124 0 0.036823309229430855 -0.21688033265689918 0 0.064259912428011753 -0.18984726104484209 0 0.090736228530356358 -0.22292362956756978 0 0.088574546185030176 -0.17501240547639085 0 0.064259912428011753 -0.18984726104484209 0 0.002322256331751931 -0.21605231553969353 0 0.036823309229430848 -0.21688033265689918 0 0.015764975154038276 -0.17402448878001697 0 0.015764975154038276 -0.17402448878001697 0 0.014254413855568885 -0.13296700065303829 0 0.0022104932215721764 -0.15714096562609406 0 0.002322256331751931 -0.21605231553969353 0 0.015764975154038276 -0.17402448878001697 0 0.0022104932215721764 -0.15714096562609406 0 0.014254413855568885 -0.13296700065303829 0 0.015764975154038276 -0.17402448878001697 0 0.028840723981720811 -0.15633440336846569 0 0.015764975154038276 -0.17402448878001697 0 0.036823309229430848 -0.21688033265689918 0 0.028840723981720811 -0.15633440336846569 0 -0.017826322408865471 -0.16549882601438851 0 0.0023222563317519336 -0.21605231553969353 0 0.0022104932215721764 -0.15714096562609406 0 -0.038087693416696947 -0.22318569786346018 0 -0.017826322408865471 -0.16549882601438851 0 -0.051090022342767855 -0.16577954453108279 0 -0.038087693416696947 -0.22318569786346018 0 0.002322256331751931 -0.21605231553969353 0 -0.017826322408865471 -0.16549882601438851 0 -0.091839067711778785 -0.15390520406122957 0 -0.098063462355415687 -0.2289946309565421 0 -0.051090022342767855 -0.16577954453108279 0 -0.098063462355415687 -0.2289946309565421 0 -0.038087693416696947 -0.22318569786346018 0 -0.051090022342767855 -0.16577954453108279 0 -0.072169719549597056 -0.090304489764189588 0 -0.091839067711778785 -0.15390520406122957 0 -0.052285267144797941 -0.11848192144900441 0 -0.052285267144797941 -0.11848192144900441 0 -0.051090022342767855 -0.16577954453108279 0 -0.023570378083859436 -0.11568544169788494 0 -0.052285267144797941 -0.11848192144900441 0 -0.091839067711778785 -0.15390520406122957 0 -0.051090022342767855 -0.16577954453108279 0 -0.072169719549597056 -0.090304489764189588 0 -0.052285267144797941 -0.11848192144900441 0 -0.033033596792684243 -0.086346193316882314 0 -0.052285267144797941 -0.11848192144900441 0 -0.023570378083859436 -0.11568544169788494 0 -0.033033596792684243 -0.086346193316882314 0 -0.023570378083859436 -0.11568544169788494 0 -0.01556562146226708 -0.08434180899411256 0 -0.033033596792684243 -0.086346193316882314 0 -0.0074747539786386933 -0.097700418401237762 0 -0.015565621462267079 -0.08434180899411256 0 -0.023570378083859436 -0.11568544169788494 0 -0.0067977262301786492 -0.12757057328522445 0 -0.0074747539786386942 -0.097700418401237762 0 -0.023570378083859436 -0.11568544169788494 0 0.0013939991992686052 -0.08529009433350801 0 -0.0033903317791624571 -0.073840488682461375 0 -0.0074747539786386933 -0.097700418401237762 0 0.0045793843509345416 -0.096080324900101641 0 0.0013939991992686052 -0.08529009433350801 0 -0.0074747539786386933 -0.097700418401237762 0 0.0045793843509345416 -0.096080324900101641 0 0.012070810101006043 -0.085838792291184449 0 0.0013939991992686052 -0.08529009433350801 0 0.012070810101006043 -0.085838792291184449 0 0.0045793843509345416 -0.096080324900101641 0 0.011310213235836149 -0.09164259456823573 0 0.0035236699136360762 -0.11126651078175873 0 0.0045793843509345424 -0.096080324900101641 0 -0.0074747539786386933 -0.097700418401237762 0 0.0035236699136360762 -0.11126651078175873 0 0.010348679799547371 -0.10044238190483762 0 0.0045793843509345416 -0.096080324900101641 0 -0.0067977262301786492 -0.12757057328522445 0 0.0035236699136360762 -0.11126651078175873 0 -0.0074747539786386933 -0.097700418401237762 0 -0.0067977262301786492 -0.12757057328522445 0 -0.017826322408865471 -0.16549882601438851 0 0.0022104932215721764 -0.15714096562609406 0 0.0044890666801703626 -0.1270530172425513 0 0.0035236699136360762 -0.11126651078175873 0 -0.0067977262301786492 -0.12757057328522445 0 0.0044890666801703626 -0.1270530172425513 0 -0.0067977262301786492 -0.12757057328522445 0 0.0022104932215721764 -0.15714096562609406 0 -0.051090022342767855 -0.16577954453108279 0 -0.017826322408865471 -0.16549882601438851 0 -0.023570378083859436 -0.11568544169788494 0 -0.017826322408865471 -0.16549882601438851 0 -0.0067977262301786492 -0.12757057328522445 0 -0.023570378083859436 -0.11568544169788494 0 
</DataArray>
</PointData>
<CellData Scalars="region_id," Vectors="" Tensors="stress,">
<DataArray type="Float64" Name="region_id" format="ascii">
1 1 1 1 1 1 1 1 1 1 1 1 1 1 1 1 1 1 1 1 1 1 1 1 1 1 1 1 1 1 1 1 1 1 1 1 1 1 1 1 1 1 1 1 1 1 1 1 1 1 1 1 1 1 1 1 1 1 1 1 1 1 1 1 1 1 1 1 1 1 1 1 1 1 1 1 1 1 1 1 1 1 1 1 1 1 1 1 1 1 1 1 1 1 1 1 1 1 1 1 1 1 1 1 1 1 1 1 1 1 1 1 1 1 1 1 1 1 1 1 1 1 1 1 1 1 1 1 1 1 1 1 1 1 1 1 1 1 1 1 1 6 1 6 1 1 1 1 1 1 1 1 1 1 1 1 1 1 6 1 6 1 1 6 1 1 6 1 1 1 1 1 1 6 1 1 6 1 1 1 1 1 1 1 1 1 1 1 1 1 1 1 1 1 1 1 1 1 1 1 1 6 6 1 1 1 1 1 1 1 1 1 6 1 1 6 1 1 1 1 1 1 1 1 1 1 1 1 1 6 1 1 6 1 1 1 1 1 1 6 1 6 1 1 6 1 1 1 1 1 1 1 1 1 1 1 1 1 1 1 1 1 1 1 1 1 1 1 1 1 1 1 1 1 1 1 1 1 1 1 1 1 1 1 1 1 1 1 1 1 1 1 1 1 1 1 1 1 1 
</DataArray>
<DataArray type="Float64" Name="stress" NumberOfComponents="9" format="ascii">
-0.078710089794712904 -0.045595157583304881 0 -0.045595157583304881 -0.026185010359175611 0 0 0 -0.02622377503847213 -0.18463088172953954 -0.030917712291617692 0 -0.030917712291617692 -0.017914601634228214 0 0 0 -0.050636370840941941 -0.12892527691899408 -0.024035552392442979 0 -0.024035552392442979 0.00017824900605845073 0 0 0 -0.032186756978233921 -0.0735859288425285 -0.029467070637261242 0 -0.029467070637261242 0.011980316703097446 0 0 0 -0.015401403034857777 -0.071664535631163942 -0.018172415998927938 0 -0.018172415998927938 -0.0051052490973751974 0 0 0 -0.019192446182134781 -0.059804680021207215 -0.041419265094839064 0 -0.041419265094839064 -0.00073084143285578884 0 0 0 -0.015133880363515748 -0.010382717846283696 -0.042552579170237137 0 -0.042552579170237137 -0.0038288781150890294 0 0 0 -0.0035528989903432229 -0.0083343406486089677 -0.042717142424656684 0 -0.042717142424656684 0.0022898663513692408 0 0 0 -0.0015111185743099387 0.031494420924585445 -0.034603098587541847 0 -0.034603098587541847 0.0095183553214461258 0 0 0 0.010253194061507834 0.022166941405878549 -0.042096921968288958 0 -0.042096921968288958 -0.014148878891097325 0 0 0 0.002004515628695136 0.044735250462972734 -0.018766542836025413 0 -0.018766542836025413 0.0055528932669742584 0 0 0 0.012572035932486857 0.10974507575856318 -0.050294367879539337 0 -0.050294367879539337 0.013814036781302441 0 0 0 0.030889778134966406 -0.011397139963777891 -0.04154042906608113 0 -0.04154042906608113 0.00013649346151223263 0 0 0 -0.0028151616255663869 -0.015078089989957522 -0.044620163562697324 0 -0.044620163562697324 0.00020855825962362573 0 0 0 -0.0037173829325835017 -0.029012307126442705 -0.042852180071784096 0 -0.042852180071784096 0.0011788382803968878 0 0 0 -0.0069583672115114126 -0.031911758547948144 -0.037341104170790965 0 -0.037341104170790965 -0.0031424899862791955 0 0 0 -0.0087635621335568348 -0.034376851101438059 -0.038232218289499423 0 -0.038232218289499423 -0.00013725064536851406 0 0 0 -0.008628525436701652 -0.033529387290325091 -0.037342144610935796 0 -0.037342144610935796 0.00090002265457492237 0 0 0 -0.0081573411589375422 -0.083642512098001873 -0.036672653751473112 0 -0.036672653751473112 -0.0088129668157678198 0 0 0 -0.023113869728442427 -0.014836992976175162 -0.036210686489593143 0 -0.036210686489593143 -0.012692766049094639 0 0 0 -0.0068824397563174433 -0.0081400594467740117 -0.047564530565772978 0 -0.047564530565772978 -0.0034023144025199514 0 0 0 -0.0028855934623234769 0.028066038384129244 -0.044016948152635002 0 -0.044016948152635002 -0.0007310758165284259 0 0 0 0.0068337406419001767 -0.018177322064458521 -0.044223701702576418 0 -0.044223701702576418 -0.0060759073577668537 0 0 0 -0.0060633073555563443 0.0060899590488509847 -0.03018664120462921 0 -0.03018664120462921 -0.021689306598746183 0 0 0 -0.0038998368874738065 0.014022476948716972 -0.051374831083342051 0 -0.051374831083342051 0.0026962298476083113 0 0 0 0.0041796766990813417 -0.025669243564047504 -0.046271669576003954 0 -0.046271669576003954 -0.007193352750655517 0 0 0 -0.0082156490786757571 -0.068044542487396914 -0.024635981558615586 0 -0.024635981558615586 -0.018655317819138928 0 0 0 -0.02167496507663396 0.041533470646997389 -0.050105976853639281 0 -0.050105976853639281 0.013857058251112537 0 0 0 0.01384763222452748 0.061203959533284544 -0.041634368454598406 0 -0.041634368454598406 -0.0021717907251756485 0 0 0 0.014758042202027227 0.054355535564078516 -0.0555599455702111 0 -0.0555599455702111 0.013232163848204026 0 0 0 0.01689692485307065 0.039213283773232174 -0.054565986409831319 0 -0.054565986409831319 -0.0069924242739198839 0 0 0 0.0080552148748280622 0.016311502961555965 -0.037888420511948934 0 -0.037888420511948934 0.0049065929422798527 0 0 0 0.0053045239759589441 0.11791970539022396 -0.05145078981128532 0 -0.05145078981128532 0.039247065442426551 0 0 0 0.039291692708162629 0.1945211110775377 -0.039076912250084403 0 -0.039076912250084403 0.022547852299158247 0 0 0 0.054267240844173982 0.078292382269228716 -0.046632898218898058 0 -0.046632898218898058 0.033749030934718732 0 0 0 0.028010353300986862 0.089911287674014684 -0.037920722871826865 0 -0.037920722871826865 0.0014622326495716265 0 0 0 0.022843380080896564 0.070114108508339351 -0.041075293077771385 0 -0.041075293077771385 0.024739914277824848 0 0 0 0.023713505696541029 0.082330017645527526 -0.052897492179389397 0 -0.052897492179389397 -0.00341660986650133 0 0 0 0.019728351944756556 0.12377288691144811 -0.045220818267915748 0 -0.045220818267915748 0.011959265354076362 0 0 0 0.033933038066381122 0.10673098342316799 -0.023478388791912573 0 -0.023478388791912573 -0.002007787138252351 0 0 0 0.026180799071228902 0.12405491754802782 -0.016884324404581444 0 -0.016884324404581444 0.0045130830130233335 0 0 0 0.032142000140262805 0.07972863911029282 -0.014342146651148861 0 -0.014342146651148861 0.00078458383277868471 0 0 0 0.020128305735767904 0.058380953750098441 -0.013514621567647545 0 -0.013514621567647545 -0.00092089527136640648 0 0 0 0.014365014619683036 0.085846286612843936 -0.014046615973750148 0 -0.014046615973750148 -0.0022239099487609271 0 0 0 0.020905594166020752 0.093978204572287255 -0.033013049925771643 0 -0.033013049925771643 0.00014672429795954678 0 0 0 0.023531232217561669 0.067566399095477625 -0.0326507456116122 0 -0.0326507456116122 -0.0021638590707186989 0 0 0 0.016350635006189662 0.065470368982068566 -0.034427631704602391 0 -0.034427631704602391 -0.0081307246383627296 0 0 0 0.014334911085926438 0.078552118216058286 -0.041557296677246267 0 -0.041557296677246267 -0.0042192127169051186 0 0 0 0.018583226374788292 0.0737820414158189 -0.04276403329102077 0 -0.04276403329102077 -0.0019413228389519865 0 0 0 0.017960179644216701 0.071981456235837959 -0.042880613712629384 0 -0.042880613712629384 -0.0015446852392237975 0 0 0 0.017609192749153568 0.064336441010410972 -0.052978217796391384 0 -0.052978217796391384 -0.002863323940082263 0 0 0 0.015368279267582163 0.075790908300253659 -0.050126698747396253 0 -0.050126698747396253 -0.0024025355217665578 0 0 0 0.018347093194621814 0.062027833245058367 -0.050450684944051749 0 -0.050450684944051749 -0.0039964875993749871 0 0 0 0.014507836411420921 0.066228444194305014 -0.047648925061707412 0 -0.047648925061707412 0.00051331054151737554 0 0 0 0.016685438683955667 0.059197786557517368 -0.047977984751205183 0 -0.047977984751205183 0.0014750387832330736 0 0 0 0.01516820633518759 0.061536017301085821 -0.04955240931724475 0 -0.04955240931724475 0.005978314780594074 0 0 0 0.016878583020419891 0.059048187396569696 -0.047244645045425027 0 -0.047244645045425027 0.010200372253257761 0 0 0 0.017312139912457059 0.052411069209034711 -0.047932594418274022 0 -0.047932594418274022 0.0085976677678178959 0 0 0 0.015252184244213263 0.057210865861844769 -0.045159492195417927 0 -0.045159492195417927 0.016329575442281988 0 0 0 0.018385110326031632 0.060397942839959917 -0.041787607547035588 0 -0.041787607547035588 0.017091664237085968 0 0 0 0.019372401769261804 0.056447293669635412 -0.043966160429108503 0 -0.043966160429108503 0.0089463443200243908 0 0 0 0.016348409497414673 0.057787748837408115 -0.045900672808657506 0 -0.045900672808657506 0.0080111053235398799 0 0 0 0.016449713540237054 0.062488435817661392 -0.045206651494941033 0 -0.045206651494941033 0.0055383217868123502 0 0 0 0.017006689401118491 0.063422630506245747 -0.042309456033589266 0 -0.042309456033589266 0.0059285522109164823 0 0 0 0.017337795679290613 0.062135588127548207 -0.040477718566454768 0 -0.040477718566454768 -0.0023658711388813815 0 0 0 0.014942429247166652 0.060498132181827036 -0.038470022180587704 0 -0.038470022180587704 0.016734839429898677 0 0 0 0.019308242902931261 0.057005969896598785 -0.039820466669204024 0 -0.039820466669204024 0.0061000214914552764 0 0 0 0.015776497847013404 0.055841440616632987 -0.036833966599448931 0 -0.036833966599448931 0.0021702675905421742 0 0 0 0.014502927051794012 0.059801329629098794 -0.035127824738918623 0 -0.035127824738918623 0.01645736186986281 0 0 0 0.019064672874740233 0.062738832594364524 -0.038893461393778805 0 -0.038893461393778805 0.0055943197795849109 0 0 0 0.01708328809348747 0.063440459054059983 -0.040902341541257187 0 -0.040902341541257187 -0.0059649789585252133 0 0 0 0.014368870023883651 0.068150704085623459 -0.043497198433091078 0 -0.043497198433091078 -0.00037836051675754767 0 0 0 0.016943085892216381 0.053636995574038532 -0.031368656126743999 0 -0.031368656126743999 -0.0067403895608831865 0 0 0 0.011724151503288954 0.064954750846834775 -0.03999829383851547 0 -0.03999829383851547 -0.0026135480693205704 0 0 0 0.015585300694378579 0.060647325106074623 -0.037292798461544097 0 -0.037292798461544097 -0.00055564400022056759 0 0 0 0.015022920276463347 0.056462886843244769 -0.035077840417971906 0 -0.035077840417971906 -0.0053019565874104224 0 0 0 0.012790232563958642 0.054328634568705736 -0.032190820818680355 0 -0.032190820818680355 0.0026729669250600274 0 0 0 0.014250400373441607 0.056309601648300012 -0.033074951536340547 0 -0.033074951536340547 0.014674015975430166 0 0 0 0.017745904405932489 0.048624701349045063 -0.029404051190239033 0 -0.029404051190239033 -0.005328536721747934 0 0 0 0.010824041156824338 0.048201579917230633 -0.030108912430037993 0 -0.030108912430037993 0.011430777997395924 0 0 0 0.014908089478656638 0.051083713913250728 -0.036402444313844984 0 -0.036402444313844984 0.00024071490624333336 0 0 0 0.01283110720487346 0.02408012776916546 -0.030296982768920344 0 -0.030296982768920344 -0.0062916173885958493 0 0 0 0.0044471275951424305 0.045924925621418977 -0.029931582303447835 0 -0.029931582303447835 -0.0062968554269664523 0 0 0 0.0099070175486131729 0.021614014416209804 -0.03323556014007556 0 -0.03323556014007556 -0.0064846293669624799 0 0 0 0.0037823462623121085 0.037544368357152136 -0.023686942790099641 0 -0.023686942790099641 -0.0066266082391841508 0 0 0 0.0077294400294918297 0.004164887013637264 -0.019238379599535005 0 -0.019238379599535005 -0.01590648604075362 0 0 0 -0.0029353997567789225 0.02397755118209955 -0.030455192116160879 0 -0.030455192116160879 0.0022568479768011684 0 0 0 0.0065585997897254014 -0.066537053799247792 -0.019031673963355693 0 -0.019031673963355693 -0.0067568247185443298 0 0 0 -0.018323469629447642 -0.008137221334076683 -0.033822593926905897 0 -0.033822593926905897 -0.0065894450994496978 0 0 0 -0.0036816666083814287 0.0023004206395670357 -0.017141006590267294 0 -0.017141006590267294 0.0020464732404006369 0 0 0 0.0010867234699919459 -0.001693088914084484 -0.016366601489100019 0 -0.016366601489100019 0.00065479577213567453 0 0 0 -0.0002595732854873134 0.032273151358710228 -0.013912225814637302 0 -0.013912225814637302 -0.0011436448726812598 0 0 0 0.0077823766215072698 0.041917487480832349 -0.033423945175885816 0 -0.033423945175885816 -0.0024574495708016286 0 0 0 0.0098650094775076802 0.040254426764511964 -0.014882357516191207 0 -0.014882357516191207 0.00018984659286402916 0 0 0 0.010111068339343943 0.040405425834825148 -0.05873596829471904 0 -0.05873596829471904 0.0029106484898127061 0 0 0 0.010829018581159477 0.039459277942702153 -0.057228419482357712 0 -0.057228419482357712 -0.0046881502937350383 0 0 0 0.0086927819122417926 0.015083908570008474 -0.044403682468506261 0 -0.044403682468506261 -0.0098642525683524628 0 0 0 0.0013049140004140029 0.044882841123577905 -0.049262518192175267 0 -0.049262518192175267 -0.0024084389154527264 0 0 0 0.01061860055203126 0.063972576358798466 -0.052180002950232257 0 -0.052180002950232257 -0.0030343143035593267 0 0 0 0.015234565513809833 0.064914343372023287 -0.052444798437720375 0 -0.052444798437720375 0.0018057988276658499 0 0 0 0.016680035549922256 0.055300466403245652 -0.056258002655758699 0 -0.056258002655758699 -0.0030593043339929293 0 0 0 0.013060290517313167 0.046862248173796001 -0.06175219557929576 0 -0.06175219557929576 -0.0034126159615903706 0 0 0 0.010862408053051387 0.056497409702148942 -0.056017719224226992 0 -0.056017719224226992 0.002616137267453772 0 0 0 0.014778386742400776 0.047220506939523454 -0.05885051436912947 0 -0.05885051436912947 -0.0007165216098294902 0 0 0 0.011625996332423449 0.046445128762197585 -0.058654942451938641 0 -0.058654942451938641 0.0073733242419884437 0 0 0 0.013454613251046466 0.053925122562516206 -0.053223892438334586 0 -0.053223892438334586 -0.0011267546284571828 0 0 0 0.013199591983514794 0.055454098913019889 -0.054097465241583875 0 -0.054097465241583875 0.0063555948532125761 0 0 0 0.015452423441558061 0.053326411394250428 -0.050078517299853881 0 -0.050078517299853881 0.0097863862342655317 0 0 0 0.015778199407128879 0.054241291406738668 -0.04990716211285573 0 -0.04990716211285573 0.0041726210481173309 0 0 0 0.01460347811371393 0.049232718720781082 -0.054389220983361186 0 -0.054389220983361186 0.0042552867426643437 0 0 0 0.013372001365861336 0.052587568817930586 -0.052640954032657672 0 -0.052640954032657672 0.007908018386911575 0 0 0 0.01512389680121029 0.046103692414098285 -0.053889703580947024 0 -0.053889703580947024 0.0094804269724395596 0 0 0 0.013896029846634184 0.047155755561711976 -0.053771332438399821 0 -0.053771332438399821 0.013756304989765933 0 0 0 0.015228015137869477 0.050333463295836649 -0.051503693343151413 0 -0.051503693343151413 0.014589265164319454 0 0 0 0.016230682115039193 0.053181019407825159 -0.048338622387753993 0 -0.048338622387753993 0.015171810142419076 0 0 0 0.017088207387561002 0.049154187857455289 -0.050678896301499909 0 -0.050678896301499909 0.0082393922248042983 0 0 0 0.014348395020565174 0.045533823752792246 -0.058171622578669036 0 -0.058171622578669036 0.0095707419963426688 0 0 0 0.013776141437283673 0.041306316780581803 -0.060362673935348887 0 -0.060362673935348887 0.0050645104720243861 0 0 0 0.011592706813151582 0.04519597846679313 -0.056094615019778971 0 -0.056094615019778971 0.0090262031121550734 0 0 0 0.013555545394737023 0.043206854426303343 -0.05611068049789103 0 -0.05611068049789103 0.0085806185851859951 0 0 0 0.012946868252872168 0.044192746414454587 -0.056593170053667929 0 -0.056593170053667929 0.013166481083879958 0 0 0 0.014339806874583579 0.038910369003716028 -0.059513938048569415 0 -0.059513938048569415 0.0076796546492716722 0 0 0 0.011647505913247036 0.039562373656418015 -0.059675277963421758 0 -0.059675277963421758 0.01201670905421171 0 0 0 0.012894770677657543 0.038789771787452576 -0.062340267897600832 0 -0.062340267897600832 0.012164684875829668 0 0 0 0.012738614165820339 0.036865380457750119 -0.061224788338538727 0 -0.061224788338538727 0.0091857416513345669 0 0 0 0.011512780527271449 0.038581214715934009 -0.065395397096959185 0 -0.065395397096959185 0.012866524761793287 0 0 0 0.012861934869431768 0.036163810938775187 -0.063688785227677513 0 -0.063688785227677513 0.0096088958878013386 0 0 0 0.011443176706644076 0.040265850107589429 -0.064931127969117597 0 -0.064931127969117597 0.0063064311282916563 0 0 0 0.011643070308970382 0.039505161488897711 -0.063235501211016176 0 -0.063235501211016176 0.010085807636809996 0 0 0 0.012397742281426982 0.04040944507463573 -0.061181136734295594 0 -0.061181136734295594 0.010283133768958841 0 0 0 0.012673144710898532 0.0426558275157079 -0.060979659721002832 0 -0.060979659721002832 0.00028193821557642718 0 0 0 0.01073444143282104 0.023787836097410919 -0.050024824261279889 0 -0.050024824261279889 -0.0080660083684986894 0 0 0 0.0039304569322280991 0.057762592240700406 -0.059573298117618634 0 -0.059573298117618634 0.00450256379635805 0 0 0 0.015566289009264656 0.042193490387577137 -0.063566107011830075 0 -0.063566107011830075 0.0041592949682875968 0 0 0 0.01158819633896635 0.042204405207175055 -0.066183852025642587 0 -0.066183852025642587 0.009420653738368312 0 0 0 0.012906264736385786 0.037880761368532356 -0.065862702856167799 0 -0.065862702856167799 0.0080181104852701246 0 0 0 0.011474717963450676 0.043726707660188158 -0.070145666248602856 0 -0.070145666248602856 0.014620941104053653 0 0 0 0.014586912191060453 0.051805777520463447 -0.066135360004755672 0 -0.066135360004755672 0.0084238315830234001 0 0 0 0.015057402275871823 0.075865337803518118 -0.083023445924624073 0 -0.083023445924624073 0.034693490580311348 0 0 0 0.027639707095957311 -0.032276086784985392 -0.055243956883804568 0 -0.055243956883804568 -0.010776136021058758 0 0 0 -0.010763055701511037 -0.061369111621059735 -0.07137628126781137 0 -0.07137628126781137 -0.032143500886742782 0 0 0 -0.023378153126950352 0.005542120449547383 0.25780623856229568 0 0.25780623856229568 -0.070160404118070119 0 0 0 -0.016154570917123579 -0.023515793162933819 -0.060409200968728038 0 -0.060409200968728038 -0.0095462548130154611 0 0 0 -0.0082655119939872655 0.024157314476696001 -0.1365570911704026 0 -0.1365570911704026 -0.089401414183129191 0 0 0 -0.016311024926608297 -0.015237939763620423 -0.054596761508569513 0 -0.054596761508569513 -0.006949489667673614 0 0 0 -0.0055468573578230096 -0.026275068729911352 -0.060547110916780111 0 -0.060547110916780111 0.001822074785790051 0 0 0 -0.0061132484860304398 -0.056010670477660118 -0.042026867630091669 0 -0.042026867630091669 -0.00059512940012562687 0 0 0 -0.014151449969446561 -0.046408031889886292 -0.070332154353243803 0 -0.070332154353243803 -0.013045662190716012 0 0 0 -0.014863423520150576 -0.036354115350580307 -0.049269933712283331 0 -0.049269933712283331 0.0034789761223792404 0 0 0 -0.0082187848070502945 -0.021073046732934864 -0.061449669014194463 0 -0.061449669014194463 0.0034305000909125027 0 0 0 -0.0044106366605054514 -0.012731114073384009 -0.0572062650939269 0 -0.0572062650939269 0.0059249212299119502 0 0 0 -0.0017015482108679869 -0.0034546491161915327 -0.061650015484541743 0 -0.061650015484541743 0.0011549833778299323 0 0 0 -0.00057491643459051112 0.00029755532343898536 -0.055920468025095094 0 -0.055920468025095094 0.0026688558724551961 0 0 0 0.00074160279897360001 0.0071694107345063873 -0.056463846445511612 0 -0.056463846445511612 -0.0014929175180911081 0 0 0 0.0014191233041038753 -0.011681117434231947 -0.061654509621586591 0 -0.061654509621586591 -0.009697701729106889 0 0 0 -0.0053447047908345979 -0.0095068851984774216 -0.059976989087952792 0 -0.059976989087952792 -0.0025804875715298436 0 0 0 -0.0030218431925017608 -0.0018536478949526813 -0.052838903841372686 0 -0.052838903841372686 -0.0035071862297524348 0 0 0 -0.0013402085311762235 -0.0099261177524348296 -0.057129955990448122 0 -0.057129955990448122 -0.0059811418317229342 0 0 0 -0.003976814896039552 0.025662256873772549 -0.10621783913677518 0 -0.10621783913677518 -0.12002873308220785 0 0 0 -0.023591619052112378 0.0066053458816817123 -0.052004887964870017 0 -0.052004887964870017 0.00052413893261693545 0 0 0 0.0017823712035742734 0.039959557333133944 -0.11219424563182656 0 -0.11219424563182656 -0.1465654132589691 0 0 0 -0.026651463981451684 0.0019701366701157874 -0.055068407629884186 0 -0.055068407629884186 -0.0017595683173103375 0 0 0 5.2642088201306998e-05 0.0087257641033543689 -0.052936555390612039 0 -0.052936555390612039 0.00033026297320443084 0 0 0 0.0022640067691396442 0.048020820108206408 -0.10840510710221452 0 -0.10840510710221452 -0.170992686605274 0 0 0 -0.030742966624288215 0.014515170354437945 -0.049810802424574141 0 -0.049810802424574141 0.00301139516943838 0 0 0 0.0043816413809691923 0.016849106272872172 -0.051137821052783083 0 -0.051137821052783083 0.0029035796101748446 0 0 0 0.0049381714707616986 0.058509446671735077 -0.10562403345642224 0 -0.10562403345642224 -0.19468907652641576 0 0 0 -0.034044907463680829 0.021108835965367945 -0.048355947755209572 0 -0.048355947755209572 0.0059058858589691177 0 0 0 0.0067536804560841546 0.022037403126371258 -0.052514479745468953 0 -0.052514479745468953 0.0040612666084030025 0 0 0 0.0065246674336936206 0.016295765434165606 -0.051574503383850168 0 -0.051574503383850168 0.0056795069650127806 0 0 0 0.0054938180997945963 0.0084226980398740547 -0.054467804188469415 0 -0.054467804188469415 0.0033048320950572752 0 0 0 0.002931882533732777 0.035456089132754887 -0.044706944931695691 0 -0.044706944931695691 0.010736726717144762 0 0 0 0.011548203962475023 0.030951285395935318 -0.047307794581795681 0 -0.047307794581795681 0.007342486627990202 0 0 0 0.009573443005981546 0.08034242748823317 -0.094753222287181416 0 -0.094753222287181416 -0.232585500161548 0 0 0 -0.038060768168350023 0.028905191537146768 -0.046126481741637249 0 -0.046126481741637249 0.0086426608026406448 0 0 0 0.0093869630849470198 0.02320494810728535 -0.049190419904171057 0 -0.049190419904171057 0.0048500767011216972 0 0 0 0.0070137562021017619 0.069589903177586621 -0.10081875011206876 0 -0.10081875011206876 -0.21715272498376237 0 0 0 -0.036890705451511963 0.023193605903166548 -0.051172794631743179 0 -0.051172794631743179 0.0085078718683080368 0 0 0 0.0079253694428689236 0.036991219446970147 -0.048243859197575789 0 -0.048243859197575789 0.0099029656943834254 0 0 0 0.011723546285338005 0.030210484085235106 -0.047964427207046523 0 -0.047964427207046523 0.012307744352002659 0 0 0 0.010629557109309268 0.027345347203281523 -0.054407836686294397 0 -0.054407836686294397 0.010241612026843594 0 0 0 0.0093967398075311959 0.023188212837138233 -0.052343637132044374 0 -0.052343637132044374 0.011278984413590987 0 0 0 0.0086167993126821107 0.0061472716787512871 -0.05507719427546276 0 -0.05507719427546276 0.0072122014966038428 0 0 0 0.0033398682938386992 0.014122739672186913 -0.057586005203172808 0 -0.057586005203172808 0.0050198914853840648 0 0 0 0.0047856577893927721 0.013397433779545276 -0.059225911403068654 0 -0.059225911403068654 0.0072531521471965732 0 0 0 0.0051626464816854067 0.027463098664528673 -0.053412586093828096 0 -0.053412586093828096 0.01263880309867127 0 0 0 0.010025475440800014 0.014348055366455559 -0.05902344679026994 0 -0.05902344679026994 0.01094416363432682 0 0 0 0.006323054750195678 0.011307385118567256 -0.059129676308713131 0 -0.059129676308713131 0.010574159660708071 0 0 0 0.0054703861948188076 0.011594382580988993 -0.061172399191448679 0 -0.061172399191448679 0.0094099598004453444 0 0 0 0.0052510855953585844 -0.013012374161383622 -0.058556367179146585 0 -0.058556367179146585 0.011007929899865654 0 0 0 -0.00050111106537947814 -0.01860793415991896 -0.0543134698647601 0 -0.0543134698647601 0.0059578443894929833 0 0 0 -0.0031625224426064524 -0.017926183345243096 -0.053257277831205263 0 -0.053257277831205263 0.010707942082899047 0 0 0 -0.0018045603155859569 -0.0077870311683179011 -0.062377133851098998 0 -0.062377133851098998 0.0077551394409425684 0 0 0 -7.9729318438331864e-06 -0.0029595786433621596 -0.057895232968442234 0 -0.057895232968442234 0.007750825305423259 0 0 0 0.0011978116655152471 0.14111494079723552 -0.015842758155875703 0 -0.015842758155875703 0.00062523548617443581 0 0 0 0.035435044070852517 0.12530025448833282 -0.041426533220872419 0 -0.041426533220872419 0.012891578680789717 0 0 0 0.034547958292280523 0.1583056507144972 -0.016439064465758491 0 -0.016439064465758491 0.0021257187140271139 0 0 0 0.040107842357130941 0.19063659768899366 -0.021565139385050267 0 -0.021565139385050267 0.0026556524827361372 0 0 0 0.048323062542932504 0.19301722826725709 -0.025808549479119147 0 -0.025808549479119147 -0.0077285454257207675 0 0 0 0.046322170710384136 0.30634382084818501 -0.050074036951900602 0 -0.050074036951900602 0.037143737500165308 0 0 0 0.085871889587087358 0.21239881701575122 -0.068444666631010564 0 -0.068444666631010564 0.069969880460091505 0 0 0 0.070592174368960911 0.26098925676910767 -0.24146938882927316 0 -0.24146938882927316 -0.079769075928822986 0 0 0 0.045305045210113803 0.16615564351877765 -0.012925013294363907 0 -0.012925013294363907 -0.16555891115623922 0 0 0 0.00014918309065592439 0.15444867005438456 -0.05378986745362746 0 -0.05378986745362746 0.05300581805979121 0 0 0 0.051863622028543777 0.17758097969620557 -0.041732207017030842 0 -0.041732207017030842 0.04078037020637737 0 0 0 0.054590337475645789 0.13102908158088766 -0.039493508700113256 0 -0.039493508700113256 0.038268083693277166 0 0 0 0.042324291318541318 0.15402585889449383 -0.040178772970297927 0 -0.040178772970297927 0.022573064247271013 0 0 0 0.044149730785441155 0.18244467631105277 -0.05705335836827008 0 -0.05705335836827008 0.036113862959485488 0 0 0 0.054639634817634564 0.12550138467640981 -0.052740224906539623 0 -0.052740224906539623 0.041908411539295809 0 0 0 0.041852449053926377 0.090929190392282866 -0.041511229431447201 0 -0.041511229431447201 0.021561933986355086 0 0 0 0.028122781094659821 0.11983876020469297 -0.048178652964595114 0 -0.048178652964595114 0.030568680425494987 0 0 0 0.037601860157546962 0.099360822154051287 -0.036707920809077699 0 -0.036707920809077699 0.033603947841609028 0 0 0 0.033241192498915217 0.15982761361374287 -0.042355777033549202 0 -0.042355777033549202 -0.21496762555284477 0 0 0 -0.013785002984803896 0.1197663845948147 -0.045527902467677128 0 -0.045527902467677128 0.039067684402391389 0 0 0 0.039708517249301689 0.089827632525044124 -0.043075832204310327 0 -0.043075832204310327 0.028128605960510318 0 0 0 0.029489059621388723 0.14240545088455292 -0.052597787147647068 0 -0.052597787147647068 -0.2449643349144992 0 0 0 -0.025639721007451044 0.082310687659627124 -0.038086210466037662 0 -0.038086210466037662 0.025299024348020005 0 0 0 0.026902428001911893 0.091816523699542962 -0.047303568168661658 0 -0.047303568168661658 0.024056674246431431 0 0 0 0.028968299486493487 0.12921314243753046 -0.043302881517724323 0 -0.043302881517724323 0.022318753210480491 0 0 0 0.037882973912002793 0.088825064000703891 -0.036952410921662682 0 -0.036952410921662682 0.009866497185341494 0 0 0 0.024672890296511429 0.0869171266105776 -0.049646663038453109 0 -0.049646663038453109 0.018686036472589596 0 0 0 0.026400790770791827 0.066929633516773834 -0.043281024638003984 0 -0.043281024638003984 0.015821918082452147 0 0 0 0.020687887899806467 0.058551745244021403 -0.052419992809457916 0 -0.052419992809457916 0.016548500483992257 0 0 0 0.01877506143200347 0.067558964106457009 -0.049127688936839053 0 -0.049127688936839053 0.020575634860536152 0 0 0 0.022033649741748262 0.053130232168345948 -0.044893736473624046 0 -0.044893736473624046 0.018514289954605356 0 0 0 0.01791113053073784 0.071665683529026136 -0.043563282163980865 0 -0.043563282163980865 0.019917699031607561 0 0 0 0.022895845640158563 0.074828492044831107 -0.043080313579482832 0 -0.043080313579482832 0.02820786778627804 0 0 0 0.025759089957777426 0.071676658539985283 -0.044775908828390998 0 -0.044775908828390998 0.021114690129546254 0 0 0 0.023197837167382884 0.068710695659025767 -0.038880932620874775 0 -0.038880932620874775 0.022275081889517434 0 0 0 0.022746444387135911 0.1309672173981653 -0.067143341405028423 0 -0.067143341405028423 -0.25699235844621171 0 0 0 -0.031506285261968969 0.074896295403136068 -0.041472030864028397 0 -0.041472030864028397 0.022467123680158681 0 0 0 0.02434085477082374 0.059674882112173089 -0.03954065343963542 0 -0.03954065343963542 0.019211058483665333 0 0 0 0.01972148514895955 0.1205265418759609 -0.071555079280358314 0 -0.071555079280358314 -0.26973303332761134 0 0 0 -0.037301622862912609 0.063403632416570765 -0.041707693307762028 0 -0.041707693307762028 0.018288931128697783 0 0 0 0.020423140886317137 0.054295877061596665 -0.044671037651381695 0 -0.044671037651381695 0.019244820809004359 0 0 0 0.0183851744676502 0.062531515471649132 -0.042069573728063858 0 -0.042069573728063858 0.020501251876502036 0 0 0 0.020758191837037629 0.052937883844017097 -0.045081294905817915 0 -0.045081294905817915 0.014973959501774825 0 0 0 0.016977960836447981 0.045518881821242523 -0.044327995759115613 0 -0.044327995759115613 0.01674059793524571 0 0 0 0.015564869939122199 0.050317683489014442 -0.041292596276314208 0 -0.041292596276314208 0.016171185406405719 0 0 0 0.016622217223855262 0.11195779532289407 -0.07968507234312483 0 -0.07968507234312483 -0.26694450254007052 0 0 0 -0.038746676804294111 0.053763520176409417 -0.042561211470301119 0 -0.042561211470301119 0.014866062867610661 0 0 0 0.017157395761005074 0.089881696273664602 -0.091050785579398053 0 -0.091050785579398053 -0.248854070583576 0 0 0 -0.039743093577470745 0.037987010844015422 -0.045586295704716173 0 -0.045586295704716173 0.0096002496470958282 0 0 0 0.011896815122777812 0.045941861541220153 -0.043989857483822004 0 -0.043989857483822004 0.012224966717995667 0 0 0 0.014541707064803955 0.1016361760537734 -0.085883310433075621 0 -0.085883310433075621 -0.25814181372143707 0 0 0 -0.039126409416923025 0.043362873742781582 -0.042656833669948657 0 -0.042656833669948657 0.013676826127904107 0 0 0 0.014259924967671589 0.037965205903570665 -0.047230542468994274 0 -0.047230542468994274 0.013993234275611943 0 0 0 0.012989610044795707 0.037048251003661159 -0.048320556098561007 0 -0.048320556098561007 0.016202829719271783 0 0 0 0.013312770180733291 0.044370609727561905 -0.051336926745700617 0 -0.051336926745700617 0.015513054445314811 0 0 0 0.014970916043219318 0.028366276999775897 -0.049542143083901119 0 -0.049542143083901119 0.0070343631441704968 0 0 0 0.0088501600359864874 0.03340366010085323 -0.056839745708815004 0 -0.056839745708815004 0.011941241842405081 0 0 0 0.011336225485814547 0.040272203969721698 -0.047349270541199417 0 -0.047349270541199417 0.014031572844728446 0 0 0 0.013575944203612467 0.058148219623184283 -0.048455353452464323 0 -0.048455353452464323 0.011295390093286506 0 0 0 0.017360902429117697 0.056855430590639355 -0.047299671883510808 0 -0.047299671883510808 0.012313057214922596 0 0 0 0.01729212195139046 0.075374793082717328 -0.031792790154341333 0 -0.031792790154341333 0.0072511579205079002 0 0 0 0.020656487750806418 0.10097961683511825 -0.038369069874118103 0 -0.038369069874118103 0.007814775049867162 0 0 0 0.027198597971246352 0.06233374252625179 -0.036338799518465803 0 -0.036338799518465803 -8.7028654275567163e-05 0 0 0 0.015561678467994056 0.07607724574934549 -0.012694217990132373 0 -0.012694217990132373 0.00053290736681232964 0 0 0 0.01915253827903951 0.10873149185322867 -0.012756482502601862 0 -0.012756482502601862 0.0012014263179476181 0 0 0 0.027483229542794141 0.10385529405834004 -0.013920475442628357 0 -0.013920475442628357 -0.00058746953812649494 0 0 0 0.025816956130053526 0.026473998787926188 -0.031024919019797204 0 -0.031024919019797204 -0.016960067222817721 0 0 0 0.0023784828912771444 0.064630910776965145 -0.014879077655761075 0 -0.014879077655761075 -0.0023384866168507656 0 0 0 0.015573106040028595 0.046961733273600259 -0.016386333575939882 0 -0.016386333575939882 0.003828594811635444 0 0 0 0.012697582021308829 0.029932237594704203 -0.050909942899229232 0 -0.050909942899229232 0.0084473298226013238 0 0 0 0.0095948918543262707 0.00062594827838580169 -0.05025875469179214 0 -0.05025875469179214 -0.00020418074724015689 0 0 0 0.00010544188278638345 0.032480458282545643 -0.038404726108168696 0 -0.038404726108168696 -0.0034651568594129545 0 0 0 0.0072538253557831722 0.051995418208428235 -0.032833023155539709 0 -0.032833023155539709 0.0058253042649593079 0 0 0 0.01445518061834683 0.014420326543885365 -0.031006889569202861 0 -0.031006889569202861 -0.013924220821656341 0 0 0 0.00012402643055731133 0.009235397538266632 -0.027429229399025156 0 -0.027429229399025156 -0.015626527167245996 0 0 0 -0.001597782407244841 3.1050103720089601e-05 -0.054449484552582084 0 -0.054449484552582084 -0.0035225229988283631 0 0 0 -0.00087286822377699894 -0.0042315870465566841 -0.057020663312961642 0 -0.057020663312961642 0.0091146227194145446 0 0 0 0.0012207589182146039 -0.003384814914749068 -0.05573538201682271 0 -0.05573538201682271 0.0066974377441681998 0 0 0 0.00082815570735478294 -0.0050264906823168642 -0.057815320589672925 0 -0.057815320589672925 0.0057464536179723247 0 0 0 0.00017999073391383735 0.0069547056406081276 -0.058133215568805685 0 -0.058133215568805685 0.0043239349105734792 0 0 0 0.0028196601377953878 -0.002536852519684718 -0.048212221483314055 0 -0.048212221483314055 0.011986443831016658 0 0 0 0.0023623978278329849 -0.0011457979399103757 -0.041761254806084502 0 -0.041761254806084502 0.010365078916163561 0 0 0 0.0023048202440633103 -0.008976652006628642 -0.047262982779808005 0 -0.047262982779808005 0.027443547245949194 0 0 0 0.0046167238098301106 -0.023223170460352938 -0.024284559453250809 0 -0.024284559453250809 0.010002740057282855 0 0 0 -0.0033051076007675206 -0.020313988635813171 -0.021878320426622688 0 -0.021878320426622688 0.018013451651937063 0 0 0 -0.00057513424596909637 -0.084000259489760587 -0.018469056668501453 0 -0.018469056668501453 -0.00023312199400837841 0 0 0 -0.021058345370942255 -0.029027656276561342 -0.036794122203786798 0 -0.036794122203786798 -0.0011937252110989505 0 0 0 -0.0075553453719151009 -0.042337464454210605 -0.012130594299787023 0 -0.012130594299787023 -0.0043467520083225741 0 0 0 -0.011671054115633239 -0.051241763070974805 -0.025177739999067639 0 -0.025177739999067639 0.0016367531481429887 0 0 0 -0.012401252480707975 -0.055460892861728679 -0.027600340462896222 0 -0.027600340462896222 -0.0090937782785407636 0 0 0 -0.016138667785067402 -0.027582316168403676 -0.040554137347043412 0 -0.040554137347043412 -0.002061107450402444 0 0 0 -0.0074108559047015299 -0.028416049019484579 -0.040179410668500837 0 -0.040179410668500837 -0.0061400477874056225 0 0 0 -0.0086390242017224672 -0.02038615661394122 -0.040151257892428974 0 -0.040151257892428974 -0.0081145094693206854 0 0 0 -0.0071251665208155734 -0.013912303994861985 -0.039942403002987792 0 -0.039942403002987792 -0.0047480771502339536 0 0 0 -0.0046650952862741235 -0.0064037455538287769 -0.03891041166123288 0 -0.03891041166123288 -0.0063201047136192123 0 0 0 -0.0031809625668619002 -0.044269307557630366 -0.014201168868467229 0 -0.014201168868467229 -0.024220791648836837 0 0 0 -0.017122524801616801 -0.10384520414770315 -0.041300646566363119 0 -0.041300646566363119 -0.0099056439743518965 0 0 0 -0.028437712030513707 -0.032462886541368308 -0.034833668599755854 0 -0.034833668599755854 -0.013699845184466541 0 0 0 -0.011540682931458712 -0.02362692999414906 -0.045124789322207426 0 -0.045124789322207426 0.0081954257466925196 0 0 0 -0.0038578760618640517 -0.016844732122240302 -0.042447436650518477 0 -0.042447436650518477 0.00030873095903383163 0 0 0 -0.0041340002908016316 -0.017090757759226027 -0.049429297311650217 0 -0.049429297311650217 0.0069772351296040203 0 0 0 -0.0025283806574054601 -0.027149223614959639 -0.044792859352291853 0 -0.044792859352291853 0.001265923322174789 0 0 0 -0.0064708250731961847 -0.013928116826703059 -0.050850210959597963 0 -0.050850210959597963 0.0058804219638368925 0 0 0 -0.0020119237157164866 -0.02476831691665532 -0.03461512398667782 0 -0.03461512398667782 0.0019489050739309802 0 0 0 -0.0057048529606811265 -0.015127808159242195 -0.046921561430360997 0 -0.046921561430360997 0.00058310746262746349 0 0 0 -0.0036361751741537662 
</DataArray>
</CellData>
</Piece>
</UnstructuredGrid>
</VTKFile>
