<?xml version="1.0"?>
<VTKFile type="UnstructuredGrid" version="0.1" byte_order="LittleEndian">
<UnstructuredGrid>
<Piece NumberOfPoints="880" NumberOfCells="299">
<Points>
<DataArray type="Float64" NumberOfComponents="3" format="ascii">
-0 0 0 0.18653882694645291 0.22249173546702489 0 0 0.25000000000104189 0 -0 0 0 0.18653882694645291 0.22249173546702489 0 0.24999999999941089 0 0 0.24999999999941089 0 0 0.35015135319464608 0.1900339269648805 0 0.49999999999869182 0 0 0.18653882694645291 0.22249173546702489 0 0.24999999999941089 0 0 0.35015135319464608 0.1900339269648805 0 0.35015135319464608 0.1900339269648805 0 0.49924741621175961 0.21507969613896921 0 0.49999999999869182 0 0 0.35015135319464608 0.1900339269648805 0 0.49924741621175961 0.21507969613896921 0 0.40587285776242238 0.32419148732968017 0 0.37764981543668408 0.41341486499350411 0 0.41576443813007791 0.48093483781626972 0 0.45418244162583959 0.41624787166862259 0 0.37764981543668408 0.41341486499350411 0 0.45418244162583959 0.41624787166862259 0 0.40587285776242238 0.32419148732968017 0 0.41576443813007791 0.48093483781626972 0 0.46566719828045178 0.47702825415921918 0 0.45418244162583959 0.41624787166862259 0 0.41576443813007791 0.48093483781626972 0 0.46566719828045178 0.47702825415921918 0 0.4638583922372429 0.51470588235294135 0 0.46566719828045178 0.47702825415921918 0 0.49954900152271581 0.45107191084564019 0 0.5 0.5 0 0.46566719828045178 0.47702825415921918 0 0.4638583922372429 0.51470588235294135 0 0.5 0.5 0 0.46566719828045178 0.47702825415921918 0 0.49954900152271581 0.45107191084564019 0 0.45418244162583959 0.41624787166862259 0 0.45418244162583959 0.41624787166862259 0 0.49435464945626773 0.33318442629318029 0 0.54876010062294855 0.39662628167175101 0 0.45418244162583959 0.41624787166862259 0 0.49435464945626773 0.33318442629318029 0 0.40587285776242238 0.32419148732968017 0 0.49924741621175961 0.21507969613896921 0 0.49435464945626773 0.33318442629318029 0 0.40587285776242238 0.32419148732968017 0 0.35015135319464608 0.1900339269648805 0 0.40587285776242238 0.32419148732968017 0 0.29145599617909779 0.35026601625021492 0 0.37764981543668408 0.41341486499350411 0 0.40587285776242238 0.32419148732968017 0 0.29145599617909779 0.35026601625021492 0 0.18653882694645291 0.22249173546702489 0 0.35015135319464608 0.1900339269648805 0 0.29145599617909779 0.35026601625021492 0 0.29145599617909779 0.35026601625021492 0 0.32540781287085369 0.49175159894608172 0 0.17872124008781709 0.39692711089439497 0 0.37764981543668408 0.41341486499350411 0 0.29145599617909779 0.35026601625021492 0 0.32540781287085369 0.49175159894608172 0 0.37764981543668408 0.41341486499350411 0 0.41576443813007791 0.48093483781626972 0 0.32540781287085369 0.49175159894608172 0 0.17872124008781709 0.39692711089439497 0 0 0.25000000000104189 0 0 0.50000000000206157 0 0.17872124008781709 0.39692711089439497 0 0 0.50000000000206157 0 0.22453074737734591 0.51613635929252633 0 0.32540781287085369 0.49175159894608172 0 0.17872124008781709 0.39692711089439497 0 0.22453074737734591 0.51613635929252633 0 0.18653882694645291 0.22249173546702489 0 0.29145599617909779 0.35026601625021492 0 0.17872124008781709 0.39692711089439497 0 0.18653882694645291 0.22249173546702489 0 0.17872124008781709 0.39692711089439497 0 0 0.25000000000104189 0 0 0.50000000000206157 0 0.18442368612951149 0.62734948407416979 0 0 0.75000000000034772 0 0.18442368612951149 0.62734948407416979 0 0.22727208279115291 0.72949159435386135 0 0 0.75000000000034772 0 0.18442368612951149 0.62734948407416979 0 0.22727208279115291 0.72949159435386135 0 0.31346558946927339 0.67110784456164874 0 0.18442368612951149 0.62734948407416979 0 0.22453074737734591 0.51613635929252633 0 0.31771010312359771 0.58585679504088894 0 0 0.50000000000206157 0 0.18442368612951149 0.62734948407416979 0 0.22453074737734591 0.51613635929252633 0 0 1 0 0.096516139048187316 0.89789944498939644 0 0 0.75000000000034772 0 0 1 0 0.096516139048187316 0.89789944498939644 0 0.1596341872805197 1 0 0.096516139048187316 0.89789944498939644 0 0 0.75000000000034772 0 0.1644705180525495 0.8200994301041713 0 0.1644705180525495 0.8200994301041713 0 0.2386314078659193 0.92924778694987087 0 0.27155609766735261 0.80398965554903801 0 0.22727208279115291 0.72949159435386135 0 0 0.75000000000034772 0 0.1644705180525495 0.8200994301041713 0 0.22727208279115291 0.72949159435386135 0 0.1644705180525495 0.8200994301041713 0 0.27155609766735261 0.80398965554903801 0 0.096516139048187316 0.89789944498939644 0 0.1644705180525495 0.8200994301041713 0 0.2386314078659193 0.92924778694987087 0 0.096516139048187316 0.89789944498939644 0 0.2386314078659193 0.92924778694987087 0 0.1596341872805197 1 0 0.2386314078659193 0.92924778694987087 0 0.1596341872805197 1 0 0.27591592301363282 1 0 0.36061858902161292 1 0 0.32789203369730929 0.94219211037003092 0 0.27591592301363282 1 0 0.36061858902161292 1 0 0.32789203369730929 0.94219211037003092 0 0.39382242252278338 0.95440420122950598 0 0.2386314078659193 0.92924778694987087 0 0.32789203369730929 0.94219211037003092 0 0.27591592301363282 1 0 0.2386314078659193 0.92924778694987087 0 0.32789203369730929 0.94219211037003092 0 0.31834856208730472 0.88134829947972904 0 0.32789203369730929 0.94219211037003092 0 0.37746652222901839 0.8987532801416368 0 0.39382242252278338 0.95440420122950598 0 0.32789203369730929 0.94219211037003092 0 0.31834856208730472 0.88134829947972904 0 0.37746652222901839 0.8987532801416368 0 0.2386314078659193 0.92924778694987087 0 0.31834856208730472 0.88134829947972904 0 0.27155609766735261 0.80398965554903801 0 0.31834856208730472 0.88134829947972904 0 0.36493375430404612 0.82333914183704071 0 0.37746652222901839 0.8987532801416368 0 0.31834856208730472 0.88134829947972904 0 0.36493375430404612 0.82333914183704071 0 0.27155609766735261 0.80398965554903801 0 0.22727208279115291 0.72949159435386135 0 0.27155609766735261 0.80398965554903801 0 0.32984265945580837 0.74432890077789404 0 0.36493375430404612 0.82333914183704071 0 0.27155609766735261 0.80398965554903801 0 0.32984265945580837 0.74432890077789404 0 0.36493375430404612 0.82333914183704071 0 0.39746869305290999 0.7595658224757349 0 0.32984265945580837 0.74432890077789404 0 0.36493375430404612 0.82333914183704071 0 0.39746869305290999 0.7595658224757349 0 0.42893012659725649 0.81084715169569632 0 0.39746869305290999 0.7595658224757349 0 0.42893012659725649 0.81084715169569632 0 0.44651949253391748 0.77225997208621999 0 0.39746869305290999 0.7595658224757349 0 0.44651949253391748 0.77225997208621999 0 0.43412357948152142 0.72128778687215156 0 0.44651949253391748 0.77225997208621999 0 0.47786860714145291 0.77730227330627721 0 0.47220206448452873 0.74892462649306213 0 0.47786860714145291 0.77730227330627721 0 0.47220206448452873 0.74892462649306213 0 0.5 0.76470588235294124 0 0.47786860714145291 0.77730227330627721 0 0.5 0.79411764705882359 0 0.5 0.76470588235294124 0 0.47062147868881782 0.80650323854033878 0 0.5 0.82352941176470584 0 0.5 0.79411764705882359 0 0.47786860714145291 0.77730227330627721 0 0.47062147868881782 0.80650323854033878 0 0.5 0.79411764705882359 0 0.44651949253391748 0.77225997208621999 0 0.47786860714145291 0.77730227330627721 0 0.47062147868881782 0.80650323854033878 0 0.42893012659725649 0.81084715169569632 0 0.44651949253391748 0.77225997208621999 0 0.47062147868881782 0.80650323854033878 0 0.42893012659725649 0.81084715169569632 0 0.47062147868881782 0.80650323854033878 0 0.46181179062043481 0.83858979842637782 0 0.42893012659725649 0.81084715169569632 0 0.46181179062043481 0.83858979842637782 0 0.42880856207355889 0.86677159981903118 0 0.46181179062043481 0.83858979842637782 0 0.5 0.85294117647058831 0 0.5 0.82352941176470584 0 0.47062147868881782 0.80650323854033878 0 0.46181179062043481 0.83858979842637782 0 0.5 0.82352941176470584 0 0.46181179062043481 0.83858979842637782 0 0.47032448519202857 0.86718057681700655 0 0.5 0.85294117647058831 0 0.47032448519202857 0.86718057681700655 0 0.5 0.88235294117647056 0 0.5 0.85294117647058831 0 0.46181179062043481 0.83858979842637782 0 0.47032448519202857 0.86718057681700655 0 0.42880856207355889 0.86677159981903118 0 0.36493375430404612 0.82333914183704071 0 0.42880856207355889 0.86677159981903118 0 0.37746652222901839 0.8987532801416368 0 0.36493375430404612 0.82333914183704071 0 0.42893012659725649 0.81084715169569632 0 0.42880856207355889 0.86677159981903118 0 0.37746652222901839 0.8987532801416368 0 0.42822627495986648 0.92083108049218854 0 0.39382242252278338 0.95440420122950598 0 0.42880856207355889 0.86677159981903118 0 0.37746652222901839 0.8987532801416368 0 0.42822627495986648 0.92083108049218854 0 0.47032448519202857 0.86718057681700655 0 0.42880856207355889 0.86677159981903118 0 0.46100207326614928 0.89524736819256467 0 0.42880856207355889 0.86677159981903118 0 0.42822627495986648 0.92083108049218854 0 0.46100207326614928 0.89524736819256467 0 0.47032448519202857 0.86718057681700655 0 0.46100207326614928 0.89524736819256467 0 0.5 0.88235294117647056 0 0.46100207326614928 0.89524736819256467 0 0.5 0.91176470588235292 0 0.5 0.88235294117647056 0 0.46100207326614928 0.89524736819256467 0 0.46949408183482899 0.92833826413560594 0 0.5 0.91176470588235292 0 0.46949408183482899 0.92833826413560594 0 0.5 0.94117647058823528 0 0.5 0.91176470588235292 0 0.42822627495986648 0.92083108049218854 0 0.46100207326614928 0.89524736819256467 0 0.46949408183482899 0.92833826413560594 0 0.46949408183482899 0.92833826413560594 0 0.44768478605684647 0.9646709673379662 0 0.47596308696979028 0.95620709615192379 0 0.42822627495986648 0.92083108049218854 0 0.46949408183482899 0.92833826413560594 0 0.44768478605684647 0.9646709673379662 0 0.44768478605684647 0.9646709673379662 0 0.47596308696979028 0.95620709615192379 0 0.47818194888216242 0.97829325975680159 0 0.46949408183482899 0.92833826413560594 0 0.47596308696979028 0.95620709615192379 0 0.5 0.94117647058823528 0 0.47596308696979028 0.95620709615192379 0 0.47818194888216242 0.97829325975680159 0 0.5 0.97058823529411764 0 0.47596308696979028 0.95620709615192379 0 0.5 0.97058823529411764 0 0.5 0.94117647058823528 0 0.47818194888216242 0.97829325975680159 0 0.46726187138417491 1 0 0.5 1 0 0.47818194888216242 0.97829325975680159 0 0.5 0.97058823529411764 0 0.5 1 0 0.44768478605684647 0.9646709673379662 0 0.47818194888216242 0.97829325975680159 0 0.46726187138417491 1 0 0.44768478605684647 0.9646709673379662 0 0.46726187138417491 1 0 0.42231823435723009 1 0 0.44768478605684647 0.9646709673379662 0 0.42231823435723009 1 0 0.39382242252278338 0.95440420122950598 0 0.42822627495986648 0.92083108049218854 0 0.44768478605684647 0.9646709673379662 0 0.39382242252278338 0.95440420122950598 0 0.36061858902161292 1 0 0.42231823435723009 1 0 0.39382242252278338 0.95440420122950598 0 0.31771010312359771 0.58585679504088894 0 0.3872154068451229 0.6301386882447304 0 0.41980724897053312 0.55867199730355355 0 0.32540781287085369 0.49175159894608172 0 0.31771010312359771 0.58585679504088894 0 0.41980724897053312 0.55867199730355355 0 0.32540781287085369 0.49175159894608172 0 0.22453074737734591 0.51613635929252633 0 0.31771010312359771 0.58585679504088894 0 0.18442368612951149 0.62734948407416979 0 0.31771010312359771 0.58585679504088894 0 0.31346558946927339 0.67110784456164874 0 0.22727208279115291 0.72949159435386135 0 0.32984265945580837 0.74432890077789404 0 0.31346558946927339 0.67110784456164874 0 0.39746869305290999 0.7595658224757349 0 0.32984265945580837 0.74432890077789404 0 0.38513711431054509 0.69312683393047636 0 0.32984265945580837 0.74432890077789404 0 0.31346558946927339 0.67110784456164874 0 0.38513711431054509 0.69312683393047636 0 0.31771010312359771 0.58585679504088894 0 0.31346558946927339 0.67110784456164874 0 0.3872154068451229 0.6301386882447304 0 0.31346558946927339 0.67110784456164874 0 0.3872154068451229 0.6301386882447304 0 0.38513711431054509 0.69312683393047636 0 0.3872154068451229 0.6301386882447304 0 0.38513711431054509 0.69312683393047636 0 0.4390556798454946 0.66199025953586599 0 0.3872154068451229 0.6301386882447304 0 0.4390556798454946 0.66199025953586599 0 0.44702869549010399 0.61002701911053991 0 0.39746869305290999 0.7595658224757349 0 0.38513711431054509 0.69312683393047636 0 0.43412357948152142 0.72128778687215156 0 0.38513711431054509 0.69312683393047636 0 0.43412357948152142 0.72128778687215156 0 0.4390556798454946 0.66199025953586599 0 0.43412357948152142 0.72128778687215156 0 0.47636314644728822 0.72058823529411908 0 0.47220206448452873 0.74892462649306213 0 0.44651949253391748 0.77225997208621999 0 0.43412357948152142 0.72128778687215156 0 0.47220206448452873 0.74892462649306213 0 0.43412357948152142 0.72128778687215156 0 0.46330219403010409 0.69594601192744354 0 0.4390556798454946 0.66199025953586599 0 0.43412357948152142 0.72128778687215156 0 0.46330219403010409 0.69594601192744354 0 0.47636314644728822 0.72058823529411908 0 0.46330219403010409 0.69594601192744354 0 0.47636314644728822 0.72058823529411908 0 0.5 0.70588235294117663 0 0.46330219403010409 0.69594601192744354 0 0.5 0.67647058823529438 0 0.5 0.70588235294117663 0 0.47636314644728822 0.72058823529411908 0 0.5 0.73529411764705888 0 0.5 0.70588235294117663 0 0.47220206448452873 0.74892462649306213 0 0.5 0.73529411764705888 0 0.5 0.76470588235294124 0 0.47636314644728822 0.72058823529411908 0 0.47220206448452873 0.74892462649306213 0 0.5 0.73529411764705888 0 0.4390556798454946 0.66199025953586599 0 0.47501372853621993 0.66300743809067952 0 0.47271076880550111 0.63357150722538136 0 0.4390556798454946 0.66199025953586599 0 0.47271076880550111 0.63357150722538136 0 0.44702869549010399 0.61002701911053991 0 0.46330219403010409 0.69594601192744354 0 0.4390556798454946 0.66199025953586599 0 0.47501372853621993 0.66300743809067952 0 0.46330219403010409 0.69594601192744354 0 0.47501372853621993 0.66300743809067952 0 0.5 0.67647058823529438 0 0.47501372853621993 0.66300743809067952 0 0.5 0.64705882352941191 0 0.5 0.67647058823529438 0 0.47501372853621993 0.66300743809067952 0 0.47271076880550111 0.63357150722538136 0 0.5 0.64705882352941191 0 0.47271076880550111 0.63357150722538136 0 0.5 0.61764705882352966 0 0.5 0.64705882352941191 0 0.47784843225772261 0.60532339797118362 0 0.5 0.5882352941176473 0 0.5 0.61764705882352966 0 0.47271076880550111 0.63357150722538136 0 0.47784843225772261 0.60532339797118362 0 0.5 0.61764705882352966 0 0.46950269699300751 0.57713611057881953 0 0.5 0.55882352941176494 0 0.5 0.5882352941176473 0 0.47784843225772261 0.60532339797118362 0 0.46950269699300751 0.57713611057881953 0 0.5 0.5882352941176473 0 0.46950269699300751 0.57713611057881953 0 0.44702869549010399 0.61002701911053991 0 0.41980724897053312 0.55867199730355355 0 0.47784843225772261 0.60532339797118362 0 0.46950269699300751 0.57713611057881953 0 0.44702869549010399 0.61002701911053991 0 0.47271076880550111 0.63357150722538136 0 0.47784843225772261 0.60532339797118362 0 0.44702869549010399 0.61002701911053991 0 0.3872154068451229 0.6301386882447304 0 0.44702869549010399 0.61002701911053991 0 0.41980724897053312 0.55867199730355355 0 0.41576443813007791 0.48093483781626972 0 0.32540781287085369 0.49175159894608172 0 0.41980724897053312 0.55867199730355355 0 0.41576443813007791 0.48093483781626972 0 0.41980724897053312 0.55867199730355355 0 0.4638583922372429 0.51470588235294135 0 0.41980724897053312 0.55867199730355355 0 0.4638583922372429 0.51470588235294135 0 0.47063366764015668 0.5477498568705923 0 0.46950269699300751 0.57713611057881953 0 0.41980724897053312 0.55867199730355355 0 0.47063366764015668 0.5477498568705923 0 0.46950269699300751 0.57713611057881953 0 0.47063366764015668 0.5477498568705923 0 0.5 0.55882352941176494 0 0.47063366764015668 0.5477498568705923 0 0.5 0.52941176470588269 0 0.5 0.55882352941176494 0 0.4638583922372429 0.51470588235294135 0 0.47063366764015668 0.5477498568705923 0 0.5 0.52941176470588269 0 0.4638583922372429 0.51470588235294135 0 0.5 0.5 0 0.5 0.52941176470588269 0 0.5 0.52941176470588269 0 0.52629893369322589 0.51330452493555312 0 0.52820848765230954 0.54540076010342464 0 0.5 0.5 0 0.5 0.52941176470588269 0 0.52629893369322589 0.51330452493555312 0 0.5 0.5 0 0.5 0.52941176470588269 0 0.5 0.52941176470588269 0 0.5 0.55882352941176494 0 0.52820848765230954 0.54540076010342464 0 0.5 0.52941176470588269 0 0.5 0.55882352941176494 0 0.5 0.55882352941176494 0 0.52820848765230954 0.54540076010342464 0 0.52246722155046366 0.57417151085839346 0 0.52820848765230954 0.54540076010342464 0 0.56199650931215228 0.51957997397013023 0 0.55931585964581554 0.57571189932143541 0 0.52629893369322589 0.51330452493555312 0 0.56199650931215228 0.51957997397013023 0 0.54128967150166729 0.47213012589832831 0 0.52629893369322589 0.51330452493555312 0 0.52820848765230954 0.54540076010342464 0 0.56199650931215228 0.51957997397013023 0 0.56199650931215228 0.51957997397013023 0 0.61174067805461174 0.54148194547208961 0 0.60345082206666756 0.47575908627627911 0 0.56199650931215228 0.51957997397013023 0 0.61174067805461174 0.54148194547208961 0 0.55931585964581554 0.57571189932143541 0 0.61174067805461174 0.54148194547208961 0 0.61264973759093866 0.60999664295093947 0 0.55931585964581554 0.57571189932143541 0 0.61264973759093866 0.60999664295093947 0 0.55931585964581554 0.57571189932143541 0 0.55828304378107996 0.63546085023637511 0 0.55931585964581554 0.57571189932143541 0 0.52754891270107895 0.60396918438229519 0 0.55828304378107996 0.63546085023637511 0 0.52754891270107895 0.60396918438229519 0 0.52222323737415433 0.63323059203007803 0 0.55828304378107996 0.63546085023637511 0 0.52820848765230954 0.54540076010342464 0 0.55931585964581554 0.57571189932143541 0 0.52246722155046366 0.57417151085839346 0 0.55931585964581554 0.57571189932143541 0 0.52246722155046366 0.57417151085839346 0 0.52754891270107895 0.60396918438229519 0 0.52246722155046366 0.57417151085839346 0 0.5 0.5882352941176473 0 0.52754891270107895 0.60396918438229519 0 0.5 0.55882352941176494 0 0.52246722155046366 0.57417151085839346 0 0.5 0.5882352941176473 0 0.5 0.55882352941176494 0 0.5 0.5882352941176473 0 0.52754891270107895 0.60396918438229519 0 0.5 0.61764705882352966 0 0.52222323737415433 0.63323059203007803 0 0.5 0.5882352941176473 0 0.5 0.61764705882352966 0 0.5 0.5882352941176473 0 0.52754891270107895 0.60396918438229519 0 0.5 0.61764705882352966 0 0.5 0.61764705882352966 0 0.52222323737415433 0.63323059203007803 0 0.5 0.64705882352941191 0 0.5 0.61764705882352966 0 0.5 0.64705882352941191 0 0.52222323737415433 0.63323059203007803 0 0.5 0.64705882352941191 0 0.52736180768426655 0.66304505109048573 0 0.5 0.64705882352941191 0 0.5 0.67647058823529438 0 0.52736180768426655 0.66304505109048573 0 0.5 0.64705882352941191 0 0.5 0.67647058823529438 0 0.5 0.67647058823529438 0 0.52736180768426655 0.66304505109048573 0 0.52189318962165776 0.69193883095305098 0 0.52736180768426655 0.66304505109048573 0 0.52189318962165776 0.69193883095305098 0 0.55852327729743823 0.69498827241231187 0 0.52736180768426655 0.66304505109048573 0 0.55828304378107996 0.63546085023637511 0 0.55852327729743823 0.69498827241231187 0 0.52222323737415433 0.63323059203007803 0 0.52736180768426655 0.66304505109048573 0 0.55828304378107996 0.63546085023637511 0 0.5 0.73529411764705888 0 0.52547133540542634 0.72058823529411897 0 0.5211984712236245 0.75134107022269114 0 0.5 0.73529411764705888 0 0.52547133540542634 0.72058823529411897 0 0.5 0.70588235294117663 0 0.5 0.73529411764705888 0 0.5 0.70588235294117663 0 0.52547133540542634 0.72058823529411897 0 0.5 0.70588235294117663 0 0.52189318962165776 0.69193883095305098 0 0.5 0.67647058823529438 0 0.5 0.70588235294117663 0 0.52189318962165776 0.69193883095305098 0 0.5 0.67647058823529438 0 0.5 0.70588235294117663 0 0.52547133540542634 0.72058823529411897 0 0.52189318962165776 0.69193883095305098 0 0.55852327729743823 0.69498827241231187 0 0.52547133540542634 0.72058823529411897 0 0.5211984712236245 0.75134107022269114 0 0.55458114032207428 0.75544804615062711 0 0.52547133540542634 0.72058823529411897 0 0.55852327729743823 0.69498827241231187 0 0.55458114032207428 0.75544804615062711 0 0.55852327729743823 0.69498827241231187 0 0.6088970477846376 0.72715446211577472 0 0.55458114032207428 0.75544804615062711 0 0.55852327729743823 0.69498827241231187 0 0.6088970477846376 0.72715446211577472 0 0.60110770968787908 0.67045598539422102 0 0.61264973759093866 0.60999664295093947 0 0.55828304378107996 0.63546085023637511 0 0.60110770968787908 0.67045598539422102 0 0.55828304378107996 0.63546085023637511 0 0.55852327729743823 0.69498827241231187 0 0.60110770968787908 0.67045598539422102 0 0.61264973759093866 0.60999664295093947 0 0.60110770968787908 0.67045598539422102 0 0.66621429167335955 0.68470300534742679 0 0.6088970477846376 0.72715446211577472 0 0.66621429167335955 0.68470300534742679 0 0.6817340940367822 0.76923101696744944 0 0.6088970477846376 0.72715446211577472 0 0.60110770968787908 0.67045598539422102 0 0.66621429167335955 0.68470300534742679 0 0.66621429167335955 0.68470300534742679 0 0.6817340940367822 0.76923101696744944 0 0.7828103453665094 0.69876044407634474 0 0.66621429167335955 0.68470300534742679 0 0.69354174170208815 0.57892485983477626 0 0.7828103453665094 0.69876044407634474 0 0.69354174170208815 0.57892485983477626 0 0.77935529174931761 0.49004815756283893 0 0.66681557370681976 0.49435464945626773 0 0.61174067805461174 0.54148194547208961 0 0.69354174170208815 0.57892485983477626 0 0.66681557370681976 0.49435464945626773 0 0.61174067805461174 0.54148194547208961 0 0.60345082206666756 0.47575908627627911 0 0.66681557370681976 0.49435464945626773 0 0.61174067805461174 0.54148194547208961 0 0.61264973759093866 0.60999664295093947 0 0.69354174170208815 0.57892485983477626 0 0.61264973759093866 0.60999664295093947 0 0.66621429167335955 0.68470300534742679 0 0.69354174170208815 0.57892485983477626 0 0.60145933092659498 0.94808652648958736 0 0.57768176564240026 1 0 0.63938141097836054 1 0 0.60145933092659498 0.94808652648958736 0 0.55381003699196441 0.97073734537240042 0 0.55652711631508067 0.93435010280744335 0 0.60145933092659498 0.94808652648958736 0 0.57768176564240026 1 0 0.55381003699196441 0.97073734537240042 0 0.57768176564240026 1 0 0.53273812861558045 1 0 0.55381003699196441 0.97073734537240042 0 0.53273812861558045 1 0 0.55381003699196441 0.97073734537240042 0 0.52191028766292435 0.97912620202886635 0 0.53273812861558045 1 0 0.52191028766292435 0.97912620202886635 0 0.5 1 0 0.52191028766292435 0.97912620202886635 0 0.5 0.97058823529411764 0 0.5 1 0 0.5 0.97058823529411764 0 0.5 1 0 0.5 0.97058823529411764 0 0.5 0.94117647058823528 0 0.5 0.97058823529411764 0 0.5 0.94117647058823528 0 0.52554900427979434 0.95492408164812537 0 0.52191028766292435 0.97912620202886635 0 0.5 0.97058823529411764 0 0.52554900427979434 0.95492408164812537 0 0.5 0.94117647058823528 0 0.52554900427979434 0.95492408164812537 0 0.52149395742518578 0.9280464911497236 0 0.55381003699196441 0.97073734537240042 0 0.52554900427979434 0.95492408164812537 0 0.55652711631508067 0.93435010280744335 0 0.55381003699196441 0.97073734537240042 0 0.52191028766292435 0.97912620202886635 0 0.52554900427979434 0.95492408164812537 0 0.52554900427979434 0.95492408164812537 0 0.55652711631508067 0.93435010280744335 0 0.52149395742518578 0.9280464911497236 0 0.55652711631508067 0.93435010280744335 0 0.52982914238326484 0.89727189043838895 0 0.57507719038536997 0.89743529736491356 0 0.55652711631508067 0.93435010280744335 0 0.52149395742518578 0.9280464911497236 0 0.52982914238326484 0.89727189043838895 0 0.52149395742518578 0.9280464911497236 0 0.5 0.91176470588235292 0 0.52982914238326484 0.89727189043838895 0 0.5 0.94117647058823528 0 0.5 0.91176470588235292 0 0.5 0.94117647058823528 0 0.52149395742518578 0.9280464911497236 0 0.5 0.91176470588235292 0 0.5 0.91176470588235292 0 0.5 0.88235294117647056 0 0.52982914238326484 0.89727189043838895 0 0.5 0.91176470588235292 0 0.5 0.88235294117647056 0 0.5 0.88235294117647056 0 0.52982914238326484 0.89727189043838895 0 0.51991574276818808 0.86764705882352966 0 0.52982914238326484 0.89727189043838895 0 0.57507719038536997 0.89743529736491356 0 0.54799184932697576 0.8599032232094268 0 0.60145933092659498 0.94808652648958736 0 0.55652711631508067 0.93435010280744335 0 0.57507719038536997 0.89743529736491356 0 0.60145933092659498 0.94808652648958736 0 0.57507719038536997 0.89743529736491356 0 0.63427031498547037 0.88927276979110648 0 0.57507719038536997 0.89743529736491356 0 0.58994607995897996 0.84812355238296233 0 0.63427031498547037 0.88927276979110648 0 0.58994607995897996 0.84812355238296233 0 0.64153141236229239 0.83072478436463804 0 0.63427031498547037 0.88927276979110648 0 0.58994607995897996 0.84812355238296233 0 0.60049020024666178 0.78900583008989877 0 0.64153141236229239 0.83072478436463804 0 0.58994607995897996 0.84812355238296233 0 0.54799184932697576 0.8599032232094268 0 0.55206941203846505 0.81091931303809783 0 0.58994607995897996 0.84812355238296233 0 0.55206941203846505 0.81091931303809783 0 0.60049020024666178 0.78900583008989877 0 0.57507719038536997 0.89743529736491356 0 0.58994607995897996 0.84812355238296233 0 0.54799184932697576 0.8599032232094268 0 0.52982914238326484 0.89727189043838895 0 0.54799184932697576 0.8599032232094268 0 0.51991574276818808 0.86764705882352966 0 0.54799184932697576 0.8599032232094268 0 0.51991574276818808 0.86764705882352966 0 0.52395085592512047 0.83729395211968571 0 0.51991574276818808 0.86764705882352966 0 0.5 0.85294117647058831 0 0.52395085592512047 0.83729395211968571 0 0.5 0.88235294117647056 0 0.5 0.85294117647058831 0 0.5 0.88235294117647056 0 0.51991574276818808 0.86764705882352966 0 0.5 0.85294117647058831 0 0.5 0.82352941176470584 0 0.52395085592512047 0.83729395211968571 0 0.52039202967084142 0.80930587873000437 0 0.5 0.85294117647058831 0 0.5 0.82352941176470584 0 0.5 0.85294117647058831 0 0.5 0.82352941176470584 0 0.52395085592512047 0.83729395211968571 0 0.52395085592512047 0.83729395211968571 0 0.55206941203846505 0.81091931303809783 0 0.52039202967084142 0.80930587873000437 0 0.54799184932697576 0.8599032232094268 0 0.52395085592512047 0.83729395211968571 0 0.55206941203846505 0.81091931303809783 0 0.55206941203846505 0.81091931303809783 0 0.52039202967084142 0.80930587873000437 0 0.52593988039062167 0.78066906966870908 0 0.55206941203846505 0.81091931303809783 0 0.52593988039062167 0.78066906966870908 0 0.55458114032207428 0.75544804615062711 0 0.52039202967084142 0.80930587873000437 0 0.5 0.79411764705882359 0 0.52593988039062167 0.78066906966870908 0 0.5 0.82352941176470584 0 0.5 0.79411764705882359 0 0.5 0.82352941176470584 0 0.52039202967084142 0.80930587873000437 0 0.5 0.79411764705882359 0 0.5 0.73529411764705888 0 0.5 0.76470588235294124 0 0.5 0.73529411764705888 0 0.5 0.76470588235294124 0 0.5211984712236245 0.75134107022269114 0 0.5 0.79411764705882359 0 0.5 0.76470588235294124 0 0.52593988039062167 0.78066906966870908 0 0.5 0.79411764705882359 0 0.5 0.76470588235294124 0 0.5 0.76470588235294124 0 0.52593988039062167 0.78066906966870908 0 0.5211984712236245 0.75134107022269114 0 0.52593988039062167 0.78066906966870908 0 0.5211984712236245 0.75134107022269114 0 0.55458114032207428 0.75544804615062711 0 0.6088970477846376 0.72715446211577472 0 0.55458114032207428 0.75544804615062711 0 0.60049020024666178 0.78900583008989877 0 0.55206941203846505 0.81091931303809783 0 0.55458114032207428 0.75544804615062711 0 0.60049020024666178 0.78900583008989877 0 0.6817340940367822 0.76923101696744944 0 0.70916369539323409 0.86041409043207073 0 0.80987878298654392 0.8110307373443908 0 0.6088970477846376 0.72715446211577472 0 0.60049020024666178 0.78900583008989877 0 0.6817340940367822 0.76923101696744944 0 0.60049020024666178 0.78900583008989877 0 0.6817340940367822 0.76923101696744944 0 0.64153141236229239 0.83072478436463804 0 0.70916369539323409 0.86041409043207073 0 0.64153141236229239 0.83072478436463804 0 0.63427031498547037 0.88927276979110648 0 0.6817340940367822 0.76923101696744944 0 0.70916369539323409 0.86041409043207073 0 0.64153141236229239 0.83072478436463804 0 0.70916369539323409 0.86041409043207073 0 0.68173274398262862 0.93660593960145366 0 0.63427031498547037 0.88927276979110648 0 0.60145933092659498 0.94808652648958736 0 0.68173274398262862 0.93660593960145366 0 0.63427031498547037 0.88927276979110648 0 0.70916369539323409 0.86041409043207073 0 0.68173274398262862 0.93660593960145366 0 0.78222494485339233 0.91531439423588867 0 0.68173274398262862 0.93660593960145366 0 0.72408407698689681 1 0 0.78222494485339233 0.91531439423588867 0 0.60145933092659498 0.94808652648958736 0 0.68173274398262862 0.93660593960145366 0 0.63938141097836054 1 0 0.68173274398262862 0.93660593960145366 0 0.72408407698689681 1 0 0.63938141097836054 1 0 1 1 0 0.89611933618281592 0.89173516444576184 0 1 0.74999999999934008 0 0.72408407698689681 1 0 0.84036581271988753 1 0 0.78222494485339233 0.91531439423588867 0 0.84036581271988753 1 0 0.78222494485339233 0.91531439423588867 0 0.89611933618281592 0.89173516444576184 0 0.6817340940367822 0.76923101696744944 0 0.80987878298654392 0.8110307373443908 0 0.7828103453665094 0.69876044407634474 0 0.80987878298654392 0.8110307373443908 0 0.7828103453665094 0.69876044407634474 0 1 0.74999999999934008 0 0.78222494485339233 0.91531439423588867 0 0.80987878298654392 0.8110307373443908 0 0.89611933618281592 0.89173516444576184 0 0.70916369539323409 0.86041409043207073 0 0.78222494485339233 0.91531439423588867 0 0.80987878298654392 0.8110307373443908 0 0.80987878298654392 0.8110307373443908 0 0.89611933618281592 0.89173516444576184 0 1 0.74999999999934008 0 0.84036581271988753 1 0 1 1 0 0.89611933618281592 0.89173516444576184 0 0.84549316180028322 0.59867304496468476 0 1 0.74999999999934008 0 1 0.49999999999869182 0 0.69354174170208815 0.57892485983477626 0 0.84549316180028322 0.59867304496468476 0 0.77935529174931761 0.49004815756283893 0 0.84549316180028322 0.59867304496468476 0 1 0.49999999999869182 0 0.77935529174931761 0.49004815756283893 0 0.69354174170208815 0.57892485983477626 0 0.84549316180028322 0.59867304496468476 0 0.7828103453665094 0.69876044407634474 0 0.84549316180028322 0.59867304496468476 0 0.7828103453665094 0.69876044407634474 0 1 0.74999999999934008 0 1 0.49999999999869182 0 0.77935529174931761 0.49004815756283893 0 0.80451351819826811 0.35479918680564199 0 0.80451351819826811 0.35479918680564199 0 1 0.24999999999941089 0 0.79923457477009219 0.1751534052300894 0 1 0.49999999999869182 0 0.80451351819826811 0.35479918680564199 0 1 0.24999999999941089 0 1 0 0 0.79923457477009219 0.1751534052300894 0 0.74999999999934008 0 0 1 0.24999999999941089 0 1 0 0 0.79923457477009219 0.1751534052300894 0 0.49999999999869182 0 0 0.62537763927714929 0.14286513648320209 0 0.74999999999934008 0 0 0.79923457477009219 0.1751534052300894 0 0.62537763927714929 0.14286513648320209 0 0.6197279975813802 0.30020319976287241 0 0.79923457477009219 0.1751534052300894 0 0.62537763927714929 0.14286513648320209 0 0.74999999999934008 0 0 0.49924741621175961 0.21507969613896921 0 0.49999999999869182 0 0 0.62537763927714929 0.14286513648320209 0 0.49924741621175961 0.21507969613896921 0 0.62537763927714929 0.14286513648320209 0 0.6197279975813802 0.30020319976287241 0 0.49924741621175961 0.21507969613896921 0 0.49435464945626773 0.33318442629318029 0 0.6197279975813802 0.30020319976287241 0 0.49435464945626773 0.33318442629318029 0 0.6197279975813802 0.30020319976287241 0 0.54876010062294855 0.39662628167175101 0 0.6197279975813802 0.30020319976287241 0 0.54876010062294855 0.39662628167175101 0 0.66576775508844777 0.41353720431697111 0 0.49954900152271581 0.45107191084564019 0 0.45418244162583959 0.41624787166862259 0 0.54876010062294855 0.39662628167175101 0 0.49954900152271581 0.45107191084564019 0 0.54876010062294855 0.39662628167175101 0 0.54128967150166729 0.47213012589832831 0 0.49954900152271581 0.45107191084564019 0 0.5 0.5 0 0.54128967150166729 0.47213012589832831 0 0.5 0.5 0 0.52629893369322589 0.51330452493555312 0 0.54128967150166729 0.47213012589832831 0 0.54876010062294855 0.39662628167175101 0 0.54128967150166729 0.47213012589832831 0 0.60345082206666756 0.47575908627627911 0 0.56199650931215228 0.51957997397013023 0 0.54128967150166729 0.47213012589832831 0 0.60345082206666756 0.47575908627627911 0 0.54876010062294855 0.39662628167175101 0 0.60345082206666756 0.47575908627627911 0 0.66576775508844777 0.41353720431697111 0 0.77935529174931761 0.49004815756283893 0 0.80451351819826811 0.35479918680564199 0 0.66576775508844777 0.41353720431697111 0 0.60345082206666756 0.47575908627627911 0 0.66576775508844777 0.41353720431697111 0 0.66681557370681976 0.49435464945626773 0 0.77935529174931761 0.49004815756283893 0 0.66576775508844777 0.41353720431697111 0 0.66681557370681976 0.49435464945626773 0 0.80451351819826811 0.35479918680564199 0 0.79923457477009219 0.1751534052300894 0 0.6197279975813802 0.30020319976287241 0 0.80451351819826811 0.35479918680564199 0 0.6197279975813802 0.30020319976287241 0 0.66576775508844777 0.41353720431697111 0 
</DataArray>
</Points>
<Cells>
<DataArray type="UInt32" Name="connectivity" format="ascii">
0 1 2 3 4 5 6 7 8 9 10 11 12 13 14 15 16 17 18 19 20 21 22 23 24 25 26 27 28 29 30 31 32 33 34 35 36 37 38 39 40 41 42 43 44 45 46 47 48 49 50 51 52 53 54 55 56 57 58 59 60 61 62 63 64 65 66 67 68 69 70 71 72 73 74 75 76 77 78 79 80 81 82 83 84 85 86 87 88 89 90 91 92 93 94 95 96 97 98 99 100 101 102 103 104 105 106 107 108 109 110 111 112 113 114 115 116 117 118 119 120 121 122 123 124 125 126 127 128 129 130 131 132 133 134 135 136 137 138 139 140 141 142 143 144 145 146 147 148 149 150 151 152 153 154 155 156 157 158 159 160 161 162 163 164 165 166 167 168 169 170 171 172 173 174 175 176 177 178 179 180 181 182 183 184 185 186 187 188 189 190 191 192 193 194 195 196 197 198 199 200 201 202 203 204 205 206 207 208 209 210 211 212 213 214 215 216 217 218 219 220 221 222 223 224 225 226 227 228 229 230 231 232 233 234 235 236 237 238 239 240 241 242 243 244 245 246 247 248 249 250 251 252 253 254 255 256 257 258 259 260 261 262 263 264 265 266 267 268 269 270 271 272 273 274 275 276 277 278 279 280 281 282 283 284 285 286 287 288 289 290 291 292 293 294 295 296 297 298 299 300 301 302 303 304 305 306 307 308 309 310 311 312 313 314 315 316 317 318 319 320 321 322 323 324 325 326 327 328 329 330 331 332 333 334 335 336 337 338 339 340 341 342 343 344 345 346 347 348 349 350 351 352 353 354 355 356 357 358 359 360 361 362 363 364 365 366 367 368 369 370 371 372 373 374 375 376 377 378 379 380 381 382 383 384 385 386 387 388 389 390 391 392 393 394 395 396 397 398 399 400 401 402 403 404 405 406 407 408 409 410 411 412 413 414 415 416 417 418 419 420 421 422 423 424 425 426 427 428 429 430 431 432 433 434 435 436 437 438 439 440 441 442 443 444 445 446 447 448 449 450 451 452 453 454 455 456 457 458 459 460 461 462 463 464 465 466 467 468 469 470 471 472 473 474 475 476 477 478 479 480 481 482 483 484 485 486 487 488 489 490 491 492 493 494 495 496 497 498 499 500 501 502 503 504 505 506 507 508 509 510 511 512 513 514 515 516 517 518 519 520 521 522 523 524 525 526 527 528 529 530 531 532 533 534 535 536 537 538 539 540 541 542 543 544 545 546 547 548 549 550 551 552 553 554 555 556 557 558 559 560 561 562 563 564 565 566 567 568 569 570 571 572 573 574 575 576 577 578 579 580 581 582 583 584 585 586 587 588 589 590 591 592 593 594 595 596 597 598 599 600 601 602 603 604 605 606 607 608 609 610 611 612 613 614 615 616 617 618 619 620 621 622 623 624 625 626 627 628 629 630 631 632 633 634 635 636 637 638 639 640 641 642 643 644 645 646 647 648 649 650 651 652 653 654 655 656 657 658 659 660 661 662 663 664 665 666 667 668 669 670 671 672 673 674 675 676 677 678 679 680 681 682 683 684 685 686 687 688 689 690 691 692 693 694 695 696 697 698 699 700 701 702 703 704 705 706 707 708 709 710 711 712 713 714 715 716 717 718 719 720 721 722 723 724 725 726 727 728 729 730 731 732 733 734 735 736 737 738 739 740 741 742 743 744 745 746 747 748 749 750 751 752 753 754 755 756 757 758 759 760 761 762 763 764 765 766 767 768 769 770 771 772 773 774 775 776 777 778 779 780 781 782 783 784 785 786 787 788 789 790 791 792 793 794 795 796 797 798 799 800 801 802 803 804 805 806 807 808 809 810 811 812 813 814 815 816 817 818 819 820 821 822 823 824 825 826 827 828 829 830 831 832 833 834 835 836 837 838 839 840 841 842 843 844 845 846 847 848 849 850 851 852 853 854 855 856 857 858 859 860 861 862 863 864 865 866 867 868 869 870 871 872 873 874 875 876 877 878 879 
</DataArray>
<DataArray type="UInt32" Name="offsets" format="ascii">
3 6 9 12 15 18 21 24 27 30 33 36 39 42 45 48 51 54 57 60 63 66 69 72 75 78 81 84 87 90 93 96 99 102 105 108 111 114 117 120 123 126 129 132 135 138 141 144 147 150 153 156 159 162 165 168 171 174 177 180 183 186 189 192 195 198 201 204 207 210 213 216 219 222 225 228 231 234 237 240 243 246 249 252 255 258 261 264 267 270 273 276 279 282 285 288 291 294 297 300 303 306 309 312 315 318 321 324 327 330 333 336 339 342 345 348 351 354 357 360 363 366 369 372 375 378 381 384 387 390 393 396 399 402 405 408 411 414 417 420 423 425 428 430 433 436 439 442 445 448 451 454 457 460 463 466 469 472 474 477 479 482 485 487 490 493 495 498 501 504 507 510 513 515 518 521 523 526 529 532 535 538 541 544 547 550 553 556 559 562 565 568 571 574 577 580 583 586 589 592 595 597 599 602 605 608 611 614 617 620 623 626 628 631 634 636 639 642 645 648 651 654 657 660 663 666 669 672 675 677 680 683 685 688 691 694 697 700 703 705 708 710 713 716 718 721 724 727 730 733 736 739 742 745 748 751 754 757 760 763 766 769 772 775 778 781 784 787 790 793 796 799 802 805 808 811 814 817 820 823 826 829 832 835 838 841 844 847 850 853 856 859 862 865 868 871 874 877 880 
</DataArray>
<DataArray type="UInt32" Name="types" format="ascii">
5 5 5 5 5 5 5 5 5 5 5 5 5 5 5 5 5 5 5 5 5 5 5 5 5 5 5 5 5 5 5 5 5 5 5 5 5 5 5 5 5 5 5 5 5 5 5 5 5 5 5 5 5 5 5 5 5 5 5 5 5 5 5 5 5 5 5 5 5 5 5 5 5 5 5 5 5 5 5 5 5 5 5 5 5 5 5 5 5 5 5 5 5 5 5 5 5 5 5 5 5 5 5 5 5 5 5 5 5 5 5 5 5 5 5 5 5 5 5 5 5 5 5 5 5 5 5 5 5 5 5 5 5 5 5 5 5 5 5 5 5 3 5 3 5 5 5 5 5 5 5 5 5 5 5 5 5 5 3 5 3 5 5 3 5 5 3 5 5 5 5 5 5 3 5 5 3 5 5 5 5 5 5 5 5 5 5 5 5 5 5 5 5 5 5 5 5 5 5 5 5 3 3 5 5 5 5 5 5 5 5 5 3 5 5 3 5 5 5 5 5 5 5 5 5 5 5 5 5 3 5 5 3 5 5 5 5 5 5 3 5 3 5 5 3 5 5 5 5 5 5 5 5 5 5 5 5 5 5 5 5 5 5 5 5 5 5 5 5 5 5 5 5 5 5 5 5 5 5 5 5 5 5 5 5 5 5 5 5 5 5 5 5 5 5 5 5 5 5 
</DataArray>
</Cells>
<PointData Scalars="" Vectors="displacement," Tensors="">
<DataArray type="Float64" Name="displacement" NumberOfComponents="3" format="ascii">
5.6010671475481704e-05 2.7258810295846292e-05 0 0.030935665641667869 0.0076513446381046664 0 3.5039712986422636e-05 -3.5200329039060637e-06 0 5.6010671475481704e-05 2.7258810295846292e-05 0 0.030935665641667869 0.0076513446381046664 0 0.049196549158925136 0.023213202403368837 0 0.049196549158925136 0.023213202403368837 0 0.062494590768171092 0.014933299318189574 0 0.09438896927432637 0.029298815064913358 0 0.030935665641667869 0.0076513446381046664 0 0.049196549158925136 0.023213202403368837 0 0.062494590768171092 0.014933299318189574 0 0.062494590768171092 0.014933299318189574 0 0.090258718348064246 0.015667152482952883 0 0.09438896927432637 0.029298815064913358 0 0.062494590768171092 0.014933299318189574 0 0.090258718348064246 0.015667152482952883 0 0.070732887456853119 0.007773557814938244 0 0.064515642829885284 0.0027643324392059819 0 0.071677547002205064 -0.0011168375500498033 0 0.078834104602055324 0.0017338230129523764 0 0.064515642829885284 0.0027643324392059819 0 0.078834104602055324 0.0017338230129523764 0 0.070732887456853119 0.007773557814938244 0 0.071677547002205064 -0.0011168375500498033 0 0.08078309718011277 -0.002598418163673471 0 0.078834104602055324 0.0017338230129523764 0 0.071677547002205064 -0.0011168375500498033 0 0.08078309718011277 -0.002598418163673471 0 0.081101394209996056 -0.0045924232263560251 0 0.08078309718011277 -0.002598418163673471 0 0.087746074977998634 -0.0013316649221145303 0 0.087718818105389756 -0.0077047968650553866 0 0.08078309718011277 -0.002598418163673471 0 0.081101394209996056 -0.0045924232263560251 0 0.087718818105389756 -0.0077047968650553866 0 0.08078309718011277 -0.002598418163673471 0 0.087746074977998634 -0.0013316649221145303 0 0.078834104602055324 0.0017338230129523764 0 0.078834104602055324 0.0017338230129523764 0 0.087706019840601585 0.0078219702867260935 0 0.097750650390449001 0.003994645046407304 0 0.078834104602055324 0.0017338230129523764 0 0.087706019840601585 0.0078219702867260935 0 0.070732887456853119 0.007773557814938244 0 0.090258718348064246 0.015667152482952883 0 0.087706019840601585 0.0078219702867260935 0 0.070732887456853119 0.007773557814938244 0 0.062494590768171092 0.014933299318189574 0 0.070732887456853119 0.007773557814938244 0 0.048903462297529017 0.0052341627731618762 0 0.064515642829885284 0.0027643324392059819 0 0.070732887456853119 0.007773557814938244 0 0.048903462297529017 0.0052341627731618762 0 0.030935665641667869 0.0076513446381046664 0 0.062494590768171092 0.014933299318189574 0 0.048903462297529017 0.0052341627731618762 0 0.048903462297529017 0.0052341627731618762 0 0.055318640202590343 -0.00016576342466530922 0 0.028882779641393075 0.0025998032045350511 0 0.064515642829885284 0.0027643324392059819 0 0.048903462297529017 0.0052341627731618762 0 0.055318640202590343 -0.00016576342466530922 0 0.064515642829885284 0.0027643324392059819 0 0.071677547002205064 -0.0011168375500498033 0 0.055318640202590343 -0.00016576342466530922 0 0.028882779641393075 0.0025998032045350511 0 3.5039712986422636e-05 -3.5200329039060637e-06 0 4.1082479378642668e-05 1.7997974830021082e-06 0 0.028882779641393075 0.0025998032045350511 0 4.1082479378642668e-05 1.7997974830021082e-06 0 0.037743810766560727 -0.00062840253630005484 0 0.055318640202590343 -0.00016576342466530922 0 0.028882779641393075 0.0025998032045350511 0 0.037743810766560727 -0.00062840253630005484 0 0.030935665641667869 0.0076513446381046664 0 0.048903462297529017 0.0052341627731618762 0 0.028882779641393075 0.0025998032045350511 0 0.030935665641667869 0.0076513446381046664 0 0.028882779641393075 0.0025998032045350511 0 3.5039712986422636e-05 -3.5200329039060637e-06 0 4.1082479378642668e-05 1.7997974830021082e-06 0 0.030448836023960667 -0.0034462324694054863 0 3.5622778990517917e-05 -2.1684162456141775e-06 0 0.030448836023960667 -0.0034462324694054863 0 0.039083040414766977 -0.0078766367995148027 0 3.5622778990517917e-05 -2.1684162456141775e-06 0 0.030448836023960667 -0.0034462324694054863 0 0.039083040414766977 -0.0078766367995148027 0 0.054570480683132805 -0.007091578247547207 0 0.030448836023960667 -0.0034462324694054863 0 0.037743810766560727 -0.00062840253630005484 0 0.054693010786754342 -0.0038020136974632377 0 4.1082479378642668e-05 1.7997974830021082e-06 0 0.030448836023960667 -0.0034462324694054863 0 0.037743810766560727 -0.00062840253630005484 0 5.3832719146787987e-05 -1.9481506962807572e-05 0 0.015969325653621216 -0.0073383651664795154 0 3.5622778990517917e-05 -2.1684162456141775e-06 0 5.3832719146787987e-05 -1.9481506962807572e-05 0 0.015969325653621216 -0.0073383651664795154 0 0.032050988106353352 -0.01824941867374729 0 0.015969325653621216 -0.0073383651664795154 0 3.5622778990517917e-05 -2.1684162456141775e-06 0 0.028031961325400496 -0.0083739808045299579 0 0.028031961325400496 -0.0083739808045299579 0 0.043454784772838942 -0.018196176316797617 0 0.047849571876682949 -0.012375048171429223 0 0.039083040414766977 -0.0078766367995148027 0 3.5622778990517917e-05 -2.1684162456141775e-06 0 0.028031961325400496 -0.0083739808045299579 0 0.039083040414766977 -0.0078766367995148027 0 0.028031961325400496 -0.0083739808045299579 0 0.047849571876682949 -0.012375048171429223 0 0.015969325653621216 -0.0073383651664795154 0 0.028031961325400496 -0.0083739808045299579 0 0.043454784772838942 -0.018196176316797617 0 0.015969325653621216 -0.0073383651664795154 0 0.043454784772838942 -0.018196176316797617 0 0.032050988106353352 -0.01824941867374729 0 0.043454784772838942 -0.018196176316797617 0 0.032050988106353352 -0.01824941867374729 0 0.051228058947611697 -0.023111800599246585 0 0.064475103278897619 -0.023157990661183611 0 0.059369766547594488 -0.020326549739779157 0 0.051228058947611697 -0.023111800599246585 0 0.064475103278897619 -0.023157990661183611 0 0.059369766547594488 -0.020326549739779157 0 0.070790443001816403 -0.019803333577255611 0 0.043454784772838942 -0.018196176316797617 0 0.059369766547594488 -0.020326549739779157 0 0.051228058947611697 -0.023111800599246585 0 0.043454784772838942 -0.018196176316797617 0 0.059369766547594488 -0.020326549739779157 0 0.057300623521176743 -0.016903837668022101 0 0.059369766547594488 -0.020326549739779157 0 0.068109551897905019 -0.017320923359030693 0 0.070790443001816403 -0.019803333577255611 0 0.059369766547594488 -0.020326549739779157 0 0.057300623521176743 -0.016903837668022101 0 0.068109551897905019 -0.017320923359030693 0 0.043454784772838942 -0.018196176316797617 0 0.057300623521176743 -0.016903837668022101 0 0.047849571876682949 -0.012375048171429223 0 0.057300623521176743 -0.016903837668022101 0 0.065411734933003063 -0.014057286587490841 0 0.068109551897905019 -0.017320923359030693 0 0.057300623521176743 -0.016903837668022101 0 0.065411734933003063 -0.014057286587490841 0 0.047849571876682949 -0.012375048171429223 0 0.039083040414766977 -0.0078766367995148027 0 0.047849571876682949 -0.012375048171429223 0 0.058294551015621317 -0.01039133523112341 0 0.065411734933003063 -0.014057286587490841 0 0.047849571876682949 -0.012375048171429223 0 0.058294551015621317 -0.01039133523112341 0 0.065411734933003063 -0.014057286587490841 0 0.070813138170108314 -0.011327561391902745 0 0.058294551015621317 -0.01039133523112341 0 0.065411734933003063 -0.014057286587490841 0 0.070813138170108314 -0.011327561391902745 0 0.076706417859413484 -0.012635525895585252 0 0.070813138170108314 -0.011327561391902745 0 0.076706417859413484 -0.012635525895585252 0 0.079487370189621681 -0.011353440526566077 0 0.070813138170108314 -0.011327561391902745 0 0.079487370189621681 -0.011353440526566077 0 0.07702264884359207 -0.010117483062060667 0 0.079487370189621681 -0.011353440526566077 0 0.084828007412034279 -0.011043646928073405 0 0.083748349251272988 -0.010607787671934724 0 0.084828007412034279 -0.011043646928073405 0 0.083748349251272988 -0.010607787671934724 0 0.088429186560696038 -0.010539827393638443 0 0.084828007412034279 -0.011043646928073405 0 0.088589499110795528 -0.010868520839268776 0 0.088429186560696038 -0.010539827393638443 0 0.083816686983556654 -0.011719400183600613 0 0.088760295615165019 -0.011185470959270704 0 0.088589499110795528 -0.010868520839268776 0 0.084828007412034279 -0.011043646928073405 0 0.083816686983556654 -0.011719400183600613 0 0.088589499110795528 -0.010868520839268776 0 0.079487370189621681 -0.011353440526566077 0 0.084828007412034279 -0.011043646928073405 0 0.083816686983556654 -0.011719400183600613 0 0.076706417859413484 -0.012635525895585252 0 0.079487370189621681 -0.011353440526566077 0 0.083816686983556654 -0.011719400183600613 0 0.076706417859413484 -0.012635525895585252 0 0.083816686983556654 -0.011719400183600613 0 0.082630440870946079 -0.012614325379406762 0 0.076706417859413484 -0.012635525895585252 0 0.082630440870946079 -0.012614325379406762 0 0.077169267477945849 -0.014515144062610752 0 0.082630440870946079 -0.012614325379406762 0 0.088930917128480502 -0.011487284710164247 0 0.088760295615165019 -0.011185470959270704 0 0.083816686983556654 -0.011719400183600613 0 0.082630440870946079 -0.012614325379406762 0 0.088760295615165019 -0.011185470959270704 0 0.082630440870946079 -0.012614325379406762 0 0.084182533678643548 -0.012901222353068422 0 0.088930917128480502 -0.011487284710164247 0 0.084182533678643548 -0.012901222353068422 0 0.089097479485221079 -0.01176033798890202 0 0.088930917128480502 -0.011487284710164247 0 0.082630440870946079 -0.012614325379406762 0 0.084182533678643548 -0.012901222353068422 0 0.077169267477945849 -0.014515144062610752 0 0.065411734933003063 -0.014057286587490841 0 0.077169267477945849 -0.014515144062610752 0 0.068109551897905019 -0.017320923359030693 0 0.065411734933003063 -0.014057286587490841 0 0.076706417859413484 -0.012635525895585252 0 0.077169267477945849 -0.014515144062610752 0 0.068109551897905019 -0.017320923359030693 0 0.077179926578720151 -0.016583750015531314 0 0.070790443001816403 -0.019803333577255611 0 0.077169267477945849 -0.014515144062610752 0 0.068109551897905019 -0.017320923359030693 0 0.077179926578720151 -0.016583750015531314 0 0.084182533678643548 -0.012901222353068422 0 0.077169267477945849 -0.014515144062610752 0 0.082836979272585307 -0.013943157986135227 0 0.077169267477945849 -0.014515144062610752 0 0.077179926578720151 -0.016583750015531314 0 0.082836979272585307 -0.013943157986135227 0 0.084182533678643548 -0.012901222353068422 0 0.082836979272585307 -0.013943157986135227 0 0.089097479485221079 -0.01176033798890202 0 0.082836979272585307 -0.013943157986135227 0 0.089253830247491339 -0.01201302300455958 0 0.089097479485221079 -0.01176033798890202 0 0.082836979272585307 -0.013943157986135227 0 0.08437259578268505 -0.01426399822708857 0 0.089253830247491339 -0.01201302300455958 0 0.08437259578268505 -0.01426399822708857 0 0.089375946777142418 -0.012227573114030854 0 0.089253830247491339 -0.01201302300455958 0 0.077179926578720151 -0.016583750015531314 0 0.082836979272585307 -0.013943157986135227 0 0.08437259578268505 -0.01426399822708857 0 0.08437259578268505 -0.01426399822708857 0 0.080193901972341261 -0.017346395827605336 0 0.085320887060064327 -0.014456307479342703 0 0.077179926578720151 -0.016583750015531314 0 0.08437259578268505 -0.01426399822708857 0 0.080193901972341261 -0.017346395827605336 0 0.080193901972341261 -0.017346395827605336 0 0.085320887060064327 -0.014456307479342703 0 0.085502857926609513 -0.01488857008406996 0 0.08437259578268505 -0.01426399822708857 0 0.085320887060064327 -0.014456307479342703 0 0.089375946777142418 -0.012227573114030854 0 0.085320887060064327 -0.014456307479342703 0 0.085502857926609513 -0.01488857008406996 0 0.089465846799392068 -0.012388163155615134 0 0.085320887060064327 -0.014456307479342703 0 0.089465846799392068 -0.012388163155615134 0 0.089375946777142418 -0.012227573114030854 0 0.085502857926609513 -0.01488857008406996 0 0.08197464146875956 -0.017655873354026932 0 0.089502012258068642 -0.01253451590760531 0 0.085502857926609513 -0.01488857008406996 0 0.089465846799392068 -0.012388163155615134 0 0.089502012258068642 -0.01253451590760531 0 0.080193901972341261 -0.017346395827605336 0 0.085502857926609513 -0.01488857008406996 0 0.08197464146875956 -0.017655873354026932 0 0.080193901972341261 -0.017346395827605336 0 0.08197464146875956 -0.017655873354026932 0 0.07423518092603329 -0.020992186317394343 0 0.080193901972341261 -0.017346395827605336 0 0.07423518092603329 -0.020992186317394343 0 0.070790443001816403 -0.019803333577255611 0 0.077179926578720151 -0.016583750015531314 0 0.080193901972341261 -0.017346395827605336 0 0.070790443001816403 -0.019803333577255611 0 0.064475103278897619 -0.023157990661183611 0 0.07423518092603329 -0.020992186317394343 0 0.070790443001816403 -0.019803333577255611 0 0.054693010786754342 -0.0038020136974632377 0 0.067882921903035284 -0.0066567754615210325 0 0.073337233156637441 -0.0046073057997404023 0 0.055318640202590343 -0.00016576342466530922 0 0.054693010786754342 -0.0038020136974632377 0 0.073337233156637441 -0.0046073057997404023 0 0.055318640202590343 -0.00016576342466530922 0 0.037743810766560727 -0.00062840253630005484 0 0.054693010786754342 -0.0038020136974632377 0 0.030448836023960667 -0.0034462324694054863 0 0.054693010786754342 -0.0038020136974632377 0 0.054570480683132805 -0.007091578247547207 0 0.039083040414766977 -0.0078766367995148027 0 0.058294551015621317 -0.01039133523112341 0 0.054570480683132805 -0.007091578247547207 0 0.070813138170108314 -0.011327561391902745 0 0.058294551015621317 -0.01039133523112341 0 0.068017472778382701 -0.0088916435703750695 0 0.058294551015621317 -0.01039133523112341 0 0.054570480683132805 -0.007091578247547207 0 0.068017472778382701 -0.0088916435703750695 0 0.054693010786754342 -0.0038020136974632377 0 0.054570480683132805 -0.007091578247547207 0 0.067882921903035284 -0.0066567754615210325 0 0.054570480683132805 -0.007091578247547207 0 0.067882921903035284 -0.0066567754615210325 0 0.068017472778382701 -0.0088916435703750695 0 0.067882921903035284 -0.0066567754615210325 0 0.068017472778382701 -0.0088916435703750695 0 0.077496028262310127 -0.0085153814431163811 0 0.067882921903035284 -0.0066567754615210325 0 0.077496028262310127 -0.0085153814431163811 0 0.07866842943841787 -0.0071781321535685939 0 0.070813138170108314 -0.011327561391902745 0 0.068017472778382701 -0.0088916435703750695 0 0.07702264884359207 -0.010117483062060667 0 0.068017472778382701 -0.0088916435703750695 0 0.07702264884359207 -0.010117483062060667 0 0.077496028262310127 -0.0085153814431163811 0 0.07702264884359207 -0.010117483062060667 0 0.084263099350844806 -0.010052437612836721 0 0.083748349251272988 -0.010607787671934724 0 0.079487370189621681 -0.011353440526566077 0 0.07702264884359207 -0.010117483062060667 0 0.083748349251272988 -0.010607787671934724 0 0.07702264884359207 -0.010117483062060667 0 0.081956742234212246 -0.0095670579083408404 0 0.077496028262310127 -0.0085153814431163811 0 0.07702264884359207 -0.010117483062060667 0 0.081956742234212246 -0.0095670579083408404 0 0.084263099350844806 -0.010052437612836721 0 0.081956742234212246 -0.0095670579083408404 0 0.084263099350844806 -0.010052437612836721 0 0.088145539300902145 -0.0098600234513640996 0 0.081956742234212246 -0.0095670579083408404 0 0.088026855788600269 -0.0095159429565899751 0 0.088145539300902145 -0.0098600234513640996 0 0.084263099350844806 -0.010052437612836721 0 0.088280814503556251 -0.010200847778786755 0 0.088145539300902145 -0.0098600234513640996 0 0.083748349251272988 -0.010607787671934724 0 0.088280814503556251 -0.010200847778786755 0 0.088429186560696038 -0.010539827393638443 0 0.084263099350844806 -0.010052437612836721 0 0.083748349251272988 -0.010607787671934724 0 0.088280814503556251 -0.010200847778786755 0 0.077496028262310127 -0.0085153814431163811 0 0.083745698202623065 -0.0090384628544909126 0 0.083293019081664546 -0.0084074472220269873 0 0.077496028262310127 -0.0085153814431163811 0 0.083293019081664546 -0.0084074472220269873 0 0.07866842943841787 -0.0071781321535685939 0 0.081956742234212246 -0.0095670579083408404 0 0.077496028262310127 -0.0085153814431163811 0 0.083745698202623065 -0.0090384628544909126 0 0.081956742234212246 -0.0095670579083408404 0 0.083745698202623065 -0.0090384628544909126 0 0.088026855788600269 -0.0095159429565899751 0 0.083745698202623065 -0.0090384628544909126 0 0.087923607874305185 -0.009179544839070691 0 0.088026855788600269 -0.0095159429565899751 0 0.083745698202623065 -0.0090384628544909126 0 0.083293019081664546 -0.0084074472220269873 0 0.087923607874305185 -0.009179544839070691 0 0.083293019081664546 -0.0084074472220269873 0 0.087835908614423447 -0.0088517597693720529 0 0.087923607874305185 -0.009179544839070691 0 0.084044247292374002 -0.0079826318714457337 0 0.087765677510282941 -0.0085464049928816489 0 0.087835908614423447 -0.0088517597693720529 0 0.083293019081664546 -0.0084074472220269873 0 0.084044247292374002 -0.0079826318714457337 0 0.087835908614423447 -0.0088517597693720529 0 0.082489014769660432 -0.0070496958116461183 0 0.087721776067120102 -0.0082496053726135617 0 0.087765677510282941 -0.0085464049928816489 0 0.084044247292374002 -0.0079826318714457337 0 0.082489014769660432 -0.0070496958116461183 0 0.087765677510282941 -0.0085464049928816489 0 0.082489014769660432 -0.0070496958116461183 0 0.07866842943841787 -0.0071781321535685939 0 0.073337233156637441 -0.0046073057997404023 0 0.084044247292374002 -0.0079826318714457337 0 0.082489014769660432 -0.0070496958116461183 0 0.07866842943841787 -0.0071781321535685939 0 0.083293019081664546 -0.0084074472220269873 0 0.084044247292374002 -0.0079826318714457337 0 0.07866842943841787 -0.0071781321535685939 0 0.067882921903035284 -0.0066567754615210325 0 0.07866842943841787 -0.0071781321535685939 0 0.073337233156637441 -0.0046073057997404023 0 0.071677547002205064 -0.0011168375500498033 0 0.055318640202590343 -0.00016576342466530922 0 0.073337233156637441 -0.0046073057997404023 0 0.071677547002205064 -0.0011168375500498033 0 0.073337233156637441 -0.0046073057997404023 0 0.081101394209996056 -0.0045924232263560251 0 0.073337233156637441 -0.0046073057997404023 0 0.081101394209996056 -0.0045924232263560251 0 0.08261159051355782 -0.006240528218421069 0 0.082489014769660432 -0.0070496958116461183 0 0.073337233156637441 -0.0046073057997404023 0 0.08261159051355782 -0.006240528218421069 0 0.082489014769660432 -0.0070496958116461183 0 0.08261159051355782 -0.006240528218421069 0 0.087721776067120102 -0.0082496053726135617 0 0.08261159051355782 -0.006240528218421069 0 0.087683608972508834 -0.0080255452411422349 0 0.087721776067120102 -0.0082496053726135617 0 0.081101394209996056 -0.0045924232263560251 0 0.08261159051355782 -0.006240528218421069 0 0.087683608972508834 -0.0080255452411422349 0 0.081101394209996056 -0.0045924232263560251 0 0.087718818105389756 -0.0077047968650553866 0 0.087683608972508834 -0.0080255452411422349 0 0.087756346208631431 -0.0080274052921189415 0 0.092321051808806301 -0.0052625315535621197 0 0.092564881190275117 -0.0062974113558217004 0 0.087718818105389756 -0.0077047968650553866 0 0.087756346208631431 -0.0080274052921189415 0 0.092321051808806301 -0.0052625315535621197 0 0.087718554900672735 -0.0078085286366858034 0 0.087720579943853211 -0.0080091883757160351 0 0.087756346208631431 -0.0080274052921189415 0 0.087781997598125092 -0.0082652189110444668 0 0.092564881190275117 -0.0062974113558217004 0 0.087720579943853211 -0.0080091883757160351 0 0.087751786140215102 -0.0082689811154919302 0 0.087781997598125092 -0.0082652189110444668 0 0.092564881190275117 -0.0062974113558217004 0 0.091585479215221408 -0.0073366064609876949 0 0.092564881190275117 -0.0062974113558217004 0 0.099010937748779046 -0.0032818935116482898 0 0.098008233156881008 -0.0058521862352936488 0 0.092321051808806301 -0.0052625315535621197 0 0.099010937748779046 -0.0032818935116482898 0 0.096044531633477911 -0.0014470574524265084 0 0.092321051808806301 -0.0052625315535621197 0 0.092564881190275117 -0.0062974113558217004 0 0.099010937748779046 -0.0032818935116482898 0 0.099010937748779046 -0.0032818935116482898 0 0.10792875902606477 -0.0026807920943814176 0 0.10745499508271343 0.00056026578304559267 0 0.099010937748779046 -0.0032818935116482898 0 0.10792875902606477 -0.0026807920943814176 0 0.098008233156881008 -0.0058521862352936488 0 0.10792875902606477 -0.0026807920943814176 0 0.10756981194772086 -0.0059348216195722839 0 0.098008233156881008 -0.0058521862352936488 0 0.10756981194772086 -0.0059348216195722839 0 0.098008233156881008 -0.0058521862352936488 0 0.097815623676103719 -0.0078982667142187546 0 0.098008233156881008 -0.0058521862352936488 0 0.092423203150895833 -0.0078215629025095764 0 0.097815623676103719 -0.0078982667142187546 0 0.092423203150895833 -0.0078215629025095764 0 0.091651691431142837 -0.0085605569015305746 0 0.097815623676103719 -0.0078982667142187546 0 0.092564881190275117 -0.0062974113558217004 0 0.098008233156881008 -0.0058521862352936488 0 0.091585479215221408 -0.0073366064609876949 0 0.098008233156881008 -0.0058521862352936488 0 0.091585479215221408 -0.0073366064609876949 0 0.092423203150895833 -0.0078215629025095764 0 0.091585479215221408 -0.0073366064609876949 0 0.08783306951579628 -0.0085641127990233705 0 0.092423203150895833 -0.0078215629025095764 0 0.087781997598125092 -0.0082652189110444668 0 0.091585479215221408 -0.0073366064609876949 0 0.08783306951579628 -0.0085641127990233705 0 0.087751786140215102 -0.0082689811154919302 0 0.087799765454966275 -0.0085571608560869594 0 0.092423203150895833 -0.0078215629025095764 0 0.087904183299392452 -0.0088794913000567032 0 0.091651691431142837 -0.0085605569015305746 0 0.087799765454966275 -0.0085571608560869594 0 0.087870136860341799 -0.0088688634701952831 0 0.08783306951579628 -0.0085641127990233705 0 0.092423203150895833 -0.0078215629025095764 0 0.087904183299392452 -0.0088794913000567032 0 0.087904183299392452 -0.0088794913000567032 0 0.091651691431142837 -0.0085605569015305746 0 0.087993656902318723 -0.009211328849068735 0 0.087870136860341799 -0.0088688634701952831 0 0.087958793732620763 -0.0091969992963958271 0 0.091651691431142837 -0.0085605569015305746 0 0.087993656902318723 -0.009211328849068735 0 0.092548965593869298 -0.0090631560652356113 0 0.087993656902318723 -0.009211328849068735 0 0.088097764705558412 -0.0095537761876355182 0 0.092548965593869298 -0.0090631560652356113 0 0.087958793732620763 -0.0091969992963958271 0 0.088062448762172243 -0.009535958790037562 0 0.088097764705558412 -0.0095537761876355182 0 0.092548965593869298 -0.0090631560652356113 0 0.091780833294251768 -0.0096489590547651233 0 0.092548965593869298 -0.0090631560652356113 0 0.091780833294251768 -0.0096489590547651233 0 0.09797727600242391 -0.0095876174383832617 0 0.092548965593869298 -0.0090631560652356113 0 0.097815623676103719 -0.0078982667142187546 0 0.09797727600242391 -0.0095876174383832617 0 0.091651691431142837 -0.0085605569015305746 0 0.092548965593869298 -0.0090631560652356113 0 0.097815623676103719 -0.0078982667142187546 0 0.088351301334273519 -0.01024879110994942 0 0.092436202413453281 -0.010185151029489718 0 0.091909733863277554 -0.010701084210656339 0 0.088351301334273519 -0.01024879110994942 0 0.092436202413453281 -0.010185151029489718 0 0.088216649677454601 -0.0099018185429970255 0 0.088316162857782779 -0.010224300876216378 0 0.088181282443889036 -0.0098805725088636793 0 0.092436202413453281 -0.010185151029489718 0 0.088216649677454601 -0.0099018185429970255 0 0.091780833294251768 -0.0096489590547651233 0 0.088097764705558412 -0.0095537761876355182 0 0.088216649677454601 -0.0099018185429970255 0 0.091780833294251768 -0.0096489590547651233 0 0.088062448762172243 -0.009535958790037562 0 0.088181282443889036 -0.0098805725088636793 0 0.092436202413453281 -0.010185151029489718 0 0.091780833294251768 -0.0096489590547651233 0 0.09797727600242391 -0.0095876174383832617 0 0.092436202413453281 -0.010185151029489718 0 0.091909733863277554 -0.010701084210656339 0 0.097501834140555577 -0.011207242287186479 0 0.092436202413453281 -0.010185151029489718 0 0.09797727600242391 -0.0095876174383832617 0 0.097501834140555577 -0.011207242287186479 0 0.09797727600242391 -0.0095876174383832617 0 0.10688322244447798 -0.010752221641559223 0 0.097501834140555577 -0.011207242287186479 0 0.09797727600242391 -0.0095876174383832617 0 0.10688322244447798 -0.010752221641559223 0 0.10545090244424714 -0.0085699728748290221 0 0.10756981194772086 -0.0059348216195722839 0 0.097815623676103719 -0.0078982667142187546 0 0.10545090244424714 -0.0085699728748290221 0 0.097815623676103719 -0.0078982667142187546 0 0.09797727600242391 -0.0095876174383832617 0 0.10545090244424714 -0.0085699728748290221 0 0.10756981194772086 -0.0059348216195722839 0 0.10545090244424714 -0.0085699728748290221 0 0.11728280772135001 -0.0090218178417521312 0 0.10688322244447798 -0.010752221641559223 0 0.11728280772135001 -0.0090218178417521312 0 0.12034310024889958 -0.013367995081423351 0 0.10688322244447798 -0.010752221641559223 0 0.10545090244424714 -0.0085699728748290221 0 0.11728280772135001 -0.0090218178417521312 0 0.11728280772135001 -0.0090218178417521312 0 0.12034310024889958 -0.013367995081423351 0 0.13905126028789827 -0.0098382448825745511 0 0.11728280772135001 -0.0090218178417521312 0 0.12270473017708627 -0.0033034955285762232 0 0.13905126028789827 -0.0098382448825745511 0 0.12270473017708627 -0.0033034955285762232 0 0.13969928483149599 0.0025626493158322624 0 0.11881544333211883 0.00098089330464882574 0 0.10792875902606477 -0.0026807920943814176 0 0.12270473017708627 -0.0033034955285762232 0 0.11881544333211883 0.00098089330464882574 0 0.10792875902606477 -0.0026807920943814176 0 0.10745499508271343 0.00056026578304559267 0 0.11881544333211883 0.00098089330464882574 0 0.10792875902606477 -0.0026807920943814176 0 0.10756981194772086 -0.0059348216195722839 0 0.12270473017708627 -0.0033034955285762232 0 0.10756981194772086 -0.0059348216195722839 0 0.11728280772135001 -0.0090218178417521312 0 0.12270473017708627 -0.0033034955285762232 0 0.10807700289556757 -0.020342929791663366 0 0.10605816930951507 -0.021987132869847183 0 0.11691450788894873 -0.025070071582338649 0 0.10807700289556757 -0.020342929791663366 0 0.099884788503091695 -0.018305940147192473 0 0.099353001304770053 -0.016708663808891924 0 0.10807700289556757 -0.020342929791663366 0 0.10605816930951507 -0.021987132869847183 0 0.099884788503091695 -0.018305940147192473 0 0.10605816930951507 -0.021987132869847183 0 0.097702866703117452 -0.018070970750540032 0 0.099884788503091695 -0.018305940147192473 0 0.097702866703117452 -0.018070970750540032 0 0.099884788503091695 -0.018305940147192473 0 0.093796351373419448 -0.01515847146396442 0 0.097702866703117452 -0.018070970750540032 0 0.093796351373419448 -0.01515847146396442 0 0.089575351054737684 -0.012551918704282697 0 0.093796351373419448 -0.01515847146396442 0 0.089508756441685294 -0.012409558373167049 0 0.089575351054737684 -0.012551918704282697 0 0.089487086188340226 -0.012396124747394419 0 0.089537523589272999 -0.012503540492898372 0 0.089487086188340226 -0.012396124747394419 0 0.089403030592148228 -0.012236014206056339 0 0.089508756441685294 -0.012409558373167049 0 0.089430916471332791 -0.012262207184371756 0 0.09396565831367823 -0.014754058694711929 0 0.093796351373419448 -0.01515847146396442 0 0.089508756441685294 -0.012409558373167049 0 0.09396565831367823 -0.014754058694711929 0 0.089430916471332791 -0.012262207184371756 0 0.09396565831367823 -0.014754058694711929 0 0.093049769360571563 -0.013794496019940849 0 0.099884788503091695 -0.018305940147192473 0 0.09396565831367823 -0.014754058694711929 0 0.099353001304770053 -0.016708663808891924 0 0.099884788503091695 -0.018305940147192473 0 0.093796351373419448 -0.01515847146396442 0 0.09396565831367823 -0.014754058694711929 0 0.09396565831367823 -0.014754058694711929 0 0.099353001304770053 -0.016708663808891924 0 0.093049769360571563 -0.013794496019940849 0 0.099353001304770053 -0.016708663808891924 0 0.09413924124785833 -0.013726999408711294 0 0.10211057688450791 -0.016368730420000546 0 0.099353001304770053 -0.016708663808891924 0 0.093049769360571563 -0.013794496019940849 0 0.09413924124785833 -0.013726999408711294 0 0.093049769360571563 -0.013794496019940849 0 0.089310300084276678 -0.012059118510251401 0 0.09413924124785833 -0.013726999408711294 0 0.089403030592148228 -0.012236014206056339 0 0.089281673002769249 -0.012029508022787698 0 0.089430916471332791 -0.012262207184371756 0 0.093049769360571563 -0.013794496019940849 0 0.089310300084276678 -0.012059118510251401 0 0.089310300084276678 -0.012059118510251401 0 0.089158592147483867 -0.01181542228455972 0 0.09413924124785833 -0.013726999408711294 0 0.089281673002769249 -0.012029508022787698 0 0.089128010012456418 -0.011783898605351333 0 0.089158592147483867 -0.01181542228455972 0 0.09413924124785833 -0.013726999408711294 0 0.092326337673920761 -0.012648930684040464 0 0.09413924124785833 -0.013726999408711294 0 0.10211057688450791 -0.016368730420000546 0 0.096986123334186075 -0.013764454867284176 0 0.10807700289556757 -0.020342929791663366 0 0.099353001304770053 -0.016708663808891924 0 0.10211057688450791 -0.016368730420000546 0 0.10807700289556757 -0.020342929791663366 0 0.10211057688450791 -0.016368730420000546 0 0.11288270241288534 -0.018491642870846925 0 0.10211057688450791 -0.016368730420000546 0 0.10427096234878414 -0.014986856673447171 0 0.11288270241288534 -0.018491642870846925 0 0.10427096234878414 -0.014986856673447171 0 0.11349392809762222 -0.015710763392319995 0 0.11288270241288534 -0.018491642870846925 0 0.10427096234878414 -0.014986856673447171 0 0.10572185952976032 -0.013059589952977119 0 0.11349392809762222 -0.015710763392319995 0 0.10427096234878414 -0.014986856673447171 0 0.096986123334186075 -0.013764454867284176 0 0.097388995525298158 -0.012614959893648223 0 0.10427096234878414 -0.014986856673447171 0 0.097388995525298158 -0.012614959893648223 0 0.10572185952976032 -0.013059589952977119 0 0.10211057688450791 -0.016368730420000546 0 0.10427096234878414 -0.014986856673447171 0 0.096986123334186075 -0.013764454867284176 0 0.09413924124785833 -0.013726999408711294 0 0.096986123334186075 -0.013764454867284176 0 0.092326337673920761 -0.012648930684040464 0 0.096986123334186075 -0.013764454867284176 0 0.092326337673920761 -0.012648930684040464 0 0.092785615051475104 -0.012284998464489794 0 0.092326337673920761 -0.012648930684040464 0 0.088994536147969608 -0.011542905030470603 0 0.092785615051475104 -0.012284998464489794 0 0.089128010012456418 -0.011783898605351333 0 0.088962683604716028 -0.011510483027598151 0 0.089158592147483867 -0.01181542228455972 0 0.092326337673920761 -0.012648930684040464 0 0.088994536147969608 -0.011542905030470603 0 0.088826742847287282 -0.011243137345228717 0 0.092785615051475104 -0.012284998464489794 0 0.092084266144989435 -0.011670780938480906 0 0.088962683604716028 -0.011510483027598151 0 0.088793489647516211 -0.011211541948364328 0 0.088994536147969608 -0.011542905030470603 0 0.088826742847287282 -0.011243137345228717 0 0.092785615051475104 -0.012284998464489794 0 0.092785615051475104 -0.012284998464489794 0 0.097388995525298158 -0.012614959893648223 0 0.092084266144989435 -0.011670780938480906 0 0.096986123334186075 -0.013764454867284176 0 0.092785615051475104 -0.012284998464489794 0 0.097388995525298158 -0.012614959893648223 0 0.097388995525298158 -0.012614959893648223 0 0.092084266144989435 -0.011670780938480906 0 0.092795228999283233 -0.011299831757434028 0 0.097388995525298158 -0.012614959893648223 0 0.092795228999283233 -0.011299831757434028 0 0.097501834140555577 -0.011207242287186479 0 0.092084266144989435 -0.011670780938480906 0 0.088657972336398563 -0.01092435495588796 0 0.092795228999283233 -0.011299831757434028 0 0.088793489647516211 -0.011211541948364328 0 0.088623865550401054 -0.010894300959441126 0 0.088826742847287282 -0.011243137345228717 0 0.092084266144989435 -0.011670780938480906 0 0.088657972336398563 -0.01092435495588796 0 0.088316162857782779 -0.010224300876216378 0 0.088464183124098372 -0.010563856047157368 0 0.088351301334273519 -0.01024879110994942 0 0.088498958490658919 -0.010591038421791462 0 0.091909733863277554 -0.010701084210656339 0 0.088657972336398563 -0.01092435495588796 0 0.088498958490658919 -0.010591038421791462 0 0.092795228999283233 -0.011299831757434028 0 0.088623865550401054 -0.010894300959441126 0 0.088464183124098372 -0.010563856047157368 0 0.088498958490658919 -0.010591038421791462 0 0.092795228999283233 -0.011299831757434028 0 0.091909733863277554 -0.010701084210656339 0 0.092795228999283233 -0.011299831757434028 0 0.091909733863277554 -0.010701084210656339 0 0.097501834140555577 -0.011207242287186479 0 0.10688322244447798 -0.010752221641559223 0 0.097501834140555577 -0.011207242287186479 0 0.10572185952976032 -0.013059589952977119 0 0.097388995525298158 -0.012614959893648223 0 0.097501834140555577 -0.011207242287186479 0 0.10572185952976032 -0.013059589952977119 0 0.12034310024889958 -0.013367995081423351 0 0.12639091090408486 -0.018757922270034828 0 0.14476381164780958 -0.016787579832390331 0 0.10688322244447798 -0.010752221641559223 0 0.10572185952976032 -0.013059589952977119 0 0.12034310024889958 -0.013367995081423351 0 0.10572185952976032 -0.013059589952977119 0 0.12034310024889958 -0.013367995081423351 0 0.11349392809762222 -0.015710763392319995 0 0.12639091090408486 -0.018757922270034828 0 0.11349392809762222 -0.015710763392319995 0 0.11288270241288534 -0.018491642870846925 0 0.12034310024889958 -0.013367995081423351 0 0.12639091090408486 -0.018757922270034828 0 0.11349392809762222 -0.015710763392319995 0 0.12639091090408486 -0.018757922270034828 0 0.12267518955337009 -0.022684182270090326 0 0.11288270241288534 -0.018491642870846925 0 0.10807700289556757 -0.020342929791663366 0 0.12267518955337009 -0.022684182270090326 0 0.11288270241288534 -0.018491642870846925 0 0.12639091090408486 -0.018757922270034828 0 0.12267518955337009 -0.022684182270090326 0 0.1408532735258114 -0.022979097282250231 0 0.12267518955337009 -0.022684182270090326 0 0.13170493752598877 -0.027316888125085328 0 0.1408532735258114 -0.022979097282250231 0 0.10807700289556757 -0.020342929791663366 0 0.12267518955337009 -0.022684182270090326 0 0.11691450788894873 -0.025070071582338649 0 0.12267518955337009 -0.022684182270090326 0 0.13170493752598877 -0.027316888125085328 0 0.11691450788894873 -0.025070071582338649 0 0.18226371162955185 -0.029786768588965288 0 0.16176264175257743 -0.022227530739647946 0 0.18010947571852395 -0.01340029507335265 0 0.13170493752598877 -0.027316888125085328 0 0.15260475706966165 -0.028600623344141648 0 0.1408532735258114 -0.022979097282250231 0 0.15260475706966165 -0.028600623344141648 0 0.1408532735258114 -0.022979097282250231 0 0.16176264175257743 -0.022227530739647946 0 0.12034310024889958 -0.013367995081423351 0 0.14476381164780958 -0.016787579832390331 0 0.13905126028789827 -0.0098382448825745511 0 0.14476381164780958 -0.016787579832390331 0 0.13905126028789827 -0.0098382448825745511 0 0.18010947571852395 -0.01340029507335265 0 0.1408532735258114 -0.022979097282250231 0 0.14476381164780958 -0.016787579832390331 0 0.16176264175257743 -0.022227530739647946 0 0.12639091090408486 -0.018757922270034828 0 0.1408532735258114 -0.022979097282250231 0 0.14476381164780958 -0.016787579832390331 0 0.14476381164780958 -0.016787579832390331 0 0.16176264175257743 -0.022227530739647946 0 0.18010947571852395 -0.01340029507335265 0 0.15260475706966165 -0.028600623344141648 0 0.18226371162955185 -0.029786768588965288 0 0.16176264175257743 -0.022227530739647946 0 0.15111219935608858 -0.0036013647801455156 0 0.18010947571852395 -0.01340029507335265 0 0.18089565607611494 0.0036721737453560936 0 0.12270473017708627 -0.0033034955285762232 0 0.15111219935608858 -0.0036013647801455156 0 0.13969928483149599 0.0025626493158322624 0 0.15111219935608858 -0.0036013647801455156 0 0.18089565607611494 0.0036721737453560936 0 0.13969928483149599 0.0025626493158322624 0 0.12270473017708627 -0.0033034955285762232 0 0.15111219935608858 -0.0036013647801455156 0 0.13905126028789827 -0.0098382448825745511 0 0.15111219935608858 -0.0036013647801455156 0 0.13905126028789827 -0.0098382448825745511 0 0.18010947571852395 -0.01340029507335265 0 0.18089565607611494 0.0036721737453560936 0 0.13969928483149599 0.0025626493158322624 0 0.14600262353020355 0.011052454992577721 0 0.14600262353020355 0.011052454992577721 0 0.18410088482667289 0.01986283889378793 0 0.14749269224887648 0.022166190284430995 0 0.18089565607611494 0.0036721737453560936 0 0.14600262353020355 0.011052454992577721 0 0.18410088482667289 0.01986283889378793 0 0.1874019454758615 0.035580961345438304 0 0.14749269224887648 0.022166190284430995 0 0.14063592508422565 0.032500364724535317 0 0.18410088482667289 0.01986283889378793 0 0.1874019454758615 0.035580961345438304 0 0.14749269224887648 0.022166190284430995 0 0.09438896927432637 0.029298815064913358 0 0.11529215401452819 0.021997791046300837 0 0.14063592508422565 0.032500364724535317 0 0.14749269224887648 0.022166190284430995 0 0.11529215401452819 0.021997791046300837 0 0.11213913755461669 0.011792731558087882 0 0.14749269224887648 0.022166190284430995 0 0.11529215401452819 0.021997791046300837 0 0.14063592508422565 0.032500364724535317 0 0.090258718348064246 0.015667152482952883 0 0.09438896927432637 0.029298815064913358 0 0.11529215401452819 0.021997791046300837 0 0.090258718348064246 0.015667152482952883 0 0.11529215401452819 0.021997791046300837 0 0.11213913755461669 0.011792731558087882 0 0.090258718348064246 0.015667152482952883 0 0.087706019840601585 0.0078219702867260935 0 0.11213913755461669 0.011792731558087882 0 0.087706019840601585 0.0078219702867260935 0 0.11213913755461669 0.011792731558087882 0 0.097750650390449001 0.003994645046407304 0 0.11213913755461669 0.011792731558087882 0 0.097750650390449001 0.003994645046407304 0 0.11951785312800621 0.0055949101549751289 0 0.087746074977998634 -0.0013316649221145303 0 0.078834104602055324 0.0017338230129523764 0 0.097750650390449001 0.003994645046407304 0 0.087746074977998634 -0.0013316649221145303 0 0.097750650390449001 0.003994645046407304 0 0.096044531633477911 -0.0014470574524265084 0 0.087746074977998634 -0.0013316649221145303 0 0.087718818105389756 -0.0077047968650553866 0 0.096044531633477911 -0.0014470574524265084 0 0.087718818105389756 -0.0077047968650553866 0 0.092321051808806301 -0.0052625315535621197 0 0.096044531633477911 -0.0014470574524265084 0 0.097750650390449001 0.003994645046407304 0 0.096044531633477911 -0.0014470574524265084 0 0.10745499508271343 0.00056026578304559267 0 0.099010937748779046 -0.0032818935116482898 0 0.096044531633477911 -0.0014470574524265084 0 0.10745499508271343 0.00056026578304559267 0 0.097750650390449001 0.003994645046407304 0 0.10745499508271343 0.00056026578304559267 0 0.11951785312800621 0.0055949101549751289 0 0.13969928483149599 0.0025626493158322624 0 0.14600262353020355 0.011052454992577721 0 0.11951785312800621 0.0055949101549751289 0 0.10745499508271343 0.00056026578304559267 0 0.11951785312800621 0.0055949101549751289 0 0.11881544333211883 0.00098089330464882574 0 0.13969928483149599 0.0025626493158322624 0 0.11951785312800621 0.0055949101549751289 0 0.11881544333211883 0.00098089330464882574 0 0.14600262353020355 0.011052454992577721 0 0.14749269224887648 0.022166190284430995 0 0.11213913755461669 0.011792731558087882 0 0.14600262353020355 0.011052454992577721 0 0.11213913755461669 0.011792731558087882 0 0.11951785312800621 0.0055949101549751289 0 
</DataArray>
</PointData>
<CellData Scalars="region_id," Vectors="" Tensors="effective_stress,">
<DataArray type="Float64" Name="region_id" format="ascii">
1 1 1 1 1 1 1 1 1 1 1 1 1 1 1 1 1 1 1 1 1 1 1 1 1 1 1 1 1 1 1 1 1 1 1 1 1 1 1 1 1 1 1 1 1 1 1 1 1 1 1 1 1 1 1 1 1 1 1 1 1 1 1 1 1 1 1 1 1 1 1 1 1 1 1 1 1 1 1 1 1 1 1 1 1 1 1 1 1 1 1 1 1 1 1 1 1 1 1 1 1 1 1 1 1 1 1 1 1 1 1 1 1 1 1 1 1 1 1 1 1 1 1 1 1 1 1 1 1 1 1 1 1 1 1 1 1 1 1 1 1 6 1 6 1 1 1 1 1 1 1 1 1 1 1 1 1 1 6 1 6 1 1 6 1 1 6 1 1 1 1 1 1 6 1 1 6 1 1 1 1 1 1 1 1 1 1 1 1 1 1 1 1 1 1 1 1 1 1 1 1 6 6 1 1 1 1 1 1 1 1 1 6 1 1 6 1 1 1 1 1 1 1 1 1 1 1 1 1 6 1 1 6 1 1 1 1 1 1 6 1 6 1 1 6 1 1 1 1 1 1 1 1 1 1 1 1 1 1 1 1 1 1 1 1 1 1 1 1 1 1 1 1 1 1 1 1 1 1 1 1 1 1 1 1 1 1 1 1 1 1 1 1 1 1 1 1 1 1 
</DataArray>
<DataArray type="Float64" Name="effective_stress" NumberOfComponents="9" format="ascii">
0.19871892840698896 0.016373707316110504 0 0.016373707316110504 0.066108319738011234 0 0 0 0.066206812036250048 0.21847847062413853 0.026693853833227171 0 0.026693853833227171 0.026436519231577943 0 0 0 0.06122874746392911 0.19436378709952842 -0.00037971118174939811 0 -0.00037971118174939811 0.004628383819785753 0 0 0 0.049748042729828558 0.20036537280425409 0.0015156449193289359 0 0.0015156449193289359 0.0020605452988810974 0 0 0 0.050606479525783794 0.20186707081645244 -0.0011924924546163635 0 -0.0011924924546163635 -0.0002577962871838646 0 0 0 0.050402318632317172 0.20308555750333177 -0.00088114514699120898 0 -0.00088114514699120898 0.0041552846051320508 0 0 0 0.051810210527115916 0.20410852291017254 -0.0044437593026260495 0 -0.0044437593026260495 0.013694349379894208 0 0 0 0.05445071807251671 0.20108759652088354 -0.0086540830791693741 0 -0.0086540830791693741 0.0033463436210597886 0 0 0 0.051108485035485825 0.19285185489434173 -0.014852650507526467 0 -0.014852650507526467 -0.0047398530946059642 0 0 0 0.04702800044993391 0.19876038221468895 -0.0066749792286055765 0 -0.0066749792286055765 0.0080634684881340235 0 0 0 0.051705962675705673 0.19249814501917342 -0.025758273942304247 0 -0.025758273942304247 -0.074163488069669756 0 0 0 0.029583664237376087 0.20502357472807373 -0.036885415077678681 0 -0.036885415077678681 0.0062678507614072759 0 0 0 0.05282285637237033 0.21380226268819069 -0.0083799171438866567 0 -0.0083799171438866567 -0.0017300571211942041 0 0 0 0.053018051391749144 0.20977657515312095 -0.00061310026486908684 0 -0.00061310026486908684 -0.003268338978250681 0 0 0 0.051627059043717539 0.20397955968840692 -0.0023023663188996152 0 -0.0023023663188996152 -0.0062563421636125244 0 0 0 0.049430804381198609 0.20540158938935646 -0.0025367646940572461 0 -0.0025367646940572461 -0.0020656612947339125 0 0 0 0.050833982023655647 0.20162074956626796 -0.002851339354126705 0 -0.002851339354126705 0.0062206286927370576 0 0 0 0.051960344564751237 0.20502077346495476 2.9363501069277348e-05 0 2.9363501069277348e-05 0.011872875549739297 0 0 0 0.054223412253673511 0.20875217882052677 0.0079087901145050432 0 0.0079087901145050432 0.018710397304784909 0 0 0 0.056865644031327912 0.1984133076854758 0.003746482181502829 0 0.003746482181502829 0.023664683263755273 0 0 0 0.055519497737307771 0.20016693560089027 0.00057468094730938788 0 0.00057468094730938788 0.026227100186680164 0 0 0 0.056598508946892646 0.19846760754227272 -0.0050719673512094176 0 -0.0050719673512094176 0.014659735632966813 0 0 0 0.053281835793809837 0.19367897996889596 0.0058292268109490387 0 0.0058292268109490387 0.064582357932616047 0 0 0 0.064565334475378003 0.18993587045405139 0.0036792039110954467 0 0.0036792039110954467 0.034789219074466783 0 0 0 0.056181272382129548 0.20046740717108613 0.0019847734787715758 0 0.0019847734787715758 0.03867202012444463 0 0 0 0.059784856823882709 0.19980539085626151 0.0030859211451326925 0 0.0030859211451326925 0.036266149333869083 0 0 0 0.059017885047532651 0.18708876710858915 0.013054671193179735 0 0.013054671193179735 0.033242164325655396 0 0 0 0.055082732858561148 0.1978675921694775 -0.0074828532748544311 0 -0.0074828532748544311 0.065938933011250311 0 0 0 0.065951631295181973 0.19635539478127145 -0.010060780150651741 0 -0.010060780150651741 0.035810907172157715 0 0 0 0.058041575488357283 0.20671248276789295 -0.003462899545443935 0 -0.003462899545443935 0.029701478086787414 0 0 0 0.059103490213670097 0.20642522404069003 -0.0047555207194969473 0 -0.0047555207194969473 0.037207519173895268 0 0 0 0.06090818580364632 0.19165145724182092 -0.0023486307824080051 0 -0.0023486307824080051 0.036487816868022979 0 0 0 0.057034818527460979 0.1979445354682213 -0.03033243651854985 0 -0.03033243651854985 0.065907642635680302 0 0 0 0.065963044525975387 0.22602098967118472 -0.032240569632532398 0 -0.032240569632532398 0.036653387623992312 0 0 0 0.065668594323794266 0.19755889349244093 -0.018346836833037724 0 -0.018346836833037724 0.041641129943269663 0 0 0 0.059800005858927655 0.20117971891833134 -0.012825433953894357 0 -0.012825433953894357 0.0045405659663734915 0 0 0 0.051430071221176196 0.19324907110466197 -0.016225111156468863 0 -0.016225111156468863 0.030845962913913422 0 0 0 0.056023758504643834 0.20933062107313077 -0.014238720229193751 0 -0.014238720229193751 0.032401310026258706 0 0 0 0.060432982774847349 0.21108578057514146 -0.021953123359626521 0 -0.021953123359626521 0.022584225632202942 0 0 0 0.058417501551836087 0.19283199882656363 -0.0068922492741681426 0 -0.0068922492741681426 -0.0093768660251572766 0 0 0 0.045863783200351588 0.17892645102295718 -0.0075429036729988824 0 -0.0075429036729988824 0.009038463193665025 0 0 0 0.046991228554155565 0.16820500286370438 -0.00030753891475933381 0 -0.00030753891475933381 0.0041521086852090994 0 0 0 0.043089277887228397 0.1863942796551385 0.0032431670950969771 0 0.0032431670950969771 -0.0015880731617479993 0 0 0 0.046201551623347603 0.18631711911053536 0.00091659698786164881 0 0.00091659698786164881 -0.0036089149314996183 0 0 0 0.045677051044758971 0.19138864648841747 -0.0039572140638472683 0 -0.0039572140638472683 0.0064813147461658671 0 0 0 0.04946749030864582 0.18865471037880047 0.0056944002696292378 0 0.0056944002696292378 0.0099338634470582665 0 0 0 0.049647143456464621 0.19430307699461738 0.0062216469030348248 0 0.0062216469030348248 0.0030957933198715246 0 0 0 0.049349717578622276 0.19742252770856081 -0.00054343042378610096 0 -0.00054343042378610096 0.012336326043077106 0 0 0 0.052439713437909485 0.19969441728110338 0.0046576153640881524 0 0.0046576153640881524 0.019343781901817708 0 0 0 0.054759549795730292 0.20151217045990508 0.0011544017008746493 0 0.0011544017008746493 0.0090657498222582317 0 0 0 0.052644480070540858 0.2035093359917475 -0.0041333254884359516 0 -0.0041333254884359516 0.014376193994376202 0 0 0 0.054471382496530905 0.20698310759688809 -0.00081622785572660166 0 -0.00081622785572660166 0.023885950636921532 0 0 0 0.057717264558452386 0.20188524205210706 0.0019883542029490234 0 0.0019883542029490234 0.019588020331841607 0 0 0 0.055368315595987205 0.19919695399543919 0.0085307018288349884 0 0.0085307018288349884 0.029118946582178701 0 0 0 0.057078975144404485 0.19786360312364271 0.0059437576478063026 0 0.0059437576478063026 0.034024054591608788 0 0 0 0.057971914428812998 0.20014200046286662 0.0047363838940159657 0 0.0047363838940159657 0.039258723921319821 0 0 0 0.059850181096046493 0.19646575138538044 0.0067696261307128199 0 0.0067696261307128199 0.046387056713152519 0 0 0 0.060713202024633317 0.19151854033733315 0.0070316282798613405 0 0.0070316282798613405 0.044774300022644112 0 0 0 0.059073210089994201 0.19451430104019252 0.0087419270806070037 0 0.0087419270806070037 0.052917484718537355 0 0 0 0.061857946439682343 0.19357838682849374 0.012090627600870554 0 0.012090627600870554 0.053031404590761388 0 0 0 0.061652447854813858 0.19103680777316265 0.011120629399662879 0 0.011120629399662879 0.044673324986695698 0 0 0 0.058927533189964625 0.19505485799198455 0.0081741974156703118 0 0.0081741974156703118 0.043797203050689792 0 0 0 0.059713015260668661 0.19565234733660142 0.010155650937776511 0 0.010155650937776511 0.039226573294749684 0 0 0 0.058719730157837699 0.19692234393722743 0.011909805099152179 0 0.011909805099152179 0.041639197149990315 0 0 0 0.059640385271804458 0.19401562000874112 0.015040346676971447 0 0.015040346676971447 0.028888376878762723 0 0 0 0.05572599922187603 0.19126103757516166 0.015668129888180136 0 0.015668129888180136 0.052807900492648108 0 0 0 0.061017234516952457 0.18848619336280509 0.015035211892611672 0 0.015035211892611672 0.041754281460910536 0 0 0 0.057560118705928885 0.186882620617008 0.017316534444726556 0 0.017316534444726556 0.039688127272262702 0 0 0 0.056642686972317738 0.19155949759521507 0.019542006252301472 0 0.019542006252301472 0.053950433622848459 0 0 0 0.061377482804515923 0.19399902946147346 0.017235579187551503 0 0.017235579187551503 0.041548644572132809 0 0 0 0.058886918508401678 0.19713914414916214 0.01237492738944293 0 0.01237492738944293 0.015103536832168418 0 0 0 0.053060670245332536 0.2003863036766701 0.0097303838925041561 0 0.0097303838925041561 0.030981131526550743 0 0 0 0.05784185880080521 0.19461523801967265 0.013566086931154867 0 0.013566086931154867 0.0050972479944499938 0 0 0 0.049928121503530681 0.19815587468934093 0.013253152973352236 0 0.013253152973352236 0.025591973523192368 0 0 0 0.055936962053133296 0.19296633479992856 0.018901923279603355 0 0.018901923279603355 0.038581119277103171 0 0 0 0.057886863519257897 0.19397469713957652 0.021280068155663967 0 0.021280068155663967 0.024429247142448499 0 0 0 0.054600986070506285 0.18671184417734651 0.022053388762881848 0 0.022053388762881848 0.040030996185419804 0 0 0 0.05668571009069142 0.19131371472907976 0.023379194832449809 0 0.023379194832449809 0.054607195008512521 0 0 0 0.061480227434398058 0.18501730367803942 0.025930279423723362 0 0.025930279423723362 0.034868932284113169 0 0 0 0.054971558990538044 0.19180029308486879 0.029590788600140819 0 0.029590788600140819 0.056152413724798289 0 0 0 0.06198817670241695 0.19864579004938807 0.025030030322702013 0 0.025030030322702013 0.039225947714836451 0 0 0 0.059467934441056219 0.2034055054529553 0.034438621699663052 0 0.034438621699663052 0.037258385485112899 0 0 0 0.060165972734517154 0.19276956151145844 0.022089987230326708 0 0.022089987230326708 0.015119843361745211 0 0 0 0.051972351218300933 0.2024999549161744 0.033538818825155872 0 0.033538818825155872 0.03660061102151424 0 0 0 0.059775141484422034 0.18915019511340136 0.029087461022441641 0 0.029087461022441641 0.03657477516625024 0 0 0 0.056431242569912936 0.20186144623008781 0.037734054883340362 0 0.037734054883340362 0.03526580925051763 0 0 0 0.059281813870151391 0.2025512007968322 0.036945467505029458 0 0.036945467505029458 0.061693001424154015 0 0 0 0.06606105055524647 0.25639681671683195 0.043825541594455925 0 0.043825541594455925 0.033424920958166626 0 0 0 0.072455434418749534 0.216496385647207 0.04563001153375381 0 0.04563001153375381 0.066857735410225549 0 0 0 0.070838530264358351 0.21330968384355076 0.020436382825196428 0 0.020436382825196428 -0.0046195363442602666 0 0 0 0.052172536874822484 0.18668636606255853 0.011685374768937468 0 0.011685374768937468 0.0090072613753571229 0 0 0 0.04892340685947888 0.19342867851436873 0.0077314313108431815 0 0.0077314313108431815 -0.001617622368502436 0 0 0 0.047952764036466519 0.19523491783515046 0.017562318293569273 0 0.017562318293569273 0.02121521109673255 0 0 0 0.054112532232970745 0.17061971193817438 0.0047161702127357652 0 0.0047161702127357652 0.005660951028446437 0 0 0 0.044070165741655232 0.20697210050458892 -0.0038989548372885627 0 -0.0038989548372885627 0.029806754060868385 0 0 0 0.059194713641364298 0.20577857609489492 -0.0040427276893172208 0 -0.0040427276893172208 0.025755360622537908 0 0 0 0.057883484179358173 0.19569938696645306 0.0011624251175820074 0 0.0011624251175820074 0.023593653412172497 0 0 0 0.054823260094656392 0.20543367143364125 -0.0028694981276571625 0 -0.0028694981276571625 0.026526667844542023 0 0 0 0.057990084819545817 0.20678950533750831 -0.0037327349228606964 0 -0.0037327349228606964 0.025297207987249076 0 0 0 0.058021678331189347 0.20572654379192085 0.00089194361755551115 0 0.00089194361755551115 0.030620912785256915 0 0 0 0.05908686414429444 0.20467830149771732 -0.0010196229461662543 0 -0.0010196229461662543 0.023043287659251774 0 0 0 0.056930397289242277 0.20603282720449043 -0.003286903711524701 0 -0.003286903711524701 0.026669600747532645 0 0 0 0.05817560698800571 0.20772670249839598 -0.0023317295745561226 0 -0.0023317295745561226 0.030900802841688446 0 0 0 0.05965687633502112 0.202185139312723 -0.0022730867239436417 0 -0.0022730867239436417 0.029064141319508498 0 0 0 0.057812320158057887 0.20713767357683166 -0.0051724815288189535 0 -0.0051724815288189535 0.038598333554857728 0 0 0 0.06143400178292234 0.20011240528415483 0.0017962741153908224 0 0.0017962741153908224 0.028470647414100915 0 0 0 0.057145763174563963 0.20467656094435302 -0.00083416362667814575 0 -0.00083416362667814575 0.038602584319059691 0 0 0 0.060819786315853192 0.19806846656413235 0.0032964470776127514 0 0.0032964470776127514 0.045308611127627296 0 0 0 0.060844269422940023 0.19598441731800176 0.0049169702716128916 0 0.0049169702716128916 0.037976355924428232 0 0 0 0.05849019331060732 0.19877941029593355 0.00063832291380245404 0 0.00063832291380245404 0.0370005699446736 0 0 0 0.058944995060151786 0.19761680519217828 0.001567851105859483 0 0.001567851105859483 0.044181849198290768 0 0 0 0.06044966359761729 0.19355084416405777 0.00072829938051652277 0 0.00072829938051652277 0.045255957479177544 0 0 0 0.059701700410808828 0.19637998736006293 -0.0003121545886065058 0 -0.0003121545886065058 0.052981343176212725 0 0 0 0.062340332634068962 0.19590303130735245 0.0022120765392233815 0 0.0022120765392233815 0.052940448161255815 0 0 0 0.062210869867152102 0.19401871693981759 0.005613006030850326 0 0.005613006030850326 0.052379244947984571 0 0 0 0.061599490471950513 0.19180283226531117 0.004658144258758018 0 0.004658144258758018 0.043878120056986533 0 0 0 0.058920238080574477 0.20036726187439446 -0.0048747719504770616 0 -0.0048747719504770616 0.045088993145206091 0 0 0 0.061364063754900125 0.19959793665960188 -0.006735347661012428 0 -0.006735347661012428 0.035599594456672656 0 0 0 0.058799382779068446 0.19991025569335275 -0.0026166990949356567 0 -0.0026166990949356567 0.044227281208328667 0 0 0 0.061034384225420499 0.19435408954010044 -0.0012935323796202103 0 -0.0012935323796202103 0.044336818412684498 0 0 0 0.059672726988196347 0.19876366259917677 -0.0037745896413386854 0 -0.0037745896413386854 0.054054515804359715 0 0 0 0.063204544600884205 0.19432671015026365 -0.0064890562005493757 0 -0.0064890562005493757 0.043445885773466121 0 0 0 0.059443148980932337 0.1973963689073977 -0.0079212972944681798 0 -0.0079212972944681798 0.053911117774728567 0 0 0 0.062826871670531539 0.19965582024218015 -0.012428702146719095 0 -0.012428702146719095 0.055477740186674562 0 0 0 0.063783390107213525 0.19459692171846435 -0.0095647220174448766 0 -0.0095647220174448766 0.04338599185770281 0 0 0 0.059495728394041721 0.20293640614822872 -0.017564615105879922 0 -0.017564615105879922 0.056881535821020401 0 0 0 0.064954485492312294 0.19736919720021773 -0.014832008331476243 0 -0.014832008331476243 0.043593076619552848 0 0 0 0.06024056845494264 0.20559045085917946 -0.012129745581858888 0 -0.012129745581858888 0.03664035651090064 0 0 0 0.060557701842519941 0.20022298414229514 -0.010572100446945995 0 -0.010572100446945995 0.04085061154978839 0 0 0 0.060268398923020966 0.2021392395555929 -0.0095730025511770178 0 -0.0095730025511770178 0.045671793307017899 0 0 0 0.061952758215652867 0.20377537979565816 -0.0058796308853978334 0 -0.0058796308853978334 0.026788017805355099 0 0 0 0.057640849400253318 0.20133005814709221 -0.0015768243541578197 0 -0.0015768243541578197 0.020092348074221417 0 0 0 0.055355601555328419 0.20829539897140106 -0.012279681073649427 0 -0.012279681073649427 0.023883012230904145 0 0 0 0.058044602800576245 0.20442842131733047 -0.013241449696914223 0 -0.013241449696914223 0.023918000400535766 0 0 0 0.057086605429466475 0.20810198273641314 -0.014197023690516911 0 -0.014197023690516911 0.038420959822430434 0 0 0 0.06163073563971086 0.1957966331839687 -0.021884383501338311 0 -0.021884383501338311 0.033546039944241102 0 0 0 0.057335668282052506 0.20518370710636341 -0.025697581343157284 0 -0.025697581343157284 0.060268654934094334 0 0 0 0.066363090510114395 0.20082713354232615 -0.028949634400826485 0 -0.028949634400826485 0.031564870389044659 0 0 0 0.058098000982842797 0.21476983322128668 -0.036700230352766081 0 -0.036700230352766081 0.059957469967679533 0 0 0 0.068681825797241733 0.19149057735302705 0.031899653877550935 0 0.031899653877550935 0.024209536949030275 0 0 0 0.053925028575514317 0.20483428814478535 0.039876213610060218 0 0.039876213610060218 0.056578163760090658 0 0 0 0.065353112976219277 0.16352617165443917 -0.00096604322784088481 0 -0.00096604322784088481 -0.67321726299815055 0 0 0 -0.12742277283592784 0.20072946155122334 0.026713626670590518 0 0.026713626670590518 0.058285113270708844 0 0 0 0.064753643705483185 0.4444344766704944 0.0074932482371252718 0 0.0074932482371252718 -0.79403684403041552 0 0 0 -0.087400591840037123 0.19352408151071174 0.023143840105679221 0 0.023143840105679221 0.038344515011283331 0 0 0 0.057967149130498719 0.20336443282634736 0.018890547166780229 0 0.018890547166780229 0.021813700423452875 0 0 0 0.056294533312449886 0.202044569923616 0.018636108589582732 0 0.018636108589582732 -0.0052988835912350235 0 0 0 0.049186421583095413 0.21127489439012559 0.023283212306632661 0 0.023283212306632661 0.03211062165006031 0 0 0 0.060846379010046532 0.20221465894546861 0.0077896088898136533 0 0.0077896088898136533 0.0099888469635650637 0 0 0 0.053050876477258327 0.20222909538662456 0.0089882127327969158 0 0.0089882127327969158 0.020175536552156148 0 0 0 0.055601157984695206 0.2019074365528252 0.0086189359055741308 0 0.0086189359055741308 0.016228640263333999 0 0 0 0.054534019204039823 0.20167052624329052 0.0080463859797640265 0 0.0080463859797640265 0.031069085592739104 0 0 0 0.058184902959007315 0.19729864232786648 0.012735313003504507 0 0.012735313003504507 0.029829113622802356 0 0 0 0.056781938987667216 0.19610811069009751 0.009759435463727123 0 0.009759435463727123 0.042256585402977095 0 0 0 0.059591174023268662 0.19798485201983418 0.016873142668305918 0 0.016873142668305918 0.036289646531346809 0 0 0 0.058568624637795177 0.19991810869269097 0.0158542578152014 0 0.0158542578152014 0.041774049573188865 0 0 0 0.060423039566469883 0.19092024325400983 0.015930738401063932 0 0.015930738401063932 0.038974532068077827 0 0 0 0.057473693830521838 0.19765988995715014 0.020004213754251543 0 0.020004213754251543 0.055046744981681606 0 0 0 0.063176658734707791 0.37375677190084389 -0.0013908210834969736 0 -0.0013908210834969736 -0.92054626859106747 0 0 0 -0.13669737417257011 0.19109661556135071 0.012907079454409692 0 0.012907079454409692 0.042280037915559732 0 0 0 0.058344163369227653 0.39008458770672405 0.0048264376578046608 0 0.0048264376578046608 -1.0004132845972435 0 0 0 -0.15258217422268672 0.19399488070751988 0.01419833884543921 0 0.01419833884543921 0.053227233265030982 0 0 0 0.061805528493137668 0.19528335929647325 0.010122028664032612 0 0.010122028664032612 0.053059811321321315 0 0 0 0.062085792654448579 0.38367755426224903 0.0015422649341374495 0 0.0015422649341374495 -1.062146744933159 0 0 0 -0.16961729766768485 0.19077526527104161 0.0074127851618553953 0 0.0074127851618553953 0.042489898498470013 0 0 0 0.058316290942377932 0.19264208391231064 0.0063030254006566644 0 0.0063030254006566644 0.051794604492081439 0 0 0 0.061109172101097911 0.38476275847733632 0.0017363581028178032 0 0.0017363581028178032 -1.101038844114953 0 0 0 -0.17906902140941838 0.19050107793352439 0.0053742464485417724 0 0.0053742464485417724 0.04365097409077956 0 0 0 0.058538013006076139 0.19460180040350619 0.0034632508421744423 0 0.0034632508421744423 0.043909575774874393 0 0 0 0.059627844044595202 0.19518172998711408 0.0057331029411371234 0 0.0057331029411371234 0.034736249970110489 0 0 0 0.057479494989306351 0.1969805526069979 0.0081036502740682442 0 0.0081036502740682442 0.044072141342894937 0 0 0 0.060263173487473475 0.1891910672056093 -0.00088039657594712883 0 -0.00088039657594712883 0.044010332066429403 0 0 0 0.0583003498180098 0.19089998183261014 0.00010624574397329056 0 0.00010624574397329056 0.051049788849396704 0 0 0 0.060487442670501781 0.38211266401867761 0.0039605173042787101 0 0.0039605173042787101 -1.11921732425958 0 0 0 -0.18427616506022559 0.18968958182021861 0.00080507051695499765 0 0.00080507051695499765 0.043312180760614549 0 0 0 0.058250440645208401 0.19371434054932574 0.0032220773896383392 0 0.0032220773896383392 0.051949110761997874 0 0 0 0.061415862827830903 0.38344110346019988 0.0023571617779083454 0 0.0023571617779083454 -1.121985385789344 0 0 0 -0.18463607058231446 0.19516926509797913 0.0020132286555971379 0 0.0020132286555971379 0.044657884966135944 0 0 0 0.059956787516028828 0.19269816629482728 -0.002730428000590257 0 -0.002730428000590257 0.044428894839191317 0 0 0 0.059281765283504692 0.19339070729612418 0.00016734612637996776 0 0.00016734612637996776 0.035693623403468572 0 0 0 0.057271082674898333 0.19859553147402417 -0.00090227043779775307 0 -0.00090227043779775307 0.037222625677320348 0 0 0 0.058954539287836005 0.19585594235965731 0.0010659155481087049 0 0.0010659155481087049 0.023996584030914064 0 0 0 0.054963131597642767 0.1986891123974453 0.0065473425713053063 0 0.0065473425713053063 0.02324953608573968 0 0 0 0.05548466212079619 0.20062219824428704 0.0038133256315669023 0 0.0038133256315669023 0.036570321014412113 0 0 0 0.059298129814674701 0.20092284397497684 0.00086170077602575057 0 0.00086170077602575057 0.020990809468421617 0 0 0 0.055478413360849591 0.19993230500975478 -0.0017606856291080067 0 -0.0017606856291080067 0.013159815383012086 0 0 0 0.05327303009819178 0.20251814752806349 0.00073312955015718273 0 0.00073312955015718273 0.026227530327502867 0 0 0 0.057186419463891539 0.20324832870261994 0.00045908825098762984 0 0.00045908825098762984 0.013065476738667661 0 0 0 0.054078451360321918 0.20279161943064372 -0.0013610770272332873 0 -0.0013610770272332873 0.0098041787863872402 0 0 0 0.053148949554257738 0.20033054978575696 -0.00021290436970024642 0 -0.00021290436970024642 0.0087031707887255498 0 0 0 0.052258430143620617 0.20131841509875725 0.0020956136634404138 0 0.0020956136634404138 0.006929291980460682 0 0 0 0.052061926769804562 0.19994602740466386 0.0023696232525053417 0 0.0023696232525053417 0.011097654945068907 0 0 0 0.05276092058743314 0.20190631571900158 0.0026124245650049754 0 0.0026124245650049754 0.016440799205562621 0 0 0 0.054586778731141074 0.2027515270178612 0.0039269249161524283 0 0.0039269249161524283 0.013519176993554084 0 0 0 0.054067676002853712 0.18932237351273959 -0.0033056159299167664 0 -0.0033056159299167664 0.0049122882936630252 0 0 0 0.048558665451600577 0.20302044657011076 -0.014997915316172103 0 -0.014997915316172103 0.015596947826466367 0 0 0 0.054654348599144309 0.20917076433772147 -0.0091769472069613278 0 -0.0091769472069613278 -0.00016149152845423842 0 0 0 0.052252318202316725 0.20120115542607786 -0.011131223011561402 0 -0.011131223011561402 0.0087034957992689899 0 0 0 0.052476162806336657 0.22241370203949384 -0.016619450312684414 0 -0.016619450312684414 -0.0087871389359414076 0 0 0 0.05340664077588797 0.27707779733401772 -0.044084536332527041 0 -0.044084536332527041 0.036806490568299682 0 0 0 0.078471071975579246 0.23183151711862096 -0.048524740251376222 0 -0.048524740251376222 0.072114237697746164 0 0 0 0.075986438704091802 0.55140521988823821 -0.0090011631899002964 0 -0.0090011631899002964 -0.20575936373160175 0 0 0 0.086411464039144903 0.36952568268179675 0.0022570350353490198 0 0.0022570350353490198 -0.45749233569210901 0 0 0 -0.021991663252549642 0.20927743093915591 -0.036875955324424031 0 -0.036875955324424031 0.064415207199409297 0 0 0 0.068423159534641231 0.2114786435245673 -0.036473182718700842 0 -0.036473182718700842 0.034648696084877972 0 0 0 0.061531834902361221 0.19872535857206616 -0.030919678798930789 0 -0.030919678798930789 0.041878387076131451 0 0 0 0.060150936412049355 0.21137664972187342 -0.027209164926934079 0 -0.027209164926934079 0.015904785267973343 0 0 0 0.056820358747461705 0.22302659685948883 -0.033884448599729833 0 -0.033884448599729833 0.039309992193455545 0 0 0 0.065584147263236026 0.2048489657063603 -0.028710590766329647 0 -0.028710590766329647 0.042899183098037641 0 0 0 0.061937037201099721 0.19595305152024292 -0.017777345411595896 0 -0.017777345411595896 0.024275561627110642 0 0 0 0.055057153286838377 0.20373221604845931 -0.02649250457601543 0 -0.02649250457601543 0.042764897236501731 0 0 0 0.061624278321240081 0.19194780104667375 -0.022356054353079469 0 -0.022356054353079469 0.042686907954899767 0 0 0 0.058658677250393296 0.38778877660865874 0.0035871694901103979 0 0.0035871694901103979 -0.61966616578467892 0 0 0 -0.057969347293919782 0.20228343818770797 -0.028562552917249698 0 -0.028562552917249698 0.060062463481138029 0 0 0 0.065586475417211618 0.1939570865029005 -0.021912836619309206 0 -0.021912836619309206 0.055814312382548525 0 0 0 0.062442849721362208 0.37146618657538966 0.006622064126645455 0 0.006622064126645455 -0.7669214250442451 0 0 0 -0.098863809617228071 0.18935140041270709 -0.019486270680428991 0 -0.019486270680428991 0.043970057712677701 0 0 0 0.058330364531346157 0.20043224881441812 -0.019543649706975932 0 -0.019543649706975932 0.037662588804166675 0 0 0 0.059523709404646172 0.20843375502560663 -0.019140427586752329 0 -0.019140427586752329 0.023382468271119061 0 0 0 0.057954055824181325 0.19962091864164419 -0.0088360822181507981 0 -0.0088360822181507981 0.0070461156861127694 0 0 0 0.051666758581939344 0.20408032319887995 -0.011963977698422459 0 -0.011963977698422459 0.024803111914126888 0 0 0 0.057220858778251678 0.19895005451323947 -0.0076476598370871229 0 -0.0076476598370871229 0.011503524911011531 0 0 0 0.052613394856062645 0.20277204117989736 -0.0075257311925356341 0 -0.0075257311925356341 0.027750363181967982 0 0 0 0.057630601090466367 0.19990972581865402 -0.012080715486493556 0 -0.012080715486493556 0.038357273449336204 0 0 0 0.059566749816997486 0.1952475242622646 -0.0077385704845390479 0 -0.0077385704845390479 0.025354925881350993 0 0 0 0.055150612535903858 0.19542573012208408 -0.012436409533377019 0 -0.012436409533377019 0.022247804320005005 0 0 0 0.054418383610522106 0.19242036090160003 -0.0161540706971674 0 -0.0161540706971674 0.041586945492927185 0 0 0 0.058501826598631755 0.19437395071944125 -0.014992299805607623 0 -0.014992299805607623 0.04566671628271235 0 0 0 0.060010166750538441 0.18796140928045485 -0.014414232176634803 0 -0.014414232176634803 0.04383667670126562 0 0 0 0.057949521495430131 0.37654490476688807 0.0034346825989217677 0 0.0034346825989217677 -0.86607219372922373 0 0 0 -0.12238182224058392 0.19210510297935504 -0.017246234511045372 0 -0.017246234511045372 0.054151741911486251 0 0 0 0.061564211222710288 0.18825967660861084 -0.011585236598685933 0 -0.011585236598685933 0.043864144488529822 0 0 0 0.058030955274285229 0.37383764191031332 0.0035303692630108685 0 0.0035303692630108685 -0.95954710005128163 0 0 0 -0.1464273645352705 0.1903385521963111 -0.012775035084448771 0 -0.012775035084448771 0.05257460934733138 0 0 0 0.060728290385910627 0.19341207012570719 -0.010034189237054542 0 -0.010034189237054542 0.044978378519175133 0 0 0 0.059597612161220531 0.19244739964823898 -0.012297225074573648 0 -0.012297225074573648 0.035867729326919839 0 0 0 0.05707878224378983 0.19307441952242746 -0.0085281405164161096 0 -0.0085281405164161096 0.04457684215518215 0 0 0 0.059412815419402326 0.19263435751994712 -0.0057107341628710312 0 -0.0057107341628710312 0.036180679662373039 0 0 0 0.057203759295579915 0.18858548794775792 -0.0067226519789970879 0 -0.0067226519789970879 0.044176750727003999 0 0 0 0.058190559668690522 0.37807500141616401 0.0036877669223045473 0 0.0036877669223045473 -1.0245023193560314 0 0 0 -0.16160682948492422 0.19216137466986505 -0.0091171563101236086 0 -0.0091171563101236086 0.052492616903197009 0 0 0 0.061163497893265709 0.37975753160117165 0.0029988435577763539 0 0.0029988435577763539 -1.1048675760789592 0 0 0 -0.1812775111194469 0.19222027425036781 -0.0030028693803568207 0 -0.0030028693803568207 0.051661255573984648 0 0 0 0.060970382456088282 0.19022335229087373 -0.0059775622697956499 0 -0.0059775622697956499 0.051319504460391741 0 0 0 0.060385714187816464 0.38006585268976778 0.003077810227154032 0 0.003077810227154032 -1.0717249309858516 0 0 0 -0.17291476957404939 0.18884091531234437 -0.0050390320223081958 0 -0.0050390320223081958 0.043997060377699626 0 0 0 0.058209493922511166 0.1932179522347755 -0.0038933134778482981 0 -0.0038933134778482981 0.044855210852942751 0 0 0 0.059518290771929661 0.19485523424656656 -0.0027360692555415261 0 -0.0027360692555415261 0.023434765868852292 0 0 0 0.054572500028854748 0.19917064000176538 -0.0060885175212047199 0 -0.0060885175212047199 0.038301873184329684 0 0 0 0.059368128296523652 0.20212353831809893 0.00070728800461556524 0 0.00070728800461556524 0.0069568912465149402 0 0 0 0.052270107391153453 0.20203182996467137 -0.0029750674362244156 0 -0.0029750674362244156 0.025621220553140252 0 0 0 0.056913262629452933 0.19883757009613079 -0.0032309628292520216 0 -0.0032309628292520216 0.014803270806200364 0 0 0 0.053410210225582747 0.20209414887361449 -0.0041707047443907685 0 -0.0041707047443907685 0.013664169838828566 0 0 0 0.053939579678110805 0.20239632600277094 -0.004674999904986446 0 -0.004674999904986446 0.011477067358501652 0 0 0 0.053468348340318238 0.20059222854185288 -0.0033642248868498009 0 -0.0033642248868498009 0.0014584193180856159 0 0 0 0.050512661964984711 0.20115383895725059 -0.0060527907263840421 0 -0.0060527907263840421 0.011703849929085963 0 0 0 0.053214422221584026 0.19879859316074877 0.0010844528091449729 0 0.0010844528091449729 0.00554041878540322 0 0 0 0.051084752986538043 0.19695788297077482 0.0011121509252464135 0 0.0011121509252464135 -0.00079987792450883499 0 0 0 0.049039501261566476 0.19877536361187589 -0.0017372488270788987 0 -0.0017372488270788987 -0.0011066349862788316 0 0 0 0.049417182156399259 0.18739628968045924 -0.0002968916639649738 0 -0.0002968916639649738 0.0034180880395334734 0 0 0 0.047703594429998122 0.19982745884931938 0.001664261288027543 0 0.001664261288027543 -0.0033064673833229918 0 0 0 0.04913024786649902 0.19216050860307676 0.0017318443186363996 0 0.0017318443186363996 0.0013316786025842076 0 0 0 0.048373046801415243 0.19823593668602224 0.0019547645711427419 0 0.0019547645711427419 -0.00014733357189958274 0 0 0 0.049522150778530609 0.20250947756906548 -0.00067700500326485676 0 -0.00067700500326485676 0.0032911817698348667 0 0 0 0.051450164834725143 0.20068422235207301 0.0014870433005658608 0 0.0014870433005658608 0.0013601046505741475 0 0 0 0.050511081750661782 0.19885489022890113 0.0023240718473530042 0 0.0023240718473530042 0.0012511655409739725 0 0 0 0.05002651394246873 0.20135236879358243 0.00061058117933265876 0 0.00061058117933265876 0.0006830341914316751 0 0 0 0.050508850746253484 0.20077959123039868 0.0024258478832658407 0 0.0024258478832658407 -0.0017297367609490077 0 0 0 0.049762463617362446 0.19787501093420759 0.0014641616832850135 0 0.0014641616832850135 -0.0009133690818753093 0 0 0 0.04924041046308307 0.20159164640305829 0.00012759985811467214 0 0.00012759985811467214 -0.0056453181586156587 0 0 0 0.048986582061110659 0.20169450794633245 -0.0014534289607271804 0 -0.0014534289607271804 0.0028838389910527604 0 0 0 0.051144586734346319 0.19993169844000069 -0.00042173339339924166 0 -0.00042173339339924166 0.0010477466705778801 0 0 0 0.050244861277644555 0.20133070392100075 0.0010053927106558258 0 0.0010053927106558258 0.004433561586551199 0 0 0 0.051441066376887973 0.20207557093700348 -0.0013275941966156245 0 -0.0013275941966156245 -9.9213102766684824e-05 0 0 0 0.050494089458559155 0.20015954492377774 -0.0015926902914777641 0 -0.0015926902914777641 0.0013099088020602778 0 0 0 0.050367363431459464 0.20010352100693299 -0.00083393040065982138 0 -0.00083393040065982138 0.00034481648670478537 0 0 0 0.050112084373409478 0.19971446397552572 -0.00098831556486308689 0 -0.00098831556486308689 -0.0025086833083326765 0 0 0 0.0493014451667982 0.19949111610833289 -0.00044519920744599123 0 -0.00044519920744599123 -0.00013171268636003042 0 0 0 0.049839850855493188 0.1995698875979261 -0.00049513506309555727 0 -0.00049513506309555727 -0.00054069326122420586 0 0 0 0.049757298584175498 0.19704820533483466 -0.0012895868867759258 0 -0.0012895868867759258 -0.00081641836067172791 0 0 0 0.049057946743540748 0.19946098158851155 -0.00014893507365485933 0 -0.00014893507365485933 -0.0022026021609304475 0 0 0 0.049314594856895308 0.20027712394003769 -0.00041736604326853347 0 -0.00041736604326853347 5.216406131264284e-05 0 0 0 0.050082322000337604 0.20009318083234592 -0.0018456641427615217 0 -0.0018456641427615217 -0.00085516835636981973 0 0 0 0.049809503118994 0.20335658869425166 5.8358631491940011e-05 0 5.8358631491940011e-05 -0.00088867543925029435 0 0 0 0.050616978313750338 0.20320556233103435 0.00026566344204188852 0 0.00026566344204188852 -0.0024845485658838793 0 0 0 0.050180253441287584 0.20303995753412102 0.0022862196251218544 0 0.0022862196251218544 -0.008463459653743545 0 0 0 0.048644124470094405 0.19956726497425389 0.004722974340097108 0 0.004722974340097108 -0.0017439546090363481 0 0 0 0.049455827591304388 0.20157660082823223 0.00031320256139610869 0 0.00031320256139610869 -0.032875809722176338 0 0 0 0.042175197776514024 0.21269665810817637 0.011684680918517553 0 0.011684680918517553 -0.0026007262917147403 0 0 0 0.052523982954115526 0.18769006000337399 0.024337052473317147 0 0.024337052473317147 -0.076997208357229452 0 0 0 0.027673212911536155 0.20381342032438701 0.038178400013067069 0 0.038178400013067069 0.014922929595725679 0 0 0 0.054684087480028266 0.19319151458614697 0.012752428425704789 0 0.012752428425704789 -0.0086495189143152521 0 0 0 0.046135498917957936 0.19988339730947335 0.0069616553614307072 0 0.0069616553614307072 0.0088780175012085436 0 0 0 0.052190353702670562 0.20089587516768137 0.0062263653999941951 0 0.0062263653999941951 0.0043332119816185052 0 0 0 0.051307271787324971 0.19886659881954558 0.0007219394804892261 0 0.0007219394804892261 0.0020806983452377279 0 0 0 0.050236824291195761 0.19607952167639867 0.0049697276848594393 0 0.0049697276848594393 0.0041371256627702989 0 0 0 0.050054161834792291 0.19927476052934487 0.00030909972107484498 0 0.00030909972107484498 0.005362873437463363 0 0 0 0.051159408491702058 0.19988741823834744 0.00023910777228664318 0 0.00023910777228664318 0.00018883983752274831 0 0 0 0.050019064518967551 0.19955449586241247 0.0012782270219463248 0 0.0012782270219463248 0.0022026214692453944 0 0 0 0.050439279332914436 
</DataArray>
</CellData>
</Piece>
</UnstructuredGrid>
</VTKFile>
