<?xml version="1.0"?>
<VTKFile type="UnstructuredGrid" version="0.1" byte_order="LittleEndian">
<UnstructuredGrid>
<Piece NumberOfPoints="880" NumberOfCells="299">
<Points>
<DataArray type="Float64" NumberOfComponents="3" format="ascii">
0 0.25000000000104189 0 -0 0 0 0.18653882694645291 0.22249173546702489 0 -0 0 0 0.24999999999941089 0 0 0.18653882694645291 0.22249173546702489 0 0.24999999999941089 0 0 0.49999999999869182 0 0 0.35015135319464608 0.1900339269648805 0 0.24999999999941089 0 0 0.35015135319464608 0.1900339269648805 0 0.18653882694645291 0.22249173546702489 0 0.35015135319464608 0.1900339269648805 0 0.49999999999869182 0 0 0.49924741621175961 0.21507969613896921 0 0.40587285776242238 0.32419148732968017 0 0.35015135319464608 0.1900339269648805 0 0.49924741621175961 0.21507969613896921 0 0.45418244162583959 0.41624787166862259 0 0.41576443813007791 0.48093483781626972 0 0.37764981543668408 0.41341486499350411 0 0.40587285776242238 0.32419148732968017 0 0.45418244162583959 0.41624787166862259 0 0.37764981543668408 0.41341486499350411 0 0.45418244162583959 0.41624787166862259 0 0.46566719828045178 0.47702825415921918 0 0.41576443813007791 0.48093483781626972 0 0.46566719828045178 0.47702825415921918 0 0.4638583922372429 0.51470588235294135 0 0.41576443813007791 0.48093483781626972 0 0.49954900152271581 0.45107191084564019 0 0.5 0.5 0 0.46566719828045178 0.47702825415921918 0 0.46566719828045178 0.47702825415921918 0 0.5 0.5 0 0.4638583922372429 0.51470588235294135 0 0.49954900152271581 0.45107191084564019 0 0.46566719828045178 0.47702825415921918 0 0.45418244162583959 0.41624787166862259 0 0.45418244162583959 0.41624787166862259 0 0.49435464945626773 0.33318442629318029 0 0.54876010062294855 0.39662628167175101 0 0.49435464945626773 0.33318442629318029 0 0.45418244162583959 0.41624787166862259 0 0.40587285776242238 0.32419148732968017 0 0.49435464945626773 0.33318442629318029 0 0.40587285776242238 0.32419148732968017 0 0.49924741621175961 0.21507969613896921 0 0.35015135319464608 0.1900339269648805 0 0.40587285776242238 0.32419148732968017 0 0.29145599617909779 0.35026601625021492 0 0.40587285776242238 0.32419148732968017 0 0.37764981543668408 0.41341486499350411 0 0.29145599617909779 0.35026601625021492 0 0.18653882694645291 0.22249173546702489 0 0.35015135319464608 0.1900339269648805 0 0.29145599617909779 0.35026601625021492 0 0.32540781287085369 0.49175159894608172 0 0.17872124008781709 0.39692711089439497 0 0.29145599617909779 0.35026601625021492 0 0.37764981543668408 0.41341486499350411 0 0.32540781287085369 0.49175159894608172 0 0.29145599617909779 0.35026601625021492 0 0.41576443813007791 0.48093483781626972 0 0.32540781287085369 0.49175159894608172 0 0.37764981543668408 0.41341486499350411 0 0 0.50000000000206157 0 0 0.25000000000104189 0 0.17872124008781709 0.39692711089439497 0 0 0.50000000000206157 0 0.17872124008781709 0.39692711089439497 0 0.22453074737734591 0.51613635929252633 0 0.17872124008781709 0.39692711089439497 0 0.32540781287085369 0.49175159894608172 0 0.22453074737734591 0.51613635929252633 0 0.17872124008781709 0.39692711089439497 0 0.18653882694645291 0.22249173546702489 0 0.29145599617909779 0.35026601625021492 0 0.17872124008781709 0.39692711089439497 0 0 0.25000000000104189 0 0.18653882694645291 0.22249173546702489 0 0 0.75000000000034772 0 0 0.50000000000206157 0 0.18442368612951149 0.62734948407416979 0 0 0.75000000000034772 0 0.18442368612951149 0.62734948407416979 0 0.22727208279115291 0.72949159435386135 0 0.18442368612951149 0.62734948407416979 0 0.31346558946927339 0.67110784456164874 0 0.22727208279115291 0.72949159435386135 0 0.31771010312359771 0.58585679504088894 0 0.18442368612951149 0.62734948407416979 0 0.22453074737734591 0.51613635929252633 0 0.18442368612951149 0.62734948407416979 0 0 0.50000000000206157 0 0.22453074737734591 0.51613635929252633 0 0 1 0 0 0.75000000000034772 0 0.096516139048187316 0.89789944498939644 0 0.1596341872805197 1 0 0 1 0 0.096516139048187316 0.89789944498939644 0 0 0.75000000000034772 0 0.1644705180525495 0.8200994301041713 0 0.096516139048187316 0.89789944498939644 0 0.2386314078659193 0.92924778694987087 0 0.1644705180525495 0.8200994301041713 0 0.27155609766735261 0.80398965554903801 0 0.1644705180525495 0.8200994301041713 0 0 0.75000000000034772 0 0.22727208279115291 0.72949159435386135 0 0.1644705180525495 0.8200994301041713 0 0.22727208279115291 0.72949159435386135 0 0.27155609766735261 0.80398965554903801 0 0.1644705180525495 0.8200994301041713 0 0.2386314078659193 0.92924778694987087 0 0.096516139048187316 0.89789944498939644 0 0.2386314078659193 0.92924778694987087 0 0.1596341872805197 1 0 0.096516139048187316 0.89789944498939644 0 0.27591592301363282 1 0 0.1596341872805197 1 0 0.2386314078659193 0.92924778694987087 0 0.36061858902161292 1 0 0.27591592301363282 1 0 0.32789203369730929 0.94219211037003092 0 0.36061858902161292 1 0 0.32789203369730929 0.94219211037003092 0 0.39382242252278338 0.95440420122950598 0 0.32789203369730929 0.94219211037003092 0 0.27591592301363282 1 0 0.2386314078659193 0.92924778694987087 0 0.31834856208730472 0.88134829947972904 0 0.32789203369730929 0.94219211037003092 0 0.2386314078659193 0.92924778694987087 0 0.39382242252278338 0.95440420122950598 0 0.32789203369730929 0.94219211037003092 0 0.37746652222901839 0.8987532801416368 0 0.37746652222901839 0.8987532801416368 0 0.32789203369730929 0.94219211037003092 0 0.31834856208730472 0.88134829947972904 0 0.31834856208730472 0.88134829947972904 0 0.2386314078659193 0.92924778694987087 0 0.27155609766735261 0.80398965554903801 0 0.37746652222901839 0.8987532801416368 0 0.31834856208730472 0.88134829947972904 0 0.36493375430404612 0.82333914183704071 0 0.36493375430404612 0.82333914183704071 0 0.31834856208730472 0.88134829947972904 0 0.27155609766735261 0.80398965554903801 0 0.22727208279115291 0.72949159435386135 0 0.32984265945580837 0.74432890077789404 0 0.27155609766735261 0.80398965554903801 0 0.32984265945580837 0.74432890077789404 0 0.36493375430404612 0.82333914183704071 0 0.27155609766735261 0.80398965554903801 0 0.36493375430404612 0.82333914183704071 0 0.32984265945580837 0.74432890077789404 0 0.39746869305290999 0.7595658224757349 0 0.42893012659725649 0.81084715169569632 0 0.36493375430404612 0.82333914183704071 0 0.39746869305290999 0.7595658224757349 0 0.44651949253391748 0.77225997208621999 0 0.42893012659725649 0.81084715169569632 0 0.39746869305290999 0.7595658224757349 0 0.44651949253391748 0.77225997208621999 0 0.39746869305290999 0.7595658224757349 0 0.43412357948152142 0.72128778687215156 0 0.44651949253391748 0.77225997208621999 0 0.47220206448452873 0.74892462649306213 0 0.47786860714145291 0.77730227330627721 0 0.47220206448452873 0.74892462649306213 0 0.5 0.76470588235294124 0 0.47786860714145291 0.77730227330627721 0 0.5 0.76470588235294124 0 0.5 0.79411764705882359 0 0.47786860714145291 0.77730227330627721 0 0.5 0.79411764705882359 0 0.5 0.82352941176470584 0 0.47062147868881782 0.80650323854033878 0 0.5 0.79411764705882359 0 0.47062147868881782 0.80650323854033878 0 0.47786860714145291 0.77730227330627721 0 0.47062147868881782 0.80650323854033878 0 0.44651949253391748 0.77225997208621999 0 0.47786860714145291 0.77730227330627721 0 0.47062147868881782 0.80650323854033878 0 0.42893012659725649 0.81084715169569632 0 0.44651949253391748 0.77225997208621999 0 0.46181179062043481 0.83858979842637782 0 0.42893012659725649 0.81084715169569632 0 0.47062147868881782 0.80650323854033878 0 0.42880856207355889 0.86677159981903118 0 0.42893012659725649 0.81084715169569632 0 0.46181179062043481 0.83858979842637782 0 0.5 0.82352941176470584 0 0.5 0.85294117647058831 0 0.46181179062043481 0.83858979842637782 0 0.5 0.82352941176470584 0 0.46181179062043481 0.83858979842637782 0 0.47062147868881782 0.80650323854033878 0 0.46181179062043481 0.83858979842637782 0 0.5 0.85294117647058831 0 0.47032448519202857 0.86718057681700655 0 0.5 0.85294117647058831 0 0.5 0.88235294117647056 0 0.47032448519202857 0.86718057681700655 0 0.42880856207355889 0.86677159981903118 0 0.46181179062043481 0.83858979842637782 0 0.47032448519202857 0.86718057681700655 0 0.42880856207355889 0.86677159981903118 0 0.37746652222901839 0.8987532801416368 0 0.36493375430404612 0.82333914183704071 0 0.42880856207355889 0.86677159981903118 0 0.36493375430404612 0.82333914183704071 0 0.42893012659725649 0.81084715169569632 0 0.39382242252278338 0.95440420122950598 0 0.37746652222901839 0.8987532801416368 0 0.42822627495986648 0.92083108049218854 0 0.42822627495986648 0.92083108049218854 0 0.37746652222901839 0.8987532801416368 0 0.42880856207355889 0.86677159981903118 0 0.46100207326614928 0.89524736819256467 0 0.42880856207355889 0.86677159981903118 0 0.47032448519202857 0.86718057681700655 0 0.42822627495986648 0.92083108049218854 0 0.42880856207355889 0.86677159981903118 0 0.46100207326614928 0.89524736819256467 0 0.5 0.88235294117647056 0 0.46100207326614928 0.89524736819256467 0 0.47032448519202857 0.86718057681700655 0 0.5 0.88235294117647056 0 0.5 0.91176470588235292 0 0.46100207326614928 0.89524736819256467 0 0.46100207326614928 0.89524736819256467 0 0.5 0.91176470588235292 0 0.46949408183482899 0.92833826413560594 0 0.5 0.91176470588235292 0 0.5 0.94117647058823528 0 0.46949408183482899 0.92833826413560594 0 0.42822627495986648 0.92083108049218854 0 0.46100207326614928 0.89524736819256467 0 0.46949408183482899 0.92833826413560594 0 0.44768478605684647 0.9646709673379662 0 0.46949408183482899 0.92833826413560594 0 0.47596308696979028 0.95620709615192379 0 0.44768478605684647 0.9646709673379662 0 0.42822627495986648 0.92083108049218854 0 0.46949408183482899 0.92833826413560594 0 0.44768478605684647 0.9646709673379662 0 0.47596308696979028 0.95620709615192379 0 0.47818194888216242 0.97829325975680159 0 0.46949408183482899 0.92833826413560594 0 0.5 0.94117647058823528 0 0.47596308696979028 0.95620709615192379 0 0.47596308696979028 0.95620709615192379 0 0.5 0.97058823529411764 0 0.47818194888216242 0.97829325975680159 0 0.5 0.94117647058823528 0 0.5 0.97058823529411764 0 0.47596308696979028 0.95620709615192379 0 0.5 1 0 0.46726187138417491 1 0 0.47818194888216242 0.97829325975680159 0 0.5 0.97058823529411764 0 0.5 1 0 0.47818194888216242 0.97829325975680159 0 0.46726187138417491 1 0 0.44768478605684647 0.9646709673379662 0 0.47818194888216242 0.97829325975680159 0 0.46726187138417491 1 0 0.42231823435723009 1 0 0.44768478605684647 0.9646709673379662 0 0.44768478605684647 0.9646709673379662 0 0.42231823435723009 1 0 0.39382242252278338 0.95440420122950598 0 0.44768478605684647 0.9646709673379662 0 0.39382242252278338 0.95440420122950598 0 0.42822627495986648 0.92083108049218854 0 0.42231823435723009 1 0 0.36061858902161292 1 0 0.39382242252278338 0.95440420122950598 0 0.31771010312359771 0.58585679504088894 0 0.41980724897053312 0.55867199730355355 0 0.3872154068451229 0.6301386882447304 0 0.32540781287085369 0.49175159894608172 0 0.41980724897053312 0.55867199730355355 0 0.31771010312359771 0.58585679504088894 0 0.32540781287085369 0.49175159894608172 0 0.31771010312359771 0.58585679504088894 0 0.22453074737734591 0.51613635929252633 0 0.18442368612951149 0.62734948407416979 0 0.31771010312359771 0.58585679504088894 0 0.31346558946927339 0.67110784456164874 0 0.31346558946927339 0.67110784456164874 0 0.32984265945580837 0.74432890077789404 0 0.22727208279115291 0.72949159435386135 0 0.39746869305290999 0.7595658224757349 0 0.32984265945580837 0.74432890077789404 0 0.38513711431054509 0.69312683393047636 0 0.38513711431054509 0.69312683393047636 0 0.32984265945580837 0.74432890077789404 0 0.31346558946927339 0.67110784456164874 0 0.31771010312359771 0.58585679504088894 0 0.3872154068451229 0.6301386882447304 0 0.31346558946927339 0.67110784456164874 0 0.3872154068451229 0.6301386882447304 0 0.38513711431054509 0.69312683393047636 0 0.31346558946927339 0.67110784456164874 0 0.4390556798454946 0.66199025953586599 0 0.38513711431054509 0.69312683393047636 0 0.3872154068451229 0.6301386882447304 0 0.4390556798454946 0.66199025953586599 0 0.3872154068451229 0.6301386882447304 0 0.44702869549010399 0.61002701911053991 0 0.39746869305290999 0.7595658224757349 0 0.38513711431054509 0.69312683393047636 0 0.43412357948152142 0.72128778687215156 0 0.43412357948152142 0.72128778687215156 0 0.38513711431054509 0.69312683393047636 0 0.4390556798454946 0.66199025953586599 0 0.43412357948152142 0.72128778687215156 0 0.47636314644728822 0.72058823529411908 0 0.47220206448452873 0.74892462649306213 0 0.44651949253391748 0.77225997208621999 0 0.43412357948152142 0.72128778687215156 0 0.47220206448452873 0.74892462649306213 0 0.43412357948152142 0.72128778687215156 0 0.4390556798454946 0.66199025953586599 0 0.46330219403010409 0.69594601192744354 0 0.43412357948152142 0.72128778687215156 0 0.46330219403010409 0.69594601192744354 0 0.47636314644728822 0.72058823529411908 0 0.46330219403010409 0.69594601192744354 0 0.5 0.70588235294117663 0 0.47636314644728822 0.72058823529411908 0 0.5 0.67647058823529438 0 0.5 0.70588235294117663 0 0.46330219403010409 0.69594601192744354 0 0.5 0.70588235294117663 0 0.5 0.73529411764705888 0 0.47636314644728822 0.72058823529411908 0 0.5 0.73529411764705888 0 0.5 0.76470588235294124 0 0.47220206448452873 0.74892462649306213 0 0.47636314644728822 0.72058823529411908 0 0.5 0.73529411764705888 0 0.47220206448452873 0.74892462649306213 0 0.4390556798454946 0.66199025953586599 0 0.47271076880550111 0.63357150722538136 0 0.47501372853621993 0.66300743809067952 0 0.4390556798454946 0.66199025953586599 0 0.44702869549010399 0.61002701911053991 0 0.47271076880550111 0.63357150722538136 0 0.46330219403010409 0.69594601192744354 0 0.4390556798454946 0.66199025953586599 0 0.47501372853621993 0.66300743809067952 0 0.5 0.67647058823529438 0 0.46330219403010409 0.69594601192744354 0 0.47501372853621993 0.66300743809067952 0 0.5 0.64705882352941191 0 0.5 0.67647058823529438 0 0.47501372853621993 0.66300743809067952 0 0.47271076880550111 0.63357150722538136 0 0.5 0.64705882352941191 0 0.47501372853621993 0.66300743809067952 0 0.5 0.61764705882352966 0 0.5 0.64705882352941191 0 0.47271076880550111 0.63357150722538136 0 0.5 0.5882352941176473 0 0.5 0.61764705882352966 0 0.47784843225772261 0.60532339797118362 0 0.5 0.61764705882352966 0 0.47271076880550111 0.63357150722538136 0 0.47784843225772261 0.60532339797118362 0 0.5 0.55882352941176494 0 0.5 0.5882352941176473 0 0.46950269699300751 0.57713611057881953 0 0.46950269699300751 0.57713611057881953 0 0.5 0.5882352941176473 0 0.47784843225772261 0.60532339797118362 0 0.44702869549010399 0.61002701911053991 0 0.41980724897053312 0.55867199730355355 0 0.46950269699300751 0.57713611057881953 0 0.44702869549010399 0.61002701911053991 0 0.46950269699300751 0.57713611057881953 0 0.47784843225772261 0.60532339797118362 0 0.47271076880550111 0.63357150722538136 0 0.44702869549010399 0.61002701911053991 0 0.47784843225772261 0.60532339797118362 0 0.3872154068451229 0.6301386882447304 0 0.41980724897053312 0.55867199730355355 0 0.44702869549010399 0.61002701911053991 0 0.32540781287085369 0.49175159894608172 0 0.41576443813007791 0.48093483781626972 0 0.41980724897053312 0.55867199730355355 0 0.41576443813007791 0.48093483781626972 0 0.4638583922372429 0.51470588235294135 0 0.41980724897053312 0.55867199730355355 0 0.41980724897053312 0.55867199730355355 0 0.4638583922372429 0.51470588235294135 0 0.47063366764015668 0.5477498568705923 0 0.46950269699300751 0.57713611057881953 0 0.41980724897053312 0.55867199730355355 0 0.47063366764015668 0.5477498568705923 0 0.5 0.55882352941176494 0 0.46950269699300751 0.57713611057881953 0 0.47063366764015668 0.5477498568705923 0 0.5 0.52941176470588269 0 0.5 0.55882352941176494 0 0.47063366764015668 0.5477498568705923 0 0.4638583922372429 0.51470588235294135 0 0.5 0.52941176470588269 0 0.47063366764015668 0.5477498568705923 0 0.5 0.5 0 0.5 0.52941176470588269 0 0.4638583922372429 0.51470588235294135 0 0.52820848765230954 0.54540076010342464 0 0.5 0.52941176470588269 0 0.52629893369322589 0.51330452493555312 0 0.5 0.52941176470588269 0 0.5 0.5 0 0.52629893369322589 0.51330452493555312 0 0.5 0.52941176470588269 0 0.5 0.5 0 0.5 0.55882352941176494 0 0.5 0.52941176470588269 0 0.52820848765230954 0.54540076010342464 0 0.5 0.55882352941176494 0 0.5 0.52941176470588269 0 0.52246722155046366 0.57417151085839346 0 0.5 0.55882352941176494 0 0.52820848765230954 0.54540076010342464 0 0.56199650931215228 0.51957997397013023 0 0.55931585964581554 0.57571189932143541 0 0.52820848765230954 0.54540076010342464 0 0.54128967150166729 0.47213012589832831 0 0.56199650931215228 0.51957997397013023 0 0.52629893369322589 0.51330452493555312 0 0.56199650931215228 0.51957997397013023 0 0.52820848765230954 0.54540076010342464 0 0.52629893369322589 0.51330452493555312 0 0.61174067805461174 0.54148194547208961 0 0.56199650931215228 0.51957997397013023 0 0.60345082206666756 0.47575908627627911 0 0.61174067805461174 0.54148194547208961 0 0.55931585964581554 0.57571189932143541 0 0.56199650931215228 0.51957997397013023 0 0.61264973759093866 0.60999664295093947 0 0.55931585964581554 0.57571189932143541 0 0.61174067805461174 0.54148194547208961 0 0.61264973759093866 0.60999664295093947 0 0.55828304378107996 0.63546085023637511 0 0.55931585964581554 0.57571189932143541 0 0.55931585964581554 0.57571189932143541 0 0.55828304378107996 0.63546085023637511 0 0.52754891270107895 0.60396918438229519 0 0.55828304378107996 0.63546085023637511 0 0.52222323737415433 0.63323059203007803 0 0.52754891270107895 0.60396918438229519 0 0.55931585964581554 0.57571189932143541 0 0.52246722155046366 0.57417151085839346 0 0.52820848765230954 0.54540076010342464 0 0.55931585964581554 0.57571189932143541 0 0.52754891270107895 0.60396918438229519 0 0.52246722155046366 0.57417151085839346 0 0.52754891270107895 0.60396918438229519 0 0.5 0.5882352941176473 0 0.52246722155046366 0.57417151085839346 0 0.5 0.5882352941176473 0 0.5 0.55882352941176494 0 0.52246722155046366 0.57417151085839346 0 0.5 0.5882352941176473 0 0.5 0.55882352941176494 0 0.52222323737415433 0.63323059203007803 0 0.5 0.61764705882352966 0 0.52754891270107895 0.60396918438229519 0 0.5 0.61764705882352966 0 0.5 0.5882352941176473 0 0.5 0.61764705882352966 0 0.5 0.5882352941176473 0 0.52754891270107895 0.60396918438229519 0 0.5 0.64705882352941191 0 0.5 0.61764705882352966 0 0.52222323737415433 0.63323059203007803 0 0.5 0.64705882352941191 0 0.5 0.61764705882352966 0 0.52736180768426655 0.66304505109048573 0 0.5 0.64705882352941191 0 0.52222323737415433 0.63323059203007803 0 0.5 0.67647058823529438 0 0.5 0.64705882352941191 0 0.52736180768426655 0.66304505109048573 0 0.5 0.67647058823529438 0 0.5 0.64705882352941191 0 0.52189318962165776 0.69193883095305098 0 0.5 0.67647058823529438 0 0.52736180768426655 0.66304505109048573 0 0.55852327729743823 0.69498827241231187 0 0.52189318962165776 0.69193883095305098 0 0.52736180768426655 0.66304505109048573 0 0.55828304378107996 0.63546085023637511 0 0.55852327729743823 0.69498827241231187 0 0.52736180768426655 0.66304505109048573 0 0.55828304378107996 0.63546085023637511 0 0.52736180768426655 0.66304505109048573 0 0.52222323737415433 0.63323059203007803 0 0.5 0.73529411764705888 0 0.52547133540542634 0.72058823529411897 0 0.5211984712236245 0.75134107022269114 0 0.5 0.73529411764705888 0 0.5 0.70588235294117663 0 0.52547133540542634 0.72058823529411897 0 0.5 0.73529411764705888 0 0.5 0.70588235294117663 0 0.5 0.70588235294117663 0 0.52189318962165776 0.69193883095305098 0 0.52547133540542634 0.72058823529411897 0 0.5 0.70588235294117663 0 0.5 0.67647058823529438 0 0.52189318962165776 0.69193883095305098 0 0.5 0.70588235294117663 0 0.5 0.67647058823529438 0 0.52189318962165776 0.69193883095305098 0 0.55852327729743823 0.69498827241231187 0 0.52547133540542634 0.72058823529411897 0 0.52547133540542634 0.72058823529411897 0 0.55458114032207428 0.75544804615062711 0 0.5211984712236245 0.75134107022269114 0 0.55852327729743823 0.69498827241231187 0 0.55458114032207428 0.75544804615062711 0 0.52547133540542634 0.72058823529411897 0 0.6088970477846376 0.72715446211577472 0 0.55458114032207428 0.75544804615062711 0 0.55852327729743823 0.69498827241231187 0 0.6088970477846376 0.72715446211577472 0 0.55852327729743823 0.69498827241231187 0 0.60110770968787908 0.67045598539422102 0 0.60110770968787908 0.67045598539422102 0 0.55828304378107996 0.63546085023637511 0 0.61264973759093866 0.60999664295093947 0 0.60110770968787908 0.67045598539422102 0 0.55852327729743823 0.69498827241231187 0 0.55828304378107996 0.63546085023637511 0 0.66621429167335955 0.68470300534742679 0 0.60110770968787908 0.67045598539422102 0 0.61264973759093866 0.60999664295093947 0 0.6088970477846376 0.72715446211577472 0 0.66621429167335955 0.68470300534742679 0 0.6817340940367822 0.76923101696744944 0 0.66621429167335955 0.68470300534742679 0 0.6088970477846376 0.72715446211577472 0 0.60110770968787908 0.67045598539422102 0 0.6817340940367822 0.76923101696744944 0 0.66621429167335955 0.68470300534742679 0 0.7828103453665094 0.69876044407634474 0 0.66621429167335955 0.68470300534742679 0 0.69354174170208815 0.57892485983477626 0 0.7828103453665094 0.69876044407634474 0 0.69354174170208815 0.57892485983477626 0 0.66681557370681976 0.49435464945626773 0 0.77935529174931761 0.49004815756283893 0 0.61174067805461174 0.54148194547208961 0 0.66681557370681976 0.49435464945626773 0 0.69354174170208815 0.57892485983477626 0 0.66681557370681976 0.49435464945626773 0 0.61174067805461174 0.54148194547208961 0 0.60345082206666756 0.47575908627627911 0 0.61264973759093866 0.60999664295093947 0 0.61174067805461174 0.54148194547208961 0 0.69354174170208815 0.57892485983477626 0 0.66621429167335955 0.68470300534742679 0 0.61264973759093866 0.60999664295093947 0 0.69354174170208815 0.57892485983477626 0 0.63938141097836054 1 0 0.57768176564240026 1 0 0.60145933092659498 0.94808652648958736 0 0.60145933092659498 0.94808652648958736 0 0.55381003699196441 0.97073734537240042 0 0.55652711631508067 0.93435010280744335 0 0.57768176564240026 1 0 0.55381003699196441 0.97073734537240042 0 0.60145933092659498 0.94808652648958736 0 0.57768176564240026 1 0 0.53273812861558045 1 0 0.55381003699196441 0.97073734537240042 0 0.55381003699196441 0.97073734537240042 0 0.53273812861558045 1 0 0.52191028766292435 0.97912620202886635 0 0.53273812861558045 1 0 0.5 1 0 0.52191028766292435 0.97912620202886635 0 0.5 1 0 0.5 0.97058823529411764 0 0.52191028766292435 0.97912620202886635 0 0.5 1 0 0.5 0.97058823529411764 0 0.5 0.97058823529411764 0 0.5 0.94117647058823528 0 0.5 0.97058823529411764 0 0.5 0.94117647058823528 0 0.52554900427979434 0.95492408164812537 0 0.5 0.97058823529411764 0 0.52554900427979434 0.95492408164812537 0 0.52191028766292435 0.97912620202886635 0 0.5 0.94117647058823528 0 0.52149395742518578 0.9280464911497236 0 0.52554900427979434 0.95492408164812537 0 0.55381003699196441 0.97073734537240042 0 0.52554900427979434 0.95492408164812537 0 0.55652711631508067 0.93435010280744335 0 0.52554900427979434 0.95492408164812537 0 0.55381003699196441 0.97073734537240042 0 0.52191028766292435 0.97912620202886635 0 0.52554900427979434 0.95492408164812537 0 0.52149395742518578 0.9280464911497236 0 0.55652711631508067 0.93435010280744335 0 0.52982914238326484 0.89727189043838895 0 0.57507719038536997 0.89743529736491356 0 0.55652711631508067 0.93435010280744335 0 0.52149395742518578 0.9280464911497236 0 0.52982914238326484 0.89727189043838895 0 0.55652711631508067 0.93435010280744335 0 0.52149395742518578 0.9280464911497236 0 0.5 0.91176470588235292 0 0.52982914238326484 0.89727189043838895 0 0.5 0.94117647058823528 0 0.5 0.91176470588235292 0 0.5 0.94117647058823528 0 0.5 0.91176470588235292 0 0.52149395742518578 0.9280464911497236 0 0.5 0.91176470588235292 0 0.5 0.88235294117647056 0 0.52982914238326484 0.89727189043838895 0 0.5 0.91176470588235292 0 0.5 0.88235294117647056 0 0.52982914238326484 0.89727189043838895 0 0.5 0.88235294117647056 0 0.51991574276818808 0.86764705882352966 0 0.54799184932697576 0.8599032232094268 0 0.57507719038536997 0.89743529736491356 0 0.52982914238326484 0.89727189043838895 0 0.57507719038536997 0.89743529736491356 0 0.60145933092659498 0.94808652648958736 0 0.55652711631508067 0.93435010280744335 0 0.63427031498547037 0.88927276979110648 0 0.60145933092659498 0.94808652648958736 0 0.57507719038536997 0.89743529736491356 0 0.63427031498547037 0.88927276979110648 0 0.57507719038536997 0.89743529736491356 0 0.58994607995897996 0.84812355238296233 0 0.63427031498547037 0.88927276979110648 0 0.58994607995897996 0.84812355238296233 0 0.64153141236229239 0.83072478436463804 0 0.64153141236229239 0.83072478436463804 0 0.58994607995897996 0.84812355238296233 0 0.60049020024666178 0.78900583008989877 0 0.55206941203846505 0.81091931303809783 0 0.58994607995897996 0.84812355238296233 0 0.54799184932697576 0.8599032232094268 0 0.60049020024666178 0.78900583008989877 0 0.58994607995897996 0.84812355238296233 0 0.55206941203846505 0.81091931303809783 0 0.58994607995897996 0.84812355238296233 0 0.57507719038536997 0.89743529736491356 0 0.54799184932697576 0.8599032232094268 0 0.54799184932697576 0.8599032232094268 0 0.52982914238326484 0.89727189043838895 0 0.51991574276818808 0.86764705882352966 0 0.52395085592512047 0.83729395211968571 0 0.54799184932697576 0.8599032232094268 0 0.51991574276818808 0.86764705882352966 0 0.5 0.85294117647058831 0 0.52395085592512047 0.83729395211968571 0 0.51991574276818808 0.86764705882352966 0 0.5 0.88235294117647056 0 0.5 0.85294117647058831 0 0.5 0.88235294117647056 0 0.5 0.85294117647058831 0 0.51991574276818808 0.86764705882352966 0 0.52395085592512047 0.83729395211968571 0 0.5 0.82352941176470584 0 0.52039202967084142 0.80930587873000437 0 0.5 0.85294117647058831 0 0.5 0.82352941176470584 0 0.5 0.85294117647058831 0 0.5 0.82352941176470584 0 0.52395085592512047 0.83729395211968571 0 0.55206941203846505 0.81091931303809783 0 0.52395085592512047 0.83729395211968571 0 0.52039202967084142 0.80930587873000437 0 0.55206941203846505 0.81091931303809783 0 0.54799184932697576 0.8599032232094268 0 0.52395085592512047 0.83729395211968571 0 0.52593988039062167 0.78066906966870908 0 0.55206941203846505 0.81091931303809783 0 0.52039202967084142 0.80930587873000437 0 0.55458114032207428 0.75544804615062711 0 0.55206941203846505 0.81091931303809783 0 0.52593988039062167 0.78066906966870908 0 0.5 0.79411764705882359 0 0.52593988039062167 0.78066906966870908 0 0.52039202967084142 0.80930587873000437 0 0.5 0.82352941176470584 0 0.5 0.79411764705882359 0 0.5 0.82352941176470584 0 0.5 0.79411764705882359 0 0.52039202967084142 0.80930587873000437 0 0.5 0.76470588235294124 0 0.5 0.73529411764705888 0 0.5 0.76470588235294124 0 0.5 0.73529411764705888 0 0.5211984712236245 0.75134107022269114 0 0.5 0.79411764705882359 0 0.5 0.76470588235294124 0 0.52593988039062167 0.78066906966870908 0 0.5 0.79411764705882359 0 0.5 0.76470588235294124 0 0.52593988039062167 0.78066906966870908 0 0.5 0.76470588235294124 0 0.5211984712236245 0.75134107022269114 0 0.55458114032207428 0.75544804615062711 0 0.52593988039062167 0.78066906966870908 0 0.5211984712236245 0.75134107022269114 0 0.60049020024666178 0.78900583008989877 0 0.55458114032207428 0.75544804615062711 0 0.6088970477846376 0.72715446211577472 0 0.60049020024666178 0.78900583008989877 0 0.55206941203846505 0.81091931303809783 0 0.55458114032207428 0.75544804615062711 0 0.6817340940367822 0.76923101696744944 0 0.80987878298654392 0.8110307373443908 0 0.70916369539323409 0.86041409043207073 0 0.60049020024666178 0.78900583008989877 0 0.6088970477846376 0.72715446211577472 0 0.6817340940367822 0.76923101696744944 0 0.64153141236229239 0.83072478436463804 0 0.60049020024666178 0.78900583008989877 0 0.6817340940367822 0.76923101696744944 0 0.63427031498547037 0.88927276979110648 0 0.64153141236229239 0.83072478436463804 0 0.70916369539323409 0.86041409043207073 0 0.64153141236229239 0.83072478436463804 0 0.6817340940367822 0.76923101696744944 0 0.70916369539323409 0.86041409043207073 0 0.68173274398262862 0.93660593960145366 0 0.63427031498547037 0.88927276979110648 0 0.70916369539323409 0.86041409043207073 0 0.68173274398262862 0.93660593960145366 0 0.60145933092659498 0.94808652648958736 0 0.63427031498547037 0.88927276979110648 0 0.78222494485339233 0.91531439423588867 0 0.68173274398262862 0.93660593960145366 0 0.70916369539323409 0.86041409043207073 0 0.72408407698689681 1 0 0.68173274398262862 0.93660593960145366 0 0.78222494485339233 0.91531439423588867 0 0.68173274398262862 0.93660593960145366 0 0.63938141097836054 1 0 0.60145933092659498 0.94808652648958736 0 0.72408407698689681 1 0 0.63938141097836054 1 0 0.68173274398262862 0.93660593960145366 0 1 0.74999999999934008 0 1 1 0 0.89611933618281592 0.89173516444576184 0 0.84036581271988753 1 0 0.72408407698689681 1 0 0.78222494485339233 0.91531439423588867 0 0.84036581271988753 1 0 0.78222494485339233 0.91531439423588867 0 0.89611933618281592 0.89173516444576184 0 0.80987878298654392 0.8110307373443908 0 0.6817340940367822 0.76923101696744944 0 0.7828103453665094 0.69876044407634474 0 1 0.74999999999934008 0 0.80987878298654392 0.8110307373443908 0 0.7828103453665094 0.69876044407634474 0 0.78222494485339233 0.91531439423588867 0 0.80987878298654392 0.8110307373443908 0 0.89611933618281592 0.89173516444576184 0 0.80987878298654392 0.8110307373443908 0 0.78222494485339233 0.91531439423588867 0 0.70916369539323409 0.86041409043207073 0 0.80987878298654392 0.8110307373443908 0 1 0.74999999999934008 0 0.89611933618281592 0.89173516444576184 0 1 1 0 0.84036581271988753 1 0 0.89611933618281592 0.89173516444576184 0 1 0.49999999999869182 0 1 0.74999999999934008 0 0.84549316180028322 0.59867304496468476 0 0.84549316180028322 0.59867304496468476 0 0.69354174170208815 0.57892485983477626 0 0.77935529174931761 0.49004815756283893 0 1 0.49999999999869182 0 0.84549316180028322 0.59867304496468476 0 0.77935529174931761 0.49004815756283893 0 0.69354174170208815 0.57892485983477626 0 0.84549316180028322 0.59867304496468476 0 0.7828103453665094 0.69876044407634474 0 0.84549316180028322 0.59867304496468476 0 1 0.74999999999934008 0 0.7828103453665094 0.69876044407634474 0 0.80451351819826811 0.35479918680564199 0 1 0.49999999999869182 0 0.77935529174931761 0.49004815756283893 0 1 0.24999999999941089 0 0.80451351819826811 0.35479918680564199 0 0.79923457477009219 0.1751534052300894 0 1 0.24999999999941089 0 1 0.49999999999869182 0 0.80451351819826811 0.35479918680564199 0 0.74999999999934008 0 0 1 0 0 0.79923457477009219 0.1751534052300894 0 1 0 0 1 0.24999999999941089 0 0.79923457477009219 0.1751534052300894 0 0.49999999999869182 0 0 0.74999999999934008 0 0 0.62537763927714929 0.14286513648320209 0 0.62537763927714929 0.14286513648320209 0 0.79923457477009219 0.1751534052300894 0 0.6197279975813802 0.30020319976287241 0 0.62537763927714929 0.14286513648320209 0 0.74999999999934008 0 0 0.79923457477009219 0.1751534052300894 0 0.49999999999869182 0 0 0.62537763927714929 0.14286513648320209 0 0.49924741621175961 0.21507969613896921 0 0.62537763927714929 0.14286513648320209 0 0.6197279975813802 0.30020319976287241 0 0.49924741621175961 0.21507969613896921 0 0.6197279975813802 0.30020319976287241 0 0.49435464945626773 0.33318442629318029 0 0.49924741621175961 0.21507969613896921 0 0.54876010062294855 0.39662628167175101 0 0.49435464945626773 0.33318442629318029 0 0.6197279975813802 0.30020319976287241 0 0.66576775508844777 0.41353720431697111 0 0.54876010062294855 0.39662628167175101 0 0.6197279975813802 0.30020319976287241 0 0.49954900152271581 0.45107191084564019 0 0.45418244162583959 0.41624787166862259 0 0.54876010062294855 0.39662628167175101 0 0.54128967150166729 0.47213012589832831 0 0.49954900152271581 0.45107191084564019 0 0.54876010062294855 0.39662628167175101 0 0.54128967150166729 0.47213012589832831 0 0.5 0.5 0 0.49954900152271581 0.45107191084564019 0 0.5 0.5 0 0.54128967150166729 0.47213012589832831 0 0.52629893369322589 0.51330452493555312 0 0.60345082206666756 0.47575908627627911 0 0.54128967150166729 0.47213012589832831 0 0.54876010062294855 0.39662628167175101 0 0.60345082206666756 0.47575908627627911 0 0.56199650931215228 0.51957997397013023 0 0.54128967150166729 0.47213012589832831 0 0.66576775508844777 0.41353720431697111 0 0.60345082206666756 0.47575908627627911 0 0.54876010062294855 0.39662628167175101 0 0.66576775508844777 0.41353720431697111 0 0.80451351819826811 0.35479918680564199 0 0.77935529174931761 0.49004815756283893 0 0.66681557370681976 0.49435464945626773 0 0.60345082206666756 0.47575908627627911 0 0.66576775508844777 0.41353720431697111 0 0.66681557370681976 0.49435464945626773 0 0.66576775508844777 0.41353720431697111 0 0.77935529174931761 0.49004815756283893 0 0.79923457477009219 0.1751534052300894 0 0.80451351819826811 0.35479918680564199 0 0.6197279975813802 0.30020319976287241 0 0.80451351819826811 0.35479918680564199 0 0.66576775508844777 0.41353720431697111 0 0.6197279975813802 0.30020319976287241 0 
</DataArray>
</Points>
<Cells>
<DataArray type="UInt32" Name="connectivity" format="ascii">
0 1 2 3 4 5 6 7 8 9 10 11 12 13 14 15 16 17 18 19 20 21 22 23 24 25 26 27 28 29 30 31 32 33 34 35 36 37 38 39 40 41 42 43 44 45 46 47 48 49 50 51 52 53 54 55 56 57 58 59 60 61 62 63 64 65 66 67 68 69 70 71 72 73 74 75 76 77 78 79 80 81 82 83 84 85 86 87 88 89 90 91 92 93 94 95 96 97 98 99 100 101 102 103 104 105 106 107 108 109 110 111 112 113 114 115 116 117 118 119 120 121 122 123 124 125 126 127 128 129 130 131 132 133 134 135 136 137 138 139 140 141 142 143 144 145 146 147 148 149 150 151 152 153 154 155 156 157 158 159 160 161 162 163 164 165 166 167 168 169 170 171 172 173 174 175 176 177 178 179 180 181 182 183 184 185 186 187 188 189 190 191 192 193 194 195 196 197 198 199 200 201 202 203 204 205 206 207 208 209 210 211 212 213 214 215 216 217 218 219 220 221 222 223 224 225 226 227 228 229 230 231 232 233 234 235 236 237 238 239 240 241 242 243 244 245 246 247 248 249 250 251 252 253 254 255 256 257 258 259 260 261 262 263 264 265 266 267 268 269 270 271 272 273 274 275 276 277 278 279 280 281 282 283 284 285 286 287 288 289 290 291 292 293 294 295 296 297 298 299 300 301 302 303 304 305 306 307 308 309 310 311 312 313 314 315 316 317 318 319 320 321 322 323 324 325 326 327 328 329 330 331 332 333 334 335 336 337 338 339 340 341 342 343 344 345 346 347 348 349 350 351 352 353 354 355 356 357 358 359 360 361 362 363 364 365 366 367 368 369 370 371 372 373 374 375 376 377 378 379 380 381 382 383 384 385 386 387 388 389 390 391 392 393 394 395 396 397 398 399 400 401 402 403 404 405 406 407 408 409 410 411 412 413 414 415 416 417 418 419 420 421 422 423 424 425 426 427 428 429 430 431 432 433 434 435 436 437 438 439 440 441 442 443 444 445 446 447 448 449 450 451 452 453 454 455 456 457 458 459 460 461 462 463 464 465 466 467 468 469 470 471 472 473 474 475 476 477 478 479 480 481 482 483 484 485 486 487 488 489 490 491 492 493 494 495 496 497 498 499 500 501 502 503 504 505 506 507 508 509 510 511 512 513 514 515 516 517 518 519 520 521 522 523 524 525 526 527 528 529 530 531 532 533 534 535 536 537 538 539 540 541 542 543 544 545 546 547 548 549 550 551 552 553 554 555 556 557 558 559 560 561 562 563 564 565 566 567 568 569 570 571 572 573 574 575 576 577 578 579 580 581 582 583 584 585 586 587 588 589 590 591 592 593 594 595 596 597 598 599 600 601 602 603 604 605 606 607 608 609 610 611 612 613 614 615 616 617 618 619 620 621 622 623 624 625 626 627 628 629 630 631 632 633 634 635 636 637 638 639 640 641 642 643 644 645 646 647 648 649 650 651 652 653 654 655 656 657 658 659 660 661 662 663 664 665 666 667 668 669 670 671 672 673 674 675 676 677 678 679 680 681 682 683 684 685 686 687 688 689 690 691 692 693 694 695 696 697 698 699 700 701 702 703 704 705 706 707 708 709 710 711 712 713 714 715 716 717 718 719 720 721 722 723 724 725 726 727 728 729 730 731 732 733 734 735 736 737 738 739 740 741 742 743 744 745 746 747 748 749 750 751 752 753 754 755 756 757 758 759 760 761 762 763 764 765 766 767 768 769 770 771 772 773 774 775 776 777 778 779 780 781 782 783 784 785 786 787 788 789 790 791 792 793 794 795 796 797 798 799 800 801 802 803 804 805 806 807 808 809 810 811 812 813 814 815 816 817 818 819 820 821 822 823 824 825 826 827 828 829 830 831 832 833 834 835 836 837 838 839 840 841 842 843 844 845 846 847 848 849 850 851 852 853 854 855 856 857 858 859 860 861 862 863 864 865 866 867 868 869 870 871 872 873 874 875 876 877 878 879 
</DataArray>
<DataArray type="UInt32" Name="offsets" format="ascii">
3 6 9 12 15 18 21 24 27 30 33 36 39 42 45 48 51 54 57 60 63 66 69 72 75 78 81 84 87 90 93 96 99 102 105 108 111 114 117 120 123 126 129 132 135 138 141 144 147 150 153 156 159 162 165 168 171 174 177 180 183 186 189 192 195 198 201 204 207 210 213 216 219 222 225 228 231 234 237 240 243 246 249 252 255 258 261 264 267 270 273 276 279 282 285 288 291 294 297 300 303 306 309 312 315 318 321 324 327 330 333 336 339 342 345 348 351 354 357 360 363 366 369 372 375 378 381 384 387 390 393 396 399 402 405 408 411 414 417 420 423 425 428 430 433 436 439 442 445 448 451 454 457 460 463 466 469 472 474 477 479 482 485 487 490 493 495 498 501 504 507 510 513 515 518 521 523 526 529 532 535 538 541 544 547 550 553 556 559 562 565 568 571 574 577 580 583 586 589 592 595 597 599 602 605 608 611 614 617 620 623 626 628 631 634 636 639 642 645 648 651 654 657 660 663 666 669 672 675 677 680 683 685 688 691 694 697 700 703 705 708 710 713 716 718 721 724 727 730 733 736 739 742 745 748 751 754 757 760 763 766 769 772 775 778 781 784 787 790 793 796 799 802 805 808 811 814 817 820 823 826 829 832 835 838 841 844 847 850 853 856 859 862 865 868 871 874 877 880 
</DataArray>
<DataArray type="UInt32" Name="types" format="ascii">
5 5 5 5 5 5 5 5 5 5 5 5 5 5 5 5 5 5 5 5 5 5 5 5 5 5 5 5 5 5 5 5 5 5 5 5 5 5 5 5 5 5 5 5 5 5 5 5 5 5 5 5 5 5 5 5 5 5 5 5 5 5 5 5 5 5 5 5 5 5 5 5 5 5 5 5 5 5 5 5 5 5 5 5 5 5 5 5 5 5 5 5 5 5 5 5 5 5 5 5 5 5 5 5 5 5 5 5 5 5 5 5 5 5 5 5 5 5 5 5 5 5 5 5 5 5 5 5 5 5 5 5 5 5 5 5 5 5 5 5 5 3 5 3 5 5 5 5 5 5 5 5 5 5 5 5 5 5 3 5 3 5 5 3 5 5 3 5 5 5 5 5 5 3 5 5 3 5 5 5 5 5 5 5 5 5 5 5 5 5 5 5 5 5 5 5 5 5 5 5 5 3 3 5 5 5 5 5 5 5 5 5 3 5 5 3 5 5 5 5 5 5 5 5 5 5 5 5 5 3 5 5 3 5 5 5 5 5 5 3 5 3 5 5 3 5 5 5 5 5 5 5 5 5 5 5 5 5 5 5 5 5 5 5 5 5 5 5 5 5 5 5 5 5 5 5 5 5 5 5 5 5 5 5 5 5 5 5 5 5 5 5 5 5 5 5 5 5 5 
</DataArray>
</Cells>
<PointData Scalars="" Vectors="displacement," Tensors="">
<DataArray type="Float64" Name="displacement" NumberOfComponents="3" format="ascii">
-0.0016814842536135288 -0.00072508939755471294 0 -8.0774385828535885e-06 2.0841424380106893e-07 0 -0.002551377089060872 -0.0088633670837132295 0 -8.0774385828535885e-06 2.0841424380106893e-07 0 -3.4282086364020908e-06 -1.4624204069075858e-05 0 -0.002551377089060872 -0.0088633670837132295 0 -3.4282086364020908e-06 -1.4624204069075858e-05 0 -2.6466335976990864e-06 -3.2004769512677253e-05 0 -0.0022651791227820653 -0.016319411413689176 0 -3.4282086364020908e-06 -1.4624204069075858e-05 0 -0.0022651791227820653 -0.016319411413689176 0 -0.002551377089060872 -0.0088633670837132295 0 -0.0022651791227820653 -0.016319411413689176 0 -2.6466335976990864e-06 -3.2004769512677253e-05 0 0.0019454278369379577 -0.027882985839976598 0 0.006301044311378701 -0.03428399609164906 0 -0.0022651791227820644 -0.016319411413689176 0 0.0019454278369379577 -0.027882985839976598 0 0.017574237947506274 -0.053234666444988206 0 0.026071238892551318 -0.053264154297970677 0 0.014922868550341591 -0.039645032420688973 0 0.006301044311378701 -0.03428399609164906 0 0.017574237947506274 -0.053234666444988206 0 0.014922868550341591 -0.039645032420688973 0 0.017574237947506274 -0.053234666444988206 0 0.028034475339156123 -0.064457770036967538 0 0.026071238892551318 -0.053264154297970677 0 0.028034475339156123 -0.064457770036967538 0 0.0351210254882642 -0.069409802942318161 0 0.026071238892551318 -0.053264154297970677 0 0.025723071378066998 -0.067601053022087951 0 0.037865401366176686 -0.083012404490980296 0 0.028034475339156123 -0.064457770036967538 0 0.028034475339156123 -0.064457770036967538 0 0.037865401366176686 -0.083012404490980296 0 0.0351210254882642 -0.069409802942318161 0 0.025723071378066998 -0.067601053022087951 0 0.028034475339156123 -0.064457770036967538 0 0.017574237947506274 -0.053234666444988206 0 0.017574237947506274 -0.053234666444988206 0 0.010768989995254462 -0.045432434755852895 0 0.020535243636955556 -0.062308984433224628 0 0.010768989995254462 -0.045432434755852895 0 0.017574237947506274 -0.053234666444988206 0 0.006301044311378701 -0.03428399609164906 0 0.010768989995254462 -0.045432434755852895 0 0.006301044311378701 -0.03428399609164906 0 0.0019454278369379577 -0.027882985839976598 0 -0.0022651791227820653 -0.016319411413689176 0 0.006301044311378701 -0.03428399609164906 0 0.006292771853191134 -0.024064996224266871 0 0.006301044311378701 -0.03428399609164906 0 0.014922868550341591 -0.039645032420688973 0 0.006292771853191134 -0.024064996224266871 0 -0.002551377089060872 -0.0088633670837132295 0 -0.0022651791227820653 -0.016319411413689176 0 0.006292771853191134 -0.024064996224266871 0 0.02369201919012744 -0.037510037193780363 0 0.0094092985028810822 -0.014578246757778005 0 0.006292771853191134 -0.024064996224266871 0 0.014922868550341591 -0.039645032420688973 0 0.02369201919012744 -0.037510037193780363 0 0.006292771853191134 -0.024064996224266871 0 0.026071238892551318 -0.053264154297970677 0 0.02369201919012744 -0.037510037193780363 0 0.014922868550341591 -0.039645032420688973 0 0.020401739403102807 0.002967966798216272 0 -0.0016814842536135288 -0.00072508939755471294 0 0.0094092985028810822 -0.014578246757778005 0 0.020401739403102807 0.002967966798216272 0 0.0094092985028810822 -0.014578246757778005 0 0.025171875365576208 -0.024824166573838059 0 0.0094092985028810822 -0.014578246757778005 0 0.02369201919012744 -0.037510037193780363 0 0.025171875365576208 -0.024824166573838059 0 0.0094092985028810822 -0.014578246757778005 0 -0.002551377089060872 -0.0088633670837132295 0 0.006292771853191134 -0.024064996224266871 0 0.0094092985028810822 -0.014578246757778005 0 -0.0016814842536135288 -0.00072508939755471294 0 -0.002551377089060872 -0.0088633670837132295 0 0.057249975266711099 0.0036096915672687809 0 0.020401739403102807 0.002967966798216272 0 0.039433593488607893 -0.023032372641468991 0 0.057249975266711099 0.0036096915672687809 0 0.039433593488607893 -0.023032372641468991 0 0.055364816658663635 -0.032319625874551679 0 0.039433593488607893 -0.023032372641468991 0 0.048085196827224827 -0.046050102945133765 0 0.055364816658663635 -0.032319625874551679 0 0.036940816225890197 -0.042681946378346346 0 0.039433593488607893 -0.023032372641468991 0 0.025171875365576208 -0.024824166573838059 0 0.039433593488607893 -0.023032372641468991 0 0.020401739403102803 0.002967966798216272 0 0.025171875365576208 -0.024824166573838059 0 0.09874659016647036 0.004103100637668119 0 0.057249975266711099 0.0036096915672687809 0 0.081640447840964733 -0.012030856649029524 0 0.099146382166407199 -0.022904852194980719 0 0.09874659016647036 0.004103100637668119 0 0.081640447840964733 -0.012030856649029524 0 0.057249975266711099 0.0036096915672687809 0 0.068879943507832761 -0.023128441994663722 0 0.081640447840964733 -0.012030856649029524 0 0.086780450918621924 -0.036833376409561615 0 0.068879943507832761 -0.023128441994663722 0 0.066624769106069265 -0.041905319845375356 0 0.068879943507832761 -0.023128441994663722 0 0.057249975266711099 0.0036096915672687809 0 0.055364816658663635 -0.032319625874551679 0 0.068879943507832761 -0.023128441994663722 0 0.055364816658663635 -0.032319625874551679 0 0.066624769106069265 -0.041905319845375356 0 0.068879943507832761 -0.023128441994663722 0 0.086780450918621924 -0.036833376409561615 0 0.081640447840964733 -0.012030856649029524 0 0.086780450918621924 -0.036833376409561615 0 0.099146382166407199 -0.022904852194980719 0 0.081640447840964733 -0.012030856649029524 0 0.099529647797496568 -0.043871198052241725 0 0.099146382166407199 -0.022904852194980719 0 0.086780450918621924 -0.036833376409561615 0 0.09908445789315605 -0.06081573857093537 0 0.099529647797496568 -0.043871198052241725 0 0.088519470572962652 -0.054200283086675287 0 0.09908445789315605 -0.06081573857093537 0 0.088519470572962652 -0.054200283086675287 0 0.089509439699502605 -0.068311632007082082 0 0.088519470572962652 -0.054200283086675287 0 0.099529647797496568 -0.043871198052241725 0 0.086780450918621924 -0.036833376409561615 0 0.078682593760748792 -0.052071657098760354 0 0.088519470572962652 -0.054200283086675287 0 0.086780450918621924 -0.036833376409561615 0 0.089509439699502605 -0.068311632007082082 0 0.088519470572962652 -0.054200283086675287 0 0.080765621176163718 -0.064594929359236691 0 0.080765621176163718 -0.064594929359236691 0 0.088519470572962652 -0.054200283086675287 0 0.078682593760748792 -0.052071657098760354 0 0.078682593760748792 -0.052071657098760354 0 0.086780450918621924 -0.036833376409561615 0 0.066624769106069265 -0.041905319845375356 0 0.080765621176163718 -0.064594929359236691 0 0.078682593760748779 -0.052071657098760354 0 0.069662709716943494 -0.060902130423393437 0 0.069662709716943494 -0.060902130423393437 0 0.078682593760748792 -0.052071657098760354 0 0.066624769106069265 -0.041905319845375356 0 0.055364816658663635 -0.032319625874551679 0 0.058496185924635222 -0.051814494391114088 0 0.066624769106069265 -0.041905319845375356 0 0.058496185924635222 -0.051814494391114088 0 0.069662709716943494 -0.06090213042339343 0 0.066624769106069265 -0.041905319845375356 0 0.069662709716943494 -0.060902130423393437 0 0.058496185924635215 -0.051814494391114095 0 0.061052787763642702 -0.066370173504179578 0 0.06795659366796665 -0.074441050550648286 0 0.069662709716943494 -0.060902130423393437 0 0.061052787763642702 -0.066370173504179578 0 0.062926238415173544 -0.077362599377471683 0 0.06795659366796665 -0.074441050550648286 0 0.061052787763642702 -0.066370173504179578 0 0.062926238415173544 -0.077362599377471683 0 0.061052787763642702 -0.066370173504179578 0 0.056527011535724453 -0.07326431778109159 0 0.062926238415173544 -0.077362599377471683 0 0.060147824124505908 -0.082379856450238806 0 0.063633172246234354 -0.084337389149324191 0 0.060147824124505908 -0.082379856450238806 0 0.062115356868577609 -0.088848036303443012 0 0.063633172246234354 -0.084337389149324191 0 0.062115356868577609 -0.088848036303443012 0 0.065737661809933651 -0.089571739359949956 0 0.063633172246234354 -0.084337389149324191 0 0.065737661809933651 -0.089571739359949956 0 0.069457102412846333 -0.090266110966202795 0 0.067351557137143553 -0.083465366352888953 0 0.065737661809933651 -0.089571739359949956 0 0.067351557137143553 -0.083465366352888953 0 0.063633172246234354 -0.084337389149324191 0 0.067351557137143553 -0.083465366352888953 0 0.062926238415173544 -0.077362599377471683 0 0.063633172246234354 -0.084337389149324191 0 0.067351557137143553 -0.083465366352888953 0 0.06795659366796665 -0.074441050550648286 0 0.062926238415173544 -0.077362599377471683 0 0.071562113380423634 -0.082271114506538387 0 0.06795659366796665 -0.074441050550648286 0 0.067351557137143553 -0.083465366352888953 0 0.075533255504369026 -0.075570806769414925 0 0.06795659366796665 -0.074441050550648286 0 0.071562113380423634 -0.082271114506538387 0 0.069457102412846333 -0.090266110966202795 0 0.073247584655652606 -0.090919462766831868 0 0.071562113380423634 -0.082271114506538387 0 0.069457102412846333 -0.090266110966202795 0 0.071562113380423634 -0.082271114506538387 0 0.067351557137143553 -0.083465366352888953 0 0.071562113380423634 -0.082271114506538387 0 0.073247584655652606 -0.090919462766831868 0 0.075312929306425178 -0.084731146280245223 0 0.073247584655652606 -0.090919462766831868 0 0.07707782392172377 -0.091521397819745595 0 0.075312929306425178 -0.084731146280245223 0 0.075533255504369026 -0.075570806769414925 0 0.07156211338042362 -0.082271114506538373 0 0.075312929306425178 -0.084731146280245223 0 0.075533255504369026 -0.075570806769414925 0 0.080765621176163718 -0.064594929359236691 0 0.069662709716943494 -0.060902130423393437 0 0.075533255504369026 -0.075570806769414925 0 0.069662709716943494 -0.060902130423393437 0 0.06795659366796665 -0.074441050550648286 0 0.089509439699502605 -0.068311632007082082 0 0.080765621176163718 -0.064594929359236691 0 0.083282707498900932 -0.0761455537933656 0 0.083282707498900932 -0.0761455537933656 0 0.080765621176163718 -0.064594929359236691 0 0.075533255504369026 -0.075570806769414925 0 0.079166023906236449 -0.083246169874517884 0 0.075533255504369026 -0.075570806769414925 0 0.075312929306425178 -0.084731146280245223 0 0.083282707498900932 -0.0761455537933656 0 0.075533255504369026 -0.075570806769414925 0 0.079166023906236449 -0.083246169874517884 0 0.07707782392172377 -0.091521397819745595 0 0.079166023906236449 -0.08324616987451787 0 0.075312929306425178 -0.084731146280245223 0 0.07707782392172377 -0.091521397819745595 0 0.080884857294556009 -0.092071072009879296 0 0.079166023906236449 -0.083246169874517884 0 0.079166023906236449 -0.083246169874517884 0 0.080884857294556009 -0.092071072009879296 0 0.083455877299356648 -0.085693265115941483 0 0.080884857294556009 -0.092071072009879296 0 0.084538058398820143 -0.092570675822769469 0 0.083455877299356648 -0.085693265115941483 0 0.083282707498900932 -0.0761455537933656 0 0.079166023906236449 -0.083246169874517884 0 0.083455877299356648 -0.085693265115941483 0 0.089425850279562014 -0.080818671092917613 0 0.083455877299356648 -0.085693265115941483 0 0.087096110697276061 -0.087538447451467674 0 0.089425850279562014 -0.080818671092917613 0 0.083282707498900932 -0.0761455537933656 0 0.083455877299356648 -0.085693265115941483 0 0.089425850279562014 -0.080818671092917613 0 0.087096110697276061 -0.087538447451467674 0 0.089903357870529776 -0.088241146024679432 0 0.083455877299356648 -0.085693265115941483 0 0.084538058398820143 -0.092570675822769469 0 0.087096110697276061 -0.087538447451467674 0 0.087096110697276061 -0.087538447451467674 0 0.087749359318216133 -0.093018266633054111 0 0.089903357870529776 -0.088241146024679432 0 0.084538058398820143 -0.092570675822769469 0 0.087749359318216133 -0.093018266633054111 0 0.087096110697276061 -0.087538447451467674 0 0.090388148175529065 -0.093288678981616899 0 0.094887139804642778 -0.08485971357184291 0 0.089903357870529776 -0.088241146024679432 0 0.087749359318216133 -0.093018266633054111 0 0.090388148175529065 -0.093288678981616899 0 0.089903357870529776 -0.088241146024679432 0 0.094887139804642778 -0.08485971357184291 0 0.089425850279562014 -0.080818671092917613 0 0.089903357870529776 -0.088241146024679432 0 0.094887139804642778 -0.08485971357184291 0 0.097548109678740558 -0.074387576215589168 0 0.089425850279562014 -0.080818671092917613 0 0.089425850279562014 -0.080818671092917613 0 0.097548109678740558 -0.074387576215589155 0 0.089509439699502605 -0.068311632007082082 0 0.089425850279562014 -0.080818671092917613 0 0.089509439699502605 -0.068311632007082082 0 0.083282707498900932 -0.0761455537933656 0 0.097548109678740558 -0.074387576215589168 0 0.09908445789315605 -0.06081573857093537 0 0.089509439699502605 -0.068311632007082082 0 0.036940816225890197 -0.042681946378346346 0 0.037625388916636519 -0.061704506619840373 0 0.044738816156637294 -0.059296127171798579 0 0.02369201919012744 -0.037510037193780363 0 0.037625388916636519 -0.061704506619840373 0 0.036940816225890197 -0.042681946378346346 0 0.02369201919012744 -0.037510037193780363 0 0.036940816225890197 -0.042681946378346346 0 0.025171875365576208 -0.024824166573838059 0 0.039433593488607893 -0.023032372641468991 0 0.036940816225890197 -0.042681946378346346 0 0.048085196827224827 -0.046050102945133765 0 0.048085196827224827 -0.046050102945133765 0 0.058496185924635222 -0.051814494391114088 0 0.055364816658663635 -0.032319625874551679 0 0.061052787763642702 -0.066370173504179578 0 0.058496185924635222 -0.051814494391114088 0 0.052413375120524991 -0.06163330882728299 0 0.052413375120524991 -0.06163330882728299 0 0.058496185924635222 -0.051814494391114088 0 0.048085196827224827 -0.046050102945133765 0 0.036940816225890197 -0.042681946378346346 0 0.044738816156637301 -0.059296127171798586 0 0.048085196827224827 -0.046050102945133765 0 0.044738816156637294 -0.059296127171798579 0 0.052413375120524991 -0.06163330882728299 0 0.048085196827224827 -0.046050102945133765 0 0.049725152284221558 -0.072297897619083715 0 0.052413375120524998 -0.06163330882728299 0 0.044738816156637294 -0.059296127171798579 0 0.049725152284221558 -0.072297897619083715 0 0.044738816156637294 -0.059296127171798579 0 0.044544951395811994 -0.071735323285605918 0 0.061052787763642702 -0.066370173504179578 0 0.052413375120524991 -0.06163330882728299 0 0.056527011535724453 -0.07326431778109159 0 0.056527011535724453 -0.07326431778109159 0 0.052413375120524991 -0.06163330882728299 0 0.049725152284221558 -0.072297897619083715 0 0.056527011535724453 -0.07326431778109159 0 0.056805381009300784 -0.082500781557287919 0 0.060147824124505908 -0.082379856450238806 0 0.062926238415173544 -0.077362599377471683 0 0.056527011535724453 -0.07326431778109159 0 0.060147824124505908 -0.082379856450238806 0 0.056527011535724453 -0.07326431778109159 0 0.049725152284221558 -0.072297897619083715 0 0.053930186983453386 -0.078903814776741757 0 0.056527011535724453 -0.07326431778109159 0 0.053930186983453386 -0.078903814776741757 0 0.056805381009300784 -0.082500781557287906 0 0.053930186983453386 -0.078903814776741757 0 0.055251357577948274 -0.087353495469820755 0 0.056805381009300784 -0.082500781557287906 0 0.052041657186325085 -0.086600586232737406 0 0.055251357577948274 -0.087353495469820755 0 0.053930186983453386 -0.078903814776741757 0 0.055251357577948274 -0.087353495469820755 0 0.058613986522470171 -0.088105101055988858 0 0.056805381009300784 -0.082500781557287906 0 0.058613986522470171 -0.088105101055988858 0 0.062115356868577609 -0.088848036303443012 0 0.060147824124505908 -0.082379856450238806 0 0.056805381009300784 -0.082500781557287906 0 0.058613986522470171 -0.088105101055988858 0 0.060147824124505908 -0.082379856450238806 0 0.049725152284221558 -0.072297897619083715 0 0.047452812934392755 -0.078966337036180001 0 0.050389086598427828 -0.08050744853426306 0 0.049725152284221558 -0.072297897619083715 0 0.044544951395811994 -0.071735323285605918 0 0.047452812934392755 -0.078966337036180001 0 0.053930186983453386 -0.078903814776741757 0 0.049725152284221558 -0.072297897619083701 0 0.050389086598427828 -0.08050744853426306 0 0.052041657186325085 -0.086600586232737406 0 0.053930186983453379 -0.078903814776741743 0 0.050389086598427828 -0.08050744853426306 0 0.048997157684610097 -0.085862615682167909 0 0.052041657186325085 -0.086600586232737406 0 0.050389086598427828 -0.08050744853426306 0 0.047452812934392755 -0.078966337036180001 0 0.048997157684610097 -0.085862615682167909 0 0.050389086598427828 -0.08050744853426306 0 0.046138350362004948 -0.085150256181390757 0 0.048997157684610097 -0.085862615682167909 0 0.047452812934392755 -0.078966337036180001 0 0.043491793232778152 -0.08449575798271923 0 0.046138350362004948 -0.085150256181390757 0 0.044741801567712187 -0.079212727363606475 0 0.046138350362004948 -0.085150256181390757 0 0.047452812934392755 -0.078966337036180001 0 0.044741801567712187 -0.079212727363606475 0 0.041133232788856854 -0.083875407099332014 0 0.043491793232778152 -0.08449575798271923 0 0.041826116091324035 -0.075846111489864629 0 0.041826116091324035 -0.075846111489864629 0 0.043491793232778152 -0.08449575798271923 0 0.044741801567712187 -0.079212727363606475 0 0.044544951395811994 -0.071735323285605918 0 0.037625388916636519 -0.061704506619840373 0 0.041826116091324035 -0.075846111489864629 0 0.044544951395811994 -0.071735323285605918 0 0.041826116091324028 -0.075846111489864615 0 0.044741801567712187 -0.079212727363606475 0 0.047452812934392755 -0.078966337036180001 0 0.044544951395811994 -0.071735323285605918 0 0.044741801567712187 -0.079212727363606475 0 0.044738816156637294 -0.059296127171798579 0 0.037625388916636519 -0.061704506619840373 0 0.044544951395811994 -0.071735323285605918 0 0.02369201919012744 -0.037510037193780363 0 0.026071238892551321 -0.05326415429797067 0 0.037625388916636519 -0.061704506619840373 0 0.026071238892551318 -0.053264154297970677 0 0.0351210254882642 -0.069409802942318161 0 0.037625388916636519 -0.061704506619840373 0 0.037625388916636519 -0.061704506619840373 0 0.0351210254882642 -0.069409802942318161 0 0.039311170850591576 -0.074363428666163064 0 0.041826116091324035 -0.075846111489864629 0 0.037625388916636519 -0.061704506619840373 0 0.039311170850591576 -0.074363428666163064 0 0.041133232788856854 -0.083875407099332014 0 0.041826116091324035 -0.075846111489864629 0 0.039311170850591576 -0.074363428666163064 0 0.039083080432580367 -0.083426167481609026 0 0.041133232788856854 -0.083875407099332014 0 0.039311170850591576 -0.074363428666163064 0 0.0351210254882642 -0.069409802942318161 0 0.039083080432580367 -0.083426167481609026 0 0.039311170850591576 -0.074363428666163064 0 0.037865401366176686 -0.083012404490980296 0 0.039083080432580367 -0.083426167481609026 0 0.0351210254882642 -0.069409802942318161 0 0.039210758426874014 -0.08437775968990717 0 0.039169601923399799 -0.08408461238985257 0 0.037047865764593034 -0.081342240397288684 0 0.039169601923399799 -0.08408461238985257 0 0.037865401366176686 -0.083012404490980296 0 0.037047865764593034 -0.081342240397288684 0 0.039111081210037521 -0.083711799864526829 0 0.037887757504346899 -0.083251524114219613 0 0.041185469880803988 -0.08464221786721568 0 0.039169601923399799 -0.08408461238985257 0 0.039210758426874014 -0.08437775968990717 0 0.041163501656251066 -0.08428810346443473 0 0.039111081210037521 -0.083711799864526829 0 0.041763024664697508 -0.086199513500167593 0 0.041185469880803988 -0.08464221786721568 0 0.039210758426874014 -0.08437775968990717 0 0.037198121716136699 -0.083294595568153551 0 0.041494123289398284 -0.089490810064966911 0 0.039210758426874014 -0.08437775968990717 0 0.032196296565600795 -0.075489170726924945 0 0.037198121716136699 -0.083294595568153551 0 0.037047865764593034 -0.081342240397288684 0 0.037198121716136699 -0.083294595568153551 0 0.039210758426874014 -0.08437775968990717 0 0.037047865764593034 -0.081342240397288684 0 0.039483188603671421 -0.091095751309697562 0 0.037198121716136699 -0.083294595568153551 0 0.033323900234877107 -0.080617417866208518 0 0.039483188603671421 -0.091095751309697562 0 0.041494123289398284 -0.089490810064966911 0 0.037198121716136699 -0.083294595568153551 0 0.045630727971843449 -0.10114532053618472 0 0.041494123289398284 -0.089490810064966911 0 0.039483188603671421 -0.091095751309697562 0 0.045630727971843449 -0.10114532053618472 0 0.047312295102499048 -0.095306826995758875 0 0.041494123289398284 -0.089490810064966911 0 0.041494123289398284 -0.089490810064966911 0 0.047312295102499055 -0.095306826995758889 0 0.044156902270724101 -0.088547540189598511 0 0.047312295102499048 -0.095306826995758875 0 0.047287031757632908 -0.089605455013776633 0 0.044156902270724101 -0.088547540189598511 0 0.041494123289398284 -0.089490810064966911 0 0.041763024664697508 -0.086199513500167593 0 0.039210758426874014 -0.08437775968990717 0 0.041494123289398284 -0.089490810064966911 0 0.044156902270724101 -0.088547540189598511 0 0.041763024664697508 -0.086199513500167593 0 0.044156902270724101 -0.088547540189598511 0 0.043569560883150116 -0.085365718774565502 0 0.041763024664697508 -0.086199513500167593 0 0.043569560883150116 -0.085365718774565502 0 0.041185469880803988 -0.08464221786721568 0 0.041763024664697508 -0.086199513500167593 0 0.043529636129985026 -0.084933527366024983 0 0.041163501656251066 -0.08428810346443473 0 0.047287031757632908 -0.089605455013776633 0 0.046214257270198865 -0.086108031873897942 0 0.044156902270724101 -0.088547540189598511 0 0.046176272731466877 -0.085636817986613933 0 0.043529636129985026 -0.084933527366024983 0 0.046214257270198872 -0.086108031873897942 0 0.043569560883150116 -0.085365718774565502 0 0.044156902270724101 -0.088547540189598511 0 0.049079528666039741 -0.086886237256984369 0 0.046214257270198872 -0.086108031873897942 0 0.047287031757632908 -0.089605455013776633 0 0.049038277715433162 -0.086377794245489192 0 0.046176272731466877 -0.085636817986613933 0 0.050134336494715263 -0.092121948830768172 0 0.049079528666039741 -0.086886237256984369 0 0.047287031757632908 -0.089605455013776633 0 0.05212577393385566 -0.087685520347168464 0 0.049079528666039741 -0.086886237256984369 0 0.050134336494715263 -0.092121948830768172 0 0.052083576023994285 -0.087144877592772979 0 0.049038277715433162 -0.086377794245489192 0 0.053529414075893907 -0.092679267382608843 0 0.05212577393385566 -0.087685520347168464 0 0.050134336494715263 -0.092121948830768172 0 0.053911298349546187 -0.10081700896893477 0 0.053529414075893907 -0.092679267382608843 0 0.050134336494715263 -0.092121948830768172 0 0.047312295102499048 -0.095306826995758875 0 0.053911298349546187 -0.10081700896893475 0 0.050134336494715263 -0.092121948830768172 0 0.047312295102499048 -0.095306826995758875 0 0.050134336494715263 -0.092121948830768172 0 0.047287031757632908 -0.089605455013776633 0 0.058697684203981998 -0.089297086153096075 0 0.056536376563645879 -0.095091158986359489 0 0.060379860733055887 -0.095639344768828113 0 0.058697684203981998 -0.089297086153096075 0 0.055336228603783871 -0.088493417565749175 0 0.056536376563645879 -0.095091158986359489 0 0.058655725773098237 -0.088699302889048259 0 0.055293695074419114 -0.087923018676337089 0 0.055336228603783871 -0.088493417565749175 0 0.053529414075893907 -0.092679267382608843 0 0.056536376563645879 -0.095091158986359489 0 0.055336228603783871 -0.088493417565749175 0 0.05212577393385566 -0.087685520347168464 0 0.053529414075893907 -0.092679267382608843 0 0.055293695074419114 -0.087923018676337089 0 0.052083576023994285 -0.087144877592772979 0 0.053529414075893907 -0.092679267382608843 0 0.053911298349546187 -0.10081700896893477 0 0.056536376563645879 -0.095091158986359489 0 0.056536376563645879 -0.095091158986359489 0 0.060918204390952822 -0.10535691889155435 0 0.060379860733055887 -0.095639344768828113 0 0.053911298349546187 -0.10081700896893477 0 0.060918204390952822 -0.10535691889155435 0 0.056536376563645879 -0.095091158986359489 0 0.059114648348208301 -0.11673063716810798 0 0.060918204390952822 -0.10535691889155435 0 0.053911298349546187 -0.10081700896893477 0 0.059114648348208301 -0.11673063716810798 0 0.053911298349546187 -0.10081700896893477 0 0.05234980467617386 -0.10728178675228874 0 0.05234980467617386 -0.10728178675228874 0 0.047312295102499048 -0.095306826995758875 0 0.045630727971843449 -0.10114532053618472 0 0.05234980467617386 -0.10728178675228874 0 0.053911298349546187 -0.10081700896893477 0 0.047312295102499048 -0.095306826995758875 0 0.057076247643839201 -0.12373487289479665 0 0.05234980467617386 -0.10728178675228874 0 0.045630727971843449 -0.10114532053618472 0 0.059114648348208301 -0.11673063716810798 0 0.057076247643839201 -0.12373487289479665 0 0.069647786596794756 -0.14387326799690883 0 0.057076247643839201 -0.12373487289479665 0 0.059114648348208301 -0.11673063716810798 0 0.05234980467617386 -0.10728178675228874 0 0.069647786596794756 -0.14387326799690883 0 0.057076247643839201 -0.12373487289479665 0 0.067302572767417829 -0.15153089681748536 0 0.057076247643839201 -0.12373487289479665 0 0.045727937883481722 -0.10924089642114539 0 0.067302572767417829 -0.15153089681748536 0 0.045727937883481722 -0.10924089642114539 0 0.036887443931586314 -0.090530794978549739 0 0.041702993406494589 -0.10390955658521604 0 0.039483188603671421 -0.091095751309697562 0 0.036887443931586314 -0.090530794978549739 0 0.045727937883481722 -0.10924089642114539 0 0.036887443931586314 -0.090530794978549739 0 0.039483188603671421 -0.091095751309697562 0 0.033323900234877107 -0.080617417866208518 0 0.045630727971843449 -0.10114532053618472 0 0.039483188603671421 -0.091095751309697562 0 0.045727937883481722 -0.10924089642114539 0 0.057076247643839201 -0.12373487289479665 0 0.045630727971843449 -0.10114532053618472 0 0.045727937883481722 -0.10924089642114539 0 0.12262757542823062 -0.18590829650021196 0 0.11673983938207246 -0.15748306139862697 0 0.098881728391422632 -0.15489500465478409 0 0.098881728391422632 -0.15489500465478409 0 0.098820951681864652 -0.1340915327561629 0 0.088884226566101204 -0.12736105661139813 0 0.11673983938207246 -0.15748306139862697 0 0.098820951681864666 -0.13409153275616292 0 0.098881728391422632 -0.15489500465478409 0 0.11673983938207246 -0.15748306139862697 0 0.10863028416715656 -0.12853219168521812 0 0.098820951681864666 -0.13409153275616292 0 0.098820951681864666 -0.13409153275616292 0 0.10863028416715656 -0.12853219168521812 0 0.09365285935668112 -0.11159976508518935 0 0.10863028416715656 -0.12853219168521812 0 0.090502622927098542 -0.09440891041562853 0 0.09365285935668112 -0.11159976508518935 0 0.090502622927098542 -0.09440891041562853 0 0.087776871665908723 -0.094029930351379701 0 0.09365285935668112 -0.11159976508518935 0 0.09037808816664393 -0.093742215034579024 0 0.087768030793660634 -0.093516446430967737 0 0.087768030793660634 -0.093516446430967737 0 0.084562468337648189 -0.093172039021708106 0 0.087776871665908723 -0.094029930351379701 0 0.084588308800685671 -0.093811349503204647 0 0.088845080137088098 -0.11067256434275519 0 0.087776871665908723 -0.094029930351379701 0 0.088845080137088098 -0.11067256434275519 0 0.09365285935668112 -0.11159976508518935 0 0.084588308800685671 -0.093811349503204647 0 0.08435570483422028 -0.10577843174177538 0 0.088845080137088098 -0.11067256434275519 0 0.098820951681864666 -0.13409153275616292 0 0.088845080137088098 -0.11067256434275519 0 0.088884226566101204 -0.12736105661139813 0 0.088845080137088098 -0.11067256434275519 0 0.098820951681864666 -0.13409153275616292 0 0.09365285935668112 -0.11159976508518935 0 0.088845080137088098 -0.11067256434275519 0 0.08435570483422028 -0.10577843174177538 0 0.088884226566101204 -0.12736105661139813 0 0.079623629899804801 -0.10787851312232111 0 0.083004409322853814 -0.130547173206398 0 0.088884226566101204 -0.12736105661139813 0 0.08435570483422028 -0.10577843174177538 0 0.079623629899804801 -0.10787851312232111 0 0.088884226566101204 -0.12736105661139813 0 0.08435570483422028 -0.10577843174177538 0 0.080940917769577458 -0.093396624574653003 0 0.079623629899804801 -0.10787851312232111 0 0.084562468337648189 -0.093172039021708106 0 0.080912874634572751 -0.092720076495770784 0 0.084588308800685671 -0.093811349503204647 0 0.080940917769577458 -0.093396624574653003 0 0.08435570483422028 -0.10577843174177538 0 0.080940917769577458 -0.093396624574653003 0 0.077140473351441113 -0.092861017441221758 0 0.079623629899804801 -0.10787851312232111 0 0.080912874634572751 -0.092720076495770784 0 0.077108892573161475 -0.092181579449592099 0 0.079623629899804801 -0.10787851312232111 0 0.077140473351441113 -0.092861017441221758 0 0.075329007692279751 -0.10136025730894806 0 0.07495267127987118 -0.11294241496944607 0 0.083004409322853814 -0.130547173206398 0 0.079623629899804801 -0.10787851312232111 0 0.083004409322853814 -0.130547173206398 0 0.098881728391422632 -0.15489500465478409 0 0.088884226566101204 -0.12736105661139813 0 0.08773971463598397 -0.15423815619369005 0 0.098881728391422632 -0.15489500465478409 0 0.083004409322853814 -0.130547173206398 0 0.08773971463598397 -0.15423815619369005 0 0.083004409322853814 -0.130547173206398 0 0.075693177039147561 -0.12843408777543958 0 0.08773971463598397 -0.15423815619369005 0 0.075693177039147561 -0.12843408777543958 0 0.077091516359839421 -0.14402819068306041 0 0.077091516359839421 -0.14402819068306041 0 0.075693177039147561 -0.12843408777543958 0 0.067260024596651397 -0.1234401354566807 0 0.068247188858688329 -0.10970257353576464 0 0.075693177039147561 -0.12843408777543958 0 0.07495267127987118 -0.11294241496944607 0 0.067260024596651397 -0.1234401354566807 0 0.075693177039147561 -0.12843408777543958 0 0.068247188858688329 -0.10970257353576464 0 0.075693177039147561 -0.12843408777543958 0 0.083004409322853814 -0.130547173206398 0 0.07495267127987118 -0.11294241496944607 0 0.07495267127987118 -0.11294241496944607 0 0.079623629899804801 -0.10787851312232111 0 0.075329007692279751 -0.10136025730894806 0 0.071158553392847074 -0.10125983736230192 0 0.07495267127987118 -0.11294241496944607 0 0.075329007692279751 -0.10136025730894806 0 0.073316199634483339 -0.092254610375757259 0 0.071158553392847074 -0.10125983736230192 0 0.075329007692279751 -0.10136025730894806 0 0.077108892573161475 -0.092181579449592099 0 0.073281901097314042 -0.091577360682450662 0 0.077140473351441113 -0.092861017441221758 0 0.073316199634483339 -0.092254610375757259 0 0.075329007692279751 -0.10136025730894806 0 0.071158553392847074 -0.10125983736230192 0 0.069532123282352393 -0.091575632045342983 0 0.067664585210603756 -0.098358356072793945 0 0.073281901097314042 -0.091577360682450662 0 0.069494264911674514 -0.090914155965675106 0 0.073316199634483339 -0.092254610375757259 0 0.069532123282352393 -0.091575632045342983 0 0.071158553392847074 -0.10125983736230192 0 0.068247188858688329 -0.10970257353576464 0 0.071158553392847074 -0.10125983736230192 0 0.067664585210603756 -0.098358356072793945 0 0.068247188858688329 -0.10970257353576464 0 0.07495267127987118 -0.11294241496944606 0 0.071158553392847074 -0.10125983736230192 0 0.063788995405790361 -0.098615083321335839 0 0.068247188858688329 -0.10970257353576462 0 0.067664585210603756 -0.098358356072793945 0 0.060918204390952822 -0.10535691889155435 0 0.068247188858688329 -0.10970257353576464 0 0.063788995405790361 -0.098615083321335839 0 0.065816586060339841 -0.090850208991863343 0 0.063788995405790361 -0.098615083321335839 0 0.067664585210603756 -0.098358356072793945 0 0.069494264911674514 -0.090914155965675106 0 0.065777005385555545 -0.090205700789036503 0 0.069532123282352393 -0.091575632045342983 0 0.065816586060339841 -0.090850208991863343 0 0.067664585210603756 -0.098358356072793945 0 0.062156318852458543 -0.089463676418593208 0 0.058655725773098237 -0.088699302889048259 0 0.062197577938320217 -0.090086190965452492 0 0.058697684203981998 -0.089297086153096075 0 0.060379860733055887 -0.095639344768828113 0 0.065816586060339841 -0.090850208991863343 0 0.062197577938320217 -0.090086190965452492 0 0.063788995405790361 -0.098615083321335839 0 0.065777005385555545 -0.090205700789036503 0 0.062156318852458543 -0.089463676418593208 0 0.063788995405790361 -0.098615083321335839 0 0.062197577938320217 -0.090086190965452492 0 0.060379860733055887 -0.095639344768828113 0 0.060918204390952822 -0.10535691889155435 0 0.063788995405790361 -0.098615083321335839 0 0.060379860733055887 -0.095639344768828113 0 0.067260024596651397 -0.1234401354566807 0 0.060918204390952822 -0.10535691889155435 0 0.059114648348208301 -0.11673063716810798 0 0.067260024596651397 -0.1234401354566807 0 0.068247188858688329 -0.10970257353576464 0 0.060918204390952822 -0.10535691889155435 0 0.069647786596794756 -0.14387326799690883 0 0.089454483748090341 -0.18586702863640575 0 0.089358529476567403 -0.17272033216458951 0 0.067260024596651397 -0.1234401354566807 0 0.059114648348208301 -0.11673063716810798 0 0.069647786596794756 -0.14387326799690883 0 0.077091516359839421 -0.14402819068306041 0 0.067260024596651397 -0.1234401354566807 0 0.069647786596794756 -0.14387326799690883 0 0.08773971463598397 -0.15423815619369005 0 0.077091516359839421 -0.14402819068306041 0 0.089358529476567403 -0.17272033216458951 0 0.077091516359839421 -0.14402819068306041 0 0.069647786596794756 -0.14387326799690883 0 0.089358529476567403 -0.17272033216458951 0 0.10540569809110022 -0.18428821576513954 0 0.08773971463598397 -0.15423815619369005 0 0.089358529476567403 -0.17272033216458951 0 0.10540569809110022 -0.18428821576513954 0 0.098881728391422632 -0.15489500465478409 0 0.08773971463598397 -0.15423815619369005 0 0.10991297959450742 -0.20744822867412688 0 0.10540569809110023 -0.18428821576513954 0 0.089358529476567403 -0.17272033216458951 0 0.12783935776892988 -0.21496784348969175 0 0.10540569809110022 -0.18428821576513954 0 0.10991297959450742 -0.20744822867412688 0 0.10540569809110022 -0.18428821576513954 0 0.12262757542823062 -0.18590829650021196 0 0.098881728391422632 -0.15489500465478409 0 0.12783935776892988 -0.21496784348969175 0 0.12262757542823062 -0.18590829650021196 0 0.10540569809110022 -0.18428821576513954 0 0.095473798109730529 -0.206297691868782 0 0.14876512684728518 -0.27896839941019891 0 0.11527308541670039 -0.22621969492226698 0 0.13535776009587142 -0.24439300799631186 0 0.12783935776892988 -0.21496784348969175 0 0.10991297959450742 -0.20744822867412688 0 0.13535776009587142 -0.24439300799631186 0 0.10991297959450742 -0.20744822867412688 0 0.11527308541670039 -0.22621969492226698 0 0.089454483748090341 -0.18586702863640575 0 0.069647786596794756 -0.14387326799690883 0 0.067302572767417829 -0.15153089681748536 0 0.095473798109730529 -0.206297691868782 0 0.089454483748090327 -0.18586702863640572 0 0.067302572767417829 -0.15153089681748536 0 0.10991297959450742 -0.20744822867412688 0 0.089454483748090341 -0.18586702863640575 0 0.11527308541670039 -0.22621969492226698 0 0.089454483748090341 -0.18586702863640575 0 0.10991297959450742 -0.20744822867412688 0 0.089358529476567403 -0.17272033216458951 0 0.089454483748090341 -0.18586702863640575 0 0.095473798109730529 -0.206297691868782 0 0.11527308541670039 -0.22621969492226698 0 0.14876512684728518 -0.27896839941019891 0 0.13535776009587142 -0.24439300799631186 0 0.11527308541670039 -0.22621969492226698 0 0.05943433766916293 -0.13481768519989873 0 0.095473798109730529 -0.206297691868782 0 0.058571158849241384 -0.13848153636034966 0 0.058571158849241384 -0.13848153636034966 0 0.045727937883481722 -0.10924089642114539 0 0.041702993406494589 -0.10390955658521604 0 0.05943433766916293 -0.13481768519989873 0 0.058571158849241384 -0.13848153636034966 0 0.041702993406494589 -0.10390955658521604 0 0.045727937883481722 -0.10924089642114539 0 0.058571158849241384 -0.13848153636034966 0 0.067302572767417829 -0.15153089681748536 0 0.058571158849241384 -0.13848153636034966 0 0.095473798109730529 -0.206297691868782 0 0.067302572767417829 -0.15153089681748536 0 0.028902611991625617 -0.076459028742869459 0 0.059434337669162937 -0.13481768519989873 0 0.041702993406494589 -0.10390955658521604 0 0.034041027634816312 -0.069625852245897082 0 0.028902611991625617 -0.076459028742869459 0 0.010581409699638947 -0.035319201754268857 0 0.034041027634816312 -0.069625852245897082 0 0.05943433766916293 -0.13481768519989873 0 0.028902611991625617 -0.076459028742869459 0 -5.8336817572702411e-06 -3.8063428047861402e-05 0 3.1894486565609706e-05 -8.0823610984546223e-05 0 0.010581409699638947 -0.035319201754268857 0 3.1894486565609706e-05 -8.0823610984546223e-05 0 0.034041027634816312 -0.069625852245897082 0 0.010581409699638947 -0.035319201754268857 0 -2.6466335976990864e-06 -3.2004769512677253e-05 0 -5.8336817572702411e-06 -3.8063428047861402e-05 0 0.0027205251330866126 -0.022206167814240351 0 0.0027205251330866126 -0.022206167814240351 0 0.010581409699638947 -0.035319201754268857 0 0.012888941303666529 -0.050375814003914755 0 0.0027205251330866126 -0.022206167814240351 0 -5.8336817572702411e-06 -3.8063428047861402e-05 0 0.010581409699638947 -0.035319201754268857 0 -2.6466335976990864e-06 -3.2004769512677253e-05 0 0.0027205251330866126 -0.022206167814240351 0 0.0019454278369379577 -0.027882985839976598 0 0.0027205251330866126 -0.022206167814240351 0 0.012888941303666529 -0.050375814003914755 0 0.0019454278369379577 -0.027882985839976598 0 0.012888941303666529 -0.050375814003914755 0 0.01076898999525446 -0.045432434755852895 0 0.0019454278369379577 -0.027882985839976598 0 0.020535243636955556 -0.062308984433224628 0 0.010768989995254462 -0.045432434755852895 0 0.012888941303666529 -0.050375814003914755 0 0.027400027019451361 -0.07587885916235397 0 0.020535243636955552 -0.062308984433224628 0 0.012888941303666529 -0.050375814003914755 0 0.025723071378066998 -0.067601053022087951 0 0.017574237947506274 -0.053234666444988206 0 0.020535243636955556 -0.062308984433224628 0 0.032196296565600795 -0.075489170726924945 0 0.025723071378066998 -0.067601053022087951 0 0.020535243636955556 -0.062308984433224628 0 0.032196296565600795 -0.075489170726924945 0 0.037865401366176686 -0.083012404490980296 0 0.025723071378066998 -0.067601053022087951 0 0.037865401366176686 -0.083012404490980296 0 0.032196296565600795 -0.075489170726924945 0 0.037047865764593034 -0.081342240397288684 0 0.033323900234877107 -0.080617417866208518 0 0.032196296565600795 -0.075489170726924945 0 0.020535243636955556 -0.062308984433224628 0 0.033323900234877107 -0.080617417866208518 0 0.037198121716136699 -0.083294595568153551 0 0.032196296565600795 -0.075489170726924945 0 0.027400027019451361 -0.07587885916235397 0 0.033323900234877107 -0.080617417866208518 0 0.020535243636955556 -0.062308984433224628 0 0.027400027019451361 -0.07587885916235397 0 0.028902611991625617 -0.076459028742869459 0 0.041702993406494589 -0.10390955658521604 0 0.036887443931586314 -0.090530794978549739 0 0.033323900234877107 -0.080617417866208518 0 0.027400027019451361 -0.07587885916235397 0 0.036887443931586314 -0.090530794978549739 0 0.027400027019451361 -0.07587885916235397 0 0.041702993406494589 -0.10390955658521604 0 0.010581409699638947 -0.035319201754268857 0 0.028902611991625617 -0.076459028742869459 0 0.012888941303666529 -0.050375814003914755 0 0.028902611991625617 -0.076459028742869459 0 0.027400027019451361 -0.07587885916235397 0 0.012888941303666529 -0.050375814003914755 0 
</DataArray>
</PointData>
<CellData Scalars="region_id," Vectors="" Tensors="stress,">
<DataArray type="Float64" Name="region_id" format="ascii">
1 1 1 1 1 1 1 1 1 1 1 1 1 1 1 1 1 1 1 1 1 1 1 1 1 1 1 1 1 1 1 1 1 1 1 1 1 1 1 1 1 1 1 1 1 1 1 1 1 1 1 1 1 1 1 1 1 1 1 1 1 1 1 1 1 1 1 1 1 1 1 1 1 1 1 1 1 1 1 1 1 1 1 1 1 1 1 1 1 1 1 1 1 1 1 1 1 1 1 1 1 1 1 1 1 1 1 1 1 1 1 1 1 1 1 1 1 1 1 1 1 1 1 1 1 1 1 1 1 1 1 1 1 1 1 1 1 1 1 1 1 6 1 6 1 1 1 1 1 1 1 1 1 1 1 1 1 1 6 1 6 1 1 6 1 1 6 1 1 1 1 1 1 6 1 1 6 1 1 1 1 1 1 1 1 1 1 1 1 1 1 1 1 1 1 1 1 1 1 1 1 6 6 1 1 1 1 1 1 1 1 1 6 1 1 6 1 1 1 1 1 1 1 1 1 1 1 1 1 6 1 1 6 1 1 1 1 1 1 6 1 6 1 1 6 1 1 1 1 1 1 1 1 1 1 1 1 1 1 1 1 1 1 1 1 1 1 1 1 1 1 1 1 1 1 1 1 1 1 1 1 1 1 1 1 1 1 1 1 1 1 1 1 1 1 1 1 1 1 
</DataArray>
<DataArray type="Float64" Name="stress" NumberOfComponents="9" format="ascii">
-0.007940981697049267 -0.02029970050638763 0 -0.02029970050638763 -0.0057415978960105194 0 0 0 -0.0034206448982649468 -0.015892896083795762 -0.0046023628386303549 0 -0.0046023628386303549 -0.047738198394702003 0 0 0 -0.015907773619624442 -0.034301332213698695 -0.0047891987332844129 0 -0.0047891987332844129 -0.10291400080159152 0 0 0 -0.034303833253822552 -0.02303850681171991 -0.02731105133993322 0 -0.02731105133993322 -0.067342875040599603 0 0 0 -0.022595345463079883 -0.019830206028310385 -0.018648679352497255 0 -0.018648679352497255 -0.14494244249065294 0 0 0 -0.041193162129740828 -0.021134188305319102 -0.0012648136041504832 0 -0.0012648136041504832 -0.12365366484513812 0 0 0 -0.036196963287614299 -0.0064854166614126407 -0.0100271168579949 0 -0.0100271168579949 -0.11270620929039521 0 0 0 -0.02979790648795197 -0.0091146082562079123 -0.026787153013045129 0 -0.026787153013045129 -0.12560645872421544 0 0 0 -0.033680266745105769 0.0063759152983061118 -0.029207360481493472 0 -0.029207360481493472 -0.14741297412149196 0 0 0 -0.035259264705796434 0.0080283295258881809 -0.017917376429806453 0 -0.017917376429806453 -0.14957622325319869 0 0 0 -0.035386973431827604 0.020482318324926283 -0.033871826024947871 0 -0.033871826024947871 -0.3258892298175024 0 0 0 -0.076351727873143954 0.12561106427375335 -0.097145423886983606 0 -0.097145423886983606 -0.12077360509809321 0 0 0 0.0012093647939152019 0.0082980024585249113 -0.017205540079338499 0 -0.017205540079338499 -0.15295433108653111 0 0 0 -0.036164082157001509 0.0020369366992362137 -0.0081645614690824542 0 -0.0081645614690824542 -0.16570448487804657 0 0 0 -0.040916887044702588 -0.010812866578128577 -0.0038509258224057319 0 -0.0038509258224057319 -0.16105654740600714 0 0 0 -0.042967353496033894 -0.0099997385604886496 -0.013580064401476901 0 -0.013580064401476901 -0.16671145549868299 0 0 0 -0.044177798514792935 -0.019344948193716592 -0.020465988489676915 0 -0.020465988489676915 -0.10078392295039239 0 0 0 -0.030032217786027243 -0.0095076830196346128 -0.0027381528524320353 0 -0.0027381528524320353 -0.10471564839510383 0 0 0 -0.028555832853684623 -0.012077215850417558 -0.00047905842408195974 0 -0.00047905842408195974 -0.078830618842243322 0 0 0 -0.022726958673165223 -0.0018445394441776175 0.0022290374283505943 0 0.0022290374283505943 -0.073226055226790515 0 0 0 -0.01876764866774204 -0.01046777935866669 -0.0059142011056185773 0 -0.0059142011056185773 -0.070337515800219241 0 0 0 -0.02020132378972149 0.013117250093376803 -0.018079492831697609 0 -0.018079492831697609 -0.098822350288051974 0 0 0 -0.021426275048668814 -0.0067659163732546332 -0.00052961405314424365 0 -0.00052961405314424365 0.013501734310807071 0 0 0 0.0016839544843881133 -0.0012986379528573538 0.0026575245258359526 0 0.0026575245258359526 -0.042538174026920367 0 0 0 -0.010959202994944434 0.005217183281108026 -0.0031727040814156365 0 -0.0031727040814156365 -0.034982005582340936 0 0 0 -0.007441205575308224 -0.013990187916261941 -0.012382640463505248 0 -0.012382640463505248 -0.044369006103749706 0 0 0 -0.014589798505002921 -0.0073980701661290095 0.0080128888440996401 0 0.0080128888440996401 -0.039744293141067283 0 0 0 -0.011785590826799069 0.0027278780892208373 0.0018555474012654991 0 0.0018555474012654991 0.0036473183777164467 0 0 0 0.0015937991167343328 -0.0028010027346500876 -0.0026375473148803757 0 -0.0026375473148803757 -0.026223421959832627 0 0 0 -0.0072561061736206856 0.012295970937668071 -0.0091846766166054014 0 -0.0091846766166054014 -0.015919392488215722 0 0 0 -0.00090585538763687801 0.01198620331640779 -0.0094240490038818917 0 -0.0094240490038818917 -0.04052776444232159 0 0 0 -0.007135390281478457 0.0029473178798041927 0.004274305454818085 0 0.004274305454818085 -0.028677931225240344 0 0 0 -0.0064326533363590482 -0.0011853365771191345 0.00036439206420455644 0 0.00036439206420455644 0.0017100998413337866 0 0 0 0.00013119081605370483 0.0022402906789953866 0.00028921338989059027 0 0.00028921338989059027 -0.0012932909790458191 0 0 0 0.00023674992498739361 0.00089240574338688566 0.00070326958343554236 0 0.00070326958343554236 0.00079876814893400927 0 0 0 0.00042279347308021159 0.0016015859188662634 -0.0057787106527721899 0 -0.0057787106527721899 -0.0056834296514806648 0 0 0 -0.0010204609331535969 0.0031406457137405641 -0.0023571713755771301 0 -0.0023571713755771301 -0.0082092045117429513 0 0 0 -0.0012671396995006107 -0.0071248520094632783 -0.011396412711938864 0 -0.011396412711938864 -0.026304368116426113 0 0 0 -0.0083573050314723618 -0.0032968814926104643 -0.0034816285954240508 0 -0.0034816285954240508 -0.0098595012844151508 0 0 0 -0.0032890956942563769 -0.0016543626567899344 -0.00089489436923710988 0 -0.00089489436923710988 0.0011616471189479921 0 0 0 -0.00012317888446052028 0.0021733105621837279 -0.00073932896482431433 0 -0.00073932896482431433 -0.0040272966615091388 0 0 0 -0.00046349652483135273 -0.0067817452586631521 -0.0057245997002834453 0 -0.0057245997002834453 -0.0035263118739312649 0 0 0 -0.0025770142831486043 -0.022244030054872244 -0.0083013890933807954 0 -0.0083013890933807954 0.00060690013494690831 0 0 0 -0.0054092824799813477 -0.007314157429573892 -0.004422222753298205 0 -0.004422222753298205 0.0010944213496610344 0 0 0 -0.0015549340199781658 -0.0066948728373932009 -0.012636314925826703 0 -0.012636314925826703 -0.0071076946791213957 0 0 0 -0.003450641879128663 -0.019519830818600592 -0.020710448341374754 0 -0.020710448341374754 -0.010884712704691601 0 0 0 -0.0076011358808231178 -0.016291960169052822 -0.01903408819484137 0 -0.01903408819484137 -0.0073969744872793841 0 0 0 -0.0059222336640830098 -0.011608820775631773 -0.015491686889013395 0 -0.015491686889013395 -0.016225214462682436 0 0 0 -0.0069585088095785452 -0.016020782311303883 -0.023572799887664281 0 -0.023572799887664281 -0.020775888010198917 0 0 0 -0.009199167580375589 -0.0035014255862115262 -0.018301244485364271 0 -0.018301244485364271 -0.011364402374160476 0 0 0 -0.0037164569900929589 0.0045096651329490645 -0.016828358951228403 0 -0.016828358951228403 -0.016808310534206949 0 0 0 -0.0030746613503144504 -0.0065729724597931027 -0.023228192218597982 0 -0.023228192218597982 -0.03116547305995615 0 0 0 -0.0094346113799372855 -0.0006840619404685222 -0.028794725706198954 0 -0.028794725706198954 -0.023250969384651654 0 0 0 -0.0059837578312799955 -0.010264611938382406 -0.032613137839248602 0 -0.032613137839248602 -0.029705679407734387 0 0 0 -0.0099925728365292121 -0.0046767575460276711 -0.03432066688269686 0 -0.03432066688269686 -0.026786474665055904 0 0 0 -0.0078658080527709562 -0.0037525658292600905 -0.037154366179739939 0 -0.037154366179739939 -0.030736200292209137 0 0 0 -0.0086221915303673624 -0.0066817404563712657 -0.038465475222293155 0 -0.038465475222293155 -0.029287769425440757 0 0 0 -0.0089923774704530057 -0.0087334802648892929 -0.038273723344993127 0 -0.038273723344993127 -0.030001464353823781 0 0 0 -0.0096837361546784351 -0.0080240083286057164 -0.03786343727934427 0 -0.03786343727934427 -0.02892096695885335 0 0 0 -0.0092362438218646006 -0.011387783876880775 -0.036537486305190825 0 -0.036537486305190825 -0.028978471545729967 0 0 0 -0.010091563855652685 -0.011380310496775126 -0.036435356353930137 0 -0.036435356353930137 -0.029671198946478405 0 0 0 -0.010262877360813549 -0.0073650709907906453 -0.036293827925125699 0 -0.036293827925125699 -0.028461599459630005 0 0 0 -0.0089566676126051625 -0.010810712366601583 -0.035619089985190755 0 -0.035619089985190755 -0.029309650895147144 0 0 0 -0.010030090815437376 -0.010183027854494098 -0.035140015664303914 0 -0.035140015664303914 -0.027783018501292389 0 0 0 -0.0094915115889466772 -0.013848193096618231 -0.034083767395979958 0 -0.034083767395979958 -0.026675979308210446 0 0 0 -0.010131043101207169 -0.014041603408753097 -0.035696761445788372 0 -0.035696761445788372 -0.028375426439065255 0 0 0 -0.010604257461954644 -0.013624461216709571 -0.035252584165316792 0 -0.035252584165316792 -0.028778160434782318 0 0 0 -0.010600655412873028 -0.015364032516226311 -0.034267257517067162 0 -0.034267257517067162 -0.027477963833761887 0 0 0 -0.010710499087497105 -0.016717556059980255 -0.035249937955354138 0 -0.035249937955354138 -0.027402696605664717 0 0 0 -0.011030063166411188 -0.016105301992123344 -0.034913989183808836 0 -0.034913989183808836 -0.027135734349865714 0 0 0 -0.010810259085497265 -0.015966491660369619 -0.029041457406579124 0 -0.029041457406579124 -0.018313114742452896 0 0 0 -0.0085699016007056983 -0.0085249926050835478 -0.032045016937812754 0 -0.032045016937812754 -0.024889783647915387 0 0 0 -0.0083536940632497059 -0.025755534831683635 -0.025665435285243898 0 -0.025665435285243898 -0.0084717655202805053 0 0 0 -0.0085568250879909935 -0.020451252350990101 -0.031470935773174558 0 -0.031470935773174558 -0.020706995123060512 0 0 0 -0.010289561868512709 -0.016090353532580037 -0.034147192675586968 0 -0.034147192675586968 -0.027030429527347355 0 0 0 -0.010780195764981793 -0.021817516008495842 -0.033458611159679963 0 -0.033458611159679963 -0.021219370202305264 0 0 0 -0.010759221552700194 -0.018889087679329286 -0.03379336867040672 0 -0.03379336867040672 -0.027353041985536564 0 0 0 -0.01156053241621624 -0.0203733780082338 -0.035574742473131638 0 -0.035574742473131638 -0.026725976631593706 0 0 0 -0.011774838659956988 -0.021710159071891999 -0.034395561364792548 0 -0.034395561364792548 -0.026238911629557382 0 0 0 -0.01198726767536229 -0.026952179868392469 -0.037635051445945145 0 -0.037635051445945145 -0.027103024903614759 0 0 0 -0.013513801193001808 -0.030519974199051725 -0.037488314448379523 0 -0.037488314448379523 -0.026484223051540301 0 0 0 -0.014251049312647979 -0.052706961370674321 -0.040282563608193156 0 -0.040282563608193156 -0.028590004228343346 0 0 0 -0.020324241399754417 -0.02949747321590368 -0.032071298643541191 0 -0.032071298643541191 -0.014363830816712442 0 0 0 -0.010965326008153808 -0.054742717247343808 -0.043403581893746379 0 -0.043403581893746379 -0.026472765452794533 0 0 0 -0.02030387067503403 -0.032080665570093592 -0.033334578397317349 0 -0.033334578397317349 -0.027099951684038892 0 0 0 -0.014795154313532954 -0.066186058028978811 -0.035989482785919291 0 -0.035989482785919291 -0.03217717096179129 0 0 0 -0.024590807247692581 -0.051864078316677817 -0.043874417196398285 0 -0.043874417196398285 -0.033520652825216393 0 0 0 -0.021346182785473386 -0.15440688063029362 -0.038801753207488118 0 -0.038801753207488118 -0.023465108454409744 0 0 0 -0.044467997271175674 -0.084127296101887294 -0.052992284500090525 0 -0.052992284500090525 -0.037849386541839447 0 0 0 -0.030494170660931852 -0.074255206183471367 -0.024656152117639163 0 -0.024656152117639163 0.004284860724751649 0 0 0 -0.017492586364679985 -0.065154607727468505 -0.018245507001942992 0 -0.018245507001942992 -0.0060019958717245636 0 0 0 -0.017789150899798267 -0.042507261052142087 -0.013409728441291402 0 -0.013409728441291402 0.00019563825396873291 0 0 0 -0.010577905699543311 -0.038591131556998115 -0.031055331794414665 0 -0.031055331794414665 -0.016977700254161565 0 0 0 -0.013892207952789781 -0.028194653552728655 -0.011240572754856674 0 -0.011240572754856674 -0.0049025579631269967 0 0 0 -0.0082743028789640238 0.022014490208594473 -0.034033688682617164 0 -0.034033688682617164 -0.05490790255474165 0 0 0 -0.008223353086536711 0.025505718469170241 -0.024377433924936243 0 -0.024377433924936243 -0.068044700815647341 0 0 0 -0.010634745586619254 -0.002921305360975469 0.00022293218811626769 0 0.00022293218811626769 -0.071972835811608557 0 0 0 -0.018723535293146035 0.0077721973290041935 -0.012160405057424356 0 -0.012160405057424356 -0.048167910073537934 0 0 0 -0.010098928186133449 -0.0026174515945514808 -0.017906335596251322 0 -0.017906335596251322 -0.040793678683271134 0 0 0 -0.010852782569455623 -0.0024325425190569461 -0.031791716462958267 0 -0.031791716462958267 -0.035706647787245194 0 0 0 -0.0095347975765754933 0.0086009379924744389 -0.027729587416378237 0 -0.027729587416378237 -0.03160316634686644 0 0 0 -0.0057505570885979795 0.01369175197939082 -0.030067660736002338 0 -0.030067660736002338 -0.048587275396787977 0 0 0 -0.0087238808543493307 0.0097379411187349836 -0.032546888928192408 0 -0.032546888928192408 -0.043511040035363685 0 0 0 -0.0084432747291571346 0.0072901623383238578 -0.040377995788084486 0 -0.040377995788084486 -0.045013879387413747 0 0 0 -0.0094309292622725138 0.020286528083659938 -0.047412036058751439 0 -0.047412036058751439 -0.041302579407889173 0 0 0 -0.0052540128310573087 0.00019560072486615732 -0.036716860254188299 0 -0.036716860254188299 -0.032445979327073771 0 0 0 -0.0080625946505518964 0.0068914299168059689 -0.040607156620879659 0 -0.040607156620879659 -0.034397802400805366 0 0 0 -0.0068765931209999187 -0.00088685171983704514 -0.039966897755011291 0 -0.039966897755011291 -0.030067312280147362 0 0 0 -0.0077385409999961574 -0.0049906063986355775 -0.038185593554584507 0 -0.038185593554584507 -0.030400281852101196 0 0 0 -0.008847722062684249 -0.00021321089981898855 -0.043168352414266531 0 -0.043168352414266531 -0.037291614758830693 0 0 0 -0.0093762064146623303 -0.0017844863278245748 -0.042785000636882953 0 -0.042785000636882953 -0.032388503279028313 0 0 0 -0.0085432474017131943 -0.0049975085087718973 -0.043494688993002406 0 -0.043494688993002406 -0.031467587073917613 0 0 0 -0.0091162738956724887 -0.0024956839931184467 -0.045675716333070326 0 -0.045675716333070326 -0.028137402995928984 0 0 0 -0.0076582717472616904 -0.0037595016874324488 -0.04274900279625049 0 -0.04274900279625049 -0.028511396487507574 0 0 0 -0.0080677245437349512 -0.0062693315734724314 -0.039719482457862387 0 -0.039719482457862387 -0.029033562165494593 0 0 0 -0.0088257234347416443 -0.0077564346043603738 -0.040523330712478156 0 -0.040523330712478156 -0.032444016087100458 0 0 0 -0.010050112672865152 0.0049848052174106261 -0.051522565901852446 0 -0.051522565901852446 -0.035212219624406682 0 0 0 -0.0075568536017489585 0.0040227784060386518 -0.054203823592079203 0 -0.054203823592079203 -0.049181711596720745 0 0 0 -0.011289733297670634 0.0054562197548571056 -0.045785536015677142 0 -0.045785536015677142 -0.032493517338899602 0 0 0 -0.0067593243960106797 -0.0044924896211993026 -0.046684121376105669 0 -0.046684121376105669 -0.03553207190201757 0 0 0 -0.010006140380804274 0.0024004983715452087 -0.050730743485442487 0 -0.050730743485442487 -0.025963565843471936 0 0 0 -0.0058907668679816262 -0.0044565225719757073 -0.054720365477515021 0 -0.054720365477515021 -0.03763933351791815 0 0 0 -0.010523964022473464 0.0005746420069115977 -0.057416269066380421 0 -0.057416269066380421 -0.025643357225880622 0 0 0 -0.0062671788047422563 0.0066803598412761289 -0.066271208362621348 0 -0.066271208362621348 -0.021509681391395752 0 0 0 -0.0037073303875299057 -0.0040207302472299311 -0.060101028134510792 0 -0.060101028134510792 -0.04011350464709329 0 0 0 -0.011033558723580583 0.022082198242020842 -0.078301119062310076 0 -0.078301119062310076 -0.0151373259568356 0 0 0 0.0017362180712964216 0.0069269559453077889 -0.068538835091308592 0 -0.068538835091308592 -0.040086258682507481 0 0 0 -0.008289825684300034 0.029346519144809569 -0.060797810249563544 0 -0.060797810249563544 -0.049305533767453724 0 0 0 -0.0049897536556611222 0.0072402816509904433 -0.060963999547581027 0 -0.060963999547581027 -0.04616771004636977 0 0 0 -0.0097318570988449427 0.011395551418074801 -0.059307467815368109 0 -0.059307467815368109 -0.035043920878411239 0 0 0 -0.005912092365084165 0.01395462997680369 -0.046573247592295752 0 -0.046573247592295752 -0.072378978068802224 0 0 0 -0.014606087022999703 0.013064661252719045 -0.015937203623122474 0 -0.015937203623122474 -0.10113024573262153 0 0 0 -0.022016396119975634 0.066545770242483537 -0.050078784384314845 0 -0.050078784384314845 -0.078692768464599716 0 0 0 -0.0030367495555290169 0.031571809235707904 -0.061786303005026966 0 -0.061786303005026966 -0.090459116557154218 0 0 0 -0.014721826830361495 0.038169468365173653 -0.069795358122806517 0 -0.069795358122806517 -0.051854089572241691 0 0 0 -0.0034211553017670093 0.010409231501327332 -0.085523373609821762 0 -0.085523373609821762 -0.062685903235610407 0 0 0 -0.013069167933570824 0.036803548870840919 -0.099377095581474784 0 -0.099377095581474784 -0.0040245738458066782 0 0 0 0.0081947437562583936 0.045253633591691211 -0.097097780538182188 0 -0.097097780538182188 -0.066835449679595982 0 0 0 -0.0053954540219762759 0.10570872514318608 -0.13627707136928124 0 -0.13627707136928124 0.020230437254260103 0 0 0 0.031484790599361379 -0.084517909762441557 0.045749015725649156 0 0.045749015725649156 -0.13189138416379986 0 0 0 -0.054102323481560077 -0.078804969314681061 0.050516881883673426 0 0.050516881883673426 -0.06515372957066079 0 0 0 -0.035989674721335518 -0.10684607550120973 0.34683042325212909 0 0.34683042325212909 -1.704882079614606 0 0 0 -0.45293203877895394 -0.052451692370586771 0.02755734244209096 0 0.02755734244209096 -0.037706389435898297 0 0 0 -0.022539520451621321 0.04877860072463136 -0.059219545404005203 0 -0.059219545404005203 -2.073801522090946 0 0 0 -0.50625573034153604 -0.064007862141148397 0.023860024921774303 0 0.023860024921774303 -0.09375823596571875 0 0 0 -0.039441524526716787 -0.046535803223886903 0.0088799035751081501 0 0.0088799035751081501 -0.13602274230873354 0 0 0 -0.045639636383155109 -0.079540867012870053 0.033706837888016095 0 0.033706837888016095 -0.18898448236666598 0 0 0 -0.067131337344883912 -0.046176368211136021 0.011751578191113166 0 0.011751578191113166 -0.11383150201620884 0 0 0 -0.04000196755683616 -0.053206619268253985 0.00054767184598147889 0 0.00054767184598147889 -0.17545585249954354 0 0 0 -0.057165617941949409 -0.031795016487413896 -0.011555188307686814 0 -0.011555188307686814 -0.13374344103473845 0 0 0 -0.041384614380537976 -0.033942553888531068 -0.01433586566750561 0 -0.01433586566750561 -0.16599694023330303 0 0 0 -0.049984873530458551 -0.022243943531330412 -0.022639739781469825 0 -0.022639739781469825 -0.11408872747847965 0 0 0 -0.034083167752452459 -0.036344962181414031 -0.0082679060279935435 0 -0.0082679060279935435 -0.11812277423272055 0 0 0 -0.038616934103533618 -0.032702528313730994 -0.019292404983642375 0 -0.019292404983642375 -0.079388839299925795 0 0 0 -0.028022841903414086 -0.045286629889935703 0.0002308071442815654 0 0.0002308071442815654 -0.10093258683281059 0 0 0 -0.03655480418068624 -0.038487969768255192 -0.0017899878193274876 0 -0.0017899878193274876 -0.081120426240020471 0 0 0 -0.02990209900206886 -0.05884823953631968 0.0027515128805526423 0 0.0027515128805526423 -0.089461240636324213 0 0 0 -0.037077370043160807 -0.045440206029364182 0.011419702433015599 0 0.011419702433015599 -0.041385701583007986 0 0 0 -0.021706476903093044 -0.097748052248164186 -0.055600235181714197 0 -0.055600235181714197 -2.3733200338500637 0 0 0 -0.61776702152454277 -0.051439939148813174 -0.0057706039925742303 0 -0.0057706039925742303 -0.078440790789201742 0 0 0 -0.032470182484503951 -0.034427892605663146 -0.056047190691515425 0 -0.056047190691515425 -2.5620766148712733 0 0 0 -0.64912612686927673 -0.046138039771482911 -0.0044652216280827162 0 -0.0044652216280827162 -0.042300568326284191 0 0 0 -0.022109652024441831 -0.034632003680062348 -0.016561548926245839 0 -0.016561548926245839 -0.039766916453287733 0 0 0 -0.018599730033337685 -0.058060374328988473 -0.07046775645312664 0 -0.07046775645312664 -2.7066273569637929 0 0 0 -0.69117193282318112 -0.045886360629206591 -0.023654102288661272 0 -0.023654102288661272 -0.076291407120475441 0 0 0 -0.030544441937420563 -0.037224787427061035 -0.028760518252900491 0 -0.028760518252900491 -0.041395595879697211 0 0 0 -0.019655095826689672 -0.044306978544796038 -0.075505678851925495 0 -0.075505678851925495 -2.7967245989975709 0 0 0 -0.71025789438562015 -0.04204801923558521 -0.029930237345275557 0 -0.029930237345275557 -0.072781128279090446 0 0 0 -0.028707286878668858 -0.023393663709027512 -0.039804454422315755 0 -0.039804454422315755 -0.072208014347541649 0 0 0 -0.023900419514142346 -0.027607686440727242 -0.029633550980939782 0 -0.029633550980939782 -0.10714304529389276 0 0 0 -0.033687682933654921 -0.029422802056829234 -0.02325119761699812 0 -0.02325119761699812 -0.071429642625921108 0 0 0 -0.025213111170687474 -0.038060119726867736 -0.054176151224240909 0 -0.054176151224240909 -0.070011949283542041 0 0 0 -0.027018017252602444 -0.033570865438364801 -0.051584279052315329 0 -0.051584279052315329 -0.040336669247235855 0 0 0 -0.018476883671400608 -0.044334285202808132 -0.09145263586759711 0 -0.09145263586759711 -2.8301021731666651 0 0 0 -0.71860911459236831 -0.039777927874557806 -0.048000629883902968 0 -0.048000629883902968 -0.072847347418456554 0 0 0 -0.028156318823253423 -0.02659789986021921 -0.039813227889212044 0 -0.039813227889212044 -0.038165705747266632 0 0 0 -0.016190901401871516 -0.044345233450258092 -0.083950512141200306 0 -0.083950512141200306 -2.8368400742091922 0 0 0 -0.72029632691487677 -0.020766564866356418 -0.045067132014513636 0 -0.045067132014513636 -0.067757316160844017 0 0 0 -0.022130970256799998 -0.022031211489167868 -0.06358623038609057 0 -0.06358623038609057 -0.068454947643123099 0 0 0 -0.022621539783072686 -0.02332255784590169 -0.050840603414154417 0 -0.050840603414154417 -0.10481951044121829 0 0 0 -0.032035517071780137 -0.003001194242450933 -0.055809798994165882 0 -0.055809798994165882 -0.098987864794090275 0 0 0 -0.025497264759135385 -0.018383632663432237 -0.045764384005422598 0 -0.045764384005422598 -0.15023702812938478 0 0 0 -0.04215516519820417 -0.025755379984863436 -0.021832654366550741 0 -0.021832654366550741 -0.15149586396342474 0 0 0 -0.04431281098707196 -0.0041378633517356045 -0.037565445194066682 0 -0.037565445194066682 -0.099234748717928589 0 0 0 -0.025843153017416132 -0.0018858913271229127 -0.040510492567611495 0 -0.040510492567611495 -0.1539476193154663 0 0 0 -0.038958377660647359 0.0028025688878960953 -0.050493331057223145 0 -0.050493331057223145 -0.20170539884818428 0 0 0 -0.049725707490072102 0.0031041806575528019 -0.044086621708964713 0 -0.044086621708964713 -0.1440557420219708 0 0 0 -0.035237890341104583 0.0060760081057398829 -0.031517299529480014 0 -0.031517299529480014 -0.21010998549772891 0 0 0 -0.051008494347997202 0.0099719753167342162 -0.035662322981993844 0 -0.035662322981993844 -0.2021286330965732 0 0 0 -0.048039164444959814 -0.017112543281635209 -0.014360149498458763 0 -0.014360149498458763 -0.19927638072697196 0 0 0 -0.054097231002151761 -0.030706157029630143 -0.018773279973405943 0 -0.018773279973405943 -0.19871212210739864 0 0 0 -0.057354569784257181 -0.022218863027370972 -0.0095696653725268477 0 -0.0095696653725268477 -0.16214599235337701 0 0 0 -0.046091213845186996 -0.015262045344924388 -0.026548646102768969 0 -0.026548646102768969 -0.15934089447126981 0 0 0 -0.043650734954048608 -0.015828416092231623 -0.020034771334448143 0 -0.020034771334448143 -0.19815208696753839 0 0 0 -0.053495125764942475 0.010164512146788596 -0.029199427393580054 0 -0.029199427393580054 -0.27486892140062347 0 0 0 -0.066176102313458829 0.072866224949164948 -0.1042380683480848 0 -0.1042380683480848 -0.21632588623765603 0 0 0 -0.035864915322122659 0.12505931962955119 -0.059167309113847377 0 -0.059167309113847377 -0.2989612141410114 0 0 0 -0.043475473627865191 0.10697574891677508 -0.071603943374093718 0 -0.071603943374093718 -0.25647543813352147 0 0 0 -0.037374922304186819 0.2135374851166707 -0.10028543148448588 0 -0.10028543148448588 -0.34691984248870078 0 0 0 -0.033345589343008131 0.55625865547628561 -0.24480654036739269 0 -0.24480654036739269 -0.10311871482603774 0 0 0 0.11328498516256191 0.27333022879926122 -0.2816808745767867 0 -0.2816808745767867 0.077365732602995924 0 0 0 0.087673990350564404 0.54487729466109158 -0.71411227741708672 0 -0.71411227741708672 -0.63716170421002971 0 0 0 -0.023071102387234532 -0.001817579244288936 -0.14510985734466431 0 -0.14510985734466431 -1.2496567306629913 0 0 0 -0.31286857747687691 0.12696005969080648 -0.2190183113200368 0 -0.2190183113200368 0.034392821136453033 0 0 0 0.04033822020681499 0.15622630371129764 -0.20706779413377885 0 -0.20706779413377885 -0.1080109971250458 0 0 0 0.012053826646563071 0.064292740471661114 -0.18287929962864258 0 -0.18287929962864258 -0.074369322030657159 0 0 0 -0.0025191453897488447 0.13581385213303609 -0.16346147832862679 0 -0.16346147832862679 -0.20747062420411577 0 0 0 -0.017914193017769753 0.20758153952862402 -0.20496064047368134 0 -0.20496064047368134 -0.091081056410502015 0 0 0 0.029125120779530667 0.085721096435486338 -0.17917216128549884 0 -0.17917216128549884 -0.069166277415218747 0 0 0 0.0041387047550673073 0.022751973030753714 -0.12156801691121755 0 -0.12156801691121755 -0.16856666250052044 0 0 0 -0.036453672367441348 0.078636395283115668 -0.16765556723615704 0 -0.16765556723615704 -0.074091704877778053 0 0 0 0.0011361726013339735 0.013076424311906365 -0.14303643957849987 0 -0.14303643957849987 -0.073335890546361693 0 0 0 -0.015064866558614387 0.023196226047161872 -0.16900505423529921 0 -0.16900505423529921 -1.6313853520500743 0 0 0 -0.40204728150064284 0.072279042299600249 -0.17654691999931837 0 -0.17654691999931837 0.0090523233577277651 0 0 0 0.020332841414332004 0.015059109135081947 -0.14605094532596619 0 -0.14605094532596619 -0.014404982327411704 0 0 0 0.00016353170191767195 -0.020096554370297781 -0.15692876898043551 0 -0.15692876898043551 -1.9596481389313567 0 0 0 -0.49493617332547046 -0.0092874926868211638 -0.13273258284619227 0 -0.13273258284619227 -0.069143377448448895 0 0 0 -0.019607717533817626 0.045842530141862126 -0.13582713501067512 0 -0.13582713501067512 -0.099704556340137085 0 0 0 -0.013465506549568795 0.10395053089565987 -0.12762714319906832 0 -0.12762714319906832 -0.17026698710194887 0 0 0 -0.016579114051572086 0.036363390995660883 -0.072669379884980567 0 -0.072669379884980567 -0.25880019168766388 0 0 0 -0.05560920017300075 0.057509517914838826 -0.097558044623651419 0 -0.097558044623651419 -0.1628328368830454 0 0 0 -0.026330829742051698 0.022321797127577203 -0.0734238087374256 0 -0.0734238087374256 -0.22842785709638758 0 0 0 -0.051526514992202288 0.037142265745287673 -0.078014718795235249 0 -0.078014718795235249 -0.14468584037842191 0 0 0 -0.026885893658283422 0.02923502924984489 -0.10217267751374104 0 -0.10217267751374104 -0.096065118996537802 0 0 0 -0.016707522436673172 -0.0011155892291362379 -0.079596193185099251 0 -0.079596193185099251 -0.15710529290185604 0 0 0 -0.03955522053274807 0.010333663434710094 -0.099502308430465591 0 -0.099502308430465591 -0.17623853796069677 0 0 0 -0.041476218631496642 -0.00082105210054606026 -0.11856180148498763 0 -0.11856180148498763 -0.080332226323096112 0 0 0 -0.02028831960591071 0.0063644728475014123 -0.11535932749055733 0 -0.11535932749055733 -0.062265351469257713 0 0 0 -0.01397521965543902 -0.023769390165090609 -0.11070561724232686 0 -0.11070561724232686 -0.070174254295562122 0 0 0 -0.023485911115163072 -0.034151072023860252 -0.14482605365066092 0 -0.14482605365066092 -2.2026837528406986 0 0 0 -0.55920870621616814 -0.002181309644016128 -0.12478355274264796 0 -0.12478355274264796 -0.022719466122184364 0 0 0 -0.0062251939415504561 -0.027517523008138145 -0.098629551328852205 0 -0.098629551328852205 -0.069305493223016157 0 0 0 -0.024205754057788686 -0.04014332479391669 -0.13815216366151617 0 -0.13815216366151617 -2.4186035477704877 0 0 0 -0.61468671814111531 -0.016473745976285148 -0.1049643286829125 0 -0.1049643286829125 -0.03011552944178586 0 0 0 -0.011647318854517419 -0.008870206695198668 -0.092735772474201061 0 -0.092735772474201061 -0.065368464333000365 0 0 0 -0.018559667757049647 -0.0071794751291093251 -0.10153645384632504 0 -0.10153645384632504 -0.10783691798955308 0 0 0 -0.028754098279665796 -0.010265747662986602 -0.087011368266661338 0 -0.087011368266661338 -0.067233478224509202 0 0 0 -0.019374806471874173 -0.016940781363902299 -0.073653045311805831 0 -0.073653045311805831 -0.10452159711289793 0 0 0 -0.030365594619199951 -0.032472047423090178 -0.07759368438762837 0 -0.07759368438762837 -0.068958375949352835 0 0 0 -0.025357605843110642 -0.039828320754850211 -0.12050846658530645 0 -0.12050846658530645 -2.5826068808608511 0 0 0 -0.65560880040396796 -0.014026426965641018 -0.089396671929297566 0 -0.089396671929297566 -0.030984151728075584 0 0 0 -0.011252644673429206 -0.044035492654643349 -0.099472930303363682 0 -0.099472930303363682 -2.7868064980347924 0 0 0 -0.70771049767236605 -0.023601782731294478 -0.06395148706897702 0 -0.06395148706897702 -0.036485462105224117 0 0 0 -0.015021811209129649 -0.027636366338387397 -0.075905008942689145 0 -0.075905008942689145 -0.036920509203962837 0 0 0 -0.016139218885587558 -0.042281222910105498 -0.10911490283376679 0 -0.10911490283376679 -2.7051687911109639 0 0 0 -0.68686250350526734 -0.035029081961111652 -0.071084640422110934 0 -0.071084640422110934 -0.06889829974640449 0 0 0 -0.025981845426879424 -0.019967682588288627 -0.067330797520534169 0 -0.067330797520534169 -0.065863387252377947 0 0 0 -0.02145776746016681 -0.013239287762779051 -0.059718931804976005 0 -0.059718931804976005 -0.1616117099357437 0 0 0 -0.043712749424630548 0.01103916158107876 -0.076759816397520497 0 -0.076759816397520497 -0.095621363706420048 0 0 0 -0.021145550531335267 0.015246424709122297 -0.024322606189584484 0 -0.024322606189584484 -0.25249562792880287 0 0 0 -0.059312300804920226 0.017238398740737418 -0.058834306989730245 0 -0.058834306989730245 -0.15163345202630768 0 0 0 -0.033598763321392652 0.0045740897360063704 -0.053208552877687998 0 -0.053208552877687998 -0.21024830135261441 0 0 0 -0.051418552904151871 0.029444911972330123 -0.054367818111546562 0 -0.054367818111546562 -0.21981671962840976 0 0 0 -0.047592951914019799 0.032586930801846492 -0.057033343147651183 0 -0.057033343147651183 -0.22109751392195154 0 0 0 -0.047127645780026206 0.031414701258918876 -0.040352274670056754 0 -0.040352274670056754 -0.28759633970116516 0 0 0 -0.064045409610561488 0.047664994283514339 -0.057802006553044905 0 -0.057802006553044905 -0.23384341725925495 0 0 0 -0.04654460574393493 0.014561925877403681 -0.015532986019026279 0 -0.015532986019026279 -0.26628038027467493 0 0 0 -0.062929613599318035 0.010337291081722599 -0.0031849740744199773 0 -0.0031849740744199773 -0.30489444162077284 0 0 0 -0.073639287634762407 0.039890457586355788 -0.019397286689812221 0 -0.019397286689812221 -0.30533567576042353 0 0 0 -0.066361304543516964 -0.028064984597870213 -0.01212279734634265 0 -0.01212279734634265 -0.28109198521121392 0 0 0 -0.077289242452270868 0.0040233690810057166 0.0033337435717761821 0 0.0033337435717761821 -0.30872056248222501 0 0 0 -0.076174298350304856 -0.027422378958037008 0.0012083984552484495 0 0.0012083984552484495 -0.28916882521369391 0 0 0 -0.079147801042932731 0.0016435020263971256 0.0045596456990106837 0 0.0045596456990106837 -0.30120732045380461 0 0 0 -0.074890954606851745 0.019010912850375927 -0.029479262835004044 0 -0.029479262835004044 -0.25626113311395193 0 0 0 -0.059312555065894057 0.0018821941406573228 -0.0059260177937648373 0 -0.0059260177937648373 -0.27651059113715148 0 0 0 -0.068657099249123554 0.0052389059935144255 0.00042440718318881299 0 0.00042440718318881299 -0.28114698335701216 0 0 0 -0.068977019340874496 0.022931841276192466 -0.016355158156509675 0 -0.016355158156509675 -0.28853218273679748 0 0 0 -0.06640008536515124 0.0053301345117051646 0.0053954038339640298 0 0.0053954038339640298 -0.30413674102755062 0 0 0 -0.074701651628961363 -0.010973771357410733 0.0048698120046715447 0 0.0048698120046715447 -0.30168312716205881 0 0 0 -0.078164224629867496 0.0028126050083968376 -0.0058906807814986806 0 -0.0058906807814986806 -0.30404382678364555 0 0 0 -0.075307805443812131 -0.0035109981755956365 -0.020521824155571335 0 -0.020521824155571335 -0.23411310304141675 0 0 0 -0.059406025304253041 -0.0053084147132508308 -0.0079655543074469426 0 -0.0079655543074469426 -0.25729773998940109 0 0 0 -0.065651538675662979 -0.011594332377727334 -0.013063572806033152 0 -0.013063572806033152 -0.25134533938822989 0 0 0 -0.065734917941489335 0.013618547442977025 -0.018446620074312581 0 -0.018446620074312581 -0.2633958845279295 0 0 0 -0.062444334271238133 -0.00029417928264757753 -0.0084630660142800407 0 -0.0084630660142800407 -0.24235354635689965 0 0 0 -0.060661931409886793 0.0050580744072610956 0.0052765061369619629 0 0.0052765061369619629 -0.23987646970450746 0 0 0 -0.058704598824311602 -0.0074212035524394288 -0.0013071644800176363 0 -0.0013071644800176363 -0.28062555512202025 0 0 0 -0.072011689668614917 -0.080371645772882097 0.024092834232122502 0 0.024092834232122502 -0.24159785787317783 0 0 0 -0.080492375911514993 -0.031909296830018544 0.027545810960869901 0 0.027545810960869901 -0.30736188778633222 0 0 0 -0.084817796154087688 -0.062090973140844254 0.007619235560631551 0 0.007619235560631551 -0.18623212520609034 0 0 0 -0.062080774586733653 -0.032626747639936948 0.0095673027597873266 0 0.0095673027597873266 -0.20345510556125079 0 0 0 -0.059020463300296935 -0.033029041349646876 0.0041024651767913728 0 0.0041024651767913728 -0.21384222271226969 0 0 0 -0.061717816015479141 -0.03821297920503787 -0.0080370779565539854 0 -0.0080370779565539854 -0.15097081714283925 0 0 0 -0.047295949086969276 -0.019595347579170183 0.0030013652367295029 0 0.0030013652367295029 -0.19975523075811485 0 0 0 -0.054837644584321263 -0.016393908847971053 -0.001257065222046324 0 -0.001257065222046324 -0.16747094816203456 0 0 0 -0.0459662142525014 -0.019578138303187498 0.0098013040641682647 0 0.0098013040641682647 -0.20861828035425056 0 0 0 -0.057049104664359529 -0.02440065619757345 0.0088190589674082658 0 0.0088190589674082658 -0.20974462555712792 0 0 0 -0.058536320438675349 -0.015110582866265487 0.0036781629725675669 0 0.0036781629725675669 -0.24649701248676903 0 0 0 -0.065401898838258699 0.014566778219676668 0.026240291373402697 0 0.026240291373402697 -0.19148868624423665 0 0 0 -0.044230477006139912 -0.08985512114280092 0.087071213600470765 0 0.087071213600470765 -0.36563293228035021 0 0 0 -0.11387201335578767 -0.13211408579813244 0.081721443063834776 0 0.081721443063834776 -0.15125683824231873 0 0 0 -0.070842731010112736 -0.061785029972830641 0.033379077552578323 0 0.033379077552578323 -0.21438304553120757 0 0 0 -0.069042018876009525 -0.037982951969007084 0.010097593956508666 0 0.010097593956508666 -0.15330681345386554 0 0 0 -0.047822441355718059 -0.020119132661139294 0.01712067746608234 0 0.01712067746608234 -0.1858964842669093 0 0 0 -0.051503904232012149 -0.022165505300287436 0.0028446981487382783 0 0.0028446981487382783 -0.24328892236862532 0 0 0 -0.066363606917228146 -0.045736492684111396 0.0053883098196669948 0 0.0053883098196669948 -0.20719535626164332 0 0 0 -0.063232962236438706 -0.015156240894668606 -0.0035900308173071882 0 -0.0035900308173071882 -0.1966960739493962 0 0 0 -0.052963078711016187 -0.0223021124072444 0.010469122018038124 0 0.010469122018038124 -0.24938254013188013 0 0 0 -0.067921163134781137 -0.0096324692184316107 0.0082570705736939448 0 0.0082570705736939448 -0.20647007558025843 0 0 0 -0.054025636199672517 
</DataArray>
</CellData>
</Piece>
</UnstructuredGrid>
</VTKFile>
