<?xml version="1.0"?>
<VTKFile type="UnstructuredGrid" version="0.1" byte_order="LittleEndian">
<UnstructuredGrid>
<Piece NumberOfPoints="880" NumberOfCells="299">
<Points>
<DataArray type="Float64" NumberOfComponents="3" format="ascii">
0 0.25000000000104189 0 -0 0 0 0.18653882694645291 0.22249173546702489 0 -0 0 0 0.24999999999941089 0 0 0.18653882694645291 0.22249173546702489 0 0.24999999999941089 0 0 0.49999999999869182 0 0 0.35015135319464608 0.1900339269648805 0 0.24999999999941089 0 0 0.35015135319464608 0.1900339269648805 0 0.18653882694645291 0.22249173546702489 0 0.35015135319464608 0.1900339269648805 0 0.49999999999869182 0 0 0.49924741621175961 0.21507969613896921 0 0.40587285776242238 0.32419148732968017 0 0.35015135319464608 0.1900339269648805 0 0.49924741621175961 0.21507969613896921 0 0.45418244162583959 0.41624787166862259 0 0.41576443813007791 0.48093483781626972 0 0.37764981543668408 0.41341486499350411 0 0.40587285776242238 0.32419148732968017 0 0.45418244162583959 0.41624787166862259 0 0.37764981543668408 0.41341486499350411 0 0.45418244162583959 0.41624787166862259 0 0.46566719828045178 0.47702825415921918 0 0.41576443813007791 0.48093483781626972 0 0.46566719828045178 0.47702825415921918 0 0.4638583922372429 0.51470588235294135 0 0.41576443813007791 0.48093483781626972 0 0.49954900152271581 0.45107191084564019 0 0.5 0.5 0 0.46566719828045178 0.47702825415921918 0 0.46566719828045178 0.47702825415921918 0 0.5 0.5 0 0.4638583922372429 0.51470588235294135 0 0.49954900152271581 0.45107191084564019 0 0.46566719828045178 0.47702825415921918 0 0.45418244162583959 0.41624787166862259 0 0.45418244162583959 0.41624787166862259 0 0.49435464945626773 0.33318442629318029 0 0.54876010062294855 0.39662628167175101 0 0.49435464945626773 0.33318442629318029 0 0.45418244162583959 0.41624787166862259 0 0.40587285776242238 0.32419148732968017 0 0.49435464945626773 0.33318442629318029 0 0.40587285776242238 0.32419148732968017 0 0.49924741621175961 0.21507969613896921 0 0.35015135319464608 0.1900339269648805 0 0.40587285776242238 0.32419148732968017 0 0.29145599617909779 0.35026601625021492 0 0.40587285776242238 0.32419148732968017 0 0.37764981543668408 0.41341486499350411 0 0.29145599617909779 0.35026601625021492 0 0.18653882694645291 0.22249173546702489 0 0.35015135319464608 0.1900339269648805 0 0.29145599617909779 0.35026601625021492 0 0.32540781287085369 0.49175159894608172 0 0.17872124008781709 0.39692711089439497 0 0.29145599617909779 0.35026601625021492 0 0.37764981543668408 0.41341486499350411 0 0.32540781287085369 0.49175159894608172 0 0.29145599617909779 0.35026601625021492 0 0.41576443813007791 0.48093483781626972 0 0.32540781287085369 0.49175159894608172 0 0.37764981543668408 0.41341486499350411 0 0 0.50000000000206157 0 0 0.25000000000104189 0 0.17872124008781709 0.39692711089439497 0 0 0.50000000000206157 0 0.17872124008781709 0.39692711089439497 0 0.22453074737734591 0.51613635929252633 0 0.17872124008781709 0.39692711089439497 0 0.32540781287085369 0.49175159894608172 0 0.22453074737734591 0.51613635929252633 0 0.17872124008781709 0.39692711089439497 0 0.18653882694645291 0.22249173546702489 0 0.29145599617909779 0.35026601625021492 0 0.17872124008781709 0.39692711089439497 0 0 0.25000000000104189 0 0.18653882694645291 0.22249173546702489 0 0 0.75000000000034772 0 0 0.50000000000206157 0 0.18442368612951149 0.62734948407416979 0 0 0.75000000000034772 0 0.18442368612951149 0.62734948407416979 0 0.22727208279115291 0.72949159435386135 0 0.18442368612951149 0.62734948407416979 0 0.31346558946927339 0.67110784456164874 0 0.22727208279115291 0.72949159435386135 0 0.31771010312359771 0.58585679504088894 0 0.18442368612951149 0.62734948407416979 0 0.22453074737734591 0.51613635929252633 0 0.18442368612951149 0.62734948407416979 0 0 0.50000000000206157 0 0.22453074737734591 0.51613635929252633 0 0 1 0 0 0.75000000000034772 0 0.096516139048187316 0.89789944498939644 0 0.1596341872805197 1 0 0 1 0 0.096516139048187316 0.89789944498939644 0 0 0.75000000000034772 0 0.1644705180525495 0.8200994301041713 0 0.096516139048187316 0.89789944498939644 0 0.2386314078659193 0.92924778694987087 0 0.1644705180525495 0.8200994301041713 0 0.27155609766735261 0.80398965554903801 0 0.1644705180525495 0.8200994301041713 0 0 0.75000000000034772 0 0.22727208279115291 0.72949159435386135 0 0.1644705180525495 0.8200994301041713 0 0.22727208279115291 0.72949159435386135 0 0.27155609766735261 0.80398965554903801 0 0.1644705180525495 0.8200994301041713 0 0.2386314078659193 0.92924778694987087 0 0.096516139048187316 0.89789944498939644 0 0.2386314078659193 0.92924778694987087 0 0.1596341872805197 1 0 0.096516139048187316 0.89789944498939644 0 0.27591592301363282 1 0 0.1596341872805197 1 0 0.2386314078659193 0.92924778694987087 0 0.36061858902161292 1 0 0.27591592301363282 1 0 0.32789203369730929 0.94219211037003092 0 0.36061858902161292 1 0 0.32789203369730929 0.94219211037003092 0 0.39382242252278338 0.95440420122950598 0 0.32789203369730929 0.94219211037003092 0 0.27591592301363282 1 0 0.2386314078659193 0.92924778694987087 0 0.31834856208730472 0.88134829947972904 0 0.32789203369730929 0.94219211037003092 0 0.2386314078659193 0.92924778694987087 0 0.39382242252278338 0.95440420122950598 0 0.32789203369730929 0.94219211037003092 0 0.37746652222901839 0.8987532801416368 0 0.37746652222901839 0.8987532801416368 0 0.32789203369730929 0.94219211037003092 0 0.31834856208730472 0.88134829947972904 0 0.31834856208730472 0.88134829947972904 0 0.2386314078659193 0.92924778694987087 0 0.27155609766735261 0.80398965554903801 0 0.37746652222901839 0.8987532801416368 0 0.31834856208730472 0.88134829947972904 0 0.36493375430404612 0.82333914183704071 0 0.36493375430404612 0.82333914183704071 0 0.31834856208730472 0.88134829947972904 0 0.27155609766735261 0.80398965554903801 0 0.22727208279115291 0.72949159435386135 0 0.32984265945580837 0.74432890077789404 0 0.27155609766735261 0.80398965554903801 0 0.32984265945580837 0.74432890077789404 0 0.36493375430404612 0.82333914183704071 0 0.27155609766735261 0.80398965554903801 0 0.36493375430404612 0.82333914183704071 0 0.32984265945580837 0.74432890077789404 0 0.39746869305290999 0.7595658224757349 0 0.42893012659725649 0.81084715169569632 0 0.36493375430404612 0.82333914183704071 0 0.39746869305290999 0.7595658224757349 0 0.44651949253391748 0.77225997208621999 0 0.42893012659725649 0.81084715169569632 0 0.39746869305290999 0.7595658224757349 0 0.44651949253391748 0.77225997208621999 0 0.39746869305290999 0.7595658224757349 0 0.43412357948152142 0.72128778687215156 0 0.44651949253391748 0.77225997208621999 0 0.47220206448452873 0.74892462649306213 0 0.47786860714145291 0.77730227330627721 0 0.47220206448452873 0.74892462649306213 0 0.5 0.76470588235294124 0 0.47786860714145291 0.77730227330627721 0 0.5 0.76470588235294124 0 0.5 0.79411764705882359 0 0.47786860714145291 0.77730227330627721 0 0.5 0.79411764705882359 0 0.5 0.82352941176470584 0 0.47062147868881782 0.80650323854033878 0 0.5 0.79411764705882359 0 0.47062147868881782 0.80650323854033878 0 0.47786860714145291 0.77730227330627721 0 0.47062147868881782 0.80650323854033878 0 0.44651949253391748 0.77225997208621999 0 0.47786860714145291 0.77730227330627721 0 0.47062147868881782 0.80650323854033878 0 0.42893012659725649 0.81084715169569632 0 0.44651949253391748 0.77225997208621999 0 0.46181179062043481 0.83858979842637782 0 0.42893012659725649 0.81084715169569632 0 0.47062147868881782 0.80650323854033878 0 0.42880856207355889 0.86677159981903118 0 0.42893012659725649 0.81084715169569632 0 0.46181179062043481 0.83858979842637782 0 0.5 0.82352941176470584 0 0.5 0.85294117647058831 0 0.46181179062043481 0.83858979842637782 0 0.5 0.82352941176470584 0 0.46181179062043481 0.83858979842637782 0 0.47062147868881782 0.80650323854033878 0 0.46181179062043481 0.83858979842637782 0 0.5 0.85294117647058831 0 0.47032448519202857 0.86718057681700655 0 0.5 0.85294117647058831 0 0.5 0.88235294117647056 0 0.47032448519202857 0.86718057681700655 0 0.42880856207355889 0.86677159981903118 0 0.46181179062043481 0.83858979842637782 0 0.47032448519202857 0.86718057681700655 0 0.42880856207355889 0.86677159981903118 0 0.37746652222901839 0.8987532801416368 0 0.36493375430404612 0.82333914183704071 0 0.42880856207355889 0.86677159981903118 0 0.36493375430404612 0.82333914183704071 0 0.42893012659725649 0.81084715169569632 0 0.39382242252278338 0.95440420122950598 0 0.37746652222901839 0.8987532801416368 0 0.42822627495986648 0.92083108049218854 0 0.42822627495986648 0.92083108049218854 0 0.37746652222901839 0.8987532801416368 0 0.42880856207355889 0.86677159981903118 0 0.46100207326614928 0.89524736819256467 0 0.42880856207355889 0.86677159981903118 0 0.47032448519202857 0.86718057681700655 0 0.42822627495986648 0.92083108049218854 0 0.42880856207355889 0.86677159981903118 0 0.46100207326614928 0.89524736819256467 0 0.5 0.88235294117647056 0 0.46100207326614928 0.89524736819256467 0 0.47032448519202857 0.86718057681700655 0 0.5 0.88235294117647056 0 0.5 0.91176470588235292 0 0.46100207326614928 0.89524736819256467 0 0.46100207326614928 0.89524736819256467 0 0.5 0.91176470588235292 0 0.46949408183482899 0.92833826413560594 0 0.5 0.91176470588235292 0 0.5 0.94117647058823528 0 0.46949408183482899 0.92833826413560594 0 0.42822627495986648 0.92083108049218854 0 0.46100207326614928 0.89524736819256467 0 0.46949408183482899 0.92833826413560594 0 0.44768478605684647 0.9646709673379662 0 0.46949408183482899 0.92833826413560594 0 0.47596308696979028 0.95620709615192379 0 0.44768478605684647 0.9646709673379662 0 0.42822627495986648 0.92083108049218854 0 0.46949408183482899 0.92833826413560594 0 0.44768478605684647 0.9646709673379662 0 0.47596308696979028 0.95620709615192379 0 0.47818194888216242 0.97829325975680159 0 0.46949408183482899 0.92833826413560594 0 0.5 0.94117647058823528 0 0.47596308696979028 0.95620709615192379 0 0.47596308696979028 0.95620709615192379 0 0.5 0.97058823529411764 0 0.47818194888216242 0.97829325975680159 0 0.5 0.94117647058823528 0 0.5 0.97058823529411764 0 0.47596308696979028 0.95620709615192379 0 0.5 1 0 0.46726187138417491 1 0 0.47818194888216242 0.97829325975680159 0 0.5 0.97058823529411764 0 0.5 1 0 0.47818194888216242 0.97829325975680159 0 0.46726187138417491 1 0 0.44768478605684647 0.9646709673379662 0 0.47818194888216242 0.97829325975680159 0 0.46726187138417491 1 0 0.42231823435723009 1 0 0.44768478605684647 0.9646709673379662 0 0.44768478605684647 0.9646709673379662 0 0.42231823435723009 1 0 0.39382242252278338 0.95440420122950598 0 0.44768478605684647 0.9646709673379662 0 0.39382242252278338 0.95440420122950598 0 0.42822627495986648 0.92083108049218854 0 0.42231823435723009 1 0 0.36061858902161292 1 0 0.39382242252278338 0.95440420122950598 0 0.31771010312359771 0.58585679504088894 0 0.41980724897053312 0.55867199730355355 0 0.3872154068451229 0.6301386882447304 0 0.32540781287085369 0.49175159894608172 0 0.41980724897053312 0.55867199730355355 0 0.31771010312359771 0.58585679504088894 0 0.32540781287085369 0.49175159894608172 0 0.31771010312359771 0.58585679504088894 0 0.22453074737734591 0.51613635929252633 0 0.18442368612951149 0.62734948407416979 0 0.31771010312359771 0.58585679504088894 0 0.31346558946927339 0.67110784456164874 0 0.31346558946927339 0.67110784456164874 0 0.32984265945580837 0.74432890077789404 0 0.22727208279115291 0.72949159435386135 0 0.39746869305290999 0.7595658224757349 0 0.32984265945580837 0.74432890077789404 0 0.38513711431054509 0.69312683393047636 0 0.38513711431054509 0.69312683393047636 0 0.32984265945580837 0.74432890077789404 0 0.31346558946927339 0.67110784456164874 0 0.31771010312359771 0.58585679504088894 0 0.3872154068451229 0.6301386882447304 0 0.31346558946927339 0.67110784456164874 0 0.3872154068451229 0.6301386882447304 0 0.38513711431054509 0.69312683393047636 0 0.31346558946927339 0.67110784456164874 0 0.4390556798454946 0.66199025953586599 0 0.38513711431054509 0.69312683393047636 0 0.3872154068451229 0.6301386882447304 0 0.4390556798454946 0.66199025953586599 0 0.3872154068451229 0.6301386882447304 0 0.44702869549010399 0.61002701911053991 0 0.39746869305290999 0.7595658224757349 0 0.38513711431054509 0.69312683393047636 0 0.43412357948152142 0.72128778687215156 0 0.43412357948152142 0.72128778687215156 0 0.38513711431054509 0.69312683393047636 0 0.4390556798454946 0.66199025953586599 0 0.43412357948152142 0.72128778687215156 0 0.47636314644728822 0.72058823529411908 0 0.47220206448452873 0.74892462649306213 0 0.44651949253391748 0.77225997208621999 0 0.43412357948152142 0.72128778687215156 0 0.47220206448452873 0.74892462649306213 0 0.43412357948152142 0.72128778687215156 0 0.4390556798454946 0.66199025953586599 0 0.46330219403010409 0.69594601192744354 0 0.43412357948152142 0.72128778687215156 0 0.46330219403010409 0.69594601192744354 0 0.47636314644728822 0.72058823529411908 0 0.46330219403010409 0.69594601192744354 0 0.5 0.70588235294117663 0 0.47636314644728822 0.72058823529411908 0 0.5 0.67647058823529438 0 0.5 0.70588235294117663 0 0.46330219403010409 0.69594601192744354 0 0.5 0.70588235294117663 0 0.5 0.73529411764705888 0 0.47636314644728822 0.72058823529411908 0 0.5 0.73529411764705888 0 0.5 0.76470588235294124 0 0.47220206448452873 0.74892462649306213 0 0.47636314644728822 0.72058823529411908 0 0.5 0.73529411764705888 0 0.47220206448452873 0.74892462649306213 0 0.4390556798454946 0.66199025953586599 0 0.47271076880550111 0.63357150722538136 0 0.47501372853621993 0.66300743809067952 0 0.4390556798454946 0.66199025953586599 0 0.44702869549010399 0.61002701911053991 0 0.47271076880550111 0.63357150722538136 0 0.46330219403010409 0.69594601192744354 0 0.4390556798454946 0.66199025953586599 0 0.47501372853621993 0.66300743809067952 0 0.5 0.67647058823529438 0 0.46330219403010409 0.69594601192744354 0 0.47501372853621993 0.66300743809067952 0 0.5 0.64705882352941191 0 0.5 0.67647058823529438 0 0.47501372853621993 0.66300743809067952 0 0.47271076880550111 0.63357150722538136 0 0.5 0.64705882352941191 0 0.47501372853621993 0.66300743809067952 0 0.5 0.61764705882352966 0 0.5 0.64705882352941191 0 0.47271076880550111 0.63357150722538136 0 0.5 0.5882352941176473 0 0.5 0.61764705882352966 0 0.47784843225772261 0.60532339797118362 0 0.5 0.61764705882352966 0 0.47271076880550111 0.63357150722538136 0 0.47784843225772261 0.60532339797118362 0 0.5 0.55882352941176494 0 0.5 0.5882352941176473 0 0.46950269699300751 0.57713611057881953 0 0.46950269699300751 0.57713611057881953 0 0.5 0.5882352941176473 0 0.47784843225772261 0.60532339797118362 0 0.44702869549010399 0.61002701911053991 0 0.41980724897053312 0.55867199730355355 0 0.46950269699300751 0.57713611057881953 0 0.44702869549010399 0.61002701911053991 0 0.46950269699300751 0.57713611057881953 0 0.47784843225772261 0.60532339797118362 0 0.47271076880550111 0.63357150722538136 0 0.44702869549010399 0.61002701911053991 0 0.47784843225772261 0.60532339797118362 0 0.3872154068451229 0.6301386882447304 0 0.41980724897053312 0.55867199730355355 0 0.44702869549010399 0.61002701911053991 0 0.32540781287085369 0.49175159894608172 0 0.41576443813007791 0.48093483781626972 0 0.41980724897053312 0.55867199730355355 0 0.41576443813007791 0.48093483781626972 0 0.4638583922372429 0.51470588235294135 0 0.41980724897053312 0.55867199730355355 0 0.41980724897053312 0.55867199730355355 0 0.4638583922372429 0.51470588235294135 0 0.47063366764015668 0.5477498568705923 0 0.46950269699300751 0.57713611057881953 0 0.41980724897053312 0.55867199730355355 0 0.47063366764015668 0.5477498568705923 0 0.5 0.55882352941176494 0 0.46950269699300751 0.57713611057881953 0 0.47063366764015668 0.5477498568705923 0 0.5 0.52941176470588269 0 0.5 0.55882352941176494 0 0.47063366764015668 0.5477498568705923 0 0.4638583922372429 0.51470588235294135 0 0.5 0.52941176470588269 0 0.47063366764015668 0.5477498568705923 0 0.5 0.5 0 0.5 0.52941176470588269 0 0.4638583922372429 0.51470588235294135 0 0.52820848765230954 0.54540076010342464 0 0.5 0.52941176470588269 0 0.52629893369322589 0.51330452493555312 0 0.5 0.52941176470588269 0 0.5 0.5 0 0.52629893369322589 0.51330452493555312 0 0.5 0.52941176470588269 0 0.5 0.5 0 0.5 0.55882352941176494 0 0.5 0.52941176470588269 0 0.52820848765230954 0.54540076010342464 0 0.5 0.55882352941176494 0 0.5 0.52941176470588269 0 0.52246722155046366 0.57417151085839346 0 0.5 0.55882352941176494 0 0.52820848765230954 0.54540076010342464 0 0.56199650931215228 0.51957997397013023 0 0.55931585964581554 0.57571189932143541 0 0.52820848765230954 0.54540076010342464 0 0.54128967150166729 0.47213012589832831 0 0.56199650931215228 0.51957997397013023 0 0.52629893369322589 0.51330452493555312 0 0.56199650931215228 0.51957997397013023 0 0.52820848765230954 0.54540076010342464 0 0.52629893369322589 0.51330452493555312 0 0.61174067805461174 0.54148194547208961 0 0.56199650931215228 0.51957997397013023 0 0.60345082206666756 0.47575908627627911 0 0.61174067805461174 0.54148194547208961 0 0.55931585964581554 0.57571189932143541 0 0.56199650931215228 0.51957997397013023 0 0.61264973759093866 0.60999664295093947 0 0.55931585964581554 0.57571189932143541 0 0.61174067805461174 0.54148194547208961 0 0.61264973759093866 0.60999664295093947 0 0.55828304378107996 0.63546085023637511 0 0.55931585964581554 0.57571189932143541 0 0.55931585964581554 0.57571189932143541 0 0.55828304378107996 0.63546085023637511 0 0.52754891270107895 0.60396918438229519 0 0.55828304378107996 0.63546085023637511 0 0.52222323737415433 0.63323059203007803 0 0.52754891270107895 0.60396918438229519 0 0.55931585964581554 0.57571189932143541 0 0.52246722155046366 0.57417151085839346 0 0.52820848765230954 0.54540076010342464 0 0.55931585964581554 0.57571189932143541 0 0.52754891270107895 0.60396918438229519 0 0.52246722155046366 0.57417151085839346 0 0.52754891270107895 0.60396918438229519 0 0.5 0.5882352941176473 0 0.52246722155046366 0.57417151085839346 0 0.5 0.5882352941176473 0 0.5 0.55882352941176494 0 0.52246722155046366 0.57417151085839346 0 0.5 0.5882352941176473 0 0.5 0.55882352941176494 0 0.52222323737415433 0.63323059203007803 0 0.5 0.61764705882352966 0 0.52754891270107895 0.60396918438229519 0 0.5 0.61764705882352966 0 0.5 0.5882352941176473 0 0.5 0.61764705882352966 0 0.5 0.5882352941176473 0 0.52754891270107895 0.60396918438229519 0 0.5 0.64705882352941191 0 0.5 0.61764705882352966 0 0.52222323737415433 0.63323059203007803 0 0.5 0.64705882352941191 0 0.5 0.61764705882352966 0 0.52736180768426655 0.66304505109048573 0 0.5 0.64705882352941191 0 0.52222323737415433 0.63323059203007803 0 0.5 0.67647058823529438 0 0.5 0.64705882352941191 0 0.52736180768426655 0.66304505109048573 0 0.5 0.67647058823529438 0 0.5 0.64705882352941191 0 0.52189318962165776 0.69193883095305098 0 0.5 0.67647058823529438 0 0.52736180768426655 0.66304505109048573 0 0.55852327729743823 0.69498827241231187 0 0.52189318962165776 0.69193883095305098 0 0.52736180768426655 0.66304505109048573 0 0.55828304378107996 0.63546085023637511 0 0.55852327729743823 0.69498827241231187 0 0.52736180768426655 0.66304505109048573 0 0.55828304378107996 0.63546085023637511 0 0.52736180768426655 0.66304505109048573 0 0.52222323737415433 0.63323059203007803 0 0.5 0.73529411764705888 0 0.52547133540542634 0.72058823529411897 0 0.5211984712236245 0.75134107022269114 0 0.5 0.73529411764705888 0 0.5 0.70588235294117663 0 0.52547133540542634 0.72058823529411897 0 0.5 0.73529411764705888 0 0.5 0.70588235294117663 0 0.5 0.70588235294117663 0 0.52189318962165776 0.69193883095305098 0 0.52547133540542634 0.72058823529411897 0 0.5 0.70588235294117663 0 0.5 0.67647058823529438 0 0.52189318962165776 0.69193883095305098 0 0.5 0.70588235294117663 0 0.5 0.67647058823529438 0 0.52189318962165776 0.69193883095305098 0 0.55852327729743823 0.69498827241231187 0 0.52547133540542634 0.72058823529411897 0 0.52547133540542634 0.72058823529411897 0 0.55458114032207428 0.75544804615062711 0 0.5211984712236245 0.75134107022269114 0 0.55852327729743823 0.69498827241231187 0 0.55458114032207428 0.75544804615062711 0 0.52547133540542634 0.72058823529411897 0 0.6088970477846376 0.72715446211577472 0 0.55458114032207428 0.75544804615062711 0 0.55852327729743823 0.69498827241231187 0 0.6088970477846376 0.72715446211577472 0 0.55852327729743823 0.69498827241231187 0 0.60110770968787908 0.67045598539422102 0 0.60110770968787908 0.67045598539422102 0 0.55828304378107996 0.63546085023637511 0 0.61264973759093866 0.60999664295093947 0 0.60110770968787908 0.67045598539422102 0 0.55852327729743823 0.69498827241231187 0 0.55828304378107996 0.63546085023637511 0 0.66621429167335955 0.68470300534742679 0 0.60110770968787908 0.67045598539422102 0 0.61264973759093866 0.60999664295093947 0 0.6088970477846376 0.72715446211577472 0 0.66621429167335955 0.68470300534742679 0 0.6817340940367822 0.76923101696744944 0 0.66621429167335955 0.68470300534742679 0 0.6088970477846376 0.72715446211577472 0 0.60110770968787908 0.67045598539422102 0 0.6817340940367822 0.76923101696744944 0 0.66621429167335955 0.68470300534742679 0 0.7828103453665094 0.69876044407634474 0 0.66621429167335955 0.68470300534742679 0 0.69354174170208815 0.57892485983477626 0 0.7828103453665094 0.69876044407634474 0 0.69354174170208815 0.57892485983477626 0 0.66681557370681976 0.49435464945626773 0 0.77935529174931761 0.49004815756283893 0 0.61174067805461174 0.54148194547208961 0 0.66681557370681976 0.49435464945626773 0 0.69354174170208815 0.57892485983477626 0 0.66681557370681976 0.49435464945626773 0 0.61174067805461174 0.54148194547208961 0 0.60345082206666756 0.47575908627627911 0 0.61264973759093866 0.60999664295093947 0 0.61174067805461174 0.54148194547208961 0 0.69354174170208815 0.57892485983477626 0 0.66621429167335955 0.68470300534742679 0 0.61264973759093866 0.60999664295093947 0 0.69354174170208815 0.57892485983477626 0 0.63938141097836054 1 0 0.57768176564240026 1 0 0.60145933092659498 0.94808652648958736 0 0.60145933092659498 0.94808652648958736 0 0.55381003699196441 0.97073734537240042 0 0.55652711631508067 0.93435010280744335 0 0.57768176564240026 1 0 0.55381003699196441 0.97073734537240042 0 0.60145933092659498 0.94808652648958736 0 0.57768176564240026 1 0 0.53273812861558045 1 0 0.55381003699196441 0.97073734537240042 0 0.55381003699196441 0.97073734537240042 0 0.53273812861558045 1 0 0.52191028766292435 0.97912620202886635 0 0.53273812861558045 1 0 0.5 1 0 0.52191028766292435 0.97912620202886635 0 0.5 1 0 0.5 0.97058823529411764 0 0.52191028766292435 0.97912620202886635 0 0.5 1 0 0.5 0.97058823529411764 0 0.5 0.97058823529411764 0 0.5 0.94117647058823528 0 0.5 0.97058823529411764 0 0.5 0.94117647058823528 0 0.52554900427979434 0.95492408164812537 0 0.5 0.97058823529411764 0 0.52554900427979434 0.95492408164812537 0 0.52191028766292435 0.97912620202886635 0 0.5 0.94117647058823528 0 0.52149395742518578 0.9280464911497236 0 0.52554900427979434 0.95492408164812537 0 0.55381003699196441 0.97073734537240042 0 0.52554900427979434 0.95492408164812537 0 0.55652711631508067 0.93435010280744335 0 0.52554900427979434 0.95492408164812537 0 0.55381003699196441 0.97073734537240042 0 0.52191028766292435 0.97912620202886635 0 0.52554900427979434 0.95492408164812537 0 0.52149395742518578 0.9280464911497236 0 0.55652711631508067 0.93435010280744335 0 0.52982914238326484 0.89727189043838895 0 0.57507719038536997 0.89743529736491356 0 0.55652711631508067 0.93435010280744335 0 0.52149395742518578 0.9280464911497236 0 0.52982914238326484 0.89727189043838895 0 0.55652711631508067 0.93435010280744335 0 0.52149395742518578 0.9280464911497236 0 0.5 0.91176470588235292 0 0.52982914238326484 0.89727189043838895 0 0.5 0.94117647058823528 0 0.5 0.91176470588235292 0 0.5 0.94117647058823528 0 0.5 0.91176470588235292 0 0.52149395742518578 0.9280464911497236 0 0.5 0.91176470588235292 0 0.5 0.88235294117647056 0 0.52982914238326484 0.89727189043838895 0 0.5 0.91176470588235292 0 0.5 0.88235294117647056 0 0.52982914238326484 0.89727189043838895 0 0.5 0.88235294117647056 0 0.51991574276818808 0.86764705882352966 0 0.54799184932697576 0.8599032232094268 0 0.57507719038536997 0.89743529736491356 0 0.52982914238326484 0.89727189043838895 0 0.57507719038536997 0.89743529736491356 0 0.60145933092659498 0.94808652648958736 0 0.55652711631508067 0.93435010280744335 0 0.63427031498547037 0.88927276979110648 0 0.60145933092659498 0.94808652648958736 0 0.57507719038536997 0.89743529736491356 0 0.63427031498547037 0.88927276979110648 0 0.57507719038536997 0.89743529736491356 0 0.58994607995897996 0.84812355238296233 0 0.63427031498547037 0.88927276979110648 0 0.58994607995897996 0.84812355238296233 0 0.64153141236229239 0.83072478436463804 0 0.64153141236229239 0.83072478436463804 0 0.58994607995897996 0.84812355238296233 0 0.60049020024666178 0.78900583008989877 0 0.55206941203846505 0.81091931303809783 0 0.58994607995897996 0.84812355238296233 0 0.54799184932697576 0.8599032232094268 0 0.60049020024666178 0.78900583008989877 0 0.58994607995897996 0.84812355238296233 0 0.55206941203846505 0.81091931303809783 0 0.58994607995897996 0.84812355238296233 0 0.57507719038536997 0.89743529736491356 0 0.54799184932697576 0.8599032232094268 0 0.54799184932697576 0.8599032232094268 0 0.52982914238326484 0.89727189043838895 0 0.51991574276818808 0.86764705882352966 0 0.52395085592512047 0.83729395211968571 0 0.54799184932697576 0.8599032232094268 0 0.51991574276818808 0.86764705882352966 0 0.5 0.85294117647058831 0 0.52395085592512047 0.83729395211968571 0 0.51991574276818808 0.86764705882352966 0 0.5 0.88235294117647056 0 0.5 0.85294117647058831 0 0.5 0.88235294117647056 0 0.5 0.85294117647058831 0 0.51991574276818808 0.86764705882352966 0 0.52395085592512047 0.83729395211968571 0 0.5 0.82352941176470584 0 0.52039202967084142 0.80930587873000437 0 0.5 0.85294117647058831 0 0.5 0.82352941176470584 0 0.5 0.85294117647058831 0 0.5 0.82352941176470584 0 0.52395085592512047 0.83729395211968571 0 0.55206941203846505 0.81091931303809783 0 0.52395085592512047 0.83729395211968571 0 0.52039202967084142 0.80930587873000437 0 0.55206941203846505 0.81091931303809783 0 0.54799184932697576 0.8599032232094268 0 0.52395085592512047 0.83729395211968571 0 0.52593988039062167 0.78066906966870908 0 0.55206941203846505 0.81091931303809783 0 0.52039202967084142 0.80930587873000437 0 0.55458114032207428 0.75544804615062711 0 0.55206941203846505 0.81091931303809783 0 0.52593988039062167 0.78066906966870908 0 0.5 0.79411764705882359 0 0.52593988039062167 0.78066906966870908 0 0.52039202967084142 0.80930587873000437 0 0.5 0.82352941176470584 0 0.5 0.79411764705882359 0 0.5 0.82352941176470584 0 0.5 0.79411764705882359 0 0.52039202967084142 0.80930587873000437 0 0.5 0.76470588235294124 0 0.5 0.73529411764705888 0 0.5 0.76470588235294124 0 0.5 0.73529411764705888 0 0.5211984712236245 0.75134107022269114 0 0.5 0.79411764705882359 0 0.5 0.76470588235294124 0 0.52593988039062167 0.78066906966870908 0 0.5 0.79411764705882359 0 0.5 0.76470588235294124 0 0.52593988039062167 0.78066906966870908 0 0.5 0.76470588235294124 0 0.5211984712236245 0.75134107022269114 0 0.55458114032207428 0.75544804615062711 0 0.52593988039062167 0.78066906966870908 0 0.5211984712236245 0.75134107022269114 0 0.60049020024666178 0.78900583008989877 0 0.55458114032207428 0.75544804615062711 0 0.6088970477846376 0.72715446211577472 0 0.60049020024666178 0.78900583008989877 0 0.55206941203846505 0.81091931303809783 0 0.55458114032207428 0.75544804615062711 0 0.6817340940367822 0.76923101696744944 0 0.80987878298654392 0.8110307373443908 0 0.70916369539323409 0.86041409043207073 0 0.60049020024666178 0.78900583008989877 0 0.6088970477846376 0.72715446211577472 0 0.6817340940367822 0.76923101696744944 0 0.64153141236229239 0.83072478436463804 0 0.60049020024666178 0.78900583008989877 0 0.6817340940367822 0.76923101696744944 0 0.63427031498547037 0.88927276979110648 0 0.64153141236229239 0.83072478436463804 0 0.70916369539323409 0.86041409043207073 0 0.64153141236229239 0.83072478436463804 0 0.6817340940367822 0.76923101696744944 0 0.70916369539323409 0.86041409043207073 0 0.68173274398262862 0.93660593960145366 0 0.63427031498547037 0.88927276979110648 0 0.70916369539323409 0.86041409043207073 0 0.68173274398262862 0.93660593960145366 0 0.60145933092659498 0.94808652648958736 0 0.63427031498547037 0.88927276979110648 0 0.78222494485339233 0.91531439423588867 0 0.68173274398262862 0.93660593960145366 0 0.70916369539323409 0.86041409043207073 0 0.72408407698689681 1 0 0.68173274398262862 0.93660593960145366 0 0.78222494485339233 0.91531439423588867 0 0.68173274398262862 0.93660593960145366 0 0.63938141097836054 1 0 0.60145933092659498 0.94808652648958736 0 0.72408407698689681 1 0 0.63938141097836054 1 0 0.68173274398262862 0.93660593960145366 0 1 0.74999999999934008 0 1 1 0 0.89611933618281592 0.89173516444576184 0 0.84036581271988753 1 0 0.72408407698689681 1 0 0.78222494485339233 0.91531439423588867 0 0.84036581271988753 1 0 0.78222494485339233 0.91531439423588867 0 0.89611933618281592 0.89173516444576184 0 0.80987878298654392 0.8110307373443908 0 0.6817340940367822 0.76923101696744944 0 0.7828103453665094 0.69876044407634474 0 1 0.74999999999934008 0 0.80987878298654392 0.8110307373443908 0 0.7828103453665094 0.69876044407634474 0 0.78222494485339233 0.91531439423588867 0 0.80987878298654392 0.8110307373443908 0 0.89611933618281592 0.89173516444576184 0 0.80987878298654392 0.8110307373443908 0 0.78222494485339233 0.91531439423588867 0 0.70916369539323409 0.86041409043207073 0 0.80987878298654392 0.8110307373443908 0 1 0.74999999999934008 0 0.89611933618281592 0.89173516444576184 0 1 1 0 0.84036581271988753 1 0 0.89611933618281592 0.89173516444576184 0 1 0.49999999999869182 0 1 0.74999999999934008 0 0.84549316180028322 0.59867304496468476 0 0.84549316180028322 0.59867304496468476 0 0.69354174170208815 0.57892485983477626 0 0.77935529174931761 0.49004815756283893 0 1 0.49999999999869182 0 0.84549316180028322 0.59867304496468476 0 0.77935529174931761 0.49004815756283893 0 0.69354174170208815 0.57892485983477626 0 0.84549316180028322 0.59867304496468476 0 0.7828103453665094 0.69876044407634474 0 0.84549316180028322 0.59867304496468476 0 1 0.74999999999934008 0 0.7828103453665094 0.69876044407634474 0 0.80451351819826811 0.35479918680564199 0 1 0.49999999999869182 0 0.77935529174931761 0.49004815756283893 0 1 0.24999999999941089 0 0.80451351819826811 0.35479918680564199 0 0.79923457477009219 0.1751534052300894 0 1 0.24999999999941089 0 1 0.49999999999869182 0 0.80451351819826811 0.35479918680564199 0 0.74999999999934008 0 0 1 0 0 0.79923457477009219 0.1751534052300894 0 1 0 0 1 0.24999999999941089 0 0.79923457477009219 0.1751534052300894 0 0.49999999999869182 0 0 0.74999999999934008 0 0 0.62537763927714929 0.14286513648320209 0 0.62537763927714929 0.14286513648320209 0 0.79923457477009219 0.1751534052300894 0 0.6197279975813802 0.30020319976287241 0 0.62537763927714929 0.14286513648320209 0 0.74999999999934008 0 0 0.79923457477009219 0.1751534052300894 0 0.49999999999869182 0 0 0.62537763927714929 0.14286513648320209 0 0.49924741621175961 0.21507969613896921 0 0.62537763927714929 0.14286513648320209 0 0.6197279975813802 0.30020319976287241 0 0.49924741621175961 0.21507969613896921 0 0.6197279975813802 0.30020319976287241 0 0.49435464945626773 0.33318442629318029 0 0.49924741621175961 0.21507969613896921 0 0.54876010062294855 0.39662628167175101 0 0.49435464945626773 0.33318442629318029 0 0.6197279975813802 0.30020319976287241 0 0.66576775508844777 0.41353720431697111 0 0.54876010062294855 0.39662628167175101 0 0.6197279975813802 0.30020319976287241 0 0.49954900152271581 0.45107191084564019 0 0.45418244162583959 0.41624787166862259 0 0.54876010062294855 0.39662628167175101 0 0.54128967150166729 0.47213012589832831 0 0.49954900152271581 0.45107191084564019 0 0.54876010062294855 0.39662628167175101 0 0.54128967150166729 0.47213012589832831 0 0.5 0.5 0 0.49954900152271581 0.45107191084564019 0 0.5 0.5 0 0.54128967150166729 0.47213012589832831 0 0.52629893369322589 0.51330452493555312 0 0.60345082206666756 0.47575908627627911 0 0.54128967150166729 0.47213012589832831 0 0.54876010062294855 0.39662628167175101 0 0.60345082206666756 0.47575908627627911 0 0.56199650931215228 0.51957997397013023 0 0.54128967150166729 0.47213012589832831 0 0.66576775508844777 0.41353720431697111 0 0.60345082206666756 0.47575908627627911 0 0.54876010062294855 0.39662628167175101 0 0.66576775508844777 0.41353720431697111 0 0.80451351819826811 0.35479918680564199 0 0.77935529174931761 0.49004815756283893 0 0.66681557370681976 0.49435464945626773 0 0.60345082206666756 0.47575908627627911 0 0.66576775508844777 0.41353720431697111 0 0.66681557370681976 0.49435464945626773 0 0.66576775508844777 0.41353720431697111 0 0.77935529174931761 0.49004815756283893 0 0.79923457477009219 0.1751534052300894 0 0.80451351819826811 0.35479918680564199 0 0.6197279975813802 0.30020319976287241 0 0.80451351819826811 0.35479918680564199 0 0.66576775508844777 0.41353720431697111 0 0.6197279975813802 0.30020319976287241 0 
</DataArray>
</Points>
<Cells>
<DataArray type="UInt32" Name="connectivity" format="ascii">
0 1 2 3 4 5 6 7 8 9 10 11 12 13 14 15 16 17 18 19 20 21 22 23 24 25 26 27 28 29 30 31 32 33 34 35 36 37 38 39 40 41 42 43 44 45 46 47 48 49 50 51 52 53 54 55 56 57 58 59 60 61 62 63 64 65 66 67 68 69 70 71 72 73 74 75 76 77 78 79 80 81 82 83 84 85 86 87 88 89 90 91 92 93 94 95 96 97 98 99 100 101 102 103 104 105 106 107 108 109 110 111 112 113 114 115 116 117 118 119 120 121 122 123 124 125 126 127 128 129 130 131 132 133 134 135 136 137 138 139 140 141 142 143 144 145 146 147 148 149 150 151 152 153 154 155 156 157 158 159 160 161 162 163 164 165 166 167 168 169 170 171 172 173 174 175 176 177 178 179 180 181 182 183 184 185 186 187 188 189 190 191 192 193 194 195 196 197 198 199 200 201 202 203 204 205 206 207 208 209 210 211 212 213 214 215 216 217 218 219 220 221 222 223 224 225 226 227 228 229 230 231 232 233 234 235 236 237 238 239 240 241 242 243 244 245 246 247 248 249 250 251 252 253 254 255 256 257 258 259 260 261 262 263 264 265 266 267 268 269 270 271 272 273 274 275 276 277 278 279 280 281 282 283 284 285 286 287 288 289 290 291 292 293 294 295 296 297 298 299 300 301 302 303 304 305 306 307 308 309 310 311 312 313 314 315 316 317 318 319 320 321 322 323 324 325 326 327 328 329 330 331 332 333 334 335 336 337 338 339 340 341 342 343 344 345 346 347 348 349 350 351 352 353 354 355 356 357 358 359 360 361 362 363 364 365 366 367 368 369 370 371 372 373 374 375 376 377 378 379 380 381 382 383 384 385 386 387 388 389 390 391 392 393 394 395 396 397 398 399 400 401 402 403 404 405 406 407 408 409 410 411 412 413 414 415 416 417 418 419 420 421 422 423 424 425 426 427 428 429 430 431 432 433 434 435 436 437 438 439 440 441 442 443 444 445 446 447 448 449 450 451 452 453 454 455 456 457 458 459 460 461 462 463 464 465 466 467 468 469 470 471 472 473 474 475 476 477 478 479 480 481 482 483 484 485 486 487 488 489 490 491 492 493 494 495 496 497 498 499 500 501 502 503 504 505 506 507 508 509 510 511 512 513 514 515 516 517 518 519 520 521 522 523 524 525 526 527 528 529 530 531 532 533 534 535 536 537 538 539 540 541 542 543 544 545 546 547 548 549 550 551 552 553 554 555 556 557 558 559 560 561 562 563 564 565 566 567 568 569 570 571 572 573 574 575 576 577 578 579 580 581 582 583 584 585 586 587 588 589 590 591 592 593 594 595 596 597 598 599 600 601 602 603 604 605 606 607 608 609 610 611 612 613 614 615 616 617 618 619 620 621 622 623 624 625 626 627 628 629 630 631 632 633 634 635 636 637 638 639 640 641 642 643 644 645 646 647 648 649 650 651 652 653 654 655 656 657 658 659 660 661 662 663 664 665 666 667 668 669 670 671 672 673 674 675 676 677 678 679 680 681 682 683 684 685 686 687 688 689 690 691 692 693 694 695 696 697 698 699 700 701 702 703 704 705 706 707 708 709 710 711 712 713 714 715 716 717 718 719 720 721 722 723 724 725 726 727 728 729 730 731 732 733 734 735 736 737 738 739 740 741 742 743 744 745 746 747 748 749 750 751 752 753 754 755 756 757 758 759 760 761 762 763 764 765 766 767 768 769 770 771 772 773 774 775 776 777 778 779 780 781 782 783 784 785 786 787 788 789 790 791 792 793 794 795 796 797 798 799 800 801 802 803 804 805 806 807 808 809 810 811 812 813 814 815 816 817 818 819 820 821 822 823 824 825 826 827 828 829 830 831 832 833 834 835 836 837 838 839 840 841 842 843 844 845 846 847 848 849 850 851 852 853 854 855 856 857 858 859 860 861 862 863 864 865 866 867 868 869 870 871 872 873 874 875 876 877 878 879 
</DataArray>
<DataArray type="UInt32" Name="offsets" format="ascii">
3 6 9 12 15 18 21 24 27 30 33 36 39 42 45 48 51 54 57 60 63 66 69 72 75 78 81 84 87 90 93 96 99 102 105 108 111 114 117 120 123 126 129 132 135 138 141 144 147 150 153 156 159 162 165 168 171 174 177 180 183 186 189 192 195 198 201 204 207 210 213 216 219 222 225 228 231 234 237 240 243 246 249 252 255 258 261 264 267 270 273 276 279 282 285 288 291 294 297 300 303 306 309 312 315 318 321 324 327 330 333 336 339 342 345 348 351 354 357 360 363 366 369 372 375 378 381 384 387 390 393 396 399 402 405 408 411 414 417 420 423 425 428 430 433 436 439 442 445 448 451 454 457 460 463 466 469 472 474 477 479 482 485 487 490 493 495 498 501 504 507 510 513 515 518 521 523 526 529 532 535 538 541 544 547 550 553 556 559 562 565 568 571 574 577 580 583 586 589 592 595 597 599 602 605 608 611 614 617 620 623 626 628 631 634 636 639 642 645 648 651 654 657 660 663 666 669 672 675 677 680 683 685 688 691 694 697 700 703 705 708 710 713 716 718 721 724 727 730 733 736 739 742 745 748 751 754 757 760 763 766 769 772 775 778 781 784 787 790 793 796 799 802 805 808 811 814 817 820 823 826 829 832 835 838 841 844 847 850 853 856 859 862 865 868 871 874 877 880 
</DataArray>
<DataArray type="UInt32" Name="types" format="ascii">
5 5 5 5 5 5 5 5 5 5 5 5 5 5 5 5 5 5 5 5 5 5 5 5 5 5 5 5 5 5 5 5 5 5 5 5 5 5 5 5 5 5 5 5 5 5 5 5 5 5 5 5 5 5 5 5 5 5 5 5 5 5 5 5 5 5 5 5 5 5 5 5 5 5 5 5 5 5 5 5 5 5 5 5 5 5 5 5 5 5 5 5 5 5 5 5 5 5 5 5 5 5 5 5 5 5 5 5 5 5 5 5 5 5 5 5 5 5 5 5 5 5 5 5 5 5 5 5 5 5 5 5 5 5 5 5 5 5 5 5 5 3 5 3 5 5 5 5 5 5 5 5 5 5 5 5 5 5 3 5 3 5 5 3 5 5 3 5 5 5 5 5 5 3 5 5 3 5 5 5 5 5 5 5 5 5 5 5 5 5 5 5 5 5 5 5 5 5 5 5 5 3 3 5 5 5 5 5 5 5 5 5 3 5 5 3 5 5 5 5 5 5 5 5 5 5 5 5 5 3 5 5 3 5 5 5 5 5 5 3 5 3 5 5 3 5 5 5 5 5 5 5 5 5 5 5 5 5 5 5 5 5 5 5 5 5 5 5 5 5 5 5 5 5 5 5 5 5 5 5 5 5 5 5 5 5 5 5 5 5 5 5 5 5 5 5 5 5 5 
</DataArray>
</Cells>
<PointData Scalars="" Vectors="displacement," Tensors="">
<DataArray type="Float64" Name="displacement" NumberOfComponents="3" format="ascii">
2.3050430733986254e-06 -9.8191866343740493e-06 0 -2.6334260925339097e-05 -9.573644983712909e-06 0 -0.0021368901505307166 -0.021501638279789299 0 -2.6334260925339097e-05 -9.573644983712909e-06 0 -0.0080921469998916726 -0.028374548933957171 0 -0.0021368901505307166 -0.021501638279789299 0 -0.0080921469998916726 -0.028374548933957171 0 -9.3132520860328638e-05 -0.041326952740158594 0 -0.0025453250357043771 -0.03815034975762692 0 -0.0080921469998916726 -0.028374548933957171 0 -0.0025453250357043771 -0.03815034975762692 0 -0.0021368901505307166 -0.021501638279789299 0 -0.0025453250357043771 -0.03815034975762692 0 -9.3132520860328638e-05 -0.041326952740158594 0 0.00034465430354988608 -0.044472318627135479 0 -0.002716247567355811 -0.046147717660551459 0 -0.0025453250357043776 -0.03815034975762692 0 0.00034465430354988608 -0.044472318627135479 0 -0.0023568704807998379 -0.056468897579862086 0 -0.0032113516502307654 -0.056238682147839066 0 -0.0035190806472683374 -0.047445670124859778 0 -0.002716247567355811 -0.046147717660551459 0 -0.0023568704807998379 -0.056468897579862086 0 -0.0035190806472683374 -0.047445670124859778 0 -0.0023568704807998379 -0.056468897579862086 0 -0.0025441541225925102 -0.063718332970369967 0 -0.0032113516502307654 -0.056238682147839066 0 -0.0025441541225925102 -0.063718332970369967 0 -0.0013107354555507479 -0.066857284238198894 0 -0.0032113516502307654 -0.056238682147839066 0 0.00013142087326061403 -0.062699608717496177 0 -9.7029942557264276e-05 -0.076290920731672526 0 -0.0025441541225925102 -0.063718332970369967 0 -0.0025441541225925102 -0.063718332970369967 0 -9.7029942557264723e-05 -0.076290920731672526 0 -0.0013107354555507479 -0.066857284238198894 0 0.00013142087326061403 -0.062699608717496177 0 -0.0025441541225925102 -0.063718332970369967 0 -0.0023568704807998379 -0.056468897579862086 0 -0.0023568704807998379 -0.056468897579862086 0 -0.0001491700358893646 -0.050275073037604569 0 0.0022932569762759776 -0.053998985055893553 0 -0.0001491700358893646 -0.050275073037604569 0 -0.0023568704807998379 -0.056468897579862086 0 -0.002716247567355811 -0.046147717660551459 0 -0.0001491700358893646 -0.050275073037604569 0 -0.002716247567355811 -0.046147717660551459 0 0.00034465430354988608 -0.044472318627135479 0 -0.0025453250357043771 -0.03815034975762692 0 -0.002716247567355811 -0.046147717660551459 0 -0.0032335835316477132 -0.035619766790562168 0 -0.002716247567355811 -0.046147717660551459 0 -0.0035190806472683374 -0.047445670124859785 0 -0.0032335835316477132 -0.035619766790562168 0 -0.0021368901505307166 -0.021501638279789299 0 -0.0025453250357043771 -0.03815034975762692 0 -0.0032335835316477132 -0.035619766790562168 0 -0.0036909527178011804 -0.043467883125566036 0 -0.0026873370244605015 -0.022546125970604011 0 -0.0032335835316477132 -0.035619766790562168 0 -0.0035190806472683374 -0.047445670124859778 0 -0.0036909527178011804 -0.043467883125566036 0 -0.0032335835316477132 -0.035619766790562168 0 -0.0032113516502307654 -0.056238682147839066 0 -0.0036909527178011804 -0.043467883125566036 0 -0.0035190806472683374 -0.047445670124859778 0 -5.4329359911404295e-06 -1.1698186233537169e-05 0 2.3050430733986254e-06 -9.8191866343740493e-06 0 -0.0026873370244605015 -0.022546125970604011 0 -5.4329359911404295e-06 -1.1698186233537169e-05 0 -0.0026873370244605015 -0.022546125970604011 0 -0.0028745880669313038 -0.030075932500239971 0 -0.0026873370244605015 -0.022546125970604011 0 -0.0036909527178011804 -0.043467883125566036 0 -0.0028745880669313038 -0.030075932500239971 0 -0.0026873370244605015 -0.022546125970604011 0 -0.0021368901505307166 -0.021501638279789299 0 -0.0032335835316477132 -0.035619766790562168 0 -0.0026873370244605015 -0.022546125970604011 0 2.3050430733986254e-06 -9.8191866343740493e-06 0 -0.0021368901505307166 -0.021501638279789299 0 -4.9268104140312732e-06 -7.4827457766615204e-06 0 -5.4329359911404295e-06 -1.1698186233537169e-05 0 -0.0021006739234648631 -0.025548283945965099 0 -4.9268104140312732e-06 -7.4827457766615204e-06 0 -0.0021006739234648631 -0.025548283945965099 0 -0.0013715868810169314 -0.032843065546314804 0 -0.0021006739234648631 -0.025548283945965099 0 -0.0022667474308026964 -0.047099621899735836 0 -0.0013715868810169314 -0.032843065546314804 0 -0.0026837091874572904 -0.045562951405937531 0 -0.0021006739234648631 -0.025548283945965099 0 -0.0028745880669313038 -0.030075932500239971 0 -0.0021006739234648631 -0.025548283945965099 0 -5.4329359911404803e-06 -1.1698186233537471e-05 0 -0.0028745880669313038 -0.030075932500239971 0 3.0658639803860476e-05 -1.1593101617268113e-05 0 -4.9268104140312732e-06 -7.4827457766615204e-06 0 0.0028631829526223752 -0.011585027869822399 0 0.015056336416692269 -0.022935505502694645 0 3.0658639803860476e-05 -1.1593101617268113e-05 0 0.0028631829526223752 -0.011585027869822399 0 -4.9268104140312732e-06 -7.4827457766615204e-06 0 0.00067197714347332202 -0.022859726218072769 0 0.0028631829526223752 -0.011585027869822399 0 0.0083692730519498767 -0.03637334350621118 0 0.00067197714347332202 -0.022859726218072769 0 8.8525621662590028e-05 -0.041993193408015293 0 0.00067197714347332202 -0.022859726218072769 0 -4.9268104140312732e-06 -7.4827457766615204e-06 0 -0.0013715868810169314 -0.032843065546314804 0 0.00067197714347332202 -0.022859726218072769 0 -0.0013715868810169314 -0.032843065546314804 0 8.8525621662590028e-05 -0.041993193408015293 0 0.00067197714347332202 -0.022859726218072769 0 0.0083692730519498767 -0.03637334350621118 0 0.0028631829526223752 -0.011585027869822399 0 0.0083692730519498767 -0.03637334350621118 0 0.015056336416692269 -0.022935505502694645 0 0.0028631829526223752 -0.011585027869822399 0 0.019104144452161874 -0.043689431810818059 0 0.015056336416692269 -0.022935505502694645 0 0.0083692730519498767 -0.03637334350621118 0 0.018167786715653066 -0.060654829429134714 0 0.019104144452161874 -0.043689431810818059 0 0.0095101657729971291 -0.05422535287529124 0 0.018167786715653066 -0.060654829429134714 0 0.0095101657729971291 -0.05422535287529124 0 0.0083615492149038718 -0.068953427480515528 0 0.0095101657729971291 -0.05422535287529124 0 0.019104144452161874 -0.043689431810818059 0 0.0083692730519498767 -0.03637334350621118 0 0.0041248794224796586 -0.05206188748282696 0 0.0095101657729971291 -0.05422535287529124 0 0.0083692730519498767 -0.03637334350621118 0 0.0083615492149038718 -0.068953427480515528 0 0.0095101657729971291 -0.05422535287529124 0 0.0037557036527389198 -0.065216422987519368 0 0.0037557036527389198 -0.065216422987519368 0 0.0095101657729971291 -0.05422535287529124 0 0.0041248794224796586 -0.05206188748282696 0 0.0041248794224796586 -0.05206188748282696 0 0.0083692730519498767 -0.03637334350621118 0 8.8525621662590028e-05 -0.041993193408015293 0 0.0037557036527389198 -0.065216422987519368 0 0.0041248794224796586 -0.05206188748282696 0 0.00027157505293664343 -0.061191744279226759 0 0.00027157505293664343 -0.061191744279226759 0 0.0041248794224796586 -0.05206188748282696 0 8.8525621662590028e-05 -0.041993193408015293 0 -0.0013715868810169314 -0.032843065546314804 0 -0.0012993608924058379 -0.052105472357217866 0 8.8525621662590028e-05 -0.041993193408015293 0 -0.0012993608924058379 -0.052105472357217866 0 0.00027157505293664354 -0.061191744279226752 0 8.8525621662590028e-05 -0.041993193408015293 0 0.00027157505293664343 -0.061191744279226759 0 -0.0012993608924058379 -0.052105472357217873 0 -0.00094544807422311799 -0.065855282607738999 0 -0.00026804509071896631 -0.074170213612908889 0 0.00027157505293664343 -0.061191744279226759 0 -0.00094544807422311799 -0.065855282607738999 0 -0.00055313216856449625 -0.075892039740659931 0 -0.00026804509071896631 -0.074170213612908889 0 -0.00094544807422311799 -0.065855282607738999 0 -0.00055313216856449625 -0.075892039740659931 0 -0.00094544807422311799 -0.065855282607738999 0 -0.00090188954007420564 -0.071351621019049974 0 -0.00055313216856449625 -0.075892039740659931 0 -0.00042393235168020158 -0.079544022175008638 0 -0.00030585606759638597 -0.081897383244471364 0 -0.00042393235168020158 -0.079544022175008638 0 -0.00013915420893672098 -0.085107042945417086 0 -0.00030585606759638597 -0.081897383244471364 0 -0.00013915420893672093 -0.085107042945417086 0 -0.00013069901044458391 -0.086597293887101523 0 -0.00030585606759638597 -0.081897383244471364 0 -0.00013069901044458391 -0.086597293887101523 0 -0.00012329340111502047 -0.088189193841246336 0 -0.00024090937569089949 -0.082045980510275118 0 -0.00013069901044458391 -0.086597293887101523 0 -0.00024090937569089949 -0.082045980510275118 0 -0.00030585606759638597 -0.081897383244471364 0 -0.00024090937569089949 -0.082045980510275118 0 -0.00055313216856449625 -0.075892039740659931 0 -0.00030585606759638597 -0.081897383244471364 0 -0.00024090937569089949 -0.082045980510275118 0 -0.00026804509071896631 -0.074170213612908889 0 -0.00055313216856449625 -0.075892039740659931 0 -6.3705924090674249e-05 -0.082009360457742195 0 -0.00026804509071896626 -0.074170213612908889 0 -0.00024090937569089949 -0.082045980510275118 0 0.00076662139792223443 -0.076333067370888186 0 -0.00026804509071896631 -0.074170213612908889 0 -6.3705924090674249e-05 -0.082009360457742195 0 -0.00012329340111502047 -0.088189193841246336 0 -0.00011599693827320466 -0.089882292839633005 0 -6.3705924090674249e-05 -0.082009360457742195 0 -0.00012329340111502047 -0.088189193841246336 0 -6.3705924090674208e-05 -0.082009360457742195 0 -0.00024090937569089949 -0.082045980510275118 0 -6.3705924090674249e-05 -0.082009360457742195 0 -0.00011599693827320466 -0.089882292839633005 0 0.00018996386710820604 -0.085118411438901059 0 -0.00011599693827320466 -0.089882292839633005 0 -0.00011960123684174485 -0.09168533349730032 0 0.00018996386710820604 -0.085118411438901059 0 0.00076662139792223443 -0.076333067370888186 0 -6.3705924090674262e-05 -0.082009360457742181 0 0.00018996386710820604 -0.085118411438901059 0 0.00076662139792223443 -0.076333067370888186 0 0.0037557036527389198 -0.065216422987519368 0 0.00027157505293664343 -0.061191744279226759 0 0.00076662139792223443 -0.076333067370888186 0 0.00027157505293664343 -0.061191744279226759 0 -0.00026804509071896631 -0.074170213612908889 0 0.0083615492149038718 -0.068953427480515528 0 0.0037557036527389198 -0.065216422987519368 0 0.0030758231515653866 -0.07757422121638255 0 0.0030758231515653866 -0.07757422121638255 0 0.0037557036527389198 -0.065216422987519368 0 0.00076662139792223443 -0.076333067370888186 0 0.00073948454398589886 -0.084656379690105157 0 0.00076662139792223443 -0.076333067370888186 0 0.00018996386710820604 -0.085118411438901059 0 0.0030758231515653866 -0.07757422121638255 0 0.00076662139792223443 -0.076333067370888186 0 0.00073948454398589886 -0.084656379690105157 0 -0.00011960123684174487 -0.09168533349730032 0 0.00073948454398589875 -0.084656379690105144 0 0.00018996386710820604 -0.085118411438901059 0 -0.00011960123684174487 -0.09168533349730032 0 -0.00013141184317706301 -0.093585555451047089 0 0.00073948454398589886 -0.084656379690105157 0 0.00073948454398589886 -0.084656379690105157 0 -0.00013141184317706325 -0.093585555451047089 0 0.001063296872747184 -0.088038898875152385 0 -0.00013141184317706301 -0.093585555451047089 0 -0.00012962001752080156 -0.095596605021640954 0 0.001063296872747184 -0.088038898875152385 0 0.0030758231515653866 -0.07757422121638255 0 0.00073948454398589886 -0.084656379690105157 0 0.001063296872747184 -0.088038898875152385 0 0.0051844945457801446 -0.082792475161370019 0 0.001063296872747184 -0.088038898875152385 0 0.0019042408693424582 -0.090737412190424485 0 0.0051844945457801446 -0.082792475161370019 0 0.0030758231515653866 -0.07757422121638255 0 0.001063296872747184 -0.088038898875152385 0 0.0051844945457801446 -0.082792475161370019 0 0.0019042408693424584 -0.090737412190424499 0 0.0028465555005723338 -0.092028508067772741 0 0.001063296872747184 -0.088038898875152385 0 -0.00012962001752080156 -0.095596605021640954 0 0.0019042408693424582 -0.090737412190424485 0 0.0019042408693424582 -0.090737412190424485 0 -0.00012386802705528047 -0.097737544309608224 0 0.0028465555005723338 -0.092028508067772741 0 -0.00012962001752080156 -0.095596605021640954 0 -0.00012386802705528047 -0.097737544309608224 0 0.0019042408693424582 -0.090737412190424485 0 -7.4058734418204394e-05 -0.099904785827530582 0 0.0091005451708818675 -0.086995668403986523 0 0.0028465555005723338 -0.092028508067772741 0 -0.00012386802705528047 -0.097737544309608224 0 -7.4058734418204394e-05 -0.099904785827530582 0 0.0028465555005723338 -0.092028508067772741 0 0.0091005451708818675 -0.086995668403986523 0 0.0051844945457801446 -0.082792475161370019 0 0.0028465555005723338 -0.092028508067772741 0 0.0091005451708818675 -0.086995668403986523 0 0.014599898007783448 -0.074953922593951353 0 0.0051844945457801446 -0.082792475161370019 0 0.0051844945457801446 -0.082792475161370019 0 0.014599898007783448 -0.074953922593951339 0 0.0083615492149038718 -0.068953427480515528 0 0.0051844945457801446 -0.082792475161370019 0 0.0083615492149038718 -0.068953427480515528 0 0.0030758231515653866 -0.07757422121638255 0 0.014599898007783448 -0.074953922593951353 0 0.018167786715653066 -0.060654829429134714 0 0.0083615492149038718 -0.068953427480515528 0 -0.0026837091874572904 -0.045562951405937531 0 -0.0018112062731520952 -0.061235130807476702 0 -0.0018816959288379335 -0.058889016364643228 0 -0.0036909527178011804 -0.043467883125566036 0 -0.0018112062731520952 -0.061235130807476702 0 -0.0026837091874572904 -0.045562951405937531 0 -0.0036909527178011804 -0.043467883125566036 0 -0.0026837091874572904 -0.045562951405937531 0 -0.0028745880669313038 -0.030075932500239971 0 -0.0021006739234648631 -0.025548283945965099 0 -0.0026837091874572904 -0.045562951405937531 0 -0.0022667474308026964 -0.047099621899735836 0 -0.0022667474308026964 -0.047099621899735836 0 -0.0012993608924058379 -0.052105472357217866 0 -0.0013715868810169314 -0.032843065546314804 0 -0.00094544807422311799 -0.065855282607738999 0 -0.0012993608924058379 -0.052105472357217866 0 -0.0015430966966113902 -0.06101103958942166 0 -0.0015430966966113902 -0.06101103958942166 0 -0.0012993608924058379 -0.052105472357217866 0 -0.0022667474308026964 -0.047099621899735836 0 -0.0026837091874572904 -0.045562951405937531 0 -0.0018816959288379335 -0.058889016364643228 0 -0.0022667474308026964 -0.047099621899735836 0 -0.0018816959288379335 -0.058889016364643228 0 -0.0015430966966113902 -0.06101103958942166 0 -0.0022667474308026964 -0.047099621899735836 0 -0.00097674367045443239 -0.069759368991183374 0 -0.00154309669661139 -0.06101103958942166 0 -0.0018816959288379335 -0.058889016364643228 0 -0.00097674367045443239 -0.069759368991183374 0 -0.0018816959288379335 -0.058889016364643228 0 -0.00086233500439334559 -0.068928586820689156 0 -0.00094544807422311799 -0.065855282607738999 0 -0.0015430966966113902 -0.06101103958942166 0 -0.00090188954007420564 -0.071351621019049974 0 -0.00090188954007420564 -0.071351621019049974 0 -0.0015430966966113902 -0.06101103958942166 0 -0.00097674367045443239 -0.069759368991183374 0 -0.00090188954007420564 -0.071351621019049974 0 -0.00042387185405128947 -0.078991810078354902 0 -0.00042393235168020158 -0.079544022175008638 0 -0.00055313216856449625 -0.075892039740659931 0 -0.00090188954007420564 -0.071351621019049974 0 -0.00042393235168020158 -0.079544022175008638 0 -0.00090188954007420564 -0.071351621019049974 0 -0.00097674367045443239 -0.069759368991183374 0 -0.00059896798508010543 -0.075601746401011916 0 -0.00090188954007420564 -0.071351621019049974 0 -0.00059896798508010543 -0.075601746401011916 0 -0.00042387185405128952 -0.078991810078354888 0 -0.00059896798508010543 -0.075601746401011916 0 -0.0001548176808372389 -0.082433396266939782 0 -0.00042387185405128952 -0.078991810078354888 0 -0.00015744545285039925 -0.081248473821189784 0 -0.0001548176808372389 -0.082433396266939782 0 -0.00059896798508010543 -0.075601746401011916 0 -0.0001548176808372389 -0.082433396266939782 0 -0.00014922969430431339 -0.083718903500008254 0 -0.00042387185405128952 -0.078991810078354888 0 -0.00014922969430431339 -0.083718903500008254 0 -0.00013915420893672093 -0.085107042945417086 0 -0.00042393235168020158 -0.079544022175008638 0 -0.00042387185405128952 -0.078991810078354888 0 -0.00014922969430431339 -0.083718903500008254 0 -0.00042393235168020158 -0.079544022175008638 0 -0.00097674367045443239 -0.069759368991183374 0 -0.00045522871558097117 -0.074711375744828196 0 -0.00045918443465040265 -0.076315740595508011 0 -0.00097674367045443239 -0.069759368991183374 0 -0.00086233500439334559 -0.068928586820689156 0 -0.00045522871558097128 -0.074711375744828196 0 -0.00059896798508010543 -0.075601746401011916 0 -0.00097674367045443261 -0.069759368991183374 0 -0.00045918443465040265 -0.076315740595508011 0 -0.00015744545285039925 -0.081248473821189784 0 -0.00059896798508010543 -0.075601746401011916 0 -0.00045918443465040265 -0.076315740595508011 0 -0.00015452735319264026 -0.080169535630448527 0 -0.00015744545285039925 -0.081248473821189784 0 -0.00045918443465040265 -0.076315740595508011 0 -0.00045522871558097128 -0.074711375744828196 0 -0.00015452735319264026 -0.080169535630448527 0 -0.00045918443465040265 -0.076315740595508011 0 -0.0001494077003964196 -0.07919276970265203 0 -0.00015452735319264026 -0.080169535630448527 0 -0.00045522871558097128 -0.074711375744828196 0 -0.00014847616672485677 -0.078339366240858271 0 -0.0001494077003964196 -0.07919276970265203 0 -0.00038407405014212991 -0.074554897520606719 0 -0.0001494077003964196 -0.07919276970265203 0 -0.00045522871558097128 -0.074711375744828196 0 -0.00038407405014212991 -0.074554897520606719 0 -0.00013391572999368548 -0.077570133831401322 0 -0.00014847616672485677 -0.078339366240858271 0 -0.00056681329348270005 -0.071735904267862388 0 -0.00056681329348270005 -0.071735904267862388 0 -0.00014847616672485669 -0.078339366240858271 0 -0.00038407405014212991 -0.074554897520606719 0 -0.00086233500439334559 -0.068928586820689156 0 -0.0018112062731520952 -0.061235130807476702 0 -0.00056681329348270005 -0.071735904267862388 0 -0.00086233500439334559 -0.068928586820689156 0 -0.00056681329348269994 -0.071735904267862388 0 -0.00038407405014212991 -0.074554897520606719 0 -0.00045522871558097128 -0.074711375744828196 0 -0.00086233500439334559 -0.068928586820689156 0 -0.00038407405014212991 -0.074554897520606719 0 -0.0018816959288379335 -0.058889016364643228 0 -0.0018112062731520952 -0.061235130807476702 0 -0.00086233500439334559 -0.068928586820689156 0 -0.0036909527178011804 -0.043467883125566036 0 -0.0032113516502307654 -0.056238682147839059 0 -0.0018112062731520952 -0.061235130807476702 0 -0.0032113516502307654 -0.056238682147839066 0 -0.0013107354555507479 -0.066857284238198894 0 -0.0018112062731520952 -0.061235130807476702 0 -0.0018112062731520952 -0.061235130807476702 0 -0.0013107354555507479 -0.066857284238198894 0 -0.00055731226031262347 -0.070500156754808252 0 -0.00056681329348270005 -0.071735904267862388 0 -0.0018112062731520952 -0.061235130807476702 0 -0.00055731226031262347 -0.070500156754808252 0 -0.00013391572999368548 -0.077570133831401322 0 -0.00056681329348270005 -0.071735904267862388 0 -0.00055731226031262347 -0.070500156754808252 0 -0.00015662804532207576 -0.077025877122283384 0 -0.00013391572999368548 -0.077570133831401322 0 -0.00055731226031262347 -0.070500156754808252 0 -0.0013107354555507479 -0.066857284238198894 0 -0.00015662804532207576 -0.077025877122283384 0 -0.00055731226031262347 -0.070500156754808252 0 -9.7029942557264723e-05 -0.076290920731672526 0 -0.00015662804532207576 -0.077025877122283384 0 -0.0013107354555507479 -0.066857284238198894 0 0.00039426208026159608 -0.070858728961283313 0 -6.3781184048623433e-05 -0.077019415560497198 0 0.000462317738779231 -0.069422027329807026 0 -6.3781184048623433e-05 -0.077019415560497198 0 -9.7029942557264723e-05 -0.076290920731672526 0 0.000462317738779231 -0.069422027329807026 0 -0.00010966074417098162 -0.076988047412229074 0 -9.7457832329601846e-05 -0.076525245605971653 0 -6.9402382318001961e-05 -0.077576468706973933 0 -6.3781184048623433e-05 -0.077019415560497198 0 0.00039426208026159608 -0.070858728961283313 0 -0.00010221233932709885 -0.077609560413772219 0 -0.00010966074417098162 -0.076988047412229074 0 0.00023103043562726136 -0.073324898954498563 0 -6.9402382318001961e-05 -0.077576468706973933 0 0.00039426208026159608 -0.070858728961283313 0 0.0018150732465837106 -0.0620715272370587 0 0.00095474482587707831 -0.066025441306305319 0 0.00039426208026159608 -0.070858728961283313 0 0.0027613243971714228 -0.061553299791192499 0 0.0018150732465837106 -0.0620715272370587 0 0.000462317738779231 -0.069422027329807026 0 0.0018150732465837106 -0.0620715272370587 0 0.00039426208026159608 -0.070858728961283313 0 0.000462317738779231 -0.069422027329807026 0 0.0024793707089181744 -0.05485404060711066 0 0.0018150732465837106 -0.0620715272370587 0 0.0036218631314631176 -0.052653742158826067 0 0.0024793707089181744 -0.05485404060711066 0 0.00095474482587707831 -0.066025441306305319 0 0.0018150732465837106 -0.0620715272370587 0 0.0018105422742696877 -0.057955860857592779 0 0.00095474482587707831 -0.066025441306305319 0 0.0024793707089181744 -0.05485404060711066 0 0.0018105422742696877 -0.057955860857592779 0 0.00071772913026518878 -0.069082844289027043 0 0.00095474482587707831 -0.066025441306305319 0 0.00095474482587707831 -0.066025441306305319 0 0.00071772913026518878 -0.069082844289027043 0 0.00025030979586777608 -0.073529045347171626 0 0.00071772913026518878 -0.069082844289027043 0 0.00020981324014968553 -0.075659206626649766 0 0.00025030979586777608 -0.073529045347171626 0 0.00095474482587707831 -0.066025441306305319 0 0.00023103043562726136 -0.073324898954498563 0 0.00039426208026159608 -0.070858728961283313 0 0.00095474482587707831 -0.066025441306305319 0 0.00025030979586777608 -0.073529045347171626 0 0.00023103043562726136 -0.073324898954498563 0 0.00025030979586777608 -0.073529045347171626 0 -5.2689843208801695e-05 -0.078337016307786778 0 0.00023103043562726136 -0.073324898954498563 0 -5.2689843208801695e-05 -0.078337016307786778 0 -6.9402382318001961e-05 -0.077576468706973933 0 0.00023103043562726136 -0.073324898954498563 0 -0.00010024636151407795 -0.078350970920214161 0 -0.00010221233932709885 -0.077609560413772219 0 0.00020981324014968553 -0.075659206626649766 0 -4.7443365893020451e-05 -0.079195257814860795 0 0.00025030979586777608 -0.073529045347171626 0 -9.86020513583181e-05 -0.079212937854840737 0 -0.00010024636151407795 -0.078350970920214161 0 -4.7443365893020458e-05 -0.079195257814860795 0 -5.2689843208801695e-05 -0.078337016307786778 0 0.00025030979586777608 -0.073529045347171626 0 -3.7826877058754941e-05 -0.080169665660697123 0 -4.7443365893020458e-05 -0.079195257814860795 0 0.00020981324014968553 -0.075659206626649766 0 -9.6134083722990669e-05 -0.080185533675964565 0 -9.86020513583181e-05 -0.079212937854840737 0 0.00026394455432302884 -0.075915420868840025 0 -3.7826877058754941e-05 -0.080169665660697123 0 0.00020981324014968553 -0.075659206626649766 0 -2.9610065181835264e-05 -0.081250820988250178 0 -3.7826877058754941e-05 -0.080169665660697123 0 0.00026394455432302884 -0.075915420868840025 0 -9.3477619940695214e-05 -0.081265925856376459 0 -9.6134083722990669e-05 -0.080185533675964565 0 0.00021415761860286373 -0.078073225803427362 0 -2.9610065181835264e-05 -0.081250820988250178 0 0.00026394455432302884 -0.075915420868840025 0 0.00063022980185149086 -0.071587987994556887 0 0.00021415761860286373 -0.078073225803427362 0 0.00026394455432302884 -0.075915420868840025 0 0.00071772913026518878 -0.069082844289027043 0 0.00063022980185149075 -0.071587987994556873 0 0.00026394455432302884 -0.075915420868840025 0 0.00071772913026518878 -0.069082844289027043 0 0.00026394455432302884 -0.075915420868840025 0 0.00020981324014968553 -0.075659206626649766 0 1.4196611399685329e-06 -0.083723561478886849 0 0.00026087567845605738 -0.07868145941789538 0 0.00021869453456068434 -0.08083413951812593 0 1.4196611399685329e-06 -0.083723561478886849 0 -1.5346229549325784e-05 -0.082436191692593766 0 0.00026087567845605738 -0.07868145941789538 0 -7.3861830156696589e-05 -0.083737017564110547 0 -8.5119704043298036e-05 -0.082450420727984516 0 -1.5346229549325784e-05 -0.082436191692593766 0 0.00021415761860286376 -0.078073225803427362 0 0.00026087567845605738 -0.07868145941789538 0 -1.5346229549325784e-05 -0.082436191692593766 0 -2.9610065181835237e-05 -0.081250820988250178 0 0.00021415761860286373 -0.078073225803427362 0 -8.5119704043298036e-05 -0.082450420727984516 0 -9.3477619940695214e-05 -0.081265925856376459 0 0.00021415761860286373 -0.078073225803427362 0 0.00063022980185149086 -0.071587987994556887 0 0.00026087567845605738 -0.07868145941789538 0 0.00026087567845605738 -0.07868145941789538 0 0.00053655933719887888 -0.074977632156254692 0 0.00021869453456068434 -0.08083413951812593 0 0.00063022980185149086 -0.071587987994556887 0 0.00053655933719887888 -0.074977632156254692 0 0.00026087567845605738 -0.07868145941789538 0 0.0010959557588706356 -0.063470417272991686 0 0.00053655933719887899 -0.074977632156254692 0 0.00063022980185149086 -0.071587987994556887 0 0.0010959557588706356 -0.063470417272991686 0 0.00063022980185149086 -0.071587987994556887 0 0.0011377195581340985 -0.062658422103298542 0 0.0011377195581340985 -0.062658422103298542 0 0.00071772913026518878 -0.069082844289027043 0 0.0018105422742696877 -0.057955860857592779 0 0.0011377195581340985 -0.062658422103298542 0 0.00063022980185149086 -0.071587987994556887 0 0.00071772913026518878 -0.069082844289027043 0 0.0016777338518947412 -0.051208070075258572 0 0.0011377195581340985 -0.062658422103298542 0 0.0018105422742696877 -0.057955860857592779 0 0.0010959557588706356 -0.063470417272991686 0 0.0016777338518947412 -0.051208070075258572 0 0.00091004263166112598 -0.050466043618884709 0 0.0016777338518947412 -0.051208070075258572 0 0.0010959557588706356 -0.063470417272991686 0 0.0011377195581340985 -0.062658422103298542 0 0.00091004263166112598 -0.050466043618884709 0 0.0016777338518947412 -0.051208070075258572 0 0.0017166002097353003 -0.030955017955295119 0 0.0016777338518947412 -0.051208070075258572 0 0.0029643030720814477 -0.043298045464134037 0 0.0017166002097353003 -0.030955017955295119 0 0.0029643030720814477 -0.043298045464134037 0 0.0033998843760929508 -0.0444938457475893 0 0.0029939696180492381 -0.029171550273246999 0 0.0024793707089181744 -0.05485404060711066 0 0.0033998843760929508 -0.0444938457475893 0 0.0029643030720814477 -0.043298045464134037 0 0.0033998843760929508 -0.0444938457475893 0 0.0024793707089181744 -0.05485404060711066 0 0.0036218631314631176 -0.052653742158826067 0 0.0018105422742696877 -0.057955860857592779 0 0.0024793707089181744 -0.05485404060711066 0 0.0029643030720814477 -0.043298045464134037 0 0.0016777338518947412 -0.051208070075258572 0 0.0018105422742696875 -0.057955860857592779 0 0.0029643030720814477 -0.043298045464134037 0 -0.018159227074414929 -0.060757976799942118 0 -0.014527459978887259 -0.074856672561219709 0 -0.0071970462359428654 -0.07025679108007217 0 -0.0071970462359428654 -0.07025679108007217 0 -0.0063443802426404678 -0.082258312159344246 0 -0.0030534781533045233 -0.081548545753328538 0 -0.014527459978887261 -0.074856672561219709 0 -0.0063443802426404686 -0.08225831215934426 0 -0.0071970462359428654 -0.07025679108007217 0 -0.014527459978887261 -0.074856672561219709 0 -0.0091570203111740554 -0.087068335593902493 0 -0.0063443802426404686 -0.08225831215934426 0 -0.0063443802426404686 -0.08225831215934426 0 -0.0091570203111740554 -0.087068335593902493 0 -0.0029523570194718695 -0.091986000620811831 0 -0.0091570203111740554 -0.087068335593902493 0 7.341863694511401e-05 -0.099904595214917374 0 -0.0029523570194718695 -0.091986000620811831 0 7.341863694511401e-05 -0.099904595214917374 0 0.00011212114132887554 -0.09774269285537944 0 -0.0029523570194718695 -0.091986000620811831 0 -2.500244960288354e-10 -0.099999209597338656 0 -6.0862097839814104e-06 -0.097750654934916165 0 -6.0862097839814104e-06 -0.097750654934916165 0 -2.0560718154321235e-05 -0.095618611057517497 0 0.00011212114132887554 -0.09774269285537944 0 8.8231828431153893e-05 -0.095599776936877143 0 -0.0018893590269351073 -0.090399853215557338 0 0.00011212114132887554 -0.09774269285537944 0 -0.0018893590269351075 -0.090399853215557338 0 -0.0029523570194718695 -0.091986000620811831 0 8.8231828431154069e-05 -0.095599776936877143 0 -0.00091722852473907768 -0.090067761288275039 0 -0.0018893590269351073 -0.090399853215557338 0 -0.0063443802426404686 -0.08225831215934426 0 -0.0018893590269351073 -0.090399853215557338 0 -0.0030534781533045233 -0.081548545753328538 0 -0.0018893590269351073 -0.090399853215557338 0 -0.0063443802426404686 -0.08225831215934426 0 -0.0029523570194718695 -0.091986000620811831 0 -0.0018893590269351073 -0.090399853215557338 0 -0.00091722852473907768 -0.090067761288275039 0 -0.0030534781533045233 -0.081548545753328538 0 -0.00045099739781456917 -0.086684325777115767 0 -0.0018694555783049134 -0.076324776001637493 0 -0.0030534781533045233 -0.081548545753328538 0 -0.00091722852473907768 -0.090067761288275039 0 -0.00045099739781456917 -0.086684325777115767 0 -0.0030534781533045233 -0.081548545753328538 0 -0.00091722852473907768 -0.090067761288275039 0 8.1594383366496119e-05 -0.093586036719948446 0 -0.00045099739781456917 -0.086684325777115767 0 -2.0560718154321235e-05 -0.095618611057517497 0 -2.4845170709085333e-05 -0.093603731414645661 0 8.8231828431154069e-05 -0.095599776936877143 0 8.1594383366496119e-05 -0.093586036719948446 0 -0.00091722852473907768 -0.090067761288275039 0 8.1594383366496119e-05 -0.093586036719948446 0 8.4024658440847832e-05 -0.091682282597588011 0 -0.00045099739781456917 -0.086684325777115767 0 -2.4845170709085333e-05 -0.093603731414645661 0 -1.7940586958940359e-05 -0.091699828042715925 0 -0.00045099739781456917 -0.086684325777115767 0 8.4024658440847832e-05 -0.091682282597588011 0 -6.3166508374516771e-05 -0.087038959301418917 0 -0.00025847745757188236 -0.081016289775250425 0 -0.0018694555783049134 -0.076324776001637493 0 -0.00045099739781456917 -0.086684325777115767 0 -0.0018694555783049134 -0.076324776001637493 0 -0.0071970462359428654 -0.07025679108007217 0 -0.0030534781533045233 -0.081548545753328538 0 -0.0034010347184109677 -0.062642376503713001 0 -0.0071970462359428654 -0.07025679108007217 0 -0.0018694555783049134 -0.076324776001637493 0 -0.0034010347184109677 -0.062642376503713001 0 -0.0018694555783049134 -0.076324776001637493 0 -0.00061936112011335938 -0.071675585145161841 0 -0.0034010347184109677 -0.062642376503713001 0 -0.00061936112011335928 -0.071675585145161841 0 -0.00077976297463947138 -0.060066199549368877 0 -0.00077976297463947138 -0.060066199549368877 0 -0.00061936112011335938 -0.071675585145161841 0 0.00047278529740402353 -0.067380338740773815 0 0.0002138667023872158 -0.07798665011892196 0 -0.00061936112011335938 -0.071675585145161841 0 -0.00025847745757188236 -0.081016289775250425 0 0.00047278529740402353 -0.067380338740773815 0 -0.00061936112011335938 -0.071675585145161841 0 0.0002138667023872158 -0.07798665011892196 0 -0.00061936112011335938 -0.071675585145161841 0 -0.0018694555783049134 -0.076324776001637493 0 -0.00025847745757188236 -0.081016289775250425 0 -0.00025847745757188236 -0.081016289775250425 0 -0.00045099739781456917 -0.086684325777115767 0 -6.3166508374516771e-05 -0.087038959301418917 0 7.6813480678915601e-05 -0.084657544749173017 0 -0.00025847745757188236 -0.081016289775250425 0 -6.3166508374516771e-05 -0.087038959301418917 0 7.7347195551503786e-05 -0.089885225819121117 0 7.6813480678915601e-05 -0.084657544749173017 0 -6.3166508374516771e-05 -0.087038959301418917 0 -1.7940586958940359e-05 -0.091699828042715925 0 -1.9319872532371081e-05 -0.08990063015820772 0 8.4024658440847832e-05 -0.091682282597588011 0 7.7347195551503786e-05 -0.089885225819121117 0 -6.3166508374516771e-05 -0.087038959301418917 0 7.6813480678915601e-05 -0.084657544749173017 0 5.9925032843113645e-05 -0.088193019308197701 0 0.00013659789144429197 -0.083840191818047152 0 -1.9319872532371081e-05 -0.08990063015820772 0 -3.1648375832468675e-05 -0.088206846756544721 0 7.7347195551503786e-05 -0.089885225819121117 0 5.9925032843113645e-05 -0.088193019308197701 0 7.6813480678915601e-05 -0.084657544749173017 0 0.0002138667023872158 -0.07798665011892196 0 7.6813480678915601e-05 -0.084657544749173017 0 0.00013659789144429197 -0.083840191818047152 0 0.0002138667023872158 -0.07798665011892196 0 -0.00025847745757188231 -0.081016289775250425 0 7.6813480678915601e-05 -0.084657544749173017 0 0.00024042642679809618 -0.081418939351965078 0 0.00021386670238721577 -0.077986650118921946 0 0.00013659789144429197 -0.083840191818047152 0 0.00053655933719887888 -0.074977632156254692 0 0.0002138667023872158 -0.07798665011892196 0 0.00024042642679809618 -0.081418939351965078 0 4.1761987036975416e-05 -0.086601581154851962 0 0.00024042642679809618 -0.081418939351965078 0 0.00013659789144429197 -0.083840191818047152 0 -3.1648375832468675e-05 -0.088206846756544721 0 -4.4440046141594338e-05 -0.086615267611586652 0 5.9925032843113645e-05 -0.088193019308197701 0 4.1761987036975416e-05 -0.086601581154851962 0 0.00013659789144429197 -0.083840191818047152 0 -5.8348622398984881e-05 -0.085125359927534963 0 -7.3861830156696589e-05 -0.083737017564110547 0 2.2554008841587911e-05 -0.085112222745961572 0 1.4196611399685329e-06 -0.083723561478886849 0 0.00021869453456068434 -0.08083413951812593 0 4.1761987036975416e-05 -0.086601581154851962 0 2.2554008841587911e-05 -0.085112222745961572 0 0.00024042642679809618 -0.081418939351965078 0 -4.4440046141594338e-05 -0.086615267611586652 0 -5.8348622398984881e-05 -0.085125359927534963 0 0.00024042642679809618 -0.081418939351965078 0 2.2554008841587911e-05 -0.085112222745961572 0 0.00021869453456068434 -0.08083413951812593 0 0.00053655933719887888 -0.074977632156254692 0 0.00024042642679809618 -0.081418939351965078 0 0.00021869453456068434 -0.08083413951812593 0 0.00047278529740402353 -0.067380338740773815 0 0.00053655933719887899 -0.074977632156254692 0 0.0010959557588706356 -0.063470417272991686 0 0.00047278529740402353 -0.067380338740773815 0 0.0002138667023872158 -0.07798665011892196 0 0.00053655933719887888 -0.074977632156254692 0 0.00091004263166112598 -0.050466043618884709 0 -0.00040952640887693346 -0.026844135351030331 0 -0.0027017960655052325 -0.046379709275601394 0 0.00047278529740402353 -0.067380338740773815 0 0.0010959557588706356 -0.063470417272991686 0 0.00091004263166112598 -0.050466043618884709 0 -0.00077976297463947138 -0.060066199549368877 0 0.00047278529740402353 -0.067380338740773815 0 0.00091004263166112598 -0.050466043618884709 0 -0.0034010347184109677 -0.062642376503713001 0 -0.00077976297463947138 -0.060066199549368877 0 -0.0027017960655052325 -0.046379709275601394 0 -0.00077976297463947138 -0.060066199549368877 0 0.00091004263166112587 -0.050466043618884709 0 -0.0027017960655052325 -0.046379709275601394 0 -0.0090693304202176511 -0.052204487323038652 0 -0.0034010347184109677 -0.062642376503713001 0 -0.0027017960655052325 -0.046379709275601394 0 -0.0090693304202176511 -0.052204487323038652 0 -0.0071970462359428654 -0.07025679108007217 0 -0.0034010347184109677 -0.062642376503713001 0 -0.0070887426130163593 -0.032338603561985736 0 -0.0090693304202176528 -0.052204487323038659 0 -0.0027017960655052325 -0.046379709275601394 0 -0.019077614811372538 -0.043427148172887099 0 -0.0090693304202176511 -0.052204487323038652 0 -0.0070887426130163593 -0.032338603561985736 0 -0.0090693304202176511 -0.052204487323038652 0 -0.018159227074414929 -0.060757976799942118 0 -0.0071970462359428654 -0.07025679108007217 0 -0.019077614811372538 -0.043427148172887099 0 -0.018159227074414929 -0.060757976799942118 0 -0.0090693304202176511 -0.052204487323038652 0 5.3690532343295784e-06 -7.3913290861387251e-06 0 -3.111030174365207e-05 -1.1496440128457164e-05 0 -0.0028439862493307854 -0.01266947594656127 0 -0.015020279823506297 -0.023063302956442676 0 -0.019077614811372538 -0.043427148172887099 0 -0.0070887426130163593 -0.032338603561985736 0 -0.015020279823506297 -0.023063302956442676 0 -0.0070887426130163593 -0.032338603561985736 0 -0.0028439862493307854 -0.01266947594656127 0 -0.00040952640887693346 -0.026844135351030331 0 0.00091004263166112598 -0.050466043618884709 0 0.0017166002097353003 -0.030955017955295119 0 5.3690532343295784e-06 -7.3913290861387251e-06 0 -0.00040952640887693232 -0.026844135351030335 0 0.0017166002097353003 -0.030955017955295119 0 -0.0070887426130163593 -0.032338603561985736 0 -0.00040952640887693346 -0.026844135351030331 0 -0.0028439862493307854 -0.01266947594656127 0 -0.00040952640887693346 -0.026844135351030331 0 -0.0070887426130163593 -0.032338603561985736 0 -0.0027017960655052325 -0.046379709275601394 0 -0.00040952640887693346 -0.026844135351030331 0 5.3690532343291819e-06 -7.3913290861364161e-06 0 -0.0028439862493307854 -0.01266947594656127 0 -3.111030174365207e-05 -1.1496440128457164e-05 0 -0.015020279823506297 -0.023063302956442676 0 -0.0028439862493307854 -0.01266947594656127 0 4.9216568582933366e-06 -1.2104105859793602e-05 0 5.3690532343295784e-06 -7.3913290861387251e-06 0 0.0018762050418503142 -0.021009557768911381 0 0.0018762050418503142 -0.021009557768911381 0 0.0029643030720814477 -0.043298045464134037 0 0.0029939696180492381 -0.029171550273246999 0 4.9216568582933366e-06 -1.2104105859793602e-05 0 0.0018762050418503142 -0.021009557768911381 0 0.0029939696180492381 -0.029171550273246999 0 0.0029643030720814477 -0.043298045464134037 0 0.0018762050418503142 -0.021009557768911381 0 0.0017166002097353003 -0.030955017955295119 0 0.0018762050418503142 -0.021009557768911381 0 5.3690532343295784e-06 -7.3913290861387251e-06 0 0.0017166002097353003 -0.030955017955295119 0 0.0027976923013432386 -0.024395783287453461 0 4.9216568582933595e-06 -1.2104105859794144e-05 0 0.0029939696180492381 -0.029171550273246999 0 -1.250293912464435e-06 -9.6785493999377543e-06 0 0.0027976923013432386 -0.024395783287453461 0 0.0025378828665750201 -0.022663640076994784 0 -1.250293912464435e-06 -9.6785493999377543e-06 0 4.9216568582933366e-06 -1.2104105859793602e-05 0 0.0027976923013432386 -0.024395783287453461 0 0.0089897489145001671 -0.028329612225230776 0 2.4864502067561233e-05 -9.0691395488722906e-06 0 0.0025378828665750201 -0.022663640076994784 0 2.4864502067561233e-05 -9.0691395488722906e-06 0 -1.250293912464435e-06 -9.6785493999377543e-06 0 0.0025378828665750201 -0.022663640076994784 0 -9.3132520860328638e-05 -0.041326952740158594 0 0.0089897489145001671 -0.028329612225230776 0 0.0025239428878654907 -0.038754407408472975 0 0.0025239428878654907 -0.038754407408472975 0 0.0025378828665750201 -0.022663640076994784 0 0.0028042552992698791 -0.043150559566841648 0 0.0025239428878654907 -0.038754407408472975 0 0.0089897489145001671 -0.028329612225230776 0 0.0025378828665750201 -0.022663640076994784 0 -9.3132520860328638e-05 -0.041326952740158594 0 0.0025239428878654907 -0.038754407408472975 0 0.00034465430354988608 -0.044472318627135479 0 0.0025239428878654907 -0.038754407408472975 0 0.0028042552992698791 -0.043150559566841648 0 0.00034465430354988608 -0.044472318627135479 0 0.0028042552992698791 -0.043150559566841648 0 -0.00014917003588936492 -0.050275073037604569 0 0.00034465430354988608 -0.044472318627135479 0 0.0022932569762759776 -0.053998985055893553 0 -0.0001491700358893646 -0.050275073037604569 0 0.0028042552992698791 -0.043150559566841648 0 0.00359953452426725 -0.042054632879224056 0 0.0022932569762759776 -0.053998985055893553 0 0.0028042552992698791 -0.043150559566841648 0 0.00013142087326061403 -0.062699608717496177 0 -0.0023568704807998379 -0.056468897579862086 0 0.0022932569762759776 -0.053998985055893553 0 0.0027613243971714228 -0.061553299791192499 0 0.00013142087326061403 -0.062699608717496177 0 0.0022932569762759776 -0.053998985055893553 0 0.0027613243971714228 -0.061553299791192499 0 -9.7029942557264723e-05 -0.076290920731672526 0 0.00013142087326061403 -0.062699608717496177 0 -9.7029942557264723e-05 -0.076290920731672526 0 0.0027613243971714228 -0.061553299791192499 0 0.000462317738779231 -0.069422027329807026 0 0.0036218631314631176 -0.052653742158826067 0 0.0027613243971714228 -0.061553299791192499 0 0.0022932569762759776 -0.053998985055893553 0 0.0036218631314631176 -0.052653742158826067 0 0.0018150732465837106 -0.0620715272370587 0 0.0027613243971714228 -0.061553299791192499 0 0.00359953452426725 -0.042054632879224056 0 0.0036218631314631176 -0.052653742158826067 0 0.0022932569762759776 -0.053998985055893553 0 0.00359953452426725 -0.042054632879224056 0 0.0027976923013432386 -0.024395783287453461 0 0.0029939696180492381 -0.029171550273246999 0 0.0033998843760929508 -0.0444938457475893 0 0.0036218631314631176 -0.052653742158826067 0 0.00359953452426725 -0.042054632879224056 0 0.0033998843760929508 -0.0444938457475893 0 0.00359953452426725 -0.042054632879224056 0 0.0029939696180492381 -0.029171550273246999 0 0.0025378828665750201 -0.022663640076994784 0 0.0027976923013432386 -0.024395783287453461 0 0.0028042552992698791 -0.043150559566841648 0 0.0027976923013432386 -0.024395783287453461 0 0.00359953452426725 -0.042054632879224056 0 0.0028042552992698791 -0.043150559566841648 0 
</DataArray>
</PointData>
<CellData Scalars="region_id," Vectors="" Tensors="stress,">
<DataArray type="Float64" Name="region_id" format="ascii">
1 1 1 1 1 1 1 1 1 1 1 1 1 1 1 1 1 1 1 1 1 1 1 1 1 1 1 1 1 1 1 1 1 1 1 1 1 1 1 1 1 1 1 1 1 1 1 1 1 1 1 1 1 1 1 1 1 1 1 1 1 1 1 1 1 1 1 1 1 1 1 1 1 1 1 1 1 1 1 1 1 1 1 1 1 1 1 1 1 1 1 1 1 1 1 1 1 1 1 1 1 1 1 1 1 1 1 1 1 1 1 1 1 1 1 1 1 1 1 1 1 1 1 1 1 1 1 1 1 1 1 1 1 1 1 1 1 1 1 1 1 6 1 6 1 1 1 1 1 1 1 1 1 1 1 1 1 1 6 1 6 1 1 6 1 1 6 1 1 1 1 1 1 6 1 1 6 1 1 1 1 1 1 1 1 1 1 1 1 1 1 1 1 1 1 1 1 1 1 1 1 6 6 1 1 1 1 1 1 1 1 1 6 1 1 6 1 1 1 1 1 1 1 1 1 1 1 1 1 6 1 1 6 1 1 1 1 1 1 6 1 6 1 1 6 1 1 1 1 1 1 1 1 1 1 1 1 1 1 1 1 1 1 1 1 1 1 1 1 1 1 1 1 1 1 1 1 1 1 1 1 1 1 1 1 1 1 1 1 1 1 1 1 1 1 1 1 1 1 
</DataArray>
<DataArray type="Float64" Name="stress" NumberOfComponents="9" format="ascii">
-0.013741514487495405 -0.046039694992457574 0 -0.046039694992457574 -0.0045815524735412869 0 0 0 -0.0045807667402591725 -0.039304485288446288 -0.03835845348982618 0 -0.03835845348982618 -0.014671052806326523 0 0 0 -0.013493884523693201 0.028740156176009377 -0.015793413920576909 0 -0.015793413920576909 -0.016166916803867587 0 0 0 0.0031433098430354439 0.0043702089992967534 -0.029499041294556994 0 -0.029499041294556994 0.0035671559755237892 0 0 0 0.0019843412437051296 0.016930720374887964 -0.015127934082890149 0 -0.015127934082890149 -0.010104563361769764 0 0 0 0.001706539253279557 0.0072204650137092929 -0.017936638938002653 0 -0.017936638938002653 -0.045753780786490755 0 0 0 -0.0096333289431953517 -0.0076081474673686811 -0.047837381720971184 0 -0.047837381720971184 -0.071904752805037442 0 0 0 -0.019878225068101552 -0.0020894046150715939 -0.048059803987402172 0 -0.048059803987402172 -0.055353916861258734 0 0 0 -0.014360830369082603 -0.020325339902588002 -0.064970655534682231 0 -0.064970655534682231 -0.10237558305241967 0 0 0 -0.030675230738752002 -0.017147775560743383 -0.049397022100938937 0 -0.049397022100938937 -0.10262018080642363 0 0 0 -0.029941989091791864 -0.020608722454665204 -0.074725993491758236 0 -0.074725993491758236 -0.30138562165750749 0 0 0 -0.080498586028043093 0.018303476583080069 -0.10630425879451966 0 -0.10630425879451966 -0.098166633942191606 0 0 0 -0.019965789339777773 0.036642976346898337 -0.027711999477772947 0 -0.027711999477772947 -0.10421593381456429 0 0 0 -0.016893239366916502 0.030688070019048011 0.0034881771190388156 0 0.0034881771190388156 -0.063205239129274338 0 0 0 -0.0081292922775565851 -0.00075704113506806781 -0.019678602044229887 0 -0.019678602044229887 -0.099000674052049986 0 0 0 -0.024939428796779503 0.014836596337338553 -0.017777985954703146 0 -0.017777985954703146 -0.04929511528460595 0 0 0 -0.0086146297368168423 -0.0031794001659263896 -0.03973897356685907 0 -0.03973897356685907 -0.021907150480532239 0 0 0 -0.0062716376616146416 -0.01562221320699176 -0.04435624212325387 0 -0.04435624212325387 -0.055387907783810086 0 0 0 -0.017752530247700467 -0.013599163494021668 -0.04478825072336258 0 -0.04478825072336258 -0.029242653417077213 0 0 0 -0.010710454227774738 -0.016807109937053213 -0.05130319197311671 0 -0.05130319197311671 -0.03242217165584832 0 0 0 -0.012307320398225394 -0.012316279572794964 -0.048047151206917729 0 -0.048047151206917729 -0.033283945772897811 0 0 0 -0.011400056336423187 -0.012320843049309915 -0.058212683097497123 0 -0.058212683097497123 -0.054507962412301603 0 0 0 -0.016707201365402879 -0.018031715626636635 -0.050448920864292972 0 -0.050448920864292972 -0.0060185889405019316 0 0 0 -0.0060125761417846417 -0.020447582463220329 -0.051839206016434776 0 -0.051839206016434776 -0.019661844395260336 0 0 0 -0.01002735671462017 -0.013749525783838645 -0.053613682158796139 0 -0.053613682158796139 -0.016441356246482186 0 0 0 -0.0075477205075801801 -0.012079943870143103 -0.049648669393769052 0 -0.049648669393769052 -0.016182925763335323 0 0 0 -0.0070657174083695977 -0.018905269390646864 -0.048225195279795068 0 -0.048225195279795068 -0.018275606102538339 0 0 0 -0.0092952188732963043 -0.013628155567200248 -0.055390628538436779 0 -0.055390628538436779 -0.0045247326431172782 0 0 0 -0.0045382220525793824 -0.010374409955868372 -0.054443475287970756 0 -0.054443475287970756 -0.014568426017879277 0 0 0 -0.0062357089934369087 -0.0058198396140150543 -0.063009018729243443 0 -0.063009018729243443 -0.0036280460558316685 0 0 0 -0.0023619714174616946 -0.0090414929565989649 -0.059525911589120788 0 -0.059525911589120788 -0.019165388351727486 0 0 0 -0.007051720327081637 -0.018485779847624714 -0.052430476769557449 0 -0.052430476769557449 -0.014039394331940347 0 0 0 -0.0081312935448912965 0.035391327048833798 -0.047914785152514572 0 -0.047914785152514572 0.011779571498024664 0 0 0 0.011792724636714618 0.10399279174979718 -0.032947125057990398 0 -0.032947125057990398 0.010776172230374359 0 0 0 0.028692240995042889 -3.1253010952338178e-05 -0.04924703387876532 0 -0.04924703387876532 0.018301275287614521 0 0 0 0.0045675055691655406 0.0047442061515711176 -0.044665277982635712 0 -0.044665277982635712 -0.00075004169205800109 0 0 0 0.000998541114878293 -0.00080708485806636754 -0.049559031324111144 0 -0.049559031324111144 0.01115802786988529 0 0 0 0.0025877357529547063 -0.0088537633668872157 -0.064002134032362781 0 -0.064002134032362781 -0.019218059583746727 0 0 0 -0.0070179557376584822 0.03023871772631263 -0.048424315320092275 0 -0.048424315320092275 0.0034331168330192091 0 0 0 0.0084179586398329502 0.015683259297599682 -0.025209710118314792 0 -0.025209710118314792 0.0011006422883421824 0 0 0 0.0041959753964854705 0.038032268570729916 -0.018039563455856666 0 -0.018039563455856666 0.002703682520151296 0 0 0 0.010183987772720338 -0.012397583738379181 -0.01770793629894072 0 -0.01770793629894072 -0.001817893515311475 0 0 0 -0.003553869313422664 -0.053731273604932128 -0.019285871537182808 0 -0.019285871537182808 0.00025524696425960336 0 0 0 -0.013369006660168103 -0.011119256283432744 -0.017329941681293787 0 -0.017329941681293787 -0.0014086140526399227 0 0 0 -0.0031319675840181804 -0.001780149254602844 -0.044343460075389085 0 -0.044343460075389085 -0.0051640142524808086 0 0 0 -0.0017360408767709799 -0.042197790887358644 -0.052060796019959638 0 -0.052060796019959638 -0.015754237036378793 0 0 0 -0.014488006980934443 -0.040915516328335511 -0.051395496844020783 0 -0.051395496844020783 -0.014372152726625842 0 0 0 -0.013821917263740324 -0.022527951984204514 -0.055924694694302057 0 -0.055924694694302057 -0.016204631286341975 0 0 0 -0.0096831458176366292 -0.031933875728104522 -0.067108868875623506 0 -0.067108868875623506 -0.029025669897828621 0 0 0 -0.015239886406483327 -0.014793316174401452 -0.058372061560443778 0 -0.058372061560443778 -0.011995365935202507 0 0 0 -0.0066971705274009447 -0.0076954538464679978 -0.066016078569751932 0 -0.066016078569751932 -0.015625720419856104 0 0 0 -0.0058302935665810185 -0.01328947261136583 -0.07170246331174554 0 -0.07170246331174554 -0.032256770535369517 0 0 0 -0.011386560786683833 -0.0099734953942646754 -0.071050643222087428 0 -0.071050643222087428 -0.032600097761329105 0 0 0 -0.010643398288898376 -0.019748930502954787 -0.077183835122241168 0 -0.077183835122241168 -0.04251868080895882 0 0 0 -0.015566902827978346 -0.010874212662352084 -0.073395151815993709 0 -0.073395151815993709 -0.050043204788318363 0 0 0 -0.015229354362667563 -0.0088073718647139199 -0.075414310238804932 0 -0.075414310238804932 -0.0476883608822678 0 0 0 -0.01412393318674543 -0.0095145394449922538 -0.072586857277818884 0 -0.072586857277818884 -0.052409548218336433 0 0 0 -0.015481021915832116 -0.0087168069322376418 -0.068089991683018436 0 -0.068089991683018436 -0.05459907783355078 0 0 0 -0.015828971191446994 -0.011032222093048655 -0.069431474159014073 0 -0.069431474159014073 -0.057723841516104643 0 0 0 -0.017189015902288378 -0.017020786429501777 -0.07099446902769313 0 -0.07099446902769313 -0.063406500480152506 0 0 0 -0.020106821727413626 -0.013165403410601684 -0.068758139244164296 0 -0.068758139244164296 -0.056254616384622924 0 0 0 -0.017355004948806263 -0.011555123071897544 -0.071760706678539732 0 -0.071760706678539732 -0.057836669446966305 0 0 0 -0.017347948129715851 -0.015633041772566192 -0.074150716829356575 0 -0.074150716829356575 -0.051671907839147213 0 0 0 -0.016826237402928546 -0.019372599075651697 -0.075391197852980096 0 -0.075391197852980096 -0.062157490450285735 0 0 0 -0.020382522381484414 -0.026902085801655488 -0.074766864339897543 0 -0.074766864339897543 -0.050696476735583598 0 0 0 -0.019399640634309826 -0.024781179185575816 -0.073711927805648503 0 -0.073711927805648503 -0.069663450070014662 0 0 0 -0.023611157313897676 -0.018587294962623346 -0.070103245642940237 0 -0.070103245642940237 -0.057978278968286556 0 0 0 -0.019141393482727587 -0.027686305184543514 -0.070268532046819487 0 -0.070268532046819487 -0.066110978539803522 0 0 0 -0.02344932093108687 -0.036964168150640624 -0.076028220051214346 0 -0.076028220051214346 -0.077711663901614964 0 0 0 -0.028668958013063784 -0.03517074948606902 -0.079246242809835277 0 -0.079246242809835277 -0.060652877201481825 0 0 0 -0.02395590667188785 -0.038315996514257766 -0.070280460553839824 0 -0.070280460553839824 -0.029576322532231414 0 0 0 -0.016973079761622323 -0.021440034063349489 -0.076779167411873184 0 -0.076779167411873184 -0.048887480312927334 0 0 0 -0.017581878594069233 -0.065938414993582939 -0.058497830786982119 0 -0.058497830786982119 -0.016596406280562692 0 0 0 -0.020633705318536533 -0.048373827853196327 -0.076003525722584203 0 -0.076003525722584203 -0.043284162313799612 0 0 0 -0.022914497541749013 -0.038304505785842657 -0.078467476363963451 0 -0.078467476363963451 -0.069995188260262964 0 0 0 -0.027074923511526405 -0.05611410109574775 -0.077472091785118824 0 -0.077472091785118824 -0.045905638788697849 0 0 0 -0.025504934971111372 -0.040473203645701838 -0.073034554134063678 0 -0.073034554134063678 -0.0655014365890354 0 0 0 -0.026493660058684476 -0.052437160791094284 -0.080801127552380558 0 -0.080801127552380558 -0.086393769786247798 0 0 0 -0.034707732644335465 -0.055150361592165797 -0.076361833602178519 0 -0.076361833602178519 -0.07039440964353183 0 0 0 -0.031386192808924296 -0.074306370243992087 -0.087563684673524378 0 -0.087563684673524378 -0.097702854508202069 0 0 0 -0.043002306188048428 -0.079212540189981362 -0.089239685153979509 0 -0.089239685153979509 -0.067964317115476902 0 0 0 -0.036794214326364538 -0.13184586783403252 -0.094564318025506466 0 -0.094564318025506466 -0.075478402934524791 0 0 0 -0.05183106769213941 -0.077901914635006508 -0.070570705170576842 0 -0.070570705170576842 -0.033483465125991874 0 0 0 -0.027846344940249512 -0.13199817569026484 -0.094802448220423274 0 -0.094802448220423274 -0.075304848003503899 0 0 0 -0.051825755923442074 -0.086325657168151215 -0.074361640666695927 0 -0.074361640666695927 -0.075259110959829734 0 0 0 -0.040396192031995293 -0.15274219329757455 -0.087289782109347236 0 -0.087289782109347236 -0.08405225157149232 0 0 0 -0.059198611217266661 -0.1305069010669769 -0.098991086109164295 0 -0.098991086109164295 -0.12114703186593939 0 0 0 -0.062913483233229081 -0.32289576317596791 -0.098873582795281453 0 -0.098873582795281453 -0.071912374825887859 0 0 0 -0.098702034500463665 -0.19213108104651067 -0.11439777189243228 0 -0.11439777189243228 -0.1426423193988211 0 0 0 -0.083693350111332832 -0.17524454580955195 -0.051233772927915755 0 -0.051233772927915755 0.010826855196606644 0 0 0 -0.041104422653236217 -0.13503459276867391 -0.035712058077227826 0 -0.035712058077227826 -0.01354826027941769 0 0 0 -0.037145713262022984 -0.10272460048516413 -0.026413221355568284 0 -0.026413221355568284 0.00084205720696040043 0 0 0 -0.025470635819550891 -0.091522189950414501 -0.069899835176705422 0 -0.069899835176705422 -0.036320638026309915 0 0 0 -0.031960706994181076 -0.064097712188316169 -0.023518009136759103 0 -0.023518009136759103 -0.0072476018122227259 0 0 0 -0.017836328500134835 -0.0056118595674431448 -0.064582394722219966 0 -0.064582394722219966 -0.047005205706044828 0 0 0 -0.01315426631837191 -0.0002585093177761566 -0.060529562162169537 0 -0.060529562162169537 -0.038053808021932922 0 0 0 -0.0095780793349272697 -0.020255875114755455 -0.052271708029964697 0 -0.052271708029964697 -0.042795076537483961 0 0 0 -0.01576273791305987 -0.013837169779604197 -0.061391931320425905 0 -0.061391931320425905 -0.032242350573537415 0 0 0 -0.011519880088285417 -0.012394422200706457 -0.068145915924969741 0 -0.068145915924969741 -0.033191729948363335 0 0 0 -0.011396538037267468 -0.010668087071490029 -0.074670318520002221 0 -0.074670318520002221 -0.042713235065875876 0 0 0 -0.013345330534341504 -0.0029375884090989401 -0.06964249490167132 0 -0.06964249490167132 -0.029559348778912753 0 0 0 -0.0081242342970029024 -0.00089270559275347883 -0.067761751319098645 0 -0.067761751319098645 -0.028802489793648522 0 0 0 -0.0074237988466005211 -0.0058438623561066615 -0.070501686938021946 0 -0.070501686938021946 -0.044285256865404812 0 0 0 -0.012532279805377839 0.00072651596075296032 -0.071760617288074618 0 -0.071760617288074618 -0.04221230048440261 0 0 0 -0.010371446130912398 0.0030216456225593546 -0.072884651643216919 0 -0.072884651643216919 -0.045939446714613474 0 0 0 -0.01072945027301353 -0.0044678947359529791 -0.07281284968341073 0 -0.07281284968341073 -0.041768615217430083 0 0 0 -0.011559127488345797 -0.0027936649959385274 -0.073792814659910111 0 -0.073792814659910111 -0.046139672567578005 0 0 0 -0.012233334390879036 -0.0048511954568368765 -0.071991320343521667 0 -0.071991320343521667 -0.050855591701577829 0 0 0 -0.013926696789603676 -0.0067989854640751191 -0.071259635298660307 0 -0.071259635298660307 -0.049875118072390312 0 0 0 -0.014168525884116462 -0.0019544709674873401 -0.071938343170054209 0 -0.071938343170054209 -0.045452838872998169 0 0 0 -0.011851827460121409 -0.0029336585578884078 -0.072185785601502461 0 -0.072185785601502461 -0.045072983595463967 0 0 0 -0.012001660538338177 -0.0039068152326344752 -0.069222008337830376 0 -0.069222008337830376 -0.04975103474822351 0 0 0 -0.013414462495214385 -0.0016204803989993705 -0.070064811552491779 0 -0.070064811552491779 -0.043513347498866324 0 0 0 -0.011283456974466368 -0.0036816621328893419 -0.069042167457077364 0 -0.069042167457077364 -0.047848283030246803 0 0 0 -0.012882486290784036 -0.0068185772607348722 -0.069194696540562095 0 -0.069194696540562095 -0.052616049640405012 0 0 0 -0.014858656725284971 -0.0051288216611748982 -0.068230260466519255 0 -0.068230260466519255 -0.049459321256133837 0 0 0 -0.013647035729327239 0.0011838906702134055 -0.072982556066965132 0 -0.072982556066965132 -0.042621619288825574 0 0 0 -0.01035943215465307 0.0010779586676991082 -0.073739673209251011 0 -0.073739673209251011 -0.046898955036888457 0 0 0 -0.011455249092297393 0.00015320639912697054 -0.072104052195987478 0 -0.072104052195987478 -0.045520999243960913 0 0 0 -0.011341948211208486 -0.0018221878542399317 -0.070174796051366117 0 -0.070174796051366117 -0.044038012863764298 0 0 0 -0.011465050179501057 -0.00011797911506860901 -0.07110034678924948 0 -0.07110034678924948 -0.039168818089238992 0 0 0 -0.0098216993010767899 -0.0023297054018009966 -0.072428746898774432 0 -0.072428746898774432 -0.043889439613767234 0 0 0 -0.011554786253892058 4.207848668357842e-05 -0.073508787437906342 0 -0.073508787437906342 -0.035410018152524661 0 0 0 -0.0088419849164603822 0.0011272586036954468 -0.077303673585183752 0 -0.077303673585183752 -0.030574346013155118 0 0 0 -0.0073617718523650844 -0.0027729376174767673 -0.075148333506458331 0 -0.075148333506458331 -0.043175918271371128 0 0 0 -0.011487213972211974 0.0062152646394532021 -0.08300108178866894 0 -0.08300108178866894 -0.025825740503154254 0 0 0 -0.0049026189659252626 -0.0008189505318447754 -0.079667462225330943 0 -0.079667462225330943 -0.043190989652547529 0 0 0 -0.011002485046098132 0.0083286605208229281 -0.074932597645474552 0 -0.074932597645474552 -0.047439046139518881 0 0 0 -0.009777596404674016 0.0013640455413608255 -0.074983759725079535 0 -0.074983759725079535 -0.046447887089385187 0 0 0 -0.011270960387006146 0.0027395605708265824 -0.075329932496047913 0 -0.075329932496047913 -0.041591371293050017 0 0 0 -0.0097129526805558308 0.0030303854977868916 -0.070878343617810313 0 -0.070878343617810313 -0.054068041803510991 0 0 0 -0.012759414076431053 -0.013726976521992174 -0.05219377359202234 0 -0.05219377359202234 -0.064918050031702701 0 0 0 -0.019661256638423719 0.011551124685330261 -0.066301375095266929 0 -0.066301375095266929 -0.054594591721656482 0 0 0 -0.0107608667590815 0.0060694003537528074 -0.07211670103602541 0 -0.07211670103602541 -0.072421832813658327 0 0 0 -0.016588108114976463 0.0099762901385623826 -0.076915329351338657 0 -0.076915329351338657 -0.049449686297456275 0 0 0 -0.0098683490397235563 -0.0030353550267990803 -0.088579391801656637 0 -0.088579391801656637 -0.054967439682863439 0 0 0 -0.014500698677415658 0.0095499798165252781 -0.093200396448222422 0 -0.093200396448222422 -0.016555050045168773 0 0 0 -0.0017512675571609293 0.0067257226475069265 -0.096116316745511521 0 -0.096116316745511521 -0.058919199653300947 0 0 0 -0.013048369251448255 0.029313518226248947 -0.10928511842878585 0 -0.10928511842878585 -0.01688324569073707 0 0 0 0.0031075681338779138 -0.0022506720560460103 0.09963342706638223 0 0.09963342706638223 -0.064506470825873574 0 0 0 -0.016689285720480007 0.014928799458566067 0.10993846000834018 0 0.10993846000834018 -0.021443812639185822 0 0 0 -0.0016287532951548833 -0.072329288869372621 -0.0036728365319049772 0 -0.0036728365319049772 -1.7025376469833695 0 0 0 -0.44371673396318201 0.01203941137163499 0.091577030833908557 0 0.091577030833908557 -0.016189323655012054 0 0 0 -0.0010374780708440993 0.098903571596169582 0.010383203014782794 0 0.010383203014782794 -2.2210526283976502 0 0 0 -0.53053726420037361 0.0013332690853155027 0.086167848094126476 0 0.086167848094126476 -0.044571862272614116 0 0 0 -0.010809648296824625 0.013697499218531257 0.080090892967308203 0 0.080090892967308203 -0.059666084125460234 0 0 0 -0.011492146226732274 0.010147326580847882 0.074235460689073385 0 0.074235460689073385 -0.11304791423635718 0 0 0 -0.025725146913877339 0.023360333479146234 0.084647079790027835 0 0.084647079790027835 -0.053669716473101481 0 0 0 -0.0075773457484887841 0.0047624291888437864 0.059616647488889785 0 0.059616647488889785 -0.056891568929299474 0 0 0 -0.013032284935113991 -0.0012547496205470576 0.063237132769558196 0 0.063237132769558196 -0.066767790841356423 0 0 0 -0.017005635115475815 0.0079413036452680719 0.068758809282424366 0 0.068758809282424366 -0.048218566980688049 0 0 0 -0.010069315833855008 0.0028613184079820941 0.071409643953880858 0 0.071409643953880858 -0.050269473273698573 0 0 0 -0.011852038716429092 0.0035959911737192818 0.07601155445654606 0 0.07601155445654606 -0.049812627629919663 0 0 0 -0.011554159114050166 0.0011502201094084619 0.074385004246164316 0 0.074385004246164316 -0.041391670288852822 0 0 0 -0.01006036254486109 0.0053331234724219856 0.0793072287310502 0 0.0793072287310502 -0.047081978659121226 0 0 0 -0.010437213796674838 0.0073345287544265281 0.07883279898758333 0 0.07883279898758333 -0.041209133039085355 0 0 0 -0.00846865107116479 -0.0020949638571061691 0.078532668766843949 0 0.078532668766843949 -0.043968309384819104 0 0 0 -0.011515818310481318 0.0052372076800810824 0.082986920384598095 0 0.082986920384598095 -0.02583679042945182 0 0 0 -0.0051498956873427953 -0.046520261610616398 -0.0052961551766088633 0 -0.0052961551766088633 -2.704355523899681 0 0 0 -0.68771894637757081 -0.0021988497731064705 0.074806957398832141 0 0.074806957398832141 -0.042201235465013198 0 0 0 -0.011100021309530028 0.014228917024553311 0.0019599035372834805 0 0.0019599035372834805 -3.1213237772376368 0 0 0 -0.77677371505326376 0.0014039897890988427 0.076547534789861649 0 0.076547534789861649 -0.030657562060185085 0 0 0 -0.0073133930677714495 0.00036414712378063022 0.073069420482712033 0 0.073069420482712033 -0.035217142167737095 0 0 0 -0.0087132487609892263 -0.010741452904647786 -0.0018798489307414457 0 -0.0018798489307414457 -3.5308613289105231 0 0 0 -0.88540069545378575 -0.0024403715229046608 0.07135158582520329 0 0.07135158582520329 -0.042790913071149905 0 0 0 -0.011307821148513586 -0.0016648663325753432 0.07089489397991966 0 0.07089489397991966 -0.039764855323449311 0 0 0 -0.010357430414006163 -0.0021181825455041658 -0.0013416038740388103 0 -0.0013416038740388103 -3.9189283684757013 0 0 0 -0.9802616377553014 -0.0035828309777549139 0.069960429852110817 0 0.069960429852110817 -0.045612281801544974 0 0 0 -0.012298778194824833 -0.0026246526588680208 0.072336483383932323 0 0.072336483383932323 -0.044110057069137731 0 0 0 -0.011683677432001494 -0.0011490298373553979 0.072497338623896401 0 0.072497338623896401 -0.046059222006779602 0 0 0 -0.011802062961033722 0.00076544304517123241 0.073702947550925546 0 0.073702947550925546 -0.04289930647954554 0 0 0 -0.010533465858593605 -0.0062243700827697701 0.068529958901880184 0 0.068529958901880184 -0.05135666290096319 0 0 0 -0.01439525824593324 -0.0048898582827485697 0.069300439648859014 0 0.069300439648859014 -0.048318563677145258 0 0 0 -0.013302105489973568 -0.0090468567382050169 0.00040389942068941309 0 0.00040389942068941309 -4.66907347792975 0 0 0 -1.1695300836669855 -0.0042815608619923839 0.068949238969237991 0 0.068949238969237991 -0.046996741593229086 0 0 0 -0.012819575613805201 -0.003170929813820722 0.069640344963760592 0 0.069640344963760592 -0.044046420815467613 0 0 0 -0.01180433765732225 -0.0070719916480798117 0.0010815801916805867 0 0.0010815801916805867 -4.298125398247902 0 0 0 -1.0762993474739881 -0.0039099948186309685 0.072362863059983185 0 0.072362863059983185 -0.048020919411060348 0 0 0 -0.012982728557422885 -0.0065096155405719447 0.072362563578440842 0 0.072362563578440842 -0.050017593927155879 0 0 0 -0.0141318023669319 -0.0051168207006407618 0.071773158402444803 0 0.071773158402444803 -0.048968112321330914 0 0 0 -0.013521233255492954 -0.0057037695137224231 0.075266381798715032 0 0.075266381798715032 -0.048553299019323815 0 0 0 -0.013564267133261476 -0.003206333451088339 0.073786930308654797 0 0.073786930308654797 -0.043699112833490705 0 0 0 -0.011726361571144761 0.0026165606848642109 0.070699041885495251 0 0.070699041885495251 -0.044471641987652744 0 0 0 -0.010463770325697064 -0.0038784587163984696 0.073400927778446423 0 0.073400927778446423 -0.046978716424913358 0 0 0 -0.012714293785327957 -0.0046141443746822164 0.070397615922506152 0 0.070397615922506152 -0.046800091464867855 0 0 0 -0.012853558959887545 -0.0071236864870306837 0.073766485969038093 0 0.073766485969038093 -0.031015062691507334 0 0 0 -0.0095346872946345529 -0.0054091124324282536 0.073047474676399438 0 0.073047474676399438 -0.044123567501666905 0 0 0 -0.01238316998352379 -0.0077022256732676639 0.066880925667189395 0 0.066880925667189395 -0.027780792407468925 0 0 0 -0.0088707545201841195 -0.0095057330585641003 0.0661948795916108 0 0.0661948795916108 -0.0341024817141478 0 0 0 -0.010902053693177996 -0.015926891684643923 0.052438067624004242 0 0.052438067624004242 -0.035753480703146309 0 0 0 -0.012920093096947527 -0.0026410298308748303 0.059752800693271879 0 0.059752800693271879 -0.038921533963874322 0 0 0 -0.01039064094868733 -0.018661385453510537 0.050534532947464184 0 0.050534532947464184 -0.061295372056379582 0 0 0 -0.019989189377472572 -0.0064219042985595946 0.061232512917520382 0 0.061232512917520382 -0.052737747304736612 0 0 0 -0.014789912900824093 0.0003582491564793483 0.063945775644608238 0 0.063945775644608238 -0.032997725785357646 0 0 0 -0.0081598691572195431 -0.064212855995832818 0.024136268845071317 0 0.024136268845071317 -0.0042800346052149774 0 0 0 -0.017123222650261893 -0.07604317748298195 0.062549137603446325 0 0.062549137603446325 -0.026120024971836742 0 0 0 -0.025540800613704673 -0.11673614631769991 0.030859255722397505 0 0.030859255722397505 -0.0024282853684829409 0 0 0 -0.029791107921545601 -0.13087793197243691 0.03581893727612312 0 0.03581893727612312 -0.010256932949433306 0 0 0 -0.035283716230467554 -0.16758028567075534 0.043931936665930094 0 0.043931936665930094 0.016795415162370375 0 0 0 -0.037696217627096518 -0.32545621095507804 0.096438749837826299 0 0.096438749837826299 -0.074136102080803568 0 0 0 -0.099898078258970235 -0.19662431430372643 0.11602661589474872 0 0.11602661589474872 -0.14394643034048465 0 0 0 -0.085142686161052819 -0.75723510240976366 -0.0016389610430564971 0 -0.0016389610430564971 -8.4071699431888529 0 0 0 -2.2911012613996613 -0.17653358724549251 0.0030444093688402063 0 0.0030444093688402063 -7.7910569911142931 0 0 0 -1.9918976445899392 -0.12255272153299979 0.097417725188915671 0 0.097417725188915671 -0.11856732448868268 0 0 0 -0.060280011505420728 -0.14898497641905117 0.084387153197588161 0 0.084387153197588161 -0.0758958532430416 0 0 0 -0.05622020741552336 -0.094420242190909942 0.080836489699987468 0 0.080836489699987468 -0.081464695724861702 0 0 0 -0.043971234478942689 -0.12251787423886806 0.075557436108645404 0 0.075557436108645404 -0.03878574363661258 0 0 0 -0.040325904468870077 -0.15548445570814606 0.094871872986859396 0 0.094871872986859396 -0.073695259470461849 0 0 0 -0.057294928794652034 -0.087352859773162345 0.089810021230768311 0 0.089810021230768311 -0.082890843531271907 0 0 0 -0.042560925826108625 -0.047975705730444296 0.072521924704027546 0 0.072521924704027546 -0.044163643970954958 0 0 0 -0.02303483742534973 -0.083466400471089469 0.088217789198306695 0 0.088217789198306695 -0.07265507703541052 0 0 0 -0.039030369376625101 -0.056619531494731534 0.07276420894566793 0 0.07276420894566793 -0.076941817753727104 0 0 0 -0.033390337312114715 -0.15508787933251966 -0.0014795128006426239 0 -0.0014795128006426239 -7.358992797925767 0 0 0 -1.878520169314579 -0.083355933032586593 0.086310653095621026 0 0.086310653095621026 -0.10081695621147624 0 0 0 -0.046043222311015874 -0.047364927740827553 0.079937402967235283 0 0.079937402967235283 -0.084831125417880029 0 0 0 -0.033049013289677118 -0.089515854867490141 -0.0042509722782710924 0 -0.0042509722782710924 -6.934661513820914 0 0 0 -1.7560443421720975 -0.037597928563924521 0.074210777980884601 0 0.074210777980884601 -0.069024922449648862 0 0 0 -0.02665571275339329 -0.053661530910638189 0.083497202314969599 0 0.083497202314969599 -0.060904615056242672 0 0 0 -0.028641536491720188 -0.091004446803270356 0.074947301783758524 0 0.074947301783758524 -0.044411905478836777 0 0 0 -0.0338540880705267 -0.045429755174161202 0.058204804324869519 0 0.058204804324869519 -0.015736738432311048 0 0 0 -0.015291623401617993 -0.047033229651057051 0.077208164166311419 0 0.077208164166311419 -0.043038096391431635 0 0 0 -0.022517831510622144 -0.029523013624580707 0.068903952437990135 0 0.068903952437990135 -0.027753200846730719 0 0 0 -0.01431905361782787 -0.025764815914533556 0.07725456003856454 0 0.07725456003856454 -0.045491988735242739 0 0 0 -0.017814201162444199 -0.03163718957533812 0.079832138397016861 0 0.079832138397016861 -0.05785570651534333 0 0 0 -0.022373224022670279 -0.018548299576998453 0.073380270368216149 0 0.073380270368216149 -0.045155175692062843 0 0 0 -0.015925868817265224 -0.032472512848310153 0.073513322039789553 0 0.073513322039789553 -0.04246184336563108 0 0 0 -0.018733589053485267 -0.033512373786764083 0.075822062604526508 0 0.075822062604526508 -0.069579078954681073 0 0 0 -0.025772863185361428 -0.030986315410146736 0.077786608662508083 0 0.077786608662508083 -0.065625626463748699 0 0 0 -0.024152985468473775 -0.025645838818451283 0.071136555565403659 0 0.071136555565403659 -0.066301300376215622 0 0 0 -0.022986784798666671 -0.065088948287263748 0.0021116688282631912 0 0.0021116688282631912 -6.5467873105786518 0 0 0 -1.6529690647164683 -0.033107633968791655 0.075303572577869904 0 0.075303572577869904 -0.076209137155329884 0 0 0 -0.027329192781030607 -0.018200098949294974 0.06998255062393266 0 0.06998255062393266 -0.061272604102600603 0 0 0 -0.01986817576297395 -0.044170019564584662 0.0032498716092277391 0 0.0032498716092277391 -6.15751114321922 0 0 0 -1.5504202906959548 -0.022576363709494229 0.072508557860197165 0 0.072508557860197165 -0.068896144032653428 0 0 0 -0.022868126935537081 -0.018139881477891029 0.074010267636107518 0 0.074010267636107518 -0.062626521487041842 0 0 0 -0.020191600741233273 -0.023695343603655439 0.07375515458409776 0 0.07375515458409776 -0.056609553580866556 0 0 0 -0.02007622429613054 -0.016192119415030404 0.073649053092448069 0 0.073649053092448069 -0.056890832411766734 0 0 0 -0.018270737956699201 -0.011836374397044928 0.071565519589094073 0 0.071565519589094073 -0.052896044453803387 0 0 0 -0.016183104712712053 -0.012676075958644617 0.068396623522004485 0 0.068396623522004485 -0.058585478261596435 0 0 0 -0.017815388555060263 -0.030471048504787768 0.0011712022168808289 0 0.0011712022168808289 -5.7822840485494726 0 0 0 -1.4531887742635616 -0.016614740596999515 0.070533455036048132 0 0.070533455036048132 -0.063254403893672068 0 0 0 -0.019967286122667953 -0.014000174921737329 0.001422403704395947 0 0.001422403704395947 -5.0397216963267066 0 0 0 -1.2634304678121004 -0.0072390637587207507 0.069105041251271482 0 0.069105041251271482 -0.052775136538816513 0 0 0 -0.015003550074384593 -0.01065859237161626 0.069677589305377818 0 0.069677589305377818 -0.057566929086297236 0 0 0 -0.017056380364478319 -0.021259158751060769 -1.8472879787623242e-05 0 -1.8472879787623242e-05 -5.4104849204110437 0 0 0 -1.3579360197905332 -0.0084968283428048519 0.068420115160674699 0 0.068420115160674699 -0.053716701675704304 0 0 0 -0.015553382504627233 -0.0081665476020927885 0.072273628255197231 0 0.072273628255197231 -0.055290259276419729 0 0 0 -0.015864201719628102 -0.0082941185753570013 0.07329013454844796 0 0.07329013454844796 -0.042275916172085148 0 0 0 -0.012642508686860454 -0.014775837461352914 0.077149047345506122 0 0.077149047345506122 -0.053195854207090054 0 0 0 -0.016992922917110742 -0.0012276632056371917 0.05907976881333106 0 0.05907976881333106 -0.012990642102277183 0 0 0 -0.0035545763269785313 -0.010808893716376215 0.075895371844843407 0 0.075895371844843407 -0.042122493055552795 0 0 0 -0.013232846692982241 -0.011381595325987398 0.069562128949093971 0 0.069562128949093971 -0.029173016753464398 0 0 0 -0.010138653019863025 -0.017146131155532714 0.065773562704985689 0 0.065773562704985689 -0.024838274862904811 0 0 0 -0.010496101504609397 -0.022652257130325204 0.069880628278463919 0 0.069880628278463919 -0.027288989970831345 0 0 0 -0.012485311775289137 -0.031056891497527384 0.049914653538218418 0 0.049914653538218418 -0.0082116218088899018 0 0 0 -0.0098171283266043075 -0.044194879954478739 0.05599325467005864 0 0.05599325467005864 -0.019377189453011257 0 0 0 -0.015893017351872485 0.00031588373599811259 0.045473364578189825 0 0.045473364578189825 -0.0059883738059518521 0 0 0 -0.0014181225174884071 -0.012204914924930255 0.019615550746263991 0 0.019615550746263991 0.0019024469021448054 0 0 0 -0.0025756170056963623 -0.051381457010366505 0.020617647684683549 0 0.020617647684683549 0.00093120109167088572 0 0 0 -0.012612563979673863 -0.012304770426553646 0.021590859104570353 0 0.021590859104570353 -0.0022183460078224471 0 0 0 -0.0036307791085939956 0.032669468756825963 0.048688942869792994 0 0.048688942869792994 0.010872307778494803 0 0 0 0.010885444133830191 0.037588441442967774 0.023004459896364848 0 0.023004459896364848 0.0011100254177744961 0 0 0 0.0096746167151855467 0.015619828366944779 0.02666071838860732 0 0.02666071838860732 -0.0032343864370560499 0 0 0 0.0030963604824721901 -0.0087647703057468634 0.067699913346577989 0 0.067699913346577989 -0.011984198963646442 0 0 0 -0.0051872423173483229 -0.0033812912770955633 0.049544036114904683 0 0.049544036114904683 0.0014303305409046896 0 0 0 -0.0004877401840477219 0.02756786300494049 0.045549801893934823 0 0.045549801893934823 0.0014104329892679277 0 0 0 0.0072445739985521184 -0.012499525583893722 0.050631947642009872 0 0.050631947642009872 -0.0057007035680692597 0 0 0 -0.0045500572879907664 0.00068343764350098368 0.049154501279489199 0 0.049154501279489199 0.019922805414127581 0 0 0 0.0051515607644071412 0.10402058186612351 0.032116296289173472 0 0.032116296289173472 0.011591380904653753 0 0 0 0.028902990692694308 -0.014524684716458951 0.054365465003544451 0 0.054365465003544451 -0.0048214537245854514 0 0 0 -0.0048365346102611003 -0.013743750116723186 0.056896709713572725 0 0.056896709713572725 -0.020994784068043615 0 0 0 -0.0086846335461917001 -0.01833304574297441 0.052121229476060627 0 0.052121229476060627 -0.011952146388515522 0 0 0 -0.0075712980328725005 -0.010491861486925269 0.056784690362998311 0 0.056784690362998311 -0.010898937749291571 0 0 0 -0.0053476998090542099 -0.011374052050956027 0.055553806038231866 0 0.055553806038231866 -0.0132040337955244 0 0 0 -0.0061445214616201033 -0.020454437065282952 0.052630285524917955 0 0.052630285524917955 -0.018166247668690544 0 0 0 -0.0096551711834933773 -0.021239499214296187 0.047824086623286674 0 0.047824086623286674 -0.021054545930147134 0 0 0 -0.01057351128611083 -0.017169397243971162 0.049906088358949413 0 0.049906088358949413 -0.0057334814555524563 0 0 0 -0.0057257196748809035 -0.04282917091893268 0.034610623201895098 0 0.034610623201895098 -0.013736992277963544 0 0 0 -0.01414154079922407 -0.015130959175566668 0.045093764841642563 0 0.045093764841642563 -0.0050462532072201027 0 0 0 -0.0050443030956966936 0.032550326234341245 0.015369409000221872 0 0.015369409000221872 -0.018609903669289163 0 0 0 0.0034851056412630033 -0.010080601364330755 0.039546413211301285 0 0.039546413211301285 -0.029444903307291881 0 0 0 -0.0098813761679056589 0.011435548214972183 0.020969075931411459 0 0.020969075931411459 0.01093898407049862 0 0 0 0.005593633071367711 0.016378748821843314 0.015653915681820396 0 0.015653915681820396 -0.010001323914107546 0 0 0 0.0015943562269339351 0.011672514620807149 0.012961748323576244 0 0.012961748323576244 -0.024765482719562214 0 0 0 -0.0032732420246887623 0.0083280451801677757 0.016457800472203445 0 0.016457800472203445 -0.047670404395065979 0 0 0 -0.0098355898037245648 -0.0020810498673742017 0.019478560745532253 0 0.019478560745532253 -0.094193064028234075 0 0 0 -0.02406852847390209 -0.00057338420317437633 0.043840426104353909 0 0.043840426104353909 -0.0362255861677373 0 0 0 -0.0091997425927279053 -0.0066023361848724649 -0.0011346444162969593 0 -0.0011346444162969593 -0.18101048405185116 0 0 0 -0.046903205059180858 0.031354848096900145 0.034430234269455545 0 0.034430234269455545 -0.088436177784534054 0 0 0 -0.014270332421908449 -0.032933330486438872 0.065244919874535567 0 0.065244919874535567 -0.30893350511313011 0 0 0 -0.085466708899892274 0.017744734234200976 0.10463671130236918 0 0.10463671130236918 -0.080571668467293023 0 0 0 -0.015706733558273012 -0.01807219723780229 0.062271952352317209 0 0.062271952352317209 -0.097110470716042285 0 0 0 -0.028795666988461088 -0.011647160920091881 0.048361404381067508 0 0.048361404381067508 -0.084222251087183064 0 0 0 -0.023967353001818681 -0.012149213851899043 0.048304469064086336 0 0.048304469064086336 -0.06751029463747954 0 0 0 -0.019914877122344632 -0.011779862926701426 0.048934424078713012 0 0.048934424078713012 -0.017399315710296681 0 0 0 -0.0072947946592495233 -0.016135799733031087 0.054290176496196725 0 0.054290176496196725 -0.039483172405968325 0 0 0 -0.013904743034749839 -0.017211922172935858 0.05300232211890131 0 0.05300232211890131 -0.039797190300031669 0 0 0 -0.014252278118241877 -0.0056542470489488929 0.042686969448437195 0 0.042686969448437195 -0.015468763423598821 0 0 0 -0.0052807526181369285 -0.017221704857255021 0.048032802870006289 0 0.048032802870006289 -0.043996659531592708 0 0 0 -0.015304591097211967 
</DataArray>
</CellData>
</Piece>
</UnstructuredGrid>
</VTKFile>
