<?xml version="1.0"?>
<VTKFile type="UnstructuredGrid" version="0.1" byte_order="LittleEndian">
<UnstructuredGrid>
<Piece NumberOfPoints="880" NumberOfCells="299">
<Points>
<DataArray type="Float64" NumberOfComponents="3" format="ascii">
-0 0 0 0.18653882694645291 0.22249173546702489 0 0 0.25000000000104189 0 -0 0 0 0.18653882694645291 0.22249173546702489 0 0.24999999999941089 0 0 0.24999999999941089 0 0 0.35015135319464608 0.1900339269648805 0 0.49999999999869182 0 0 0.18653882694645291 0.22249173546702489 0 0.24999999999941089 0 0 0.35015135319464608 0.1900339269648805 0 0.35015135319464608 0.1900339269648805 0 0.49924741621175961 0.21507969613896921 0 0.49999999999869182 0 0 0.35015135319464608 0.1900339269648805 0 0.49924741621175961 0.21507969613896921 0 0.40587285776242238 0.32419148732968017 0 0.37764981543668408 0.41341486499350411 0 0.41576443813007791 0.48093483781626972 0 0.45418244162583959 0.41624787166862259 0 0.37764981543668408 0.41341486499350411 0 0.45418244162583959 0.41624787166862259 0 0.40587285776242238 0.32419148732968017 0 0.41576443813007791 0.48093483781626972 0 0.46566719828045178 0.47702825415921918 0 0.45418244162583959 0.41624787166862259 0 0.41576443813007791 0.48093483781626972 0 0.46566719828045178 0.47702825415921918 0 0.4638583922372429 0.51470588235294135 0 0.46566719828045178 0.47702825415921918 0 0.49954900152271581 0.45107191084564019 0 0.5 0.5 0 0.46566719828045178 0.47702825415921918 0 0.4638583922372429 0.51470588235294135 0 0.5 0.5 0 0.46566719828045178 0.47702825415921918 0 0.49954900152271581 0.45107191084564019 0 0.45418244162583959 0.41624787166862259 0 0.45418244162583959 0.41624787166862259 0 0.49435464945626773 0.33318442629318029 0 0.54876010062294855 0.39662628167175101 0 0.45418244162583959 0.41624787166862259 0 0.49435464945626773 0.33318442629318029 0 0.40587285776242238 0.32419148732968017 0 0.49924741621175961 0.21507969613896921 0 0.49435464945626773 0.33318442629318029 0 0.40587285776242238 0.32419148732968017 0 0.35015135319464608 0.1900339269648805 0 0.40587285776242238 0.32419148732968017 0 0.29145599617909779 0.35026601625021492 0 0.37764981543668408 0.41341486499350411 0 0.40587285776242238 0.32419148732968017 0 0.29145599617909779 0.35026601625021492 0 0.18653882694645291 0.22249173546702489 0 0.35015135319464608 0.1900339269648805 0 0.29145599617909779 0.35026601625021492 0 0.29145599617909779 0.35026601625021492 0 0.32540781287085369 0.49175159894608172 0 0.17872124008781709 0.39692711089439497 0 0.37764981543668408 0.41341486499350411 0 0.29145599617909779 0.35026601625021492 0 0.32540781287085369 0.49175159894608172 0 0.37764981543668408 0.41341486499350411 0 0.41576443813007791 0.48093483781626972 0 0.32540781287085369 0.49175159894608172 0 0.17872124008781709 0.39692711089439497 0 0 0.25000000000104189 0 0 0.50000000000206157 0 0.17872124008781709 0.39692711089439497 0 0 0.50000000000206157 0 0.22453074737734591 0.51613635929252633 0 0.32540781287085369 0.49175159894608172 0 0.17872124008781709 0.39692711089439497 0 0.22453074737734591 0.51613635929252633 0 0.18653882694645291 0.22249173546702489 0 0.29145599617909779 0.35026601625021492 0 0.17872124008781709 0.39692711089439497 0 0.18653882694645291 0.22249173546702489 0 0.17872124008781709 0.39692711089439497 0 0 0.25000000000104189 0 0 0.50000000000206157 0 0.18442368612951149 0.62734948407416979 0 0 0.75000000000034772 0 0.18442368612951149 0.62734948407416979 0 0.22727208279115291 0.72949159435386135 0 0 0.75000000000034772 0 0.18442368612951149 0.62734948407416979 0 0.22727208279115291 0.72949159435386135 0 0.31346558946927339 0.67110784456164874 0 0.18442368612951149 0.62734948407416979 0 0.22453074737734591 0.51613635929252633 0 0.31771010312359771 0.58585679504088894 0 0 0.50000000000206157 0 0.18442368612951149 0.62734948407416979 0 0.22453074737734591 0.51613635929252633 0 0 1 0 0.096516139048187316 0.89789944498939644 0 0 0.75000000000034772 0 0 1 0 0.096516139048187316 0.89789944498939644 0 0.1596341872805197 1 0 0.096516139048187316 0.89789944498939644 0 0 0.75000000000034772 0 0.1644705180525495 0.8200994301041713 0 0.1644705180525495 0.8200994301041713 0 0.2386314078659193 0.92924778694987087 0 0.27155609766735261 0.80398965554903801 0 0.22727208279115291 0.72949159435386135 0 0 0.75000000000034772 0 0.1644705180525495 0.8200994301041713 0 0.22727208279115291 0.72949159435386135 0 0.1644705180525495 0.8200994301041713 0 0.27155609766735261 0.80398965554903801 0 0.096516139048187316 0.89789944498939644 0 0.1644705180525495 0.8200994301041713 0 0.2386314078659193 0.92924778694987087 0 0.096516139048187316 0.89789944498939644 0 0.2386314078659193 0.92924778694987087 0 0.1596341872805197 1 0 0.2386314078659193 0.92924778694987087 0 0.1596341872805197 1 0 0.27591592301363282 1 0 0.36061858902161292 1 0 0.32789203369730929 0.94219211037003092 0 0.27591592301363282 1 0 0.36061858902161292 1 0 0.32789203369730929 0.94219211037003092 0 0.39382242252278338 0.95440420122950598 0 0.2386314078659193 0.92924778694987087 0 0.32789203369730929 0.94219211037003092 0 0.27591592301363282 1 0 0.2386314078659193 0.92924778694987087 0 0.32789203369730929 0.94219211037003092 0 0.31834856208730472 0.88134829947972904 0 0.32789203369730929 0.94219211037003092 0 0.37746652222901839 0.8987532801416368 0 0.39382242252278338 0.95440420122950598 0 0.32789203369730929 0.94219211037003092 0 0.31834856208730472 0.88134829947972904 0 0.37746652222901839 0.8987532801416368 0 0.2386314078659193 0.92924778694987087 0 0.31834856208730472 0.88134829947972904 0 0.27155609766735261 0.80398965554903801 0 0.31834856208730472 0.88134829947972904 0 0.36493375430404612 0.82333914183704071 0 0.37746652222901839 0.8987532801416368 0 0.31834856208730472 0.88134829947972904 0 0.36493375430404612 0.82333914183704071 0 0.27155609766735261 0.80398965554903801 0 0.22727208279115291 0.72949159435386135 0 0.27155609766735261 0.80398965554903801 0 0.32984265945580837 0.74432890077789404 0 0.36493375430404612 0.82333914183704071 0 0.27155609766735261 0.80398965554903801 0 0.32984265945580837 0.74432890077789404 0 0.36493375430404612 0.82333914183704071 0 0.39746869305290999 0.7595658224757349 0 0.32984265945580837 0.74432890077789404 0 0.36493375430404612 0.82333914183704071 0 0.39746869305290999 0.7595658224757349 0 0.42893012659725649 0.81084715169569632 0 0.39746869305290999 0.7595658224757349 0 0.42893012659725649 0.81084715169569632 0 0.44651949253391748 0.77225997208621999 0 0.39746869305290999 0.7595658224757349 0 0.44651949253391748 0.77225997208621999 0 0.43412357948152142 0.72128778687215156 0 0.44651949253391748 0.77225997208621999 0 0.47786860714145291 0.77730227330627721 0 0.47220206448452873 0.74892462649306213 0 0.47786860714145291 0.77730227330627721 0 0.47220206448452873 0.74892462649306213 0 0.5 0.76470588235294124 0 0.47786860714145291 0.77730227330627721 0 0.5 0.79411764705882359 0 0.5 0.76470588235294124 0 0.47062147868881782 0.80650323854033878 0 0.5 0.82352941176470584 0 0.5 0.79411764705882359 0 0.47786860714145291 0.77730227330627721 0 0.47062147868881782 0.80650323854033878 0 0.5 0.79411764705882359 0 0.44651949253391748 0.77225997208621999 0 0.47786860714145291 0.77730227330627721 0 0.47062147868881782 0.80650323854033878 0 0.42893012659725649 0.81084715169569632 0 0.44651949253391748 0.77225997208621999 0 0.47062147868881782 0.80650323854033878 0 0.42893012659725649 0.81084715169569632 0 0.47062147868881782 0.80650323854033878 0 0.46181179062043481 0.83858979842637782 0 0.42893012659725649 0.81084715169569632 0 0.46181179062043481 0.83858979842637782 0 0.42880856207355889 0.86677159981903118 0 0.46181179062043481 0.83858979842637782 0 0.5 0.85294117647058831 0 0.5 0.82352941176470584 0 0.47062147868881782 0.80650323854033878 0 0.46181179062043481 0.83858979842637782 0 0.5 0.82352941176470584 0 0.46181179062043481 0.83858979842637782 0 0.47032448519202857 0.86718057681700655 0 0.5 0.85294117647058831 0 0.47032448519202857 0.86718057681700655 0 0.5 0.88235294117647056 0 0.5 0.85294117647058831 0 0.46181179062043481 0.83858979842637782 0 0.47032448519202857 0.86718057681700655 0 0.42880856207355889 0.86677159981903118 0 0.36493375430404612 0.82333914183704071 0 0.42880856207355889 0.86677159981903118 0 0.37746652222901839 0.8987532801416368 0 0.36493375430404612 0.82333914183704071 0 0.42893012659725649 0.81084715169569632 0 0.42880856207355889 0.86677159981903118 0 0.37746652222901839 0.8987532801416368 0 0.42822627495986648 0.92083108049218854 0 0.39382242252278338 0.95440420122950598 0 0.42880856207355889 0.86677159981903118 0 0.37746652222901839 0.8987532801416368 0 0.42822627495986648 0.92083108049218854 0 0.47032448519202857 0.86718057681700655 0 0.42880856207355889 0.86677159981903118 0 0.46100207326614928 0.89524736819256467 0 0.42880856207355889 0.86677159981903118 0 0.42822627495986648 0.92083108049218854 0 0.46100207326614928 0.89524736819256467 0 0.47032448519202857 0.86718057681700655 0 0.46100207326614928 0.89524736819256467 0 0.5 0.88235294117647056 0 0.46100207326614928 0.89524736819256467 0 0.5 0.91176470588235292 0 0.5 0.88235294117647056 0 0.46100207326614928 0.89524736819256467 0 0.46949408183482899 0.92833826413560594 0 0.5 0.91176470588235292 0 0.46949408183482899 0.92833826413560594 0 0.5 0.94117647058823528 0 0.5 0.91176470588235292 0 0.42822627495986648 0.92083108049218854 0 0.46100207326614928 0.89524736819256467 0 0.46949408183482899 0.92833826413560594 0 0.46949408183482899 0.92833826413560594 0 0.44768478605684647 0.9646709673379662 0 0.47596308696979028 0.95620709615192379 0 0.42822627495986648 0.92083108049218854 0 0.46949408183482899 0.92833826413560594 0 0.44768478605684647 0.9646709673379662 0 0.44768478605684647 0.9646709673379662 0 0.47596308696979028 0.95620709615192379 0 0.47818194888216242 0.97829325975680159 0 0.46949408183482899 0.92833826413560594 0 0.47596308696979028 0.95620709615192379 0 0.5 0.94117647058823528 0 0.47596308696979028 0.95620709615192379 0 0.47818194888216242 0.97829325975680159 0 0.5 0.97058823529411764 0 0.47596308696979028 0.95620709615192379 0 0.5 0.97058823529411764 0 0.5 0.94117647058823528 0 0.47818194888216242 0.97829325975680159 0 0.46726187138417491 1 0 0.5 1 0 0.47818194888216242 0.97829325975680159 0 0.5 0.97058823529411764 0 0.5 1 0 0.44768478605684647 0.9646709673379662 0 0.47818194888216242 0.97829325975680159 0 0.46726187138417491 1 0 0.44768478605684647 0.9646709673379662 0 0.46726187138417491 1 0 0.42231823435723009 1 0 0.44768478605684647 0.9646709673379662 0 0.42231823435723009 1 0 0.39382242252278338 0.95440420122950598 0 0.42822627495986648 0.92083108049218854 0 0.44768478605684647 0.9646709673379662 0 0.39382242252278338 0.95440420122950598 0 0.36061858902161292 1 0 0.42231823435723009 1 0 0.39382242252278338 0.95440420122950598 0 0.31771010312359771 0.58585679504088894 0 0.3872154068451229 0.6301386882447304 0 0.41980724897053312 0.55867199730355355 0 0.32540781287085369 0.49175159894608172 0 0.31771010312359771 0.58585679504088894 0 0.41980724897053312 0.55867199730355355 0 0.32540781287085369 0.49175159894608172 0 0.22453074737734591 0.51613635929252633 0 0.31771010312359771 0.58585679504088894 0 0.18442368612951149 0.62734948407416979 0 0.31771010312359771 0.58585679504088894 0 0.31346558946927339 0.67110784456164874 0 0.22727208279115291 0.72949159435386135 0 0.32984265945580837 0.74432890077789404 0 0.31346558946927339 0.67110784456164874 0 0.39746869305290999 0.7595658224757349 0 0.32984265945580837 0.74432890077789404 0 0.38513711431054509 0.69312683393047636 0 0.32984265945580837 0.74432890077789404 0 0.31346558946927339 0.67110784456164874 0 0.38513711431054509 0.69312683393047636 0 0.31771010312359771 0.58585679504088894 0 0.31346558946927339 0.67110784456164874 0 0.3872154068451229 0.6301386882447304 0 0.31346558946927339 0.67110784456164874 0 0.3872154068451229 0.6301386882447304 0 0.38513711431054509 0.69312683393047636 0 0.3872154068451229 0.6301386882447304 0 0.38513711431054509 0.69312683393047636 0 0.4390556798454946 0.66199025953586599 0 0.3872154068451229 0.6301386882447304 0 0.4390556798454946 0.66199025953586599 0 0.44702869549010399 0.61002701911053991 0 0.39746869305290999 0.7595658224757349 0 0.38513711431054509 0.69312683393047636 0 0.43412357948152142 0.72128778687215156 0 0.38513711431054509 0.69312683393047636 0 0.43412357948152142 0.72128778687215156 0 0.4390556798454946 0.66199025953586599 0 0.43412357948152142 0.72128778687215156 0 0.47636314644728822 0.72058823529411908 0 0.47220206448452873 0.74892462649306213 0 0.44651949253391748 0.77225997208621999 0 0.43412357948152142 0.72128778687215156 0 0.47220206448452873 0.74892462649306213 0 0.43412357948152142 0.72128778687215156 0 0.46330219403010409 0.69594601192744354 0 0.4390556798454946 0.66199025953586599 0 0.43412357948152142 0.72128778687215156 0 0.46330219403010409 0.69594601192744354 0 0.47636314644728822 0.72058823529411908 0 0.46330219403010409 0.69594601192744354 0 0.47636314644728822 0.72058823529411908 0 0.5 0.70588235294117663 0 0.46330219403010409 0.69594601192744354 0 0.5 0.67647058823529438 0 0.5 0.70588235294117663 0 0.47636314644728822 0.72058823529411908 0 0.5 0.73529411764705888 0 0.5 0.70588235294117663 0 0.47220206448452873 0.74892462649306213 0 0.5 0.73529411764705888 0 0.5 0.76470588235294124 0 0.47636314644728822 0.72058823529411908 0 0.47220206448452873 0.74892462649306213 0 0.5 0.73529411764705888 0 0.4390556798454946 0.66199025953586599 0 0.47501372853621993 0.66300743809067952 0 0.47271076880550111 0.63357150722538136 0 0.4390556798454946 0.66199025953586599 0 0.47271076880550111 0.63357150722538136 0 0.44702869549010399 0.61002701911053991 0 0.46330219403010409 0.69594601192744354 0 0.4390556798454946 0.66199025953586599 0 0.47501372853621993 0.66300743809067952 0 0.46330219403010409 0.69594601192744354 0 0.47501372853621993 0.66300743809067952 0 0.5 0.67647058823529438 0 0.47501372853621993 0.66300743809067952 0 0.5 0.64705882352941191 0 0.5 0.67647058823529438 0 0.47501372853621993 0.66300743809067952 0 0.47271076880550111 0.63357150722538136 0 0.5 0.64705882352941191 0 0.47271076880550111 0.63357150722538136 0 0.5 0.61764705882352966 0 0.5 0.64705882352941191 0 0.47784843225772261 0.60532339797118362 0 0.5 0.5882352941176473 0 0.5 0.61764705882352966 0 0.47271076880550111 0.63357150722538136 0 0.47784843225772261 0.60532339797118362 0 0.5 0.61764705882352966 0 0.46950269699300751 0.57713611057881953 0 0.5 0.55882352941176494 0 0.5 0.5882352941176473 0 0.47784843225772261 0.60532339797118362 0 0.46950269699300751 0.57713611057881953 0 0.5 0.5882352941176473 0 0.46950269699300751 0.57713611057881953 0 0.44702869549010399 0.61002701911053991 0 0.41980724897053312 0.55867199730355355 0 0.47784843225772261 0.60532339797118362 0 0.46950269699300751 0.57713611057881953 0 0.44702869549010399 0.61002701911053991 0 0.47271076880550111 0.63357150722538136 0 0.47784843225772261 0.60532339797118362 0 0.44702869549010399 0.61002701911053991 0 0.3872154068451229 0.6301386882447304 0 0.44702869549010399 0.61002701911053991 0 0.41980724897053312 0.55867199730355355 0 0.41576443813007791 0.48093483781626972 0 0.32540781287085369 0.49175159894608172 0 0.41980724897053312 0.55867199730355355 0 0.41576443813007791 0.48093483781626972 0 0.41980724897053312 0.55867199730355355 0 0.4638583922372429 0.51470588235294135 0 0.41980724897053312 0.55867199730355355 0 0.4638583922372429 0.51470588235294135 0 0.47063366764015668 0.5477498568705923 0 0.46950269699300751 0.57713611057881953 0 0.41980724897053312 0.55867199730355355 0 0.47063366764015668 0.5477498568705923 0 0.46950269699300751 0.57713611057881953 0 0.47063366764015668 0.5477498568705923 0 0.5 0.55882352941176494 0 0.47063366764015668 0.5477498568705923 0 0.5 0.52941176470588269 0 0.5 0.55882352941176494 0 0.4638583922372429 0.51470588235294135 0 0.47063366764015668 0.5477498568705923 0 0.5 0.52941176470588269 0 0.4638583922372429 0.51470588235294135 0 0.5 0.5 0 0.5 0.52941176470588269 0 0.5 0.52941176470588269 0 0.52629893369322589 0.51330452493555312 0 0.52820848765230954 0.54540076010342464 0 0.5 0.5 0 0.5 0.52941176470588269 0 0.52629893369322589 0.51330452493555312 0 0.5 0.5 0 0.5 0.52941176470588269 0 0.5 0.52941176470588269 0 0.5 0.55882352941176494 0 0.52820848765230954 0.54540076010342464 0 0.5 0.52941176470588269 0 0.5 0.55882352941176494 0 0.5 0.55882352941176494 0 0.52820848765230954 0.54540076010342464 0 0.52246722155046366 0.57417151085839346 0 0.52820848765230954 0.54540076010342464 0 0.56199650931215228 0.51957997397013023 0 0.55931585964581554 0.57571189932143541 0 0.52629893369322589 0.51330452493555312 0 0.56199650931215228 0.51957997397013023 0 0.54128967150166729 0.47213012589832831 0 0.52629893369322589 0.51330452493555312 0 0.52820848765230954 0.54540076010342464 0 0.56199650931215228 0.51957997397013023 0 0.56199650931215228 0.51957997397013023 0 0.61174067805461174 0.54148194547208961 0 0.60345082206666756 0.47575908627627911 0 0.56199650931215228 0.51957997397013023 0 0.61174067805461174 0.54148194547208961 0 0.55931585964581554 0.57571189932143541 0 0.61174067805461174 0.54148194547208961 0 0.61264973759093866 0.60999664295093947 0 0.55931585964581554 0.57571189932143541 0 0.61264973759093866 0.60999664295093947 0 0.55931585964581554 0.57571189932143541 0 0.55828304378107996 0.63546085023637511 0 0.55931585964581554 0.57571189932143541 0 0.52754891270107895 0.60396918438229519 0 0.55828304378107996 0.63546085023637511 0 0.52754891270107895 0.60396918438229519 0 0.52222323737415433 0.63323059203007803 0 0.55828304378107996 0.63546085023637511 0 0.52820848765230954 0.54540076010342464 0 0.55931585964581554 0.57571189932143541 0 0.52246722155046366 0.57417151085839346 0 0.55931585964581554 0.57571189932143541 0 0.52246722155046366 0.57417151085839346 0 0.52754891270107895 0.60396918438229519 0 0.52246722155046366 0.57417151085839346 0 0.5 0.5882352941176473 0 0.52754891270107895 0.60396918438229519 0 0.5 0.55882352941176494 0 0.52246722155046366 0.57417151085839346 0 0.5 0.5882352941176473 0 0.5 0.55882352941176494 0 0.5 0.5882352941176473 0 0.52754891270107895 0.60396918438229519 0 0.5 0.61764705882352966 0 0.52222323737415433 0.63323059203007803 0 0.5 0.5882352941176473 0 0.5 0.61764705882352966 0 0.5 0.5882352941176473 0 0.52754891270107895 0.60396918438229519 0 0.5 0.61764705882352966 0 0.5 0.61764705882352966 0 0.52222323737415433 0.63323059203007803 0 0.5 0.64705882352941191 0 0.5 0.61764705882352966 0 0.5 0.64705882352941191 0 0.52222323737415433 0.63323059203007803 0 0.5 0.64705882352941191 0 0.52736180768426655 0.66304505109048573 0 0.5 0.64705882352941191 0 0.5 0.67647058823529438 0 0.52736180768426655 0.66304505109048573 0 0.5 0.64705882352941191 0 0.5 0.67647058823529438 0 0.5 0.67647058823529438 0 0.52736180768426655 0.66304505109048573 0 0.52189318962165776 0.69193883095305098 0 0.52736180768426655 0.66304505109048573 0 0.52189318962165776 0.69193883095305098 0 0.55852327729743823 0.69498827241231187 0 0.52736180768426655 0.66304505109048573 0 0.55828304378107996 0.63546085023637511 0 0.55852327729743823 0.69498827241231187 0 0.52222323737415433 0.63323059203007803 0 0.52736180768426655 0.66304505109048573 0 0.55828304378107996 0.63546085023637511 0 0.5 0.73529411764705888 0 0.52547133540542634 0.72058823529411897 0 0.5211984712236245 0.75134107022269114 0 0.5 0.73529411764705888 0 0.52547133540542634 0.72058823529411897 0 0.5 0.70588235294117663 0 0.5 0.73529411764705888 0 0.5 0.70588235294117663 0 0.52547133540542634 0.72058823529411897 0 0.5 0.70588235294117663 0 0.52189318962165776 0.69193883095305098 0 0.5 0.67647058823529438 0 0.5 0.70588235294117663 0 0.52189318962165776 0.69193883095305098 0 0.5 0.67647058823529438 0 0.5 0.70588235294117663 0 0.52547133540542634 0.72058823529411897 0 0.52189318962165776 0.69193883095305098 0 0.55852327729743823 0.69498827241231187 0 0.52547133540542634 0.72058823529411897 0 0.5211984712236245 0.75134107022269114 0 0.55458114032207428 0.75544804615062711 0 0.52547133540542634 0.72058823529411897 0 0.55852327729743823 0.69498827241231187 0 0.55458114032207428 0.75544804615062711 0 0.55852327729743823 0.69498827241231187 0 0.6088970477846376 0.72715446211577472 0 0.55458114032207428 0.75544804615062711 0 0.55852327729743823 0.69498827241231187 0 0.6088970477846376 0.72715446211577472 0 0.60110770968787908 0.67045598539422102 0 0.61264973759093866 0.60999664295093947 0 0.55828304378107996 0.63546085023637511 0 0.60110770968787908 0.67045598539422102 0 0.55828304378107996 0.63546085023637511 0 0.55852327729743823 0.69498827241231187 0 0.60110770968787908 0.67045598539422102 0 0.61264973759093866 0.60999664295093947 0 0.60110770968787908 0.67045598539422102 0 0.66621429167335955 0.68470300534742679 0 0.6088970477846376 0.72715446211577472 0 0.66621429167335955 0.68470300534742679 0 0.6817340940367822 0.76923101696744944 0 0.6088970477846376 0.72715446211577472 0 0.60110770968787908 0.67045598539422102 0 0.66621429167335955 0.68470300534742679 0 0.66621429167335955 0.68470300534742679 0 0.6817340940367822 0.76923101696744944 0 0.7828103453665094 0.69876044407634474 0 0.66621429167335955 0.68470300534742679 0 0.69354174170208815 0.57892485983477626 0 0.7828103453665094 0.69876044407634474 0 0.69354174170208815 0.57892485983477626 0 0.77935529174931761 0.49004815756283893 0 0.66681557370681976 0.49435464945626773 0 0.61174067805461174 0.54148194547208961 0 0.69354174170208815 0.57892485983477626 0 0.66681557370681976 0.49435464945626773 0 0.61174067805461174 0.54148194547208961 0 0.60345082206666756 0.47575908627627911 0 0.66681557370681976 0.49435464945626773 0 0.61174067805461174 0.54148194547208961 0 0.61264973759093866 0.60999664295093947 0 0.69354174170208815 0.57892485983477626 0 0.61264973759093866 0.60999664295093947 0 0.66621429167335955 0.68470300534742679 0 0.69354174170208815 0.57892485983477626 0 0.60145933092659498 0.94808652648958736 0 0.57768176564240026 1 0 0.63938141097836054 1 0 0.60145933092659498 0.94808652648958736 0 0.55381003699196441 0.97073734537240042 0 0.55652711631508067 0.93435010280744335 0 0.60145933092659498 0.94808652648958736 0 0.57768176564240026 1 0 0.55381003699196441 0.97073734537240042 0 0.57768176564240026 1 0 0.53273812861558045 1 0 0.55381003699196441 0.97073734537240042 0 0.53273812861558045 1 0 0.55381003699196441 0.97073734537240042 0 0.52191028766292435 0.97912620202886635 0 0.53273812861558045 1 0 0.52191028766292435 0.97912620202886635 0 0.5 1 0 0.52191028766292435 0.97912620202886635 0 0.5 0.97058823529411764 0 0.5 1 0 0.5 0.97058823529411764 0 0.5 1 0 0.5 0.97058823529411764 0 0.5 0.94117647058823528 0 0.5 0.97058823529411764 0 0.5 0.94117647058823528 0 0.52554900427979434 0.95492408164812537 0 0.52191028766292435 0.97912620202886635 0 0.5 0.97058823529411764 0 0.52554900427979434 0.95492408164812537 0 0.5 0.94117647058823528 0 0.52554900427979434 0.95492408164812537 0 0.52149395742518578 0.9280464911497236 0 0.55381003699196441 0.97073734537240042 0 0.52554900427979434 0.95492408164812537 0 0.55652711631508067 0.93435010280744335 0 0.55381003699196441 0.97073734537240042 0 0.52191028766292435 0.97912620202886635 0 0.52554900427979434 0.95492408164812537 0 0.52554900427979434 0.95492408164812537 0 0.55652711631508067 0.93435010280744335 0 0.52149395742518578 0.9280464911497236 0 0.55652711631508067 0.93435010280744335 0 0.52982914238326484 0.89727189043838895 0 0.57507719038536997 0.89743529736491356 0 0.55652711631508067 0.93435010280744335 0 0.52149395742518578 0.9280464911497236 0 0.52982914238326484 0.89727189043838895 0 0.52149395742518578 0.9280464911497236 0 0.5 0.91176470588235292 0 0.52982914238326484 0.89727189043838895 0 0.5 0.94117647058823528 0 0.5 0.91176470588235292 0 0.5 0.94117647058823528 0 0.52149395742518578 0.9280464911497236 0 0.5 0.91176470588235292 0 0.5 0.91176470588235292 0 0.5 0.88235294117647056 0 0.52982914238326484 0.89727189043838895 0 0.5 0.91176470588235292 0 0.5 0.88235294117647056 0 0.5 0.88235294117647056 0 0.52982914238326484 0.89727189043838895 0 0.51991574276818808 0.86764705882352966 0 0.52982914238326484 0.89727189043838895 0 0.57507719038536997 0.89743529736491356 0 0.54799184932697576 0.8599032232094268 0 0.60145933092659498 0.94808652648958736 0 0.55652711631508067 0.93435010280744335 0 0.57507719038536997 0.89743529736491356 0 0.60145933092659498 0.94808652648958736 0 0.57507719038536997 0.89743529736491356 0 0.63427031498547037 0.88927276979110648 0 0.57507719038536997 0.89743529736491356 0 0.58994607995897996 0.84812355238296233 0 0.63427031498547037 0.88927276979110648 0 0.58994607995897996 0.84812355238296233 0 0.64153141236229239 0.83072478436463804 0 0.63427031498547037 0.88927276979110648 0 0.58994607995897996 0.84812355238296233 0 0.60049020024666178 0.78900583008989877 0 0.64153141236229239 0.83072478436463804 0 0.58994607995897996 0.84812355238296233 0 0.54799184932697576 0.8599032232094268 0 0.55206941203846505 0.81091931303809783 0 0.58994607995897996 0.84812355238296233 0 0.55206941203846505 0.81091931303809783 0 0.60049020024666178 0.78900583008989877 0 0.57507719038536997 0.89743529736491356 0 0.58994607995897996 0.84812355238296233 0 0.54799184932697576 0.8599032232094268 0 0.52982914238326484 0.89727189043838895 0 0.54799184932697576 0.8599032232094268 0 0.51991574276818808 0.86764705882352966 0 0.54799184932697576 0.8599032232094268 0 0.51991574276818808 0.86764705882352966 0 0.52395085592512047 0.83729395211968571 0 0.51991574276818808 0.86764705882352966 0 0.5 0.85294117647058831 0 0.52395085592512047 0.83729395211968571 0 0.5 0.88235294117647056 0 0.5 0.85294117647058831 0 0.5 0.88235294117647056 0 0.51991574276818808 0.86764705882352966 0 0.5 0.85294117647058831 0 0.5 0.82352941176470584 0 0.52395085592512047 0.83729395211968571 0 0.52039202967084142 0.80930587873000437 0 0.5 0.85294117647058831 0 0.5 0.82352941176470584 0 0.5 0.85294117647058831 0 0.5 0.82352941176470584 0 0.52395085592512047 0.83729395211968571 0 0.52395085592512047 0.83729395211968571 0 0.55206941203846505 0.81091931303809783 0 0.52039202967084142 0.80930587873000437 0 0.54799184932697576 0.8599032232094268 0 0.52395085592512047 0.83729395211968571 0 0.55206941203846505 0.81091931303809783 0 0.55206941203846505 0.81091931303809783 0 0.52039202967084142 0.80930587873000437 0 0.52593988039062167 0.78066906966870908 0 0.55206941203846505 0.81091931303809783 0 0.52593988039062167 0.78066906966870908 0 0.55458114032207428 0.75544804615062711 0 0.52039202967084142 0.80930587873000437 0 0.5 0.79411764705882359 0 0.52593988039062167 0.78066906966870908 0 0.5 0.82352941176470584 0 0.5 0.79411764705882359 0 0.5 0.82352941176470584 0 0.52039202967084142 0.80930587873000437 0 0.5 0.79411764705882359 0 0.5 0.73529411764705888 0 0.5 0.76470588235294124 0 0.5 0.73529411764705888 0 0.5 0.76470588235294124 0 0.5211984712236245 0.75134107022269114 0 0.5 0.79411764705882359 0 0.5 0.76470588235294124 0 0.52593988039062167 0.78066906966870908 0 0.5 0.79411764705882359 0 0.5 0.76470588235294124 0 0.5 0.76470588235294124 0 0.52593988039062167 0.78066906966870908 0 0.5211984712236245 0.75134107022269114 0 0.52593988039062167 0.78066906966870908 0 0.5211984712236245 0.75134107022269114 0 0.55458114032207428 0.75544804615062711 0 0.6088970477846376 0.72715446211577472 0 0.55458114032207428 0.75544804615062711 0 0.60049020024666178 0.78900583008989877 0 0.55206941203846505 0.81091931303809783 0 0.55458114032207428 0.75544804615062711 0 0.60049020024666178 0.78900583008989877 0 0.6817340940367822 0.76923101696744944 0 0.70916369539323409 0.86041409043207073 0 0.80987878298654392 0.8110307373443908 0 0.6088970477846376 0.72715446211577472 0 0.60049020024666178 0.78900583008989877 0 0.6817340940367822 0.76923101696744944 0 0.60049020024666178 0.78900583008989877 0 0.6817340940367822 0.76923101696744944 0 0.64153141236229239 0.83072478436463804 0 0.70916369539323409 0.86041409043207073 0 0.64153141236229239 0.83072478436463804 0 0.63427031498547037 0.88927276979110648 0 0.6817340940367822 0.76923101696744944 0 0.70916369539323409 0.86041409043207073 0 0.64153141236229239 0.83072478436463804 0 0.70916369539323409 0.86041409043207073 0 0.68173274398262862 0.93660593960145366 0 0.63427031498547037 0.88927276979110648 0 0.60145933092659498 0.94808652648958736 0 0.68173274398262862 0.93660593960145366 0 0.63427031498547037 0.88927276979110648 0 0.70916369539323409 0.86041409043207073 0 0.68173274398262862 0.93660593960145366 0 0.78222494485339233 0.91531439423588867 0 0.68173274398262862 0.93660593960145366 0 0.72408407698689681 1 0 0.78222494485339233 0.91531439423588867 0 0.60145933092659498 0.94808652648958736 0 0.68173274398262862 0.93660593960145366 0 0.63938141097836054 1 0 0.68173274398262862 0.93660593960145366 0 0.72408407698689681 1 0 0.63938141097836054 1 0 1 1 0 0.89611933618281592 0.89173516444576184 0 1 0.74999999999934008 0 0.72408407698689681 1 0 0.84036581271988753 1 0 0.78222494485339233 0.91531439423588867 0 0.84036581271988753 1 0 0.78222494485339233 0.91531439423588867 0 0.89611933618281592 0.89173516444576184 0 0.6817340940367822 0.76923101696744944 0 0.80987878298654392 0.8110307373443908 0 0.7828103453665094 0.69876044407634474 0 0.80987878298654392 0.8110307373443908 0 0.7828103453665094 0.69876044407634474 0 1 0.74999999999934008 0 0.78222494485339233 0.91531439423588867 0 0.80987878298654392 0.8110307373443908 0 0.89611933618281592 0.89173516444576184 0 0.70916369539323409 0.86041409043207073 0 0.78222494485339233 0.91531439423588867 0 0.80987878298654392 0.8110307373443908 0 0.80987878298654392 0.8110307373443908 0 0.89611933618281592 0.89173516444576184 0 1 0.74999999999934008 0 0.84036581271988753 1 0 1 1 0 0.89611933618281592 0.89173516444576184 0 0.84549316180028322 0.59867304496468476 0 1 0.74999999999934008 0 1 0.49999999999869182 0 0.69354174170208815 0.57892485983477626 0 0.84549316180028322 0.59867304496468476 0 0.77935529174931761 0.49004815756283893 0 0.84549316180028322 0.59867304496468476 0 1 0.49999999999869182 0 0.77935529174931761 0.49004815756283893 0 0.69354174170208815 0.57892485983477626 0 0.84549316180028322 0.59867304496468476 0 0.7828103453665094 0.69876044407634474 0 0.84549316180028322 0.59867304496468476 0 0.7828103453665094 0.69876044407634474 0 1 0.74999999999934008 0 1 0.49999999999869182 0 0.77935529174931761 0.49004815756283893 0 0.80451351819826811 0.35479918680564199 0 0.80451351819826811 0.35479918680564199 0 1 0.24999999999941089 0 0.79923457477009219 0.1751534052300894 0 1 0.49999999999869182 0 0.80451351819826811 0.35479918680564199 0 1 0.24999999999941089 0 1 0 0 0.79923457477009219 0.1751534052300894 0 0.74999999999934008 0 0 1 0.24999999999941089 0 1 0 0 0.79923457477009219 0.1751534052300894 0 0.49999999999869182 0 0 0.62537763927714929 0.14286513648320209 0 0.74999999999934008 0 0 0.79923457477009219 0.1751534052300894 0 0.62537763927714929 0.14286513648320209 0 0.6197279975813802 0.30020319976287241 0 0.79923457477009219 0.1751534052300894 0 0.62537763927714929 0.14286513648320209 0 0.74999999999934008 0 0 0.49924741621175961 0.21507969613896921 0 0.49999999999869182 0 0 0.62537763927714929 0.14286513648320209 0 0.49924741621175961 0.21507969613896921 0 0.62537763927714929 0.14286513648320209 0 0.6197279975813802 0.30020319976287241 0 0.49924741621175961 0.21507969613896921 0 0.49435464945626773 0.33318442629318029 0 0.6197279975813802 0.30020319976287241 0 0.49435464945626773 0.33318442629318029 0 0.6197279975813802 0.30020319976287241 0 0.54876010062294855 0.39662628167175101 0 0.6197279975813802 0.30020319976287241 0 0.54876010062294855 0.39662628167175101 0 0.66576775508844777 0.41353720431697111 0 0.49954900152271581 0.45107191084564019 0 0.45418244162583959 0.41624787166862259 0 0.54876010062294855 0.39662628167175101 0 0.49954900152271581 0.45107191084564019 0 0.54876010062294855 0.39662628167175101 0 0.54128967150166729 0.47213012589832831 0 0.49954900152271581 0.45107191084564019 0 0.5 0.5 0 0.54128967150166729 0.47213012589832831 0 0.5 0.5 0 0.52629893369322589 0.51330452493555312 0 0.54128967150166729 0.47213012589832831 0 0.54876010062294855 0.39662628167175101 0 0.54128967150166729 0.47213012589832831 0 0.60345082206666756 0.47575908627627911 0 0.56199650931215228 0.51957997397013023 0 0.54128967150166729 0.47213012589832831 0 0.60345082206666756 0.47575908627627911 0 0.54876010062294855 0.39662628167175101 0 0.60345082206666756 0.47575908627627911 0 0.66576775508844777 0.41353720431697111 0 0.77935529174931761 0.49004815756283893 0 0.80451351819826811 0.35479918680564199 0 0.66576775508844777 0.41353720431697111 0 0.60345082206666756 0.47575908627627911 0 0.66576775508844777 0.41353720431697111 0 0.66681557370681976 0.49435464945626773 0 0.77935529174931761 0.49004815756283893 0 0.66576775508844777 0.41353720431697111 0 0.66681557370681976 0.49435464945626773 0 0.80451351819826811 0.35479918680564199 0 0.79923457477009219 0.1751534052300894 0 0.6197279975813802 0.30020319976287241 0 0.80451351819826811 0.35479918680564199 0 0.6197279975813802 0.30020319976287241 0 0.66576775508844777 0.41353720431697111 0 
</DataArray>
</Points>
<Cells>
<DataArray type="UInt32" Name="connectivity" format="ascii">
0 1 2 3 4 5 6 7 8 9 10 11 12 13 14 15 16 17 18 19 20 21 22 23 24 25 26 27 28 29 30 31 32 33 34 35 36 37 38 39 40 41 42 43 44 45 46 47 48 49 50 51 52 53 54 55 56 57 58 59 60 61 62 63 64 65 66 67 68 69 70 71 72 73 74 75 76 77 78 79 80 81 82 83 84 85 86 87 88 89 90 91 92 93 94 95 96 97 98 99 100 101 102 103 104 105 106 107 108 109 110 111 112 113 114 115 116 117 118 119 120 121 122 123 124 125 126 127 128 129 130 131 132 133 134 135 136 137 138 139 140 141 142 143 144 145 146 147 148 149 150 151 152 153 154 155 156 157 158 159 160 161 162 163 164 165 166 167 168 169 170 171 172 173 174 175 176 177 178 179 180 181 182 183 184 185 186 187 188 189 190 191 192 193 194 195 196 197 198 199 200 201 202 203 204 205 206 207 208 209 210 211 212 213 214 215 216 217 218 219 220 221 222 223 224 225 226 227 228 229 230 231 232 233 234 235 236 237 238 239 240 241 242 243 244 245 246 247 248 249 250 251 252 253 254 255 256 257 258 259 260 261 262 263 264 265 266 267 268 269 270 271 272 273 274 275 276 277 278 279 280 281 282 283 284 285 286 287 288 289 290 291 292 293 294 295 296 297 298 299 300 301 302 303 304 305 306 307 308 309 310 311 312 313 314 315 316 317 318 319 320 321 322 323 324 325 326 327 328 329 330 331 332 333 334 335 336 337 338 339 340 341 342 343 344 345 346 347 348 349 350 351 352 353 354 355 356 357 358 359 360 361 362 363 364 365 366 367 368 369 370 371 372 373 374 375 376 377 378 379 380 381 382 383 384 385 386 387 388 389 390 391 392 393 394 395 396 397 398 399 400 401 402 403 404 405 406 407 408 409 410 411 412 413 414 415 416 417 418 419 420 421 422 423 424 425 426 427 428 429 430 431 432 433 434 435 436 437 438 439 440 441 442 443 444 445 446 447 448 449 450 451 452 453 454 455 456 457 458 459 460 461 462 463 464 465 466 467 468 469 470 471 472 473 474 475 476 477 478 479 480 481 482 483 484 485 486 487 488 489 490 491 492 493 494 495 496 497 498 499 500 501 502 503 504 505 506 507 508 509 510 511 512 513 514 515 516 517 518 519 520 521 522 523 524 525 526 527 528 529 530 531 532 533 534 535 536 537 538 539 540 541 542 543 544 545 546 547 548 549 550 551 552 553 554 555 556 557 558 559 560 561 562 563 564 565 566 567 568 569 570 571 572 573 574 575 576 577 578 579 580 581 582 583 584 585 586 587 588 589 590 591 592 593 594 595 596 597 598 599 600 601 602 603 604 605 606 607 608 609 610 611 612 613 614 615 616 617 618 619 620 621 622 623 624 625 626 627 628 629 630 631 632 633 634 635 636 637 638 639 640 641 642 643 644 645 646 647 648 649 650 651 652 653 654 655 656 657 658 659 660 661 662 663 664 665 666 667 668 669 670 671 672 673 674 675 676 677 678 679 680 681 682 683 684 685 686 687 688 689 690 691 692 693 694 695 696 697 698 699 700 701 702 703 704 705 706 707 708 709 710 711 712 713 714 715 716 717 718 719 720 721 722 723 724 725 726 727 728 729 730 731 732 733 734 735 736 737 738 739 740 741 742 743 744 745 746 747 748 749 750 751 752 753 754 755 756 757 758 759 760 761 762 763 764 765 766 767 768 769 770 771 772 773 774 775 776 777 778 779 780 781 782 783 784 785 786 787 788 789 790 791 792 793 794 795 796 797 798 799 800 801 802 803 804 805 806 807 808 809 810 811 812 813 814 815 816 817 818 819 820 821 822 823 824 825 826 827 828 829 830 831 832 833 834 835 836 837 838 839 840 841 842 843 844 845 846 847 848 849 850 851 852 853 854 855 856 857 858 859 860 861 862 863 864 865 866 867 868 869 870 871 872 873 874 875 876 877 878 879 
</DataArray>
<DataArray type="UInt32" Name="offsets" format="ascii">
3 6 9 12 15 18 21 24 27 30 33 36 39 42 45 48 51 54 57 60 63 66 69 72 75 78 81 84 87 90 93 96 99 102 105 108 111 114 117 120 123 126 129 132 135 138 141 144 147 150 153 156 159 162 165 168 171 174 177 180 183 186 189 192 195 198 201 204 207 210 213 216 219 222 225 228 231 234 237 240 243 246 249 252 255 258 261 264 267 270 273 276 279 282 285 288 291 294 297 300 303 306 309 312 315 318 321 324 327 330 333 336 339 342 345 348 351 354 357 360 363 366 369 372 375 378 381 384 387 390 393 396 399 402 405 408 411 414 417 420 423 425 428 430 433 436 439 442 445 448 451 454 457 460 463 466 469 472 474 477 479 482 485 487 490 493 495 498 501 504 507 510 513 515 518 521 523 526 529 532 535 538 541 544 547 550 553 556 559 562 565 568 571 574 577 580 583 586 589 592 595 597 599 602 605 608 611 614 617 620 623 626 628 631 634 636 639 642 645 648 651 654 657 660 663 666 669 672 675 677 680 683 685 688 691 694 697 700 703 705 708 710 713 716 718 721 724 727 730 733 736 739 742 745 748 751 754 757 760 763 766 769 772 775 778 781 784 787 790 793 796 799 802 805 808 811 814 817 820 823 826 829 832 835 838 841 844 847 850 853 856 859 862 865 868 871 874 877 880 
</DataArray>
<DataArray type="UInt32" Name="types" format="ascii">
5 5 5 5 5 5 5 5 5 5 5 5 5 5 5 5 5 5 5 5 5 5 5 5 5 5 5 5 5 5 5 5 5 5 5 5 5 5 5 5 5 5 5 5 5 5 5 5 5 5 5 5 5 5 5 5 5 5 5 5 5 5 5 5 5 5 5 5 5 5 5 5 5 5 5 5 5 5 5 5 5 5 5 5 5 5 5 5 5 5 5 5 5 5 5 5 5 5 5 5 5 5 5 5 5 5 5 5 5 5 5 5 5 5 5 5 5 5 5 5 5 5 5 5 5 5 5 5 5 5 5 5 5 5 5 5 5 5 5 5 5 3 5 3 5 5 5 5 5 5 5 5 5 5 5 5 5 5 3 5 3 5 5 3 5 5 3 5 5 5 5 5 5 3 5 5 3 5 5 5 5 5 5 5 5 5 5 5 5 5 5 5 5 5 5 5 5 5 5 5 5 3 3 5 5 5 5 5 5 5 5 5 3 5 5 3 5 5 5 5 5 5 5 5 5 5 5 5 5 3 5 5 3 5 5 5 5 5 5 3 5 3 5 5 3 5 5 5 5 5 5 5 5 5 5 5 5 5 5 5 5 5 5 5 5 5 5 5 5 5 5 5 5 5 5 5 5 5 5 5 5 5 5 5 5 5 5 5 5 5 5 5 5 5 5 5 5 5 5 
</DataArray>
</Cells>
<PointData Scalars="" Vectors="displacement," Tensors="">
<DataArray type="Float64" Name="displacement" NumberOfComponents="3" format="ascii">
-2.6332836923709949e-05 -9.573115749048824e-06 0 -0.002136731496614482 -0.021500533774846647 0 2.3049502444016045e-06 -9.8186772557233906e-06 0 -2.6332836923709949e-05 -9.573115749048824e-06 0 -0.002136731496614482 -0.021500533774846647 0 -0.0080916655989328144 -0.028373033095608274 0 -0.0080916655989328144 -0.028373033095608274 0 -0.0025451307526015814 -0.038148274153411779 0 -9.3109928248059139e-05 -0.041324691297348441 0 -0.002136731496614482 -0.021500533774846647 0 -0.0080916655989328144 -0.028373033095608274 0 -0.0025451307526015814 -0.038148274153411779 0 -0.0025451307526015814 -0.038148274153411779 0 0.00034464506293710765 -0.044469850502132736 0 -9.3109928248059139e-05 -0.041324691297348441 0 -0.0025451307526015814 -0.038148274153411779 0 0.00034464506293710765 -0.044469850502132736 0 -0.0027159733644534995 -0.046145123128374481 0 -0.0035185922085436043 -0.047443042884782335 0 -0.0032104708567214464 -0.056235555568993525 0 -0.002356476373132515 -0.056465512451011501 0 -0.0035185922085436043 -0.047443042884782335 0 -0.002356476373132515 -0.056465512451011501 0 -0.0027159733644534995 -0.046145123128374481 0 -0.0032104708567214464 -0.056235555568993525 0 -0.0025433736509940679 -0.063714353495379572 0 -0.002356476373132515 -0.056465512451011501 0 -0.0032104708567214464 -0.056235555568993525 0 -0.0025433736509940679 -0.063714353495379572 0 -0.0013091045970889815 -0.06685324066981127 0 -0.0025433736509940679 -0.063714353495379572 0 0.00013146392835887793 -0.062695434001834194 0 -9.6802491457185236e-05 -0.076284493650798466 0 -0.0025433736509940679 -0.063714353495379572 0 -0.0013091045970889815 -0.06685324066981127 0 -9.6802491457185236e-05 -0.076284493650798466 0 -0.0025433736509940679 -0.063714353495379572 0 0.00013146392835887793 -0.062695434001834194 0 -0.002356476373132515 -0.056465512451011501 0 -0.002356476373132515 -0.056465512451011501 0 -0.00014913299439294443 -0.050272185894808592 0 0.0022929888139891115 -0.053995750546408851 0 -0.002356476373132515 -0.056465512451011501 0 -0.00014913299439294443 -0.050272185894808592 0 -0.0027159733644534995 -0.046145123128374481 0 0.00034464506293710765 -0.044469850502132736 0 -0.00014913299439294443 -0.050272185894808592 0 -0.0027159733644534995 -0.046145123128374481 0 -0.0025451307526015814 -0.038148274153411779 0 -0.0027159733644534995 -0.046145123128374481 0 -0.0032332744503028809 -0.035617912769073876 0 -0.0035185922085436043 -0.047443042884782335 0 -0.0027159733644534995 -0.046145123128374481 0 -0.0032332744503028809 -0.035617912769073876 0 -0.002136731496614482 -0.021500533774846647 0 -0.0025451307526015814 -0.038148274153411779 0 -0.0032332744503028809 -0.035617912769073876 0 -0.0032332744503028809 -0.035617912769073876 0 -0.0036904876660104734 -0.043465821873860513 0 -0.0026871474546751374 -0.022545082184132689 0 -0.0035185922085436043 -0.047443042884782335 0 -0.0032332744503028809 -0.035617912769073876 0 -0.0036904876660104734 -0.043465821873860513 0 -0.0035185922085436043 -0.047443042884782335 0 -0.0032104708567214464 -0.056235555568993525 0 -0.0036904876660104734 -0.043465821873860513 0 -0.0026871474546751374 -0.022545082184132689 0 2.3049502444016045e-06 -9.8186772557233906e-06 0 -5.4326574115167183e-06 -1.169773192945341e-05 0 -0.0026871474546751374 -0.022545082184132689 0 -5.4326574115167183e-06 -1.169773192945341e-05 0 -0.002874357591403635 -0.03007468984531584 0 -0.0036904876660104734 -0.043465821873860513 0 -0.0026871474546751374 -0.022545082184132689 0 -0.002874357591403635 -0.03007468984531584 0 -0.002136731496614482 -0.021500533774846647 0 -0.0032332744503028809 -0.035617912769073876 0 -0.0026871474546751374 -0.022545082184132689 0 -0.002136731496614482 -0.021500533774846647 0 -0.0026871474546751374 -0.022545082184132689 0 2.3049502444016045e-06 -9.8186772557233906e-06 0 -5.4326574115167183e-06 -1.169773192945341e-05 0 -0.0021006539647369141 -0.02554741761717785 0 -4.9270503383376721e-06 -7.4827907800423963e-06 0 -0.0021006539647369141 -0.02554741761717785 0 -0.001371753323304502 -0.032842044345463749 0 -4.9270503383376721e-06 -7.4827907800423963e-06 0 -0.0021006539647369141 -0.02554741761717785 0 -0.001371753323304502 -0.032842044345463749 0 -0.0022667259198445415 -0.04709787979521729 0 -0.0021006539647369141 -0.02554741761717785 0 -0.002874357591403635 -0.03007468984531584 0 -0.0026834487905104914 -0.045561097583584551 0 -5.4326574115167183e-06 -1.169773192945341e-05 0 -0.0021006539647369141 -0.02554741761717785 0 -0.002874357591403635 -0.03007468984531584 0 3.0656887775456236e-05 -1.159247972224649e-05 0 0.0028628467898487225 -0.011584700120756767 0 -4.9270503383376721e-06 -7.4827907800423963e-06 0 3.0656887775456236e-05 -1.159247972224649e-05 0 0.0028628467898487225 -0.011584700120756767 0 0.015055360081716816 -0.022934729569543403 0 0.0028628467898487225 -0.011584700120756767 0 -4.9270503383376721e-06 -7.4827907800423963e-06 0 0.00067163934780777338 -0.022859082353833861 0 0.00067163934780777338 -0.022859082353833861 0 0.0083682185766080965 -0.036372297915769881 0 8.8060563673403696e-05 -0.041991945605161368 0 -0.001371753323304502 -0.032842044345463749 0 -4.9270503383376721e-06 -7.4827907800423963e-06 0 0.00067163934780777338 -0.022859082353833861 0 -0.001371753323304502 -0.032842044345463749 0 0.00067163934780777338 -0.022859082353833861 0 8.8060563673403696e-05 -0.041991945605161368 0 0.0028628467898487225 -0.011584700120756767 0 0.00067163934780777338 -0.022859082353833861 0 0.0083682185766080965 -0.036372297915769881 0 0.0028628467898487225 -0.011584700120756767 0 0.0083682185766080965 -0.036372297915769881 0 0.015055360081716816 -0.022934729569543403 0 0.0083682185766080965 -0.036372297915769881 0 0.015055360081716816 -0.022934729569543403 0 0.019102572361999949 -0.043688119023914125 0 0.018165706909055234 -0.060653217636269824 0 0.0095086052323165929 -0.054223937262603515 0 0.019102572361999949 -0.043688119023914125 0 0.018165706909055234 -0.060653217636269824 0 0.0095086052323165929 -0.054223937262603515 0 0.0083594080061999334 -0.068951907753375702 0 0.0083682185766080965 -0.036372297915769881 0 0.0095086052323165929 -0.054223937262603515 0 0.019102572361999949 -0.043688119023914125 0 0.0083682185766080965 -0.036372297915769881 0 0.0095086052323165929 -0.054223937262603515 0 0.0041238875340209842 -0.052060478150279303 0 0.0095086052323165929 -0.054223937262603515 0 0.0037545225960085747 -0.065214774571738784 0 0.0083594080061999334 -0.068951907753375702 0 0.0095086052323165929 -0.054223937262603515 0 0.0041238875340209842 -0.052060478150279303 0 0.0037545225960085747 -0.065214774571738784 0 0.0083682185766080965 -0.036372297915769881 0 0.0041238875340209842 -0.052060478150279303 0 8.8060563673403696e-05 -0.041991945605161368 0 0.0041238875340209842 -0.052060478150279303 0 0.00027105433850448281 -0.061189832597533918 0 0.0037545225960085747 -0.065214774571738784 0 0.0041238875340209842 -0.052060478150279303 0 0.00027105433850448281 -0.061189832597533918 0 8.8060563673403696e-05 -0.041991945605161368 0 -0.001371753323304502 -0.032842044345463749 0 8.8060563673403696e-05 -0.041991945605161368 0 -0.0012995560022719854 -0.052103675524169793 0 0.00027105433850448281 -0.061189832597533918 0 8.8060563673403696e-05 -0.041991945605161368 0 -0.0012995560022719854 -0.052103675524169793 0 0.00027105433850448281 -0.061189832597533918 0 -0.00094561093964825454 -0.065852811461623584 0 -0.0012995560022719854 -0.052103675524169793 0 0.00027105433850448281 -0.061189832597533918 0 -0.00094561093964825454 -0.065852811461623584 0 -0.00026830604859342334 -0.07416749608959583 0 -0.00094561093964825454 -0.065852811461623584 0 -0.00026830604859342334 -0.07416749608959583 0 -0.00055324796803038403 -0.075888950732107122 0 -0.00094561093964825454 -0.065852811461623584 0 -0.00055324796803038403 -0.075888950732107122 0 -0.00090194896872165353 -0.071348669617369714 0 -0.00055324796803038403 -0.075888950732107122 0 -0.00030594851540688319 -0.081893797757154274 0 -0.00042402603788451544 -0.079540553473754869 0 -0.00030594851540688319 -0.081893797757154274 0 -0.00042402603788451544 -0.079540553473754869 0 -0.00013927076606929604 -0.085103156538413757 0 -0.00030594851540688319 -0.081893797757154274 0 -0.00013078536894787726 -0.086593280588927055 0 -0.00013927076606929604 -0.085103156538413757 0 -0.00024105810619298845 -0.082042521144998659 0 -0.00012346900465791866 -0.088185117593718998 0 -0.00013078536894787726 -0.086593280588927055 0 -0.00030594851540688319 -0.081893797757154274 0 -0.00024105810619298845 -0.082042521144998659 0 -0.00013078536894787726 -0.086593280588927055 0 -0.00055324796803038403 -0.075888950732107122 0 -0.00030594851540688319 -0.081893797757154274 0 -0.00024105810619298845 -0.082042521144998659 0 -0.00026830604859342334 -0.07416749608959583 0 -0.00055324796803038403 -0.075888950732107122 0 -0.00024105810619298845 -0.082042521144998659 0 -0.00026830604859342334 -0.07416749608959583 0 -0.00024105810619298845 -0.082042521144998659 0 -6.3943445353398007e-05 -0.082006107037361997 0 -0.00026830604859342334 -0.07416749608959583 0 -6.3943445353398007e-05 -0.082006107037361997 0 0.00076600265836760859 -0.076330703741167655 0 -6.3943445353398007e-05 -0.082006107037361997 0 -0.0001160721954557171 -0.089878209549732857 0 -0.00012346900465791866 -0.088185117593718998 0 -0.00024105810619298845 -0.082042521144998659 0 -6.3943445353398007e-05 -0.082006107037361997 0 -0.00012346900465791866 -0.088185117593718998 0 -6.3943445353398007e-05 -0.082006107037361997 0 0.00018972543234654565 -0.085115108209398133 0 -0.0001160721954557171 -0.089878209549732857 0 0.00018972543234654565 -0.085115108209398133 0 -0.00011973923263662166 -0.09168087756721939 0 -0.0001160721954557171 -0.089878209549732857 0 -6.3943445353398007e-05 -0.082006107037361997 0 0.00018972543234654565 -0.085115108209398133 0 0.00076600265836760859 -0.076330703741167655 0 0.00027105433850448281 -0.061189832597533918 0 0.00076600265836760859 -0.076330703741167655 0 0.0037545225960085747 -0.065214774571738784 0 0.00027105433850448281 -0.061189832597533918 0 -0.00026830604859342334 -0.07416749608959583 0 0.00076600265836760859 -0.076330703741167655 0 0.0037545225960085747 -0.065214774571738784 0 0.0030744856433842596 -0.077572478893892891 0 0.0083594080061999334 -0.068951907753375702 0 0.00076600265836760859 -0.076330703741167655 0 0.0037545225960085747 -0.065214774571738784 0 0.0030744856433842596 -0.077572478893892891 0 0.00018972543234654565 -0.085115108209398133 0 0.00076600265836760859 -0.076330703741167655 0 0.00073873117060522099 -0.084653669906900361 0 0.00076600265836760859 -0.076330703741167655 0 0.0030744856433842596 -0.077572478893892891 0 0.00073873117060522099 -0.084653669906900361 0 0.00018972543234654565 -0.085115108209398133 0 0.00073873117060522099 -0.084653669906900361 0 -0.00011973923263662166 -0.09168087756721939 0 0.00073873117060522099 -0.084653669906900361 0 -0.00013209496819350608 -0.093581843464343548 0 -0.00011973923263662166 -0.09168087756721939 0 0.00073873117060522099 -0.084653669906900361 0 0.0010626026549909102 -0.088036487484791884 0 -0.00013209496819350608 -0.093581843464343548 0 0.0010626026549909102 -0.088036487484791884 0 -0.00012895674252550723 -0.095590825263647913 0 -0.00013209496819350608 -0.093581843464343548 0 0.0030744856433842596 -0.077572478893892891 0 0.00073873117060522099 -0.084653669906900361 0 0.0010626026549909102 -0.088036487484791884 0 0.0010626026549909102 -0.088036487484791884 0 0.0051813193563726668 -0.082791384721008068 0 0.0019018977380622305 -0.090736355044282568 0 0.0030744856433842596 -0.077572478893892891 0 0.0010626026549909102 -0.088036487484791884 0 0.0051813193563726668 -0.082791384721008068 0 0.0051813193563726668 -0.082791384721008068 0 0.0019018977380622305 -0.090736355044282568 0 0.0028416862515503799 -0.09202950321695938 0 0.0010626026549909102 -0.088036487484791884 0 0.0019018977380622305 -0.090736355044282568 0 -0.00012895674252550723 -0.095590825263647913 0 0.0019018977380622305 -0.090736355044282568 0 0.0028416862515503799 -0.09202950321695938 0 -0.0001260126262245005 -0.097736392876339312 0 0.0019018977380622305 -0.090736355044282568 0 -0.0001260126262245005 -0.097736392876339312 0 -0.00012895674252550723 -0.095590825263647913 0 0.0028416862515503799 -0.09202950321695938 0 0.0090971931262453544 -0.086994955575340552 0 -8.0314100608936998e-05 -0.099914430337695037 0 0.0028416862515503799 -0.09202950321695938 0 -0.0001260126262245005 -0.097736392876339312 0 -8.0314100608936998e-05 -0.099914430337695037 0 0.0051813193563726668 -0.082791384721008068 0 0.0028416862515503799 -0.09202950321695938 0 0.0090971931262453544 -0.086994955575340552 0 0.0051813193563726668 -0.082791384721008068 0 0.0090971931262453544 -0.086994955575340552 0 0.014597242402406851 -0.074952347300966449 0 0.0051813193563726668 -0.082791384721008068 0 0.014597242402406851 -0.074952347300966449 0 0.0083594080061999334 -0.068951907753375702 0 0.0030744856433842596 -0.077572478893892891 0 0.0051813193563726668 -0.082791384721008068 0 0.0083594080061999334 -0.068951907753375702 0 0.018165706909055234 -0.060653217636269824 0 0.014597242402406851 -0.074952347300966449 0 0.0083594080061999334 -0.068951907753375702 0 -0.0026834487905104914 -0.045561097583584551 0 -0.0018815448603432066 -0.058886596458060492 0 -0.0018106085946432765 -0.061232422720435449 0 -0.0036904876660104734 -0.043465821873860513 0 -0.0026834487905104914 -0.045561097583584551 0 -0.0018106085946432765 -0.061232422720435449 0 -0.0036904876660104734 -0.043465821873860513 0 -0.002874357591403635 -0.03007468984531584 0 -0.0026834487905104914 -0.045561097583584551 0 -0.0021006539647369141 -0.02554741761717785 0 -0.0026834487905104914 -0.045561097583584551 0 -0.0022667259198445415 -0.04709787979521729 0 -0.001371753323304502 -0.032842044345463749 0 -0.0012995560022719854 -0.052103675524169793 0 -0.0022667259198445415 -0.04709787979521729 0 -0.00094561093964825454 -0.065852811461623584 0 -0.0012995560022719854 -0.052103675524169793 0 -0.0015431117293325581 -0.061008633820466458 0 -0.0012995560022719854 -0.052103675524169793 0 -0.0022667259198445415 -0.04709787979521729 0 -0.0015431117293325581 -0.061008633820466458 0 -0.0026834487905104914 -0.045561097583584551 0 -0.0022667259198445415 -0.04709787979521729 0 -0.0018815448603432066 -0.058886596458060492 0 -0.0022667259198445415 -0.04709787979521729 0 -0.0018815448603432066 -0.058886596458060492 0 -0.0015431117293325581 -0.061008633820466458 0 -0.0018815448603432066 -0.058886596458060492 0 -0.0015431117293325581 -0.061008633820466458 0 -0.00097671826029170953 -0.069756387425280661 0 -0.0018815448603432066 -0.058886596458060492 0 -0.00097671826029170953 -0.069756387425280661 0 -0.00086216381197470968 -0.068925560109859632 0 -0.00094561093964825454 -0.065852811461623584 0 -0.0015431117293325581 -0.061008633820466458 0 -0.00090194896872165353 -0.071348669617369714 0 -0.0015431117293325581 -0.061008633820466458 0 -0.00090194896872165353 -0.071348669617369714 0 -0.00097671826029170953 -0.069756387425280661 0 -0.00090194896872165353 -0.071348669617369714 0 -0.00042396484336559051 -0.078988333485221093 0 -0.00042402603788451544 -0.079540553473754869 0 -0.00055324796803038403 -0.075888950732107122 0 -0.00090194896872165353 -0.071348669617369714 0 -0.00042402603788451544 -0.079540553473754869 0 -0.00090194896872165353 -0.071348669617369714 0 -0.00059900067793376027 -0.075598459644562771 0 -0.00097671826029170953 -0.069756387425280661 0 -0.00090194896872165353 -0.071348669617369714 0 -0.00059900067793376027 -0.075598459644562771 0 -0.00042396484336559051 -0.078988333485221093 0 -0.00059900067793376027 -0.075598459644562771 0 -0.00042396484336559051 -0.078988333485221093 0 -0.00015489752823840045 -0.082429637016745466 0 -0.00059900067793376027 -0.075598459644562771 0 -0.00015764121512219735 -0.081244933698461141 0 -0.00015489752823840045 -0.082429637016745466 0 -0.00042396484336559051 -0.078988333485221093 0 -0.00014939727792378631 -0.08371510111214793 0 -0.00015489752823840045 -0.082429637016745466 0 -0.00042402603788451544 -0.079540553473754869 0 -0.00014939727792378631 -0.08371510111214793 0 -0.00013927076606929604 -0.085103156538413757 0 -0.00042396484336559051 -0.078988333485221093 0 -0.00042402603788451544 -0.079540553473754869 0 -0.00014939727792378631 -0.08371510111214793 0 -0.00097671826029170953 -0.069756387425280661 0 -0.00045923189059885676 -0.076312430690373537 0 -0.000455166283788902 -0.074708089599707192 0 -0.00097671826029170953 -0.069756387425280661 0 -0.000455166283788902 -0.074708089599707192 0 -0.00086216381197470968 -0.068925560109859632 0 -0.00059900067793376027 -0.075598459644562771 0 -0.00097671826029170953 -0.069756387425280661 0 -0.00045923189059885676 -0.076312430690373537 0 -0.00059900067793376027 -0.075598459644562771 0 -0.00045923189059885676 -0.076312430690373537 0 -0.00015764121512219735 -0.081244933698461141 0 -0.00045923189059885676 -0.076312430690373537 0 -0.00015430023478701856 -0.080165682769521809 0 -0.00015764121512219735 -0.081244933698461141 0 -0.00045923189059885676 -0.076312430690373537 0 -0.000455166283788902 -0.074708089599707192 0 -0.00015430023478701856 -0.080165682769521809 0 -0.000455166283788902 -0.074708089599707192 0 -0.00015029481380209094 -0.079189819308417786 0 -0.00015430023478701856 -0.080165682769521809 0 -0.00038399599579501842 -0.07455200393779686 0 -0.00014634797496786343 -0.078335010046049827 0 -0.00015029481380209094 -0.079189819308417786 0 -0.000455166283788902 -0.074708089599707192 0 -0.00038399599579501842 -0.07455200393779686 0 -0.00015029481380209094 -0.079189819308417786 0 -0.00056657062315886779 -0.071732709307257642 0 -0.00013905777515805037 -0.077567777036837815 0 -0.00014634797496786343 -0.078335010046049827 0 -0.00038399599579501842 -0.07455200393779686 0 -0.00056657062315886779 -0.071732709307257642 0 -0.00014634797496786343 -0.078335010046049827 0 -0.00056657062315886779 -0.071732709307257642 0 -0.00086216381197470968 -0.068925560109859632 0 -0.0018106085946432765 -0.061232422720435449 0 -0.00038399599579501842 -0.07455200393779686 0 -0.00056657062315886779 -0.071732709307257642 0 -0.00086216381197470968 -0.068925560109859632 0 -0.000455166283788902 -0.074708089599707192 0 -0.00038399599579501842 -0.07455200393779686 0 -0.00086216381197470968 -0.068925560109859632 0 -0.0018815448603432066 -0.058886596458060492 0 -0.00086216381197470968 -0.068925560109859632 0 -0.0018106085946432765 -0.061232422720435449 0 -0.0032104708567214464 -0.056235555568993525 0 -0.0036904876660104734 -0.043465821873860513 0 -0.0018106085946432765 -0.061232422720435449 0 -0.0032104708567214464 -0.056235555568993525 0 -0.0018106085946432765 -0.061232422720435449 0 -0.0013091045970889815 -0.06685324066981127 0 -0.0018106085946432765 -0.061232422720435449 0 -0.0013091045970889815 -0.06685324066981127 0 -0.00055610557799464627 -0.070498485378126516 0 -0.00056657062315886779 -0.071732709307257642 0 -0.0018106085946432765 -0.061232422720435449 0 -0.00055610557799464627 -0.070498485378126516 0 -0.00056657062315886779 -0.071732709307257642 0 -0.00055610557799464627 -0.070498485378126516 0 -0.00013905777515805037 -0.077567777036837815 0 -0.00055610557799464627 -0.070498485378126516 0 -0.00014700866415851148 -0.077023603922757103 0 -0.00013905777515805037 -0.077567777036837815 0 -0.0013091045970889815 -0.06685324066981127 0 -0.00055610557799464627 -0.070498485378126516 0 -0.00014700866415851148 -0.077023603922757103 0 -0.0013091045970889815 -0.06685324066981127 0 -9.6802491457185236e-05 -0.076284493650798466 0 -0.00014700866415851148 -0.077023603922757103 0 -7.403584909863425e-05 -0.077017138519455824 0 0.00046011759793216831 -0.069416895021874592 0 0.00039251020960880855 -0.070856637974565095 0 -9.6802491457185236e-05 -0.076284493650798466 0 -7.403584909863425e-05 -0.077017138519455824 0 0.00046011759793216831 -0.069416895021874592 0 -9.7608675288363183e-05 -0.076529715219424907 0 -0.00010976536161904938 -0.076987398862516099 0 -7.403584909863425e-05 -0.077017138519455824 0 -6.4656219958155774e-05 -0.077574033165830877 0 0.00039251020960880855 -0.070856637974565095 0 -0.00010976536161904938 -0.076987398862516099 0 -0.00010234783859301567 -0.077606356921051819 0 -6.4656219958155774e-05 -0.077574033165830877 0 0.00039251020960880855 -0.070856637974565095 0 0.00023110476573392875 -0.07332093649838381 0 0.00039251020960880855 -0.070856637974565095 0 0.0018139103057113926 -0.06206820821970576 0 0.0009540654105293665 -0.066022646351022715 0 0.00046011759793216831 -0.069416895021874592 0 0.0018139103057113926 -0.06206820821970576 0 0.0027606214031949917 -0.061549357522132087 0 0.00046011759793216831 -0.069416895021874592 0 0.00039251020960880855 -0.070856637974565095 0 0.0018139103057113926 -0.06206820821970576 0 0.0018139103057113926 -0.06206820821970576 0 0.0024787133732107184 -0.054851477255031963 0 0.0036211638855822713 -0.052650848937609983 0 0.0018139103057113926 -0.06206820821970576 0 0.0024787133732107184 -0.054851477255031963 0 0.0009540654105293665 -0.066022646351022715 0 0.0024787133732107184 -0.054851477255031963 0 0.0018101124726076793 -0.057953417621621588 0 0.0009540654105293665 -0.066022646351022715 0 0.0018101124726076793 -0.057953417621621588 0 0.0009540654105293665 -0.066022646351022715 0 0.00071746919105141079 -0.069079855716673799 0 0.0009540654105293665 -0.066022646351022715 0 0.00024997156710558963 -0.073525736579337739 0 0.00071746919105141079 -0.069079855716673799 0 0.00024997156710558963 -0.073525736579337739 0 0.00020962228937515851 -0.075655711124535202 0 0.00071746919105141079 -0.069079855716673799 0 0.00039251020960880855 -0.070856637974565095 0 0.0009540654105293665 -0.066022646351022715 0 0.00023110476573392875 -0.07332093649838381 0 0.0009540654105293665 -0.066022646351022715 0 0.00023110476573392875 -0.07332093649838381 0 0.00024997156710558963 -0.073525736579337739 0 0.00023110476573392875 -0.07332093649838381 0 -5.4787798833816894e-05 -0.078332814742427495 0 0.00024997156710558963 -0.073525736579337739 0 -6.4656219958155774e-05 -0.077574033165830877 0 0.00023110476573392875 -0.07332093649838381 0 -5.4787798833816894e-05 -0.078332814742427495 0 -0.00010234783859301567 -0.077606356921051819 0 -0.0001003508666506098 -0.078349152744724246 0 0.00024997156710558963 -0.073525736579337739 0 -4.6918688889861178e-05 -0.079192166240562023 0 0.00020962228937515851 -0.075655711124535202 0 -0.0001003508666506098 -0.078349152744724246 0 -9.8690628186169483e-05 -0.079210318776095051 0 -5.4787798833816894e-05 -0.078332814742427495 0 0.00024997156710558963 -0.073525736579337739 0 -4.6918688889861178e-05 -0.079192166240562023 0 -4.6918688889861178e-05 -0.079192166240562023 0 0.00020962228937515851 -0.075655711124535202 0 -3.8212184478062898e-05 -0.080165916357249525 0 -9.8690628186169483e-05 -0.079210318776095051 0 -9.6254503810282085e-05 -0.080183054602055881 0 0.00020962228937515851 -0.075655711124535202 0 -3.8212184478062898e-05 -0.080165916357249525 0 0.00026375951091646817 -0.075912038550229377 0 -3.8212184478062898e-05 -0.080165916357249525 0 -2.968087417332322e-05 -0.081247240306703702 0 0.00026375951091646817 -0.075912038550229377 0 -9.6254503810282085e-05 -0.080183054602055881 0 -9.3549485660245928e-05 -0.081263238699682466 0 -2.968087417332322e-05 -0.081247240306703702 0 0.00026375951091646817 -0.075912038550229377 0 0.00021398509956372462 -0.078069742848486307 0 0.00026375951091646817 -0.075912038550229377 0 0.00021398509956372462 -0.078069742848486307 0 0.00063004571871790071 -0.071584925054064871 0 0.00026375951091646817 -0.075912038550229377 0 0.00071746919105141079 -0.069079855716673799 0 0.00063004571871790071 -0.071584925054064871 0 0.00020962228937515851 -0.075655711124535202 0 0.00026375951091646817 -0.075912038550229377 0 0.00071746919105141079 -0.069079855716673799 0 1.2683161179135099e-06 -0.08371975260376871 0 0.00026070261676724521 -0.078677981679905987 0 0.00021854932561661227 -0.080830566600281109 0 1.2683161179135099e-06 -0.08371975260376871 0 0.00026070261676724521 -0.078677981679905987 0 -1.5518797298487929e-05 -0.082432431442320361 0 -7.3973028085811459e-05 -0.08373414651856588 0 -8.5224203107326404e-05 -0.082447660516491578 0 0.00026070261676724521 -0.078677981679905987 0 -1.5518797298487929e-05 -0.082432431442320361 0 0.00021398509956372462 -0.078069742848486307 0 -2.968087417332322e-05 -0.081247240306703702 0 -1.5518797298487929e-05 -0.082432431442320361 0 0.00021398509956372462 -0.078069742848486307 0 -9.3549485660245928e-05 -0.081263238699682466 0 -8.5224203107326404e-05 -0.082447660516491578 0 0.00026070261676724521 -0.078677981679905987 0 0.00021398509956372462 -0.078069742848486307 0 0.00063004571871790071 -0.071584925054064871 0 0.00026070261676724521 -0.078677981679905987 0 0.00021854932561661227 -0.080830566600281109 0 0.00053643048876965405 -0.074974516528282797 0 0.00026070261676724521 -0.078677981679905987 0 0.00063004571871790071 -0.071584925054064871 0 0.00053643048876965405 -0.074974516528282797 0 0.00063004571871790071 -0.071584925054064871 0 0.0010958549195717788 -0.063467968468617741 0 0.00053643048876965405 -0.074974516528282797 0 0.00063004571871790071 -0.071584925054064871 0 0.0010958549195717788 -0.063467968468617741 0 0.0011374936906138383 -0.062655847022207972 0 0.0018101124726076793 -0.057953417621621588 0 0.00071746919105141079 -0.069079855716673799 0 0.0011374936906138383 -0.062655847022207972 0 0.00071746919105141079 -0.069079855716673799 0 0.00063004571871790071 -0.071584925054064871 0 0.0011374936906138383 -0.062655847022207972 0 0.0018101124726076793 -0.057953417621621588 0 0.0011374936906138383 -0.062655847022207972 0 0.0016775760487971886 -0.051206163494867452 0 0.0010958549195717788 -0.063467968468617741 0 0.0016775760487971886 -0.051206163494867452 0 0.00091018677084383007 -0.05046442367675319 0 0.0010958549195717788 -0.063467968468617741 0 0.0011374936906138383 -0.062655847022207972 0 0.0016775760487971886 -0.051206163494867452 0 0.0016775760487971886 -0.051206163494867452 0 0.00091018677084383007 -0.05046442367675319 0 0.0017165989787793858 -0.030954000685334014 0 0.0016775760487971886 -0.051206163494867452 0 0.0029639476377324322 -0.043296236320139778 0 0.0017165989787793858 -0.030954000685334014 0 0.0029639476377324322 -0.043296236320139778 0 0.0029937043205579858 -0.029170247282265194 0 0.0033993856961924986 -0.044491689931077015 0 0.0024787133732107184 -0.054851477255031963 0 0.0029639476377324322 -0.043296236320139778 0 0.0033993856961924986 -0.044491689931077015 0 0.0024787133732107184 -0.054851477255031963 0 0.0036211638855822713 -0.052650848937609983 0 0.0033993856961924986 -0.044491689931077015 0 0.0024787133732107184 -0.054851477255031963 0 0.0018101124726076793 -0.057953417621621588 0 0.0029639476377324322 -0.043296236320139778 0 0.0018101124726076793 -0.057953417621621588 0 0.0016775760487971886 -0.051206163494867452 0 0.0029639476377324322 -0.043296236320139778 0 -0.0071952075450414637 -0.070255385122536707 0 -0.014524992315532601 -0.074855176101902773 0 -0.018157367399176866 -0.060756483511442978 0 -0.0071952075450414637 -0.070255385122536707 0 -0.0063413523619882863 -0.082257403589408626 0 -0.003052165383636125 -0.081547028091649543 0 -0.0071952075450414637 -0.070255385122536707 0 -0.014524992315532601 -0.074855176101902773 0 -0.0063413523619882863 -0.082257403589408626 0 -0.014524992315532601 -0.074855176101902773 0 -0.0091538547773254049 -0.087067951649926256 0 -0.0063413523619882863 -0.082257403589408626 0 -0.0091538547773254049 -0.087067951649926256 0 -0.0063413523619882863 -0.082257403589408626 0 -0.0029476141344953809 -0.091987391719231454 0 -0.0091538547773254049 -0.087067951649926256 0 -0.0029476141344953809 -0.091987391719231454 0 8.0084341311739465e-05 -0.099914621817622742 0 -0.0029476141344953809 -0.091987391719231454 0 0.00011383028691256407 -0.097741569429681097 0 8.0084341311739465e-05 -0.099914621817622742 0 -6.3442666546081476e-06 -0.097746968016006353 0 -2.4819176278947154e-10 -0.099999209627565866 0 -6.3442666546081476e-06 -0.097746968016006353 0 -2.0718258188758534e-05 -0.095614765046582895 0 0.00011383028691256407 -0.097741569429681097 0 8.7098280344867965e-05 -0.095593855515752515 0 -0.0018873238441539451 -0.090399084805745961 0 -0.0029476141344953809 -0.091987391719231454 0 0.00011383028691256407 -0.097741569429681097 0 -0.0018873238441539451 -0.090399084805745961 0 8.7098280344867965e-05 -0.095593855515752515 0 -0.0018873238441539451 -0.090399084805745961 0 -0.00091747475701538413 -0.090064934323821316 0 -0.0063413523619882863 -0.082257403589408626 0 -0.0018873238441539451 -0.090399084805745961 0 -0.003052165383636125 -0.081547028091649543 0 -0.0063413523619882863 -0.082257403589408626 0 -0.0029476141344953809 -0.091987391719231454 0 -0.0018873238441539451 -0.090399084805745961 0 -0.0018873238441539451 -0.090399084805745961 0 -0.003052165383636125 -0.081547028091649543 0 -0.00091747475701538413 -0.090064934323821316 0 -0.003052165383636125 -0.081547028091649543 0 -0.00045075283841242392 -0.086681236396546915 0 -0.0018686277677877644 -0.076322789700748031 0 -0.003052165383636125 -0.081547028091649543 0 -0.00091747475701538413 -0.090064934323821316 0 -0.00045075283841242392 -0.086681236396546915 0 -0.00091747475701538413 -0.090064934323821316 0 8.1730636341328946e-05 -0.093582459625601855 0 -0.00045075283841242392 -0.086681236396546915 0 -2.0718258188758534e-05 -0.095614765046582895 0 -2.4993400307028444e-05 -0.093600258159117433 0 8.7098280344867965e-05 -0.095593855515752515 0 -0.00091747475701538413 -0.090064934323821316 0 8.1730636341328946e-05 -0.093582459625601855 0 8.1730636341328946e-05 -0.093582459625601855 0 8.3756326890230273e-05 -0.091677840564985402 0 -0.00045075283841242392 -0.086681236396546915 0 -2.4993400307028444e-05 -0.093600258159117433 0 -1.8193144931479107e-05 -0.091696369962204441 0 8.3756326890230273e-05 -0.091677840564985402 0 -0.00045075283841242392 -0.086681236396546915 0 -6.3266058987308487e-05 -0.08703526227205495 0 -0.00045075283841242392 -0.086681236396546915 0 -0.0018686277677877644 -0.076322789700748031 0 -0.00025835522066363769 -0.081013298766143091 0 -0.0071952075450414637 -0.070255385122536707 0 -0.003052165383636125 -0.081547028091649543 0 -0.0018686277677877644 -0.076322789700748031 0 -0.0071952075450414637 -0.070255385122536707 0 -0.0018686277677877644 -0.076322789700748031 0 -0.0034001028399323094 -0.062640813015527555 0 -0.0018686277677877644 -0.076322789700748031 0 -0.00061901870934287593 -0.071673327803144476 0 -0.0034001028399323094 -0.062640813015527555 0 -0.00061901870934287593 -0.071673327803144476 0 -0.00077935582990213065 -0.060064418962006177 0 -0.0034001028399323094 -0.062640813015527555 0 -0.00061901870934287593 -0.071673327803144476 0 0.00047283669351566522 -0.067377936606152475 0 -0.00077935582990213065 -0.060064418962006177 0 -0.00061901870934287593 -0.071673327803144476 0 -0.00025835522066363769 -0.081013298766143091 0 0.00021383872633761882 -0.077983554130906921 0 -0.00061901870934287593 -0.071673327803144476 0 0.00021383872633761882 -0.077983554130906921 0 0.00047283669351566522 -0.067377936606152475 0 -0.0018686277677877644 -0.076322789700748031 0 -0.00061901870934287593 -0.071673327803144476 0 -0.00025835522066363769 -0.081013298766143091 0 -0.00045075283841242392 -0.086681236396546915 0 -0.00025835522066363769 -0.081013298766143091 0 -6.3266058987308487e-05 -0.08703526227205495 0 -0.00025835522066363769 -0.081013298766143091 0 -6.3266058987308487e-05 -0.08703526227205495 0 7.6761526547645565e-05 -0.084653930372741673 0 -6.3266058987308487e-05 -0.08703526227205495 0 7.7287144833157275e-05 -0.089881063624254173 0 7.6761526547645565e-05 -0.084653930372741673 0 -1.8193144931479107e-05 -0.091696369962204441 0 -1.9524077432958403e-05 -0.089897335424204763 0 8.3756326890230273e-05 -0.091677840564985402 0 -6.3266058987308487e-05 -0.08703526227205495 0 7.7287144833157275e-05 -0.089881063624254173 0 5.9824803757334833e-05 -0.088188930619003139 0 7.6761526547645565e-05 -0.084653930372741673 0 0.00013650425924247009 -0.083836523781635988 0 -1.9524077432958403e-05 -0.089897335424204763 0 -3.1773921328674799e-05 -0.088203657060797511 0 7.7287144833157275e-05 -0.089881063624254173 0 5.9824803757334833e-05 -0.088188930619003139 0 7.6761526547645565e-05 -0.084653930372741673 0 7.6761526547645565e-05 -0.084653930372741673 0 0.00021383872633761882 -0.077983554130906921 0 0.00013650425924247009 -0.083836523781635988 0 -0.00025835522066363769 -0.081013298766143091 0 7.6761526547645565e-05 -0.084653930372741673 0 0.00021383872633761882 -0.077983554130906921 0 0.00021383872633761882 -0.077983554130906921 0 0.00013650425924247009 -0.083836523781635988 0 0.00024029777353169233 -0.081415391348812732 0 0.00021383872633761882 -0.077983554130906921 0 0.00024029777353169233 -0.081415391348812732 0 0.00053643048876965405 -0.074974516528282797 0 0.00013650425924247009 -0.083836523781635988 0 4.1641849209683981e-05 -0.086597597888162403 0 0.00024029777353169233 -0.081415391348812732 0 -3.1773921328674799e-05 -0.088203657060797511 0 -4.4571902083728697e-05 -0.086612183336869097 0 5.9824803757334833e-05 -0.088188930619003139 0 0.00013650425924247009 -0.083836523781635988 0 4.1641849209683981e-05 -0.086597597888162403 0 -7.3973028085811459e-05 -0.08373414651856588 0 -5.8482990452877768e-05 -0.085122392362918131 0 1.2683161179135099e-06 -0.08371975260376871 0 2.2427482306848591e-05 -0.085108321460188763 0 0.00021854932561661227 -0.080830566600281109 0 4.1641849209683981e-05 -0.086597597888162403 0 2.2427482306848591e-05 -0.085108321460188763 0 0.00024029777353169233 -0.081415391348812732 0 -4.4571902083728697e-05 -0.086612183336869097 0 -5.8482990452877768e-05 -0.085122392362918131 0 2.2427482306848591e-05 -0.085108321460188763 0 0.00024029777353169233 -0.081415391348812732 0 0.00021854932561661227 -0.080830566600281109 0 0.00024029777353169233 -0.081415391348812732 0 0.00021854932561661227 -0.080830566600281109 0 0.00053643048876965405 -0.074974516528282797 0 0.0010958549195717788 -0.063467968468617741 0 0.00053643048876965405 -0.074974516528282797 0 0.00047283669351566522 -0.067377936606152475 0 0.00021383872633761882 -0.077983554130906921 0 0.00053643048876965405 -0.074974516528282797 0 0.00047283669351566522 -0.067377936606152475 0 0.00091018677084383007 -0.05046442367675319 0 -0.0027011521902336449 -0.046378427327117319 0 -0.00040924610071839179 -0.026843370871148547 0 0.0010958549195717788 -0.063467968468617741 0 0.00047283669351566522 -0.067377936606152475 0 0.00091018677084383007 -0.05046442367675319 0 0.00047283669351566522 -0.067377936606152475 0 0.00091018677084383007 -0.05046442367675319 0 -0.00077935582990213065 -0.060064418962006177 0 -0.0027011521902336449 -0.046378427327117319 0 -0.00077935582990213065 -0.060064418962006177 0 -0.0034001028399323094 -0.062640813015527555 0 0.00091018677084383007 -0.05046442367675319 0 -0.0027011521902336449 -0.046378427327117319 0 -0.00077935582990213065 -0.060064418962006177 0 -0.0027011521902336449 -0.046378427327117319 0 -0.009068039844578631 -0.052203142945330155 0 -0.0034001028399323094 -0.062640813015527555 0 -0.0071952075450414637 -0.070255385122536707 0 -0.009068039844578631 -0.052203142945330155 0 -0.0034001028399323094 -0.062640813015527555 0 -0.0027011521902336449 -0.046378427327117319 0 -0.009068039844578631 -0.052203142945330155 0 -0.0070879619595189689 -0.032337689325091172 0 -0.009068039844578631 -0.052203142945330155 0 -0.019076209674981633 -0.043425880416181839 0 -0.0070879619595189689 -0.032337689325091172 0 -0.0071952075450414637 -0.070255385122536707 0 -0.009068039844578631 -0.052203142945330155 0 -0.018157367399176866 -0.060756483511442978 0 -0.009068039844578631 -0.052203142945330155 0 -0.019076209674981633 -0.043425880416181839 0 -0.018157367399176866 -0.060756483511442978 0 -3.1108701756671905e-05 -1.1495888739134343e-05 0 -0.0028436817370377635 -0.01266913190793913 0 5.3692058610861638e-06 -7.3913361262173959e-06 0 -0.019076209674981633 -0.043425880416181839 0 -0.015019399874160859 -0.023062556441435032 0 -0.0070879619595189689 -0.032337689325091172 0 -0.015019399874160859 -0.023062556441435032 0 -0.0070879619595189689 -0.032337689325091172 0 -0.0028436817370377635 -0.01266913190793913 0 0.00091018677084383007 -0.05046442367675319 0 -0.00040924610071839179 -0.026843370871148547 0 0.0017165989787793858 -0.030954000685334014 0 -0.00040924610071839179 -0.026843370871148547 0 0.0017165989787793858 -0.030954000685334014 0 5.3692058610861638e-06 -7.3913361262173959e-06 0 -0.0070879619595189689 -0.032337689325091172 0 -0.00040924610071839179 -0.026843370871148547 0 -0.0028436817370377635 -0.01266913190793913 0 -0.0027011521902336449 -0.046378427327117319 0 -0.0070879619595189689 -0.032337689325091172 0 -0.00040924610071839179 -0.026843370871148547 0 -0.00040924610071839179 -0.026843370871148547 0 -0.0028436817370377635 -0.01266913190793913 0 5.3692058610861638e-06 -7.3913361262173959e-06 0 -0.015019399874160859 -0.023062556441435032 0 -3.1108701756671905e-05 -1.1495888739134343e-05 0 -0.0028436817370377635 -0.01266913190793913 0 0.0018761261689772726 -0.021008780959705042 0 5.3692058610861638e-06 -7.3913361262173959e-06 0 4.9213675417270498e-06 -1.2103622167067731e-05 0 0.0029639476377324322 -0.043296236320139778 0 0.0018761261689772726 -0.021008780959705042 0 0.0029937043205579858 -0.029170247282265194 0 0.0018761261689772726 -0.021008780959705042 0 4.9213675417270498e-06 -1.2103622167067731e-05 0 0.0029937043205579858 -0.029170247282265194 0 0.0029639476377324322 -0.043296236320139778 0 0.0018761261689772726 -0.021008780959705042 0 0.0017165989787793858 -0.030954000685334014 0 0.0018761261689772726 -0.021008780959705042 0 0.0017165989787793858 -0.030954000685334014 0 5.3692058610861638e-06 -7.3913361262173959e-06 0 4.9213675417270498e-06 -1.2103622167067731e-05 0 0.0029937043205579858 -0.029170247282265194 0 0.0027974922274436702 -0.024394574975138805 0 0.0027974922274436702 -0.024394574975138805 0 -1.2502508171124486e-06 -9.678014878981288e-06 0 0.002537719041752479 -0.022662448997834445 0 4.9213675417270498e-06 -1.2103622167067731e-05 0 0.0027974922274436702 -0.024394574975138805 0 -1.2502508171124486e-06 -9.678014878981288e-06 0 2.4863159096989017e-05 -9.0686563394838356e-06 0 0.002537719041752479 -0.022662448997834445 0 0.0089892393315198216 -0.028328095209990908 0 -1.2502508171124486e-06 -9.678014878981288e-06 0 2.4863159096989017e-05 -9.0686563394838356e-06 0 0.002537719041752479 -0.022662448997834445 0 -9.3109928248059139e-05 -0.041324691297348441 0 0.0025237944163252748 -0.038752285233935563 0 0.0089892393315198216 -0.028328095209990908 0 0.002537719041752479 -0.022662448997834445 0 0.0025237944163252748 -0.038752285233935563 0 0.0028040106498066547 -0.043148166644228207 0 0.002537719041752479 -0.022662448997834445 0 0.0025237944163252748 -0.038752285233935563 0 0.0089892393315198216 -0.028328095209990908 0 0.00034464506293710765 -0.044469850502132736 0 -9.3109928248059139e-05 -0.041324691297348441 0 0.0025237944163252748 -0.038752285233935563 0 0.00034464506293710765 -0.044469850502132736 0 0.0025237944163252748 -0.038752285233935563 0 0.0028040106498066547 -0.043148166644228207 0 0.00034464506293710765 -0.044469850502132736 0 -0.00014913299439294443 -0.050272185894808592 0 0.0028040106498066547 -0.043148166644228207 0 -0.00014913299439294443 -0.050272185894808592 0 0.0028040106498066547 -0.043148166644228207 0 0.0022929888139891115 -0.053995750546408851 0 0.0028040106498066547 -0.043148166644228207 0 0.0022929888139891115 -0.053995750546408851 0 0.0035991334570767406 -0.042052417602468022 0 0.00013146392835887793 -0.062695434001834194 0 -0.002356476373132515 -0.056465512451011501 0 0.0022929888139891115 -0.053995750546408851 0 0.00013146392835887793 -0.062695434001834194 0 0.0022929888139891115 -0.053995750546408851 0 0.0027606214031949917 -0.061549357522132087 0 0.00013146392835887793 -0.062695434001834194 0 -9.6802491457185236e-05 -0.076284493650798466 0 0.0027606214031949917 -0.061549357522132087 0 -9.6802491457185236e-05 -0.076284493650798466 0 0.00046011759793216831 -0.069416895021874592 0 0.0027606214031949917 -0.061549357522132087 0 0.0022929888139891115 -0.053995750546408851 0 0.0027606214031949917 -0.061549357522132087 0 0.0036211638855822713 -0.052650848937609983 0 0.0018139103057113926 -0.06206820821970576 0 0.0027606214031949917 -0.061549357522132087 0 0.0036211638855822713 -0.052650848937609983 0 0.0022929888139891115 -0.053995750546408851 0 0.0036211638855822713 -0.052650848937609983 0 0.0035991334570767406 -0.042052417602468022 0 0.0029937043205579858 -0.029170247282265194 0 0.0027974922274436702 -0.024394574975138805 0 0.0035991334570767406 -0.042052417602468022 0 0.0036211638855822713 -0.052650848937609983 0 0.0035991334570767406 -0.042052417602468022 0 0.0033993856961924986 -0.044491689931077015 0 0.0029937043205579858 -0.029170247282265194 0 0.0035991334570767406 -0.042052417602468022 0 0.0033993856961924986 -0.044491689931077015 0 0.0027974922274436702 -0.024394574975138805 0 0.002537719041752479 -0.022662448997834445 0 0.0028040106498066547 -0.043148166644228207 0 0.0027974922274436702 -0.024394574975138805 0 0.0028040106498066547 -0.043148166644228207 0 0.0035991334570767406 -0.042052417602468022 0 
</DataArray>
</PointData>
<CellData Scalars="region_id," Vectors="" Tensors="effective_stress,">
<DataArray type="Float64" Name="region_id" format="ascii">
1 1 1 1 1 1 1 1 1 1 1 1 1 1 1 1 1 1 1 1 1 1 1 1 1 1 1 1 1 1 1 1 1 1 1 1 1 1 1 1 1 1 1 1 1 1 1 1 1 1 1 1 1 1 1 1 1 1 1 1 1 1 1 1 1 1 1 1 1 1 1 1 1 1 1 1 1 1 1 1 1 1 1 1 1 1 1 1 1 1 1 1 1 1 1 1 1 1 1 1 1 1 1 1 1 1 1 1 1 1 1 1 1 1 1 1 1 1 1 1 1 1 1 1 1 1 1 1 1 1 1 1 1 1 1 1 1 1 1 1 1 6 1 6 1 1 1 1 1 1 1 1 1 1 1 1 1 1 6 1 6 1 1 6 1 1 6 1 1 1 1 1 1 6 1 1 6 1 1 1 1 1 1 1 1 1 1 1 1 1 1 1 1 1 1 1 1 1 1 1 1 6 6 1 1 1 1 1 1 1 1 1 6 1 1 6 1 1 1 1 1 1 1 1 1 1 1 1 1 6 1 1 6 1 1 1 1 1 1 6 1 6 1 1 6 1 1 1 1 1 1 1 1 1 1 1 1 1 1 1 1 1 1 1 1 1 1 1 1 1 1 1 1 1 1 1 1 1 1 1 1 1 1 1 1 1 1 1 1 1 1 1 1 1 1 1 1 1 1 
</DataArray>
<DataArray type="Float64" Name="effective_stress" NumberOfComponents="9" format="ascii">
-0.013740494378763549 -0.046037330098014917 0 -0.046037330098014917 -0.0045812125220162925 0 0 0 -0.0045804267251949608 -0.039302229365292637 -0.038356390190573589 0 -0.038356390190573589 -0.01467042874191811 0 0 0 -0.013493164526802687 0.028738503424521882 -0.015792438423552033 0 -0.015792438423552033 -0.016166002311493635 0 0 0 0.003143125278257046 0.0043700538849399395 -0.029497268964159079 0 -0.029497268964159079 0.0035669280947630694 0 0 0 0.0019842454949257488 0.016929500933208996 -0.015127007242921953 0 -0.015127007242921953 -0.010103935604087122 0 0 0 0.0017063913322804686 0.0072197680756356519 -0.017935286332780364 0 -0.017935286332780364 -0.045750831561913008 0 0 0 -0.0096327658715693043 -0.007609184190760343 -0.047830789662200557 0 -0.047830789662200557 -0.071903131585055235 0 0 0 -0.019878078943953909 -0.0020895885782046264 -0.048055098886212115 0 -0.048055098886212115 -0.055350289076237624 0 0 0 -0.014359969413610535 -0.020324547240545832 -0.06496096162672578 0 -0.06496096162672578 -0.10236843492636316 0 0 0 -0.030673245541727234 -0.017147056385893644 -0.049381083041400937 0 -0.049381083041400937 -0.10261724122573135 0 0 0 -0.029941074402906165 -0.020612952821188024 -0.07470812056302889 0 -0.07470812056302889 -0.30133832920520298 0 0 0 -0.080487820506597751 0.018269176891774722 -0.10626862376075685 0 -0.10626862376075685 -0.098172772107440576 0 0 0 -0.019975898803916523 0.036628302811820612 -0.027703710252541314 0 -0.027703710252541314 -0.10421272800998693 0 0 0 -0.016896106299541636 0.03068224266593822 0.0034884276078123166 0 0.0034884276078123166 -0.06320098661874235 0 0 0 -0.0081296859882010186 -0.00075771104871183437 -0.019676428828891479 0 -0.019676428828891479 -0.09899317595931828 0 0 0 -0.024937721752007563 0.014834813579975924 -0.01777670046339444 0 -0.01777670046339444 -0.049291795510165819 0 0 0 -0.0086142454825474737 -0.0031791543561143706 -0.039736022545150809 0 -0.039736022545150809 -0.021905918783799994 0 0 0 -0.006271268284978572 -0.015620859253576508 -0.044352422684873993 0 -0.044352422684873993 -0.055384681710105022 0 0 0 -0.017751385240920375 -0.013598356440129716 -0.044785465418131429 0 -0.044785465418131429 -0.029241474174851456 0 0 0 -0.010709957653745286 -0.016805549275249097 -0.051300047743052093 0 -0.051300047743052093 -0.032421903700490071 0 0 0 -0.012306863243934783 -0.012314759702112515 -0.04804302563076418 0 -0.04804302563076418 -0.033284329549576608 0 0 0 -0.011399772312922274 -0.0123146120489699 -0.05820672972323887 0 -0.05820672972323887 -0.05450514614529095 0 0 0 -0.016704939548565181 -0.018030443715965308 -0.050446585215828607 0 -0.050446585215828607 -0.0060181652052630182 0 0 0 -0.0060121522303070831 -0.02044653597704215 -0.051837000422366164 0 -0.051837000422366164 -0.019661997713499413 0 0 0 -0.010027133422635393 -0.013747412183337776 -0.053610765999644205 0 -0.053610765999644205 -0.016442067026089191 0 0 0 -0.0075473698023567626 -0.012078568589046747 -0.049645707343699004 0 -0.049645707343699004 -0.016182495577845235 0 0 0 -0.0070652660417229937 -0.018904243169897278 -0.048222746150670806 0 -0.048222746150670806 -0.018275352987506561 0 0 0 -0.0092948990393509606 -0.013628026593565191 -0.055388750804941871 0 -0.055388750804941871 -0.0045246917822841393 0 0 0 -0.0045381795939623323 -0.01037558803043049 -0.05444227582362917 0 -0.05444227582362917 -0.01456919771724014 0 0 0 -0.0062361964369176603 -0.0058195776260229204 -0.063006946963355265 0 -0.063006946963355265 -0.0036296136508372767 0 0 0 -0.0023622978192150562 -0.0090401718509551324 -0.059523607723496769 0 -0.059523607723496769 -0.019165803461203001 0 0 0 -0.0070514938280395387 -0.018484962952883544 -0.052428818766736364 0 -0.052428818766736364 -0.014040565845298336 0 0 0 -0.0081313821995454838 0.035387162657593833 -0.047913430702297956 0 -0.047913430702297956 0.011778186213044526 0 0 0 0.011791337217659589 0.10398602050182845 -0.032946180687666124 0 -0.032946180687666124 0.01077539481188608 0 0 0 0.028690353828428626 -3.3243152583871394e-05 -0.049245904320966871 0 -0.049245904320966871 0.018300111650843137 0 0 0 0.0045667171245648008 0.0047417819327085914 -0.04466512017833052 0 -0.04466512017833052 -0.00075099627758873355 0 0 0 0.00099769641377996099 -0.00080868742359732626 -0.049558297559817971 0 -0.049558297559817971 0.011156298959015154 0 0 0 0.0025869028838544222 -0.0088558507179377077 -0.064001107645273947 0 -0.064001107645273947 -0.019219059620726342 0 0 0 -0.0070187275846660402 0.030233744518519234 -0.04842379427494764 0 -0.04842379427494764 0.003431770977788462 0 0 0 0.0084163788740769241 0.015678744869830979 -0.02520927593168425 0 -0.02520927593168425 0.0011007024058285464 0 0 0 0.0041948618189148745 0.038026657942795833 -0.018039563121130836 0 -0.018039563121130836 0.0027032454431917818 0 0 0 0.010182475846496924 -0.012404218582911866 -0.01770875995095747 0 -0.01770875995095747 -0.001818616921898164 0 0 0 -0.0035557088762025041 -0.053739732967275633 -0.019287232675325172 0 -0.019287232675325172 0.00025540582213512408 0 0 0 -0.013371081786285099 -0.011124554710301826 -0.017330258032623599 0 -0.017330258032623599 -0.0014085415654799815 0 0 0 -0.0031332740689454797 -0.001785670661587746 -0.044345230905581394 0 -0.044345230905581394 -0.0051664517675678034 0 0 0 -0.0017380306072889429 -0.04220608698650874 -0.052066150367097275 0 -0.052066150367097275 -0.015760134558710615 0 0 0 -0.014491555386304922 -0.040916303003592933 -0.051397522553952968 0 -0.051397522553952968 -0.014373008906910706 0 0 0 -0.013822327977625934 -0.022531059614408488 -0.055925125240329346 0 -0.055925125240329346 -0.016206192837685762 0 0 0 -0.0096843131130235349 -0.031936411295901523 -0.067110194747233343 0 -0.067110194747233343 -0.029031184081850236 0 0 0 -0.015241898844437995 -0.014793209566551321 -0.058371957646779826 0 -0.058371957646779826 -0.011998028444818953 0 0 0 -0.006697809502842586 -0.0076956955609848166 -0.066014643268932388 0 -0.066014643268932388 -0.01562749705954114 0 0 0 -0.0058307981551314891 -0.013289882439110667 -0.071701162790437339 0 -0.071701162790437339 -0.032258909006770753 0 0 0 -0.011387197861470355 -0.0099729437898705697 -0.071048282648656091 0 -0.071048282648656091 -0.032603440033020903 0 0 0 -0.010644095955722854 -0.019746024229389286 -0.077180574840161609 0 -0.077180574840161609 -0.042520494415905996 0 0 0 -0.0155666296613238 -0.010873527869916799 -0.073390942962574979 0 -0.073390942962574979 -0.050046683538997661 0 0 0 -0.015230052852228726 -0.0088059318090308869 -0.075409803197882819 0 -0.075409803197882819 -0.047688294825092736 0 0 0 -0.014123556658531045 -0.0095132307587102449 -0.072580629227256666 0 -0.072580629227256666 -0.052408061700095043 0 0 0 -0.015480323114701156 -0.0087174510338689504 -0.068084172819113942 0 -0.068084172819113942 -0.054597951277240653 0 0 0 -0.015828850577777442 -0.011031102350429478 -0.069424642455675145 0 -0.069424642455675145 -0.05771886634875889 0 0 0 -0.017187492174796981 -0.017018917741390638 -0.070987779823242003 0 -0.070987779823242003 -0.063403594620917492 0 0 0 -0.020105628090577143 -0.013163486094322718 -0.068751155036602007 0 -0.068751155036602007 -0.056253547980550156 0 0 0 -0.017354258518718413 -0.011554055266985053 -0.071755018065429499 0 -0.071755018065429499 -0.057836712146623892 0 0 0 -0.017347691853402125 -0.015630780988076687 -0.074144730175628948 0 -0.074144730175628948 -0.051672852168058503 0 0 0 -0.016825908289033797 -0.019370261142281908 -0.075384981308872889 0 -0.075384981308872889 -0.062158394479866708 0 0 0 -0.020382163905537265 -0.026897279099100446 -0.074760779191683946 0 -0.074760779191683946 -0.050701574362147062 0 0 0 -0.019399713365311877 -0.024777523135873336 -0.073701906672343276 0 -0.073701906672343276 -0.069661975983393187 0 0 0 -0.023609874779816575 -0.018586807087154988 -0.070095757506589473 0 -0.070095757506589473 -0.057978717514745037 0 0 0 -0.019141381150474923 -0.027682677200009942 -0.070259623539533633 0 -0.070259623539533633 -0.066115447952981299 0 0 0 -0.023449531288247893 -0.036953730025701015 -0.076016126996662159 0 -0.076016126996662159 -0.077694670109412112 0 0 0 -0.028662100033778337 -0.03516172868394038 -0.07923827716451981 0 -0.07923827716451981 -0.060655215496833059 0 0 0 -0.023954236045193283 -0.038312122348335198 -0.07028003302010849 0 -0.07028003302010849 -0.02958064321698517 0 0 0 -0.016973191391330189 -0.021439181827165199 -0.07677717937079423 0 -0.07677717937079423 -0.048893919827696974 0 0 0 -0.017583275413715627 -0.065933640759440748 -0.058504018331487495 0 -0.058504018331487495 -0.016598307957460534 0 0 0 -0.020632987179225348 -0.048375169835506826 -0.076006105716472927 0 -0.076006105716472927 -0.043296790551185405 0 0 0 -0.022917990096673169 -0.038298765832148307 -0.078464471667002808 0 -0.078464471667002808 -0.070007762728502509 0 0 0 -0.02707663214016276 -0.056109600725927578 -0.07746908953001086 0 -0.07746908953001086 -0.04591615983120307 0 0 0 -0.025506440139282549 -0.040462927706979568 -0.073023464835297869 0 -0.073023464835297869 -0.065505526657584134 0 0 0 -0.026492113591141009 -0.052435696660683595 -0.080793976491679409 0 -0.080793976491679409 -0.086420262089263122 0 0 0 -0.034713989687486846 -0.055155962289723581 -0.076347991666964266 0 -0.076347991666964266 -0.070414960580006403 0 0 0 -0.031392730717432593 -0.074247967592082631 -0.087513041710372108 0 -0.087513041710372108 -0.097608395785465873 0 0 0 -0.042964090844386904 -0.07919885702595153 -0.08923312257207916 0 -0.08923312257207916 -0.067974500960164441 0 0 0 -0.036793339496529076 -0.13185079569898495 -0.094594882015364368 0 -0.094594882015364368 -0.075528238837657025 0 0 0 -0.051844758634160604 -0.077881213030644436 -0.070583723984815383 0 -0.070583723984815383 -0.033502168743148264 0 0 0 -0.027845845443448258 -0.1320398164449641 -0.094859268152719833 0 -0.094859268152719833 -0.075414829408646966 0 0 0 -0.05186366146340271 -0.086266265705970513 -0.074334434646324832 0 -0.074334434646324832 -0.075327057336626702 0 0 0 -0.04039833076064947 -0.15268399401786861 -0.087313481809828897 0 -0.087313481809828897 -0.084138754694115803 0 0 0 -0.059205687177996041 -0.13049139361185969 -0.098990044418182155 0 -0.098990044418182155 -0.12130971662422851 0 0 0 -0.062950277559021828 -0.32303437206899277 -0.098990017948787035 0 -0.098990017948787035 -0.072044415309284515 0 0 0 -0.098769696844569044 -0.19218727915047329 -0.11446617512891172 0 -0.11446617512891172 -0.14305258498199214 0 0 0 -0.083809966033116412 -0.17531510130907479 -0.051253886024677398 0 -0.051253886024677398 0.010841903339096515 0 0 0 -0.04111829949249457 -0.13505320961554002 -0.035718301699756205 0 -0.035718301699756205 -0.013554524142586732 0 0 0 -0.037151933439531715 -0.10274500713303247 -0.026416621038656551 0 -0.026416621038656551 0.00084276229582269657 0 0 0 -0.025475561209302389 -0.091541832630772091 -0.069916673010073094 0 -0.069916673010073094 -0.036340390286453084 0 0 0 -0.031970555729306183 -0.064108275582449581 -0.02352042548970841 0 -0.02352042548970841 -0.0072494286772244454 0 0 0 -0.017839426064918507 -0.0056097187289643191 -0.06458123336262743 0 -0.06458123336262743 -0.047004755050465197 0 0 0 -0.013153618444857296 -0.00025578860612812324 -0.06052715953311541 0 -0.06052715953311541 -0.038054558334602126 0 0 0 -0.0095775867351825493 -0.02025430055316102 -0.052269423889339417 0 -0.052269423889339417 -0.04279622797179683 0 0 0 -0.015762632131239435 -0.013836416823217096 -0.061390188904305185 0 -0.061390188904305185 -0.032243119756561689 0 0 0 -0.011519884144944731 -0.012394628276181263 -0.068144031814447628 0 -0.068144031814447628 -0.033192839138483143 0 0 0 -0.011396866853666088 -0.010667223886711708 -0.07466721434218232 0 -0.07466721434218232 -0.042713912180897706 0 0 0 -0.013345284016902326 -0.0029376427861950438 -0.069639838027304501 0 -0.069639838027304501 -0.029560882988861698 0 0 0 -0.0081246314437642131 -0.00089280951958618099 -0.06775938676075105 0 -0.06775938676075105 -0.028803460045191097 0 0 0 -0.0074240673911943403 -0.0058434735404744309 -0.070499043765234359 0 -0.070499043765234359 -0.044285041644755996 0 0 0 -0.012532128796307662 0.00072562281781378066 -0.0717573807712647 0 -0.0717573807712647 -0.042212459116988288 0 0 0 -0.01037170907479364 0.0030211678510571049 -0.072881657580643688 0 -0.072881657580643688 -0.045938832392194984 0 0 0 -0.010729416135284442 -0.0044678789756870951 -0.072809036458590715 0 -0.072809036458590715 -0.041769903577836609 0 0 0 -0.011559445638380877 -0.0027936014941570275 -0.073789025915864004 0 -0.073789025915864004 -0.046139226132254851 0 0 0 -0.012233206906602956 -0.0048515312715629033 -0.071986393257841952 0 -0.071986393257841952 -0.050854049139960722 0 0 0 -0.01392639510288074 -0.006799420248076643 -0.071254419199041408 0 -0.071254419199041408 -0.049876045495449106 0 0 0 -0.014168866435881527 -0.0019547002043408535 -0.071934162420263459 0 -0.071934162420263459 -0.045452401064524306 0 0 0 -0.011851775317216373 -0.0029342103415817 -0.072181608084951221 0 -0.072181608084951221 -0.045071990021193109 0 0 0 -0.012001550090693924 -0.0039072765291623401 -0.069217794132404031 0 -0.069217794132404031 -0.049750093155131347 0 0 0 -0.013414342421073644 -0.0016203227137665532 -0.070058891911228494 0 -0.070058891911228494 -0.043505347914366777 0 0 0 -0.011281417657033499 -0.0036826353736350015 -0.069038212338158989 0 -0.069038212338158989 -0.047847042984474619 0 0 0 -0.012882419589527405 -0.0068196038192278596 -0.069188640682710134 0 -0.069188640682710134 -0.052613344732316936 0 0 0 -0.014858237137886254 -0.0051316350718386416 -0.068225324028325263 0 -0.068225324028325263 -0.049458553037230568 0 0 0 -0.01364754702726742 0.0011816177733978694 -0.072980337651142008 0 -0.072980337651142008 -0.04262227772827476 0 0 0 -0.010360164988719056 0.0010764481349792021 -0.073737063163084815 0 -0.073737063163084815 -0.046898821552656011 0 0 0 -0.011455593354419258 0.00015179126126552145 -0.072100536061736387 0 -0.072100536061736387 -0.045518784517468491 0 0 0 -0.011341748314050548 -0.0018275447018828994 -0.070172133967250083 0 -0.070172133967250083 -0.044037495002201332 0 0 0 -0.011466259926021183 -0.00012005838878947905 -0.071100120722527138 0 -0.071100120722527138 -0.039180853152462891 0 0 0 -0.009825227885313037 -0.0023202093634350357 -0.072422021729025898 0 -0.072422021729025898 -0.043887181405994291 0 0 0 -0.011551847692357411 3.9125575569620707e-05 -0.073491393107177783 0 -0.073491393107177783 -0.03537827299751628 0 0 0 -0.0088347868554865538 0.0011242970509797168 -0.077333019388875268 0 -0.077333019388875268 -0.030626316898217709 0 0 0 -0.0073755049618098312 -0.0028148658763902379 -0.075153289722732719 0 -0.075153289722732719 -0.043175981193071866 0 0 0 -0.011497711767365471 0.006208693595830983 -0.08289687211379837 0 -0.08289687211379837 -0.025755419268811863 0 0 0 -0.004886681418245109 -0.00074278838239394407 -0.079659472355268157 0 -0.079659472355268157 -0.043191862059480446 0 0 0 -0.01098366261046857 0.0083231002039763635 -0.074931116357495997 0 -0.074931116357495997 -0.047439556416062456 0 0 0 -0.0097791140530215093 0.0013559501487964698 -0.074987929949346332 0 -0.074987929949346332 -0.046460192030671199 0 0 0 -0.011276060470468641 0.0027411206832150259 -0.075331290733870904 0 -0.075331290733870904 -0.04157646657242986 0 0 0 -0.0097088364723037501 0.003028164907229014 -0.070877071157315952 0 -0.070877071157315952 -0.054068033441486474 0 0 0 -0.01275996713356442 -0.01372439307754203 -0.052190885750443901 0 -0.052190885750443901 -0.064923545666045746 0 0 0 -0.019661984685896916 0.011571087486699695 -0.066293738718644857 0 -0.066293738718644857 -0.054594995192588827 0 0 0 -0.010755976926472254 0.0060541000416891588 -0.072136285091343066 0 -0.072136285091343066 -0.072496003481710591 0 0 0 -0.016610475860005303 0.010002853629700326 -0.076932107866844901 0 -0.076932107866844901 -0.049385911654864056 0 0 0 -0.0098457645062908217 -0.0032556444463921197 -0.088594112476310216 0 -0.088594112476310216 -0.054985412869615252 0 0 0 -0.01456026432900201 0.0095187948531654243 -0.093392244449397421 0 -0.093392244449397421 -0.01656241331960473 0 0 0 -0.0017609046166100484 0.0069949986247062335 -0.096150326426890809 0 -0.096150326426890809 -0.058901297586291368 0 0 0 -0.012976574740396346 0.029366347339210508 -0.10915399517300872 0 -0.10915399517300872 -0.017016283416629197 0 0 0 0.0030875159806453834 -0.001925230427776814 0.099651288098775992 0 0.099651288098775992 -0.064502157913921554 0 0 0 -0.016606847085424481 0.014977946481121693 0.10980476310951492 0 0.10980476310951492 -0.021577938409598946 0 0 0 -0.0016499979821194247 -0.18461286424486589 -0.0036022868071654557 0 -0.0036022868071654557 -1.7214036336925771 0 0 0 -0.47650412448437496 0.012056369196265869 0.091777181985028156 0 0.091777181985028156 -0.016177922776446856 0 0 0 -0.0010303883950450803 0.042463261949898579 0.010506379931769061 0 0.010506379931769061 -2.2306001383066687 0 0 0 -0.54703421908918892 0.0010955566873129818 0.086183866615353377 0 0.086183866615353377 -0.044577308685175954 0 0 0 -0.010870437999465743 0.013724250932523552 0.080106941409704646 0 0.080106941409704646 -0.059665581223621533 0 0 0 -0.011485332572774565 0.01019121762777786 0.074204761715571582 0 0.074204761715571582 -0.11302284916011507 0 0 0 -0.025707907883084413 0.023355509286858228 0.084638227033033364 0 0.084638227033033364 -0.053770208605385894 0 0 0 -0.0076036748296318957 0.0047736724020489563 0.059610876802584034 0 0.059610876802584034 -0.056891325676001747 0 0 0 -0.013029413318488225 -0.001251203209174101 0.063236356742827182 0 0.063236356742827182 -0.066777120187357486 0 0 0 -0.017007080849132883 0.0079437124037171312 0.068757918146846508 0 0.068757918146846508 -0.048219556033172892 0 0 0 -0.010068960907363898 0.0028627535997762799 0.071409020391516004 0 0.071409020391516004 -0.050265696577641572 0 0 0 -0.011850735744466323 0.003591715426526032 0.076008931340109498 0 0.076008931340109498 -0.049810845243423607 0 0 0 -0.011554782454224422 0.001149092636630128 0.074381140640477295 0 0.074381140640477295 -0.041388013659453937 0 0 0 -0.010059730255706029 0.0053289182687159542 0.079317141817951242 0 0.079317141817951242 -0.047021258513589625 0 0 0 -0.010423085061218473 0.0073038446332062135 0.078816231457441377 0 0.078816231457441377 -0.041237124225505184 0 0 0 -0.0084833198980748259 -0.0020068004073652279 0.078512895922245085 0 0.078512895922245085 -0.043958315315765883 0 0 0 -0.011491278930782611 0.0052024542945010577 0.082904617825458771 0 0.082904617825458771 -0.02578432707973688 0 0 0 -0.005145468196309011 -0.014431932190991037 -0.0054057688998341291 0 -0.0054057688998341291 -2.6986834979160457 0 0 0 -0.67827885752675554 -0.0022334370935463976 0.074811523924160017 0 0.074811523924160017 -0.042203598723224545 0 0 0 -0.011109258954192791 -0.0015679963864949631 0.0019546672678529831 0 0.0019546672678529831 -3.1236848058999054 0 0 0 -0.78131320057160014 0.0014044332646172553 0.076578861147650001 0 0.076578861147650001 -0.030697669910807246 0 0 0 -0.0073233091615474422 0.00036048481438566427 0.073058042506321086 0 0.073058042506321086 -0.035194509293738019 0 0 0 -0.0087085061198381997 -0.0061356719797370785 -0.0018479105926303419 0 -0.0018479105926303419 -3.5298338194782066 0 0 0 -0.88399237286447885 -0.0024314199660520064 0.071346133760242347 0 0.071346133760242347 -0.042789690144305226 0 0 0 -0.011305277527589253 -0.001665873529086762 0.070895146081170424 0 0.070895146081170424 -0.039771306409900238 0 0 0 -0.010359294984746751 -0.0047600252251347452 -0.0014015672564369197 0 -0.0014015672564369197 -3.9190543358006953 0 0 0 -0.9809535902564539 -0.0035871416798363143 0.069957829412421124 0 0.069957829412421124 -0.04561123660850086 0 0 0 -0.012299594572084072 -0.0026245512872769827 0.072332000961045306 0 0.072332000961045306 -0.044108644704571209 0 0 0 -0.011683298997962138 -0.0011500483312356646 0.072493219340604431 0 0.072493219340604431 -0.046058179069854654 0 0 0 -0.01180205685027258 0.00076255239000475039 0.073697572106766196 0 0.073697572106766196 -0.042901750709152586 0 0 0 -0.010534799579787008 -0.0062242397782206194 0.068525424673179014 0 0.068525424673179014 -0.051355124974003186 0 0 0 -0.014394841188056118 -0.0048897201754829478 0.069295909925058075 0 0.069295909925058075 -0.048316754180354415 0 0 0 -0.013301618588959174 -0.0093550129313508534 0.00040976363789013703 0 0.00040976363789013703 -4.6687742384998074 0 0 0 -1.1695323128578003 -0.0042810531374315453 0.068944495846792075 0 0.068944495846792075 -0.046995189256288317 0 0 0 -0.012819060598429965 -0.0031711292159939397 0.069635450081860339 0 0.069635450081860339 -0.044039974923695269 0 0 0 -0.011802776034922413 -0.0067792395276751738 0.0011203166370137296 0 0.0011203166370137296 -4.2977628688036544 0 0 0 -1.0761355270828219 -0.0039098704774631898 0.072358242728126188 0 0.072358242728126188 -0.048019530634354046 0 0 0 -0.012982350277954052 -0.0065087001082708429 0.072357409520538374 0 0.072357409520538374 -0.050016038992687417 0 0 0 -0.014131184775239419 -0.0051163254547428316 0.071768531510011058 0 0.071768531510011058 -0.048967887516776498 0 0 0 -0.013521053242879777 -0.005702508420640906 0.07526187860156569 0 0.07526187860156569 -0.048552800292744225 0 0 0 -0.013563827178346366 -0.0032062540776879866 0.073783075630698192 0 0.073783075630698192 -0.043699732099995003 0 0 0 -0.011726496544420706 0.0026146420426877981 0.07069630400000701 0 0.07069630400000701 -0.044471970168080466 0 0 0 -0.010464332031348111 -0.003878237538070197 0.073397153229331269 0 0.073397153229331269 -0.046977263991849288 0 0 0 -0.012713875382479803 -0.0046137057065383028 0.070394862033990035 0 0.070394862033990035 -0.04679971942763525 0 0 0 -0.0128533562835434 -0.0071225240468380246 0.073763592614198181 0 0.073763592614198181 -0.031016228403058621 0 0 0 -0.0095346881124742378 -0.0054087527766429125 0.073044291415238716 0 0.073044291415238716 -0.044124345604476034 0 0 0 -0.012383274595279749 -0.0077019205464258118 0.066879333259339438 0 0.066879333259339438 -0.02778286210991928 0 0 0 -0.0088711956640862739 -0.0095048395072031139 0.066192737103142968 0 0.066192737103142968 -0.034103269353284421 0 0 0 -0.010902027215121887 -0.015925029650730088 0.052435421063107668 0 0.052435421063107668 -0.035754656332201984 0 0 0 -0.012919921495732983 -0.0026374941275524866 0.059749613110264096 0 0.059749613110264096 -0.03892183376209668 0 0 0 -0.010389831972412333 -0.0186591494255589 0.050530409896367756 0 0.050530409896367756 -0.061298560286878107 0 0 0 -0.019989427428109212 -0.0064199400053032447 0.061230442111098404 0 0.061230442111098404 -0.052738842701654499 0 0 0 -0.014789695676739463 0.00035993973377379529 0.063943386982546147 0 0.063943386982546147 -0.032998469564497035 0 0 0 -0.0081596324576808377 -0.064223992879620578 0.02413928925943587 0 0.02413928925943587 -0.0042819124663562302 0 0 0 -0.017126476336494251 -0.076052969932936532 0.062568941637436648 0 0.062568941637436648 -0.026140939315106415 0 0 0 -0.02554847731201082 -0.11676225935594803 0.03086536718738131 0 0.03086536718738131 -0.0024280933729270426 0 0 0 -0.029797588182218837 -0.13089660648633572 0.035826247759796759 0 0.035826247759796759 -0.010263267909420115 0 0 0 -0.035289968598938959 -0.16764127110227833 0.04394840078102602 0 0.04394840078102602 0.01681980418669804 0 0 0 -0.037705366728895129 -0.32561647441513597 0.096557905017035983 0 0.096557905017035983 -0.074274767051519142 0 0 0 -0.0999728103666635 -0.1966886041817395 0.11610721026689041 0 0.11610721026689041 -0.14437223466326277 0 0 0 -0.085265209711250733 -0.66160046137464135 -0.0021082014296212037 0 -0.0021082014296212037 -8.3886630650476945 0 0 0 -2.2625658816056053 -0.1644084223711213 0.0031350175936495361 0 0.0031350175936495361 -7.7875922432324005 0 0 0 -1.9880001664008804 -0.12253155200002208 0.097410821023013128 0 0.097410821023013128 -0.11873427527848435 0 0 0 -0.060316456819626385 -0.14891767429971114 0.084407067198730368 0 0.084407067198730368 -0.075980714498228963 0 0 0 -0.056224597199485027 -0.094338008399132089 0.080795432915334531 0 0.080795432915334531 -0.081490872894937283 0 0 0 -0.043957220323517454 -0.12251407798894498 0.07558204149952269 0 0.07558204149952269 -0.038801238045873987 0 0 0 -0.040328829008704825 -0.15554751378607379 0.094935351325236728 0 0.094935351325236728 -0.073803336308381873 0 0 0 -0.05733771252361386 -0.087345980290924885 0.089832460630495548 0 0.089832460630495548 -0.082966343759135697 0 0 0 -0.042578081012514923 -0.047970282646827789 0.072520040921862594 0 0.072520040921862594 -0.044188396724013534 0 0 0 -0.023039669842710442 -0.083419310749358377 0.088202634151778037 0 0.088202634151778037 -0.072658348790990424 0 0 0 -0.039019414885087089 -0.056631188807217181 0.072747876624145946 0 0.072747876624145946 -0.07696161673521118 0 0 0 -0.033398201385607007 -0.16044560252189766 -0.0014786334449468086 0 -0.0014786334449468086 -7.359426846049085 0 0 0 -1.8799681121427385 -0.083306159461166152 0.086255272551426954 0 0.086255272551426954 -0.10071534410318517 0 0 0 -0.046005375891088107 -0.047364313699060787 0.079930649958668942 0 0.079930649958668942 -0.084862289164709795 0 0 0 -0.033056650715942534 -0.085360963431794556 -0.004406665359397266 0 -0.004406665359397266 -6.9332215152824324 0 0 0 -1.7546456196785425 -0.037584084653373928 0.074196737702843962 0 0.074196737702843962 -0.069027144965219556 0 0 0 -0.026652807404648371 -0.053649784212918661 0.083491272921587339 0 0.083491272921587339 -0.060910513192986127 0 0 0 -0.028640074351476308 -0.091001284200337595 0.074954380014775085 0 0.074954380014775085 -0.044423744600574189 0 0 0 -0.033856257200227891 -0.045427593091963009 0.058208655341510374 0 0.058208655341510374 -0.015743717679186808 0 0 0 -0.015292827692787309 -0.047032521737246619 0.077209196168392391 0 0.077209196168392391 -0.043046374741920579 0 0 0 -0.022519724119791779 -0.029519682681956594 0.068903378582241936 0 0.068903378582241936 -0.027757494443961805 0 0 0 -0.014319294281479544 -0.025762837718347781 0.077252465354382627 0 0.077252465354382627 -0.045495979894311922 0 0 0 -0.017814704403164877 -0.031631157353714578 0.079826164523077725 0 0.079826164523077725 -0.057857626390409367 0 0 0 -0.022372195936030903 -0.018545429499829846 0.073375822072394958 0 0.073375822072394958 -0.045160026473003878 0 0 0 -0.015926363993208459 -0.032466715712523297 0.073509998813349742 0 0.073509998813349742 -0.04247246084123435 0 0 0 -0.018734794138439315 -0.033504605485789263 0.075814067751743819 0 0.075814067751743819 -0.069588302288721149 0 0 0 -0.025773226943627492 -0.030977271357179204 0.077776263940592671 0 0.077776263940592671 -0.065623298202661218 0 0 0 -0.024150142389960161 -0.025646879959554392 0.071126648421984462 0 0.071126648421984462 -0.066302018435234977 0 0 0 -0.022987224598697287 -0.065557572785316265 0.0021759236273624083 0 0.0021759236273624083 -6.5463511154075551 0 0 0 -1.6529771720482214 -0.033099933335864362 0.075288587072708912 0 0.075288587072708912 -0.07619642149580752 0 0 0 -0.027324088707918026 -0.018198338194283847 0.069975012185894303 0 0.069975012185894303 -0.061271325713516234 0 0 0 -0.019867415976950076 -0.04348368200909003 0.003325588087250253 0 0.003325588087250253 -6.1569014252933014 0 0 0 -1.5500962768256012 -0.022573887423508632 0.072500608339030048 0 0.072500608339030048 -0.068892652798273613 0 0 0 -0.022866635055445395 -0.018137317106790229 0.074003529865391493 0 0.074003529865391493 -0.062625259799629962 0 0 0 -0.020190644226605103 -0.023692085345923375 0.073747644836866688 0 0.073747644836866688 -0.056612722709018071 0 0 0 -0.020076202013735389 -0.016189456037312144 0.07364245912186515 0 0.07364245912186515 -0.056889212580302662 0 0 0 -0.018269667154403813 -0.011834813825002621 0.071559857899437307 0 0.071559857899437307 -0.052896677011315063 0 0 0 -0.016182872709079366 -0.012675249735534355 0.068390644046918747 0 0.068390644046918747 -0.058584087267081753 0 0 0 -0.017814834250653777 -0.030078105105843078 0.0011446047878962418 0 0.0011446047878962418 -5.7817707404825516 0 0 0 -1.4529622113971021 -0.016612352080617621 0.070526474521706128 0 0.070526474521706128 -0.063249784398696995 0 0 0 -0.019965534119828598 -0.013831293811921525 0.0014336243892216771 0 0.0014336243892216771 -5.0393153601212619 0 0 0 -1.2632866634832993 -0.0072382261436126881 0.069099975068635855 0 0.069099975068635855 -0.052771505907372437 0 0 0 -0.015002433012746171 -0.010657736223037784 0.069671542352732985 0 0.069671542352732985 -0.05756367052885647 0 0 0 -0.017055351687973674 -0.021362925371004482 -4.5361838658664055e-05 0 -4.5361838658664055e-05 -5.4100962406522788 0 0 0 -1.3578647915058277 -0.0084967998433393976 0.068414554430164087 0 0.068414554430164087 -0.053715090372686625 0 0 0 -0.01555297255400645 -0.0081654754756968206 0.0722682783930092 0 0.0722682783930092 -0.055288416264597517 0 0 0 -0.015863472935073758 -0.0082928399873936631 0.073285770177428267 0 0.073285770177428267 -0.042278271679567325 0 0 0 -0.012642777916740233 -0.014773230578021115 0.077143903045763795 0 0.077143903045763795 -0.053196077386763227 0 0 0 -0.016992326991196086 -0.0012293813434655354 0.059079633222281713 0 0.059079633222281713 -0.012993223743332352 0 0 0 -0.0035556512716994892 -0.010807586996574442 0.075892395416844005 0 0.075892395416844005 -0.042124333468319605 0 0 0 -0.013232980116223453 -0.011380232102633392 0.069560241098290315 0 0.069560241098290315 -0.029177232934973762 0 0 0 -0.010139366259401816 -0.017148378675160836 0.065774947903545822 0 0.065774947903545822 -0.024843700051303985 0 0 0 -0.010498019681616233 -0.022651430221566807 0.069880020885370042 0 0.069880020885370042 -0.027290544103728831 0 0 0 -0.012485493581323934 -0.031057940533919526 0.049916353272211611 0 0.049916353272211611 -0.0082126328832815565 0 0 0 -0.0098176433543002428 -0.044202258857335752 0.055997800973373479 0 0.055997800973373479 -0.019383249911856693 0 0 0 -0.015896377192298083 0.00031131551185122758 0.045474470625516766 0 0.045474470625516766 -0.0059907298840127798 0 0 0 -0.0014198535930404002 -0.012209268044873267 0.019615782231353893 0 0.019615782231353893 0.0019025384717130389 0 0 0 -0.0025766823932900362 -0.051388000679523482 0.020619409799092762 0 0.020619409799092762 0.00093118571912542691 0 0 0 -0.012614203740099528 -0.0123109819065432 0.021591950912203561 0 0.021591950912203561 -0.0022198083281933512 0 0 0 -0.0036326975586841448 0.032665963252632185 0.048687621631971385 0 0.048687621631971385 0.01087114165972897 0 0 0 0.01088427622809029 0.037583460431499349 0.023004376197236592 0 0.023004376197236592 0.0011095351994964697 0 0 0 0.0096732489077489547 0.01561620118759614 0.026660237281971873 0 0.026660237281971873 -0.0032342351413483794 0 0 0 0.0030954915115619618 -0.0087647304504316903 0.067698311444635534 0 0.067698311444635534 -0.011984929038474201 0 0 0 -0.005187414872226459 -0.003382511943962674 0.049543337810708563 0 0.049543337810708563 0.0014286542771078741 0 0 0 -0.00048846441671369651 0.027563862043627596 0.045549370302971355 0 0.045549370302971355 0.0014092217557989534 0 0 0 0.0072432709498566478 -0.012501226013639427 0.050631674926117864 0 0.050631674926117864 -0.0057011801634041515 0 0 0 -0.0045506015442609016 0.00068193518299533627 0.049153363899411072 0 0.049153363899411072 0.019921579658991332 0 0 0 0.0051508787104966669 0.10401450357726991 0.032115419733483502 0 0.032115419733483502 0.011590753281221555 0 0 0 0.028901314214622869 -0.014524073816176215 0.054363455393929769 0 0.054363455393929769 -0.0048212521849511627 0 0 0 -0.0048363315002818439 -0.013741976331184277 0.056894296234313191 0 0.056894296234313191 -0.020995012311388284 0 0 0 -0.0086842471606431298 -0.018332173310950717 0.052119296485576269 0 0.052119296485576269 -0.011953226322274246 0 0 0 -0.0075713499083062547 -0.010490638845620778 0.056782770443185734 0 0.056782770443185734 -0.010900357324148457 0 0 0 -0.0053477490424422985 -0.011374421749878712 0.055552247901286975 0 0.055552247901286975 -0.013204650401275837 0 0 0 -0.00614476803778863 -0.020453139790221064 0.052627828699032528 0 0.052627828699032528 -0.018166236291729698 0 0 0 -0.0096548440204876768 -0.021238308365706803 0.047821582568699179 0 0.047821582568699179 -0.021053857592052833 0 0 0 -0.010573041489439904 -0.017168169756123782 0.049903616455996863 0 0.049903616455996863 -0.0057330725098038117 0 0 0 -0.0057253105664818995 -0.042826793650210276 0.034608757781668088 0 0.034608757781668088 -0.013736365943921469 0 0 0 -0.014140789898532943 -0.015129982114796979 0.045091395017448889 0 0.045091395017448889 -0.005045927301367532 0 0 0 -0.0050439773540411278 0.032548427150861522 0.015368486218167728 0 0.015368486218167728 -0.018608789072142889 0 0 0 0.0034849095196796687 -0.010079963955848079 0.039543914052318677 0 0.039543914052318677 -0.029443071238103857 0 0 0 -0.0098807587984879874 0.011434822227628247 0.020967805160788482 0 0.020967805160788482 0.010938342040075794 0 0 0 0.0055932910669260205 0.01637770093872902 0.015652976004330035 0 0.015652976004330035 -0.010000656388488353 0 0 0 0.0015942611375601562 0.011671395929288994 0.012960764704122246 0 0.012960764704122246 -0.024764088822507802 0 0 0 -0.0032731732233046845 0.0083268130952484677 0.016456704576264053 0 0.016456704576264053 -0.047667165133158072 0 0 0 -0.0098350880094774072 -0.0020815985666298165 0.019476803037364418 0 0.019476803037364418 -0.094185539440626465 0 0 0 -0.024066784501814098 -0.00057374032551033016 0.043836430301615742 0 0.043836430301615742 -0.03622347117117336 0 0 0 -0.0091993028741709504 -0.0066031338461289835 -0.0011339664627794677 0 -0.0011339664627794677 -0.18098996844309423 0 0 0 -0.046898275572305859 0.031341101815983763 0.034423443091248895 0 0.034423443091248895 -0.08843179627883746 0 0 0 -0.014272673615713438 -0.032938650721123168 0.065234929550001874 0 0.065234929550001874 -0.3088858909639432 0 0 0 -0.085456135421266552 0.017673542619270344 0.10459150797079014 0 0.10459150797079014 -0.080585510716806752 0 0 0 -0.015727992024384019 -0.018068660229369496 0.062262734951408827 0 0.062262734951408827 -0.097101121236020646 0 0 0 -0.028792445366347577 -0.011648758287376465 0.04835080265077607 0 0.04835080265077607 -0.084229099387441664 0 0 0 -0.023969464418704539 -0.012148919746637829 0.048298803079505598 0 0.048298803079505598 -0.067508173248737591 0 0 0 -0.019914273248843831 -0.011778524109771368 0.048931309164329112 0 0.048931309164329112 -0.017399622024400471 0 0 0 -0.0072945365335429467 -0.016131794774680186 0.054285088978880902 0 0.054285088978880902 -0.039482463645406751 0 0 0 -0.013903564605021734 -0.017209745175687713 0.052998787530807223 0 0.052998787530807223 -0.039797144280683594 0 0 0 -0.014251722364092834 -0.0056537681520295018 0.042684286981800768 0 0.042684286981800768 -0.015468297871579644 0 0 0 -0.0052805165059022757 -0.017220348554474962 0.048029427435065851 0 0.048029427435065851 -0.043994950691977175 0 0 0 -0.01530382481161302 
</DataArray>
</CellData>
</Piece>
</UnstructuredGrid>
</VTKFile>
