<?xml version="1.0"?>
<VTKFile type="UnstructuredGrid" version="0.1" byte_order="LittleEndian">
<UnstructuredGrid>
<Piece NumberOfPoints="880" NumberOfCells="299">
<Points>
<DataArray type="Float64" NumberOfComponents="3" format="ascii">
0 0.25000000000104189 0 -0 0 0 0.18653882694645291 0.22249173546702489 0 -0 0 0 0.24999999999941089 0 0 0.18653882694645291 0.22249173546702489 0 0.24999999999941089 0 0 0.49999999999869182 0 0 0.35015135319464608 0.1900339269648805 0 0.24999999999941089 0 0 0.35015135319464608 0.1900339269648805 0 0.18653882694645291 0.22249173546702489 0 0.35015135319464608 0.1900339269648805 0 0.49999999999869182 0 0 0.49924741621175961 0.21507969613896921 0 0.40587285776242238 0.32419148732968017 0 0.35015135319464608 0.1900339269648805 0 0.49924741621175961 0.21507969613896921 0 0.45418244162583959 0.41624787166862259 0 0.41576443813007791 0.48093483781626972 0 0.37764981543668408 0.41341486499350411 0 0.40587285776242238 0.32419148732968017 0 0.45418244162583959 0.41624787166862259 0 0.37764981543668408 0.41341486499350411 0 0.45418244162583959 0.41624787166862259 0 0.46566719828045178 0.47702825415921918 0 0.41576443813007791 0.48093483781626972 0 0.46566719828045178 0.47702825415921918 0 0.4638583922372429 0.51470588235294135 0 0.41576443813007791 0.48093483781626972 0 0.49954900152271581 0.45107191084564019 0 0.5 0.5 0 0.46566719828045178 0.47702825415921918 0 0.46566719828045178 0.47702825415921918 0 0.5 0.5 0 0.4638583922372429 0.51470588235294135 0 0.49954900152271581 0.45107191084564019 0 0.46566719828045178 0.47702825415921918 0 0.45418244162583959 0.41624787166862259 0 0.45418244162583959 0.41624787166862259 0 0.49435464945626773 0.33318442629318029 0 0.54876010062294855 0.39662628167175101 0 0.49435464945626773 0.33318442629318029 0 0.45418244162583959 0.41624787166862259 0 0.40587285776242238 0.32419148732968017 0 0.49435464945626773 0.33318442629318029 0 0.40587285776242238 0.32419148732968017 0 0.49924741621175961 0.21507969613896921 0 0.35015135319464608 0.1900339269648805 0 0.40587285776242238 0.32419148732968017 0 0.29145599617909779 0.35026601625021492 0 0.40587285776242238 0.32419148732968017 0 0.37764981543668408 0.41341486499350411 0 0.29145599617909779 0.35026601625021492 0 0.18653882694645291 0.22249173546702489 0 0.35015135319464608 0.1900339269648805 0 0.29145599617909779 0.35026601625021492 0 0.32540781287085369 0.49175159894608172 0 0.17872124008781709 0.39692711089439497 0 0.29145599617909779 0.35026601625021492 0 0.37764981543668408 0.41341486499350411 0 0.32540781287085369 0.49175159894608172 0 0.29145599617909779 0.35026601625021492 0 0.41576443813007791 0.48093483781626972 0 0.32540781287085369 0.49175159894608172 0 0.37764981543668408 0.41341486499350411 0 0 0.50000000000206157 0 0 0.25000000000104189 0 0.17872124008781709 0.39692711089439497 0 0 0.50000000000206157 0 0.17872124008781709 0.39692711089439497 0 0.22453074737734591 0.51613635929252633 0 0.17872124008781709 0.39692711089439497 0 0.32540781287085369 0.49175159894608172 0 0.22453074737734591 0.51613635929252633 0 0.17872124008781709 0.39692711089439497 0 0.18653882694645291 0.22249173546702489 0 0.29145599617909779 0.35026601625021492 0 0.17872124008781709 0.39692711089439497 0 0 0.25000000000104189 0 0.18653882694645291 0.22249173546702489 0 0 0.75000000000034772 0 0 0.50000000000206157 0 0.18442368612951149 0.62734948407416979 0 0 0.75000000000034772 0 0.18442368612951149 0.62734948407416979 0 0.22727208279115291 0.72949159435386135 0 0.18442368612951149 0.62734948407416979 0 0.31346558946927339 0.67110784456164874 0 0.22727208279115291 0.72949159435386135 0 0.31771010312359771 0.58585679504088894 0 0.18442368612951149 0.62734948407416979 0 0.22453074737734591 0.51613635929252633 0 0.18442368612951149 0.62734948407416979 0 0 0.50000000000206157 0 0.22453074737734591 0.51613635929252633 0 0 1 0 0 0.75000000000034772 0 0.096516139048187316 0.89789944498939644 0 0.1596341872805197 1 0 0 1 0 0.096516139048187316 0.89789944498939644 0 0 0.75000000000034772 0 0.1644705180525495 0.8200994301041713 0 0.096516139048187316 0.89789944498939644 0 0.2386314078659193 0.92924778694987087 0 0.1644705180525495 0.8200994301041713 0 0.27155609766735261 0.80398965554903801 0 0.1644705180525495 0.8200994301041713 0 0 0.75000000000034772 0 0.22727208279115291 0.72949159435386135 0 0.1644705180525495 0.8200994301041713 0 0.22727208279115291 0.72949159435386135 0 0.27155609766735261 0.80398965554903801 0 0.1644705180525495 0.8200994301041713 0 0.2386314078659193 0.92924778694987087 0 0.096516139048187316 0.89789944498939644 0 0.2386314078659193 0.92924778694987087 0 0.1596341872805197 1 0 0.096516139048187316 0.89789944498939644 0 0.27591592301363282 1 0 0.1596341872805197 1 0 0.2386314078659193 0.92924778694987087 0 0.36061858902161292 1 0 0.27591592301363282 1 0 0.32789203369730929 0.94219211037003092 0 0.36061858902161292 1 0 0.32789203369730929 0.94219211037003092 0 0.39382242252278338 0.95440420122950598 0 0.32789203369730929 0.94219211037003092 0 0.27591592301363282 1 0 0.2386314078659193 0.92924778694987087 0 0.31834856208730472 0.88134829947972904 0 0.32789203369730929 0.94219211037003092 0 0.2386314078659193 0.92924778694987087 0 0.39382242252278338 0.95440420122950598 0 0.32789203369730929 0.94219211037003092 0 0.37746652222901839 0.8987532801416368 0 0.37746652222901839 0.8987532801416368 0 0.32789203369730929 0.94219211037003092 0 0.31834856208730472 0.88134829947972904 0 0.31834856208730472 0.88134829947972904 0 0.2386314078659193 0.92924778694987087 0 0.27155609766735261 0.80398965554903801 0 0.37746652222901839 0.8987532801416368 0 0.31834856208730472 0.88134829947972904 0 0.36493375430404612 0.82333914183704071 0 0.36493375430404612 0.82333914183704071 0 0.31834856208730472 0.88134829947972904 0 0.27155609766735261 0.80398965554903801 0 0.22727208279115291 0.72949159435386135 0 0.32984265945580837 0.74432890077789404 0 0.27155609766735261 0.80398965554903801 0 0.32984265945580837 0.74432890077789404 0 0.36493375430404612 0.82333914183704071 0 0.27155609766735261 0.80398965554903801 0 0.36493375430404612 0.82333914183704071 0 0.32984265945580837 0.74432890077789404 0 0.39746869305290999 0.7595658224757349 0 0.42893012659725649 0.81084715169569632 0 0.36493375430404612 0.82333914183704071 0 0.39746869305290999 0.7595658224757349 0 0.44651949253391748 0.77225997208621999 0 0.42893012659725649 0.81084715169569632 0 0.39746869305290999 0.7595658224757349 0 0.44651949253391748 0.77225997208621999 0 0.39746869305290999 0.7595658224757349 0 0.43412357948152142 0.72128778687215156 0 0.44651949253391748 0.77225997208621999 0 0.47220206448452873 0.74892462649306213 0 0.47786860714145291 0.77730227330627721 0 0.47220206448452873 0.74892462649306213 0 0.5 0.76470588235294124 0 0.47786860714145291 0.77730227330627721 0 0.5 0.76470588235294124 0 0.5 0.79411764705882359 0 0.47786860714145291 0.77730227330627721 0 0.5 0.79411764705882359 0 0.5 0.82352941176470584 0 0.47062147868881782 0.80650323854033878 0 0.5 0.79411764705882359 0 0.47062147868881782 0.80650323854033878 0 0.47786860714145291 0.77730227330627721 0 0.47062147868881782 0.80650323854033878 0 0.44651949253391748 0.77225997208621999 0 0.47786860714145291 0.77730227330627721 0 0.47062147868881782 0.80650323854033878 0 0.42893012659725649 0.81084715169569632 0 0.44651949253391748 0.77225997208621999 0 0.46181179062043481 0.83858979842637782 0 0.42893012659725649 0.81084715169569632 0 0.47062147868881782 0.80650323854033878 0 0.42880856207355889 0.86677159981903118 0 0.42893012659725649 0.81084715169569632 0 0.46181179062043481 0.83858979842637782 0 0.5 0.82352941176470584 0 0.5 0.85294117647058831 0 0.46181179062043481 0.83858979842637782 0 0.5 0.82352941176470584 0 0.46181179062043481 0.83858979842637782 0 0.47062147868881782 0.80650323854033878 0 0.46181179062043481 0.83858979842637782 0 0.5 0.85294117647058831 0 0.47032448519202857 0.86718057681700655 0 0.5 0.85294117647058831 0 0.5 0.88235294117647056 0 0.47032448519202857 0.86718057681700655 0 0.42880856207355889 0.86677159981903118 0 0.46181179062043481 0.83858979842637782 0 0.47032448519202857 0.86718057681700655 0 0.42880856207355889 0.86677159981903118 0 0.37746652222901839 0.8987532801416368 0 0.36493375430404612 0.82333914183704071 0 0.42880856207355889 0.86677159981903118 0 0.36493375430404612 0.82333914183704071 0 0.42893012659725649 0.81084715169569632 0 0.39382242252278338 0.95440420122950598 0 0.37746652222901839 0.8987532801416368 0 0.42822627495986648 0.92083108049218854 0 0.42822627495986648 0.92083108049218854 0 0.37746652222901839 0.8987532801416368 0 0.42880856207355889 0.86677159981903118 0 0.46100207326614928 0.89524736819256467 0 0.42880856207355889 0.86677159981903118 0 0.47032448519202857 0.86718057681700655 0 0.42822627495986648 0.92083108049218854 0 0.42880856207355889 0.86677159981903118 0 0.46100207326614928 0.89524736819256467 0 0.5 0.88235294117647056 0 0.46100207326614928 0.89524736819256467 0 0.47032448519202857 0.86718057681700655 0 0.5 0.88235294117647056 0 0.5 0.91176470588235292 0 0.46100207326614928 0.89524736819256467 0 0.46100207326614928 0.89524736819256467 0 0.5 0.91176470588235292 0 0.46949408183482899 0.92833826413560594 0 0.5 0.91176470588235292 0 0.5 0.94117647058823528 0 0.46949408183482899 0.92833826413560594 0 0.42822627495986648 0.92083108049218854 0 0.46100207326614928 0.89524736819256467 0 0.46949408183482899 0.92833826413560594 0 0.44768478605684647 0.9646709673379662 0 0.46949408183482899 0.92833826413560594 0 0.47596308696979028 0.95620709615192379 0 0.44768478605684647 0.9646709673379662 0 0.42822627495986648 0.92083108049218854 0 0.46949408183482899 0.92833826413560594 0 0.44768478605684647 0.9646709673379662 0 0.47596308696979028 0.95620709615192379 0 0.47818194888216242 0.97829325975680159 0 0.46949408183482899 0.92833826413560594 0 0.5 0.94117647058823528 0 0.47596308696979028 0.95620709615192379 0 0.47596308696979028 0.95620709615192379 0 0.5 0.97058823529411764 0 0.47818194888216242 0.97829325975680159 0 0.5 0.94117647058823528 0 0.5 0.97058823529411764 0 0.47596308696979028 0.95620709615192379 0 0.5 1 0 0.46726187138417491 1 0 0.47818194888216242 0.97829325975680159 0 0.5 0.97058823529411764 0 0.5 1 0 0.47818194888216242 0.97829325975680159 0 0.46726187138417491 1 0 0.44768478605684647 0.9646709673379662 0 0.47818194888216242 0.97829325975680159 0 0.46726187138417491 1 0 0.42231823435723009 1 0 0.44768478605684647 0.9646709673379662 0 0.44768478605684647 0.9646709673379662 0 0.42231823435723009 1 0 0.39382242252278338 0.95440420122950598 0 0.44768478605684647 0.9646709673379662 0 0.39382242252278338 0.95440420122950598 0 0.42822627495986648 0.92083108049218854 0 0.42231823435723009 1 0 0.36061858902161292 1 0 0.39382242252278338 0.95440420122950598 0 0.31771010312359771 0.58585679504088894 0 0.41980724897053312 0.55867199730355355 0 0.3872154068451229 0.6301386882447304 0 0.32540781287085369 0.49175159894608172 0 0.41980724897053312 0.55867199730355355 0 0.31771010312359771 0.58585679504088894 0 0.32540781287085369 0.49175159894608172 0 0.31771010312359771 0.58585679504088894 0 0.22453074737734591 0.51613635929252633 0 0.18442368612951149 0.62734948407416979 0 0.31771010312359771 0.58585679504088894 0 0.31346558946927339 0.67110784456164874 0 0.31346558946927339 0.67110784456164874 0 0.32984265945580837 0.74432890077789404 0 0.22727208279115291 0.72949159435386135 0 0.39746869305290999 0.7595658224757349 0 0.32984265945580837 0.74432890077789404 0 0.38513711431054509 0.69312683393047636 0 0.38513711431054509 0.69312683393047636 0 0.32984265945580837 0.74432890077789404 0 0.31346558946927339 0.67110784456164874 0 0.31771010312359771 0.58585679504088894 0 0.3872154068451229 0.6301386882447304 0 0.31346558946927339 0.67110784456164874 0 0.3872154068451229 0.6301386882447304 0 0.38513711431054509 0.69312683393047636 0 0.31346558946927339 0.67110784456164874 0 0.4390556798454946 0.66199025953586599 0 0.38513711431054509 0.69312683393047636 0 0.3872154068451229 0.6301386882447304 0 0.4390556798454946 0.66199025953586599 0 0.3872154068451229 0.6301386882447304 0 0.44702869549010399 0.61002701911053991 0 0.39746869305290999 0.7595658224757349 0 0.38513711431054509 0.69312683393047636 0 0.43412357948152142 0.72128778687215156 0 0.43412357948152142 0.72128778687215156 0 0.38513711431054509 0.69312683393047636 0 0.4390556798454946 0.66199025953586599 0 0.43412357948152142 0.72128778687215156 0 0.47636314644728822 0.72058823529411908 0 0.47220206448452873 0.74892462649306213 0 0.44651949253391748 0.77225997208621999 0 0.43412357948152142 0.72128778687215156 0 0.47220206448452873 0.74892462649306213 0 0.43412357948152142 0.72128778687215156 0 0.4390556798454946 0.66199025953586599 0 0.46330219403010409 0.69594601192744354 0 0.43412357948152142 0.72128778687215156 0 0.46330219403010409 0.69594601192744354 0 0.47636314644728822 0.72058823529411908 0 0.46330219403010409 0.69594601192744354 0 0.5 0.70588235294117663 0 0.47636314644728822 0.72058823529411908 0 0.5 0.67647058823529438 0 0.5 0.70588235294117663 0 0.46330219403010409 0.69594601192744354 0 0.5 0.70588235294117663 0 0.5 0.73529411764705888 0 0.47636314644728822 0.72058823529411908 0 0.5 0.73529411764705888 0 0.5 0.76470588235294124 0 0.47220206448452873 0.74892462649306213 0 0.47636314644728822 0.72058823529411908 0 0.5 0.73529411764705888 0 0.47220206448452873 0.74892462649306213 0 0.4390556798454946 0.66199025953586599 0 0.47271076880550111 0.63357150722538136 0 0.47501372853621993 0.66300743809067952 0 0.4390556798454946 0.66199025953586599 0 0.44702869549010399 0.61002701911053991 0 0.47271076880550111 0.63357150722538136 0 0.46330219403010409 0.69594601192744354 0 0.4390556798454946 0.66199025953586599 0 0.47501372853621993 0.66300743809067952 0 0.5 0.67647058823529438 0 0.46330219403010409 0.69594601192744354 0 0.47501372853621993 0.66300743809067952 0 0.5 0.64705882352941191 0 0.5 0.67647058823529438 0 0.47501372853621993 0.66300743809067952 0 0.47271076880550111 0.63357150722538136 0 0.5 0.64705882352941191 0 0.47501372853621993 0.66300743809067952 0 0.5 0.61764705882352966 0 0.5 0.64705882352941191 0 0.47271076880550111 0.63357150722538136 0 0.5 0.5882352941176473 0 0.5 0.61764705882352966 0 0.47784843225772261 0.60532339797118362 0 0.5 0.61764705882352966 0 0.47271076880550111 0.63357150722538136 0 0.47784843225772261 0.60532339797118362 0 0.5 0.55882352941176494 0 0.5 0.5882352941176473 0 0.46950269699300751 0.57713611057881953 0 0.46950269699300751 0.57713611057881953 0 0.5 0.5882352941176473 0 0.47784843225772261 0.60532339797118362 0 0.44702869549010399 0.61002701911053991 0 0.41980724897053312 0.55867199730355355 0 0.46950269699300751 0.57713611057881953 0 0.44702869549010399 0.61002701911053991 0 0.46950269699300751 0.57713611057881953 0 0.47784843225772261 0.60532339797118362 0 0.47271076880550111 0.63357150722538136 0 0.44702869549010399 0.61002701911053991 0 0.47784843225772261 0.60532339797118362 0 0.3872154068451229 0.6301386882447304 0 0.41980724897053312 0.55867199730355355 0 0.44702869549010399 0.61002701911053991 0 0.32540781287085369 0.49175159894608172 0 0.41576443813007791 0.48093483781626972 0 0.41980724897053312 0.55867199730355355 0 0.41576443813007791 0.48093483781626972 0 0.4638583922372429 0.51470588235294135 0 0.41980724897053312 0.55867199730355355 0 0.41980724897053312 0.55867199730355355 0 0.4638583922372429 0.51470588235294135 0 0.47063366764015668 0.5477498568705923 0 0.46950269699300751 0.57713611057881953 0 0.41980724897053312 0.55867199730355355 0 0.47063366764015668 0.5477498568705923 0 0.5 0.55882352941176494 0 0.46950269699300751 0.57713611057881953 0 0.47063366764015668 0.5477498568705923 0 0.5 0.52941176470588269 0 0.5 0.55882352941176494 0 0.47063366764015668 0.5477498568705923 0 0.4638583922372429 0.51470588235294135 0 0.5 0.52941176470588269 0 0.47063366764015668 0.5477498568705923 0 0.5 0.5 0 0.5 0.52941176470588269 0 0.4638583922372429 0.51470588235294135 0 0.52820848765230954 0.54540076010342464 0 0.5 0.52941176470588269 0 0.52629893369322589 0.51330452493555312 0 0.5 0.52941176470588269 0 0.5 0.5 0 0.52629893369322589 0.51330452493555312 0 0.5 0.52941176470588269 0 0.5 0.5 0 0.5 0.55882352941176494 0 0.5 0.52941176470588269 0 0.52820848765230954 0.54540076010342464 0 0.5 0.55882352941176494 0 0.5 0.52941176470588269 0 0.52246722155046366 0.57417151085839346 0 0.5 0.55882352941176494 0 0.52820848765230954 0.54540076010342464 0 0.56199650931215228 0.51957997397013023 0 0.55931585964581554 0.57571189932143541 0 0.52820848765230954 0.54540076010342464 0 0.54128967150166729 0.47213012589832831 0 0.56199650931215228 0.51957997397013023 0 0.52629893369322589 0.51330452493555312 0 0.56199650931215228 0.51957997397013023 0 0.52820848765230954 0.54540076010342464 0 0.52629893369322589 0.51330452493555312 0 0.61174067805461174 0.54148194547208961 0 0.56199650931215228 0.51957997397013023 0 0.60345082206666756 0.47575908627627911 0 0.61174067805461174 0.54148194547208961 0 0.55931585964581554 0.57571189932143541 0 0.56199650931215228 0.51957997397013023 0 0.61264973759093866 0.60999664295093947 0 0.55931585964581554 0.57571189932143541 0 0.61174067805461174 0.54148194547208961 0 0.61264973759093866 0.60999664295093947 0 0.55828304378107996 0.63546085023637511 0 0.55931585964581554 0.57571189932143541 0 0.55931585964581554 0.57571189932143541 0 0.55828304378107996 0.63546085023637511 0 0.52754891270107895 0.60396918438229519 0 0.55828304378107996 0.63546085023637511 0 0.52222323737415433 0.63323059203007803 0 0.52754891270107895 0.60396918438229519 0 0.55931585964581554 0.57571189932143541 0 0.52246722155046366 0.57417151085839346 0 0.52820848765230954 0.54540076010342464 0 0.55931585964581554 0.57571189932143541 0 0.52754891270107895 0.60396918438229519 0 0.52246722155046366 0.57417151085839346 0 0.52754891270107895 0.60396918438229519 0 0.5 0.5882352941176473 0 0.52246722155046366 0.57417151085839346 0 0.5 0.5882352941176473 0 0.5 0.55882352941176494 0 0.52246722155046366 0.57417151085839346 0 0.5 0.5882352941176473 0 0.5 0.55882352941176494 0 0.52222323737415433 0.63323059203007803 0 0.5 0.61764705882352966 0 0.52754891270107895 0.60396918438229519 0 0.5 0.61764705882352966 0 0.5 0.5882352941176473 0 0.5 0.61764705882352966 0 0.5 0.5882352941176473 0 0.52754891270107895 0.60396918438229519 0 0.5 0.64705882352941191 0 0.5 0.61764705882352966 0 0.52222323737415433 0.63323059203007803 0 0.5 0.64705882352941191 0 0.5 0.61764705882352966 0 0.52736180768426655 0.66304505109048573 0 0.5 0.64705882352941191 0 0.52222323737415433 0.63323059203007803 0 0.5 0.67647058823529438 0 0.5 0.64705882352941191 0 0.52736180768426655 0.66304505109048573 0 0.5 0.67647058823529438 0 0.5 0.64705882352941191 0 0.52189318962165776 0.69193883095305098 0 0.5 0.67647058823529438 0 0.52736180768426655 0.66304505109048573 0 0.55852327729743823 0.69498827241231187 0 0.52189318962165776 0.69193883095305098 0 0.52736180768426655 0.66304505109048573 0 0.55828304378107996 0.63546085023637511 0 0.55852327729743823 0.69498827241231187 0 0.52736180768426655 0.66304505109048573 0 0.55828304378107996 0.63546085023637511 0 0.52736180768426655 0.66304505109048573 0 0.52222323737415433 0.63323059203007803 0 0.5 0.73529411764705888 0 0.52547133540542634 0.72058823529411897 0 0.5211984712236245 0.75134107022269114 0 0.5 0.73529411764705888 0 0.5 0.70588235294117663 0 0.52547133540542634 0.72058823529411897 0 0.5 0.73529411764705888 0 0.5 0.70588235294117663 0 0.5 0.70588235294117663 0 0.52189318962165776 0.69193883095305098 0 0.52547133540542634 0.72058823529411897 0 0.5 0.70588235294117663 0 0.5 0.67647058823529438 0 0.52189318962165776 0.69193883095305098 0 0.5 0.70588235294117663 0 0.5 0.67647058823529438 0 0.52189318962165776 0.69193883095305098 0 0.55852327729743823 0.69498827241231187 0 0.52547133540542634 0.72058823529411897 0 0.52547133540542634 0.72058823529411897 0 0.55458114032207428 0.75544804615062711 0 0.5211984712236245 0.75134107022269114 0 0.55852327729743823 0.69498827241231187 0 0.55458114032207428 0.75544804615062711 0 0.52547133540542634 0.72058823529411897 0 0.6088970477846376 0.72715446211577472 0 0.55458114032207428 0.75544804615062711 0 0.55852327729743823 0.69498827241231187 0 0.6088970477846376 0.72715446211577472 0 0.55852327729743823 0.69498827241231187 0 0.60110770968787908 0.67045598539422102 0 0.60110770968787908 0.67045598539422102 0 0.55828304378107996 0.63546085023637511 0 0.61264973759093866 0.60999664295093947 0 0.60110770968787908 0.67045598539422102 0 0.55852327729743823 0.69498827241231187 0 0.55828304378107996 0.63546085023637511 0 0.66621429167335955 0.68470300534742679 0 0.60110770968787908 0.67045598539422102 0 0.61264973759093866 0.60999664295093947 0 0.6088970477846376 0.72715446211577472 0 0.66621429167335955 0.68470300534742679 0 0.6817340940367822 0.76923101696744944 0 0.66621429167335955 0.68470300534742679 0 0.6088970477846376 0.72715446211577472 0 0.60110770968787908 0.67045598539422102 0 0.6817340940367822 0.76923101696744944 0 0.66621429167335955 0.68470300534742679 0 0.7828103453665094 0.69876044407634474 0 0.66621429167335955 0.68470300534742679 0 0.69354174170208815 0.57892485983477626 0 0.7828103453665094 0.69876044407634474 0 0.69354174170208815 0.57892485983477626 0 0.66681557370681976 0.49435464945626773 0 0.77935529174931761 0.49004815756283893 0 0.61174067805461174 0.54148194547208961 0 0.66681557370681976 0.49435464945626773 0 0.69354174170208815 0.57892485983477626 0 0.66681557370681976 0.49435464945626773 0 0.61174067805461174 0.54148194547208961 0 0.60345082206666756 0.47575908627627911 0 0.61264973759093866 0.60999664295093947 0 0.61174067805461174 0.54148194547208961 0 0.69354174170208815 0.57892485983477626 0 0.66621429167335955 0.68470300534742679 0 0.61264973759093866 0.60999664295093947 0 0.69354174170208815 0.57892485983477626 0 0.63938141097836054 1 0 0.57768176564240026 1 0 0.60145933092659498 0.94808652648958736 0 0.60145933092659498 0.94808652648958736 0 0.55381003699196441 0.97073734537240042 0 0.55652711631508067 0.93435010280744335 0 0.57768176564240026 1 0 0.55381003699196441 0.97073734537240042 0 0.60145933092659498 0.94808652648958736 0 0.57768176564240026 1 0 0.53273812861558045 1 0 0.55381003699196441 0.97073734537240042 0 0.55381003699196441 0.97073734537240042 0 0.53273812861558045 1 0 0.52191028766292435 0.97912620202886635 0 0.53273812861558045 1 0 0.5 1 0 0.52191028766292435 0.97912620202886635 0 0.5 1 0 0.5 0.97058823529411764 0 0.52191028766292435 0.97912620202886635 0 0.5 1 0 0.5 0.97058823529411764 0 0.5 0.97058823529411764 0 0.5 0.94117647058823528 0 0.5 0.97058823529411764 0 0.5 0.94117647058823528 0 0.52554900427979434 0.95492408164812537 0 0.5 0.97058823529411764 0 0.52554900427979434 0.95492408164812537 0 0.52191028766292435 0.97912620202886635 0 0.5 0.94117647058823528 0 0.52149395742518578 0.9280464911497236 0 0.52554900427979434 0.95492408164812537 0 0.55381003699196441 0.97073734537240042 0 0.52554900427979434 0.95492408164812537 0 0.55652711631508067 0.93435010280744335 0 0.52554900427979434 0.95492408164812537 0 0.55381003699196441 0.97073734537240042 0 0.52191028766292435 0.97912620202886635 0 0.52554900427979434 0.95492408164812537 0 0.52149395742518578 0.9280464911497236 0 0.55652711631508067 0.93435010280744335 0 0.52982914238326484 0.89727189043838895 0 0.57507719038536997 0.89743529736491356 0 0.55652711631508067 0.93435010280744335 0 0.52149395742518578 0.9280464911497236 0 0.52982914238326484 0.89727189043838895 0 0.55652711631508067 0.93435010280744335 0 0.52149395742518578 0.9280464911497236 0 0.5 0.91176470588235292 0 0.52982914238326484 0.89727189043838895 0 0.5 0.94117647058823528 0 0.5 0.91176470588235292 0 0.5 0.94117647058823528 0 0.5 0.91176470588235292 0 0.52149395742518578 0.9280464911497236 0 0.5 0.91176470588235292 0 0.5 0.88235294117647056 0 0.52982914238326484 0.89727189043838895 0 0.5 0.91176470588235292 0 0.5 0.88235294117647056 0 0.52982914238326484 0.89727189043838895 0 0.5 0.88235294117647056 0 0.51991574276818808 0.86764705882352966 0 0.54799184932697576 0.8599032232094268 0 0.57507719038536997 0.89743529736491356 0 0.52982914238326484 0.89727189043838895 0 0.57507719038536997 0.89743529736491356 0 0.60145933092659498 0.94808652648958736 0 0.55652711631508067 0.93435010280744335 0 0.63427031498547037 0.88927276979110648 0 0.60145933092659498 0.94808652648958736 0 0.57507719038536997 0.89743529736491356 0 0.63427031498547037 0.88927276979110648 0 0.57507719038536997 0.89743529736491356 0 0.58994607995897996 0.84812355238296233 0 0.63427031498547037 0.88927276979110648 0 0.58994607995897996 0.84812355238296233 0 0.64153141236229239 0.83072478436463804 0 0.64153141236229239 0.83072478436463804 0 0.58994607995897996 0.84812355238296233 0 0.60049020024666178 0.78900583008989877 0 0.55206941203846505 0.81091931303809783 0 0.58994607995897996 0.84812355238296233 0 0.54799184932697576 0.8599032232094268 0 0.60049020024666178 0.78900583008989877 0 0.58994607995897996 0.84812355238296233 0 0.55206941203846505 0.81091931303809783 0 0.58994607995897996 0.84812355238296233 0 0.57507719038536997 0.89743529736491356 0 0.54799184932697576 0.8599032232094268 0 0.54799184932697576 0.8599032232094268 0 0.52982914238326484 0.89727189043838895 0 0.51991574276818808 0.86764705882352966 0 0.52395085592512047 0.83729395211968571 0 0.54799184932697576 0.8599032232094268 0 0.51991574276818808 0.86764705882352966 0 0.5 0.85294117647058831 0 0.52395085592512047 0.83729395211968571 0 0.51991574276818808 0.86764705882352966 0 0.5 0.88235294117647056 0 0.5 0.85294117647058831 0 0.5 0.88235294117647056 0 0.5 0.85294117647058831 0 0.51991574276818808 0.86764705882352966 0 0.52395085592512047 0.83729395211968571 0 0.5 0.82352941176470584 0 0.52039202967084142 0.80930587873000437 0 0.5 0.85294117647058831 0 0.5 0.82352941176470584 0 0.5 0.85294117647058831 0 0.5 0.82352941176470584 0 0.52395085592512047 0.83729395211968571 0 0.55206941203846505 0.81091931303809783 0 0.52395085592512047 0.83729395211968571 0 0.52039202967084142 0.80930587873000437 0 0.55206941203846505 0.81091931303809783 0 0.54799184932697576 0.8599032232094268 0 0.52395085592512047 0.83729395211968571 0 0.52593988039062167 0.78066906966870908 0 0.55206941203846505 0.81091931303809783 0 0.52039202967084142 0.80930587873000437 0 0.55458114032207428 0.75544804615062711 0 0.55206941203846505 0.81091931303809783 0 0.52593988039062167 0.78066906966870908 0 0.5 0.79411764705882359 0 0.52593988039062167 0.78066906966870908 0 0.52039202967084142 0.80930587873000437 0 0.5 0.82352941176470584 0 0.5 0.79411764705882359 0 0.5 0.82352941176470584 0 0.5 0.79411764705882359 0 0.52039202967084142 0.80930587873000437 0 0.5 0.76470588235294124 0 0.5 0.73529411764705888 0 0.5 0.76470588235294124 0 0.5 0.73529411764705888 0 0.5211984712236245 0.75134107022269114 0 0.5 0.79411764705882359 0 0.5 0.76470588235294124 0 0.52593988039062167 0.78066906966870908 0 0.5 0.79411764705882359 0 0.5 0.76470588235294124 0 0.52593988039062167 0.78066906966870908 0 0.5 0.76470588235294124 0 0.5211984712236245 0.75134107022269114 0 0.55458114032207428 0.75544804615062711 0 0.52593988039062167 0.78066906966870908 0 0.5211984712236245 0.75134107022269114 0 0.60049020024666178 0.78900583008989877 0 0.55458114032207428 0.75544804615062711 0 0.6088970477846376 0.72715446211577472 0 0.60049020024666178 0.78900583008989877 0 0.55206941203846505 0.81091931303809783 0 0.55458114032207428 0.75544804615062711 0 0.6817340940367822 0.76923101696744944 0 0.80987878298654392 0.8110307373443908 0 0.70916369539323409 0.86041409043207073 0 0.60049020024666178 0.78900583008989877 0 0.6088970477846376 0.72715446211577472 0 0.6817340940367822 0.76923101696744944 0 0.64153141236229239 0.83072478436463804 0 0.60049020024666178 0.78900583008989877 0 0.6817340940367822 0.76923101696744944 0 0.63427031498547037 0.88927276979110648 0 0.64153141236229239 0.83072478436463804 0 0.70916369539323409 0.86041409043207073 0 0.64153141236229239 0.83072478436463804 0 0.6817340940367822 0.76923101696744944 0 0.70916369539323409 0.86041409043207073 0 0.68173274398262862 0.93660593960145366 0 0.63427031498547037 0.88927276979110648 0 0.70916369539323409 0.86041409043207073 0 0.68173274398262862 0.93660593960145366 0 0.60145933092659498 0.94808652648958736 0 0.63427031498547037 0.88927276979110648 0 0.78222494485339233 0.91531439423588867 0 0.68173274398262862 0.93660593960145366 0 0.70916369539323409 0.86041409043207073 0 0.72408407698689681 1 0 0.68173274398262862 0.93660593960145366 0 0.78222494485339233 0.91531439423588867 0 0.68173274398262862 0.93660593960145366 0 0.63938141097836054 1 0 0.60145933092659498 0.94808652648958736 0 0.72408407698689681 1 0 0.63938141097836054 1 0 0.68173274398262862 0.93660593960145366 0 1 0.74999999999934008 0 1 1 0 0.89611933618281592 0.89173516444576184 0 0.84036581271988753 1 0 0.72408407698689681 1 0 0.78222494485339233 0.91531439423588867 0 0.84036581271988753 1 0 0.78222494485339233 0.91531439423588867 0 0.89611933618281592 0.89173516444576184 0 0.80987878298654392 0.8110307373443908 0 0.6817340940367822 0.76923101696744944 0 0.7828103453665094 0.69876044407634474 0 1 0.74999999999934008 0 0.80987878298654392 0.8110307373443908 0 0.7828103453665094 0.69876044407634474 0 0.78222494485339233 0.91531439423588867 0 0.80987878298654392 0.8110307373443908 0 0.89611933618281592 0.89173516444576184 0 0.80987878298654392 0.8110307373443908 0 0.78222494485339233 0.91531439423588867 0 0.70916369539323409 0.86041409043207073 0 0.80987878298654392 0.8110307373443908 0 1 0.74999999999934008 0 0.89611933618281592 0.89173516444576184 0 1 1 0 0.84036581271988753 1 0 0.89611933618281592 0.89173516444576184 0 1 0.49999999999869182 0 1 0.74999999999934008 0 0.84549316180028322 0.59867304496468476 0 0.84549316180028322 0.59867304496468476 0 0.69354174170208815 0.57892485983477626 0 0.77935529174931761 0.49004815756283893 0 1 0.49999999999869182 0 0.84549316180028322 0.59867304496468476 0 0.77935529174931761 0.49004815756283893 0 0.69354174170208815 0.57892485983477626 0 0.84549316180028322 0.59867304496468476 0 0.7828103453665094 0.69876044407634474 0 0.84549316180028322 0.59867304496468476 0 1 0.74999999999934008 0 0.7828103453665094 0.69876044407634474 0 0.80451351819826811 0.35479918680564199 0 1 0.49999999999869182 0 0.77935529174931761 0.49004815756283893 0 1 0.24999999999941089 0 0.80451351819826811 0.35479918680564199 0 0.79923457477009219 0.1751534052300894 0 1 0.24999999999941089 0 1 0.49999999999869182 0 0.80451351819826811 0.35479918680564199 0 0.74999999999934008 0 0 1 0 0 0.79923457477009219 0.1751534052300894 0 1 0 0 1 0.24999999999941089 0 0.79923457477009219 0.1751534052300894 0 0.49999999999869182 0 0 0.74999999999934008 0 0 0.62537763927714929 0.14286513648320209 0 0.62537763927714929 0.14286513648320209 0 0.79923457477009219 0.1751534052300894 0 0.6197279975813802 0.30020319976287241 0 0.62537763927714929 0.14286513648320209 0 0.74999999999934008 0 0 0.79923457477009219 0.1751534052300894 0 0.49999999999869182 0 0 0.62537763927714929 0.14286513648320209 0 0.49924741621175961 0.21507969613896921 0 0.62537763927714929 0.14286513648320209 0 0.6197279975813802 0.30020319976287241 0 0.49924741621175961 0.21507969613896921 0 0.6197279975813802 0.30020319976287241 0 0.49435464945626773 0.33318442629318029 0 0.49924741621175961 0.21507969613896921 0 0.54876010062294855 0.39662628167175101 0 0.49435464945626773 0.33318442629318029 0 0.6197279975813802 0.30020319976287241 0 0.66576775508844777 0.41353720431697111 0 0.54876010062294855 0.39662628167175101 0 0.6197279975813802 0.30020319976287241 0 0.49954900152271581 0.45107191084564019 0 0.45418244162583959 0.41624787166862259 0 0.54876010062294855 0.39662628167175101 0 0.54128967150166729 0.47213012589832831 0 0.49954900152271581 0.45107191084564019 0 0.54876010062294855 0.39662628167175101 0 0.54128967150166729 0.47213012589832831 0 0.5 0.5 0 0.49954900152271581 0.45107191084564019 0 0.5 0.5 0 0.54128967150166729 0.47213012589832831 0 0.52629893369322589 0.51330452493555312 0 0.60345082206666756 0.47575908627627911 0 0.54128967150166729 0.47213012589832831 0 0.54876010062294855 0.39662628167175101 0 0.60345082206666756 0.47575908627627911 0 0.56199650931215228 0.51957997397013023 0 0.54128967150166729 0.47213012589832831 0 0.66576775508844777 0.41353720431697111 0 0.60345082206666756 0.47575908627627911 0 0.54876010062294855 0.39662628167175101 0 0.66576775508844777 0.41353720431697111 0 0.80451351819826811 0.35479918680564199 0 0.77935529174931761 0.49004815756283893 0 0.66681557370681976 0.49435464945626773 0 0.60345082206666756 0.47575908627627911 0 0.66576775508844777 0.41353720431697111 0 0.66681557370681976 0.49435464945626773 0 0.66576775508844777 0.41353720431697111 0 0.77935529174931761 0.49004815756283893 0 0.79923457477009219 0.1751534052300894 0 0.80451351819826811 0.35479918680564199 0 0.6197279975813802 0.30020319976287241 0 0.80451351819826811 0.35479918680564199 0 0.66576775508844777 0.41353720431697111 0 0.6197279975813802 0.30020319976287241 0 
</DataArray>
</Points>
<Cells>
<DataArray type="UInt32" Name="connectivity" format="ascii">
0 1 2 3 4 5 6 7 8 9 10 11 12 13 14 15 16 17 18 19 20 21 22 23 24 25 26 27 28 29 30 31 32 33 34 35 36 37 38 39 40 41 42 43 44 45 46 47 48 49 50 51 52 53 54 55 56 57 58 59 60 61 62 63 64 65 66 67 68 69 70 71 72 73 74 75 76 77 78 79 80 81 82 83 84 85 86 87 88 89 90 91 92 93 94 95 96 97 98 99 100 101 102 103 104 105 106 107 108 109 110 111 112 113 114 115 116 117 118 119 120 121 122 123 124 125 126 127 128 129 130 131 132 133 134 135 136 137 138 139 140 141 142 143 144 145 146 147 148 149 150 151 152 153 154 155 156 157 158 159 160 161 162 163 164 165 166 167 168 169 170 171 172 173 174 175 176 177 178 179 180 181 182 183 184 185 186 187 188 189 190 191 192 193 194 195 196 197 198 199 200 201 202 203 204 205 206 207 208 209 210 211 212 213 214 215 216 217 218 219 220 221 222 223 224 225 226 227 228 229 230 231 232 233 234 235 236 237 238 239 240 241 242 243 244 245 246 247 248 249 250 251 252 253 254 255 256 257 258 259 260 261 262 263 264 265 266 267 268 269 270 271 272 273 274 275 276 277 278 279 280 281 282 283 284 285 286 287 288 289 290 291 292 293 294 295 296 297 298 299 300 301 302 303 304 305 306 307 308 309 310 311 312 313 314 315 316 317 318 319 320 321 322 323 324 325 326 327 328 329 330 331 332 333 334 335 336 337 338 339 340 341 342 343 344 345 346 347 348 349 350 351 352 353 354 355 356 357 358 359 360 361 362 363 364 365 366 367 368 369 370 371 372 373 374 375 376 377 378 379 380 381 382 383 384 385 386 387 388 389 390 391 392 393 394 395 396 397 398 399 400 401 402 403 404 405 406 407 408 409 410 411 412 413 414 415 416 417 418 419 420 421 422 423 424 425 426 427 428 429 430 431 432 433 434 435 436 437 438 439 440 441 442 443 444 445 446 447 448 449 450 451 452 453 454 455 456 457 458 459 460 461 462 463 464 465 466 467 468 469 470 471 472 473 474 475 476 477 478 479 480 481 482 483 484 485 486 487 488 489 490 491 492 493 494 495 496 497 498 499 500 501 502 503 504 505 506 507 508 509 510 511 512 513 514 515 516 517 518 519 520 521 522 523 524 525 526 527 528 529 530 531 532 533 534 535 536 537 538 539 540 541 542 543 544 545 546 547 548 549 550 551 552 553 554 555 556 557 558 559 560 561 562 563 564 565 566 567 568 569 570 571 572 573 574 575 576 577 578 579 580 581 582 583 584 585 586 587 588 589 590 591 592 593 594 595 596 597 598 599 600 601 602 603 604 605 606 607 608 609 610 611 612 613 614 615 616 617 618 619 620 621 622 623 624 625 626 627 628 629 630 631 632 633 634 635 636 637 638 639 640 641 642 643 644 645 646 647 648 649 650 651 652 653 654 655 656 657 658 659 660 661 662 663 664 665 666 667 668 669 670 671 672 673 674 675 676 677 678 679 680 681 682 683 684 685 686 687 688 689 690 691 692 693 694 695 696 697 698 699 700 701 702 703 704 705 706 707 708 709 710 711 712 713 714 715 716 717 718 719 720 721 722 723 724 725 726 727 728 729 730 731 732 733 734 735 736 737 738 739 740 741 742 743 744 745 746 747 748 749 750 751 752 753 754 755 756 757 758 759 760 761 762 763 764 765 766 767 768 769 770 771 772 773 774 775 776 777 778 779 780 781 782 783 784 785 786 787 788 789 790 791 792 793 794 795 796 797 798 799 800 801 802 803 804 805 806 807 808 809 810 811 812 813 814 815 816 817 818 819 820 821 822 823 824 825 826 827 828 829 830 831 832 833 834 835 836 837 838 839 840 841 842 843 844 845 846 847 848 849 850 851 852 853 854 855 856 857 858 859 860 861 862 863 864 865 866 867 868 869 870 871 872 873 874 875 876 877 878 879 
</DataArray>
<DataArray type="UInt32" Name="offsets" format="ascii">
3 6 9 12 15 18 21 24 27 30 33 36 39 42 45 48 51 54 57 60 63 66 69 72 75 78 81 84 87 90 93 96 99 102 105 108 111 114 117 120 123 126 129 132 135 138 141 144 147 150 153 156 159 162 165 168 171 174 177 180 183 186 189 192 195 198 201 204 207 210 213 216 219 222 225 228 231 234 237 240 243 246 249 252 255 258 261 264 267 270 273 276 279 282 285 288 291 294 297 300 303 306 309 312 315 318 321 324 327 330 333 336 339 342 345 348 351 354 357 360 363 366 369 372 375 378 381 384 387 390 393 396 399 402 405 408 411 414 417 420 423 425 428 430 433 436 439 442 445 448 451 454 457 460 463 466 469 472 474 477 479 482 485 487 490 493 495 498 501 504 507 510 513 515 518 521 523 526 529 532 535 538 541 544 547 550 553 556 559 562 565 568 571 574 577 580 583 586 589 592 595 597 599 602 605 608 611 614 617 620 623 626 628 631 634 636 639 642 645 648 651 654 657 660 663 666 669 672 675 677 680 683 685 688 691 694 697 700 703 705 708 710 713 716 718 721 724 727 730 733 736 739 742 745 748 751 754 757 760 763 766 769 772 775 778 781 784 787 790 793 796 799 802 805 808 811 814 817 820 823 826 829 832 835 838 841 844 847 850 853 856 859 862 865 868 871 874 877 880 
</DataArray>
<DataArray type="UInt32" Name="types" format="ascii">
5 5 5 5 5 5 5 5 5 5 5 5 5 5 5 5 5 5 5 5 5 5 5 5 5 5 5 5 5 5 5 5 5 5 5 5 5 5 5 5 5 5 5 5 5 5 5 5 5 5 5 5 5 5 5 5 5 5 5 5 5 5 5 5 5 5 5 5 5 5 5 5 5 5 5 5 5 5 5 5 5 5 5 5 5 5 5 5 5 5 5 5 5 5 5 5 5 5 5 5 5 5 5 5 5 5 5 5 5 5 5 5 5 5 5 5 5 5 5 5 5 5 5 5 5 5 5 5 5 5 5 5 5 5 5 5 5 5 5 5 5 3 5 3 5 5 5 5 5 5 5 5 5 5 5 5 5 5 3 5 3 5 5 3 5 5 3 5 5 5 5 5 5 3 5 5 3 5 5 5 5 5 5 5 5 5 5 5 5 5 5 5 5 5 5 5 5 5 5 5 5 3 3 5 5 5 5 5 5 5 5 5 3 5 5 3 5 5 5 5 5 5 5 5 5 5 5 5 5 3 5 5 3 5 5 5 5 5 5 3 5 3 5 5 3 5 5 5 5 5 5 5 5 5 5 5 5 5 5 5 5 5 5 5 5 5 5 5 5 5 5 5 5 5 5 5 5 5 5 5 5 5 5 5 5 5 5 5 5 5 5 5 5 5 5 5 5 5 5 
</DataArray>
</Cells>
<PointData Scalars="" Vectors="displacement," Tensors="">
<DataArray type="Float64" Name="displacement" NumberOfComponents="3" format="ascii">
3.503974839077491e-05 -3.5200176228121754e-06 0 5.6010374936754496e-05 2.725873875160067e-05 0 0.030935619866849774 0.0076512684204901584 0 5.6010374936754496e-05 2.725873875160067e-05 0 0.04919635145508508 0.023212973399662575 0 0.030935619866849774 0.0076512684204901584 0 0.04919635145508508 0.023212973399662575 0 0.094388777194660059 0.029298275702111982 0 0.062494466843490255 0.014932933482606938 0 0.04919635145508508 0.023212973399662575 0 0.062494466843490255 0.014932933482606938 0 0.030935619866849774 0.0076512684204901584 0 0.062494466843490255 0.014932933482606938 0 0.094388777194660059 0.029298275702111982 0 0.090258648993030377 0.015666549169203008 0 0.070732758263320608 0.007773019504196157 0 0.062494466843490255 0.014932933482606936 0 0.090258648993030377 0.015666549169203008 0 0.07883389151530705 0.0017328095529561469 0 0.071677576005149152 -0.0011170987855117589 0 0.064515594705393461 0.0027640197253387027 0 0.070732758263320608 0.007773019504196157 0 0.07883389151530705 0.0017328095529561469 0 0.064515594705393461 0.0027640197253387027 0 0.07883389151530705 0.0017328095529561469 0 0.080782774334751409 -0.0025995909520511919 0 0.071677576005149152 -0.0011170987855117589 0 0.080782774334751409 -0.0025995909520511919 0 0.08110164563171042 -0.0045929228862224341 0 0.071677576005149152 -0.0011170987855117589 0 0.087746088495857119 -0.0013334580158764319 0 0.08771880318234701 -0.0077089627516772341 0 0.080782774334751409 -0.0025995909520511919 0 0.080782774334751409 -0.0025995909520511919 0 0.08771880318234701 -0.0077089627516772332 0 0.08110164563171042 -0.0045929228862224341 0 0.087746088495857119 -0.0013334580158764319 0 0.080782774334751409 -0.0025995909520511919 0 0.07883389151530705 0.0017328095529561469 0 0.07883389151530705 0.0017328095529561469 0 0.087705995763648639 0.0078212033453757528 0 0.097750807070212456 0.003993692473867278 0 0.087705995763648639 0.0078212033453757528 0 0.07883389151530705 0.0017328095529561469 0 0.070732758263320608 0.007773019504196157 0 0.087705995763648639 0.0078212033453757528 0 0.070732758263320608 0.007773019504196157 0 0.090258648993030377 0.015666549169203008 0 0.062494466843490255 0.014932933482606938 0 0.070732758263320608 0.007773019504196157 0 0.048903423596431919 0.005234023170973599 0 0.070732758263320608 0.007773019504196157 0 0.064515594705393461 0.0027640197253387031 0 0.048903423596431919 0.005234023170973599 0 0.030935619866849774 0.0076512684204901584 0 0.062494466843490255 0.014932933482606938 0 0.048903423596431919 0.005234023170973599 0 0.055318843805471515 -0.00016571732727436656 0 0.028882841987278772 0.0025998344491398938 0 0.048903423596431919 0.005234023170973599 0 0.064515594705393461 0.0027640197253387027 0 0.055318843805471515 -0.00016571732727436656 0 0.048903423596431919 0.005234023170973599 0 0.071677576005149152 -0.0011170987855117589 0 0.055318843805471515 -0.00016571732727436656 0 0.064515594705393461 0.0027640197253387027 0 4.1082711559646272e-05 1.7999073184252609e-06 0 3.503974839077491e-05 -3.5200176228121754e-06 0 0.028882841987278772 0.0025998344491398938 0 4.1082711559646272e-05 1.7999073184252609e-06 0 0.028882841987278772 0.0025998344491398938 0 0.037743998020936358 -0.00062831839929122465 0 0.028882841987278772 0.0025998344491398938 0 0.055318843805471515 -0.00016571732727436656 0 0.037743998020936358 -0.00062831839929122465 0 0.028882841987278772 0.0025998344491398938 0 0.030935619866849774 0.0076512684204901584 0 0.048903423596431919 0.005234023170973599 0 0.028882841987278772 0.0025998344491398938 0 3.503974839077491e-05 -3.5200176228121754e-06 0 0.030935619866849774 0.0076512684204901584 0 3.562289119010534e-05 -2.1685621913463556e-06 0 4.1082711559646272e-05 1.7999073184252609e-06 0 0.030448994162369875 -0.0034461574061547635 0 3.562289119010534e-05 -2.1685621913463556e-06 0 0.030448994162369875 -0.0034461574061547635 0 0.039083140439930268 -0.0078765033958863289 0 0.030448994162369875 -0.0034461574061547635 0 0.0545707085182775 -0.0070912646954152878 0 0.039083140439930268 -0.0078765033958863289 0 0.054693320843156749 -0.0038017934168610777 0 0.030448994162369875 -0.0034461574061547635 0 0.037743998020936358 -0.00062831839929122465 0 0.030448994162369875 -0.0034461574061547635 0 4.1082711559646759e-05 1.7999073184254479e-06 0 0.037743998020936358 -0.00062831839929122465 0 5.3832256115536896e-05 -1.9481393760141791e-05 0 3.562289119010534e-05 -2.1685621913463556e-06 0 0.015969252480015773 -0.0073383485332299721 0 0.03205071059723439 -0.018249288380747509 0 5.3832256115536896e-05 -1.9481393760141791e-05 0 0.015969252480015773 -0.0073383485332299721 0 3.562289119010534e-05 -2.1685621913463556e-06 0 0.028031937929940076 -0.008373911100820218 0 0.015969252480015773 -0.0073383485332299721 0 0.043454490580414964 -0.018195971831159001 0 0.028031937929940076 -0.008373911100820218 0 0.047849552687543408 -0.012374792277877586 0 0.028031937929940076 -0.008373911100820218 0 3.562289119010534e-05 -2.1685621913463556e-06 0 0.039083140439930268 -0.0078765033958863289 0 0.028031937929940076 -0.008373911100820218 0 0.039083140439930268 -0.0078765033958863289 0 0.047849552687543408 -0.012374792277877586 0 0.028031937929940076 -0.008373911100820218 0 0.043454490580414964 -0.018195971831159001 0 0.015969252480015773 -0.0073383485332299721 0 0.043454490580414964 -0.018195971831159001 0 0.03205071059723439 -0.018249288380747509 0 0.015969252480015773 -0.0073383485332299721 0 0.051227543042012422 -0.02311147790931781 0 0.03205071059723439 -0.018249288380747509 0 0.043454490580414964 -0.018195971831159001 0 0.064474387906555811 -0.023157456145527906 0 0.051227543042012422 -0.02311147790931781 0 0.059369293152005703 -0.020326140412925148 0 0.064474387906555811 -0.023157456145527906 0 0.059369293152005703 -0.020326140412925148 0 0.070789758393017002 -0.01980276808600483 0 0.059369293152005703 -0.020326140412925148 0 0.051227543042012422 -0.02311147790931781 0 0.043454490580414964 -0.018195971831159001 0 0.057300388015044348 -0.016903452178814629 0 0.059369293152005703 -0.020326140412925148 0 0.043454490580414964 -0.018195971831159001 0 0.070789758393017002 -0.01980276808600483 0 0.059369293152005703 -0.020326140412925148 0 0.068109250695097032 -0.017320358336638374 0 0.068109250695097032 -0.017320358336638374 0 0.059369293152005703 -0.020326140412925148 0 0.057300388015044348 -0.016903452178814629 0 0.057300388015044348 -0.016903452178814629 0 0.043454490580414964 -0.018195971831159001 0 0.047849552687543408 -0.012374792277877586 0 0.068109250695097032 -0.017320358336638374 0 0.057300388015044348 -0.016903452178814629 0 0.065411711540778419 -0.014056683499501914 0 0.065411711540778419 -0.014056683499501914 0 0.057300388015044348 -0.016903452178814629 0 0.047849552687543408 -0.012374792277877586 0 0.039083140439930268 -0.0078765033958863289 0 0.05829466892342134 -0.01039089149028994 0 0.047849552687543408 -0.012374792277877586 0 0.05829466892342134 -0.01039089149028994 0 0.065411711540778419 -0.014056683499501916 0 0.047849552687543408 -0.012374792277877586 0 0.065411711540778419 -0.014056683499501914 0 0.05829466892342134 -0.01039089149028994 0 0.070813277941223537 -0.011326723618519944 0 0.076706524606749413 -0.012634484073558905 0 0.065411711540778419 -0.014056683499501914 0 0.070813277941223537 -0.011326723618519944 0 0.079487563190011365 -0.011352204484077222 0 0.076706524606749413 -0.012634484073558905 0 0.070813277941223537 -0.011326723618519944 0 0.079487563190011365 -0.011352204484077222 0 0.070813277941223537 -0.011326723618519944 0 0.077022839035407936 -0.010116360772165668 0 0.079487563190011365 -0.011352204484077222 0 0.083748573559233763 -0.010606305237875925 0 0.08482825301021106 -0.011042104436314379 0 0.083748573559233763 -0.010606305237875925 0 0.088429424855267696 -0.010538102544270612 0 0.08482825301021106 -0.011042104436314379 0 0.088429424855267696 -0.010538102544270612 0 0.088589824763200431 -0.0108667672687934 0 0.08482825301021106 -0.011042104436314379 0 0.088589824763200431 -0.0108667672687934 0 0.088760434589487125 -0.01118366808972977 0 0.083816885026377547 -0.011717957225265745 0 0.088589824763200431 -0.0108667672687934 0 0.083816885026377547 -0.011717957225265745 0 0.08482825301021106 -0.011042104436314379 0 0.083816885026377547 -0.011717957225265745 0 0.079487563190011365 -0.011352204484077222 0 0.08482825301021106 -0.011042104436314379 0 0.083816885026377547 -0.011717957225265745 0 0.076706524606749413 -0.012634484073558905 0 0.079487563190011365 -0.011352204484077222 0 0.082630550568076749 -0.012612981160460914 0 0.076706524606749413 -0.012634484073558905 0 0.083816885026377547 -0.011717957225265745 0 0.077169204791480372 -0.014514219562202011 0 0.076706524606749413 -0.012634484073558905 0 0.082630550568076749 -0.012612981160460914 0 0.088760434589487125 -0.01118366808972977 0 0.088931162423179652 -0.011485561574660443 0 0.082630550568076749 -0.012612981160460914 0 0.088760434589487125 -0.01118366808972977 0 0.082630550568076749 -0.012612981160460916 0 0.083816885026377547 -0.011717957225265745 0 0.082630550568076749 -0.012612981160460914 0 0.088931162423179652 -0.011485561574660443 0 0.084182655648985111 -0.012899855296593377 0 0.088931162423179652 -0.011485561574660443 0 0.089097651793588514 -0.011758466690952318 0 0.084182655648985111 -0.012899855296593377 0 0.077169204791480372 -0.014514219562202011 0 0.082630550568076735 -0.012612981160460916 0 0.084182655648985111 -0.012899855296593377 0 0.077169204791480372 -0.014514219562202011 0 0.068109250695097032 -0.017320358336638374 0 0.065411711540778419 -0.014056683499501914 0 0.077169204791480372 -0.014514219562202011 0 0.065411711540778419 -0.014056683499501914 0 0.076706524606749413 -0.012634484073558905 0 0.070789758393017002 -0.01980276808600483 0 0.068109250695097032 -0.017320358336638374 0 0.077179564100812253 -0.016583039752096108 0 0.077179564100812253 -0.016583039752096108 0 0.068109250695097032 -0.017320358336638374 0 0.077169204791480372 -0.014514219562202011 0 0.082836848622974607 -0.013942041984012488 0 0.077169204791480372 -0.014514219562202011 0 0.084182655648985111 -0.012899855296593377 0 0.077179564100812253 -0.016583039752096108 0 0.077169204791480372 -0.014514219562202011 0 0.082836848622974607 -0.013942041984012488 0 0.089097651793588514 -0.011758466690952318 0 0.082836848622974593 -0.013942041984012487 0 0.084182655648985111 -0.012899855296593377 0 0.089097651793588514 -0.011758466690952318 0 0.089253630960281771 -0.012011441530010651 0 0.082836848622974607 -0.013942041984012488 0 0.082836848622974607 -0.013942041984012488 0 0.089253630960281771 -0.012011441530010651 0 0.084372467291423975 -0.014262942578210883 0 0.089253630960281771 -0.012011441530010651 0 0.089376373501980785 -0.012225170126317155 0 0.084372467291423975 -0.014262942578210883 0 0.077179564100812253 -0.016583039752096108 0 0.082836848622974607 -0.013942041984012488 0 0.084372467291423975 -0.014262942578210883 0 0.08019283971042479 -0.017345867880436953 0 0.084372467291423975 -0.014262942578210883 0 0.085320153967930426 -0.014455763854844299 0 0.08019283971042479 -0.017345867880436953 0 0.077179564100812253 -0.016583039752096108 0 0.084372467291423975 -0.014262942578210883 0 0.08019283971042479 -0.017345867880436953 0 0.085320153967930426 -0.014455763854844299 0 0.085501170406091898 -0.01488881681887322 0 0.084372467291423975 -0.014262942578210883 0 0.089376373501980785 -0.012225170126317155 0 0.085320153967930426 -0.014455763854844299 0 0.085320153967930426 -0.014455763854844299 0 0.089465207669168961 -0.012387524191053705 0 0.085501170406091898 -0.01488881681887322 0 0.089376373501980785 -0.012225170126317155 0 0.089465207669168961 -0.012387524191053705 0 0.085320153967930426 -0.014455763854844299 0 0.089500234302632431 -0.01253847743253092 0 0.081973633717677588 -0.017655464917207136 0 0.085501170406091898 -0.01488881681887322 0 0.089465207669168961 -0.012387524191053705 0 0.089500234302632431 -0.01253847743253092 0 0.085501170406091898 -0.01488881681887322 0 0.081973633717677588 -0.017655464917207136 0 0.08019283971042479 -0.017345867880436953 0 0.085501170406091898 -0.01488881681887322 0 0.081973633717677588 -0.017655464917207136 0 0.074234294294308931 -0.020991536329426831 0 0.08019283971042479 -0.017345867880436953 0 0.08019283971042479 -0.017345867880436953 0 0.074234294294308917 -0.020991536329426835 0 0.070789758393017002 -0.01980276808600483 0 0.08019283971042479 -0.017345867880436953 0 0.070789758393017002 -0.01980276808600483 0 0.077179564100812253 -0.016583039752096108 0 0.074234294294308931 -0.020991536329426831 0 0.064474387906555811 -0.023157456145527906 0 0.070789758393017002 -0.01980276808600483 0 0.054693320843156749 -0.0038017934168610777 0 0.073337621771993267 -0.0046070259837115912 0 0.067883204752141227 -0.00665625883246367 0 0.055318843805471515 -0.00016571732727436656 0 0.073337621771993267 -0.0046070259837115912 0 0.054693320843156749 -0.0038017934168610777 0 0.055318843805471515 -0.00016571732727436656 0 0.054693320843156749 -0.0038017934168610777 0 0.037743998020936358 -0.00062831839929122465 0 0.030448994162369875 -0.0034461574061547635 0 0.054693320843156749 -0.0038017934168610777 0 0.0545707085182775 -0.0070912646954152878 0 0.0545707085182775 -0.0070912646954152878 0 0.05829466892342134 -0.01039089149028994 0 0.039083140439930268 -0.0078765033958863289 0 0.070813277941223537 -0.011326723618519944 0 0.05829466892342134 -0.01039089149028994 0 0.068017671424295753 -0.0088909614062517139 0 0.068017671424295753 -0.0088909614062517139 0 0.05829466892342134 -0.01039089149028994 0 0.0545707085182775 -0.0070912646954152878 0 0.054693320843156749 -0.0038017934168610777 0 0.067883204752141227 -0.0066562588324636709 0 0.0545707085182775 -0.0070912646954152878 0 0.067883204752141227 -0.00665625883246367 0 0.068017671424295753 -0.0088909614062517139 0 0.0545707085182775 -0.0070912646954152878 0 0.077496225170430588 -0.0085143043703829972 0 0.068017671424295753 -0.0088909614062517139 0 0.067883204752141227 -0.00665625883246367 0 0.077496225170430588 -0.0085143043703829972 0 0.067883204752141227 -0.00665625883246367 0 0.078668610471453751 -0.007177155469651835 0 0.070813277941223537 -0.011326723618519944 0 0.068017671424295753 -0.0088909614062517139 0 0.077022839035407936 -0.010116360772165668 0 0.077022839035407936 -0.010116360772165668 0 0.068017671424295753 -0.0088909614062517139 0 0.077496225170430588 -0.0085143043703829972 0 0.077022839035407936 -0.010116360772165668 0 0.084263324441409312 -0.010050912169515879 0 0.083748573559233763 -0.010606305237875925 0 0.079487563190011365 -0.011352204484077222 0 0.077022839035407936 -0.010116360772165668 0 0.083748573559233763 -0.010606305237875925 0 0.077022839035407936 -0.010116360772165668 0 0.077496225170430588 -0.0085143043703829972 0 0.081956931992824195 -0.0095656799198336438 0 0.077022839035407936 -0.010116360772165668 0 0.081956931992824195 -0.0095656799198336438 0 0.084263324441409299 -0.010050912169515877 0 0.081956931992824195 -0.0095656799198336438 0 0.088145755410366899 -0.0098582627899074377 0 0.084263324441409299 -0.010050912169515877 0 0.088027089697323202 -0.0095141259418700889 0 0.088145755410366899 -0.0098582627899074377 0 0.081956931992824195 -0.0095656799198336438 0 0.088145755410366899 -0.0098582627899074377 0 0.088281101699731204 -0.010199080140437647 0 0.084263324441409299 -0.010050912169515877 0 0.088281101699731204 -0.010199080140437647 0 0.088429424855267696 -0.010538102544270612 0 0.083748573559233763 -0.010606305237875925 0 0.084263324441409299 -0.010050912169515877 0 0.088281101699731204 -0.010199080140437647 0 0.083748573559233763 -0.010606305237875925 0 0.077496225170430588 -0.0085143043703829972 0 0.083293157513726734 -0.0084060741384540585 0 0.083745893053903758 -0.0090369857987374833 0 0.077496225170430588 -0.0085143043703829972 0 0.078668610471453751 -0.007177155469651835 0 0.083293157513726734 -0.0084060741384540585 0 0.081956931992824195 -0.0095656799198336438 0 0.077496225170430574 -0.0085143043703829972 0 0.083745893053903758 -0.0090369857987374833 0 0.088027089697323202 -0.0095141259418700889 0 0.081956931992824181 -0.0095656799198336438 0 0.083745893053903758 -0.0090369857987374833 0 0.087923672361230304 -0.0091779217558686978 0 0.088027089697323202 -0.0095141259418700889 0 0.083745893053903758 -0.0090369857987374833 0 0.083293157513726734 -0.0084060741384540585 0 0.087923672361230304 -0.0091779217558686978 0 0.083745893053903758 -0.0090369857987374833 0 0.08783650716028274 -0.0088495514912681691 0 0.087923672361230304 -0.0091779217558686978 0 0.083293157513726734 -0.0084060741384540585 0 0.087764887830172486 -0.0085452768239966809 0 0.08783650716028274 -0.0088495514912681691 0 0.084044458281551951 -0.0079811033375055372 0 0.08783650716028274 -0.0088495514912681691 0 0.083293157513726734 -0.0084060741384540585 0 0.084044458281551951 -0.0079811033375055372 0 0.087724122669302296 -0.0082464433785804786 0 0.087764887830172486 -0.0085452768239966809 0 0.082489037571385371 -0.0070486392850343266 0 0.082489037571385371 -0.0070486392850343266 0 0.087764887830172486 -0.0085452768239966809 0 0.084044458281551951 -0.0079811033375055372 0 0.078668610471453751 -0.007177155469651835 0 0.073337621771993267 -0.0046070259837115912 0 0.082489037571385371 -0.0070486392850343266 0 0.078668610471453751 -0.007177155469651835 0 0.082489037571385357 -0.0070486392850343266 0 0.084044458281551951 -0.0079811033375055372 0 0.083293157513726734 -0.0084060741384540585 0 0.078668610471453751 -0.007177155469651835 0 0.084044458281551951 -0.0079811033375055372 0 0.067883204752141227 -0.00665625883246367 0 0.073337621771993267 -0.0046070259837115912 0 0.078668610471453751 -0.007177155469651835 0 0.055318843805471515 -0.00016571732727436656 0 0.071677576005149152 -0.0011170987855117593 0 0.073337621771993267 -0.0046070259837115912 0 0.071677576005149152 -0.0011170987855117589 0 0.08110164563171042 -0.0045929228862224341 0 0.073337621771993267 -0.0046070259837115912 0 0.073337621771993267 -0.0046070259837115912 0 0.08110164563171042 -0.0045929228862224341 0 0.08261169690182131 -0.006239166205384645 0 0.082489037571385371 -0.0070486392850343266 0 0.073337621771993267 -0.0046070259837115903 0 0.08261169690182131 -0.006239166205384645 0 0.087724122669302296 -0.0082464433785804786 0 0.082489037571385371 -0.0070486392850343266 0 0.08261169690182131 -0.006239166205384645 0 0.087679830124460248 -0.0080242335374948685 0 0.087724122669302296 -0.0082464433785804786 0 0.08261169690182131 -0.006239166205384645 0 0.08110164563171042 -0.0045929228862224341 0 0.087679830124460248 -0.0080242335374948685 0 0.08261169690182131 -0.006239166205384645 0 0.08771880318234701 -0.0077089627516772332 0 0.087679830124460248 -0.0080242335374948685 0 0.08110164563171042 -0.0045929228862224341 0 0.092565274306515483 -0.006296530191862844 0 0.087760773382661736 -0.0080261125872695786 0 0.092321307877585385 -0.0052639023758425333 0 0.087760773382661736 -0.0080261125872695786 0 0.08771880318234701 -0.0077089627516772332 0 0.092321307877585385 -0.0052639023758425333 0 0.087720612590045821 -0.0080062739452596704 0 0.087718604111708315 -0.0078033248093114212 0 0.087780209797397479 -0.0082620810370641531 0 0.087760773382661736 -0.0080261125872695786 0 0.092565274306515483 -0.006296530191862844 0 0.087751840666191808 -0.0082672172114987997 0 0.087720612590045821 -0.0080062739452596704 0 0.091585792541755015 -0.0073357499170212895 0 0.087780209797397479 -0.0082620810370641531 0 0.092565274306515483 -0.006296530191862844 0 0.099010858593415296 -0.0032821701606852364 0 0.098008433165652262 -0.0058516802962050151 0 0.092565274306515483 -0.006296530191862844 0 0.096044895211773021 -0.0014481055088959808 0 0.099010858593415296 -0.0032821701606852364 0 0.092321307877585385 -0.0052639023758425333 0 0.099010858593415296 -0.0032821701606852364 0 0.092565274306515483 -0.006296530191862844 0 0.092321307877585385 -0.0052639023758425333 0 0.10792865417979887 -0.002680877487047522 0 0.099010858593415296 -0.0032821701606852364 0 0.10745507884832636 0.00055985387235300995 0 0.10792865417979887 -0.002680877487047522 0 0.098008433165652262 -0.0058516802962050151 0 0.099010858593415296 -0.0032821701606852364 0 0.10756991419305227 -0.0059345564905824537 0 0.098008433165652262 -0.0058516802962050151 0 0.10792865417979887 -0.002680877487047522 0 0.10756991419305227 -0.0059345564905824537 0 0.097815890063010225 -0.0078973813599242521 0 0.098008433165652262 -0.0058516802962050151 0 0.098008433165652262 -0.0058516802962050151 0 0.097815890063010238 -0.0078973813599242521 0 0.092423493691478217 -0.0078203362948410602 0 0.097815890063010225 -0.0078973813599242521 0 0.091652018209987265 -0.008559186556041638 0 0.092423493691478217 -0.0078203362948410602 0 0.098008433165652262 -0.0058516802962050151 0 0.091585792541755015 -0.0073357499170212895 0 0.092565274306515483 -0.006296530191862844 0 0.098008433165652262 -0.0058516802962050151 0 0.092423493691478217 -0.0078203362948410602 0 0.091585792541755015 -0.0073357499170212895 0 0.092423493691478217 -0.0078203362948410602 0 0.087834242345423405 -0.0085629188446975195 0 0.091585792541755015 -0.0073357499170212895 0 0.087834242345423405 -0.0085629188446975195 0 0.087780209797397479 -0.0082620810370641531 0 0.091585792541755015 -0.0073357499170212895 0 0.087799811941710174 -0.0085548643763903136 0 0.087751840666191808 -0.0082672172114987997 0 0.091652018209987265 -0.008559186556041638 0 0.087904196190798159 -0.008877381237823171 0 0.092423493691478217 -0.0078203362948410602 0 0.087870209083879922 -0.0088669771005746561 0 0.087799811941710174 -0.0085548643763903136 0 0.087904196190798159 -0.008877381237823171 0 0.087834242345423405 -0.0085629188446975195 0 0.092423493691478217 -0.0078203362948410602 0 0.087994069022658147 -0.0092096549220354075 0 0.087904196190798159 -0.008877381237823171 0 0.091652018209987265 -0.008559186556041638 0 0.087958914752380352 -0.0091950747752487325 0 0.087870209083879922 -0.0088669771005746561 0 0.092549284753067521 -0.009061770777333316 0 0.087994069022658147 -0.0092096549220354075 0 0.091652018209987265 -0.008559186556041638 0 0.088098035513342318 -0.0095519707809641405 0 0.087994069022658147 -0.0092096549220354075 0 0.092549284753067521 -0.009061770777333316 0 0.088062552152545048 -0.0095341579880914833 0 0.087958914752380352 -0.0091950747752487325 0 0.091781165727668701 -0.0096474834384148341 0 0.088098035513342318 -0.0095519707809641405 0 0.092549284753067521 -0.009061770777333316 0 0.097977614452336867 -0.0095865697420509672 0 0.091781165727668701 -0.0096474834384148341 0 0.092549284753067521 -0.009061770777333316 0 0.097815890063010225 -0.0078973813599242521 0 0.097977614452336867 -0.0095865697420509655 0 0.092549284753067521 -0.009061770777333316 0 0.097815890063010225 -0.0078973813599242521 0 0.092549284753067521 -0.009061770777333316 0 0.091652018209987265 -0.008559186556041638 0 0.088351634344312896 -0.01024704747301626 0 0.092436554081150937 -0.010183699589769755 0 0.091910097354578432 -0.010699579593351473 0 0.088351634344312896 -0.01024704747301626 0 0.088216987445080455 -0.009900072623542984 0 0.092436554081150937 -0.010183699589769755 0 0.088316335122524084 -0.010222606702644589 0 0.08818141596643049 -0.0098788263371132785 0 0.088216987445080455 -0.009900072623542984 0 0.091781165727668701 -0.0096474834384148341 0 0.092436554081150937 -0.010183699589769755 0 0.088216987445080455 -0.009900072623542984 0 0.088098035513342318 -0.0095519707809641405 0 0.091781165727668701 -0.0096474834384148341 0 0.08818141596643049 -0.0098788263371132785 0 0.088062552152545048 -0.0095341579880914833 0 0.091781165727668701 -0.0096474834384148341 0 0.097977614452336867 -0.0095865697420509672 0 0.092436554081150937 -0.010183699589769755 0 0.092436554081150937 -0.010183699589769755 0 0.097502217468812283 -0.011206093798587771 0 0.091910097354578432 -0.010699579593351473 0 0.097977614452336867 -0.0095865697420509672 0 0.097502217468812297 -0.011206093798587771 0 0.092436554081150937 -0.010183699589769755 0 0.1068835913045022 -0.010751613265463783 0 0.097502217468812283 -0.011206093798587773 0 0.097977614452336867 -0.0095865697420509672 0 0.1068835913045022 -0.010751613265463783 0 0.097977614452336867 -0.0095865697420509672 0 0.10545117772417816 -0.0085694041000184198 0 0.10545117772417816 -0.0085694041000184198 0 0.097815890063010225 -0.0078973813599242521 0 0.10756991419305227 -0.0059345564905824537 0 0.10545117772417816 -0.0085694041000184198 0 0.097977614452336867 -0.0095865697420509672 0 0.097815890063010225 -0.0078973813599242521 0 0.11728306125630795 -0.0090216590133369041 0 0.10545117772417816 -0.0085694041000184198 0 0.10756991419305227 -0.0059345564905824537 0 0.1068835913045022 -0.010751613265463783 0 0.11728306125630795 -0.0090216590133369041 0 0.1203436033902059 -0.013367868614939013 0 0.11728306125630795 -0.0090216590133369041 0 0.1068835913045022 -0.010751613265463783 0 0.10545117772417816 -0.0085694041000184198 0 0.1203436033902059 -0.013367868614939013 0 0.11728306125630795 -0.0090216590133369041 0 0.13905154824421334 -0.0098385310270914673 0 0.11728306125630795 -0.0090216590133369041 0 0.12270468546494367 -0.0033036278991882767 0 0.13905154824421334 -0.0098385310270914673 0 0.12270468546494367 -0.0033036278991882767 0 0.11881539665556984 0.00098064279631130823 0 0.13969920101786862 0.002562283628020667 0 0.10792865417979887 -0.002680877487047522 0 0.11881539665556984 0.00098064279631130823 0 0.12270468546494367 -0.0033036278991882767 0 0.11881539665556984 0.00098064279631130823 0 0.10792865417979887 -0.002680877487047522 0 0.10745507884832636 0.00055985387235300995 0 0.10756991419305227 -0.0059345564905824537 0 0.10792865417979887 -0.002680877487047522 0 0.12270468546494367 -0.0033036278991882767 0 0.11728306125630795 -0.0090216590133369041 0 0.10756991419305227 -0.0059345564905824546 0 0.12270468546494367 -0.0033036278991882767 0 0.11691611292992261 -0.025069969179600915 0 0.10606002146774715 -0.021986969560940258 0 0.10807846007668366 -0.020342797271927018 0 0.10807846007668366 -0.020342797271927018 0 0.099886793648877731 -0.018306019049680287 0 0.09935406939422306 -0.016708378847293724 0 0.10606002146774715 -0.021986969560940258 0 0.099886793648877731 -0.018306019049680291 0 0.10807846007668366 -0.020342797271927018 0 0.10606002146774715 -0.021986969560940258 0 0.097705179681068274 -0.018071247893459985 0 0.099886793648877731 -0.018306019049680291 0 0.099886793648877731 -0.018306019049680291 0 0.097705179681068274 -0.018071247893459985 0 0.093799198502296274 -0.015159544824012453 0 0.097705179681068274 -0.018071247893459985 0 0.089579712698045669 -0.012556685775193296 0 0.093799198502296274 -0.015159544824012453 0 0.089579712698045669 -0.012556685775193296 0 0.089509992655921161 -0.012409257671118151 0 0.093799198502296274 -0.015159544824012453 0 0.089538846895968804 -0.012504001401600033 0 0.089487628387220353 -0.012394768682467512 0 0.089487628387220353 -0.012394768682467512 0 0.089403419079460353 -0.012234512620897206 0 0.089509992655921161 -0.012409257671118151 0 0.089430508850353724 -0.012259714771303196 0 0.093966996262451655 -0.014754088782850359 0 0.089509992655921161 -0.012409257671118151 0 0.093966996262451655 -0.014754088782850359 0 0.093799198502296274 -0.015159544824012453 0 0.089430508850353724 -0.012259714771303196 0 0.09304997058950551 -0.013793455961578939 0 0.093966996262451655 -0.014754088782850359 0 0.099886793648877731 -0.018306019049680291 0 0.093966996262451655 -0.014754088782850359 0 0.09935406939422306 -0.016708378847293724 0 0.093966996262451655 -0.014754088782850359 0 0.099886793648877731 -0.018306019049680291 0 0.093799198502296274 -0.015159544824012453 0 0.093966996262451655 -0.014754088782850359 0 0.09304997058950551 -0.013793455961578939 0 0.09935406939422306 -0.016708378847293724 0 0.09413970582002755 -0.013725835675787664 0 0.10211142547830264 -0.016368210962818812 0 0.09935406939422306 -0.016708378847293724 0 0.09304997058950551 -0.013793455961578939 0 0.09413970582002755 -0.013725835675787664 0 0.09935406939422306 -0.016708378847293724 0 0.09304997058950551 -0.013793455961578939 0 0.089310665313596257 -0.01205760495513941 0 0.09413970582002755 -0.013725835675787664 0 0.089403419079460353 -0.012234512620897206 0 0.089282068745672183 -0.012028092590438747 0 0.089430508850353724 -0.012259714771303196 0 0.089310665313596257 -0.01205760495513941 0 0.09304997058950551 -0.013793455961578939 0 0.089310665313596257 -0.01205760495513941 0 0.089158796489241382 -0.011813582954782397 0 0.09413970582002755 -0.013725835675787664 0 0.089282068745672183 -0.012028092590438747 0 0.089128316009693134 -0.011782374491541741 0 0.09413970582002755 -0.013725835675787664 0 0.089158796489241382 -0.011813582954782397 0 0.092326651148134042 -0.012647453661406108 0 0.096986591930652871 -0.013763355725068411 0 0.10211142547830264 -0.016368210962818812 0 0.09413970582002755 -0.013725835675787664 0 0.10211142547830264 -0.016368210962818812 0 0.10807846007668366 -0.020342797271927018 0 0.09935406939422306 -0.016708378847293724 0 0.11288369378622044 -0.018491437283133693 0 0.10807846007668366 -0.020342797271927018 0 0.10211142547830264 -0.016368210962818812 0 0.11288369378622044 -0.018491437283133693 0 0.10211142547830264 -0.016368210962818812 0 0.10427159371863724 -0.014986210745639713 0 0.11288369378622044 -0.018491437283133693 0 0.10427159371863724 -0.014986210745639713 0 0.11349462526876315 -0.015710455158010943 0 0.11349462526876315 -0.015710455158010943 0 0.10427159371863724 -0.014986210745639713 0 0.10572233949097515 -0.013058915248694285 0 0.097389418459501845 -0.012613801951560968 0 0.10427159371863724 -0.014986210745639713 0 0.096986591930652871 -0.013763355725068411 0 0.10572233949097515 -0.013058915248694285 0 0.10427159371863724 -0.014986210745639713 0 0.097389418459501845 -0.012613801951560968 0 0.10427159371863724 -0.014986210745639713 0 0.10211142547830264 -0.016368210962818812 0 0.096986591930652871 -0.013763355725068411 0 0.096986591930652871 -0.013763355725068411 0 0.09413970582002755 -0.013725835675787664 0 0.092326651148134042 -0.012647453661406108 0 0.092785983386942841 -0.012283529675282309 0 0.096986591930652871 -0.013763355725068411 0 0.092326651148134042 -0.012647453661406108 0 0.088994823076047835 -0.011541154900520925 0 0.092785983386942841 -0.012283529675282309 0 0.092326651148134042 -0.012647453661406108 0 0.089128316009693134 -0.011782374491541741 0 0.088962967553697772 -0.011508958437317937 0 0.089158796489241382 -0.011813582954782397 0 0.088994823076047835 -0.011541154900520925 0 0.092326651148134042 -0.012647453661406108 0 0.092785983386942841 -0.012283529675282309 0 0.088827078418498226 -0.011241363818694824 0 0.092084630492761568 -0.011669260599846333 0 0.088962967553697772 -0.011508958437317937 0 0.088793757632311301 -0.011209973550263999 0 0.088994823076047835 -0.011541154900520925 0 0.088827078418498226 -0.011241363818694824 0 0.092785983386942841 -0.012283529675282309 0 0.097389418459501845 -0.012613801951560968 0 0.092785983386942841 -0.012283529675282309 0 0.092084630492761568 -0.011669260599846333 0 0.097389418459501845 -0.012613801951560968 0 0.096986591930652857 -0.01376335572506841 0 0.092785983386942841 -0.012283529675282309 0 0.092795600041886306 -0.011298368465432324 0 0.097389418459501831 -0.012613801951560966 0 0.092084630492761568 -0.011669260599846333 0 0.097502217468812283 -0.011206093798587771 0 0.097389418459501845 -0.012613801951560968 0 0.092795600041886306 -0.011298368465432324 0 0.088658314651811759 -0.010922616659328954 0 0.092795600041886306 -0.011298368465432324 0 0.092084630492761568 -0.011669260599846333 0 0.088793757632311301 -0.011209973550263999 0 0.088624079846872525 -0.010892685820635749 0 0.088827078418498226 -0.011241363818694824 0 0.088658314651811759 -0.010922616659328954 0 0.092084630492761568 -0.011669260599846333 0 0.088464379732734869 -0.010562207344421105 0 0.088316335122524084 -0.010222606702644589 0 0.088499319651646383 -0.010589304019690238 0 0.088351634344312896 -0.01024704747301626 0 0.091910097354578432 -0.010699579593351473 0 0.088658314651811759 -0.010922616659328954 0 0.088499319651646383 -0.010589304019690238 0 0.092795600041886306 -0.011298368465432324 0 0.088624079846872525 -0.010892685820635749 0 0.088464379732734869 -0.010562207344421105 0 0.092795600041886306 -0.011298368465432324 0 0.088499319651646383 -0.010589304019690238 0 0.091910097354578432 -0.010699579593351473 0 0.097502217468812283 -0.011206093798587771 0 0.092795600041886306 -0.011298368465432324 0 0.091910097354578432 -0.010699579593351473 0 0.10572233949097515 -0.013058915248694285 0 0.097502217468812283 -0.011206093798587769 0 0.1068835913045022 -0.010751613265463783 0 0.10572233949097515 -0.013058915248694285 0 0.097389418459501845 -0.012613801951560968 0 0.097502217468812283 -0.011206093798587771 0 0.1203436033902059 -0.013367868614939013 0 0.14476451381286232 -0.016787958108892824 0 0.12639180451390999 -0.018757953976262592 0 0.10572233949097515 -0.013058915248694285 0 0.1068835913045022 -0.010751613265463783 0 0.1203436033902059 -0.013367868614939013 0 0.11349462526876315 -0.015710455158010943 0 0.10572233949097515 -0.013058915248694285 0 0.1203436033902059 -0.013367868614939013 0 0.11288369378622044 -0.018491437283133693 0 0.11349462526876315 -0.015710455158010943 0 0.12639180451390999 -0.018757953976262592 0 0.11349462526876315 -0.015710455158010943 0 0.1203436033902059 -0.013367868614939013 0 0.12639180451390999 -0.018757953976262592 0 0.12267647920876174 -0.022684170612662154 0 0.11288369378622044 -0.018491437283133693 0 0.12639180451390999 -0.018757953976262592 0 0.12267647920876174 -0.022684170612662154 0 0.10807846007668366 -0.020342797271927018 0 0.11288369378622044 -0.018491437283133693 0 0.140854407923592 -0.022979387804908082 0 0.12267647920876174 -0.022684170612662154 0 0.12639180451390999 -0.018757953976262592 0 0.13170642363756466 -0.027316982786344389 0 0.12267647920876174 -0.022684170612662154 0 0.140854407923592 -0.022979387804908082 0 0.12267647920876174 -0.022684170612662154 0 0.11691611292992261 -0.025069969179600915 0 0.10807846007668366 -0.020342797271927018 0 0.13170642363756466 -0.027316982786344389 0 0.11691611292992261 -0.025069969179600915 0 0.12267647920876174 -0.022684170612662154 0 0.18010996251016118 -0.013401206167142764 0 0.18226511252680197 -0.029787765110699815 0 0.16176364636427315 -0.022228169819753556 0 0.15260617116894254 -0.028601078824108204 0 0.13170642363756466 -0.027316982786344389 0 0.140854407923592 -0.022979387804908082 0 0.15260617116894254 -0.028601078824108204 0 0.140854407923592 -0.022979387804908082 0 0.16176364636427315 -0.022228169819753556 0 0.14476451381286232 -0.016787958108892824 0 0.1203436033902059 -0.013367868614939013 0 0.13905154824421334 -0.0098385310270914673 0 0.18010996251016118 -0.013401206167142764 0 0.14476451381286232 -0.016787958108892817 0 0.13905154824421334 -0.0098385310270914673 0 0.140854407923592 -0.022979387804908082 0 0.14476451381286232 -0.016787958108892824 0 0.16176364636427315 -0.022228169819753556 0 0.14476451381286232 -0.016787958108892824 0 0.140854407923592 -0.022979387804908082 0 0.12639180451390999 -0.018757953976262592 0 0.14476451381286232 -0.016787958108892824 0 0.18010996251016118 -0.013401206167142764 0 0.16176364636427315 -0.022228169819753556 0 0.18226511252680197 -0.029787765110699815 0 0.15260617116894254 -0.028601078824108204 0 0.16176364636427315 -0.022228169819753556 0 0.18089557958752805 0.0036715161908315716 0 0.18010996251016118 -0.013401206167142764 0 0.15111224599415349 -0.0036018138810112268 0 0.15111224599415349 -0.0036018138810112268 0 0.12270468546494367 -0.0033036278991882767 0 0.13969920101786862 0.002562283628020667 0 0.18089557958752805 0.0036715161908315716 0 0.15111224599415349 -0.0036018138810112268 0 0.13969920101786862 0.002562283628020667 0 0.12270468546494367 -0.0033036278991882767 0 0.15111224599415349 -0.0036018138810112268 0 0.13905154824421334 -0.0098385310270914673 0 0.15111224599415349 -0.0036018138810112268 0 0.18010996251016118 -0.013401206167142764 0 0.13905154824421334 -0.0098385310270914673 0 0.1460025263262395 0.011051989378275248 0 0.18089557958752805 0.0036715161908315707 0 0.13969920101786862 0.002562283628020667 0 0.18410077858610482 0.01986226700066597 0 0.1460025263262395 0.011051989378275248 0 0.14749262319995096 0.022165630731813376 0 0.18410077858610482 0.01986226700066597 0 0.18089557958752805 0.0036715161908315716 0 0.1460025263262395 0.011051989378275248 0 0.14063583265732149 0.032499786762922034 0 0.18740185075889865 0.035580377730793679 0 0.14749262319995096 0.022165630731813376 0 0.18740185075889865 0.035580377730793679 0 0.18410077858610482 0.01986226700066597 0 0.14749262319995096 0.022165630731813376 0 0.094388777194660059 0.029298275702111982 0 0.14063583265732149 0.032499786762922034 0 0.11529207323021222 0.021997189507894102 0 0.11529207323021222 0.021997189507894102 0 0.14749262319995096 0.022165630731813376 0 0.11213918310536726 0.011792094898606914 0 0.11529207323021222 0.021997189507894102 0 0.14063583265732149 0.032499786762922034 0 0.14749262319995096 0.022165630731813376 0 0.094388777194660059 0.029298275702111982 0 0.11529207323021222 0.021997189507894102 0 0.090258648993030377 0.015666549169203008 0 0.11529207323021222 0.021997189507894102 0 0.11213918310536726 0.011792094898606914 0 0.090258648993030377 0.015666549169203008 0 0.11213918310536726 0.011792094898606914 0 0.087705995763648639 0.0078212033453757528 0 0.090258648993030377 0.015666549169203008 0 0.097750807070212456 0.003993692473867278 0 0.087705995763648639 0.0078212033453757528 0 0.11213918310536726 0.011792094898606914 0 0.11951785168631326 0.0055944927522281343 0 0.097750807070212456 0.003993692473867278 0 0.11213918310536726 0.011792094898606914 0 0.087746088495857119 -0.0013334580158764319 0 0.07883389151530705 0.0017328095529561469 0 0.097750807070212456 0.003993692473867278 0 0.096044895211773021 -0.0014481055088959808 0 0.087746088495857119 -0.0013334580158764319 0 0.097750807070212456 0.003993692473867278 0 0.096044895211773021 -0.0014481055088959808 0 0.08771880318234701 -0.0077089627516772332 0 0.087746088495857119 -0.0013334580158764319 0 0.08771880318234701 -0.0077089627516772332 0 0.096044895211773021 -0.0014481055088959812 0 0.092321307877585385 -0.0052639023758425333 0 0.10745507884832636 0.00055985387235300995 0 0.096044895211773021 -0.0014481055088959812 0 0.097750807070212456 0.003993692473867278 0 0.10745507884832636 0.00055985387235300995 0 0.099010858593415282 -0.0032821701606852364 0 0.096044895211773021 -0.0014481055088959808 0 0.11951785168631326 0.0055944927522281343 0 0.10745507884832636 0.00055985387235300995 0 0.097750807070212456 0.003993692473867278 0 0.11951785168631326 0.0055944927522281343 0 0.1460025263262395 0.011051989378275248 0 0.13969920101786862 0.002562283628020667 0 0.11881539665556984 0.00098064279631130823 0 0.10745507884832636 0.00055985387235300995 0 0.11951785168631326 0.0055944927522281343 0 0.11881539665556984 0.00098064279631130823 0 0.11951785168631326 0.0055944927522281343 0 0.13969920101786862 0.002562283628020667 0 0.14749262319995096 0.022165630731813376 0 0.1460025263262395 0.011051989378275248 0 0.11213918310536726 0.011792094898606914 0 0.1460025263262395 0.011051989378275248 0 0.11951785168631326 0.0055944927522281343 0 0.11213918310536726 0.011792094898606914 0 
</DataArray>
</PointData>
<CellData Scalars="region_id," Vectors="" Tensors="stress,">
<DataArray type="Float64" Name="region_id" format="ascii">
1 1 1 1 1 1 1 1 1 1 1 1 1 1 1 1 1 1 1 1 1 1 1 1 1 1 1 1 1 1 1 1 1 1 1 1 1 1 1 1 1 1 1 1 1 1 1 1 1 1 1 1 1 1 1 1 1 1 1 1 1 1 1 1 1 1 1 1 1 1 1 1 1 1 1 1 1 1 1 1 1 1 1 1 1 1 1 1 1 1 1 1 1 1 1 1 1 1 1 1 1 1 1 1 1 1 1 1 1 1 1 1 1 1 1 1 1 1 1 1 1 1 1 1 1 1 1 1 1 1 1 1 1 1 1 1 1 1 1 1 1 6 1 6 1 1 1 1 1 1 1 1 1 1 1 1 1 1 6 1 6 1 1 6 1 1 6 1 1 1 1 1 1 6 1 1 6 1 1 1 1 1 1 1 1 1 1 1 1 1 1 1 1 1 1 1 1 1 1 1 1 6 6 1 1 1 1 1 1 1 1 1 6 1 1 6 1 1 1 1 1 1 1 1 1 1 1 1 1 6 1 1 6 1 1 1 1 1 1 6 1 6 1 1 6 1 1 1 1 1 1 1 1 1 1 1 1 1 1 1 1 1 1 1 1 1 1 1 1 1 1 1 1 1 1 1 1 1 1 1 1 1 1 1 1 1 1 1 1 1 1 1 1 1 1 1 1 1 1 
</DataArray>
<DataArray type="Float64" Name="stress" NumberOfComponents="9" format="ascii">
0.1987186340847607 0.016373544399548655 0 0.016373544399548655 0.066108222001056621 0 0 0 0.066206714021454324 0.21847769327384584 0.026693670592569531 0 0.026693670592569531 0.026436713994156716 0 0 0 0.061228601817000627 0.19436378778374921 -0.00038005720195395101 0 -0.00038005720195395101 0.0046283138830242043 0 0 0 0.049748025416693362 0.20036501463682074 0.0015151839121192688 0 0.0015151839121192688 0.0020606314687882793 0 0 0 0.050606411526402259 0.20186727371514562 -0.0011928806093258332 0 -0.0011928806093258332 -0.00025805156780014937 0 0 0 0.050402305536836382 0.20308576981207155 -0.00088181943868307494 0 -0.00088181943868307494 0.0041546397801280749 0 0 0 0.051810102398049923 0.2041082523857555 -0.0044465477161766426 0 -0.0044465477161766426 0.013700720647912383 0 0 0 0.054452243258417014 0.20108485459727693 -0.0086576504967678432 0 -0.0086576504967678432 0.0033450418448223197 0 0 0 0.051107474110524853 0.19284367747513442 -0.014860118187398474 0 -0.014860118187398474 -0.004741706279704193 0 0 0 0.04702549279885751 0.19876014774062303 -0.0066757681519600352 0 -0.0066757681519600352 0.0080815797967757948 0 0 0 0.051710431884349789 0.19249024876000481 -0.025780569462836501 0 -0.025780569462836501 -0.074217307244911934 0 0 0 0.029568235378773098 0.20502744732468292 -0.036917760276375403 0 -0.036917760276375403 0.0062832797389630601 0 0 0 0.052827681765911592 0.21381151196235088 -0.0083883024456318199 0 -0.0083883024456318199 -0.0017261931984953252 0 0 0 0.053021329690963889 0.20977997920363378 -0.00061325880760750018 0 -0.00061325880760750018 -0.0032703538964090444 0 0 0 0.051627406326806187 0.203979575058331 -0.0023038849586461789 0 -0.0023038849586461789 -0.0062606249456398089 0 0 0 0.049429737528172854 0.20540236796060202 -0.0025375655337530213 0 -0.0025375655337530213 -0.0020669870856062644 0 0 0 0.05083384521874889 0.20161993183804244 -0.0028526140809442477 0 -0.0028526140809442477 0.0062205137141546768 0 0 0 0.051960111388049256 0.2050206332188442 2.8393557475608899e-05 0 2.8393557475608899e-05 0.011874468232969518 0 0 0 0.054223775362953433 0.2087520265848572 0.0079083013379299578 0 0.0079083013379299578 0.018711224757672451 0 0 0 0.056865812835632426 0.19841371291439283 0.0037468298237823255 0 0.0037468298237823255 0.023666444710724273 0 0 0 0.055520039406279309 0.20016582051166693 0.00057408342551667005 0 0.00057408342551667005 0.026229050859902063 0 0 0 0.0565987178428922 0.19846659427883429 -0.0050723708725180228 0 -0.0050723708725180228 0.014662078040974517 0 0 0 0.053282168079952189 0.19367939771912537 0.005829296896465489 0 0.005829296896465489 0.064582497586124332 0 0 0 0.064565473826312433 0.18993692880882793 0.0036796440969043727 0 0.0036796440969043727 0.034789900820145311 0 0 0 0.056181707407243313 0.20046807865432559 0.0019850354246007487 0 0.0019850354246007487 0.038672818429507552 0 0 0 0.059785224270958295 0.19980483201514895 0.0030856436674865304 0 0.0030856436674865304 0.036266558785856599 0 0 0 0.05901784770025139 0.18708882155480097 0.013054788369173856 0 0.013054788369173856 0.033242824308025547 0 0 0 0.055082911465706638 0.1978686196152705 -0.0074826906163551945 0 -0.0074826906163551945 0.065939274401848366 0 0 0 0.065951973504279712 0.19635596884959622 -0.010060824165876217 0 -0.010060824165876217 0.035811432204861729 0 0 0 0.058041850263614483 0.2067134131081769 -0.0034624989862765791 0 -0.0034624989862765791 0.029701534355130718 0 0 0 0.059103736865826914 0.20642679486414606 -0.0047549739990743857 0 -0.0047549739990743857 0.037208416857983651 0 0 0 0.060908802930532413 0.19165247434421268 -0.0023484675402488196 0 -0.0023484675402488196 0.036488211394302618 0 0 0 0.057035171434628829 0.19794362894024209 -0.030332368534863045 0 -0.030332368534863045 0.065907341565387065 0 0 0 0.065962742626407292 0.22601915069725509 -0.032240614811383496 0 -0.032240614811383496 0.036653424321361296 0 0 0 0.065668143754654087 0.19755891626395647 -0.01834685118372148 0 -0.01834685118372148 0.041640895645936774 0 0 0 0.059799952977473307 0.20117937474512848 -0.012825645606751632 0 -0.012825645606751632 0.0045405030063138813 0 0 0 0.051429969437860587 0.19324935031418966 -0.016225338689324673 0 -0.016225338689324673 0.030845719479868264 0 0 0 0.056023767448514478 0.2093306233841141 -0.014238587142675944 0 -0.014238587142675944 0.032401908703013238 0 0 0 0.060433133021781833 0.21108451624840055 -0.021953299742963082 0 -0.021953299742963082 0.022584226693993556 0 0 0 0.058417185735598565 0.1928305884246036 -0.0068922324247047868 0 -0.0068922324247047868 -0.0093769704934414735 0 0 0 0.045863404482790533 0.17892431033282455 -0.0075430631533128017 0 -0.0075430631533128017 0.0090386016439906736 0 0 0 0.046990727994203813 0.16820247690706036 -0.00030767967037410746 0 -0.00030767967037410746 0.0041520665116863698 0 0 0 0.043088635854686669 0.18639139292126705 0.0032429862290304645 0 0.0032429862290304645 -0.0015880527231219022 0 0 0 0.046200835049536274 0.18631530085100292 0.00091658698513095993 0 0.00091658698513095993 -0.0036089881964489756 0 0 0 0.045676578163638501 0.19138689050326715 -0.003957769450796858 0 -0.003957769450796858 0.0064807641599522042 0 0 0 0.049466913665804836 0.18865197333817951 0.0056928854535413936 0 0.0056928854535413936 0.0099321753008761449 0 0 0 0.049646037159763873 0.19430309163107645 0.0062213055335427619 0 0.0062213055335427619 0.0030957036414120398 0 0 0 0.049349698818122123 0.19742178541176381 -0.00054341998130163008 0 -0.00054341998130163008 0.012336314749283095 0 0 0 0.052439525040261718 0.19969395900817805 0.0046574834492498669 0 0.0046574834492498669 0.019342497018739885 0 0 0 0.05475911400672949 0.20151264127355645 0.0011546769950220095 0 0.0011546769950220095 0.0090652070213105285 0 0 0 0.052644462073716772 0.20350980126737117 -0.0041328511468498117 0 -0.0041328511468498117 0.014376169006444006 0 0 0 0.05447149256845378 0.20698369886843382 -0.00081555299681699417 0 -0.00081555299681699417 0.02388657702342159 0 0 0 0.057717568972963887 0.20188595664066034 0.0019898833282383788 0 0.0019898833282383788 0.019587581718282301 0 0 0 0.055368384589735586 0.19919891748628427 0.0085327525396049694 0 0.0085327525396049694 0.029119384883279559 0 0 0 0.057079575592390942 0.19786491223826055 0.0059465060290022492 0 0.0059465060290022492 0.034023219960667817 0 0 0 0.057972033049732023 0.2001434816245545 0.0047395141718012158 0 0.0047395141718012158 0.039259510272704606 0 0 0 0.059850747974314833 0.19646774989354013 0.0067736969496228067 0 0.0067736969496228067 0.046387904055792406 0 0 0 0.060713913487333265 0.19151881404365725 0.0070353136225647789 0 0.0070353136225647789 0.044774842413725535 0 0 0 0.059073414114345774 0.19451632424786144 0.0087466333749924297 0 0.0087466333749924297 0.05291920073992739 0 0 0 0.061858881246947203 0.19358105865815989 0.012092600544148152 0 0.012092600544148152 0.053034083113427555 0 0 0 0.061653785442896875 0.19104135854802715 0.01112446477925097 0 0.01112446477925097 0.044673907199805074 0 0 0 0.058928816436958104 0.19505671842540756 0.0081777021001903372 0 0.0081777021001903372 0.043796815420326707 0 0 0 0.059713383461433456 0.19565454081080316 0.010158951725814188 0 0.010158951725814188 0.039226579407839357 0 0 0 0.058720280054660581 0.19692451532041319 0.011912748837698287 0 0.011912748837698287 0.041639442640029889 0 0 0 0.059640989490110846 0.19401795964495908 0.015043515670471574 0 0.015043515670471574 0.028886944421901033 0 0 0 0.055726226016715202 0.19126258391654777 0.015673952301153898 0 0.015673952301153898 0.052805524252030417 0 0 0 0.061017027042144574 0.18848586262242562 0.015038914310309667 0 0.015038914310309667 0.041754434684128927 0 0 0 0.057560074326638566 0.18688622955845355 0.017320585408168082 0 0.017320585408168082 0.039686741334433173 0 0 0 0.056643242723221715 0.191565070640141 0.019546780147590731 0 0.019546780147590731 0.053957664662528382 0 0 0 0.061380683825667325 0.19400342464926074 0.017239493467752526 0 0.017239493467752526 0.041547568701509774 0 0 0 0.058887748337692475 0.1971410959057957 0.012375736210187914 0 0.012375736210187914 0.015102574806167668 0 0 0 0.053060917677990843 0.20038720146084357 0.0097317528087265751 0 0.0097317528087265751 0.030979208024039195 0 0 0 0.057841602371220636 0.19461731820123004 0.013564400551589251 0 0.013564400551589251 0.0050969232014318744 0 0 0 0.049928560350665577 0.19815574826665636 0.013252765366799306 0 0.013252765366799306 0.025587756630276237 0 0 0 0.055935876224233148 0.19296960624540258 0.018903208959535345 0 0.018903208959535345 0.038576464089970064 0 0 0 0.057886517583843083 0.19397647356036701 0.02128160767573567 0 0.02128160767573567 0.024425719689985748 0 0 0 0.054600548312588142 0.18671717602970272 0.022057877618319136 0 0.022057877618319136 0.040029763517600681 0 0 0 0.056686734886825824 0.1913140824851034 0.02338058490284553 0 0.02338058490284553 0.054596806665185571 0 0 0 0.061477722287572173 0.18501270374387463 0.025936214619038209 0 0.025936214619038209 0.034861550587256596 0 0 0 0.05496856358278282 0.19182255711650739 0.029612267050252189 0 0.029612267050252189 0.056189628612786438 0 0 0 0.062003046432323419 0.19865124578711954 0.025033098063288711 0 0.025033098063288711 0.039223322391460314 0 0 0 0.059468642044644943 0.20340436090969219 0.034427647662135547 0 0.034427647662135547 0.037239551228835432 0 0 0 0.060160978034631829 0.19277732764403041 0.022085917416255568 0 0.022085917416255568 0.015113296040532825 0 0 0 0.051972655921140934 0.20248452978293463 0.033517639804780869 0 0.033517639804780869 0.036558354956149564 0 0 0 0.059760721184770993 0.18917385258085578 0.029098977765524239 0 0.029098977765524239 0.036548822340783937 0 0 0 0.056430668730409972 0.20188404761968926 0.037726296524581426 0 0.037726296524581426 0.035232278802198702 0 0 0 0.059279081605471795 0.20255791890292166 0.036946911936109078 0 0.036946911936109078 0.061631265553195154 0 0 0 0.066047296114029305 0.25635379785219492 0.043779940919930586 0 0.043779940919930586 0.033371148262200223 0 0 0 0.072431236528598814 0.2164750720591512 0.04560866607306921 0 0.04560866607306921 0.066683786462143124 0 0 0 0.070789714630323269 0.2132815737183868 0.020430542511429894 0 0.020430542511429894 -0.0046137483630191434 0 0 0 0.05216695633884201 0.18668297033959314 0.011684439473902809 0 0.011684439473902809 0.0090056979398754899 0 0 0 0.048922167069867073 0.19342131678270663 0.0077309322189862834 0 0.0077309322189862834 -0.0016173047384681061 0 0 0 0.047951003011059548 0.19522803299955971 0.017556744947112735 0 0.017556744947112735 0.021208430748706986 0 0 0 0.054109115937066729 0.17061665451689648 0.0047158404134176185 0 0.0047158404134176185 0.0056606609878606662 0 0 0 0.044069328876189306 0.20697424295330491 -0.0038988016856341349 0 -0.0038988016856341349 0.029811814102170625 0 0 0 0.059196514263868877 0.20578066585319357 -0.0040417994222575176 0 -0.0040417994222575176 0.02575812751679088 0 0 0 0.057884698342496127 0.19570066284514726 0.001162920843417522 0 0.001162920843417522 0.02359605930329561 0 0 0 0.054824180537110717 0.20543516131007356 -0.0028692858804595508 0 -0.0028692858804595508 0.026528408634697895 0 0 0 0.057990892486192859 0.20679044611435843 -0.0037322272598581188 0 -0.0037322272598581188 0.025298735576766561 0 0 0 0.058022295422781242 0.20572772500544426 0.00089376071768158642 0 0.00089376071768158642 0.03062270992662175 0 0 0 0.059087608733016467 0.20467864064135802 -0.0010182542516029326 0 -0.0010182542516029326 0.023044119646213237 0 0 0 0.056930690071892852 0.20603359307578878 -0.0032859023967832524 0 -0.0032859023967832524 0.026671206649681034 0 0 0 0.058176199931367509 0.20772781443770033 -0.0023305473823947292 0 -0.0023305473823947292 0.030904127787395989 0 0 0 0.059657985556274065 0.2021853256986601 -0.0022700268554898852 0 -0.0022700268554898852 0.029067323913762225 0 0 0 0.057813162403105529 0.20713696230071463 -0.0051689448975995346 0 -0.0051689448975995346 0.038601596583166281 0 0 0 0.06143463972097022 0.20011315981084435 0.0017993118851143963 0 0.0017993118851143963 0.028471704351209708 0 0 0 0.057146216040513537 0.20467701424790657 -0.00083094983333720923 0 -0.00083094983333720923 0.038604272433116399 0 0 0 0.060820321670255757 0.19806941327066641 0.0033003016598111999 0 0.0033003016598111999 0.045308802397236558 0 0 0 0.060844553916975741 0.1959856313810607 0.0049206984982506641 0 0.0049206984982506641 0.0379766719950662 0 0 0 0.058490575844031695 0.19877990688033884 0.00064233730533327926 0 0.00064233730533327926 0.037002450203057861 0 0 0 0.058945589270849225 0.19761818306287393 0.0015720698489039842 0 0.0015720698489039842 0.04418328661905524 0 0 0 0.060450367420482279 0.19355151967162115 0.00073290454910378278 0 0.00073290454910378278 0.045256751686420182 0 0 0 0.059702067839510209 0.1963802792448614 -0.00030801807427266459 0 -0.00030801807427266459 0.052979396726132853 0 0 0 0.062339918992748773 0.1959044747104097 0.0022170828846030666 0 0.0022170828846030666 0.052941182324241401 0 0 0 0.062211414258663181 0.19401987148627278 0.0056161595875923176 0 0.0056161595875923176 0.052378077983082201 0 0 0 0.06159948736733882 0.19180573537925297 0.0046623771504743783 0 0.0046623771504743783 0.043879074905367188 0 0 0 0.058921202571154851 0.20036819498834674 -0.0048695825301486723 0 -0.0048695825301486723 0.04509214982174925 0 0 0 0.061365086202524163 0.19959740489935926 -0.0067305382742602338 0 -0.0067305382742602338 0.035603438419230617 0 0 0 0.05880021082964737 0.1999105681324238 -0.0026123295506984556 0 -0.0026123295506984556 0.044228385890093341 0 0 0 0.06103473850562921 0.19435636194852113 -0.0012882863813542811 0 -0.0012882863813542811 0.044339214049297637 0 0 0 0.059673893999454802 0.198764451297613 -0.0037682642986680281 0 -0.0037682642986680281 0.054061811953554209 0 0 0 0.063206565812792034 0.19432331673666522 -0.0064850850191005144 0 -0.0064850850191005144 0.043447878543281304 0 0 0 0.059442798819986598 0.19739592784204935 -0.0079209626018064555 0 -0.0079209626018064555 0.053889747684503699 0 0 0 0.062821418881638044 0.19965999401835671 -0.012405720106557605 0 -0.012405720106557605 0.055518303406406178 0 0 0 0.063794574356190667 0.19461757294645371 -0.0095522405200690053 0 -0.0095522405200690053 0.043392951185894757 0 0 0 0.059502631033087228 0.20292334665818573 -0.017596262307222332 0 -0.017596262307222332 0.056803422598967618 0 0 0 0.064931692314288289 0.19733729436595257 -0.014827158053503577 0 -0.014827158053503577 0.043601629750050552 0 0 0 0.060234731029000732 0.20558432784520128 -0.012124541748942202 0 -0.012124541748942202 0.03664533538342854 0 0 0 0.060557415807157539 0.20022964956786682 -0.010561824810143547 0 -0.010561824810143547 0.040864512379625378 0 0 0 0.06027354048687307 0.20213903117535054 -0.0095669653369418878 0 -0.0095669653369418878 0.045669259269861456 0 0 0 0.061952072611303158 0.20377548455095498 -0.0058765366273774433 0 -0.0058765366273774433 0.026796646520038728 0 0 0 0.057643032767748424 0.20133125121413045 -0.0015759663510720896 0 -0.0015759663510720896 0.020100311356384515 0 0 0 0.055357890642628742 0.20830010974387828 -0.012281947529183278 0 -0.012281947529183278 0.023892573317467414 0 0 0 0.058048170765336492 0.20444086723963378 -0.013229899319922842 0 -0.013229899319922842 0.023975247942536526 0 0 0 0.057104028795542494 0.20809066186546815 -0.014190570322286513 0 -0.014190570322286513 0.03840688650710769 0 0 0 0.061624387093144009 0.19588496585015008 -0.021858634944838244 0 -0.021858634944838244 0.033567034453878458 0 0 0 0.057363000076007073 0.20520617213217818 -0.025599246613127388 0 -0.025599246613127388 0.060343247140688061 0 0 0 0.066387354818216671 0.20070357773213826 -0.028929703737952756 0 -0.028929703737952756 0.031577291365779359 0 0 0 0.058070217274479363 0.21477299878567069 -0.036761684153033089 0 -0.036761684153033089 0.060157179096237468 0 0 0 0.068732544470477039 0.1913393764358699 0.031882441066822663 0 0.031882441066822663 0.024237547844406654 0 0 0 0.053894231070069139 0.20482920278196598 0.039941582216909063 0 0.039941582216909063 0.056774433556506188 0 0 0 0.065400909084617875 0.20964872431954973 -0.0010265690104063196 0 -0.0010265690104063196 -0.6661459582658722 0 0 0 -0.11412430848662325 0.20072667331181687 0.026609043483812517 0 0.026609043483812517 0.058351101991388793 0 0 0 0.064769443825801257 0.46729947569474461 0.007436767041724579 0 0.007436767041724579 -0.79058775366223699 0 0 0 -0.080822069491773618 0.19361740885491635 0.023113895349397659 0 0.023113895349397659 0.038355800283373487 0 0 0 0.057993302284572598 0.20335686667101352 0.018882531971534083 0 0.018882531971534083 0.021824801395281448 0 0 0 0.05629541701657375 0.20203574494943688 0.018645882704008784 0 0.018645882704008784 -0.0052984964718988115 0 0 0 0.049184312119384788 0.21129022112940074 0.023292568314617582 0 0.023292568314617582 0.03218939701027887 0 0 0 0.060869904534919889 0.20221750687706286 0.0077891229926730842 0 0.0077891229926730842 0.009994859485299731 0 0 0 0.053053091590590552 0.20223144869730905 0.0089892528480697807 0 0.0089892528480697807 0.020191077958987988 0 0 0 0.055605631664074243 0.20190495447374754 0.0086170167485529209 0 0.0086170167485529209 0.016233381373074264 0 0 0 0.054534583961705435 0.20166998446585177 0.0080434118422820847 0 0.0080434118422820847 0.031075521724450397 0 0 0 0.058186376547575455 0.19729879386437343 0.012728822872472775 0 0.012728822872472775 0.029835618586321035 0 0 0 0.056783603112673511 0.1961070071986955 0.0097543646128272644 0 0.0097543646128272644 0.042258816919157394 0 0 0 0.059591456029463273 0.19798023759852906 0.016868038876212028 0 0.016868038876212028 0.036285194654091663 0 0 0 0.058566358063155195 0.19992008763560309 0.015850118653128818 0 0.015850118653128818 0.041789794746263875 0 0 0 0.060427470595466798 0.19088365937678717 0.015930201916338191 0 0.015930201916338191 0.038976775225742 0 0 0 0.05746510865063223 0.19766315872462811 0.020021922235639811 0 0.020021922235639811 0.054977335084706196 0 0 0 0.063160123452333669 0.36144971582393737 -0.0013184236640313429 0 -0.0013184236640313429 -0.92271714606516753 0 0 0 -0.14031685756026491 0.19111031574044704 0.012895401395472114 0 0.012895401395472114 0.04228352067141028 0 0 0 0.058348459102964406 0.39778796970745134 0.004796578839211918 0 0.004796578839211918 -0.99933282313946847 0 0 0 -0.15038621335804692 0.19399593703997442 0.014175922107193664 0 0.014175922107193664 0.053260809555967646 0 0 0 0.0618141866489854 0.19528295504142162 0.010118303169099424 0 0.010118303169099424 0.053043859399710104 0 0 0 0.062081703610282923 0.38230131410273316 0.0015138837170951547 0 0.0015138837170951547 -1.0624671287837941 0 0 0 -0.17004145367030787 0.19077196263789314 0.0074081096284250997 0 0.0074081096284250997 0.042491548567460236 0 0 0 0.058315877801338109 0.19264316360489431 0.0062958392414721731 0 0.0062958392414721731 0.051799732717816016 0 0 0 0.061110724080677525 0.38690169521555617 0.0017908537025022042 0 0.0017908537025022042 -1.1007745535044364 0 0 0 -0.17846821457214901 0.19050381084624352 0.0053685024639417711 0 0.0053685024639417711 0.043652143977565838 0 0 0 0.058538988705952477 0.194602309655661 0.0034587411166349114 0 0.0034587411166349114 0.043910706573054514 0 0 0 0.0596282540571791 0.19518209357374314 0.0057281138485677091 0 0.0057281138485677091 0.034739339072156768 0 0 0 0.057480358161474857 0.19697968024849294 0.008098213297018847 0 0.008098213297018847 0.044074890154113144 0 0 0 0.060263642600651493 0.18919237130499841 -0.00088473978591849245 0 -0.00088473978591849245 0.044010923676675473 0 0 0 0.058300823745418645 0.19090071771666725 0.00010157447472658454 0 0.00010157447472658454 0.05104995136465821 0 0 0 0.060487667270331363 0.38304677864880432 0.003935719858922937 0 0.003935719858922937 -1.1190945327772965 0 0 0 -0.18401193853213726 0.1896900449563709 0.00080055671878472012 0 0.00080055671878472012 0.04331302493318423 0 0 0 0.058250767472388915 0.19371497910188287 0.0032175342052152001 0 0.0032175342052152001 0.051947166209768414 0 0 0 0.061415536327912995 0.38431814972659595 0.0023454414249783895 0 0.0023454414249783895 -1.1218911625435908 0 0 0 -0.18439325320429134 0.1951696451445295 0.002008798152309128 0 0.002008798152309128 0.044658674713796143 0 0 0 0.059957079964581383 0.1926989086981987 -0.0027345235030550585 0 -0.0027345235030550585 0.044429401291621817 0 0 0 0.059282077497455316 0.19339129525768423 0.00016304575618003581 0 0.00016304575618003581 0.035694797444024783 0 0 0 0.057271523175427302 0.19859610271462305 -0.00090572811236436235 0 -0.00090572811236436235 0.037223940938055006 0 0 0 0.058955010913169514 0.19585618171766442 0.0010625833691603123 0 0.0010625833691603123 0.023998881382112341 0 0 0 0.054963765774944315 0.19868814969941623 0.0065443685611430852 0 0.0065443685611430852 0.023252547176338303 0 0 0 0.05548517421893874 0.20062236368109354 0.0038099499846339265 0 0.0038099499846339265 0.036573326705699571 0 0 0 0.059298922596698188 0.2009232046889671 0.00085993558979135208 0 0.00085993558979135208 0.020994841254468155 0 0 0 0.055479511485858717 0.19993286214675723 -0.0017623773199557449 0 -0.0017623773199557449 0.013160993774863156 0 0 0 0.053273463980405077 0.20251793225822601 0.00073116941849064865 0 0.00073116941849064865 0.026229177977698775 0 0 0 0.057186777558981057 0.20324838410505028 0.00045873177343880994 0 0.00045873177343880994 0.013065841921815511 0 0 0 0.054078556506716419 0.20279225282692476 -0.0013615628736559499 0 -0.0013615628736559499 0.0098062177608457465 0 0 0 0.053149617646942655 0.2003308395018106 -0.00021323733835328616 0 -0.00021323733835328616 0.0087050804799231555 0 0 0 0.052258979995433469 0.20132016965958621 0.0020949482964530437 0 0.0020949482964530437 0.0069318452031187777 0 0 0 0.052063003715676348 0.19994644179839766 0.0023689914924195899 0 0.0023689914924195899 0.011102940209371706 0 0 0 0.052762345501942309 0.20190759485055204 0.0026124635138750803 0 0.0026124635138750803 0.016446724178621783 0 0 0 0.054588579757293539 0.20275120834424423 0.0039262560156898205 0 0.0039262560156898205 0.013520827400241291 0 0 0 0.054068008936121438 0.18931762369622249 -0.0033037012193253292 0 -0.0033037012193253292 0.0049108553720181858 0 0 0 0.048557119767060217 0.20301735979326072 -0.014987722668609538 0 -0.014987722668609538 0.015585226342296643 0 0 0 0.054650646533889263 0.20916001398976808 -0.0091733371513218059 0 -0.0091733371513218059 -0.00016149517285601878 0 0 0 0.052249629704227932 0.20118896448303283 -0.011126048460979853 0 -0.011126048460979853 0.0086997334678506899 0 0 0 0.052472174487720846 0.22238645876845767 -0.016609134477603621 0 -0.016609134477603621 -0.008775595373845424 0 0 0 0.053402715848653193 0.27698950545685858 -0.044026929178084012 0 -0.044026929178084012 0.036741862459212071 0 0 0 0.078432841979017731 0.23180113243320563 -0.048480462351277814 0 -0.048480462351277814 0.071920318236610312 0 0 0 0.075930362667454315 0.5970237949723014 -0.010226473555718485 0 -0.010226473555718485 -0.19714272972976232 0 0 0 0.099970266310663192 0.37557376701511203 0.0019684084525906087 0 0.0019684084525906087 -0.45600406095655899 0 0 0 -0.02010757348534753 0.20929352183256567 -0.036877052984809783 0 -0.036877052984809783 0.06434108477756606 0 0 0 0.068408651652532737 0.21151459194245836 -0.036462793031499685 0 -0.036462793031499685 0.034607742553888543 0 0 0 0.061530583624086865 0.19877401944836226 -0.030939409794594225 0 -0.030939409794594225 0.041865677686971359 0 0 0 0.060159924283833432 0.21138335660066357 -0.027197115097055094 0 -0.027197115097055094 0.015896650202149809 0 0 0 0.056820001700703365 0.22299810714886645 -0.03385186951644395 0 -0.03385186951644395 0.03925782768049646 0 0 0 0.065563983707340706 0.2048550668818474 -0.028700653122783082 0 -0.028700653122783082 0.042861127214890243 0 0 0 0.061929048524184585 0.19595779858944903 -0.017778944503093488 0 -0.017778944503093488 0.024262762118864245 0 0 0 0.055055140177078382 0.20375853145586331 -0.026501157299597261 0 -0.026501157299597261 0.042763644020171271 0 0 0 0.061630543869008687 0.19194334384112777 -0.022365881644893407 0 -0.022365881644893407 0.04267658447779743 0 0 0 0.058654982079731535 0.38628696870091517 0.0036203137222372561 0 0.0036203137222372561 -0.6198543208955698 0 0 0 -0.058391838048578393 0.20231148044910111 -0.028591959664064082 0 -0.028591959664064082 0.060107310816827408 0 0 0 0.065604697816482399 0.19395984173691097 -0.021917492184976545 0 -0.021917492184976545 0.055803416032689457 0 0 0 0.062440814442400148 0.37489767930424023 0.0065443430138003578 0 0.0065443430138003578 -0.76617174556508871 0 0 0 -0.097818516565212121 0.18935885773308467 -0.019493562549931884 0 -0.019493562549931884 0.043968705120138285 0 0 0 0.058331890713305662 0.20044034265410801 -0.019547733594668326 0 -0.019547733594668326 0.037659758165841772 0 0 0 0.059525025204987397 0.20843807810324322 -0.019137360106002116 0 -0.019137360106002116 0.023376459418349482 0 0 0 0.057953634380398036 0.19962365396248005 -0.0088344390390497352 0 -0.0088344390390497352 0.0070421735163360699 0 0 0 0.0516664568697041 0.20408236617785153 -0.011964196266082257 0 -0.011964196266082257 0.024799159104616109 0 0 0 0.057220381320616798 0.19895270379527716 -0.0076484757498943429 0 -0.0076484757498943429 0.011501552479761368 0 0 0 0.052613564068759694 0.20277406869412196 -0.0075274003379718693 0 -0.0075274003379718693 0.027749161427594482 0 0 0 0.057630807530429089 0.19991395462758407 -0.012084763898643935 0 -0.012084763898643935 0.03835638984854034 0 0 0 0.059567586119031096 0.19524958834119041 -0.0077418030350919209 0 -0.0077418030350919209 0.02535298371183306 0 0 0 0.05515064301325575 0.19542989377521164 -0.012439008666449786 0 -0.012439008666449786 0.022242407679545717 0 0 0 0.054418075363689498 0.19242575288014468 -0.016158876879709877 0 -0.016158876879709877 0.041582813893027704 0 0 0 0.058502141693293111 0.19437958185039653 -0.014998302823509169 0 -0.014998302823509169 0.04566691250554511 0 0 0 0.060011623588985291 0.18796375897408432 -0.014419893876233575 0 -0.014419893876233575 0.043835952681475776 0 0 0 0.057949927913889837 0.37698625738221381 0.0034547207724742179 0 0.0034547207724742179 -0.86592680419107637 0 0 0 -0.12223513670232933 0.19211040367513588 -0.017253738711973332 0 -0.017253738711973332 0.054156743790495954 0 0 0 0.061566786866407937 0.18826124493729357 -0.011590284005730395 0 -0.011590284005730395 0.043864409511929825 0 0 0 0.058031413612305904 0.37520744488233504 0.0035473834345083333 0 0.0035473834345083333 -0.95924937542150701 0 0 0 -0.14601048263477878 0.19034101614813853 -0.012780603142246133 0 -0.012780603142246133 0.052574582148486038 0 0 0 0.060728899574156003 0.19341413932408991 -0.010038794708408794 0 -0.010038794708408794 0.044978652598003488 0 0 0 0.05959819798052346 0.19245014508953423 -0.012302035468278183 0 -0.012302035468278183 0.035866190891052897 0 0 0 0.057079083995146787 0.1930765425256859 -0.0085326627641947317 0 -0.0085326627641947317 0.044577312950849046 0 0 0 0.059413463869133654 0.19263554310114836 -0.0057149451759840597 0 -0.0057149451759840597 0.036180711281477512 0 0 0 0.057204063595656315 0.18858677611079383 -0.0067269154226395345 0 -0.0067269154226395345 0.044177106843684144 0 0 0 0.058190970738619396 0.37929099344023598 0.0036715491954879553 0 0.0036715491954879553 -1.0242665016384649 0 0 0 -0.16124387704962828 0.19216335527027897 -0.009121880246564934 0 -0.009121880246564934 0.052494554777090856 0 0 0 0.061164477511842633 0.38070777294615255 0.0030030538902678927 0 0.0030030538902678927 -1.1047157365275098 0 0 0 -0.18100199089536773 0.19222100469230383 -0.0030069015842825453 0 -0.0030069015842825453 0.051661164138058123 0 0 0 0.060970542207590323 0.19022433556142343 -0.0059820317549562352 0 -0.0059820317549562352 0.051319973456243617 0 0 0 0.060386077254416637 0.38085738228824084 0.0030904233168342898 0 0.0030904233168342898 -1.0715828129757483 0 0 0 -0.17268135767193371 0.1888413364423516 -0.0050432023029257783 0 -0.0050432023029257783 0.043997533128574573 0 0 0 0.058209717392731425 0.19321876980529529 -0.0038975306794284681 0 -0.0038975306794284681 0.044855826865512094 0 0 0 0.059518649167701776 0.19485597843489322 -0.0027393517603625309 0 -0.0027393517603625309 0.023434693428721759 0 0 0 0.054572667965903779 0.19917236377446168 -0.0060922481782377108 0 -0.0060922481782377108 0.038302141259914324 0 0 0 0.059368626258594057 0.2021235024205395 0.00070748405113090287 0 0.00070748405113090287 0.006956229032322625 0 0 0 0.052269932863215449 0.20203279085875694 -0.0029769918994846656 0 -0.0029769918994846656 0.025621712044776729 0 0 0 0.056913625725883363 0.1988383807522407 -0.0032322409216544168 0 -0.0032322409216544168 0.014801694323850867 0 0 0 0.053410018769022904 0.20209404241215109 -0.0041702766470127078 0 -0.0041702766470127078 0.013661730234642795 0 0 0 0.053938943161698533 0.20239764008826461 -0.0046753945384787887 0 -0.0046753945384787887 0.01147723174351159 0 0 0 0.053468717957944188 0.20059293501501696 -0.0033633987030099316 0 -0.0033633987030099316 0.001457946927913345 0 0 0 0.050512720485732548 0.20115168945478828 -0.0060505858132277011 0 -0.0060505858132277011 0.01170071969845371 0 0 0 0.053213102288310471 0.19879779446569257 0.0010852129353634728 0 0.0010852129353634728 0.0055395596392843749 0 0 0 0.051084338526244243 0.19695706534423005 0.0011124203061277094 0 0.0011124203061277094 -0.0007998404654416813 0 0 0 0.049039306219697071 0.19877372696687284 -0.0017362405363815225 0 -0.0017362405363815225 -0.0011066786183514532 0 0 0 0.049416762087130361 0.18739455565136626 -0.00029620748520829107 0 -0.00029620748520829107 0.0034173790112298486 0 0 0 0.04770298366564904 0.19982732705767214 0.0016644899555380427 0 0.0016644899555380427 -0.0033068758064348342 0 0 0 0.04913011281280933 0.19215983843869228 0.0017320943293676339 0 0.0017320943293676339 0.0013316498423534551 0 0 0 0.048372872070261488 0.19823551149572366 0.0019549822498207969 0 0.0019549822498207969 -0.00014733221775961591 0 0 0 0.049522044819491011 0.20250998900829126 -0.00067715966229618153 0 -0.00067715966229618153 0.0032915016332043939 0 0 0 0.05145037266037393 0.20068422591029358 0.0014873761662220156 0 0.0014873761662220156 0.0013599623411752193 0 0 0 0.050511047062867194 0.19885454554798257 0.0023244766527770189 0 0.0023244766527770189 0.0012510844491229328 0 0 0 0.050026407499276386 0.20135251744842972 0.00061086266900295394 0 0.00061086266900295394 0.00068299667286139676 0 0 0 0.050508878530322779 0.20077958340817809 0.0024261809300776052 0 0.0024261809300776052 -0.0017299274649511254 0 0 0 0.049762413985806733 0.19787489187752177 0.0014643018543439501 0 0.0014643018543439501 -0.00091346160624924955 0 0 0 0.049240357567818131 0.20159201115776737 0.00012770237516052454 0 0.00012770237516052454 -0.0056462783412457463 0 0 0 0.048986433204130472 0.20169530568553251 -0.0014539283664017032 0 -0.0014539283664017032 0.0028846854899733515 0 0 0 0.051144997793876476 0.19993168799155464 -0.00042177757938212899 0 -0.00042177757938212899 0.0010477843178176953 0 0 0 0.050244868077343068 0.20133114268551613 0.0010055745373826093 0 0.0010055745373826093 0.0044340261561290895 0 0 0 0.051441292210411292 0.20207587276664443 -0.0013276907741580982 0 -0.0013276907741580982 -9.9274146527023044e-05 0 0 0 0.050494149655029325 0.20015977458673301 -0.0015931865019121437 0 -0.0015931865019121437 0.0013105066107090488 0 0 0 0.050367570299360558 0.20010357934666556 -0.00083409528396799146 0 -0.00083409528396799146 0.00034540182844347567 0 0 0 0.050112245293777259 0.19971434800516252 -0.00098855890314244327 0 -0.00098855890314244327 -0.0025090874537713774 0 0 0 0.049301315137847725 0.19949114969935583 -0.00044515383376194512 0 -0.00044515383376194512 -0.00013158260054010884 0 0 0 0.049839891774703937 0.19956970467441648 -0.00049518507954533775 0 -0.00049518507954533775 -0.0005407042238973678 0 0 0 0.049757250112629818 0.19704856378469882 -0.0012894769628549007 0 -0.0012894769628549007 -0.00081661856643500119 0 0 0 0.049057986304565968 0.19946079903977332 -0.0001485026259535685 0 -0.0001485026259535685 -0.0022028903466302374 0 0 0 0.049314477173285798 0.20027719372546976 -0.0004172240403700414 0 -0.0004172240403700414 5.2229210048160279e-05 0 0 0 0.050082355733879508 0.20009334553955557 -0.0018454981612607002 0 -0.0018454981612607002 -0.00085543119644668209 0 0 0 0.049809478585777223 0.20335694996445389 5.863877978309201e-05 0 5.863877978309201e-05 -0.00088879756501914278 0 0 0 0.050617038099858694 0.20320581559004092 0.0002661006345557413 0 0.0002661006345557413 -0.0024859118116372647 0 0 0 0.050179975944600913 0.20303998935181056 0.0022870820104952186 0 0.0022870820104952186 -0.008466771207553167 0 0 0 0.048643304536064372 0.19956565111653077 0.0047248562421414557 0 0.0047248562421414557 -0.0017444057722318385 0 0 0 0.049455311336074718 0.20157425566610332 0.00031238792109535007 0 0.00031238792109535007 -0.032896095061065014 0 0 0 0.042169540151259635 0.21270485446023943 0.011693084338621635 0 0.011693084338621635 -0.0025974847804998841 0 0 0 0.052526842419934869 0.18768096948740493 0.024353792982080388 0 0.024353792982080388 -0.077052385068767687 0 0 0 0.027657146104659358 0.20383562331676591 0.038216024751085056 0 0.038216024751085056 0.014958123991451605 0 0 0 0.054698436827054595 0.19318585279899017 0.012757440478837171 0 0.012757440478837171 -0.0086516735167511266 0 0 0 0.046133544820559744 0.19988336499476439 0.0069624428412136032 0 0.0069624428412136032 0.0088909129705035915 0 0 0 0.052193569491317114 0.20089588256394925 0.0062279647072204496 0 0.0062279647072204496 0.0043375650286404943 0 0 0 0.051308361898147407 0.19886604710873465 0.00072191165836834421 0 0.00072191165836834421 0.0020812950581708539 0 0 0 0.050236835541726352 0.19607805572099246 0.0049702930891726612 0 0.0049702930891726612 0.0041388128139197566 0 0 0 0.050054217133727978 0.19927516997450964 0.00030850007013911301 0 0.00030850007013911301 0.0053652257247847899 0 0 0 0.051160098924823719 0.19988673914091226 0.00023936485279937164 0 0.00023936485279937164 0.00018914685812446196 0 0 0 0.05001897149975916 0.19955431789185413 0.0012783421360852316 0 0.0012783421360852316 0.0022044513868753196 0 0 0 0.050439692319682365 
</DataArray>
</CellData>
</Piece>
</UnstructuredGrid>
</VTKFile>
