<?xml version="1.0"?>
<VTKFile type="UnstructuredGrid" version="0.1" byte_order="LittleEndian">
<UnstructuredGrid>
<Piece NumberOfPoints="84" NumberOfCells="28">
<Points>
<DataArray type="Float64" NumberOfComponents="3" format="ascii">
0 0 0 0.29166666666652658 0.2916666666668038 0 0 0.33333333333472032 0 0 0 0 0.33333333333250248 0 0 0.29166666666652658 0.2916666666668038 0 0.33333333333250248 0 0 0.66666666666578889 0 0 0.49999999999981742 0.1726190476194705 0 0.33333333333250248 0 0 0.49999999999981742 0.1726190476194705 0 0.29166666666652658 0.2916666666668038 0 0.50000000000004996 0.49999999999997519 0 0.17261904761971569 0.50000000000021494 0 0.29166666666652658 0.2916666666668038 0 0.50000000000004996 0.49999999999997519 0 0.29166666666652658 0.2916666666668038 0 0.49999999999981742 0.1726190476194705 0 0 0.33333333333472032 0 0.29166666666652658 0.2916666666668038 0 0.17261904761971569 0.50000000000021494 0 0 0.66666666666759111 0 0 0.33333333333472032 0 0.17261904761971569 0.50000000000021494 0 0 0.66666666666759111 0 0.17261904761971569 0.50000000000021494 0 0.29166666666684449 0.7083333333334445 0 0 1 0 0.29166666666684449 0.7083333333334445 0 0.33333333333472032 1 0 0 1 0 0 0.66666666666759111 0 0.29166666666684449 0.7083333333334445 0 0.33333333333472032 1 0 0.29166666666684449 0.7083333333334445 0 0.50000000000021227 0.82738095238030207 0 0.50000000000004996 0.49999999999997519 0 0.29166666666684449 0.7083333333334445 0 0.17261904761971569 0.50000000000021494 0 0.50000000000004996 0.49999999999997519 0 0.50000000000021227 0.82738095238030207 0 0.29166666666684449 0.7083333333334445 0 0.50000000000004996 0.49999999999997519 0 0.82738095238054699 0.49999999999982031 0 0.70833333333346027 0.70833333333323512 0 0.50000000000004996 0.49999999999997519 0 0.70833333333346027 0.70833333333323512 0 0.50000000000021227 0.82738095238030207 0 0.66666666666759111 1 0 0.50000000000021227 0.82738095238030207 0 0.70833333333346027 0.70833333333323512 0 0.66666666666759111 1 0 0.33333333333472032 1 0 0.50000000000021227 0.82738095238030207 0 1 1 0 0.70833333333346027 0.70833333333323512 0 1 0.66666666666578889 0 1 1 0 0.66666666666759111 1 0 0.70833333333346027 0.70833333333323512 0 1 0.66666666666578889 0 0.70833333333346027 0.70833333333323512 0 0.82738095238054699 0.49999999999982031 0 1 0.33333333333250248 0 1 0.66666666666578889 0 0.82738095238054699 0.49999999999982031 0 1 0.33333333333250248 0 0.82738095238054699 0.49999999999982031 0 0.70833333333327586 0.2916666666665107 0 1 0 0 0.70833333333327586 0.2916666666665107 0 0.66666666666578889 0 0 1 0 0 1 0.33333333333250248 0 0.70833333333327586 0.2916666666665107 0 0.66666666666578889 0 0 0.70833333333327586 0.2916666666665107 0 0.49999999999981742 0.1726190476194705 0 0.50000000000004996 0.49999999999997519 0 0.70833333333327586 0.2916666666665107 0 0.82738095238054699 0.49999999999982031 0 0.50000000000004996 0.49999999999997519 0 0.49999999999981742 0.1726190476194705 0 0.70833333333327586 0.2916666666665107 0 
</DataArray>
</Points>
<Cells>
<DataArray type="UInt32" Name="connectivity" format="ascii">
0 1 2 3 4 5 6 7 8 9 10 11 12 13 14 15 16 17 18 19 20 21 22 23 24 25 26 27 28 29 30 31 32 33 34 35 36 37 38 39 40 41 42 43 44 45 46 47 48 49 50 51 52 53 54 55 56 57 58 59 60 61 62 63 64 65 66 67 68 69 70 71 72 73 74 75 76 77 78 79 80 81 82 83 
</DataArray>
<DataArray type="UInt32" Name="offsets" format="ascii">
3 6 9 12 15 18 21 24 27 30 33 36 39 42 45 48 51 54 57 60 63 66 69 72 75 78 81 84 
</DataArray>
<DataArray type="UInt32" Name="types" format="ascii">
5 5 5 5 5 5 5 5 5 5 5 5 5 5 5 5 5 5 5 5 5 5 5 5 5 5 5 5 
</DataArray>
</Cells>
<PointData Scalars="" Vectors="displacement," Tensors="">
<DataArray type="Float64" Name="displacement" NumberOfComponents="3" format="ascii">
4.8165869389523176e-20 -2.7777777777677596e-08 0 9.1152737797589818e-06 -2.7370837331359845e-05 0 -1.1121432328348733e-19 -3.1276988696272107e-05 0 4.8165869389523176e-20 -2.7777777777677596e-08 0 1.0417455748275108e-05 -2.7777777777773625e-08 0 9.1152737797589835e-06 -2.7370837331359841e-05 0 1.0417455748275108e-05 -2.7777777777769161e-08 0 2.0834911496575748e-05 -2.7777777777813829e-08 0 1.5626183622446288e-05 -1.6210404860543093e-05 0 1.0417455748275108e-05 -2.7777777777769161e-08 0 1.5626183622446288e-05 -1.6210404860543093e-05 0 9.1152737797589835e-06 -2.7370837331359841e-05 0 1.5626183622454656e-05 -4.6901594155323015e-05 0 5.3947538696775237e-06 -4.6901594155345031e-05 0 9.1152737797589835e-06 -2.7370837331359841e-05 0 1.5626183622454656e-05 -4.6901594155323015e-05 0 9.1152737797589835e-06 -2.7370837331359835e-05 0 1.5626183622446288e-05 -1.6210404860543093e-05 0 -1.1121432328348733e-19 -3.1276988696272107e-05 0 9.1152737797589835e-06 -2.7370837331359841e-05 0 5.3947538696775237e-06 -4.6901594155345031e-05 0 6.7215199429909301e-20 -6.2526199614594931e-05 0 -1.1121432328348733e-19 -3.1276988696272107e-05 0 5.3947538696775237e-06 -4.6901594155345031e-05 0 6.7215199429909301e-20 -6.2526199614594931e-05 0 5.3947538696775237e-06 -4.6901594155345031e-05 0 9.1152737797697205e-06 -6.643235097931304e-05 0 -1.094857064155541e-19 -9.3775410532873148e-05 0 9.1152737797697205e-06 -6.643235097931304e-05 0 1.0417455748344137e-05 -9.3775410532871901e-05 0 -1.094857064155541e-19 -9.3775410532873148e-05 0 6.7215199429909301e-20 -6.2526199614594931e-05 0 9.1152737797697205e-06 -6.643235097931304e-05 0 1.0417455748344137e-05 -9.3775410532871901e-05 0 9.1152737797697205e-06 -6.643235097931304e-05 0 1.562618362245902e-05 -7.7592783450085932e-05 0 1.5626183622454656e-05 -4.6901594155323015e-05 0 9.1152737797697205e-06 -6.643235097931304e-05 0 5.3947538696775237e-06 -4.6901594155345031e-05 0 1.5626183622454656e-05 -4.6901594155323015e-05 0 1.562618362245902e-05 -7.7592783450085946e-05 0 9.1152737797697205e-06 -6.643235097931304e-05 0 1.5626183622454656e-05 -4.6901594155323015e-05 0 2.585761337523688e-05 -4.6901594155308385e-05 0 2.2137093465145469e-05 -6.6432350979293565e-05 0 1.5626183622454656e-05 -4.6901594155323015e-05 0 2.2137093465145469e-05 -6.6432350979293565e-05 0 1.562618362245902e-05 -7.7592783450085932e-05 0 2.0834911496632377e-05 -9.3775410532871901e-05 0 1.562618362245902e-05 -7.7592783450085932e-05 0 2.2137093465145469e-05 -6.6432350979293565e-05 0 2.0834911496632377e-05 -9.3775410532871901e-05 0 1.0417455748344137e-05 -9.3775410532871901e-05 0 1.562618362245902e-05 -7.7592783450085932e-05 0 3.1252367244905579e-05 -9.3775410532872131e-05 0 2.2137093465145469e-05 -6.6432350979293565e-05 0 3.1252367244906602e-05 -6.2526199614424671e-05 0 3.1252367244905579e-05 -9.3775410532872131e-05 0 2.0834911496632377e-05 -9.3775410532871901e-05 0 2.2137093465145469e-05 -6.6432350979293565e-05 0 3.1252367244906602e-05 -6.2526199614424671e-05 0 2.2137093465145469e-05 -6.6432350979293565e-05 0 2.585761337523688e-05 -4.6901594155308385e-05 0 3.1252367244905484e-05 -3.1276988696064821e-05 0 3.1252367244906602e-05 -6.2526199614424671e-05 0 2.585761337523688e-05 -4.6901594155308385e-05 0 3.1252367244905484e-05 -3.1276988696064821e-05 0 2.585761337523688e-05 -4.6901594155308385e-05 0 2.2137093465139672e-05 -2.7370837331333885e-05 0 3.1252367244906108e-05 -2.7777777777878343e-08 0 2.2137093465139672e-05 -2.7370837331333885e-05 0 2.0834911496575748e-05 -2.7777777777813829e-08 0 3.1252367244906108e-05 -2.7777777777878343e-08 0 3.1252367244905484e-05 -3.1276988696064821e-05 0 2.2137093465139672e-05 -2.7370837331333885e-05 0 2.0834911496575748e-05 -2.7777777777813829e-08 0 2.2137093465139672e-05 -2.7370837331333885e-05 0 1.5626183622446288e-05 -1.6210404860543093e-05 0 1.5626183622454656e-05 -4.6901594155323015e-05 0 2.2137093465139672e-05 -2.7370837331333885e-05 0 2.585761337523688e-05 -4.6901594155308385e-05 0 1.5626183622454656e-05 -4.6901594155323015e-05 0 1.5626183622446288e-05 -1.6210404860543093e-05 0 2.2137093465139672e-05 -2.7370837331333885e-05 0 
</DataArray>
</PointData>
<CellData Scalars="displacement_divergence," Vectors="" Tensors="stress,">
<DataArray type="Float64" Name="stress" NumberOfComponents="9" format="ascii">
0.37875918466306757 -8.1854523159563541e-11 0 -8.1854523159563541e-11 -9999.6212408150568 0 0 0 -2499.8106204075984 0.378759184590308 -2.3524663769538276e-11 0 -2.3524663769538276e-11 -9999.6212408152151 0 0 0 -2499.8106204076566 0.37875918474446735 -3.7192027235732894e-11 0 -3.7192027235732894e-11 -9999.621240815788 0 0 0 -2499.8106204077603 0.37875918484542126 -2.1600499167107046e-10 0 -2.1600499167107046e-10 -9999.6212408152114 0 0 0 -2499.8106204075912 0.37875918487407034 1.5162993776808138e-10 0 1.5162993776808138e-10 -9999.6212408151387 0 0 0 -2499.8106204075666 0.37875918519193874 -1.7280399333685637e-11 0 -1.7280399333685637e-11 -9999.6212408147821 0 0 0 -2499.8106204073974 0.37875918467761949 9.9817043519578874e-11 0 9.9817043519578874e-11 -9999.6212408152351 0 0 0 -2499.8106204076394 0.37875918496911254 8.9130480773746967e-11 0 8.9130480773746967e-11 -9999.6212408155243 0 0 0 -2499.8106204076394 0.37875918485406146 1.2005330063402653e-10 0 1.2005330063402653e-10 -9999.6212408152605 0 0 0 -2499.8106204076012 0.37875918451754842 1.2732925824820995e-11 0 1.2732925824820995e-11 -9999.6212408153151 0 0 0 -2499.8106204076994 0.37875918487888838 1.5279510989785194e-10 0 1.5279510989785194e-10 -9999.6212408151332 0 0 0 -2499.8106204075634 0.37875918487907256 -8.5492501966655254e-11 0 -8.5492501966655254e-11 -9999.6212408151678 0 0 0 -2499.8106204075725 0.37875918496956729 -1.1095835361629725e-10 0 -1.1095835361629725e-10 -9999.6212408148567 0 0 0 -2499.810620407472 0.3787591849152791 -1.0368239600211382e-10 0 -1.0368239600211382e-10 -9999.621240814764 0 0 0 -2499.8106204074625 0.3787591849850287 -3.4109504228011945e-11 0 -3.4109504228011945e-11 -9999.621240814824 0 0 0 -2499.8106204074593 0.37875918513054785 -1.0004441719502211e-10 0 -1.0004441719502211e-10 -9999.6212408147003 0 0 0 -2499.8106204073929 0.37875918510144402 -1.127773430198431e-10 0 -1.127773430198431e-10 -9999.6212408150495 0 0 0 -2499.8106204074866 0.37875918511053897 -5.8896823271315725e-11 0 -5.8896823271315725e-11 -9999.6212408152642 0 0 0 -2499.8106204075375 0.37875918519694096 -9.9134922493249178e-11 0 -9.9134922493249178e-11 -9999.6212408151259 0 0 0 -2499.8106204074811 0.37875918498320971 -6.1206725927208324e-11 0 -6.1206725927208324e-11 -9999.6212408150604 0 0 0 -2499.8106204075193 0.37875918541976716 7.7079675975255668e-11 0 7.7079675975255668e-11 -9999.6212408146203 0 0 0 -2499.8106204072992 0.37875918507772083 2.255546860396862e-10 0 2.255546860396862e-10 -9999.6212408148658 0 0 0 -2499.8106204074475 0.37875918496501981 2.382876118645072e-10 0 2.382876118645072e-10 -9999.6212408146894 0 0 0 -2499.810620407432 0.37875918507517792 4.9039439176112865e-11 0 4.9039439176112865e-11 -9999.6212408155861 0 0 0 -2499.8106204076275 0.37875918487546606 1.1868905858136714e-10 0 1.1868905858136714e-10 -9999.6212408151223 0 0 0 -2499.8106204075616 0.37875918505301343 8.4583007264882326e-11 0 8.4583007264882326e-11 -9999.6212408156007 0 0 0 -2499.8106204076375 0.3787591851223624 6.8212102632969618e-11 0 6.8212102632969618e-11 -9999.6212408143965 0 0 0 -2499.8106204073192 0.37875918521110519 -6.3664629124104977e-12 0 -6.3664629124104977e-12 -9999.6212408147749 0 0 0 -2499.8106204073902 
</DataArray>
<DataArray type="Float64" Name="displacement_divergence" format="ascii">
-6.2495265510189956e-05 -6.2495265510191406e-05 -6.2495265510194021e-05 -6.2495265510189793e-05 -6.2495265510189197e-05 -6.2495265510184941e-05 -6.2495265510190986e-05 -6.2495265510190972e-05 -6.2495265510189983e-05 -6.2495265510192558e-05 -6.2495265510189061e-05 -6.2495265510189305e-05 -6.2495265510186757e-05 -6.2495265510186554e-05 -6.2495265510186405e-05 -6.2495265510184778e-05 -6.2495265510187164e-05 -6.2495265510188411e-05 -6.2495265510187055e-05 -6.2495265510187923e-05 -6.2495265510182502e-05 -6.2495265510186161e-05 -6.2495265510185741e-05 -6.2495265510190714e-05 -6.2495265510189048e-05 -6.2495265510190931e-05 -6.2495265510182962e-05 -6.2495265510184765e-05 
</DataArray>
</CellData>
</Piece>
</UnstructuredGrid>
</VTKFile>
