<?xml version="1.0"?>
<VTKFile type="UnstructuredGrid" version="0.1" byte_order="LittleEndian">
<UnstructuredGrid>
<Piece NumberOfPoints="84" NumberOfCells="28">
<Points>
<DataArray type="Float64" NumberOfComponents="3" format="ascii">
0 0 0 0.29166666666652658 0.2916666666668038 0 0 0.33333333333472032 0 0 0 0 0.33333333333250248 0 0 0.29166666666652658 0.2916666666668038 0 0.33333333333250248 0 0 0.66666666666578889 0 0 0.49999999999981742 0.1726190476194705 0 0.33333333333250248 0 0 0.49999999999981742 0.1726190476194705 0 0.29166666666652658 0.2916666666668038 0 0.50000000000004996 0.49999999999997519 0 0.17261904761971569 0.50000000000021494 0 0.29166666666652658 0.2916666666668038 0 0.50000000000004996 0.49999999999997519 0 0.29166666666652658 0.2916666666668038 0 0.49999999999981742 0.1726190476194705 0 0 0.33333333333472032 0 0.29166666666652658 0.2916666666668038 0 0.17261904761971569 0.50000000000021494 0 0 0.66666666666759111 0 0 0.33333333333472032 0 0.17261904761971569 0.50000000000021494 0 0 0.66666666666759111 0 0.17261904761971569 0.50000000000021494 0 0.29166666666684449 0.7083333333334445 0 0 1 0 0.29166666666684449 0.7083333333334445 0 0.33333333333472032 1 0 0 1 0 0 0.66666666666759111 0 0.29166666666684449 0.7083333333334445 0 0.33333333333472032 1 0 0.29166666666684449 0.7083333333334445 0 0.50000000000021227 0.82738095238030207 0 0.50000000000004996 0.49999999999997519 0 0.29166666666684449 0.7083333333334445 0 0.17261904761971569 0.50000000000021494 0 0.50000000000004996 0.49999999999997519 0 0.50000000000021227 0.82738095238030207 0 0.29166666666684449 0.7083333333334445 0 0.50000000000004996 0.49999999999997519 0 0.82738095238054699 0.49999999999982031 0 0.70833333333346027 0.70833333333323512 0 0.50000000000004996 0.49999999999997519 0 0.70833333333346027 0.70833333333323512 0 0.50000000000021227 0.82738095238030207 0 0.66666666666759111 1 0 0.50000000000021227 0.82738095238030207 0 0.70833333333346027 0.70833333333323512 0 0.66666666666759111 1 0 0.33333333333472032 1 0 0.50000000000021227 0.82738095238030207 0 1 1 0 0.70833333333346027 0.70833333333323512 0 1 0.66666666666578889 0 1 1 0 0.66666666666759111 1 0 0.70833333333346027 0.70833333333323512 0 1 0.66666666666578889 0 0.70833333333346027 0.70833333333323512 0 0.82738095238054699 0.49999999999982031 0 1 0.33333333333250248 0 1 0.66666666666578889 0 0.82738095238054699 0.49999999999982031 0 1 0.33333333333250248 0 0.82738095238054699 0.49999999999982031 0 0.70833333333327586 0.2916666666665107 0 1 0 0 0.70833333333327586 0.2916666666665107 0 0.66666666666578889 0 0 1 0 0 1 0.33333333333250248 0 0.70833333333327586 0.2916666666665107 0 0.66666666666578889 0 0 0.70833333333327586 0.2916666666665107 0 0.49999999999981742 0.1726190476194705 0 0.50000000000004996 0.49999999999997519 0 0.70833333333327586 0.2916666666665107 0 0.82738095238054699 0.49999999999982031 0 0.50000000000004996 0.49999999999997519 0 0.49999999999981742 0.1726190476194705 0 0.70833333333327586 0.2916666666665107 0 
</DataArray>
</Points>
<Cells>
<DataArray type="UInt32" Name="connectivity" format="ascii">
0 1 2 3 4 5 6 7 8 9 10 11 12 13 14 15 16 17 18 19 20 21 22 23 24 25 26 27 28 29 30 31 32 33 34 35 36 37 38 39 40 41 42 43 44 45 46 47 48 49 50 51 52 53 54 55 56 57 58 59 60 61 62 63 64 65 66 67 68 69 70 71 72 73 74 75 76 77 78 79 80 81 82 83 
</DataArray>
<DataArray type="UInt32" Name="offsets" format="ascii">
3 6 9 12 15 18 21 24 27 30 33 36 39 42 45 48 51 54 57 60 63 66 69 72 75 78 81 84 
</DataArray>
<DataArray type="UInt32" Name="types" format="ascii">
5 5 5 5 5 5 5 5 5 5 5 5 5 5 5 5 5 5 5 5 5 5 5 5 5 5 5 5 
</DataArray>
</Cells>
<PointData Scalars="" Vectors="displacement," Tensors="">
<DataArray type="Float64" Name="displacement" NumberOfComponents="3" format="ascii">
-3.4871961541696415e-14 -2.7777815046108384e-08 0 9.1147853043100492e-06 -2.7371350567948852e-05 0 -1.7035231139689895e-14 -3.1277559846598034e-05 0 -3.4871961541696415e-14 -2.7777815046108384e-08 0 1.0416893037300755e-05 -2.7777813133996386e-08 0 9.1147853043100509e-06 -2.7371350567948849e-05 0 1.0416893037300755e-05 -2.7777813133991922e-08 0 2.0833719559446453e-05 -2.7777758228359601e-08 0 1.5625317792001854e-05 -1.6210723933316765e-05 0 1.0416893037300755e-05 -2.7777813133991922e-08 0 1.5625317792001854e-05 -1.6210723933316765e-05 0 9.1147853043100509e-06 -2.7371350567948849e-05 0 1.5625335985622455e-05 -4.6902516338305085e-05 0 5.3944737911307193e-06 -4.6902455692361916e-05 0 9.1147853043100509e-06 -2.7371350567948849e-05 0 1.5625335985622455e-05 -4.6902516338305085e-05 0 9.1147853043100509e-06 -2.7371350567948842e-05 0 1.5625317792001854e-05 -1.6210723933316765e-05 0 -1.7035231139689895e-14 -3.1277559846598034e-05 0 9.1147853043100509e-06 -2.7371350567948849e-05 0 5.3944737911307193e-06 -4.6902455692361916e-05 0 -3.0446840949697237e-14 -6.2527332178161177e-05 0 -1.7035231139689895e-14 -3.1277559846598034e-05 0 5.3944737911307193e-06 -4.6902455692361916e-05 0 -3.0446840949697237e-14 -6.2527332178161177e-05 0 5.3944737911307193e-06 -4.6902455692361916e-05 0 9.1148144999864839e-06 -6.6433590172333047e-05 0 1.2983607697414399e-13 -9.3777096089049173e-05 0 9.1148144999864839e-06 -6.6433590172333047e-05 0 1.0416989008368106e-05 -9.3777176212673312e-05 0 1.2983607697414399e-13 -9.3777096089049173e-05 0 -3.0446840949697237e-14 -6.2527332178161177e-05 0 9.1148144999864839e-06 -6.6433590172333047e-05 0 1.0416989008368106e-05 -9.3777176212673312e-05 0 9.1148144999864839e-06 -6.6433590172333047e-05 0 1.5625391225389331e-05 -7.7594313898548338e-05 0 1.5625335985622455e-05 -4.6902516338305085e-05 0 9.1148144999864839e-06 -6.6433590172333047e-05 0 5.3944737911307193e-06 -4.6902455692361916e-05 0 1.5625335985622455e-05 -4.6902516338305085e-05 0 1.5625391225389331e-05 -7.7594313898548352e-05 0 9.1148144999864839e-06 -6.6433590172333047e-05 0 1.5625335985622455e-05 -4.6902516338305085e-05 0 2.585610412264877e-05 -4.6902602791805002e-05 0 2.2135876044684634e-05 -6.6433739367517642e-05 0 1.5625335985622455e-05 -4.6902516338305085e-05 0 2.2135876044684634e-05 -6.6433739367517642e-05 0 1.5625391225389331e-05 -7.7594313898548338e-05 0 2.0833891808512551e-05 -9.377737388908959e-05 0 1.5625391225389331e-05 -7.7594313898548338e-05 0 2.2135876044684634e-05 -6.6433739367517642e-05 0 2.0833891808512551e-05 -9.377737388908959e-05 0 1.0416989008368106e-05 -9.3777176212673312e-05 0 1.5625391225389331e-05 -7.7594313898548338e-05 0 3.1250629289864698e-05 -9.3777561118145553e-05 0 2.2135876044684634e-05 -6.6433739367517642e-05 0 3.1250487398788485e-05 -6.2527613090848183e-05 0 3.1250629289864698e-05 -9.3777561118145553e-05 0 2.0833891808512551e-05 -9.377737388908959e-05 0 2.2135876044684634e-05 -6.6433739367517642e-05 0 3.1250487398788485e-05 -6.2527613090848183e-05 0 2.2135876044684634e-05 -6.6433739367517642e-05 0 2.585610412264877e-05 -4.6902602791805002e-05 0 3.1250434903749441e-05 -3.1277679860584901e-05 0 3.1250487398788485e-05 -6.2527613090848183e-05 0 2.585610412264877e-05 -4.6902602791805002e-05 0 3.1250434903749441e-05 -3.1277679860584901e-05 0 2.585610412264877e-05 -4.6902602791805002e-05 0 2.2135823089453339e-05 -2.737140932761904e-05 0 3.1250435361063824e-05 -2.7777708895899329e-08 0 2.2135823089453339e-05 -2.737140932761904e-05 0 2.0833719559446453e-05 -2.7777758228359601e-08 0 3.1250435361063824e-05 -2.7777708895899329e-08 0 3.1250434903749441e-05 -3.1277679860584901e-05 0 2.2135823089453339e-05 -2.737140932761904e-05 0 2.0833719559446453e-05 -2.7777758228359601e-08 0 2.2135823089453339e-05 -2.737140932761904e-05 0 1.5625317792001854e-05 -1.6210723933316765e-05 0 1.5625335985622455e-05 -4.6902516338305085e-05 0 2.2135823089453339e-05 -2.737140932761904e-05 0 2.585610412264877e-05 -4.6902602791805002e-05 0 1.5625335985622455e-05 -4.6902516338305085e-05 0 1.5625317792001854e-05 -1.6210723933316765e-05 0 2.2135823089453339e-05 -2.737140932761904e-05 0 
</DataArray>
</PointData>
<CellData Scalars="displacement_divergence," Vectors="" Tensors="stress,">
<DataArray type="Float64" Name="stress" NumberOfComponents="9" format="ascii">
0.10926078769216474 -0.0018459138636899297 0 -0.0018459138636899297 -9999.8938297924433 0 0 0 -2499.9461422511886 0.10581393717393439 0.00053522545888868667 0 0.00053522545888868667 -9999.8999074992153 0 0 0 -2499.9485233905107 0.078302736953446583 0.002669934907990168 0 0.002669934907990168 -9999.9185530504146 0 0 0 -2499.9600625783651 0.090247401365104452 -0.0033844878230411268 0 -0.0033844878230411268 -9999.9063154758678 0 0 0 -2499.9540170186265 0.099615401997652953 -0.0070235164932471788 0 -0.0070235164932471788 -9999.9039097379027 0 0 0 -2499.9510735839767 0.09152434073735094 -0.0026056770377635985 0 -0.0026056770377635985 -9999.9134900344707 0 0 0 -2499.9554914234336 0.1107261404813471 0.00013293972733663395 0 0.00013293972733663395 -9999.8915879292654 0 0 0 -2499.9452154471965 0.11670322079589823 -0.0022447153860412072 0 -0.0022447153860412072 -9999.8882450404835 0 0 0 -2499.9428854549224 0.11921567796343879 -0.0029197341436884017 0 -0.0029197341436884017 -9999.8940386108843 0 0 0 -2499.9437057332298 0.13985569853139168 -0.0026344646921643289 0 -0.0026344646921643289 -9999.8897562535349 0 0 0 -2499.9374751387531 0.12344353019879921 -0.0051243605103081791 0 -0.0051243605103081791 -9999.8833036684882 0 0 0 -2499.9399650345736 0.10181463536082447 -0.007129885063477559 0 -0.007129885063477559 -9999.9000175231649 0 0 0 -2499.9495507219517 0.10244751369100413 -0.0021905842349951854 0 -0.0021905842349951854 -9999.8954134028136 0 0 0 -2499.9482414722806 0.10099442624703427 -0.0067037605240329867 0 -0.0067037605240329867 -9999.9120130205174 0 0 0 -2499.9527546485688 0.057298578130939859 -0.00072408833297452654 0 -0.00072408833297452654 -9999.9389233074216 0 0 0 -2499.9704061823231 0.071196948852957576 -0.0084431296218099305 0 -0.0084431296218099305 -9999.9219455129933 0 0 0 -2499.9626871410346 0.08118497221130383 -0.002529877434426453 0 -0.002529877434426453 -9999.9380829427173 0 0 0 -2499.9642244926245 0.1022858755204652 -0.012324276691977281 0 -0.012324276691977281 -9999.9198305259779 0 0 0 -2499.9543861626116 0.025062536756195186 0.00095011010489542969 0 0.00095011010489542969 -9999.9750145299113 0 0 0 -2499.9874879982872 0.038120699038699968 -0.0076630557717158208 0 -0.0076630557717158208 -9999.9536200286821 0 0 0 -2499.9788748324099 0.026606362054735655 -0.010603041979038608 0 -0.010603041979038608 -9999.9560498557621 0 0 0 -2499.9823608734259 0.016208806762657391 -0.0038232267143030185 0 -0.0038232267143030185 -9999.9732307500708 0 0 0 -2499.989255485827 0.022484134105070552 0.0017917206228048599 0 0.0017917206228048599 -9999.9563135405187 0 0 0 -2499.9834573516027 0.033929636809126418 0.001933432923647338 0 0.001933432923647338 -9999.9453806159163 0 0 0 -2499.9778627447763 0.023483188085296751 -0.004548234286630759 0 -0.004548234286630759 -9999.960860836045 0 0 0 -2499.9843444119911 0.067241630842602262 -0.0036969307884646696 0 -0.0036969307884646696 -9999.932725464585 0 0 0 -2499.9663709584356 0.058448043736461841 -0.010234603529170272 0 -0.010234603529170272 -9999.9354749106005 0 0 0 -2499.9692567167167 0.068241289271017649 -0.0042303274030928151 0 -0.0042303274030928151 -9999.9212510516227 0 0 0 -2499.9632524405879 
</DataArray>
<DataArray type="Float64" Name="displacement_divergence" format="ascii">
-6.249865355627973e-05 -6.2498713084762757e-05 -6.2499001564459133e-05 -6.2498850425465654e-05 -6.2498776839599454e-05 -6.2498887285585849e-05 -6.2498630386179912e-05 -6.2498572136373065e-05 -6.2498592643330729e-05 -6.249843687846881e-05 -6.2498499125864334e-05 -6.2498738768048767e-05 -6.2498706036807059e-05 -6.2498818866214213e-05 -6.2499260154558092e-05 -6.249906717852583e-05 -6.2499105612315618e-05 -6.2498859654065405e-05 -6.2499687199957189e-05 -6.2499471870810288e-05 -6.2499559021835644e-05 -6.2499731387145657e-05 -6.2499586433790105e-05 -6.249944656861943e-05 -6.2499608610299757e-05 -6.2499159273960868e-05 -6.2499231417917882e-05 -6.2499081311014697e-05 
</DataArray>
</CellData>
</Piece>
</UnstructuredGrid>
</VTKFile>
