<?xml version="1.0"?>
<VTKFile type="UnstructuredGrid" version="0.1" byte_order="LittleEndian">
<UnstructuredGrid>
<Piece NumberOfPoints="84" NumberOfCells="28">
<Points>
<DataArray type="Float64" NumberOfComponents="3" format="ascii">
0 0 0 0.29166666666652658 0.2916666666668038 0 0 0.33333333333472032 0 0 0 0 0.33333333333250248 0 0 0.29166666666652658 0.2916666666668038 0 0.49999999999981742 0.1726190476194705 0 0.33333333333250248 0 0 0.66666666666578889 0 0 0.49999999999981742 0.1726190476194705 0 0.33333333333250248 0 0 0.29166666666652658 0.2916666666668038 0 0.29166666666652658 0.2916666666668038 0 0.17261904761971569 0.50000000000021494 0 0.50000000000004996 0.49999999999997519 0 0.49999999999981742 0.1726190476194705 0 0.29166666666652658 0.2916666666668038 0 0.50000000000004996 0.49999999999997519 0 0.29166666666652658 0.2916666666668038 0 0 0.33333333333472032 0 0.17261904761971569 0.50000000000021494 0 0 0.33333333333472032 0 0.17261904761971569 0.50000000000021494 0 0 0.66666666666759111 0 0.17261904761971569 0.50000000000021494 0 0 0.66666666666759111 0 0.29166666666684449 0.7083333333334445 0 0 1 0 0.33333333333472032 1 0 0.29166666666684449 0.7083333333334445 0 0 0.66666666666759111 0 0 1 0 0.29166666666684449 0.7083333333334445 0 0.33333333333472032 1 0 0.29166666666684449 0.7083333333334445 0 0.50000000000021227 0.82738095238030207 0 0.17261904761971569 0.50000000000021494 0 0.29166666666684449 0.7083333333334445 0 0.50000000000004996 0.49999999999997519 0 0.29166666666684449 0.7083333333334445 0 0.50000000000021227 0.82738095238030207 0 0.50000000000004996 0.49999999999997519 0 0.70833333333346027 0.70833333333323512 0 0.82738095238054699 0.49999999999982031 0 0.50000000000004996 0.49999999999997519 0 0.70833333333346027 0.70833333333323512 0 0.50000000000021227 0.82738095238030207 0 0.50000000000004996 0.49999999999997519 0 0.70833333333346027 0.70833333333323512 0 0.66666666666759111 1 0 0.50000000000021227 0.82738095238030207 0 0.33333333333472032 1 0 0.66666666666759111 1 0 0.50000000000021227 0.82738095238030207 0 0.70833333333346027 0.70833333333323512 0 1 1 0 1 0.66666666666578889 0 0.70833333333346027 0.70833333333323512 0 0.66666666666759111 1 0 1 1 0 0.70833333333346027 0.70833333333323512 0 1 0.66666666666578889 0 0.82738095238054699 0.49999999999982031 0 1 0.66666666666578889 0 1 0.33333333333250248 0 0.82738095238054699 0.49999999999982031 0 1 0.33333333333250248 0 0.82738095238054699 0.49999999999982031 0 0.70833333333327586 0.2916666666665107 0 1 0 0 0.66666666666578889 0 0 0.70833333333327586 0.2916666666665107 0 1 0.33333333333250248 0 1 0 0 0.70833333333327586 0.2916666666665107 0 0.49999999999981742 0.1726190476194705 0 0.66666666666578889 0 0 0.70833333333327586 0.2916666666665107 0 0.82738095238054699 0.49999999999982031 0 0.50000000000004996 0.49999999999997519 0 0.70833333333327586 0.2916666666665107 0 0.49999999999981742 0.1726190476194705 0 0.50000000000004996 0.49999999999997519 0 0.70833333333327586 0.2916666666665107 0 
</DataArray>
</Points>
<Cells>
<DataArray type="UInt32" Name="connectivity" format="ascii">
0 1 2 3 4 5 6 7 8 9 10 11 12 13 14 15 16 17 18 19 20 21 22 23 24 25 26 27 28 29 30 31 32 33 34 35 36 37 38 39 40 41 42 43 44 45 46 47 48 49 50 51 52 53 54 55 56 57 58 59 60 61 62 63 64 65 66 67 68 69 70 71 72 73 74 75 76 77 78 79 80 81 82 83 
</DataArray>
<DataArray type="UInt32" Name="offsets" format="ascii">
3 6 9 12 15 18 21 24 27 30 33 36 39 42 45 48 51 54 57 60 63 66 69 72 75 78 81 84 
</DataArray>
<DataArray type="UInt32" Name="types" format="ascii">
5 5 5 5 5 5 5 5 5 5 5 5 5 5 5 5 5 5 5 5 5 5 5 5 5 5 5 5 
</DataArray>
</Cells>
<PointData Scalars="" Vectors="displacement," Tensors="">
<DataArray type="Float64" Name="displacement" NumberOfComponents="3" format="ascii">
-1.0443611356789517e-13 -2.7777828822654658e-08 0 9.1152084426423139e-06 -2.7370925325737264e-05 0 -4.0678262648465936e-14 -3.1277052019013126e-05 0 -1.0443611356789517e-13 -2.7777828822654658e-08 0 1.0417377099251165e-05 -2.7777875267827635e-08 0 9.1152084426423156e-06 -2.7370925325737261e-05 0 1.5626044161707849e-05 -1.6210497715430958e-05 0 1.0417377099251165e-05 -2.7777875267823171e-08 0 2.083466130556213e-05 -2.7777793240496853e-08 0 1.5626044161707849e-05 -1.6210497715430958e-05 0 1.0417377099251165e-05 -2.7777875267823528e-08 0 9.1152084426423156e-06 -2.7370925325737261e-05 0 9.1152084426423156e-06 -2.7370925325737261e-05 0 5.3947351643414664e-06 -4.6901701239579821e-05 0 1.5626093255777028e-05 -4.69018559606954e-05 0 1.5626044161707849e-05 -1.6210497715430958e-05 0 9.1152084426423156e-06 -2.7370925325737261e-05 0 1.5626093255777028e-05 -4.69018559606954e-05 0 9.1152084426423156e-06 -2.7370925325737261e-05 0 -4.0678262356108985e-14 -3.1277052019013126e-05 0 5.3947351643414664e-06 -4.6901701239579821e-05 0 -4.0678262648465936e-14 -3.1277052019013126e-05 0 5.3947351643414664e-06 -4.6901701239579821e-05 0 -6.4057946898391425e-14 -6.2526312437512891e-05 0 5.3947351643414664e-06 -4.6901701239579821e-05 0 -6.4057946898391425e-14 -6.2526312437512891e-05 0 9.1152951330826152e-06 -6.6432549767808497e-05 0 3.1390871631905824e-13 -9.3775563108113879e-05 0 1.0417632348315256e-05 -9.3775727771635195e-05 0 9.1152951330826152e-06 -6.6432549767808497e-05 0 -6.4057946898391425e-14 -6.2526312437512891e-05 0 3.1390871631905824e-13 -9.3775563108113879e-05 0 9.1152951330826152e-06 -6.6432549767808497e-05 0 1.0417632348315256e-05 -9.3775727771635181e-05 0 9.1152951330826152e-06 -6.6432549767808497e-05 0 1.5626250709725643e-05 -7.7593219195279604e-05 0 5.3947351643414664e-06 -4.6901701239579821e-05 0 9.1152951330826152e-06 -6.6432549767808497e-05 0 1.5626093255777028e-05 -4.69018559606954e-05 0 9.1152951330826152e-06 -6.6432549767808497e-05 0 1.5626250709725643e-05 -7.7593219195279604e-05 0 1.5626093255777028e-05 -4.69018559606954e-05 0 2.213697720478176e-05 -6.6432936350544752e-05 0 2.5857246942542329e-05 -4.6902094344719224e-05 0 1.5626093255777028e-05 -4.69018559606954e-05 0 2.213697720478176e-05 -6.6432936350544752e-05 0 1.5626250709725643e-05 -7.7593219195279604e-05 0 1.5626093255777028e-05 -4.69018559606954e-05 0 2.213697720478176e-05 -6.6432936350544752e-05 0 2.0835147043999785e-05 -9.3776230912662124e-05 0 1.5626250709725643e-05 -7.7593219195279604e-05 0 1.0417632348315256e-05 -9.3775727771635181e-05 0 2.0835147043999785e-05 -9.3776230912662124e-05 0 1.5626250709725643e-05 -7.7593219195279604e-05 0 2.213697720478176e-05 -6.6432936350544752e-05 0 3.1252156447521684e-05 -9.377682225193488e-05 0 3.1251723712111258e-05 -6.2527068206075532e-05 0 2.213697720478176e-05 -6.6432936350544752e-05 0 2.0835147043999785e-05 -9.3776230912662124e-05 0 3.1252156447521684e-05 -9.3776822251934893e-05 0 2.213697720478176e-05 -6.6432936350544752e-05 0 3.1251723712111258e-05 -6.2527068206075532e-05 0 2.5857246942542329e-05 -4.6902094344719224e-05 0 3.1251723712111258e-05 -6.2527068206075532e-05 0 3.1251576754336669e-05 -3.1277380017521268e-05 0 2.5857246942542329e-05 -4.6902094344719224e-05 0 3.1251576754336669e-05 -3.1277380017521275e-05 0 2.5857246942542329e-05 -4.6902094344719224e-05 0 2.2136834955371122e-05 -2.7371087544062944e-05 0 3.1251606557497401e-05 -2.7777500827131513e-08 0 2.083466130556213e-05 -2.7777793240496853e-08 0 2.2136834955371122e-05 -2.7371087544062944e-05 0 3.1251576754336669e-05 -3.1277380017521275e-05 0 3.1251606557497401e-05 -2.7777500827131513e-08 0 2.2136834955371122e-05 -2.7371087544062944e-05 0 1.5626044161707849e-05 -1.6210497715430958e-05 0 2.083466130556213e-05 -2.7777793240496853e-08 0 2.2136834955371122e-05 -2.7371087544062944e-05 0 2.5857246942542329e-05 -4.6902094344719224e-05 0 1.5626093255777028e-05 -4.69018559606954e-05 0 2.2136834955371122e-05 -2.7371087544062944e-05 0 1.5626044161707849e-05 -1.6210497715430958e-05 0 1.5626093255777028e-05 -4.69018559606954e-05 0 2.2136834955371122e-05 -2.7371087544062944e-05 0 
</DataArray>
</PointData>
<CellData Scalars="displacement_divergence," Vectors="" Tensors="effective_stress,">
<DataArray type="Float64" Name="effective_stress" NumberOfComponents="9" format="ascii">
0.34430503970270365 -0.0044605454736483807 0 -0.0044605454736483807 -9999.652972472777 0 0 0 -2499.8271668582688 0.33842790652033727 0.00047358091717438232 0 0.00047358091717438232 -9999.6668318451557 0 0 0 -2499.8321009846591 0.29550043655354541 0.0057935109685547381 0 0.0057935109685547381 -9999.7063367502706 0 0 0 -2499.8527090784296 0.32240559511001265 -0.0087426193385908846 0 -0.0087426193385908846 -9999.6754149515891 0 0 0 -2499.8382523391201 0.33802444472348725 -0.014954072447835642 0 -0.014954072447835642 -9999.6733993315411 0 0 0 -2499.8338437217053 0.32570427586142614 -0.006730632057042385 0 -0.006730632057042385 -9999.6939729242422 0 0 0 -2499.8420671620952 0.34758822194271488 -7.7259829595277552e-05 0 -7.7259829595277552e-05 -9999.6478881116673 0 0 0 -2499.825074972432 0.35985213496223878 -0.004408206997140951 0 -0.004408206997140951 -9999.6433832221501 0 0 0 -2499.8208827717963 0.37292833725950914 -0.0035513129760147422 0 -0.0035513129760147422 -9999.6547486306299 0 0 0 -2499.8204550733426 0.4288003620258678 -0.0014906992012561301 0 -0.0014906992012561301 -9999.6403519025916 0 0 0 -2499.8028878851419 0.38278118616894857 -0.011062740350098466 0 -0.011062740350098466 -9999.6326208913215 0 0 0 -2499.8124599262896 0.3570889095444727 -0.017614410724490881 0 -0.017614410724490881 -9999.6567614845662 0 0 0 -2499.824918143755 0.34568717641741387 -0.006209584837051807 0 -0.006209584837051807 -9999.6504111364629 0 0 0 -2499.8261809900105 0.35087021431991161 -0.0141135149042384 0 -0.0141135149042384 -9999.6872098946151 0 0 0 -2499.834084920074 0.24456998783762174 -0.0003675351181300357 0 -0.0003675351181300357 -9999.7539664231645 0 0 0 -2499.8773491088318 0.28487811076138314 -0.021634356025515444 0 -0.021634356025515444 -9999.7092072624655 0 0 0 -2499.8560822879272 0.31426289044429723 -0.0042752445824589813 0 -0.0042752445824589813 -9999.7482420868018 0 0 0 -2499.8584947990894 0.36914608783263247 -0.028170418955376361 0 -0.028170418955376361 -9999.7066696075344 0 0 0 -2499.8343808799254 0.118903916488307 0.0037758388261863729 0 0.0037758388261863729 -9999.8816600098289 0 0 0 -2499.9406890233358 0.17570808734581078 -0.030364419666511822 0 -0.030364419666511822 -9999.8019031467156 0 0 0 -2499.906548764845 0.12297975269757444 -0.037529562768668256 0 -0.037529562768668256 -9999.8184388233894 0 0 0 -2499.9238647676721 0.077773920767034668 -0.012435246257155086 0 -0.012435246257155086 -9999.8742956985134 0 0 0 -2499.9491304444364 0.109881167083131 0.0092263424030534225 0 0.0092263424030534225 -9999.8181215234017 0 0 0 -2499.92706008908 0.16066270208057176 0.0076455986156085745 0 0.0076455986156085745 -9999.7854537252824 0 0 0 -2499.9061977558003 0.11442800927918791 -0.016215317586556921 0 -0.016215317586556921 -9999.8346626972889 0 0 0 -2499.9300586720019 0.27355819704234818 -0.0092347822210285813 0 -0.0092347822210285813 -9999.7434092451786 0 0 0 -2499.8674627620344 0.24621645870684006 -0.030572969605933475 0 -0.030572969605933475 -9999.7490270105718 0 0 0 -2499.8757026379653 0.27926129229750701 -0.012418488257026183 0 -0.012418488257026183 -9999.7094539187619 0 0 0 -2499.8575481566149 
</DataArray>
<DataArray type="Float64" Name="displacement_divergence" format="ascii">
-6.2495679171456709e-05 -6.2495802524616481e-05 -6.2496317726960728e-05 -6.2495956308477994e-05 -6.2495846093042596e-05 -6.2496051679052401e-05 -6.2495626874310792e-05 -6.2495522069294944e-05 -6.2495511376833542e-05 -6.2495072197128515e-05 -6.2495311498157201e-05 -6.2495622953593919e-05 -6.2495654524750293e-05 -6.2495852123001857e-05 -6.2496933727720786e-05 -6.2496402057198182e-05 -6.2496462369977245e-05 -6.2495859521998203e-05 -6.2498517225583459e-05 -6.2497663719121067e-05 -6.249809661919173e-05 -6.2498728261110891e-05 -6.2498176502226961e-05 -6.2497654943895024e-05 -6.2498251466800044e-05 -6.2496686569050872e-05 -6.2496892565949149e-05 -6.2496438703915378e-05 
</DataArray>
</CellData>
</Piece>
</UnstructuredGrid>
</VTKFile>
