<?xml version="1.0"?>
<VTKFile type="UnstructuredGrid" version="0.1" byte_order="LittleEndian">
<UnstructuredGrid>
<Piece NumberOfPoints="84" NumberOfCells="28">
<Points>
<DataArray type="Float64" NumberOfComponents="3" format="ascii">
0 0 0 0.29166666666652658 0.2916666666668038 0 0 0.33333333333472032 0 0 0 0 0.33333333333250248 0 0 0.29166666666652658 0.2916666666668038 0 0.33333333333250248 0 0 0.66666666666578889 0 0 0.49999999999981742 0.1726190476194705 0 0.33333333333250248 0 0 0.49999999999981742 0.1726190476194705 0 0.29166666666652658 0.2916666666668038 0 0.50000000000004996 0.49999999999997519 0 0.17261904761971569 0.50000000000021494 0 0.29166666666652658 0.2916666666668038 0 0.50000000000004996 0.49999999999997519 0 0.29166666666652658 0.2916666666668038 0 0.49999999999981742 0.1726190476194705 0 0 0.33333333333472032 0 0.29166666666652658 0.2916666666668038 0 0.17261904761971569 0.50000000000021494 0 0 0.66666666666759111 0 0 0.33333333333472032 0 0.17261904761971569 0.50000000000021494 0 0 0.66666666666759111 0 0.17261904761971569 0.50000000000021494 0 0.29166666666684449 0.7083333333334445 0 0 1 0 0.29166666666684449 0.7083333333334445 0 0.33333333333472032 1 0 0 1 0 0 0.66666666666759111 0 0.29166666666684449 0.7083333333334445 0 0.33333333333472032 1 0 0.29166666666684449 0.7083333333334445 0 0.50000000000021227 0.82738095238030207 0 0.50000000000004996 0.49999999999997519 0 0.29166666666684449 0.7083333333334445 0 0.17261904761971569 0.50000000000021494 0 0.50000000000004996 0.49999999999997519 0 0.50000000000021227 0.82738095238030207 0 0.29166666666684449 0.7083333333334445 0 0.50000000000004996 0.49999999999997519 0 0.82738095238054699 0.49999999999982031 0 0.70833333333346027 0.70833333333323512 0 0.50000000000004996 0.49999999999997519 0 0.70833333333346027 0.70833333333323512 0 0.50000000000021227 0.82738095238030207 0 0.66666666666759111 1 0 0.50000000000021227 0.82738095238030207 0 0.70833333333346027 0.70833333333323512 0 0.66666666666759111 1 0 0.33333333333472032 1 0 0.50000000000021227 0.82738095238030207 0 1 1 0 0.70833333333346027 0.70833333333323512 0 1 0.66666666666578889 0 1 1 0 0.66666666666759111 1 0 0.70833333333346027 0.70833333333323512 0 1 0.66666666666578889 0 0.70833333333346027 0.70833333333323512 0 0.82738095238054699 0.49999999999982031 0 1 0.33333333333250248 0 1 0.66666666666578889 0 0.82738095238054699 0.49999999999982031 0 1 0.33333333333250248 0 0.82738095238054699 0.49999999999982031 0 0.70833333333327586 0.2916666666665107 0 1 0 0 0.70833333333327586 0.2916666666665107 0 0.66666666666578889 0 0 1 0 0 1 0.33333333333250248 0 0.70833333333327586 0.2916666666665107 0 0.66666666666578889 0 0 0.70833333333327586 0.2916666666665107 0 0.49999999999981742 0.1726190476194705 0 0.50000000000004996 0.49999999999997519 0 0.70833333333327586 0.2916666666665107 0 0.82738095238054699 0.49999999999982031 0 0.50000000000004996 0.49999999999997519 0 0.49999999999981742 0.1726190476194705 0 0.70833333333327586 0.2916666666665107 0 
</DataArray>
</Points>
<Cells>
<DataArray type="UInt32" Name="connectivity" format="ascii">
0 1 2 3 4 5 6 7 8 9 10 11 12 13 14 15 16 17 18 19 20 21 22 23 24 25 26 27 28 29 30 31 32 33 34 35 36 37 38 39 40 41 42 43 44 45 46 47 48 49 50 51 52 53 54 55 56 57 58 59 60 61 62 63 64 65 66 67 68 69 70 71 72 73 74 75 76 77 78 79 80 81 82 83 
</DataArray>
<DataArray type="UInt32" Name="offsets" format="ascii">
3 6 9 12 15 18 21 24 27 30 33 36 39 42 45 48 51 54 57 60 63 66 69 72 75 78 81 84 
</DataArray>
<DataArray type="UInt32" Name="types" format="ascii">
5 5 5 5 5 5 5 5 5 5 5 5 5 5 5 5 5 5 5 5 5 5 5 5 5 5 5 5 
</DataArray>
</Cells>
<PointData Scalars="" Vectors="displacement," Tensors="">
<DataArray type="Float64" Name="displacement" NumberOfComponents="3" format="ascii">
-5.7521421010175871e-14 -2.777778607868104e-08 0 9.1152425859788179e-06 -2.7370843436760284e-05 0 -1.928598519555467e-14 -3.1276982356407967e-05 0 -5.7521421010175871e-14 -2.777778607868104e-08 0 1.0417415829281545e-05 -2.7777781181166982e-08 0 9.1152425859788196e-06 -2.7370843436760281e-05 0 1.0417415829281545e-05 -2.7777781181162519e-08 0 2.0834830632297818e-05 -2.7777918509736876e-08 0 1.5626133107565849e-05 -1.6210424051452853e-05 0 1.0417415829281545e-05 -2.7777781181162519e-08 0 1.5626133107565849e-05 -1.6210424051452853e-05 0 9.1152425859788196e-06 -2.7370843436760281e-05 0 1.5626166314306313e-05 -4.690165546018994e-05 0 5.3947474795878614e-06 -4.6901589982343027e-05 0 9.1152425859788196e-06 -2.7370843436760281e-05 0 1.5626166314306313e-05 -4.690165546018994e-05 0 9.1152425859788196e-06 -2.7370843436760274e-05 0 1.5626133107565849e-05 -1.6210424051452853e-05 0 -1.928598519555467e-14 -3.1276982356407967e-05 0 9.1152425859788196e-06 -2.7370843436760281e-05 0 5.3947474795878614e-06 -4.6901589982343027e-05 0 -1.4889771561972954e-14 -6.2526190989368435e-05 0 -1.928598519555467e-14 -3.1276982356407967e-05 0 5.3947474795878614e-06 -4.6901589982343027e-05 0 -1.4889771561972954e-14 -6.2526190989368435e-05 0 5.3947474795878614e-06 -4.6901589982343027e-05 0 9.1152957577992005e-06 -6.6432367328195398e-05 0 1.2587324025997689e-13 -9.3775407374584332e-05 0 9.1152957577992005e-06 -6.6432367328195398e-05 0 1.0417542632242295e-05 -9.3775454892513105e-05 0 1.2587324025997689e-13 -9.3775407374584332e-05 0 -1.4889771561972954e-14 -6.2526190989368435e-05 0 9.1152957577992005e-06 -6.6432367328195398e-05 0 1.0417542632242295e-05 -9.3775454892513105e-05 0 9.1152957577992005e-06 -6.6432367328195398e-05 0 1.5626252825992322e-05 -7.7592878582829222e-05 0 1.5626166314306313e-05 -4.690165546018994e-05 0 9.1152957577992005e-06 -6.6432367328195398e-05 0 5.3947474795878614e-06 -4.6901589982343027e-05 0 1.5626166314306313e-05 -4.690165546018994e-05 0 1.5626252825992322e-05 -7.7592878582829236e-05 0 9.1152957577992005e-06 -6.6432367328195398e-05 0 1.5626166314306313e-05 -4.690165546018994e-05 0 2.585757494410357e-05 -4.6901781214838923e-05 0 2.2137129423466669e-05 -6.6432529718326241e-05 0 1.5626166314306313e-05 -4.690165546018994e-05 0 2.2137129423466669e-05 -6.6432529718326241e-05 0 1.5626252825992322e-05 -7.7592878582829222e-05 0 2.083510646747459e-05 -9.377563567211548e-05 0 1.5626252825992322e-05 -7.7592878582829222e-05 0 2.2137129423466669e-05 -6.6432529718326241e-05 0 2.083510646747459e-05 -9.377563567211548e-05 0 1.0417542632242295e-05 -9.3775454892513105e-05 0 1.5626252825992322e-05 -7.7592878582829222e-05 0 3.125245584549173e-05 -9.3776071444210321e-05 0 2.2137129423466669e-05 -6.6432529718326241e-05 0 3.1252144129917241e-05 -6.2526559858498582e-05 0 3.125245584549173e-05 -9.3776071444210321e-05 0 2.083510646747459e-05 -9.377563567211548e-05 0 2.2137129423466669e-05 -6.6432529718326241e-05 0 3.1252144129917241e-05 -6.2526559858498582e-05 0 2.2137129423466669e-05 -6.6432529718326241e-05 0 2.585757494410357e-05 -4.6901781214838923e-05 0 3.125206147222149e-05 -3.1277169957415572e-05 0 3.1252144129917241e-05 -6.2526559858498582e-05 0 2.585757494410357e-05 -4.6901781214838923e-05 0 3.125206147222149e-05 -3.1277169957415572e-05 0 2.585757494410357e-05 -4.6901781214838923e-05 0 2.2137057925453122e-05 -2.7370932574739871e-05 0 3.1252139669014267e-05 -2.7777481205904639e-08 0 2.2137057925453122e-05 -2.7370932574739871e-05 0 2.0834830632297818e-05 -2.7777918509736876e-08 0 3.1252139669014267e-05 -2.7777481205904639e-08 0 3.125206147222149e-05 -3.1277169957415572e-05 0 2.2137057925453122e-05 -2.7370932574739871e-05 0 2.0834830632297818e-05 -2.7777918509736876e-08 0 2.2137057925453122e-05 -2.7370932574739871e-05 0 1.5626133107565849e-05 -1.6210424051452853e-05 0 1.5626166314306313e-05 -4.690165546018994e-05 0 2.2137057925453122e-05 -2.7370932574739871e-05 0 2.585757494410357e-05 -4.6901781214838923e-05 0 1.5626166314306313e-05 -4.690165546018994e-05 0 1.5626133107565849e-05 -1.6210424051452853e-05 0 2.2137057925453122e-05 -2.7370932574739871e-05 0 
</DataArray>
</PointData>
<CellData Scalars="displacement_divergence," Vectors="" Tensors="stress,">
<DataArray type="Float64" Name="stress" NumberOfComponents="9" format="ascii">
0.36669685323113299 -0.0015933652648527641 0 -0.0015933652648527641 -9999.6232301793552 0 0 0 -2499.8141333315316 0.36357229328632457 0.00051384886286827858 0 0.00051384886286827858 -9999.6285344759181 0 0 0 -2499.8162405456587 0.35958858516823966 0.0022722031483501937 0 0.0022722031483501937 -9999.6394451415235 0 0 0 -2499.8199641390888 0.36757259327850988 -0.0025305394392489688 0 -0.0025305394392489688 -9999.6284418180094 0 0 0 -2499.8152173061826 0.37215912760348147 -0.0040001753543767119 0 -0.0040001753543767119 -9999.6303690808709 0 0 0 -2499.8145524883166 0.36943997255320937 -0.0013954788219052716 0 -0.0013954788219052716 -9999.6380687119472 0 0 0 -2499.8171571848488 0.36810229733055166 0.0009738902567733021 0 0.0009738902567733021 -9999.621894776541 0 0 0 -2499.8134481198031 0.3746030934034934 -0.00076637345591734629 0 -0.00076637345591734629 -9999.6218948634232 0 0 0 -2499.8118229425049 0.38391091123230581 0.000937552473260439 0 0.000937552473260439 -9999.6252817544719 0 0 0 -2499.810342710809 0.40696519103403261 0.0017119442618422909 0 0.0017119442618422909 -9999.6199104995758 0 0 0 -2499.8032363271359 0.38714442848531461 -0.0033144099743367406 0 -0.0033144099743367406 -9999.6201951539842 0 0 0 -2499.8082626813753 0.38993318981920311 -0.005798686512207496 0 -0.005798686512207496 -9999.6223959566523 0 0 0 -2499.8081156917087 0.37538856414812471 -0.0017912473049364053 0 -0.0017912473049364053 -9999.6206807712333 0 0 0 -2499.8113230517711 0.38370765872178508 -0.0021945460230199387 0 -0.0021945460230199387 -9999.6306130606699 0 0 0 -2499.8117263504869 0.36383422447943303 -0.0025569266186008864 0 -0.0025569266186008864 -9999.645368938669 0 0 0 -2499.8203836785469 0.37359705647577357 -0.0078440539291477762 0 -0.0078440539291477762 -9999.6339832614249 0 0 0 -2499.8150965512386 0.38918885411203519 0.0013141731215000618 0 0.0013141731215000618 -9999.6429006302787 0 0 0 -2499.813427944041 0.40849033951963065 -0.0050734080712188578 0 -0.0050734080712188578 -9999.6358108183122 0 0 0 -2499.8068301196981 0.25212003816341166 0.0073594530613263487 0 0.0073594530613263487 -9999.7596673887056 0 0 0 -2499.8768868376337 0.32663205654171179 -0.032308710065351541 0 -0.032308710065351541 -9999.67550675456 0 0 0 -2499.8372186745055 0.25561074598044797 -0.033411481088251094 0 -0.033411481088251094 -9999.6989540049181 0 0 0 -2499.8608358147339 0.20016346175354197 -0.0094748068222543225 0 -0.0094748068222543225 -9999.7380471940542 0 0 0 -2499.884470933076 0.2460983825844778 0.012352272719454049 0 0.012352272719454049 -9999.6970757305535 0 0 0 -2499.8627443369937 0.31289285498488839 0.0087834767157266569 0 0.0087834767157266569 -9999.6779966564991 0 0 0 -2499.8412759503785 0.24981220736757184 -0.018067940117816761 0 -0.018067940117816761 -9999.7223216762304 0 0 0 -2499.868127367215 0.36461796649336975 -0.0014634004182880744 0 -0.0014634004182880744 -9999.6577693945164 0 0 0 -2499.8232878570057 0.36216791705373907 -0.014445322750361811 0 -0.014445322750361811 -9999.6503678609424 0 0 0 -2499.8220499859726 0.37528403605900895 -0.0076045004598199739 0 -0.0076045004598199739 -9999.6361206907804 0 0 0 -2499.8152091636803 
</DataArray>
<DataArray type="Float64" Name="displacement_divergence" format="ascii">
-6.2495353333288277e-05 -6.2495406013641453e-05 -6.249549910347722e-05 -6.2495380432654567e-05 -6.2495363812207903e-05 -6.2495428929621249e-05 -6.2495336202995081e-05 -6.2495295573562618e-05 -6.2495258567770226e-05 -6.2495080908178436e-05 -6.2495206567034423e-05 -6.2495202892292692e-05 -6.2495283076294288e-05 -6.2495293158762203e-05 -6.2495509591963655e-05 -6.2495377413780896e-05 -6.2495335698601083e-05 -6.2495170752992397e-05 -6.2496922170940866e-05 -6.2495930466862688e-05 -6.249652089536839e-05 -6.2497111773326849e-05 -6.2496568608424769e-05 -6.2496031898759478e-05 -6.2496703184180378e-05 -6.2495582196425134e-05 -6.2495551249649312e-05 -6.2495380229091977e-05 
</DataArray>
</CellData>
</Piece>
</UnstructuredGrid>
</VTKFile>
