<?xml version="1.0"?>
<VTKFile type="UnstructuredGrid" version="0.1" byte_order="LittleEndian">
<UnstructuredGrid>
<Piece NumberOfPoints="84" NumberOfCells="28">
<Points>
<DataArray type="Float64" NumberOfComponents="3" format="ascii">
0 0 0 0.29166666666652658 0.2916666666668038 0 0 0.33333333333472032 0 0 0 0 0.33333333333250248 0 0 0.29166666666652658 0.2916666666668038 0 0.49999999999981742 0.1726190476194705 0 0.33333333333250248 0 0 0.66666666666578889 0 0 0.49999999999981742 0.1726190476194705 0 0.33333333333250248 0 0 0.29166666666652658 0.2916666666668038 0 0.29166666666652658 0.2916666666668038 0 0.17261904761971569 0.50000000000021494 0 0.50000000000004996 0.49999999999997519 0 0.49999999999981742 0.1726190476194705 0 0.29166666666652658 0.2916666666668038 0 0.50000000000004996 0.49999999999997519 0 0.29166666666652658 0.2916666666668038 0 0 0.33333333333472032 0 0.17261904761971569 0.50000000000021494 0 0 0.33333333333472032 0 0.17261904761971569 0.50000000000021494 0 0 0.66666666666759111 0 0.17261904761971569 0.50000000000021494 0 0 0.66666666666759111 0 0.29166666666684449 0.7083333333334445 0 0 1 0 0.33333333333472032 1 0 0.29166666666684449 0.7083333333334445 0 0 0.66666666666759111 0 0 1 0 0.29166666666684449 0.7083333333334445 0 0.33333333333472032 1 0 0.29166666666684449 0.7083333333334445 0 0.50000000000021227 0.82738095238030207 0 0.17261904761971569 0.50000000000021494 0 0.29166666666684449 0.7083333333334445 0 0.50000000000004996 0.49999999999997519 0 0.29166666666684449 0.7083333333334445 0 0.50000000000021227 0.82738095238030207 0 0.50000000000004996 0.49999999999997519 0 0.70833333333346027 0.70833333333323512 0 0.82738095238054699 0.49999999999982031 0 0.50000000000004996 0.49999999999997519 0 0.70833333333346027 0.70833333333323512 0 0.50000000000021227 0.82738095238030207 0 0.50000000000004996 0.49999999999997519 0 0.70833333333346027 0.70833333333323512 0 0.66666666666759111 1 0 0.50000000000021227 0.82738095238030207 0 0.33333333333472032 1 0 0.66666666666759111 1 0 0.50000000000021227 0.82738095238030207 0 0.70833333333346027 0.70833333333323512 0 1 1 0 1 0.66666666666578889 0 0.70833333333346027 0.70833333333323512 0 0.66666666666759111 1 0 1 1 0 0.70833333333346027 0.70833333333323512 0 1 0.66666666666578889 0 0.82738095238054699 0.49999999999982031 0 1 0.66666666666578889 0 1 0.33333333333250248 0 0.82738095238054699 0.49999999999982031 0 1 0.33333333333250248 0 0.82738095238054699 0.49999999999982031 0 0.70833333333327586 0.2916666666665107 0 1 0 0 0.66666666666578889 0 0 0.70833333333327586 0.2916666666665107 0 1 0.33333333333250248 0 1 0 0 0.70833333333327586 0.2916666666665107 0 0.49999999999981742 0.1726190476194705 0 0.66666666666578889 0 0 0.70833333333327586 0.2916666666665107 0 0.82738095238054699 0.49999999999982031 0 0.50000000000004996 0.49999999999997519 0 0.70833333333327586 0.2916666666665107 0 0.49999999999981742 0.1726190476194705 0 0.50000000000004996 0.49999999999997519 0 0.70833333333327586 0.2916666666665107 0 
</DataArray>
</Points>
<Cells>
<DataArray type="UInt32" Name="connectivity" format="ascii">
0 1 2 3 4 5 6 7 8 9 10 11 12 13 14 15 16 17 18 19 20 21 22 23 24 25 26 27 28 29 30 31 32 33 34 35 36 37 38 39 40 41 42 43 44 45 46 47 48 49 50 51 52 53 54 55 56 57 58 59 60 61 62 63 64 65 66 67 68 69 70 71 72 73 74 75 76 77 78 79 80 81 82 83 
</DataArray>
<DataArray type="UInt32" Name="offsets" format="ascii">
3 6 9 12 15 18 21 24 27 30 33 36 39 42 45 48 51 54 57 60 63 66 69 72 75 78 81 84 
</DataArray>
<DataArray type="UInt32" Name="types" format="ascii">
5 5 5 5 5 5 5 5 5 5 5 5 5 5 5 5 5 5 5 5 5 5 5 5 5 5 5 5 
</DataArray>
</Cells>
<PointData Scalars="" Vectors="displacement," Tensors="">
<DataArray type="Float64" Name="displacement" NumberOfComponents="3" format="ascii">
-5.752141943860455e-14 -2.7777786078695026e-08 0 9.1152425859857433e-06 -2.7370843436773739e-05 0 -1.9285985993801417e-14 -3.1276982356422678e-05 0 -5.752141943860455e-14 -2.7777786078695026e-08 0 1.0417415829291887e-05 -2.7777781181178569e-08 0 9.115242585985745e-06 -2.7370843436773735e-05 0 1.5626133107580895e-05 -1.6210424051462441e-05 0 1.0417415829291887e-05 -2.7777781181174106e-08 0 2.0834830632326153e-05 -2.7777918509780734e-08 0 1.5626133107580895e-05 -1.6210424051462441e-05 0 1.0417415829291887e-05 -2.7777781181174463e-08 0 9.115242585985745e-06 -2.7370843436773735e-05 0 9.115242585985745e-06 -2.7370843436773735e-05 0 5.3947474795859378e-06 -4.6901589982363525e-05 0 1.5626166314313273e-05 -4.6901655460210702e-05 0 1.5626133107580895e-05 -1.6210424051462441e-05 0 9.115242585985745e-06 -2.7370843436773735e-05 0 1.5626166314313273e-05 -4.6901655460210702e-05 0 9.115242585985745e-06 -2.7370843436773735e-05 0 -1.9285985701444905e-14 -3.1276982356422678e-05 0 5.3947474795859378e-06 -4.6901589982363525e-05 0 -1.9285985993801417e-14 -3.1276982356422678e-05 0 5.3947474795859378e-06 -4.6901589982363525e-05 0 -1.4889774265983765e-14 -6.2526190989388737e-05 0 5.3947474795859378e-06 -4.6901589982363525e-05 0 -1.4889774265983765e-14 -6.2526190989388737e-05 0 9.1152957577968864e-06 -6.6432367328224658e-05 0 1.2587325144749618e-13 -9.3775407374606422e-05 0 1.0417542632244983e-05 -9.3775454892544913e-05 0 9.1152957577968864e-06 -6.6432367328224658e-05 0 -1.4889774265983765e-14 -6.2526190989388737e-05 0 1.2587325144749618e-13 -9.3775407374606422e-05 0 9.1152957577968864e-06 -6.6432367328224658e-05 0 1.0417542632244983e-05 -9.3775454892544899e-05 0 9.1152957577968864e-06 -6.6432367328224658e-05 0 1.5626252825990926e-05 -7.7592878582859472e-05 0 5.3947474795859378e-06 -4.6901589982363525e-05 0 9.1152957577968864e-06 -6.6432367328224658e-05 0 1.5626166314313273e-05 -4.6901655460210702e-05 0 9.1152957577968864e-06 -6.6432367328224658e-05 0 1.5626252825990926e-05 -7.7592878582859472e-05 0 1.5626166314313273e-05 -4.6901655460210702e-05 0 2.213712942347246e-05 -6.6432529718344225e-05 0 2.585757494411036e-05 -4.6901781214852157e-05 0 1.5626166314313273e-05 -4.6901655460210702e-05 0 2.213712942347246e-05 -6.6432529718344225e-05 0 1.5626252825990926e-05 -7.7592878582859472e-05 0 1.5626166314313273e-05 -4.6901655460210702e-05 0 2.213712942347246e-05 -6.6432529718344225e-05 0 2.0835106467447884e-05 -9.3775635672125942e-05 0 1.5626252825990926e-05 -7.7592878582859472e-05 0 1.0417542632244983e-05 -9.3775454892544899e-05 0 2.0835106467447884e-05 -9.3775635672125942e-05 0 1.5626252825990926e-05 -7.7592878582859472e-05 0 2.213712942347246e-05 -6.6432529718344225e-05 0 3.1252455845466441e-05 -9.3776071444186618e-05 0 3.1252144129901121e-05 -6.2526559858490287e-05 0 2.213712942347246e-05 -6.6432529718344225e-05 0 2.0835106467447884e-05 -9.3775635672125942e-05 0 3.1252455845466441e-05 -9.3776071444186631e-05 0 2.213712942347246e-05 -6.6432529718344225e-05 0 3.1252144129901121e-05 -6.2526559858490287e-05 0 2.585757494411036e-05 -4.6901781214852157e-05 0 3.1252144129901121e-05 -6.2526559858490287e-05 0 3.1252061472249469e-05 -3.1277169957411987e-05 0 2.585757494411036e-05 -4.6901781214852157e-05 0 3.1252061472249469e-05 -3.1277169957411994e-05 0 2.585757494411036e-05 -4.6901781214852157e-05 0 2.2137057925473678e-05 -2.737093257475796e-05 0 3.125213966905977e-05 -2.7777481205881362e-08 0 2.0834830632326153e-05 -2.7777918509780734e-08 0 2.2137057925473678e-05 -2.737093257475796e-05 0 3.1252061472249469e-05 -3.1277169957411994e-05 0 3.125213966905977e-05 -2.7777481205881362e-08 0 2.2137057925473678e-05 -2.737093257475796e-05 0 1.5626133107580895e-05 -1.6210424051462441e-05 0 2.0834830632326153e-05 -2.7777918509780734e-08 0 2.2137057925473678e-05 -2.737093257475796e-05 0 2.585757494411036e-05 -4.6901781214852157e-05 0 1.5626166314313273e-05 -4.6901655460210702e-05 0 2.2137057925473678e-05 -2.737093257475796e-05 0 1.5626133107580895e-05 -1.6210424051462441e-05 0 1.5626166314313273e-05 -4.6901655460210702e-05 0 2.2137057925473678e-05 -2.737093257475796e-05 0 
</DataArray>
</PointData>
<CellData Scalars="displacement_divergence," Vectors="" Tensors="effective_stress,">
<DataArray type="Float64" Name="effective_stress" NumberOfComponents="9" format="ascii">
0.36669685431616017 -0.0015933653444335505 0 -0.0015933653444335505 -9999.6232301836953 0 0 0 -2499.8141333323447 0.36357229516579537 0.00051384857166299647 0 0.00051384857166299647 -9999.6285344802072 0 0 0 -2499.8162405462608 0.35958858942751171 0.0022722021505674483 0 0.0022722021505674483 -9999.6394451460164 0 0 0 -2499.8199641391475 0.36757259560772582 -0.0025305400463366823 0 -0.0025305400463366823 -9999.6284418222767 0 0 0 -2499.8152173066674 0.37215912948931873 -0.0040001764655244187 0 -0.0040001764655244187 -9999.630369083894 0 0 0 -2499.8145524886027 0.36943997417165519 -0.0013954798473605479 0 -0.0013954798473605479 -9999.6380687150522 0 0 0 -2499.8171571852199 0.36810229827460716 0.00097388897575001465 0 0.00097388897575001465 -9999.6218947798734 0 0 0 -2499.8134481203988 0.37460309139351011 -0.00076637415077129845 0 -0.00076637415077129845 -9999.6218948658843 0 0 0 -2499.8118229436232 0.38391090916229587 0.00093755151192453923 0 0.00093755151192453923 -9999.6252817580007 0 0 0 -2499.8103427122123 0.40696519181619806 0.0017119437386122561 0 0.0017119437386122561 -9999.6199104998013 0 0 0 -2499.8032363269958 0.38714442731784288 -0.0033144111730507575 0 -0.0033144111730507575 -9999.6201951549465 0 0 0 -2499.8082626819082 0.38993318876646299 -0.0057986857846117346 0 -0.0057986857846117346 -9999.6223959579329 0 0 0 -2499.8081156922922 0.3753885657392857 -0.0017912480307131773 0 -0.0017912480307131773 -9999.6206807751496 0 0 0 -2499.8113230523518 0.38370765983927413 -0.0021945465691715071 0 -0.0021945465691715071 -9999.6306130633893 0 0 0 -2499.8117263508866 0.36383422402923316 -0.0025569259014446288 0 -0.0025569259014446288 -9999.6453689398477 0 0 0 -2499.8203836789535 0.37359705770450091 -0.0078440532570311916 0 -0.0078440532570311916 -9999.6339832640988 0 0 0 -2499.815096551597 0.38918885179373319 0.0013141716899554012 0 0.0013141716899554012 -9999.6429006270664 0 0 0 -2499.8134279438182 0.40849033105041599 -0.0050734079711744406 0 -0.0050734079711744406 -9999.6358108155036 0 0 0 -2499.8068301211133 0.25212003052729415 0.0073594558289187262 0 0.0073594558289187262 -9999.7596673863154 0 0 0 -2499.876886838947 0.32663205866992939 -0.032308710400684504 0 -0.032308710400684504 -9999.6755067495378 0 0 0 -2499.8372186727174 0.2556107373238774 -0.033411479384085396 0 -0.033411479384085396 -9999.6989540044779 0 0 0 -2499.8608358167876 0.20016346172140762 -0.0094748076680843951 0 -0.0094748076680843951 -9999.7380471925535 0 0 0 -2499.8844709327072 0.2460983863097681 0.012352272297448508 0 0.012352272297448508 -9999.6970757315357 0 0 0 -2499.8627443363071 0.31289285869024752 0.0087834753639073702 0 0.0087834753639073702 -9999.6779966618669 0 0 0 -2499.8412759507946 0.24981221174958054 -0.01806793931109496 0 -0.01806793931109496 -9999.7223216736311 0 0 0 -2499.8681273654702 0.36461796950152348 -0.0014634019817094668 0 -0.0014634019817094668 -9999.6577694000262 0 0 0 -2499.8232878576309 0.36216791739843757 -0.014445324461468378 0 -0.014445324461468378 -9999.6503678597419 0 0 0 -2499.8220499855852 0.37528403956079093 -0.0076045022997277556 0 -0.0076045022997277556 -9999.636120693247 0 0 0 -2499.8152091634211 
</DataArray>
<DataArray type="Float64" Name="displacement_divergence" format="ascii">
-6.249535333330862e-05 -6.249540601365651e-05 -6.2495499103478697e-05 -6.2495380432666683e-05 -6.2495363812215058e-05 -6.2495428929630506e-05 -6.2495336203009989e-05 -6.2495295573590618e-05 -6.2495258567805219e-05 -6.2495080908174912e-05 -6.2495206567047718e-05 -6.2495202892307343e-05 -6.2495283076308776e-05 -6.2495293158772164e-05 -6.2495509591973861e-05 -6.2495377413789976e-05 -6.2495335698595526e-05 -6.2495170753027796e-05 -6.2496922170973717e-05 -6.2495930466817937e-05 -6.2496520895419726e-05 -6.2497111773317688e-05 -6.2496568608407638e-05 -6.2496031898769859e-05 -6.2496703184136752e-05 -6.2495582196440801e-05 -6.2495551249639635e-05 -6.2495380229085526e-05 
</DataArray>
</CellData>
</Piece>
</UnstructuredGrid>
</VTKFile>
