<?xml version="1.0"?>
<VTKFile type="UnstructuredGrid" version="0.1" byte_order="LittleEndian">
<UnstructuredGrid>
<Piece NumberOfPoints="84" NumberOfCells="28">
<Points>
<DataArray type="Float64" NumberOfComponents="3" format="ascii">
0 0 0 0.29166666666652658 0.2916666666668038 0 0 0.33333333333472032 0 0 0 0 0.33333333333250248 0 0 0.29166666666652658 0.2916666666668038 0 0.33333333333250248 0 0 0.66666666666578889 0 0 0.49999999999981742 0.1726190476194705 0 0.33333333333250248 0 0 0.49999999999981742 0.1726190476194705 0 0.29166666666652658 0.2916666666668038 0 0.50000000000004996 0.49999999999997519 0 0.17261904761971569 0.50000000000021494 0 0.29166666666652658 0.2916666666668038 0 0.50000000000004996 0.49999999999997519 0 0.29166666666652658 0.2916666666668038 0 0.49999999999981742 0.1726190476194705 0 0 0.33333333333472032 0 0.29166666666652658 0.2916666666668038 0 0.17261904761971569 0.50000000000021494 0 0 0.66666666666759111 0 0 0.33333333333472032 0 0.17261904761971569 0.50000000000021494 0 0 0.66666666666759111 0 0.17261904761971569 0.50000000000021494 0 0.29166666666684449 0.7083333333334445 0 0 1 0 0.29166666666684449 0.7083333333334445 0 0.33333333333472032 1 0 0 1 0 0 0.66666666666759111 0 0.29166666666684449 0.7083333333334445 0 0.33333333333472032 1 0 0.29166666666684449 0.7083333333334445 0 0.50000000000021227 0.82738095238030207 0 0.50000000000004996 0.49999999999997519 0 0.29166666666684449 0.7083333333334445 0 0.17261904761971569 0.50000000000021494 0 0.50000000000004996 0.49999999999997519 0 0.50000000000021227 0.82738095238030207 0 0.29166666666684449 0.7083333333334445 0 0.50000000000004996 0.49999999999997519 0 0.82738095238054699 0.49999999999982031 0 0.70833333333346027 0.70833333333323512 0 0.50000000000004996 0.49999999999997519 0 0.70833333333346027 0.70833333333323512 0 0.50000000000021227 0.82738095238030207 0 0.66666666666759111 1 0 0.50000000000021227 0.82738095238030207 0 0.70833333333346027 0.70833333333323512 0 0.66666666666759111 1 0 0.33333333333472032 1 0 0.50000000000021227 0.82738095238030207 0 1 1 0 0.70833333333346027 0.70833333333323512 0 1 0.66666666666578889 0 1 1 0 0.66666666666759111 1 0 0.70833333333346027 0.70833333333323512 0 1 0.66666666666578889 0 0.70833333333346027 0.70833333333323512 0 0.82738095238054699 0.49999999999982031 0 1 0.33333333333250248 0 1 0.66666666666578889 0 0.82738095238054699 0.49999999999982031 0 1 0.33333333333250248 0 0.82738095238054699 0.49999999999982031 0 0.70833333333327586 0.2916666666665107 0 1 0 0 0.70833333333327586 0.2916666666665107 0 0.66666666666578889 0 0 1 0 0 1 0.33333333333250248 0 0.70833333333327586 0.2916666666665107 0 0.66666666666578889 0 0 0.70833333333327586 0.2916666666665107 0 0.49999999999981742 0.1726190476194705 0 0.50000000000004996 0.49999999999997519 0 0.70833333333327586 0.2916666666665107 0 0.82738095238054699 0.49999999999982031 0 0.50000000000004996 0.49999999999997519 0 0.49999999999981742 0.1726190476194705 0 0.70833333333327586 0.2916666666665107 0 
</DataArray>
</Points>
<Cells>
<DataArray type="UInt32" Name="connectivity" format="ascii">
0 1 2 3 4 5 6 7 8 9 10 11 12 13 14 15 16 17 18 19 20 21 22 23 24 25 26 27 28 29 30 31 32 33 34 35 36 37 38 39 40 41 42 43 44 45 46 47 48 49 50 51 52 53 54 55 56 57 58 59 60 61 62 63 64 65 66 67 68 69 70 71 72 73 74 75 76 77 78 79 80 81 82 83 
</DataArray>
<DataArray type="UInt32" Name="offsets" format="ascii">
3 6 9 12 15 18 21 24 27 30 33 36 39 42 45 48 51 54 57 60 63 66 69 72 75 78 81 84 
</DataArray>
<DataArray type="UInt32" Name="types" format="ascii">
5 5 5 5 5 5 5 5 5 5 5 5 5 5 5 5 5 5 5 5 5 5 5 5 5 5 5 5 
</DataArray>
</Cells>
<PointData Scalars="" Vectors="displacement," Tensors="">
<DataArray type="Float64" Name="displacement" NumberOfComponents="3" format="ascii">
-1.0443610868502508e-13 -2.7777828822651104e-08 0 9.1152084426496492e-06 -2.7370925325741266e-05 0 -4.0678251917692666e-14 -3.1277052019017395e-05 0 -1.0443610868502508e-13 -2.7777828822651104e-08 0 1.0417377099255422e-05 -2.7777875267834196e-08 0 9.1152084426496509e-06 -2.7370925325741262e-05 0 1.0417377099255422e-05 -2.7777875267829732e-08 0 2.0834661305570814e-05 -2.7777793240498702e-08 0 1.5626044161714439e-05 -1.6210497715435315e-05 0 1.0417377099255422e-05 -2.7777875267829732e-08 0 1.5626044161714439e-05 -1.6210497715435315e-05 0 9.1152084426496509e-06 -2.7370925325741262e-05 0 1.5626093255792044e-05 -4.6901855960705252e-05 0 5.3947351643496648e-06 -4.6901701239587248e-05 0 9.1152084426496509e-06 -2.7370925325741262e-05 0 1.5626093255792044e-05 -4.6901855960705252e-05 0 9.1152084426496509e-06 -2.7370925325741256e-05 0 1.5626044161714439e-05 -1.6210497715435315e-05 0 -4.0678251917692666e-14 -3.1277052019017395e-05 0 9.1152084426496509e-06 -2.7370925325741262e-05 0 5.3947351643496648e-06 -4.6901701239587248e-05 0 -6.4057931995154728e-14 -6.2526312437527785e-05 0 -4.0678251917692666e-14 -3.1277052019017395e-05 0 5.3947351643496648e-06 -4.6901701239587248e-05 0 -6.4057931995154728e-14 -6.2526312437527785e-05 0 5.3947351643496648e-06 -4.6901701239587248e-05 0 9.1152951331020563e-06 -6.6432549767820166e-05 0 3.1390872867582787e-13 -9.3775563108135942e-05 0 9.1152951331020563e-06 -6.6432549767820166e-05 0 1.0417632348335775e-05 -9.3775727771651987e-05 0 3.1390872867582787e-13 -9.3775563108135942e-05 0 -6.4057931995154728e-14 -6.2526312437527785e-05 0 9.1152951331020563e-06 -6.6432549767820166e-05 0 1.0417632348335775e-05 -9.3775727771651987e-05 0 9.1152951331020563e-06 -6.6432549767820166e-05 0 1.5626250709753484e-05 -7.7593219195294172e-05 0 1.5626093255792044e-05 -4.6901855960705252e-05 0 9.1152951331020563e-06 -6.6432549767820166e-05 0 5.3947351643496648e-06 -4.6901701239587248e-05 0 1.5626093255792044e-05 -4.6901855960705252e-05 0 1.5626250709753484e-05 -7.7593219195294186e-05 0 9.1152951331020563e-06 -6.6432549767820166e-05 0 1.5626093255792044e-05 -4.6901855960705252e-05 0 2.5857246942562793e-05 -4.6902094344739526e-05 0 2.2136977204809181e-05 -6.6432936350565555e-05 0 1.5626093255792044e-05 -4.6901855960705252e-05 0 2.2136977204809181e-05 -6.6432936350565555e-05 0 1.5626250709753484e-05 -7.7593219195294172e-05 0 2.083514704405263e-05 -9.3776230912692929e-05 0 1.5626250709753484e-05 -7.7593219195294172e-05 0 2.2136977204809181e-05 -6.6432936350565555e-05 0 2.083514704405263e-05 -9.3776230912692929e-05 0 1.0417632348335775e-05 -9.3775727771651987e-05 0 1.5626250709753484e-05 -7.7593219195294172e-05 0 3.1252156447580841e-05 -9.3776822251991353e-05 0 2.2136977204809181e-05 -6.6432936350565555e-05 0 3.1251723712159682e-05 -6.2527068206123481e-05 0 3.1252156447580841e-05 -9.3776822251991353e-05 0 2.083514704405263e-05 -9.3776230912692929e-05 0 2.2136977204809181e-05 -6.6432936350565555e-05 0 3.1251723712159682e-05 -6.2527068206123481e-05 0 2.2136977204809181e-05 -6.6432936350565555e-05 0 2.5857246942562793e-05 -4.6902094344739526e-05 0 3.1251576754347436e-05 -3.1277380017541725e-05 0 3.1251723712159682e-05 -6.2527068206123481e-05 0 2.5857246942562793e-05 -4.6902094344739526e-05 0 3.1251576754347436e-05 -3.1277380017541725e-05 0 2.5857246942562793e-05 -4.6902094344739526e-05 0 2.2136834955380161e-05 -2.7371087544075111e-05 0 3.1251606557507559e-05 -2.7777500827149688e-08 0 2.2136834955380161e-05 -2.7371087544075111e-05 0 2.0834661305570814e-05 -2.7777793240498702e-08 0 3.1251606557507559e-05 -2.7777500827149688e-08 0 3.1251576754347436e-05 -3.1277380017541725e-05 0 2.2136834955380161e-05 -2.7371087544075111e-05 0 2.0834661305570814e-05 -2.7777793240498702e-08 0 2.2136834955380161e-05 -2.7371087544075111e-05 0 1.5626044161714439e-05 -1.6210497715435315e-05 0 1.5626093255792044e-05 -4.6901855960705252e-05 0 2.2136834955380161e-05 -2.7371087544075111e-05 0 2.5857246942562793e-05 -4.6902094344739526e-05 0 1.5626093255792044e-05 -4.6901855960705252e-05 0 1.5626044161714439e-05 -1.6210497715435315e-05 0 2.2136834955380161e-05 -2.7371087544075111e-05 0 
</DataArray>
</PointData>
<CellData Scalars="displacement_divergence," Vectors="" Tensors="stress,">
<DataArray type="Float64" Name="stress" NumberOfComponents="9" format="ascii">
0.34430504220381408 -0.0044605455095734214 0 -0.0044605455095734214 -9999.6529724733082 0 0 0 -2499.8271668577772 0.3384279075030463 0.00047358141118055162 0 0.00047358141118055162 -9999.6668318462889 0 0 0 -2499.8321009846968 0.29550043714061758 0.0057935109962374831 0 0.0057935109962374831 -9999.7063367527589 0 0 0 -2499.8527090789044 0.32240559482124809 -0.0087426193163082644 0 -0.0087426193163082644 -9999.6754149533044 0 0 0 -2499.8382523396212 0.33802444639604801 -0.014954072103380458 0 -0.014954072103380458 -9999.6733993331891 0 0 0 -2499.833843721698 0.32570427652581202 -0.0067306314804227441 0 -0.0067306314804227441 -9999.6939729258138 0 0 0 -2499.8420671623217 0.34758822460935335 -7.7259086083358852e-05 0 -7.7259086083358852e-05 -9999.6478881126277 0 0 0 -2499.8250749720046 0.35985213937965455 -0.0044082064978283597 0 -0.0044082064978283597 -9999.6433832240746 0 0 0 -2499.8208827711742 0.37292834379331907 -0.0035513116736183292 0 -0.0035513116736183292 -9999.6547486315576 0 0 0 -2499.8204550719402 0.42880036861242843 -0.00149069877625152 0 -0.00149069877625152 -9999.640351902508 0 0 0 -2499.8028878834757 0.38278119330179605 -0.011062739784392761 0 -0.011062739784392761 -9999.6326208912396 0 0 0 -2499.8124599244843 0.35708891385593233 -0.017614410984606366 0 -0.017614410984606366 -9999.6567614849464 0 0 0 -2499.8249181427723 0.34568717827278306 -0.0062095834518913762 0 -0.0062095834518913762 -9999.6504111375616 0 0 0 -2499.8261809898213 0.350870215895419 -0.01411351356364321 0 -0.01411351356364321 -9999.6872098956246 0 0 0 -2499.8340849199326 0.24456998901041516 -0.0003675346802649509 0 -0.0003675346802649509 -9999.753966424978 0 0 0 -2499.8773491089905 0.28487811263039475 -0.021634355984133435 0 -0.021634355984133435 -9999.7092072633895 0 0 0 -2499.8560822876889 0.31426289500723215 -0.0042752429562824545 0 -0.0042752429562824545 -9999.7482420897722 0 0 0 -2499.8584947986919 0.36914609733139514 -0.028170418587940501 0 -0.028170418587940501 -9999.7066696100737 0 0 0 -2499.8343808781829 0.11890392465647892 0.0037758362486783881 0 0.0037758362486783881 -9999.8816600098362 0 0 0 -2499.9406890212949 0.17570808780510561 -0.030364419149279929 0 -0.030364419149279929 -9999.8019031513977 0 0 0 -2499.9065487658991 0.12297976031004509 -0.037529563594944193 0 -0.037529563594944193 -9999.8184388273039 0 0 0 -2499.9238647667462 0.077773923813689236 -0.012435244962034631 0 -0.012435244962034631 -9999.874295706295 0 0 0 -2499.9491304456196 0.10988116583894225 0.0092263436499706586 0 0.0092263436499706586 -9999.8181215264667 0 0 0 -2499.9270600901586 0.16066270094446544 0.0076455986356580574 0 0.0076455986356580574 -9999.78545373011 0 0 0 -2499.9061977572915 0.11442800750686237 -0.016215318298236525 0 -0.016215318298236525 -9999.8346627044211 0 0 0 -2499.9300586742288 0.27355819690183125 -0.0092347828353922523 0 -0.0092347828353922523 -9999.7434092494441 0 0 0 -2499.8674627631344 0.2462164598673553 -0.030572969068998646 0 -0.030572969068998646 -9999.7490270123999 0 0 0 -2499.8757026381336 0.27926129126955063 -0.01241848834342818 0 -0.01241848834342818 -9999.7094539208974 0 0 0 -2499.8575481574062 
</DataArray>
<DataArray type="Float64" Name="displacement_divergence" format="ascii">
-6.249567917144443e-05 -6.2495802524617416e-05 -6.2496317726972613e-05 -6.2495956308490516e-05 -6.2495846093042447e-05 -6.2496051679058079e-05 -6.2495626874300113e-05 -6.2495522069279345e-05 -6.2495511376798495e-05 -6.2495072197086882e-05 -6.2495311498112166e-05 -6.2495622953569375e-05 -6.2495654524745577e-05 -6.2495852122998319e-05 -6.2496933727724743e-05 -6.2496402057192192e-05 -6.249646236996723e-05 -6.2495859521954618e-05 -6.2498517225532312e-05 -6.2497663719147467e-05 -6.2498096619168744e-05 -6.2498728261140544e-05 -6.2498176502253944e-05 -6.2497654943932294e-05 -6.2498251466855704e-05 -6.249668656907837e-05 -6.249689256595331e-05 -6.2496438703935165e-05 
</DataArray>
</CellData>
</Piece>
</UnstructuredGrid>
</VTKFile>
