<?xml version="1.0"?>
<VTKFile type="UnstructuredGrid" version="0.1" byte_order="LittleEndian">
<UnstructuredGrid>
<Piece NumberOfPoints="84" NumberOfCells="28">
<Points>
<DataArray type="Float64" NumberOfComponents="3" format="ascii">
0 0 0 0.29166666666652658 0.2916666666668038 0 0 0.33333333333472032 0 0 0 0 0.33333333333250248 0 0 0.29166666666652658 0.2916666666668038 0 0.33333333333250248 0 0 0.66666666666578889 0 0 0.49999999999981742 0.1726190476194705 0 0.33333333333250248 0 0 0.49999999999981742 0.1726190476194705 0 0.29166666666652658 0.2916666666668038 0 0.50000000000004996 0.49999999999997519 0 0.17261904761971569 0.50000000000021494 0 0.29166666666652658 0.2916666666668038 0 0.50000000000004996 0.49999999999997519 0 0.29166666666652658 0.2916666666668038 0 0.49999999999981742 0.1726190476194705 0 0 0.33333333333472032 0 0.29166666666652658 0.2916666666668038 0 0.17261904761971569 0.50000000000021494 0 0 0.66666666666759111 0 0 0.33333333333472032 0 0.17261904761971569 0.50000000000021494 0 0 0.66666666666759111 0 0.17261904761971569 0.50000000000021494 0 0.29166666666684449 0.7083333333334445 0 0 1 0 0.29166666666684449 0.7083333333334445 0 0.33333333333472032 1 0 0 1 0 0 0.66666666666759111 0 0.29166666666684449 0.7083333333334445 0 0.33333333333472032 1 0 0.29166666666684449 0.7083333333334445 0 0.50000000000021227 0.82738095238030207 0 0.50000000000004996 0.49999999999997519 0 0.29166666666684449 0.7083333333334445 0 0.17261904761971569 0.50000000000021494 0 0.50000000000004996 0.49999999999997519 0 0.50000000000021227 0.82738095238030207 0 0.29166666666684449 0.7083333333334445 0 0.50000000000004996 0.49999999999997519 0 0.82738095238054699 0.49999999999982031 0 0.70833333333346027 0.70833333333323512 0 0.50000000000004996 0.49999999999997519 0 0.70833333333346027 0.70833333333323512 0 0.50000000000021227 0.82738095238030207 0 0.66666666666759111 1 0 0.50000000000021227 0.82738095238030207 0 0.70833333333346027 0.70833333333323512 0 0.66666666666759111 1 0 0.33333333333472032 1 0 0.50000000000021227 0.82738095238030207 0 1 1 0 0.70833333333346027 0.70833333333323512 0 1 0.66666666666578889 0 1 1 0 0.66666666666759111 1 0 0.70833333333346027 0.70833333333323512 0 1 0.66666666666578889 0 0.70833333333346027 0.70833333333323512 0 0.82738095238054699 0.49999999999982031 0 1 0.33333333333250248 0 1 0.66666666666578889 0 0.82738095238054699 0.49999999999982031 0 1 0.33333333333250248 0 0.82738095238054699 0.49999999999982031 0 0.70833333333327586 0.2916666666665107 0 1 0 0 0.70833333333327586 0.2916666666665107 0 0.66666666666578889 0 0 1 0 0 1 0.33333333333250248 0 0.70833333333327586 0.2916666666665107 0 0.66666666666578889 0 0 0.70833333333327586 0.2916666666665107 0 0.49999999999981742 0.1726190476194705 0 0.50000000000004996 0.49999999999997519 0 0.70833333333327586 0.2916666666665107 0 0.82738095238054699 0.49999999999982031 0 0.50000000000004996 0.49999999999997519 0 0.49999999999981742 0.1726190476194705 0 0.70833333333327586 0.2916666666665107 0 
</DataArray>
</Points>
<Cells>
<DataArray type="UInt32" Name="connectivity" format="ascii">
0 1 2 3 4 5 6 7 8 9 10 11 12 13 14 15 16 17 18 19 20 21 22 23 24 25 26 27 28 29 30 31 32 33 34 35 36 37 38 39 40 41 42 43 44 45 46 47 48 49 50 51 52 53 54 55 56 57 58 59 60 61 62 63 64 65 66 67 68 69 70 71 72 73 74 75 76 77 78 79 80 81 82 83 
</DataArray>
<DataArray type="UInt32" Name="offsets" format="ascii">
3 6 9 12 15 18 21 24 27 30 33 36 39 42 45 48 51 54 57 60 63 66 69 72 75 78 81 84 
</DataArray>
<DataArray type="UInt32" Name="types" format="ascii">
5 5 5 5 5 5 5 5 5 5 5 5 5 5 5 5 5 5 5 5 5 5 5 5 5 5 5 5 
</DataArray>
</Cells>
<PointData Scalars="" Vectors="displacement," Tensors="">
<DataArray type="Float64" Name="displacement" NumberOfComponents="3" format="ascii">
-3.878244699210185e-14 -2.7777786385335084e-08 0 9.1152526105635128e-06 -2.7370834757890538e-05 0 -1.1990715117320443e-14 -3.1276979758381369e-05 0 -3.878244699210185e-14 -2.7777786385335084e-08 0 1.0417425340464649e-05 -2.7777756212546577e-08 0 9.1152526105635145e-06 -2.7370834757890534e-05 0 1.0417425340464649e-05 -2.7777756212542113e-08 0 2.083484197363711e-05 -2.77779185765807e-08 0 1.562614561046585e-05 -1.621041074478117e-05 0 1.0417425340464649e-05 -2.7777756212542113e-08 0 1.562614561046585e-05 -1.621041074478117e-05 0 9.1152526105635145e-06 -2.7370834757890534e-05 0 1.5626176797936479e-05 -4.6901622249794243e-05 0 5.3947508334121385e-06 -4.6901584533189752e-05 0 9.1152526105635145e-06 -2.7370834757890534e-05 0 1.5626176797936479e-05 -4.6901622249794243e-05 0 9.1152526105635145e-06 -2.7370834757890528e-05 0 1.562614561046585e-05 -1.621041074478117e-05 0 -1.1990715117320443e-14 -3.1276979758381369e-05 0 9.1152526105635145e-06 -2.7370834757890534e-05 0 5.3947508334121385e-06 -4.6901584533189752e-05 0 -4.1029435556509796e-15 -6.2526187958507622e-05 0 -1.1990715117320443e-14 -3.1276979758381369e-05 0 5.3947508334121385e-06 -4.6901584533189752e-05 0 -4.1029435556509796e-15 -6.2526187958507622e-05 0 5.3947508334121385e-06 -4.6901584533189752e-05 0 9.1152894918638608e-06 -6.6432352681440113e-05 0 7.0969796363157556e-14 -9.377540328414294e-05 0 9.1152894918638608e-06 -6.6432352681440113e-05 0 1.0417506414646473e-05 -9.3775428301828698e-05 0 7.0969796363157556e-14 -9.377540328414294e-05 0 -4.1029435556509796e-15 -6.2526187958507622e-05 0 9.1152894918638608e-06 -6.6432352681440113e-05 0 1.0417506414646473e-05 -9.3775428301828698e-05 0 9.1152894918638608e-06 -6.6432352681440113e-05 0 1.5626228050884328e-05 -7.7592825158128185e-05 0 1.5626176797936479e-05 -4.6901622249794243e-05 0 9.1152894918638608e-06 -6.6432352681440113e-05 0 5.3947508334121385e-06 -4.6901584533189752e-05 0 1.5626176797936479e-05 -4.6901622249794243e-05 0 1.5626228050884328e-05 -7.7592825158128199e-05 0 9.1152894918638608e-06 -6.6432352681440113e-05 0 1.5626176797936479e-05 -4.6901622249794243e-05 0 2.5857602958464604e-05 -4.6901704275775106e-05 0 2.2137121208604397e-05 -6.6432442294657147e-05 0 1.5626176797936479e-05 -4.6901622249794243e-05 0 2.2137121208604397e-05 -6.6432442294657147e-05 0 1.5626228050884328e-05 -7.7592825158128185e-05 0 2.0835029006652409e-05 -9.3775514365519405e-05 0 1.5626228050884328e-05 -7.7592825158128185e-05 0 2.2137121208604397e-05 -6.6432442294657147e-05 0 2.0835029006652409e-05 -9.3775514365519405e-05 0 1.0417506414646473e-05 -9.3775428301828698e-05 0 1.5626228050884328e-05 -7.7592825158128185e-05 0 3.1252459775318768e-05 -9.3775841903600453e-05 0 2.2137121208604397e-05 -6.6432442294657147e-05 0 3.1252235990587028e-05 -6.2526395921504665e-05 0 3.1252459775318768e-05 -9.3775841903600453e-05 0 2.0835029006652409e-05 -9.3775514365519405e-05 0 2.2137121208604397e-05 -6.6432442294657147e-05 0 3.1252235990587028e-05 -6.2526395921504665e-05 0 2.2137121208604397e-05 -6.6432442294657147e-05 0 2.5857602958464604e-05 -4.6901704275775106e-05 0 3.125218006396884e-05 -3.1277132430872758e-05 0 3.1252235990587028e-05 -6.2526395921504665e-05 0 2.5857602958464604e-05 -4.6901704275775106e-05 0 3.125218006396884e-05 -3.1277132430872758e-05 0 2.5857602958464604e-05 -4.6901704275775106e-05 0 2.2137075422846342e-05 -2.7370896306927692e-05 0 3.1252244259995976e-05 -2.7777530703153914e-08 0 2.2137075422846342e-05 -2.7370896306927692e-05 0 2.083484197363711e-05 -2.77779185765807e-08 0 3.1252244259995976e-05 -2.7777530703153914e-08 0 3.125218006396884e-05 -3.1277132430872758e-05 0 2.2137075422846342e-05 -2.7370896306927692e-05 0 2.083484197363711e-05 -2.77779185765807e-08 0 2.2137075422846342e-05 -2.7370896306927692e-05 0 1.562614561046585e-05 -1.621041074478117e-05 0 1.5626176797936479e-05 -4.6901622249794243e-05 0 2.2137075422846342e-05 -2.7370896306927692e-05 0 2.5857602958464604e-05 -4.6901704275775106e-05 0 1.5626176797936479e-05 -4.6901622249794243e-05 0 1.562614561046585e-05 -1.621041074478117e-05 0 2.2137075422846342e-05 -2.7370896306927692e-05 0 
</DataArray>
</PointData>
<CellData Scalars="displacement_divergence," Vectors="" Tensors="stress,">
<DataArray type="Float64" Name="stress" NumberOfComponents="9" format="ascii">
0.37112946376555556 -0.00071625145073994645 0 -0.00071625145073994645 -9999.6209211758687 0 0 0 -2499.8124479280259 0.36817682718992728 0.00075001887068689333 0 0.00075001887068689333 -9999.6238336205734 0 0 0 -2499.8139141983456 0.3633280332483082 0.0027504062292766918 0 0.0027504062292766918 -9999.6299837472216 0 0 0 -2499.8166639284932 0.37068895636548405 -0.00067386709724814864 0 -0.00067386709724814864 -9999.6235882758629 0 0 0 -2499.8132248298748 0.37609065945071052 -0.001391252195645864 0 -0.001391252195645864 -9999.6255435464955 0 0 0 -2499.8123632217612 0.37287641011266714 0.00063598291148991848 0 0.00063598291148991848 -9999.6304382375929 0 0 0 -2499.8143904568697 0.37183601541801181 0.0012456770220978797 0 0.0012456770220978797 -9999.621067077027 0 0 0 -2499.8123077654018 0.3769802345395874 -0.00015542866822215728 0 -0.00015542866822215728 -9999.6209639760964 0 0 0 -2499.8109959353887 0.38289255916060938 0.00092193354794289917 0 0.00092193354794289917 -9999.6231367011678 0 0 0 -2499.8100610355004 0.39519892789212463 0.00092424899958132301 0 0.00092424899958132301 -9999.6204931043212 0 0 0 -2499.8063235441077 0.38469253367593181 -0.0017474200903961901 0 -0.0017474200903961901 -9999.620673386471 0 0 0 -2499.8089952132 0.38661732058517373 -0.0026306999461667147 0 -0.0026306999461667147 -9999.6218333563484 0 0 0 -2499.8088040089397 0.37782966220311209 -0.00074411216155567672 0 -0.00074411216155567672 -9999.6203265382464 0 0 0 -2499.8106242190106 0.38290129882562662 -0.0004684832183556864 0 -0.0004684832183556864 -9999.6242956590813 0 0 0 -2499.8103485900651 0.37532613450821373 -0.0029461255594587007 0 -0.0029461255594587007 -9999.6280287011541 0 0 0 -2499.8131756416587 0.37822047561712679 -0.0042129027497139759 0 -0.0042129027497139759 -9999.6258559334965 0 0 0 -2499.8119088644698 0.38792376076798973 0.0014674364720121957 0 0.0014674364720121957 -9999.627121564663 0 0 0 -2499.8097994509744 0.39839867015325581 -0.0011375248366291475 0 -0.0011375248366291475 -9999.6264923291237 0 0 0 -2499.8070234147417 0.29664424764177966 0.008425641322901356 0 0.008425641322901356 -9999.7238328284402 0 0 0 -2499.8567971451994 0.36243493191250309 -0.027421948924982197 0 -0.027421948924982197 -9999.6462331517068 0 0 0 -2499.820949554949 0.30591956446369295 -0.020706895255671043 0 -0.020706895255671043 -9999.6589280826884 0 0 0 -2499.8382521295534 0.26900826230568425 -0.0071691921784804435 0 -0.0071691921784804435 -9999.6746475828459 0 0 0 -2499.8514098301357 0.29884192424788125 0.0048975576301018009 0 0.0048975576301018009 -9999.6571063064621 0 0 0 -2499.8395660955534 0.35143745418589045 0.008023238592681281 0 0.008023238592681281 -9999.6518825156199 0 0 0 -2499.8251112653584 0.29519439849767387 -0.016859383012160833 0 -0.016859383012160833 -9999.6951699463661 0 0 0 -2499.8499938869668 0.37090479337354054 0.0010122848680111929 0 0.0010122848680111929 -9999.6430598374573 0 0 0 -2499.8180387610209 0.373349550979583 -0.008307180507472367 0 -0.008307180507472367 -9999.63395845173 0 0 0 -2499.8151522251887 0.38101568258419555 -0.0048323213668481912 0 -0.0048323213668481912 -9999.6277251467673 0 0 0 -2499.8116773660445 
</DataArray>
<DataArray type="Float64" Name="displacement_divergence" format="ascii">
-6.2495311198200649e-05 -6.2495347854958641e-05 -6.2495416598212338e-05 -6.2495330620746876e-05 -6.2495309080544013e-05 -6.2495359761421775e-05 -6.2495307694135068e-05 -6.2495274898384726e-05 -6.2495251525887524e-05 -6.2495158088602732e-05 -6.2495224880329965e-05 -6.2495220100223505e-05 -6.2495265605475253e-05 -6.2495258714751652e-05 -6.2495329391041546e-05 -6.2495297721611718e-05 -6.2495244986274245e-05 -6.2495175585368541e-05 -6.2496419928630029e-05 -6.2495523738873726e-05 -6.2495956303238885e-05 -6.2496285245753334e-05 -6.2495989152388799e-05 -6.2495627781633959e-05 -6.2496249847174151e-05 -6.24954509690255e-05 -6.249537880562969e-05 -6.2495291934151106e-05 
</DataArray>
</CellData>
</Piece>
</UnstructuredGrid>
</VTKFile>
