<?xml version="1.0"?>
<VTKFile type="UnstructuredGrid" version="0.1" byte_order="LittleEndian">
<UnstructuredGrid>
<Piece NumberOfPoints="84" NumberOfCells="28">
<Points>
<DataArray type="Float64" NumberOfComponents="3" format="ascii">
0 0 0 0.29166666666652658 0.2916666666668038 0 0 0.33333333333472032 0 0 0 0 0.33333333333250248 0 0 0.29166666666652658 0.2916666666668038 0 0.49999999999981742 0.1726190476194705 0 0.33333333333250248 0 0 0.66666666666578889 0 0 0.49999999999981742 0.1726190476194705 0 0.33333333333250248 0 0 0.29166666666652658 0.2916666666668038 0 0.29166666666652658 0.2916666666668038 0 0.17261904761971569 0.50000000000021494 0 0.50000000000004996 0.49999999999997519 0 0.49999999999981742 0.1726190476194705 0 0.29166666666652658 0.2916666666668038 0 0.50000000000004996 0.49999999999997519 0 0.29166666666652658 0.2916666666668038 0 0 0.33333333333472032 0 0.17261904761971569 0.50000000000021494 0 0 0.33333333333472032 0 0.17261904761971569 0.50000000000021494 0 0 0.66666666666759111 0 0.17261904761971569 0.50000000000021494 0 0 0.66666666666759111 0 0.29166666666684449 0.7083333333334445 0 0 1 0 0.33333333333472032 1 0 0.29166666666684449 0.7083333333334445 0 0 0.66666666666759111 0 0 1 0 0.29166666666684449 0.7083333333334445 0 0.33333333333472032 1 0 0.29166666666684449 0.7083333333334445 0 0.50000000000021227 0.82738095238030207 0 0.17261904761971569 0.50000000000021494 0 0.29166666666684449 0.7083333333334445 0 0.50000000000004996 0.49999999999997519 0 0.29166666666684449 0.7083333333334445 0 0.50000000000021227 0.82738095238030207 0 0.50000000000004996 0.49999999999997519 0 0.70833333333346027 0.70833333333323512 0 0.82738095238054699 0.49999999999982031 0 0.50000000000004996 0.49999999999997519 0 0.70833333333346027 0.70833333333323512 0 0.50000000000021227 0.82738095238030207 0 0.50000000000004996 0.49999999999997519 0 0.70833333333346027 0.70833333333323512 0 0.66666666666759111 1 0 0.50000000000021227 0.82738095238030207 0 0.33333333333472032 1 0 0.66666666666759111 1 0 0.50000000000021227 0.82738095238030207 0 0.70833333333346027 0.70833333333323512 0 1 1 0 1 0.66666666666578889 0 0.70833333333346027 0.70833333333323512 0 0.66666666666759111 1 0 1 1 0 0.70833333333346027 0.70833333333323512 0 1 0.66666666666578889 0 0.82738095238054699 0.49999999999982031 0 1 0.66666666666578889 0 1 0.33333333333250248 0 0.82738095238054699 0.49999999999982031 0 1 0.33333333333250248 0 0.82738095238054699 0.49999999999982031 0 0.70833333333327586 0.2916666666665107 0 1 0 0 0.66666666666578889 0 0 0.70833333333327586 0.2916666666665107 0 1 0.33333333333250248 0 1 0 0 0.70833333333327586 0.2916666666665107 0 0.49999999999981742 0.1726190476194705 0 0.66666666666578889 0 0 0.70833333333327586 0.2916666666665107 0 0.82738095238054699 0.49999999999982031 0 0.50000000000004996 0.49999999999997519 0 0.70833333333327586 0.2916666666665107 0 0.49999999999981742 0.1726190476194705 0 0.50000000000004996 0.49999999999997519 0 0.70833333333327586 0.2916666666665107 0 
</DataArray>
</Points>
<Cells>
<DataArray type="UInt32" Name="connectivity" format="ascii">
0 1 2 3 4 5 6 7 8 9 10 11 12 13 14 15 16 17 18 19 20 21 22 23 24 25 26 27 28 29 30 31 32 33 34 35 36 37 38 39 40 41 42 43 44 45 46 47 48 49 50 51 52 53 54 55 56 57 58 59 60 61 62 63 64 65 66 67 68 69 70 71 72 73 74 75 76 77 78 79 80 81 82 83 
</DataArray>
<DataArray type="UInt32" Name="offsets" format="ascii">
3 6 9 12 15 18 21 24 27 30 33 36 39 42 45 48 51 54 57 60 63 66 69 72 75 78 81 84 
</DataArray>
<DataArray type="UInt32" Name="types" format="ascii">
5 5 5 5 5 5 5 5 5 5 5 5 5 5 5 5 5 5 5 5 5 5 5 5 5 5 5 5 
</DataArray>
</Cells>
<PointData Scalars="" Vectors="displacement," Tensors="">
<DataArray type="Float64" Name="displacement" NumberOfComponents="3" format="ascii">
-4.6148948090321046e-19 -2.7777777777925991e-08 0 9.1152737797712841e-06 -2.7370837331333278e-05 0 1.0829796444855504e-18 -3.1276988696306666e-05 0 -4.6148948090321046e-19 -2.7777777777925991e-08 0 1.0417455748267147e-05 -2.7777777777347541e-08 0 9.1152737797712858e-06 -2.7370837331333275e-05 0 1.5626183622436025e-05 -1.6210404860536235e-05 0 1.0417455748267147e-05 -2.7777777777343077e-08 0 2.0834911496564957e-05 -2.7777777779448053e-08 0 1.5626183622436025e-05 -1.6210404860536235e-05 0 1.0417455748267147e-05 -2.7777777777343435e-08 0 9.1152737797712858e-06 -2.7370837331333275e-05 0 9.1152737797712858e-06 -2.7370837331333275e-05 0 5.3947538696641609e-06 -4.6901594155356768e-05 0 1.5626183622464838e-05 -4.6901594155320508e-05 0 1.5626183622436025e-05 -1.6210404860536235e-05 0 9.1152737797712858e-06 -2.7370837331333275e-05 0 1.5626183622464838e-05 -4.6901594155320508e-05 0 9.1152737797712858e-06 -2.7370837331333275e-05 0 1.0832719996605229e-18 -3.1276988696306666e-05 0 5.3947538696641609e-06 -4.6901594155356768e-05 0 1.0829796444855504e-18 -3.1276988696306666e-05 0 5.3947538696641609e-06 -4.6901594155356768e-05 0 -1.782049286074424e-18 -6.2526199614575646e-05 0 5.3947538696641609e-06 -4.6901594155356768e-05 0 -1.782049286074424e-18 -6.2526199614575646e-05 0 9.1152737797848129e-06 -6.6432350979367359e-05 0 2.8397433781398781e-18 -9.3775410532882838e-05 0 1.0417455748317823e-05 -9.3775410532885182e-05 0 9.1152737797848129e-06 -6.6432350979367359e-05 0 -1.782049286074424e-18 -6.2526199614575646e-05 0 2.8397433781398781e-18 -9.3775410532882838e-05 0 9.1152737797848129e-06 -6.6432350979367359e-05 0 1.0417455748317823e-05 -9.3775410532885169e-05 0 9.1152737797848129e-06 -6.6432350979367359e-05 0 1.562618362245715e-05 -7.75927834500691e-05 0 5.3947538696641609e-06 -4.6901594155356768e-05 0 9.1152737797848129e-06 -6.6432350979367359e-05 0 1.5626183622464838e-05 -4.6901594155320508e-05 0 9.1152737797848129e-06 -6.6432350979367359e-05 0 1.562618362245715e-05 -7.75927834500691e-05 0 1.5626183622464838e-05 -4.6901594155320508e-05 0 2.2137093465121061e-05 -6.6432350979278237e-05 0 2.585761337520847e-05 -4.6901594155316646e-05 0 1.5626183622464838e-05 -4.6901594155320508e-05 0 2.2137093465121061e-05 -6.6432350979278237e-05 0 1.562618362245715e-05 -7.75927834500691e-05 0 1.5626183622464838e-05 -4.6901594155320508e-05 0 2.2137093465121061e-05 -6.6432350979278237e-05 0 2.0834911496649023e-05 -9.377541053283085e-05 0 1.562618362245715e-05 -7.75927834500691e-05 0 1.0417455748317823e-05 -9.3775410532885169e-05 0 2.0834911496649023e-05 -9.377541053283085e-05 0 1.562618362245715e-05 -7.75927834500691e-05 0 2.2137093465121061e-05 -6.6432350979278237e-05 0 3.1252367244929662e-05 -9.3775410532917708e-05 0 3.1252367244880629e-05 -6.252619961448952e-05 0 2.2137093465121061e-05 -6.6432350979278237e-05 0 2.0834911496649023e-05 -9.377541053283085e-05 0 3.1252367244929662e-05 -9.3775410532917722e-05 0 2.2137093465121061e-05 -6.6432350979278237e-05 0 3.1252367244880629e-05 -6.252619961448952e-05 0 2.585761337520847e-05 -4.6901594155316646e-05 0 3.1252367244880629e-05 -6.252619961448952e-05 0 3.1252367244875804e-05 -3.1276988696067322e-05 0 2.585761337520847e-05 -4.6901594155316646e-05 0 3.1252367244875804e-05 -3.1276988696067328e-05 0 2.585761337520847e-05 -4.6901594155316646e-05 0 2.213709346511525e-05 -2.7370837331340089e-05 0 3.1252367244891119e-05 -2.7777777773662676e-08 0 2.0834911496564957e-05 -2.7777777779448053e-08 0 2.213709346511525e-05 -2.7370837331340089e-05 0 3.1252367244875804e-05 -3.1276988696067328e-05 0 3.1252367244891119e-05 -2.7777777773662676e-08 0 2.213709346511525e-05 -2.7370837331340089e-05 0 1.5626183622436025e-05 -1.6210404860536235e-05 0 2.0834911496564957e-05 -2.7777777779448053e-08 0 2.213709346511525e-05 -2.7370837331340089e-05 0 2.585761337520847e-05 -4.6901594155316646e-05 0 1.5626183622464838e-05 -4.6901594155320508e-05 0 2.213709346511525e-05 -2.7370837331340089e-05 0 1.5626183622436025e-05 -1.6210404860536235e-05 0 1.5626183622464838e-05 -4.6901594155320508e-05 0 2.213709346511525e-05 -2.7370837331340089e-05 0 
</DataArray>
</PointData>
<CellData Scalars="displacement_divergence," Vectors="" Tensors="effective_stress,">
<DataArray type="Float64" Name="effective_stress" NumberOfComponents="9" format="ascii">
0.37875918520285268 7.9171513789333403e-09 0 7.9171513789333403e-09 -9999.6212408258561 0 0 0 -2499.8106204101632 0.37875918550480492 2.7088176886044243e-09 0 2.7088176886044243e-09 -9999.6212408053198 0 0 0 -2499.8106204049541 0.37875918545171094 -4.8935300256403025e-10 0 -4.8935300256403025e-10 -9999.6212408109459 0 0 0 -2499.8106204063733 0.37875917919700441 2.4601831682957709e-10 0 2.4601831682957709e-10 -9999.621240808252 0 0 0 -2499.8106204072637 0.37875918714462387 -1.3906173990108073e-09 0 -1.3906173990108073e-09 -9999.6212408313422 0 0 0 -2499.8106204110504 0.37875917594374187 -1.6066223906818777e-09 0 -1.6066223906818777e-09 -9999.6212408192841 0 0 0 -2499.8106204108353 0.37875918456120417 3.6657183954957873e-09 0 3.6657183954957873e-09 -9999.6212408227184 0 0 0 -2499.8106204095402 0.37875918236568396 -1.2250893632881343e-09 0 -1.2250893632881343e-09 -9999.6212407991625 0 0 0 -2499.8106204041997 0.37875918727331737 -5.0958988140337169e-09 0 -5.0958988140337169e-09 -9999.6212408214378 0 0 0 -2499.8106204085425 0.37875917967176065 -5.5909345127066134e-09 0 -5.5909345127066134e-09 -9999.6212408017636 0 0 0 -2499.8106204055221 0.37875918812701342 -8.871211321093142e-09 0 -8.871211321093142e-09 -9999.6212408233205 0 0 0 -2499.8106204087994 0.37875918884583371 5.6097633205354214e-09 0 5.6097633205354214e-09 -9999.6212408031679 0 0 0 -2499.8106204035803 0.37875918442887269 5.4506017477251589e-09 0 5.4506017477251589e-09 -9999.6212408394895 0 0 0 -2499.8106204137653 0.37875917941801163 1.1086285667261109e-08 0 1.1086285667261109e-08 -9999.6212408119318 0 0 0 -2499.8106204081278 0.3787591746158796 -3.2750904210843146e-09 0 -3.2750904210843146e-09 -9999.621240808201 0 0 0 -2499.810620408397 0.37875917137262149 -8.631104719825089e-10 0 -8.631104719825089e-10 -9999.621240814613 0 0 0 -2499.8106204108099 0.37875918527515751 7.2232069214805961e-09 0 7.2232069214805961e-09 -9999.6212408048523 0 0 0 -2499.8106204048954 0.37875919989164686 5.7727832044967004e-09 0 5.7727832044967004e-09 -9999.6212408121573 0 0 0 -2499.8106204030701 0.37875918943791476 -4.7602952690795064e-09 0 -4.7602952690795064e-09 -9999.6212408075407 0 0 0 -2499.8106204045253 0.37875918970462408 -4.7039065975695848e-09 0 -4.7039065975695848e-09 -9999.6212408080337 0 0 0 -2499.8106204045844 0.37875918316967727 -1.0488065527169965e-08 0 -1.0488065527169965e-08 -9999.6212408204738 0 0 0 -2499.8106204093256 0.37875917800245945 -5.2186805987730622e-09 0 -5.2186805987730622e-09 -9999.6212408371739 0 0 0 -2499.8106204147912 0.37875918222198379 4.6611603465862572e-10 0 4.6611603465862572e-10 -9999.6212408175888 0 0 0 -2499.8106204088417 0.37875918283634746 -1.0458613605142671e-09 0 -1.0458613605142671e-09 -9999.621240818271 0 0 0 -2499.810620408859 0.37875918266125291 -1.0231815394945443e-09 0 -1.0231815394945443e-09 -9999.6212408180108 0 0 0 -2499.8106204088367 0.37875917937026315 -3.8689904613420367e-09 0 -3.8689904613420367e-09 -9999.6212408182801 0 0 0 -2499.8106204097276 0.3787591713380607 6.7994635155712655e-10 0 6.7994635155712655e-10 -9999.6212408180418 0 0 0 -2499.8106204116757 0.3787591722446666 2.8830982046201825e-10 0 2.8830982046201825e-10 -9999.621240820512 0 0 0 -2499.8106204120659 
</DataArray>
<DataArray type="Float64" Name="displacement_divergence" format="ascii">
-6.2495265510254086e-05 -6.2495265510123846e-05 -6.249526551015934e-05 -6.249526551018158e-05 -6.2495265510276258e-05 -6.2495265510270878e-05 -6.2495265510238501e-05 -6.2495265510105008e-05 -6.2495265510213537e-05 -6.2495265510137995e-05 -6.2495265510219974e-05 -6.2495265510089545e-05 -6.2495265510344156e-05 -6.2495265510203237e-05 -6.2495265510209959e-05 -6.2495265510270268e-05 -6.249526551012241e-05 -6.2495265510076629e-05 -6.2495265510113194e-05 -6.2495265510114603e-05 -6.2495265510233134e-05 -6.249526551036977e-05 -6.2495265510221059e-05 -6.2495265510221479e-05 -6.249526551022091e-05 -6.249526551024319e-05 -6.2495265510291898e-05 -6.2495265510301669e-05 
</DataArray>
</CellData>
</Piece>
</UnstructuredGrid>
</VTKFile>
