<?xml version="1.0"?>
<VTKFile type="UnstructuredGrid" version="0.1" byte_order="LittleEndian">
<UnstructuredGrid>
<Piece NumberOfPoints="84" NumberOfCells="28">
<Points>
<DataArray type="Float64" NumberOfComponents="3" format="ascii">
0 0 0 0.29166666666652658 0.2916666666668038 0 0 0.33333333333472032 0 0 0 0 0.33333333333250248 0 0 0.29166666666652658 0.2916666666668038 0 0.49999999999981742 0.1726190476194705 0 0.33333333333250248 0 0 0.66666666666578889 0 0 0.49999999999981742 0.1726190476194705 0 0.33333333333250248 0 0 0.29166666666652658 0.2916666666668038 0 0.29166666666652658 0.2916666666668038 0 0.17261904761971569 0.50000000000021494 0 0.50000000000004996 0.49999999999997519 0 0.49999999999981742 0.1726190476194705 0 0.29166666666652658 0.2916666666668038 0 0.50000000000004996 0.49999999999997519 0 0.29166666666652658 0.2916666666668038 0 0 0.33333333333472032 0 0.17261904761971569 0.50000000000021494 0 0 0.33333333333472032 0 0.17261904761971569 0.50000000000021494 0 0 0.66666666666759111 0 0.17261904761971569 0.50000000000021494 0 0 0.66666666666759111 0 0.29166666666684449 0.7083333333334445 0 0 1 0 0.33333333333472032 1 0 0.29166666666684449 0.7083333333334445 0 0 0.66666666666759111 0 0 1 0 0.29166666666684449 0.7083333333334445 0 0.33333333333472032 1 0 0.29166666666684449 0.7083333333334445 0 0.50000000000021227 0.82738095238030207 0 0.17261904761971569 0.50000000000021494 0 0.29166666666684449 0.7083333333334445 0 0.50000000000004996 0.49999999999997519 0 0.29166666666684449 0.7083333333334445 0 0.50000000000021227 0.82738095238030207 0 0.50000000000004996 0.49999999999997519 0 0.70833333333346027 0.70833333333323512 0 0.82738095238054699 0.49999999999982031 0 0.50000000000004996 0.49999999999997519 0 0.70833333333346027 0.70833333333323512 0 0.50000000000021227 0.82738095238030207 0 0.50000000000004996 0.49999999999997519 0 0.70833333333346027 0.70833333333323512 0 0.66666666666759111 1 0 0.50000000000021227 0.82738095238030207 0 0.33333333333472032 1 0 0.66666666666759111 1 0 0.50000000000021227 0.82738095238030207 0 0.70833333333346027 0.70833333333323512 0 1 1 0 1 0.66666666666578889 0 0.70833333333346027 0.70833333333323512 0 0.66666666666759111 1 0 1 1 0 0.70833333333346027 0.70833333333323512 0 1 0.66666666666578889 0 0.82738095238054699 0.49999999999982031 0 1 0.66666666666578889 0 1 0.33333333333250248 0 0.82738095238054699 0.49999999999982031 0 1 0.33333333333250248 0 0.82738095238054699 0.49999999999982031 0 0.70833333333327586 0.2916666666665107 0 1 0 0 0.66666666666578889 0 0 0.70833333333327586 0.2916666666665107 0 1 0.33333333333250248 0 1 0 0 0.70833333333327586 0.2916666666665107 0 0.49999999999981742 0.1726190476194705 0 0.66666666666578889 0 0 0.70833333333327586 0.2916666666665107 0 0.82738095238054699 0.49999999999982031 0 0.50000000000004996 0.49999999999997519 0 0.70833333333327586 0.2916666666665107 0 0.49999999999981742 0.1726190476194705 0 0.50000000000004996 0.49999999999997519 0 0.70833333333327586 0.2916666666665107 0 
</DataArray>
</Points>
<Cells>
<DataArray type="UInt32" Name="connectivity" format="ascii">
0 1 2 3 4 5 6 7 8 9 10 11 12 13 14 15 16 17 18 19 20 21 22 23 24 25 26 27 28 29 30 31 32 33 34 35 36 37 38 39 40 41 42 43 44 45 46 47 48 49 50 51 52 53 54 55 56 57 58 59 60 61 62 63 64 65 66 67 68 69 70 71 72 73 74 75 76 77 78 79 80 81 82 83 
</DataArray>
<DataArray type="UInt32" Name="offsets" format="ascii">
3 6 9 12 15 18 21 24 27 30 33 36 39 42 45 48 51 54 57 60 63 66 69 72 75 78 81 84 
</DataArray>
<DataArray type="UInt32" Name="types" format="ascii">
5 5 5 5 5 5 5 5 5 5 5 5 5 5 5 5 5 5 5 5 5 5 5 5 5 5 5 5 
</DataArray>
</Cells>
<PointData Scalars="" Vectors="displacement," Tensors="">
<DataArray type="Float64" Name="displacement" NumberOfComponents="3" format="ascii">
-3.4871974150254834e-14 -2.7777815046096985e-08 0 9.1147853042973658e-06 -2.7371350567936991e-05 0 -1.7035239649571449e-14 -3.1277559846583737e-05 0 -3.4871974150254834e-14 -2.7777815046096985e-08 0 1.0416893037287025e-05 -2.7777813133989464e-08 0 9.1147853042973674e-06 -2.7371350567936987e-05 0 1.5625317791982488e-05 -1.6210723933312713e-05 0 1.0416893037287025e-05 -2.7777813133985001e-08 0 2.0833719559422082e-05 -2.7777758228354088e-08 0 1.5625317791982488e-05 -1.6210723933312713e-05 0 1.0416893037287025e-05 -2.7777813133985358e-08 0 9.1147853042973674e-06 -2.7371350567936987e-05 0 9.1147853042973674e-06 -2.7371350567936987e-05 0 5.3944737911254211e-06 -4.6902455692342434e-05 0 1.5625335985610516e-05 -4.6902516338294833e-05 0 1.5625317791982488e-05 -1.6210723933312713e-05 0 9.1147853042973674e-06 -2.7371350567936987e-05 0 1.5625335985610516e-05 -4.6902516338294833e-05 0 9.1147853042973674e-06 -2.7371350567936987e-05 0 -1.7035239357230191e-14 -3.1277559846583737e-05 0 5.3944737911254211e-06 -4.6902455692342434e-05 0 -1.7035239649571449e-14 -3.1277559846583737e-05 0 5.3944737911254211e-06 -4.6902455692342434e-05 0 -3.0446849825625665e-14 -6.2527332178134398e-05 0 5.3944737911254211e-06 -4.6902455692342434e-05 0 -3.0446849825625665e-14 -6.2527332178134398e-05 0 9.1148144999824775e-06 -6.6433590172311363e-05 0 1.2983611119347739e-13 -9.3777096089021011e-05 0 1.0416989008374012e-05 -9.3777176212654487e-05 0 9.1148144999824775e-06 -6.6433590172311363e-05 0 -3.0446849825625665e-14 -6.2527332178134398e-05 0 1.2983611119347739e-13 -9.3777096089021011e-05 0 9.1148144999824775e-06 -6.6433590172311363e-05 0 1.0416989008374012e-05 -9.3777176212654474e-05 0 9.1148144999824775e-06 -6.6433590172311363e-05 0 1.5625391225389823e-05 -7.759431389853606e-05 0 5.3944737911254211e-06 -4.6902455692342434e-05 0 9.1148144999824775e-06 -6.6433590172311363e-05 0 1.5625335985610516e-05 -4.6902516338294833e-05 0 9.1148144999824775e-06 -6.6433590172311363e-05 0 1.5625391225389823e-05 -7.759431389853606e-05 0 1.5625335985610516e-05 -4.6902516338294833e-05 0 2.2135876044679223e-05 -6.6433739367513874e-05 0 2.5856104122634093e-05 -4.6902602791806764e-05 0 1.5625335985610516e-05 -4.6902516338294833e-05 0 2.2135876044679223e-05 -6.6433739367513874e-05 0 1.5625391225389823e-05 -7.759431389853606e-05 0 1.5625335985610516e-05 -4.6902516338294833e-05 0 2.2135876044679223e-05 -6.6433739367513874e-05 0 2.0833891808524139e-05 -9.3777373889086758e-05 0 1.5625391225389823e-05 -7.759431389853606e-05 0 1.0416989008374012e-05 -9.3777176212654474e-05 0 2.0833891808524139e-05 -9.3777373889086758e-05 0 1.5625391225389823e-05 -7.759431389853606e-05 0 2.2135876044679223e-05 -6.6433739367513874e-05 0 3.1250629289877871e-05 -9.377756111816084e-05 0 3.125048739878389e-05 -6.2527613090862305e-05 0 2.2135876044679223e-05 -6.6433739367513874e-05 0 2.0833891808524139e-05 -9.3777373889086758e-05 0 3.1250629289877871e-05 -9.3777561118160854e-05 0 2.2135876044679223e-05 -6.6433739367513874e-05 0 3.125048739878389e-05 -6.2527613090862305e-05 0 2.5856104122634093e-05 -4.6902602791806764e-05 0 3.125048739878389e-05 -6.2527613090862305e-05 0 3.1250434903728875e-05 -3.1277679860589618e-05 0 2.5856104122634093e-05 -4.6902602791806764e-05 0 3.1250434903728875e-05 -3.1277679860589624e-05 0 2.5856104122634093e-05 -4.6902602791806764e-05 0 2.2135823089431923e-05 -2.7371409327617333e-05 0 3.125043536103825e-05 -2.7777708895905503e-08 0 2.0833719559422082e-05 -2.7777758228354088e-08 0 2.2135823089431923e-05 -2.7371409327617333e-05 0 3.1250434903728875e-05 -3.1277679860589624e-05 0 3.125043536103825e-05 -2.7777708895905503e-08 0 2.2135823089431923e-05 -2.7371409327617333e-05 0 1.5625317791982488e-05 -1.6210723933312713e-05 0 2.0833719559422082e-05 -2.7777758228354088e-08 0 2.2135823089431923e-05 -2.7371409327617333e-05 0 2.5856104122634093e-05 -4.6902602791806764e-05 0 1.5625335985610516e-05 -4.6902516338294833e-05 0 2.2135823089431923e-05 -2.7371409327617333e-05 0 1.5625317791982488e-05 -1.6210723933312713e-05 0 1.5625335985610516e-05 -4.6902516338294833e-05 0 2.2135823089431923e-05 -2.7371409327617333e-05 0 
</DataArray>
</PointData>
<CellData Scalars="displacement_divergence," Vectors="" Tensors="effective_stress,">
<DataArray type="Float64" Name="effective_stress" NumberOfComponents="9" format="ascii">
0.10926078419151963 -0.0018459139523656631 0 -0.0018459139523656631 -9999.8938297890418 0 0 0 -2499.9461422512122 0.10581393386200943 0.00053522536694756528 0 0.00053522536694756528 -9999.8999074959847 0 0 0 -2499.9485233905307 0.07830273405817989 0.0026699348361383102 0 0.0026699348361383102 -9999.9185530488849 0 0 0 -2499.9600625787066 0.090247398979045101 -0.0033844884874270065 0 -0.0033844884874270065 -9999.9063154725609 0 0 0 -2499.9540170183959 0.099615400377842889 -0.0070235166658676462 0 -0.0070235166658676462 -9999.9039097362602 0 0 0 -2499.9510735839713 0.091524339200987015 -0.0026056771957883029 0 -0.0026056771957883029 -9999.9134900329627 0 0 0 -2499.9554914234413 0.11072613684700627 0.00013294005293573719 0 0.00013294005293573719 -9999.8915879267879 0 0 0 -2499.9452154474857 0.11670321861402044 -0.0022447156316047767 0 -0.0022447156316047767 -9999.8882450372184 0 0 0 -2499.9428854546513 0.11921567695389967 -0.0029197343601481407 0 -0.0029197343601481407 -9999.8940386088252 0 0 0 -2499.9437057329687 0.1398557004158647 -0.0026344645514632531 0 -0.0026344645514632531 -9999.8897562535312 0 0 0 -2499.9374751382784 0.12344352871937077 -0.0051243612288089935 0 -0.0051243612288089935 -9999.8833036685373 0 0 0 -2499.9399650349546 0.1018146355004319 -0.0071298854381893761 0 -0.0071298854381893761 -9999.9000175235014 0 0 0 -2499.9495507220031 0.10244751232221461 -0.0021905846497247694 0 -0.0021905846497247694 -9999.8954134004234 0 0 0 -2499.9482414720269 0.10099442648061085 -0.0067037609524049913 0 -0.0067037609524049913 -9999.9120130197844 0 0 0 -2499.952754648325 0.057298577347410173 -0.00072408821233693743 0 -0.00072408821233693743 -9999.9389233070979 0 0 0 -2499.9704061824355 0.071196948303622776 -0.0084431295967988262 0 -0.0084431295967988262 -9999.9219455125058 0 0 0 -2499.9626871410501 0.08118497247050982 -0.002529876934204367 0 -0.002529876934204367 -9999.9380829436632 0 0 0 -2499.9642244927982 0.10228587723031524 -0.012324276701072228 0 -0.012324276701072228 -9999.9198305263053 0 0 0 -2499.9543861622697 0.025062537863959733 0.00095010976201592712 0 0.00095010976201592712 -9999.9750145299149 0 0 0 -2499.9874879980134 0.038120699169894579 -0.007663055592274759 0 -0.007663055592274759 -9999.9536200298062 0 0 0 -2499.9788748326573 0.026606362882375834 -0.010603042475622715 0 -0.010603042475622715 -9999.9560498564788 0 0 0 -2499.9823608733986 0.01620880709204715 -0.0038232265706028556 0 -0.0038232265706028556 -9999.9732307529666 0 0 0 -2499.9892554864682 0.022484133705347631 0.0017917211002895783 0 0.0017917211002895783 -9999.9563135411245 0 0 0 -2499.9834573518542 0.033929636610082525 0.0019334333490717323 0 0.0019334333490717323 -9999.9453806153579 0 0 0 -2499.9778627446876 0.023483187610593044 -0.0045482344880838355 0 -0.0045482344880838355 -9999.9608608377112 0 0 0 -2499.9843444125249 0.067241629126783664 -0.0036969309226151381 0 -0.0036969309226151381 -9999.9327254642958 0 0 0 -2499.966370958793 0.058448042907912168 -0.010234603513103097 0 -0.010234603513103097 -9999.9354749104205 0 0 0 -2499.9692567168768 0.068241287294685662 -0.0042303273785364581 0 -0.0042303273785364581 -9999.9212510502603 0 0 0 -2499.9632524407407 
</DataArray>
<DataArray type="Float64" Name="displacement_divergence" format="ascii">
-6.2498653556280313e-05 -6.2498713084763272e-05 -6.2499001564467657e-05 -6.2498850425459895e-05 -6.2498776839599264e-05 -6.2498887285586025e-05 -6.2498630386187068e-05 -6.2498572136366302e-05 -6.2498592643324196e-05 -6.2498436878456965e-05 -6.2498499125873835e-05 -6.2498738768050055e-05 -6.2498706036800703e-05 -6.2498818866208155e-05 -6.2499260154560843e-05 -6.2499067178526291e-05 -6.2499105612319982e-05 -6.2498859654056731e-05 -6.2499687199950332e-05 -6.2499471870816495e-05 -6.2499559021834993e-05 -6.2499731387161703e-05 -6.2499586433796366e-05 -6.2499446568617194e-05 -6.2499608610313106e-05 -6.2499159273969812e-05 -6.2499231417921947e-05 -6.2499081311018532e-05 
</DataArray>
</CellData>
</Piece>
</UnstructuredGrid>
</VTKFile>
