<?xml version="1.0"?>
<VTKFile type="UnstructuredGrid" version="0.1" byte_order="LittleEndian">
<UnstructuredGrid>
<Piece NumberOfPoints="84" NumberOfCells="28">
<Points>
<DataArray type="Float64" NumberOfComponents="3" format="ascii">
0 0 0 0.29166666666652658 0.2916666666668038 0 0 0.33333333333472032 0 0 0 0 0.33333333333250248 0 0 0.29166666666652658 0.2916666666668038 0 0.49999999999981742 0.1726190476194705 0 0.33333333333250248 0 0 0.66666666666578889 0 0 0.49999999999981742 0.1726190476194705 0 0.33333333333250248 0 0 0.29166666666652658 0.2916666666668038 0 0.29166666666652658 0.2916666666668038 0 0.17261904761971569 0.50000000000021494 0 0.50000000000004996 0.49999999999997519 0 0.49999999999981742 0.1726190476194705 0 0.29166666666652658 0.2916666666668038 0 0.50000000000004996 0.49999999999997519 0 0.29166666666652658 0.2916666666668038 0 0 0.33333333333472032 0 0.17261904761971569 0.50000000000021494 0 0 0.33333333333472032 0 0.17261904761971569 0.50000000000021494 0 0 0.66666666666759111 0 0.17261904761971569 0.50000000000021494 0 0 0.66666666666759111 0 0.29166666666684449 0.7083333333334445 0 0 1 0 0.33333333333472032 1 0 0.29166666666684449 0.7083333333334445 0 0 0.66666666666759111 0 0 1 0 0.29166666666684449 0.7083333333334445 0 0.33333333333472032 1 0 0.29166666666684449 0.7083333333334445 0 0.50000000000021227 0.82738095238030207 0 0.17261904761971569 0.50000000000021494 0 0.29166666666684449 0.7083333333334445 0 0.50000000000004996 0.49999999999997519 0 0.29166666666684449 0.7083333333334445 0 0.50000000000021227 0.82738095238030207 0 0.50000000000004996 0.49999999999997519 0 0.70833333333346027 0.70833333333323512 0 0.82738095238054699 0.49999999999982031 0 0.50000000000004996 0.49999999999997519 0 0.70833333333346027 0.70833333333323512 0 0.50000000000021227 0.82738095238030207 0 0.50000000000004996 0.49999999999997519 0 0.70833333333346027 0.70833333333323512 0 0.66666666666759111 1 0 0.50000000000021227 0.82738095238030207 0 0.33333333333472032 1 0 0.66666666666759111 1 0 0.50000000000021227 0.82738095238030207 0 0.70833333333346027 0.70833333333323512 0 1 1 0 1 0.66666666666578889 0 0.70833333333346027 0.70833333333323512 0 0.66666666666759111 1 0 1 1 0 0.70833333333346027 0.70833333333323512 0 1 0.66666666666578889 0 0.82738095238054699 0.49999999999982031 0 1 0.66666666666578889 0 1 0.33333333333250248 0 0.82738095238054699 0.49999999999982031 0 1 0.33333333333250248 0 0.82738095238054699 0.49999999999982031 0 0.70833333333327586 0.2916666666665107 0 1 0 0 0.66666666666578889 0 0 0.70833333333327586 0.2916666666665107 0 1 0.33333333333250248 0 1 0 0 0.70833333333327586 0.2916666666665107 0 0.49999999999981742 0.1726190476194705 0 0.66666666666578889 0 0 0.70833333333327586 0.2916666666665107 0 0.82738095238054699 0.49999999999982031 0 0.50000000000004996 0.49999999999997519 0 0.70833333333327586 0.2916666666665107 0 0.49999999999981742 0.1726190476194705 0 0.50000000000004996 0.49999999999997519 0 0.70833333333327586 0.2916666666665107 0 
</DataArray>
</Points>
<Cells>
<DataArray type="UInt32" Name="connectivity" format="ascii">
0 1 2 3 4 5 6 7 8 9 10 11 12 13 14 15 16 17 18 19 20 21 22 23 24 25 26 27 28 29 30 31 32 33 34 35 36 37 38 39 40 41 42 43 44 45 46 47 48 49 50 51 52 53 54 55 56 57 58 59 60 61 62 63 64 65 66 67 68 69 70 71 72 73 74 75 76 77 78 79 80 81 82 83 
</DataArray>
<DataArray type="UInt32" Name="offsets" format="ascii">
3 6 9 12 15 18 21 24 27 30 33 36 39 42 45 48 51 54 57 60 63 66 69 72 75 78 81 84 
</DataArray>
<DataArray type="UInt32" Name="types" format="ascii">
5 5 5 5 5 5 5 5 5 5 5 5 5 5 5 5 5 5 5 5 5 5 5 5 5 5 5 5 
</DataArray>
</Cells>
<PointData Scalars="" Vectors="displacement," Tensors="">
<DataArray type="Float64" Name="displacement" NumberOfComponents="3" format="ascii">
-3.8782424910263638e-14 -2.7777786385349722e-08 0 9.1152526105773517e-06 -2.737083475792118e-05 0 -1.1990740253683593e-14 -3.1276979758416077e-05 0 -3.8782424910263638e-14 -2.7777786385349722e-08 0 1.0417425340481476e-05 -2.7777756212610832e-08 0 9.1152526105773534e-06 -2.7370834757921177e-05 0 1.5626145610488801e-05 -1.6210410744795349e-05 0 1.0417425340481476e-05 -2.7777756212606369e-08 0 2.0834841973671018e-05 -2.7777918576628663e-08 0 1.5626145610488801e-05 -1.6210410744795349e-05 0 1.0417425340481476e-05 -2.7777756212606726e-08 0 9.1152526105773534e-06 -2.7370834757921177e-05 0 9.1152526105773534e-06 -2.7370834757921177e-05 0 5.3947508334162272e-06 -4.6901584533236251e-05 0 1.5626176797945586e-05 -4.6901622249825963e-05 0 1.5626145610488801e-05 -1.6210410744795349e-05 0 9.1152526105773534e-06 -2.7370834757921177e-05 0 1.5626176797945586e-05 -4.6901622249825963e-05 0 9.1152526105773534e-06 -2.7370834757921177e-05 0 -1.1990739961327259e-14 -3.1276979758416077e-05 0 5.3947508334162272e-06 -4.6901584533236251e-05 0 -1.1990740253683593e-14 -3.1276979758416077e-05 0 5.3947508334162272e-06 -4.6901584533236251e-05 0 -4.102935157923261e-15 -6.2526187958566697e-05 0 5.3947508334162272e-06 -4.6901584533236251e-05 0 -4.102935157923261e-15 -6.2526187958566697e-05 0 9.1152894918627699e-06 -6.643235268149538e-05 0 7.0969751085832661e-14 -9.3775403284202219e-05 0 1.0417506414636481e-05 -9.3775428301878477e-05 0 9.1152894918627699e-06 -6.643235268149538e-05 0 -4.102935157923261e-15 -6.2526187958566697e-05 0 7.0969751085832661e-14 -9.3775403284202219e-05 0 9.1152894918627699e-06 -6.643235268149538e-05 0 1.0417506414636481e-05 -9.3775428301878463e-05 0 9.1152894918627699e-06 -6.643235268149538e-05 0 1.5626228050874333e-05 -7.7592825158170117e-05 0 5.3947508334162272e-06 -4.6901584533236251e-05 0 9.1152894918627699e-06 -6.643235268149538e-05 0 1.5626176797945586e-05 -4.6901622249825963e-05 0 9.1152894918627699e-06 -6.643235268149538e-05 0 1.5626228050874333e-05 -7.7592825158170117e-05 0 1.5626176797945586e-05 -4.6901622249825963e-05 0 2.2137121208597875e-05 -6.6432442294678642e-05 0 2.5857602958472502e-05 -4.6901704275785345e-05 0 1.5626176797945586e-05 -4.6901622249825963e-05 0 2.2137121208597875e-05 -6.6432442294678642e-05 0 1.5626228050874333e-05 -7.7592825158170117e-05 0 1.5626176797945586e-05 -4.6901622249825963e-05 0 2.2137121208597875e-05 -6.6432442294678642e-05 0 2.0835029006629888e-05 -9.3775514365553435e-05 0 1.5626228050874333e-05 -7.7592825158170117e-05 0 1.0417506414636481e-05 -9.3775428301878463e-05 0 2.0835029006629888e-05 -9.3775514365553435e-05 0 1.5626228050874333e-05 -7.7592825158170117e-05 0 2.2137121208597875e-05 -6.6432442294678642e-05 0 3.1252459775304111e-05 -9.3775841903605034e-05 0 3.1252235990592016e-05 -6.2526395921511102e-05 0 2.2137121208597875e-05 -6.6432442294678642e-05 0 2.0835029006629888e-05 -9.3775514365553435e-05 0 3.1252459775304111e-05 -9.3775841903605048e-05 0 2.2137121208597875e-05 -6.6432442294678642e-05 0 3.1252235990592016e-05 -6.2526395921511102e-05 0 2.5857602958472502e-05 -4.6901704275785345e-05 0 3.1252235990592016e-05 -6.2526395921511102e-05 0 3.1252180063991575e-05 -3.1277132430866023e-05 0 2.5857602958472502e-05 -4.6901704275785345e-05 0 3.1252180063991575e-05 -3.1277132430866029e-05 0 2.5857602958472502e-05 -4.6901704275785345e-05 0 2.2137075422868677e-05 -2.7370896306943844e-05 0 3.1252244260041994e-05 -2.7777530703105841e-08 0 2.0834841973671018e-05 -2.7777918576628663e-08 0 2.2137075422868677e-05 -2.7370896306943844e-05 0 3.1252180063991575e-05 -3.1277132430866029e-05 0 3.1252244260041994e-05 -2.7777530703105841e-08 0 2.2137075422868677e-05 -2.7370896306943844e-05 0 1.5626145610488801e-05 -1.6210410744795349e-05 0 2.0834841973671018e-05 -2.7777918576628663e-08 0 2.2137075422868677e-05 -2.7370896306943844e-05 0 2.5857602958472502e-05 -4.6901704275785345e-05 0 1.5626176797945586e-05 -4.6901622249825963e-05 0 2.2137075422868677e-05 -2.7370896306943844e-05 0 1.5626145610488801e-05 -1.6210410744795349e-05 0 1.5626176797945586e-05 -4.6901622249825963e-05 0 2.2137075422868677e-05 -2.7370896306943844e-05 0 
</DataArray>
</PointData>
<CellData Scalars="displacement_divergence," Vectors="" Tensors="effective_stress,">
<DataArray type="Float64" Name="effective_stress" NumberOfComponents="9" format="ascii">
0.3711294653035111 -0.00071625149348619743 0 -0.00071625149348619743 -9999.6209211864571 0 0 0 -2499.8124479302887 0.36817682904529647 0.00075001874286025516 0 0.00075001874286025516 -9999.6238336311399 0 0 0 -2499.8139142005239 0.36332803612312814 0.0027504056716045611 0 0.0027504056716045611 -9999.6299837549959 0 0 0 -2499.8166639297183 0.37068895724223694 -0.00067386643922873191 0 -0.00067386643922873191 -9999.6235882864348 0 0 0 -2499.8132248322977 0.37609065927836127 -0.001391251911627478 0 -0.001391251911627478 -9999.6255435519215 0 0 0 -2499.8123632231614 0.37287641031798557 0.00063598315773560898 0 0.00063598315773560898 -9999.630438243239 0 0 0 -2499.8143904582307 0.37183601778633601 0.0012456762997317128 0 0.0012456762997317128 -9999.6210670841538 0 0 0 -2499.8123077665914 0.37698023446137086 -0.00015542857090622419 0 -0.00015542857090622419 -9999.6209639839253 0 0 0 -2499.810995937366 0.38289255697600311 0.00092193338969082106 0 0.00092193338969082106 -9999.6231367076471 0 0 0 -2499.8100610376659 0.39519892490170605 0.00092424909116970691 0 0.00092424909116970691 -9999.6204931037464 0 0 0 -2499.8063235447098 0.38469253320422353 -0.0017474195719842101 0 -0.0017474195719842101 -9999.6206733866948 0 0 0 -2499.8089952133737 0.38661731770025654 -0.0026306986928830156 0 -0.0026306986928830156 -9999.6218333561828 0 0 0 -2499.80880400962 0.3778296613272687 -0.00074411169953236822 0 -0.00074411169953236822 -9999.6203265457807 0 0 0 -2499.8106242211115 0.38290129645247362 -0.00046848227748341742 0 -0.00046848227748341742 -9999.624295663205 0 0 0 -2499.810348591689 0.37532613340226817 -0.0029461257881848724 0 -0.0029461257881848724 -9999.6280287032823 0 0 0 -2499.81317564247 0.37822047236659273 -0.0042129018747800728 0 -0.0042129018747800728 -9999.6258559379021 0 0 0 -2499.8119088663843 0.38792375759112474 0.0014674373924208339 0 0.0014674373924208339 -9999.6271215690649 0 0 0 -2499.8097994528707 0.39839866564943804 -0.0011375243982527012 0 -0.0011375243982527012 -9999.626492330608 0 0 0 -2499.8070234162406 0.29664425158898666 0.0084256410618763766 0 0.0084256410618763766 -9999.7238328265303 0 0 0 -2499.856797143736 0.3624349335284478 -0.027421947454058682 0 -0.027421947454058682 -9999.6462331544008 0 0 0 -2499.8209495552173 0.30591956725947966 -0.020706895373450607 0 -0.020706895373450607 -9999.6589280846092 0 0 0 -2499.838252129337 0.26900826487515944 -0.0071691918983560754 0 -0.0071691918983560754 -9999.6746475862037 0 0 0 -2499.8514098303322 0.29884192500730933 0.0048975578179124568 0 0.0048975578179124568 -9999.657106308121 0 0 0 -2499.8395660957781 0.3514374563351339 0.0080232368105009142 0 0.0080232368105009142 -9999.6518825207968 0 0 0 -2499.8251112661155 0.29519440066402863 -0.016859382783877663 0 -0.016859382783877663 -9999.6951699435067 0 0 0 -2499.8499938857099 0.3709047936058596 0.0010122841194970533 0 0.0010122841194970533 -9999.6430598436382 0 0 0 -2499.818038762508 0.37334955017558968 -0.0083071805705778306 0 -0.0083071805705778306 -9999.6339584529724 0 0 0 -2499.8151522256976 0.38101568299119443 -0.0048323222117687692 0 -0.0048323222117687692 -9999.6277251523425 0 0 0 -2499.8116773673382 
</DataArray>
<DataArray type="Float64" Name="displacement_divergence" format="ascii">
-6.2495311198257217e-05 -6.2495347855013109e-05 -6.2495416598242994e-05 -6.2495330620807442e-05 -6.2495309080579019e-05 -6.2495359761455751e-05 -6.2495307694164802e-05 -6.2495274898434152e-05 -6.2495251525941707e-05 -6.2495158088617748e-05 -6.2495224880334315e-05 -6.2495220100240446e-05 -6.2495265605527864e-05 -6.2495258714792242e-05 -6.2495329391061793e-05 -6.2495297721659585e-05 -6.249524498632176e-05 -6.2495175585406001e-05 -6.2496419928593437e-05 -6.2495523738880488e-05 -6.249595630323341e-05 -6.2496285245758267e-05 -6.249598915239445e-05 -6.2495627781652892e-05 -6.249624984714275e-05 -6.2495450969062702e-05 -6.2495378805642484e-05 -6.2495291934183469e-05 
</DataArray>
</CellData>
</Piece>
</UnstructuredGrid>
</VTKFile>
