<?xml version="1.0"?>
<VTKFile type="UnstructuredGrid" version="0.1" byte_order="LittleEndian">
<UnstructuredGrid>
<Piece NumberOfPoints="150" NumberOfCells="75">
<Points>
<DataArray type="Float64" NumberOfComponents="3" format="ascii">
0 0 -15 0 0 -14.79999999999959 0 0 -14.79999999999959 0 0 -14.599999999999181 0 0 -14.19999999999836 0 0 -13.99999999999795 0 0 -14.19999999999836 0 0 -14.399999999998769 0 0 -14.599999999999181 0 0 -14.399999999998769 0 0 -13.599999999997131 0 0 -13.79999999999754 0 0 -13.79999999999754 0 0 -13.99999999999795 0 0 -13.599999999997131 0 0 -13.399999999996719 0 0 -13.399999999996719 0 0 -13.19999999999632 0 0 -13.19999999999632 0 0 -12.9999999999959 0 0 -12.9999999999959 0 0 -12.799999999995491 0 0 -12.799999999995491 0 0 -12.599999999995079 0 0 -12.599999999995079 0 0 -12.39999999999468 0 0 -12.199999999994271 0 0 -12.39999999999468 0 0 -11.39999999999263 0 0 -11.199999999992221 0 0 -11.39999999999263 0 0 -11.599999999993029 0 0 -11.599999999993029 0 0 -11.79999999999345 0 0 -11.79999999999345 0 0 -11.999999999993859 0 0 -12.199999999994271 0 0 -11.999999999993859 0 0 -7.7999999999852516 0 0 -7.999999999985663 0 0 -7.7999999999852516 0 0 -7.5999999999848704 0 0 -8.3999999999864823 0 0 -8.1999999999860727 0 0 -8.1999999999860727 0 0 -7.999999999985663 0 0 -8.7999999999873015 0 0 -8.9999999999877112 0 0 -8.7999999999873015 0 0 -8.5999999999868919 0 0 -8.3999999999864823 0 0 -8.5999999999868919 0 0 -9.1999999999881208 0 0 -9.3999999999885304 0 0 -9.1999999999881208 0 0 -8.9999999999877112 0 0 -9.7999999999893497 0 0 -9.5999999999889383 0 0 -9.5999999999889383 0 0 -9.3999999999885304 0 0 -10.199999999990171 0 0 -10.39999999999058 0 0 -10.199999999990171 0 0 -9.9999999999897593 0 0 -9.7999999999893497 0 0 -9.9999999999897593 0 0 -10.59999999999099 0 0 -10.7999999999914 0 0 -10.59999999999099 0 0 -10.39999999999058 0 0 -11.199999999992221 0 0 -10.999999999991809 0 0 -10.999999999991809 0 0 -10.7999999999914 0 0 -4.1999999999974076 0 0 -3.9999999999980309 0 0 -3.9999999999980309 0 0 -3.7999999999982368 0 0 -4.5999999999958598 0 0 -4.3999999999966333 0 0 -4.1999999999974076 0 0 -4.3999999999966333 0 0 -4.999999999994313 0 0 -5.1999999999935387 0 0 -4.999999999994313 0 0 -4.7999999999950864 0 0 -4.5999999999958598 0 0 -4.7999999999950864 0 0 -5.5999999999919901 0 0 -5.3999999999927626 0 0 -5.3999999999927626 0 0 -5.1999999999935387 0 0 -5.9999999999904432 0 0 -5.7999999999912157 0 0 -5.5999999999919901 0 0 -5.7999999999912157 0 0 -6.3999999999888946 0 0 -6.5999999999881211 0 0 -6.3999999999888946 0 0 -6.1999999999896689 0 0 -5.9999999999904432 0 0 -6.1999999999896689 0 0 -6.9999999999865734 0 0 -6.7999999999873468 0 0 -6.7999999999873468 0 0 -6.5999999999881211 0 0 -7.5999999999848704 0 0 -7.3999999999850514 0 0 -7.3999999999850514 0 0 -7.1999999999857982 0 0 -6.9999999999865734 0 0 -7.1999999999857982 0 0 -2.9999999999989648 0 0 -2.7999999999991472 0 0 -2.9999999999989648 0 0 -3.1999999999987829 0 0 -3.1999999999987829 0 0 -3.399999999998601 0 0 -3.399999999998601 0 0 -3.5999999999984191 0 0 -3.7999999999982368 0 0 -3.5999999999984191 0 0 -2.59999999999933 0 0 -2.7999999999991472 0 0 -2.59999999999933 0 0 -2.399999999999511 0 0 -2.399999999999511 0 0 -2.1999999999996942 0 0 -2.1999999999996942 0 0 -1.9999999999998761 0 0 -1.9999999999998761 0 0 -1.799999999999931 0 0 -1.799999999999931 0 0 -1.5999999999998329 0 0 -1.5999999999998329 0 0 -1.399999999999719 0 0 -0.99999999999952105 0 0 -1.1999999999996049 0 0 -1.1999999999996049 0 0 -1.399999999999719 0 0 -0.59999999999980536 0 0 -0.39999999999991032 0 0 -0.59999999999980536 0 0 -0.79999999999962335 0 0 -0.99999999999952105 0 0 -0.79999999999962335 0 0 -0.39999999999991032 0 0 -0.1999999999999503 0 0 -0.1999999999999503 0 0 0 
</DataArray>
</Points>
<Cells>
<DataArray type="UInt32" Name="connectivity" format="ascii">
0 1 2 3 4 5 6 7 8 9 10 11 12 13 14 15 16 17 18 19 20 21 22 23 24 25 26 27 28 29 30 31 32 33 34 35 36 37 38 39 40 41 42 43 44 45 46 47 48 49 50 51 52 53 54 55 56 57 58 59 60 61 62 63 64 65 66 67 68 69 70 71 72 73 74 75 76 77 78 79 80 81 82 83 84 85 86 87 88 89 90 91 92 93 94 95 96 97 98 99 100 101 102 103 104 105 106 107 108 109 110 111 112 113 114 115 116 117 118 119 120 121 122 123 124 125 126 127 128 129 130 131 132 133 134 135 136 137 138 139 140 141 142 143 144 145 146 147 148 149 
</DataArray>
<DataArray type="UInt32" Name="offsets" format="ascii">
2 4 6 8 10 12 14 16 18 20 22 24 26 28 30 32 34 36 38 40 42 44 46 48 50 52 54 56 58 60 62 64 66 68 70 72 74 76 78 80 82 84 86 88 90 92 94 96 98 100 102 104 106 108 110 112 114 116 118 120 122 124 126 128 130 132 134 136 138 140 142 144 146 148 150 
</DataArray>
<DataArray type="UInt32" Name="types" format="ascii">
3 3 3 3 3 3 3 3 3 3 3 3 3 3 3 3 3 3 3 3 3 3 3 3 3 3 3 3 3 3 3 3 3 3 3 3 3 3 3 3 3 3 3 3 3 3 3 3 3 3 3 3 3 3 3 3 3 3 3 3 3 3 3 3 3 3 3 3 3 3 3 3 3 3 3 
</DataArray>
</Cells>
<PointData Scalars="" Vectors="displacement," Tensors="">
<DataArray type="Float64" Name="displacement" NumberOfComponents="3" format="ascii">
0 0 -8.3333333333342629e-08 0 0 -1.6749158764716057e-05 0 0 -1.6749158764716057e-05 0 0 -3.3414984205353767e-05 0 0 -6.6746635152399724e-05 0 0 -8.3412460678806267e-05 0 0 -6.6746635152399724e-05 0 0 -5.0080809664665535e-05 0 0 -3.3414984205353767e-05 0 0 -5.0080809664665535e-05 0 0 -0.00011674411189221897 0 0 -0.000100078286254814 0 0 -0.000100078286254814 0 0 -8.3412460678806267e-05 0 0 -0.00011674411189221897 0 0 -0.00013340993760388526 0 0 -0.00013340993760388526 0 0 -0.0001500757634039593 0 0 -0.0001500757634039593 0 0 -0.00016674158930810897 0 0 -0.00016674158930810897 0 0 -0.0001834074153337694 0 0 -0.0001834074153337694 0 0 -0.00020007324150043163 0 0 -0.00020007324150043163 0 0 -0.000216739067829945 0 0 -0.00023340489434686126 0 0 -0.000216739067829945 0 0 -0.00030006820289618842 0 0 -0.00031673403084147612 0 0 -0.00030006820289618842 0 0 -0.00028340237531617482 0 0 -0.00028340237531617482 0 0 -0.00026673654805688666 0 0 -0.00026673654805688666 0 0 -0.00025007072107880379 0 0 -0.00023340489434686126 0 0 -0.00025007072107880379 0 0 -0.00060005324632859459 0 0 -0.00058338739619628974 0 0 -0.00060005324632859459 0 0 -0.00061671909961575494 0 0 -0.00055005570410907847 0 0 -0.00056672154888924727 0 0 -0.00056672154888924727 0 0 -0.00058338739619628974 0 0 -0.00051672402107712798 0 0 -0.00050005818236295639 0 0 -0.00051672402107712798 0 0 -0.00053338986158612948 0 0 -0.00055005570410907847 0 0 -0.00053338986158612948 0 0 -0.00048339234524655652 0 0 -0.00046672650955096836 0 0 -0.00048339234524655652 0 0 -0.00050005818236295639 0 0 -0.00043339484180403948 0 0 -0.00045006067511750195 0 0 -0.00045006067511750195 0 0 -0.00046672650955096836 0 0 -0.00040006317804222076 0 0 -0.00038339734737896674 0 0 -0.00040006317804222076 0 0 -0.00041672900948346595 0 0 -0.00043339484180403948 0 0 -0.00041672900948346595 0 0 -0.00036673151740337001 0 0 -0.00035006568803498379 0 0 -0.00036673151740337001 0 0 -0.00038339734737896674 0 0 -0.00031673403084147612 0 0 -0.00033339985920223064 0 0 -0.00033339985920223064 0 0 -0.00035006568803498379 0 0 -0.00090003961306292632 0 0 -0.00091670563073224039 0 0 -0.00091670563073224039 0 0 -0.00093337166702960452 0 0 -0.00086670762833421569 0 0 -0.00088337361268978802 0 0 -0.00090003961306292632 0 0 -0.00088337361268978802 0 0 -0.00083337570284995545 0 0 -0.00081670975946011393 0 0 -0.00083337570284995545 0 0 -0.00085004165877476375 0 0 -0.00086670762833421569 0 0 -0.00085004165877476375 0 0 -0.00078337790620052286 0 0 -0.00080004382756830822 0 0 -0.00080004382756830822 0 0 -0.00081670975946011393 0 0 -0.00075004609145192533 0 0 -0.00076671199444515372 0 0 -0.00078337790620052286 0 0 -0.00076671199444515372 0 0 -0.00071671430864769217 0 0 -0.00070004842742688793 0 0 -0.00071671430864769217 0 0 -0.00073338019643033267 0 0 -0.00075004609145192533 0 0 -0.00073338019643033267 0 0 -0.00066671668222507421 0 0 -0.00068338255214388482 0 0 -0.00068338255214388482 0 0 -0.00070004842742688793 0 0 -0.00061671909961575494 0 0 -0.00063338495642111154 0 0 -0.00063338495642111154 0 0 -0.00065005081714451373 0 0 -0.00066671668222507421 0 0 -0.00065005081714451373 0 0 -0.0010000360266813665 0 0 -0.0010167021775352246 0 0 -0.0010000360266813665 0 0 -0.00098336990169200947 0 0 -0.00098336990169200947 0 0 -0.00096670380107042372 0 0 -0.00096670380107042372 0 0 -0.00095003772333502538 0 0 -0.00093337166702960452 0 0 -0.00095003772333502538 0 0 -0.0010333683557539636 0 0 -0.0010167021775352246 0 0 -0.0010333683557539636 0 0 -0.0010500345628289196 0 0 -0.0010500345628289196 0 0 -0.0010667008002286291 0 0 -0.0010667008002286291 0 0 -0.0010833670693841794 0 0 -0.0010833670693841794 0 0 -0.0011000333716738905 0 0 -0.0011000333716738905 0 0 -0.001116699708407561 0 0 -0.001116699708407561 0 0 -0.0011333660808106321 0 0 -0.0011666989370120696 0 0 -0.0011500324900086093 0 0 -0.0011500324900086093 0 0 -0.0011333660808106321 0 0 -0.0012000319478204689 0 0 -0.0012166985129531606 0 0 -0.0012000319478204689 0 0 -0.0011833654227026548 0 0 -0.0011666989370120696 0 0 -0.0011833654227026548 0 0 -0.0012166985129531606 0 0 -0.0012333651185270451 0 0 -0.0012333651185270451 0 0 -0.00125003176480058 
</DataArray>
</PointData>
<CellData Scalars="" Vectors="" Tensors="effective_stress,">
<DataArray type="Float64" Name="effective_stress" NumberOfComponents="9" format="ascii">
-3333.1650862697161 0 0 0 -3333.1650862697161 0 0 0 -9999.4952588091473 -3333.1650881207152 0 0 0 -3333.1650881207152 0 0 0 -9999.4952643621455 -3333.1651052744801 0 0 0 -3333.1651052744801 0 0 0 -9999.4953158234421 -3333.1650975400116 0 0 0 -3333.1650975400116 0 0 0 -9999.4952926200349 -3333.1650918554978 0 0 0 -3333.1650918554978 0 0 0 -9999.4952755664926 -3333.1651274741635 0 0 0 -3333.1651274741635 0 0 0 -9999.495382422494 -3333.1651151947226 0 0 0 -3333.1651151947226 0 0 0 -9999.4953455841605 -3333.1651423264047 0 0 0 -3333.1651423264047 0 0 0 -9999.495426979207 -3333.1651600081605 0 0 0 -3333.1651600081605 0 0 0 -9999.4954800244741 -3333.165180822929 0 0 0 -3333.165180822929 0 0 0 -9999.4955424687942 -3333.1652051252604 0 0 0 -3333.1652051252604 0 0 0 -9999.4956153757812 -3333.1652333255915 0 0 0 -3333.1652333255915 0 0 0 -9999.4956999767746 -3333.1652658960229 0 0 0 -3333.1652658960229 0 0 0 -9999.4957976880833 -3333.1653033764305 0 0 0 -3333.1653033764305 0 0 0 -9999.4959101292625 -3333.1655890507172 0 0 0 -3333.1655890507172 0 0 0 -9999.4967671521299 -3333.1655159960646 0 0 0 -3333.1655159960646 0 0 0 -9999.4965479882085 -3333.165451850633 0 0 0 -3333.165451850633 0 0 0 -9999.4963555518771 -3333.1653956097434 0 0 0 -3333.1653956097434 0 0 0 -9999.4961868292594 -3333.1653463816474 0 0 0 -3333.1653463816474 0 0 0 -9999.4960391449567 -3333.1700264541141 0 0 0 -3333.1700264541141 0 0 0 -9999.5100793623133 -3333.1706574257114 0 0 0 -3333.1706574257114 0 0 0 -9999.5119722771342 -3333.1689560269297 0 0 0 -3333.1689560269297 0 0 0 -9999.5068680808181 -3333.1694614016596 0 0 0 -3333.1694614016596 0 0 0 -9999.5083842049935 -3333.1677428274852 0 0 0 -3333.1677428274852 0 0 0 -9999.5032284824993 -3333.1681017934752 0 0 0 -3333.1681017934752 0 0 0 -9999.5043053803965 -3333.1685045829799 0 0 0 -3333.1685045829799 0 0 0 -9999.5055137489107 -3333.1671391108102 0 0 0 -3333.1671391108102 0 0 0 -9999.5014173323871 -3333.1674232731457 0 0 0 -3333.1674232731457 0 0 0 -9999.5022698194371 -3333.1666626856313 0 0 0 -3333.1666626856313 0 0 0 -9999.499988056923 -3333.1668866864784 0 0 0 -3333.1668866864784 0 0 0 -9999.5006600594497 -3333.1661326439644 0 0 0 -3333.1661326439644 0 0 0 -9999.4983979319513 -3333.1662882421806 0 0 0 -3333.1662882421806 0 0 0 -9999.4988647265418 -3333.1664641078823 0 0 0 -3333.1664641078823 0 0 0 -9999.4993923236325 -3333.1658736704121 0 0 0 -3333.1658736704121 0 0 0 -9999.4976210112509 -3333.165995112533 0 0 0 -3333.165995112533 0 0 0 -9999.4979853375407 -3333.1656721440449 0 0 0 -3333.1656721440449 0 0 0 -9999.4970164321421 -3333.1657665437961 0 0 0 -3333.1657665437961 0 0 0 -9999.4972996314173 -3333.2035338731948 0 0 0 -3333.2035338731948 0 0 0 -9999.6106016197009 -3333.2072594762431 0 0 0 -3333.2072594762431 0 0 0 -9999.6217784287874 -3333.1968711273512 0 0 0 -3333.1968711273512 0 0 0 -9999.5906133821118 -3333.2000746405683 0 0 0 -3333.2000746405683 0 0 0 -9999.600223921705 -3333.1886779812048 0 0 0 -3333.1886779812048 0 0 0 -9999.5660339436145 -3333.1911849745375 0 0 0 -3333.1911849745375 0 0 0 -9999.5735549236415 -3333.193911903305 0 0 0 -3333.193911903305 0 0 0 -9999.5817357097985 -3333.1842735699611 0 0 0 -3333.1842735699611 0 0 0 -9999.552820709825 -3333.1863783740846 0 0 0 -3333.1863783740846 0 0 0 -9999.5591351222247 -3333.1805986585678 0 0 0 -3333.1805986585678 0 0 0 -9999.5417959757033 -3333.1823510867252 0 0 0 -3333.1823510867252 0 0 0 -9999.5470532602048 -3333.1762441737228 0 0 0 -3333.1762441737228 0 0 0 -9999.5287325212266 -3333.1775565410207 0 0 0 -3333.1775565410207 0 0 0 -9999.5326696230331 -3333.1790043314395 0 0 0 -3333.1790043314395 0 0 0 -9999.5370129942894 -3333.173983775021 0 0 0 -3333.173983775021 0 0 0 -9999.5219513250049 -3333.1750566135161 0 0 0 -3333.1750566135161 0 0 0 -9999.5251698405482 -3333.1713610743464 0 0 0 -3333.1713610743464 0 0 0 -9999.5140832230099 -3333.1721446928859 0 0 0 -3333.1721446928859 0 0 0 -9999.5164340786869 -3333.1730161250016 0 0 0 -3333.1730161250016 0 0 0 -9999.5190483750775 -3333.2301707746519 0 0 0 -3333.2301707746519 0 0 0 -9999.6905123239849 -3333.2249978744367 0 0 0 -3333.2249978744367 0 0 0 -9999.6749936232809 -3333.2201243201853 0 0 0 -3333.2201243201853 0 0 0 -9999.660372960614 -3333.2155470827129 0 0 0 -3333.2155470827129 0 0 0 -9999.6466412480222 -3333.2112610872136 0 0 0 -3333.2112610872136 0 0 0 -9999.6337832616409 -3333.2356437508424 0 0 0 -3333.2356437508424 0 0 0 -9999.7069312524982 -3333.2414149942051 0 0 0 -3333.2414149942051 0 0 0 -9999.7242449825862 -3333.2474799449556 0 0 0 -3333.2474799449556 0 0 0 -9999.7424398348667 -3333.2538311131066 0 0 0 -3333.2538311131066 0 0 0 -9999.7614933393197 -3333.2604579431354 0 0 0 -3333.2604579431354 0 0 0 -9999.7813738294644 -3333.2673467324639 0 0 0 -3333.2673467324639 0 0 0 -9999.8020401974209 -3333.2744806123083 0 0 0 -3333.2744806123083 0 0 0 -9999.8234418368666 -3333.2894006906427 0 0 0 -3333.2894006906427 0 0 0 -9999.8682020719862 -3333.2818395935465 0 0 0 -3333.2818395935465 0 0 0 -9999.845518780523 -3333.3130265400978 0 0 0 -3333.3130265400978 0 0 0 -9999.9390796202933 -3333.3050235658302 0 0 0 -3333.3050235658302 0 0 0 -9999.9150706975488 -3333.2971381187381 0 0 0 -3333.2971381187381 0 0 0 -9999.8914143563015 -3333.3211147775583 0 0 0 -3333.3211147775583 0 0 0 -9999.9633443326456 -3333.3292547078163 0 0 0 -3333.3292547078163 0 0 0 -9999.987764123478 
</DataArray>
</CellData>
</Piece>
</UnstructuredGrid>
</VTKFile>
