<?xml version="1.0"?>
<VTKFile type="UnstructuredGrid" version="0.1" byte_order="LittleEndian">
<UnstructuredGrid>
<Piece NumberOfPoints="150" NumberOfCells="75">
<Points>
<DataArray type="Float64" NumberOfComponents="3" format="ascii">
0 0 -15 0 0 -14.79999999999959 0 0 -14.79999999999959 0 0 -14.599999999999181 0 0 -14.19999999999836 0 0 -13.99999999999795 0 0 -14.19999999999836 0 0 -14.399999999998769 0 0 -14.599999999999181 0 0 -14.399999999998769 0 0 -13.599999999997131 0 0 -13.79999999999754 0 0 -13.79999999999754 0 0 -13.99999999999795 0 0 -13.599999999997131 0 0 -13.399999999996719 0 0 -13.399999999996719 0 0 -13.19999999999632 0 0 -13.19999999999632 0 0 -12.9999999999959 0 0 -12.9999999999959 0 0 -12.799999999995491 0 0 -12.799999999995491 0 0 -12.599999999995079 0 0 -12.599999999995079 0 0 -12.39999999999468 0 0 -12.199999999994271 0 0 -12.39999999999468 0 0 -11.39999999999263 0 0 -11.199999999992221 0 0 -11.39999999999263 0 0 -11.599999999993029 0 0 -11.599999999993029 0 0 -11.79999999999345 0 0 -11.79999999999345 0 0 -11.999999999993859 0 0 -12.199999999994271 0 0 -11.999999999993859 0 0 -7.7999999999852516 0 0 -7.999999999985663 0 0 -7.7999999999852516 0 0 -7.5999999999848704 0 0 -8.3999999999864823 0 0 -8.1999999999860727 0 0 -8.1999999999860727 0 0 -7.999999999985663 0 0 -8.7999999999873015 0 0 -8.9999999999877112 0 0 -8.7999999999873015 0 0 -8.5999999999868919 0 0 -8.3999999999864823 0 0 -8.5999999999868919 0 0 -9.1999999999881208 0 0 -9.3999999999885304 0 0 -9.1999999999881208 0 0 -8.9999999999877112 0 0 -9.7999999999893497 0 0 -9.5999999999889383 0 0 -9.5999999999889383 0 0 -9.3999999999885304 0 0 -10.199999999990171 0 0 -10.39999999999058 0 0 -10.199999999990171 0 0 -9.9999999999897593 0 0 -9.7999999999893497 0 0 -9.9999999999897593 0 0 -10.59999999999099 0 0 -10.7999999999914 0 0 -10.59999999999099 0 0 -10.39999999999058 0 0 -11.199999999992221 0 0 -10.999999999991809 0 0 -10.999999999991809 0 0 -10.7999999999914 0 0 -4.1999999999974076 0 0 -3.9999999999980309 0 0 -3.9999999999980309 0 0 -3.7999999999982368 0 0 -4.5999999999958598 0 0 -4.3999999999966333 0 0 -4.1999999999974076 0 0 -4.3999999999966333 0 0 -4.999999999994313 0 0 -5.1999999999935387 0 0 -4.999999999994313 0 0 -4.7999999999950864 0 0 -4.5999999999958598 0 0 -4.7999999999950864 0 0 -5.5999999999919901 0 0 -5.3999999999927626 0 0 -5.3999999999927626 0 0 -5.1999999999935387 0 0 -5.9999999999904432 0 0 -5.7999999999912157 0 0 -5.5999999999919901 0 0 -5.7999999999912157 0 0 -6.3999999999888946 0 0 -6.5999999999881211 0 0 -6.3999999999888946 0 0 -6.1999999999896689 0 0 -5.9999999999904432 0 0 -6.1999999999896689 0 0 -6.9999999999865734 0 0 -6.7999999999873468 0 0 -6.7999999999873468 0 0 -6.5999999999881211 0 0 -7.5999999999848704 0 0 -7.3999999999850514 0 0 -7.3999999999850514 0 0 -7.1999999999857982 0 0 -6.9999999999865734 0 0 -7.1999999999857982 0 0 -2.9999999999989648 0 0 -2.7999999999991472 0 0 -2.9999999999989648 0 0 -3.1999999999987829 0 0 -3.1999999999987829 0 0 -3.399999999998601 0 0 -3.399999999998601 0 0 -3.5999999999984191 0 0 -3.7999999999982368 0 0 -3.5999999999984191 0 0 -2.59999999999933 0 0 -2.7999999999991472 0 0 -2.59999999999933 0 0 -2.399999999999511 0 0 -2.399999999999511 0 0 -2.1999999999996942 0 0 -2.1999999999996942 0 0 -1.9999999999998761 0 0 -1.9999999999998761 0 0 -1.799999999999931 0 0 -1.799999999999931 0 0 -1.5999999999998329 0 0 -1.5999999999998329 0 0 -1.399999999999719 0 0 -0.99999999999952105 0 0 -1.1999999999996049 0 0 -1.1999999999996049 0 0 -1.399999999999719 0 0 -0.59999999999980536 0 0 -0.39999999999991032 0 0 -0.59999999999980536 0 0 -0.79999999999962335 0 0 -0.99999999999952105 0 0 -0.79999999999962335 0 0 -0.39999999999991032 0 0 -0.1999999999999503 0 0 -0.1999999999999503 0 0 0 
</DataArray>
</Points>
<Cells>
<DataArray type="UInt32" Name="connectivity" format="ascii">
0 1 2 3 4 5 6 7 8 9 10 11 12 13 14 15 16 17 18 19 20 21 22 23 24 25 26 27 28 29 30 31 32 33 34 35 36 37 38 39 40 41 42 43 44 45 46 47 48 49 50 51 52 53 54 55 56 57 58 59 60 61 62 63 64 65 66 67 68 69 70 71 72 73 74 75 76 77 78 79 80 81 82 83 84 85 86 87 88 89 90 91 92 93 94 95 96 97 98 99 100 101 102 103 104 105 106 107 108 109 110 111 112 113 114 115 116 117 118 119 120 121 122 123 124 125 126 127 128 129 130 131 132 133 134 135 136 137 138 139 140 141 142 143 144 145 146 147 148 149 
</DataArray>
<DataArray type="UInt32" Name="offsets" format="ascii">
2 4 6 8 10 12 14 16 18 20 22 24 26 28 30 32 34 36 38 40 42 44 46 48 50 52 54 56 58 60 62 64 66 68 70 72 74 76 78 80 82 84 86 88 90 92 94 96 98 100 102 104 106 108 110 112 114 116 118 120 122 124 126 128 130 132 134 136 138 140 142 144 146 148 150 
</DataArray>
<DataArray type="UInt32" Name="types" format="ascii">
3 3 3 3 3 3 3 3 3 3 3 3 3 3 3 3 3 3 3 3 3 3 3 3 3 3 3 3 3 3 3 3 3 3 3 3 3 3 3 3 3 3 3 3 3 3 3 3 3 3 3 3 3 3 3 3 3 3 3 3 3 3 3 3 3 3 3 3 3 3 3 3 3 3 3 
</DataArray>
</Cells>
<PointData Scalars="" Vectors="displacement," Tensors="">
<DataArray type="Float64" Name="displacement" NumberOfComponents="3" format="ascii">
0 0 -8.33333333333376e-08 0 0 -1.6749158298187345e-05 0 0 -1.6749158298187345e-05 0 0 -3.3414983262984815e-05 0 0 -6.6746633192141895e-05 0 0 -8.341245815632258e-05 0 0 -6.6746633192141895e-05 0 0 -5.0080808227662424e-05 0 0 -3.3414983262984815e-05 0 0 -5.0080808227662424e-05 0 0 -0.00011674410808321097 0 0 -0.00010007828312007121 0 0 -0.00010007828312007121 0 0 -8.341245815632258e-05 0 0 -0.00011674410808321097 0 0 -0.00013340993304551018 0 0 -0.00013340993304551018 0 0 -0.00015007575800666951 0 0 -0.00015007575800666951 0 0 -0.00016674158296631878 0 0 -0.00016674158296631878 0 0 -0.00018340740792400614 0 0 -0.00018340740792400614 0 0 -0.00020007323287921829 0 0 -0.00020007323287921829 0 0 -0.00021673905783140495 0 0 -0.00023340488278003548 0 0 -0.00021673905783140495 0 0 -0.00030006818255515081 0 0 -0.0003167340074985042 0 0 -0.00030006818255515081 0 0 -0.00028340235761131944 0 0 -0.00028340235761131944 0 0 -0.00026673653266763841 0 0 -0.00026673653266763841 0 0 -0.00025007070772465592 0 0 -0.00023340488278003548 0 0 -0.00025007070772465592 0 0 -0.00060005303156317863 0 0 -0.00058338720662635675 0 0 -0.00060005303156317863 0 0 -0.00061671885650103962 0 0 -0.0005500555567525073 0 0 -0.00056672138168973468 0 0 -0.00056672138168973468 0 0 -0.00058338720662635675 0 0 -0.00051672390687276413 0 0 -0.00050005808193042919 0 0 -0.00051672390687276413 0 0 -0.00053338973181349966 0 0 -0.0005500555567525073 0 0 -0.00053338973181349966 0 0 -0.00048339225698559613 0 0 -0.0004667264320380788 0 0 -0.00048339225698559613 0 0 -0.00050005808193042919 0 0 -0.00043339478213665083 0 0 -0.00045006060708821142 0 0 -0.00045006060708821142 0 0 -0.0004667264320380788 0 0 -0.00040006313223186964 0 0 -0.00038339730728049744 0 0 -0.00040006313223186964 0 0 -0.00041672895718423183 0 0 -0.00043339478213665083 0 0 -0.00041672895718423183 0 0 -0.00036673148233101321 0 0 -0.00035006565738422447 0 0 -0.00036673148233101321 0 0 -0.00038339730728049744 0 0 -0.0003167340074985042 0 0 -0.00033339983244078911 0 0 -0.00033339983244078911 0 0 -0.00035006565738422447 0 0 -0.00090003788333335776 0 0 -0.00091670370959505041 0 0 -0.00091670370959505041 0 0 -0.00093336953648720121 0 0 -0.00086670623195423617 0 0 -0.00088337205749937863 0 0 -0.00090003788333335776 0 0 -0.00088337205749937863 0 0 -0.00083337458138266316 0 0 -0.0008167087562499242 0 0 -0.00083337458138266316 0 0 -0.00085004040660319104 0 0 -0.00086670623195423617 0 0 -0.00085004040660319104 0 0 -0.00078337710614070975 0 0 -0.00080004293117575244 0 0 -0.00080004293117575244 0 0 -0.0008167087562499242 0 0 -0.00075004545614130948 0 0 -0.0007667112811319993 0 0 -0.00078337710614070975 0 0 -0.0007667112811319993 0 0 -0.00071671380619481881 0 0 -0.00070004798123373194 0 0 -0.00071671380619481881 0 0 -0.0007333796311633457 0 0 -0.00075004545614130948 0 0 -0.0007333796311633457 0 0 -0.00066671633132921269 0 0 -0.00068338215627884225 0 0 -0.00068338215627884225 0 0 -0.00070004798123373194 0 0 -0.00061671885650103962 0 0 -0.00063338468144118741 0 0 -0.00063338468144118741 0 0 -0.00065005050638381227 0 0 -0.00066671633132921269 0 0 -0.00065005050638381227 0 0 -0.0010000328585550917 0 0 -0.0010166986965752362 0 0 -0.0010000328585550917 0 0 -0.00098336702459712205 0 0 -0.00098336702459712205 0 0 -0.00096670119347081666 0 0 -0.00096670119347081666 0 0 -0.00095003536430430949 0 0 -0.00093336953648720121 0 0 -0.00095003536430430949 0 0 -0.0010333645403751771 0 0 -0.0010166986965752362 0 0 -0.0010333645403751771 0 0 -0.0010500303923219984 0 0 -0.0010500303923219984 0 0 -0.0010666962556354262 0 0 -0.0010666962556354262 0 0 -0.001083362134627828 0 0 -0.001083362134627828 0 0 -0.001100028034968833 0 0 -0.001100028034968833 0 0 -0.0011166939639555783 0 0 -0.0011166939639555783 0 0 -0.001133359930745467 0 0 -0.0011666920242455591 0 0 -0.0011500259464854463 0 0 -0.0011500259464854463 0 0 -0.001133359930745467 0 0 -0.0012000244250607922 0 0 -0.0012166907783602273 0 0 -0.0012000244250607922 0 0 -0.0011833581786449099 0 0 -0.0011666920242455591 0 0 -0.0011833581786449099 0 0 -0.0012166907783602273 0 0 -0.0012333572512136079 0 0 -0.0012333572512136079 0 0 -0.0012500238522504983 
</DataArray>
</PointData>
<CellData Scalars="" Vectors="" Tensors="effective_stress,">
<DataArray type="Float64" Name="effective_stress" NumberOfComponents="9" format="ascii">
-3333.1649929639748 0 0 0 -3333.1649929639748 0 0 0 -9999.4949788919239 -3333.164992952667 0 0 0 -3333.164992952667 0 0 0 -9999.4949788580016 -3333.16499282931 0 0 0 -3333.16499282931 0 0 0 -9999.4949784879282 -3333.1649928890674 0 0 0 -3333.1649928890674 0 0 0 -9999.4949786672041 -3333.1649929286659 0 0 0 -3333.1649929286659 0 0 0 -9999.494978785995 -3333.1649926211248 0 0 0 -3333.1649926211248 0 0 0 -9999.4949778633672 -3333.1649927428989 0 0 0 -3333.1649927428989 0 0 0 -9999.4949782287003 -3333.1649924529847 0 0 0 -3333.1649924529847 0 0 0 -9999.4949773589615 -3333.1649922252145 0 0 0 -3333.1649922252145 0 0 0 -9999.4949766756472 -3333.1649919228548 0 0 0 -3333.1649919228548 0 0 0 -9999.4949757685536 -3333.164991530648 0 0 0 -3333.164991530648 0 0 0 -9999.4949745919293 -3333.16499103557 0 0 0 -3333.16499103557 0 0 0 -9999.4949731067172 -3333.1649904306832 0 0 0 -3333.1649904306832 0 0 0 -9999.4949712920497 -3333.1649897192765 0 0 0 -3333.1649897192765 0 0 0 -9999.4949691578367 -3333.1649886638552 0 0 0 -3333.1649886638552 0 0 0 -9999.4949659915583 -3333.1649887596213 0 0 0 -3333.1649887596213 0 0 0 -9999.4949662788713 -3333.1649887292078 0 0 0 -3333.1649887292078 0 0 0 -9999.4949661876017 -3333.1649885896695 0 0 0 -3333.1649885896695 0 0 0 -9999.4949657690013 -3333.1649889172331 0 0 0 -3333.1649889172331 0 0 0 -9999.4949667516921 -3333.1649873575225 0 0 0 -3333.1649873575225 0 0 0 -9999.4949620725238 -3333.1649875658331 0 0 0 -3333.1649875658331 0 0 0 -9999.4949626975576 -3333.1649874386494 0 0 0 -3333.1649874386494 0 0 0 -9999.4949623159482 -3333.1649873175775 0 0 0 -3333.1649873175775 0 0 0 -9999.4949619527324 -3333.1649884601502 0 0 0 -3333.1649884601502 0 0 0 -9999.4949653804651 -3333.1649881402845 0 0 0 -3333.1649881402845 0 0 0 -9999.4949644208536 -3333.1649877947057 0 0 0 -3333.1649877947057 0 0 0 -9999.494963384117 -3333.1649894966395 0 0 0 -3333.1649894966395 0 0 0 -9999.4949684899184 -3333.1649889597902 0 0 0 -3333.1649889597902 0 0 0 -9999.4949668793706 -3333.1649903052603 0 0 0 -3333.1649903052603 0 0 0 -9999.49497091581 -3333.1649899666809 0 0 0 -3333.1649899666809 0 0 0 -9999.494969899999 -3333.1649902676145 0 0 0 -3333.1649902676145 0 0 0 -9999.4949708028289 -3333.1649904655933 0 0 0 -3333.1649904655933 0 0 0 -9999.4949713967508 -3333.1649904769729 0 0 0 -3333.1649904769729 0 0 0 -9999.4949714309187 -3333.1649893509166 0 0 0 -3333.1649893509166 0 0 0 -9999.4949680527789 -3333.1649898900214 0 0 0 -3333.1649898900214 0 0 0 -9999.4949696700496 -3333.1649884501312 0 0 0 -3333.1649884501312 0 0 0 -9999.4949653503718 -3333.1649886802479 0 0 0 -3333.1649886802479 0 0 0 -9999.4949660407146 -3333.165252348932 0 0 0 -3333.165252348932 0 0 0 -9999.4957570467377 -3333.165378433594 0 0 0 -3333.165378433594 0 0 0 -9999.4961353007238 -3333.1651090413798 0 0 0 -3333.1651090413798 0 0 0 -9999.4953271241393 -3333.1651668087288 0 0 0 -3333.1651668087288 0 0 0 -9999.4955004261574 -3333.1650265606877 0 0 0 -3333.1650265606877 0 0 0 -9999.4950796820922 -3333.1650441184465 0 0 0 -3333.1650441184465 0 0 0 -9999.4951323554269 -3333.165070221934 0 0 0 -3333.165070221934 0 0 0 -9999.4952106657438 -3333.1650070213946 0 0 0 -3333.1650070213946 0 0 0 -9999.4950210642419 -3333.165014847269 0 0 0 -3333.165014847269 0 0 0 -9999.4950445418363 -3333.1649981508381 0 0 0 -3333.1649981508381 0 0 0 -9999.4949944525724 -3333.1650017549982 0 0 0 -3333.1650017549982 0 0 0 -9999.4950052649365 -3333.1649922302749 0 0 0 -3333.1649922302749 0 0 0 -9999.4949766907957 -3333.1649937182665 0 0 0 -3333.1649937182665 0 0 0 -9999.4949811547995 -3333.164995605679 0 0 0 -3333.164995605679 0 0 0 -9999.4949868170079 -3333.1649899387849 0 0 0 -3333.1649899387849 0 0 0 -9999.4949698164128 -3333.1649909908592 0 0 0 -3333.1649909908592 0 0 0 -9999.4949729725486 -3333.1649880325713 0 0 0 -3333.1649880325713 0 0 0 -9999.4949640976847 -3333.1649885374209 0 0 0 -3333.1649885374209 0 0 0 -9999.4949656123063 -3333.1649890929984 0 0 0 -3333.1649890929984 0 0 0 -9999.4949672790244 -3333.1676040319435 0 0 0 -3333.1676040319435 0 0 0 -9999.5028120959178 -3333.1667915969738 0 0 0 -3333.1667915969738 0 0 0 -9999.5003747908631 -3333.1662252641108 0 0 0 -3333.1662252641108 0 0 0 -9999.4986757923616 -3333.1658333044616 0 0 0 -3333.1658333044616 0 0 0 -9999.4974999133265 -3333.1655634246999 0 0 0 -3333.1655634246999 0 0 0 -9999.4966902739834 -3333.1687599912111 0 0 0 -3333.1687599912111 0 0 0 -9999.5062799736625 -3333.1703893672675 0 0 0 -3333.1703893672675 0 0 0 -9999.5111681019189 -3333.1726626886229 0 0 0 -3333.1726626886229 0 0 0 -9999.5179880658397 -3333.1757984833675 0 0 0 -3333.1757984833675 0 0 0 -9999.5273954501608 -3333.1800682019093 0 0 0 -3333.1800682019093 0 0 0 -9999.5402046056697 -3333.1857973474253 0 0 0 -3333.1857973474253 0 0 0 -9999.5573920422466 -3333.1933579758625 0 0 0 -3333.1933579758625 0 0 0 -9999.5800739275292 -3333.2155520211672 0 0 0 -3333.2155520211672 0 0 0 -9999.6466560636181 -3333.2031479939469 0 0 0 -3333.2031479939469 0 0 0 -9999.6094439817825 -3333.2706598887744 0 0 0 -3333.2706598887744 0 0 0 -9999.8119796663523 -3333.2492831794953 0 0 0 -3333.2492831794953 0 0 0 -9999.7478495384566 -3333.2308798718441 0 0 0 -3333.2308798718441 0 0 0 -9999.6926396156196 -3333.2945706767787 0 0 0 -3333.2945706767787 0 0 0 -9999.8837120303651 -3333.3202073789143 0 0 0 -3333.3202073789143 0 0 0 -9999.9606221367139 
</DataArray>
</CellData>
</Piece>
</UnstructuredGrid>
</VTKFile>
