<?xml version="1.0"?>
<VTKFile type="UnstructuredGrid" version="0.1" byte_order="LittleEndian">
<UnstructuredGrid>
<Piece NumberOfPoints="150" NumberOfCells="75">
<Points>
<DataArray type="Float64" NumberOfComponents="3" format="ascii">
0 0 -14.79999999999959 0 0 -15 0 0 -14.599999999999181 0 0 -14.79999999999959 0 0 -13.99999999999795 0 0 -14.19999999999836 0 0 -14.19999999999836 0 0 -14.399999999998769 0 0 -14.399999999998769 0 0 -14.599999999999181 0 0 -13.599999999997131 0 0 -13.79999999999754 0 0 -13.79999999999754 0 0 -13.99999999999795 0 0 -13.399999999996719 0 0 -13.599999999997131 0 0 -13.19999999999632 0 0 -13.399999999996719 0 0 -12.9999999999959 0 0 -13.19999999999632 0 0 -12.799999999995491 0 0 -12.9999999999959 0 0 -12.599999999995079 0 0 -12.799999999995491 0 0 -12.39999999999468 0 0 -12.599999999995079 0 0 -12.199999999994271 0 0 -12.39999999999468 0 0 -11.199999999992221 0 0 -11.39999999999263 0 0 -11.39999999999263 0 0 -11.599999999993029 0 0 -11.599999999993029 0 0 -11.79999999999345 0 0 -11.79999999999345 0 0 -11.999999999993859 0 0 -11.999999999993859 0 0 -12.199999999994271 0 0 -7.7999999999852516 0 0 -7.999999999985663 0 0 -7.5999999999848704 0 0 -7.7999999999852516 0 0 -8.1999999999860727 0 0 -8.3999999999864823 0 0 -7.999999999985663 0 0 -8.1999999999860727 0 0 -8.7999999999873015 0 0 -8.9999999999877112 0 0 -8.5999999999868919 0 0 -8.7999999999873015 0 0 -8.3999999999864823 0 0 -8.5999999999868919 0 0 -9.1999999999881208 0 0 -9.3999999999885304 0 0 -8.9999999999877112 0 0 -9.1999999999881208 0 0 -9.5999999999889383 0 0 -9.7999999999893497 0 0 -9.3999999999885304 0 0 -9.5999999999889383 0 0 -10.199999999990171 0 0 -10.39999999999058 0 0 -9.9999999999897593 0 0 -10.199999999990171 0 0 -9.7999999999893497 0 0 -9.9999999999897593 0 0 -10.59999999999099 0 0 -10.7999999999914 0 0 -10.39999999999058 0 0 -10.59999999999099 0 0 -10.999999999991809 0 0 -11.199999999992221 0 0 -10.7999999999914 0 0 -10.999999999991809 0 0 -3.9999999999980309 0 0 -4.1999999999974076 0 0 -3.7999999999982368 0 0 -3.9999999999980309 0 0 -4.3999999999966333 0 0 -4.5999999999958598 0 0 -4.1999999999974076 0 0 -4.3999999999966333 0 0 -4.999999999994313 0 0 -5.1999999999935387 0 0 -4.7999999999950864 0 0 -4.999999999994313 0 0 -4.5999999999958598 0 0 -4.7999999999950864 0 0 -5.3999999999927626 0 0 -5.5999999999919901 0 0 -5.1999999999935387 0 0 -5.3999999999927626 0 0 -5.7999999999912157 0 0 -5.9999999999904432 0 0 -5.5999999999919901 0 0 -5.7999999999912157 0 0 -6.3999999999888946 0 0 -6.5999999999881211 0 0 -6.1999999999896689 0 0 -6.3999999999888946 0 0 -5.9999999999904432 0 0 -6.1999999999896689 0 0 -6.7999999999873468 0 0 -6.9999999999865734 0 0 -6.5999999999881211 0 0 -6.7999999999873468 0 0 -7.3999999999850514 0 0 -7.5999999999848704 0 0 -7.1999999999857982 0 0 -7.3999999999850514 0 0 -6.9999999999865734 0 0 -7.1999999999857982 0 0 -2.7999999999991472 0 0 -2.9999999999989648 0 0 -2.9999999999989648 0 0 -3.1999999999987829 0 0 -3.1999999999987829 0 0 -3.399999999998601 0 0 -3.399999999998601 0 0 -3.5999999999984191 0 0 -3.5999999999984191 0 0 -3.7999999999982368 0 0 -2.59999999999933 0 0 -2.7999999999991472 0 0 -2.399999999999511 0 0 -2.59999999999933 0 0 -2.1999999999996942 0 0 -2.399999999999511 0 0 -1.9999999999998761 0 0 -2.1999999999996942 0 0 -1.799999999999931 0 0 -1.9999999999998761 0 0 -1.5999999999998329 0 0 -1.799999999999931 0 0 -1.399999999999719 0 0 -1.5999999999998329 0 0 -0.99999999999952105 0 0 -1.1999999999996049 0 0 -1.1999999999996049 0 0 -1.399999999999719 0 0 -0.39999999999991032 0 0 -0.59999999999980536 0 0 -0.59999999999980536 0 0 -0.79999999999962335 0 0 -0.79999999999962335 0 0 -0.99999999999952105 0 0 -0.1999999999999503 0 0 -0.39999999999991032 0 0 0 0 0 -0.1999999999999503 
</DataArray>
</Points>
<Cells>
<DataArray type="UInt32" Name="connectivity" format="ascii">
0 1 2 3 4 5 6 7 8 9 10 11 12 13 14 15 16 17 18 19 20 21 22 23 24 25 26 27 28 29 30 31 32 33 34 35 36 37 38 39 40 41 42 43 44 45 46 47 48 49 50 51 52 53 54 55 56 57 58 59 60 61 62 63 64 65 66 67 68 69 70 71 72 73 74 75 76 77 78 79 80 81 82 83 84 85 86 87 88 89 90 91 92 93 94 95 96 97 98 99 100 101 102 103 104 105 106 107 108 109 110 111 112 113 114 115 116 117 118 119 120 121 122 123 124 125 126 127 128 129 130 131 132 133 134 135 136 137 138 139 140 141 142 143 144 145 146 147 148 149 
</DataArray>
<DataArray type="UInt32" Name="offsets" format="ascii">
2 4 6 8 10 12 14 16 18 20 22 24 26 28 30 32 34 36 38 40 42 44 46 48 50 52 54 56 58 60 62 64 66 68 70 72 74 76 78 80 82 84 86 88 90 92 94 96 98 100 102 104 106 108 110 112 114 116 118 120 122 124 126 128 130 132 134 136 138 140 142 144 146 148 150 
</DataArray>
<DataArray type="UInt32" Name="types" format="ascii">
3 3 3 3 3 3 3 3 3 3 3 3 3 3 3 3 3 3 3 3 3 3 3 3 3 3 3 3 3 3 3 3 3 3 3 3 3 3 3 3 3 3 3 3 3 3 3 3 3 3 3 3 3 3 3 3 3 3 3 3 3 3 3 3 3 3 3 3 3 3 3 3 3 3 3 
</DataArray>
</Cells>
<PointData Scalars="" Vectors="displacement," Tensors="">
<DataArray type="Float64" Name="displacement" NumberOfComponents="3" format="ascii">
0 0 -1.6749442969432655e-05 0 0 -8.3333333333414521e-08 0 0 -3.3415552835844646e-05 0 0 -1.6749442969432655e-05 0 0 -8.3413886119149231e-05 0 0 -6.6747774180598687e-05 0 0 -6.6747774180598687e-05 0 0 -5.0081663162842969e-05 0 0 -5.0081663162842969e-05 0 0 -3.3415552835844646e-05 0 0 -0.00011674611367776972 0 0 -0.00010007999920833806 0 0 -0.00010007999920833806 0 0 -8.3413886119149231e-05 0 0 -0.00013341222975676056 0 0 -0.00011674611367776972 0 0 -0.00015007834767428646 0 0 -0.00013341222975676056 0 0 -0.00016674446765893624 0 0 -0.00015007834767428646 0 0 -0.00018341058993884886 0 0 -0.00016674446765893624 0 0 -0.00020007671474166791 0 0 -0.00018341058993884886 0 0 -0.00021674284229447952 0 0 -0.00020007671474166791 0 0 -0.00023340897282375954 0 0 -0.00021674284229447952 0 0 -0.00031673967795528107 0 0 -0.00030007352918888644 0 0 -0.00030007352918888644 0 0 -0.00028340738451522159 0 0 -0.00028340738451522159 0 0 -0.00026674124371182587 0 0 -0.00026674124371182587 0 0 -0.00025007510655530683 0 0 -0.00025007510655530683 0 0 -0.00023340897282375954 0 0 -0.00060006504286269711 0 0 -0.00058339879172879846 0 0 -0.00061673130183596901 0 0 -0.00060006504286269711 0 0 -0.00056673254824341239 0 0 -0.00055006631221305791 0 0 -0.00058339879172879846 0 0 -0.00056673254824341239 0 0 -0.00051673386176353284 0 0 -0.00050006764695343829 0 0 -0.00053340008344985484 0 0 -0.00051673386176353284 0 0 -0.00055006631221305791 0 0 -0.00053340008344985484 0 0 -0.00048340143881298004 0 0 -0.00046673523713350296 0 0 -0.00050006764695343829 0 0 -0.00048340143881298004 0 0 -0.00045006904170815493 0 0 -0.00043340285232821489 0 0 -0.00046673523713350296 0 0 -0.00045006904170815493 0 0 -0.00040007049085432998 0 0 -0.00038340431833282695 0 0 -0.00041673666878154421 0 0 -0.00040007049085432998 0 0 -0.00043340285232821489 0 0 -0.00041673666878154421 0 0 -0.0003667381510017986 0 0 -0.00035007198864460453 0 0 -0.00038340431833282695 0 0 -0.0003667381510017986 0 0 -0.00033340583103585412 0 0 -0.00031673967795528107 0 0 -0.00035007198864460453 0 0 -0.00033340583103585412 0 0 -0.00091672550342968549 0 0 -0.00090005907430587041 0 0 -0.00093339194337590701 0 0 -0.00091672550342968549 0 0 -0.00088339265588281658 0 0 -0.00086672624803399336 0 0 -0.00090005907430587041 0 0 -0.00088339265588281658 0 0 -0.00083339346354462107 0 0 -0.00081672708663492 0 0 -0.0008500598506319644 0 0 -0.00083339346354462107 0 0 -0.00086672624803399336 0 0 -0.0008500598506319644 0 0 -0.0008000607197613741 0 0 -0.00078339436277817412 0 0 -0.00081672708663492 0 0 -0.0008000607197613741 0 0 -0.00076672801553531234 0 0 -0.00075006167787870022 0 0 -0.00078339436277817412 0 0 -0.00076672801553531234 0 0 -0.00071672903067865107 0 0 -0.00070006272080534628 0 0 -0.0007333953496479038 0 0 -0.00071672903067865107 0 0 -0.00075006167787870022 0 0 -0.0007333953496479038 0 0 -0.00068339641985880545 0 0 -0.00066673012766638065 0 0 -0.00070006272080534628 0 0 -0.00068339641985880545 0 0 -0.00063339756883669981 0 0 -0.00061673130183596901 0 0 -0.00065006384405208179 0 0 -0.00063339756883669981 0 0 -0.00066673012766638065 0 0 -0.00065006384405208179 0 0 -0.0010167243091830725 0 0 -0.0010000578135484202 0 0 -0.0010000578135484202 0 0 -0.0009833913292449229 0 0 -0.0009833913292449229 0 0 -0.000966724856180489 0 0 -0.000966724856180489 0 0 -0.00095005839425762746 0 0 -0.00095005839425762746 0 0 -0.00093339194337590701 0 0 -0.0010333908162354834 0 0 -0.0010167243091830725 0 0 -0.0010500573347839478 0 0 -0.0010333908162354834 0 0 -0.0010667238649011009 0 0 -0.0010500573347839478 0 0 -0.0010833904066565717 0 0 -0.0010667238649011009 0 0 -0.001100056960114187 0 0 -0.0010833904066565717 0 0 -0.001116723525331888 0 0 -0.001100056960114187 0 0 -0.0011333901023616679 0 0 -0.001116723525331888 0 0 -0.0011667232920354749 0 0 -0.0011500566912495387 0 0 -0.0011500566912495387 0 0 -0.0011333901023616679 0 0 -0.0012167231660900081 0 0 -0.0012000565294309875 0 0 -0.0012000565294309875 0 0 -0.0011833899047533607 0 0 -0.0011833899047533607 0 0 -0.0011667232920354749 0 0 -0.0012333898147458952 0 0 -0.0012167231660900081 0 0 -0.0012500564754079329 0 0 -0.0012333898147458952 
</DataArray>
</PointData>
<CellData Scalars="" Vectors="" Tensors="stress,">
<DataArray type="Float64" Name="stress" NumberOfComponents="9" format="ascii">
-3333.221927213021 0 0 0 -3333.221927213021 0 0 0 -9999.6657816390634 -3333.2219732755716 0 0 0 -3333.2219732755716 0 0 0 -9999.6659198267134 -3333.2223877032829 0 0 0 -3333.2223877032829 0 0 0 -9999.6671631098434 -3333.2222035443156 0 0 0 -3333.2222035443156 0 0 0 -9999.6666106329503 -3333.222065392808 0 0 0 -3333.222065392808 0 0 0 -9999.666196178423 -3333.2228938795051 0 0 0 -3333.2228938795051 0 0 0 -9999.6686816385118 -3333.2226178309393 0 0 0 -3333.2226178309393 0 0 0 -9999.6678534928142 -3333.2232157913131 0 0 0 -3333.2232157913131 0 0 0 -9999.669647373943 -3333.2235834985295 0 0 0 -3333.2235834985295 0 0 0 -9999.6707504955848 -3333.2239969229522 0 0 0 -3333.2239969229522 0 0 0 -9999.671990768853 -3333.2244559756946 0 0 0 -3333.2244559756946 0 0 0 -9999.6733679270983 -3333.2249605569523 0 0 0 -3333.2249605569523 0 0 0 -9999.6748816708568 -3333.2255105556687 0 0 0 -3333.2255105556687 0 0 0 -9999.6765316670208 -3333.2261058491786 0 0 0 -3333.2261058491786 0 0 0 -9999.6783175475284 -3333.2297532721059 0 0 0 -3333.2297532721059 0 0 0 -9999.6892598162813 -3333.228934726314 0 0 0 -3333.228934726314 0 0 0 -9999.6868041789567 -3333.2281606721444 0 0 0 -3333.2281606721444 0 0 0 -9999.684482016426 -3333.2274312969748 0 0 0 -3333.2274312969748 0 0 0 -9999.6822938909463 -3333.2267463026001 0 0 0 -3333.2267463026001 0 0 0 -9999.6802389078075 -3333.2502267728705 0 0 0 -3333.2502267728705 0 0 0 -9999.7506803186261 -3333.251794648022 0 0 0 -3333.251794648022 0 0 0 -9999.7553839440807 -3333.2472060640721 0 0 0 -3333.2472060640721 0 0 0 -9999.7416181922308 -3333.2486970703758 0 0 0 -3333.2486970703758 0 0 0 -9999.7460912111565 -3333.242962012082 0 0 0 -3333.242962012082 0 0 0 -9999.7288860362023 -3333.2443372575799 0 0 0 -3333.2443372575799 0 0 0 -9999.7330117727397 -3333.2457526337821 0 0 0 -3333.2457526337821 0 0 0 -9999.7372579013463 -3333.2403358885786 0 0 0 -3333.2403358885786 0 0 0 -9999.7210076657357 -3333.2416280848265 0 0 0 -3333.2416280848265 0 0 0 -9999.7248842545087 -3333.2378759811545 0 0 0 -3333.2378759811545 0 0 0 -9999.713627943449 -3333.2390850628144 0 0 0 -3333.2390850628144 0 0 0 -9999.7172551884432 -3333.2345042937814 0 0 0 -3333.2345042937814 0 0 0 -9999.7035128813295 -3333.2355854359921 0 0 0 -3333.2355854359921 0 0 0 -9999.7067563079472 -3333.236709327306 0 0 0 -3333.236709327306 0 0 0 -9999.7101279819326 -3333.2324714319839 0 0 0 -3333.2324714319839 0 0 0 -9999.6974142959516 -3333.2334661988425 0 0 0 -3333.2334661988425 0 0 0 -9999.7003985965566 -3333.2306161077504 0 0 0 -3333.2306161077504 0 0 0 -9999.691848323273 -3333.2315217432624 0 0 0 -3333.2315217432624 0 0 0 -9999.6945652297582 -3333.2858247733966 0 0 0 -3333.2858247733966 0 0 0 -9999.8574743202189 -3333.2879892477358 0 0 0 -3333.2879892477358 0 0 0 -9999.8639677431202 -3333.2815697775513 0 0 0 -3333.2815697775513 0 0 0 -9999.8447093325667 -3333.2836846236605 0 0 0 -3333.2836846236605 0 0 0 -9999.8510538709816 -3333.2753819531063 0 0 0 -3333.2753819531063 0 0 0 -9999.8261458593188 -3333.2774174815568 0 0 0 -3333.2774174815568 0 0 0 -9999.8322524446412 -3333.2794804186851 0 0 0 -3333.2794804186851 0 0 0 -9999.8384412560845 -3333.2713966528536 0 0 0 -3333.2713966528536 0 0 0 -9999.814189958619 -3333.2733747221064 0 0 0 -3333.2733747221064 0 0 0 -9999.8201241663774 -3333.2675313352956 0 0 0 -3333.2675313352956 0 0 0 -9999.8025940058869 -3333.2694485852553 0 0 0 -3333.2694485852553 0 0 0 -9999.8083457557368 -3333.2619746738346 0 0 0 -3333.2619746738346 0 0 0 -9999.7859240215039 -3333.2637938634725 0 0 0 -3333.2637938634725 0 0 0 -9999.7913815903594 -3333.2656461721635 0 0 0 -3333.2656461721635 0 0 0 -9999.7969385165488 -3333.25843849784 0 0 0 -3333.25843849784 0 0 0 -9999.7753154935199 -3333.2601893210667 0 0 0 -3333.2601893210667 0 0 0 -9999.7805679632002 -3333.2534001491731 0 0 0 -3333.2534001491731 0 0 0 -9999.7602004475775 -3333.2550430888514 0 0 0 -3333.2550430888514 0 0 0 -9999.7651292665396 -3333.2567228726839 0 0 0 -3333.2567228726839 0 0 0 -9999.7701686180662 -3333.2991269335034 0 0 0 -3333.2991269335034 0 0 0 -9999.8973808004521 -3333.2968607025105 0 0 0 -3333.2968607025105 0 0 0 -9999.8905821074732 -3333.2946128898184 0 0 0 -3333.2946128898184 0 0 0 -9999.8838386695134 -3333.2923845753248 0 0 0 -3333.2923845753248 0 0 0 -9999.8771537259454 -3333.2901763471309 0 0 0 -3333.2901763471309 0 0 0 -9999.8705290413927 -3333.3014104852336 0 0 0 -3333.3014104852336 0 0 0 -9999.9042314556427 -3333.3037096959015 0 0 0 -3333.3037096959015 0 0 0 -9999.9111290876754 -3333.3060234336881 0 0 0 -3333.3060234336881 0 0 0 -9999.9180703010643 -3333.3083510971919 0 0 0 -3333.3083510971919 0 0 0 -9999.9250532914884 -3333.3106915239478 0 0 0 -3333.3106915239478 0 0 0 -9999.9320745718433 -3333.3130435385683 0 0 0 -3333.3130435385683 0 0 0 -9999.9391306156758 -3333.315405954083 0 0 0 -3333.315405954083 0 0 0 -9999.9462178621907 -3333.3201571858372 0 0 0 -3333.3201571858372 0 0 0 -9999.9604715575697 -3333.3177775722579 0 0 0 -3333.3177775722579 0 0 0 -9999.9533327168319 -3333.3273318058637 0 0 0 -3333.3273318058637 0 0 0 -9999.9819954177365 -3333.3249355283915 0 0 0 -3333.3249355283915 0 0 0 -9999.9748065851163 -3333.3225435788627 0 0 0 -3333.3225435788627 0 0 0 -9999.9676307365298 -3333.3297311780916 0 0 0 -3333.3297311780916 0 0 0 -9999.9891935341293 -3333.3321324083663 0 0 0 -3333.3321324083663 0 0 0 -9999.9963972250698 
</DataArray>
</CellData>
</Piece>
</UnstructuredGrid>
</VTKFile>
