<?xml version="1.0"?>
<VTKFile type="UnstructuredGrid" version="0.1" byte_order="LittleEndian">
<UnstructuredGrid>
<Piece NumberOfPoints="150" NumberOfCells="75">
<Points>
<DataArray type="Float64" NumberOfComponents="3" format="ascii">
0 0 -15 0 0 -14.79999999999959 0 0 -14.79999999999959 0 0 -14.599999999999181 0 0 -14.19999999999836 0 0 -13.99999999999795 0 0 -14.19999999999836 0 0 -14.399999999998769 0 0 -14.599999999999181 0 0 -14.399999999998769 0 0 -13.599999999997131 0 0 -13.79999999999754 0 0 -13.79999999999754 0 0 -13.99999999999795 0 0 -13.599999999997131 0 0 -13.399999999996719 0 0 -13.399999999996719 0 0 -13.19999999999632 0 0 -13.19999999999632 0 0 -12.9999999999959 0 0 -12.9999999999959 0 0 -12.799999999995491 0 0 -12.799999999995491 0 0 -12.599999999995079 0 0 -12.599999999995079 0 0 -12.39999999999468 0 0 -12.199999999994271 0 0 -12.39999999999468 0 0 -11.39999999999263 0 0 -11.199999999992221 0 0 -11.39999999999263 0 0 -11.599999999993029 0 0 -11.599999999993029 0 0 -11.79999999999345 0 0 -11.79999999999345 0 0 -11.999999999993859 0 0 -12.199999999994271 0 0 -11.999999999993859 0 0 -7.7999999999852516 0 0 -7.999999999985663 0 0 -7.7999999999852516 0 0 -7.5999999999848704 0 0 -8.3999999999864823 0 0 -8.1999999999860727 0 0 -8.1999999999860727 0 0 -7.999999999985663 0 0 -8.7999999999873015 0 0 -8.9999999999877112 0 0 -8.7999999999873015 0 0 -8.5999999999868919 0 0 -8.3999999999864823 0 0 -8.5999999999868919 0 0 -9.1999999999881208 0 0 -9.3999999999885304 0 0 -9.1999999999881208 0 0 -8.9999999999877112 0 0 -9.7999999999893497 0 0 -9.5999999999889383 0 0 -9.5999999999889383 0 0 -9.3999999999885304 0 0 -10.199999999990171 0 0 -10.39999999999058 0 0 -10.199999999990171 0 0 -9.9999999999897593 0 0 -9.7999999999893497 0 0 -9.9999999999897593 0 0 -10.59999999999099 0 0 -10.7999999999914 0 0 -10.59999999999099 0 0 -10.39999999999058 0 0 -11.199999999992221 0 0 -10.999999999991809 0 0 -10.999999999991809 0 0 -10.7999999999914 0 0 -4.1999999999974076 0 0 -3.9999999999980309 0 0 -3.9999999999980309 0 0 -3.7999999999982368 0 0 -4.5999999999958598 0 0 -4.3999999999966333 0 0 -4.1999999999974076 0 0 -4.3999999999966333 0 0 -4.999999999994313 0 0 -5.1999999999935387 0 0 -4.999999999994313 0 0 -4.7999999999950864 0 0 -4.5999999999958598 0 0 -4.7999999999950864 0 0 -5.5999999999919901 0 0 -5.3999999999927626 0 0 -5.3999999999927626 0 0 -5.1999999999935387 0 0 -5.9999999999904432 0 0 -5.7999999999912157 0 0 -5.5999999999919901 0 0 -5.7999999999912157 0 0 -6.3999999999888946 0 0 -6.5999999999881211 0 0 -6.3999999999888946 0 0 -6.1999999999896689 0 0 -5.9999999999904432 0 0 -6.1999999999896689 0 0 -6.9999999999865734 0 0 -6.7999999999873468 0 0 -6.7999999999873468 0 0 -6.5999999999881211 0 0 -7.5999999999848704 0 0 -7.3999999999850514 0 0 -7.3999999999850514 0 0 -7.1999999999857982 0 0 -6.9999999999865734 0 0 -7.1999999999857982 0 0 -2.9999999999989648 0 0 -2.7999999999991472 0 0 -2.9999999999989648 0 0 -3.1999999999987829 0 0 -3.1999999999987829 0 0 -3.399999999998601 0 0 -3.399999999998601 0 0 -3.5999999999984191 0 0 -3.7999999999982368 0 0 -3.5999999999984191 0 0 -2.59999999999933 0 0 -2.7999999999991472 0 0 -2.59999999999933 0 0 -2.399999999999511 0 0 -2.399999999999511 0 0 -2.1999999999996942 0 0 -2.1999999999996942 0 0 -1.9999999999998761 0 0 -1.9999999999998761 0 0 -1.799999999999931 0 0 -1.799999999999931 0 0 -1.5999999999998329 0 0 -1.5999999999998329 0 0 -1.399999999999719 0 0 -0.99999999999952105 0 0 -1.1999999999996049 0 0 -1.1999999999996049 0 0 -1.399999999999719 0 0 -0.59999999999980536 0 0 -0.39999999999991032 0 0 -0.59999999999980536 0 0 -0.79999999999962335 0 0 -0.99999999999952105 0 0 -0.79999999999962335 0 0 -0.39999999999991032 0 0 -0.1999999999999503 0 0 -0.1999999999999503 0 0 0 
</DataArray>
</Points>
<Cells>
<DataArray type="UInt32" Name="connectivity" format="ascii">
0 1 2 3 4 5 6 7 8 9 10 11 12 13 14 15 16 17 18 19 20 21 22 23 24 25 26 27 28 29 30 31 32 33 34 35 36 37 38 39 40 41 42 43 44 45 46 47 48 49 50 51 52 53 54 55 56 57 58 59 60 61 62 63 64 65 66 67 68 69 70 71 72 73 74 75 76 77 78 79 80 81 82 83 84 85 86 87 88 89 90 91 92 93 94 95 96 97 98 99 100 101 102 103 104 105 106 107 108 109 110 111 112 113 114 115 116 117 118 119 120 121 122 123 124 125 126 127 128 129 130 131 132 133 134 135 136 137 138 139 140 141 142 143 144 145 146 147 148 149 
</DataArray>
<DataArray type="UInt32" Name="offsets" format="ascii">
2 4 6 8 10 12 14 16 18 20 22 24 26 28 30 32 34 36 38 40 42 44 46 48 50 52 54 56 58 60 62 64 66 68 70 72 74 76 78 80 82 84 86 88 90 92 94 96 98 100 102 104 106 108 110 112 114 116 118 120 122 124 126 128 130 132 134 136 138 140 142 144 146 148 150 
</DataArray>
<DataArray type="UInt32" Name="types" format="ascii">
3 3 3 3 3 3 3 3 3 3 3 3 3 3 3 3 3 3 3 3 3 3 3 3 3 3 3 3 3 3 3 3 3 3 3 3 3 3 3 3 3 3 3 3 3 3 3 3 3 3 3 3 3 3 3 3 3 3 3 3 3 3 3 3 3 3 3 3 3 3 3 3 3 3 3 
</DataArray>
</Cells>
<PointData Scalars="" Vectors="displacement," Tensors="">
<DataArray type="Float64" Name="displacement" NumberOfComponents="3" format="ascii">
0 0 -8.3333333333375584e-08 0 0 -1.6749442955449421e-05 0 0 -1.6749442955449421e-05 0 0 -3.3415552807825223e-05 0 0 -6.674777412413627e-05 0 0 -8.3413886048174226e-05 0 0 -6.674777412413627e-05 0 0 -5.0081663120681443e-05 0 0 -3.3415552807825223e-05 0 0 -5.0081663120681443e-05 0 0 -0.00011674611357692313 0 0 -0.00010007999912258594 0 0 -0.00010007999912258594 0 0 -8.3413886048174226e-05 0 0 -0.00011674611357692313 0 0 -0.00013341222964044947 0 0 -0.00013341222964044947 0 0 -0.0001500783475420882 0 0 -0.0001500783475420882 0 0 -0.00016674446751037566 0 0 -0.00016674446751037566 0 0 -0.00018341058977339828 0 0 -0.00018341058977339828 0 0 -0.00020007671455874747 0 0 -0.00020007671455874747 0 0 -0.00021674284209345732 0 0 -0.00023340897260395159 0 0 -0.00021674284209345732 0 0 -0.00030007352890730569 0 0 -0.00031673967766725214 0 0 -0.00030007352890730569 0 0 -0.00028340738424387544 0 0 -0.00028340738424387544 0 0 -0.0002667412434545474 0 0 -0.0002667412434545474 0 0 -0.00025007510631597739 0 0 -0.00023340897260395159 0 0 -0.00025007510631597739 0 0 -0.00060006504274617086 0 0 -0.00058339879160879094 0 0 -0.00060006504274617086 0 0 -0.00061673130172953743 0 0 -0.00055006631210602732 0 0 -0.00056673254812656185 0 0 -0.00056673254812656185 0 0 -0.00058339879160879094 0 0 -0.00051673386166380759 0 0 -0.00050006764684313546 0 0 -0.00051673386166380759 0 0 -0.0005334000833512267 0 0 -0.00055006631210602732 0 0 -0.0005334000833512267 0 0 -0.00048340143868640231 0 0 -0.00046673523698873145 0 0 -0.00048340143868640231 0 0 -0.00050006764684313546 0 0 -0.00043340285214134544 0 0 -0.00045006904154328155 0 0 -0.00045006904154328155 0 0 -0.00046673523698873145 0 0 -0.0004000704906244499 0 0 -0.00038340431808362205 0 0 -0.0004000704906244499 0 0 -0.00041673666857244986 0 0 -0.00043340285214134544 0 0 -0.00041673666857244986 0 0 -0.00036673815073475353 0 0 -0.00035007198836122991 0 0 -0.00036673815073475353 0 0 -0.00038340431808362205 0 0 -0.00031673967766725214 0 0 -0.00033340583074511874 0 0 -0.00033340583074511874 0 0 -0.00035007198836122991 0 0 -0.0009000590746857226 0 0 -0.00091672550382672867 0 0 -0.00091672550382672867 0 0 -0.0009333919437818567 0 0 -0.00086672624836857089 0 0 -0.00088339265624068439 0 0 -0.0009000590746857226 0 0 -0.00088339265624068439 0 0 -0.00083339346382716242 0 0 -0.00081672708688831756 0 0 -0.00083339346382716242 0 0 -0.00085005985094156191 0 0 -0.00086672624836857089 0 0 -0.00085005985094156191 0 0 -0.00078339436296698533 0 0 -0.00080006071998353157 0 0 -0.00080006071998353157 0 0 -0.00081672708688831756 0 0 -0.00075006167799446157 0 0 -0.00076672801568866125 0 0 -0.00078339436296698533 0 0 -0.00076672801568866125 0 0 -0.00071672903072239494 0 0 -0.00070006272081705155 0 0 -0.00071672903072239494 0 0 -0.00073339534972633445 0 0 -0.00075006167799446157 0 0 -0.00073339534972633445 0 0 -0.00066673012762198842 0 0 -0.00068339641984112775 0 0 -0.00068339641984112775 0 0 -0.00070006272081705155 0 0 -0.00061673130172953743 0 0 -0.00063339756874694966 0 0 -0.00063339756874694966 0 0 -0.00065006384398365855 0 0 -0.00066673012762198842 0 0 -0.00065006384398365855 0 0 -0.0010000578139283819 0 0 -0.0010167243095470088 0 0 -0.0010000578139283819 0 0 -0.00098339132963732082 0 0 -0.00098339132963732082 0 0 -0.00096672485658175233 0 0 -0.00096672485658175233 0 0 -0.00095005839466419557 0 0 -0.0009333919437818567 0 0 -0.00095005839466419557 0 0 -0.001033390816579779 0 0 -0.0010167243095470088 0 0 -0.001033390816579779 0 0 -0.0010500573351076862 0 0 -0.0010500573351076862 0 0 -0.0010667238652060627 0 0 -0.0010667238652060627 0 0 -0.0010833904069445029 0 0 -0.0010833904069445029 0 0 -0.0011000569603868038 0 0 -0.0011000569603868038 0 0 -0.0011167235255908768 0 0 -0.0011167235255908768 0 0 -0.0011333901026086913 0 0 -0.001166723292263469 0 0 -0.0011500566914862372 0 0 -0.0011500566914862372 0 0 -0.0011333901026086913 0 0 -0.0012000565296463735 0 0 -0.001216723166301467 0 0 -0.0012000565296463735 0 0 -0.001183389904974255 0 0 -0.001166723292263469 0 0 -0.001183389904974255 0 0 -0.001216723166301467 0 0 -0.0012333898149550007 0 0 -0.0012333898149550007 0 0 -0.0012500564756162545 
</DataArray>
</PointData>
<CellData Scalars="" Vectors="" Tensors="effective_stress,">
<DataArray type="Float64" Name="effective_stress" NumberOfComponents="9" format="ascii">
-3333.2219244163821 0 0 0 -3333.2219244163821 0 0 0 -9999.6657732491458 -3333.221970468333 0 0 0 -3333.221970468333 0 0 0 -9999.6659114049999 -3333.2223848007652 0 0 0 -3333.2223848007652 0 0 0 -9999.6671544022975 -3333.2222006841384 0 0 0 -3333.2222006841384 0 0 0 -9999.6666020524135 -3333.2220625643868 0 0 0 -3333.2220625643868 0 0 0 -9999.6661876931612 -3333.2228908606121 0 0 0 -3333.2228908606121 0 0 0 -9999.668672581829 -3333.2226148755144 0 0 0 -3333.2226148755144 0 0 0 -9999.6678446265432 -3333.2232126984127 0 0 0 -3333.2232126984127 0 0 0 -9999.6696380952344 -3333.223580321097 0 0 0 -3333.223580321097 0 0 0 -9999.6707409632945 -3333.2239936504884 0 0 0 -3333.2239936504884 0 0 0 -9999.6719809514616 -3333.2244525977003 0 0 0 -3333.2244525977003 0 0 0 -9999.6733577930863 -3333.2249570629792 0 0 0 -3333.2249570629792 0 0 0 -9999.6748711889522 -3333.2255069353196 0 0 0 -3333.2255069353196 0 0 0 -9999.676520805966 -3333.2261020920268 0 0 0 -3333.2261020920268 0 0 0 -9999.6783062760805 -3333.2297519824642 0 0 0 -3333.2297519824642 0 0 0 -9999.6892559473927 -3333.2289326794053 0 0 0 -3333.2289326794053 0 0 0 -9999.686798038194 -3333.2281578585971 0 0 0 -3333.2281578585971 0 0 0 -9999.6844735757913 -3333.2274277071774 0 0 0 -3333.2274277071774 0 0 0 -9999.6822831215104 -3333.2267423982994 0 0 0 -3333.2267423982994 0 0 0 -9999.6802271949127 -3333.250227469136 0 0 0 -3333.250227469136 0 0 0 -9999.750682407408 -3333.2517966669693 0 0 0 -3333.2517966669693 0 0 0 -9999.7553900008788 -3333.2472041000728 0 0 0 -3333.2472041000728 0 0 0 -9999.7416123002768 -3333.2486964389973 0 0 0 -3333.2486964389973 0 0 0 -9999.7460893169628 -3333.2429641276103 0 0 0 -3333.2429641276103 0 0 0 -9999.7288923828164 -3333.2443374769937 0 0 0 -3333.2443374769937 0 0 0 -9999.7330124309519 -3333.2457509532978 0 0 0 -3333.2457509532978 0 0 0 -9999.7372528598644 -3333.2403395273432 0 0 0 -3333.2403395273432 0 0 0 -9999.7210185820004 -3333.2416313397989 0 0 0 -3333.2416313397989 0 0 0 -9999.7248940194258 -3333.2378803803585 0 0 0 -3333.2378803803585 0 0 0 -9999.7136411410756 -3333.2390890831739 0 0 0 -3333.2390890831739 0 0 0 -9999.7172672495944 -3333.2345081587409 0 0 0 -3333.2345081587409 0 0 0 -9999.7035244762374 -3333.2355895931396 0 0 0 -3333.2355895931396 0 0 0 -9999.7067687794042 -3333.2367137722904 0 0 0 -3333.2367137722904 0 0 0 -9999.7101413168712 -3333.2324746978993 0 0 0 -3333.2324746978993 0 0 0 -9999.6974240936979 -3333.2334697668703 0 0 0 -3333.2334697668703 0 0 0 -9999.7004093006253 -3333.2306155664701 0 0 0 -3333.2306155664701 0 0 0 -9999.6918466993957 -3333.2315232154069 0 0 0 -3333.2315232154069 0 0 0 -9999.6945696462062 -3333.2858282115776 0 0 0 -3333.2858282115776 0 0 0 -9999.8574846348492 -3333.2879910290358 0 0 0 -3333.2879910290358 0 0 0 -9999.8639730870491 -3333.2815744355903 0 0 0 -3333.2815744355903 0 0 0 -9999.8447233068291 -3333.2836890205508 0 0 0 -3333.2836890205508 0 0 0 -9999.8510670616524 -3333.2753877818759 0 0 0 -3333.2753877818759 0 0 0 -9999.8261633455986 -3333.2774228927738 0 0 0 -3333.2774228927738 0 0 0 -9999.8322686783504 -3333.2794854147069 0 0 0 -3333.2794854147069 0 0 0 -9999.8384562440333 -3333.2714033221419 0 0 0 -3333.2714033221419 0 0 0 -9999.8142099663382 -3333.2733809701458 0 0 0 -3333.2733809701458 0 0 0 -9999.8201429104083 -3333.2675388528151 0 0 0 -3333.2675388528151 0 0 0 -9999.8026165584452 -3333.2694556777133 0 0 0 -3333.2694556777133 0 0 0 -9999.8083670331398 -3333.2619810815668 0 0 0 -3333.2619810815668 0 0 0 -9999.7859432447003 -3333.2638008008071 0 0 0 -3333.2638008008071 0 0 0 -9999.7914024023921 -3333.2656536383147 0 0 0 -3333.2656536383147 0 0 0 -9999.7969609150314 -3333.2584438407503 0 0 0 -3333.2584438407503 0 0 0 -9999.7753315222799 -3333.260195197654 0 0 0 -3333.260195197654 0 0 0 -9999.7805855929619 -3333.2534034854616 0 0 0 -3333.2534034854616 0 0 0 -9999.7602104563848 -3333.2550473542215 0 0 0 -3333.2550473542215 0 0 0 -9999.7651420626789 -3333.2567276788905 0 0 0 -3333.2567276788905 0 0 0 -9999.7701830366859 -3333.299123728415 0 0 0 -3333.299123728415 0 0 0 -9999.897371185245 -3333.2968582152389 0 0 0 -3333.2968582152389 0 0 0 -9999.8905746457167 -3333.2946111167257 0 0 0 -3333.2946111167257 0 0 0 -9999.8838333501481 -3333.2923835143738 0 0 0 -3333.2923835143738 0 0 0 -9999.8771505431505 -3333.2901764707931 0 0 0 -3333.2901764707931 0 0 0 -9999.8705294125248 -3333.3014065570605 0 0 0 -3333.3014065570605 0 0 0 -9999.9042196712689 -3333.3037055844616 0 0 0 -3333.3037055844616 0 0 0 -9999.911116753472 -3333.3060196783335 0 0 0 -3333.3060196783335 0 0 0 -9999.9180590350879 -3333.3083476910833 0 0 0 -3333.3083476910833 0 0 0 -9999.9250430731336 -3333.3106884611188 0 0 0 -3333.3106884611188 0 0 0 -9999.9320653832983 -3333.3130408129655 0 0 0 -3333.3130408129655 0 0 0 -9999.9391224388964 -3333.3154035609914 0 0 0 -3333.3154035609914 0 0 0 -9999.9462106829742 -3333.3201554449915 0 0 0 -3333.3201554449915 0 0 0 -9999.9604663349455 -3333.3177755072829 0 0 0 -3333.3177755072829 0 0 0 -9999.9533265217906 -3333.3273310204386 0 0 0 -3333.3273310204386 0 0 0 -9999.9819930612575 -3333.3249344267533 0 0 0 -3333.3249344267533 0 0 0 -9999.9748032802017 -3333.3225421588868 0 0 0 -3333.3225421588868 0 0 0 -9999.9676264767768 -3333.3297307073954 0 0 0 -3333.3297307073954 0 0 0 -9999.9891921222443 -3333.3321322516131 0 0 0 -3333.3321322516131 0 0 0 -9999.9963967547519 
</DataArray>
</CellData>
</Piece>
</UnstructuredGrid>
</VTKFile>
