<?xml version="1.0"?>
<VTKFile type="UnstructuredGrid" version="0.1" byte_order="LittleEndian">
<UnstructuredGrid>
<Piece NumberOfPoints="150" NumberOfCells="75">
<Points>
<DataArray type="Float64" NumberOfComponents="3" format="ascii">
0 0 -14.79999999999959 0 0 -15 0 0 -14.599999999999181 0 0 -14.79999999999959 0 0 -13.99999999999795 0 0 -14.19999999999836 0 0 -14.19999999999836 0 0 -14.399999999998769 0 0 -14.399999999998769 0 0 -14.599999999999181 0 0 -13.599999999997131 0 0 -13.79999999999754 0 0 -13.79999999999754 0 0 -13.99999999999795 0 0 -13.399999999996719 0 0 -13.599999999997131 0 0 -13.19999999999632 0 0 -13.399999999996719 0 0 -12.9999999999959 0 0 -13.19999999999632 0 0 -12.799999999995491 0 0 -12.9999999999959 0 0 -12.599999999995079 0 0 -12.799999999995491 0 0 -12.39999999999468 0 0 -12.599999999995079 0 0 -12.199999999994271 0 0 -12.39999999999468 0 0 -11.199999999992221 0 0 -11.39999999999263 0 0 -11.39999999999263 0 0 -11.599999999993029 0 0 -11.599999999993029 0 0 -11.79999999999345 0 0 -11.79999999999345 0 0 -11.999999999993859 0 0 -11.999999999993859 0 0 -12.199999999994271 0 0 -7.7999999999852516 0 0 -7.999999999985663 0 0 -7.5999999999848704 0 0 -7.7999999999852516 0 0 -8.1999999999860727 0 0 -8.3999999999864823 0 0 -7.999999999985663 0 0 -8.1999999999860727 0 0 -8.7999999999873015 0 0 -8.9999999999877112 0 0 -8.5999999999868919 0 0 -8.7999999999873015 0 0 -8.3999999999864823 0 0 -8.5999999999868919 0 0 -9.1999999999881208 0 0 -9.3999999999885304 0 0 -8.9999999999877112 0 0 -9.1999999999881208 0 0 -9.5999999999889383 0 0 -9.7999999999893497 0 0 -9.3999999999885304 0 0 -9.5999999999889383 0 0 -10.199999999990171 0 0 -10.39999999999058 0 0 -9.9999999999897593 0 0 -10.199999999990171 0 0 -9.7999999999893497 0 0 -9.9999999999897593 0 0 -10.59999999999099 0 0 -10.7999999999914 0 0 -10.39999999999058 0 0 -10.59999999999099 0 0 -10.999999999991809 0 0 -11.199999999992221 0 0 -10.7999999999914 0 0 -10.999999999991809 0 0 -3.9999999999980309 0 0 -4.1999999999974076 0 0 -3.7999999999982368 0 0 -3.9999999999980309 0 0 -4.3999999999966333 0 0 -4.5999999999958598 0 0 -4.1999999999974076 0 0 -4.3999999999966333 0 0 -4.999999999994313 0 0 -5.1999999999935387 0 0 -4.7999999999950864 0 0 -4.999999999994313 0 0 -4.5999999999958598 0 0 -4.7999999999950864 0 0 -5.3999999999927626 0 0 -5.5999999999919901 0 0 -5.1999999999935387 0 0 -5.3999999999927626 0 0 -5.7999999999912157 0 0 -5.9999999999904432 0 0 -5.5999999999919901 0 0 -5.7999999999912157 0 0 -6.3999999999888946 0 0 -6.5999999999881211 0 0 -6.1999999999896689 0 0 -6.3999999999888946 0 0 -5.9999999999904432 0 0 -6.1999999999896689 0 0 -6.7999999999873468 0 0 -6.9999999999865734 0 0 -6.5999999999881211 0 0 -6.7999999999873468 0 0 -7.3999999999850514 0 0 -7.5999999999848704 0 0 -7.1999999999857982 0 0 -7.3999999999850514 0 0 -6.9999999999865734 0 0 -7.1999999999857982 0 0 -2.7999999999991472 0 0 -2.9999999999989648 0 0 -2.9999999999989648 0 0 -3.1999999999987829 0 0 -3.1999999999987829 0 0 -3.399999999998601 0 0 -3.399999999998601 0 0 -3.5999999999984191 0 0 -3.5999999999984191 0 0 -3.7999999999982368 0 0 -2.59999999999933 0 0 -2.7999999999991472 0 0 -2.399999999999511 0 0 -2.59999999999933 0 0 -2.1999999999996942 0 0 -2.399999999999511 0 0 -1.9999999999998761 0 0 -2.1999999999996942 0 0 -1.799999999999931 0 0 -1.9999999999998761 0 0 -1.5999999999998329 0 0 -1.799999999999931 0 0 -1.399999999999719 0 0 -1.5999999999998329 0 0 -0.99999999999952105 0 0 -1.1999999999996049 0 0 -1.1999999999996049 0 0 -1.399999999999719 0 0 -0.39999999999991032 0 0 -0.59999999999980536 0 0 -0.59999999999980536 0 0 -0.79999999999962335 0 0 -0.79999999999962335 0 0 -0.99999999999952105 0 0 -0.1999999999999503 0 0 -0.39999999999991032 0 0 0 0 0 -0.1999999999999503 
</DataArray>
</Points>
<Cells>
<DataArray type="UInt32" Name="connectivity" format="ascii">
0 1 2 3 4 5 6 7 8 9 10 11 12 13 14 15 16 17 18 19 20 21 22 23 24 25 26 27 28 29 30 31 32 33 34 35 36 37 38 39 40 41 42 43 44 45 46 47 48 49 50 51 52 53 54 55 56 57 58 59 60 61 62 63 64 65 66 67 68 69 70 71 72 73 74 75 76 77 78 79 80 81 82 83 84 85 86 87 88 89 90 91 92 93 94 95 96 97 98 99 100 101 102 103 104 105 106 107 108 109 110 111 112 113 114 115 116 117 118 119 120 121 122 123 124 125 126 127 128 129 130 131 132 133 134 135 136 137 138 139 140 141 142 143 144 145 146 147 148 149 
</DataArray>
<DataArray type="UInt32" Name="offsets" format="ascii">
2 4 6 8 10 12 14 16 18 20 22 24 26 28 30 32 34 36 38 40 42 44 46 48 50 52 54 56 58 60 62 64 66 68 70 72 74 76 78 80 82 84 86 88 90 92 94 96 98 100 102 104 106 108 110 112 114 116 118 120 122 124 126 128 130 132 134 136 138 140 142 144 146 148 150 
</DataArray>
<DataArray type="UInt32" Name="types" format="ascii">
3 3 3 3 3 3 3 3 3 3 3 3 3 3 3 3 3 3 3 3 3 3 3 3 3 3 3 3 3 3 3 3 3 3 3 3 3 3 3 3 3 3 3 3 3 3 3 3 3 3 3 3 3 3 3 3 3 3 3 3 3 3 3 3 3 3 3 3 3 3 3 3 3 3 3 
</DataArray>
</Cells>
<PointData Scalars="" Vectors="displacement," Tensors="">
<DataArray type="Float64" Name="displacement" NumberOfComponents="3" format="ascii">
0 0 -1.6749158758791248e-05 0 0 -8.333333333333989e-08 0 0 -3.341498419340836e-05 0 0 -1.6749158758791248e-05 0 0 -8.3412460647292806e-05 0 0 -6.674663512775009e-05 0 0 -6.674663512775009e-05 0 0 -5.0080809646509181e-05 0 0 -5.0080809646509181e-05 0 0 -3.341498419340836e-05 0 0 -0.00011674411184554146 0 0 -0.0001000782862159833 0 0 -0.0001000782862159833 0 0 -8.3412460647292806e-05 0 0 -0.00013340993754876342 0 0 -0.00011674411184554146 0 0 -0.00015007576333973759 0 0 -0.00013340993754876342 0 0 -0.00016674158923408533 0 0 -0.00015007576333973759 0 0 -0.000183407415249208 0 0 -0.00016674158923408533 0 0 -0.00020007324140457742 0 0 -0.000183407415249208 0 0 -0.00021673906772203862 0 0 -0.00020007324140457742 0 0 -0.00023340489422615468 0 0 -0.00021673906772203862 0 0 -0.00031673403063741496 0 0 -0.00030006820271217058 0 0 -0.00030006820271217058 0 0 -0.00028340237515052819 0 0 -0.00028340237515052819 0 0 -0.00026673654790785906 0 0 -0.00026673654790785906 0 0 -0.00025007072094457544 0 0 -0.00025007072094457544 0 0 -0.00023340489422615468 0 0 -0.0006000532459691601 0 0 -0.00058338739583731539 0 0 -0.00061671909925310384 0 0 -0.0006000532459691601 0 0 -0.00056672154852813118 0 0 -0.00055005570374334987 0 0 -0.00058338739583731539 0 0 -0.00056672154852813118 0 0 -0.00051672402070642158 0 0 -0.00050005818199482465 0 0 -0.00053338986121623971 0 0 -0.00051672402070642158 0 0 -0.00055005570374334987 0 0 -0.00053338986121623971 0 0 -0.00048339234488397058 0 0 -0.00046672650919642997 0 0 -0.00050005818199482465 0 0 -0.00048339234488397058 0 0 -0.00045006067477343739 0 0 -0.00043339484147278162 0 0 -0.00046672650919642997 0 0 -0.00045006067477343739 0 0 -0.00040006317774149875 0 0 -0.00038339734709531836 0 0 -0.00041672900916683148 0 0 -0.00040006317774149875 0 0 -0.00043339484147278162 0 0 -0.00041672900916683148 0 0 -0.00036673151713782033 0 0 -0.00035006568778841416 0 0 -0.00038339734709531836 0 0 -0.00036673151713782033 0 0 -0.00033339985897654675 0 0 -0.00031673403063741496 0 0 -0.00035006568778841416 0 0 -0.00033339985897654675 0 0 -0.00091670563038627798 0 0 -0.00090003961270290224 0 0 -0.00093337166669769174 0 0 -0.00091670563038627798 0 0 -0.00088337361231670885 0 0 -0.00086670762795007506 0 0 -0.00090003961270290224 0 0 -0.00088337361231670885 0 0 -0.00083337570244948814 0 0 -0.00081670975905439875 0 0 -0.00085004165838151213 0 0 -0.00083337570244948814 0 0 -0.00086670762795007506 0 0 -0.00085004165838151213 0 0 -0.00080004382715937405 0 0 -0.00078337790579044724 0 0 -0.00081670975905439875 0 0 -0.00080004382715937405 0 0 -0.00076671199403605215 0 0 -0.00075004609104594193 0 0 -0.00078337790579044724 0 0 -0.00076671199403605215 0 0 -0.00071671430825032503 0 0 -0.00070004842703414111 0 0 -0.00073338019602858947 0 0 -0.00071671430825032503 0 0 -0.00075004609104594193 0 0 -0.00073338019602858947 0 0 -0.00068338255175613737 0 0 -0.00066671668184286356 0 0 -0.00070004842703414111 0 0 -0.00068338255175613737 0 0 -0.00063338495605231183 0 0 -0.00061671909925310384 0 0 -0.00065005081676855546 0 0 -0.00063338495605231183 0 0 -0.00066671668184286356 0 0 -0.00065005081676855546 0 0 -0.0010167021772757177 0 0 -0.0010000360264067897 0 0 -0.0010000360264067897 0 0 -0.0009833699014025457 0 0 -0.0009833699014025457 0 0 -0.00096670380076641473 0 0 -0.00096670380076641473 0 0 -0.00095003772301698183 0 0 -0.00095003772301698183 0 0 -0.00093337166669769174 0 0 -0.0010333683555095584 0 0 -0.0010167021772757177 0 0 -0.0010500345625992725 0 0 -0.0010333683555095584 0 0 -0.0010667008000130325 0 0 -0.0010500345625992725 0 0 -0.0010833670691818061 0 0 -0.0010667008000130325 0 0 -0.0011000333714838045 0 0 -0.0010833670691818061 0 0 -0.0011166997082287281 0 0 -0.0011000333714838045 0 0 -0.0011333660806419304 0 0 -0.0011166997082287281 0 0 -0.0011666989368599675 0 0 -0.0011500324898488395 0 0 -0.0011500324898488395 0 0 -0.0011333660806419304 0 0 -0.0012166985128159735 0 0 -0.0012000319476796978 0 0 -0.0012000319476796978 0 0 -0.0011833654225569003 0 0 -0.0011833654225569003 0 0 -0.0011666989368599675 0 0 -0.0012333651183920183 0 0 -0.0012166985128159735 0 0 -0.0012500317646662747 0 0 -0.0012333651183920183 
</DataArray>
</PointData>
<CellData Scalars="" Vectors="" Tensors="stress,">
<DataArray type="Float64" Name="stress" NumberOfComponents="9" format="ascii">
-3333.1650850847545 0 0 0 -3333.1650850847545 0 0 0 -9999.4952552542636 -3333.1650869165956 0 0 0 -3333.1650869165956 0 0 0 -9999.4952607497871 -3333.1651039017179 0 0 0 -3333.1651039017179 0 0 0 -9999.4953117051482 -3333.1650962413551 0 0 0 -3333.1650962413551 0 0 0 -9999.4952887240688 -3333.1650906133082 0 0 0 -3333.1650906133082 0 0 0 -9999.4952718399254 -3333.1651259048049 0 0 0 -3333.1651259048049 0 0 0 -9999.4953777144183 -3333.1651137312692 0 0 0 -3333.1651137312692 0 0 0 -9999.4953411938113 -3333.1651406375349 0 0 0 -3333.1651406375349 0 0 0 -9999.4954219126084 -3333.1651581881852 0 0 0 -3333.1651581881852 0 0 0 -9999.4954745645518 -3333.1651788625459 0 0 0 -3333.1651788625459 0 0 0 -9999.4955365876376 -3333.1652030177065 0 0 0 -3333.1652030177065 0 0 0 -9999.495609053105 -3333.1652310670324 0 0 0 -3333.1652310670324 0 0 0 -9999.4956932010828 -3333.1652634855927 0 0 0 -3333.1652634855927 0 0 0 -9999.4957904567709 -3333.1653008163848 0 0 0 -3333.1653008163848 0 0 0 -9999.49590244914 -3333.1655850420502 0 0 0 -3333.1655850420502 0 0 0 -9999.4967551261361 -3333.1655123218297 0 0 0 -3333.1655123218297 0 0 0 -9999.4965369654819 -3333.1654485268227 0 0 0 -3333.1654485268227 0 0 0 -9999.4963455804682 -3333.1653926498984 0 0 0 -3333.1653926498984 0 0 0 -9999.4961779496807 -3333.1653436772976 0 0 0 -3333.1653436772976 0 0 0 -9999.4960310318857 -3333.1700263620878 0 0 0 -3333.1700263620878 0 0 0 -9999.5100790862925 -3333.1706567823858 0 0 0 -3333.1706567823858 0 0 0 -9999.5119703471428 -3333.1689569494338 0 0 0 -3333.1689569494338 0 0 0 -9999.5068708483013 -3333.1694618300098 0 0 0 -3333.1694618300098 0 0 0 -9999.508385490044 -3333.1677423125511 0 0 0 -3333.1677423125511 0 0 0 -9999.5032269377261 -3333.1681019568059 0 0 0 -3333.1681019568059 0 0 0 -9999.5043058703886 -3333.168505415204 0 0 0 -3333.168505415204 0 0 0 -9999.5055162456119 -3333.1671375012957 0 0 0 -3333.1671375012957 0 0 0 -9999.501412503887 -3333.1674221639842 0 0 0 -3333.1674221639842 0 0 0 -9999.5022664919379 -3333.1666601242905 0 0 0 -3333.1666601242905 0 0 0 -9999.4999803728715 -3333.1668845917156 0 0 0 -3333.1668845917156 0 0 0 -9999.500653775176 -3333.1661292292556 0 0 0 -3333.1661292292556 0 0 0 -9999.4983876877523 -3333.1662850596913 0 0 0 -3333.1662850596913 0 0 0 -9999.4988551790593 -3333.1664611832093 0 0 0 -3333.1664611832093 0 0 0 -9999.4993835496134 -3333.1658698743995 0 0 0 -3333.1658698743995 0 0 0 -9999.4976096232131 -3333.1659914927877 0 0 0 -3333.1659914927877 0 0 0 -9999.4979744783486 -3333.1656678195068 0 0 0 -3333.1656678195068 0 0 0 -9999.4970034584985 -3333.1657623666542 0 0 0 -3333.1657623666542 0 0 0 -9999.4972870999773 -3333.2035366855271 0 0 0 -3333.2035366855271 0 0 0 -9999.6106100566685 -3333.2072622861888 0 0 0 -3333.2072622861888 0 0 0 -9999.6217868585372 -3333.1968733396498 0 0 0 -3333.1968733396498 0 0 0 -9999.5906200188911 -3333.2000772515894 0 0 0 -3333.2000772515894 0 0 0 -9999.6002317548264 -3333.1886790307763 0 0 0 -3333.1886790307763 0 0 0 -9999.5660370923579 -3333.19118641768 0 0 0 -3333.19118641768 0 0 0 -9999.5735592530691 -3333.1939137254667 0 0 0 -3333.1939137254667 0 0 0 -9999.5817411764292 -3333.1842737982224 0 0 0 -3333.1842737982224 0 0 0 -9999.5528213946964 -3333.1863790178613 0 0 0 -3333.1863790178613 0 0 0 -9999.5591370536131 -3333.1805980349018 0 0 0 -3333.1805980349018 0 0 0 -9999.5417941047926 -3333.1823508919333 0 0 0 -3333.1823508919333 0 0 0 -9999.5470526757417 -3333.1762432496762 0 0 0 -3333.1762432496762 0 0 0 -9999.5287297489704 -3333.1775556657813 0 0 0 -3333.1775556657813 0 0 0 -9999.5326669973438 -3333.1790034834121 0 0 0 -3333.1790034834121 0 0 0 -9999.5370104502072 -3333.1739826676785 0 0 0 -3333.1739826676785 0 0 0 -9999.5219480029773 -3333.175055613654 0 0 0 -3333.175055613654 0 0 0 -9999.5251668409328 -3333.1713598446077 0 0 0 -3333.1713598446077 0 0 0 -9999.5140795338666 -3333.1721432611666 0 0 0 -3333.1721432611666 0 0 0 -9999.5164297834854 -3333.173014874541 0 0 0 -3333.173014874541 0 0 0 -9999.5190446235938 -3333.2301737886446 0 0 0 -3333.2301737886446 0 0 0 -9999.6905213659629 -3333.2250008518167 0 0 0 -3333.2250008518167 0 0 0 -9999.6750025554793 -3333.2201272292295 0 0 0 -3333.2201272292295 0 0 0 -9999.6603816876886 -3333.2155498896027 0 0 0 -3333.2155498896027 0 0 0 -9999.6466496688081 -3333.2112638610415 0 0 0 -3333.2112638610415 0 0 0 -9999.6337915831245 -3333.2356467712088 0 0 0 -3333.2356467712088 0 0 0 -9999.7069403134519 -3333.2414179458574 0 0 0 -3333.2414179458574 0 0 0 -9999.7242538374849 -3333.2474827550468 0 0 0 -3333.2474827550468 0 0 0 -9999.7424482651986 -3333.2538337577425 0 0 0 -3333.2538337577425 0 0 0 -9999.7615012733731 -3333.2604604006046 0 0 0 -3333.2604604006046 0 0 0 -9999.7813812018139 -3333.2673489830922 0 0 0 -3333.2673489830922 0 0 0 -9999.8020469492767 -3333.274482638546 0 0 0 -3333.274482638546 0 0 0 -9999.8234479157254 -3333.2894022242108 0 0 0 -3333.2894022242108 0 0 0 -9999.8682066726033 -3333.2818413799105 0 0 0 -3333.2818413799105 0 0 0 -9999.8455241397023 -3333.3130272568669 0 0 0 -3333.3130272568669 0 0 0 -9999.9390817707172 -3333.3050245625491 0 0 0 -3333.3050245625491 0 0 0 -9999.9150736875599 -3333.2971393882763 0 0 0 -3333.2971393882763 0 0 0 -9999.8914181648288 -3333.3211152096337 0 0 0 -3333.3211152096337 0 0 0 -9999.9633456289303 -3333.329254852084 0 0 0 -3333.329254852084 0 0 0 -9999.9877645563101 
</DataArray>
</CellData>
</Piece>
</UnstructuredGrid>
</VTKFile>
