<?xml version="1.0"?>
<VTKFile type="UnstructuredGrid" version="0.1" byte_order="LittleEndian">
<UnstructuredGrid>
<Piece NumberOfPoints="150" NumberOfCells="75">
<Points>
<DataArray type="Float64" NumberOfComponents="3" format="ascii">
0 0 -15 0 0 -14.79999999999959 0 0 -14.79999999999959 0 0 -14.599999999999181 0 0 -14.19999999999836 0 0 -13.99999999999795 0 0 -14.19999999999836 0 0 -14.399999999998769 0 0 -14.599999999999181 0 0 -14.399999999998769 0 0 -13.599999999997131 0 0 -13.79999999999754 0 0 -13.79999999999754 0 0 -13.99999999999795 0 0 -13.599999999997131 0 0 -13.399999999996719 0 0 -13.399999999996719 0 0 -13.19999999999632 0 0 -13.19999999999632 0 0 -12.9999999999959 0 0 -12.9999999999959 0 0 -12.799999999995491 0 0 -12.799999999995491 0 0 -12.599999999995079 0 0 -12.599999999995079 0 0 -12.39999999999468 0 0 -12.199999999994271 0 0 -12.39999999999468 0 0 -11.39999999999263 0 0 -11.199999999992221 0 0 -11.39999999999263 0 0 -11.599999999993029 0 0 -11.599999999993029 0 0 -11.79999999999345 0 0 -11.79999999999345 0 0 -11.999999999993859 0 0 -12.199999999994271 0 0 -11.999999999993859 0 0 -7.7999999999852516 0 0 -7.999999999985663 0 0 -7.7999999999852516 0 0 -7.5999999999848704 0 0 -8.3999999999864823 0 0 -8.1999999999860727 0 0 -8.1999999999860727 0 0 -7.999999999985663 0 0 -8.7999999999873015 0 0 -8.9999999999877112 0 0 -8.7999999999873015 0 0 -8.5999999999868919 0 0 -8.3999999999864823 0 0 -8.5999999999868919 0 0 -9.1999999999881208 0 0 -9.3999999999885304 0 0 -9.1999999999881208 0 0 -8.9999999999877112 0 0 -9.7999999999893497 0 0 -9.5999999999889383 0 0 -9.5999999999889383 0 0 -9.3999999999885304 0 0 -10.199999999990171 0 0 -10.39999999999058 0 0 -10.199999999990171 0 0 -9.9999999999897593 0 0 -9.7999999999893497 0 0 -9.9999999999897593 0 0 -10.59999999999099 0 0 -10.7999999999914 0 0 -10.59999999999099 0 0 -10.39999999999058 0 0 -11.199999999992221 0 0 -10.999999999991809 0 0 -10.999999999991809 0 0 -10.7999999999914 0 0 -4.1999999999974076 0 0 -3.9999999999980309 0 0 -3.9999999999980309 0 0 -3.7999999999982368 0 0 -4.5999999999958598 0 0 -4.3999999999966333 0 0 -4.1999999999974076 0 0 -4.3999999999966333 0 0 -4.999999999994313 0 0 -5.1999999999935387 0 0 -4.999999999994313 0 0 -4.7999999999950864 0 0 -4.5999999999958598 0 0 -4.7999999999950864 0 0 -5.5999999999919901 0 0 -5.3999999999927626 0 0 -5.3999999999927626 0 0 -5.1999999999935387 0 0 -5.9999999999904432 0 0 -5.7999999999912157 0 0 -5.5999999999919901 0 0 -5.7999999999912157 0 0 -6.3999999999888946 0 0 -6.5999999999881211 0 0 -6.3999999999888946 0 0 -6.1999999999896689 0 0 -5.9999999999904432 0 0 -6.1999999999896689 0 0 -6.9999999999865734 0 0 -6.7999999999873468 0 0 -6.7999999999873468 0 0 -6.5999999999881211 0 0 -7.5999999999848704 0 0 -7.3999999999850514 0 0 -7.3999999999850514 0 0 -7.1999999999857982 0 0 -6.9999999999865734 0 0 -7.1999999999857982 0 0 -2.9999999999989648 0 0 -2.7999999999991472 0 0 -2.9999999999989648 0 0 -3.1999999999987829 0 0 -3.1999999999987829 0 0 -3.399999999998601 0 0 -3.399999999998601 0 0 -3.5999999999984191 0 0 -3.7999999999982368 0 0 -3.5999999999984191 0 0 -2.59999999999933 0 0 -2.7999999999991472 0 0 -2.59999999999933 0 0 -2.399999999999511 0 0 -2.399999999999511 0 0 -2.1999999999996942 0 0 -2.1999999999996942 0 0 -1.9999999999998761 0 0 -1.9999999999998761 0 0 -1.799999999999931 0 0 -1.799999999999931 0 0 -1.5999999999998329 0 0 -1.5999999999998329 0 0 -1.399999999999719 0 0 -0.99999999999952105 0 0 -1.1999999999996049 0 0 -1.1999999999996049 0 0 -1.399999999999719 0 0 -0.59999999999980536 0 0 -0.39999999999991032 0 0 -0.59999999999980536 0 0 -0.79999999999962335 0 0 -0.99999999999952105 0 0 -0.79999999999962335 0 0 -0.39999999999991032 0 0 -0.1999999999999503 0 0 -0.1999999999999503 0 0 0 
</DataArray>
</Points>
<Cells>
<DataArray type="UInt32" Name="connectivity" format="ascii">
0 1 2 3 4 5 6 7 8 9 10 11 12 13 14 15 16 17 18 19 20 21 22 23 24 25 26 27 28 29 30 31 32 33 34 35 36 37 38 39 40 41 42 43 44 45 46 47 48 49 50 51 52 53 54 55 56 57 58 59 60 61 62 63 64 65 66 67 68 69 70 71 72 73 74 75 76 77 78 79 80 81 82 83 84 85 86 87 88 89 90 91 92 93 94 95 96 97 98 99 100 101 102 103 104 105 106 107 108 109 110 111 112 113 114 115 116 117 118 119 120 121 122 123 124 125 126 127 128 129 130 131 132 133 134 135 136 137 138 139 140 141 142 143 144 145 146 147 148 149 
</DataArray>
<DataArray type="UInt32" Name="offsets" format="ascii">
2 4 6 8 10 12 14 16 18 20 22 24 26 28 30 32 34 36 38 40 42 44 46 48 50 52 54 56 58 60 62 64 66 68 70 72 74 76 78 80 82 84 86 88 90 92 94 96 98 100 102 104 106 108 110 112 114 116 118 120 122 124 126 128 130 132 134 136 138 140 142 144 146 148 150 
</DataArray>
<DataArray type="UInt32" Name="types" format="ascii">
3 3 3 3 3 3 3 3 3 3 3 3 3 3 3 3 3 3 3 3 3 3 3 3 3 3 3 3 3 3 3 3 3 3 3 3 3 3 3 3 3 3 3 3 3 3 3 3 3 3 3 3 3 3 3 3 3 3 3 3 3 3 3 3 3 3 3 3 3 3 3 3 3 3 3 
</DataArray>
</Cells>
<PointData Scalars="" Vectors="displacement," Tensors="">
<DataArray type="Float64" Name="displacement" NumberOfComponents="3" format="ascii">
0 0 -8.3333333333353297e-08 0 0 -1.6749937609554899e-05 0 0 -1.6749937609554899e-05 0 0 -3.3416541913140338e-05 0 0 -6.6749750711795524e-05 0 0 -8.3416355261487914e-05 0 0 -6.6749750711795524e-05 0 0 -5.0083146271444679e-05 0 0 -3.3416541913140338e-05 0 0 -5.0083146271444679e-05 0 0 -0.0001167495647978194 0 0 -0.00010008295994776738 0 0 -0.00010008295994776738 0 0 -8.3416355261487914e-05 0 0 -0.0001167495647978194 0 0 -0.00013341616983875791 0 0 -0.00013341616983875791 0 0 -0.00015008277509761186 0 0 -0.00015008277509761186 0 0 -0.00016674938060131866 0 0 -0.00016674938060131866 0 0 -0.00018341598637670273 0 0 -0.00018341598637670273 0 0 -0.0002000825924504729 0 0 -0.0002000825924504729 0 0 -0.00021674919884920554 0 0 -0.00023341580559933721 0 0 -0.00021674919884920554 0 0 -0.00030008223663690388 0 0 -0.00031674884553475191 0 0 -0.00030008223663690388 0 0 -0.00028341562822008795 0 0 -0.00028341562822008795 0 0 -0.00026674902025875153 0 0 -0.00026674902025875153 0 0 -0.00025008241272714765 0 0 -0.00023341580559933721 0 0 -0.00025008241272714765 0 0 -0.00060008129396354267 0 0 -0.00058341467322525504 0 0 -0.00060008129396354267 0 0 -0.00061674791559634913 0 0 -0.00055008143435127446 0 0 -0.00056674805336134231 0 0 -0.00056674805336134231 0 0 -0.00058341467322525504 0 0 -0.00051674819880869198 0 0 -0.00050008158223328175 0 0 -0.00051674819880869198 0 0 -0.00053341481617414765 0 0 -0.00055008143435127446 0 0 -0.00053341481617414765 0 0 -0.00048341496642594507 0 0 -0.00046674835136437305 0 0 -0.00048341496642594507 0 0 -0.00050008158223328175 0 0 -0.00043341512338766183 0 0 -0.00045008173702592983 0 0 -0.00045008173702592983 0 0 -0.00046674835136437305 0 0 -0.00040008189811831398 0 0 -0.00038341528643983383 0 0 -0.00040008189811831398 0 0 -0.00041674851042630906 0 0 -0.00043341512338766183 0 0 -0.00041674851042630906 0 0 -0.00036674867536674877 0 0 -0.00035008206487467403 0 0 -0.00036674867536674877 0 0 -0.00038341528643983383 0 0 -0.00031674884553475191 0 0 -0.0003334154549389699 0 0 -0.0003334154549389699 0 0 -0.00035008206487467403 0 0 -0.0009000806377080985 0 0 -0.0009167472784008784 0 0 -0.0009167472784008784 0 0 -0.0009334139202874822 0 0 -0.00086674735985783641 0 0 -0.00088341399819772618 0 0 -0.0009000806377080985 0 0 -0.00088341399819772618 0 0 -0.00083341408663929013 0 0 -0.00081674745173426419 0 0 -0.00083341408663929013 0 0 -0.00085008072267600239 0 0 -0.00086674735985783641 0 0 -0.00085008072267600239 0 0 -0.0007834141852630463 0 0 -0.00080008081794699084 0 0 -0.00080008081794699084 0 0 -0.00081674745173426419 0 0 -0.00075008092314504031 0 0 -0.00076674755366752439 0 0 -0.0007834141852630463 0 0 -0.00076674755366752439 0 0 -0.00071674766525530245 0 0 -0.00070008103785495438 0 0 -0.00071674766525530245 0 0 -0.00073341429367973911 0 0 -0.00075008092314504031 0 0 -0.00073341429367973911 0 0 -0.00066674778605718709 0 0 -0.00068341441146147137 0 0 -0.00068341441146147137 0 0 -0.00070008103785495438 0 0 -0.00061674791559634913 0 0 -0.00063341453814338446 0 0 -0.00063341453814338446 0 0 -0.00065008116162400059 0 0 -0.00066674778605718709 0 0 -0.00065008116162400059 0 0 -0.0010000804999812502 0 0 -0.0010167471479892219 0 0 -0.0010000804999812502 0 0 -0.00098341385321609092 0 0 -0.00098341385321609092 0 0 -0.00096674720768501383 0 0 -0.00096674720768501383 0 0 -0.00095008056337874736 0 0 -0.0009334139202874822 0 0 -0.00095008056337874736 0 0 -0.001033413797248191 0 0 -0.0010167471479892219 0 0 -0.001033413797248191 0 0 -0.0010500804477657946 0 0 -0.0010500804477657946 0 0 -0.0010667470995491164 0 0 -0.0010667470995491164 0 0 -0.0010834137526046857 0 0 -0.0010834137526046857 0 0 -0.0011000804069384858 0 0 -0.0011000804069384858 0 0 -0.001116747062555927 0 0 -0.001116747062555927 0 0 -0.0011334137194618464 0 0 -0.0011667470371556727 0 0 -0.0011500803776605243 0 0 -0.0011500803776605243 0 0 -0.0011334137194618464 0 0 -0.001200080360047364 0 0 -0.0012167470234485088 0 0 -0.001200080360047364 0 0 -0.0011834136979504246 0 0 -0.0011667470371556727 0 0 -0.0011834136979504246 0 0 -0.0012167470234485088 0 0 -0.001233413688155291 0 0 -0.001233413688155291 0 0 -0.0012500803541685645 
</DataArray>
</PointData>
<CellData Scalars="" Vectors="" Tensors="effective_stress,">
<DataArray type="Float64" Name="effective_stress" NumberOfComponents="9" format="ascii">
-3333.3208552374817 0 0 0 -3333.3208552374817 0 0 0 -9999.9625657124452 -3333.3208607102611 0 0 0 -3333.3208607102611 0 0 0 -9999.9625821307818 -3333.32090993165 0 0 0 -3333.32090993165 0 0 0 -9999.9627297949555 -3333.320888063341 0 0 0 -3333.320888063341 0 0 0 -9999.962664190025 -3333.3208716540112 0 0 0 -3333.3208716540112 0 0 0 -9999.9626149620344 -3333.3209700035768 0 0 0 -3333.3209700035768 0 0 0 -9999.9629100107268 -3333.3209372490674 0 0 0 -3333.3209372490674 0 0 0 -9999.9628117471948 -3333.3210081808465 0 0 0 -3333.3210081808465 0 0 0 -9999.963024542536 -3333.3210517641419 0 0 0 -3333.3210517641419 0 0 0 -9999.9631552924257 -3333.3211007343562 0 0 0 -3333.3211007343562 0 0 0 -9999.9633022030757 -3333.3211550699853 0 0 0 -3333.3211550699853 0 0 0 -9999.963465209963 -3333.3212147471786 0 0 0 -3333.3212147471786 0 0 0 -9999.9636442415358 -3333.3212797398737 0 0 0 -3333.3212797398737 0 0 0 -9999.9638392196357 -3333.3213500195125 0 0 0 -3333.3213500195125 0 0 0 -9999.9640500585083 -3333.3217795627788 0 0 0 -3333.3217795627788 0 0 0 -9999.9653386883438 -3333.3216833565384 0 0 0 -3333.3216833565384 0 0 0 -9999.9650500695861 -3333.3215922602758 0 0 0 -3333.3215922602758 0 0 0 -9999.9647767808347 -3333.3215063139505 0 0 0 -3333.3215063139505 0 0 0 -9999.9645189418516 -3333.3214255552302 0 0 0 -3333.3214255552302 0 0 0 -9999.9642766657053 -3333.3241476506664 0 0 0 -3333.3241476506664 0 0 0 -9999.9724429520429 -3333.324326554939 0 0 0 -3333.324326554939 0 0 0 -9999.9729796648026 -3333.3238020067365 0 0 0 -3333.3238020067365 0 0 0 -9999.9714060202241 -3333.3239727757173 0 0 0 -3333.3239727757173 0 0 0 -9999.9719183271518 -3333.3233150752203 0 0 0 -3333.3233150752203 0 0 0 -9999.96994522569 -3333.3234730843105 0 0 0 -3333.3234730843105 0 0 0 -9999.9704192528734 -3333.3236354185356 0 0 0 -3333.3236354185356 0 0 0 -9999.9709062556503 -3333.3230123075773 0 0 0 -3333.3230123075773 0 0 0 -9999.9690369227319 -3333.3231614605029 0 0 0 -3333.3231614605029 0 0 0 -9999.9694843814941 -3333.3227276467514 0 0 0 -3333.3227276467514 0 0 0 -9999.9681829402107 -3333.3228676818399 0 0 0 -3333.3228676818399 0 0 0 -9999.9686030455632 -3333.3223356892122 0 0 0 -3333.3223356892122 0 0 0 -9999.9670070676075 -3333.3224615921645 0 0 0 -3333.3224615921645 0 0 0 -9999.9673847764789 -3333.3225922637357 0 0 0 -3333.3225922637357 0 0 0 -9999.9677767911926 -3333.3220984081272 0 0 0 -3333.3220984081272 0 0 0 -9999.9662952243525 -3333.3222146101762 0 0 0 -3333.3222146101762 0 0 0 -9999.9666438305576 -3333.3218808367455 0 0 0 -3333.3218808367455 0 0 0 -9999.9656425102439 -3333.321987133997 0 0 0 -3333.321987133997 0 0 0 -9999.9659614019911 -3333.3281385663722 0 0 0 -3333.3281385663722 0 0 0 -9999.9844156991458 -3333.3283773241856 0 0 0 -3333.3283773241856 0 0 0 -9999.9851319724694 -3333.3276679908449 0 0 0 -3333.3276679908449 0 0 0 -9999.9830039725639 -3333.3279020873597 0 0 0 -3333.3279020873597 0 0 0 -9999.9837062620791 -3333.3269810180936 0 0 0 -3333.3269810180936 0 0 0 -9999.9809430542518 -3333.3272073553235 0 0 0 -3333.3272073553235 0 0 0 -9999.9816220659995 -3333.32743637971 0 0 0 -3333.32743637971 0 0 0 -9999.9823091391008 -3333.3265368017892 0 0 0 -3333.3265368017892 0 0 0 -9999.9796104053385 -3333.3267574675847 0 0 0 -3333.3267574675847 0 0 0 -9999.9802724028123 -3333.3261045097024 0 0 0 -3333.3261045097024 0 0 0 -9999.9783135291073 -3333.3263191173028 0 0 0 -3333.3263191173028 0 0 0 -9999.9789573518792 -3333.3254800825089 0 0 0 -3333.3254800825089 0 0 0 -9999.9764402474975 -3333.3256849002209 0 0 0 -3333.3256849002209 0 0 0 -9999.9770547007211 -3333.325893073139 0 0 0 -3333.325893073139 0 0 0 -9999.9776792194461 -3333.3250808697485 0 0 0 -3333.3250808697485 0 0 0 -9999.9752426092164 -3333.3252787094971 0 0 0 -3333.3252787094971 0 0 0 -9999.9758361285203 -3333.3245094100857 0 0 0 -3333.3245094100857 0 0 0 -9999.9735282302718 -3333.3246961356635 0 0 0 -3333.3246961356635 0 0 0 -9999.9740884070052 -3333.3248866502108 0 0 0 -3333.3248866502108 0 0 0 -9999.974659950647 -3333.3296015973901 0 0 0 -3333.3296015973901 0 0 0 -9999.9888047921704 -3333.3293530348747 0 0 0 -3333.3293530348747 0 0 0 -9999.9880591046531 -3333.3291062184726 0 0 0 -3333.3291062184726 0 0 0 -9999.9873186553596 -3333.3288612563047 0 0 0 -3333.3288612563047 0 0 0 -9999.9865837689722 -3333.3286182560551 0 0 0 -3333.3286182560551 0 0 0 -9999.9858547681943 -3333.3298517968506 0 0 0 -3333.3298517968506 0 0 0 -9999.9895553905517 -3333.3301035237382 0 0 0 -3333.3301035237382 0 0 0 -9999.9903105711564 -3333.3303566674294 0 0 0 -3333.3303566674294 0 0 0 -9999.991070002201 -3333.3306111168931 0 0 0 -3333.3306111168931 0 0 0 -9999.9918333507376 -3333.3308667609235 0 0 0 -3333.3308667609235 0 0 0 -9999.9926002827706 -3333.3311234866269 0 0 0 -3333.3311234866269 0 0 0 -9999.9933704598807 -3333.3313811819826 0 0 0 -3333.3313811819826 0 0 0 -9999.9941435459768 -3333.3318990283005 0 0 0 -3333.3318990283005 0 0 0 -9999.9956970848143 -3333.3316397336603 0 0 0 -3333.3316397336603 0 0 0 -9999.9949192010099 -3333.3326802306983 0 0 0 -3333.3326802306983 0 0 0 -9999.9980406921823 -3333.3324193909066 0 0 0 -3333.3324193909066 0 0 0 -9999.9972581727197 -3333.3321589520783 0 0 0 -3333.3321589520783 0 0 0 -9999.9964768561767 -3333.3329413571337 0 0 0 -3333.3329413571337 0 0 0 -9999.9988240712555 -3333.3332026555145 0 0 0 -3333.3332026555145 0 0 0 -9999.9996079665143 
</DataArray>
</CellData>
</Piece>
</UnstructuredGrid>
</VTKFile>
