<?xml version="1.0"?>
<VTKFile type="UnstructuredGrid" version="0.1" byte_order="LittleEndian">
<UnstructuredGrid>
<Piece NumberOfPoints="150" NumberOfCells="75">
<Points>
<DataArray type="Float64" NumberOfComponents="3" format="ascii">
0 0 -15 0 0 -14.79999999999959 0 0 -14.79999999999959 0 0 -14.599999999999181 0 0 -14.19999999999836 0 0 -13.99999999999795 0 0 -14.19999999999836 0 0 -14.399999999998769 0 0 -14.599999999999181 0 0 -14.399999999998769 0 0 -13.599999999997131 0 0 -13.79999999999754 0 0 -13.79999999999754 0 0 -13.99999999999795 0 0 -13.599999999997131 0 0 -13.399999999996719 0 0 -13.399999999996719 0 0 -13.19999999999632 0 0 -13.19999999999632 0 0 -12.9999999999959 0 0 -12.9999999999959 0 0 -12.799999999995491 0 0 -12.799999999995491 0 0 -12.599999999995079 0 0 -12.599999999995079 0 0 -12.39999999999468 0 0 -12.199999999994271 0 0 -12.39999999999468 0 0 -11.39999999999263 0 0 -11.199999999992221 0 0 -11.39999999999263 0 0 -11.599999999993029 0 0 -11.599999999993029 0 0 -11.79999999999345 0 0 -11.79999999999345 0 0 -11.999999999993859 0 0 -12.199999999994271 0 0 -11.999999999993859 0 0 -7.7999999999852516 0 0 -7.999999999985663 0 0 -7.7999999999852516 0 0 -7.5999999999848704 0 0 -8.3999999999864823 0 0 -8.1999999999860727 0 0 -8.1999999999860727 0 0 -7.999999999985663 0 0 -8.7999999999873015 0 0 -8.9999999999877112 0 0 -8.7999999999873015 0 0 -8.5999999999868919 0 0 -8.3999999999864823 0 0 -8.5999999999868919 0 0 -9.1999999999881208 0 0 -9.3999999999885304 0 0 -9.1999999999881208 0 0 -8.9999999999877112 0 0 -9.7999999999893497 0 0 -9.5999999999889383 0 0 -9.5999999999889383 0 0 -9.3999999999885304 0 0 -10.199999999990171 0 0 -10.39999999999058 0 0 -10.199999999990171 0 0 -9.9999999999897593 0 0 -9.7999999999893497 0 0 -9.9999999999897593 0 0 -10.59999999999099 0 0 -10.7999999999914 0 0 -10.59999999999099 0 0 -10.39999999999058 0 0 -11.199999999992221 0 0 -10.999999999991809 0 0 -10.999999999991809 0 0 -10.7999999999914 0 0 -4.1999999999974076 0 0 -3.9999999999980309 0 0 -3.9999999999980309 0 0 -3.7999999999982368 0 0 -4.5999999999958598 0 0 -4.3999999999966333 0 0 -4.1999999999974076 0 0 -4.3999999999966333 0 0 -4.999999999994313 0 0 -5.1999999999935387 0 0 -4.999999999994313 0 0 -4.7999999999950864 0 0 -4.5999999999958598 0 0 -4.7999999999950864 0 0 -5.5999999999919901 0 0 -5.3999999999927626 0 0 -5.3999999999927626 0 0 -5.1999999999935387 0 0 -5.9999999999904432 0 0 -5.7999999999912157 0 0 -5.5999999999919901 0 0 -5.7999999999912157 0 0 -6.3999999999888946 0 0 -6.5999999999881211 0 0 -6.3999999999888946 0 0 -6.1999999999896689 0 0 -5.9999999999904432 0 0 -6.1999999999896689 0 0 -6.9999999999865734 0 0 -6.7999999999873468 0 0 -6.7999999999873468 0 0 -6.5999999999881211 0 0 -7.5999999999848704 0 0 -7.3999999999850514 0 0 -7.3999999999850514 0 0 -7.1999999999857982 0 0 -6.9999999999865734 0 0 -7.1999999999857982 0 0 -2.9999999999989648 0 0 -2.7999999999991472 0 0 -2.9999999999989648 0 0 -3.1999999999987829 0 0 -3.1999999999987829 0 0 -3.399999999998601 0 0 -3.399999999998601 0 0 -3.5999999999984191 0 0 -3.7999999999982368 0 0 -3.5999999999984191 0 0 -2.59999999999933 0 0 -2.7999999999991472 0 0 -2.59999999999933 0 0 -2.399999999999511 0 0 -2.399999999999511 0 0 -2.1999999999996942 0 0 -2.1999999999996942 0 0 -1.9999999999998761 0 0 -1.9999999999998761 0 0 -1.799999999999931 0 0 -1.799999999999931 0 0 -1.5999999999998329 0 0 -1.5999999999998329 0 0 -1.399999999999719 0 0 -0.99999999999952105 0 0 -1.1999999999996049 0 0 -1.1999999999996049 0 0 -1.399999999999719 0 0 -0.59999999999980536 0 0 -0.39999999999991032 0 0 -0.59999999999980536 0 0 -0.79999999999962335 0 0 -0.99999999999952105 0 0 -0.79999999999962335 0 0 -0.39999999999991032 0 0 -0.1999999999999503 0 0 -0.1999999999999503 0 0 0 
</DataArray>
</Points>
<Cells>
<DataArray type="UInt32" Name="connectivity" format="ascii">
0 1 2 3 4 5 6 7 8 9 10 11 12 13 14 15 16 17 18 19 20 21 22 23 24 25 26 27 28 29 30 31 32 33 34 35 36 37 38 39 40 41 42 43 44 45 46 47 48 49 50 51 52 53 54 55 56 57 58 59 60 61 62 63 64 65 66 67 68 69 70 71 72 73 74 75 76 77 78 79 80 81 82 83 84 85 86 87 88 89 90 91 92 93 94 95 96 97 98 99 100 101 102 103 104 105 106 107 108 109 110 111 112 113 114 115 116 117 118 119 120 121 122 123 124 125 126 127 128 129 130 131 132 133 134 135 136 137 138 139 140 141 142 143 144 145 146 147 148 149 
</DataArray>
<DataArray type="UInt32" Name="offsets" format="ascii">
2 4 6 8 10 12 14 16 18 20 22 24 26 28 30 32 34 36 38 40 42 44 46 48 50 52 54 56 58 60 62 64 66 68 70 72 74 76 78 80 82 84 86 88 90 92 94 96 98 100 102 104 106 108 110 112 114 116 118 120 122 124 126 128 130 132 134 136 138 140 142 144 146 148 150 
</DataArray>
<DataArray type="UInt32" Name="types" format="ascii">
3 3 3 3 3 3 3 3 3 3 3 3 3 3 3 3 3 3 3 3 3 3 3 3 3 3 3 3 3 3 3 3 3 3 3 3 3 3 3 3 3 3 3 3 3 3 3 3 3 3 3 3 3 3 3 3 3 3 3 3 3 3 3 3 3 3 3 3 3 3 3 3 3 3 3 
</DataArray>
</Cells>
<PointData Scalars="" Vectors="displacement," Tensors="">
<DataArray type="Float64" Name="displacement" NumberOfComponents="3" format="ascii">
0 0 -8.3333333333331036e-08 0 0 -1.6749158291845487e-05 0 0 -1.6749158291845487e-05 0 0 -3.3414983250358251e-05 0 0 -6.6746633167384057e-05 0 0 -8.3412458125896316e-05 0 0 -6.6746633167384057e-05 0 0 -5.0080808208871412e-05 0 0 -3.3414983250358251e-05 0 0 -5.0080808208871412e-05 0 0 -0.00011674410804291964 0 0 -0.00010007828308440825 0 0 -0.00010007828308440825 0 0 -8.3412458125896316e-05 0 0 -0.00011674410804291964 0 0 -0.00013340993300143015 0 0 -0.00013340993300143015 0 0 -0.00015007575795993757 0 0 -0.00015007575795993757 0 0 -0.00016674158291844226 0 0 -0.00016674158291844226 0 0 -0.00018340740787693602 0 0 -0.00018340740787693602 0 0 -0.00020007323283540807 0 0 -0.00020007323283540807 0 0 -0.00021673905779383122 0 0 -0.00023340488275215058 0 0 -0.00021673905779383122 0 0 -0.00030006818258494322 0 0 -0.00031673400754322689 0 0 -0.00030006818258494322 0 0 -0.00028340235762660469 0 0 -0.00028340235762660469 0 0 -0.00026673653266832026 0 0 -0.00026673653266832026 0 0 -0.00025007070771024042 0 0 -0.00023340488275215058 0 0 -0.00025007070771024042 0 0 -0.00060005303183136276 0 0 -0.00058338720687325918 0 0 -0.00060005303183136276 0 0 -0.00061671885678920007 0 0 -0.00055005555695731526 0 0 -0.00056672138191515538 0 0 -0.00056672138191515538 0 0 -0.00058338720687325918 0 0 -0.00051672390704301683 0 0 -0.00050005808208512413 0 0 -0.00051672390704301683 0 0 -0.00053338973200017326 0 0 -0.00055005555695731526 0 0 -0.00053338973200017326 0 0 -0.00048339225712689554 0 0 -0.00046672643216851402 0 0 -0.00048339225712689554 0 0 -0.00050005808208512413 0 0 -0.00043339478225158336 0 0 -0.00045006060721006371 0 0 -0.00045006060721006371 0 0 -0.00046672643216851402 0 0 -0.00040006313233460539 0 0 -0.0003833973073761367 0 0 -0.00040006313233460539 0 0 -0.00041672895729309283 0 0 -0.00043339478225158336 0 0 -0.00041672895729309283 0 0 -0.00036673148241771431 0 0 -0.00035006565745939605 0 0 -0.00036673148241771431 0 0 -0.0003833973073761367 0 0 -0.00031673400754322689 0 0 -0.00033339983250130678 0 0 -0.00033339983250130678 0 0 -0.00035006565745939605 0 0 -0.00090003788107791626 0 0 -0.00091670370603670886 0 0 -0.00091670370603670886 0 0 -0.00093336953099601276 0 0 -0.00086670623116098637 0 0 -0.00088337205611937412 0 0 -0.00090003788107791626 0 0 -0.00088337205611937412 0 0 -0.00083337458124457028 0 0 -0.00081670875628625625 0 0 -0.00083337458124457028 0 0 -0.00085004040620276819 0 0 -0.00086670623116098637 0 0 -0.00085004040620276819 0 0 -0.00078337710636949831 0 0 -0.00080004293132788953 0 0 -0.00080004293132788953 0 0 -0.00081670875628625625 0 0 -0.0007500454564526944 0 0 -0.00076671128141109744 0 0 -0.00078337710636949831 0 0 -0.00076671128141109744 0 0 -0.00071671380653591098 0 0 -0.00070004798157755749 0 0 -0.00071671380653591098 0 0 -0.00073337963149429602 0 0 -0.0007500454564526944 0 0 -0.00073337963149429602 0 0 -0.00066671633166114487 0 0 -0.00068338215661927415 0 0 -0.00068338215661927415 0 0 -0.00070004798157755749 0 0 -0.00061671885678920007 0 0 -0.00063338468174629231 0 0 -0.00063338468174629231 0 0 -0.00065005050670335148 0 0 -0.00066671633166114487 0 0 -0.00065005050670335148 0 0 -0.0010000328308418479 0 0 -0.0010166986558106403 0 0 -0.0010000328308418479 0 0 -0.00098336700587843572 0 0 -0.00098336700587843572 0 0 -0.00096670118091719912 0 0 -0.00096670118091719912 0 0 -0.00095003535595634145 0 0 -0.00093336953099601276 0 0 -0.00095003535595634145 0 0 -0.0010333644807915018 0 0 -0.0010166986558106403 0 0 -0.0010333644807915018 0 0 -0.0010500303057995402 0 0 -0.0010500303057995402 0 0 -0.0010666961308674588 0 0 -0.0010666961308674588 0 0 -0.0010833619560661313 0 0 -0.0010833619560661313 0 0 -0.0011000277815511037 0 0 -0.0011000277815511037 0 0 -0.0011166936076632856 0 0 -0.0011166936076632856 0 0 -0.0011333594351496813 0 0 -0.0011666911027420062 0 0 -0.0011500252656471055 0 0 -0.0011500252656471055 0 0 -0.0011333594351496813 0 0 -0.001200022837517513 0 0 -0.0012166887901438976 0 0 -0.001200022837517513 0 0 -0.0011833569542926744 0 0 -0.0011666911027420062 0 0 -0.0011833569542926744 0 0 -0.0012166887901438976 0 0 -0.0012333548948365461 0 0 -0.0012333548948365461 0 0 -0.0012500213327227686 
</DataArray>
</PointData>
<CellData Scalars="" Vectors="" Tensors="effective_stress,">
<DataArray type="Float64" Name="effective_stress" NumberOfComponents="9" format="ascii">
-3333.1649916956044 0 0 0 -3333.1649916956044 0 0 0 -9999.4949750868127 -3333.1649916957258 0 0 0 -3333.1649916957258 0 0 0 -9999.4949750871783 -3333.1649916956267 0 0 0 -3333.1649916956267 0 0 0 -9999.4949750868764 -3333.1649916957012 0 0 0 -3333.1649916957012 0 0 0 -9999.4949750871056 -3333.1649916957749 0 0 0 -3333.1649916957749 0 0 0 -9999.4949750873311 -3333.164991695452 0 0 0 -3333.164991695452 0 0 0 -9999.4949750863525 -3333.1649916955575 0 0 0 -3333.1649916955575 0 0 0 -9999.4949750866799 -3333.1649916952447 0 0 0 -3333.1649916952447 0 0 0 -9999.494975085734 -3333.1649916948336 0 0 0 -3333.1649916948336 0 0 0 -9999.4949750845117 -3333.164991693935 0 0 0 -3333.164991693935 0 0 0 -9999.4949750817905 -3333.1649916919196 0 0 0 -3333.1649916919196 0 0 0 -9999.4949750757805 -3333.164991687554 0 0 0 -3333.164991687554 0 0 0 -9999.4949750626547 -3333.1649916779788 0 0 0 -3333.1649916779788 0 0 0 -9999.4949750339438 -3333.1649916570459 0 0 0 -3333.1649916570459 0 0 0 -9999.4949749711377 -3333.1649916499009 0 0 0 -3333.1649916499009 0 0 0 -9999.4949749497173 -3333.1649916610622 0 0 0 -3333.1649916610622 0 0 0 -9999.4949749831867 -3333.1649916498791 0 0 0 -3333.1649916498791 0 0 0 -9999.49497494963 -3333.164991609141 0 0 0 -3333.164991609141 0 0 0 -9999.494974827423 -3333.1649916111128 0 0 0 -3333.1649916111128 0 0 0 -9999.4949748333311 -3333.1649916138558 0 0 0 -3333.1649916138558 0 0 0 -9999.4949748415384 -3333.1649915611051 0 0 0 -3333.1649915611051 0 0 0 -9999.4949746833299 -3333.1649915611924 0 0 0 -3333.1649915611924 0 0 0 -9999.494974683621 -3333.1649916139431 0 0 0 -3333.1649916139431 0 0 0 -9999.4949748417712 -3333.1649915717135 0 0 0 -3333.1649915717135 0 0 0 -9999.4949747151695 -3333.1649914244481 0 0 0 -3333.1649914244481 0 0 0 -9999.4949742733734 -3333.1649914215814 0 0 0 -3333.1649914215814 0 0 0 -9999.4949742647004 -3333.1649916694732 0 0 0 -3333.1649916694732 0 0 0 -9999.4949750084197 -3333.1649916388997 0 0 0 -3333.1649916388997 0 0 0 -9999.4949749166844 -3333.1649916892202 0 0 0 -3333.1649916892202 0 0 0 -9999.4949750676169 -3333.1649916832539 0 0 0 -3333.1649916832539 0 0 0 -9999.4949750498054 -3333.1649916869064 0 0 0 -3333.1649916869064 0 0 0 -9999.4949750607193 -3333.1649916906317 0 0 0 -3333.1649916906317 0 0 0 -9999.4949750718952 -3333.1649916912866 0 0 0 -3333.1649916912866 0 0 0 -9999.4949750738451 -3333.1649916568276 0 0 0 -3333.1649916568276 0 0 0 -9999.4949749704683 -3333.1649916776514 0 0 0 -3333.1649916776514 0 0 0 -9999.4949750329542 -3333.1649916091192 0 0 0 -3333.1649916091192 0 0 0 -9999.4949748273648 -3333.1649916110327 0 0 0 -3333.1649916110327 0 0 0 -9999.4949748330982 -3333.164991768921 0 0 0 -3333.164991768921 0 0 0 -9999.4949753066758 -3333.164991864207 0 0 0 -3333.164991864207 0 0 0 -9999.4949755927082 -3333.164991690428 0 0 0 -3333.164991690428 0 0 0 -9999.4949750713422 -3333.1649917213363 0 0 0 -3333.1649917213363 0 0 0 -9999.4949751639506 -3333.1649916757015 0 0 0 -3333.1649916757015 0 0 0 -9999.4949750271044 -3333.1649916524766 0 0 0 -3333.1649916524766 0 0 0 -9999.4949749573716 -3333.164991656522 0 0 0 -3333.164991656522 0 0 0 -9999.4949749695952 -3333.1649916910974 0 0 0 -3333.1649916910974 0 0 0 -9999.4949750733795 -3333.1649916862661 0 0 0 -3333.1649916862661 0 0 0 -9999.4949750588275 -3333.1649916934839 0 0 0 -3333.1649916934839 0 0 0 -9999.4949750804226 -3333.1649916930764 0 0 0 -3333.1649916930764 0 0 0 -9999.4949750792584 -3333.1649916835886 0 0 0 -3333.1649916835886 0 0 0 -9999.4949750507949 -3333.1649916899041 0 0 0 -3333.1649916899041 0 0 0 -9999.4949750697124 -3333.1649916925817 0 0 0 -3333.1649916925817 0 0 0 -9999.494975077745 -3333.1649916387687 0 0 0 -3333.1649916387687 0 0 0 -9999.4949749162188 -3333.1649916695605 0 0 0 -3333.1649916695605 0 0 0 -9999.4949750087108 -3333.1649914214649 0 0 0 -3333.1649914214649 0 0 0 -9999.4949742644094 -3333.164991424288 0 0 0 -3333.164991424288 0 0 0 -9999.4949742728495 -3333.1649915716116 0 0 0 -3333.1649915716116 0 0 0 -9999.4949747148203 -3333.1649937615148 0 0 0 -3333.1649937615148 0 0 0 -9999.4949812846025 -3333.164992685488 0 0 0 -3333.164992685488 0 0 0 -9999.4949780564057 -3333.1649922503275 0 0 0 -3333.1649922503275 0 0 0 -9999.4949767510407 -3333.1649921745702 0 0 0 -3333.1649921745702 0 0 0 -9999.4949765236815 -3333.1649920687778 0 0 0 -3333.1649920687778 0 0 0 -9999.4949762063334 -3333.1649961753574 0 0 0 -3333.1649961753574 0 0 0 -9999.4949885259848 -3333.1650016107014 0 0 0 -3333.1650016107014 0 0 0 -9999.4950048320461 -3333.1650135867822 0 0 0 -3333.1650135867822 0 0 0 -9999.4950407603756 -3333.1650397375342 0 0 0 -3333.1650397375342 0 0 0 -9999.4951192125445 -3333.1650969953917 0 0 0 -3333.1650969953917 0 0 0 -9999.4952909861458 -3333.1652224347345 0 0 0 -3333.1652224347345 0 0 0 -9999.4956673042616 -3333.1654972772521 0 0 0 -3333.1654972772521 0 0 0 -9999.4964918318437 -3333.16741897873 0 0 0 -3333.16741897873 0 0 0 -9999.5022569362773 -3333.1660994829435 0 0 0 -3333.1660994829435 0 0 0 -9999.4982984487433 -3333.1905252786528 0 0 0 -3333.1905252786528 0 0 0 -9999.5715758359293 -3333.1766449707793 0 0 0 -3333.1766449707793 0 0 0 -9999.5299349122215 -3333.1703101353487 0 0 0 -3333.1703101353487 0 0 0 -9999.5109304060461 -3333.2209385303722 0 0 0 -3333.2209385303722 0 0 0 -9999.6628155910876 -3333.2875772453554 0 0 0 -3333.2875772453554 0 0 0 -9999.8627317359205 
</DataArray>
</CellData>
</Piece>
</UnstructuredGrid>
</VTKFile>
