<?xml version="1.0"?>
<VTKFile type="UnstructuredGrid" version="0.1" byte_order="LittleEndian">
<UnstructuredGrid>
<Piece NumberOfPoints="150" NumberOfCells="75">
<Points>
<DataArray type="Float64" NumberOfComponents="3" format="ascii">
0 0 -14.79999999999959 0 0 -15 0 0 -14.599999999999181 0 0 -14.79999999999959 0 0 -13.99999999999795 0 0 -14.19999999999836 0 0 -14.19999999999836 0 0 -14.399999999998769 0 0 -14.399999999998769 0 0 -14.599999999999181 0 0 -13.599999999997131 0 0 -13.79999999999754 0 0 -13.79999999999754 0 0 -13.99999999999795 0 0 -13.399999999996719 0 0 -13.599999999997131 0 0 -13.19999999999632 0 0 -13.399999999996719 0 0 -12.9999999999959 0 0 -13.19999999999632 0 0 -12.799999999995491 0 0 -12.9999999999959 0 0 -12.599999999995079 0 0 -12.799999999995491 0 0 -12.39999999999468 0 0 -12.599999999995079 0 0 -12.199999999994271 0 0 -12.39999999999468 0 0 -11.199999999992221 0 0 -11.39999999999263 0 0 -11.39999999999263 0 0 -11.599999999993029 0 0 -11.599999999993029 0 0 -11.79999999999345 0 0 -11.79999999999345 0 0 -11.999999999993859 0 0 -11.999999999993859 0 0 -12.199999999994271 0 0 -7.7999999999852516 0 0 -7.999999999985663 0 0 -7.5999999999848704 0 0 -7.7999999999852516 0 0 -8.1999999999860727 0 0 -8.3999999999864823 0 0 -7.999999999985663 0 0 -8.1999999999860727 0 0 -8.7999999999873015 0 0 -8.9999999999877112 0 0 -8.5999999999868919 0 0 -8.7999999999873015 0 0 -8.3999999999864823 0 0 -8.5999999999868919 0 0 -9.1999999999881208 0 0 -9.3999999999885304 0 0 -8.9999999999877112 0 0 -9.1999999999881208 0 0 -9.5999999999889383 0 0 -9.7999999999893497 0 0 -9.3999999999885304 0 0 -9.5999999999889383 0 0 -10.199999999990171 0 0 -10.39999999999058 0 0 -9.9999999999897593 0 0 -10.199999999990171 0 0 -9.7999999999893497 0 0 -9.9999999999897593 0 0 -10.59999999999099 0 0 -10.7999999999914 0 0 -10.39999999999058 0 0 -10.59999999999099 0 0 -10.999999999991809 0 0 -11.199999999992221 0 0 -10.7999999999914 0 0 -10.999999999991809 0 0 -3.9999999999980309 0 0 -4.1999999999974076 0 0 -3.7999999999982368 0 0 -3.9999999999980309 0 0 -4.3999999999966333 0 0 -4.5999999999958598 0 0 -4.1999999999974076 0 0 -4.3999999999966333 0 0 -4.999999999994313 0 0 -5.1999999999935387 0 0 -4.7999999999950864 0 0 -4.999999999994313 0 0 -4.5999999999958598 0 0 -4.7999999999950864 0 0 -5.3999999999927626 0 0 -5.5999999999919901 0 0 -5.1999999999935387 0 0 -5.3999999999927626 0 0 -5.7999999999912157 0 0 -5.9999999999904432 0 0 -5.5999999999919901 0 0 -5.7999999999912157 0 0 -6.3999999999888946 0 0 -6.5999999999881211 0 0 -6.1999999999896689 0 0 -6.3999999999888946 0 0 -5.9999999999904432 0 0 -6.1999999999896689 0 0 -6.7999999999873468 0 0 -6.9999999999865734 0 0 -6.5999999999881211 0 0 -6.7999999999873468 0 0 -7.3999999999850514 0 0 -7.5999999999848704 0 0 -7.1999999999857982 0 0 -7.3999999999850514 0 0 -6.9999999999865734 0 0 -7.1999999999857982 0 0 -2.7999999999991472 0 0 -2.9999999999989648 0 0 -2.9999999999989648 0 0 -3.1999999999987829 0 0 -3.1999999999987829 0 0 -3.399999999998601 0 0 -3.399999999998601 0 0 -3.5999999999984191 0 0 -3.5999999999984191 0 0 -3.7999999999982368 0 0 -2.59999999999933 0 0 -2.7999999999991472 0 0 -2.399999999999511 0 0 -2.59999999999933 0 0 -2.1999999999996942 0 0 -2.399999999999511 0 0 -1.9999999999998761 0 0 -2.1999999999996942 0 0 -1.799999999999931 0 0 -1.9999999999998761 0 0 -1.5999999999998329 0 0 -1.799999999999931 0 0 -1.399999999999719 0 0 -1.5999999999998329 0 0 -0.99999999999952105 0 0 -1.1999999999996049 0 0 -1.1999999999996049 0 0 -1.399999999999719 0 0 -0.39999999999991032 0 0 -0.59999999999980536 0 0 -0.59999999999980536 0 0 -0.79999999999962335 0 0 -0.79999999999962335 0 0 -0.99999999999952105 0 0 -0.1999999999999503 0 0 -0.39999999999991032 0 0 0 0 0 -0.1999999999999503 
</DataArray>
</Points>
<Cells>
<DataArray type="UInt32" Name="connectivity" format="ascii">
0 1 2 3 4 5 6 7 8 9 10 11 12 13 14 15 16 17 18 19 20 21 22 23 24 25 26 27 28 29 30 31 32 33 34 35 36 37 38 39 40 41 42 43 44 45 46 47 48 49 50 51 52 53 54 55 56 57 58 59 60 61 62 63 64 65 66 67 68 69 70 71 72 73 74 75 76 77 78 79 80 81 82 83 84 85 86 87 88 89 90 91 92 93 94 95 96 97 98 99 100 101 102 103 104 105 106 107 108 109 110 111 112 113 114 115 116 117 118 119 120 121 122 123 124 125 126 127 128 129 130 131 132 133 134 135 136 137 138 139 140 141 142 143 144 145 146 147 148 149 
</DataArray>
<DataArray type="UInt32" Name="offsets" format="ascii">
2 4 6 8 10 12 14 16 18 20 22 24 26 28 30 32 34 36 38 40 42 44 46 48 50 52 54 56 58 60 62 64 66 68 70 72 74 76 78 80 82 84 86 88 90 92 94 96 98 100 102 104 106 108 110 112 114 116 118 120 122 124 126 128 130 132 134 136 138 140 142 144 146 148 150 
</DataArray>
<DataArray type="UInt32" Name="types" format="ascii">
3 3 3 3 3 3 3 3 3 3 3 3 3 3 3 3 3 3 3 3 3 3 3 3 3 3 3 3 3 3 3 3 3 3 3 3 3 3 3 3 3 3 3 3 3 3 3 3 3 3 3 3 3 3 3 3 3 3 3 3 3 3 3 3 3 3 3 3 3 3 3 3 3 3 3 
</DataArray>
</Cells>
<PointData Scalars="" Vectors="displacement," Tensors="">
<DataArray type="Float64" Name="displacement" NumberOfComponents="3" format="ascii">
0 0 -1.6749158291960026e-05 0 0 -8.3333333333329633e-08 0 0 -3.3414983250586726e-05 0 0 -1.6749158291960026e-05 0 0 -8.341245812646727e-05 0 0 -6.6746633167840357e-05 0 0 -6.6746633167840357e-05 0 0 -5.0080808209213593e-05 0 0 -5.0080808209213593e-05 0 0 -3.3414983250586726e-05 0 0 -0.00011674410804372255 0 0 -0.00010007828308509455 0 0 -0.00010007828308509455 0 0 -8.341245812646727e-05 0 0 -0.00013340993300235235 0 0 -0.00011674410804372255 0 0 -0.0001500757579609848 0 0 -0.00013340993300235235 0 0 -0.00016674158291962713 0 0 -0.0001500757579609848 0 0 -0.00018340740787828623 0 0 -0.00016674158291962713 0 0 -0.00020007323283698412 0 0 -0.00018340740787828623 0 0 -0.00021673905779576587 0 0 -0.00020007323283698412 0 0 -0.00023340488275473462 0 0 -0.00021673905779576587 0 0 -0.00031673400754836953 0 0 -0.00030006818259059853 0 0 -0.00030006818259059853 0 0 -0.00028340235763223322 0 0 -0.00028340235763223322 0 0 -0.00026673653267343916 0 0 -0.00026673653267343916 0 0 -0.00025007070771411102 0 0 -0.00025007070771411102 0 0 -0.00023340488275473462 0 0 -0.00060005303182237972 0 0 -0.00058338720686413367 0 0 -0.00061671885678056483 0 0 -0.00060005303182237972 0 0 -0.00056672138190607454 0 0 -0.00055005555694856943 0 0 -0.00058338720686413367 0 0 -0.00056672138190607454 0 0 -0.00051672390703361875 0 0 -0.00050005808207651513 0 0 -0.00053338973199119628 0 0 -0.00051672390703361875 0 0 -0.00055005555694856943 0 0 -0.00053338973199119628 0 0 -0.00048339225711944251 0 0 -0.0004667264321617622 0 0 -0.00050005808207651513 0 0 -0.00048339225711944251 0 0 -0.00045006060720365542 0 0 -0.00043339478224502616 0 0 -0.0004667264321617622 0 0 -0.00045006060720365542 0 0 -0.00040006313232841519 0 0 -0.00038339730737096896 0 0 -0.00041672895728642379 0 0 -0.00040006313232841519 0 0 -0.00043339478224502616 0 0 -0.00041672895728642379 0 0 -0.0003667314824144179 0 0 -0.00035006565745967426 0 0 -0.00038339730737096896 0 0 -0.0003667314824144179 0 0 -0.0003333998325049915 0 0 -0.00031673400754836953 0 0 -0.00035006565745967426 0 0 -0.0003333998325049915 0 0 -0.00091670370602006061 0 0 -0.00090003788106313338 0 0 -0.00093336953097522915 0 0 -0.00091670370602006061 0 0 -0.00088337205610541859 0 0 -0.00086670623114716312 0 0 -0.00090003788106313338 0 0 -0.00088337205610541859 0 0 -0.00083337458123074637 0 0 -0.00081670875627283545 0 0 -0.00085004040618881158 0 0 -0.00083337458123074637 0 0 -0.00086670623114716312 0 0 -0.00085004040618881158 0 0 -0.00080004293131504618 0 0 -0.00078337710635742377 0 0 -0.00081670875627283545 0 0 -0.00080004293131504618 0 0 -0.0007667112814001239 0 0 -0.00075004545644350969 0 0 -0.00078337710635742377 0 0 -0.0007667112814001239 0 0 -0.00071671380652899908 0 0 -0.00070004798157086514 0 0 -0.00073337963148672092 0 0 -0.00071671380652899908 0 0 -0.00075004545644350969 0 0 -0.00073337963148672092 0 0 -0.00068338215661257421 0 0 -0.00066671633165427894 0 0 -0.00070004798157086514 0 0 -0.00068338215661257421 0 0 -0.00063338468173836137 0 0 -0.00061671885678056483 0 0 -0.00065005050669612776 0 0 -0.00063338468173836137 0 0 -0.00066671633165427894 0 0 -0.00065005050669612776 0 0 -0.001016698655774452 0 0 -0.0010000328308007475 0 0 -0.0010000328308007475 0 0 -0.00098336700583659983 0 0 -0.00098336700583659983 0 0 -0.0009667011808784029 0 0 -0.0009667011808784029 0 0 -0.00095003535592640121 0 0 -0.00095003535592640121 0 0 -0.00093336953097522915 0 0 -0.0010333644807675093 0 0 -0.001016698655774452 0 0 -0.001050030305787967 0 0 -0.0010333644807675093 0 0 -0.0010666961308616158 0 0 -0.001050030305787967 0 0 -0.0010833619560629655 0 0 -0.0010666961308616158 0 0 -0.0011000277815492222 0 0 -0.0010833619560629655 0 0 -0.0011166936076620517 0 0 -0.0011000277815492222 0 0 -0.0011333594351488052 0 0 -0.0011166936076620517 0 0 -0.0011666911027415183 0 0 -0.0011500252656464539 0 0 -0.0011500252656464539 0 0 -0.0011333594351488052 0 0 -0.0012166887901437632 0 0 -0.0012000228375172765 0 0 -0.0012000228375172765 0 0 -0.0011833569542923205 0 0 -0.0011833569542923205 0 0 -0.0011666911027415183 0 0 -0.0012333548948364899 0 0 -0.0012166887901437632 0 0 -0.0012500213327227441 0 0 -0.0012333548948364899 
</DataArray>
</PointData>
<CellData Scalars="" Vectors="" Tensors="stress,">
<DataArray type="Float64" Name="stress" NumberOfComponents="9" format="ascii">
-3333.1649917185123 0 0 0 -3333.1649917185123 0 0 0 -9999.4949751555378 -3333.1649917185127 0 0 0 -3333.1649917185127 0 0 0 -9999.4949751555378 -3333.164991718555 0 0 0 -3333.164991718555 0 0 0 -9999.4949751556633 -3333.1649917185259 0 0 0 -3333.1649917185259 0 0 0 -9999.494975155576 -3333.1649917185177 0 0 0 -3333.1649917185177 0 0 0 -9999.4949751555505 -3333.1649917187715 0 0 0 -3333.1649917187715 0 0 0 -9999.4949751563181 -3333.1649917186296 0 0 0 -3333.1649917186296 0 0 0 -9999.4949751558888 -3333.1649917191025 0 0 0 -3333.1649917191025 0 0 0 -9999.4949751573149 -3333.1649917198411 0 0 0 -3333.1649917198411 0 0 0 -9999.4949751595268 -3333.16499172146 0 0 0 -3333.16499172146 0 0 0 -9999.4949751643871 -3333.1649917249961 0 0 0 -3333.1649917249961 0 0 0 -9999.4949751749809 -3333.1649917327231 0 0 0 -3333.1649917327231 0 0 0 -9999.4949751981621 -3333.1649917496979 0 0 0 -3333.1649917496979 0 0 0 -9999.4949752491084 -3333.164991786929 0 0 0 -3333.164991786929 0 0 0 -9999.4949753607652 -3333.1649915473681 0 0 0 -3333.1649915473681 0 0 0 -9999.4949746421189 -3333.1649916664173 0 0 0 -3333.1649916664173 0 0 0 -9999.494974999252 -3333.164991751808 0 0 0 -3333.164991751808 0 0 0 -9999.4949752554239 -3333.1649918588009 0 0 0 -3333.1649918588009 0 0 0 -9999.4949755764101 -3333.164991868427 0 0 0 -3333.164991868427 0 0 0 -9999.4949756052811 -3333.1649916423485 0 0 0 -3333.1649916423485 0 0 0 -9999.4949749271036 -3333.1649916306778 0 0 0 -3333.1649916306778 0 0 0 -9999.4949748920044 -3333.1649914941954 0 0 0 -3333.1649914941954 0 0 0 -9999.4949744825717 -3333.1649916049937 0 0 0 -3333.1649916049937 0 0 0 -9999.4949748149957 -3333.164991413898 0 0 0 -3333.164991413898 0 0 0 -9999.4949742417084 -3333.1649915086891 0 0 0 -3333.1649915086891 0 0 0 -9999.4949745260528 -3333.1649914677982 0 0 0 -3333.1649914677982 0 0 0 -9999.4949744034093 -3333.1649915292364 0 0 0 -3333.1649915292364 0 0 0 -9999.4949745876947 -3333.1649914076843 0 0 0 -3333.1649914076843 0 0 0 -9999.494974223082 -3333.1649917189934 0 0 0 -3333.1649917189934 0 0 0 -9999.4949751569657 -3333.1649916145543 0 0 0 -3333.1649916145543 0 0 0 -9999.494974843692 -3333.1649914824229 0 0 0 -3333.1649914824229 0 0 0 -9999.4949744472397 -3333.1649915948656 0 0 0 -3333.1649915948656 0 0 0 -9999.4949747846113 -3333.1649917136383 0 0 0 -3333.1649917136383 0 0 0 -9999.4949751409295 -3333.164990941892 0 0 0 -3333.164990941892 0 0 0 -9999.4949728257197 -3333.1649913033907 0 0 0 -3333.1649913033907 0 0 0 -9999.4949739101576 -3333.1649913175424 0 0 0 -3333.1649913175424 0 0 0 -9999.4949739526201 -3333.1649909297266 0 0 0 -3333.1649909297266 0 0 0 -9999.4949727891653 -3333.164991395839 0 0 0 -3333.164991395839 0 0 0 -9999.4949741874589 -3333.1649910371634 0 0 0 -3333.1649910371634 0 0 0 -9999.494973111432 -3333.1649916639726 0 0 0 -3333.1649916639726 0 0 0 -9999.4949749920052 -3333.1649915558519 0 0 0 -3333.1649915558519 0 0 0 -9999.4949746675557 -3333.1649915950838 0 0 0 -3333.1649915950838 0 0 0 -9999.4949747852515 -3333.1649916259048 0 0 0 -3333.1649916259048 0 0 0 -9999.4949748778017 -3333.1649916832102 0 0 0 -3333.1649916832102 0 0 0 -9999.4949750495725 -3333.164991537371 0 0 0 -3333.164991537371 0 0 0 -9999.4949746120838 -3333.1649915707821 0 0 0 -3333.1649915707821 0 0 0 -9999.4949747123173 -3333.1649913357105 0 0 0 -3333.1649913357105 0 0 0 -9999.4949740071315 -3333.1649914728769 0 0 0 -3333.1649914728769 0 0 0 -9999.4949744186597 -3333.1649916396709 0 0 0 -3333.1649916396709 0 0 0 -9999.4949749190127 -3333.164991557278 0 0 0 -3333.164991557278 0 0 0 -9999.4949746718048 -3333.1649913706642 0 0 0 -3333.1649913706642 0 0 0 -9999.4949741119635 -3333.1649916719471 0 0 0 -3333.1649916719471 0 0 0 -9999.4949750158121 -3333.1649916711031 0 0 0 -3333.1649916711031 0 0 0 -9999.4949750133092 -3333.1649915623275 0 0 0 -3333.1649915623275 0 0 0 -9999.4949746869388 -3333.1649915657326 0 0 0 -3333.1649915657326 0 0 0 -9999.4949746971834 -3333.1649916431488 0 0 0 -3333.1649916431488 0 0 0 -9999.4949749294319 -3333.1649947439437 0 0 0 -3333.1649947439437 0 0 0 -9999.4949842317728 -3333.1649928325787 0 0 0 -3333.1649928325787 0 0 0 -9999.4949784977362 -3333.1649916424067 0 0 0 -3333.1649916424067 0 0 0 -9999.4949749272782 -3333.1649904033693 0 0 0 -3333.1649904033693 0 0 0 -9999.494971210137 -3333.1649902374775 0 0 0 -3333.1649902374775 0 0 0 -9999.4949707123451 -3333.1649986144912 0 0 0 -3333.1649986144912 0 0 0 -9999.4949958435027 -3333.1650040945387 0 0 0 -3333.1650040945387 0 0 0 -9999.4950122836744 -3333.1650147328328 0 0 0 -3333.1650147328328 0 0 0 -9999.4950441984693 -3333.1650402729865 0 0 0 -3333.1650402729865 0 0 0 -9999.4951208188431 -3333.1650972522621 0 0 0 -3333.1650972522621 0 0 0 -9999.4952917568153 -3333.1652225642756 0 0 0 -3333.1652225642756 0 0 0 -9999.4956676928559 -3333.1654973488185 0 0 0 -3333.1654973488185 0 0 0 -9999.4964920465136 -3333.1674190114718 0 0 0 -3333.1674190114718 0 0 0 -9999.5022570344154 -3333.1660995278216 0 0 0 -3333.1660995278216 0 0 0 -9999.4982985834358 -3333.1905252991128 0 0 0 -3333.1905252991128 0 0 0 -9999.5715758972801 -3333.1766449942079 0 0 0 -3333.1766449942079 0 0 0 -9999.5299349826528 -3333.1703101621533 0 0 0 -3333.1703101621533 0 0 0 -9999.5109304864891 -3333.220938546001 0 0 0 -3333.220938546001 0 0 0 -9999.6628156381194 -3333.2875772516709 0 0 0 -3333.2875772516709 0 0 0 -9999.8627317550126 
</DataArray>
</CellData>
</Piece>
</UnstructuredGrid>
</VTKFile>
