<?xml version="1.0"?>
<VTKFile type="UnstructuredGrid" version="0.1" byte_order="LittleEndian">
<UnstructuredGrid>
<Piece NumberOfPoints="150" NumberOfCells="75">
<Points>
<DataArray type="Float64" NumberOfComponents="3" format="ascii">
0 0 -14.79999999999959 0 0 -15 0 0 -14.599999999999181 0 0 -14.79999999999959 0 0 -13.99999999999795 0 0 -14.19999999999836 0 0 -14.19999999999836 0 0 -14.399999999998769 0 0 -14.399999999998769 0 0 -14.599999999999181 0 0 -13.599999999997131 0 0 -13.79999999999754 0 0 -13.79999999999754 0 0 -13.99999999999795 0 0 -13.399999999996719 0 0 -13.599999999997131 0 0 -13.19999999999632 0 0 -13.399999999996719 0 0 -12.9999999999959 0 0 -13.19999999999632 0 0 -12.799999999995491 0 0 -12.9999999999959 0 0 -12.599999999995079 0 0 -12.799999999995491 0 0 -12.39999999999468 0 0 -12.599999999995079 0 0 -12.199999999994271 0 0 -12.39999999999468 0 0 -11.199999999992221 0 0 -11.39999999999263 0 0 -11.39999999999263 0 0 -11.599999999993029 0 0 -11.599999999993029 0 0 -11.79999999999345 0 0 -11.79999999999345 0 0 -11.999999999993859 0 0 -11.999999999993859 0 0 -12.199999999994271 0 0 -7.7999999999852516 0 0 -7.999999999985663 0 0 -7.5999999999848704 0 0 -7.7999999999852516 0 0 -8.1999999999860727 0 0 -8.3999999999864823 0 0 -7.999999999985663 0 0 -8.1999999999860727 0 0 -8.7999999999873015 0 0 -8.9999999999877112 0 0 -8.5999999999868919 0 0 -8.7999999999873015 0 0 -8.3999999999864823 0 0 -8.5999999999868919 0 0 -9.1999999999881208 0 0 -9.3999999999885304 0 0 -8.9999999999877112 0 0 -9.1999999999881208 0 0 -9.5999999999889383 0 0 -9.7999999999893497 0 0 -9.3999999999885304 0 0 -9.5999999999889383 0 0 -10.199999999990171 0 0 -10.39999999999058 0 0 -9.9999999999897593 0 0 -10.199999999990171 0 0 -9.7999999999893497 0 0 -9.9999999999897593 0 0 -10.59999999999099 0 0 -10.7999999999914 0 0 -10.39999999999058 0 0 -10.59999999999099 0 0 -10.999999999991809 0 0 -11.199999999992221 0 0 -10.7999999999914 0 0 -10.999999999991809 0 0 -3.9999999999980309 0 0 -4.1999999999974076 0 0 -3.7999999999982368 0 0 -3.9999999999980309 0 0 -4.3999999999966333 0 0 -4.5999999999958598 0 0 -4.1999999999974076 0 0 -4.3999999999966333 0 0 -4.999999999994313 0 0 -5.1999999999935387 0 0 -4.7999999999950864 0 0 -4.999999999994313 0 0 -4.5999999999958598 0 0 -4.7999999999950864 0 0 -5.3999999999927626 0 0 -5.5999999999919901 0 0 -5.1999999999935387 0 0 -5.3999999999927626 0 0 -5.7999999999912157 0 0 -5.9999999999904432 0 0 -5.5999999999919901 0 0 -5.7999999999912157 0 0 -6.3999999999888946 0 0 -6.5999999999881211 0 0 -6.1999999999896689 0 0 -6.3999999999888946 0 0 -5.9999999999904432 0 0 -6.1999999999896689 0 0 -6.7999999999873468 0 0 -6.9999999999865734 0 0 -6.5999999999881211 0 0 -6.7999999999873468 0 0 -7.3999999999850514 0 0 -7.5999999999848704 0 0 -7.1999999999857982 0 0 -7.3999999999850514 0 0 -6.9999999999865734 0 0 -7.1999999999857982 0 0 -2.7999999999991472 0 0 -2.9999999999989648 0 0 -2.9999999999989648 0 0 -3.1999999999987829 0 0 -3.1999999999987829 0 0 -3.399999999998601 0 0 -3.399999999998601 0 0 -3.5999999999984191 0 0 -3.5999999999984191 0 0 -3.7999999999982368 0 0 -2.59999999999933 0 0 -2.7999999999991472 0 0 -2.399999999999511 0 0 -2.59999999999933 0 0 -2.1999999999996942 0 0 -2.399999999999511 0 0 -1.9999999999998761 0 0 -2.1999999999996942 0 0 -1.799999999999931 0 0 -1.9999999999998761 0 0 -1.5999999999998329 0 0 -1.799999999999931 0 0 -1.399999999999719 0 0 -1.5999999999998329 0 0 -0.99999999999952105 0 0 -1.1999999999996049 0 0 -1.1999999999996049 0 0 -1.399999999999719 0 0 -0.39999999999991032 0 0 -0.59999999999980536 0 0 -0.59999999999980536 0 0 -0.79999999999962335 0 0 -0.79999999999962335 0 0 -0.99999999999952105 0 0 -0.1999999999999503 0 0 -0.39999999999991032 0 0 0 0 0 -0.1999999999999503 
</DataArray>
</Points>
<Cells>
<DataArray type="UInt32" Name="connectivity" format="ascii">
0 1 2 3 4 5 6 7 8 9 10 11 12 13 14 15 16 17 18 19 20 21 22 23 24 25 26 27 28 29 30 31 32 33 34 35 36 37 38 39 40 41 42 43 44 45 46 47 48 49 50 51 52 53 54 55 56 57 58 59 60 61 62 63 64 65 66 67 68 69 70 71 72 73 74 75 76 77 78 79 80 81 82 83 84 85 86 87 88 89 90 91 92 93 94 95 96 97 98 99 100 101 102 103 104 105 106 107 108 109 110 111 112 113 114 115 116 117 118 119 120 121 122 123 124 125 126 127 128 129 130 131 132 133 134 135 136 137 138 139 140 141 142 143 144 145 146 147 148 149 
</DataArray>
<DataArray type="UInt32" Name="offsets" format="ascii">
2 4 6 8 10 12 14 16 18 20 22 24 26 28 30 32 34 36 38 40 42 44 46 48 50 52 54 56 58 60 62 64 66 68 70 72 74 76 78 80 82 84 86 88 90 92 94 96 98 100 102 104 106 108 110 112 114 116 118 120 122 124 126 128 130 132 134 136 138 140 142 144 146 148 150 
</DataArray>
<DataArray type="UInt32" Name="types" format="ascii">
3 3 3 3 3 3 3 3 3 3 3 3 3 3 3 3 3 3 3 3 3 3 3 3 3 3 3 3 3 3 3 3 3 3 3 3 3 3 3 3 3 3 3 3 3 3 3 3 3 3 3 3 3 3 3 3 3 3 3 3 3 3 3 3 3 3 3 3 3 3 3 3 3 3 3 
</DataArray>
</Cells>
<PointData Scalars="" Vectors="displacement," Tensors="">
<DataArray type="Float64" Name="displacement" NumberOfComponents="3" format="ascii">
0 0 -1.6749158291702298e-05 0 0 -8.3333333333330308e-08 0 0 -3.3414983250071263e-05 0 0 -1.6749158291702298e-05 0 0 -8.3412458125178303e-05 0 0 -6.6746633166809335e-05 0 0 -6.6746633166809335e-05 0 0 -5.008080820844038e-05 0 0 -5.008080820844038e-05 0 0 -3.3414983250071263e-05 0 0 -0.00011674410804191623 0 0 -0.00010007828308354728 0 0 -0.00010007828308354728 0 0 -8.3412458125178303e-05 0 0 -0.00013340993300028534 0 0 -0.00011674410804191623 0 0 -0.00015007575795865347 0 0 -0.00013340993300028534 0 0 -0.00016674158291702339 0 0 -0.00015007575795865347 0 0 -0.00018340740787539247 0 0 -0.00016674158291702339 0 0 -0.00020007323283376168 0 0 -0.00018340740787539247 0 0 -0.00021673905779212986 0 0 -0.00020007323283376168 0 0 -0.00023340488275049899 0 0 -0.00021673905779212986 0 0 -0.00031673400754234467 0 0 -0.00030006818258397551 0 0 -0.00030006818258397551 0 0 -0.00028340235762560728 0 0 -0.00028340235762560728 0 0 -0.00026673653266723736 0 0 -0.00026673653266723736 0 0 -0.00025007070770886826 0 0 -0.00025007070770886826 0 0 -0.00023340488275049899 0 0 -0.0006000530318346222 0 0 -0.00058338720687625266 0 0 -0.00061671885679298914 0 0 -0.0006000530318346222 0 0 -0.00056672138191788345 0 0 -0.00055005555695951413 0 0 -0.00058338720687625266 0 0 -0.00056672138191788345 0 0 -0.0005167239070427756 0 0 -0.00050005808208440628 0 0 -0.00053338973200114492 0 0 -0.0005167239070427756 0 0 -0.00055005555695951413 0 0 -0.00053338973200114492 0 0 -0.00048339225712603707 0 0 -0.00046672643216766774 0 0 -0.00050005808208440628 0 0 -0.00048339225712603707 0 0 -0.00045006060720929869 0 0 -0.00043339478225092943 0 0 -0.00046672643216766774 0 0 -0.00045006060720929869 0 0 -0.00040006313233419084 0 0 -0.00038339730737582163 0 0 -0.00041672895729256016 0 0 -0.00040006313233419084 0 0 -0.00043339478225092943 0 0 -0.00041672895729256016 0 0 -0.00036673148241745242 0 0 -0.00035006565745908326 0 0 -0.00038339730737582163 0 0 -0.00036673148241745242 0 0 -0.0003333998325007141 0 0 -0.00031673400754234467 0 0 -0.00035006565745908326 0 0 -0.0003333998325007141 0 0 -0.00091670370604192127 0 0 -0.00090003788108363857 0 0 -0.00093336953100023876 0 0 -0.00091670370604192127 0 0 -0.00088337205612536824 0 0 -0.00086670623116709812 0 0 -0.00090003788108363857 0 0 -0.00088337205612536824 0 0 -0.00083337458125055757 0 0 -0.00081670875629228756 0 0 -0.00085004040620882779 0 0 -0.00083337458125055757 0 0 -0.00086670623116709812 0 0 -0.00085004040620882779 0 0 -0.00080004293133401766 0 0 -0.00078337710637574722 0 0 -0.00081670875629228756 0 0 -0.00080004293133401766 0 0 -0.00076671128141747689 0 0 -0.00075004545645920612 0 0 -0.00078337710637574722 0 0 -0.00076671128141747689 0 0 -0.00071671380654266448 0 0 -0.0007000479815843936 0 0 -0.00073337963150093535 0 0 -0.00071671380654266448 0 0 -0.00075004545645920612 0 0 -0.00073337963150093535 0 0 -0.00068338215662612294 0 0 -0.00066671633166785239 0 0 -0.0007000479815843936 0 0 -0.00068338215662612294 0 0 -0.00063338468175130923 0 0 -0.00061671885679298914 0 0 -0.00065005050670958195 0 0 -0.00063338468175130923 0 0 -0.00066671633166785239 0 0 -0.00065005050670958195 0 0 -0.001016698655791837 0 0 -0.0010000328308335175 0 0 -0.0010000328308335175 0 0 -0.00098336700587519765 0 0 -0.00098336700587519765 0 0 -0.00096670118091687809 0 0 -0.00096670118091687809 0 0 -0.00095003535595855843 0 0 -0.00095003535595855843 0 0 -0.00093336953100023876 0 0 -0.0010333644807501566 0 0 -0.001016698655791837 0 0 -0.0010500303057084765 0 0 -0.0010333644807501566 0 0 -0.0010666961306667964 0 0 -0.0010500303057084765 0 0 -0.0010833619556251167 0 0 -0.0010666961306667964 0 0 -0.001100027780583447 0 0 -0.0010833619556251167 0 0 -0.0011166936055417901 0 0 -0.001100027780583447 0 0 -0.0011333594305001345 0 0 -0.0011166936055417901 0 0 -0.0011666910804168209 0 0 -0.0011500252554584791 0 0 -0.0011500252554584791 0 0 -0.0011333594305001345 0 0 -0.0012166885552917939 0 0 -0.0012000227303334673 0 0 -0.0012000227303334673 0 0 -0.0011833569053751475 0 0 -0.0011833569053751475 0 0 -0.0011666910804168209 0 0 -0.0012333543802501262 0 0 -0.0012166885552917939 0 0 -0.0012500202052084573 0 0 -0.0012333543802501262 
</DataArray>
</PointData>
<CellData Scalars="" Vectors="" Tensors="stress,">
<DataArray type="Float64" Name="stress" NumberOfComponents="9" format="ascii">
-3333.1649916669667 0 0 0 -3333.1649916669667 0 0 0 -9999.4949750008982 -3333.1649916669662 0 0 0 -3333.1649916669662 0 0 0 -9999.4949750009 -3333.1649916669685 0 0 0 -3333.1649916669685 0 0 0 -9999.4949750009037 -3333.1649916669649 0 0 0 -3333.1649916669649 0 0 0 -9999.4949750008891 -3333.1649916669676 0 0 0 -3333.1649916669676 0 0 0 -9999.4949750009037 -3333.164991666963 0 0 0 -3333.164991666963 0 0 0 -9999.4949750008745 -3333.1649916669667 0 0 0 -3333.1649916669667 0 0 0 -9999.4949750009109 -3333.1649916669703 0 0 0 -3333.1649916669703 0 0 0 -9999.4949750009109 -3333.1649916669776 0 0 0 -3333.1649916669776 0 0 0 -9999.4949750009255 -3333.1649916669776 0 0 0 -3333.1649916669776 0 0 0 -9999.49497500094 -3333.1649916669921 0 0 0 -3333.1649916669921 0 0 0 -9999.4949750009546 -3333.1649916669849 0 0 0 -3333.1649916669849 0 0 0 -9999.4949750009691 -3333.1649916669849 0 0 0 -3333.1649916669849 0 0 0 -9999.4949750009546 -3333.1649916669994 0 0 0 -3333.1649916669994 0 0 0 -9999.4949750009837 -3333.1649916669994 0 0 0 -3333.1649916669994 0 0 0 -9999.4949750010273 -3333.1649916669994 0 0 0 -3333.1649916669994 0 0 0 -9999.4949750009982 -3333.1649916669776 0 0 0 -3333.1649916669776 0 0 0 -9999.49497500094 -3333.1649916669994 0 0 0 -3333.1649916669994 0 0 0 -9999.4949750009691 -3333.1649916669994 0 0 0 -3333.1649916669994 0 0 0 -9999.4949750009982 -3333.1649916670576 0 0 0 -3333.1649916670576 0 0 0 -9999.4949750011438 -3333.1649916670285 0 0 0 -3333.1649916670285 0 0 0 -9999.4949750011438 -3333.1649916670431 0 0 0 -3333.1649916670431 0 0 0 -9999.4949750010855 -3333.164991667014 0 0 0 -3333.164991667014 0 0 0 -9999.4949750010855 -3333.1649916670285 0 0 0 -3333.1649916670285 0 0 0 -9999.4949750010855 -3333.1649916670431 0 0 0 -3333.1649916670431 0 0 0 -9999.4949750011438 -3333.164991667014 0 0 0 -3333.164991667014 0 0 0 -9999.4949750010273 -3333.1649916670285 0 0 0 -3333.1649916670285 0 0 0 -9999.4949750010855 -3333.1649916670285 0 0 0 -3333.1649916670285 0 0 0 -9999.4949750010855 -3333.1649916669994 0 0 0 -3333.1649916669994 0 0 0 -9999.4949750009982 -3333.164991667014 0 0 0 -3333.164991667014 0 0 0 -9999.4949750010273 -3333.164991667014 0 0 0 -3333.164991667014 0 0 0 -9999.4949750010564 -3333.164991667014 0 0 0 -3333.164991667014 0 0 0 -9999.4949750010273 -3333.1649916670285 0 0 0 -3333.1649916670285 0 0 0 -9999.4949750010855 -3333.1649916669994 0 0 0 -3333.1649916669994 0 0 0 -9999.4949750010273 -3333.1649916670285 0 0 0 -3333.1649916670285 0 0 0 -9999.4949750010273 -3333.1649916670212 0 0 0 -3333.1649916670212 0 0 0 -9999.4949750010855 -3333.1649916669994 0 0 0 -3333.1649916669994 0 0 0 -9999.4949750009982 -3333.1649916669121 0 0 0 -3333.1649916669121 0 0 0 -9999.4949750008527 -3333.1649916669121 0 0 0 -3333.1649916669121 0 0 0 -9999.4949750007363 -3333.1649916669121 0 0 0 -3333.1649916669121 0 0 0 -9999.4949750006781 -3333.1649916669703 0 0 0 -3333.1649916669703 0 0 0 -9999.4949750009691 -3333.1649916669121 0 0 0 -3333.1649916669121 0 0 0 -9999.4949750007363 -3333.1649916669412 0 0 0 -3333.1649916669412 0 0 0 -9999.4949750007945 -3333.1649916669412 0 0 0 -3333.1649916669412 0 0 0 -9999.4949750009109 -3333.1649916669703 0 0 0 -3333.1649916669703 0 0 0 -9999.4949750008527 -3333.1649916669121 0 0 0 -3333.1649916669121 0 0 0 -9999.4949750007363 -3333.1649916670285 0 0 0 -3333.1649916670285 0 0 0 -9999.4949750010855 -3333.1649916669703 0 0 0 -3333.1649916669703 0 0 0 -9999.4949750009109 -3333.1649916670576 0 0 0 -3333.1649916670576 0 0 0 -9999.494975001202 -3333.1649916670867 0 0 0 -3333.1649916670867 0 0 0 -9999.494975001202 -3333.1649916670576 0 0 0 -3333.1649916670576 0 0 0 -9999.494975001202 -3333.1649916669994 0 0 0 -3333.1649916669994 0 0 0 -9999.4949750010273 -3333.1649916670285 0 0 0 -3333.1649916670285 0 0 0 -9999.4949750010855 -3333.1649916670431 0 0 0 -3333.1649916670431 0 0 0 -9999.4949750011438 -3333.1649916669994 0 0 0 -3333.1649916669994 0 0 0 -9999.4949750009691 -3333.1649916669994 0 0 0 -3333.1649916669994 0 0 0 -9999.4949750010273 -3333.1649916669412 0 0 0 -3333.1649916669412 0 0 0 -9999.4949750008527 -3333.1649916669994 0 0 0 -3333.1649916669994 0 0 0 -9999.4949750010855 -3333.1649916669703 0 0 0 -3333.1649916669703 0 0 0 -9999.4949750007363 -3333.1649916669412 0 0 0 -3333.1649916669412 0 0 0 -9999.4949750009691 -3333.1649916669703 0 0 0 -3333.1649916669703 0 0 0 -9999.4949750009691 -3333.1649916669994 0 0 0 -3333.1649916669994 0 0 0 -9999.4949750009691 -3333.1649916669994 0 0 0 -3333.1649916669994 0 0 0 -9999.4949750009691 -3333.1649916670285 0 0 0 -3333.1649916670285 0 0 0 -9999.494975001202 -3333.1649916670867 0 0 0 -3333.1649916670867 0 0 0 -9999.4949750013184 -3333.1649916669703 0 0 0 -3333.1649916669703 0 0 0 -9999.4949750008527 -3333.1649916669703 0 0 0 -3333.1649916669703 0 0 0 -9999.4949750009691 -3333.1649916669703 0 0 0 -3333.1649916669703 0 0 0 -9999.4949750009691 -3333.1649916669703 0 0 0 -3333.1649916669703 0 0 0 -9999.4949750008527 -3333.1649916670285 0 0 0 -3333.1649916670285 0 0 0 -9999.4949750010855 -3333.1649916670867 0 0 0 -3333.1649916670867 0 0 0 -9999.494975001202 -3333.1649916669994 0 0 0 -3333.1649916669994 0 0 0 -9999.4949750009691 -3333.1649916669994 0 0 0 -3333.1649916669994 0 0 0 -9999.4949750010855 -3333.1649916671158 0 0 0 -3333.1649916671158 0 0 0 -9999.4949750014348 -3333.1649916670576 0 0 0 -3333.1649916670576 0 0 0 -9999.494975001202 
</DataArray>
</CellData>
</Piece>
</UnstructuredGrid>
</VTKFile>
