<?xml version="1.0"?>
<VTKFile type="UnstructuredGrid" version="0.1" byte_order="LittleEndian">
<UnstructuredGrid>
<Piece NumberOfPoints="150" NumberOfCells="75">
<Points>
<DataArray type="Float64" NumberOfComponents="3" format="ascii">
0 0 -14.79999999999959 0 0 -15 0 0 -14.599999999999181 0 0 -14.79999999999959 0 0 -13.99999999999795 0 0 -14.19999999999836 0 0 -14.19999999999836 0 0 -14.399999999998769 0 0 -14.399999999998769 0 0 -14.599999999999181 0 0 -13.599999999997131 0 0 -13.79999999999754 0 0 -13.79999999999754 0 0 -13.99999999999795 0 0 -13.399999999996719 0 0 -13.599999999997131 0 0 -13.19999999999632 0 0 -13.399999999996719 0 0 -12.9999999999959 0 0 -13.19999999999632 0 0 -12.799999999995491 0 0 -12.9999999999959 0 0 -12.599999999995079 0 0 -12.799999999995491 0 0 -12.39999999999468 0 0 -12.599999999995079 0 0 -12.199999999994271 0 0 -12.39999999999468 0 0 -11.199999999992221 0 0 -11.39999999999263 0 0 -11.39999999999263 0 0 -11.599999999993029 0 0 -11.599999999993029 0 0 -11.79999999999345 0 0 -11.79999999999345 0 0 -11.999999999993859 0 0 -11.999999999993859 0 0 -12.199999999994271 0 0 -7.7999999999852516 0 0 -7.999999999985663 0 0 -7.5999999999848704 0 0 -7.7999999999852516 0 0 -8.1999999999860727 0 0 -8.3999999999864823 0 0 -7.999999999985663 0 0 -8.1999999999860727 0 0 -8.7999999999873015 0 0 -8.9999999999877112 0 0 -8.5999999999868919 0 0 -8.7999999999873015 0 0 -8.3999999999864823 0 0 -8.5999999999868919 0 0 -9.1999999999881208 0 0 -9.3999999999885304 0 0 -8.9999999999877112 0 0 -9.1999999999881208 0 0 -9.5999999999889383 0 0 -9.7999999999893497 0 0 -9.3999999999885304 0 0 -9.5999999999889383 0 0 -10.199999999990171 0 0 -10.39999999999058 0 0 -9.9999999999897593 0 0 -10.199999999990171 0 0 -9.7999999999893497 0 0 -9.9999999999897593 0 0 -10.59999999999099 0 0 -10.7999999999914 0 0 -10.39999999999058 0 0 -10.59999999999099 0 0 -10.999999999991809 0 0 -11.199999999992221 0 0 -10.7999999999914 0 0 -10.999999999991809 0 0 -3.9999999999980309 0 0 -4.1999999999974076 0 0 -3.7999999999982368 0 0 -3.9999999999980309 0 0 -4.3999999999966333 0 0 -4.5999999999958598 0 0 -4.1999999999974076 0 0 -4.3999999999966333 0 0 -4.999999999994313 0 0 -5.1999999999935387 0 0 -4.7999999999950864 0 0 -4.999999999994313 0 0 -4.5999999999958598 0 0 -4.7999999999950864 0 0 -5.3999999999927626 0 0 -5.5999999999919901 0 0 -5.1999999999935387 0 0 -5.3999999999927626 0 0 -5.7999999999912157 0 0 -5.9999999999904432 0 0 -5.5999999999919901 0 0 -5.7999999999912157 0 0 -6.3999999999888946 0 0 -6.5999999999881211 0 0 -6.1999999999896689 0 0 -6.3999999999888946 0 0 -5.9999999999904432 0 0 -6.1999999999896689 0 0 -6.7999999999873468 0 0 -6.9999999999865734 0 0 -6.5999999999881211 0 0 -6.7999999999873468 0 0 -7.3999999999850514 0 0 -7.5999999999848704 0 0 -7.1999999999857982 0 0 -7.3999999999850514 0 0 -6.9999999999865734 0 0 -7.1999999999857982 0 0 -2.7999999999991472 0 0 -2.9999999999989648 0 0 -2.9999999999989648 0 0 -3.1999999999987829 0 0 -3.1999999999987829 0 0 -3.399999999998601 0 0 -3.399999999998601 0 0 -3.5999999999984191 0 0 -3.5999999999984191 0 0 -3.7999999999982368 0 0 -2.59999999999933 0 0 -2.7999999999991472 0 0 -2.399999999999511 0 0 -2.59999999999933 0 0 -2.1999999999996942 0 0 -2.399999999999511 0 0 -1.9999999999998761 0 0 -2.1999999999996942 0 0 -1.799999999999931 0 0 -1.9999999999998761 0 0 -1.5999999999998329 0 0 -1.799999999999931 0 0 -1.399999999999719 0 0 -1.5999999999998329 0 0 -0.99999999999952105 0 0 -1.1999999999996049 0 0 -1.1999999999996049 0 0 -1.399999999999719 0 0 -0.39999999999991032 0 0 -0.59999999999980536 0 0 -0.59999999999980536 0 0 -0.79999999999962335 0 0 -0.79999999999962335 0 0 -0.99999999999952105 0 0 -0.1999999999999503 0 0 -0.39999999999991032 0 0 0 0 0 -0.1999999999999503 
</DataArray>
</Points>
<Cells>
<DataArray type="UInt32" Name="connectivity" format="ascii">
0 1 2 3 4 5 6 7 8 9 10 11 12 13 14 15 16 17 18 19 20 21 22 23 24 25 26 27 28 29 30 31 32 33 34 35 36 37 38 39 40 41 42 43 44 45 46 47 48 49 50 51 52 53 54 55 56 57 58 59 60 61 62 63 64 65 66 67 68 69 70 71 72 73 74 75 76 77 78 79 80 81 82 83 84 85 86 87 88 89 90 91 92 93 94 95 96 97 98 99 100 101 102 103 104 105 106 107 108 109 110 111 112 113 114 115 116 117 118 119 120 121 122 123 124 125 126 127 128 129 130 131 132 133 134 135 136 137 138 139 140 141 142 143 144 145 146 147 148 149 
</DataArray>
<DataArray type="UInt32" Name="offsets" format="ascii">
2 4 6 8 10 12 14 16 18 20 22 24 26 28 30 32 34 36 38 40 42 44 46 48 50 52 54 56 58 60 62 64 66 68 70 72 74 76 78 80 82 84 86 88 90 92 94 96 98 100 102 104 106 108 110 112 114 116 118 120 122 124 126 128 130 132 134 136 138 140 142 144 146 148 150 
</DataArray>
<DataArray type="UInt32" Name="types" format="ascii">
3 3 3 3 3 3 3 3 3 3 3 3 3 3 3 3 3 3 3 3 3 3 3 3 3 3 3 3 3 3 3 3 3 3 3 3 3 3 3 3 3 3 3 3 3 3 3 3 3 3 3 3 3 3 3 3 3 3 3 3 3 3 3 3 3 3 3 3 3 3 3 3 3 3 3 
</DataArray>
</Cells>
<PointData Scalars="" Vectors="displacement," Tensors="">
<DataArray type="Float64" Name="displacement" NumberOfComponents="3" format="ascii">
0 0 -1.6749158301767299e-05 0 0 -8.333333333333711e-08 0 0 -3.3414983270168983e-05 0 0 -1.6749158301767299e-05 0 0 -8.3412458174713617e-05 0 0 -6.674663320670685e-05 0 0 -6.674663320670685e-05 0 0 -5.0080808238499831e-05 0 0 -5.0080808238499831e-05 0 0 -3.3414983270168983e-05 0 0 -0.00011674410810961148 0 0 -0.00010007828314240577 0 0 -0.00010007828314240577 0 0 -8.3412458174713617e-05 0 0 -0.0001334099330760736 0 0 -0.00011674410810961148 0 0 -0.00015007575804140927 0 0 -0.0001334099330760736 0 0 -0.00016674158300506177 0 0 -0.00015007575804140927 0 0 -0.00018340740796622137 0 0 -0.00016674158300506177 0 0 -0.00020007323292374859 0 0 -0.00018340740796622137 0 0 -0.00021673905787607288 0 0 -0.00020007323292374859 0 0 -0.00023340488282111058 0 0 -0.00021673905787607288 0 0 -0.00031673400751219241 0 0 -0.00030006818256988988 0 0 -0.00030006818256988988 0 0 -0.00028340235762812414 0 0 -0.00028340235762812414 0 0 -0.0002667365326892883 0 0 -0.0002667365326892883 0 0 -0.00025007070775622198 0 0 -0.00025007070775622198 0 0 -0.00023340488282111058 0 0 -0.00060005303139796498 0 0 -0.00058338720646748275 0 0 -0.00061671885632673081 0 0 -0.00060005303139796498 0 0 -0.0005667213815387566 0 0 -0.00055005555661525219 0 0 -0.00058338720646748275 0 0 -0.0005667213815387566 0 0 -0.00051672390676138849 0 0 -0.00050005808182838993 0 0 -0.00053338973169137123 0 0 -0.00051672390676138849 0 0 -0.00055005555661525219 0 0 -0.00053338973169137123 0 0 -0.00048339225689267762 0 0 -0.00046672643195394049 0 0 -0.00050005808182838993 0 0 -0.00048339225689267762 0 0 -0.00045006060701385732 0 0 -0.00043339478207403057 0 0 -0.00046672643195394049 0 0 -0.00045006060701385732 0 0 -0.00040006313219483351 0 0 -0.0003833973072565814 0 0 -0.00041672895713440819 0 0 -0.00040006313219483351 0 0 -0.00043339478207403057 0 0 -0.00041672895713440819 0 0 -0.0003667314823207405 0 0 -0.00035006565738822441 0 0 -0.0003833973072565814 0 0 -0.0003667314823207405 0 0 -0.00033339983245305404 0 0 -0.00031673400751219241 0 0 -0.00035006565738822441 0 0 -0.00033339983245305404 0 0 -0.00091670370927411334 0 0 -0.00090003788301783985 0 0 -0.00093336953617483692 0 0 -0.00091670370927411334 0 0 -0.0008833720571944922 0 0 -0.00086670623165752592 0 0 -0.00090003788301783985 0 0 -0.0008833720571944922 0 0 -0.00083337458110245197 0 0 -0.00081670875597880514 0 0 -0.00085004040631410209 0 0 -0.00083337458110245197 0 0 -0.00086670623165752592 0 0 -0.00085004040631410209 0 0 -0.00080004293091383532 0 0 -0.0007833771058879767 0 0 -0.00081670875597880514 0 0 -0.00080004293091383532 0 0 -0.00076671128088823769 0 0 -0.00075004545590604509 0 0 -0.0007833771058879767 0 0 -0.00076671128088823769 0 0 -0.0007167138059706328 0 0 -0.00070004798101221761 0 0 -0.00073337963093485768 0 0 -0.0007167138059706328 0 0 -0.00075004545590604509 0 0 -0.00073337963093485768 0 0 -0.00068338215605961647 0 0 -0.00066671633111377803 0 0 -0.00070004798101221761 0 0 -0.00068338215605961647 0 0 -0.00063338468125024336 0 0 -0.00061671885632673081 0 0 -0.00065005050617647974 0 0 -0.00063338468125024336 0 0 -0.00066671633111377803 0 0 -0.00065005050617647974 0 0 -0.0010166986963942675 0 0 -0.0010000328583518443 0 0 -0.0010000328583518443 0 0 -0.00098336702437115935 0 0 -0.00098336702437115935 0 0 -0.00096670119321921996 0 0 -0.00096670119321921996 0 0 -0.00095003536401947375 0 0 -0.00095003536401947375 0 0 -0.00093336953617483692 0 0 -0.0010333645402164269 0 0 -0.0010166986963942675 0 0 -0.0010500303921860716 0 0 -0.0010333645402164269 0 0 -0.0010666962555229409 0 0 -0.0010500303921860716 0 0 -0.0010833621345377477 0 0 -0.0010666962555229409 0 0 -0.0011000280348990173 0 0 -0.0010833621345377477 0 0 -0.0011166939639033293 0 0 -0.0011000280348990173 0 0 -0.0011333599307079465 0 0 -0.0011166939639033293 0 0 -0.0011666920242295951 0 0 -0.0011500259464599369 0 0 -0.0011500259464599369 0 0 -0.0011333599307079465 0 0 -0.0012166907783608188 0 0 -0.0012000244250576404 0 0 -0.0012000244250576404 0 0 -0.00118335817863631 0 0 -0.00118335817863631 0 0 -0.0011666920242295951 0 0 -0.0012333572512163878 0 0 -0.0012166907783608188 0 0 -0.0012500238522539979 0 0 -0.0012333572512163878 
</DataArray>
</PointData>
<CellData Scalars="" Vectors="" Tensors="stress,">
<DataArray type="Float64" Name="stress" NumberOfComponents="9" format="ascii">
-3333.1649936799654 0 0 0 -3333.1649936799654 0 0 0 -9999.4949810398957 -3333.1649936735098 0 0 0 -3333.1649936735098 0 0 0 -9999.4949810205289 -3333.1649935945261 0 0 0 -3333.1649935945261 0 0 0 -9999.4949807835801 -3333.1649936345766 0 0 0 -3333.1649936345766 0 0 0 -9999.494980903728 -3333.164993659314 0 0 0 -3333.164993659314 0 0 0 -9999.4949809779391 -3333.164993434315 0 0 0 -3333.164993434315 0 0 0 -9999.4949803029449 -3333.1649935316054 0 0 0 -3333.1649935316054 0 0 0 -9999.4949805948127 -3333.1649932855689 0 0 0 -3333.1649932855689 0 0 0 -9999.4949798566959 -3333.1649930604835 0 0 0 -3333.1649930604835 0 0 0 -9999.4949791814579 -3333.1649927234976 0 0 0 -3333.1649927234976 0 0 0 -9999.4949781704927 -3333.1649922250872 0 0 0 -3333.1649922250872 0 0 0 -9999.4949766752688 -3333.1649914985901 0 0 0 -3333.1649914985901 0 0 0 -9999.4949744957703 -3333.1649904582155 0 0 0 -3333.1649904582155 0 0 0 -9999.4949713746319 -3333.1649890007102 0 0 0 -3333.1649890007102 0 0 0 -9999.4949670021451 -3333.1649884536746 0 0 0 -3333.1649884536746 0 0 0 -9999.4949653610238 -3333.1649883464997 0 0 0 -3333.1649883464997 0 0 0 -9999.4949650395138 -3333.1649877601667 0 0 0 -3333.1649877601667 0 0 0 -9999.4949632805074 -3333.1649866064326 0 0 0 -3333.1649866064326 0 0 0 -9999.4949598193052 -3333.1649870154215 0 0 0 -3333.1649870154215 0 0 0 -9999.4949610462645 -3333.1649860895996 0 0 0 -3333.1649860895996 0 0 0 -9999.4949582687696 -3333.1649857468146 0 0 0 -3333.1649857468146 0 0 0 -9999.4949572404148 -3333.1649846940563 0 0 0 -3333.1649846940563 0 0 0 -9999.4949540821835 -3333.1649857384036 0 0 0 -3333.1649857384036 0 0 0 -9999.4949572151527 -3333.1649865928775 0 0 0 -3333.1649865928775 0 0 0 -9999.4949597786763 -3333.1649859897298 0 0 0 -3333.1649859897298 0 0 0 -9999.4949579691747 -3333.1649847693625 0 0 0 -3333.1649847693625 0 0 0 -9999.4949543080875 -3333.1649877406016 0 0 0 -3333.1649877406016 0 0 0 -9999.494963221834 -3333.1649871356349 0 0 0 -3333.1649871356349 0 0 0 -9999.494961406861 -3333.164987958502 0 0 0 -3333.164987958502 0 0 0 -9999.4949638754479 -3333.1649880098266 0 0 0 -3333.1649880098266 0 0 0 -9999.4949640295235 -3333.1649876435986 0 0 0 -3333.1649876435986 0 0 0 -9999.4949629307666 -3333.1649879080796 0 0 0 -3333.1649879080796 0 0 0 -9999.4949637242535 -3333.1649879176548 0 0 0 -3333.1649879176548 0 0 0 -9999.4949637529498 -3333.1649864963838 0 0 0 -3333.1649864963838 0 0 0 -9999.4949594891805 -3333.1649871613481 0 0 0 -3333.1649871613481 0 0 0 -9999.4949614840734 -3333.1649881654739 0 0 0 -3333.1649881654739 0 0 0 -9999.4949644964072 -3333.1649870272522 0 0 0 -3333.1649870272522 0 0 0 -9999.4949610817421 -3333.1652512650762 0 0 0 -3333.1652512650762 0 0 0 -9999.4957537952578 -3333.1653801481589 0 0 0 -3333.1653801481589 0 0 0 -9999.4961404444184 -3333.1651074061519 0 0 0 -3333.1651074061519 0 0 0 -9999.4953222183976 -3333.1651646824612 0 0 0 -3333.1651646824612 0 0 0 -9999.4954940472962 -3333.1650247422804 0 0 0 -3333.1650247422804 0 0 0 -9999.495074226812 -3333.1650423429091 0 0 0 -3333.1650423429091 0 0 0 -9999.4951270287274 -3333.16506869765 0 0 0 -3333.16506869765 0 0 0 -9999.4952060930082 -3333.1650051846227 0 0 0 -3333.1650051846227 0 0 0 -9999.495015553839 -3333.1650130068883 0 0 0 -3333.1650130068883 0 0 0 -9999.495039020665 -3333.1649964514072 0 0 0 -3333.1649964514072 0 0 0 -9999.4949893541634 -3333.164999960718 0 0 0 -3333.164999960718 0 0 0 -9999.4949998821248 -3333.1649916959286 0 0 0 -3333.1649916959286 0 0 0 -9999.494975087815 -3333.1649928578991 0 0 0 -3333.1649928578991 0 0 0 -9999.4949785736389 -3333.1649942503718 0 0 0 -3333.1649942503718 0 0 0 -9999.4949827511446 -3333.1649891805719 0 0 0 -3333.1649891805719 0 0 0 -9999.4949675417156 -3333.1649905331433 0 0 0 -3333.1649905331433 0 0 0 -9999.4949715994298 -3333.1649847055232 0 0 0 -3333.1649847055232 0 0 0 -9999.4949541165843 -3333.1649852597329 0 0 0 -3333.1649852597329 0 0 0 -9999.4949557791697 -3333.1649874725699 0 0 0 -3333.1649874725699 0 0 0 -9999.4949624176952 -3333.1676084876526 0 0 0 -3333.1676084876526 0 0 0 -9999.5028254629578 -3333.1667961400235 0 0 0 -3333.1667961400235 0 0 0 -9999.5003884200705 -3333.1662303909252 0 0 0 -3333.1662303909252 0 0 0 -9999.4986911726883 -3333.1658399522712 0 0 0 -3333.1658399522712 0 0 0 -9999.4975198569009 -3333.1655689304171 0 0 0 -3333.1655689304171 0 0 0 -9999.4967067912221 -3333.1687644349295 0 0 0 -3333.1687644349295 0 0 0 -9999.5062933048466 -3333.1703939319414 0 0 0 -3333.1703939319414 0 0 0 -9999.5111817958532 -3333.1726673769299 0 0 0 -3333.1726673769299 0 0 0 -9999.5180021306733 -3333.175802964397 0 0 0 -3333.175802964397 0 0 0 -9999.5274088932201 -3333.1800722548505 0 0 0 -3333.1800722548505 0 0 0 -9999.5402167645516 -3333.1858008607524 0 0 0 -3333.1858008607524 0 0 0 -9999.5574025823735 -3333.1933609215484 0 0 0 -3333.1933609215484 0 0 0 -9999.5800827646162 -3333.215553930233 0 0 0 -3333.215553930233 0 0 0 -9999.6466617907863 -3333.2031503962062 0 0 0 -3333.2031503962062 0 0 0 -9999.609451188473 -3333.2706606374413 0 0 0 -3333.2706606374413 0 0 0 -9999.8119819123531 -3333.2492842691136 0 0 0 -3333.2492842691136 0 0 0 -9999.7478528072825 -3333.2308813446725 0 0 0 -3333.2308813446725 0 0 0 -9999.6926440340467 -3333.2945711144421 0 0 0 -3333.2945711144421 0 0 0 -9999.8837133432971 -3333.3202075228619 0 0 0 -3333.3202075228619 0 0 0 -9999.9606225686148 
</DataArray>
</CellData>
</Piece>
</UnstructuredGrid>
</VTKFile>
