<?xml version="1.0"?>
<VTKFile type="UnstructuredGrid" version="0.1" byte_order="LittleEndian">
<UnstructuredGrid>
<Piece NumberOfPoints="150" NumberOfCells="75">
<Points>
<DataArray type="Float64" NumberOfComponents="3" format="ascii">
0 0 -14.79999999999959 0 0 -15 0 0 -14.599999999999181 0 0 -14.79999999999959 0 0 -13.99999999999795 0 0 -14.19999999999836 0 0 -14.19999999999836 0 0 -14.399999999998769 0 0 -14.399999999998769 0 0 -14.599999999999181 0 0 -13.599999999997131 0 0 -13.79999999999754 0 0 -13.79999999999754 0 0 -13.99999999999795 0 0 -13.399999999996719 0 0 -13.599999999997131 0 0 -13.19999999999632 0 0 -13.399999999996719 0 0 -12.9999999999959 0 0 -13.19999999999632 0 0 -12.799999999995491 0 0 -12.9999999999959 0 0 -12.599999999995079 0 0 -12.799999999995491 0 0 -12.39999999999468 0 0 -12.599999999995079 0 0 -12.199999999994271 0 0 -12.39999999999468 0 0 -11.199999999992221 0 0 -11.39999999999263 0 0 -11.39999999999263 0 0 -11.599999999993029 0 0 -11.599999999993029 0 0 -11.79999999999345 0 0 -11.79999999999345 0 0 -11.999999999993859 0 0 -11.999999999993859 0 0 -12.199999999994271 0 0 -7.7999999999852516 0 0 -7.999999999985663 0 0 -7.5999999999848704 0 0 -7.7999999999852516 0 0 -8.1999999999860727 0 0 -8.3999999999864823 0 0 -7.999999999985663 0 0 -8.1999999999860727 0 0 -8.7999999999873015 0 0 -8.9999999999877112 0 0 -8.5999999999868919 0 0 -8.7999999999873015 0 0 -8.3999999999864823 0 0 -8.5999999999868919 0 0 -9.1999999999881208 0 0 -9.3999999999885304 0 0 -8.9999999999877112 0 0 -9.1999999999881208 0 0 -9.5999999999889383 0 0 -9.7999999999893497 0 0 -9.3999999999885304 0 0 -9.5999999999889383 0 0 -10.199999999990171 0 0 -10.39999999999058 0 0 -9.9999999999897593 0 0 -10.199999999990171 0 0 -9.7999999999893497 0 0 -9.9999999999897593 0 0 -10.59999999999099 0 0 -10.7999999999914 0 0 -10.39999999999058 0 0 -10.59999999999099 0 0 -10.999999999991809 0 0 -11.199999999992221 0 0 -10.7999999999914 0 0 -10.999999999991809 0 0 -3.9999999999980309 0 0 -4.1999999999974076 0 0 -3.7999999999982368 0 0 -3.9999999999980309 0 0 -4.3999999999966333 0 0 -4.5999999999958598 0 0 -4.1999999999974076 0 0 -4.3999999999966333 0 0 -4.999999999994313 0 0 -5.1999999999935387 0 0 -4.7999999999950864 0 0 -4.999999999994313 0 0 -4.5999999999958598 0 0 -4.7999999999950864 0 0 -5.3999999999927626 0 0 -5.5999999999919901 0 0 -5.1999999999935387 0 0 -5.3999999999927626 0 0 -5.7999999999912157 0 0 -5.9999999999904432 0 0 -5.5999999999919901 0 0 -5.7999999999912157 0 0 -6.3999999999888946 0 0 -6.5999999999881211 0 0 -6.1999999999896689 0 0 -6.3999999999888946 0 0 -5.9999999999904432 0 0 -6.1999999999896689 0 0 -6.7999999999873468 0 0 -6.9999999999865734 0 0 -6.5999999999881211 0 0 -6.7999999999873468 0 0 -7.3999999999850514 0 0 -7.5999999999848704 0 0 -7.1999999999857982 0 0 -7.3999999999850514 0 0 -6.9999999999865734 0 0 -7.1999999999857982 0 0 -2.7999999999991472 0 0 -2.9999999999989648 0 0 -2.9999999999989648 0 0 -3.1999999999987829 0 0 -3.1999999999987829 0 0 -3.399999999998601 0 0 -3.399999999998601 0 0 -3.5999999999984191 0 0 -3.5999999999984191 0 0 -3.7999999999982368 0 0 -2.59999999999933 0 0 -2.7999999999991472 0 0 -2.399999999999511 0 0 -2.59999999999933 0 0 -2.1999999999996942 0 0 -2.399999999999511 0 0 -1.9999999999998761 0 0 -2.1999999999996942 0 0 -1.799999999999931 0 0 -1.9999999999998761 0 0 -1.5999999999998329 0 0 -1.799999999999931 0 0 -1.399999999999719 0 0 -1.5999999999998329 0 0 -0.99999999999952105 0 0 -1.1999999999996049 0 0 -1.1999999999996049 0 0 -1.399999999999719 0 0 -0.39999999999991032 0 0 -0.59999999999980536 0 0 -0.59999999999980536 0 0 -0.79999999999962335 0 0 -0.79999999999962335 0 0 -0.99999999999952105 0 0 -0.1999999999999503 0 0 -0.39999999999991032 0 0 0 0 0 -0.1999999999999503 
</DataArray>
</Points>
<Cells>
<DataArray type="UInt32" Name="connectivity" format="ascii">
0 1 2 3 4 5 6 7 8 9 10 11 12 13 14 15 16 17 18 19 20 21 22 23 24 25 26 27 28 29 30 31 32 33 34 35 36 37 38 39 40 41 42 43 44 45 46 47 48 49 50 51 52 53 54 55 56 57 58 59 60 61 62 63 64 65 66 67 68 69 70 71 72 73 74 75 76 77 78 79 80 81 82 83 84 85 86 87 88 89 90 91 92 93 94 95 96 97 98 99 100 101 102 103 104 105 106 107 108 109 110 111 112 113 114 115 116 117 118 119 120 121 122 123 124 125 126 127 128 129 130 131 132 133 134 135 136 137 138 139 140 141 142 143 144 145 146 147 148 149 
</DataArray>
<DataArray type="UInt32" Name="offsets" format="ascii">
2 4 6 8 10 12 14 16 18 20 22 24 26 28 30 32 34 36 38 40 42 44 46 48 50 52 54 56 58 60 62 64 66 68 70 72 74 76 78 80 82 84 86 88 90 92 94 96 98 100 102 104 106 108 110 112 114 116 118 120 122 124 126 128 130 132 134 136 138 140 142 144 146 148 150 
</DataArray>
<DataArray type="UInt32" Name="types" format="ascii">
3 3 3 3 3 3 3 3 3 3 3 3 3 3 3 3 3 3 3 3 3 3 3 3 3 3 3 3 3 3 3 3 3 3 3 3 3 3 3 3 3 3 3 3 3 3 3 3 3 3 3 3 3 3 3 3 3 3 3 3 3 3 3 3 3 3 3 3 3 3 3 3 3 3 3 
</DataArray>
</Cells>
<PointData Scalars="" Vectors="displacement," Tensors="">
<DataArray type="Float64" Name="displacement" NumberOfComponents="3" format="ascii">
0 0 -1.6749937619511175e-05 0 0 -8.3333333333365909e-08 0 0 -3.3416541933074079e-05 0 0 -1.6749937619511175e-05 0 0 -8.3416355311692871e-05 0 0 -6.6749750751832467e-05 0 0 -6.6749750751832467e-05 0 0 -5.0083146301398271e-05 0 0 -5.0083146301398271e-05 0 0 -3.3416541933074079e-05 0 0 -0.00011674956486869864 0 0 -0.00010008296000824608 0 0 -0.00010008296000824608 0 0 -8.3416355311692871e-05 0 0 -0.00013341616992018542 0 0 -0.00011674956486869864 0 0 -0.00015008277518975636 0 0 -0.00013341616992018542 0 0 -0.00016674938070436961 0 0 -0.00015008277518975636 0 0 -0.00018341598649087039 0 0 -0.00016674938070436961 0 0 -0.00020008259257598814 0 0 -0.00018341598649087039 0 0 -0.00021674919898631977 0 0 -0.00020008259257598814 0 0 -0.00023341580574832231 0 0 -0.00021674919898631977 0 0 -0.00031674884573157884 0 0 -0.00030008223682732855 0 0 -0.00030008223682732855 0 0 -0.00028341562840244512 0 0 -0.00028341562840244512 0 0 -0.00026674902043135636 0 0 -0.00026674902043135636 0 0 -0.00025008241288829565 0 0 -0.00025008241288829565 0 0 -0.00023341580574832231 0 0 -0.00060008129393431279 0 0 -0.00058341467319455293 0 0 -0.000616747915575519 0 0 -0.00060008129393431279 0 0 -0.00056674805333608203 0 0 -0.00055008143433836465 0 0 -0.00058341467319455293 0 0 -0.00056674805333608203 0 0 -0.00051674819883627343 0 0 -0.00050008158228778004 0 0 -0.00053341481617926172 0 0 -0.00051674819883627343 0 0 -0.00055008143433836465 0 0 -0.00053341481617926172 0 0 -0.00048341496650786825 0 0 -0.00046674835147033391 0 0 -0.00050008158228778004 0 0 -0.00048341496650786825 0 0 -0.00045008173715263778 0 0 -0.00043341512353192003 0 0 -0.00046674835147033391 0 0 -0.00045008173715263778 0 0 -0.00040008189829051949 0 0 -0.0003834152866231341 0 0 -0.00041674851058553028 0 0 -0.00040008189829051949 0 0 -0.00043341512353192003 0 0 -0.00041674851058553028 0 0 -0.00036674867555934351 0 0 -0.0003500820650748518 0 0 -0.0003834152866231341 0 0 -0.00036674867555934351 0 0 -0.00033341545514055311 0 0 -0.00031674884573157884 0 0 -0.0003500820650748518 0 0 -0.00033341545514055311 0 0 -0.00091674727822795596 0 0 -0.00090008063754414588 0 0 -0.00093341392011165691 0 0 -0.00091674727822795596 0 0 -0.00088341399804692288 0 0 -0.00086674735972250088 0 0 -0.00090008063754414588 0 0 -0.00088341399804692288 0 0 -0.00083341408653783667 0 0 -0.00081674745165027549 0 0 -0.00085008072255745042 0 0 -0.00083341408653783667 0 0 -0.00086674735972250088 0 0 -0.00085008072255745042 0 0 -0.00080008081788088595 0 0 -0.00078341418521529792 0 0 -0.00081674745165027549 0 0 -0.00080008081788088595 0 0 -0.00076674755363866044 0 0 -0.00075008092313564537 0 0 -0.00078341418521529792 0 0 -0.00076674755363866044 0 0 -0.00071674766527453468 0 0 -0.00070008103788028709 0 0 -0.00073341429368739065 0 0 -0.00071674766527453468 0 0 -0.00075008092313564537 0 0 -0.00073341429368739065 0 0 -0.00068341441148740613 0 0 -0.00066674778607820392 0 0 -0.00070008103788028709 0 0 -0.00068341441148740613 0 0 -0.00063341453813790273 0 0 -0.000616747915575519 0 0 -0.00065008116163455454 0 0 -0.00063341453813790273 0 0 -0.00066674778607820392 0 0 -0.00065008116163455454 0 0 -0.0010167471478810311 0 0 -0.0010000804998494977 0 0 -0.0010000804998494977 0 0 -0.00098341385306574937 0 0 -0.00098341385306574937 0 0 -0.00096674720752104202 0 0 -0.00096674720752104202 0 0 -0.00095008056320609337 0 0 -0.00095008056320609337 0 0 -0.00093341392011165691 0 0 -0.0010334137971685499 0 0 -0.0010167471478810311 0 0 -0.0010500804477159718 0 0 -0.0010334137971685499 0 0 -0.001066747099526663 0 0 -0.0010500804477159718 0 0 -0.0010834137526071698 0 0 -0.001066747099526663 0 0 -0.0011000804069634881 0 0 -0.0010834137526071698 0 0 -0.0011167470626010422 0 0 -0.0011000804069634881 0 0 -0.0011334137195246812 0 0 -0.0011167470626010422 0 0 -0.0011667470372468062 0 0 -0.0011500803777386959 0 0 -0.0011500803777386959 0 0 -0.0011334137195246812 0 0 -0.0012167470235643497 0 0 -0.001200080360157327 0 0 -0.001200080360157327 0 0 -0.0011834136980521533 0 0 -0.0011834136980521533 0 0 -0.0011667470372468062 0 0 -0.0012334136882746574 0 0 -0.0012167470235643497 0 0 -0.0012500803542891056 0 0 -0.0012334136882746574 
</DataArray>
</PointData>
<CellData Scalars="" Vectors="" Tensors="stress,">
<DataArray type="Float64" Name="stress" NumberOfComponents="9" format="ascii">
-3333.3208572287344 0 0 0 -3333.3208572287344 0 0 0 -9999.9625716862047 -3333.3208627057538 0 0 0 -3333.3208627057538 0 0 0 -9999.9625881172597 -3333.3209119652529 0 0 0 -3333.3209119652529 0 0 0 -9999.9627358957659 -3333.3208900800128 0 0 0 -3333.3208900800128 0 0 0 -9999.962670240031 -3333.3208736579827 0 0 0 -3333.3208736579827 0 0 0 -9999.9626209739436 -3333.3209720836821 0 0 0 -3333.3209720836821 0 0 0 -9999.9629162510537 -3333.320939303816 0 0 0 -3333.320939303816 0 0 0 -9999.9628179114443 -3333.3210102904995 0 0 0 -3333.3210102904995 0 0 0 -9999.9630308714986 -3333.3210539075371 0 0 0 -3333.3210539075371 0 0 0 -9999.9631617226114 -3333.3211029156446 0 0 0 -3333.3211029156446 0 0 0 -9999.963308746941 -3333.3211572933287 0 0 0 -3333.3211572933287 0 0 0 -9999.9634718799789 -3333.321217016688 0 0 0 -3333.321217016688 0 0 0 -9999.9636510500859 -3333.3212820596746 0 0 0 -3333.3212820596746 0 0 0 -9999.9638461790164 -3333.3213523936793 0 0 0 -3333.3213523936793 0 0 0 -9999.9640571810451 -3333.321780843231 0 0 0 -3333.321780843231 0 0 0 -9999.9653425297001 -3333.3216849700329 0 0 0 -3333.3216849700329 0 0 0 -9999.9650549101061 -3333.321594210749 0 0 0 -3333.321594210749 0 0 0 -9999.9647826322471 -3333.3215086053169 0 0 0 -3333.3215086053169 0 0 0 -9999.9645258159435 -3333.3214279878157 0 0 0 -3333.3214279878157 0 0 0 -9999.9642839634325 -3333.3241479451244 0 0 0 -3333.3241479451244 0 0 0 -9999.9724438353442 -3333.3243282348994 0 0 0 -3333.3243282348994 0 0 0 -9999.9729847047129 -3333.3237995366362 0 0 0 -3333.3237995366362 0 0 0 -9999.9713986099814 -3333.323971687365 0 0 0 -3333.323971687365 0 0 0 -9999.9719150620513 -3333.3233096918557 0 0 0 -3333.3233096918557 0 0 0 -9999.9699290755671 -3333.3234685908246 0 0 0 -3333.3234685908246 0 0 0 -9999.970405772503 -3333.3236318137642 0 0 0 -3333.3236318137642 0 0 0 -9999.970895441249 -3333.323007500032 0 0 0 -3333.323007500032 0 0 0 -9999.9690225000959 -3333.3231559755368 0 0 0 -3333.3231559755368 0 0 0 -9999.9694679265958 -3333.3227241366985 0 0 0 -3333.3227241366985 0 0 0 -9999.9681724100956 -3333.322863532434 0 0 0 -3333.322863532434 0 0 0 -9999.9685905972729 -3333.3223334702489 0 0 0 -3333.3223334702489 0 0 0 -9999.9670004107466 -3333.3224589953024 0 0 0 -3333.3224589953024 0 0 0 -9999.9673769859073 -3333.3225892711198 0 0 0 -3333.3225892711198 0 0 0 -9999.9677678133594 -3333.322096891512 0 0 0 -3333.322096891512 0 0 0 -9999.9662906745507 -3333.3222127512854 0 0 0 -3333.3222127512854 0 0 0 -9999.9666382538853 -3333.3218817879897 0 0 0 -3333.3218817879897 0 0 0 -9999.9656453639909 -3333.3219868529122 0 0 0 -3333.3219868529122 0 0 0 -9999.9659605587076 -3333.3281367724121 0 0 0 -3333.3281367724121 0 0 0 -9999.9844103172654 -3333.3283767436224 0 0 0 -3333.3283767436224 0 0 0 -9999.9851302308962 -3333.3276648972824 0 0 0 -3333.3276648972824 0 0 0 -9999.982994691818 -3333.3278994575085 0 0 0 -3333.3278994575085 0 0 0 -9999.9836983724963 -3333.3269775251392 0 0 0 -3333.3269775251392 0 0 0 -9999.9809325754177 -3333.3272039356234 0 0 0 -3333.3272039356234 0 0 0 -9999.9816118069575 -3333.3274330229906 0 0 0 -3333.3274330229906 0 0 0 -9999.9822990689427 -3333.3265331304865 0 0 0 -3333.3265331304865 0 0 0 -9999.9795993914595 -3333.3267538908694 0 0 0 -3333.3267538908694 0 0 0 -9999.980261672521 -3333.3261006158718 0 0 0 -3333.3261006158718 0 0 0 -9999.9783018476446 -3333.3263153403823 0 0 0 -3333.3263153403823 0 0 0 -9999.9789460211759 -3333.3254788624181 0 0 0 -3333.3254788624181 0 0 0 -9999.9764365872252 -3333.3256825840799 0 0 0 -3333.3256825840799 0 0 0 -9999.9770477522979 -3333.3258896638581 0 0 0 -3333.3258896638581 0 0 0 -9999.9776689915452 -3333.3250818533124 0 0 0 -3333.3250818533124 0 0 0 -9999.9752455599955 -3333.3252785890945 0 0 0 -3333.3252785890945 0 0 0 -9999.9758357672836 -3333.3245124797686 0 0 0 -3333.3245124797686 0 0 0 -9999.9735374393058 -3333.3246993428183 0 0 0 -3333.3246993428183 0 0 0 -9999.9740980284405 -3333.3248887428053 0 0 0 -3333.3248887428053 0 0 0 -9999.9746662284015 -3333.3296063097368 0 0 0 -3333.3296063097368 0 0 0 -9999.9888189291814 -3333.3293567527144 0 0 0 -3333.3293567527144 0 0 0 -9999.9880702580558 -3333.3291089444829 0 0 0 -3333.3291089444829 0 0 0 -9999.9873268335359 -3333.3288629927556 0 0 0 -3333.3288629927556 0 0 0 -9999.986588978325 -3333.3286188903148 0 0 0 -3333.3286188903148 0 0 0 -9999.9858566710027 -3333.3298575068184 0 0 0 -3333.3298575068184 0 0 0 -9999.9895725203678 -3333.3301094874041 0 0 0 -3333.3301094874041 0 0 0 -9999.9903284622123 -3333.3303621412779 0 0 0 -3333.3303621412779 0 0 0 -9999.9910864239791 -3333.3306161043874 0 0 0 -3333.3306161043874 0 0 0 -9999.9918483132496 -3333.3308712645667 0 0 0 -3333.3308712645667 0 0 0 -9999.9926137937 -3333.3311275091837 0 0 0 -3333.3311275091837 0 0 0 -9999.9933825276094 -3333.3313847258978 0 0 0 -3333.3313847258978 0 0 0 -9999.9941541777225 -3333.3319016206369 0 0 0 -3333.3319016206369 0 0 0 -9999.9957048619399 -3333.3316428010585 0 0 0 -3333.3316428010585 0 0 0 -9999.9949284031754 -3333.3326814062893 0 0 0 -3333.3326814062893 0 0 0 -9999.998044218868 -3333.3324210377759 0 0 0 -3333.3324210377759 0 0 0 -9999.9972631132696 -3333.3321610711282 0 0 0 -3333.3321610711282 0 0 0 -9999.9964832133846 -3333.3329420622031 0 0 0 -3333.3329420622031 0 0 0 -9999.9988261866383 -3333.3332028904697 0 0 0 -3333.3332028904697 0 0 0 -9999.9996086715255 
</DataArray>
</CellData>
</Piece>
</UnstructuredGrid>
</VTKFile>
