<?xml version="1.0"?>
<VTKFile type="UnstructuredGrid" version="0.1" byte_order="LittleEndian">
<UnstructuredGrid>
<Piece NumberOfPoints="150" NumberOfCells="75">
<Points>
<DataArray type="Float64" NumberOfComponents="3" format="ascii">
0 0 -15 0 0 -14.79999999999959 0 0 -14.79999999999959 0 0 -14.599999999999181 0 0 -14.19999999999836 0 0 -13.99999999999795 0 0 -14.19999999999836 0 0 -14.399999999998769 0 0 -14.599999999999181 0 0 -14.399999999998769 0 0 -13.599999999997131 0 0 -13.79999999999754 0 0 -13.79999999999754 0 0 -13.99999999999795 0 0 -13.599999999997131 0 0 -13.399999999996719 0 0 -13.399999999996719 0 0 -13.19999999999632 0 0 -13.19999999999632 0 0 -12.9999999999959 0 0 -12.9999999999959 0 0 -12.799999999995491 0 0 -12.799999999995491 0 0 -12.599999999995079 0 0 -12.599999999995079 0 0 -12.39999999999468 0 0 -12.199999999994271 0 0 -12.39999999999468 0 0 -11.39999999999263 0 0 -11.199999999992221 0 0 -11.39999999999263 0 0 -11.599999999993029 0 0 -11.599999999993029 0 0 -11.79999999999345 0 0 -11.79999999999345 0 0 -11.999999999993859 0 0 -12.199999999994271 0 0 -11.999999999993859 0 0 -7.7999999999852516 0 0 -7.999999999985663 0 0 -7.7999999999852516 0 0 -7.5999999999848704 0 0 -8.3999999999864823 0 0 -8.1999999999860727 0 0 -8.1999999999860727 0 0 -7.999999999985663 0 0 -8.7999999999873015 0 0 -8.9999999999877112 0 0 -8.7999999999873015 0 0 -8.5999999999868919 0 0 -8.3999999999864823 0 0 -8.5999999999868919 0 0 -9.1999999999881208 0 0 -9.3999999999885304 0 0 -9.1999999999881208 0 0 -8.9999999999877112 0 0 -9.7999999999893497 0 0 -9.5999999999889383 0 0 -9.5999999999889383 0 0 -9.3999999999885304 0 0 -10.199999999990171 0 0 -10.39999999999058 0 0 -10.199999999990171 0 0 -9.9999999999897593 0 0 -9.7999999999893497 0 0 -9.9999999999897593 0 0 -10.59999999999099 0 0 -10.7999999999914 0 0 -10.59999999999099 0 0 -10.39999999999058 0 0 -11.199999999992221 0 0 -10.999999999991809 0 0 -10.999999999991809 0 0 -10.7999999999914 0 0 -4.1999999999974076 0 0 -3.9999999999980309 0 0 -3.9999999999980309 0 0 -3.7999999999982368 0 0 -4.5999999999958598 0 0 -4.3999999999966333 0 0 -4.1999999999974076 0 0 -4.3999999999966333 0 0 -4.999999999994313 0 0 -5.1999999999935387 0 0 -4.999999999994313 0 0 -4.7999999999950864 0 0 -4.5999999999958598 0 0 -4.7999999999950864 0 0 -5.5999999999919901 0 0 -5.3999999999927626 0 0 -5.3999999999927626 0 0 -5.1999999999935387 0 0 -5.9999999999904432 0 0 -5.7999999999912157 0 0 -5.5999999999919901 0 0 -5.7999999999912157 0 0 -6.3999999999888946 0 0 -6.5999999999881211 0 0 -6.3999999999888946 0 0 -6.1999999999896689 0 0 -5.9999999999904432 0 0 -6.1999999999896689 0 0 -6.9999999999865734 0 0 -6.7999999999873468 0 0 -6.7999999999873468 0 0 -6.5999999999881211 0 0 -7.5999999999848704 0 0 -7.3999999999850514 0 0 -7.3999999999850514 0 0 -7.1999999999857982 0 0 -6.9999999999865734 0 0 -7.1999999999857982 0 0 -2.9999999999989648 0 0 -2.7999999999991472 0 0 -2.9999999999989648 0 0 -3.1999999999987829 0 0 -3.1999999999987829 0 0 -3.399999999998601 0 0 -3.399999999998601 0 0 -3.5999999999984191 0 0 -3.7999999999982368 0 0 -3.5999999999984191 0 0 -2.59999999999933 0 0 -2.7999999999991472 0 0 -2.59999999999933 0 0 -2.399999999999511 0 0 -2.399999999999511 0 0 -2.1999999999996942 0 0 -2.1999999999996942 0 0 -1.9999999999998761 0 0 -1.9999999999998761 0 0 -1.799999999999931 0 0 -1.799999999999931 0 0 -1.5999999999998329 0 0 -1.5999999999998329 0 0 -1.399999999999719 0 0 -0.99999999999952105 0 0 -1.1999999999996049 0 0 -1.1999999999996049 0 0 -1.399999999999719 0 0 -0.59999999999980536 0 0 -0.39999999999991032 0 0 -0.59999999999980536 0 0 -0.79999999999962335 0 0 -0.99999999999952105 0 0 -0.79999999999962335 0 0 -0.39999999999991032 0 0 -0.1999999999999503 0 0 -0.1999999999999503 0 0 0 
</DataArray>
</Points>
<Cells>
<DataArray type="UInt32" Name="connectivity" format="ascii">
0 1 2 3 4 5 6 7 8 9 10 11 12 13 14 15 16 17 18 19 20 21 22 23 24 25 26 27 28 29 30 31 32 33 34 35 36 37 38 39 40 41 42 43 44 45 46 47 48 49 50 51 52 53 54 55 56 57 58 59 60 61 62 63 64 65 66 67 68 69 70 71 72 73 74 75 76 77 78 79 80 81 82 83 84 85 86 87 88 89 90 91 92 93 94 95 96 97 98 99 100 101 102 103 104 105 106 107 108 109 110 111 112 113 114 115 116 117 118 119 120 121 122 123 124 125 126 127 128 129 130 131 132 133 134 135 136 137 138 139 140 141 142 143 144 145 146 147 148 149 
</DataArray>
<DataArray type="UInt32" Name="offsets" format="ascii">
2 4 6 8 10 12 14 16 18 20 22 24 26 28 30 32 34 36 38 40 42 44 46 48 50 52 54 56 58 60 62 64 66 68 70 72 74 76 78 80 82 84 86 88 90 92 94 96 98 100 102 104 106 108 110 112 114 116 118 120 122 124 126 128 130 132 134 136 138 140 142 144 146 148 150 
</DataArray>
<DataArray type="UInt32" Name="types" format="ascii">
3 3 3 3 3 3 3 3 3 3 3 3 3 3 3 3 3 3 3 3 3 3 3 3 3 3 3 3 3 3 3 3 3 3 3 3 3 3 3 3 3 3 3 3 3 3 3 3 3 3 3 3 3 3 3 3 3 3 3 3 3 3 3 3 3 3 3 3 3 3 3 3 3 3 3 
</DataArray>
</Cells>
<PointData Scalars="" Vectors="displacement," Tensors="">
<DataArray type="Float64" Name="displacement" NumberOfComponents="3" format="ascii">
0 0 -8.3333333120163587e-08 0 0 -1.6749158248855817e-05 0 0 -1.6749158248855817e-05 0 0 -3.3414983250284295e-05 0 0 -6.6746633209480903e-05 0 0 -8.3412458167248871e-05 0 0 -6.6746633209480903e-05 0 0 -5.0080808251712929e-05 0 0 -3.3414983250284295e-05 0 0 -5.0080808251712929e-05 0 0 -0.00011674410808278481 0 0 -0.00010007828312501684 0 0 -0.00010007828312501684 0 0 -8.3412458167248871e-05 0 0 -0.00011674410808278481 0 0 -0.00013340993304055294 0 0 -0.00013340993304055294 0 0 -0.00015007575799832004 0 0 -0.00015007575799832004 0 0 -0.00016674158295608893 0 0 -0.00016674158295608893 0 0 -0.00018340740791385695 0 0 -0.00018340740791385695 0 0 -0.00020007323287162511 0 0 -0.00020007323287162511 0 0 -0.00021673905782939229 0 0 -0.00023340488278716042 0 0 -0.00021673905782939229 0 0 -0.00030006818261823289 0 0 -0.00031673400757600102 0 0 -0.00030006818261823289 0 0 -0.00028340235766046557 0 0 -0.00028340235766046557 0 0 -0.00026673653270269663 0 0 -0.00026673653270269663 0 0 -0.0002500707077449286 0 0 -0.00023340488278716042 0 0 -0.0002500707077449286 0 0 -0.00060005303185805994 0 0 -0.00058338720690029149 0 0 -0.00060005303185805994 0 0 -0.00061671885681582547 0 0 -0.00055005555698475512 0 0 -0.00056672138194252336 0 0 -0.00056672138194252336 0 0 -0.00058338720690029149 0 0 -0.00051672390706921864 0 0 -0.00050005808211145051 0 0 -0.00051672390706921864 0 0 -0.00053338973202698709 0 0 -0.00055005555698475512 0 0 -0.00053338973202698709 0 0 -0.00048339225715368221 0 0 -0.00046672643219591392 0 0 -0.00048339225715368221 0 0 -0.00050005808211145051 0 0 -0.00043339478228037771 0 0 -0.00045006060723814595 0 0 -0.00045006060723814595 0 0 -0.00046672643219591392 0 0 -0.0004000631323648414 0 0 -0.00038339730740707343 0 0 -0.0004000631323648414 0 0 -0.00041672895732260964 0 0 -0.00043339478228037771 0 0 -0.00041672895732260964 0 0 -0.00036673148244930541 0 0 -0.00035006565749153733 0 0 -0.00036673148244930541 0 0 -0.00038339730740707343 0 0 -0.00031673400757600102 0 0 -0.00033339983253376931 0 0 -0.00033339983253376931 0 0 -0.00035006565749153733 0 0 -0.000900037881096255 0 0 -0.00091670370605393683 0 0 -0.00091670370605393683 0 0 -0.00093336953101165357 0 0 -0.00086670623118091639 0 0 -0.00088337205613858542 0 0 -0.000900037881096255 0 0 -0.00088337205613858542 0 0 -0.00083337458126557789 0 0 -0.00081670875630790896 0 0 -0.00083337458126557789 0 0 -0.00085004040622324703 0 0 -0.00086670623118091639 0 0 -0.00085004040622324703 0 0 -0.00078337710639257122 0 0 -0.00080004293135024025 0 0 -0.00080004293135024025 0 0 -0.00081670875630790896 0 0 -0.00075004545647723271 0 0 -0.00076671128143490229 0 0 -0.00078337710639257122 0 0 -0.00076671128143490229 0 0 -0.00071671380656189356 0 0 -0.00070004798160422398 0 0 -0.00071671380656189356 0 0 -0.00073337963151956325 0 0 -0.00075004545647723271 0 0 -0.00073337963151956325 0 0 -0.00066671633168888527 0 0 -0.00068338215664655463 0 0 -0.00068338215664655463 0 0 -0.00070004798160422398 0 0 -0.00061671885681582547 0 0 -0.00063338468177354427 0 0 -0.00063338468177354427 0 0 -0.00065005050673121591 0 0 -0.00066671633168888527 0 0 -0.00065005050673121591 0 0 -0.001000032830842529 0 0 -0.0010166986558002478 0 0 -0.001000032830842529 0 0 -0.00098336700588480997 0 0 -0.00098336700588480997 0 0 -0.00096670118092709117 0 0 -0.00096670118092709117 0 0 -0.00095003535596937237 0 0 -0.00093336953101165357 0 0 -0.00095003535596937237 0 0 -0.0010333644807579664 0 0 -0.0010166986558002478 0 0 -0.0010333644807579664 0 0 -0.0010500303057156852 0 0 -0.0010500303057156852 0 0 -0.0010666961306734037 0 0 -0.0010666961306734037 0 0 -0.0010833619556311221 0 0 -0.0010833619556311221 0 0 -0.0011000277805888511 0 0 -0.0011000277805888511 0 0 -0.0011166936055465927 0 0 -0.0011166936055465927 0 0 -0.001133359430504336 0 0 -0.00116669108041982 0 0 -0.0011500252554620791 0 0 -0.0011500252554620791 0 0 -0.001133359430504336 0 0 -0.0012000227303352643 0 0 -0.0012166885552929894 0 0 -0.0012000227303352643 0 0 -0.0011833569053775455 0 0 -0.00116669108041982 0 0 -0.0011833569053775455 0 0 -0.0012166885552929894 0 0 -0.0012333543802507201 0 0 -0.0012333543802507201 0 0 -0.0012500202052084504 
</DataArray>
</PointData>
<CellData Scalars="" Vectors="" Tensors="effective_stress,">
<DataArray type="Float64" Name="effective_stress" NumberOfComponents="9" format="ascii">
-3333.1649831403038 0 0 0 -3333.1649831403038 0 0 0 -9999.4949494209104 -3333.1650002788688 0 0 0 -3333.1650002788688 0 0 0 -9999.495000836605 -3333.164991546766 0 0 0 -3333.164991546766 0 0 0 -9999.4949746402999 -3333.1649915467679 0 0 0 -3333.1649915467679 0 0 0 -9999.4949746403036 -3333.1650002788701 0 0 0 -3333.1650002788701 0 0 0 -9999.4950008366104 -3333.1649915467679 0 0 0 -3333.1649915467679 0 0 0 -9999.4949746402999 -3333.1649915467679 0 0 0 -3333.1649915467679 0 0 0 -9999.4949746402999 -3333.1649915467715 0 0 0 -3333.1649915467715 0 0 0 -9999.4949746402999 -3333.1649915467715 0 0 0 -3333.1649915467715 0 0 0 -9999.4949746402999 -3333.1649915467751 0 0 0 -3333.1649915467751 0 0 0 -9999.4949746403145 -3333.1649915467788 0 0 0 -3333.1649915467788 0 0 0 -9999.494974640329 -3333.1649915467715 0 0 0 -3333.1649915467715 0 0 0 -9999.494974640329 -3333.164991546786 0 0 0 -3333.164991546786 0 0 0 -9999.4949746403581 -3333.1649915467933 0 0 0 -3333.1649915467933 0 0 0 -9999.4949746404163 -3333.1649915468006 0 0 0 -3333.1649915468006 0 0 0 -9999.4949746404018 -3333.1649915468151 0 0 0 -3333.1649915468151 0 0 0 -9999.4949746404309 -3333.164991546786 0 0 0 -3333.164991546786 0 0 0 -9999.4949746403727 -3333.1649915467715 0 0 0 -3333.1649915467715 0 0 0 -9999.4949746403436 -3333.1649915467788 0 0 0 -3333.1649915467788 0 0 0 -9999.4949746403436 -3333.1649915468442 0 0 0 -3333.1649915468442 0 0 0 -9999.4949746405473 -3333.1649915467569 0 0 0 -3333.1649915467569 0 0 0 -9999.4949746402563 -3333.1649915468297 0 0 0 -3333.1649915468297 0 0 0 -9999.4949746404891 -3333.1649915468006 0 0 0 -3333.1649915468006 0 0 0 -9999.4949746403727 -3333.1649915468006 0 0 0 -3333.1649915468006 0 0 0 -9999.4949746404309 -3333.1649915468588 0 0 0 -3333.1649915468588 0 0 0 -9999.4949746406055 -3333.1649915467715 0 0 0 -3333.1649915467715 0 0 0 -9999.4949746403145 -3333.1649915468442 0 0 0 -3333.1649915468442 0 0 0 -9999.4949746404891 -3333.1649915468297 0 0 0 -3333.1649915468297 0 0 0 -9999.4949746404891 -3333.164991546786 0 0 0 -3333.164991546786 0 0 0 -9999.4949746403727 -3333.1649915468006 0 0 0 -3333.1649915468006 0 0 0 -9999.4949746403727 -3333.1649915467715 0 0 0 -3333.1649915467715 0 0 0 -9999.4949746402854 -3333.1649915468006 0 0 0 -3333.1649915468006 0 0 0 -9999.4949746403727 -3333.164991546786 0 0 0 -3333.164991546786 0 0 0 -9999.4949746403727 -3333.164991546786 0 0 0 -3333.164991546786 0 0 0 -9999.4949746403727 -3333.1649915467715 0 0 0 -3333.1649915467715 0 0 0 -9999.4949746403436 -3333.1649915468079 0 0 0 -3333.1649915468079 0 0 0 -9999.4949746404018 -3333.164991546786 0 0 0 -3333.164991546786 0 0 0 -9999.4949746403145 -3333.1649915467424 0 0 0 -3333.1649915467424 0 0 0 -9999.4949746403145 -3333.1649915467715 0 0 0 -3333.1649915467715 0 0 0 -9999.4949746404309 -3333.1649915466842 0 0 0 -3333.1649915466842 0 0 0 -9999.4949746400816 -3333.1649915468297 0 0 0 -3333.1649915468297 0 0 0 -9999.4949746404309 -3333.1649915467133 0 0 0 -3333.1649915467133 0 0 0 -9999.4949746400816 -3333.1649915467133 0 0 0 -3333.1649915467133 0 0 0 -9999.4949746401981 -3333.1649915467715 0 0 0 -3333.1649915467715 0 0 0 -9999.4949746402563 -3333.1649915466551 0 0 0 -3333.1649915466551 0 0 0 -9999.4949746400234 -3333.1649915466842 0 0 0 -3333.1649915466842 0 0 0 -9999.4949746400234 -3333.1649915467715 0 0 0 -3333.1649915467715 0 0 0 -9999.4949746403727 -3333.1649915467133 0 0 0 -3333.1649915467133 0 0 0 -9999.4949746400816 -3333.1649915468006 0 0 0 -3333.1649915468006 0 0 0 -9999.4949746404309 -3333.1649915468588 0 0 0 -3333.1649915468588 0 0 0 -9999.4949746405473 -3333.1649915468006 0 0 0 -3333.1649915468006 0 0 0 -9999.4949746403727 -3333.1649915467715 0 0 0 -3333.1649915467715 0 0 0 -9999.4949746403145 -3333.1649915467715 0 0 0 -3333.1649915467715 0 0 0 -9999.4949746403145 -3333.164991546786 0 0 0 -3333.164991546786 0 0 0 -9999.4949746403727 -3333.1649915467715 0 0 0 -3333.1649915467715 0 0 0 -9999.4949746403145 -3333.164991546786 0 0 0 -3333.164991546786 0 0 0 -9999.4949746403727 -3333.1649915468006 0 0 0 -3333.1649915468006 0 0 0 -9999.4949746404309 -3333.1649915468297 0 0 0 -3333.1649915468297 0 0 0 -9999.4949746405473 -3333.1649915468006 0 0 0 -3333.1649915468006 0 0 0 -9999.4949746404309 -3333.1649915467715 0 0 0 -3333.1649915467715 0 0 0 -9999.4949746403145 -3333.1649915468006 0 0 0 -3333.1649915468006 0 0 0 -9999.4949746404309 -3333.1649915467715 0 0 0 -3333.1649915467715 0 0 0 -9999.4949746403145 -3333.1649915467715 0 0 0 -3333.1649915467715 0 0 0 -9999.4949746403145 -3333.1649915467715 0 0 0 -3333.1649915467715 0 0 0 -9999.4949746403145 -3333.1649915467133 0 0 0 -3333.1649915467133 0 0 0 -9999.4949746401981 -3333.1649915467133 0 0 0 -3333.1649915467133 0 0 0 -9999.4949746401981 -3333.1649915466842 0 0 0 -3333.1649915466842 0 0 0 -9999.4949746400816 -3333.1649915467715 0 0 0 -3333.1649915467715 0 0 0 -9999.4949746403145 -3333.1649915467715 0 0 0 -3333.1649915467715 0 0 0 -9999.4949746403145 -3333.1649915467133 0 0 0 -3333.1649915467133 0 0 0 -9999.4949746401981 -3333.1649915467715 0 0 0 -3333.1649915467715 0 0 0 -9999.4949746403145 -3333.1649915468006 0 0 0 -3333.1649915468006 0 0 0 -9999.4949746404309 -3333.1649915468297 0 0 0 -3333.1649915468297 0 0 0 -9999.4949746404309 -3333.1649915468006 0 0 0 -3333.1649915468006 0 0 0 -9999.4949746404309 -3333.1649915468879 0 0 0 -3333.1649915468879 0 0 0 -9999.4949746406637 
</DataArray>
</CellData>
</Piece>
</UnstructuredGrid>
</VTKFile>
