<?xml version="1.0"?>
<VTKFile type="UnstructuredGrid" version="0.1" byte_order="LittleEndian">
<UnstructuredGrid>
<Piece NumberOfPoints="2160" NumberOfCells="540">
<Points>
<DataArray type="Float64" NumberOfComponents="3" format="ascii">
-4.3301270160527148 -2.500000004970083 -12 -5 -1.397247784140632e-08 -12 -2.9547160992544761 -1.820741508163664 -12 -2.9547160992544761 -1.820741508163664 -15 -2.5000000000000022 -4.3301270189221919 -12 -4.3301270160527148 -2.500000004970083 -12 -2.9547160992544761 -1.820741508163664 -12 -2.9547160992544761 -1.820741508163664 -15 -4.3301270160527148 -2.500000004970083 -15 -2.5000000000000022 -4.3301270189221919 -12 -2.9547160992544761 -1.820741508163664 -15 -4.3301270160527148 -2.500000004970083 -12 -5 -1.397247784140632e-08 -15 -4.3301270160527148 -2.500000004970083 -15 -2.9547160992544761 -1.820741508163664 -15 -4.3301270160527148 -2.500000004970083 -12 -0.66987297914647026 -2.499999999706382 -15 -2.2735805010731909 0.22641949675281539 -12 -2.9547160992544761 -1.820741508163664 -15 -0.66987297914647026 -2.499999999706382 -12 -2.5000000000000022 -4.3301270189221919 -12 -0.66987297914647026 -2.499999999706382 -12 -0.66987297914647026 -2.499999999706382 -15 -2.9547160992544761 -1.820741508163664 -15 -2.2735805010731909 0.22641949675281539 -12 -0.66987297914647026 -2.499999999706382 -12 -2.9547160992544761 -1.820741508163664 -12 -2.9547160992544761 -1.820741508163664 -15 -0.66987297914647026 -2.499999999706382 -12 -2.5000000000000022 -4.3301270189221919 -12 -2.9547160992544761 -1.820741508163664 -12 -2.9547160992544761 -1.820741508163664 -15 -2.5000000000000022 -4.3301270189221919 -15 6.9142305214597846e-09 -5 -12 -0.66987297914647026 -2.499999999706382 -15 -2.5000000000000022 -4.3301270189221919 -12 -2.5000000000000022 -4.3301270189221919 -15 -0.66987297914647026 -2.499999999706382 -15 -2.9547160992544761 -1.820741508163664 -15 -2.5000000000000022 -4.3301270189221919 -12 -4.3301270160527148 -2.500000004970083 -15 -2.5000000000000022 -4.3301270189221919 -15 -2.9547160992544761 -1.820741508163664 -15 -2.5000000000000022 -4.3301270189221919 -12 -2.5000000000000022 -4.3301270189221919 -15 6.9142305214597846e-09 -5 -15 -0.66987297914647026 -2.499999999706382 -15 6.9142305214597846e-09 -5 -12 -0.66987297914647026 -2.499999999706382 -15 6.9142305214597846e-09 -5 -15 0.91506351643986317 -3.4150635091400758 -15 6.9142305214597846e-09 -5 -12 -0.66987297914647026 -2.499999999706382 -15 6.9142305214597846e-09 -5 -12 0.91506351643986317 -3.4150635091400758 -15 -0.66987297914647026 -2.499999999706382 -12 0.20080558631870429 0.033909897404034287 -15 -0.66987297914647026 -2.499999999706382 -15 0.95458002071209891 -1.657898275923388 -15 -0.66987297914647026 -2.499999999706382 -12 0.95458002071209891 -1.657898275923388 -15 -0.66987297914647026 -2.499999999706382 -15 0.91506351643986317 -3.4150635091400758 -15 -0.66987297914647026 -2.499999999706382 -12 0.95458002071209891 -1.657898275923388 -15 -0.66987297914647026 -2.499999999706382 -12 0.91506351643986317 -3.4150635091400758 -15 0.91506351643986317 -3.4150635091400758 -12 2.3883545080289421 -0.94497882694672608 -12 0.95458002071209891 -1.657898275923388 -12 0.95458002071209891 -1.657898275923388 -15 2.217625015551433 -2.5696135239339939 -15 2.3883545080289421 -0.94497882694672608 -15 0.95458002071209891 -1.657898275923388 -15 2.217625015551433 -2.5696135239339939 -15 2.3883545080289421 -0.94497882694672608 -12 0.95458002071209891 -1.657898275923388 -15 0.91506351643986317 -3.4150635091400758 -12 2.217625015551433 -2.5696135239339939 -15 0.95458002071209891 -1.657898275923388 -12 0.95458002071209891 -1.657898275923388 -15 0.91506351643986317 -3.4150635091400758 -15 2.217625015551433 -2.5696135239339939 -15 0.91506351643986317 -3.4150635091400758 -12 0.91506351643986317 -3.4150635091400758 -15 2.500000010727558 -4.3301270127286351 -15 2.217625015551433 -2.5696135239339939 -15 2.500000010727558 -4.3301270127286351 -12 6.9142305214597846e-09 -5 -15 2.500000010727558 -4.3301270127286351 -12 0.91506351643986317 -3.4150635091400758 -15 6.9142305214597846e-09 -5 -12 6.9142305214597846e-09 -5 -15 2.500000010727558 -4.3301270127286351 -15 0.91506351643986317 -3.4150635091400758 -15 2.500000010727558 -4.3301270127286351 -12 0.91506351643986317 -3.4150635091400758 -15 2.500000010727558 -4.3301270127286351 -12 2.217625015551433 -2.5696135239339939 -15 0.91506351643986317 -3.4150635091400758 -12 2.500000010727558 -4.3301270127286351 -12 6.9142305214597846e-09 -5 -12 0.91506351643986317 -3.4150635091400758 -12 0.91506351643986317 -3.4150635091400758 -15 2.500000010727558 -4.3301270127286351 -12 0.91506351643986317 -3.4150635091400758 -12 2.217625015551433 -2.5696135239339939 -12 2.217625015551433 -2.5696135239339939 -15 0.95458002071209891 -1.657898275923388 -12 2.3883545080289421 -0.94497882694672608 -12 2.217625015551433 -2.5696135239339939 -12 2.217625015551433 -2.5696135239339939 -15 0.91506351643986317 -3.4150635091400758 -12 0.95458002071209891 -1.657898275923388 -12 2.217625015551433 -2.5696135239339939 -12 2.217625015551433 -2.5696135239339939 -15 -0.66987297914647026 -2.499999999706382 -12 0.95458002071209891 -1.657898275923388 -12 0.91506351643986317 -3.4150635091400758 -12 0.95458002071209891 -1.657898275923388 -15 -0.66987297914647026 -2.499999999706382 -12 0.20080558631870429 0.033909897404034287 -12 0.95458002071209891 -1.657898275923388 -12 0.95458002071209891 -1.657898275923388 -15 6.9142305214597846e-09 -5 -12 -0.66987297914647026 -2.499999999706382 -12 0.91506351643986317 -3.4150635091400758 -12 0.91506351643986317 -3.4150635091400758 -15 6.9142305214597846e-09 -5 -12 -2.5000000000000022 -4.3301270189221919 -12 -0.66987297914647026 -2.499999999706382 -12 -0.66987297914647026 -2.499999999706382 -15 -0.66987297914647026 -2.499999999706382 -12 6.9142305214597846e-09 -5 -12 0.91506351643986317 -3.4150635091400758 -12 6.9142305214597846e-09 -5 -9 6.9142305214597846e-09 -5 -9 -0.66987297914647026 -2.499999999706382 -9 0.91506351643986317 -3.4150635091400758 -9 0.91506351643986317 -3.4150635091400758 -12 -0.66987297914647026 -2.499999999706382 -12 6.9142305214597846e-09 -5 -9 0.91506351643986317 -3.4150635091400758 -12 -0.66987297914647026 -2.499999999706382 -9 6.9142305214597846e-09 -5 -9 -2.5000000000000022 -4.3301270189221919 -9 -0.66987297914647026 -2.499999999706382 -9 -0.66987297914647026 -2.499999999706382 -12 -2.5000000000000022 -4.3301270189221919 -12 6.9142305214597846e-09 -5 -12 -0.66987297914647026 -2.499999999706382 -12 6.9142305214597846e-09 -5 -9 0.20080558631870429 0.033909897404034287 -12 -0.66987297914647026 -2.499999999706382 -12 0.95458002071209891 -1.657898275923388 -12 -0.66987297914647026 -2.499999999706382 -9 0.95458002071209891 -1.657898275923388 -12 -0.66987297914647026 -2.499999999706382 -9 0.91506351643986317 -3.4150635091400758 -12 0.91506351643986317 -3.4150635091400758 -9 -0.66987297914647026 -2.499999999706382 -9 0.20080558631870429 0.033909897404034287 -9 0.95458002071209891 -1.657898275923388 -9 0.95458002071209891 -1.657898275923388 -12 0.95458002071209891 -1.657898275923388 -12 -0.66987297914647026 -2.499999999706382 -12 0.91506351643986317 -3.4150635091400758 -12 -0.66987297914647026 -2.499999999706382 -9 -0.66987297914647026 -2.499999999706382 -9 0.95458002071209891 -1.657898275923388 -9 0.91506351643986317 -3.4150635091400758 -9 0.95458002071209891 -1.657898275923388 -12 0.95458002071209891 -1.657898275923388 -9 2.3883545080289421 -0.94497882694672608 -9 2.217625015551433 -2.5696135239339939 -9 2.217625015551433 -2.5696135239339939 -12 2.3883545080289421 -0.94497882694672608 -12 0.95458002071209891 -1.657898275923388 -12 2.217625015551433 -2.5696135239339939 -12 2.3883545080289421 -0.94497882694672608 -9 2.3883545080289421 -0.94497882694672608 -9 0.95458002071209891 -1.657898275923388 -9 0.95458002071209891 -1.657898275923388 -12 2.217625015551433 -2.5696135239339939 -12 0.95458002071209891 -1.657898275923388 -12 0.91506351643986317 -3.4150635091400758 -9 2.217625015551433 -2.5696135239339939 -12 0.95458002071209891 -1.657898275923388 -9 0.95458002071209891 -1.657898275923388 -12 0.91506351643986317 -3.4150635091400758 -12 2.217625015551433 -2.5696135239339939 -12 0.91506351643986317 -3.4150635091400758 -9 0.91506351643986317 -3.4150635091400758 -9 0.95458002071209891 -1.657898275923388 -9 2.217625015551433 -2.5696135239339939 -9 2.217625015551433 -2.5696135239339939 -12 6.9142305214597846e-09 -5 -12 2.500000010727558 -4.3301270127286351 -12 0.91506351643986317 -3.4150635091400758 -12 2.500000010727558 -4.3301270127286351 -9 2.500000010727558 -4.3301270127286351 -9 6.9142305214597846e-09 -5 -9 0.91506351643986317 -3.4150635091400758 -9 0.91506351643986317 -3.4150635091400758 -12 6.9142305214597846e-09 -5 -12 2.500000010727558 -4.3301270127286351 -9 0.91506351643986317 -3.4150635091400758 -12 6.9142305214597846e-09 -5 -9 0.91506351643986317 -3.4150635091400758 -12 2.500000010727558 -4.3301270127286351 -9 2.217625015551433 -2.5696135239339939 -12 0.91506351643986317 -3.4150635091400758 -9 0.91506351643986317 -3.4150635091400758 -12 2.500000010727558 -4.3301270127286351 -12 2.217625015551433 -2.5696135239339939 -12 2.500000010727558 -4.3301270127286351 -9 2.500000010727558 -4.3301270127286351 -9 0.91506351643986317 -3.4150635091400758 -9 2.217625015551433 -2.5696135239339939 -9 2.217625015551433 -2.5696135239339939 -12 6.9142305214597846e-09 -5 -9 2.500000010727558 -4.3301270127286351 -9 0.91506351643986317 -3.4150635091400758 -9 2.500000010727558 -4.3301270127286351 -6 0.91506351643986317 -3.4150635091400758 -9 2.500000010727558 -4.3301270127286351 -9 2.217625015551433 -2.5696135239339939 -9 2.500000010727558 -4.3301270127286351 -6 0.95458002071209891 -1.657898275923388 -9 0.91506351643986317 -3.4150635091400758 -9 2.217625015551433 -2.5696135239339939 -9 0.91506351643986317 -3.4150635091400758 -6 2.3883545080289421 -0.94497882694672608 -9 0.95458002071209891 -1.657898275923388 -9 2.217625015551433 -2.5696135239339939 -9 2.3883545080289421 -0.94497882694672608 -6 0.95458002071209891 -1.657898275923388 -9 -0.66987297914647026 -2.499999999706382 -9 0.91506351643986317 -3.4150635091400758 -9 -0.66987297914647026 -2.499999999706382 -6 0.20080558631870429 0.033909897404034287 -9 -0.66987297914647026 -2.499999999706382 -9 0.95458002071209891 -1.657898275923388 -9 -0.66987297914647026 -2.499999999706382 -6 -2.5000000000000022 -4.3301270189221919 -9 6.9142305214597846e-09 -5 -9 -0.66987297914647026 -2.499999999706382 -9 6.9142305214597846e-09 -5 -6 -0.66987297914647026 -2.499999999706382 -9 6.9142305214597846e-09 -5 -9 0.91506351643986317 -3.4150635091400758 -9 6.9142305214597846e-09 -5 -6 -2.5000000000000022 -4.3301270189221919 -9 -0.66987297914647026 -2.499999999706382 -9 -2.9547160992544761 -1.820741508163664 -9 -2.5000000000000022 -4.3301270189221919 -6 -4.3301270160527148 -2.500000004970083 -9 -2.5000000000000022 -4.3301270189221919 -9 -2.9547160992544761 -1.820741508163664 -9 -2.5000000000000022 -4.3301270189221919 -6 -2.5000000000000022 -4.3301270189221919 -12 6.9142305214597846e-09 -5 -9 -0.66987297914647026 -2.499999999706382 -12 -2.5000000000000022 -4.3301270189221919 -9 -2.5000000000000022 -4.3301270189221919 -12 -0.66987297914647026 -2.499999999706382 -12 -2.9547160992544761 -1.820741508163664 -12 -2.5000000000000022 -4.3301270189221919 -9 -4.3301270160527148 -2.500000004970083 -12 -2.5000000000000022 -4.3301270189221919 -12 -2.9547160992544761 -1.820741508163664 -12 -2.5000000000000022 -4.3301270189221919 -9 -2.2735805010731909 0.22641949675281539 -9 -0.66987297914647026 -2.499999999706382 -9 -2.9547160992544761 -1.820741508163664 -9 -2.9547160992544761 -1.820741508163664 -12 -0.66987297914647026 -2.499999999706382 -9 -2.5000000000000022 -4.3301270189221919 -9 -2.9547160992544761 -1.820741508163664 -9 -2.9547160992544761 -1.820741508163664 -12 -2.5000000000000022 -4.3301270189221919 -9 -0.66987297914647026 -2.499999999706382 -9 -0.66987297914647026 -2.499999999706382 -12 -2.9547160992544761 -1.820741508163664 -12 -0.66987297914647026 -2.499999999706382 -12 -2.2735805010731909 0.22641949675281539 -9 -2.9547160992544761 -1.820741508163664 -12 -0.66987297914647026 -2.499999999706382 -9 -2.5000000000000022 -4.3301270189221919 -9 -4.3301270160527148 -2.500000004970083 -9 -2.9547160992544761 -1.820741508163664 -9 -2.9547160992544761 -1.820741508163664 -12 -4.3301270160527148 -2.500000004970083 -12 -2.5000000000000022 -4.3301270189221919 -9 -2.9547160992544761 -1.820741508163664 -12 -4.3301270160527148 -2.500000004970083 -9 -4.3301270160527148 -2.500000004970083 -9 -5 -1.397247784140632e-08 -9 -2.9547160992544761 -1.820741508163664 -9 -2.9547160992544761 -1.820741508163664 -12 -5 -1.397247784140632e-08 -12 -4.3301270160527148 -2.500000004970083 -12 -2.9547160992544761 -1.820741508163664 -12 -4.3301270160527148 -2.500000004970083 -9 -5 -1.397247784140632e-08 -9 -4.3301270160527148 -2.500000004970083 -9 -2.9547160992544761 -1.820741508163664 -9 -4.3301270160527148 -2.500000004970083 -6 -2.2735805010731909 0.22641949675281539 -9 -0.66987297914647026 -2.499999999706382 -9 0.20080558631870429 0.033909897404034287 -9 -2.2735805010731909 0.22641949675281539 -6 -0.66987297914647026 -2.499999999706382 -9 -2.2735805010731909 0.22641949675281539 -9 -2.9547160992544761 -1.820741508163664 -9 -2.2735805010731909 0.22641949675281539 -6 -2.2735805010731909 0.22641949675281539 -9 0.20080558631870429 0.033909897404034287 -9 -0.91506351183037493 1.5849364925866429 -9 -2.2735805010731909 0.22641949675281539 -6 -2.2735805010731909 0.22641949675281539 -9 -5 -1.397247784140632e-08 -9 -2.9547160992544761 -1.820741508163664 -9 -5 -1.397247784140632e-08 -6 -5 -1.397247784140632e-08 -9 -2.2735805010731909 0.22641949675281539 -9 -2.9547160992544761 -1.820741508163664 -9 -2.9547160992544761 -1.820741508163664 -12 -2.2735805010731909 0.22641949675281539 -12 -5 -1.397247784140632e-08 -12 -2.9547160992544761 -1.820741508163664 -12 -5 -1.397247784140632e-08 -9 -2.2735805010731909 0.22641949675281539 -12 -5 -1.397247784140632e-08 -9 -2.9547160992544761 -1.820741508163664 -12 -2.2735805010731909 0.22641949675281539 -9 -5 -1.397247784140632e-08 -12 -4.3301270160527148 -2.500000004970083 -9 -2.9547160992544761 -1.820741508163664 -12 -5 -1.397247784140632e-08 -9 -0.66987297914647026 -2.499999999706382 -12 -2.2735805010731909 0.22641949675281539 -12 -2.9547160992544761 -1.820741508163664 -12 -2.2735805010731909 0.22641949675281539 -9 -2.2735805010731909 0.22641949675281539 -12 0.20080558631870429 0.033909897404034287 -12 -0.91506351183037493 1.5849364925866429 -12 -2.2735805010731909 0.22641949675281539 -9 -2.2735805010731909 0.22641949675281539 -12 -0.66987297914647026 -2.499999999706382 -12 0.20080558631870429 0.033909897404034287 -12 -2.2735805010731909 0.22641949675281539 -9 -1.107852388446384 3.1911857209629071 -9 -0.91506351183037493 1.5849364925866429 -9 -2.2253246846922492 2.366533744740174 -9 -2.2253246846922492 2.366533744740174 -12 -2.2735805010731909 0.22641949675281539 -12 -0.91506351183037493 1.5849364925866429 -12 -2.2253246846922492 2.366533744740174 -12 -2.2735805010731909 0.22641949675281539 -9 -0.91506351183037493 1.5849364925866429 -12 -1.107852388446384 3.1911857209629071 -12 -2.2253246846922492 2.366533744740174 -12 -0.91506351183037493 1.5849364925866429 -9 -0.91506351183037493 1.5849364925866429 -9 -2.2735805010731909 0.22641949675281539 -9 -2.2253246846922492 2.366533744740174 -9 -2.2253246846922492 2.366533744740174 -12 -2.2735805010731909 0.22641949675281539 -9 -0.91506351183037493 1.5849364925866429 -9 -0.91506351183037493 1.5849364925866429 -12 -2.2253246846922492 2.366533744740174 -12 -2.2735805010731909 0.22641949675281539 -9 -4.3301270221112951 2.4999999944763132 -9 -2.2253246846922492 2.366533744740174 -9 -2.2253246846922492 2.366533744740174 -12 -4.3301270221112951 2.4999999944763132 -9 -2.2735805010731909 0.22641949675281539 -9 -2.2735805010731909 0.22641949675281539 -12 -2.2253246846922492 2.366533744740174 -12 -4.3301270221112951 2.4999999944763132 -12 -5 -1.397247784140632e-08 -9 -2.2735805010731909 0.22641949675281539 -12 -4.3301270221112951 2.4999999944763132 -9 -4.3301270221112951 2.4999999944763132 -12 -5 -1.397247784140632e-08 -12 -2.2735805010731909 0.22641949675281539 -12 -5 -1.397247784140632e-08 -9 -5 -1.397247784140632e-08 -9 -4.3301270221112951 2.4999999944763132 -9 -2.2735805010731909 0.22641949675281539 -9 -2.2735805010731909 0.22641949675281539 -12 -4.3301270221112951 2.4999999944763132 -12 -2.2735805010731909 0.22641949675281539 -12 -2.2253246846922492 2.366533744740174 -12 -4.3301270221112951 2.4999999944763132 -9 -4.3301270221112951 2.4999999944763132 -9 -5 -1.397247784140632e-08 -9 -2.2735805010731909 0.22641949675281539 -9 -5 -1.397247784140632e-08 -6 -4.3301270221112951 2.4999999944763132 -9 -2.2735805010731909 0.22641949675281539 -9 -2.2253246846922492 2.366533744740174 -9 -4.3301270221112951 2.4999999944763132 -6 -0.91506351183037493 1.5849364925866429 -9 -1.107852388446384 3.1911857209629071 -9 -2.2253246846922492 2.366533744740174 -9 -0.91506351183037493 1.5849364925866429 -6 -2.2735805010731909 0.22641949675281539 -9 -0.91506351183037493 1.5849364925866429 -9 -2.2253246846922492 2.366533744740174 -9 -2.2735805010731909 0.22641949675281539 -6 0.20080558631870429 0.033909897404034287 -9 0.37580157663508379 2.5408650916807378 -9 -0.91506351183037493 1.5849364925866429 -9 0.20080558631870429 0.033909897404034287 -6 -0.91506351183037493 1.5849364925866429 -9 0.37580157663508379 2.5408650916807378 -9 -1.107852388446384 3.1911857209629071 -9 0.37580157663508379 2.5408650916807378 -6 0.20080558631870429 0.033909897404034287 -9 2.3883545080289421 -0.94497882694672608 -9 2.465848112410058 1.4099871989758821 -9 2.3883545080289421 -0.94497882694672608 -6 2.3883545080289421 -0.94497882694672608 -9 0.20080558631870429 0.033909897404034287 -9 0.95458002071209891 -1.657898275923388 -9 2.3883545080289421 -0.94497882694672608 -6 0.37580157663508379 2.5408650916807378 -9 0.20080558631870429 0.033909897404034287 -9 2.465848112410058 1.4099871989758821 -9 0.20080558631870429 0.033909897404034287 -6 0.37580157663508379 2.5408650916807378 -12 0.20080558631870429 0.033909897404034287 -9 2.465848112410058 1.4099871989758821 -12 0.37580157663508379 2.5408650916807378 -9 0.37580157663508379 2.5408650916807378 -9 2.4999999879139869 4.3301270259000564 -9 2.465848112410058 1.4099871989758821 -9 2.465848112410058 1.4099871989758821 -12 0.20080558631870429 0.033909897404034287 -9 0.37580157663508379 2.5408650916807378 -9 2.465848112410058 1.4099871989758821 -9 2.465848112410058 1.4099871989758821 -12 0.37580157663508379 2.5408650916807378 -12 0.20080558631870429 0.033909897404034287 -12 2.465848112410058 1.4099871989758821 -12 0.20080558631870429 0.033909897404034287 -9 2.3883545080289421 -0.94497882694672608 -12 0.20080558631870429 0.033909897404034287 -12 0.95458002071209891 -1.657898275923388 -12 2.3883545080289421 -0.94497882694672608 -9 2.3883545080289421 -0.94497882694672608 -9 0.20080558631870429 0.033909897404034287 -9 0.20080558631870429 0.033909897404034287 -12 0.95458002071209891 -1.657898275923388 -12 2.3883545080289421 -0.94497882694672608 -9 0.20080558631870429 0.033909897404034287 -9 2.465848112410058 1.4099871989758821 -9 2.465848112410058 1.4099871989758821 -12 0.20080558631870429 0.033909897404034287 -12 2.3883545080289421 -0.94497882694672608 -12 2.465848112410058 1.4099871989758821 -12 2.3883545080289421 -0.94497882694672608 -9 0.20080558631870429 0.033909897404034287 -12 2.3883545080289421 -0.94497882694672608 -9 2.465848112410058 1.4099871989758821 -12 0.20080558631870429 0.033909897404034287 -9 0.20080558631870429 0.033909897404034287 -9 2.3883545080289421 -0.94497882694672608 -9 0.95458002071209891 -1.657898275923388 -9 0.95458002071209891 -1.657898275923388 -12 -2.2735805010731909 0.22641949675281539 -9 0.20080558631870429 0.033909897404034287 -9 0.20080558631870429 0.033909897404034287 -12 -0.91506351183037493 1.5849364925866429 -12 -2.2735805010731909 0.22641949675281539 -9 -0.66987297914647026 -2.499999999706382 -9 -0.66987297914647026 -2.499999999706382 -12 0.20080558631870429 0.033909897404034287 -12 0.20080558631870429 0.033909897404034287 -12 -0.66987297914647026 -2.499999999706382 -9 0.95458002071209891 -1.657898275923388 -12 0.20080558631870429 0.033909897404034287 -9 -0.66987297914647026 -2.499999999706382 -9 -2.2735805010731909 0.22641949675281539 -9 0.20080558631870429 0.033909897404034287 -9 0.20080558631870429 0.033909897404034287 -12 0.20080558631870429 0.033909897404034287 -9 -2.2735805010731909 0.22641949675281539 -9 -0.91506351183037493 1.5849364925866429 -9 -0.91506351183037493 1.5849364925866429 -12 0.37580157663508379 2.5408650916807378 -9 0.20080558631870429 0.033909897404034287 -9 -0.91506351183037493 1.5849364925866429 -9 -0.91506351183037493 1.5849364925866429 -12 0.20080558631870429 0.033909897404034287 -12 0.37580157663508379 2.5408650916807378 -12 -0.91506351183037493 1.5849364925866429 -12 0.20080558631870429 0.033909897404034287 -9 0.20080558631870429 0.033909897404034287 -9 0.37580157663508379 2.5408650916807378 -9 0.37580157663508379 2.5408650916807378 -12 -0.91506351183037493 1.5849364925866429 -12 -0.91506351183037493 1.5849364925866429 -12 0.37580157663508379 2.5408650916807378 -9 -1.107852388446384 3.1911857209629071 -12 -0.91506351183037493 1.5849364925866429 -9 -0.91506351183037493 1.5849364925866429 -12 0.37580157663508379 2.5408650916807378 -12 -1.107852388446384 3.1911857209629071 -12 0.37580157663508379 2.5408650916807378 -9 0.20080558631870429 0.033909897404034287 -12 -2.2735805010731909 0.22641949675281539 -12 -0.91506351183037493 1.5849364925866429 -12 -0.91506351183037493 1.5849364925866429 -15 0.37580157663508379 2.5408650916807378 -12 0.20080558631870429 0.033909897404034287 -12 -0.91506351183037493 1.5849364925866429 -12 -0.91506351183037493 1.5849364925866429 -15 -0.66987297914647026 -2.499999999706382 -12 -2.2735805010731909 0.22641949675281539 -12 0.20080558631870429 0.033909897404034287 -12 0.20080558631870429 0.033909897404034287 -15 2.3883545080289421 -0.94497882694672608 -12 0.20080558631870429 0.033909897404034287 -12 2.465848112410058 1.4099871989758821 -12 2.465848112410058 1.4099871989758821 -15 0.20080558631870429 0.033909897404034287 -12 2.3883545080289421 -0.94497882694672608 -12 0.95458002071209891 -1.657898275923388 -12 0.95458002071209891 -1.657898275923388 -15 0.37580157663508379 2.5408650916807378 -12 2.4999999879139869 4.3301270259000564 -12 2.465848112410058 1.4099871989758821 -12 2.465848112410058 1.4099871989758821 -15 0.20080558631870429 0.033909897404034287 -12 0.37580157663508379 2.5408650916807378 -12 2.465848112410058 1.4099871989758821 -12 2.465848112410058 1.4099871989758821 -15 0.37580157663508379 2.5408650916807378 -15 0.20080558631870429 0.033909897404034287 -12 2.465848112410058 1.4099871989758821 -15 0.37580157663508379 2.5408650916807378 -12 0.37580157663508379 2.5408650916807378 -15 0.20080558631870429 0.033909897404034287 -15 2.465848112410058 1.4099871989758821 -15 0.20080558631870429 0.033909897404034287 -12 0.20080558631870429 0.033909897404034287 -15 2.3883545080289421 -0.94497882694672608 -15 2.465848112410058 1.4099871989758821 -15 2.3883545080289421 -0.94497882694672608 -12 2.3883545080289421 -0.94497882694672608 -12 0.20080558631870429 0.033909897404034287 -12 0.20080558631870429 0.033909897404034287 -15 0.95458002071209891 -1.657898275923388 -15 0.20080558631870429 0.033909897404034287 -15 2.3883545080289421 -0.94497882694672608 -12 2.465848112410058 1.4099871989758821 -15 0.20080558631870429 0.033909897404034287 -12 2.3883545080289421 -0.94497882694672608 -15 0.20080558631870429 0.033909897404034287 -15 0.95458002071209891 -1.657898275923388 -15 2.3883545080289421 -0.94497882694672608 -12 -2.2735805010731909 0.22641949675281539 -12 -0.66987297914647026 -2.499999999706382 -12 -0.66987297914647026 -2.499999999706382 -15 0.20080558631870429 0.033909897404034287 -15 -2.2735805010731909 0.22641949675281539 -12 0.20080558631870429 0.033909897404034287 -12 0.20080558631870429 0.033909897404034287 -15 -0.91506351183037493 1.5849364925866429 -15 0.20080558631870429 0.033909897404034287 -15 -0.66987297914647026 -2.499999999706382 -12 0.95458002071209891 -1.657898275923388 -15 0.20080558631870429 0.033909897404034287 -12 0.20080558631870429 0.033909897404034287 -12 0.37580157663508379 2.5408650916807378 -12 0.37580157663508379 2.5408650916807378 -15 -0.91506351183037493 1.5849364925866429 -15 -0.91506351183037493 1.5849364925866429 -15 0.37580157663508379 2.5408650916807378 -15 -1.107852388446384 3.1911857209629071 -15 0.37580157663508379 2.5408650916807378 -12 -0.91506351183037493 1.5849364925866429 -15 0.37580157663508379 2.5408650916807378 -12 -1.107852388446384 3.1911857209629071 -15 -0.91506351183037493 1.5849364925866429 -12 0.20080558631870429 0.033909897404034287 -15 0.37580157663508379 2.5408650916807378 -15 -0.91506351183037493 1.5849364925866429 -15 0.20080558631870429 0.033909897404034287 -12 -2.2735805010731909 0.22641949675281539 -12 -0.91506351183037493 1.5849364925866429 -12 -0.91506351183037493 1.5849364925866429 -15 -2.2253246846922492 2.366533744740174 -15 -2.2735805010731909 0.22641949675281539 -15 -0.91506351183037493 1.5849364925866429 -15 -2.2253246846922492 2.366533744740174 -15 -2.2735805010731909 0.22641949675281539 -12 -4.3301270221112951 2.4999999944763132 -12 -2.2735805010731909 0.22641949675281539 -12 -2.2735805010731909 0.22641949675281539 -15 -2.2253246846922492 2.366533744740174 -15 -0.91506351183037493 1.5849364925866429 -15 -1.107852388446384 3.1911857209629071 -15 -2.2253246846922492 2.366533744740174 -15 -0.91506351183037493 1.5849364925866429 -12 -0.91506351183037493 1.5849364925866429 -12 -2.2735805010731909 0.22641949675281539 -12 -2.2253246846922492 2.366533744740174 -12 -2.2253246846922492 2.366533744740174 -15 -2.2735805010731909 0.22641949675281539 -12 -4.3301270221112951 2.4999999944763132 -12 -2.2253246846922492 2.366533744740174 -12 -2.2253246846922492 2.366533744740174 -15 -1.107852388446384 3.1911857209629071 -12 -0.91506351183037493 1.5849364925866429 -12 -2.2253246846922492 2.366533744740174 -12 -2.2253246846922492 2.366533744740174 -15 -0.66987297914647026 -2.499999999706382 -15 -2.2735805010731909 0.22641949675281539 -15 -2.9547160992544761 -1.820741508163664 -15 -2.2735805010731909 0.22641949675281539 -12 -2.2735805010731909 0.22641949675281539 -15 0.20080558631870429 0.033909897404034287 -15 -0.91506351183037493 1.5849364925866429 -15 -2.2735805010731909 0.22641949675281539 -12 -2.2735805010731909 0.22641949675281539 -15 -0.66987297914647026 -2.499999999706382 -15 0.20080558631870429 0.033909897404034287 -15 -2.2735805010731909 0.22641949675281539 -12 -5 -1.397247784140632e-08 -15 -4.3301270160527148 -2.500000004970083 -12 -2.9547160992544761 -1.820741508163664 -15 -5 -1.397247784140632e-08 -12 -2.2735805010731909 0.22641949675281539 -15 -5 -1.397247784140632e-08 -12 -2.9547160992544761 -1.820741508163664 -15 -2.2735805010731909 0.22641949675281539 -12 -2.2735805010731909 0.22641949675281539 -15 -5 -1.397247784140632e-08 -15 -2.9547160992544761 -1.820741508163664 -15 -5 -1.397247784140632e-08 -12 -5 -1.397247784140632e-08 -12 -2.2735805010731909 0.22641949675281539 -12 -2.9547160992544761 -1.820741508163664 -12 -2.9547160992544761 -1.820741508163664 -15 -5 -1.397247784140632e-08 -12 -4.3301270221112951 2.4999999944763132 -12 -2.2735805010731909 0.22641949675281539 -12 -2.2735805010731909 0.22641949675281539 -15 -4.3301270221112951 2.4999999944763132 -15 -5 -1.397247784140632e-08 -15 -2.2735805010731909 0.22641949675281539 -15 -5 -1.397247784140632e-08 -12 -4.3301270221112951 2.4999999944763132 -15 -5 -1.397247784140632e-08 -12 -2.2735805010731909 0.22641949675281539 -15 -4.3301270221112951 2.4999999944763132 -12 -4.3301270221112951 2.4999999944763132 -15 -2.2735805010731909 0.22641949675281539 -15 -2.2253246846922492 2.366533744740174 -15 -4.3301270221112951 2.4999999944763132 -12 -2.4999999999999991 4.3301270189221936 -15 -4.3301270221112951 2.4999999944763132 -15 -2.2253246846922492 2.366533744740174 -15 -4.3301270221112951 2.4999999944763132 -12 -0.91506351183037493 1.5849364925866429 -12 -1.107852388446384 3.1911857209629071 -12 -1.107852388446384 3.1911857209629071 -15 -2.2253246846922492 2.366533744740174 -15 -2.4999999999999991 4.3301270189221936 -15 -4.3301270221112951 2.4999999944763132 -12 -2.2253246846922492 2.366533744740174 -15 -2.4999999999999991 4.3301270189221936 -12 -1.107852388446384 3.1911857209629071 -15 -2.4999999999999991 4.3301270189221936 -15 -2.2253246846922492 2.366533744740174 -15 -2.4999999999999991 4.3301270189221936 -12 -1.107852388446384 3.1911857209629071 -15 -2.4999999999999991 4.3301270189221936 -12 -2.2253246846922492 2.366533744740174 -15 -1.107852388446384 3.1911857209629071 -12 -6.2995949836986492e-09 5 -15 -2.4999999999999991 4.3301270189221936 -15 -1.107852388446384 3.1911857209629071 -15 -2.4999999999999991 4.3301270189221936 -12 -2.4999999999999991 4.3301270189221936 -12 -1.107852388446384 3.1911857209629071 -12 -2.2253246846922492 2.366533744740174 -12 -2.2253246846922492 2.366533744740174 -15 -4.3301270221112951 2.4999999944763132 -12 -2.4999999999999991 4.3301270189221936 -12 -2.2253246846922492 2.366533744740174 -12 -2.2253246846922492 2.366533744740174 -15 -2.4999999999999991 4.3301270189221936 -12 -4.3301270221112951 2.4999999944763132 -12 -2.2253246846922492 2.366533744740174 -12 -4.3301270221112951 2.4999999944763132 -9 -6.2995949836986492e-09 5 -12 -2.4999999999999991 4.3301270189221936 -12 -1.107852388446384 3.1911857209629071 -12 -2.4999999999999991 4.3301270189221936 -9 -0.91506351183037493 1.5849364925866429 -9 -1.107852388446384 3.1911857209629071 -9 -1.107852388446384 3.1911857209629071 -12 -2.2253246846922492 2.366533744740174 -12 -2.4999999999999991 4.3301270189221936 -12 -4.3301270221112951 2.4999999944763132 -9 -2.2253246846922492 2.366533744740174 -12 -2.4999999999999991 4.3301270189221936 -9 -4.3301270221112951 2.4999999944763132 -9 -2.4999999999999991 4.3301270189221936 -9 -2.2253246846922492 2.366533744740174 -9 -2.2253246846922492 2.366533744740174 -12 -2.4999999999999991 4.3301270189221936 -9 -1.107852388446384 3.1911857209629071 -9 -2.2253246846922492 2.366533744740174 -9 -2.2253246846922492 2.366533744740174 -12 -1.107852388446384 3.1911857209629071 -12 -2.4999999999999991 4.3301270189221936 -12 -2.2253246846922492 2.366533744740174 -12 -2.4999999999999991 4.3301270189221936 -9 -1.107852388446384 3.1911857209629071 -12 -2.4999999999999991 4.3301270189221936 -9 -2.2253246846922492 2.366533744740174 -12 -1.107852388446384 3.1911857209629071 -9 -6.2995949836986492e-09 5 -9 -2.4999999999999991 4.3301270189221936 -9 -1.107852388446384 3.1911857209629071 -9 -2.4999999999999991 4.3301270189221936 -6 -1.107852388446384 3.1911857209629071 -9 -2.4999999999999991 4.3301270189221936 -9 -2.2253246846922492 2.366533744740174 -9 -2.4999999999999991 4.3301270189221936 -6 -2.4999999999999991 4.3301270189221936 -9 -4.3301270221112951 2.4999999944763132 -9 -2.2253246846922492 2.366533744740174 -9 -4.3301270221112951 2.4999999944763132 -6 -6.2995949836986492e-09 5 -12 -2.4999999999999991 4.3301270189221936 -9 -1.107852388446384 3.1911857209629071 -12 -6.2995949836986492e-09 5 -9 2.4999999879139869 4.3301270259000564 -9 -6.2995949836986492e-09 5 -9 0.37580157663508379 2.5408650916807378 -9 -6.2995949836986492e-09 5 -6 2.4999999879139869 4.3301270259000564 -9 0.37580157663508379 2.5408650916807378 -9 2.465848112410058 1.4099871989758821 -9 2.4999999879139869 4.3301270259000564 -6 0.37580157663508379 2.5408650916807378 -9 -6.2995949836986492e-09 5 -9 -1.107852388446384 3.1911857209629071 -9 -6.2995949836986492e-09 5 -6 0.37580157663508379 2.5408650916807378 -9 -0.91506351183037493 1.5849364925866429 -9 -1.107852388446384 3.1911857209629071 -9 -1.107852388446384 3.1911857209629071 -12 0.37580157663508379 2.5408650916807378 -12 -6.2995949836986492e-09 5 -9 -1.107852388446384 3.1911857209629071 -12 0.37580157663508379 2.5408650916807378 -9 0.37580157663508379 2.5408650916807378 -12 -6.2995949836986492e-09 5 -12 -1.107852388446384 3.1911857209629071 -12 -6.2995949836986492e-09 5 -9 -2.4999999999999991 4.3301270189221936 -9 -6.2995949836986492e-09 5 -9 -1.107852388446384 3.1911857209629071 -9 -1.107852388446384 3.1911857209629071 -12 -6.2995949836986492e-09 5 -9 0.37580157663508379 2.5408650916807378 -9 -1.107852388446384 3.1911857209629071 -9 -1.107852388446384 3.1911857209629071 -12 2.4999999879139869 4.3301270259000564 -12 0.37580157663508379 2.5408650916807378 -12 2.465848112410058 1.4099871989758821 -12 2.4999999879139869 4.3301270259000564 -9 -6.2995949836986492e-09 5 -9 2.4999999879139869 4.3301270259000564 -9 0.37580157663508379 2.5408650916807378 -9 0.37580157663508379 2.5408650916807378 -12 2.4999999879139869 4.3301270259000564 -12 -6.2995949836986492e-09 5 -12 0.37580157663508379 2.5408650916807378 -12 -6.2995949836986492e-09 5 -9 2.4999999879139869 4.3301270259000564 -12 -6.2995949836986492e-09 5 -9 0.37580157663508379 2.5408650916807378 -12 2.4999999879139869 4.3301270259000564 -9 2.4999999879139869 4.3301270259000564 -9 0.37580157663508379 2.5408650916807378 -9 0.37580157663508379 2.5408650916807378 -12 2.465848112410058 1.4099871989758821 -12 -6.2995949836986492e-09 5 -12 2.4999999879139869 4.3301270259000564 -12 0.37580157663508379 2.5408650916807378 -12 0.37580157663508379 2.5408650916807378 -15 -2.4999999999999991 4.3301270189221936 -12 -6.2995949836986492e-09 5 -12 -1.107852388446384 3.1911857209629071 -12 -1.107852388446384 3.1911857209629071 -15 0.37580157663508379 2.5408650916807378 -12 -0.91506351183037493 1.5849364925866429 -12 -1.107852388446384 3.1911857209629071 -12 -1.107852388446384 3.1911857209629071 -15 -6.2995949836986492e-09 5 -12 0.37580157663508379 2.5408650916807378 -12 -1.107852388446384 3.1911857209629071 -12 -1.107852388446384 3.1911857209629071 -15 0.37580157663508379 2.5408650916807378 -15 -6.2995949836986492e-09 5 -12 -1.107852388446384 3.1911857209629071 -15 0.37580157663508379 2.5408650916807378 -12 0.37580157663508379 2.5408650916807378 -15 -6.2995949836986492e-09 5 -15 -1.107852388446384 3.1911857209629071 -15 -6.2995949836986492e-09 5 -12 -6.2995949836986492e-09 5 -15 -2.4999999999999991 4.3301270189221936 -12 -1.107852388446384 3.1911857209629071 -15 -6.2995949836986492e-09 5 -12 2.4999999879139869 4.3301270259000564 -15 -6.2995949836986492e-09 5 -12 0.37580157663508379 2.5408650916807378 -15 2.4999999879139869 4.3301270259000564 -12 2.4999999879139869 4.3301270259000564 -12 0.37580157663508379 2.5408650916807378 -12 0.37580157663508379 2.5408650916807378 -15 2.465848112410058 1.4099871989758821 -15 2.4999999879139869 4.3301270259000564 -15 0.37580157663508379 2.5408650916807378 -15 2.465848112410058 1.4099871989758821 -15 2.4999999879139869 4.3301270259000564 -12 2.4999999879139869 4.3301270259000564 -15 -6.2995949836986492e-09 5 -15 0.37580157663508379 2.5408650916807378 -15 -6.2995949836986492e-09 5 -12 4.3301270155636349 2.5000000058171929 -15 2.4999999879139869 4.3301270259000564 -12 2.465848112410058 1.4099871989758821 -15 4.3301270155636349 2.5000000058171929 -12 4.3301270155636349 2.5000000058171929 -15 2.4999999879139869 4.3301270259000564 -15 2.465848112410058 1.4099871989758821 -15 2.4999999879139869 4.3301270259000564 -12 4.3301270155636349 2.5000000058171929 -12 2.4999999879139869 4.3301270259000564 -9 2.465848112410058 1.4099871989758821 -12 4.3301270155636349 2.5000000058171929 -9 4.3301270155636349 2.5000000058171929 -12 2.4999999879139869 4.3301270259000564 -12 2.465848112410058 1.4099871989758821 -12 2.4999999879139869 4.3301270259000564 -9 4.3301270155636349 2.5000000058171929 -9 2.4999999879139869 4.3301270259000564 -9 2.465848112410058 1.4099871989758821 -9 2.4999999879139869 4.3301270259000564 -6 2.500000010727558 -4.3301270127286351 -15 4.3301270218486989 -2.4999999949311431 -12 2.217625015551433 -2.5696135239339939 -15 2.500000010727558 -4.3301270127286351 -12 4.3301270218486989 -2.4999999949311431 -12 2.500000010727558 -4.3301270127286351 -12 2.217625015551433 -2.5696135239339939 -12 2.217625015551433 -2.5696135239339939 -15 2.3883545080289421 -0.94497882694672608 -12 4.3301270218486989 -2.4999999949311431 -12 2.217625015551433 -2.5696135239339939 -12 2.217625015551433 -2.5696135239339939 -15 2.500000010727558 -4.3301270127286351 -15 4.3301270218486989 -2.4999999949311431 -15 2.217625015551433 -2.5696135239339939 -15 4.3301270218486989 -2.4999999949311431 -12 4.3301270218486989 -2.4999999949311431 -12 2.3883545080289421 -0.94497882694672608 -12 2.3883545080289421 -0.94497882694672608 -15 2.217625015551433 -2.5696135239339939 -15 4.3301270218486989 -2.4999999949311431 -15 2.3883545080289421 -0.94497882694672608 -15 2.217625015551433 -2.5696135239339939 -15 4.3301270218486989 -2.4999999949311431 -12 4.3301270218486989 -2.4999999949311431 -15 5 0 -12 2.3883545080289421 -0.94497882694672608 -15 4.3301270218486989 -2.4999999949311431 -12 4.3301270218486989 -2.4999999949311431 -15 5 0 -15 2.3883545080289421 -0.94497882694672608 -15 5 0 -12 2.3883545080289421 -0.94497882694672608 -15 5 0 -15 2.465848112410058 1.4099871989758821 -15 5 0 -12 2.3883545080289421 -0.94497882694672608 -15 5 0 -12 2.465848112410058 1.4099871989758821 -15 2.3883545080289421 -0.94497882694672608 -12 5 0 -15 4.3301270155636349 2.5000000058171929 -15 2.465848112410058 1.4099871989758821 -15 4.3301270155636349 2.5000000058171929 -12 5 0 -15 4.3301270155636349 2.5000000058171929 -12 2.465848112410058 1.4099871989758821 -15 5 0 -12 2.4999999879139869 4.3301270259000564 -12 4.3301270155636349 2.5000000058171929 -12 2.465848112410058 1.4099871989758821 -12 2.465848112410058 1.4099871989758821 -15 4.3301270155636349 2.5000000058171929 -12 5 0 -12 2.465848112410058 1.4099871989758821 -12 2.465848112410058 1.4099871989758821 -15 5 0 -12 4.3301270218486989 -2.4999999949311431 -12 2.3883545080289421 -0.94497882694672608 -12 2.3883545080289421 -0.94497882694672608 -15 5 0 -12 2.3883545080289421 -0.94497882694672608 -12 2.465848112410058 1.4099871989758821 -12 2.465848112410058 1.4099871989758821 -15 5 0 -9 4.3301270218486989 -2.4999999949311431 -9 2.3883545080289421 -0.94497882694672608 -9 2.3883545080289421 -0.94497882694672608 -12 4.3301270218486989 -2.4999999949311431 -12 5 0 -12 2.3883545080289421 -0.94497882694672608 -12 5 0 -9 2.3883545080289421 -0.94497882694672608 -12 5 0 -9 2.465848112410058 1.4099871989758821 -12 2.3883545080289421 -0.94497882694672608 -9 5 0 -9 2.3883545080289421 -0.94497882694672608 -9 2.465848112410058 1.4099871989758821 -9 2.465848112410058 1.4099871989758821 -12 2.3883545080289421 -0.94497882694672608 -12 5 0 -12 2.465848112410058 1.4099871989758821 -12 5 0 -9 2.4999999879139869 4.3301270259000564 -9 4.3301270155636349 2.5000000058171929 -9 2.465848112410058 1.4099871989758821 -9 2.465848112410058 1.4099871989758821 -12 5 0 -12 4.3301270155636349 2.5000000058171929 -9 2.465848112410058 1.4099871989758821 -12 5 0 -9 5 0 -12 4.3301270155636349 2.5000000058171929 -12 2.465848112410058 1.4099871989758821 -12 4.3301270155636349 2.5000000058171929 -9 4.3301270155636349 2.5000000058171929 -9 5 0 -9 2.465848112410058 1.4099871989758821 -9 2.465848112410058 1.4099871989758821 -12 5 0 -9 4.3301270155636349 2.5000000058171929 -9 2.465848112410058 1.4099871989758821 -9 4.3301270155636349 2.5000000058171929 -6 4.3301270218486989 -2.4999999949311431 -9 5 0 -9 2.3883545080289421 -0.94497882694672608 -9 5 0 -6 2.3883545080289421 -0.94497882694672608 -9 5 0 -9 2.465848112410058 1.4099871989758821 -9 5 0 -6 4.3301270218486989 -2.4999999949311431 -9 2.3883545080289421 -0.94497882694672608 -9 2.217625015551433 -2.5696135239339939 -9 4.3301270218486989 -2.4999999949311431 -6 2.500000010727558 -4.3301270127286351 -9 4.3301270218486989 -2.4999999949311431 -9 2.217625015551433 -2.5696135239339939 -9 4.3301270218486989 -2.4999999949311431 -6 4.3301270218486989 -2.4999999949311431 -12 2.3883545080289421 -0.94497882694672608 -12 2.217625015551433 -2.5696135239339939 -12 4.3301270218486989 -2.4999999949311431 -9 2.3883545080289421 -0.94497882694672608 -9 4.3301270218486989 -2.4999999949311431 -9 2.217625015551433 -2.5696135239339939 -9 2.217625015551433 -2.5696135239339939 -12 4.3301270218486989 -2.4999999949311431 -12 5 0 -9 2.3883545080289421 -0.94497882694672608 -12 4.3301270218486989 -2.4999999949311431 -9 4.3301270218486989 -2.4999999949311431 -9 2.3883545080289421 -0.94497882694672608 -9 2.3883545080289421 -0.94497882694672608 -12 2.217625015551433 -2.5696135239339939 -12 4.3301270218486989 -2.4999999949311431 -9 2.500000010727558 -4.3301270127286351 -9 2.217625015551433 -2.5696135239339939 -9 2.217625015551433 -2.5696135239339939 -12 2.500000010727558 -4.3301270127286351 -12 4.3301270218486989 -2.4999999949311431 -12 2.217625015551433 -2.5696135239339939 -12 4.3301270218486989 -2.4999999949311431 -9 2.500000010727558 -4.3301270127286351 -12 4.3301270218486989 -2.4999999949311431 -9 2.217625015551433 -2.5696135239339939 -12 2.500000010727558 -4.3301270127286351 -9 2.500000010727558 -4.3301270127286351 -9 4.3301270218486989 -2.4999999949311431 -6 2.217625015551433 -2.5696135239339939 -9 2.500000010727558 -4.3301270127286351 -6 2.500000010727558 -4.3301270127286351 -6 4.3301270218486989 -2.4999999949311431 -3 2.217625015551433 -2.5696135239339939 -6 2.500000010727558 -4.3301270127286351 -3 4.3301270218486989 -2.4999999949311431 -3 2.3883545080289421 -0.94497882694672608 -3 2.3883545080289421 -0.94497882694672608 -6 2.217625015551433 -2.5696135239339939 -6 4.3301270218486989 -2.4999999949311431 -6 2.3883545080289421 -0.94497882694672608 -6 2.217625015551433 -2.5696135239339939 -6 4.3301270218486989 -2.4999999949311431 -3 4.3301270218486989 -2.4999999949311431 -6 5 0 -3 2.3883545080289421 -0.94497882694672608 -6 4.3301270218486989 -2.4999999949311431 -3 2.500000010727558 -4.3301270127286351 -6 4.3301270218486989 -2.4999999949311431 -6 2.217625015551433 -2.5696135239339939 -6 4.3301270218486989 -2.4999999949311431 -3 4.3301270218486989 -2.4999999949311431 -6 2.500000010727558 -4.3301270127286351 -6 2.217625015551433 -2.5696135239339939 -6 2.217625015551433 -2.5696135239339939 -9 2.3883545080289421 -0.94497882694672608 -6 4.3301270218486989 -2.4999999949311431 -6 2.217625015551433 -2.5696135239339939 -6 2.217625015551433 -2.5696135239339939 -9 4.3301270218486989 -2.4999999949311431 -9 5 0 -6 2.3883545080289421 -0.94497882694672608 -9 4.3301270218486989 -2.4999999949311431 -6 4.3301270218486989 -2.4999999949311431 -6 2.3883545080289421 -0.94497882694672608 -6 2.3883545080289421 -0.94497882694672608 -9 2.217625015551433 -2.5696135239339939 -9 2.3883545080289421 -0.94497882694672608 -9 5 0 -6 2.465848112410058 1.4099871989758821 -9 2.3883545080289421 -0.94497882694672608 -6 5 0 -6 4.3301270218486989 -2.4999999949311431 -6 2.3883545080289421 -0.94497882694672608 -6 2.3883545080289421 -0.94497882694672608 -9 5 0 -6 2.3883545080289421 -0.94497882694672608 -6 2.465848112410058 1.4099871989758821 -6 2.465848112410058 1.4099871989758821 -9 5 0 -9 4.3301270155636349 2.5000000058171929 -6 2.465848112410058 1.4099871989758821 -9 5 0 -6 4.3301270155636349 2.5000000058171929 -6 5 0 -6 2.465848112410058 1.4099871989758821 -6 2.465848112410058 1.4099871989758821 -9 2.4999999879139869 4.3301270259000564 -6 4.3301270155636349 2.5000000058171929 -6 2.465848112410058 1.4099871989758821 -6 2.465848112410058 1.4099871989758821 -9 5 0 -6 4.3301270155636349 2.5000000058171929 -3 2.465848112410058 1.4099871989758821 -6 5 0 -3 5 0 -6 4.3301270155636349 2.5000000058171929 -6 2.465848112410058 1.4099871989758821 -6 4.3301270155636349 2.5000000058171929 -3 2.3883545080289421 -0.94497882694672608 -6 5 0 -6 2.465848112410058 1.4099871989758821 -6 5 0 -3 2.3883545080289421 -0.94497882694672608 -6 5 0 -3 2.465848112410058 1.4099871989758821 -6 2.3883545080289421 -0.94497882694672608 -3 4.3301270218486989 -2.4999999949311431 -6 5 0 -6 2.3883545080289421 -0.94497882694672608 -6 5 0 -3 5 0 -3 2.3883545080289421 -0.94497882694672608 -3 2.465848112410058 1.4099871989758821 -3 2.465848112410058 1.4099871989758821 -6 2.3883545080289421 -0.94497882694672608 -3 5 0 -3 2.465848112410058 1.4099871989758821 -3 5 0 0 4.3301270218486989 -2.4999999949311431 -3 5 0 -3 2.3883545080289421 -0.94497882694672608 -3 5 0 0 5 0 -3 4.3301270218486989 -2.4999999949311431 -3 2.3883545080289421 -0.94497882694672608 -3 2.3883545080289421 -0.94497882694672608 -6 5 0 -3 4.3301270155636349 2.5000000058171929 -3 2.465848112410058 1.4099871989758821 -3 4.3301270155636349 2.5000000058171929 0 4.3301270155636349 2.5000000058171929 -3 5 0 -3 2.465848112410058 1.4099871989758821 -3 2.465848112410058 1.4099871989758821 -6 2.4999999879139869 4.3301270259000564 -3 4.3301270155636349 2.5000000058171929 -3 2.465848112410058 1.4099871989758821 -3 2.465848112410058 1.4099871989758821 -6 2.4999999879139869 4.3301270259000564 0 4.3301270155636349 2.5000000058171929 0 2.465848112410058 1.4099871989758821 0 2.465848112410058 1.4099871989758821 -3 5 0 -3 4.3301270155636349 2.5000000058171929 0 2.465848112410058 1.4099871989758821 -3 5 0 0 4.3301270155636349 2.5000000058171929 0 5 0 0 2.465848112410058 1.4099871989758821 0 2.465848112410058 1.4099871989758821 -3 5 0 0 4.3301270218486989 -2.4999999949311431 0 2.3883545080289421 -0.94497882694672608 0 2.3883545080289421 -0.94497882694672608 -3 5 0 0 2.3883545080289421 -0.94497882694672608 0 2.465848112410058 1.4099871989758821 0 2.465848112410058 1.4099871989758821 -3 2.3883545080289421 -0.94497882694672608 -3 5 0 0 2.465848112410058 1.4099871989758821 -3 2.3883545080289421 -0.94497882694672608 0 4.3301270218486989 -2.4999999949311431 0 2.500000010727558 -4.3301270127286351 0 2.217625015551433 -2.5696135239339939 0 2.217625015551433 -2.5696135239339939 -3 2.3883545080289421 -0.94497882694672608 0 4.3301270218486989 -2.4999999949311431 0 2.217625015551433 -2.5696135239339939 0 2.217625015551433 -2.5696135239339939 -3 4.3301270218486989 -2.4999999949311431 0 2.3883545080289421 -0.94497882694672608 0 2.3883545080289421 -0.94497882694672608 -3 2.217625015551433 -2.5696135239339939 -3 4.3301270218486989 -2.4999999949311431 -3 5 0 0 2.3883545080289421 -0.94497882694672608 -3 4.3301270218486989 -2.4999999949311431 0 4.3301270218486989 -2.4999999949311431 -3 2.500000010727558 -4.3301270127286351 -3 2.217625015551433 -2.5696135239339939 -3 2.217625015551433 -2.5696135239339939 -6 4.3301270218486989 -2.4999999949311431 -3 2.3883545080289421 -0.94497882694672608 -3 2.217625015551433 -2.5696135239339939 -3 4.3301270218486989 -2.4999999949311431 0 2.3883545080289421 -0.94497882694672608 -3 4.3301270218486989 -2.4999999949311431 -3 2.217625015551433 -2.5696135239339939 -3 2.217625015551433 -2.5696135239339939 -6 2.500000010727558 -4.3301270127286351 -3 4.3301270218486989 -2.4999999949311431 -3 2.217625015551433 -2.5696135239339939 -3 4.3301270218486989 -2.4999999949311431 0 2.500000010727558 -4.3301270127286351 -3 4.3301270218486989 -2.4999999949311431 0 2.217625015551433 -2.5696135239339939 -3 2.500000010727558 -4.3301270127286351 0 4.3301270155636349 2.5000000058171929 -9 2.4999999879139869 4.3301270259000564 -6 2.465848112410058 1.4099871989758821 -9 4.3301270155636349 2.5000000058171929 -6 4.3301270155636349 2.5000000058171929 -6 2.4999999879139869 4.3301270259000564 -6 2.465848112410058 1.4099871989758821 -6 2.4999999879139869 4.3301270259000564 -3 4.3301270155636349 2.5000000058171929 -6 2.4999999879139869 4.3301270259000564 -3 2.465848112410058 1.4099871989758821 -6 4.3301270155636349 2.5000000058171929 -3 4.3301270155636349 2.5000000058171929 -3 2.4999999879139869 4.3301270259000564 -3 2.465848112410058 1.4099871989758821 -3 2.4999999879139869 4.3301270259000564 0 4.3301270155636349 2.5000000058171929 -3 2.4999999879139869 4.3301270259000564 0 2.465848112410058 1.4099871989758821 -3 4.3301270155636349 2.5000000058171929 0 -6.2995949836986492e-09 5 0 2.4999999879139869 4.3301270259000564 0 0.37580157663508379 2.5408650916807378 0 0.37580157663508379 2.5408650916807378 -3 2.4999999879139869 4.3301270259000564 0 0.37580157663508379 2.5408650916807378 0 0.37580157663508379 2.5408650916807378 -3 2.465848112410058 1.4099871989758821 -3 2.4999999879139869 4.3301270259000564 -3 -6.2995949836986492e-09 5 0 0.37580157663508379 2.5408650916807378 -3 2.4999999879139869 4.3301270259000564 0 -6.2995949836986492e-09 5 -3 -2.4999999999999991 4.3301270189221936 0 -1.107852388446384 3.1911857209629071 -3 -6.2995949836986492e-09 5 0 -6.2995949836986492e-09 5 0 0.37580157663508379 2.5408650916807378 0 -1.107852388446384 3.1911857209629071 0 -1.107852388446384 3.1911857209629071 -3 -2.4999999999999991 4.3301270189221936 0 -6.2995949836986492e-09 5 0 -1.107852388446384 3.1911857209629071 0 -1.107852388446384 3.1911857209629071 -3 0.37580157663508379 2.5408650916807378 -3 -6.2995949836986492e-09 5 0 -1.107852388446384 3.1911857209629071 -3 0.37580157663508379 2.5408650916807378 0 0.37580157663508379 2.5408650916807378 0 -0.91506351183037493 1.5849364925866429 0 -1.107852388446384 3.1911857209629071 0 -1.107852388446384 3.1911857209629071 -3 0.37580157663508379 2.5408650916807378 -3 -6.2995949836986492e-09 5 -3 -1.107852388446384 3.1911857209629071 -3 -6.2995949836986492e-09 5 0 2.4999999879139869 4.3301270259000564 -3 -6.2995949836986492e-09 5 -3 0.37580157663508379 2.5408650916807378 -3 -6.2995949836986492e-09 5 0 2.4999999879139869 4.3301270259000564 -3 0.37580157663508379 2.5408650916807378 -3 2.465848112410058 1.4099871989758821 -3 2.4999999879139869 4.3301270259000564 0 2.4999999879139869 4.3301270259000564 -3 0.37580157663508379 2.5408650916807378 -3 0.37580157663508379 2.5408650916807378 -6 2.465848112410058 1.4099871989758821 -6 2.4999999879139869 4.3301270259000564 -6 0.37580157663508379 2.5408650916807378 -6 2.465848112410058 1.4099871989758821 -6 2.4999999879139869 4.3301270259000564 -3 2.4999999879139869 4.3301270259000564 -6 -6.2995949836986492e-09 5 -3 0.37580157663508379 2.5408650916807378 -6 2.4999999879139869 4.3301270259000564 -3 2.4999999879139869 4.3301270259000564 -6 -6.2995949836986492e-09 5 -6 0.37580157663508379 2.5408650916807378 -6 -6.2995949836986492e-09 5 -3 -6.2995949836986492e-09 5 -3 2.4999999879139869 4.3301270259000564 -3 0.37580157663508379 2.5408650916807378 -3 0.37580157663508379 2.5408650916807378 -6 0.37580157663508379 2.5408650916807378 -3 -0.91506351183037493 1.5849364925866429 -3 -1.107852388446384 3.1911857209629071 -3 -1.107852388446384 3.1911857209629071 -6 -6.2995949836986492e-09 5 -3 0.37580157663508379 2.5408650916807378 -3 -1.107852388446384 3.1911857209629071 -3 -1.107852388446384 3.1911857209629071 -6 0.37580157663508379 2.5408650916807378 -6 -6.2995949836986492e-09 5 -6 -1.107852388446384 3.1911857209629071 -6 -6.2995949836986492e-09 5 -3 0.37580157663508379 2.5408650916807378 -6 -6.2995949836986492e-09 5 -3 -1.107852388446384 3.1911857209629071 -6 0.37580157663508379 2.5408650916807378 -3 -2.4999999999999991 4.3301270189221936 -3 -6.2995949836986492e-09 5 -3 -1.107852388446384 3.1911857209629071 -3 -1.107852388446384 3.1911857209629071 -6 -6.2995949836986492e-09 5 -6 0.37580157663508379 2.5408650916807378 -6 -1.107852388446384 3.1911857209629071 -6 -1.107852388446384 3.1911857209629071 -9 -2.4999999999999991 4.3301270189221936 -6 -6.2995949836986492e-09 5 -6 -1.107852388446384 3.1911857209629071 -6 -1.107852388446384 3.1911857209629071 -9 0.37580157663508379 2.5408650916807378 -9 -6.2995949836986492e-09 5 -6 -1.107852388446384 3.1911857209629071 -9 0.37580157663508379 2.5408650916807378 -6 0.37580157663508379 2.5408650916807378 -6 -0.91506351183037493 1.5849364925866429 -6 -1.107852388446384 3.1911857209629071 -6 -1.107852388446384 3.1911857209629071 -9 2.4999999879139869 4.3301270259000564 -9 -6.2995949836986492e-09 5 -6 0.37580157663508379 2.5408650916807378 -9 2.4999999879139869 4.3301270259000564 -6 -6.2995949836986492e-09 5 -6 2.4999999879139869 4.3301270259000564 -6 0.37580157663508379 2.5408650916807378 -6 0.37580157663508379 2.5408650916807378 -9 2.4999999879139869 4.3301270259000564 -6 0.37580157663508379 2.5408650916807378 -6 0.37580157663508379 2.5408650916807378 -9 2.465848112410058 1.4099871989758821 -9 -6.2995949836986492e-09 5 -9 -2.4999999999999991 4.3301270189221936 -6 -1.107852388446384 3.1911857209629071 -9 -6.2995949836986492e-09 5 -6 -6.2995949836986492e-09 5 -6 -2.4999999999999991 4.3301270189221936 -3 -1.107852388446384 3.1911857209629071 -6 -6.2995949836986492e-09 5 -3 -2.4999999999999991 4.3301270189221936 -6 -1.107852388446384 3.1911857209629071 -6 -2.2253246846922492 2.366533744740174 -6 -2.2253246846922492 2.366533744740174 -9 -0.91506351183037493 1.5849364925866429 -6 -1.107852388446384 3.1911857209629071 -6 -1.107852388446384 3.1911857209629071 -9 -2.2253246846922492 2.366533744740174 -9 -1.107852388446384 3.1911857209629071 -9 -2.4999999999999991 4.3301270189221936 -6 -2.2253246846922492 2.366533744740174 -9 -1.107852388446384 3.1911857209629071 -6 -2.4999999999999991 4.3301270189221936 -9 -4.3301270221112951 2.4999999944763132 -6 -2.2253246846922492 2.366533744740174 -9 -2.4999999999999991 4.3301270189221936 -6 -4.3301270221112951 2.4999999944763132 -6 -2.4999999999999991 4.3301270189221936 -6 -2.2253246846922492 2.366533744740174 -6 -2.2253246846922492 2.366533744740174 -9 -0.91506351183037493 1.5849364925866429 -3 -1.107852388446384 3.1911857209629071 -3 -1.107852388446384 3.1911857209629071 -6 -2.2253246846922492 2.366533744740174 -6 -1.107852388446384 3.1911857209629071 -6 -2.4999999999999991 4.3301270189221936 -6 -2.2253246846922492 2.366533744740174 -6 -2.4999999999999991 4.3301270189221936 -3 -6.2995949836986492e-09 5 -6 -2.4999999999999991 4.3301270189221936 -6 -1.107852388446384 3.1911857209629071 -6 -2.4999999999999991 4.3301270189221936 -3 -2.4999999999999991 4.3301270189221936 -3 -1.107852388446384 3.1911857209629071 -3 -2.2253246846922492 2.366533744740174 -3 -2.2253246846922492 2.366533744740174 -6 -1.107852388446384 3.1911857209629071 -6 -2.4999999999999991 4.3301270189221936 -3 -2.2253246846922492 2.366533744740174 -6 -1.107852388446384 3.1911857209629071 -3 -2.4999999999999991 4.3301270189221936 -6 -4.3301270221112951 2.4999999944763132 -3 -2.2253246846922492 2.366533744740174 -6 -2.4999999999999991 4.3301270189221936 -3 -4.3301270221112951 2.4999999944763132 -3 -2.4999999999999991 4.3301270189221936 -3 -2.2253246846922492 2.366533744740174 -3 -2.2253246846922492 2.366533744740174 -6 -2.4999999999999991 4.3301270189221936 -6 -4.3301270221112951 2.4999999944763132 -6 -2.2253246846922492 2.366533744740174 -6 -4.3301270221112951 2.4999999944763132 -3 -2.4999999999999991 4.3301270189221936 -3 -4.3301270221112951 2.4999999944763132 -3 -2.2253246846922492 2.366533744740174 -3 -4.3301270221112951 2.4999999944763132 0 -1.107852388446384 3.1911857209629071 -3 -2.4999999999999991 4.3301270189221936 -3 -2.2253246846922492 2.366533744740174 -3 -2.4999999999999991 4.3301270189221936 0 -6.2995949836986492e-09 5 -3 -2.4999999999999991 4.3301270189221936 -3 -1.107852388446384 3.1911857209629071 -3 -2.4999999999999991 4.3301270189221936 0 -4.3301270221112951 2.4999999944763132 0 -2.4999999999999991 4.3301270189221936 0 -2.2253246846922492 2.366533744740174 0 -2.2253246846922492 2.366533744740174 -3 -0.91506351183037493 1.5849364925866429 0 -1.107852388446384 3.1911857209629071 0 -1.107852388446384 3.1911857209629071 -3 -2.2253246846922492 2.366533744740174 -3 -2.4999999999999991 4.3301270189221936 -3 -4.3301270221112951 2.4999999944763132 0 -2.2253246846922492 2.366533744740174 -3 -2.4999999999999991 4.3301270189221936 0 -1.107852388446384 3.1911857209629071 -3 -2.4999999999999991 4.3301270189221936 0 -2.2253246846922492 2.366533744740174 -3 -1.107852388446384 3.1911857209629071 0 -2.4999999999999991 4.3301270189221936 0 -1.107852388446384 3.1911857209629071 0 -2.2253246846922492 2.366533744740174 0 -2.2253246846922492 2.366533744740174 -3 -5 -1.397247784140632e-08 0 -4.3301270221112951 2.4999999944763132 0 -2.2735805010731909 0.22641949675281539 0 -2.2735805010731909 0.22641949675281539 -3 -4.3301270221112951 2.4999999944763132 -3 -5 -1.397247784140632e-08 0 -2.2735805010731909 0.22641949675281539 -3 -4.3301270221112951 2.4999999944763132 0 -4.3301270221112951 2.4999999944763132 -3 -2.2735805010731909 0.22641949675281539 -3 -2.2253246846922492 2.366533744740174 -3 -4.3301270221112951 2.4999999944763132 0 -4.3301270221112951 2.4999999944763132 -3 -5 -1.397247784140632e-08 -3 -2.2735805010731909 0.22641949675281539 -3 -5 -1.397247784140632e-08 0 -2.2735805010731909 0.22641949675281539 -3 -5 -1.397247784140632e-08 -3 -2.9547160992544761 -1.820741508163664 -3 -5 -1.397247784140632e-08 0 -5 -1.397247784140632e-08 -3 -4.3301270160527148 -2.500000004970083 0 -2.9547160992544761 -1.820741508163664 -3 -5 -1.397247784140632e-08 0 -2.2735805010731909 0.22641949675281539 -3 -5 -1.397247784140632e-08 0 -2.9547160992544761 -1.820741508163664 -3 -2.2735805010731909 0.22641949675281539 0 -5 -1.397247784140632e-08 0 -2.2735805010731909 0.22641949675281539 0 -2.9547160992544761 -1.820741508163664 0 -2.9547160992544761 -1.820741508163664 -3 -0.66987297914647026 -2.499999999706382 -3 -2.2735805010731909 0.22641949675281539 -3 -2.9547160992544761 -1.820741508163664 -3 -2.2735805010731909 0.22641949675281539 0 -2.2735805010731909 0.22641949675281539 -3 -0.66987297914647026 -2.499999999706382 -3 0.20080558631870429 0.033909897404034287 -3 -2.2735805010731909 0.22641949675281539 0 -2.2735805010731909 0.22641949675281539 -3 0.20080558631870429 0.033909897404034287 -3 -0.91506351183037493 1.5849364925866429 -3 -2.2735805010731909 0.22641949675281539 0 -2.2735805010731909 0.22641949675281539 -3 -0.91506351183037493 1.5849364925866429 -3 -2.2253246846922492 2.366533744740174 -3 -2.2735805010731909 0.22641949675281539 0 -0.91506351183037493 1.5849364925866429 -3 -1.107852388446384 3.1911857209629071 -3 -2.2253246846922492 2.366533744740174 -3 -0.91506351183037493 1.5849364925866429 0 -2.2735805010731909 0.22641949675281539 0 -0.91506351183037493 1.5849364925866429 0 -0.91506351183037493 1.5849364925866429 -3 -2.2253246846922492 2.366533744740174 -3 -1.107852388446384 3.1911857209629071 0 -0.91506351183037493 1.5849364925866429 0 -2.2253246846922492 2.366533744740174 0 -2.2253246846922492 2.366533744740174 -3 -4.3301270221112951 2.4999999944763132 0 -2.2735805010731909 0.22641949675281539 0 -2.2735805010731909 0.22641949675281539 -3 -2.2253246846922492 2.366533744740174 -3 -0.91506351183037493 1.5849364925866429 0 -2.2735805010731909 0.22641949675281539 0 -2.2253246846922492 2.366533744740174 0 -2.2253246846922492 2.366533744740174 -3 -2.2735805010731909 0.22641949675281539 0 -4.3301270221112951 2.4999999944763132 0 -2.2253246846922492 2.366533744740174 0 -2.2253246846922492 2.366533744740174 -3 -0.91506351183037493 1.5849364925866429 -3 0.37580157663508379 2.5408650916807378 0 -1.107852388446384 3.1911857209629071 -3 -0.91506351183037493 1.5849364925866429 0 0.37580157663508379 2.5408650916807378 0 0.20080558631870429 0.033909897404034287 0 -0.91506351183037493 1.5849364925866429 0 -0.91506351183037493 1.5849364925866429 -3 0.20080558631870429 0.033909897404034287 0 -2.2735805010731909 0.22641949675281539 0 -0.91506351183037493 1.5849364925866429 0 -0.91506351183037493 1.5849364925866429 -3 0.20080558631870429 0.033909897404034287 0 0.37580157663508379 2.5408650916807378 0 0.37580157663508379 2.5408650916807378 -3 -0.91506351183037493 1.5849364925866429 -3 -0.66987297914647026 -2.499999999706382 0 -2.2735805010731909 0.22641949675281539 0 0.20080558631870429 0.033909897404034287 0 0.20080558631870429 0.033909897404034287 -3 -2.2735805010731909 0.22641949675281539 0 0.20080558631870429 0.033909897404034287 0 0.20080558631870429 0.033909897404034287 -3 -0.91506351183037493 1.5849364925866429 -3 0.20080558631870429 0.033909897404034287 -3 -0.66987297914647026 -2.499999999706382 0 0.95458002071209891 -1.657898275923388 -3 0.20080558631870429 0.033909897404034287 0 -2.2735805010731909 0.22641949675281539 0 -0.66987297914647026 -2.499999999706382 0 -0.66987297914647026 -2.499999999706382 -3 0.20080558631870429 0.033909897404034287 -3 0.20080558631870429 0.033909897404034287 0 2.3883545080289421 -0.94497882694672608 0 0.95458002071209891 -1.657898275923388 0 0.95458002071209891 -1.657898275923388 -3 2.3883545080289421 -0.94497882694672608 0 0.20080558631870429 0.033909897404034287 0 0.20080558631870429 0.033909897404034287 -3 0.95458002071209891 -1.657898275923388 -3 0.20080558631870429 0.033909897404034287 -3 2.3883545080289421 -0.94497882694672608 0 2.465848112410058 1.4099871989758821 -3 0.20080558631870429 0.033909897404034287 0 2.3883545080289421 -0.94497882694672608 0 0.20080558631870429 0.033909897404034287 0 2.465848112410058 1.4099871989758821 0 2.465848112410058 1.4099871989758821 -3 0.37580157663508379 2.5408650916807378 0 2.4999999879139869 4.3301270259000564 0 2.465848112410058 1.4099871989758821 0 2.465848112410058 1.4099871989758821 -3 0.37580157663508379 2.5408650916807378 -3 0.20080558631870429 0.033909897404034287 0 2.465848112410058 1.4099871989758821 -3 0.37580157663508379 2.5408650916807378 0 0.20080558631870429 0.033909897404034287 0 0.37580157663508379 2.5408650916807378 0 2.465848112410058 1.4099871989758821 0 2.465848112410058 1.4099871989758821 -3 0.37580157663508379 2.5408650916807378 -3 0.20080558631870429 0.033909897404034287 -3 2.465848112410058 1.4099871989758821 -3 0.20080558631870429 0.033909897404034287 0 0.20080558631870429 0.033909897404034287 -3 2.3883545080289421 -0.94497882694672608 -3 2.465848112410058 1.4099871989758821 -3 2.3883545080289421 -0.94497882694672608 0 2.3883545080289421 -0.94497882694672608 -3 0.20080558631870429 0.033909897404034287 -3 0.95458002071209891 -1.657898275923388 -3 2.3883545080289421 -0.94497882694672608 0 -0.91506351183037493 1.5849364925866429 -3 0.37580157663508379 2.5408650916807378 -3 -1.107852388446384 3.1911857209629071 -3 0.37580157663508379 2.5408650916807378 0 0.20080558631870429 0.033909897404034287 -3 0.37580157663508379 2.5408650916807378 -3 -0.91506351183037493 1.5849364925866429 -3 0.20080558631870429 0.033909897404034287 0 0.20080558631870429 0.033909897404034287 -3 0.37580157663508379 2.5408650916807378 -3 0.37580157663508379 2.5408650916807378 -6 -0.91506351183037493 1.5849364925866429 -6 0.20080558631870429 0.033909897404034287 -6 0.37580157663508379 2.5408650916807378 -6 -0.91506351183037493 1.5849364925866429 -6 0.20080558631870429 0.033909897404034287 -3 -0.91506351183037493 1.5849364925866429 -6 0.37580157663508379 2.5408650916807378 -6 -1.107852388446384 3.1911857209629071 -6 0.37580157663508379 2.5408650916807378 -3 0.20080558631870429 0.033909897404034287 -3 -2.2735805010731909 0.22641949675281539 -3 -0.91506351183037493 1.5849364925866429 -3 -0.91506351183037493 1.5849364925866429 -6 -0.91506351183037493 1.5849364925866429 -6 0.37580157663508379 2.5408650916807378 -3 -1.107852388446384 3.1911857209629071 -6 -0.91506351183037493 1.5849364925866429 -3 0.37580157663508379 2.5408650916807378 -3 0.20080558631870429 0.033909897404034287 -3 -0.91506351183037493 1.5849364925866429 -3 -0.91506351183037493 1.5849364925866429 -6 0.20080558631870429 0.033909897404034287 -6 -0.66987297914647026 -2.499999999706382 -3 0.95458002071209891 -1.657898275923388 -6 0.20080558631870429 0.033909897404034287 -3 -2.2735805010731909 0.22641949675281539 -3 -0.66987297914647026 -2.499999999706382 -3 -0.66987297914647026 -2.499999999706382 -6 0.20080558631870429 0.033909897404034287 -6 -0.66987297914647026 -2.499999999706382 -3 -2.2735805010731909 0.22641949675281539 -3 0.20080558631870429 0.033909897404034287 -3 0.20080558631870429 0.033909897404034287 -6 -2.2735805010731909 0.22641949675281539 -3 0.20080558631870429 0.033909897404034287 -3 0.20080558631870429 0.033909897404034287 -6 -0.91506351183037493 1.5849364925866429 -6 2.3883545080289421 -0.94497882694672608 -3 0.20080558631870429 0.033909897404034287 -3 0.20080558631870429 0.033909897404034287 -6 0.95458002071209891 -1.657898275923388 -6 2.3883545080289421 -0.94497882694672608 -6 0.20080558631870429 0.033909897404034287 -6 0.95458002071209891 -1.657898275923388 -6 2.3883545080289421 -0.94497882694672608 -3 0.20080558631870429 0.033909897404034287 -3 2.3883545080289421 -0.94497882694672608 -3 0.95458002071209891 -1.657898275923388 -3 0.95458002071209891 -1.657898275923388 -6 0.20080558631870429 0.033909897404034287 -6 2.3883545080289421 -0.94497882694672608 -3 2.465848112410058 1.4099871989758821 -6 0.20080558631870429 0.033909897404034287 -3 0.20080558631870429 0.033909897404034287 -6 2.3883545080289421 -0.94497882694672608 -6 2.465848112410058 1.4099871989758821 -6 2.3883545080289421 -0.94497882694672608 -3 2.3883545080289421 -0.94497882694672608 -3 0.20080558631870429 0.033909897404034287 -3 2.465848112410058 1.4099871989758821 -3 2.465848112410058 1.4099871989758821 -6 0.37580157663508379 2.5408650916807378 -3 2.4999999879139869 4.3301270259000564 -3 2.465848112410058 1.4099871989758821 -3 2.465848112410058 1.4099871989758821 -6 0.37580157663508379 2.5408650916807378 -6 0.20080558631870429 0.033909897404034287 -3 2.465848112410058 1.4099871989758821 -6 0.37580157663508379 2.5408650916807378 -3 0.37580157663508379 2.5408650916807378 -6 0.20080558631870429 0.033909897404034287 -6 2.465848112410058 1.4099871989758821 -6 0.20080558631870429 0.033909897404034287 -3 0.20080558631870429 0.033909897404034287 -3 0.37580157663508379 2.5408650916807378 -3 2.465848112410058 1.4099871989758821 -3 2.465848112410058 1.4099871989758821 -6 0.37580157663508379 2.5408650916807378 -9 0.20080558631870429 0.033909897404034287 -6 2.465848112410058 1.4099871989758821 -9 0.37580157663508379 2.5408650916807378 -6 0.37580157663508379 2.5408650916807378 -6 2.4999999879139869 4.3301270259000564 -6 2.465848112410058 1.4099871989758821 -6 2.465848112410058 1.4099871989758821 -9 0.20080558631870429 0.033909897404034287 -6 0.37580157663508379 2.5408650916807378 -6 2.465848112410058 1.4099871989758821 -6 2.465848112410058 1.4099871989758821 -9 2.3883545080289421 -0.94497882694672608 -6 0.20080558631870429 0.033909897404034287 -6 0.20080558631870429 0.033909897404034287 -9 0.95458002071209891 -1.657898275923388 -9 0.20080558631870429 0.033909897404034287 -6 2.3883545080289421 -0.94497882694672608 -6 0.95458002071209891 -1.657898275923388 -6 0.95458002071209891 -1.657898275923388 -9 0.20080558631870429 0.033909897404034287 -9 2.3883545080289421 -0.94497882694672608 -6 2.465848112410058 1.4099871989758821 -9 0.20080558631870429 0.033909897404034287 -6 2.3883545080289421 -0.94497882694672608 -6 0.20080558631870429 0.033909897404034287 -6 2.465848112410058 1.4099871989758821 -6 2.465848112410058 1.4099871989758821 -9 -2.2735805010731909 0.22641949675281539 -6 0.20080558631870429 0.033909897404034287 -6 0.20080558631870429 0.033909897404034287 -9 -0.91506351183037493 1.5849364925866429 -9 -0.66987297914647026 -2.499999999706382 -6 -2.2735805010731909 0.22641949675281539 -6 0.20080558631870429 0.033909897404034287 -6 0.20080558631870429 0.033909897404034287 -9 -2.2735805010731909 0.22641949675281539 -6 -0.66987297914647026 -2.499999999706382 -6 -0.66987297914647026 -2.499999999706382 -9 0.20080558631870429 0.033909897404034287 -9 0.20080558631870429 0.033909897404034287 -9 -0.66987297914647026 -2.499999999706382 -6 0.95458002071209891 -1.657898275923388 -9 0.20080558631870429 0.033909897404034287 -6 -0.91506351183037493 1.5849364925866429 -9 0.37580157663508379 2.5408650916807378 -6 -1.107852388446384 3.1911857209629071 -9 -0.91506351183037493 1.5849364925866429 -6 0.20080558631870429 0.033909897404034287 -6 -2.2735805010731909 0.22641949675281539 -6 -0.91506351183037493 1.5849364925866429 -6 -0.91506351183037493 1.5849364925866429 -9 0.20080558631870429 0.033909897404034287 -6 0.37580157663508379 2.5408650916807378 -6 0.37580157663508379 2.5408650916807378 -9 -0.91506351183037493 1.5849364925866429 -9 0.37580157663508379 2.5408650916807378 -6 0.20080558631870429 0.033909897404034287 -6 -0.91506351183037493 1.5849364925866429 -6 -0.91506351183037493 1.5849364925866429 -9 -2.2735805010731909 0.22641949675281539 -6 -4.3301270221112951 2.4999999944763132 -6 -2.2253246846922492 2.366533744740174 -6 -2.2253246846922492 2.366533744740174 -9 -1.107852388446384 3.1911857209629071 -6 -0.91506351183037493 1.5849364925866429 -6 -2.2253246846922492 2.366533744740174 -6 -2.2253246846922492 2.366533744740174 -9 -4.3301270221112951 2.4999999944763132 -6 -2.2735805010731909 0.22641949675281539 -6 -2.2735805010731909 0.22641949675281539 -9 -2.2253246846922492 2.366533744740174 -9 -2.2735805010731909 0.22641949675281539 -6 -0.91506351183037493 1.5849364925866429 -6 -0.91506351183037493 1.5849364925866429 -9 -2.2253246846922492 2.366533744740174 -9 -0.91506351183037493 1.5849364925866429 -6 -2.2735805010731909 0.22641949675281539 -6 -2.2253246846922492 2.366533744740174 -6 -2.2253246846922492 2.366533744740174 -9 -5 -1.397247784140632e-08 -6 -4.3301270221112951 2.4999999944763132 -6 -2.2735805010731909 0.22641949675281539 -6 -2.2735805010731909 0.22641949675281539 -9 -4.3301270221112951 2.4999999944763132 -9 -5 -1.397247784140632e-08 -6 -2.2735805010731909 0.22641949675281539 -9 -4.3301270221112951 2.4999999944763132 -6 -5 -1.397247784140632e-08 -3 -4.3301270221112951 2.4999999944763132 -3 -2.2735805010731909 0.22641949675281539 -3 -2.2735805010731909 0.22641949675281539 -6 -4.3301270221112951 2.4999999944763132 -6 -2.2735805010731909 0.22641949675281539 -6 -2.2253246846922492 2.366533744740174 -6 -4.3301270221112951 2.4999999944763132 -3 -4.3301270221112951 2.4999999944763132 -6 -5 -1.397247784140632e-08 -6 -2.2735805010731909 0.22641949675281539 -6 -5 -1.397247784140632e-08 -3 -4.3301270221112951 2.4999999944763132 -6 -5 -1.397247784140632e-08 -3 -2.2735805010731909 0.22641949675281539 -6 -4.3301270221112951 2.4999999944763132 -3 -1.107852388446384 3.1911857209629071 -3 -0.91506351183037493 1.5849364925866429 -3 -2.2253246846922492 2.366533744740174 -3 -2.2253246846922492 2.366533744740174 -6 -2.2735805010731909 0.22641949675281539 -3 -4.3301270221112951 2.4999999944763132 -3 -2.2253246846922492 2.366533744740174 -3 -2.2253246846922492 2.366533744740174 -6 -0.91506351183037493 1.5849364925866429 -6 -1.107852388446384 3.1911857209629071 -6 -2.2253246846922492 2.366533744740174 -6 -0.91506351183037493 1.5849364925866429 -3 -0.91506351183037493 1.5849364925866429 -3 -2.2735805010731909 0.22641949675281539 -3 -2.2253246846922492 2.366533744740174 -3 -2.2253246846922492 2.366533744740174 -6 -2.2735805010731909 0.22641949675281539 -6 -0.91506351183037493 1.5849364925866429 -6 -2.2253246846922492 2.366533744740174 -6 -2.2735805010731909 0.22641949675281539 -3 -2.2735805010731909 0.22641949675281539 -3 -0.91506351183037493 1.5849364925866429 -3 -0.91506351183037493 1.5849364925866429 -6 -2.2253246846922492 2.366533744740174 -6 -4.3301270221112951 2.4999999944763132 -3 -2.2735805010731909 0.22641949675281539 -3 -2.2735805010731909 0.22641949675281539 -6 -2.2253246846922492 2.366533744740174 -6 -2.2735805010731909 0.22641949675281539 -6 -0.66987297914647026 -2.499999999706382 -6 0.20080558631870429 0.033909897404034287 -6 -2.2735805010731909 0.22641949675281539 -3 -2.2735805010731909 0.22641949675281539 -6 0.20080558631870429 0.033909897404034287 -6 -0.91506351183037493 1.5849364925866429 -6 -2.2735805010731909 0.22641949675281539 -3 -0.66987297914647026 -2.499999999706382 -6 -2.2735805010731909 0.22641949675281539 -6 -2.9547160992544761 -1.820741508163664 -6 -2.2735805010731909 0.22641949675281539 -3 -5 -1.397247784140632e-08 -6 -4.3301270160527148 -2.500000004970083 -3 -2.9547160992544761 -1.820741508163664 -6 -5 -1.397247784140632e-08 -3 -5 -1.397247784140632e-08 -3 -2.2735805010731909 0.22641949675281539 -3 -2.9547160992544761 -1.820741508163664 -3 -2.9547160992544761 -1.820741508163664 -6 -2.2735805010731909 0.22641949675281539 -6 -5 -1.397247784140632e-08 -6 -2.9547160992544761 -1.820741508163664 -6 -5 -1.397247784140632e-08 -3 -2.2735805010731909 0.22641949675281539 -6 -5 -1.397247784140632e-08 -3 -2.9547160992544761 -1.820741508163664 -6 -2.2735805010731909 0.22641949675281539 -3 -5 -1.397247784140632e-08 -9 -4.3301270160527148 -2.500000004970083 -6 -2.9547160992544761 -1.820741508163664 -9 -5 -1.397247784140632e-08 -6 -2.2735805010731909 0.22641949675281539 -9 -5 -1.397247784140632e-08 -6 -2.9547160992544761 -1.820741508163664 -9 -2.2735805010731909 0.22641949675281539 -6 -5 -1.397247784140632e-08 -6 -2.2735805010731909 0.22641949675281539 -6 -2.9547160992544761 -1.820741508163664 -6 -2.9547160992544761 -1.820741508163664 -9 -0.66987297914647026 -2.499999999706382 -9 -2.2735805010731909 0.22641949675281539 -6 -2.9547160992544761 -1.820741508163664 -9 -0.66987297914647026 -2.499999999706382 -6 -2.2735805010731909 0.22641949675281539 -6 -0.66987297914647026 -2.499999999706382 -6 -2.9547160992544761 -1.820741508163664 -6 -2.9547160992544761 -1.820741508163664 -9 -2.5000000000000022 -4.3301270189221919 -6 -0.66987297914647026 -2.499999999706382 -6 -0.66987297914647026 -2.499999999706382 -9 -2.9547160992544761 -1.820741508163664 -9 -0.66987297914647026 -2.499999999706382 -6 -2.5000000000000022 -4.3301270189221919 -6 -2.9547160992544761 -1.820741508163664 -6 -2.9547160992544761 -1.820741508163664 -9 -2.5000000000000022 -4.3301270189221919 -6 -4.3301270160527148 -2.500000004970083 -6 -2.9547160992544761 -1.820741508163664 -6 -2.9547160992544761 -1.820741508163664 -9 -4.3301270160527148 -2.500000004970083 -6 -5 -1.397247784140632e-08 -6 -2.9547160992544761 -1.820741508163664 -6 -2.9547160992544761 -1.820741508163664 -9 -4.3301270160527148 -2.500000004970083 -9 -2.5000000000000022 -4.3301270189221919 -6 -2.9547160992544761 -1.820741508163664 -9 -4.3301270160527148 -2.500000004970083 -6 -4.3301270160527148 -2.500000004970083 -6 -2.5000000000000022 -4.3301270189221919 -3 -2.9547160992544761 -1.820741508163664 -6 -4.3301270160527148 -2.500000004970083 -3 -5 -1.397247784140632e-08 -6 -4.3301270160527148 -2.500000004970083 -6 -2.9547160992544761 -1.820741508163664 -6 -4.3301270160527148 -2.500000004970083 -3 -4.3301270160527148 -2.500000004970083 -3 -5 -1.397247784140632e-08 -3 -2.9547160992544761 -1.820741508163664 -3 -2.9547160992544761 -1.820741508163664 -6 -2.5000000000000022 -4.3301270189221919 -3 -4.3301270160527148 -2.500000004970083 -3 -2.9547160992544761 -1.820741508163664 -3 -2.9547160992544761 -1.820741508163664 -6 -0.66987297914647026 -2.499999999706382 -3 -2.5000000000000022 -4.3301270189221919 -3 -2.9547160992544761 -1.820741508163664 -3 -2.9547160992544761 -1.820741508163664 -6 -2.2735805010731909 0.22641949675281539 -3 -0.66987297914647026 -2.499999999706382 -3 -2.9547160992544761 -1.820741508163664 -3 -2.9547160992544761 -1.820741508163664 -6 -2.5000000000000022 -4.3301270189221919 -3 -0.66987297914647026 -2.499999999706382 -3 -0.66987297914647026 -2.499999999706382 -6 -2.9547160992544761 -1.820741508163664 -6 -0.66987297914647026 -2.499999999706382 -6 -2.2735805010731909 0.22641949675281539 -3 -2.9547160992544761 -1.820741508163664 -6 -0.66987297914647026 -2.499999999706382 -3 -2.5000000000000022 -4.3301270189221919 -6 -0.66987297914647026 -2.499999999706382 -6 -2.9547160992544761 -1.820741508163664 -6 -2.5000000000000022 -4.3301270189221919 -3 -4.3301270160527148 -2.500000004970083 -6 -2.5000000000000022 -4.3301270189221919 -6 -2.9547160992544761 -1.820741508163664 -6 -2.5000000000000022 -4.3301270189221919 -3 -2.5000000000000022 -4.3301270189221919 -6 6.9142305214597846e-09 -5 -3 -0.66987297914647026 -2.499999999706382 -6 -2.5000000000000022 -4.3301270189221919 -3 -2.5000000000000022 -4.3301270189221919 -9 6.9142305214597846e-09 -5 -6 -0.66987297914647026 -2.499999999706382 -9 -2.5000000000000022 -4.3301270189221919 -6 -0.66987297914647026 -2.499999999706382 -9 6.9142305214597846e-09 -5 -6 0.91506351643986317 -3.4150635091400758 -9 -0.66987297914647026 -2.499999999706382 -6 6.9142305214597846e-09 -5 -6 -2.5000000000000022 -4.3301270189221919 -6 -0.66987297914647026 -2.499999999706382 -6 -0.66987297914647026 -2.499999999706382 -9 6.9142305214597846e-09 -5 -6 -0.66987297914647026 -2.499999999706382 -6 0.91506351643986317 -3.4150635091400758 -6 0.91506351643986317 -3.4150635091400758 -9 0.95458002071209891 -1.657898275923388 -9 -0.66987297914647026 -2.499999999706382 -6 0.91506351643986317 -3.4150635091400758 -9 0.91506351643986317 -3.4150635091400758 -6 -0.66987297914647026 -2.499999999706382 -6 0.20080558631870429 0.033909897404034287 -6 0.95458002071209891 -1.657898275923388 -6 0.95458002071209891 -1.657898275923388 -9 -0.66987297914647026 -2.499999999706382 -6 0.95458002071209891 -1.657898275923388 -6 0.91506351643986317 -3.4150635091400758 -6 0.95458002071209891 -1.657898275923388 -9 0.95458002071209891 -1.657898275923388 -6 2.3883545080289421 -0.94497882694672608 -6 2.217625015551433 -2.5696135239339939 -6 2.217625015551433 -2.5696135239339939 -9 2.3883545080289421 -0.94497882694672608 -6 0.95458002071209891 -1.657898275923388 -6 0.95458002071209891 -1.657898275923388 -9 2.217625015551433 -2.5696135239339939 -9 0.91506351643986317 -3.4150635091400758 -6 0.95458002071209891 -1.657898275923388 -6 2.217625015551433 -2.5696135239339939 -6 2.217625015551433 -2.5696135239339939 -9 0.95458002071209891 -1.657898275923388 -9 0.91506351643986317 -3.4150635091400758 -6 2.217625015551433 -2.5696135239339939 -9 0.95458002071209891 -1.657898275923388 -6 6.9142305214597846e-09 -5 -9 2.500000010727558 -4.3301270127286351 -6 0.91506351643986317 -3.4150635091400758 -9 6.9142305214597846e-09 -5 -6 2.500000010727558 -4.3301270127286351 -6 6.9142305214597846e-09 -5 -6 0.91506351643986317 -3.4150635091400758 -6 0.91506351643986317 -3.4150635091400758 -9 2.500000010727558 -4.3301270127286351 -6 0.91506351643986317 -3.4150635091400758 -6 2.217625015551433 -2.5696135239339939 -6 2.217625015551433 -2.5696135239339939 -9 0.91506351643986317 -3.4150635091400758 -9 2.500000010727558 -4.3301270127286351 -6 2.217625015551433 -2.5696135239339939 -9 0.91506351643986317 -3.4150635091400758 -6 2.500000010727558 -4.3301270127286351 -3 6.9142305214597846e-09 -5 -3 0.91506351643986317 -3.4150635091400758 -3 0.91506351643986317 -3.4150635091400758 -6 0.91506351643986317 -3.4150635091400758 -6 2.500000010727558 -4.3301270127286351 -6 2.217625015551433 -2.5696135239339939 -6 2.500000010727558 -4.3301270127286351 -3 0.91506351643986317 -3.4150635091400758 -6 2.500000010727558 -4.3301270127286351 -3 2.217625015551433 -2.5696135239339939 -6 0.91506351643986317 -3.4150635091400758 -3 2.500000010727558 -4.3301270127286351 -3 0.91506351643986317 -3.4150635091400758 -3 2.217625015551433 -2.5696135239339939 -3 2.217625015551433 -2.5696135239339939 -6 6.9142305214597846e-09 -5 -6 2.500000010727558 -4.3301270127286351 -6 0.91506351643986317 -3.4150635091400758 -6 2.500000010727558 -4.3301270127286351 -3 6.9142305214597846e-09 -5 -6 2.500000010727558 -4.3301270127286351 -3 0.91506351643986317 -3.4150635091400758 -6 6.9142305214597846e-09 -5 -3 0.95458002071209891 -1.657898275923388 -6 0.91506351643986317 -3.4150635091400758 -3 2.217625015551433 -2.5696135239339939 -6 0.95458002071209891 -1.657898275923388 -3 2.3883545080289421 -0.94497882694672608 -3 0.95458002071209891 -1.657898275923388 -3 0.95458002071209891 -1.657898275923388 -6 2.217625015551433 -2.5696135239339939 -6 2.3883545080289421 -0.94497882694672608 -6 0.95458002071209891 -1.657898275923388 -6 2.217625015551433 -2.5696135239339939 -6 2.3883545080289421 -0.94497882694672608 -3 0.95458002071209891 -1.657898275923388 -3 2.3883545080289421 -0.94497882694672608 -3 2.217625015551433 -2.5696135239339939 -3 2.217625015551433 -2.5696135239339939 -6 0.91506351643986317 -3.4150635091400758 -3 0.95458002071209891 -1.657898275923388 -3 2.217625015551433 -2.5696135239339939 -3 2.217625015551433 -2.5696135239339939 -6 0.95458002071209891 -1.657898275923388 -6 0.91506351643986317 -3.4150635091400758 -6 2.217625015551433 -2.5696135239339939 -6 0.91506351643986317 -3.4150635091400758 -3 -0.66987297914647026 -2.499999999706382 -3 0.20080558631870429 0.033909897404034287 -3 0.95458002071209891 -1.657898275923388 -3 0.95458002071209891 -1.657898275923388 -6 0.20080558631870429 0.033909897404034287 -6 -0.66987297914647026 -2.499999999706382 -6 0.95458002071209891 -1.657898275923388 -6 -0.66987297914647026 -2.499999999706382 -3 -0.66987297914647026 -2.499999999706382 -3 0.95458002071209891 -1.657898275923388 -3 0.91506351643986317 -3.4150635091400758 -3 0.95458002071209891 -1.657898275923388 -6 0.95458002071209891 -1.657898275923388 -6 -0.66987297914647026 -2.499999999706382 -6 0.91506351643986317 -3.4150635091400758 -6 -0.66987297914647026 -2.499999999706382 -3 0.95458002071209891 -1.657898275923388 -6 -0.66987297914647026 -2.499999999706382 -3 0.91506351643986317 -3.4150635091400758 -6 0.91506351643986317 -3.4150635091400758 -3 6.9142305214597846e-09 -5 -3 -0.66987297914647026 -2.499999999706382 -3 0.91506351643986317 -3.4150635091400758 -3 0.91506351643986317 -3.4150635091400758 -6 -0.66987297914647026 -2.499999999706382 -6 6.9142305214597846e-09 -5 -6 0.91506351643986317 -3.4150635091400758 -6 6.9142305214597846e-09 -5 -3 -0.66987297914647026 -2.499999999706382 -6 6.9142305214597846e-09 -5 -3 0.91506351643986317 -3.4150635091400758 -6 -0.66987297914647026 -2.499999999706382 -3 -2.5000000000000022 -4.3301270189221919 -6 6.9142305214597846e-09 -5 -6 -0.66987297914647026 -2.499999999706382 -6 6.9142305214597846e-09 -5 -3 6.9142305214597846e-09 -5 -3 -2.5000000000000022 -4.3301270189221919 -3 -0.66987297914647026 -2.499999999706382 -3 -0.66987297914647026 -2.499999999706382 -6 -0.66987297914647026 -2.499999999706382 -3 6.9142305214597846e-09 -5 -3 0.91506351643986317 -3.4150635091400758 -3 6.9142305214597846e-09 -5 0 -2.5000000000000022 -4.3301270189221919 -3 6.9142305214597846e-09 -5 -3 -0.66987297914647026 -2.499999999706382 -3 6.9142305214597846e-09 -5 0 0.95458002071209891 -1.657898275923388 -3 -0.66987297914647026 -2.499999999706382 -3 0.91506351643986317 -3.4150635091400758 -3 -0.66987297914647026 -2.499999999706382 0 0.20080558631870429 0.033909897404034287 -3 -0.66987297914647026 -2.499999999706382 -3 0.95458002071209891 -1.657898275923388 -3 -0.66987297914647026 -2.499999999706382 0 2.3883545080289421 -0.94497882694672608 -3 0.95458002071209891 -1.657898275923388 -3 2.217625015551433 -2.5696135239339939 -3 2.3883545080289421 -0.94497882694672608 0 0.95458002071209891 -1.657898275923388 -3 0.91506351643986317 -3.4150635091400758 -3 2.217625015551433 -2.5696135239339939 -3 0.91506351643986317 -3.4150635091400758 0 0.91506351643986317 -3.4150635091400758 -3 2.500000010727558 -4.3301270127286351 -3 2.217625015551433 -2.5696135239339939 -3 2.500000010727558 -4.3301270127286351 0 6.9142305214597846e-09 -5 -3 2.500000010727558 -4.3301270127286351 -3 0.91506351643986317 -3.4150635091400758 -3 2.500000010727558 -4.3301270127286351 0 2.500000010727558 -4.3301270127286351 0 0.91506351643986317 -3.4150635091400758 0 2.217625015551433 -2.5696135239339939 0 2.217625015551433 -2.5696135239339939 -3 0.91506351643986317 -3.4150635091400758 -3 2.500000010727558 -4.3301270127286351 0 2.217625015551433 -2.5696135239339939 -3 0.91506351643986317 -3.4150635091400758 0 2.500000010727558 -4.3301270127286351 0 6.9142305214597846e-09 -5 0 0.91506351643986317 -3.4150635091400758 0 0.91506351643986317 -3.4150635091400758 -3 6.9142305214597846e-09 -5 -3 2.500000010727558 -4.3301270127286351 0 0.91506351643986317 -3.4150635091400758 -3 6.9142305214597846e-09 -5 0 0.91506351643986317 -3.4150635091400758 0 0.95458002071209891 -1.657898275923388 0 2.217625015551433 -2.5696135239339939 0 2.217625015551433 -2.5696135239339939 -3 0.95458002071209891 -1.657898275923388 -3 0.91506351643986317 -3.4150635091400758 0 2.217625015551433 -2.5696135239339939 -3 0.95458002071209891 -1.657898275923388 0 0.95458002071209891 -1.657898275923388 0 2.3883545080289421 -0.94497882694672608 0 2.217625015551433 -2.5696135239339939 0 2.217625015551433 -2.5696135239339939 -3 2.3883545080289421 -0.94497882694672608 0 0.95458002071209891 -1.657898275923388 0 0.95458002071209891 -1.657898275923388 -3 2.217625015551433 -2.5696135239339939 -3 0.95458002071209891 -1.657898275923388 -3 -0.66987297914647026 -2.499999999706382 0 0.91506351643986317 -3.4150635091400758 -3 0.91506351643986317 -3.4150635091400758 0 -0.66987297914647026 -2.499999999706382 0 0.95458002071209891 -1.657898275923388 0 0.91506351643986317 -3.4150635091400758 0 0.95458002071209891 -1.657898275923388 -3 -0.66987297914647026 -2.499999999706382 0 0.20080558631870429 0.033909897404034287 0 0.95458002071209891 -1.657898275923388 0 0.95458002071209891 -1.657898275923388 -3 6.9142305214597846e-09 -5 0 -2.5000000000000022 -4.3301270189221919 0 -0.66987297914647026 -2.499999999706382 0 -0.66987297914647026 -2.499999999706382 -3 -0.66987297914647026 -2.499999999706382 -3 6.9142305214597846e-09 -5 0 0.91506351643986317 -3.4150635091400758 -3 -0.66987297914647026 -2.499999999706382 0 6.9142305214597846e-09 -5 0 -0.66987297914647026 -2.499999999706382 0 0.91506351643986317 -3.4150635091400758 0 0.91506351643986317 -3.4150635091400758 -3 -2.5000000000000022 -4.3301270189221919 -3 6.9142305214597846e-09 -5 0 -0.66987297914647026 -2.499999999706382 -3 -2.5000000000000022 -4.3301270189221919 0 -2.5000000000000022 -4.3301270189221919 -3 -0.66987297914647026 -2.499999999706382 -3 -2.9547160992544761 -1.820741508163664 -3 -2.5000000000000022 -4.3301270189221919 0 -4.3301270160527148 -2.500000004970083 -3 -2.5000000000000022 -4.3301270189221919 -3 -2.9547160992544761 -1.820741508163664 -3 -2.5000000000000022 -4.3301270189221919 0 -2.5000000000000022 -4.3301270189221919 0 -0.66987297914647026 -2.499999999706382 0 -0.66987297914647026 -2.499999999706382 -3 -2.9547160992544761 -1.820741508163664 -3 -0.66987297914647026 -2.499999999706382 0 -2.5000000000000022 -4.3301270189221919 0 -2.9547160992544761 -1.820741508163664 0 -2.9547160992544761 -1.820741508163664 -3 -0.66987297914647026 -2.499999999706382 -3 -2.2735805010731909 0.22641949675281539 0 -2.9547160992544761 -1.820741508163664 -3 -0.66987297914647026 -2.499999999706382 0 -2.2735805010731909 0.22641949675281539 0 -0.66987297914647026 -2.499999999706382 0 -2.9547160992544761 -1.820741508163664 0 -2.9547160992544761 -1.820741508163664 -3 -4.3301270160527148 -2.500000004970083 0 -5 -1.397247784140632e-08 0 -2.9547160992544761 -1.820741508163664 0 -2.9547160992544761 -1.820741508163664 -3 -2.5000000000000022 -4.3301270189221919 0 -4.3301270160527148 -2.500000004970083 0 -2.9547160992544761 -1.820741508163664 0 -2.9547160992544761 -1.820741508163664 -3 -4.3301270160527148 -2.500000004970083 -3 -2.5000000000000022 -4.3301270189221919 0 -2.9547160992544761 -1.820741508163664 -3 -4.3301270160527148 -2.500000004970083 0 -5 -1.397247784140632e-08 -3 -4.3301270160527148 -2.500000004970083 -3 -2.9547160992544761 -1.820741508163664 -3 -4.3301270160527148 -2.500000004970083 0 
</DataArray>
</Points>
<Cells>
<DataArray type="UInt32" Name="connectivity" format="ascii">
0 1 2 3 4 5 6 7 8 9 10 11 12 13 14 15 16 17 18 19 20 21 22 23 24 25 26 27 28 29 30 31 32 33 34 35 36 37 38 39 40 41 42 43 44 45 46 47 48 49 50 51 52 53 54 55 56 57 58 59 60 61 62 63 64 65 66 67 68 69 70 71 72 73 74 75 76 77 78 79 80 81 82 83 84 85 86 87 88 89 90 91 92 93 94 95 96 97 98 99 100 101 102 103 104 105 106 107 108 109 110 111 112 113 114 115 116 117 118 119 120 121 122 123 124 125 126 127 128 129 130 131 132 133 134 135 136 137 138 139 140 141 142 143 144 145 146 147 148 149 150 151 152 153 154 155 156 157 158 159 160 161 162 163 164 165 166 167 168 169 170 171 172 173 174 175 176 177 178 179 180 181 182 183 184 185 186 187 188 189 190 191 192 193 194 195 196 197 198 199 200 201 202 203 204 205 206 207 208 209 210 211 212 213 214 215 216 217 218 219 220 221 222 223 224 225 226 227 228 229 230 231 232 233 234 235 236 237 238 239 240 241 242 243 244 245 246 247 248 249 250 251 252 253 254 255 256 257 258 259 260 261 262 263 264 265 266 267 268 269 270 271 272 273 274 275 276 277 278 279 280 281 282 283 284 285 286 287 288 289 290 291 292 293 294 295 296 297 298 299 300 301 302 303 304 305 306 307 308 309 310 311 312 313 314 315 316 317 318 319 320 321 322 323 324 325 326 327 328 329 330 331 332 333 334 335 336 337 338 339 340 341 342 343 344 345 346 347 348 349 350 351 352 353 354 355 356 357 358 359 360 361 362 363 364 365 366 367 368 369 370 371 372 373 374 375 376 377 378 379 380 381 382 383 384 385 386 387 388 389 390 391 392 393 394 395 396 397 398 399 400 401 402 403 404 405 406 407 408 409 410 411 412 413 414 415 416 417 418 419 420 421 422 423 424 425 426 427 428 429 430 431 432 433 434 435 436 437 438 439 440 441 442 443 444 445 446 447 448 449 450 451 452 453 454 455 456 457 458 459 460 461 462 463 464 465 466 467 468 469 470 471 472 473 474 475 476 477 478 479 480 481 482 483 484 485 486 487 488 489 490 491 492 493 494 495 496 497 498 499 500 501 502 503 504 505 506 507 508 509 510 511 512 513 514 515 516 517 518 519 520 521 522 523 524 525 526 527 528 529 530 531 532 533 534 535 536 537 538 539 540 541 542 543 544 545 546 547 548 549 550 551 552 553 554 555 556 557 558 559 560 561 562 563 564 565 566 567 568 569 570 571 572 573 574 575 576 577 578 579 580 581 582 583 584 585 586 587 588 589 590 591 592 593 594 595 596 597 598 599 600 601 602 603 604 605 606 607 608 609 610 611 612 613 614 615 616 617 618 619 620 621 622 623 624 625 626 627 628 629 630 631 632 633 634 635 636 637 638 639 640 641 642 643 644 645 646 647 648 649 650 651 652 653 654 655 656 657 658 659 660 661 662 663 664 665 666 667 668 669 670 671 672 673 674 675 676 677 678 679 680 681 682 683 684 685 686 687 688 689 690 691 692 693 694 695 696 697 698 699 700 701 702 703 704 705 706 707 708 709 710 711 712 713 714 715 716 717 718 719 720 721 722 723 724 725 726 727 728 729 730 731 732 733 734 735 736 737 738 739 740 741 742 743 744 745 746 747 748 749 750 751 752 753 754 755 756 757 758 759 760 761 762 763 764 765 766 767 768 769 770 771 772 773 774 775 776 777 778 779 780 781 782 783 784 785 786 787 788 789 790 791 792 793 794 795 796 797 798 799 800 801 802 803 804 805 806 807 808 809 810 811 812 813 814 815 816 817 818 819 820 821 822 823 824 825 826 827 828 829 830 831 832 833 834 835 836 837 838 839 840 841 842 843 844 845 846 847 848 849 850 851 852 853 854 855 856 857 858 859 860 861 862 863 864 865 866 867 868 869 870 871 872 873 874 875 876 877 878 879 880 881 882 883 884 885 886 887 888 889 890 891 892 893 894 895 896 897 898 899 900 901 902 903 904 905 906 907 908 909 910 911 912 913 914 915 916 917 918 919 920 921 922 923 924 925 926 927 928 929 930 931 932 933 934 935 936 937 938 939 940 941 942 943 944 945 946 947 948 949 950 951 952 953 954 955 956 957 958 959 960 961 962 963 964 965 966 967 968 969 970 971 972 973 974 975 976 977 978 979 980 981 982 983 984 985 986 987 988 989 990 991 992 993 994 995 996 997 998 999 1000 1001 1002 1003 1004 1005 1006 1007 1008 1009 1010 1011 1012 1013 1014 1015 1016 1017 1018 1019 1020 1021 1022 1023 1024 1025 1026 1027 1028 1029 1030 1031 1032 1033 1034 1035 1036 1037 1038 1039 1040 1041 1042 1043 1044 1045 1046 1047 1048 1049 1050 1051 1052 1053 1054 1055 1056 1057 1058 1059 1060 1061 1062 1063 1064 1065 1066 1067 1068 1069 1070 1071 1072 1073 1074 1075 1076 1077 1078 1079 1080 1081 1082 1083 1084 1085 1086 1087 1088 1089 1090 1091 1092 1093 1094 1095 1096 1097 1098 1099 1100 1101 1102 1103 1104 1105 1106 1107 1108 1109 1110 1111 1112 1113 1114 1115 1116 1117 1118 1119 1120 1121 1122 1123 1124 1125 1126 1127 1128 1129 1130 1131 1132 1133 1134 1135 1136 1137 1138 1139 1140 1141 1142 1143 1144 1145 1146 1147 1148 1149 1150 1151 1152 1153 1154 1155 1156 1157 1158 1159 1160 1161 1162 1163 1164 1165 1166 1167 1168 1169 1170 1171 1172 1173 1174 1175 1176 1177 1178 1179 1180 1181 1182 1183 1184 1185 1186 1187 1188 1189 1190 1191 1192 1193 1194 1195 1196 1197 1198 1199 1200 1201 1202 1203 1204 1205 1206 1207 1208 1209 1210 1211 1212 1213 1214 1215 1216 1217 1218 1219 1220 1221 1222 1223 1224 1225 1226 1227 1228 1229 1230 1231 1232 1233 1234 1235 1236 1237 1238 1239 1240 1241 1242 1243 1244 1245 1246 1247 1248 1249 1250 1251 1252 1253 1254 1255 1256 1257 1258 1259 1260 1261 1262 1263 1264 1265 1266 1267 1268 1269 1270 1271 1272 1273 1274 1275 1276 1277 1278 1279 1280 1281 1282 1283 1284 1285 1286 1287 1288 1289 1290 1291 1292 1293 1294 1295 1296 1297 1298 1299 1300 1301 1302 1303 1304 1305 1306 1307 1308 1309 1310 1311 1312 1313 1314 1315 1316 1317 1318 1319 1320 1321 1322 1323 1324 1325 1326 1327 1328 1329 1330 1331 1332 1333 1334 1335 1336 1337 1338 1339 1340 1341 1342 1343 1344 1345 1346 1347 1348 1349 1350 1351 1352 1353 1354 1355 1356 1357 1358 1359 1360 1361 1362 1363 1364 1365 1366 1367 1368 1369 1370 1371 1372 1373 1374 1375 1376 1377 1378 1379 1380 1381 1382 1383 1384 1385 1386 1387 1388 1389 1390 1391 1392 1393 1394 1395 1396 1397 1398 1399 1400 1401 1402 1403 1404 1405 1406 1407 1408 1409 1410 1411 1412 1413 1414 1415 1416 1417 1418 1419 1420 1421 1422 1423 1424 1425 1426 1427 1428 1429 1430 1431 1432 1433 1434 1435 1436 1437 1438 1439 1440 1441 1442 1443 1444 1445 1446 1447 1448 1449 1450 1451 1452 1453 1454 1455 1456 1457 1458 1459 1460 1461 1462 1463 1464 1465 1466 1467 1468 1469 1470 1471 1472 1473 1474 1475 1476 1477 1478 1479 1480 1481 1482 1483 1484 1485 1486 1487 1488 1489 1490 1491 1492 1493 1494 1495 1496 1497 1498 1499 1500 1501 1502 1503 1504 1505 1506 1507 1508 1509 1510 1511 1512 1513 1514 1515 1516 1517 1518 1519 1520 1521 1522 1523 1524 1525 1526 1527 1528 1529 1530 1531 1532 1533 1534 1535 1536 1537 1538 1539 1540 1541 1542 1543 1544 1545 1546 1547 1548 1549 1550 1551 1552 1553 1554 1555 1556 1557 1558 1559 1560 1561 1562 1563 1564 1565 1566 1567 1568 1569 1570 1571 1572 1573 1574 1575 1576 1577 1578 1579 1580 1581 1582 1583 1584 1585 1586 1587 1588 1589 1590 1591 1592 1593 1594 1595 1596 1597 1598 1599 1600 1601 1602 1603 1604 1605 1606 1607 1608 1609 1610 1611 1612 1613 1614 1615 1616 1617 1618 1619 1620 1621 1622 1623 1624 1625 1626 1627 1628 1629 1630 1631 1632 1633 1634 1635 1636 1637 1638 1639 1640 1641 1642 1643 1644 1645 1646 1647 1648 1649 1650 1651 1652 1653 1654 1655 1656 1657 1658 1659 1660 1661 1662 1663 1664 1665 1666 1667 1668 1669 1670 1671 1672 1673 1674 1675 1676 1677 1678 1679 1680 1681 1682 1683 1684 1685 1686 1687 1688 1689 1690 1691 1692 1693 1694 1695 1696 1697 1698 1699 1700 1701 1702 1703 1704 1705 1706 1707 1708 1709 1710 1711 1712 1713 1714 1715 1716 1717 1718 1719 1720 1721 1722 1723 1724 1725 1726 1727 1728 1729 1730 1731 1732 1733 1734 1735 1736 1737 1738 1739 1740 1741 1742 1743 1744 1745 1746 1747 1748 1749 1750 1751 1752 1753 1754 1755 1756 1757 1758 1759 1760 1761 1762 1763 1764 1765 1766 1767 1768 1769 1770 1771 1772 1773 1774 1775 1776 1777 1778 1779 1780 1781 1782 1783 1784 1785 1786 1787 1788 1789 1790 1791 1792 1793 1794 1795 1796 1797 1798 1799 1800 1801 1802 1803 1804 1805 1806 1807 1808 1809 1810 1811 1812 1813 1814 1815 1816 1817 1818 1819 1820 1821 1822 1823 1824 1825 1826 1827 1828 1829 1830 1831 1832 1833 1834 1835 1836 1837 1838 1839 1840 1841 1842 1843 1844 1845 1846 1847 1848 1849 1850 1851 1852 1853 1854 1855 1856 1857 1858 1859 1860 1861 1862 1863 1864 1865 1866 1867 1868 1869 1870 1871 1872 1873 1874 1875 1876 1877 1878 1879 1880 1881 1882 1883 1884 1885 1886 1887 1888 1889 1890 1891 1892 1893 1894 1895 1896 1897 1898 1899 1900 1901 1902 1903 1904 1905 1906 1907 1908 1909 1910 1911 1912 1913 1914 1915 1916 1917 1918 1919 1920 1921 1922 1923 1924 1925 1926 1927 1928 1929 1930 1931 1932 1933 1934 1935 1936 1937 1938 1939 1940 1941 1942 1943 1944 1945 1946 1947 1948 1949 1950 1951 1952 1953 1954 1955 1956 1957 1958 1959 1960 1961 1962 1963 1964 1965 1966 1967 1968 1969 1970 1971 1972 1973 1974 1975 1976 1977 1978 1979 1980 1981 1982 1983 1984 1985 1986 1987 1988 1989 1990 1991 1992 1993 1994 1995 1996 1997 1998 1999 2000 2001 2002 2003 2004 2005 2006 2007 2008 2009 2010 2011 2012 2013 2014 2015 2016 2017 2018 2019 2020 2021 2022 2023 2024 2025 2026 2027 2028 2029 2030 2031 2032 2033 2034 2035 2036 2037 2038 2039 2040 2041 2042 2043 2044 2045 2046 2047 2048 2049 2050 2051 2052 2053 2054 2055 2056 2057 2058 2059 2060 2061 2062 2063 2064 2065 2066 2067 2068 2069 2070 2071 2072 2073 2074 2075 2076 2077 2078 2079 2080 2081 2082 2083 2084 2085 2086 2087 2088 2089 2090 2091 2092 2093 2094 2095 2096 2097 2098 2099 2100 2101 2102 2103 2104 2105 2106 2107 2108 2109 2110 2111 2112 2113 2114 2115 2116 2117 2118 2119 2120 2121 2122 2123 2124 2125 2126 2127 2128 2129 2130 2131 2132 2133 2134 2135 2136 2137 2138 2139 2140 2141 2142 2143 2144 2145 2146 2147 2148 2149 2150 2151 2152 2153 2154 2155 2156 2157 2158 2159 
</DataArray>
<DataArray type="UInt32" Name="offsets" format="ascii">
4 8 12 16 20 24 28 32 36 40 44 48 52 56 60 64 68 72 76 80 84 88 92 96 100 104 108 112 116 120 124 128 132 136 140 144 148 152 156 160 164 168 172 176 180 184 188 192 196 200 204 208 212 216 220 224 228 232 236 240 244 248 252 256 260 264 268 272 276 280 284 288 292 296 300 304 308 312 316 320 324 328 332 336 340 344 348 352 356 360 364 368 372 376 380 384 388 392 396 400 404 408 412 416 420 424 428 432 436 440 444 448 452 456 460 464 468 472 476 480 484 488 492 496 500 504 508 512 516 520 524 528 532 536 540 544 548 552 556 560 564 568 572 576 580 584 588 592 596 600 604 608 612 616 620 624 628 632 636 640 644 648 652 656 660 664 668 672 676 680 684 688 692 696 700 704 708 712 716 720 724 728 732 736 740 744 748 752 756 760 764 768 772 776 780 784 788 792 796 800 804 808 812 816 820 824 828 832 836 840 844 848 852 856 860 864 868 872 876 880 884 888 892 896 900 904 908 912 916 920 924 928 932 936 940 944 948 952 956 960 964 968 972 976 980 984 988 992 996 1000 1004 1008 1012 1016 1020 1024 1028 1032 1036 1040 1044 1048 1052 1056 1060 1064 1068 1072 1076 1080 1084 1088 1092 1096 1100 1104 1108 1112 1116 1120 1124 1128 1132 1136 1140 1144 1148 1152 1156 1160 1164 1168 1172 1176 1180 1184 1188 1192 1196 1200 1204 1208 1212 1216 1220 1224 1228 1232 1236 1240 1244 1248 1252 1256 1260 1264 1268 1272 1276 1280 1284 1288 1292 1296 1300 1304 1308 1312 1316 1320 1324 1328 1332 1336 1340 1344 1348 1352 1356 1360 1364 1368 1372 1376 1380 1384 1388 1392 1396 1400 1404 1408 1412 1416 1420 1424 1428 1432 1436 1440 1444 1448 1452 1456 1460 1464 1468 1472 1476 1480 1484 1488 1492 1496 1500 1504 1508 1512 1516 1520 1524 1528 1532 1536 1540 1544 1548 1552 1556 1560 1564 1568 1572 1576 1580 1584 1588 1592 1596 1600 1604 1608 1612 1616 1620 1624 1628 1632 1636 1640 1644 1648 1652 1656 1660 1664 1668 1672 1676 1680 1684 1688 1692 1696 1700 1704 1708 1712 1716 1720 1724 1728 1732 1736 1740 1744 1748 1752 1756 1760 1764 1768 1772 1776 1780 1784 1788 1792 1796 1800 1804 1808 1812 1816 1820 1824 1828 1832 1836 1840 1844 1848 1852 1856 1860 1864 1868 1872 1876 1880 1884 1888 1892 1896 1900 1904 1908 1912 1916 1920 1924 1928 1932 1936 1940 1944 1948 1952 1956 1960 1964 1968 1972 1976 1980 1984 1988 1992 1996 2000 2004 2008 2012 2016 2020 2024 2028 2032 2036 2040 2044 2048 2052 2056 2060 2064 2068 2072 2076 2080 2084 2088 2092 2096 2100 2104 2108 2112 2116 2120 2124 2128 2132 2136 2140 2144 2148 2152 2156 2160 
</DataArray>
<DataArray type="UInt32" Name="types" format="ascii">
10 10 10 10 10 10 10 10 10 10 10 10 10 10 10 10 10 10 10 10 10 10 10 10 10 10 10 10 10 10 10 10 10 10 10 10 10 10 10 10 10 10 10 10 10 10 10 10 10 10 10 10 10 10 10 10 10 10 10 10 10 10 10 10 10 10 10 10 10 10 10 10 10 10 10 10 10 10 10 10 10 10 10 10 10 10 10 10 10 10 10 10 10 10 10 10 10 10 10 10 10 10 10 10 10 10 10 10 10 10 10 10 10 10 10 10 10 10 10 10 10 10 10 10 10 10 10 10 10 10 10 10 10 10 10 10 10 10 10 10 10 10 10 10 10 10 10 10 10 10 10 10 10 10 10 10 10 10 10 10 10 10 10 10 10 10 10 10 10 10 10 10 10 10 10 10 10 10 10 10 10 10 10 10 10 10 10 10 10 10 10 10 10 10 10 10 10 10 10 10 10 10 10 10 10 10 10 10 10 10 10 10 10 10 10 10 10 10 10 10 10 10 10 10 10 10 10 10 10 10 10 10 10 10 10 10 10 10 10 10 10 10 10 10 10 10 10 10 10 10 10 10 10 10 10 10 10 10 10 10 10 10 10 10 10 10 10 10 10 10 10 10 10 10 10 10 10 10 10 10 10 10 10 10 10 10 10 10 10 10 10 10 10 10 10 10 10 10 10 10 10 10 10 10 10 10 10 10 10 10 10 10 10 10 10 10 10 10 10 10 10 10 10 10 10 10 10 10 10 10 10 10 10 10 10 10 10 10 10 10 10 10 10 10 10 10 10 10 10 10 10 10 10 10 10 10 10 10 10 10 10 10 10 10 10 10 10 10 10 10 10 10 10 10 10 10 10 10 10 10 10 10 10 10 10 10 10 10 10 10 10 10 10 10 10 10 10 10 10 10 10 10 10 10 10 10 10 10 10 10 10 10 10 10 10 10 10 10 10 10 10 10 10 10 10 10 10 10 10 10 10 10 10 10 10 10 10 10 10 10 10 10 10 10 10 10 10 10 10 10 10 10 10 10 10 10 10 10 10 10 10 10 10 10 10 10 10 10 10 10 10 10 10 10 10 10 10 10 10 10 10 10 10 10 10 10 10 10 10 10 10 10 10 10 10 10 10 10 10 10 10 10 10 10 10 10 10 10 10 10 10 10 10 10 10 10 10 10 10 10 10 10 10 10 10 10 10 10 10 10 10 10 10 10 10 10 10 10 10 10 
</DataArray>
</Cells>
<PointData Scalars="" Vectors="displacement," Tensors="">
<DataArray type="Float64" Name="displacement" NumberOfComponents="3" format="ascii">
-1.3342112749173394e-07 -1.951537134523916e-08 -0.00025023055065717973 -1.2758676172438138e-07 4.9911961710774656e-08 -0.00025025006277463037 -8.432923748940718e-08 -2.3211154569696412e-08 -0.00025022987819937138 2.4513035452592372e-08 1.6151187005631572e-08 -1.8749937962888967e-07 -1.0074536721062951e-07 -8.6359621159593569e-08 -0.00025024503284859951 -1.3342112749173394e-07 -1.951537134523916e-08 -0.00025023055065717973 -8.432923748940718e-08 -2.3211154569696412e-08 -0.00025022987819937138 2.4513035452592372e-08 1.6151187005631572e-08 -1.8749937962888967e-07 -5.462514829295986e-08 -3.5565046393348266e-08 -1.0558485617530673e-07 -1.007453672106295e-07 -8.6359621159593582e-08 -0.00025024503284859945 2.4513035452592372e-08 1.6151187005631572e-08 -1.8749937962888967e-07 -1.3342112749173394e-07 -1.951537134523916e-08 -0.00025023055065717973 -5.2291163686790901e-08 -4.3710153444065408e-09 -2.4535999141836126e-07 -5.462514829295986e-08 -3.5565046393348266e-08 -1.0558485617530673e-07 2.4513035452592372e-08 1.6151187005631572e-08 -1.8749937962888967e-07 -1.3342112749173394e-07 -1.951537134523916e-08 -0.00025023055065717973 -2.6314966512467171e-09 1.1331073151306456e-08 -2.1468367014548157e-07 -5.4680198563945418e-08 1.3875612874256581e-08 -0.00025021651399595842 2.4513035452592372e-08 1.6151187005631572e-08 -1.8749937962888967e-07 -4.0156390890496813e-08 -5.0910241980780288e-08 -0.00025021568070504406 -1.0074536721062951e-07 -8.6359621159593569e-08 -0.00025024503284859951 -4.0156390890496819e-08 -5.0910241980780288e-08 -0.00025021568070504406 -2.6314966512467171e-09 1.1331073151306456e-08 -2.1468367014548157e-07 2.4513035452592372e-08 1.6151187005631572e-08 -1.8749937962888967e-07 -5.4680198563945392e-08 1.3875612874256568e-08 -0.00025021651399595836 -4.0156390890496813e-08 -5.0910241980780288e-08 -0.00025021568070504406 -8.432923748940718e-08 -2.3211154569696412e-08 -0.00025022987819937138 2.4513035452592372e-08 1.6151187005631572e-08 -1.8749937962888967e-07 -4.0156390890496813e-08 -5.0910241980780288e-08 -0.00025021568070504406 -1.0074536721062953e-07 -8.6359621159593569e-08 -0.00025024503284859951 -8.4329237489407166e-08 -2.3211154569696402e-08 -0.00025022987819937133 2.4513035452592372e-08 1.6151187005631572e-08 -1.8749937962888967e-07 -2.4654236967857065e-08 -4.6466582815877918e-08 -2.344120360459514e-07 -5.1936151519347857e-08 -1.2723577010602359e-07 -0.00025021945115684434 -2.6314966512467171e-09 1.1331073151306456e-08 -2.1468367014548157e-07 -1.0074536721062951e-07 -8.6359621159593569e-08 -0.00025024503284859951 -2.4654236967857065e-08 -4.6466582815877918e-08 -2.344120360459514e-07 -2.6314966512467122e-09 1.1331073151306462e-08 -2.1468367014548157e-07 2.4513035452592372e-08 1.6151187005631572e-08 -1.8749937962888967e-07 -1.0074536721062951e-07 -8.6359621159593569e-08 -0.00025024503284859951 -5.462514829295986e-08 -3.5565046393348266e-08 -1.0558485617530673e-07 -2.4654236967857065e-08 -4.6466582815877918e-08 -2.344120360459514e-07 2.4513035452592372e-08 1.6151187005631572e-08 -1.8749937962888967e-07 -1.0074536721062951e-07 -8.6359621159593569e-08 -0.00025024503284859951 -2.4654236967857065e-08 -4.6466582815877918e-08 -2.344120360459514e-07 5.0243366713548279e-09 -5.2716067369786903e-08 -1.8098150174391573e-07 -2.6314966512467171e-09 1.1331073151306456e-08 -2.1468367014548157e-07 -5.1936151519347863e-08 -1.2723577010602357e-07 -0.00025021945115684434 -2.6314966512467171e-09 1.1331073151306456e-08 -2.1468367014548157e-07 5.024336671354832e-09 -5.2716067369786903e-08 -1.8098150174389106e-07 -4.8803391842523252e-09 1.6545164906978987e-08 -9.7709438606556633e-08 -5.1936151519347863e-08 -1.2723577010602357e-07 -0.00025021945115684434 -2.6314966512467171e-09 1.1331073151306456e-08 -2.1468367014548157e-07 -5.1936151519347857e-08 -1.2723577010602362e-07 -0.00025021945115684429 -4.8803391842523252e-09 1.6545164906978991e-08 -9.7709438606565223e-08 -4.0156390890496813e-08 -5.0910241980780288e-08 -0.00025021568070504406 3.7894295517184004e-09 2.5028510543423299e-09 -1.8649050520730176e-07 -2.6314966512467171e-09 1.1331073151306456e-08 -2.1468367014548157e-07 5.7098635078825985e-09 -9.1888967665512833e-09 -7.257154819726607e-08 -4.0156390890496813e-08 -5.0910241980780288e-08 -0.00025021568070504406 5.7098635078825985e-09 -9.1888967665512833e-09 -7.257154819726607e-08 -2.6314966512467196e-09 1.1331073151306452e-08 -2.1468367014549391e-07 -4.8803391842523252e-09 1.6545164906978987e-08 -9.7709438606556633e-08 -4.0156390890496813e-08 -5.0910241980780288e-08 -0.00025021568070504406 5.7098635078825985e-09 -9.1888967665512833e-09 -7.257154819726607e-08 -4.0156390890496793e-08 -5.0910241980780328e-08 -0.00025021568070504412 -4.8803391842523227e-09 1.6545164906978984e-08 -9.7709438606561874e-08 -5.1096996055413467e-09 -8.414144942596641e-08 -0.00025019676572901454 5.3188321496802703e-08 -2.6640508618090664e-08 -0.00025020709295624167 1.2400984955444436e-08 -4.2726300597242062e-08 -0.00025019185750277227 5.7098635078825985e-09 -9.1888967665512833e-09 -7.257154819726607e-08 -1.2700412048798867e-08 1.1313942276293321e-08 -9.8543748247460316e-08 -1.2599883497670813e-08 4.777682349909367e-09 -1.7697880445637017e-07 5.7098635078825985e-09 -9.1888967665512816e-09 -7.2571548197266057e-08 -1.2700412048798867e-08 1.1313942276293321e-08 -9.8543748247460316e-08 5.3188321496802703e-08 -2.6640508618090664e-08 -0.00025020709295624167 5.7098635078825985e-09 -9.1888967665512833e-09 -7.257154819726607e-08 -5.1096996055413467e-09 -8.414144942596641e-08 -0.00025019676572901454 -1.2700412048798867e-08 1.1313942276293321e-08 -9.8543748247460316e-08 1.2400984955444426e-08 -4.2726300597242062e-08 -0.00025019185750277227 5.7098635078825985e-09 -9.1888967665512833e-09 -7.257154819726607e-08 -4.8803391842523252e-09 1.6545164906978987e-08 -9.7709438606556633e-08 -1.2700412048798867e-08 1.1313942276293321e-08 -9.8543748247460316e-08 -5.1096996055413467e-09 -8.414144942596641e-08 -0.00025019676572901454 -4.8803391842523252e-09 1.6545164906978987e-08 -9.7709438606556633e-08 2.9115907212468415e-08 -4.4969605863173023e-08 -1.3795281524977753e-07 -1.2700412048798867e-08 1.1313942276293321e-08 -9.8543748247460316e-08 1.9422468036463879e-08 -1.3541302400586899e-07 -0.00025020915248867641 5.024336671354832e-09 -5.2716067369786903e-08 -1.8098150174389106e-07 1.9422468036463882e-08 -1.3541302400586902e-07 -0.00025020915248867646 -4.8803391842523252e-09 1.6545164906978987e-08 -9.7709438606556633e-08 -5.193615151934785e-08 -1.2723577010602357e-07 -0.00025021945115684429 5.024336671354832e-09 -5.2716067369786903e-08 -1.8098150174389106e-07 2.9115907212468422e-08 -4.4969605863173042e-08 -1.3795281524977753e-07 -4.8803391842523252e-09 1.6545164906978987e-08 -9.7709438606556633e-08 1.9422468036463875e-08 -1.3541302400586902e-07 -0.00025020915248867646 -4.8803391842523252e-09 1.6545164906978987e-08 -9.7709438606556633e-08 1.9422468036463879e-08 -1.3541302400586899e-07 -0.00025020915248867641 -1.2700412048798867e-08 1.1313942276293322e-08 -9.8543748247455777e-08 -5.1096996055413467e-09 -8.414144942596641e-08 -0.00025019676572901454 1.9422468036463879e-08 -1.3541302400586899e-07 -0.00025020915248867641 -5.1936151519347844e-08 -1.2723577010602354e-07 -0.00025021945115684423 -5.1096996055413467e-09 -8.414144942596641e-08 -0.00025019676572901454 -4.8803391842523252e-09 1.6545164906978987e-08 -9.7709438606556633e-08 1.9422468036463879e-08 -1.3541302400586899e-07 -0.00025020915248867641 -5.1096996055413467e-09 -8.414144942596641e-08 -0.00025019676572901454 3.6402772478534796e-08 -7.0369558526063284e-08 -0.00025020017925155079 -1.2700412048798867e-08 1.1313942276293321e-08 -9.8543748247460316e-08 1.2400984955444426e-08 -4.2726300597242062e-08 -0.00025019185750277227 5.318832149680271e-08 -2.6640508618090664e-08 -0.00025020709295624167 3.6402772478534796e-08 -7.0369558526063284e-08 -0.00025020017925155079 -1.2700412048798867e-08 1.1313942276293321e-08 -9.8543748247460316e-08 -5.1096996055413467e-09 -8.414144942596641e-08 -0.00025019676572901454 1.2400984955444426e-08 -4.2726300597242062e-08 -0.00025019185750277227 3.6402772478534796e-08 -7.0369558526063284e-08 -0.00025020017925155079 -1.2700412048798867e-08 1.1313942276293321e-08 -9.8543748247460316e-08 -4.0156390890496813e-08 -5.0910241980780288e-08 -0.00025021568070504406 1.2400984955444427e-08 -4.2726300597242062e-08 -0.00025019185750277227 -5.1096996055413467e-09 -8.414144942596641e-08 -0.00025019676572901454 5.7098635078825985e-09 -9.1888967665512833e-09 -7.257154819726607e-08 -4.0156390890496813e-08 -5.0910241980780288e-08 -0.00025021568070504406 4.6030281991702401e-09 -1.6797924499183079e-10 -0.00025020892051367605 1.2400984955444426e-08 -4.2726300597242062e-08 -0.00025019185750277227 5.7098635078825985e-09 -9.1888967665512833e-09 -7.257154819726607e-08 -5.193615151934785e-08 -1.2723577010602357e-07 -0.00025021945115684429 -4.0156390890496813e-08 -5.0910241980780288e-08 -0.00025021568070504406 -5.1096996055413467e-09 -8.414144942596641e-08 -0.00025019676572901454 -4.8803391842523252e-09 1.6545164906978987e-08 -9.7709438606556633e-08 -5.193615151934785e-08 -1.2723577010602357e-07 -0.00025021945115684429 -1.0074536721062951e-07 -8.6359621159593556e-08 -0.00025024503284859951 -4.0156390890496813e-08 -5.0910241980780288e-08 -0.00025021568070504406 -2.631496651246706e-09 1.1331073151306472e-08 -2.1468367014542633e-07 -4.0156390890496813e-08 -5.0910241980780288e-08 -0.00025021568070504406 -5.193615151934785e-08 -1.2723577010602357e-07 -0.00025021945115684429 -5.1096996055413467e-09 -8.414144942596641e-08 -0.00025019676572901454 1.3425209362436651e-08 -1.0927176129660047e-07 -0.00050026529130575736 1.3425209362436635e-08 -1.0927176129660048e-07 -0.00050026529130575736 -1.7766786100136411e-08 -5.5699011401393113e-08 -0.00050026420279214976 2.1579879130084478e-08 -7.3841520774635161e-08 -0.00050026052741975683 -5.1096996055413467e-09 -8.414144942596641e-08 -0.00025019676572901454 -4.0156390890496813e-08 -5.0910241980780288e-08 -0.00025021568070504406 1.3425209362436637e-08 -1.0927176129660049e-07 -0.00050026529130575736 -5.1096996055413459e-09 -8.4141449425966397e-08 -0.00025019676572901454 -1.7766786100136411e-08 -5.5699011401393113e-08 -0.00050026420279214976 1.3425209362436635e-08 -1.0927176129660048e-07 -0.00050026529130575736 -4.4954414699652119e-08 -1.0090934286036471e-07 -0.00050027490220265686 -1.7766786100136411e-08 -5.5699011401393113e-08 -0.00050026420279214976 -4.0156390890496813e-08 -5.0910241980780288e-08 -0.00025021568070504401 -1.0074536721062951e-07 -8.6359621159593569e-08 -0.00025024503284859951 -5.1936151519347844e-08 -1.2723577010602354e-07 -0.00025021945115684429 -4.0156390890496813e-08 -5.0910241980780288e-08 -0.00025021568070504406 1.3425209362436651e-08 -1.0927176129660047e-07 -0.00050026529130575736 4.6030281991702401e-09 -1.6797924499183079e-10 -0.00025020892051367605 -4.0156390890496813e-08 -5.0910241980780288e-08 -0.00025021568070504406 1.2400984955444426e-08 -4.2726300597242062e-08 -0.00025019185750277227 -1.7766786100136411e-08 -5.5699011401393113e-08 -0.00050026420279214976 1.2400984955444426e-08 -4.2726300597242062e-08 -0.00025019185750277227 -1.7766786100136375e-08 -5.5699011401393113e-08 -0.00050026420279214987 -5.1096996055413443e-09 -8.414144942596641e-08 -0.00025019676572901454 2.1579879130084478e-08 -7.3841520774635161e-08 -0.00050026052741975683 -1.7766786100136411e-08 -5.5699011401393113e-08 -0.00050026420279214976 5.2831070948342673e-09 3.3950633257563676e-09 -0.00050026364469961436 2.1892763875788703e-08 -3.3945911302579041e-08 -0.00050025966758235709 1.2400984955444426e-08 -4.2726300597242062e-08 -0.00025019185750277227 1.2400984955444426e-08 -4.2726300597242062e-08 -0.00025019185750277227 -4.0156390890496813e-08 -5.0910241980780288e-08 -0.00025021568070504406 -5.1096996055413467e-09 -8.414144942596641e-08 -0.00025019676572901454 -1.7766786100136411e-08 -5.5699011401393113e-08 -0.00050026420279214976 -1.7766786100136411e-08 -5.5699011401393113e-08 -0.00050026420279214976 2.1892763875788703e-08 -3.3945911302579041e-08 -0.00050025966758235709 2.1579879130084478e-08 -7.3841520774635161e-08 -0.00050026052741975683 1.2400984955444426e-08 -4.2726300597242062e-08 -0.00025019185750277227 2.1892763875788703e-08 -3.3945911302579041e-08 -0.00050025966758235709 5.4737276620350775e-08 -1.5673945750831744e-08 -0.00050026543357595602 5.1802801754226026e-08 -5.3004863131506189e-08 -0.0005002608937728836 3.6402772478534796e-08 -7.0369558526063284e-08 -0.00025020017925155079 5.3188321496802703e-08 -2.6640508618090664e-08 -0.00025020709295624167 1.2400984955444424e-08 -4.2726300597242069e-08 -0.00025019185750277227 3.6402772478534796e-08 -7.0369558526063284e-08 -0.00025020017925155079 5.4737276620350768e-08 -1.567394575083174e-08 -0.00050026543357595602 5.4737276620350768e-08 -1.567394575083174e-08 -0.00050026543357595602 2.189276387578871e-08 -3.3945911302579035e-08 -0.00050025966758235709 1.2400984955444426e-08 -4.2726300597242062e-08 -0.00025019185750277227 3.6402772478534796e-08 -7.0369558526063284e-08 -0.00025020017925155079 1.2400984955444426e-08 -4.2726300597242062e-08 -0.00025019185750277227 2.1579879130084478e-08 -7.3841520774635161e-08 -0.00050026052741975683 3.6402772478534796e-08 -7.0369558526063284e-08 -0.00025020017925155079 2.1892763875788703e-08 -3.3945911302579041e-08 -0.00050025966758235709 1.2400984955444426e-08 -4.2726300597242062e-08 -0.00025019185750277227 -5.1096996055413467e-09 -8.414144942596641e-08 -0.00025019676572901454 3.6402772478534796e-08 -7.0369558526063284e-08 -0.00025020017925155079 2.1579879130084478e-08 -7.3841520774635161e-08 -0.00050026052741975683 2.1579879130084478e-08 -7.3841520774635161e-08 -0.00050026052741975683 2.1892763875788703e-08 -3.3945911302579041e-08 -0.00050025966758235709 5.1802801754226026e-08 -5.3004863131506189e-08 -0.0005002608937728836 3.6402772478534796e-08 -7.0369558526063284e-08 -0.00025020017925155079 -5.193615151934785e-08 -1.2723577010602357e-07 -0.00025021945115684429 1.9422468036463879e-08 -1.3541302400586899e-07 -0.00025020915248867641 -5.1096996055413467e-09 -8.414144942596641e-08 -0.00025019676572901454 6.6414614438986001e-08 -8.7902407798403763e-08 -0.00050026153138336223 6.6414614438985987e-08 -8.7902407798403789e-08 -0.00050026153138336223 1.3425209362436628e-08 -1.0927176129660047e-07 -0.00050026529130575725 2.1579879130084478e-08 -7.3841520774635161e-08 -0.00050026052741975683 -5.1096996055413467e-09 -8.414144942596641e-08 -0.00025019676572901454 -5.193615151934785e-08 -1.2723577010602357e-07 -0.00025021945115684429 6.6414614438986014e-08 -8.7902407798403776e-08 -0.00050026153138336223 -5.1096996055413467e-09 -8.414144942596641e-08 -0.00025019676572901454 1.3425209362436635e-08 -1.0927176129660048e-07 -0.00050026529130575736 -5.1096996055413467e-09 -8.414144942596641e-08 -0.00025019676572901454 6.6414614438985987e-08 -8.7902407798403789e-08 -0.00050026153138336223 3.6402772478534796e-08 -7.0369558526063297e-08 -0.00025020017925155084 2.1579879130084478e-08 -7.3841520774635161e-08 -0.00050026052741975683 -5.1096996055413467e-09 -8.414144942596641e-08 -0.00025019676572901454 1.9422468036463875e-08 -1.3541302400586899e-07 -0.00025020915248867641 3.6402772478534796e-08 -7.0369558526063284e-08 -0.00025020017925155079 6.6414614438985987e-08 -8.7902407798403789e-08 -0.00050026153138336223 6.6414614438985987e-08 -8.7902407798403789e-08 -0.00050026153138336223 2.1579879130084478e-08 -7.3841520774635161e-08 -0.00050026052741975683 5.1802801754226026e-08 -5.3004863131506189e-08 -0.0005002608937728836 3.6402772478534796e-08 -7.0369558526063284e-08 -0.00025020017925155079 1.3425209362436635e-08 -1.0927176129660048e-07 -0.00050026529130575736 6.6414614438986001e-08 -8.7902407798403789e-08 -0.00050026153138336223 2.1579879130084478e-08 -7.3841520774635161e-08 -0.00050026052741975683 5.4066157110672798e-08 -9.770482760643547e-08 -0.00075030990449396443 2.1579879130084478e-08 -7.3841520774635161e-08 -0.00050026052741975683 6.6414614438985987e-08 -8.7902407798403802e-08 -0.00050026153138336223 5.1802801754226026e-08 -5.3004863131506189e-08 -0.0005002608937728836 5.4066157110672805e-08 -9.770482760643547e-08 -0.00075030990449396432 2.1892763875788703e-08 -3.3945911302579041e-08 -0.00050025966758235709 2.1579879130084478e-08 -7.3841520774635161e-08 -0.00050026052741975683 5.1802801754226026e-08 -5.3004863131506189e-08 -0.0005002608937728836 1.9433296828188692e-08 -7.5927926001991136e-08 -0.00075030991599584612 5.4737276620350768e-08 -1.567394575083174e-08 -0.00050026543357595602 2.1892763875788703e-08 -3.3945911302579048e-08 -0.00050025966758235709 5.1802801754226026e-08 -5.3004863131506189e-08 -0.0005002608937728836 5.3656130294179449e-08 -1.9715294870409673e-08 -0.0007503125780091831 2.1892763875788703e-08 -3.3945911302579041e-08 -0.00050025966758235709 -1.7766786100136411e-08 -5.5699011401393113e-08 -0.00050026420279214976 2.1579879130084478e-08 -7.3841520774635161e-08 -0.00050026052741975683 -1.6517136820644538e-08 -5.5253836967539326e-08 -0.00075031071835028281 5.2831070948342673e-09 3.3950633257563676e-09 -0.00050026364469961436 -1.7766786100136411e-08 -5.5699011401393113e-08 -0.00050026420279214976 2.1892763875788703e-08 -3.3945911302579041e-08 -0.00050025966758235709 -1.6517136820644538e-08 -5.5253836967539326e-08 -0.00075031071835028281 -4.4954414699652119e-08 -1.0090934286036472e-07 -0.00050027490220265686 1.3425209362436635e-08 -1.0927176129660047e-07 -0.00050026529130575736 -1.7766786100136411e-08 -5.5699011401393113e-08 -0.00050026420279214976 -1.9356544446936614e-09 -1.1164138578145161e-07 -0.00075031021013504068 -1.7766786100136411e-08 -5.5699011401393113e-08 -0.00050026420279214976 1.3425209362436635e-08 -1.0927176129660048e-07 -0.00050026529130575736 2.1579879130084478e-08 -7.3841520774635161e-08 -0.00050026052741975683 -1.9356544446936614e-09 -1.1164138578145161e-07 -0.00075031021013504068 -4.4954414699652119e-08 -1.0090934286036472e-07 -0.00050027490220265686 -1.7766786100136415e-08 -5.5699011401393106e-08 -0.00050026420279214976 -6.5680675863762923e-08 -4.3491066207275226e-08 -0.0005002689175418499 -5.7164073031079612e-08 -9.5799864226560687e-08 -0.00075031337761401835 -8.7978833492531619e-08 -6.630408180023063e-08 -0.00050027017810675496 -4.4954414699652119e-08 -1.0090934286036472e-07 -0.00050027490220265686 -6.5680675863762923e-08 -4.3491066207275226e-08 -0.0005002689175418499 -5.7164073031079612e-08 -9.5799864226560687e-08 -0.00075031337761401835 -1.0074536721062951e-07 -8.6359621159593569e-08 -0.00025024503284859951 1.3425209362436661e-08 -1.0927176129660049e-07 -0.00050026529130575736 -4.0156390890496813e-08 -5.0910241980780288e-08 -0.00025021568070504406 -4.4954414699652119e-08 -1.0090934286036472e-07 -0.00050027490220265686 -1.0074536721062951e-07 -8.6359621159593569e-08 -0.00025024503284859951 -4.0156390890496806e-08 -5.0910241980780281e-08 -0.00025021568070504406 -8.432923748940718e-08 -2.3211154569696412e-08 -0.00025022987819937138 -4.4954414699652119e-08 -1.0090934286036472e-07 -0.00050027490220265686 -1.3342112749173394e-07 -1.951537134523916e-08 -0.00025023055065717973 -1.0074536721062951e-07 -8.6359621159593569e-08 -0.00025024503284859951 -8.432923748940718e-08 -2.3211154569696412e-08 -0.00025022987819937138 -4.4954414699652119e-08 -1.0090934286036472e-07 -0.00050027490220265686 -5.093342649710264e-08 3.0296124666493377e-09 -0.0005002661109843109 -1.7766786100136411e-08 -5.5699011401393113e-08 -0.00050026420279214976 -6.5680675863762923e-08 -4.3491066207275226e-08 -0.0005002689175418499 -8.432923748940718e-08 -2.3211154569696412e-08 -0.00025022987819937138 -1.7766786100136411e-08 -5.5699011401393113e-08 -0.00050026420279214976 -4.4954414699652126e-08 -1.0090934286036472e-07 -0.00050027490220265686 -6.5680675863762936e-08 -4.3491066207275212e-08 -0.00050026891754184979 -8.432923748940718e-08 -2.3211154569696412e-08 -0.00025022987819937138 -4.4954414699652119e-08 -1.0090934286036472e-07 -0.00050027490220265686 -1.7766786100136411e-08 -5.5699011401393126e-08 -0.00050026420279214976 -4.0156390890496813e-08 -5.0910241980780288e-08 -0.00025021568070504406 -8.432923748940718e-08 -2.3211154569696412e-08 -0.00025022987819937138 -4.0156390890496813e-08 -5.0910241980780288e-08 -0.00025021568070504406 -5.0933426497102633e-08 3.029612466649353e-09 -0.0005002661109843109 -8.432923748940718e-08 -2.3211154569696412e-08 -0.00025022987819937138 -1.7766786100136411e-08 -5.5699011401393113e-08 -0.00050026420279214976 -4.4954414699652119e-08 -1.0090934286036472e-07 -0.00050027490220265686 -8.7978833492531619e-08 -6.630408180023063e-08 -0.00050027017810675496 -6.5680675863762923e-08 -4.3491066207275226e-08 -0.0005002689175418499 -8.432923748940718e-08 -2.3211154569696412e-08 -0.00025022987819937138 -1.3342112749173394e-07 -1.951537134523916e-08 -0.00025023055065717973 -4.4954414699652132e-08 -1.0090934286036473e-07 -0.00050027490220265686 -8.432923748940718e-08 -2.3211154569696412e-08 -0.00025022987819937138 -8.7978833492531619e-08 -6.630408180023063e-08 -0.00050027017810675496 -8.7978833492531619e-08 -6.630408180023063e-08 -0.00050027017810675496 -1.0915607961306737e-07 -1.3237494928005209e-08 -0.00050027730816613728 -6.5680675863762923e-08 -4.3491066207275226e-08 -0.0005002689175418499 -8.432923748940718e-08 -2.3211154569696412e-08 -0.00025022987819937138 -1.2758676172438138e-07 4.9911961710774656e-08 -0.00025025006277463037 -1.3342112749173394e-07 -1.951537134523916e-08 -0.00025023055065717973 -8.432923748940718e-08 -2.3211154569696412e-08 -0.00025022987819937138 -8.7978833492531619e-08 -6.630408180023063e-08 -0.00050027017810675496 -1.0915607961306737e-07 -1.3237494928005211e-08 -0.00050027730816613728 -8.7978833492531619e-08 -6.630408180023063e-08 -0.00050027017810675496 -6.5680675863762923e-08 -4.3491066207275226e-08 -0.0005002689175418499 -9.7760355213680804e-08 -5.407357618113817e-08 -0.0007503117912142027 -5.093342649710264e-08 3.0296124666493377e-09 -0.0005002661109843109 -1.7766786100136411e-08 -5.5699011401393113e-08 -0.00050026420279214976 5.2831070948342673e-09 3.3950633257563676e-09 -0.00050026364469961436 -5.0693584049314308e-08 5.2366723201512767e-09 -0.0007503117726677137 -1.7766786100136411e-08 -5.5699011401393113e-08 -0.00050026420279214976 -5.0933426497102633e-08 3.0296124666493468e-09 -0.0005002661109843109 -6.5680675863762923e-08 -4.3491066207275226e-08 -0.0005002689175418499 -5.0693584049314301e-08 5.2366723201512775e-09 -0.00075031177266771381 -5.093342649710264e-08 3.0296124666493377e-09 -0.0005002661109843109 5.2831070948342673e-09 3.3950633257563676e-09 -0.00050026364469961436 -1.9839856945236923e-08 3.6181240236455781e-08 -0.00050026202665777084 -5.0693584049314308e-08 5.2366723201512767e-09 -0.0007503117726677137 -5.093342649710264e-08 3.0296124666493377e-09 -0.0005002661109843109 -1.0915607961306737e-07 -1.3237494928005211e-08 -0.00050027730816613728 -6.5680675863762923e-08 -4.3491066207275226e-08 -0.0005002689175418499 -1.1166738648928846e-07 1.9369761567891739e-09 -0.00075031488169101357 -1.0915607961306737e-07 -1.3237494928005211e-08 -0.00050027730816613728 -5.093342649710264e-08 3.0296124666493377e-09 -0.0005002661109843109 -6.5680675863762923e-08 -4.3491066207275226e-08 -0.0005002689175418499 -8.432923748940718e-08 -2.3211154569696412e-08 -0.00025022987819937138 -5.4680198563945392e-08 1.3875612874256568e-08 -0.00025021651399595836 -1.2758676172438138e-07 4.9911961710774656e-08 -0.00025025006277463037 -8.432923748940718e-08 -2.3211154569696412e-08 -0.00025022987819937138 -1.0915607961306737e-07 -1.3237494928005211e-08 -0.00050027730816613728 -5.4680198563945392e-08 1.3875612874256568e-08 -0.00025021651399595836 -1.0915607961306737e-07 -1.3237494928005206e-08 -0.00050027730816613728 -8.432923748940718e-08 -2.3211154569696412e-08 -0.00025022987819937138 -5.093342649710264e-08 3.0296124666493377e-09 -0.0005002661109843109 -1.2758676172438138e-07 4.9911961710774656e-08 -0.00025025006277463037 -8.7978833492531606e-08 -6.6304081800230657e-08 -0.00050027017810675507 -8.4329237489407193e-08 -2.3211154569696402e-08 -0.00025022987819937138 -1.0915607961306737e-07 -1.3237494928005211e-08 -0.00050027730816613728 -4.0156390890496813e-08 -5.0910241980780288e-08 -0.00025021568070504406 -5.4680198563945385e-08 1.3875612874256573e-08 -0.00025021651399595836 -8.432923748940718e-08 -2.3211154569696412e-08 -0.00025022987819937138 -5.0933426497102633e-08 3.0296124666493315e-09 -0.00050026611098431101 -5.4680198563945392e-08 1.3875612874256568e-08 -0.00025021651399595836 4.6030281991702401e-09 -1.6797924499183079e-10 -0.00025020892051367605 -7.032475383178675e-09 4.0874044482167993e-08 -0.00025019161464201375 -5.093342649710264e-08 3.0296124666493377e-09 -0.0005002661109843109 -5.4680198563945392e-08 1.3875612874256568e-08 -0.00025021651399595836 -4.0156390890496813e-08 -5.0910241980780288e-08 -0.00025021568070504406 4.6030281991702401e-09 -1.6797924499183079e-10 -0.00025020892051367605 -5.093342649710264e-08 3.0296124666493377e-09 -0.0005002661109843109 -2.5385489643388637e-08 6.9256565865689834e-08 -0.00050026405332459327 -1.9839856945236923e-08 3.6181240236455781e-08 -0.00050026202665777084 -5.128760199112978e-08 5.0047131811659253e-08 -0.00050026321427566701 -3.5774950584453718e-08 6.6271465109605009e-08 -0.00025020538314195564 -5.4680198563945392e-08 1.3875612874256568e-08 -0.00025021651399595836 -7.032475383178675e-09 4.0874044482167993e-08 -0.00025019161464201375 -3.5774950584453718e-08 6.6271465109605009e-08 -0.00025020538314195564 -5.093342649710264e-08 3.0296124666493377e-09 -0.0005002661109843109 -7.032475383178675e-09 4.0874044482167993e-08 -0.00025019161464201375 -5.50813141194987e-10 8.0952532464197593e-08 -0.00025020214609667375 -3.5774950584453718e-08 6.6271465109605009e-08 -0.00025020538314195564 -1.9839856945236923e-08 3.6181240236455781e-08 -0.00050026202665777084 -1.9839856945236923e-08 3.6181240236455781e-08 -0.00050026202665777084 -5.093342649710264e-08 3.0296124666493377e-09 -0.0005002661109843109 -5.128760199112978e-08 5.0047131811659253e-08 -0.00050026321427566701 -3.5774950584453718e-08 6.6271465109605009e-08 -0.00025020538314195564 -5.093342649710264e-08 3.0296124666493377e-09 -0.0005002661109843109 -1.9839856945236923e-08 3.6181240236455781e-08 -0.00050026202665777084 -7.032475383178675e-09 4.0874044482167993e-08 -0.00025019161464201375 -3.5774950584453718e-08 6.6271465109605009e-08 -0.00025020538314195564 -5.093342649710264e-08 3.0296124666493377e-09 -0.0005002661109843109 -1.0131685404601305e-07 4.3159948382704157e-08 -0.00050027161067859585 -5.128760199112978e-08 5.0047131811659253e-08 -0.00050026321427566701 -3.5774950584453718e-08 6.6271465109605009e-08 -0.00025020538314195564 -1.0131685404601306e-07 4.3159948382704144e-08 -0.00050027161067859585 -5.093342649710264e-08 3.0296124666493377e-09 -0.0005002661109843109 -5.4680198563945392e-08 1.3875612874256568e-08 -0.00025021651399595836 -3.5774950584453718e-08 6.6271465109605009e-08 -0.00025020538314195564 -8.5140404751895242e-08 1.0635627985924255e-07 -0.00025023723105120941 -1.0915607961306737e-07 -1.3237494928005211e-08 -0.00050027730816613728 -5.4680198563945392e-08 1.3875612874256568e-08 -0.00025021651399595836 -1.0131685404601306e-07 4.3159948382704144e-08 -0.00050027161067859585 -8.5140404751895242e-08 1.0635627985924255e-07 -0.00025023723105120941 -1.2758676172438136e-07 4.9911961710774643e-08 -0.00025025006277463042 -5.4680198563945392e-08 1.3875612874256568e-08 -0.00025021651399595836 -1.0915607961306737e-07 -1.3237494928005211e-08 -0.00050027730816613728 -1.0915607961306737e-07 -1.3237494928005211e-08 -0.00050027730816613728 -1.0131685404601306e-07 4.3159948382704144e-08 -0.00050027161067859585 -5.093342649710264e-08 3.0296124666493377e-09 -0.0005002661109843109 -5.4680198563945392e-08 1.3875612874256568e-08 -0.00025021651399595836 -8.5140404751895242e-08 1.0635627985924255e-07 -0.00025023723105120941 -5.4680198563945392e-08 1.3875612874256568e-08 -0.00025021651399595836 -3.5774950584453718e-08 6.6271465109605009e-08 -0.00025020538314195564 -1.0131685404601306e-07 4.3159948382704144e-08 -0.00050027161067859585 -1.0131685404601306e-07 4.3159948382704144e-08 -0.00050027161067859585 -1.0915607961306737e-07 -1.3237494928005207e-08 -0.00050027730816613739 -5.093342649710264e-08 3.0296124666493377e-09 -0.0005002661109843109 -1.1166738648928846e-07 1.9369761567891739e-09 -0.00075031488169101357 -1.0131685404601306e-07 4.3159948382704144e-08 -0.00050027161067859585 -5.093342649710264e-08 3.0296124666493377e-09 -0.0005002661109843109 -5.128760199112978e-08 5.0047131811659253e-08 -0.00050026321427566701 -9.5736576528445528e-08 5.7463181003307304e-08 -0.0007503136139100587 -1.9839856945236923e-08 3.6181240236455781e-08 -0.00050026202665777084 -2.5385489643388637e-08 6.9256565865689834e-08 -0.00050026405332459327 -5.128760199112978e-08 5.0047131811659253e-08 -0.00050026321427566701 -1.9287126484179193e-08 3.6134909962619599e-08 -0.0007503114665932028 -5.093342649710264e-08 3.0296124666493377e-09 -0.0005002661109843109 -1.9839856945236923e-08 3.6181240236455781e-08 -0.00050026202665777084 -5.128760199112978e-08 5.0047131811659253e-08 -0.00050026321427566701 -5.0693584049314308e-08 5.2366723201512767e-09 -0.0007503117726677137 5.2831070948342673e-09 3.3950633257563676e-09 -0.00050026364469961436 1.2953987596547801e-08 5.6980037394514496e-08 -0.0005002693542499406 -1.9839856945236923e-08 3.6181240236455781e-08 -0.00050026202665777084 4.8999275754203464e-09 1.844882306603149e-09 -0.00075031121014270709 -1.9839856945236923e-08 3.6181240236455781e-08 -0.00050026202665777084 1.295398759654781e-08 5.6980037394514489e-08 -0.00050026935424994071 -2.5385489643388637e-08 6.9256565865689834e-08 -0.00050026405332459327 1.086287847680717e-08 5.7021338354839936e-08 -0.00075031437062988916 5.2831070948342673e-09 3.3950633257563676e-09 -0.00050026364469961436 5.4737276620350768e-08 -1.567394575083174e-08 -0.00050026543357595602 5.7241954075079322e-08 3.4700908538746761e-08 -0.0005002791968369086 5.3656130294179442e-08 -1.9715294870409673e-08 -0.00075031257800918299 5.4737276620350768e-08 -1.567394575083174e-08 -0.00050026543357595602 5.2831070948342673e-09 3.3950633257563676e-09 -0.00050026364469961436 2.1892763875788703e-08 -3.3945911302579041e-08 -0.00050025966758235709 5.3656130294179449e-08 -1.9715294870409673e-08 -0.0007503125780091831 1.295398759654781e-08 5.6980037394514489e-08 -0.00050026935424994071 5.2831070948342673e-09 3.3950633257563676e-09 -0.00050026364469961436 5.7241954075079322e-08 3.4700908538746761e-08 -0.0005002791968369086 4.8999275754203464e-09 1.844882306603149e-09 -0.00075031121014270709 3.709647702412152e-08 5.4392695799604047e-08 -0.00025021921270176097 5.2831070948342673e-09 3.3950633257563676e-09 -0.00050026364469961436 6.984462906885358e-08 1.9621710101840388e-08 -0.00025025284037351022 1.295398759654781e-08 5.6980037394514489e-08 -0.00050026935424994071 1.295398759654781e-08 5.6980037394514489e-08 -0.00050026935424994071 4.4874074245964907e-08 1.0090077807076424e-07 -0.00050028898436075197 5.7241954075079322e-08 3.4700908538746761e-08 -0.0005002791968369086 6.984462906885358e-08 1.9621710101840388e-08 -0.00025025284037351022 5.2831070948342673e-09 3.3950633257563676e-09 -0.00050026364469961436 1.295398759654781e-08 5.6980037394514489e-08 -0.00050026935424994071 5.7241954075079316e-08 3.4700908538746761e-08 -0.00050027919683690849 6.984462906885358e-08 1.9621710101840388e-08 -0.00025025284037351022 3.709647702412152e-08 5.4392695799604047e-08 -0.00025021921270176097 4.6030281991702401e-09 -1.6797924499183079e-10 -0.00025020892051367605 6.984462906885358e-08 1.9621710101840388e-08 -0.00025025284037351022 5.2831070948342673e-09 3.3950633257563676e-09 -0.00050026364469961436 5.3188321496802703e-08 -2.6640508618090664e-08 -0.00025020709295624167 4.6030281991702401e-09 -1.6797924499183079e-10 -0.00025020892051367605 1.2400984955444426e-08 -4.2726300597242062e-08 -0.00025019185750277227 5.4737276620350768e-08 -1.567394575083174e-08 -0.00050026543357595602 5.4737276620350768e-08 -1.567394575083174e-08 -0.00050026543357595602 5.2831070948342673e-09 3.3950633257563676e-09 -0.00050026364469961436 4.6030281991702136e-09 -1.6797924499186581e-10 -0.00025020892051367611 1.2400984955444426e-08 -4.2726300597242062e-08 -0.00025019185750277227 5.4737276620350768e-08 -1.567394575083174e-08 -0.00050026543357595602 5.2831070948342673e-09 3.3950633257563676e-09 -0.00050026364469961436 5.7241954075079322e-08 3.4700908538746761e-08 -0.0005002791968369086 6.984462906885358e-08 1.9621710101840388e-08 -0.00025025284037351022 4.6030281991702401e-09 -1.6797924499183079e-10 -0.00025020892051367605 5.3188321496802703e-08 -2.6640508618090664e-08 -0.00025020709295624167 6.984462906885358e-08 1.9621710101840388e-08 -0.00025025284037351022 5.4737276620350762e-08 -1.567394575083174e-08 -0.00050026543357595602 4.6030281991702401e-09 -1.6797924499183079e-10 -0.00025020892051367605 5.4737276620350755e-08 -1.5673945750831717e-08 -0.00050026543357595591 6.984462906885358e-08 1.9621710101840388e-08 -0.00025025284037351022 5.2831070948342673e-09 3.3950633257563676e-09 -0.00050026364469961436 5.2831070948342673e-09 3.3950633257563676e-09 -0.00050026364469961436 5.4737276620350768e-08 -1.567394575083174e-08 -0.00050026543357595602 2.1892763875788703e-08 -3.3945911302579041e-08 -0.00050025966758235709 1.2400984955444426e-08 -4.2726300597242062e-08 -0.00025019185750277227 -5.093342649710264e-08 3.0296124666493377e-09 -0.0005002661109843109 5.2831070948342673e-09 3.3950633257563676e-09 -0.00050026364469961436 4.6030281991702276e-09 -1.6797924499186529e-10 -0.00025020892051367605 -7.032475383178675e-09 4.0874044482167993e-08 -0.00025019161464201375 -5.093342649710264e-08 3.0296124666493377e-09 -0.0005002661109843109 -1.7766786100136411e-08 -5.5699011401393113e-08 -0.00050026420279214976 -4.0156390890496872e-08 -5.0910241980780308e-08 -0.00025021568070504396 4.6030281991702649e-09 -1.6797924499182355e-10 -0.00025020892051367605 4.6030281991702401e-09 -1.6797924499183079e-10 -0.00025020892051367605 -1.7766786100136411e-08 -5.56990114013931e-08 -0.00050026420279214966 1.2400984955444426e-08 -4.2726300597242062e-08 -0.00025019185750277227 5.2831070948342673e-09 3.3950633257563676e-09 -0.00050026364469961436 -1.7766786100136411e-08 -5.5699011401393113e-08 -0.00050026420279214976 -5.093342649710264e-08 3.0296124666493377e-09 -0.0005002661109843109 5.2831070948342673e-09 3.3950633257563676e-09 -0.00050026364469961436 4.6030281991702401e-09 -1.6797924499183079e-10 -0.00025020892051367605 5.2831070948342673e-09 3.3950633257563676e-09 -0.00050026364469961436 -5.093342649710264e-08 3.0296124666493377e-09 -0.0005002661109843109 -1.9839856945236923e-08 3.6181240236455781e-08 -0.00050026202665777084 -7.032475383178675e-09 4.0874044482167993e-08 -0.00025019161464201375 1.295398759654781e-08 5.6980037394514489e-08 -0.00050026935424994071 5.2831070948342673e-09 3.3950633257563676e-09 -0.00050026364469961436 -1.9839856945236923e-08 3.6181240236455781e-08 -0.00050026202665777084 -7.032475383178675e-09 4.0874044482167993e-08 -0.00025019161464201375 4.6030281991702401e-09 -1.6797924499183079e-10 -0.00025020892051367605 3.7096477024121513e-08 5.4392695799604054e-08 -0.00025021921270176092 -7.032475383178675e-09 4.0874044482167993e-08 -0.00025019161464201375 5.2831070948342673e-09 3.3950633257563676e-09 -0.00050026364469961436 5.2831070948342673e-09 3.3950633257563676e-09 -0.00050026364469961436 1.2953987596547799e-08 5.6980037394514502e-08 -0.00050026935424994071 3.7096477024121566e-08 5.439269579960404e-08 -0.00025021921270176103 -7.0324753831787263e-09 4.0874044482168006e-08 -0.0002501916146420138 -7.032475383178675e-09 4.0874044482167993e-08 -0.00025019161464201375 1.295398759654781e-08 5.6980037394514489e-08 -0.00050026935424994071 -5.5081314119499445e-10 8.0952532464197593e-08 -0.00025020214609667375 -1.9839856945236923e-08 3.6181240236455781e-08 -0.00050026202665777084 -7.032475383178675e-09 4.0874044482167993e-08 -0.00025019161464201375 3.709647702412152e-08 5.4392695799604047e-08 -0.00025021921270176097 -5.5081314119499289e-10 8.0952532464197593e-08 -0.00025020214609667375 1.295398759654781e-08 5.6980037394514489e-08 -0.00050026935424994071 4.6030281991702401e-09 -1.6797924499183079e-10 -0.00025020892051367605 -5.4680198563945392e-08 1.3875612874256568e-08 -0.00025021651399595836 -7.032475383178675e-09 4.0874044482167993e-08 -0.00025019161464201375 -6.193636905521754e-09 8.8910002254462495e-09 -6.9361770877441121e-08 3.709647702412152e-08 5.4392695799604047e-08 -0.00025021921270176097 4.6030281991702401e-09 -1.6797924499183079e-10 -0.00025020892051367605 -7.032475383178675e-09 4.0874044482167993e-08 -0.00025019161464201375 -6.193636905521754e-09 8.8910002254462495e-09 -6.9361770877441121e-08 -4.0156390890496813e-08 -5.0910241980780288e-08 -0.00025021568070504406 -5.4680198563945392e-08 1.3875612874256568e-08 -0.00025021651399595836 4.6030281991702401e-09 -1.6797924499183079e-10 -0.00025020892051367605 3.7894295517184004e-09 2.5028510543423299e-09 -1.8649050520730176e-07 5.3188321496802703e-08 -2.6640508618090664e-08 -0.00025020709295624167 4.6030281991702401e-09 -1.6797924499183079e-10 -0.00025020892051367605 6.984462906885358e-08 1.9621710101840388e-08 -0.00025025284037351022 -1.9808449050674095e-08 -1.3052033244218826e-08 -2.538492834477521e-07 4.6030281991702401e-09 -1.6797924499183079e-10 -0.00025020892051367605 5.3188321496802703e-08 -2.6640508618090664e-08 -0.00025020709295624167 1.2400984955444426e-08 -4.2726300597242062e-08 -0.00025019185750277227 5.7098635078825985e-09 -9.1888967665512833e-09 -7.257154819726607e-08 3.709647702412152e-08 5.4392695799604047e-08 -0.00025021921270176097 1.0162522161110811e-07 8.6133467378768472e-08 -0.00025026901688398505 6.984462906885358e-08 1.9621710101840388e-08 -0.00025025284037351022 -1.9808449050674095e-08 -1.3052033244218826e-08 -2.538492834477521e-07 4.6030281991702401e-09 -1.6797924499183079e-10 -0.00025020892051367605 3.709647702412152e-08 5.4392695799604047e-08 -0.00025021921270176097 6.9844629068853567e-08 1.9621710101840388e-08 -0.00025025284037351016 -1.9808449050674095e-08 -1.3052033244218826e-08 -2.538492834477521e-07 -6.1788572437327627e-10 -1.3446316741429303e-08 -1.8495017062069741e-07 4.6030281991702401e-09 -1.6797924499183079e-10 -0.00025020892051367605 -1.9808449050674095e-08 -1.3052033244218826e-08 -2.538492834477521e-07 3.709647702412152e-08 5.4392695799604047e-08 -0.00025021921270176097 -6.1788572437327627e-10 -1.3446316741429303e-08 -1.8495017062069741e-07 3.7894295517184004e-09 2.5028510543423299e-09 -1.8649050520730176e-07 -1.9808449050674095e-08 -1.3052033244218826e-08 -2.538492834477521e-07 4.6030281991702401e-09 -1.6797924499183079e-10 -0.00025020892051367605 3.7894295517184004e-09 2.5028510543423299e-09 -1.8649050520730176e-07 -1.2599883497670813e-08 4.777682349909367e-09 -1.7697880445637017e-07 -1.9808449050674095e-08 -1.3052033244218826e-08 -2.538492834477521e-07 5.318832149680269e-08 -2.6640508618090657e-08 -0.00025020709295624162 5.3188321496802703e-08 -2.6640508618090664e-08 -0.00025020709295624167 4.6030281991702401e-09 -1.6797924499183079e-10 -0.00025020892051367605 3.7894295517183681e-09 2.5028510543423349e-09 -1.8649050520735412e-07 5.7098635078825985e-09 -9.1888967665512833e-09 -7.257154819726607e-08 3.7894295517184004e-09 2.5028510543423299e-09 -1.8649050520730176e-07 5.3188321496802657e-08 -2.6640508618090647e-08 -0.00025020709295624162 -1.9808449050674095e-08 -1.3052033244218826e-08 -2.538492834477521e-07 4.6030281991702401e-09 -1.6797924499183079e-10 -0.00025020892051367605 -1.2599883497670813e-08 4.777682349909367e-09 -1.7697880445637017e-07 3.7894295517184004e-09 2.5028510543423299e-09 -1.8649050520730176e-07 5.7098635078825985e-09 -9.1888967665512833e-09 -7.257154819726607e-08 5.3188321496802703e-08 -2.6640508618090664e-08 -0.00025020709295624167 -5.4680198563945392e-08 1.3875612874256568e-08 -0.00025021651399595836 -4.0156390890496813e-08 -5.0910241980780288e-08 -0.00025021568070504406 -2.6314966512467175e-09 1.1331073151306509e-08 -2.1468367014540746e-07 3.7894295517184062e-09 2.5028510543423126e-09 -1.8649050520730054e-07 -5.4680198563945392e-08 1.3875612874256568e-08 -0.00025021651399595836 4.6030281991702401e-09 -1.6797924499183079e-10 -0.00025020892051367605 3.7894295517183855e-09 2.5028510543423299e-09 -1.8649050520729109e-07 -6.193636905521754e-09 8.8910002254462495e-09 -6.9361770877441121e-08 3.7894295517184004e-09 2.5028510543423299e-09 -1.8649050520730176e-07 -4.0156390890496813e-08 -5.0910241980780288e-08 -0.00025021568070504401 5.7098635078825985e-09 -9.1888967665512833e-09 -7.257154819726607e-08 4.6030281991702401e-09 -1.6797924499183079e-10 -0.00025020892051367605 4.6030281991702401e-09 -1.6797924499183079e-10 -0.00025020892051367605 3.7096477024121526e-08 5.4392695799604067e-08 -0.00025021921270176097 -6.1788572437328289e-10 -1.3446316741429351e-08 -1.8495017062072335e-07 -6.1936369055217341e-09 8.891000225446319e-09 -6.9361770877517182e-08 -6.193636905521754e-09 8.8910002254462495e-09 -6.9361770877441121e-08 -6.1788572437327627e-10 -1.3446316741429303e-08 -1.8495017062069741e-07 5.429332385957826e-09 -1.6139099745967277e-08 -8.846981218896596e-08 3.709647702412152e-08 5.4392695799604047e-08 -0.00025021921270176097 -6.193636905521754e-09 8.8910002254462495e-09 -6.9361770877441121e-08 3.709647702412152e-08 5.4392695799604047e-08 -0.00025021921270176097 5.4293323859578235e-09 -1.6139099745967277e-08 -8.8469812188968912e-08 -7.032475383178675e-09 4.0874044482167993e-08 -0.00025019161464201375 3.7894295517184004e-09 2.5028510543423299e-09 -1.8649050520730176e-07 -6.1788572437327876e-10 -1.3446316741429298e-08 -1.8495017062069739e-07 -6.193636905521754e-09 8.8910002254462495e-09 -6.9361770877441121e-08 4.6030281991702401e-09 -1.6797924499183079e-10 -0.00025020892051367605 -5.4680198563945392e-08 1.3875612874256568e-08 -0.00025021651399595836 -7.032475383178675e-09 4.0874044482167993e-08 -0.00025019161464201375 -6.193636905521754e-09 8.8910002254462495e-09 -6.9361770877441121e-08 1.3273314037590172e-08 -1.1031806476387852e-08 -1.0743402997107192e-07 9.3678737939297957e-09 -6.9485850060882139e-09 -2.3280772279508304e-07 -6.193636905521754e-09 8.8910002254462495e-09 -6.9361770877441121e-08 1.3273314037590172e-08 -1.1031806476387852e-08 -1.0743402997107192e-07 -5.4680198563945392e-08 1.3875612874256568e-08 -0.00025021651399595836 -8.5140404751895242e-08 1.0635627985924255e-07 -0.00025023723105120941 -5.4680198563945392e-08 1.3875612874256568e-08 -0.00025021651399595836 9.3678737939297957e-09 -6.9485850060882139e-09 -2.3280772279508304e-07 1.3273314037590172e-08 -1.1031806476387852e-08 -1.0743402997107192e-07 -6.193636905521754e-09 8.8910002254462495e-09 -6.9361770877441121e-08 5.429332385957826e-09 -1.6139099745967277e-08 -8.846981218896596e-08 1.3273314037590172e-08 -1.1031806476387852e-08 -1.0743402997107192e-07 -7.032475383178675e-09 4.0874044482167993e-08 -0.00025019161464201375 -7.032475383178675e-09 4.0874044482167993e-08 -0.00025019161464201375 -5.4680198563945392e-08 1.3875612874256568e-08 -0.00025021651399595836 -3.5774950584453718e-08 6.6271465109605009e-08 -0.00025020538314195564 1.3273314037590172e-08 -1.1031806476387852e-08 -1.0743402997107192e-07 -5.4680198563945392e-08 1.3875612874256568e-08 -0.00025021651399595836 -8.5140404751895229e-08 1.0635627985924255e-07 -0.00025023723105120941 -3.5774950584453718e-08 6.6271465109605009e-08 -0.00025020538314195564 1.3273314037590172e-08 -1.1031806476387852e-08 -1.0743402997107192e-07 -5.5081314119499289e-10 8.0952532464197593e-08 -0.00025020214609667375 -7.032475383178675e-09 4.0874044482167993e-08 -0.00025019161464201375 -3.5774950584453718e-08 6.6271465109605009e-08 -0.00025020538314195564 1.3273314037590172e-08 -1.1031806476387852e-08 -1.0743402997107192e-07 -2.6314966512467171e-09 1.1331073151306456e-08 -2.1468367014548157e-07 9.3678737939297891e-09 -6.9485850060882197e-09 -2.3280772279508307e-07 2.4513035452592372e-08 1.6151187005631572e-08 -1.8749937962888967e-07 -5.4680198563945425e-08 1.3875612874256578e-08 -0.00025021651399595847 9.3678737939297957e-09 -6.9485850060882139e-09 -2.3280772279508304e-07 3.7894295517184004e-09 2.5028510543423299e-09 -1.8649050520730176e-07 -6.193636905521754e-09 8.8910002254462495e-09 -6.9361770877441121e-08 -5.4680198563945392e-08 1.3875612874256568e-08 -0.00025021651399595836 9.3678737939297957e-09 -6.9485850060882139e-09 -2.3280772279508304e-07 -2.6314966512467171e-09 1.1331073151306456e-08 -2.1468367014548157e-07 3.7894295517184004e-09 2.5028510543423299e-09 -1.8649050520730176e-07 -5.4680198563945392e-08 1.3875612874256568e-08 -0.00025021651399595836 -5.2291163686790901e-08 -4.3710153444065408e-09 -2.4535999141836126e-07 -1.3342112749173386e-07 -1.9515371345239044e-08 -0.00025023055065717979 2.4513035452592356e-08 1.6151187005631548e-08 -1.87499379628879e-07 -1.2758676172438138e-07 4.9911961710774656e-08 -0.00025025006277463037 9.3678737939297957e-09 -6.9485850060882139e-09 -2.3280772279508304e-07 -1.2758676172438138e-07 4.9911961710774656e-08 -0.00025025006277463037 2.4513035452592372e-08 1.6151187005631572e-08 -1.8749937962888147e-07 -5.4680198563945392e-08 1.3875612874256568e-08 -0.00025021651399595836 9.3678737939297957e-09 -6.9485850060882139e-09 -2.3280772279508304e-07 -5.2291163686790901e-08 -4.3710153444065408e-09 -2.4535999141836126e-07 2.4513035452592372e-08 1.6151187005631572e-08 -1.8749937962888967e-07 -1.2758676172438138e-07 4.9911961710774656e-08 -0.00025025006277463037 -1.2758676172438138e-07 4.9911961710774656e-08 -0.00025025006277463037 -5.4680198563945392e-08 1.3875612874256568e-08 -0.00025021651399595836 -8.432923748940718e-08 -2.3211154569696412e-08 -0.00025022987819937138 2.4513035452592372e-08 1.6151187005631572e-08 -1.8749937962888967e-07 -1.2758676172438138e-07 4.9911961710774656e-08 -0.00025025006277463037 -8.5140404751895242e-08 1.0635627985924255e-07 -0.00025023723105120941 -5.4680198563945392e-08 1.3875612874256568e-08 -0.00025021651399595836 9.3678737939297957e-09 -6.9485850060882139e-09 -2.3280772279508304e-07 -4.6479830861559293e-08 2.5654279567378355e-08 -2.4541159524263723e-07 -5.2291163686790901e-08 -4.3710153444065359e-09 -2.4535999141838593e-07 9.3678737939297957e-09 -6.9485850060882139e-09 -2.3280772279508304e-07 -1.2758676172438138e-07 4.9911961710774656e-08 -0.00025025006277463037 -4.6479830861559293e-08 2.5654279567378355e-08 -2.4541159524263723e-07 -1.2758676172438138e-07 4.9911961710774656e-08 -0.00025025006277463037 9.3678737939297957e-09 -6.9485850060882139e-09 -2.3280772279508304e-07 -8.5140404751895242e-08 1.0635627985924255e-07 -0.00025023723105120941 -4.6479830861559293e-08 2.5654279567378355e-08 -2.4541159524263723e-07 9.3678737939297957e-09 -6.9485850060882139e-09 -2.3280772279508304e-07 1.3273314037590172e-08 -1.1031806476387852e-08 -1.0743402997107192e-07 -8.5140404751895242e-08 1.0635627985924255e-07 -0.00025023723105120941 -2.9777000530525351e-08 4.4550391764469411e-08 -1.4612566325842961e-07 -4.6479830861559293e-08 2.5654279567378355e-08 -2.4541159524263723e-07 1.3273314037590172e-08 -1.1031806476387852e-08 -1.0743402997107192e-07 -8.5140404751895242e-08 1.0635627985924255e-07 -0.00025023723105120941 -7.032475383178675e-09 4.0874044482167993e-08 -0.00025019161464201375 -5.5081314119499414e-10 8.0952532464197593e-08 -0.00025020214609667375 5.429332385957826e-09 -1.6139099745967277e-08 -8.846981218896596e-08 1.3273314037590172e-08 -1.1031806476387852e-08 -1.0743402997107192e-07 -2.9777000530525351e-08 4.4550391764469411e-08 -1.4612566325842961e-07 -8.5140404751895202e-08 1.0635627985924255e-07 -0.00025023723105120947 1.3273314037590172e-08 -1.1031806476387852e-08 -1.0743402997107192e-07 -1.950159174272124e-08 1.353824933471045e-07 -0.00025021392320967488 5.429332385957826e-09 -1.6139099745967277e-08 -8.846981218896596e-08 -2.9777000530525351e-08 4.4550391764469411e-08 -1.4612566325842961e-07 1.3273314037590172e-08 -1.1031806476387852e-08 -1.0743402997107192e-07 -1.950159174272124e-08 1.353824933471045e-07 -0.00025021392320967488 5.429332385957826e-09 -1.6139099745967277e-08 -8.846981218896596e-08 -1.950159174272124e-08 1.353824933471045e-07 -0.00025021392320967488 1.3273314037590172e-08 -1.1031806476387852e-08 -1.0743402997107192e-07 -5.5081314119499289e-10 8.0952532464197593e-08 -0.00025020214609667375 -3.9991963878646885e-09 5.3146321194061043e-08 -2.0220333974958624e-07 -2.9777000530525351e-08 4.4550391764469411e-08 -1.4612566325842961e-07 5.429332385957826e-09 -1.6139099745967277e-08 -8.846981218896596e-08 -1.950159174272124e-08 1.353824933471045e-07 -0.00025021392320967488 -1.950159174272124e-08 1.353824933471045e-07 -0.00025021392320967488 -5.5081314119499289e-10 8.0952532464197593e-08 -0.00025020214609667375 -3.5774950584453718e-08 6.6271465109605009e-08 -0.00025020538314195564 1.3273314037590172e-08 -1.1031806476387852e-08 -1.0743402997107192e-07 -8.5140404751895242e-08 1.0635627985924255e-07 -0.00025023723105120941 -1.950159174272124e-08 1.353824933471045e-07 -0.00025021392320967488 -3.5774950584453718e-08 6.6271465109605009e-08 -0.00025020538314195564 1.3273314037590172e-08 -1.1031806476387852e-08 -1.0743402997107192e-07 -1.950159174272124e-08 1.353824933471045e-07 -0.00025021392320967488 -8.5140404751895242e-08 1.0635627985924255e-07 -0.00025023723105120941 -3.5774950584453718e-08 6.6271465109605009e-08 -0.00025020538314195564 -1.0131685404601306e-07 4.3159948382704144e-08 -0.00050027161067859585 5.2022672499197031e-08 1.2722328293235825e-07 -0.00025023521259695444 -1.950159174272124e-08 1.353824933471045e-07 -0.00025021392320967488 -5.5081314119499289e-10 8.0952532464197593e-08 -0.00025020214609667375 -6.6332645903829774e-08 8.7942167427814985e-08 -0.00050026448487120812 -1.9839856945236923e-08 3.6181240236455781e-08 -0.00050026202665777084 -2.538548964338863e-08 6.9256565865689834e-08 -0.00050026405332459327 -5.5081314119499289e-10 8.0952532464197593e-08 -0.00025020214609667375 -3.5774950584453718e-08 6.6271465109605009e-08 -0.00025020538314195564 -1.950159174272124e-08 1.353824933471045e-07 -0.00025021392320967488 -1.0131685404601306e-07 4.3159948382704131e-08 -0.00050027161067859596 -3.5774950584453718e-08 6.6271465109605009e-08 -0.00025020538314195564 -6.6332645903829774e-08 8.7942167427814985e-08 -0.00050026448487120812 -1.0131685404601306e-07 4.3159948382704144e-08 -0.00050027161067859585 -6.6332645903829774e-08 8.7942167427814985e-08 -0.00050026448487120812 -5.128760199112978e-08 5.0047131811659253e-08 -0.00050026321427566701 -3.5774950584453718e-08 6.6271465109605009e-08 -0.00025020538314195564 -6.6332645903829774e-08 8.7942167427814985e-08 -0.00050026448487120812 -2.5385489643388637e-08 6.9256565865689834e-08 -0.00050026405332459327 -5.128760199112978e-08 5.0047131811659253e-08 -0.00050026321427566701 -3.5774950584453718e-08 6.6271465109605009e-08 -0.00025020538314195564 -5.5081314119499289e-10 8.0952532464197593e-08 -0.00025020214609667375 -1.950159174272124e-08 1.353824933471045e-07 -0.00025021392320967488 -3.5774950584453718e-08 6.6271465109605009e-08 -0.00025020538314195564 -6.6332645903829774e-08 8.7942167427814985e-08 -0.00050026448487120812 -5.5081314119499289e-10 8.0952532464197593e-08 -0.00025020214609667375 -6.6332645903829774e-08 8.7942167427814985e-08 -0.00050026448487120812 -3.5774950584453718e-08 6.6271465109605009e-08 -0.00025020538314195564 -2.5385489643388637e-08 6.9256565865689834e-08 -0.00050026405332459327 -1.3461098486970809e-08 1.0926965039374492e-07 -0.00050027381745662927 -6.6332645903829774e-08 8.7942167427814985e-08 -0.00050026448487120812 -2.5385489643388637e-08 6.9256565865689834e-08 -0.00050026405332459327 -5.4060112133909224e-08 9.7711289080633391e-08 -0.00075031145926146711 -2.5385489643388637e-08 6.9256565865689834e-08 -0.00050026405332459327 -6.6332645903829774e-08 8.7942167427814985e-08 -0.00050026448487120812 -5.128760199112978e-08 5.0047131811659253e-08 -0.00050026321427566701 -5.4060112133909224e-08 9.7711289080633391e-08 -0.00075031145926146711 -6.6332645903829774e-08 8.7942167427814985e-08 -0.00050026448487120812 -1.0131685404601306e-07 4.3159948382704144e-08 -0.00050027161067859585 -5.128760199112978e-08 5.0047131811659253e-08 -0.00050026321427566701 -9.5736576528445528e-08 5.7463181003307304e-08 -0.0007503136139100587 5.2022672499197031e-08 1.2722328293235825e-07 -0.00025023521259695444 -6.6332645903829787e-08 8.7942167427814959e-08 -0.00050026448487120801 -5.5081314119499289e-10 8.0952532464197593e-08 -0.00025020214609667375 -1.3461098486970809e-08 1.0926965039374492e-07 -0.00050027381745662927 4.4874074245964907e-08 1.0090077807076424e-07 -0.00050028898436075197 -1.3461098486970809e-08 1.0926965039374492e-07 -0.00050027381745662927 1.295398759654781e-08 5.6980037394514489e-08 -0.00050026935424994071 1.9984972716767109e-09 1.1164709801072257e-07 -0.00075031510848232402 4.4874074245964907e-08 1.0090077807076424e-07 -0.00050028898436075197 1.2953987596547815e-08 5.6980037394514482e-08 -0.00050026935424994071 5.7241954075079322e-08 3.4700908538746761e-08 -0.0005002791968369086 5.7202649985615144e-08 9.5787935011161472e-08 -0.00075032104893710781 1.295398759654781e-08 5.6980037394514489e-08 -0.00050026935424994071 -1.3461098486970809e-08 1.0926965039374492e-07 -0.00050027381745662927 -2.5385489643388637e-08 6.9256565865689834e-08 -0.00050026405332459327 1.9984972716767151e-09 1.1164709801072257e-07 -0.00075031510848232413 1.295398759654781e-08 5.6980037394514489e-08 -0.00050026935424994071 -1.9839856945236926e-08 3.6181240236455781e-08 -0.00050026202665777084 -2.5385489643388637e-08 6.9256565865689834e-08 -0.00050026405332459327 -5.5081314119499289e-10 8.0952532464197593e-08 -0.00025020214609667375 3.709647702412152e-08 5.4392695799604047e-08 -0.00025021921270176097 -1.3461098486970819e-08 1.0926965039374492e-07 -0.00050027381745662927 -5.5081314119499289e-10 8.0952532464197593e-08 -0.00025020214609667375 1.295398759654781e-08 5.6980037394514489e-08 -0.00050026935424994071 3.709647702412152e-08 5.4392695799604047e-08 -0.00025021921270176097 5.2022672499197031e-08 1.2722328293235825e-07 -0.00025023521259695444 -5.5081314119499289e-10 8.0952532464197593e-08 -0.00025020214609667375 -1.3461098486970809e-08 1.0926965039374492e-07 -0.00050027381745662927 -6.6332645903829774e-08 8.7942167427814985e-08 -0.00050026448487120812 -1.3461098486970806e-08 1.0926965039374493e-07 -0.00050027381745662927 -2.5385489643388637e-08 6.9256565865689834e-08 -0.00050026405332459327 -5.5081314119499289e-10 8.0952532464197593e-08 -0.00025020214609667375 -1.3461098486970809e-08 1.0926965039374492e-07 -0.00050027381745662927 1.295398759654781e-08 5.6980037394514489e-08 -0.00050026935424994071 -2.5385489643388637e-08 6.9256565865689834e-08 -0.00050026405332459327 -5.5081314119499289e-10 8.0952532464197593e-08 -0.00025020214609667375 1.0162522161110811e-07 8.6133467378768472e-08 -0.00025026901688398505 3.709647702412152e-08 5.439269579960404e-08 -0.00025021921270176097 6.984462906885358e-08 1.9621710101840388e-08 -0.00025025284037351022 4.4874074245964907e-08 1.0090077807076424e-07 -0.00050028898436075197 -1.3461098486970809e-08 1.0926965039374492e-07 -0.00050027381745662927 4.4874074245964907e-08 1.0090077807076424e-07 -0.00050028898436075197 1.295398759654781e-08 5.6980037394514489e-08 -0.00050026935424994071 3.709647702412152e-08 5.4392695799604047e-08 -0.00025021921270176097 1.0162522161110811e-07 8.6133467378768472e-08 -0.00025026901688398505 5.2022672499197031e-08 1.2722328293235825e-07 -0.00025023521259695444 3.709647702412152e-08 5.4392695799604047e-08 -0.00025021921270176097 -1.3461098486970792e-08 1.0926965039374493e-07 -0.00050027381745662927 1.0162522161110811e-07 8.6133467378768472e-08 -0.00025026901688398505 -1.3461098486970796e-08 1.0926965039374492e-07 -0.00050027381745662916 3.709647702412152e-08 5.4392695799604047e-08 -0.00025021921270176097 4.4874074245964907e-08 1.0090077807076424e-07 -0.00050028898436075197 4.4874074245964907e-08 1.0090077807076424e-07 -0.00050028898436075197 1.2953987596547812e-08 5.6980037394514489e-08 -0.0005002693542499406 3.7096477024121513e-08 5.439269579960408e-08 -0.00025021921270176087 6.984462906885358e-08 1.9621710101840388e-08 -0.00025025284037351022 5.2022672499197031e-08 1.2722328293235825e-07 -0.00025023521259695444 1.0162522161110811e-07 8.6133467378768472e-08 -0.00025026901688398505 3.709647702412152e-08 5.4392695799604047e-08 -0.00025021921270176097 -6.1788572437327627e-10 -1.3446316741429303e-08 -1.8495017062069741e-07 -1.950159174272124e-08 1.353824933471045e-07 -0.00025021392320967488 5.2022672499197044e-08 1.2722328293235825e-07 -0.00025023521259695444 -5.5081314119499289e-10 8.0952532464197593e-08 -0.00025020214609667375 5.429332385957826e-09 -1.6139099745967277e-08 -8.846981218896596e-08 3.709647702412152e-08 5.4392695799604047e-08 -0.00025021921270176097 -7.0324753831786791e-09 4.0874044482167993e-08 -0.00025019161464201375 -5.5081314119499289e-10 8.0952532464197593e-08 -0.00025020214609667375 5.429332385957826e-09 -1.6139099745967277e-08 -8.846981218896596e-08 5.2022672499197031e-08 1.2722328293235825e-07 -0.00025023521259695444 3.709647702412152e-08 5.4392695799604047e-08 -0.00025021921270176097 -5.5081314119499289e-10 8.0952532464197593e-08 -0.00025020214609667375 5.429332385957826e-09 -1.6139099745967277e-08 -8.846981218896596e-08 -6.1788572437327627e-10 -1.3446316741429303e-08 -1.8495017062069741e-07 5.2022672499197031e-08 1.2722328293235825e-07 -0.00025023521259695444 5.429332385957826e-09 -1.6139099745967277e-08 -8.846981218896596e-08 3.709647702412152e-08 5.4392695799604047e-08 -0.00025021921270176097 -6.1788572437327627e-10 -1.3446316741429303e-08 -1.8495017062069741e-07 -3.9991963878646885e-09 5.3146321194061043e-08 -2.0220333974958624e-07 5.429332385957826e-09 -1.6139099745967277e-08 -8.846981218896596e-08 5.2022672499197031e-08 1.2722328293235825e-07 -0.00025023521259695444 -3.9991963878646885e-09 5.3146321194061043e-08 -2.0220333974958624e-07 -1.9501591742721184e-08 1.353824933471045e-07 -0.00025021392320967488 5.429332385957826e-09 -1.6139099745967277e-08 -8.846981218896596e-08 5.2022672499197031e-08 1.2722328293235825e-07 -0.00025023521259695444 2.4285179691294154e-08 4.6337375738602629e-08 -2.7341333984988792e-07 5.2022672499197025e-08 1.2722328293235822e-07 -0.00025023521259695438 -6.1788572437327627e-10 -1.3446316741429303e-08 -1.8495017062069741e-07 1.0162522161110811e-07 8.6133467378768472e-08 -0.00025026901688398505 1.0162522161110811e-07 8.6133467378768472e-08 -0.00025026901688398505 3.7096477024121513e-08 5.439269579960404e-08 -0.00025021921270176092 -6.1788572437325952e-10 -1.3446316741429321e-08 -1.8495017062059524e-07 -1.9808449050674095e-08 -1.3052033244218826e-08 -2.538492834477521e-07 2.4285179691294154e-08 4.6337375738602629e-08 -2.7341333984988792e-07 -6.1788572437328155e-10 -1.3446316741429306e-08 -1.8495017062069741e-07 -1.9808449050674095e-08 -1.3052033244218826e-08 -2.538492834477521e-07 1.0162522161110811e-07 8.6133467378768472e-08 -0.00025026901688398505 2.4285179691294154e-08 4.6337375738602629e-08 -2.7341333984988792e-07 -3.9991963878646885e-09 5.3146321194061043e-08 -2.0220333974958624e-07 -6.1788572437327627e-10 -1.3446316741429303e-08 -1.8495017062069741e-07 5.2022672499197018e-08 1.2722328293235825e-07 -0.00025023521259695438 5.3710543881977801e-08 3.4988974990033233e-08 -1.8640964119178328e-07 1.0162522161110811e-07 8.6133467378768472e-08 -0.00025026901688398505 -1.9808449050674095e-08 -1.3052033244218826e-08 -2.538492834477521e-07 1.3376079413517894e-07 1.9290610688006854e-08 -0.00025025890794052366 5.3710543881977801e-08 3.4988974990033233e-08 -1.8640964119178328e-07 2.4285179691294154e-08 4.6337375738602629e-08 -2.7341333984988792e-07 -1.9808449050674095e-08 -1.3052033244218826e-08 -2.538492834477521e-07 1.0162522161110811e-07 8.6133467378768472e-08 -0.00025026901688398505 1.3376079413517894e-07 1.9290610688006854e-08 -0.00025025890794052366 4.4874074245964907e-08 1.0090077807076424e-07 -0.00050028898436075197 6.984462906885358e-08 1.9621710101840388e-08 -0.00025025284037351022 8.7875855622569801e-08 6.6375448500738979e-08 -0.0005002859171047185 1.3376079413517894e-07 1.9290610688006854e-08 -0.00025025890794052366 1.0162522161110811e-07 8.6133467378768472e-08 -0.00025026901688398505 6.984462906885358e-08 1.9621710101840388e-08 -0.00025025284037351022 4.4874074245964907e-08 1.0090077807076424e-07 -0.00050028898436075197 8.7875855622569801e-08 6.6375448500738979e-08 -0.0005002859171047185 4.4874074245964907e-08 1.0090077807076424e-07 -0.00050028898436075197 5.7241954075079322e-08 3.4700908538746761e-08 -0.0005002791968369086 5.7202649985615144e-08 9.5787935011161472e-08 -0.00075032104893710781 2.9115907212468415e-08 -4.4969605863173023e-08 -1.3795281524977753e-07 8.4813312446013536e-08 -1.0695123567893744e-07 -0.00025022962740098564 -1.2700412048798867e-08 1.1313942276293321e-08 -9.8543748247460316e-08 1.9422468036463879e-08 -1.3541302400586899e-07 -0.00025020915248867641 8.4813312446013603e-08 -1.0695123567893744e-07 -0.00025022962740098558 1.9422468036463879e-08 -1.3541302400586899e-07 -0.00025020915248867641 3.6402772478534796e-08 -7.0369558526063284e-08 -0.00025020017925155079 -1.2700412048798867e-08 1.1313942276293321e-08 -9.8543748247460316e-08 5.3188321496802703e-08 -2.6640508618090664e-08 -0.00025020709295624167 8.4813312446013603e-08 -1.0695123567893744e-07 -0.00025022962740098558 3.6402772478534796e-08 -7.0369558526063284e-08 -0.00025020017925155079 -1.2700412048798867e-08 1.1313942276293321e-08 -9.8543748247460316e-08 2.9115907212468415e-08 -4.4969605863173023e-08 -1.3795281524977753e-07 4.7285341541634393e-08 -2.4813201677454344e-08 -2.021289747894461e-07 -1.2700412048798867e-08 1.1313942276293321e-08 -9.8543748247460316e-08 8.4813312446013603e-08 -1.0695123567893744e-07 -0.00025022962740098558 8.4813312446013603e-08 -1.0695123567893744e-07 -0.00025022962740098558 5.3188321496802697e-08 -2.6640508618090644e-08 -0.00025020709295624167 -1.2599883497670813e-08 4.777682349909367e-09 -1.7697880445637017e-07 -1.2700412048798867e-08 1.1313942276293321e-08 -9.8543748247460316e-08 4.7285341541634393e-08 -2.4813201677454344e-08 -2.021289747894461e-07 -1.2599883497670821e-08 4.7776823499093719e-09 -1.7697880445637015e-07 -1.2700412048798867e-08 1.1313942276293321e-08 -9.8543748247460316e-08 8.4813312446013603e-08 -1.0695123567893744e-07 -0.00025022962740098558 4.7285341541634393e-08 -2.4813201677454344e-08 -2.021289747894461e-07 1.2750695346534745e-07 -4.9475010093944108e-08 -0.00025026417053939699 -1.2599883497670811e-08 4.7776823499093703e-09 -1.769788044563612e-07 8.4813312446013603e-08 -1.0695123567893744e-07 -0.00025022962740098558 4.7285341541634393e-08 -2.4813201677454344e-08 -2.021289747894461e-07 5.2078251276525786e-08 4.0612603043740361e-09 -2.7385058548468277e-07 -1.2599883497670813e-08 4.777682349909367e-09 -1.7697880445637017e-07 1.2750695346534745e-07 -4.9475010093944108e-08 -0.00025026417053939699 -1.2599883497670813e-08 4.777682349909367e-09 -1.7697880445637017e-07 5.2078251276525786e-08 4.0612603043740361e-09 -2.7385058548468277e-07 -1.9808449050674095e-08 -1.3052033244218826e-08 -2.538492834477521e-07 1.2750695346534748e-07 -4.9475010093944128e-08 -0.0002502641705393971 -1.2599883497670813e-08 4.777682349909367e-09 -1.7697880445637017e-07 1.2750695346534748e-07 -4.9475010093944114e-08 -0.00025026417053939699 -1.9808449050674095e-08 -1.3052033244218826e-08 -2.538492834477521e-07 5.3188321496802703e-08 -2.6640508618090664e-08 -0.00025020709295624167 5.2078251276525786e-08 4.0612603043740361e-09 -2.7385058548468277e-07 5.3710543881977808e-08 3.4988974990033226e-08 -1.8640964119180795e-07 -1.9808449050674095e-08 -1.3052033244218826e-08 -2.538492834477521e-07 1.3376079413517894e-07 1.9290610688006854e-08 -0.00025025890794052366 5.2078251276525786e-08 4.0612603043740361e-09 -2.7385058548468277e-07 1.3376079413517894e-07 1.9290610688006854e-08 -0.00025025890794052366 -1.9808449050674095e-08 -1.3052033244218826e-08 -2.538492834477521e-07 1.2750695346534745e-07 -4.9475010093944108e-08 -0.00025026417053939699 1.0162522161110811e-07 8.6133467378768472e-08 -0.00025026901688398505 1.3376079413517894e-07 1.9290610688006854e-08 -0.00025025890794052366 6.984462906885358e-08 1.9621710101840388e-08 -0.00025025284037351022 -1.9808449050674095e-08 -1.3052033244218826e-08 -2.538492834477521e-07 1.3376079413517894e-07 1.9290610688006854e-08 -0.00025025890794052366 1.2750695346534745e-07 -4.9475010093944108e-08 -0.00025026417053939699 6.984462906885358e-08 1.9621710101840388e-08 -0.00025025284037351022 -1.9808449050674095e-08 -1.3052033244218826e-08 -2.538492834477521e-07 1.2750695346534745e-07 -4.9475010093944108e-08 -0.00025026417053939699 8.4813312446013603e-08 -1.0695123567893744e-07 -0.00025022962740098558 5.3188321496802703e-08 -2.6640508618090664e-08 -0.00025020709295624167 -1.2599883497670841e-08 4.7776823499093777e-09 -1.7697880445625429e-07 1.2750695346534745e-07 -4.9475010093944108e-08 -0.00025026417053939699 5.3188321496802703e-08 -2.6640508618090664e-08 -0.00025020709295624167 6.984462906885358e-08 1.9621710101840388e-08 -0.00025025284037351022 -1.9808449050674095e-08 -1.3052033244218826e-08 -2.538492834477521e-07 1.0921040965947478e-07 1.3356401313502879e-08 -0.00050028524779068809 1.0145959862782808e-07 -4.2922709366421778e-08 -0.00050027046109068563 5.4737276620350768e-08 -1.567394575083174e-08 -0.00050026543357595602 5.318832149680271e-08 -2.6640508618090671e-08 -0.00025020709295624157 8.4813312446013603e-08 -1.0695123567893744e-07 -0.00025022962740098558 1.2750695346534745e-07 -4.9475010093944108e-08 -0.00025026417053939699 5.3188321496802703e-08 -2.6640508618090664e-08 -0.00025020709295624167 1.0921040965947478e-07 1.3356401313502879e-08 -0.00050028524779068809 5.3188321496802703e-08 -2.6640508618090664e-08 -0.00025020709295624167 1.0921040965947481e-07 1.3356401313502884e-08 -0.00050028524779068819 6.984462906885358e-08 1.9621710101840388e-08 -0.00025025284037351022 5.4737276620350768e-08 -1.567394575083174e-08 -0.00050026543357595602 1.0921040965947478e-07 1.3356401313502879e-08 -0.00050028524779068809 5.4737276620350768e-08 -1.567394575083174e-08 -0.00050026543357595602 5.7241954075079322e-08 3.4700908538746761e-08 -0.0005002791968369086 6.984462906885358e-08 1.9621710101840388e-08 -0.00025025284037351022 5.3188321496802703e-08 -2.6640508618090664e-08 -0.00025020709295624167 1.2750695346534745e-07 -4.9475010093944108e-08 -0.00025026417053939699 6.984462906885358e-08 1.9621710101840388e-08 -0.00025025284037351022 1.0921040965947478e-07 1.3356401313502909e-08 -0.00050028524779068819 4.4874074245964907e-08 1.0090077807076424e-07 -0.00050028898436075197 8.7875855622569801e-08 6.6375448500738979e-08 -0.0005002859171047185 5.7241954075079322e-08 3.4700908538746761e-08 -0.0005002791968369086 6.984462906885358e-08 1.9621710101840388e-08 -0.00025025284037351022 1.2750695346534745e-07 -4.9475010093944108e-08 -0.00025026417053939699 8.7875855622569801e-08 6.6375448500738979e-08 -0.0005002859171047185 6.984462906885358e-08 1.9621710101840388e-08 -0.00025025284037351022 1.0921040965947478e-07 1.3356401313502879e-08 -0.00050028524779068809 1.2750695346534745e-07 -4.9475010093944108e-08 -0.00025026417053939699 1.3376079413517891e-07 1.9290610688006858e-08 -0.00025025890794052366 6.984462906885358e-08 1.9621710101840388e-08 -0.00025025284037351022 8.7875855622569801e-08 6.6375448500738979e-08 -0.0005002859171047185 8.7875855622569801e-08 6.6375448500738979e-08 -0.0005002859171047185 1.0921040965947478e-07 1.3356401313502879e-08 -0.00050028524779068809 5.7241954075079322e-08 3.4700908538746761e-08 -0.0005002791968369086 6.984462906885358e-08 1.9621710101840388e-08 -0.00025025284037351022 1.0921040965947478e-07 1.3356401313502879e-08 -0.00050028524779068809 8.7875855622569801e-08 6.6375448500738966e-08 -0.0005002859171047185 5.7241954075079322e-08 3.4700908538746761e-08 -0.0005002791968369086 9.772181240762632e-08 5.412762608257529e-08 -0.00075031983973412452 1.0145959862782808e-07 -4.2922709366421778e-08 -0.00050027046109068563 1.0921040965947478e-07 1.3356401313502879e-08 -0.00050028524779068809 5.4737276620350768e-08 -1.567394575083174e-08 -0.00050026543357595602 1.1165218109796806e-07 -1.862732779282601e-09 -0.00075031950527051764 5.4737276620350768e-08 -1.567394575083174e-08 -0.00050026543357595602 1.0921040965947478e-07 1.3356401313502879e-08 -0.00050028524779068809 5.7241954075079322e-08 3.4700908538746761e-08 -0.0005002791968369086 1.1165218109796806e-07 -1.862732779282608e-09 -0.00075031950527051775 1.0145959862782808e-07 -4.2922709366421778e-08 -0.00050027046109068563 5.4737276620350762e-08 -1.5673945750831744e-08 -0.00050026543357595591 5.1802801754226026e-08 -5.3004863131506189e-08 -0.0005002608937728836 9.5722622058080607e-08 -5.7482387425418869e-08 -0.00075031383498265806 6.6414614438985987e-08 -8.7902407798403789e-08 -0.00050026153138336223 1.0145959862782808e-07 -4.2922709366421778e-08 -0.00050027046109068563 5.1802801754226026e-08 -5.3004863131506189e-08 -0.0005002608937728836 9.5722622058080607e-08 -5.7482387425418869e-08 -0.00075031383498265806 8.4813312446013603e-08 -1.0695123567893744e-07 -0.00025022962740098558 5.318832149680269e-08 -2.6640508618090664e-08 -0.00025020709295624162 3.6402772478534796e-08 -7.0369558526063284e-08 -0.00025020017925155079 1.0145959862782808e-07 -4.2922709366421778e-08 -0.00050027046109068563 5.4737276620350768e-08 -1.567394575083174e-08 -0.00050026543357595602 1.0145959862782808e-07 -4.2922709366421778e-08 -0.00050027046109068563 5.1802801754226026e-08 -5.3004863131506189e-08 -0.0005002608937728836 3.6402772478534796e-08 -7.0369558526063284e-08 -0.00025020017925155079 8.4813312446013603e-08 -1.0695123567893744e-07 -0.00025022962740098558 1.0921040965947478e-07 1.3356401313502879e-08 -0.00050028524779068809 5.3188321496802703e-08 -2.6640508618090667e-08 -0.00025020709295624167 1.0145959862782808e-07 -4.2922709366421778e-08 -0.00050027046109068563 1.0145959862782808e-07 -4.2922709366421778e-08 -0.00050027046109068563 5.4737276620350755e-08 -1.5673945750831744e-08 -0.00050026543357595602 5.3188321496802703e-08 -2.6640508618090664e-08 -0.00025020709295624167 3.6402772478534796e-08 -7.0369558526063284e-08 -0.00025020017925155079 1.0145959862782808e-07 -4.2922709366421778e-08 -0.00050027046109068563 6.6414614438985987e-08 -8.7902407798403789e-08 -0.00050026153138336223 5.1802801754226026e-08 -5.3004863131506189e-08 -0.0005002608937728836 3.6402772478534796e-08 -7.0369558526063284e-08 -0.00025020017925155079 1.9422468036463879e-08 -1.3541302400586899e-07 -0.00025020915248867641 8.4813312446013603e-08 -1.0695123567893744e-07 -0.00025022962740098558 3.6402772478534796e-08 -7.0369558526063284e-08 -0.00025020017925155079 1.0145959862782808e-07 -4.2922709366421778e-08 -0.00050027046109068563 1.9422468036463879e-08 -1.3541302400586899e-07 -0.00025020915248867641 1.0145959862782809e-07 -4.2922709366421751e-08 -0.00050027046109068563 3.6402772478534796e-08 -7.0369558526063284e-08 -0.00025020017925155079 6.6414614438985987e-08 -8.7902407798403789e-08 -0.00050026153138336223 6.6414614438985987e-08 -8.7902407798403789e-08 -0.00050026153138336223 9.5722622058080581e-08 -5.7482387425418862e-08 -0.00075031383498265817 5.1802801754226026e-08 -5.3004863131506189e-08 -0.0005002608937728836 5.4066157110672805e-08 -9.770482760643547e-08 -0.00075030990449396432 5.4066157110672805e-08 -9.770482760643547e-08 -0.00075030990449396432 9.6694520770211081e-08 -5.5718859821805589e-08 -0.0010003578109917346 4.9134885338583516e-08 -5.6863573857196792e-08 -0.00075031049795762025 5.5895800825811783e-08 -9.658647763685518e-08 -0.0010003559018540824 9.6694520770211095e-08 -5.5718859821805595e-08 -0.0010003578109917346 5.3545427872049107e-08 -2.0497237549765316e-08 -0.0010003576553828369 5.3656130294179449e-08 -1.9715294870409673e-08 -0.0007503125780091831 4.9134885338583516e-08 -5.6863573857196792e-08 -0.00075031049795762025 9.5722622058080607e-08 -5.7482387425418869e-08 -0.00075031383498265806 5.3656130294179442e-08 -1.9715294870409676e-08 -0.0007503125780091831 4.9134885338583516e-08 -5.6863573857196792e-08 -0.00075031049795762025 9.6694520770211095e-08 -5.5718859821805595e-08 -0.0010003578109917346 9.5722622058080607e-08 -5.7482387425418869e-08 -0.00075031383498265806 1.1159802597921207e-07 1.0376326629061495e-10 -0.0010003603404921944 5.3656130294179449e-08 -1.9715294870409673e-08 -0.0007503125780091831 9.6694520770211095e-08 -5.5718859821805595e-08 -0.0010003578109917346 5.4066157110672805e-08 -9.770482760643547e-08 -0.00075030990449396432 9.5722622058080607e-08 -5.7482387425418869e-08 -0.00075031383498265806 4.9134885338583516e-08 -5.6863573857196792e-08 -0.00075031049795762025 9.6694520770211095e-08 -5.5718859821805595e-08 -0.0010003578109917346 9.5722622058080607e-08 -5.7482387425418869e-08 -0.00075031383498265806 5.4066157110672805e-08 -9.770482760643547e-08 -0.00075030990449396432 4.9134885338583516e-08 -5.6863573857196792e-08 -0.00075031049795762025 5.1802801754226026e-08 -5.3004863131506189e-08 -0.0005002608937728836 5.3656130294179449e-08 -1.9715294870409673e-08 -0.0007503125780091831 9.5722622058080607e-08 -5.7482387425418869e-08 -0.00075031383498265806 4.9134885338583516e-08 -5.6863573857196792e-08 -0.00075031049795762025 5.1802801754226026e-08 -5.3004863131506189e-08 -0.0005002608937728836 1.0145959862782808e-07 -4.2922709366421778e-08 -0.00050027046109068563 1.1165218109796806e-07 -1.862732779282601e-09 -0.00075031950527051764 5.4737276620350768e-08 -1.567394575083174e-08 -0.00050026543357595602 9.5722622058080607e-08 -5.7482387425418869e-08 -0.00075031383498265806 9.5722622058080607e-08 -5.7482387425418869e-08 -0.00075031383498265806 5.3656130294179442e-08 -1.9715294870409673e-08 -0.0007503125780091831 5.4737276620350768e-08 -1.567394575083174e-08 -0.00050026543357595602 5.1802801754226026e-08 -5.3004863131506189e-08 -0.0005002608937728836 5.4737276620350768e-08 -1.567394575083174e-08 -0.00050026543357595602 1.1165218109796809e-07 -1.8627327792826034e-09 -0.00075031950527051764 5.7241954075079322e-08 3.4700908538746761e-08 -0.0005002791968369086 5.3656130294179449e-08 -1.9715294870409673e-08 -0.0007503125780091831 1.1165218109796806e-07 -1.862732779282601e-09 -0.00075031950527051764 9.5722622058080607e-08 -5.7482387425418869e-08 -0.00075031383498265806 5.3656130294179449e-08 -1.9715294870409673e-08 -0.0007503125780091831 5.4737276620350775e-08 -1.567394575083174e-08 -0.00050026543357595591 1.1165218109796806e-07 -1.862732779282601e-09 -0.00075031950527051764 5.3656130294179449e-08 -1.9715294870409673e-08 -0.0007503125780091831 5.6586038038024302e-08 3.2003142118478156e-08 -0.00075031756059762162 5.7241954075079322e-08 3.4700908538746761e-08 -0.0005002791968369086 1.0921040965947478e-07 1.3356401313502879e-08 -0.00050028524779068809 9.772181240762632e-08 5.412762608257529e-08 -0.00075031983973412452 5.7241954075079322e-08 3.4700908538746761e-08 -0.0005002791968369086 1.1165218109796806e-07 -1.862732779282601e-09 -0.00075031950527051764 9.772181240762632e-08 5.412762608257529e-08 -0.00075031983973412452 1.1165218109796806e-07 -1.862732779282601e-09 -0.00075031950527051764 5.6586038038024302e-08 3.2003142118478156e-08 -0.00075031756059762162 5.7241954075079322e-08 3.4700908538746761e-08 -0.0005002791968369086 5.7202649985615144e-08 9.5787935011161472e-08 -0.00075032104893710781 9.772181240762632e-08 5.412762608257529e-08 -0.00075031983973412452 5.6586038038024302e-08 3.2003142118478156e-08 -0.00075031756059762162 5.7241954075079322e-08 3.4700908538746761e-08 -0.0005002791968369086 1.1165218109796806e-07 -1.862732779282601e-09 -0.00075031950527051764 9.6572430866889554e-08 5.5888028292457209e-08 -0.0010003606777332645 5.6586038038024302e-08 3.2003142118478156e-08 -0.00075031756059762162 1.1159802597921207e-07 1.0376326629061495e-10 -0.0010003603404921944 1.1165218109796806e-07 -1.862732779282601e-09 -0.00075031950527051764 9.772181240762632e-08 5.412762608257529e-08 -0.00075031983973412452 5.6586038038024302e-08 3.2003142118478156e-08 -0.00075031756059762162 9.6572430866889554e-08 5.5888028292457209e-08 -0.0010003606777332645 5.3656130294179449e-08 -1.9715294870409673e-08 -0.0007503125780091831 1.1165218109796806e-07 -1.862732779282601e-09 -0.00075031950527051764 5.6586038038024302e-08 3.2003142118478156e-08 -0.00075031756059762162 1.1159802597921207e-07 1.0376326629061586e-10 -0.0010003603404921944 5.3656130294179449e-08 -1.9715294870409673e-08 -0.0007503125780091831 1.115980259792121e-07 1.0376326629061331e-10 -0.0010003603404921944 5.6586038038024302e-08 3.2003142118478156e-08 -0.00075031756059762162 5.3545427872049114e-08 -2.0497237549765316e-08 -0.0010003576553828369 9.5722622058080607e-08 -5.7482387425418869e-08 -0.00075031383498265806 1.1165218109796806e-07 -1.862732779282601e-09 -0.00075031950527051764 5.3656130294179449e-08 -1.9715294870409673e-08 -0.0007503125780091831 1.1159802597921207e-07 1.0376326629061495e-10 -0.0010003603404921944 1.1159802597921207e-07 1.0376326629061495e-10 -0.0010003603404921944 5.3545427872049114e-08 -2.0497237549765316e-08 -0.0010003576553828369 5.5593659619888981e-08 3.182189950782643e-08 -0.0010003598244413823 5.6586038038024302e-08 3.2003142118478156e-08 -0.00075031756059762162 5.3545427872049114e-08 -2.0497237549765316e-08 -0.0010003576553828369 1.1159802597921207e-07 1.0376326629061495e-10 -0.0010003603404921944 5.5593659619888981e-08 3.182189950782643e-08 -0.0010003598244413823 1.1151856621279575e-07 6.6307438325157237e-11 -0.0012504039583780169 9.6694520770211095e-08 -5.5718859821805595e-08 -0.0010003578109917346 1.1159802597921207e-07 1.0376326629061495e-10 -0.0010003603404921944 5.3545427872049114e-08 -2.0497237549765316e-08 -0.0010003576553828369 1.1151856621279575e-07 6.6307438325157263e-11 -0.0012504039583780167 1.1159802597921207e-07 1.0376326629061495e-10 -0.0010003603404921944 9.6694520770211095e-08 -5.5718859821805595e-08 -0.0010003578109917346 5.3545427872049114e-08 -2.0497237549765316e-08 -0.0010003576553828369 5.3656130294179455e-08 -1.9715294870409676e-08 -0.00075031257800918299 1.1159802597921207e-07 1.0376326629061495e-10 -0.0010003603404921944 9.6572430866889554e-08 5.5888028292457209e-08 -0.0010003606777332645 5.5593659619888981e-08 3.182189950782643e-08 -0.0010003598244413823 9.6556643251114932e-08 5.5806090272970117e-08 -0.0012504043219663395 9.6572430866889554e-08 5.5888028292457209e-08 -0.0010003606777332645 1.1159802597921207e-07 1.0376326629061495e-10 -0.0010003603404921944 5.5593659619888981e-08 3.182189950782643e-08 -0.0010003598244413823 5.6586038038024302e-08 3.2003142118478156e-08 -0.00075031756059762162 5.575346236524707e-08 9.6682970753030716e-08 -0.001000361058272659 9.6572430866889554e-08 5.5888028292457209e-08 -0.0010003606777332645 5.5593659619888981e-08 3.182189950782643e-08 -0.0010003598244413823 5.6586038038024302e-08 3.2003142118478156e-08 -0.00075031756059762162 5.5730752752123321e-08 9.6594808945977782e-08 -0.0012504044217546157 9.6556643251114932e-08 5.5806090272970117e-08 -0.0012504043219663395 5.5733286966741035e-08 3.2028113106352458e-08 -0.0012504037043202802 5.5593659619888981e-08 3.182189950782643e-08 -0.0010003598244413823 1.1159802597921207e-07 1.0376326629061495e-10 -0.0010003603404921944 9.6556643251114932e-08 5.5806090272970117e-08 -0.0012504043219663395 5.5593659619888981e-08 3.182189950782643e-08 -0.0010003598244413823 1.1151856621279575e-07 6.6307438325157263e-11 -0.0012504039583780167 9.6556643251114932e-08 5.5806090272970117e-08 -0.0012504043219663395 1.1151856621279575e-07 6.6307438325157263e-11 -0.0012504039583780167 5.5733286966741035e-08 3.2028113106352458e-08 -0.0012504037043202802 5.5593659619888981e-08 3.182189950782643e-08 -0.0010003598244413823 1.1151856621279575e-07 6.6307438325157263e-11 -0.0012504039583780167 9.6614256474235956e-08 -5.5696110109438649e-08 -0.0012504023050779038 5.3722393299815503e-08 -2.0305505423046189e-08 -0.0012504022230280184 5.354542787204912e-08 -2.0497237549765319e-08 -0.0010003576553828367 1.1151856621279575e-07 6.6307438325157263e-11 -0.0012504039583780167 5.3722393299815503e-08 -2.0305505423046189e-08 -0.0012504022230280184 5.5733286966741035e-08 3.2028113106352458e-08 -0.0012504037043202802 5.5593659619888981e-08 3.182189950782643e-08 -0.0010003598244413823 5.3545427872049114e-08 -2.0497237549765316e-08 -0.0010003576553828369 1.1151856621279578e-07 6.6307438325155324e-11 -0.0012504039583780167 5.5593659619888981e-08 3.182189950782643e-08 -0.0010003598244413823 5.3722393299815503e-08 -2.0305505423046189e-08 -0.0012504022230280184 9.6614256474235956e-08 -5.5696110109438649e-08 -0.0012504023050779038 5.5804037500003552e-08 -9.6552595104235495e-08 -0.0012504009367233391 4.9741372040584427e-08 -5.6809375062194062e-08 -0.0012504013661130556 4.9516855799308619e-08 -5.7027694705310678e-08 -0.0010003564377754322 5.3722393299815503e-08 -2.0305505423046189e-08 -0.0012504022230280184 9.6614256474235956e-08 -5.5696110109438649e-08 -0.0012504023050779038 4.9741372040584427e-08 -5.6809375062194062e-08 -0.0012504013661130556 4.9516855799308619e-08 -5.7027694705310678e-08 -0.0010003564377754322 9.6614256474235956e-08 -5.5696110109438649e-08 -0.0012504023050779038 5.3722393299815497e-08 -2.0305505423046189e-08 -0.0012504022230280184 5.3545427872049114e-08 -2.0497237549765316e-08 -0.0010003576553828369 4.9516855799308619e-08 -5.7027694705310678e-08 -0.0010003564377754322 9.6694520770211095e-08 -5.5718859821805595e-08 -0.0010003578109917346 1.1151856621279575e-07 6.6307438325157263e-11 -0.0012504039583780167 5.3545427872049114e-08 -2.0497237549765316e-08 -0.0010003576553828369 9.6614256474235956e-08 -5.5696110109438649e-08 -0.0012504023050779038 9.6694520770211095e-08 -5.5718859821805595e-08 -0.0010003578109917346 5.5895800825811783e-08 -9.658647763685518e-08 -0.0010003559018540824 4.9516855799308619e-08 -5.7027694705310678e-08 -0.0010003564377754322 4.9134885338583516e-08 -5.6863573857196792e-08 -0.00075031049795762025 9.6694520770211095e-08 -5.5718859821805595e-08 -0.0010003578109917346 5.3545427872049107e-08 -2.0497237549765319e-08 -0.0010003576553828367 4.9516855799308619e-08 -5.7027694705310678e-08 -0.0010003564377754322 9.6614256474235956e-08 -5.5696110109438649e-08 -0.0012504023050779038 5.3545427872049114e-08 -2.0497237549765316e-08 -0.0010003576553828369 9.6694520770211095e-08 -5.5718859821805595e-08 -0.0010003578109917346 4.9516855799308619e-08 -5.7027694705310678e-08 -0.0010003564377754322 4.9134885338583516e-08 -5.6863573857196792e-08 -0.00075031049795762025 5.5895800825811783e-08 -9.658647763685518e-08 -0.0010003559018540824 9.6694520770211095e-08 -5.5718859821805595e-08 -0.0010003578109917346 4.9516855799308619e-08 -5.7027694705310678e-08 -0.0010003564377754322 9.6614256474235956e-08 -5.5696110109438649e-08 -0.0012504023050779038 5.5895800825811783e-08 -9.658647763685518e-08 -0.0010003559018540824 9.6614256474235943e-08 -5.5696110109438642e-08 -0.0012504023050779038 4.9516855799308619e-08 -5.7027694705310678e-08 -0.0010003564377754322 5.5804037500003552e-08 -9.6552595104235495e-08 -0.0012504009367233391 8.7875855622569801e-08 6.6375448500738979e-08 -0.0005002859171047185 5.7202649985615144e-08 9.5787935011161472e-08 -0.00075032104893710781 5.7241954075079322e-08 3.4700908538746761e-08 -0.0005002791968369086 9.772181240762632e-08 5.412762608257529e-08 -0.00075031983973412452 9.772181240762632e-08 5.412762608257529e-08 -0.00075031983973412452 5.7202649985615144e-08 9.5787935011161472e-08 -0.00075032104893710781 5.6586038038024302e-08 3.2003142118478156e-08 -0.00075031756059762162 5.575346236524707e-08 9.6682970753030716e-08 -0.001000361058272659 9.772181240762632e-08 5.412762608257529e-08 -0.00075031983973412452 5.575346236524707e-08 9.6682970753030716e-08 -0.001000361058272659 5.6586038038024302e-08 3.2003142118478156e-08 -0.00075031756059762162 9.6572430866889554e-08 5.5888028292457209e-08 -0.0010003606777332645 9.6572430866889554e-08 5.5888028292457209e-08 -0.0010003606777332645 5.575346236524707e-08 9.6682970753030716e-08 -0.001000361058272659 5.5593659619888981e-08 3.182189950782643e-08 -0.0010003598244413823 5.5730752752123321e-08 9.6594808945977782e-08 -0.0012504044217546157 9.6572430866889554e-08 5.5888028292457209e-08 -0.0010003606777332645 5.5730752752123321e-08 9.6594808945977782e-08 -0.0012504044217546157 5.5593659619888981e-08 3.182189950782643e-08 -0.0010003598244413823 9.6556643251114932e-08 5.5806090272970117e-08 -0.0012504043219663395 -1.5785983935425334e-11 1.1151515548653419e-07 -0.0012504027549516633 5.5730752752123321e-08 9.6594808945977782e-08 -0.0012504044217546157 9.2472994000144355e-09 5.7058125140384121e-08 -0.0012504026963550097 9.2253934100905062e-09 5.6953250592781815e-08 -0.0010003584601676393 5.5730752752123321e-08 9.6594808945977782e-08 -0.0012504044217546157 9.2472994000144355e-09 5.7058125140384121e-08 -0.0012504026963550095 9.2253934100904863e-09 5.6953250592781848e-08 -0.0010003584601676393 5.5593659619888981e-08 3.182189950782643e-08 -0.0010003598244413823 5.575346236524707e-08 9.6682970753030716e-08 -0.001000361058272659 -1.578598393541914e-11 1.1151515548653419e-07 -0.0012504027549516633 9.2253934100905062e-09 5.6953250592781815e-08 -0.0010003584601676393 5.5730752752123321e-08 9.6594808945977782e-08 -0.0012504044217546157 -8.3243515717255103e-11 1.1159571601006274e-07 -0.0010003584658326806 -5.5772327066238347e-08 9.6569168326959188e-08 -0.0012504017062356413 -2.4309672178703076e-08 7.1339981979802767e-08 -0.0010003574788015781 -1.5785983935425334e-11 1.1151515548653419e-07 -0.0012504027549516633 -1.5785983935425334e-11 1.1151515548653419e-07 -0.0012504027549516633 9.2472994000144355e-09 5.7058125140384121e-08 -0.0012504026963550097 -2.4215321992646638e-08 7.1432366615755265e-08 -0.0012504020744705021 -2.4309672178703076e-08 7.1339981979802767e-08 -0.0010003574788015781 -5.5772327066238367e-08 9.6569168326959201e-08 -0.0012504017062356413 -1.5785983935419524e-11 1.115151554865342e-07 -0.0012504027549516633 -2.4215321992646638e-08 7.1432366615755265e-08 -0.0012504020744705021 -2.4309672178703076e-08 7.1339981979802767e-08 -0.0010003574788015781 9.2253934100905062e-09 5.6953250592781815e-08 -0.0010003584601676393 -1.5785983935433283e-11 1.1151515548653419e-07 -0.0012504027549516633 -2.4309672178703076e-08 7.1339981979802767e-08 -0.0010003574788015781 9.2472994000144355e-09 5.7058125140384121e-08 -0.0012504026963550097 9.2472994000144355e-09 5.7058125140384121e-08 -0.0012504026963550097 -1.9836406147921199e-08 3.5891151229120346e-08 -0.0012504018085565958 -2.4215321992646638e-08 7.1432366615755265e-08 -0.0012504020744705021 -2.4309672178703076e-08 7.1339981979802767e-08 -0.0010003574788015781 9.2253934100905062e-09 5.6953250592781815e-08 -0.0010003584601676393 -8.3243515717255103e-11 1.1159571601006274e-07 -0.0010003584658326806 -2.4309672178703076e-08 7.1339981979802767e-08 -0.0010003574788015781 -1.5785983935425334e-11 1.1151515548653419e-07 -0.0012504027549516633 5.575346236524707e-08 9.6682970753030716e-08 -0.001000361058272659 -8.3243515717255103e-11 1.1159571601006274e-07 -0.0010003584658326806 9.2253934100905062e-09 5.6953250592781815e-08 -0.0010003584601676393 -1.5785983935425353e-11 1.1151515548653419e-07 -0.0012504027549516633 5.575346236524707e-08 9.6682970753030716e-08 -0.001000361058272659 9.2253934100905112e-09 5.6953250592781808e-08 -0.0010003584601676393 5.5593659619888981e-08 3.182189950782643e-08 -0.0010003598244413823 5.5730752752123321e-08 9.6594808945977782e-08 -0.0012504044217546157 5.575346236524707e-08 9.6682970753030716e-08 -0.001000361058272659 9.2253934100905062e-09 5.6953250592781815e-08 -0.001000358460167639 1.086287847680715e-08 5.7021338354839962e-08 -0.00075031437062988906 5.6586038038024302e-08 3.2003142118478156e-08 -0.00075031756059762162 5.7202649985615144e-08 9.5787935011161472e-08 -0.00075032104893710781 1.0862878476807175e-08 5.7021338354839929e-08 -0.00075031437062988916 5.6586038038024302e-08 3.2003142118478156e-08 -0.00075031756059762162 5.575346236524707e-08 9.6682970753030716e-08 -0.001000361058272659 5.7202649985615144e-08 9.5787935011161472e-08 -0.00075032104893710781 -8.3243515717248744e-11 1.1159571601006274e-07 -0.0010003584658326804 1.086287847680717e-08 5.7021338354839936e-08 -0.00075031437062988916 5.575346236524707e-08 9.6682970753030716e-08 -0.001000361058272659 5.7202649985615144e-08 9.5787935011161472e-08 -0.00075032104893710781 1.9984972716767151e-09 1.1164709801072257e-07 -0.00075031510848232413 1.086287847680717e-08 5.7021338354839936e-08 -0.00075031437062988916 -8.324351571725456e-11 1.1159571601006274e-07 -0.0010003584658326806 -8.3243515717255103e-11 1.1159571601006274e-07 -0.0010003584658326806 5.575346236524707e-08 9.6682970753030716e-08 -0.001000361058272659 9.2253934100905062e-09 5.6953250592781815e-08 -0.0010003584601676393 1.086287847680717e-08 5.7021338354839936e-08 -0.00075031437062988916 9.2253934100905062e-09 5.6953250592781815e-08 -0.0010003584601676393 -2.0014519181832086e-08 3.5777285639946387e-08 -0.0010003570711503386 -2.4309672178703076e-08 7.1339981979802767e-08 -0.0010003574788015781 -2.3145552386649789e-08 7.1583044530319944e-08 -0.00075031229235510838 -8.3243515717255103e-11 1.1159571601006274e-07 -0.0010003584658326806 9.2253934100905062e-09 5.6953250592781815e-08 -0.0010003584601676393 -2.4309672178703076e-08 7.1339981979802767e-08 -0.0010003574788015781 -2.3145552386649789e-08 7.1583044530319944e-08 -0.00075031229235510838 1.086287847680717e-08 5.7021338354839936e-08 -0.00075031437062988916 1.9984972716767151e-09 1.1164709801072257e-07 -0.00075031510848232413 -2.3145552386649789e-08 7.1583044530319944e-08 -0.00075031229235510838 -8.3243515717255103e-11 1.1159571601006274e-07 -0.0010003584658326806 1.086287847680717e-08 5.7021338354839936e-08 -0.00075031437062988916 -8.324351571726331e-11 1.1159571601006274e-07 -0.0010003584658326806 -2.3145552386649789e-08 7.1583044530319944e-08 -0.00075031229235510838 9.2253934100905062e-09 5.6953250592781815e-08 -0.0010003584601676393 -5.5877523708479198e-08 9.6597808248947702e-08 -0.0010003568776523527 -8.3243515717249273e-11 1.1159571601006276e-07 -0.0010003584658326806 -2.4309672178703076e-08 7.1339981979802767e-08 -0.0010003574788015781 -2.3145552386649789e-08 7.1583044530319944e-08 -0.00075031229235510838 1.9984972716767151e-09 1.1164709801072257e-07 -0.00075031510848232413 1.086287847680717e-08 5.7021338354839936e-08 -0.00075031437062988916 -2.3145552386649789e-08 7.1583044530319944e-08 -0.00075031229235510838 -2.5385489643388637e-08 6.9256565865689834e-08 -0.00050026405332459327 -5.4060112133909224e-08 9.7711289080633391e-08 -0.00075031145926146711 1.9984972716767213e-09 1.1164709801072258e-07 -0.00075031510848232424 -2.3145552386649789e-08 7.1583044530319944e-08 -0.00075031229235510838 -2.5385489643388637e-08 6.9256565865689834e-08 -0.00050026405332459327 1.295398759654781e-08 5.6980037394514489e-08 -0.00050026935424994071 1.9984972716767056e-09 1.1164709801072257e-07 -0.00075031510848232424 -2.5385489643388637e-08 6.9256565865689834e-08 -0.00050026405332459327 1.086287847680717e-08 5.7021338354839936e-08 -0.00075031437062988916 1.086287847680717e-08 5.7021338354839936e-08 -0.00075031437062988916 -1.9287126484179196e-08 3.6134909962619599e-08 -0.0007503114665932028 -2.3145552386649789e-08 7.1583044530319944e-08 -0.00075031229235510838 -2.5385489643388637e-08 6.9256565865689834e-08 -0.00050026405332459327 4.4874074245964907e-08 1.0090077807076424e-07 -0.00050028898436075197 1.9984972716767196e-09 1.1164709801072257e-07 -0.00075031510848232413 1.295398759654781e-08 5.6980037394514489e-08 -0.00050026935424994071 5.7202649985615144e-08 9.5787935011161472e-08 -0.00075032104893710781 1.9984972716767151e-09 1.1164709801072257e-07 -0.00075031510848232413 5.7202649985615144e-08 9.5787935011161472e-08 -0.00075032104893710781 1.086287847680717e-08 5.7021338354839936e-08 -0.00075031437062988916 1.295398759654781e-08 5.6980037394514489e-08 -0.00050026935424994071 5.7202649985615144e-08 9.5787935011161472e-08 -0.00075032104893710781 1.086287847680717e-08 5.7021338354839936e-08 -0.00075031437062988906 1.2953987596547792e-08 5.6980037394514515e-08 -0.0005002693542499406 5.7241954075079322e-08 3.4700908538746761e-08 -0.0005002791968369086 -1.3461098486970809e-08 1.0926965039374492e-07 -0.00050027381745662927 -5.4060112133909197e-08 9.7711289080633378e-08 -0.00075031145926146711 -2.5385489643388637e-08 6.9256565865689834e-08 -0.00050026405332459327 1.9984972716767151e-09 1.1164709801072257e-07 -0.00075031510848232413 1.9984972716767151e-09 1.1164709801072257e-07 -0.00075031510848232413 -5.5877523708479178e-08 9.6597808248947689e-08 -0.0010003568776523527 -2.3145552386649789e-08 7.1583044530319944e-08 -0.00075031229235510838 -8.3243515717255103e-11 1.1159571601006274e-07 -0.0010003584658326806 -5.4060112133909224e-08 9.7711289080633391e-08 -0.00075031145926146711 -2.3145552386649789e-08 7.1583044530319944e-08 -0.00075031229235510838 -4.8829604520993509e-08 5.3216627905946083e-08 -0.00075031150051725864 -5.128760199112978e-08 5.0047131811659253e-08 -0.00050026321427566701 -1.9287126484179193e-08 3.6134909962619599e-08 -0.0007503114665932028 -2.3145552386649785e-08 7.1583044530319944e-08 -0.00075031229235510838 -2.5385489643388637e-08 6.9256565865689834e-08 -0.00050026405332459327 -5.128760199112978e-08 5.0047131811659253e-08 -0.00050026321427566701 -2.5385489643388637e-08 6.9256565865689834e-08 -0.00050026405332459327 -5.4060112133909224e-08 9.7711289080633391e-08 -0.00075031145926146711 -5.128760199112978e-08 5.0047131811659253e-08 -0.00050026321427566701 -2.3145552386649789e-08 7.1583044530319944e-08 -0.00075031229235510838 -6.6332645903829774e-08 8.7942167427814985e-08 -0.00050026448487120812 -9.5736576528445515e-08 5.7463181003307304e-08 -0.00075031361391005881 -5.128760199112978e-08 5.0047131811659253e-08 -0.00050026321427566701 -5.4060112133909224e-08 9.7711289080633391e-08 -0.00075031145926146711 -9.5736576528445528e-08 5.7463181003307304e-08 -0.0007503136139100587 -5.4060112133909224e-08 9.7711289080633391e-08 -0.00075031145926146711 -4.8829604520993509e-08 5.3216627905946083e-08 -0.00075031150051725864 -5.128760199112978e-08 5.0047131811659253e-08 -0.00050026321427566701 -2.0014519181832083e-08 3.5777285639946387e-08 -0.0010003570711503386 -2.4309672178703072e-08 7.1339981979802767e-08 -0.0010003574788015781 -2.3145552386649789e-08 7.1583044530319944e-08 -0.00075031229235510838 -4.8829604520993509e-08 5.3216627905946083e-08 -0.00075031150051725864 -2.3145552386649789e-08 7.1583044530319944e-08 -0.00075031229235510838 -5.4060112133909224e-08 9.7711289080633391e-08 -0.00075031145926146711 -4.8829604520993509e-08 5.3216627905946083e-08 -0.00075031150051725864 -5.5877523708479198e-08 9.6597808248947702e-08 -0.0010003568776523527 1.9984972716767151e-09 1.1164709801072257e-07 -0.00075031510848232413 -5.4060112133909224e-08 9.7711289080633391e-08 -0.00075031145926146711 -2.3145552386649789e-08 7.1583044530319944e-08 -0.00075031229235510838 -5.5877523708479198e-08 9.6597808248947702e-08 -0.0010003568776523527 -5.5877523708479198e-08 9.6597808248947702e-08 -0.0010003568776523527 -2.4309672178703076e-08 7.1339981979802767e-08 -0.0010003574788015781 -4.9444916139681123e-08 5.2938671982690071e-08 -0.0010003569140838156 -4.8829604520993509e-08 5.3216627905946083e-08 -0.00075031150051725864 -2.3145552386649789e-08 7.1583044530319944e-08 -0.00075031229235510838 -5.5877523708479198e-08 9.6597808248947702e-08 -0.0010003568776523527 -4.8829604520993509e-08 5.3216627905946083e-08 -0.00075031150051725864 -2.4309672178703076e-08 7.1339981979802767e-08 -0.0010003574788015781 -5.4060112133909224e-08 9.7711289080633391e-08 -0.00075031145926146711 -9.6687343986130591e-08 5.5731246162716905e-08 -0.001000357303902612 -4.8829604520993509e-08 5.3216627905946083e-08 -0.00075031150051725864 -5.5877523708479198e-08 9.6597808248947702e-08 -0.0010003568776523527 -9.6687343986130604e-08 5.5731246162716899e-08 -0.001000357303902612 -5.5877523708479198e-08 9.6597808248947702e-08 -0.0010003568776523527 -4.9444916139681123e-08 5.2938671982690071e-08 -0.0010003569140838156 -4.8829604520993509e-08 5.3216627905946083e-08 -0.00075031150051725864 -5.4060112133909224e-08 9.7711289080633391e-08 -0.00075031145926146711 -9.5736576528445528e-08 5.7463181003307304e-08 -0.0007503136139100587 -4.8829604520993509e-08 5.3216627905946083e-08 -0.00075031150051725864 -9.6687343986130604e-08 5.5731246162716899e-08 -0.001000357303902612 -5.5877523708479198e-08 9.6597808248947702e-08 -0.0010003568776523527 -9.6687343986130604e-08 5.5731246162716899e-08 -0.001000357303902612 -4.9444916139681123e-08 5.2938671982690071e-08 -0.0010003569140838156 -9.6590565438007889e-08 5.5732516400745824e-08 -0.0012504017282863966 -2.4309672178703076e-08 7.1339981979802767e-08 -0.0010003574788015781 -5.5877523708479198e-08 9.6597808248947702e-08 -0.0010003568776523527 -4.9444916139681123e-08 5.2938671982690071e-08 -0.0010003569140838156 -5.5772327066238367e-08 9.6569168326959201e-08 -0.0012504017062356413 -8.3243515717255103e-11 1.1159571601006274e-07 -0.0010003584658326806 -5.5877523708479198e-08 9.6597808248947702e-08 -0.0010003568776523527 -2.4309672178703076e-08 7.1339981979802767e-08 -0.0010003574788015781 -5.5772327066238367e-08 9.6569168326959201e-08 -0.0012504017062356413 -9.6590565438007889e-08 5.5732516400745824e-08 -0.0012504017282863966 -5.5772327066238367e-08 9.6569168326959201e-08 -0.0012504017062356413 -4.9302724008962614e-08 5.3043096273039216e-08 -0.0012504016652961089 -4.9444916139681123e-08 5.2938671982690071e-08 -0.0010003569140838156 -1.9836406147921195e-08 3.5891151229120346e-08 -0.0012504018085565958 -2.4215321992646635e-08 7.1432366615755265e-08 -0.0012504020744705021 -2.4309672178703076e-08 7.1339981979802767e-08 -0.0010003574788015781 -4.9444916139681123e-08 5.2938671982690071e-08 -0.0010003569140838156 -5.5877523708479198e-08 9.6597808248947702e-08 -0.0010003568776523527 -9.6590565438007875e-08 5.5732516400745831e-08 -0.0012504017282863968 -4.9444916139681123e-08 5.2938671982690071e-08 -0.0010003569140838156 -5.5772327066238367e-08 9.6569168326959201e-08 -0.0012504017062356413 -2.4309672178703076e-08 7.1339981979802767e-08 -0.0010003574788015781 -5.5772327066238367e-08 9.6569168326959201e-08 -0.0012504017062356413 -4.9444916139681123e-08 5.2938671982690071e-08 -0.0010003569140838156 -2.4215321992646638e-08 7.1432366615755265e-08 -0.0012504020744705021 -5.5772327066238367e-08 9.6569168326959201e-08 -0.0012504017062356413 -2.4215321992646638e-08 7.1432366615755265e-08 -0.0012504020744705021 -4.9302724008962614e-08 5.3043096273039216e-08 -0.0012504016652961089 -4.9444916139681123e-08 5.2938671982690071e-08 -0.0010003569140838156 -1.1151590662851563e-07 -1.8733384143610159e-11 -0.0012504015817701201 -9.6590565438007889e-08 5.5732516400745824e-08 -0.0012504017282863966 -5.0406941283454924e-08 5.4698209390546241e-09 -0.0012504013621595454 -5.058473841893275e-08 5.242861887188022e-09 -0.001000356678615331 -9.6687343986130604e-08 5.5731246162716899e-08 -0.001000357303902612 -1.1151590662851563e-07 -1.8733384143610159e-11 -0.0012504015817701201 -5.058473841893275e-08 5.242861887188022e-09 -0.001000356678615331 -9.6590565438007889e-08 5.5732516400745824e-08 -0.0012504017282863966 -9.6687343986130604e-08 5.5731246162716899e-08 -0.001000357303902612 -5.058473841893275e-08 5.242861887188022e-09 -0.001000356678615331 -4.9444916139681123e-08 5.2938671982690071e-08 -0.0010003569140838156 -9.6590565438007889e-08 5.5732516400745824e-08 -0.0012504017282863966 -9.6687343986130604e-08 5.5731246162716899e-08 -0.001000357303902612 -1.1159281550959117e-07 -1.0403387586327378e-10 -0.0010003574466978776 -5.058473841893275e-08 5.242861887188022e-09 -0.001000356678615331 -1.1151590662851563e-07 -1.8733384143610159e-11 -0.0012504015817701201 -5.058473841893275e-08 5.242861887188022e-09 -0.001000356678615331 -1.1159281550959117e-07 -1.0403387586327391e-10 -0.0010003574466978774 -6.6076906879213046e-08 -4.0495158836640968e-08 -0.0010003563514290263 -1.1151590662851563e-07 -1.8733384143610159e-11 -0.0012504015817701201 -1.1159281550959117e-07 -1.0403387586327391e-10 -0.0010003574466978774 -9.656778858156412e-08 -5.5786404216739344e-08 -0.001250400748489072 -6.6076906879213059e-08 -4.0495158836640975e-08 -0.0010003563514290263 -1.1151590662851563e-07 -1.8733384143610159e-11 -0.0012504015817701201 -5.058473841893275e-08 5.242861887188022e-09 -0.001000356678615331 -1.1151590662851563e-07 -1.8733384143605005e-11 -0.0012504015817701201 -6.6076906879213046e-08 -4.0495158836640968e-08 -0.0010003563514290263 -5.0406941283454924e-08 5.4698209390546241e-09 -0.0012504013621595454 -1.1151590662851563e-07 -1.8733384143610159e-11 -0.0012504015817701201 -5.0406941283454924e-08 5.4698209390546241e-09 -0.0012504013621595454 -6.5885528007159063e-08 -4.0339068342221484e-08 -0.0012504009903927195 -6.6076906879213046e-08 -4.0495158836640968e-08 -0.0010003563514290263 -1.5289338250129121e-08 -5.5518931208285041e-08 -0.0010003559737334845 -5.0584738418932743e-08 5.2428618871880295e-09 -0.001000356678615331 -6.6076906879213046e-08 -4.0495158836640968e-08 -0.0010003563514290263 -5.0406941283454917e-08 5.4698209390546241e-09 -0.0012504013621595456 -5.058473841893275e-08 5.242861887188022e-09 -0.001000356678615331 -1.5289338250129121e-08 -5.5518931208285041e-08 -0.0010003559737334845 4.8330779309681484e-09 1.3976210463347713e-09 -0.0010003567326883061 -5.0406941283454924e-08 5.4698209390546241e-09 -0.0012504013621595454 -5.058473841893275e-08 5.242861887188022e-09 -0.001000356678615331 4.8330779309681484e-09 1.3976210463347713e-09 -0.0010003567326883061 -2.0014519181832083e-08 3.5777285639946387e-08 -0.0010003570711503386 -5.0406941283454924e-08 5.4698209390546241e-09 -0.0012504013621595454 -5.058473841893275e-08 5.242861887188022e-09 -0.001000356678615331 -2.0014519181832083e-08 3.5777285639946387e-08 -0.0010003570711503386 -4.9444916139681123e-08 5.2938671982690071e-08 -0.0010003569140838156 -5.0406941283454924e-08 5.4698209390546241e-09 -0.0012504013621595454 -2.0014519181832083e-08 3.5777285639946387e-08 -0.0010003570711503386 -2.4309672178703076e-08 7.1339981979802767e-08 -0.0010003574788015781 -4.9444916139681123e-08 5.2938671982690071e-08 -0.0010003569140838156 -1.9836406147921195e-08 3.5891151229120346e-08 -0.0012504018085565958 -5.0406941283454924e-08 5.4698209390546241e-09 -0.0012504013621595454 -1.9836406147921195e-08 3.5891151229120346e-08 -0.0012504018085565958 -2.0014519181832083e-08 3.5777285639946387e-08 -0.0010003570711503386 -4.9444916139681123e-08 5.2938671982690071e-08 -0.0010003569140838156 -2.4215321992646638e-08 7.1432366615755265e-08 -0.0012504020744705021 -1.9836406147921195e-08 3.5891151229120346e-08 -0.0012504018085565958 -4.9302724008962614e-08 5.3043096273039216e-08 -0.0012504016652961089 -4.9444916139681123e-08 5.2938671982690071e-08 -0.0010003569140838156 -9.6590565438007889e-08 5.5732516400745824e-08 -0.0012504017282863966 -5.0406941283454924e-08 5.4698209390546241e-09 -0.0012504013621595454 -5.058473841893275e-08 5.242861887188022e-09 -0.001000356678615331 -4.9444916139681123e-08 5.2938671982690071e-08 -0.0010003569140838156 -1.9836406147921195e-08 3.5891151229120346e-08 -0.0012504018085565958 -5.0406941283454924e-08 5.4698209390546241e-09 -0.0012504013621595454 -4.9302724008962614e-08 5.3043096273039216e-08 -0.0012504016652961089 -4.9444916139681123e-08 5.2938671982690071e-08 -0.0010003569140838156 -5.0406941283454924e-08 5.4698209390546241e-09 -0.0012504013621595454 -9.6590565438007875e-08 5.5732516400745831e-08 -0.0012504017282863966 -4.9302724008962614e-08 5.3043096273039216e-08 -0.0012504016652961089 -4.9444916139681123e-08 5.2938671982690071e-08 -0.0010003569140838156 -2.0014519181832083e-08 3.5777285639946387e-08 -0.0010003570711503386 9.2472994000144355e-09 5.7058125140384121e-08 -0.0012504026963550097 -2.4309672178703076e-08 7.1339981979802767e-08 -0.0010003574788015779 -1.9836406147921195e-08 3.5891151229120346e-08 -0.0012504018085565958 9.2472994000144355e-09 5.7058125140384121e-08 -0.0012504026963550097 5.0726835920242925e-09 1.5897319272090731e-09 -0.0012504015667910242 -1.9836406147921195e-08 3.5891151229120346e-08 -0.0012504018085565958 -2.0014519181832083e-08 3.5777285639946387e-08 -0.0010003570711503386 5.0726835920242925e-09 1.5897319272090731e-09 -0.0012504015667910242 -5.0406941283454924e-08 5.4698209390546241e-09 -0.0012504013621595454 -1.9836406147921195e-08 3.5891151229120346e-08 -0.0012504018085565958 -2.0014519181832083e-08 3.5777285639946387e-08 -0.0010003570711503386 5.0726835920242925e-09 1.5897319272090731e-09 -0.0012504015667910242 9.2472994000144255e-09 5.7058125140384128e-08 -0.0012504026963550097 9.2253934100905376e-09 5.6953250592781815e-08 -0.0010003584601676395 -2.0014519181832113e-08 3.5777285639946387e-08 -0.0010003570711503386 -1.4918266974946897e-08 -5.535169050256561e-08 -0.0012504008041907518 -5.0406941283454924e-08 5.4698209390546241e-09 -0.0012504013621595454 5.0726835920242925e-09 1.5897319272090731e-09 -0.0012504015667910242 4.8330779309681484e-09 1.3976210463347713e-09 -0.0010003567326883061 -5.0406941283454924e-08 5.4698209390546241e-09 -0.0012504013621595454 5.0726835920242925e-09 1.5897319272090731e-09 -0.0012504015667910242 4.8330779309681476e-09 1.3976210463347442e-09 -0.0010003567326883061 -2.0014519181832083e-08 3.5777285639946387e-08 -0.0010003570711503386 4.8330779309681484e-09 1.3976210463347713e-09 -0.0010003567326883061 -1.49182669749469e-08 -5.5351690502565597e-08 -0.0012504008041907518 2.1347430307841602e-08 -3.654964173803473e-08 -0.0010003563330486217 5.0726835920242925e-09 1.5897319272090731e-09 -0.0012504015667910242 -5.0406941283454924e-08 5.4698209390546241e-09 -0.0012504013621595454 -1.4918266974946897e-08 -5.535169050256561e-08 -0.0012504008041907518 -1.5289338250129151e-08 -5.5518931208285061e-08 -0.0010003559737334843 4.833077930968165e-09 1.3976210463347806e-09 -0.0010003567326883061 5.0726835920242925e-09 1.5897319272090731e-09 -0.0012504015667910242 5.3722393299815503e-08 -2.0305505423046189e-08 -0.0012504022230280184 2.1635598339260896e-08 -3.6325625453500381e-08 -0.001250401309791996 2.1347430307841602e-08 -3.654964173803473e-08 -0.0010003563330486217 5.3722393299815503e-08 -2.0305505423046189e-08 -0.0012504022230280184 5.0726835920242925e-09 1.5897319272090731e-09 -0.0012504015667910242 4.8330779309681327e-09 1.3976210463347432e-09 -0.0010003567326883061 2.1347430307841602e-08 -3.654964173803473e-08 -0.0010003563330486217 4.8330779309681484e-09 1.3976210463347713e-09 -0.0010003567326883061 5.372239329981549e-08 -2.0305505423046163e-08 -0.0012504022230280186 5.5593659619888981e-08 3.182189950782643e-08 -0.0010003598244413823 5.0726835920242925e-09 1.5897319272090731e-09 -0.0012504015667910242 5.3722393299815503e-08 -2.0305505423046189e-08 -0.0012504022230280184 5.0726835920242925e-09 1.5897319272090731e-09 -0.0012504015667910242 5.5733286966741035e-08 3.2028113106352458e-08 -0.0012504037043202802 5.5593659619888981e-08 3.182189950782643e-08 -0.0010003598244413823 9.2472994000144355e-09 5.7058125140384121e-08 -0.0012504026963550097 5.5730752752123321e-08 9.6594808945977782e-08 -0.0012504044217546157 5.5733286966741035e-08 3.2028113106352458e-08 -0.0012504037043202802 5.5593659619888981e-08 3.182189950782643e-08 -0.0010003598244413823 9.2253934100905062e-09 5.6953250592781815e-08 -0.0010003584601676393 5.0726835920242925e-09 1.5897319272090731e-09 -0.0012504015667910242 5.5593659619888981e-08 3.182189950782643e-08 -0.0010003598244413823 9.2472994000144355e-09 5.7058125140384121e-08 -0.0012504026963550097 5.0726835920242925e-09 1.5897319272090731e-09 -0.0012504015667910242 9.2472994000144355e-09 5.7058125140384121e-08 -0.0012504026963550097 5.5733286966741029e-08 3.2028113106352458e-08 -0.00125040370432028 5.5593659619888981e-08 3.182189950782643e-08 -0.0010003598244413823 9.2253934100905062e-09 5.6953250592781815e-08 -0.0010003584601676393 4.8330779309681484e-09 1.3976210463347713e-09 -0.0010003567326883061 5.5593659619888981e-08 3.182189950782643e-08 -0.0010003598244413823 5.0726835920242925e-09 1.5897319272090731e-09 -0.0012504015667910242 4.8330779309681484e-09 1.3976210463347713e-09 -0.0010003567326883061 5.3545427872049114e-08 -2.0497237549765316e-08 -0.0010003576553828369 5.5593659619888981e-08 3.182189950782643e-08 -0.0010003598244413823 5.3722393299815497e-08 -2.0305505423046189e-08 -0.0012504022230280184 5.3545427872049114e-08 -2.0497237549765316e-08 -0.0010003576553828369 4.8330779309681484e-09 1.3976210463347713e-09 -0.0010003567326883061 2.1347430307841602e-08 -3.654964173803473e-08 -0.0010003563330486217 5.3722393299815503e-08 -2.0305505423046189e-08 -0.0012504022230280184 -2.0014519181832083e-08 3.5777285639946387e-08 -0.0010003570711503386 9.2253934100905062e-09 5.6953250592781815e-08 -0.0010003584601676393 -2.4309672178703076e-08 7.1339981979802767e-08 -0.0010003574788015781 9.2472994000144355e-09 5.7058125140384121e-08 -0.0012504026963550097 4.8330779309681484e-09 1.3976210463347713e-09 -0.0010003567326883061 9.2253934100904963e-09 5.6953250592781821e-08 -0.001000358460167639 -2.0014519181832083e-08 3.5777285639946387e-08 -0.0010003570711503386 5.0726835920242925e-09 1.5897319272090731e-09 -0.0012504015667910242 4.8330779309681484e-09 1.3976210463347713e-09 -0.0010003567326883061 9.2253934100904979e-09 5.6953250592781821e-08 -0.0010003584601676393 1.0862878476807203e-08 5.7021338354839929e-08 -0.00075031437062988927 -1.9287126484179223e-08 3.6134909962619599e-08 -0.00075031146659320291 4.8999275754203464e-09 1.844882306603149e-09 -0.00075031121014270709 1.0862878476807161e-08 5.7021338354839942e-08 -0.00075031437062988916 -1.9287126484179193e-08 3.6134909962619599e-08 -0.0007503114665932028 4.8330779309681484e-09 1.3976210463347713e-09 -0.0010003567326883061 -1.9287126484179193e-08 3.6134909962619599e-08 -0.0007503114665932028 1.086287847680717e-08 5.7021338354839936e-08 -0.00075031437062988916 -2.3145552386649789e-08 7.1583044530319944e-08 -0.00075031229235510838 9.2253934100905062e-09 5.6953250592781815e-08 -0.0010003584601676393 4.8330779309681484e-09 1.3976210463347713e-09 -0.0010003567326883061 -5.058473841893275e-08 5.242861887188022e-09 -0.001000356678615331 -2.0014519181832083e-08 3.5777285639946387e-08 -0.0010003570711503386 -1.9287126484179193e-08 3.6134909962619599e-08 -0.0007503114665932028 -1.9287126484179193e-08 3.6134909962619599e-08 -0.0007503114665932028 9.2253934100905062e-09 5.6953250592781815e-08 -0.0010003584601676393 -2.3145552386649789e-08 7.1583044530319944e-08 -0.00075031229235510838 -2.0014519181832083e-08 3.5777285639946387e-08 -0.0010003570711503386 9.2253934100905062e-09 5.6953250592781815e-08 -0.0010003584601676393 4.8330779309681484e-09 1.3976210463347713e-09 -0.0010003567326883061 -2.0014519181832083e-08 3.5777285639946387e-08 -0.0010003570711503386 -1.9287126484179193e-08 3.6134909962619599e-08 -0.0007503114665932028 4.8999275754203464e-09 1.844882306603149e-09 -0.00075031121014270709 -1.5289338250129124e-08 -5.5518931208285028e-08 -0.0010003559737334843 2.0970662509559911e-08 -3.6311582853077838e-08 -0.00075031029128803234 4.8330779309681484e-09 1.3976210463347713e-09 -0.0010003567326883061 -5.058473841893275e-08 5.242861887188022e-09 -0.001000356678615331 -1.5289338250129121e-08 -5.5518931208285041e-08 -0.0010003559737334845 -1.6517136820644571e-08 -5.5253836967539346e-08 -0.0007503107183502827 4.899927575420363e-09 1.8448823066031585e-09 -0.00075031121014270709 -1.5289338250129121e-08 -5.5518931208285041e-08 -0.0010003559737334845 -5.058473841893275e-08 5.242861887188022e-09 -0.001000356678615331 4.8330779309681484e-09 1.3976210463347713e-09 -0.0010003567326883061 4.8999275754203464e-09 1.844882306603149e-09 -0.00075031121014270709 -5.058473841893275e-08 5.242861887188022e-09 -0.001000356678615331 4.8330779309681484e-09 1.3976210463347713e-09 -0.0010003567326883061 4.8999275754203448e-09 1.8448823066031219e-09 -0.00075031121014270709 -1.9287126484179193e-08 3.6134909962619599e-08 -0.0007503114665932028 5.3545427872049114e-08 -2.0497237549765316e-08 -0.0010003576553828369 4.8330779309681484e-09 1.3976210463347713e-09 -0.0010003567326883061 4.8999275754203299e-09 1.8448823066031203e-09 -0.0007503112101427072 2.0970662509559911e-08 -3.6311582853077838e-08 -0.00075031029128803234 5.3656130294179449e-08 -1.9715294870409673e-08 -0.0007503125780091831 4.8999275754203464e-09 1.844882306603149e-09 -0.00075031121014270709 2.0970662509559911e-08 -3.6311582853077838e-08 -0.00075031029128803234 5.3545427872049114e-08 -2.0497237549765316e-08 -0.0010003576553828369 4.8330779309681484e-09 1.3976210463347713e-09 -0.0010003567326883061 5.3545427872049114e-08 -2.0497237549765316e-08 -0.0010003576553828369 2.1347430307841602e-08 -3.654964173803473e-08 -0.0010003563330486217 2.0970662509559911e-08 -3.6311582853077838e-08 -0.00075031029128803234 4.8999275754203464e-09 1.844882306603149e-09 -0.00075031121014270709 5.35454278720491e-08 -2.0497237549765289e-08 -0.0010003576553828367 5.6586038038024302e-08 3.2003142118478156e-08 -0.00075031756059762162 4.8330779309681484e-09 1.3976210463347713e-09 -0.0010003567326883061 4.8999275754203464e-09 1.844882306603149e-09 -0.00075031121014270709 5.3656130294179449e-08 -1.9715294870409673e-08 -0.0007503125780091831 5.6586038038024302e-08 3.2003142118478156e-08 -0.00075031756059762162 5.3545427872049107e-08 -2.0497237549765316e-08 -0.0010003576553828369 5.3545427872049114e-08 -2.0497237549765316e-08 -0.0010003576553828369 4.8330779309681484e-09 1.3976210463347713e-09 -0.0010003567326883061 5.5593659619888981e-08 3.182189950782643e-08 -0.0010003598244413823 5.6586038038024302e-08 3.2003142118478156e-08 -0.00075031756059762162 9.2253934100905062e-09 5.6953250592781815e-08 -0.0010003584601676393 5.575346236524707e-08 9.6682970753030716e-08 -0.001000361058272659 5.5593659619888981e-08 3.182189950782643e-08 -0.0010003598244413823 5.6586038038024302e-08 3.2003142118478156e-08 -0.00075031756059762162 1.086287847680717e-08 5.7021338354839936e-08 -0.00075031437062988916 4.8330779309681484e-09 1.3976210463347713e-09 -0.0010003567326883061 5.6586038038024302e-08 3.2003142118478156e-08 -0.00075031756059762162 9.2253934100905062e-09 5.6953250592781815e-08 -0.0010003584601676393 1.086287847680717e-08 5.7021338354839936e-08 -0.00075031437062988916 4.8999275754203464e-09 1.844882306603149e-09 -0.00075031121014270709 5.6586038038024302e-08 3.2003142118478156e-08 -0.00075031756059762162 4.8330779309681484e-09 1.3976210463347713e-09 -0.0010003567326883061 4.8330779309681484e-09 1.3976210463347713e-09 -0.0010003567326883061 9.2253934100905062e-09 5.6953250592781815e-08 -0.0010003584601676393 5.5593659619888974e-08 3.182189950782643e-08 -0.0010003598244413821 5.6586038038024302e-08 3.2003142118478156e-08 -0.00075031756059762162 1.295398759654781e-08 5.6980037394514489e-08 -0.00050026935424994071 4.8999275754203464e-09 1.844882306603149e-09 -0.00075031121014270709 5.7241954075079322e-08 3.4700908538746761e-08 -0.0005002791968369086 1.086287847680717e-08 5.7021338354839936e-08 -0.00075031437062988916 1.086287847680717e-08 5.7021338354839936e-08 -0.00075031437062988916 5.7202649985615144e-08 9.5787935011161472e-08 -0.00075032104893710781 5.6586038038024302e-08 3.2003142118478156e-08 -0.00075031756059762162 5.7241954075079322e-08 3.4700908538746761e-08 -0.0005002791968369086 4.8999275754203464e-09 1.844882306603149e-09 -0.00075031121014270709 1.086287847680717e-08 5.7021338354839936e-08 -0.00075031437062988916 5.6586038038024295e-08 3.2003142118478162e-08 -0.00075031756059762151 5.7241954075079322e-08 3.4700908538746761e-08 -0.0005002791968369086 5.3656130294179449e-08 -1.9715294870409673e-08 -0.0007503125780091831 4.8999275754203464e-09 1.844882306603149e-09 -0.00075031121014270709 5.2831070948342516e-09 3.3950633257563395e-09 -0.00050026364469961436 2.1892763875788703e-08 -3.3945911302579041e-08 -0.00050025966758235709 4.8999275754203464e-09 1.844882306603149e-09 -0.00075031121014270709 5.3656130294179449e-08 -1.9715294870409673e-08 -0.0007503125780091831 2.0970662509559911e-08 -3.6311582853077838e-08 -0.00075031029128803234 2.1892763875788703e-08 -3.3945911302579041e-08 -0.00050025966758235709 5.2831070948342673e-09 3.3950633257563676e-09 -0.00050026364469961436 5.3656130294179435e-08 -1.9715294870409646e-08 -0.00075031257800918321 5.7241954075079322e-08 3.4700908538746761e-08 -0.0005002791968369086 4.8999275754203464e-09 1.844882306603149e-09 -0.00075031121014270709 5.3656130294179449e-08 -1.9715294870409673e-08 -0.0007503125780091831 4.8999275754203464e-09 1.844882306603149e-09 -0.00075031121014270709 5.6586038038024302e-08 3.2003142118478156e-08 -0.00075031756059762162 5.7241954075079322e-08 3.4700908538746761e-08 -0.0005002791968369086 -5.0693584049314308e-08 5.2366723201512767e-09 -0.0007503117726677137 4.8999275754203464e-09 1.844882306603149e-09 -0.00075031121014270709 5.2831070948342673e-09 3.3950633257563416e-09 -0.00050026364469961436 -1.9839856945236923e-08 3.6181240236455781e-08 -0.00050026202665777084 -1.6517136820644538e-08 -5.5253836967539326e-08 -0.00075031071835028281 -5.0693584049314308e-08 5.2366723201512767e-09 -0.0007503117726677137 4.8999275754203464e-09 1.844882306603149e-09 -0.00075031121014270709 5.2831070948342673e-09 3.3950633257563676e-09 -0.00050026364469961436 -5.0693584049314308e-08 5.2366723201512767e-09 -0.0007503117726677137 -1.6517136820644538e-08 -5.5253836967539326e-08 -0.00075031071835028281 -1.7766786100136444e-08 -5.5699011401393133e-08 -0.00050026420279214966 5.2831070948342847e-09 3.395063325756378e-09 -0.00050026364469961436 5.2831070948342673e-09 3.3950633257563676e-09 -0.00050026364469961436 -1.6517136820644541e-08 -5.5253836967539319e-08 -0.00075031071835028281 2.1892763875788703e-08 -3.3945911302579041e-08 -0.00050025966758235709 4.8999275754203464e-09 1.844882306603149e-09 -0.00075031121014270709 -1.9839856945236923e-08 3.6181240236455781e-08 -0.00050026202665777084 1.086287847680717e-08 5.7021338354839936e-08 -0.00075031437062988916 -2.5385489643388637e-08 6.9256565865689834e-08 -0.00050026405332459316 -1.9287126484179193e-08 3.6134909962619599e-08 -0.0007503114665932028 4.8999275754203464e-09 1.844882306603149e-09 -0.00075031121014270709 -5.0693584049314308e-08 5.2366723201512767e-09 -0.0007503117726677137 -1.9287126484179193e-08 3.6134909962619599e-08 -0.0007503114665932028 -1.9839856945236923e-08 3.6181240236455781e-08 -0.00050026202665777084 4.8999275754203464e-09 1.844882306603149e-09 -0.00075031121014270709 1.086287847680716e-08 5.7021338354839942e-08 -0.00075031437062988916 1.2953987596547847e-08 5.6980037394514489e-08 -0.00050026935424994081 -1.9839856945236959e-08 3.6181240236455781e-08 -0.00050026202665777095 1.086287847680717e-08 5.7021338354839936e-08 -0.00075031437062988916 4.8999275754203464e-09 1.844882306603149e-09 -0.00075031121014270709 -1.9287126484179193e-08 3.6134909962619599e-08 -0.0007503114665932028 -1.9839856945236923e-08 3.6181240236455781e-08 -0.00050026202665777084 -5.0693584049314308e-08 5.2366723201512767e-09 -0.0007503117726677137 -9.5736576528445515e-08 5.7463181003307311e-08 -0.0007503136139100587 -4.8829604520993509e-08 5.3216627905946083e-08 -0.00075031150051725864 -5.128760199112978e-08 5.0047131811659253e-08 -0.00050026321427566701 -2.3145552386649789e-08 7.1583044530319944e-08 -0.00075031229235510838 -1.9287126484179193e-08 3.6134909962619599e-08 -0.0007503114665932028 -4.8829604520993509e-08 5.3216627905946083e-08 -0.00075031150051725864 -5.128760199112978e-08 5.0047131811659253e-08 -0.00050026321427566701 -9.5736576528445528e-08 5.7463181003307304e-08 -0.0007503136139100587 -5.0693584049314308e-08 5.2366723201512767e-09 -0.0007503117726677137 -5.093342649710264e-08 3.0296124666493377e-09 -0.0005002661109843109 -5.128760199112978e-08 5.0047131811659253e-08 -0.00050026321427566701 -5.0693584049314308e-08 5.2366723201512767e-09 -0.0007503117726677137 -1.9287126484179193e-08 3.6134909962619599e-08 -0.0007503114665932028 -1.9839856945236923e-08 3.6181240236455781e-08 -0.00050026202665777084 -5.128760199112978e-08 5.0047131811659253e-08 -0.00050026321427566701 -1.9287126484179193e-08 3.6134909962619599e-08 -0.0007503114665932028 -5.0693584049314308e-08 5.2366723201512767e-09 -0.0007503117726677137 -4.8829604520993509e-08 5.3216627905946083e-08 -0.00075031150051725864 -5.128760199112978e-08 5.0047131811659253e-08 -0.00050026321427566701 -1.1166738648928846e-07 1.9369761567891739e-09 -0.00075031488169101357 -9.5736576528445528e-08 5.7463181003307304e-08 -0.0007503136139100587 -5.0693584049314308e-08 5.2366723201512767e-09 -0.0007503117726677137 -5.093342649710264e-08 3.0296124666493377e-09 -0.0005002661109843109 -1.0131685404601306e-07 4.3159948382704144e-08 -0.00050027161067859585 -1.1166738648928846e-07 1.9369761567891739e-09 -0.00075031488169101357 -5.093342649710264e-08 3.0296124666493377e-09 -0.0005002661109843109 -9.5736576528445528e-08 5.7463181003307304e-08 -0.0007503136139100587 -1.1159281550959117e-07 -1.0403387586327391e-10 -0.0010003574466978774 -9.6687343986130604e-08 5.5731246162716899e-08 -0.001000357303902612 -5.058473841893275e-08 5.242861887188022e-09 -0.001000356678615331 -5.0693584049314308e-08 5.2366723201512767e-09 -0.0007503117726677137 -9.5736576528445528e-08 5.7463181003307304e-08 -0.0007503136139100587 -5.0693584049314308e-08 5.2366723201512767e-09 -0.0007503117726677137 -4.8829604520993509e-08 5.3216627905946083e-08 -0.00075031150051725864 -9.6687343986130604e-08 5.5731246162716899e-08 -0.001000357303902612 -9.5736576528445528e-08 5.7463181003307304e-08 -0.0007503136139100587 -1.1166738648928846e-07 1.9369761567891739e-09 -0.00075031488169101357 -5.0693584049314308e-08 5.2366723201512767e-09 -0.0007503117726677137 -1.1159281550959117e-07 -1.0403387586327391e-10 -0.0010003574466978774 -9.5736576528445528e-08 5.7463181003307304e-08 -0.0007503136139100587 -1.1159281550959117e-07 -1.0403387586327391e-10 -0.0010003574466978774 -5.0693584049314308e-08 5.2366723201512767e-09 -0.0007503117726677137 -9.6687343986130604e-08 5.5731246162716899e-08 -0.001000357303902612 -2.4309672178703076e-08 7.1339981979802767e-08 -0.0010003574788015781 -2.0014519181832083e-08 3.5777285639946387e-08 -0.0010003570711503386 -4.9444916139681123e-08 5.2938671982690071e-08 -0.0010003569140838156 -4.8829604520993509e-08 5.3216627905946083e-08 -0.00075031150051725864 -5.058473841893275e-08 5.242861887188022e-09 -0.001000356678615331 -9.6687343986130591e-08 5.5731246162716905e-08 -0.001000357303902612 -4.9444916139681123e-08 5.2938671982690071e-08 -0.0010003569140838156 -4.8829604520993509e-08 5.3216627905946083e-08 -0.00075031150051725864 -1.9287126484179193e-08 3.6134909962619599e-08 -0.0007503114665932028 -2.3145552386649789e-08 7.1583044530319944e-08 -0.00075031229235510849 -4.8829604520993509e-08 5.3216627905946083e-08 -0.00075031150051725864 -2.0014519181832083e-08 3.5777285639946387e-08 -0.0010003570711503386 -2.0014519181832083e-08 3.5777285639946387e-08 -0.0010003570711503386 -5.058473841893275e-08 5.242861887188022e-09 -0.001000356678615331 -4.9444916139681123e-08 5.2938671982690071e-08 -0.0010003569140838156 -4.8829604520993509e-08 5.3216627905946083e-08 -0.00075031150051725864 -5.0693584049314308e-08 5.2366723201512767e-09 -0.0007503117726677137 -1.9287126484179193e-08 3.6134909962619599e-08 -0.0007503114665932028 -4.8829604520993509e-08 5.3216627905946083e-08 -0.00075031150051725864 -5.058473841893275e-08 5.242861887188022e-09 -0.001000356678615331 -5.058473841893275e-08 5.242861887188022e-09 -0.001000356678615331 -2.0014519181832083e-08 3.5777285639946387e-08 -0.0010003570711503386 -1.9287126484179193e-08 3.6134909962619599e-08 -0.0007503114665932028 -4.8829604520993509e-08 5.3216627905946083e-08 -0.00075031150051725864 -9.6687343986130604e-08 5.5731246162716899e-08 -0.001000357303902612 -5.058473841893275e-08 5.242861887188022e-09 -0.001000356678615331 -5.0693584049314308e-08 5.2366723201512767e-09 -0.0007503117726677137 -4.8829604520993509e-08 5.3216627905946083e-08 -0.00075031150051725864 -5.0693584049314308e-08 5.2366723201512767e-09 -0.0007503117726677137 -1.6517136820644538e-08 -5.5253836967539326e-08 -0.00075031071835028281 4.8999275754203464e-09 1.844882306603149e-09 -0.00075031121014270709 -5.058473841893275e-08 5.242861887188022e-09 -0.001000356678615331 -5.0693584049314308e-08 5.2366723201512767e-09 -0.0007503117726677137 4.8999275754203464e-09 1.844882306603149e-09 -0.00075031121014270709 -1.9287126484179193e-08 3.6134909962619599e-08 -0.0007503114665932028 -5.058473841893275e-08 5.242861887188022e-09 -0.001000356678615331 -1.6517136820644538e-08 -5.5253836967539326e-08 -0.00075031071835028281 -5.0693584049314301e-08 5.2366723201512842e-09 -0.00075031177266771381 -6.6848313532622974e-08 -4.0015649554941751e-08 -0.00075031211999191218 -5.0584738418932743e-08 5.242861887188022e-09 -0.001000356678615331 -1.1166738648928846e-07 1.9369761567891739e-09 -0.00075031488169101357 -9.6570727387548451e-08 -5.5889966731434472e-08 -0.0010003561357269236 -6.6848313532622987e-08 -4.0015649554941758e-08 -0.00075031211999191218 -1.1159281550959117e-07 -1.0403387586327391e-10 -0.0010003574466978774 -1.1159281550959117e-07 -1.0403387586327391e-10 -0.0010003574466978774 -5.058473841893275e-08 5.242861887188022e-09 -0.001000356678615331 -6.6076906879213046e-08 -4.0495158836640968e-08 -0.0010003563514290263 -6.6848313532622974e-08 -4.0015649554941751e-08 -0.00075031211999191218 -5.0693584049314308e-08 5.2366723201512767e-09 -0.0007503117726677137 -1.1166738648928846e-07 1.9369761567891739e-09 -0.00075031488169101357 -6.6848313532622974e-08 -4.0015649554941751e-08 -0.00075031211999191218 -1.1159281550959117e-07 -1.0403387586327391e-10 -0.0010003574466978774 -5.0693584049314308e-08 5.2366723201512767e-09 -0.0007503117726677137 -1.1159281550959117e-07 -1.0403387586326881e-10 -0.0010003574466978776 -6.6848313532622974e-08 -4.0015649554941751e-08 -0.00075031211999191218 -5.058473841893275e-08 5.242861887188022e-09 -0.001000356678615331 -1.0915607961306737e-07 -1.3237494928005211e-08 -0.00050027730816613728 -9.7760355213680764e-08 -5.407357618113813e-08 -0.0007503117912142028 -6.5680675863762936e-08 -4.3491066207275232e-08 -0.0005002689175418499 -1.1166738648928846e-07 1.9369761567891739e-09 -0.00075031488169101357 -5.093342649710264e-08 3.0296124666493377e-09 -0.0005002661109843109 -1.1166738648928846e-07 1.9369761567891793e-09 -0.00075031488169101357 -6.5680675863762923e-08 -4.3491066207275226e-08 -0.0005002689175418499 -5.0693584049314308e-08 5.2366723201512767e-09 -0.0007503117726677137 -1.1166738648928846e-07 1.9369761567891739e-09 -0.00075031488169101357 -5.0693584049314308e-08 5.2366723201512767e-09 -0.0007503117726677137 -6.6848313532622974e-08 -4.0015649554941751e-08 -0.00075031211999191218 -6.5680675863762923e-08 -4.3491066207275226e-08 -0.0005002689175418499 -1.7766786100136411e-08 -5.5699011401393113e-08 -0.00050026420279214976 -5.0693584049314308e-08 5.2366723201512999e-09 -0.0007503117726677137 -6.5680675863762923e-08 -4.3491066207275226e-08 -0.0005002689175418499 -1.6517136820644538e-08 -5.5253836967539326e-08 -0.00075031071835028281 -5.0693584049314308e-08 5.2366723201512767e-09 -0.0007503117726677137 -1.6517136820644538e-08 -5.5253836967539326e-08 -0.00075031071835028281 -6.6848313532622974e-08 -4.0015649554941751e-08 -0.00075031211999191218 -6.5680675863762923e-08 -4.3491066207275226e-08 -0.0005002689175418499 -5.7164073031079612e-08 -9.5799864226560687e-08 -0.00075031337761401835 -1.6517136820644538e-08 -5.5253836967539332e-08 -0.00075031071835028281 -1.7766786100136411e-08 -5.5699011401393113e-08 -0.00050026420279214976 -6.5680675863762923e-08 -4.3491066207275226e-08 -0.0005002689175418499 -1.6517136820644538e-08 -5.5253836967539326e-08 -0.00075031071835028281 -5.7164073031079619e-08 -9.5799864226560687e-08 -0.00075031337761401835 -6.6848313532622974e-08 -4.0015649554941745e-08 -0.00075031211999191207 -6.5680675863762923e-08 -4.3491066207275226e-08 -0.0005002689175418499 -5.7164073031079612e-08 -9.5799864226560687e-08 -0.00075031337761401835 -9.7760355213680804e-08 -5.407357618113817e-08 -0.0007503117912142027 -6.6848313532622974e-08 -4.0015649554941751e-08 -0.00075031211999191218 -6.5680675863762923e-08 -4.3491066207275226e-08 -0.0005002689175418499 -9.7760355213680804e-08 -5.407357618113817e-08 -0.0007503117912142027 -1.1166738648928846e-07 1.9369761567891743e-09 -0.00075031488169101357 -6.6848313532622974e-08 -4.0015649554941751e-08 -0.00075031211999191218 -6.5680675863762923e-08 -4.3491066207275226e-08 -0.0005002689175418499 -8.7978833492531619e-08 -6.630408180023063e-08 -0.00050027017810675496 -5.7164073031079606e-08 -9.5799864226560701e-08 -0.00075031337761401835 -6.5680675863762923e-08 -4.3491066207275226e-08 -0.0005002689175418499 -9.7760355213680804e-08 -5.407357618113817e-08 -0.0007503117912142027 -9.7760355213680804e-08 -5.407357618113817e-08 -0.0007503117912142027 -5.5758591012397878e-08 -9.6683560818037407e-08 -0.0010003564936964834 -6.6848313532622974e-08 -4.0015649554941751e-08 -0.00075031211999191218 -9.6570727387548491e-08 -5.5889966731434492e-08 -0.0010003561357269234 -1.1166738648928846e-07 1.9369761567891739e-09 -0.00075031488169101357 -9.7760355213680804e-08 -5.407357618113817e-08 -0.0007503117912142027 -6.6848313532622974e-08 -4.0015649554941751e-08 -0.00075031211999191218 -9.6570727387548491e-08 -5.5889966731434492e-08 -0.0010003561357269234 -9.6570727387548491e-08 -5.5889966731434492e-08 -0.0010003561357269234 -1.1159281550959117e-07 -1.0403387586327316e-10 -0.0010003574466978774 -6.6076906879213046e-08 -4.0495158836640968e-08 -0.0010003563514290263 -6.6848313532622974e-08 -4.0015649554941751e-08 -0.00075031211999191218 -5.5758591012397884e-08 -9.6683560818037381e-08 -0.0010003564936964836 -9.6570727387548491e-08 -5.5889966731434492e-08 -0.0010003561357269234 -6.6076906879213046e-08 -4.0495158836640968e-08 -0.0010003563514290263 -6.6848313532622974e-08 -4.0015649554941751e-08 -0.00075031211999191218 -1.5289338250129121e-08 -5.5518931208285041e-08 -0.0010003559737334845 -5.5758591012397891e-08 -9.6683560818037381e-08 -0.0010003564936964836 -6.6076906879213046e-08 -4.0495158836640962e-08 -0.0010003563514290261 -6.6848313532622974e-08 -4.0015649554941751e-08 -0.00075031211999191218 -5.058473841893275e-08 5.242861887188022e-09 -0.001000356678615331 -1.5289338250129121e-08 -5.5518931208285041e-08 -0.0010003559737334845 -6.6076906879213046e-08 -4.0495158836640968e-08 -0.0010003563514290263 -6.6848313532622974e-08 -4.0015649554941751e-08 -0.00075031211999191218 -5.5758591012397884e-08 -9.6683560818037381e-08 -0.0010003564936964836 -1.5289338250129121e-08 -5.5518931208285048e-08 -0.0010003559737334848 -1.6517136820644538e-08 -5.5253836967539326e-08 -0.00075031071835028281 -6.6848313532622974e-08 -4.0015649554941751e-08 -0.00075031211999191218 -1.6517136820644538e-08 -5.5253836967539326e-08 -0.00075031071835028281 -5.058473841893275e-08 5.2428618871880435e-09 -0.001000356678615331 -6.6848313532622974e-08 -4.0015649554941751e-08 -0.00075031211999191218 -1.5289338250129121e-08 -5.5518931208285041e-08 -0.0010003559737334845 -5.7164073031079612e-08 -9.5799864226560687e-08 -0.00075031337761401835 -1.6517136820644538e-08 -5.5253836967539326e-08 -0.00075031071835028281 -6.6848313532622974e-08 -4.0015649554941751e-08 -0.00075031211999191218 -5.5758591012397884e-08 -9.6683560818037381e-08 -0.0010003564936964836 -9.7760355213680804e-08 -5.407357618113817e-08 -0.0007503117912142027 -5.7164073031079612e-08 -9.5799864226560687e-08 -0.00075031337761401835 -6.6848313532622974e-08 -4.0015649554941751e-08 -0.00075031211999191218 -5.5758591012397884e-08 -9.6683560818037381e-08 -0.0010003564936964836 -5.7164073031079612e-08 -9.5799864226560687e-08 -0.00075031337761401835 8.8326121503942285e-11 -1.1159734343033763e-07 -0.0010003555537495313 -1.6517136820644538e-08 -5.5253836967539326e-08 -0.00075031071835028281 -5.5758591012397884e-08 -9.6683560818037381e-08 -0.0010003564936964836 -4.4954414699652119e-08 -1.0090934286036472e-07 -0.00050027490220265686 -1.9356544446936477e-09 -1.1164138578145161e-07 -0.00075031021013504068 -1.7766786100136411e-08 -5.5699011401393113e-08 -0.00050026420279214976 -5.7164073031079612e-08 -9.5799864226560687e-08 -0.00075031337761401835 -1.7766786100136411e-08 -5.5699011401393113e-08 -0.00050026420279214976 -1.9356544446936684e-09 -1.1164138578145164e-07 -0.00075031021013504068 2.1579879130084481e-08 -7.3841520774635148e-08 -0.00050026052741975683 -1.6517136820644538e-08 -5.5253836967539326e-08 -0.00075031071835028281 -1.9356544446936573e-09 -1.1164138578145161e-07 -0.00075031021013504057 -5.7164073031079612e-08 -9.5799864226560674e-08 -0.00075031337761401835 -1.6517136820644538e-08 -5.5253836967539326e-08 -0.00075031071835028281 -1.7766786100136408e-08 -5.5699011401393113e-08 -0.00050026420279214966 -1.9356544446936573e-09 -1.1164138578145161e-07 -0.00075031021013504057 -1.6517136820644538e-08 -5.5253836967539326e-08 -0.00075031071835028281 1.9433296828188692e-08 -7.5927926001991136e-08 -0.00075030991599584612 2.1579879130084478e-08 -7.3841520774635161e-08 -0.00050026052741975683 2.1892763875788703e-08 -3.3945911302579041e-08 -0.00050025966758235709 -1.6517136820644515e-08 -5.5253836967539319e-08 -0.00075031071835028281 2.1579879130084481e-08 -7.3841520774635161e-08 -0.00050026052741975683 1.9433296828188692e-08 -7.5927926001991136e-08 -0.00075030991599584612 -1.6517136820644538e-08 -5.5253836967539326e-08 -0.00075031071835028281 4.8999275754203464e-09 1.844882306603149e-09 -0.00075031121014270709 2.0970662509559911e-08 -3.6311582853077838e-08 -0.00075031029128803234 2.1892763875788703e-08 -3.3945911302579041e-08 -0.00050025966758235709 -1.6517136820644538e-08 -5.5253836967539326e-08 -0.00075031071835028281 2.0970662509559911e-08 -3.6311582853077838e-08 -0.00075031029128803234 1.9433296828188692e-08 -7.5927926001991136e-08 -0.00075030991599584612 2.1892763875788703e-08 -3.3945911302579041e-08 -0.00050025966758235709 2.0970662509559911e-08 -3.6311582853077838e-08 -0.00075031029128803234 5.3656130294179455e-08 -1.9715294870409676e-08 -0.0007503125780091831 4.9134885338583516e-08 -5.6863573857196792e-08 -0.00075031049795762025 5.1802801754226026e-08 -5.3004863131506189e-08 -0.0005002608937728836 5.3656130294179449e-08 -1.9715294870409673e-08 -0.0007503125780091831 2.0970662509559915e-08 -3.6311582853077838e-08 -0.00075031029128803223 2.1892763875788703e-08 -3.3945911302579041e-08 -0.00050025966758235709 5.1802801754226026e-08 -5.3004863131506189e-08 -0.0005002608937728836 1.9433296828188692e-08 -7.5927926001991136e-08 -0.00075030991599584612 2.0970662509559911e-08 -3.6311582853077838e-08 -0.00075031029128803234 4.9134885338583516e-08 -5.6863573857196792e-08 -0.00075031049795762025 5.1802801754226026e-08 -5.3004863131506189e-08 -0.0005002608937728836 2.1892763875788703e-08 -3.3945911302579041e-08 -0.00050025966758235709 1.9433296828188692e-08 -7.5927926001991136e-08 -0.00075030991599584612 5.1802801754226026e-08 -5.3004863131506189e-08 -0.0005002608937728836 2.0970662509559911e-08 -3.6311582853077838e-08 -0.00075031029128803234 1.3425209362436635e-08 -1.0927176129660048e-07 -0.00050026529130575736 5.4066157110672818e-08 -9.770482760643547e-08 -0.00075030990449396443 2.1579879130084478e-08 -7.3841520774635161e-08 -0.00050026052741975683 -1.9356544446936573e-09 -1.1164138578145161e-07 -0.00075031021013504057 5.4066157110672805e-08 -9.770482760643547e-08 -0.00075030990449396432 -1.9356544446936602e-09 -1.1164138578145161e-07 -0.00075031021013504057 1.9433296828188692e-08 -7.5927926001991136e-08 -0.00075030991599584612 2.1579879130084478e-08 -7.3841520774635161e-08 -0.00050026052741975683 5.4066157110672805e-08 -9.770482760643547e-08 -0.00075030990449396432 1.9433296828188692e-08 -7.5927926001991136e-08 -0.00075030991599584612 4.9134885338583516e-08 -5.6863573857196792e-08 -0.00075031049795762025 5.1802801754226026e-08 -5.3004863131506189e-08 -0.0005002608937728836 2.1579879130084478e-08 -7.3841520774635161e-08 -0.00050026052741975683 5.4066157110672805e-08 -9.770482760643547e-08 -0.00075030990449396432 5.1802801754226026e-08 -5.3004863131506189e-08 -0.0005002608937728836 1.9433296828188692e-08 -7.5927926001991136e-08 -0.00075030991599584612 5.5895800825811783e-08 -9.658647763685518e-08 -0.0010003559018540824 8.832612150392631e-11 -1.1159734343033763e-07 -0.0010003555537495311 2.0281953562409433e-08 -7.6008972591481473e-08 -0.0010003558095722752 1.9433296828188692e-08 -7.5927926001991136e-08 -0.00075030991599584612 1.9433296828188692e-08 -7.5927926001991136e-08 -0.00075030991599584612 5.4066157110672798e-08 -9.7704827606435483e-08 -0.00075030990449396432 4.9134885338583516e-08 -5.6863573857196792e-08 -0.00075031049795762025 5.5895800825811783e-08 -9.658647763685518e-08 -0.0010003559018540824 1.9433296828188692e-08 -7.5927926001991136e-08 -0.00075030991599584612 5.5895800825811783e-08 -9.658647763685518e-08 -0.0010003559018540824 4.9134885338583516e-08 -5.6863573857196792e-08 -0.00075031049795762036 2.0281953562409433e-08 -7.6008972591481473e-08 -0.0010003558095722752 5.5895800825811783e-08 -9.658647763685518e-08 -0.0010003559018540824 2.0281953562409433e-08 -7.6008972591481473e-08 -0.0010003558095722752 4.9516855799308619e-08 -5.7027694705310678e-08 -0.0010003564377754322 4.9134885338583516e-08 -5.6863573857196792e-08 -0.00075031049795762025 -1.9356544446936573e-09 -1.1164138578145161e-07 -0.00075031021013504057 5.4066157110672812e-08 -9.770482760643547e-08 -0.00075030990449396432 1.9433296828188692e-08 -7.5927926001991136e-08 -0.00075030991599584612 5.5895800825811783e-08 -9.658647763685518e-08 -0.0010003559018540824 -1.9356544446936573e-09 -1.1164138578145161e-07 -0.00075031021013504057 5.5895800825811796e-08 -9.658647763685518e-08 -0.0010003559018540824 1.9433296828188692e-08 -7.5927926001991136e-08 -0.00075030991599584612 8.8326121503929567e-11 -1.1159734343033763e-07 -0.0010003555537495313 2.0970662509559911e-08 -3.6311582853077838e-08 -0.00075031029128803234 2.0281953562409433e-08 -7.6008972591481473e-08 -0.0010003558095722752 4.9134885338583516e-08 -5.6863573857196792e-08 -0.00075031049795762025 2.1347430307841602e-08 -3.654964173803473e-08 -0.0010003563330486217 5.3545427872049114e-08 -2.0497237549765316e-08 -0.0010003576553828369 2.1347430307841605e-08 -3.654964173803473e-08 -0.0010003563330486219 2.0970662509559911e-08 -3.6311582853077838e-08 -0.00075031029128803234 4.9134885338583516e-08 -5.6863573857196792e-08 -0.00075031049795762025 5.3656130294179449e-08 -1.9715294870409673e-08 -0.0007503125780091831 2.0970662509559911e-08 -3.6311582853077844e-08 -0.00075031029128803234 4.9134885338583516e-08 -5.6863573857196792e-08 -0.00075031049795762025 5.3545427872049114e-08 -2.0497237549765316e-08 -0.0010003576553828369 2.1347430307841602e-08 -3.654964173803473e-08 -0.0010003563330486217 5.354542787204912e-08 -2.0497237549765319e-08 -0.0010003576553828369 4.9516855799308619e-08 -5.7027694705310678e-08 -0.0010003564377754322 4.9134885338583516e-08 -5.6863573857196792e-08 -0.00075031049795762025 2.0281953562409433e-08 -7.6008972591481473e-08 -0.0010003558095722752 2.1347430307841602e-08 -3.654964173803473e-08 -0.0010003563330486217 4.9516855799308619e-08 -5.7027694705310678e-08 -0.0010003564377754322 4.9134885338583516e-08 -5.6863573857196792e-08 -0.00075031049795762025 2.0970662509559911e-08 -3.6311582853077838e-08 -0.00075031029128803234 1.9433296828188692e-08 -7.5927926001991136e-08 -0.00075030991599584612 4.9134885338583516e-08 -5.6863573857196792e-08 -0.00075031049795762025 2.0281953562409433e-08 -7.6008972591481473e-08 -0.0010003558095722752 -1.5289338250129121e-08 -5.5518931208285041e-08 -0.0010003559737334845 4.8330779309681484e-09 1.3976210463347713e-09 -0.0010003567326883061 2.1347430307841602e-08 -3.654964173803473e-08 -0.0010003563330486217 2.0970662509559911e-08 -3.6311582853077838e-08 -0.00075031029128803234 4.8999275754203464e-09 1.844882306603149e-09 -0.00075031121014270709 -1.6517136820644538e-08 -5.5253836967539326e-08 -0.00075031071835028281 2.0970662509559911e-08 -3.6311582853077838e-08 -0.00075031029128803234 -1.5289338250129121e-08 -5.5518931208285041e-08 -0.0010003559737334845 -1.5289338250129121e-08 -5.5518931208285041e-08 -0.0010003559737334845 2.1347430307841602e-08 -3.654964173803473e-08 -0.0010003563330486217 2.0281953562409433e-08 -7.6008972591481473e-08 -0.0010003558095722752 2.0970662509559911e-08 -3.6311582853077838e-08 -0.00075031029128803234 2.0970662509559911e-08 -3.6311582853077838e-08 -0.00075031029128803234 -1.6517136820644538e-08 -5.5253836967539326e-08 -0.00075031071835028281 1.9433296828188692e-08 -7.5927926001991136e-08 -0.00075030991599584612 -1.5289338250129121e-08 -5.5518931208285041e-08 -0.0010003559737334845 2.0970662509559911e-08 -3.6311582853077838e-08 -0.00075031029128803234 -1.5289338250129095e-08 -5.5518931208285035e-08 -0.0010003559737334848 1.9433296828188695e-08 -7.5927926001991136e-08 -0.00075030991599584602 2.0281953562409433e-08 -7.6008972591481473e-08 -0.0010003558095722752 8.8326121503929567e-11 -1.1159734343033763e-07 -0.0010003555537495313 -1.5289338250129121e-08 -5.5518931208285041e-08 -0.0010003559737334845 2.0281953562409433e-08 -7.6008972591481473e-08 -0.0010003558095722752 1.9433296828188692e-08 -7.5927926001991136e-08 -0.00075030991599584612 -1.6517136820644538e-08 -5.5253836967539326e-08 -0.00075031071835028281 -1.9356544446936573e-09 -1.1164138578145161e-07 -0.00075031021013504057 1.9433296828188692e-08 -7.5927926001991136e-08 -0.00075030991599584612 8.832612150393011e-11 -1.1159734343033763e-07 -0.0010003555537495313 -1.6517136820644538e-08 -5.5253836967539326e-08 -0.00075031071835028281 8.8326121503920688e-11 -1.1159734343033766e-07 -0.0010003555537495313 1.9433296828188692e-08 -7.5927926001991123e-08 -0.00075030991599584612 -1.5289338250129121e-08 -5.5518931208285041e-08 -0.0010003559737334845 -5.7164073031079612e-08 -9.5799864226560687e-08 -0.00075031337761401835 -1.935654444693654e-09 -1.116413857814516e-07 -0.00075031021013504057 -1.6517136820644538e-08 -5.5253836967539326e-08 -0.00075031071835028281 8.832612150393011e-11 -1.1159734343033763e-07 -0.0010003555537495313 8.8326121503929567e-11 -1.1159734343033763e-07 -0.0010003555537495313 -5.5758591012397884e-08 -9.6683560818037368e-08 -0.0010003564936964836 -1.5289338250129121e-08 -5.5518931208285041e-08 -0.0010003559737334845 -1.6517136820644534e-08 -5.5253836967539326e-08 -0.00075031071835028281 -1.5289338250129121e-08 -5.5518931208285041e-08 -0.0010003559737334845 8.8326121503929567e-11 -1.1159734343033763e-07 -0.0010003555537495313 2.0281953562409433e-08 -7.6008972591481473e-08 -0.0010003558095722752 4.692699112754782e-11 -1.1151537195740637e-07 -0.0012504004345500683 -5.5758591012397884e-08 -9.6683560818037381e-08 -0.0010003564936964836 8.8326121503932437e-11 -1.1159734343033762e-07 -0.0010003555537495313 -1.5289338250129121e-08 -5.5518931208285041e-08 -0.0010003559737334845 4.692699112754782e-11 -1.1151537195740637e-07 -0.0012504004345500683 2.1347430307841602e-08 -3.654964173803473e-08 -0.0010003563330486217 -1.5289338250129121e-08 -5.5518931208285041e-08 -0.0010003559737334845 2.0281953562409433e-08 -7.6008972591481473e-08 -0.0010003558095722752 -1.4918266974946897e-08 -5.535169050256561e-08 -0.0012504008041907518 4.8330779309681484e-09 1.3976210463347713e-09 -0.0010003567326883061 -1.5289338250129121e-08 -5.5518931208285041e-08 -0.0010003559737334845 2.1347430307841602e-08 -3.654964173803473e-08 -0.0010003563330486217 -1.4918266974946897e-08 -5.535169050256561e-08 -0.0012504008041907518 5.3545427872049114e-08 -2.0497237549765316e-08 -0.0010003576553828369 2.1347430307841602e-08 -3.6549641738034737e-08 -0.0010003563330486217 4.9516855799308619e-08 -5.7027694705310678e-08 -0.0010003564377754322 5.3722393299815503e-08 -2.0305505423046189e-08 -0.0012504022230280184 2.1347430307841602e-08 -3.654964173803473e-08 -0.0010003563330486217 2.0281953562409433e-08 -7.6008972591481473e-08 -0.0010003558095722752 4.9516855799308619e-08 -5.7027694705310678e-08 -0.0010003564377754322 2.0549725908689009e-08 -7.5811620893480954e-08 -0.0012504007877723428 2.0281953562409433e-08 -7.6008972591481473e-08 -0.0010003558095722752 5.5895800825811776e-08 -9.6586477636855193e-08 -0.0010003559018540824 4.9516855799308619e-08 -5.7027694705310678e-08 -0.0010003564377754322 5.5804037500003552e-08 -9.6552595104235495e-08 -0.0012504009367233391 8.8326121503929567e-11 -1.1159734343033763e-07 -0.0010003555537495313 5.589580082581179e-08 -9.658647763685518e-08 -0.0010003559018540824 2.0281953562409433e-08 -7.6008972591481473e-08 -0.0010003558095722752 5.5804037500003552e-08 -9.6552595104235495e-08 -0.0012504009367233391 5.5804037500003552e-08 -9.6552595104235495e-08 -0.0012504009367233391 2.0549725908689009e-08 -7.5811620893480954e-08 -0.0012504007877723428 4.9741372040584427e-08 -5.6809375062194062e-08 -0.0012504013661130556 4.9516855799308619e-08 -5.7027694705310678e-08 -0.0010003564377754322 2.0281953562409433e-08 -7.6008972591481473e-08 -0.0010003558095722752 5.5804037500003552e-08 -9.6552595104235495e-08 -0.0012504009367233391 4.9516855799308619e-08 -5.7027694705310678e-08 -0.0010003564377754322 2.0549725908689009e-08 -7.5811620893480954e-08 -0.0012504007877723428 5.5804037500003552e-08 -9.6552595104235495e-08 -0.0012504009367233391 4.6926991127544673e-11 -1.1151537195740637e-07 -0.0012504004345500683 2.0549725908689009e-08 -7.5811620893480954e-08 -0.0012504007877723428 2.0281953562409433e-08 -7.6008972591481473e-08 -0.0010003558095722752 8.8326121503929567e-11 -1.1159734343033763e-07 -0.0010003555537495313 5.5804037500003565e-08 -9.6552595104235495e-08 -0.0012504009367233391 2.0281953562409433e-08 -7.6008972591481473e-08 -0.0010003558095722752 4.6926991127547833e-11 -1.1151537195740637e-07 -0.0012504004345500683 2.0549725908689009e-08 -7.5811620893480954e-08 -0.0012504007877723428 2.1635598339260896e-08 -3.6325625453500381e-08 -0.001250401309791996 4.9741372040584427e-08 -5.6809375062194062e-08 -0.0012504013661130556 4.9516855799308619e-08 -5.7027694705310678e-08 -0.0010003564377754322 2.1347430307841602e-08 -3.654964173803473e-08 -0.0010003563330486217 2.0549725908689009e-08 -7.5811620893480954e-08 -0.0012504007877723428 4.9516855799308619e-08 -5.7027694705310678e-08 -0.0010003564377754322 2.1635598339260896e-08 -3.6325625453500381e-08 -0.001250401309791996 2.1635598339260896e-08 -3.6325625453500381e-08 -0.001250401309791996 5.372239329981551e-08 -2.0305505423046193e-08 -0.0012504022230280184 4.9741372040584427e-08 -5.6809375062194062e-08 -0.0012504013661130556 4.9516855799308619e-08 -5.7027694705310678e-08 -0.0010003564377754322 5.3722393299815503e-08 -2.0305505423046189e-08 -0.0012504022230280184 2.1635598339260899e-08 -3.6325625453500381e-08 -0.001250401309791996 2.1347430307841602e-08 -3.654964173803473e-08 -0.0010003563330486217 4.9516855799308619e-08 -5.7027694705310678e-08 -0.0010003564377754322 2.1347430307841602e-08 -3.654964173803473e-08 -0.0010003563330486217 -1.4918266974946874e-08 -5.5351690502565604e-08 -0.0012504008041907518 2.0281953562409436e-08 -7.6008972591481473e-08 -0.0010003558095722752 2.0549725908689009e-08 -7.5811620893480954e-08 -0.0012504007877723428 -1.4918266974946897e-08 -5.535169050256561e-08 -0.0012504008041907518 2.1635598339260896e-08 -3.6325625453500381e-08 -0.001250401309791996 2.0549725908689009e-08 -7.5811620893480954e-08 -0.0012504007877723428 2.1347430307841602e-08 -3.654964173803473e-08 -0.0010003563330486217 -1.4918266974946897e-08 -5.535169050256561e-08 -0.0012504008041907518 5.0726835920242925e-09 1.5897319272090731e-09 -0.0012504015667910242 2.1635598339260896e-08 -3.6325625453500381e-08 -0.001250401309791996 2.1347430307841602e-08 -3.654964173803473e-08 -0.0010003563330486217 4.6926991127547833e-11 -1.1151537195740637e-07 -0.0012504004345500683 -5.5721791147669736e-08 -9.6597417202074842e-08 -0.0012504008079567109 -1.4918266974946897e-08 -5.535169050256561e-08 -0.0012504008041907518 -1.5289338250129118e-08 -5.5518931208285041e-08 -0.0010003559737334845 -1.5289338250129121e-08 -5.5518931208285041e-08 -0.0010003559737334845 4.6926991127538909e-11 -1.1151537195740639e-07 -0.0012504004345500685 2.0281953562409433e-08 -7.600897259148146e-08 -0.0010003558095722752 -1.4918266974946897e-08 -5.535169050256561e-08 -0.0012504008041907518 4.6926991127547833e-11 -1.1151537195740637e-07 -0.0012504004345500683 -1.4918266974946897e-08 -5.535169050256561e-08 -0.0012504008041907518 2.0549725908689009e-08 -7.5811620893480954e-08 -0.0012504007877723428 2.0281953562409433e-08 -7.6008972591481473e-08 -0.0010003558095722752 -5.5758591012397884e-08 -9.6683560818037381e-08 -0.0010003564936964836 4.6926991127560228e-11 -1.1151537195740637e-07 -0.0012504004345500683 -1.5289338250129121e-08 -5.5518931208285041e-08 -0.0010003559737334845 -5.5721791147669736e-08 -9.6597417202074856e-08 -0.0012504008079567109 -5.5758591012397884e-08 -9.6683560818037381e-08 -0.0010003564936964836 -1.5289338250129121e-08 -5.5518931208285041e-08 -0.0010003559737334845 -6.6076906879213046e-08 -4.0495158836640968e-08 -0.0010003563514290263 -5.5721791147669736e-08 -9.6597417202074856e-08 -0.0012504008079567109 -9.6570727387548491e-08 -5.5889966731434492e-08 -0.0010003561357269234 -5.5758591012397884e-08 -9.6683560818037381e-08 -0.0010003564936964836 -6.6076906879213046e-08 -4.0495158836640968e-08 -0.0010003563514290263 -5.5721791147669736e-08 -9.6597417202074856e-08 -0.0012504008079567109 -5.5721791147669736e-08 -9.6597417202074856e-08 -0.0012504008079567109 -1.4918266974946897e-08 -5.5351690502565617e-08 -0.001250400804190752 -1.5289338250129121e-08 -5.5518931208285041e-08 -0.0010003559737334845 -6.6076906879213046e-08 -4.0495158836640968e-08 -0.0010003563514290263 -1.4918266974946897e-08 -5.535169050256561e-08 -0.0012504008041907518 -5.5721791147669743e-08 -9.6597417202074856e-08 -0.0012504008079567109 -6.5885528007159063e-08 -4.0339068342221477e-08 -0.0012504009903927193 -6.6076906879213046e-08 -4.0495158836640968e-08 -0.0010003563514290263 -1.5289338250129121e-08 -5.5518931208285041e-08 -0.0010003559737334845 -5.0406941283454924e-08 5.4698209390546456e-09 -0.0012504013621595454 -6.6076906879213046e-08 -4.0495158836640968e-08 -0.0010003563514290263 -1.4918266974946897e-08 -5.535169050256561e-08 -0.0012504008041907518 -5.0406941283454924e-08 5.4698209390546241e-09 -0.0012504013621595454 -1.4918266974946897e-08 -5.535169050256561e-08 -0.0012504008041907518 -6.5885528007159063e-08 -4.0339068342221484e-08 -0.0012504009903927195 -6.6076906879213046e-08 -4.0495158836640968e-08 -0.0010003563514290263 -9.6567788581564159e-08 -5.5786404216739363e-08 -0.001250400748489072 -1.1151590662851563e-07 -1.87333841436094e-11 -0.0012504015817701201 -6.5885528007159063e-08 -4.0339068342221484e-08 -0.0012504009903927195 -6.6076906879213046e-08 -4.0495158836640968e-08 -0.0010003563514290263 -5.5721791147669736e-08 -9.6597417202074856e-08 -0.0012504008079567109 -9.6567788581564159e-08 -5.5786404216739363e-08 -0.001250400748489072 -6.5885528007159063e-08 -4.0339068342221484e-08 -0.0012504009903927195 -6.6076906879213046e-08 -4.0495158836640968e-08 -0.0010003563514290263 -9.6570727387548491e-08 -5.5889966731434492e-08 -0.0010003561357269234 -5.5721791147669729e-08 -9.6597417202074882e-08 -0.0012504008079567107 -6.6076906879213046e-08 -4.0495158836640968e-08 -0.0010003563514290263 -9.6567788581564159e-08 -5.5786404216739363e-08 -0.001250400748489072 -1.1159281550959117e-07 -1.0403387586327391e-10 -0.0010003574466978774 -9.6570727387548491e-08 -5.5889966731434492e-08 -0.0010003561357269234 -6.6076906879213046e-08 -4.0495158836640968e-08 -0.0010003563514290263 -9.6567788581564159e-08 -5.5786404216739363e-08 -0.001250400748489072 
</DataArray>
</PointData>
<CellData Scalars="" Vectors="" Tensors="stress,">
<DataArray type="Float64" Name="stress" NumberOfComponents="9" format="ascii">
-3329.2823796154048 -0.15912065640596001 -1.2977976971124008 -0.15912065640596001 -3329.8114867584186 -0.79591295739851375 -1.2977976971124008 -0.79591295739851375 -9999.51942725154 -3329.4169021306202 -0.077296694564720048 -1.5427810294086157 -0.077296694564720048 -3329.988453992079 -0.29985328165457759 -1.5427810294086157 -0.29985328165457759 -9999.5972996887576 -3327.6844985464973 1.5863930416599781 -2.7499549050930909 1.5863930416599781 -3327.2684181293525 -1.1688175207823406 -2.7499549050930909 -1.1688175207823406 -10001.237089202443 -3328.1540775256931 1.6881738932745345 -2.1790744692181674 1.6881738932745345 -3330.5932364077626 -2.3247768313838737 -2.1790744692181674 -2.3247768313838737 -10002.185688516844 -3334.212935177145 -0.35681596479029981 -1.081500932496283 -0.35681596479029981 -3330.7240088759127 -1.1839591156040115 -1.081500932496283 -1.1839591156040115 -9999.6008038432155 -3332.8728622880776 1.4996057043791298 -0.72016423302022536 1.4996057043791298 -3331.4226014605747 0.031480488199868262 -0.72016423302022536 0.031480488199868262 -9999.4404337671149 -3330.5108361640209 0.047802212387376863 -1.1544093138127209 0.047802212387376863 -3330.6192231377972 -0.3624635363280504 -1.1544093138127209 -0.3624635363280504 -10000.028475483537 -3330.2286276394789 0.22844344821676255 -1.1126231253524566 0.22844344821676255 -3330.0857013493669 -0.22190602191358266 -1.1126231253524566 -0.22190602191358266 -9999.8245429052949 -3329.8099454638386 -0.48514664970057431 -0.60061667831496379 -0.48514664970057431 -3328.2210081748344 -0.51464771935434328 -0.60061667831496379 -0.51464771935434328 -9998.1950988281205 -3333.2041554325706 0.96178589342095078 -1.2825828539679369 0.96178589342095078 -3330.6145283767983 0.16731845690858371 -1.2825828539679369 0.16731845690858371 -9999.6420313707949 -3327.0370198030996 2.0301850329299755 -3.5400975341192824 2.0301850329299755 -3328.2188290700046 -0.24175709763139475 -3.5400975341192824 -0.24175709763139475 -9997.5013226367282 -3331.3424277506815 0.19320616323780002 0.0058775825160677364 0.19320616323780002 -3330.1445729416932 -1.3277556117061815 0.0058775825160677364 -1.3277556117061815 -9999.9874053431067 -3333.0446726172813 0.69269229905640928 2.364652873220213 0.69269229905640928 -3330.2350388454461 -0.69572367280833913 2.364652873220213 -0.69572367280833913 -10000.435583035696 -3331.675441505035 1.1947538862358882 3.033302533985534 1.1947538862358882 -3328.8257843411911 0.17727753311373817 3.033302533985534 0.17727753311373817 -9998.4918742915088 -3332.74701083645 -0.48942866067051394 3.4766831325838057 -0.48942866067051394 -3333.0356032668205 -1.7513752021831026 3.4766831325838057 -1.7513752021831026 -9999.812221355769 -3333.6837306559105 0.03526760831447931 2.740125055585386 0.03526760831447931 -3335.0089186561017 -0.33052075674264092 2.740125055585386 -0.33052075674264092 -10000.539730157954 -3332.1820905457885 -0.94345950211502427 0.79433861736379185 -0.94345950211502427 -3335.3225685832763 -0.78818329954998489 0.79433861736379185 -0.78818329954998489 -10003.511374462531 -3333.780424971661 1.942251343836277 -0.49795382158821011 1.942251343836277 -3334.9813711597722 -0.12111246245991802 -0.49795382158821011 -0.12111246245991802 -10004.49998085203 -3335.5686838933266 0.55480998217827826 -1.1830438742603162 0.55480998217827826 -3334.9141474110193 -2.1335481705924879 -1.1830438742603162 -2.1335481705924879 -10001.957846218933 -3334.8822489247214 1.7137485169468307 -0.64080939190853314 1.7137485169468307 -3332.4743767346126 -0.31901747005031211 -0.64080939190853314 -0.31901747005031211 -10004.148688234001 -3336.4523834969145 0.47296398489420571 -0.40598060000434577 0.47296398489420571 -3336.8290368835324 -0.76118958343010856 -0.40598060000434577 -0.76118958343010856 -10004.955564775377 -3332.1246969926838 -1.7926551507122033 -0.67882612373618101 -1.7926551507122033 -3330.5369838970551 -0.39866199156543791 -0.67882612373618101 -0.39866199156543791 -10001.372076003323 -3327.3992242886275 -1.7844101118942 -1.2307144028518451 -1.7844101118942 -3325.9445716142768 1.3800625915937417 -1.2307144028518451 1.3800625915937417 -9997.9516041457391 -3330.693683060244 -0.96645887295152721 0.019033355868959934 -0.96645887295152721 -3327.7977049626388 0.81006609427037013 0.019033355868959934 0.81006609427037013 -10000.329502786608 -3333.0861331043043 -1.4610849735059823 -0.18056567324356365 -1.4610849735059823 -3331.6671775262998 -1.1084801506567601 -0.18056567324356365 -1.1084801506567601 -10002.823537337918 -3330.3498431206972 0.11871279440229865 0.010393720851880062 0.11871279440229865 -3329.549992292702 -0.77772877499592141 0.010393720851880062 -0.77772877499592141 -10001.610168533616 -3330.5051706356408 0.04888920110718642 0.4399152336914085 0.04888920110718642 -3329.5609136749435 -0.91968717244799336 0.4399152336914085 -0.91968717244799336 -10001.737704521091 -3330.6507812399432 0.21853776315226014 0.29553641361690097 0.21853776315226014 -3330.4459112245891 -1.2215903943879312 0.29553641361690097 -1.2215903943879312 -10001.995356559579 -3330.6480283378105 0.18361863250063015 0.47473655549492833 0.18361863250063015 -3330.8160974896618 -0.9733354235855245 0.47473655549492833 -0.9733354235855245 -10002.087214900313 -3330.6734661088917 0.083273247698770758 0.62414580764652783 0.083273247698770758 -3330.9755452886352 -0.34746477062435588 0.62414580764652783 -0.34746477062435588 -10002.721784668549 -3330.6465207649862 0.058601115616442545 0.73565650830369123 0.058601115616442545 -3331.1237475390294 -0.56257404671396216 0.73565650830369123 -0.56257404671396216 -10002.752098895171 -3329.9499287979015 0.3452796815924386 0.60287933564086416 0.3452796815924386 -3329.942417652524 -1.119800504140585 0.60287933564086416 -1.119800504140585 -10001.608296292872 -3329.5324697403848 0.076420597599712564 -0.041949873422936435 0.076420597599712564 -3329.0702535829164 -0.64673387200582511 -0.041949873422936435 -0.64673387200582511 -9998.0172486607753 -3329.2403802446365 0.3452796815924386 1.4774222863479736 0.3452796815924386 -3329.232869099259 0.46220780442445175 1.4774222863479736 0.46220780442445175 -9999.4796506330749 -3330.8129607000405 -0.23185134206254676 0.47748995949041273 -0.23185134206254676 -3330.7429241797613 0.187338968100903 0.47748995949041273 0.187338968100903 -10000.847694244694 -3331.1156208787534 -0.71674543529322599 0.87515677291776228 -0.71674543529322599 -3331.0302399896705 0.10807315683268826 0.87515677291776228 0.10807315683268826 -10000.487201453965 -3330.5086873827722 -0.16473746854030835 0.46922453024217248 -0.16473746854030835 -3330.4635147692088 -0.00069606057331839111 0.46922453024217248 -0.00069606057331839111 -10000.193786774849 -3330.1303779272457 0.076420597599712481 1.329866861524124 0.076420597599712481 -3329.6681617697773 0.42267044721575076 1.329866861524124 0.42267044721575076 -9999.8109732213579 -3329.7030025320619 0.058601115616442545 0.94496961953973369 0.058601115616442545 -3330.180229306105 -0.17925892124640086 0.94496961953973369 -0.17925892124640086 -9999.9215441964006 -3329.6202063889041 0.45678568249547369 0.51111056564332102 0.45678568249547369 -3330.1534537565526 0.24557156632488386 0.51111056564332102 0.24557156632488386 -10000.402138061105 -3330.4502488617231 0.097781595644832686 0.2568767083248531 0.097781595644832686 -3330.5454959550912 0.081102610736706993 0.2568767083248531 0.081102610736706993 -10000.842605523696 -3329.7299478759669 0.083273247698770314 0.83345891888257029 0.083273247698770314 -3330.0320270557104 0.035850354843205423 0.83345891888257029 0.035850354843205423 -9999.8912299697731 -3330.3777209151672 0.050598977503936715 0.2292815228274776 0.050598977503936715 -3330.5330038336201 0.1343349941798806 0.2292815228274776 0.1343349941798806 -10000.821350506689 -3330.4428165986428 0.030279897030617065 0.094244779742439277 0.030279897030617065 -3330.4741164827074 0.13142925302418007 0.094244779742439277 0.13142925302418007 -10000.586383981434 -3330.0735161254242 0.21853776315225992 -0.33851997843430581 0.21853776315225992 -3329.8686461100701 0.013743787873863766 -0.33851997843430581 0.013743787873863766 -10000.263561216021 -3330.5433735660135 0.072880614977753777 -0.076187300681340275 0.072880614977753777 -3329.9760236632583 0.20130288342534186 -0.076187300681340275 0.20130288342534186 -10000.723518626815 -3331.065296046716 -0.22618743382730944 -0.11887560819832288 -0.22618743382730944 -3330.7452846889064 0.14216462368494831 -0.11887560819832288 0.14216462368494831 -10001.046314503399 -3330.1430441703296 0.18361863250062971 0.17588847827300924 0.18361863250062971 -3330.311113322181 0.25311030246430732 0.17588847827300924 0.25311030246430732 -10000.572262397871 -3330.4243375334959 0.037189841790275402 0.18102427059056936 0.037189841790275402 -3330.4846032967494 0.25164924694570345 0.18102427059056936 0.25164924694570345 -10000.584385918657 -3329.7274778444016 0.11871279440229865 0.6400138118351606 0.11871279440229865 -3328.9276270164064 1.1982342988758319 0.6400138118351606 1.1982342988758319 -9999.7430727047285 -3330.545927576045 -0.21456831299117385 0.38891853667973919 -0.21456831299117385 -3330.7728592641897 0.23847570289581199 0.38891853667973919 0.23847570289581199 -10000.788419734803 -3331.0062745721461 0.87871949287723083 0.76116996271775861 0.87871949287723083 -3330.1568139552064 0.87573627622623462 0.76116996271775861 0.87573627622623462 -10000.15211042894 -3329.9523931988815 0.12810892437529087 0.29310385386725102 0.12810892437529087 -3331.0819536467843 0.072519802697570412 0.29310385386725102 0.072519802697570412 -10000.717309736159 -3329.8484158540737 0.04888920110718642 0.41176805869326927 0.04888920110718642 -3328.9041588933765 0.80290105435051373 0.41176805869326927 0.80290105435051373 -9999.7674401763888 -3330.224488649917 -0.052442581956374079 0.1866278942916324 -0.052442581956374079 -3330.6738400033305 0.243015898293379 0.1866278942916324 0.243015898293379 -10000.581732874405 -3330.3407465075097 -0.21456831299117418 -0.13158861083957163 -0.21456831299117418 -3330.5676781956545 -0.029555609895396628 -0.13158861083957163 -0.029555609895396628 -10000.172876529195 -3330.0599365068401 -0.052442581956374301 -0.1833519270967372 -0.052442581956374301 -3330.5092878602536 -0.11921230440566433 -0.1833519270967372 -0.11921230440566433 -10000.088076445176 -3330.2733249302501 0.03718984179027518 -0.052930550444216351 0.03718984179027518 -3330.3335906935035 -0.0076987613467167648 -0.052930550444216351 -0.0076987613467167648 -10000.131348108916 -3330.2618820905673 0.030279897030616842 -0.12550422828644514 0.030279897030616842 -3330.2931819746318 -0.15398467383238312 -0.12550422828644514 -0.15398467383238312 -10000.043580457208 -3330.0937939624764 0.050598977503936271 0.11938646094677097 0.050598977503936271 -3330.2490768809294 0.023198796036012936 0.11938646094677097 0.023198796036012936 -9999.9695696486197 -3330.1663219090333 0.097781595644832908 0.14698164644323697 0.097781595644832908 -3330.2615690024013 -0.030033587408070161 0.14698164644323697 -0.030033587408070161 -9999.9908246656232 -3330.4606439451391 -0.16473746854030846 -0.034115051056687662 -0.16473746854030846 -3330.4154713315756 0.031559205237499555 -0.034115051056687662 0.031559205237499555 -10000.049656461953 -3330.5617225472524 -0.23185134206254698 -0.083182607744674897 -0.23185134206254698 -3330.4916860269732 0.018411592952816136 -0.083182607744674897 0.018411592952816136 -10000.093979786332 -3330.5716151459492 -0.12683969715686161 -0.045581163892165932 -0.12683969715686161 -3330.2842667379546 0.18476276604724262 -0.045581163892165932 0.18476276604724262 -9999.8298175163582 -3330.6609953060715 -0.0013083628293665273 -0.17238922104661469 -0.0013083628293665273 -3330.2500924205715 0.16178436561494891 -0.17238922104661469 0.16178436561494891 -9999.8436189770437 -3329.9654170593908 0.36593783962672011 1.0007291165384231 0.36593783962672011 -3330.5653037448201 0.19068634063387435 1.0007291165384231 0.19068634063387435 -9999.461658669632 -3330.0618347636773 0.22844344821676271 1.0824865473541649 0.22844344821676271 -3329.9189084735654 0.10892890974673719 1.0824865473541649 0.10892890974673719 -9999.3241642778903 -3329.2501092548177 -0.077296694564719826 0.65232864329846052 -0.077296694564719826 -3329.8216611162766 0.030981650006651762 0.65232864329846052 0.030981650006651762 -9999.096921061353 -3330.4381976293525 0.059665910932313104 0.33859289651627478 0.059665910932313104 -3330.3369845579264 -0.24548759988465463 0.33859289651627478 -0.24548759988465463 -9999.8284402961053 -3330.5791342275097 -0.12683969715686172 0.36586176886885369 -0.12683969715686172 -3330.2917858195151 -0.15376243757145858 0.36586176886885369 -0.15376243757145858 -9999.8523747610398 -3330.6479747844132 -0.28540509856290647 0.5437102195605803 -0.28540509856290647 -3329.8415568461169 -0.075181749957209831 0.5437102195605803 -0.075181749957209831 -10000.073119144492 -3330.9960820531319 -0.31569494139232568 0.58966718564988696 -0.31569494139232568 -3331.1227802361354 0.079405140158996801 0.58966718564988696 0.079405140158996801 -10000.480451809177 -3330.6685143876316 -0.0013083628293666383 0.23905371171349543 -0.0013083628293666383 -3330.2576115021316 -0.17674083800375229 0.23905371171349543 -0.17674083800375229 -9999.8661762217253 -3329.6275759409136 0.0042386820607603903 0.58485429479469531 0.0042386820607603903 -3331.2920446299645 -0.54164067081455869 0.58485429479469531 -0.54164067081455869 -9999.884153461895 -3330.7855907844341 0.069819437420313379 0.33077898877309053 0.069819437420313379 -3330.4128719127866 -0.36247270297462819 0.33077898877309053 -0.36247270297462819 -9999.9342604235881 -3329.2456946798425 -0.15912065640595996 0.75932986210318631 -0.15912065640595996 -3329.7748018228563 -0.89493120912743507 0.75932986210318631 -0.89493120912743507 -9999.4093724448503 -3330.8199076506899 0.069819437420313379 -0.048288789186699432 0.069819437420313379 -3330.4471887790423 0.070999527114508965 -0.048288789186699432 0.070999527114508965 -10000.037211022358 -3330.2975138022184 0.12669543597017924 0.042696436379628722 0.12669543597017924 -3330.3097122352874 0.024665326881404326 0.042696436379628722 0.024665326881404326 -10000.007195956136 -3330.526495508343 0.059665910932313215 0.093143307476566406 0.059665910932313215 -3330.4252824369169 0.05433868666386843 0.093143307476566406 0.05433868666386843 -10000.093333933077 -3330.3141995033411 0.082194979072145791 0.048869832505943123 0.082194979072145791 -3330.3323825862508 0.10401391797677206 0.048869832505943123 0.10401391797677206 -10000.017034969158 -3330.4195786201553 0.17185935157291776 0.13077730081545269 0.17185935157291776 -3330.4210128862251 0.20251093672050047 0.13077730081545269 0.20251093672050047 -9999.7959320391346 -3330.4391228548511 0.17185935157291782 0.41290888084017752 0.17185935157291782 -3330.4405571209209 -0.27021416624484118 0.41290888084017752 -0.27021416624484118 -9999.8545647432275 -3329.618811450825 -0.37583239192158668 0.72963001524311721 -0.37583239192158668 -3329.8676120803343 -0.74186625075071788 0.72963001524311721 -0.74186625075071788 -9999.1131189330208 -3330.8440644110287 0.48704635424234588 0.1965999998674306 0.48704635424234588 -3331.1749024916112 0.067721861738391453 0.1965999998674306 0.067721861738391453 -10000.491308004079 -3330.9401490909599 -1.0327216749664538 0.63078434480121359 -1.0327216749664538 -3331.1462848531414 -0.85290203427939559 0.63078434480121359 -0.85290203427939559 -9999.763121536258 -3330.6070784121553 0.047802212387376863 0.3467779529728432 0.047802212387376863 -3330.7154653859316 0.017754345908087998 0.3467779529728432 0.017754345908087998 -10000.317202227941 -3330.0751069674452 0.25923755413906568 0.21677057382407838 0.25923755413906568 -3330.1596090656585 0.42170642972814676 0.21677057382407838 0.42170642972814676 -10000.045245286696 -3330.1776806940125 0.20702881757303854 0.17760060081945994 0.20702881757303854 -3330.4392930228187 -0.081757483633737138 0.17760060081945994 -0.081757483633737138 -10000.140809707627 -3330.435907323551 0.048641722990600655 -0.20021128036023583 0.048641722990600655 -3330.6616824589346 -0.26599894288506221 -0.20021128036023583 -0.26599894288506221 -10000.535435236001 -3329.7896777497936 0.14051382338468499 0.5871611148759257 0.14051382338468499 -3329.9701433593614 0.051315890472324099 0.5871611148759257 0.051315890472324099 -9999.9265215557098 -3330.1508543627597 0.093443790192894394 0.11346900401804305 0.093443790192894394 -3330.298933156505 -0.29071776840737584 0.11346900401804305 -0.29071776840737584 -10000.792847405051 -3330.3976540919725 0.071680309694048483 -0.13919294443803665 0.071680309694048483 -3330.5313879938817 -0.16370846505560621 -0.13919294443803665 -0.16370846505560621 -10000.493298311841 -3330.5000846421049 -0.097093238863387388 0.13744583891002549 -0.097093238863387388 -3330.0893534426873 -0.2505232619414528 0.13744583891002549 -0.2505232619414528 -10000.827760046433 -3330.3828697373165 0.15832503497070594 -0.044068379733289476 0.15832503497070594 -3330.5316772716151 -0.1658533568643179 -0.044068379733289476 -0.1658533568643179 -10000.489674542612 -3329.01016233973 0.61796995453193437 0.37872851432894095 0.61796995453193437 -3329.739370894888 0.056015679424490372 0.37872851432894095 0.056015679424490372 -9999.6739495870734 -3331.0316493283535 -0.64378282732682457 0.17292551878017548 -0.64378282732682457 -3330.0237754177942 -0.85558609192230506 0.17292551878017548 -0.85558609192230506 -9999.7431770994208 -3329.519183097148 -0.21596936356889346 0.73170893937367509 -0.21596936356889346 -3329.4546616427533 -0.76689951431274039 0.73170893937367509 -0.76689951431274039 -9998.9849742352071 -3330.5481751529642 0.061638309820352247 0.21022961346898228 0.061638309820352247 -3330.5591647626943 -0.09639846588902401 0.21022961346898228 -0.09639846588902401 -10000.263401257334 -3329.9191140657135 -0.36695855276018419 0.40186582691876538 -0.36695855276018419 -3329.8473543490227 -0.64850022243081185 0.40186582691876538 -0.64850022243081185 -9999.4209380165667 -3330.3878623066139 0.061638309820352281 0.12678856089496549 0.061638309820352281 -3330.398851916344 0.25054115400985211 0.12678856089496549 0.25054115400985211 -9999.7824627182817 -3330.1718310406686 0.15832503497070571 0.2371706725898548 0.15832503497070571 -3330.3206385749672 0.24118085538066225 0.2371706725898548 0.24118085538066225 -9999.8565584526696 -3330.324024679825 0.048641722990600433 0.013993811207910767 0.048641722990600433 -3330.5497998152086 -0.050292235897586579 0.013993811207910767 -0.050292235897586579 -10000.199787304828 -3330.2353947545243 0.071680309694048483 0.070840306956597487 0.071680309694048483 -3330.3691286564335 0.082043443630027468 0.070840306956597487 0.082043443630027468 -10000.006520299499 -3330.1854028230291 0.066233434401376856 -0.17340652976781712 0.066233434401376856 -3330.4291057486262 -0.10002057052724922 -0.17340652976781712 -0.10002057052724922 -10000.072475246005 -3330.0246132082393 0.01690231008851506 -0.20208354116039118 0.01690231008851506 -3330.4239767936233 -0.070827345422003418 -0.20208354116039118 -0.070827345422003418 -9999.9460268320763 -3330.3776292879093 0.046303403824034417 -0.14974250301156644 0.046303403824034417 -3330.4884212024544 -0.28320577387967205 -0.14974250301156644 -0.28320577387967205 -10000.121327063494 -3330.3233075106282 0.070662354246596115 -0.10782695856869395 0.070662354246596115 -3330.3259125333516 -0.18953598101325042 -0.10782695856869395 -0.18953598101325042 -10000.067119451898 -3330.4733038362774 0.095834045429648684 -0.23412188148540736 0.095834045429648684 -3330.5293427164734 -0.095782384249787356 -0.23412188148540736 -0.095782384249787356 -10000.169509741281 -3331.13001554528 -0.11968281595814073 -0.98955227813803504 -0.11968281595814073 -3330.7282628026055 -0.009996531848628365 -0.98955227813803504 -0.009996531848628365 -10000.469287859629 -3330.5251629367704 -0.11433795880722214 -0.42730755562024569 -0.11433795880722214 -3330.2154036274469 0.070018989445998159 -0.42730755562024569 0.070018989445998159 -9999.3970237543363 -3330.1905174403523 0.095834045429648684 -0.39704848781002511 0.095834045429648684 -3330.2465563205483 0.12594267516408308 -0.39704848781002511 0.12594267516408308 -9999.3211505535055 -3330.5566175933563 0.27007875665492898 -0.69670776485145325 0.27007875665492898 -3330.537861210184 -0.067444817672765112 -0.69670776485145325 -0.067444817672765112 -10000.431092565495 -3330.1040547985708 0.22189769529959741 -0.16308906986068905 0.22189769529959741 -3330.1423820450855 -0.33907077113508421 -0.16308906986068905 -0.33907077113508421 -10000.339629868058 -3329.9209679770538 0.39982604080367079 -0.25726882339813528 0.39982604080367079 -3329.8483120176825 -0.47458393798842735 -0.25726882339813528 -0.47458393798842735 -10000.099792863293 -3330.1004563568599 0.046303403824034362 -0.30336288524767951 0.046303403824034362 -3330.2112482714051 -0.028265139793802518 -0.30336288524767951 -0.028265139793802518 -9999.2898082703468 -3330.3203317509337 0.11948512004066322 -0.28907923788915468 0.11948512004066322 -3330.7407127859251 -0.62062438326938718 -0.28907923788915468 -0.62062438326938718 -10000.543281791359 -3330.3729827560192 0.18238199954621417 -0.33874386825300462 0.18238199954621417 -3331.0682954130443 -0.65665840885048965 -0.33874386825300462 -0.65665840885048965 -10000.517792406876 -3330.5988494620651 0.070662354246596226 0.033145378052722663 0.070662354246596226 -3330.6014544847885 -0.018579468822281342 0.033145378052722663 -0.018579468822281342 -10000.893745306206 -3330.1234969135608 0.4681987462163637 0.088082611398704103 0.4681987462163637 -3329.747938387301 0.55066117507521994 0.088082611398704103 0.55066117507521994 -10000.125331689827 -3329.3155401568338 0.20153948592859555 0.44309572147358267 0.20153948592859555 -3330.229744688364 -0.00680967744665395 0.44309572147358267 -0.00680967744665395 -9999.8370574481578 -3331.0140641569237 0.032181840651639218 0.53144534440798452 0.032181840651639218 -3330.4738859835329 -0.12317732753035671 0.53144534440798452 -0.12317732753035671 -10000.529460399724 -3330.4183471693582 0.12669543597017904 0.04856625568572781 0.12669543597017904 -3330.4305456024272 0.04274509644437785 0.04856625568572781 0.04274509644437785 -10000.369696057556 -3330.6442039347321 0.082194979072146124 -0.12509315429292656 0.082194979072146124 -3330.6623870176418 0.012015729987979284 -0.12509315429292656 0.012015729987979284 -10001.007048263329 -3330.4900237918873 0.066233434401376856 -0.33906255700094334 0.066233434401376856 -3330.7337267174844 -0.14192221354801404 -0.33906255700094334 -0.14192221354801404 -10000.986338152577 -3330.0645180212787 0.20798376797084872 -0.76449060800678126 0.20798376797084872 -3330.3643854337365 -0.06271329084233912 -0.76449060800678126 -0.06271329084233912 -10000.264698728364 -3329.0919849319575 -0.19750770567211129 -1.1525566312539013 -0.19750770567211129 -3330.0432505455697 0.0013818558726370611 -1.1525566312539013 0.0013818558726370611 -9999.7885271420382 -3330.8141421440737 0.17336104250844642 -0.20093008373078192 0.17336104250844642 -3330.4857924734442 -0.32845328657572281 -0.20093008373078192 -0.32845328657572281 -10001.005384179614 -3329.6010252971896 0.0049017622568814367 -0.92891379461798351 0.0049017622568814367 -3329.9675478229365 -0.30062054302106844 -0.92891379461798351 -0.30062054302106844 -9999.8968615526883 -3331.0438520712291 0.25923755413906602 0.15562909989762375 0.25923755413906602 -3331.1283541694424 0.99276035858474643 0.15562909989762375 0.99276035858474643 -10002.951480598043 -3330.9649004905864 0.20798376797084872 -0.7847428396498799 0.20798376797084872 -3331.2647679030442 0.31622006497002531 -0.7847428396498799 0.31622006497002531 -10002.965846136283 -3329.8154542955617 0.20702881757303834 0.13849162189399067 0.20702881757303834 -3330.0770666243679 0.027244784476806672 0.13849162189399067 0.027244784476806672 -9999.0541305122733 -3329.5290046889086 0.11948512004066311 0.88564240205573697 0.11948512004066311 -3329.9493857238999 -0.33119531021748116 0.88564240205573697 -0.33119531021748116 -9998.1693006052847 -3330.9166592633801 0.22189769529959746 -0.094526852207309275 0.22189769529959746 -3330.9549865098948 -0.9324569937743945 -0.094526852207309275 -0.9324569937743945 -10002.777443262486 -3329.8361904988146 0.25389772788618648 0.4367028557253434 0.25389772788618648 -3329.7237682146933 0.22293736991787227 0.4367028557253434 0.22293736991787227 -9998.1896926804602 -3329.8135096483447 0.27007875665492886 0.48959889146590285 0.27007875665492886 -3329.7947532651724 0.3206978593320855 0.48959889146590285 0.3206978593320855 -9998.2017687304597 -3333.2025933229534 0.9854508147117097 -0.85338591063464264 0.9854508147117097 -3331.358688438665 0.83497355234112547 -0.85338591063464264 0.83497355234112547 -10000.615738145081 -3335.0498434793112 -0.16846795843889645 -1.2469610821637218 -0.16846795843889645 -3334.7601466970373 0.076766257390851855 -1.2469610821637218 0.076766257390851855 -10001.533497826378 -3335.0826426417402 -0.20350361268799089 0.47278921079322522 -0.20350361268799089 -3334.9835811822418 -1.7112768017098472 0.47278921079322522 -1.7112768017098472 -10001.85369434884 -3330.3037608264203 -0.012422498874011756 -1.4528065386112476 -0.012422498874011756 -3332.3204693941389 -3.3811579996959651 -1.4528065386112476 -3.3811579996959651 -9999.7370578374303 -3332.4294711936141 -1.6323336834738027 -0.47444985671700124 -1.6323336834738027 -3332.7022321009044 -1.1947980475497388 -0.47444985671700124 -1.1947980475497388 -10000.363926105922 -3334.5655045369754 -0.017028255715299812 -0.41098241648466305 -0.017028255715299812 -3333.0292926096795 -3.6862649920908162 -0.41098241648466305 -3.6862649920908162 -10001.235837679507 -3332.0717551463013 -1.1841843505465683 -0.0095944751780576709 -1.1841843505465683 -3332.2216073161994 -0.55345289650009888 -0.0095944751780576709 -0.55345289650009888 -9999.4399084455763 -3330.6490350714739 0.23072615918697884 0.38982540050014813 0.23072615918697884 -3332.6339429324121 3.2577164450002245 0.38982540050014813 3.2577164450002245 -9999.901744783263 -3330.2011481267527 1.0438818184244194 3.5591277012590581 1.0438818184244194 -3330.9617136744105 -1.1481223893733841 3.5591277012590581 -1.1481223893733841 -9999.3717157325827 -3333.489212900864 -0.87571147205289845 -3.1458790356005242 -0.87571147205289845 -3331.1059760878347 0.99499919045946994 -3.1458790356005242 0.99499919045946994 -10000.624214951851 -3334.5534232713198 0.073105176630445329 -2.4628969428933427 0.073105176630445329 -3335.7745429053521 0.072715098992422789 -2.4628969428933427 0.072715098992422789 -10002.057409248842 -3332.3127628546258 1.2251625488962388 -0.47294537388643221 1.2251625488962388 -3335.4832064581851 -0.10482441848716917 -0.47294537388643221 -0.10482441848716917 -10004.357421366078 -3333.1384777825951 -0.61804595743851265 -3.7853193037762596 -0.61804595743851265 -3334.0474941900984 0.25395431076448577 -3.7853193037762596 0.25395431076448577 -10000.877493275466 -3334.3905712555033 1.9289647489509532 0.99075011993771001 1.9289647489509532 -3334.460543764556 0.15763934259668577 0.99075011993771001 0.15763934259668577 -10004.62120779289 -3334.8352397707436 0.6404642739575821 1.6721587912802396 0.6404642739575821 -3333.9260342459343 2.5640045174040553 1.6721587912802396 2.5640045174040553 -9999.9805276096122 -3331.1806335001334 -1.7791421565229175 2.0667715697494304 -1.7791421565229175 -3332.5639717436688 2.5551066925344501 2.0667715697494304 2.5551066925344501 -9998.7263604163927 -3336.9185759392271 0.48955158350208328 0.93498890974818849 0.48955158350208328 -3337.1957938007845 0.064161853441225991 0.93498890974818849 0.064161853441225991 -10005.937021472879 -3330.4343727315536 0.14051382338468499 -0.11677270764266723 0.14051382338468499 -3330.6148383411214 1.2266395170545366 -0.11677270764266723 1.2266395170545366 -10001.860606500988 -3330.7667071936885 -0.36695855276018396 -0.036425044120733219 -0.36695855276018396 -3330.6949474769976 1.2248278184033552 -0.036425044120733219 1.2248278184033552 -10001.963717400489 -3330.5180156457927 0.093443790192894394 -0.36974277011540835 0.093443790192894394 -3330.666094439538 0.80256324268157186 -0.36974277011540835 0.80256324268157186 -10001.894331254151 -3335.0387380589768 -0.3243003424185027 -1.526541345977896 -0.3243003424185027 -3334.7841052696613 -0.38385739478550995 -1.526541345977896 -0.38385739478550995 -10000.245919937601 -3333.1753616702013 -0.16602229782737551 0.18811280990587806 -0.16602229782737551 -3332.3599660584268 4.0480504915783868 0.18811280990587806 4.0480504915783868 -9999.1740410375987 -3333.5434004848366 0.2671506008803588 -0.090998671875559545 0.2671506008803588 -3333.7568305006962 0.46054332472759918 -0.090998671875559545 0.46054332472759918 -9999.6152668518243 -3325.5507841049152 2.4768869916761593 0.11714530785229726 2.4768869916761593 -3326.5141735752427 0.71197340257731412 0.11714530785229726 0.71197340257731412 -9996.5063321937723 -3330.0234533346775 -1.1755112629893476 -0.27217533190651011 -1.1755112629893476 -3332.8405930362815 -0.80121262150214534 -0.27217533190651011 -0.80121262150214534 -9998.5062206981802 -3330.9804889019333 -0.61421530098090027 -0.73894111791122086 -0.61421530098090027 -3333.7941567503067 -0.24968962858273125 -0.73894111791122086 -0.24968962858273125 -9999.6837541867917 -3329.8205904939668 -0.37583239192158679 -0.96734271880114875 -0.37583239192158679 -3330.0693911234762 -0.42470471657179587 -0.96734271880114875 -0.42470471657179587 -9999.7184560624446 -3328.9386615192334 -0.21596936356889357 -0.36800778688211722 -0.21596936356889357 -3328.8741400648387 0.35274921260895553 -0.36800778688211722 0.35274921260895553 -9997.2434095014596 -3330.1424179154601 -0.23229077121964808 -0.81552244474249891 -0.23229077121964808 -3330.9736266774021 0.67246068460209663 -0.81552244474249891 0.67246068460209663 -9998.769103921948 -3328.1447530918153 0.58043286948234329 -0.1512473711209168 0.58043286948234329 -3329.32360999505 1.1837399289720452 -0.1512473711209168 1.1837399289720452 -9997.4277393039411 -3329.8690931969163 -0.65370278179435215 2.2513074633189571 -0.65370278179435215 -3332.2672331655185 3.3569490109985227 2.2513074633189571 3.3569490109985227 -9998.5947301228334 -3328.9114268564113 -1.3555389659265107 2.0797141684641325 -1.3555389659265107 -3329.0026762828734 0.65087186557864363 2.0797141684641325 0.65087186557864363 -9997.5391743170458 -3335.054379278813 -0.72722516312249919 0.72164840933933627 -0.72722516312249919 -3332.5262762213542 1.1284785485514668 0.72164840933933627 1.1284785485514668 -10004.0177066912 -3327.0823670109035 -1.030047410834054 1.275372016347319 -1.030047410834054 -3328.99589541352 0.5821537801358545 1.275372016347319 0.5821537801358545 -9999.6128171533219 -3332.2378376359411 -1.7536004361284419 1.279535592848263 -1.7536004361284419 -3330.8958005857253 0.58273619794256981 1.279535592848263 0.58273619794256981 -10001.376661102631 -3333.6296418975962 -1.3681521597697126 0.43763922041989645 -1.3681521597697126 -3332.0757609804673 1.5133347177561518 0.43763922041989645 1.5133347177561518 -10003.548893535675 -3330.8243134444833 -0.87825581693558008 -0.13016545420864689 -0.87825581693558008 -3328.4804015821087 -1.1403657294186238 -0.13016545420864689 -1.1403657294186238 -10000.419430303864 -3330.5331902682778 -0.0050342963238769745 -0.43257938020542497 -0.0050342963238769745 -3329.689949920923 0.88771209697370068 -0.43257938020542497 0.88771209697370068 -10001.654088780118 -3330.4231270732184 -0.21164976894571841 -0.05444760500540724 -0.21164976894571841 -3329.7327676738842 0.9406066887149791 -0.05444760500540724 0.9406066887149791 -10001.637277419593 -3329.5755339452439 -0.21164976894571885 0.38384326603409136 -0.21164976894571885 -3328.8851745459096 -0.93272135211827845 0.38384326603409136 -0.93272135211827845 -9999.0944980356708 -3329.6985485180871 0.068164123964740142 -0.79752050101592431 0.068164123964740142 -3329.0517716212862 -1.257744830527372 -0.79752050101592431 -1.257744830527372 -9999.7063020859514 -3329.5885314026655 -0.06347126190950636 -0.1904725623298873 -0.06347126190950636 -3330.4631147639839 -0.18953358215105709 -0.1904725623298873 -0.18953358215105709 -10000.409819138978 -3331.5123701122843 0.0082387769836977931 -0.33516295845038258 0.0082387769836977931 -3329.5619328395201 -0.76604423342951122 -0.33516295845038258 -0.76604423342951122 -10000.28729778906 -3330.4880866292101 0.0064086106893902484 -0.047496674336798606 0.0064086106893902484 -3330.7727482431324 -0.21991857936700399 -0.047496674336798606 -0.21991857936700399 -10000.576246508463 -3330.1812473873165 -0.05334576832369009 -0.21674543943481694 -0.05334576832369009 -3330.6982766628239 -0.24359377653672709 -0.21674543943481694 -0.24359377653672709 -10000.480918802914 -3329.9013575955937 -0.0050342963238771965 -0.40301657405962032 -0.0050342963238771965 -3329.0581172482389 -0.77553586976227962 -0.40301657405962032 -0.77553586976227962 -9999.7585907620669 -3329.8134563133049 0.075870681654399363 -0.26432918464979593 0.075870681654399363 -3330.8896919863382 -0.089451690982969012 -0.26432918464979593 -0.089451690982969012 -10000.572694672228 -3330.3686155848991 -0.1797830802210611 0.054211379213484179 -0.1797830802210611 -3330.6065462959268 -0.018650000323759741 0.054211379213484179 -0.018650000323759741 -10000.142936812172 -3330.03649080795 -0.05334576832369009 0.15372369625220017 -0.05334576832369009 -3330.5535200834574 0.10298562280877377 0.15372369625220017 0.10298562280877377 -10000.046649064818 -3330.2770479325627 0.0064086106893901373 0.23374237798816466 0.0064086106893901373 -3330.561709546485 0.18711563287979516 0.23374237798816466 0.18711563287979516 -9999.94313041852 -3330.955926661492 0.85125477822088413 -0.81735441301862011 0.85125477822088413 -3330.2864530226725 -1.0047653020228609 -0.81735441301862011 -1.0047653020228609 -9999.9307569102002 -3330.4588563716306 -0.20127245266265686 -0.067186681772909651 -0.20127245266265686 -3330.4341662884544 -0.082666256583252107 -0.067186681772909651 -0.082666256583252107 -9999.9329565215157 -3330.6012711095364 -0.11433795880722225 -0.094890879175181908 -0.11433795880722225 -3330.2915118002129 -0.19920823050688341 -0.094890879175181908 -0.19920823050688341 -9999.6253482726352 -3330.3084749267018 -0.24637762760196447 0.018846234446755261 -0.24637762760196447 -3330.405710658245 -0.069518825758223102 0.018846234446755261 -0.069518825758223102 -9999.888247252733 -3330.2498245145202 0.01690231008851506 -0.50533110626020061 0.01690231008851506 -3330.6491880999042 -0.22732424620699021 -0.50533110626020061 -0.22732424620699021 -10000.621660750923 -3330.5495592617553 -0.662165224990938 -0.84916308471156299 -0.662165224990938 -3330.7329380241172 -0.1186757428022247 -0.84916308471156299 -0.1186757428022247 -10000.325342594126 -3329.0898936294684 0.21553019101835647 -1.4885387603999334 0.21553019101835647 -3329.1888895595202 -0.59368209313515763 -1.4885387603999334 -0.59368209313515763 -9999.1898577864067 -3330.5677200870396 -0.17978308022106065 -0.44055142441538919 -0.17978308022106065 -3330.8056507980673 -0.30485117700845876 -0.44055142441538919 -0.30485117700845876 -10000.740250318595 -3330.5833576230316 -0.24637762760196447 -0.51841072903152963 -0.24637762760196447 -3330.6805933545747 -0.25716434862988535 -0.51841072903152963 -0.25716434862988535 -10000.71289534172 -3330.1158756548743 0.25389772788618614 -1.5153534840706016 0.25389772788618614 -3330.003453370753 -0.015815065469723777 -1.5153534840706016 -0.015815065469723777 -9999.0287481486375 -3330.5768633380953 -0.20127245266265686 -0.59521448425766721 -0.20127245266265686 -3330.5521732549191 -0.079867670210660435 -0.59521448425766721 -0.079867670210660435 -10000.28697742091 -3330.0315142486916 0.025088099426534727 -1.509790222537049 0.025088099426534727 -3329.5612800692484 -0.59692971207732626 -1.509790222537049 -0.59692971207732626 -9999.5183605686452 -3329.9365473339344 0.29643035601619427 -1.1671231791633545 0.29643035601619427 -3330.6213920236823 -0.42923148388217669 -1.1671231791633545 -0.42923148388217669 -9999.1384007316337 -3331.0728993929538 -0.10025977945362805 -0.85833741425221888 -0.10025977945362805 -3330.1485638862382 0.23250990803808236 -0.85833741425221888 0.23250990803808236 -10000.310084092456 -3329.9736165348968 0.025088099426534727 -0.13381510607587188 0.025088099426534727 -3329.5033823554536 0.54697222231789056 -0.13381510607587188 0.54697222231789056 -9999.3446674272654 -3330.5400768241079 0.068164123964740586 -0.25284171923044596 0.068164123964740586 -3329.893299927307 0.66934794453209179 -0.25284171923044596 0.66934794453209179 -10002.230887004011 -3330.4481551145914 0.0049017622568814367 -0.68674920927969652 0.0049017622568814367 -3330.8146776403382 0.9594366651826931 -0.68674920927969652 0.9594366651826931 -10002.438251004891 -3330.0908459602683 0.21553019101835602 -0.69515708761355199 0.21553019101835602 -3330.1898418903202 0.94025477018249148 -0.69515708761355199 0.94025477018249148 -10002.192714778805 -3332.6906150479776 0.86786647736129652 -2.4073063960815944 0.86786647736129652 -3330.006064232362 0.19954043942470889 -2.4073063960815944 0.19954043942470889 -10000.149587524762 -3333.2023501133667 0.50103183496873327 -2.1727833138017942 0.50103183496873327 -3330.455503121816 0.26086394476459274 -2.1727833138017942 0.26086394476459274 -10000.348105215624 -3327.5370965701295 -1.7352830716362844 1.145681147749201 -1.7352830716362844 -3326.5516199829785 -1.7716104786209144 1.145681147749201 -1.7716104786209144 -9997.955821045105 -3329.5227838251049 -0.51953652378188919 0.21884084823932426 -0.51953652378188919 -3327.7411538750616 -0.48260409526892545 0.21884084823932426 -0.48260409526892545 -9997.502769229548 -3332.6086747302452 1.3822093724975071 -0.66682859483966928 1.3822093724975071 -3332.2587480046886 1.1797618571764739 -0.66682859483966928 1.1797618571764739 -10000.692273388411 -3332.5870428606559 1.0493689649282354 -0.42321211536938863 1.0493689649282354 -3330.889993443629 0.27963639013490349 -0.42321211536938863 0.27963639013490349 -9999.0560438805769 -3331.2918634785228 0.20379939394547095 -0.51945510101026926 0.20379939394547095 -3329.9807219726254 0.51352326710420071 -0.51945510101026926 0.51352326710420071 -9999.7517882696156 -3328.9639103154541 0.66362491622593067 2.0619638249702348 0.66362491622593067 -3328.3282935738994 0.56437045797429164 2.0619638249702348 0.56437045797429164 -10000.0729942834 -3328.7696086786113 1.1485188385255189 2.6459162481159235 1.1485188385255189 -3329.6210719065366 0.24374205082659284 2.6459162481159235 0.24374205082659284 -9997.7844549507936 -3329.5852380810225 -0.010591379577748028 -0.66921703741354577 -0.010591379577748028 -3331.0661823172609 0.50334078547803074 -0.66921703741354577 0.50334078547803074 -9999.3964939060643 -3329.3084955623199 -0.12133393221190331 -0.75731480960394038 -0.12133393221190331 -3329.7227217944014 -0.024680545882802107 -0.75731480960394038 -0.024680545882802107 -9998.7567202314094 -3330.5711872763723 -0.027876392758408197 0.098125829023956612 -0.027876392758408197 -3330.2841841509744 -0.20146561644742178 0.098125829023956612 -0.20146561644742178 -9999.6159954020331 -3326.9433569135062 -1.1871695348881723 -1.2865320153960056 -1.1871695348881723 -3328.6681643910224 -0.49613409235757899 -1.2865320153960056 -0.49613409235757899 -9999.6095361070202 -3330.6313824634385 -0.20744486174193422 0.093360145702718 -0.20744486174193422 -3329.7106596830217 -0.97527237069880357 0.093360145702718 -0.97527237069880357 -10001.806693980061 -3330.8165352107794 -0.41263106967699281 0.1008027348880205 -0.41263106967699281 -3330.3220006498095 -1.2011262357682426 0.1008027348880205 -1.2011262357682426 -10002.005817408592 -3329.0540586357292 -1.4862633033539863 -1.4800410505858301 -1.4862633033539863 -3329.0501857562017 -0.51742002677165755 -1.4800410505858301 -0.51742002677165755 -9998.7760086378548 -3331.9147572177617 -1.7056953485083002 -0.97745601000608451 -1.7056953485083002 -3333.0963608142633 -2.1551529730686387 -0.97745601000608451 -2.1551529730686387 -10000.589917900852 -3330.3702633593816 -0.7984116581898959 -1.4039597279544771 -0.7984116581898959 -3332.8283439925526 -2.8261946141640033 -1.4039597279544771 -2.8261946141640033 -10000.049599377855 -3328.4101372892983 0.394738233723956 -0.29059585069762761 0.394738233723956 -3329.5590285064318 -1.4359245527357416 -0.29059585069762761 -1.4359245527357416 -9998.7422389888052 -3329.4907036834061 -0.40627251878508935 -0.17746681779941698 -0.40627251878508935 -3330.5934854762372 -1.5443298244893251 -0.17746681779941698 -1.5443298244893251 -9998.0317124203211 -3330.3682395919213 -0.057111424592798291 -0.017723502941120461 -0.057111424592798291 -3333.0752663918192 -1.9858136929376293 -0.017723502941120461 -1.9858136929376293 -9998.8715416263458 -3330.4392474249535 -0.40487167339127017 0.4705694475137534 -0.40487167339127017 -3333.4225772102659 -1.7112037571497467 0.4705694475137534 -1.7112037571497467 -10000.302594551649 -3329.5816713372892 1.0290169751123972 1.6111256484239003 1.0290169751123972 -3330.9495996722371 1.3354513994056318 1.6111256484239003 1.3354513994056318 -10000.882761063443 -3327.6294302088381 1.511779121879727 0.68975160269292246 1.511779121879727 -3327.6711055176524 -0.71427777000917558 0.68975160269292246 -0.71427777000917558 -9996.8357990620334 -3329.0288104062597 -0.12133393221190336 1.1947415301915498 -0.12133393221190336 -3329.4430366383413 0.21407188950479394 1.1947415301915498 0.21407188950479394 -9997.9176647632303 -3328.9651278911765 -0.15810843639166772 1.0402585749316131 -0.15810843639166772 -3329.336083334505 0.47828833960556949 1.0402585749316131 0.47828833960556949 -9997.8750058085025 -3329.6524284657621 -0.33705992384911843 0.13057094309715467 -0.33705992384911843 -3329.3817172471277 -0.77154718917245191 0.13057094309715467 -0.77154718917245191 -9999.0956748210683 -3329.3678423806041 -0.39328018732738723 0.59518461609241058 -0.39328018732738723 -3329.8508084375976 -0.32163737158680306 0.59518461609241058 -0.32163737158680306 -9998.104365706633 -3330.6234108328558 0.021340149962885996 -0.22060796791265602 0.021340149962885996 -3330.6413757902224 -0.025720751933477004 -0.22060796791265602 -0.025720751933477004 -10000.594217312913 -3329.5319364591728 -0.33705992384911898 -0.99055904090892 -0.33705992384911898 -3329.2612252405384 0.48511417583426919 -0.99055904090892 0.48511417583426919 -9998.7341988012995 -3331.1084739786434 0.42077731627757531 -0.0019334202379468479 0.42077731627757531 -3331.0291160933502 -0.63007333673439803 -0.0019334202379468479 -0.63007333673439803 -10000.812418175143 -3330.3472558389017 0.15192967352899839 -0.38956090617648442 0.15192967352899839 -3330.3025492422516 -0.02542866773546848 -0.38956090617648442 -0.02542866773546848 -9999.37433338357 -3329.662324530319 -0.39328018732738745 -0.84414367624526676 -0.39328018732738745 -3330.1452905873125 0.080464869231946068 -0.84414367624526676 0.080464869231946068 -9998.9878121557795 -3330.4950791036058 -0.027876392758408308 -0.23429084742110717 -0.027876392758408308 -3330.2080759782079 0.067761603506369283 -0.23429084742110717 0.067761603506369283 -9999.3876708837324 -3330.4215904621319 -0.84160252274670788 -0.46112964682379243 -0.84160252274670788 -3330.8074589166199 0.76885106616828125 -0.46112964682379243 0.76885106616828125 -9999.3431707210584 -3329.3387022129418 -0.15810843639166769 -0.76691498016316473 -0.15810843639166769 -3329.7096576562703 0.67043626582790239 -0.76691498016316473 0.67043626582790239 -9998.9957287737961 -3330.571492940448 0.015894835058973711 -0.28728258923547401 0.015894835058973711 -3330.2714222160471 0.15839483798663423 -0.28728258923547401 0.15839483798663423 -9999.4226109024021 -3330.6723751538839 0.015894835058973711 0.012032501148496522 0.015894835058973711 -3330.3723044294829 -0.20596544008003548 0.012032501148496522 -0.20596544008003548 -9999.7252575427083 -3330.3023023010592 0.021340149962885718 -0.20870375038248312 0.021340149962885718 -3330.3202672584257 -0.37486337806740266 -0.20870375038248312 -0.37486337806740266 -9999.6308917175229 -3330.4526027246493 0.15192967352899825 -0.18896828707829627 0.15192967352899825 -3330.4078961279993 -0.42940643479596474 -0.18896828707829627 -0.42940643479596474 -9999.6903740408161 -3330.1860947218001 0.13452338709663325 -0.25458257593891176 0.13452338709663325 -3330.2639755255314 -0.28718810436294007 -0.25458257593891176 -0.28718810436294007 -9999.8916472942474 -3330.2539114844731 -0.01631798061450529 -0.25717158086445124 -0.01631798061450529 -3330.5079123975529 -0.20862179446703522 -0.25717158086445124 -0.20862179446703522 -9999.9695857029219 -3330.0058443627349 -0.41263106967699281 -0.33195590971899946 -0.41263106967699281 -3329.511309801765 0.74170079242958309 -0.33195590971899946 0.74170079242958309 -9999.5737448644577 -3330.4173031132727 0.13452338709663336 0.027244168666584301 0.13452338709663336 -3330.4951839170039 0.13847020835055446 0.027244168666584301 0.13847020835055446 -10000.585272468663 -3330.9170130291695 -0.81000027595708879 -0.31623422292159376 -0.81000027595708879 -3329.940583336388 0.7613326404871259 -0.31623422292159376 0.7613326404871259 -9999.908855414722 -3329.4846419985433 0.56543746877191836 -0.20060986894441157 0.56543746877191836 -3329.7757291635653 -0.00074889964798785513 -0.20060986894441157 -0.00074889964798785513 -10000.093113447672 -3330.4851198759443 -0.016317980614504846 0.024655163742863806 -0.016317980614504846 -3330.7391207890241 0.21703651824645931 0.024655163742863806 0.21703651824645931 -10000.663210877337 -3329.8206916153949 -0.20744486174193488 -0.33939849890521145 -0.20744486174193488 -3328.8999688349782 0.96755465749993164 -0.33939849890521145 0.96755465749993164 -9999.3746214359271 -3331.6394497270107 0.011998713410994899 0.28267082834827306 0.011998713410994899 -3329.4757743544478 0.78219469224154636 0.28267082834827306 0.78219469224154636 -10000.358102509892 -3329.9613512703681 -0.085948830345333738 -0.25116267658995639 -0.085948830345333738 -3330.4931551457375 -0.13008871073952832 -0.25116267658995639 -0.13008871073952832 -10000.059396957429 -3330.4284531321409 -0.0032203832967776513 5.6082502851495519e-05 -0.0032203832967776513 -3330.3121975657195 -0.0024763886690379877 5.6082502851495519e-05 -0.0024763886690379877 -10000.051741345065 -3330.314143649468 0.02288194224422746 -0.042261643155143247 0.02288194224422746 -3330.290408338984 -0.057352609062945703 -0.042261643155143247 -0.057352609062945703 -9999.9870504522369 -3330.3560866502885 -0.023322078436833982 -0.048753650673461379 -0.023322078436833982 -3330.2810456962561 -0.021213862888544099 -0.048753650673461379 -0.021213862888544099 -9999.9584833891859 -3330.4006173007274 -0.046487423108562798 -0.035045033739152132 -0.046487423108562798 -3330.3279930707704 -0.0040957579312816961 -0.035045033739152132 -0.0040957579312816961 -9999.9813528954255 -3330.3549831542023 -0.012781218190621946 -0.049453351030024351 -0.012781218190621946 -3330.274937674305 1.9343147869221866e-05 -0.049453351030024351 1.9343147869221866e-05 -9999.9566805096765 -3330.4300254963373 -0.01278121819062128 -0.097984219399222638 -0.01278121819062128 -3330.34998001644 -0.07494383457924414 -0.097984219399222638 -0.07494383457924414 -10000.181807536082 -3330.4311289924244 -0.023322078436834204 -0.097284519044478657 -0.023322078436834204 -3330.356088038392 -0.096177040610200493 -0.097284519044478657 -0.096177040610200493 -10000.183610415592 -3330.1736967102024 0.12212409317579764 -0.22158019337803125 0.12212409317579764 -3330.3815993522385 -0.2459776561227045 -0.22158019337803125 -0.2459776561227045 -9999.9179537480231 -3330.4807581937011 -0.056035645236902631 -0.12086194562834862 -0.056035645236902631 -3330.3397061960377 -0.15447252169360581 -0.12086194562834862 -0.15447252169360581 -10000.10993053834 -3330.4549055838161 -0.023129342196270664 -0.036185347826176439 -0.023129342196270664 -3330.5080105978896 -0.28694253830116168 -0.036185347826176439 -0.28694253830116168 -10000.145543486331 -3330.4130636699247 -0.035112151387159729 -0.095552683771529701 -0.035112151387159729 -3330.3674356532592 -0.12286856026594251 -0.095552683771529701 -0.12286856026594251 -10000.099939271699 -3330.3226683874282 -0.02417659343745443 -0.085130743607805925 -0.02417659343745443 -3330.3242910684321 -0.11808782539992535 -0.085130743607805925 -0.11808782539992535 -9999.7738652210683 -3330.3885806510134 0.18620391514780338 -0.083186750519416819 0.18620391514780338 -3330.1316948354934 -0.23928663744300138 -0.083186750519416819 -0.23928663744300138 -9999.6053181992793 -3330.3331823309827 -0.030669251468189329 -0.048318189254132449 -0.030669251468189329 -3330.3156931607855 -0.051925094152920792 -0.048318189254132449 -0.051925094152920792 -9999.7743442300416 -3330.3195590665227 -0.038285488122418498 -0.029853041251044488 -0.038285488122418498 -3330.3386914772118 -0.083506544991905685 -0.029853041251044488 -0.083506544991905685 -9999.7766879930314 -3330.404385305852 -0.053419280706921195 -0.040323768285816186 -0.053419280706921195 -3330.3717300100398 0.010212846591457492 -0.040323768285816186 0.010212846591457492 -9999.8885362181936 -3330.3661721766748 -0.030669251468189329 -0.054897729303775122 -0.030669251468189329 -3330.3486830064776 0.0075171542480347853 -0.054897729303775122 0.0075171542480347853 -9999.8733137671188 -3330.3556212002786 -0.024176593437454486 -0.077107264696678612 -0.024176593437454486 -3330.3572438812826 -0.055897659185575321 -0.077107264696678612 -0.055897659185575321 -9999.8727236596133 -3330.4109555732539 0.018396941657972177 -0.012105437659556628 0.018396941657972177 -3330.4171350728211 -0.094707299413073542 -0.012105437659556628 -0.094707299413073542 -10000.042935116646 -3330.3289408492546 -0.035112151387160062 -0.081859467674803454 -0.035112151387160062 -3330.2833128325892 -0.042763958060277218 -0.081859467674803454 -0.042763958060277218 -9999.8475708096812 -3330.3466638935733 -0.00049543052024719758 -0.041361065249475359 -0.00049543052024719758 -3330.3431591729677 -0.038333220840286231 -0.041361065249475359 -0.038333220840286231 -9999.9145838919903 -3330.3647177877265 -0.00049543052024728085 -0.029188816555688391 -0.00049543052024728085 -3330.3612130671208 -0.03641606373275863 -0.029188816555688391 -0.03641606373275863 -9999.968745574457 -3330.3523263118786 -0.0082352060649839021 -0.030383596567844506 -0.0082352060649839021 -3330.339560580036 -0.033114040737018513 -0.030383596567844506 -0.033114040737018513 -9999.9602345837193 -3330.3717861496316 -0.008235206064983791 -0.030800165306573035 -0.008235206064983791 -3330.359020417789 -0.043040532091254136 -0.030800165306573035 -0.043040532091254136 -10000.018614096978 -3330.3789517918358 -0.0089155921622805501 -0.013311418289958965 -0.0089155921622805501 -3330.3597540134579 -0.0099987441108169151 -0.013311418289958965 -0.0099987441108169151 -9999.9728175538257 -3330.3605466009758 -0.008915592162280439 -0.026332628989621298 -0.008915592162280439 -3330.3413488225979 -0.01132280532601726 -0.026332628989621298 -0.01132280532601726 -9999.9176019812476 -3330.3563306876931 -0.011278702224651771 -0.021716248435041052 -0.011278702224651771 -3330.34733939738 -0.019218328043280053 -0.021716248435041052 -0.019218328043280053 -9999.9180456466238 -3330.3880104489799 -0.017329707904262193 -0.0056962930284498725 -0.017329707904262193 -3330.3828968877497 -0.0069894894913886674 -0.0056962930284498725 -0.0069894894913886674 -9999.9887227974396 -3330.3774384845619 -0.0081837204779986166 -0.014436026398470858 -0.0081837204779986166 -3330.3612458114021 -0.0099010634112346452 -0.014436026398470858 -0.0099010634112346452 -9999.9719339347357 -3330.3943349928777 -0.013792718436001716 -0.0066549220100569073 -0.013792718436001716 -3330.3724365185553 -0.0053499199520956608 -0.0066549220100569073 -0.0053499199520956608 -9999.9876888411236 -3330.3780776018157 -0.010556764993707002 -0.016473536092235008 -0.010556764993707002 -3330.3566537432653 -0.018850066242521279 -0.016473536092235008 -0.018850066242521279 -10000.002604342328 -3330.3790726825755 -0.0046490983217048754 -0.015823695085600775 -0.0046490983217048754 -3330.3673512886344 -0.021828838071087375 -0.015823695085600775 -0.021828838071087375 -9999.9826019560714 -3330.3891885573375 -0.0039171808324008905 -0.011047998639696743 -0.0039171808324008905 -3330.3775005579027 -0.033844667221728741 -0.011047998639696743 -0.033844667221728741 -10000.010593784864 -3330.3686245283789 -0.0040485267182552853 -0.014372371297213249 -0.0040485267182552853 -3330.3401743125323 -0.0096304638718720526 -0.014372371297213249 -0.0096304638718720526 -10000.008144297673 -3330.3705904754079 -0.0038031295523324182 -0.014149770151561825 -0.0038031295523324182 -3330.3460243838799 -0.016385549726692261 -0.014149770151561825 -0.016385549726692261 -10000.010098302271 -3330.362583093578 -0.002239728383149675 -0.021343527332646772 -0.002239728383149675 -3330.3385389804316 -0.024931279360316694 -0.021343527332646772 -0.024931279360316694 -9999.994202024558 -3330.3647766249815 -0.0088597457335481966 -0.021150853779545287 -0.0088597457335481966 -3330.3536140757878 -0.020768874892382883 -0.021150853779545287 -0.020768874892382883 -9999.9960672141679 -3330.3677599879829 -0.0064550666043425853 -0.020372912775201257 -0.0064550666043425853 -3330.3584175143696 -0.018449314364261227 -0.020372912775201257 -0.018449314364261227 -10000.046204969323 -3330.3472770928565 0.00045743271466203161 -0.026170929137151688 0.00045743271466203161 -3330.3336828943357 -0.027037499748985283 -0.026170929137151688 -0.027037499748985283 -9999.9867095357768 -3330.3665535147593 0.00045743271466203161 -0.02000779904119554 0.00045743271466203161 -3330.3529593162384 -0.029529107225243933 -0.02000779904119554 -0.029529107225243933 -10000.044538801485 -3330.348483566082 -0.0064550666043432514 -0.026536042863881448 -0.0064550666043432514 -3330.3391410924687 -0.015957706884364597 -0.026536042863881448 -0.015957706884364597 -9999.988375703615 -3330.3550778758436 -0.0066300177175397934 -0.016503530110639986 -0.0066300177175397934 -3330.3462358444849 -0.014175527424413303 -0.016503530110639986 -0.014175527424413303 -10000.009824071974 -3330.5576140498542 -0.051172730949049783 0.05004068017933605 -0.051172730949049783 -3330.033755292513 -0.27097187474646489 0.05004068017933605 -0.27097187474646489 -9999.6119299824604 -3330.3415000643654 -0.038285488122418387 -0.040429995695376419 -0.038285488122418387 -3330.3606324750544 -0.0356025161636353 -0.040429995695376419 -0.0356025161636353 -9999.8425109865566 -3330.3572312777633 -0.035442080384267882 -0.043115023927384755 -0.035442080384267882 -3330.4050697972034 -0.012635131042770809 -0.043115023927384755 -0.012635131042770809 -9999.8851752400733 -3330.3709925303083 -0.01127870222465166 -0.0087873310349095846 -0.01127870222465166 -3330.3620012399952 -0.017977250661715516 -0.0087873310349095846 -0.017977250661715516 -9999.9620311744729 -3330.3746542593617 -0.011323983024690232 -0.01095904844441975 -0.011323983024690232 -3330.3659462892028 -0.014022066996403737 -0.01095904844441975 -0.014022066996403737 -9999.973291239643 -3330.3737848342007 -0.016417149628785488 -0.027781711902207462 -0.016417149628785488 -3330.3785023021901 -0.0038449968778877519 -0.027781711902207462 -0.0038449968778877519 -9999.9959446964494 -3330.3892708756521 -0.010408753210047583 -0.0283133698922029 -0.010408753210047583 -3330.3829483293757 -0.0032138164824573323 -0.0283133698922029 -0.0032138164824573323 -10000.000927713612 -3330.3582665249705 -0.014783195463714316 -0.032342611446438241 -0.014783195463714316 -3330.3568415699028 -0.021220221256953664 -0.032342611446438241 -0.021220221256953664 -9999.9575597556104 -3330.3475294967611 -0.012017824025969848 -0.012177547578176018 -0.012017824025969848 -3330.3590262691905 -0.014891965320202871 -0.012177547578176018 -0.014891965320202871 -9999.9862762409102 -3330.3535740077859 -0.012944056574153873 -0.017159766561235301 -0.012944056574153873 -3330.3740574262047 -0.0025359090413985541 -0.017159766561235301 -0.0025359090413985541 -10000.001763489301 -3330.3556202937179 -0.011503318804969465 -0.013992038368087378 -0.011503318804969465 -3330.376649079928 -0.0044760613673133776 -0.013992038368087378 -0.0044760613673133776 -10000.002922974214 -3330.3425560235046 -0.012985062655971547 -0.028513281435152749 -0.012985062655971547 -3330.3673364494716 -0.0039567943204019684 -0.028513281435152749 -0.0039567943204019684 -9999.9853460305967 -3330.3373748219037 -0.00037211298667738646 -0.019503095205436694 -0.00037211298667738646 -3330.3707511283737 -0.0078820239905326162 -0.019503095205436694 -0.0078820239905326162 -9999.9968871183737 -3330.3410732244756 -0.012362174814088522 -0.027501446114911232 -0.012362174814088522 -3330.3586918548135 -0.0055064702455638326 -0.027501446114911232 -0.0055064702455638326 -9999.9845785692451 -3330.3674343796956 -0.015990313939238665 -0.042376336619781796 -0.015990313939238665 -3330.3684175158978 -0.0077796303667128086 -0.042376336619781796 -0.0077796303667128086 -9999.993600273323 -3330.3740214336449 -0.0083797277780175428 -0.03533577573216462 -0.0083797277780175428 -3330.3631009218589 -0.017666758960331208 -0.03533577573216462 -0.017666758960331208 -9999.9630633207707 -3330.4078197175295 0.0018634286023037627 -0.078140779278328409 0.0018634286023037627 -3330.3849952815472 0.0078580174504168099 -0.078140779278328409 0.0078580174504168099 -10000.001188341434 -3330.3706873704941 -0.0077931118152904655 -0.10568109656560409 -0.0077931118152904655 -3330.3713090506171 -0.034839385762097663 -0.10568109656560409 -0.034839385762097663 -9999.8524769569776 -3330.3292726941454 -0.02356083962284572 -0.081140821401277208 -0.02356083962284572 -3330.3612142494239 -0.063973417243687436 -0.081140821401277208 -0.063973417243687436 -9999.8395995875944 -3330.3833091455472 -0.025933397284761961 -0.13021513463263545 -0.025933397284761961 -3330.3726166414308 -0.028344494123302866 -0.13021513463263545 -0.028344494123302866 -9999.9675597919631 -3330.3647732965946 -0.015990313939238887 -0.065108904602311668 -0.015990313939238887 -3330.3657564327968 -0.0076133268812554888 -0.065108904602311668 -0.0076133268812554888 -9999.9856170240164 -3330.3356498647845 0.0019691470431055791 -0.048145719982130686 0.0019691470431055791 -3330.3740355537502 -0.017308151313045528 -0.048145719982130686 -0.017308151313045528 -10000.016969570293 -3330.3530375909686 -0.012362174814088078 -0.043922477099840762 -0.012362174814088078 -3330.3706562213065 -0.0076731639392164652 -0.043922477099840762 -0.0076731639392164652 -10000.020471668729 -3330.278493952901 -0.0077105973388813531 -0.093448810974223306 -0.0077105973388813531 -3330.3323867908039 -0.022725915582668677 -0.093448810974223306 -0.022725915582668677 -9999.9312985311444 -3330.2981496627635 -0.015327941653410782 -0.081930329004535452 -0.015327941653410782 -3330.3446703796799 -0.010183953603700502 -0.081930329004535452 -0.010183953603700502 -9999.9636896022785 -3330.3579354287249 -0.011466432179657482 -0.038924637848140264 -0.011466432179657482 -3330.3720943434237 -0.010734212377428776 -0.038924637848140264 -0.010734212377428776 -10000.022055658694 -3330.3435830216831 -0.007710597338880909 -0.035826437051582616 -0.007710597338880909 -3330.3974758595859 0.0089788932918963837 -0.035826437051582616 0.0089788932918963837 -10000.126565737486 -3330.3955915480356 -0.0092602787872732018 -0.020022221635372262 -0.0092602787872732018 -3330.3920989687567 -0.00070078355929581448 -0.020022221635372262 -0.00070078355929581448 -10000.138223646369 -3329.9150731117688 0.077447242986345255 -0.18669555196720466 0.077447242986345255 -3330.1990840878134 -0.035720891542950994 -0.18669555196720466 -0.035720891542950994 -9999.8624186315101 -3330.3244520415337 0.008766313330077713 -0.038790992011854541 0.008766313330077713 -3330.4070609469072 0.0022155007100082003 -0.038790992011854541 0.0022155007100082003 -10000.12417926428 -3330.3419141595396 -0.24707348453868061 0.003062723773837206 -0.24707348453868061 -3330.0253282668073 -0.31549801669461885 0.003062723773837206 -0.31549801669461885 -9999.4939631517809 -3330.4054295401065 -0.025933397284762183 -0.13034004573000857 -0.025933397284762183 -3330.3947370359901 -0.027108721309559769 -0.13034004573000857 -0.027108721309559769 -10000.033920975638 -3330.5255134946701 0.043979850498219286 -0.19176248292842502 0.043979850498219286 -3330.5684727293728 0.04581153760318557 -0.19176248292842502 0.04581153760318557 -10000.107375887626 -3330.0231668683855 -0.3586332224010178 0.20549264287546976 -0.3586332224010178 -3330.2097931398694 -0.18383496677415678 0.20549264287546976 -0.18383496677415678 -9999.7679408585609 -3330.3581328981454 0.014168577139744176 -0.03819355779705802 0.014168577139744176 -3330.3694242747715 -0.056568341842648806 -0.03819355779705802 -0.056568341842648806 -9999.9604676384479 -3330.3583797240262 0.0096066792005120583 0.0065193816826649709 0.0096066792005120583 -3330.3577197031282 0.039427858613635181 0.0065193816826649709 0.039427858613635181 -10000.121899576512 -3330.3391812366399 0.047181384225460477 0.016216252468439052 0.047181384225460477 -3330.3994265243937 0.0088177045770407858 0.016216252468439052 0.0088177045770407858 -10000.125952957427 -3330.3260466781612 0.030487935984654269 0.002723424848227296 0.030487935984654269 -3330.2948097444687 0.027101612824480981 0.002723424848227296 0.027101612824480981 -10000.096515122827 -3329.9705345786679 -0.0625797437189195 0.22765428390084708 -0.0625797437189195 -3330.5361565155044 0.11332733040376297 0.22765428390084708 0.11332733040376297 -10000.025819115508 -3330.396269756844 -0.0051262147291112337 0.073349762129510054 -0.0051262147291112337 -3330.3752181569889 0.048776360703413957 0.073349762129510054 0.048776360703413957 -10000.135746698179 -3330.2985791647989 0.0066753875841243371 -0.034677288796956418 0.0066753875841243371 -3330.360642071546 -0.015691612810769584 -0.034677288796956418 -0.015691612810769584 -10000.004353524746 -3330.3201417146138 0.0096066792005122803 -0.050486072244893876 0.0096066792005122803 -3330.3194816937157 -0.017678500400506891 -0.050486072244893876 -0.017678500400506891 -10000.007185548271 -3330.3579830196413 -0.0092602787872736458 -0.074120206050793058 -0.0092602787872736458 -3330.3544904403625 -0.046566910179535626 -0.074120206050793058 -0.046566910179535626 -10000.025398061189 -3330.3396258166849 -0.0025633823583279813 -0.027023258633562364 -0.0025633823583279813 -3330.3666518212085 -0.0055964321254577953 -0.027023258633562364 -0.0055964321254577953 -10000.023688294703 -3330.3064153808264 0.0094043749859482606 -0.038614980057900539 0.0094043749859482606 -3330.3557032702192 -0.010355712307500653 -0.038614980057900539 -0.010355712307500653 -10000.005077878421 -3330.4062246684189 0.0044076828214332231 -0.016796411237010034 0.0044076828214332231 -3330.3486209922685 -0.012965855278253002 -0.016796411237010034 -0.012965855278253002 -10000.035991111359 -3330.3566439459355 -0.0021433637875538647 -0.00068219646345824003 -0.0021433637875538647 -3330.3718688793651 -0.0019117385309073143 -0.00068219646345824003 -0.0019117385309073143 -10000.029247091556 -3330.3349864363336 -0.0051262147291111226 0.027899563094251789 -0.0051262147291111226 -3330.3139348364784 -0.016576051761148847 0.027899563094251789 -0.016576051761148847 -9999.9518967366457 -3330.3434548423029 -0.0021433637875535316 0.0088123390996770468 -0.0021433637875535316 -3330.3586797757325 0.0018112769575964194 0.0088123390996770468 0.0018112769575964194 -9999.989679780665 -3330.3318260397718 -0.0025633823583279813 -0.017416481823602226 -0.0025633823583279813 -3330.3588520442954 -0.0022722187750332523 -0.017416481823602226 -0.0022722187750332523 -10000.000288963973 -3330.3531639196426 -0.011466432179657926 -0.022000418724019255 -0.011466432179657926 -3330.3673228343414 -0.0078752439985692035 -0.022000418724019255 -0.0078752439985692035 -10000.007741131449 -3330.3478030987153 -0.00097744957168943714 0.0030503300731652416 -0.00097744957168943714 -3330.369589560376 0.00071983914313022979 0.0030503300731652416 0.00071983914313022979 -10000.004388574554 -3330.3409522207767 0.0041032283700315197 -0.012822207085264381 0.0041032283700315197 -3330.3704582541541 -0.0070801553283672547 -0.012822207085264381 -0.0070801553283672547 -9999.9977082495316 -3330.3484401615369 -0.0026942895338954997 0.0011743632239813451 -0.0026942895338954997 -3330.3641483642605 0.00032834331977937836 0.0011743632239813451 0.00032834331977937836 -10000.005766574403 -3330.3313985895638 -0.00071399338313860028 -0.014387349365279078 -0.00071399338313860028 -3330.3625983702696 -0.0049592568248044699 -0.014387349365279078 -0.0049592568248044699 -9999.9933548707559 -3330.3364505334375 -0.0020410987496971567 -0.010822213374922285 -0.0020410987496971567 -3330.3664034993035 -0.0012207079671497922 -0.010822213374922285 -0.0012207079671497922 -10000.000753917964 -3330.3488615749848 0.0051360352742753496 0.0058650324062909931 0.0051360352742753496 -3330.3616863625612 -0.00025446242671023356 0.0058650324062909931 -0.00025446242671023356 -10000.000421791534 -3330.3481457831695 0.0020752845660617636 0.0086735269360360689 0.0020752845660617636 -3330.3567243603557 -0.0043056319773313589 0.0086735269360360689 -0.0043056319773313589 -9999.9903636620365 -3330.3406641031524 0.0045110753417534344 0.0084093089535599574 0.0045110753417534344 -3330.3536335917379 -0.0045446279473253526 0.0084093089535599574 -0.0045446279473253526 -9999.9877205498778 -3330.3440645014853 0.0029767141434954014 0.012356592778814957 0.0029767141434954014 -3330.350026330776 0.00038589406540268101 0.012356592778814957 0.00038589406540268101 -9999.9780251161574 -3330.3456202867874 0.0093849790142030154 0.013160407687337283 0.0093849790142030154 -3330.3504339198244 -0.0092932039733568672 0.013160407687337283 -0.0092932039733568672 -9999.978515959745 -3330.3597699124857 0.0049048640560180583 0.013569115577411139 0.0049048640560180583 -3330.3509207296574 -0.0088340923102805391 0.013569115577411139 -0.0088340923102805391 -9999.9821750686242 -3330.349077740264 0.011015870886476195 0.0062301496182044502 0.011015870886476195 -3330.3583581088496 -0.0046510035817846074 0.0062301496182044502 -0.0046510035817846074 -9999.9996437694281 -3330.3469912709024 0.010624688973055213 0.0064856343774408742 0.010624688973055213 -3330.353468833744 -0.0064917406634776853 0.0064856343774408742 -0.0064917406634776853 -9999.9964138159339 -3330.3632907842748 0.008683174831299767 0.0066581602914084215 0.008683174831299767 -3330.3594945822206 -0.0047934121648722794 0.0066581602914084215 -0.0047934121648722794 -10000.003481148771 -3330.3434030761546 0.017106124446400767 0.00061141897822380997 0.017106124446400767 -3330.3448448538056 -0.0083501665631047217 0.00061141897822380997 -0.0083501665631047217 -9999.9948467896393 -3330.3487768823961 0.011160014895570267 0.0007253084440890234 0.011160014895570267 -3330.3574619544543 -0.0068863096457789652 0.0007253084440890234 -0.0068863096457789652 -9999.9993445163636 -3330.3406034880245 0.0087952450196824294 -0.004951170503773028 0.0087952450196824294 -3330.356176269257 -0.0012098307342967018 -0.004951170503773028 -0.0012098307342967018 -9999.9969797464655 -3330.3465928905498 0.0056567872654431639 -0.0093125626954133622 0.0056567872654431639 -3330.3722879413854 -0.010036195143129589 -0.0093125626954133622 -0.010036195143129589 -10000.004300416556 -3330.3433969522557 0.0075568911664614102 -0.0055395132549165282 0.0075568911664614102 -3330.363148143264 -0.0037110959056008141 -0.0055395132549165282 -0.0037110959056008141 -10000.001216482458 -3330.3477931452435 0.0035185157866342021 -0.0070696513212169521 0.0035185157866342021 -3330.3742478819149 -0.0063057429351829342 -0.0070696513212169521 -0.0063057429351829342 -10000.005550666567 -3330.3396036718132 0.0087593102278316071 0.0045714624138781801 0.0087593102278316071 -3330.3558412880357 -0.0014245493766793516 0.0045714624138781801 -0.0014245493766793516 -9999.9966460471114 -3330.3417009550085 0.007050554716065971 -0.0057544630217307713 0.007050554716065971 -3330.3631869556575 -0.0041009755041159224 -0.0057544630217307713 -0.0041009755041159224 -10000.001262387443 -3330.3448939029258 0.0056396536653948726 0.0027325059418217279 0.0056396536653948726 -3330.3641649784404 -0.004292341742257122 0.0027325059418217279 -0.004292341742257122 -10000.002305130118 -3330.3430292063804 0.0011797423114612293 -0.015985793703293893 0.0011797423114612293 -3330.3725857585996 -0.010837144770448504 -0.015985793703293893 -0.010837144770448504 -10000.003483949811 -3330.3498570109095 0.0044337770835340962 -0.012560860071971547 0.0044337770835340962 -3330.3765206244079 -0.015462100293916592 -0.012560860071971547 -0.015462100293916592 -10000.006174617403 -3330.3492787464802 0.0094785496406945696 -0.0016431417425337713 0.0094785496406945696 -3330.3649529829836 -0.0076074674070696346 -0.0016431417425337713 -0.0076074674070696346 -10000.003138140943 -3330.3278819014467 0.0043712721500026586 -0.031021486196550541 0.0043712721500026586 -3330.3647949966853 -0.014438737120599399 -0.031021486196550541 -0.014438737120599399 -9999.9810421368893 -3330.3423919125398 0.014231545969195618 -0.00093932923846296035 0.014231545969195618 -3330.3443236811563 -0.0080563275296299253 -0.00093932923846296035 -0.0080563275296299253 -9999.9994823223606 -3330.3480384012419 0.011324736822179285 -0.0010287589893778204 0.011324736822179285 -3330.3596989478665 -0.0092057960864622146 -0.0010287589893778204 -0.0092057960864622146 -10000.004737761214 -3330.3489814583063 0.010274778898332192 -8.6617324996041134e-05 0.010274778898332192 -3330.3420261929259 -0.0083493284691940062 -8.6617324996041134e-05 -0.0083493284691940062 -10000.000555336745 -3330.3359096965523 0.015120252384385888 0.00087530282689840533 0.015120252384385888 -3330.3427914091571 -0.0083516036484070355 0.00087530282689840533 -0.0083516036484070355 -9999.9973571853407 -3330.3594670547864 0.0068995814050873405 -0.014541515654855175 0.0068995814050873405 -3330.3501549536959 -0.011280198516033124 -0.014541515654855175 -0.011280198516033124 -10000.009963614597 -3330.3546977830192 0.0087552951453175321 -0.017073953329600045 0.0087552951453175321 -3330.3447847481402 -0.015917928612907417 -0.017073953329600045 -0.015917928612907417 -10000.002674056726 -3330.3649357383729 0.0038262427629037511 -0.026873507445998257 0.0038262427629037511 -3330.3723807454789 -0.037817255379195558 -0.026873507445998257 -0.037817255379195558 -10000.0121325449 -3330.3542233098815 0.002258349960671785 -0.02105907459736045 0.002258349960671785 -3330.3596984424512 -0.021656560242263367 -0.02105907459736045 -0.021656560242263367 -9999.9744764013521 -3330.3818066543299 -0.01085644513421874 -0.022591718030525954 -0.01085644513421874 -3330.3810316041654 -0.0067918926288257353 -0.022591718030525954 -0.0067918926288257353 -9999.9867055278955 -3330.3684477985335 0.0024694136104491671 -0.034264441055711359 0.0024694136104491671 -3330.3777863801188 -0.014212365265848348 -0.034264441055711359 -0.014212365265848348 -9999.9944314570166 -3330.3573144956208 0.0041867429504408582 -0.026123856052436167 0.0041867429504408582 -3330.3712559733358 -0.013319858976728938 -0.026123856052436167 -0.013319858976728938 -9999.9781385805036 -3330.3696456075395 0.0065422469179814424 -0.036335849712486379 0.0065422469179814424 -3330.3799237847052 -0.022242107393140031 -0.036335849712486379 -0.022242107393140031 -10000.015195771994 -3330.3594108052657 0.0027445581968642274 -0.030514402783410333 0.0027445581968642274 -3330.3681880950608 -0.033204096700501395 -0.030514402783410333 -0.033204096700501395 -10000.000821231137 -3330.3468492925749 0.0094013504721077723 -0.023994706893063267 0.0094013504721077723 -3330.3397897957075 -0.018634357194969198 -0.023994706893063267 -0.018634357194969198 -9999.9905812781217 -3330.3229797434578 0.001969147043105357 -0.032332042890629964 0.001969147043105357 -3330.3613654324236 -0.012668990002566716 -0.032332042890629964 -0.012668990002566716 -9999.9789592063244 -3330.3425237637875 0.00694720426024098 -0.020668957975431113 0.00694720426024098 -3330.371076335201 -0.02333572216639368 -0.020668957975431113 -0.02333572216639368 -10000.006203448684 -3330.2427210817496 -0.0045895681997263349 -0.095201720210752683 -0.0045895681997263349 -3330.3294293211748 -0.023349388674205329 -0.095201720210752683 -0.023349388674205329 -9999.9460221923946 -3330.3269166773935 0.026561326306130839 -0.056405018553050468 0.026561326306130839 -3330.3872449740684 -0.05251589669387613 -0.056405018553050468 -0.05251589669387613 -10000.029291932835 -3330.2691254713336 0.008766313330077713 -0.090489956322926446 0.008766313330077713 -3330.3517343767071 -0.029712051647948101 -0.090489956322926446 -0.029712051647948101 -9999.9581995536755 -3330.3610570546825 0.0111600148955706 -0.011343889331328683 0.0111600148955706 -3330.3697421267407 -0.014680754644359695 -0.011343889331328683 -0.014680754644359695 -10000.036185033216 -3330.3660339326416 0.013897315990941017 -0.035241569665231509 0.013897315990941017 -3330.3948668576904 -0.028397834527822852 -0.035241569665231509 -0.028397834527822852 -10000.043710435439 -3330.3527964893565 0.0069472042602412021 -0.03356226942196372 0.0069472042602412021 -3330.3813490607699 -0.030665524879623263 -0.03356226942196372 -0.030665524879623263 -10000.03702162539 -3330.3882121460865 0.0092480988481426982 0.011456097334303195 0.0092480988481426982 -3330.3560705252839 -0.02218696165982692 0.011456097334303195 -0.02218696165982692 -10000.036822187813 -3330.2834148286802 0.033093117150466568 0.019137408895403496 0.033093117150466568 -3330.3250910932438 -0.012248655338225944 0.019137408895403496 -0.012248655338225944 -9999.9939725872064 -3330.3545897612839 0.017106124446400608 -0.002650538084708387 0.017106124446400608 -3330.356031538935 -0.017339770722173853 -0.002650538084708387 -0.017339770722173853 -10000.028406845024 -3330.3582005509597 0.02901452499458132 -0.0023623410600066563 0.02901452499458132 -3330.3745909510544 -0.01363548421068117 -0.0023623410600066563 -0.01363548421068117 -10000.033949395471 -3330.3358166546986 0.02526635404264238 -0.03410679363332747 0.02526635404264238 -3330.3281256921891 -0.042487219638132956 -0.03410679363332747 -0.042487219638132956 -10000.016737106689 -3330.3234708032996 0.033356281497776863 -0.044858657056465745 0.033356281497776863 -3330.3109717221705 -0.051479552279488416 -0.044858657056465745 -0.051479552279488416 -9999.9945230864942 -3330.3665041646782 0.0094013504721077168 -0.021330675284843892 0.0094013504721077168 -3330.3594446678107 -0.024364904020330869 -0.021330675284843892 -0.024364904020330869 -10000.049545894428 -3330.3557980482074 0.016244318881525419 -0.058174110437903437 0.016244318881525419 -3330.3873461399489 -0.096271098856959725 -0.058174110437903437 -0.096271098856959725 -10000.036537567008 -3330.3542778217179 0.019008330682333124 -0.063446298240705801 0.019008330682333124 -3330.3983507312696 -0.093017853241690318 -0.063446298240705801 -0.093017853241690318 -10000.024069593372 -3330.3286934529842 0.0027445581968641442 -0.046105654067105206 0.0027445581968641442 -3330.3374707427793 -0.03817709319628193 -0.046105654067105206 -0.03817709319628193 -9999.9086691742959 -3330.3593595910315 -0.0083797277780175428 -0.048264693132296088 -0.0083797277780175428 -3330.3484390792455 -0.018907836341895745 -0.048264693132296088 -0.018907836341895745 -9999.9190777929216 -3330.3955545093486 0.0094594802892826735 -0.095032795781662571 0.0094594802892826735 -3330.3823301723733 -0.023361180306892493 -0.095032795781662571 -0.023361180306892493 -9999.9974557620953 -3330.3812925862512 0.030453502127143817 -0.086012213980211527 0.030453502127143817 -3330.4058600655662 -0.050449190237145558 -0.086012213980211527 -0.050449190237145558 -10000.047539682921 -3330.3353754881045 0.0065422469179815534 -0.052762304097996093 0.0065422469179815534 -3330.3456536652702 -0.027220153942153047 -0.052762304097996093 -0.027220153942153047 -9999.912385413696 -3330.4574723510696 0.082814359221188016 -0.23568856376459735 0.082814359221188016 -3330.4361568465984 -0.035371014177144389 -0.23568856376459735 -0.035371014177144389 -10000.057286631032 -3330.3487463726506 -0.0077931118152902434 -0.095104142121272162 -0.0077931118152902434 -3330.3493680527736 -0.082743414592187037 -0.095104142121272162 -0.082743414592187037 -9999.786653963456 -3330.2858421211049 0.030453502127143928 -0.093866432547656586 0.030453502127143928 -3330.3104096004199 -0.080455925701130582 -0.093866432547656586 -0.080455925701130582 -9999.7611882874771 -3330.4020922454511 0.0066649849506683623 -0.088905405854347919 0.0066649849506683623 -3330.423514431357 -0.1520363574672956 -0.088905405854347919 -0.1520363574672956 -10000.125249772293 -3330.3974218969215 0.033356281497776974 -0.055677309641396278 0.033356281497776974 -3330.3849228157924 -0.072595937232108554 -0.055677309641396278 -0.072595937232108554 -10000.216376367356 -3330.3621140798496 0.032169464796314648 -0.13600321193734999 0.032169464796314648 -3330.3718541382941 -0.25728708959468349 -0.13600321193734999 -0.25728708959468349 -10000.102340157628 -3330.2647629825087 0.019008330682333041 -0.070715813108108705 0.019008330682333041 -3330.3088358920604 -0.11856216978594603 -0.070715813108108705 -0.11856216978594603 -9999.7555250757432 -3330.4178773590365 0.010180075814732223 0.0079626734291196044 0.010180075814732223 -3330.5072996306762 0.030463516482996056 0.0079626734291196044 0.030463516482996056 -10000.150142350521 -3330.3685360848058 0.043418000042817415 0.0031594659812981263 0.043418000042817415 -3330.3779124710154 -0.031273611051801709 0.0031594659812981263 -0.031273611051801709 -10000.105460242048 -3330.2516695303348 0.093491936452314822 0.042716510108220973 0.093491936452314822 -3330.2766024222201 0.0057930295670303167 0.042716510108220973 0.0057930295670303167 -10000.015919925903 -3330.2960909489075 0.043314917719292072 0.10420918037743832 0.043314917719292072 -3330.361580344892 -0.065995374626254488 0.10420918037743832 -0.065995374626254488 -10000.083265926543 -3330.3090066540644 0.010365778934168901 -0.040948556499643018 0.010365778934168901 -3330.5572969327595 -0.056886652980665531 -0.040948556499643018 -0.056886652980665531 -10000.197907077771 -3330.3958201332771 0.038943992094490308 0.016457421644645365 0.038943992094490308 -3330.407054977597 -0.00069340050322352909 0.016457421644645365 -0.00069340050322352909 -10000.182049958785 -3330.0607970266219 0.017667476328411924 -0.22793957211615634 0.017667476328411924 -3330.2935061590406 -0.035911926304152075 -0.22793957211615634 -0.035911926304152075 -9999.9224551280313 -3330.3791485418333 0.026561326306130839 -0.048143950476514874 0.026561326306130839 -3330.4394768385082 -0.047170150208785344 -0.048143950476514874 -0.047170150208785344 -10000.185987526154 -3330.4027568964329 -0.0090856959014518068 0.073201296929255477 -0.0090856959014518068 -3330.3928576941225 0.046435020447461284 0.073201296929255477 0.046435020447461284 -10000.141778367361 -3330.3646489879948 0.018600199315872423 0.020676142732554581 0.018600199315872423 -3330.4172078033089 0.020244265131168504 0.020676142732554581 0.020244265131168504 -10000.138338917546 -3330.5194711997256 -0.068939192831736884 0.09653833182528615 -0.068939192831736884 -3330.4552357060847 0.081463998318213271 0.09653833182528615 0.081463998318213271 -10000.099066173214 -3330.3170030995507 0.052660441650013934 0.033446305784309516 0.052660441650013934 -3330.5407378074824 -0.017682284562397399 0.033446305784309516 -0.017682284562397399 -10000.195766407825 -3330.349424413198 0.02760024914383763 0.03678921727805573 0.02760024914383763 -3330.3773105566324 0.047256048868803191 0.03678921727805573 0.047256048868803191 -10000.124558462179 -3330.3669692011244 -0.010405218919003936 0.048126381239853799 -0.010405218919003936 -3330.3627690796729 0.037673409568469651 0.048126381239853799 0.037673409568469651 -10000.037824016959 -3330.1264217802891 0.14962787070472905 0.17422781981986191 0.14962787070472905 -3330.3797579745105 0.18424647147367068 0.17422781981986191 0.18424647147367068 -9999.8599859874594 -3330.3543428398116 0.0029767141434953459 0.012782416104528238 0.0029767141434953459 -3330.3603046691023 -0.00066891826463688631 0.012782416104528238 -0.00066891826463688631 -10000.008860131136 -3330.3414735759216 -0.0090856959014520289 0.027751097892178223 -0.0090856959014520289 -3330.3315743736111 -0.018917392020739499 0.027751097892178223 -0.018917392020739499 -9999.9579284058273 -3330.3256801806037 -0.010405218919003881 0.045922761662950506 -0.010405218919003881 -3330.3214800591522 -0.018967522245930013 0.045922761662950506 -0.018967522245930013 -9999.9139569554027 -3330.3788407446882 -0.018843811042653869 0.016899835549338604 -0.018843811042653869 -3330.3390265848739 -0.028732802491504117 0.016899835549338604 -0.028732802491504117 -9999.9691332508337 -3330.3556083612129 0.0056567872654431639 -0.019891558062226977 0.0056567872654431639 -3330.3813034120485 -0.015260481976383744 -0.019891558062226977 -0.015260481976383744 -10000.031346828542 -3330.3538532067851 0.0045110753417536564 -0.0010852266022993717 0.0045110753417536564 -3330.3668226953705 -0.0082676434285531286 -0.0010852266022993717 -0.0082676434285531286 -10000.027287860768 -3330.3288931952502 0.018600199315872201 -0.021795726170239504 0.018600199315872201 -3330.3814520105643 -0.026784007096011919 -0.021795726170239504 -0.026784007096011919 -10000.03107153931 -3330.3503371192601 0.0087952450196824294 -0.015525953895121347 0.0087952450196824294 -3330.3659099004926 -0.0079420304027735256 -0.015525953895121347 -0.0079420304027735256 -10000.026180640165 -3330.3043538268757 0.02760024914383763 0.0054671927482559113 0.02760024914383763 -3330.3322399703102 0.0050786285028152633 0.0054671927482559113 0.0050786285028152633 -9999.9893467032016 -3330.3479774996395 0.0081754577783386129 -0.013368293606617954 0.0081754577783386129 -3330.3708834531772 -0.012656350376346381 -0.013368293606617954 -0.012656350376346381 -10000.03320047606 -3330.2981051338047 0.02344533027544049 0.018804060786351329 0.02344533027544049 -3330.3299100250788 0.0047779055621504085 0.018804060786351329 0.0047779055621504085 -9999.9872020436233 -3330.3330761451343 0.043418000042817539 0.0097198013118031668 0.043418000042817539 -3330.342452531344 -0.010522003234655131 0.0097198013118031668 -0.010522003234655131 -9999.9990804230256 -3330.3353669624157 0.038943992094490086 0.010538957235894486 0.038943992094490086 -3330.3466018067356 6.8640438257716596e-06 0.010538957235894486 6.8640438257716596e-06 -10000.000690446192 -3330.3850609985802 0.016899775871046741 0.025616591969082947 0.016899775871046741 -3330.3887267773152 -0.0011713501935446402 0.025616591969082947 -0.0011713501935446402 -10000.023645197878 -3330.4070405562925 -0.041208213494542512 0.047402470190718304 -0.041208213494542512 -3330.3803543925842 -0.03575396518499474 0.047402470190718304 -0.03575396518499474 -9999.9490156326829 -3330.3469051517404 0.0093849790142030293 0.02242037798578167 0.0093849790142030293 -3330.3517187847774 -0.016824000955239171 0.02242037798578167 -0.016824000955239171 -9999.9823705546005 -3330.3290370987997 -0.0072070879086579831 0.047324125131126493 -0.0072070879086579831 -3330.3295703024723 -0.03584197212694562 0.047324125131126493 -0.03584197212694562 -9999.9168187457763 -3330.3689754966144 0.02350933001797921 0.012460623594961362 0.02350933001797921 -3330.3910975414274 0.0032059305221991963 0.012460623594961362 0.0032059305221991963 -10000.020216513418 -3330.296214557171 0.27764914157819881 0.12420875067073212 0.27764914157819881 -3330.0717603268004 0.19513232207464171 0.12420875067073212 0.19513232207464171 -9999.6777778835349 -3330.3377928219425 -0.037606292050344783 0.045423833385939361 -0.037606292050344783 -3330.2920495911412 0.070216007718954643 0.045423833385939361 0.070216007718954643 -10000.012850050029 -3330.337536341447 -0.0072070879086579762 0.030761343150516041 -0.0072070879086579762 -3330.3380695451197 0.037710383672674652 0.030761343150516041 0.037710383672674652 -9999.94231647372 -3330.5225666487122 0.051024268614983048 0.1111209345667703 0.051024268614983048 -3330.3480235874713 0.046029203851503553 0.1111209345667703 0.046029203851503553 -10000.10149949681 -3330.3623476978446 0.016899775871046629 0.0085968146468076156 0.016899775871046629 -3330.3660134765796 0.04508501094460371 0.0085968146468076156 0.04508501094460371 -9999.9555052956821 -3330.555161248365 0.076557559174253997 0.093605983985980856 0.076557559174253997 -3330.5598048975662 -0.01288638546520815 0.093605983985980856 -0.01288638546520815 -10000.162593474248 -3330.3722314054521 0.0030441661587711222 0.016665714094415307 0.0030441661587711222 -3330.3603316198314 0.072226621407025959 0.016665714094415307 0.072226621407025959 -9999.9565557583992 -3330.3398311826795 -0.019985091743105921 -0.033431734889745712 -0.019985091743105921 -3330.3617389475212 0.063148655312033952 -0.033431734889745712 0.063148655312033952 -9999.9488075346271 -3330.3482478809547 -0.013577019978862737 -0.0024463873014610726 -0.013577019978862737 -3330.3538370854694 0.00040731967874307884 -0.0024463873014610726 0.00040731967874307884 -9999.9489362436834 -3330.6512786304311 -0.017236135563695909 -0.11734243551109103 -0.017236135563695909 -3329.9969132037804 0.21082426164866774 -0.11734243551109103 0.21082426164866774 -9999.8824848734766 -3330.3640257749157 -0.016403978040353207 0.0068745758217119146 -0.016403978040353207 -3330.416345070038 -0.025381740981174516 0.0068745758217119146 -0.025381740981174516 -10000.006576468597 -3330.3634753830684 -0.013577019978862737 0.0289838192948082 -0.013577019978862737 -3330.3690645875831 -0.070150109690985119 0.0289838192948082 -0.070150109690985119 -9999.9946187500209 -3330.3648219377919 0.0036921963703571148 0.013893783856474329 0.0036921963703571148 -3330.3524380544859 -0.0264021347866219 0.013893783856474329 -0.0264021347866219 -9999.9870295685396 -3330.3609174971371 0.0014803607046215417 0.0034996326903637964 0.0014803607046215417 -3330.3449006431729 -0.0053553182260657195 0.0034996326903637964 -0.0053553182260657195 -9999.9841691055481 -3330.36261575348 -0.00011647100944389699 0.017986666189244715 -0.00011647100944389699 -3330.3461967668918 -0.0027301785885356367 0.017986666189244715 -0.0027301785885356367 -9999.9849177005599 -3330.3572626896057 0.008683174831299767 0.014572953863535076 0.008683174831299767 -3330.3534664875515 -0.014212989945008303 0.014572953863535076 -0.014212989945008303 -9999.9853968647585 -3330.3918516490048 0.0031489619373841204 0.037889853772867355 0.0031489619373841204 -3330.3573278321237 -0.013689273411728209 0.037889853772867355 -0.013689273411728209 -10000.029140977003 -3330.4026407525289 -0.0015617793512241462 0.042383062251246884 -0.0015617793512241462 -3330.3848299554011 0.0014246730679587927 0.042383062251246884 0.0014246730679587927 -10000.038713783706 -3330.3710798374941 0.0030441661587713442 0.050973976594832493 0.0030441661587713442 -3330.3591800518734 0.014105111489698174 0.050973976594832493 0.014105111489698174 -9999.9531010545179 -3330.3386796147188 -0.019985091743105698 0.00087652761249046307 -0.019985091743105698 -3330.3605873795605 0.0050271453947061673 0.00087652761249046307 0.0050271453947061673 -9999.9453528307458 -3330.3437199290638 -0.0049853884559567518 0.04288337788420904 -0.0049853884559567518 -3330.3544217418803 0.022195710203959607 0.04288337788420904 0.022195710203959607 -9999.9450714999111 -3330.3996476988304 -0.21935035247236212 -0.073407193802268011 -0.21935035247236212 -3330.086191563767 0.21258879597917257 -0.073407193802268011 0.21258879597917257 -9999.7373068610323 -3329.9851639923281 0.11331652015614502 0.12084152274655935 0.11331652015614502 -3330.1716154246133 0.025719037008457235 0.12084152274655935 0.025719037008457235 -9999.9230467919988 -3330.4007534495049 -0.0088876318030473578 0.068914393882096192 -0.0088876318030473578 -3330.3724319324538 0.011805204663687618 0.068914393882096192 0.011805204663687618 -10000.077148283261 -3330.3479213466444 0.010562796203795077 -0.01021955666874419 0.010562796203795077 -3330.3720795131439 -0.031019502236631524 -0.01021955666874419 -0.031019502236631524 -10000.159619417926 -3330.3845248347734 -0.010570237612742783 0.0025246542754757684 -0.010570237612742783 -3330.3677426709955 -0.0089458813053511221 0.0025246542754757684 -0.0089458813053511221 -10000.167686079418 -3330.3769114185316 0.024430572313500987 0.0053969346445228439 0.024430572313500987 -3330.3933177823847 -0.045384693858977698 0.0053969346445228439 -0.045384693858977698 -10000.213347489407 -3330.3596085673444 0.013323208180795909 0.0028261146198929055 0.013323208180795909 -3330.3871514258562 -0.040425463655992644 0.0028261146198929055 -0.040425463655992644 -10000.207480187477 -3330.3697753683309 0.025026633406391996 -0.07601674548095616 0.025026633406391996 -3330.3498403644817 -0.098412026851292467 -0.07601674548095616 -0.098412026851292467 -10000.166710091093 -3330.3545020899674 -0.0010407723839858107 -0.065908662754736724 -0.0010407723839858107 -3330.4572429485252 -0.05201934461001656 -0.065908662754736724 -0.05201934461001656 -10000.223726448803 -3330.3852292606425 0.014798049600741603 -0.048081045231811004 0.014798049600741603 -3330.3867000780701 -0.059711296052910257 -0.048081045231811004 -0.059711296052910257 -10000.179788492565 -3330.2366515461899 0.060103017255211388 -0.056575463766421308 0.060103017255211388 -3330.3490268989999 -0.039089594571123598 -0.056575463766421308 -0.039089594571123598 -10000.167209800475 -3330.0424039993113 -0.38817796362203882 -0.23713736936952046 -0.38817796362203882 -3330.2209203758493 0.1072974160015292 -0.23713736936952046 0.1072974160015292 -9999.8964587365663 -3330.4106874730642 0.0040872424702554921 -0.025188974530465202 0.0040872424702554921 -3330.3608635250766 -0.022376904806151288 -0.025188974530465202 -0.022376904806151288 -10000.172506952513 -3330.3933460892276 0.01575905122414345 -0.043831714710904635 0.01575905122414345 -3330.3262868545062 -0.066258122515137075 -0.043831714710904635 -0.066258122515137075 -10000.166714393821 -3330.3234839118286 0.054434241899990576 -0.033763649475076818 0.054434241899990576 -3330.1827431671354 -0.037228677598250215 -0.033763649475076818 -0.037228677598250215 -10000.106175972716 -3330.3623900058519 -0.0075445265535796224 0.0067730114024016075 -0.0075445265535796224 -3330.3549642610051 -0.0049144117474497762 0.0067730114024016075 -0.0049144117474497762 -10000.042457781019 -3330.345255094313 0.015759051224143228 0.016135753699927591 0.015759051224143228 -3330.2781958595915 0.00010268675396218896 0.016135753699927591 0.00010268675396218896 -10000.022441409077 -3330.3292445970856 0.011591984265126198 0.0016697187238605693 0.011591984265126198 -3330.3377539960238 -0.013753574025031412 0.0016697187238605693 -0.013753574025031412 -10000.029868862581 -3330.352181208922 -0.0012945085137181511 -0.0052212528935342561 -0.0012945085137181511 -3330.3513575736615 -0.016019085964217084 -0.0052212528935342561 -0.016019085964217084 -10000.040545289383 -3330.3654712601128 0.0040872424702552701 0.027827372361571179 0.0040872424702552701 -3330.3156473121253 0.020353164483822184 0.027827372361571179 0.020353164483822184 -10000.036858313662 -3330.3795302459675 0.026545708004572344 0.018044300282781478 0.026545708004572344 -3330.3458299071244 0.013173327986805816 0.018044300282781478 0.013173327986805816 -10000.026127187961 -3330.3641379031687 0.001688795098150675 -0.0098813072545453906 0.001688795098150675 -3330.3573826295942 -0.014755308900930686 -0.0098813072545453906 -0.014755308900930686 -10000.0484388195 -3330.3588810559704 0.004886352263428817 -0.019490008548018523 0.004886352263428817 -3330.3477342711212 -0.02806672615770367 -0.019490008548018523 -0.02806672615770367 -10000.044712518084 -3330.3094178872288 0.025026633406391996 -0.041920558904166683 0.025026633406391996 -3330.2894828833796 -0.057388452896702802 -0.041920558904166683 -0.057388452896702802 -9999.9856376477801 -3330.3592409957364 0.0057062748962971588 -0.018103814936694107 0.0057062748962971588 -3330.3520701990365 -0.029729192963714013 -0.018103814936694107 -0.029729192963714013 -10000.042488392428 -3330.3623440830252 0.0039893250240099487 -0.0066350335036986507 0.0039893250240099487 -3330.3560167131582 -0.013840913126500709 -0.0066350335036986507 -0.013840913126500709 -10000.04425079278 -3330.335754483207 0.014798049600741825 -0.001193403237266466 0.014798049600741825 -3330.3372253006346 -0.0093424409058115998 -0.001193403237266466 -0.0093424409058115998 -10000.031364160262 -3330.3574158845913 0.010948968156037076 0.001815133095078636 0.010948968156037076 -3330.3561634828748 -0.014052435448320466 0.001815133095078636 -0.014052435448320466 -10000.046453528179 -3330.3053337855508 0.024430572313500987 0.034062267135595903 0.024430572313500987 -3330.3217401494039 -0.017376996395796596 0.034062267135595903 -0.017376996395796596 -9999.9986145904622 -3330.3488527468162 0.00547953220340891 0.0023217594407469733 0.00547953220340891 -3330.3525218192481 -0.015029740996396868 0.0023217594407469733 -0.015029740996396868 -10000.043402327829 -3330.2880309343636 0.013323208180795465 0.031491447107327986 0.013323208180795465 -3330.3155737928755 -0.01241776619644952 0.031491447107327986 -0.01241776619644952 -9999.9927472885283 -3330.3249812546437 0.018121022464662184 0.010536198908084771 0.018121022464662184 -3330.3338383809423 -0.0096062253584250357 0.010536198908084771 -0.0096062253584250357 -10000.027824123201 -3330.3657623243289 -0.0054239391559223193 0.011627016920101596 -0.0054239391559223193 -3330.3586372261198 -0.0077168731395431678 0.011627016920101596 -0.0077168731395431678 -10000.044219101917 -3330.293988525329 0.010562796203794633 0.045387948241113918 0.010562796203794633 -3330.3181466918286 -0.002613534522424743 0.045387948241113918 -0.002613534522424743 -9999.9978209539804 -3330.3247660242869 -0.0078858059213602338 0.035736397752771154 -0.0078858059213602338 -3330.3432253139981 -0.0050652959798753727 0.035736397752771154 -0.0050652959798753727 -10000.008843941294 -3330.3851275342749 -0.0088876318030472468 0.079238811037612322 -0.0088876318030472468 -3330.3568060172238 0.0064567768931738101 0.079238811037612322 0.0064567768931738101 -10000.030270537565 -3330.3640427704086 -0.0051910235655804327 0.030633258418674814 -0.0051910235655804327 -3330.3517767687481 -0.0064326780484407209 0.030633258418674814 -0.0064326780484407209 -10000.020800991508 -3330.3522586457675 -0.0054239391559227634 -0.00024039460549829528 -0.0054239391559227634 -3330.3451335475584 -0.0055432989729524706 -0.00024039460549829528 -0.0055432989729524706 -10000.003708066237 -3330.3590483348798 -0.0051910235655803216 0.013710622408325435 -0.0051910235655803216 -3330.3467823332194 -0.0018051351980830077 0.013710622408325435 -0.0018051351980830077 -10000.005817684927 -3330.3327020358538 0.0054795322034085769 0.0022458057956100674 0.0054795322034085769 -3330.3363711082857 -0.0096257464501832146 0.0022458057956100674 -0.0096257464501832146 -9999.994950194945 -3330.3412651736307 0.010948968156036853 0.0017391794535797089 0.010948968156036853 -3330.3400127719142 -0.0086484409039258026 0.0017391794535797089 -0.0086484409039258026 -9999.9980013953027 -3330.3409453606655 0.0057062748962970478 -0.020837215381106944 0.0057062748962970478 -3330.3337745639656 -0.024984486633911729 -0.020837215381106944 -0.024984486633911729 -9999.9876014872134 -3330.349522513101 0.0039893250240099487 -0.0081576750271779019 0.0039893250240099487 -3330.343195143234 -0.0090212791781141277 -0.0081576750271779019 -0.0090212791781141277 -10000.005786083006 -3330.3401152281876 -0.0012945085137181511 -0.011537703385329223 -0.0012945085137181511 -3330.3392915929271 -0.013379040883592097 -0.011537703385329223 -0.013379040883592097 -10000.004347347174 -3330.3509405768873 -0.0075445265535798445 -0.0057659227331896545 -0.0075445265535798445 -3330.3435148320405 -0.0033820234530139714 -0.0057659227331896545 -0.0033820234530139714 -10000.008109494127 -3330.3510884967855 0.0031407364807671811 -0.0073567205690778792 0.0031407364807671811 -3330.3316318840316 -0.0085051987989572808 -0.0073567205690778792 -0.0085051987989572808 -10000.001624682649 -3330.3504023595033 0.0039207193098522719 -0.0075008083040302154 0.0039207193098522719 -3330.3332464577543 -0.01003329564264277 -0.0075008083040302154 -0.01003329564264277 -10000.003518873236 -3330.3564946497718 0.00040333384948287865 -0.0031091615546756657 0.00040333384948287865 -3330.3342748245741 -0.0024267402841360308 -0.0031091615546756657 -0.0024267402841360308 -10000.005299037504 -3330.3512207127587 -0.0079043736257409236 -0.008010644160094671 -0.0079043736257409236 -3330.3408373090333 -0.0010571433012955822 -0.008010644160094671 -0.0010571433012955822 -10000.002374523348 -3330.3532178927762 0.0047444267435303722 -0.0072023712928057648 0.0047444267435303722 -3330.3423802818852 -0.0087430004791713145 -0.0072023712928057648 -0.0087430004791713145 -10000.004844131116 -3330.3479164365544 0.0048773454672115246 -0.0078621786778967362 0.0048773454672115246 -3330.3410540495152 -0.0086331209822674282 -0.0078621786778967362 -0.0086331209822674282 -10000.004800733994 -3330.3543230018622 0.0042080839396356762 -0.012819938539905706 0.0042080839396356762 -3330.3430154840426 -0.016525298979104264 -0.012819938539905706 -0.016525298979104264 -10000.005279208926 -3330.3526497747625 0.0026280993069853764 -0.012596519298313069 0.0026280993069853764 -3330.34328265359 -0.015191841197520262 -0.012596519298313069 -0.015191841197520262 -10000.006541219576 -3330.3424096169438 0.0062875983025121318 -0.0028123953561589587 0.0062875983025121318 -3330.3409652268783 -0.0091414880018874101 -0.0028123953561589587 -0.0091414880018874101 -10000.003450379874 -3330.3409971237506 0.0070918879988562944 -0.0025215533041773597 0.0070918879988562944 -3330.3388835517162 -0.0087532251418451779 -0.0025215533041773597 -0.0087532251418451779 -10000.002528281344 -3330.3468469531817 0.010730741090135831 -0.0037126832103240304 0.010730741090135831 -3330.3434584920997 -0.0064554806958767585 -0.0037126832103240304 -0.0064554806958767585 -10000.005134473795 -3330.3552550567056 0.0018797163512289661 0.0096769557576408261 0.0018797163512289661 -3330.3412022327848 -0.0024171523509721737 0.0096769557576408261 -0.0024171523509721737 -10000.001796231278 -3330.3364507275819 0.0033152240147096279 0.0058093722800549585 0.0033152240147096279 -3330.3351127634487 -0.0034534682235971559 0.0058093722800549585 -0.0034534682235971559 -9999.9955727816705 -3330.3474321480517 0.0033878386017365258 2.0984138245694339e-05 0.0033878386017365258 -3330.3394441384389 -0.004233930740156211 2.0984138245694339e-05 -0.004233930740156211 -10000.004325740541 -3330.3544021495727 -0.0042568933665512176 0.0076042156106268521 -0.0042568933665512176 -3330.3400572977262 0.0053995534417481394 0.0076042156106268521 0.0053995534417481394 -9999.9840902027354 -3330.363720061654 -0.00011647100944400801 0.0081919090080191381 -0.00011647100944400801 -3330.3473010750658 0.0048118600461748429 0.0081919090080191381 0.0048118600461748429 -9999.9882306250875 -3330.3620218053129 0.0014803607046217637 -0.0062951244908617809 0.0014803607046217637 -3330.3460049513487 0.00218672040864476 -0.0062951244908617809 0.00218672040864476 -9999.9874820300756 -3330.3642136386716 0.0059214390587395416 0.010063410467409994 0.0059214390587395416 -3330.3484105416483 -0.002803607058012858 0.010063410467409994 -0.002803607058012858 -10000.005837953991 -3330.3545361143606 0.0036469935229718198 0.0050833415953093208 0.0036469935229718198 -3330.3438837885169 -0.00036810637175221927 0.0050833415953093208 -0.00036810637175221927 -9999.995903765499 -3330.3672527128947 0.0055623312516032697 0.01001172333053546 0.0055623312516032697 -3330.3592895928341 -0.0029774687027384061 0.01001172333053546 -0.0029774687027384061 -10000.009317485346 -3330.353122805469 0.0080414554853015519 0.0035529393717297353 0.0080414554853015519 -3330.3525063810503 -0.0055159683815872995 0.0035529393717297353 -0.0055159683815872995 -9999.9977060864039 -3330.35718131266 0.0075107711451829484 0.0021536657040996943 0.0075107711451829484 -3330.3532377819374 -0.011357948098520865 0.0021536657040996943 -0.011357948098520865 -9999.998903563428 -3330.3533341589027 0.0055502138036231941 -0.0025873134691209998 0.0055502138036231941 -3330.3425887620797 -0.0017580762832949404 -0.0025873134691209998 -0.0017580762832949404 -9999.9952795200225 -3330.3650129818398 0.00085908355515923462 -0.0045897598884039326 0.00085908355515923462 -3330.3489757522657 -0.0019483615578792524 -0.0045897598884039326 -0.0019483615578792524 -9999.998922588471 -3330.3699062715859 0.0036921963703568927 0.0036475458873610478 0.0036921963703568927 -3330.3575223882799 -0.018627844166985597 0.0036475458873610478 -0.018627844166985597 -10000.002282569912 
</DataArray>
</CellData>
</Piece>
</UnstructuredGrid>
</VTKFile>
