<?xml version="1.0"?>
<VTKFile type="UnstructuredGrid" version="0.1" byte_order="LittleEndian">
<UnstructuredGrid>
<Piece NumberOfPoints="2160" NumberOfCells="540">
<Points>
<DataArray type="Float64" NumberOfComponents="3" format="ascii">
-4.3301270160527148 -2.500000004970083 -12 -2.9547160992544761 -1.820741508163664 -15 -2.9547160992544761 -1.820741508163664 -12 -5 -1.397247784140632e-08 -12 -4.3301270160527148 -2.500000004970083 -12 -2.9547160992544761 -1.820741508163664 -15 -2.9547160992544761 -1.820741508163664 -12 -2.5000000000000022 -4.3301270189221919 -12 -4.3301270160527148 -2.500000004970083 -12 -4.3301270160527148 -2.500000004970083 -15 -2.9547160992544761 -1.820741508163664 -15 -2.5000000000000022 -4.3301270189221919 -12 -4.3301270160527148 -2.500000004970083 -12 -4.3301270160527148 -2.500000004970083 -15 -2.9547160992544761 -1.820741508163664 -15 -5 -1.397247784140632e-08 -15 -2.9547160992544761 -1.820741508163664 -15 -0.66987297914647026 -2.499999999706382 -15 -0.66987297914647026 -2.499999999706382 -12 -2.2735805010731909 0.22641949675281539 -12 -2.9547160992544761 -1.820741508163664 -15 -2.5000000000000022 -4.3301270189221919 -12 -0.66987297914647026 -2.499999999706382 -15 -0.66987297914647026 -2.499999999706382 -12 -2.9547160992544761 -1.820741508163664 -15 -2.9547160992544761 -1.820741508163664 -12 -0.66987297914647026 -2.499999999706382 -12 -2.2735805010731909 0.22641949675281539 -12 -2.9547160992544761 -1.820741508163664 -15 -2.9547160992544761 -1.820741508163664 -12 -2.5000000000000022 -4.3301270189221919 -12 -0.66987297914647026 -2.499999999706382 -12 -2.5000000000000022 -4.3301270189221919 -12 -2.5000000000000022 -4.3301270189221919 -15 -0.66987297914647026 -2.499999999706382 -15 6.9142305214597846e-09 -5 -12 -2.9547160992544761 -1.820741508163664 -15 -2.5000000000000022 -4.3301270189221919 -12 -2.5000000000000022 -4.3301270189221919 -15 -0.66987297914647026 -2.499999999706382 -15 -4.3301270160527148 -2.500000004970083 -15 -2.9547160992544761 -1.820741508163664 -15 -2.5000000000000022 -4.3301270189221919 -12 -2.5000000000000022 -4.3301270189221919 -15 -2.5000000000000022 -4.3301270189221919 -15 6.9142305214597846e-09 -5 -15 -0.66987297914647026 -2.499999999706382 -15 6.9142305214597846e-09 -5 -12 6.9142305214597846e-09 -5 -15 -0.66987297914647026 -2.499999999706382 -15 0.91506351643986317 -3.4150635091400758 -15 6.9142305214597846e-09 -5 -12 -0.66987297914647026 -2.499999999706382 -15 0.91506351643986317 -3.4150635091400758 -15 -0.66987297914647026 -2.499999999706382 -12 6.9142305214597846e-09 -5 -12 -0.66987297914647026 -2.499999999706382 -15 0.95458002071209891 -1.657898275923388 -15 -0.66987297914647026 -2.499999999706382 -12 0.20080558631870429 0.033909897404034287 -15 -0.66987297914647026 -2.499999999706382 -15 0.95458002071209891 -1.657898275923388 -15 0.91506351643986317 -3.4150635091400758 -15 -0.66987297914647026 -2.499999999706382 -12 0.95458002071209891 -1.657898275923388 -15 0.91506351643986317 -3.4150635091400758 -15 0.91506351643986317 -3.4150635091400758 -12 -0.66987297914647026 -2.499999999706382 -12 0.95458002071209891 -1.657898275923388 -15 2.217625015551433 -2.5696135239339939 -15 0.95458002071209891 -1.657898275923388 -12 2.3883545080289421 -0.94497882694672608 -12 0.95458002071209891 -1.657898275923388 -15 2.217625015551433 -2.5696135239339939 -15 2.3883545080289421 -0.94497882694672608 -12 2.3883545080289421 -0.94497882694672608 -15 0.95458002071209891 -1.657898275923388 -15 2.217625015551433 -2.5696135239339939 -15 0.91506351643986317 -3.4150635091400758 -12 0.95458002071209891 -1.657898275923388 -12 0.95458002071209891 -1.657898275923388 -15 2.217625015551433 -2.5696135239339939 -15 0.91506351643986317 -3.4150635091400758 -15 0.91506351643986317 -3.4150635091400758 -12 2.217625015551433 -2.5696135239339939 -15 0.91506351643986317 -3.4150635091400758 -15 2.500000010727558 -4.3301270127286351 -15 2.500000010727558 -4.3301270127286351 -12 6.9142305214597846e-09 -5 -15 0.91506351643986317 -3.4150635091400758 -15 6.9142305214597846e-09 -5 -12 2.500000010727558 -4.3301270127286351 -12 6.9142305214597846e-09 -5 -15 0.91506351643986317 -3.4150635091400758 -15 2.500000010727558 -4.3301270127286351 -15 2.500000010727558 -4.3301270127286351 -12 2.217625015551433 -2.5696135239339939 -15 0.91506351643986317 -3.4150635091400758 -15 0.91506351643986317 -3.4150635091400758 -12 2.500000010727558 -4.3301270127286351 -12 0.91506351643986317 -3.4150635091400758 -15 0.91506351643986317 -3.4150635091400758 -12 6.9142305214597846e-09 -5 -12 2.500000010727558 -4.3301270127286351 -12 2.217625015551433 -2.5696135239339939 -15 0.91506351643986317 -3.4150635091400758 -12 2.217625015551433 -2.5696135239339939 -12 2.500000010727558 -4.3301270127286351 -12 2.217625015551433 -2.5696135239339939 -15 2.217625015551433 -2.5696135239339939 -12 0.95458002071209891 -1.657898275923388 -12 2.3883545080289421 -0.94497882694672608 -12 2.217625015551433 -2.5696135239339939 -15 0.91506351643986317 -3.4150635091400758 -12 2.217625015551433 -2.5696135239339939 -12 0.95458002071209891 -1.657898275923388 -12 0.95458002071209891 -1.657898275923388 -15 0.91506351643986317 -3.4150635091400758 -12 0.95458002071209891 -1.657898275923388 -12 -0.66987297914647026 -2.499999999706382 -12 0.95458002071209891 -1.657898275923388 -15 0.95458002071209891 -1.657898275923388 -12 -0.66987297914647026 -2.499999999706382 -12 0.20080558631870429 0.033909897404034287 -12 0.91506351643986317 -3.4150635091400758 -15 0.91506351643986317 -3.4150635091400758 -12 -0.66987297914647026 -2.499999999706382 -12 6.9142305214597846e-09 -5 -12 -2.5000000000000022 -4.3301270189221919 -12 -0.66987297914647026 -2.499999999706382 -15 -0.66987297914647026 -2.499999999706382 -12 6.9142305214597846e-09 -5 -12 0.91506351643986317 -3.4150635091400758 -12 -0.66987297914647026 -2.499999999706382 -12 6.9142305214597846e-09 -5 -12 6.9142305214597846e-09 -5 -9 0.91506351643986317 -3.4150635091400758 -12 0.91506351643986317 -3.4150635091400758 -9 -0.66987297914647026 -2.499999999706382 -9 6.9142305214597846e-09 -5 -9 0.91506351643986317 -3.4150635091400758 -12 -0.66987297914647026 -2.499999999706382 -12 -0.66987297914647026 -2.499999999706382 -9 6.9142305214597846e-09 -5 -9 -0.66987297914647026 -2.499999999706382 -12 -0.66987297914647026 -2.499999999706382 -9 6.9142305214597846e-09 -5 -9 -2.5000000000000022 -4.3301270189221919 -9 -2.5000000000000022 -4.3301270189221919 -12 -0.66987297914647026 -2.499999999706382 -12 6.9142305214597846e-09 -5 -12 6.9142305214597846e-09 -5 -9 0.95458002071209891 -1.657898275923388 -12 -0.66987297914647026 -2.499999999706382 -12 -0.66987297914647026 -2.499999999706382 -9 0.20080558631870429 0.033909897404034287 -12 0.91506351643986317 -3.4150635091400758 -12 0.95458002071209891 -1.657898275923388 -12 0.91506351643986317 -3.4150635091400758 -9 -0.66987297914647026 -2.499999999706382 -9 0.95458002071209891 -1.657898275923388 -12 0.95458002071209891 -1.657898275923388 -9 -0.66987297914647026 -2.499999999706382 -9 0.20080558631870429 0.033909897404034287 -9 0.91506351643986317 -3.4150635091400758 -12 0.95458002071209891 -1.657898275923388 -12 -0.66987297914647026 -2.499999999706382 -12 -0.66987297914647026 -2.499999999706382 -9 0.95458002071209891 -1.657898275923388 -12 0.91506351643986317 -3.4150635091400758 -9 0.95458002071209891 -1.657898275923388 -9 -0.66987297914647026 -2.499999999706382 -9 2.217625015551433 -2.5696135239339939 -12 0.95458002071209891 -1.657898275923388 -9 2.217625015551433 -2.5696135239339939 -9 2.3883545080289421 -0.94497882694672608 -9 2.217625015551433 -2.5696135239339939 -12 0.95458002071209891 -1.657898275923388 -12 2.3883545080289421 -0.94497882694672608 -9 2.3883545080289421 -0.94497882694672608 -12 2.217625015551433 -2.5696135239339939 -12 0.95458002071209891 -1.657898275923388 -12 0.95458002071209891 -1.657898275923388 -9 2.3883545080289421 -0.94497882694672608 -9 2.217625015551433 -2.5696135239339939 -12 0.95458002071209891 -1.657898275923388 -12 0.91506351643986317 -3.4150635091400758 -9 0.95458002071209891 -1.657898275923388 -9 0.91506351643986317 -3.4150635091400758 -12 2.217625015551433 -2.5696135239339939 -12 0.95458002071209891 -1.657898275923388 -12 0.91506351643986317 -3.4150635091400758 -9 2.217625015551433 -2.5696135239339939 -12 0.91506351643986317 -3.4150635091400758 -9 0.95458002071209891 -1.657898275923388 -9 2.217625015551433 -2.5696135239339939 -9 0.91506351643986317 -3.4150635091400758 -12 6.9142305214597846e-09 -5 -12 2.500000010727558 -4.3301270127286351 -12 2.500000010727558 -4.3301270127286351 -9 0.91506351643986317 -3.4150635091400758 -12 0.91506351643986317 -3.4150635091400758 -9 6.9142305214597846e-09 -5 -9 2.500000010727558 -4.3301270127286351 -9 0.91506351643986317 -3.4150635091400758 -12 6.9142305214597846e-09 -5 -12 6.9142305214597846e-09 -5 -9 2.500000010727558 -4.3301270127286351 -9 0.91506351643986317 -3.4150635091400758 -12 2.217625015551433 -2.5696135239339939 -12 0.91506351643986317 -3.4150635091400758 -9 2.500000010727558 -4.3301270127286351 -9 0.91506351643986317 -3.4150635091400758 -12 2.217625015551433 -2.5696135239339939 -12 2.500000010727558 -4.3301270127286351 -12 2.500000010727558 -4.3301270127286351 -9 2.217625015551433 -2.5696135239339939 -12 0.91506351643986317 -3.4150635091400758 -9 2.217625015551433 -2.5696135239339939 -9 2.500000010727558 -4.3301270127286351 -9 0.91506351643986317 -3.4150635091400758 -9 6.9142305214597846e-09 -5 -9 2.500000010727558 -4.3301270127286351 -9 2.500000010727558 -4.3301270127286351 -6 0.91506351643986317 -3.4150635091400758 -9 2.217625015551433 -2.5696135239339939 -9 2.500000010727558 -4.3301270127286351 -9 2.500000010727558 -4.3301270127286351 -6 0.91506351643986317 -3.4150635091400758 -9 0.95458002071209891 -1.657898275923388 -9 2.217625015551433 -2.5696135239339939 -9 0.91506351643986317 -3.4150635091400758 -6 0.95458002071209891 -1.657898275923388 -9 2.217625015551433 -2.5696135239339939 -9 2.3883545080289421 -0.94497882694672608 -9 2.3883545080289421 -0.94497882694672608 -6 0.91506351643986317 -3.4150635091400758 -9 0.95458002071209891 -1.657898275923388 -9 -0.66987297914647026 -2.499999999706382 -9 -0.66987297914647026 -2.499999999706382 -6 0.95458002071209891 -1.657898275923388 -9 -0.66987297914647026 -2.499999999706382 -9 0.20080558631870429 0.033909897404034287 -9 -0.66987297914647026 -2.499999999706382 -6 -0.66987297914647026 -2.499999999706382 -9 6.9142305214597846e-09 -5 -9 -2.5000000000000022 -4.3301270189221919 -9 6.9142305214597846e-09 -5 -6 0.91506351643986317 -3.4150635091400758 -9 -0.66987297914647026 -2.499999999706382 -9 6.9142305214597846e-09 -5 -9 6.9142305214597846e-09 -5 -6 -0.66987297914647026 -2.499999999706382 -9 -2.5000000000000022 -4.3301270189221919 -9 -2.9547160992544761 -1.820741508163664 -9 -2.5000000000000022 -4.3301270189221919 -6 -2.5000000000000022 -4.3301270189221919 -9 -4.3301270160527148 -2.500000004970083 -9 -2.9547160992544761 -1.820741508163664 -9 -2.5000000000000022 -4.3301270189221919 -6 -2.5000000000000022 -4.3301270189221919 -12 -0.66987297914647026 -2.499999999706382 -12 6.9142305214597846e-09 -5 -9 -2.5000000000000022 -4.3301270189221919 -9 -2.9547160992544761 -1.820741508163664 -12 -2.5000000000000022 -4.3301270189221919 -12 -0.66987297914647026 -2.499999999706382 -12 -2.5000000000000022 -4.3301270189221919 -9 -4.3301270160527148 -2.500000004970083 -12 -2.9547160992544761 -1.820741508163664 -12 -2.5000000000000022 -4.3301270189221919 -12 -2.5000000000000022 -4.3301270189221919 -9 -2.9547160992544761 -1.820741508163664 -12 -0.66987297914647026 -2.499999999706382 -9 -2.9547160992544761 -1.820741508163664 -9 -2.2735805010731909 0.22641949675281539 -9 -2.9547160992544761 -1.820741508163664 -12 -0.66987297914647026 -2.499999999706382 -9 -2.5000000000000022 -4.3301270189221919 -9 -2.9547160992544761 -1.820741508163664 -9 -2.9547160992544761 -1.820741508163664 -12 -0.66987297914647026 -2.499999999706382 -12 -0.66987297914647026 -2.499999999706382 -9 -2.5000000000000022 -4.3301270189221919 -9 -2.9547160992544761 -1.820741508163664 -12 -0.66987297914647026 -2.499999999706382 -12 -0.66987297914647026 -2.499999999706382 -9 -2.2735805010731909 0.22641949675281539 -9 -2.9547160992544761 -1.820741508163664 -12 -2.5000000000000022 -4.3301270189221919 -9 -4.3301270160527148 -2.500000004970083 -9 -2.9547160992544761 -1.820741508163664 -9 -4.3301270160527148 -2.500000004970083 -12 -2.9547160992544761 -1.820741508163664 -12 -2.5000000000000022 -4.3301270189221919 -9 -4.3301270160527148 -2.500000004970083 -9 -2.9547160992544761 -1.820741508163664 -12 -4.3301270160527148 -2.500000004970083 -9 -2.9547160992544761 -1.820741508163664 -9 -5 -1.397247784140632e-08 -9 -4.3301270160527148 -2.500000004970083 -12 -2.9547160992544761 -1.820741508163664 -12 -4.3301270160527148 -2.500000004970083 -9 -5 -1.397247784140632e-08 -12 -4.3301270160527148 -2.500000004970083 -9 -2.9547160992544761 -1.820741508163664 -9 -5 -1.397247784140632e-08 -9 -4.3301270160527148 -2.500000004970083 -6 -0.66987297914647026 -2.499999999706382 -9 -2.2735805010731909 0.22641949675281539 -9 0.20080558631870429 0.033909897404034287 -9 -2.2735805010731909 0.22641949675281539 -6 -0.66987297914647026 -2.499999999706382 -9 -2.9547160992544761 -1.820741508163664 -9 -2.2735805010731909 0.22641949675281539 -9 -2.2735805010731909 0.22641949675281539 -6 -2.2735805010731909 0.22641949675281539 -9 -0.91506351183037493 1.5849364925866429 -9 0.20080558631870429 0.033909897404034287 -9 -2.2735805010731909 0.22641949675281539 -6 -2.9547160992544761 -1.820741508163664 -9 -2.2735805010731909 0.22641949675281539 -9 -5 -1.397247784140632e-08 -9 -5 -1.397247784140632e-08 -6 -2.9547160992544761 -1.820741508163664 -12 -2.9547160992544761 -1.820741508163664 -9 -2.2735805010731909 0.22641949675281539 -9 -5 -1.397247784140632e-08 -9 -2.9547160992544761 -1.820741508163664 -12 -5 -1.397247784140632e-08 -9 -2.2735805010731909 0.22641949675281539 -12 -5 -1.397247784140632e-08 -12 -2.9547160992544761 -1.820741508163664 -12 -2.2735805010731909 0.22641949675281539 -9 -5 -1.397247784140632e-08 -9 -2.2735805010731909 0.22641949675281539 -12 -2.9547160992544761 -1.820741508163664 -12 -4.3301270160527148 -2.500000004970083 -9 -5 -1.397247784140632e-08 -9 -5 -1.397247784140632e-08 -12 -2.9547160992544761 -1.820741508163664 -12 -0.66987297914647026 -2.499999999706382 -12 -2.2735805010731909 0.22641949675281539 -9 -2.2735805010731909 0.22641949675281539 -12 -2.2735805010731909 0.22641949675281539 -9 -0.91506351183037493 1.5849364925866429 -12 0.20080558631870429 0.033909897404034287 -12 -2.2735805010731909 0.22641949675281539 -12 -0.66987297914647026 -2.499999999706382 -12 -2.2735805010731909 0.22641949675281539 -9 0.20080558631870429 0.033909897404034287 -12 -2.2735805010731909 0.22641949675281539 -12 -2.2253246846922492 2.366533744740174 -9 -0.91506351183037493 1.5849364925866429 -9 -2.2253246846922492 2.366533744740174 -12 -1.107852388446384 3.1911857209629071 -9 -2.2735805010731909 0.22641949675281539 -9 -0.91506351183037493 1.5849364925866429 -12 -2.2253246846922492 2.366533744740174 -12 -2.2735805010731909 0.22641949675281539 -12 -0.91506351183037493 1.5849364925866429 -9 -0.91506351183037493 1.5849364925866429 -12 -2.2253246846922492 2.366533744740174 -12 -1.107852388446384 3.1911857209629071 -12 -2.2735805010731909 0.22641949675281539 -9 -2.2253246846922492 2.366533744740174 -9 -0.91506351183037493 1.5849364925866429 -9 -2.2253246846922492 2.366533744740174 -12 -2.2735805010731909 0.22641949675281539 -9 -0.91506351183037493 1.5849364925866429 -9 -0.91506351183037493 1.5849364925866429 -12 -2.2253246846922492 2.366533744740174 -12 -2.2735805010731909 0.22641949675281539 -9 -4.3301270221112951 2.4999999944763132 -9 -2.2253246846922492 2.366533744740174 -9 -2.2253246846922492 2.366533744740174 -12 -2.2735805010731909 0.22641949675281539 -9 -4.3301270221112951 2.4999999944763132 -9 -2.2253246846922492 2.366533744740174 -12 -2.2735805010731909 0.22641949675281539 -12 -5 -1.397247784140632e-08 -9 -4.3301270221112951 2.4999999944763132 -9 -2.2735805010731909 0.22641949675281539 -12 -4.3301270221112951 2.4999999944763132 -12 -5 -1.397247784140632e-08 -9 -2.2735805010731909 0.22641949675281539 -12 -5 -1.397247784140632e-08 -12 -4.3301270221112951 2.4999999944763132 -12 -2.2735805010731909 0.22641949675281539 -9 -5 -1.397247784140632e-08 -9 -4.3301270221112951 2.4999999944763132 -9 -2.2735805010731909 0.22641949675281539 -12 -4.3301270221112951 2.4999999944763132 -9 -2.2253246846922492 2.366533744740174 -12 -2.2735805010731909 0.22641949675281539 -12 -4.3301270221112951 2.4999999944763132 -12 -2.2735805010731909 0.22641949675281539 -9 -5 -1.397247784140632e-08 -9 -4.3301270221112951 2.4999999944763132 -9 -5 -1.397247784140632e-08 -6 -2.2735805010731909 0.22641949675281539 -9 -4.3301270221112951 2.4999999944763132 -9 -2.2253246846922492 2.366533744740174 -9 -4.3301270221112951 2.4999999944763132 -6 -2.2253246846922492 2.366533744740174 -9 -0.91506351183037493 1.5849364925866429 -9 -1.107852388446384 3.1911857209629071 -9 -0.91506351183037493 1.5849364925866429 -6 -2.2735805010731909 0.22641949675281539 -9 -2.2253246846922492 2.366533744740174 -9 -0.91506351183037493 1.5849364925866429 -9 -2.2735805010731909 0.22641949675281539 -6 -0.91506351183037493 1.5849364925866429 -9 0.20080558631870429 0.033909897404034287 -9 0.37580157663508379 2.5408650916807378 -9 0.20080558631870429 0.033909897404034287 -6 -0.91506351183037493 1.5849364925866429 -9 0.37580157663508379 2.5408650916807378 -9 -1.107852388446384 3.1911857209629071 -9 0.37580157663508379 2.5408650916807378 -6 0.20080558631870429 0.033909897404034287 -9 2.3883545080289421 -0.94497882694672608 -9 2.465848112410058 1.4099871989758821 -9 2.3883545080289421 -0.94497882694672608 -6 0.95458002071209891 -1.657898275923388 -9 0.20080558631870429 0.033909897404034287 -9 2.3883545080289421 -0.94497882694672608 -9 2.3883545080289421 -0.94497882694672608 -6 0.20080558631870429 0.033909897404034287 -9 2.465848112410058 1.4099871989758821 -9 0.37580157663508379 2.5408650916807378 -9 0.20080558631870429 0.033909897404034287 -6 0.20080558631870429 0.033909897404034287 -9 2.465848112410058 1.4099871989758821 -12 0.37580157663508379 2.5408650916807378 -9 0.37580157663508379 2.5408650916807378 -12 2.465848112410058 1.4099871989758821 -9 2.465848112410058 1.4099871989758821 -12 2.4999999879139869 4.3301270259000564 -9 0.37580157663508379 2.5408650916807378 -9 0.20080558631870429 0.033909897404034287 -9 2.465848112410058 1.4099871989758821 -9 2.465848112410058 1.4099871989758821 -12 0.37580157663508379 2.5408650916807378 -9 0.20080558631870429 0.033909897404034287 -9 0.20080558631870429 0.033909897404034287 -12 2.465848112410058 1.4099871989758821 -12 0.37580157663508379 2.5408650916807378 -12 0.95458002071209891 -1.657898275923388 -12 2.3883545080289421 -0.94497882694672608 -9 0.20080558631870429 0.033909897404034287 -12 2.3883545080289421 -0.94497882694672608 -12 0.95458002071209891 -1.657898275923388 -12 0.20080558631870429 0.033909897404034287 -9 2.3883545080289421 -0.94497882694672608 -9 0.20080558631870429 0.033909897404034287 -12 0.20080558631870429 0.033909897404034287 -9 2.3883545080289421 -0.94497882694672608 -9 2.465848112410058 1.4099871989758821 -9 2.465848112410058 1.4099871989758821 -12 2.3883545080289421 -0.94497882694672608 -9 0.20080558631870429 0.033909897404034287 -12 2.3883545080289421 -0.94497882694672608 -12 2.465848112410058 1.4099871989758821 -12 0.20080558631870429 0.033909897404034287 -9 2.3883545080289421 -0.94497882694672608 -9 0.20080558631870429 0.033909897404034287 -12 2.465848112410058 1.4099871989758821 -12 0.95458002071209891 -1.657898275923388 -12 0.95458002071209891 -1.657898275923388 -9 0.20080558631870429 0.033909897404034287 -9 2.3883545080289421 -0.94497882694672608 -9 -2.2735805010731909 0.22641949675281539 -9 0.20080558631870429 0.033909897404034287 -9 -0.91506351183037493 1.5849364925866429 -12 0.20080558631870429 0.033909897404034287 -12 -0.66987297914647026 -2.499999999706382 -12 -0.66987297914647026 -2.499999999706382 -9 -2.2735805010731909 0.22641949675281539 -9 0.20080558631870429 0.033909897404034287 -12 0.95458002071209891 -1.657898275923388 -12 -0.66987297914647026 -2.499999999706382 -9 0.20080558631870429 0.033909897404034287 -9 0.20080558631870429 0.033909897404034287 -12 -0.66987297914647026 -2.499999999706382 -9 -2.2735805010731909 0.22641949675281539 -9 0.20080558631870429 0.033909897404034287 -9 0.20080558631870429 0.033909897404034287 -12 -2.2735805010731909 0.22641949675281539 -9 -0.91506351183037493 1.5849364925866429 -9 0.20080558631870429 0.033909897404034287 -9 -0.91506351183037493 1.5849364925866429 -12 -0.91506351183037493 1.5849364925866429 -9 0.20080558631870429 0.033909897404034287 -9 -0.91506351183037493 1.5849364925866429 -12 0.37580157663508379 2.5408650916807378 -9 0.20080558631870429 0.033909897404034287 -9 -0.91506351183037493 1.5849364925866429 -12 0.20080558631870429 0.033909897404034287 -12 0.37580157663508379 2.5408650916807378 -12 0.20080558631870429 0.033909897404034287 -9 -0.91506351183037493 1.5849364925866429 -12 0.37580157663508379 2.5408650916807378 -9 0.37580157663508379 2.5408650916807378 -12 -0.91506351183037493 1.5849364925866429 -9 -0.91506351183037493 1.5849364925866429 -12 0.37580157663508379 2.5408650916807378 -9 -1.107852388446384 3.1911857209629071 -12 -0.91506351183037493 1.5849364925866429 -12 0.37580157663508379 2.5408650916807378 -9 0.37580157663508379 2.5408650916807378 -12 -1.107852388446384 3.1911857209629071 -12 -0.91506351183037493 1.5849364925866429 -12 0.20080558631870429 0.033909897404034287 -12 -0.91506351183037493 1.5849364925866429 -15 -2.2735805010731909 0.22641949675281539 -12 -0.91506351183037493 1.5849364925866429 -12 0.20080558631870429 0.033909897404034287 -12 -0.91506351183037493 1.5849364925866429 -15 0.37580157663508379 2.5408650916807378 -12 -0.66987297914647026 -2.499999999706382 -12 0.20080558631870429 0.033909897404034287 -12 0.20080558631870429 0.033909897404034287 -15 -2.2735805010731909 0.22641949675281539 -12 0.20080558631870429 0.033909897404034287 -12 2.3883545080289421 -0.94497882694672608 -12 2.465848112410058 1.4099871989758821 -12 2.465848112410058 1.4099871989758821 -15 0.95458002071209891 -1.657898275923388 -15 0.95458002071209891 -1.657898275923388 -12 0.20080558631870429 0.033909897404034287 -12 2.3883545080289421 -0.94497882694672608 -12 2.465848112410058 1.4099871989758821 -12 2.465848112410058 1.4099871989758821 -15 2.4999999879139869 4.3301270259000564 -12 0.37580157663508379 2.5408650916807378 -12 0.20080558631870429 0.033909897404034287 -12 2.465848112410058 1.4099871989758821 -12 2.465848112410058 1.4099871989758821 -15 0.37580157663508379 2.5408650916807378 -12 0.20080558631870429 0.033909897404034287 -12 2.465848112410058 1.4099871989758821 -15 0.37580157663508379 2.5408650916807378 -12 0.37580157663508379 2.5408650916807378 -15 0.20080558631870429 0.033909897404034287 -12 2.465848112410058 1.4099871989758821 -15 0.20080558631870429 0.033909897404034287 -15 0.37580157663508379 2.5408650916807378 -15 2.3883545080289421 -0.94497882694672608 -12 2.465848112410058 1.4099871989758821 -15 2.3883545080289421 -0.94497882694672608 -15 0.20080558631870429 0.033909897404034287 -15 0.95458002071209891 -1.657898275923388 -15 0.20080558631870429 0.033909897404034287 -12 2.3883545080289421 -0.94497882694672608 -12 0.20080558631870429 0.033909897404034287 -15 0.20080558631870429 0.033909897404034287 -12 2.3883545080289421 -0.94497882694672608 -12 2.465848112410058 1.4099871989758821 -15 0.20080558631870429 0.033909897404034287 -15 0.95458002071209891 -1.657898275923388 -15 2.3883545080289421 -0.94497882694672608 -12 2.3883545080289421 -0.94497882694672608 -15 0.20080558631870429 0.033909897404034287 -15 -0.66987297914647026 -2.499999999706382 -15 -0.66987297914647026 -2.499999999706382 -12 0.20080558631870429 0.033909897404034287 -15 -2.2735805010731909 0.22641949675281539 -12 0.20080558631870429 0.033909897404034287 -12 0.20080558631870429 0.033909897404034287 -15 -0.91506351183037493 1.5849364925866429 -15 -2.2735805010731909 0.22641949675281539 -12 0.95458002071209891 -1.657898275923388 -15 -0.66987297914647026 -2.499999999706382 -12 0.20080558631870429 0.033909897404034287 -12 0.20080558631870429 0.033909897404034287 -15 0.20080558631870429 0.033909897404034287 -12 -0.91506351183037493 1.5849364925866429 -15 0.37580157663508379 2.5408650916807378 -12 0.37580157663508379 2.5408650916807378 -15 -0.91506351183037493 1.5849364925866429 -15 0.37580157663508379 2.5408650916807378 -12 -1.107852388446384 3.1911857209629071 -15 0.37580157663508379 2.5408650916807378 -15 -0.91506351183037493 1.5849364925866429 -12 -0.91506351183037493 1.5849364925866429 -15 0.37580157663508379 2.5408650916807378 -12 -1.107852388446384 3.1911857209629071 -15 0.20080558631870429 0.033909897404034287 -12 0.20080558631870429 0.033909897404034287 -15 -0.91506351183037493 1.5849364925866429 -15 0.37580157663508379 2.5408650916807378 -15 -0.91506351183037493 1.5849364925866429 -12 -0.91506351183037493 1.5849364925866429 -15 -2.2253246846922492 2.366533744740174 -15 -2.2735805010731909 0.22641949675281539 -12 -0.91506351183037493 1.5849364925866429 -15 -2.2253246846922492 2.366533744740174 -15 -2.2735805010731909 0.22641949675281539 -12 -2.2735805010731909 0.22641949675281539 -15 -2.2253246846922492 2.366533744740174 -15 -2.2735805010731909 0.22641949675281539 -12 -2.2735805010731909 0.22641949675281539 -15 -4.3301270221112951 2.4999999944763132 -12 -0.91506351183037493 1.5849364925866429 -12 -0.91506351183037493 1.5849364925866429 -15 -2.2253246846922492 2.366533744740174 -15 -1.107852388446384 3.1911857209629071 -15 -0.91506351183037493 1.5849364925866429 -12 -2.2253246846922492 2.366533744740174 -15 -2.2253246846922492 2.366533744740174 -12 -2.2735805010731909 0.22641949675281539 -12 -2.2253246846922492 2.366533744740174 -15 -2.2253246846922492 2.366533744740174 -12 -2.2735805010731909 0.22641949675281539 -12 -4.3301270221112951 2.4999999944763132 -12 -0.91506351183037493 1.5849364925866429 -12 -2.2253246846922492 2.366533744740174 -15 -2.2253246846922492 2.366533744740174 -12 -1.107852388446384 3.1911857209629071 -12 -2.9547160992544761 -1.820741508163664 -15 -0.66987297914647026 -2.499999999706382 -15 -2.2735805010731909 0.22641949675281539 -12 -2.2735805010731909 0.22641949675281539 -15 0.20080558631870429 0.033909897404034287 -15 -0.91506351183037493 1.5849364925866429 -15 -2.2735805010731909 0.22641949675281539 -12 -2.2735805010731909 0.22641949675281539 -15 -0.66987297914647026 -2.499999999706382 -15 0.20080558631870429 0.033909897404034287 -15 -2.2735805010731909 0.22641949675281539 -12 -2.2735805010731909 0.22641949675281539 -15 -4.3301270160527148 -2.500000004970083 -12 -2.9547160992544761 -1.820741508163664 -15 -5 -1.397247784140632e-08 -15 -5 -1.397247784140632e-08 -12 -2.9547160992544761 -1.820741508163664 -15 -2.2735805010731909 0.22641949675281539 -12 -2.2735805010731909 0.22641949675281539 -15 -5 -1.397247784140632e-08 -12 -2.9547160992544761 -1.820741508163664 -15 -2.2735805010731909 0.22641949675281539 -15 -5 -1.397247784140632e-08 -15 -5 -1.397247784140632e-08 -12 -2.9547160992544761 -1.820741508163664 -15 -2.9547160992544761 -1.820741508163664 -12 -2.2735805010731909 0.22641949675281539 -12 -5 -1.397247784140632e-08 -12 -2.2735805010731909 0.22641949675281539 -12 -2.2735805010731909 0.22641949675281539 -15 -5 -1.397247784140632e-08 -12 -4.3301270221112951 2.4999999944763132 -12 -2.2735805010731909 0.22641949675281539 -15 -5 -1.397247784140632e-08 -15 -5 -1.397247784140632e-08 -12 -4.3301270221112951 2.4999999944763132 -15 -2.2735805010731909 0.22641949675281539 -15 -5 -1.397247784140632e-08 -12 -4.3301270221112951 2.4999999944763132 -12 -4.3301270221112951 2.4999999944763132 -15 -2.2253246846922492 2.366533744740174 -15 -2.2735805010731909 0.22641949675281539 -15 -4.3301270221112951 2.4999999944763132 -12 -4.3301270221112951 2.4999999944763132 -15 -2.2253246846922492 2.366533744740174 -15 -4.3301270221112951 2.4999999944763132 -12 -4.3301270221112951 2.4999999944763132 -15 -2.4999999999999991 4.3301270189221936 -15 -0.91506351183037493 1.5849364925866429 -12 -2.2253246846922492 2.366533744740174 -15 -1.107852388446384 3.1911857209629071 -12 -1.107852388446384 3.1911857209629071 -15 -2.2253246846922492 2.366533744740174 -15 -4.3301270221112951 2.4999999944763132 -12 -2.4999999999999991 4.3301270189221936 -15 -2.4999999999999991 4.3301270189221936 -12 -2.2253246846922492 2.366533744740174 -15 -2.4999999999999991 4.3301270189221936 -15 -2.4999999999999991 4.3301270189221936 -12 -1.107852388446384 3.1911857209629071 -15 -2.2253246846922492 2.366533744740174 -15 -2.4999999999999991 4.3301270189221936 -12 -1.107852388446384 3.1911857209629071 -12 -1.107852388446384 3.1911857209629071 -15 -2.4999999999999991 4.3301270189221936 -15 -2.4999999999999991 4.3301270189221936 -12 -1.107852388446384 3.1911857209629071 -15 -6.2995949836986492e-09 5 -15 -2.2253246846922492 2.366533744740174 -15 -2.2253246846922492 2.366533744740174 -12 -2.4999999999999991 4.3301270189221936 -12 -1.107852388446384 3.1911857209629071 -12 -2.2253246846922492 2.366533744740174 -15 -2.2253246846922492 2.366533744740174 -12 -4.3301270221112951 2.4999999944763132 -12 -2.4999999999999991 4.3301270189221936 -12 -4.3301270221112951 2.4999999944763132 -9 -2.2253246846922492 2.366533744740174 -12 -4.3301270221112951 2.4999999944763132 -12 -2.4999999999999991 4.3301270189221936 -12 -2.4999999999999991 4.3301270189221936 -12 -2.4999999999999991 4.3301270189221936 -9 -6.2995949836986492e-09 5 -12 -1.107852388446384 3.1911857209629071 -12 -0.91506351183037493 1.5849364925866429 -9 -2.2253246846922492 2.366533744740174 -12 -1.107852388446384 3.1911857209629071 -9 -1.107852388446384 3.1911857209629071 -12 -4.3301270221112951 2.4999999944763132 -9 -2.2253246846922492 2.366533744740174 -12 -2.4999999999999991 4.3301270189221936 -12 -2.4999999999999991 4.3301270189221936 -9 -4.3301270221112951 2.4999999944763132 -9 -2.2253246846922492 2.366533744740174 -9 -2.2253246846922492 2.366533744740174 -12 -2.4999999999999991 4.3301270189221936 -9 -2.2253246846922492 2.366533744740174 -9 -2.2253246846922492 2.366533744740174 -12 -2.4999999999999991 4.3301270189221936 -9 -1.107852388446384 3.1911857209629071 -9 -2.2253246846922492 2.366533744740174 -12 -2.4999999999999991 4.3301270189221936 -12 -2.4999999999999991 4.3301270189221936 -9 -1.107852388446384 3.1911857209629071 -12 -2.2253246846922492 2.366533744740174 -12 -2.4999999999999991 4.3301270189221936 -9 -1.107852388446384 3.1911857209629071 -9 -1.107852388446384 3.1911857209629071 -12 -2.4999999999999991 4.3301270189221936 -9 -6.2995949836986492e-09 5 -9 -1.107852388446384 3.1911857209629071 -9 -2.4999999999999991 4.3301270189221936 -6 -2.2253246846922492 2.366533744740174 -9 -2.4999999999999991 4.3301270189221936 -9 -1.107852388446384 3.1911857209629071 -9 -2.4999999999999991 4.3301270189221936 -6 -4.3301270221112951 2.4999999944763132 -9 -2.2253246846922492 2.366533744740174 -9 -2.4999999999999991 4.3301270189221936 -9 -4.3301270221112951 2.4999999944763132 -6 -2.4999999999999991 4.3301270189221936 -9 -6.2995949836986492e-09 5 -9 -6.2995949836986492e-09 5 -12 -1.107852388446384 3.1911857209629071 -12 -6.2995949836986492e-09 5 -9 2.4999999879139869 4.3301270259000564 -9 0.37580157663508379 2.5408650916807378 -9 -6.2995949836986492e-09 5 -6 2.465848112410058 1.4099871989758821 -9 2.4999999879139869 4.3301270259000564 -9 0.37580157663508379 2.5408650916807378 -9 2.4999999879139869 4.3301270259000564 -6 -6.2995949836986492e-09 5 -9 0.37580157663508379 2.5408650916807378 -9 -1.107852388446384 3.1911857209629071 -9 -6.2995949836986492e-09 5 -6 -0.91506351183037493 1.5849364925866429 -9 0.37580157663508379 2.5408650916807378 -9 -1.107852388446384 3.1911857209629071 -9 -1.107852388446384 3.1911857209629071 -12 -6.2995949836986492e-09 5 -9 0.37580157663508379 2.5408650916807378 -9 0.37580157663508379 2.5408650916807378 -12 -1.107852388446384 3.1911857209629071 -12 -6.2995949836986492e-09 5 -9 -6.2995949836986492e-09 5 -12 0.37580157663508379 2.5408650916807378 -12 -1.107852388446384 3.1911857209629071 -12 -2.4999999999999991 4.3301270189221936 -9 -6.2995949836986492e-09 5 -9 -1.107852388446384 3.1911857209629071 -9 -1.107852388446384 3.1911857209629071 -12 -6.2995949836986492e-09 5 -9 0.37580157663508379 2.5408650916807378 -9 -1.107852388446384 3.1911857209629071 -9 -1.107852388446384 3.1911857209629071 -12 2.465848112410058 1.4099871989758821 -12 2.4999999879139869 4.3301270259000564 -9 2.4999999879139869 4.3301270259000564 -12 0.37580157663508379 2.5408650916807378 -12 -6.2995949836986492e-09 5 -9 2.4999999879139869 4.3301270259000564 -9 0.37580157663508379 2.5408650916807378 -9 0.37580157663508379 2.5408650916807378 -12 -6.2995949836986492e-09 5 -9 2.4999999879139869 4.3301270259000564 -12 -6.2995949836986492e-09 5 -12 0.37580157663508379 2.5408650916807378 -12 -6.2995949836986492e-09 5 -9 2.4999999879139869 4.3301270259000564 -9 2.4999999879139869 4.3301270259000564 -12 0.37580157663508379 2.5408650916807378 -12 2.465848112410058 1.4099871989758821 -12 2.4999999879139869 4.3301270259000564 -9 0.37580157663508379 2.5408650916807378 -9 0.37580157663508379 2.5408650916807378 -12 2.4999999879139869 4.3301270259000564 -12 -6.2995949836986492e-09 5 -12 0.37580157663508379 2.5408650916807378 -12 0.37580157663508379 2.5408650916807378 -15 -2.4999999999999991 4.3301270189221936 -12 -6.2995949836986492e-09 5 -12 -1.107852388446384 3.1911857209629071 -12 -1.107852388446384 3.1911857209629071 -15 -0.91506351183037493 1.5849364925866429 -12 0.37580157663508379 2.5408650916807378 -12 -1.107852388446384 3.1911857209629071 -12 -1.107852388446384 3.1911857209629071 -15 -6.2995949836986492e-09 5 -12 0.37580157663508379 2.5408650916807378 -12 -1.107852388446384 3.1911857209629071 -12 -1.107852388446384 3.1911857209629071 -15 -6.2995949836986492e-09 5 -12 0.37580157663508379 2.5408650916807378 -12 -1.107852388446384 3.1911857209629071 -15 0.37580157663508379 2.5408650916807378 -15 -6.2995949836986492e-09 5 -12 -1.107852388446384 3.1911857209629071 -15 0.37580157663508379 2.5408650916807378 -15 -6.2995949836986492e-09 5 -15 -2.4999999999999991 4.3301270189221936 -12 -6.2995949836986492e-09 5 -12 -1.107852388446384 3.1911857209629071 -15 -6.2995949836986492e-09 5 -15 2.4999999879139869 4.3301270259000564 -12 -6.2995949836986492e-09 5 -12 0.37580157663508379 2.5408650916807378 -15 2.4999999879139869 4.3301270259000564 -15 2.465848112410058 1.4099871989758821 -15 2.4999999879139869 4.3301270259000564 -12 0.37580157663508379 2.5408650916807378 -12 0.37580157663508379 2.5408650916807378 -15 2.465848112410058 1.4099871989758821 -15 2.4999999879139869 4.3301270259000564 -12 0.37580157663508379 2.5408650916807378 -15 2.4999999879139869 4.3301270259000564 -15 -6.2995949836986492e-09 5 -12 0.37580157663508379 2.5408650916807378 -15 -6.2995949836986492e-09 5 -15 2.4999999879139869 4.3301270259000564 -15 2.465848112410058 1.4099871989758821 -15 2.4999999879139869 4.3301270259000564 -12 4.3301270155636349 2.5000000058171929 -15 4.3301270155636349 2.5000000058171929 -12 2.465848112410058 1.4099871989758821 -15 2.4999999879139869 4.3301270259000564 -12 2.4999999879139869 4.3301270259000564 -15 4.3301270155636349 2.5000000058171929 -15 2.465848112410058 1.4099871989758821 -12 2.4999999879139869 4.3301270259000564 -9 4.3301270155636349 2.5000000058171929 -12 4.3301270155636349 2.5000000058171929 -9 2.465848112410058 1.4099871989758821 -12 2.4999999879139869 4.3301270259000564 -9 2.4999999879139869 4.3301270259000564 -12 4.3301270155636349 2.5000000058171929 -12 2.465848112410058 1.4099871989758821 -9 2.4999999879139869 4.3301270259000564 -9 4.3301270155636349 2.5000000058171929 -9 2.4999999879139869 4.3301270259000564 -6 2.217625015551433 -2.5696135239339939 -15 2.500000010727558 -4.3301270127286351 -15 2.500000010727558 -4.3301270127286351 -12 4.3301270218486989 -2.4999999949311431 -12 2.217625015551433 -2.5696135239339939 -15 2.217625015551433 -2.5696135239339939 -12 2.500000010727558 -4.3301270127286351 -12 4.3301270218486989 -2.4999999949311431 -12 2.217625015551433 -2.5696135239339939 -15 2.217625015551433 -2.5696135239339939 -12 2.3883545080289421 -0.94497882694672608 -12 4.3301270218486989 -2.4999999949311431 -12 2.217625015551433 -2.5696135239339939 -15 2.500000010727558 -4.3301270127286351 -15 4.3301270218486989 -2.4999999949311431 -12 4.3301270218486989 -2.4999999949311431 -15 2.217625015551433 -2.5696135239339939 -15 2.3883545080289421 -0.94497882694672608 -12 2.3883545080289421 -0.94497882694672608 -15 4.3301270218486989 -2.4999999949311431 -12 2.217625015551433 -2.5696135239339939 -15 2.3883545080289421 -0.94497882694672608 -15 4.3301270218486989 -2.4999999949311431 -12 4.3301270218486989 -2.4999999949311431 -15 2.3883545080289421 -0.94497882694672608 -15 4.3301270218486989 -2.4999999949311431 -12 4.3301270218486989 -2.4999999949311431 -15 5 0 -12 2.3883545080289421 -0.94497882694672608 -15 4.3301270218486989 -2.4999999949311431 -15 5 0 -15 5 0 -12 2.465848112410058 1.4099871989758821 -15 2.3883545080289421 -0.94497882694672608 -15 5 0 -15 5 0 -12 2.3883545080289421 -0.94497882694672608 -12 2.465848112410058 1.4099871989758821 -15 2.3883545080289421 -0.94497882694672608 -15 5 0 -12 2.465848112410058 1.4099871989758821 -15 4.3301270155636349 2.5000000058171929 -15 4.3301270155636349 2.5000000058171929 -12 5 0 -15 2.465848112410058 1.4099871989758821 -15 4.3301270155636349 2.5000000058171929 -12 5 0 -15 5 0 -12 2.465848112410058 1.4099871989758821 -12 2.465848112410058 1.4099871989758821 -15 2.4999999879139869 4.3301270259000564 -12 4.3301270155636349 2.5000000058171929 -12 2.465848112410058 1.4099871989758821 -12 2.465848112410058 1.4099871989758821 -15 4.3301270155636349 2.5000000058171929 -12 5 0 -12 2.3883545080289421 -0.94497882694672608 -12 2.3883545080289421 -0.94497882694672608 -15 4.3301270218486989 -2.4999999949311431 -12 5 0 -12 2.3883545080289421 -0.94497882694672608 -12 2.465848112410058 1.4099871989758821 -12 2.465848112410058 1.4099871989758821 -15 5 0 -12 2.3883545080289421 -0.94497882694672608 -9 2.3883545080289421 -0.94497882694672608 -12 5 0 -9 4.3301270218486989 -2.4999999949311431 -9 2.3883545080289421 -0.94497882694672608 -12 4.3301270218486989 -2.4999999949311431 -12 5 0 -12 5 0 -9 2.3883545080289421 -0.94497882694672608 -9 2.3883545080289421 -0.94497882694672608 -12 2.465848112410058 1.4099871989758821 -12 5 0 -9 2.3883545080289421 -0.94497882694672608 -9 2.465848112410058 1.4099871989758821 -9 2.465848112410058 1.4099871989758821 -12 5 0 -9 2.3883545080289421 -0.94497882694672608 -12 2.465848112410058 1.4099871989758821 -12 5 0 -12 5 0 -9 2.465848112410058 1.4099871989758821 -9 2.465848112410058 1.4099871989758821 -12 2.4999999879139869 4.3301270259000564 -9 4.3301270155636349 2.5000000058171929 -9 2.465848112410058 1.4099871989758821 -12 4.3301270155636349 2.5000000058171929 -9 5 0 -12 5 0 -9 2.465848112410058 1.4099871989758821 -12 4.3301270155636349 2.5000000058171929 -12 4.3301270155636349 2.5000000058171929 -9 5 0 -12 2.465848112410058 1.4099871989758821 -9 2.465848112410058 1.4099871989758821 -12 4.3301270155636349 2.5000000058171929 -9 5 0 -9 2.465848112410058 1.4099871989758821 -9 4.3301270155636349 2.5000000058171929 -9 5 0 -9 4.3301270155636349 2.5000000058171929 -6 2.3883545080289421 -0.94497882694672608 -9 5 0 -9 4.3301270218486989 -2.4999999949311431 -9 5 0 -6 2.3883545080289421 -0.94497882694672608 -9 2.465848112410058 1.4099871989758821 -9 5 0 -9 5 0 -6 2.217625015551433 -2.5696135239339939 -9 2.3883545080289421 -0.94497882694672608 -9 4.3301270218486989 -2.4999999949311431 -9 4.3301270218486989 -2.4999999949311431 -6 2.217625015551433 -2.5696135239339939 -9 4.3301270218486989 -2.4999999949311431 -9 2.500000010727558 -4.3301270127286351 -9 4.3301270218486989 -2.4999999949311431 -6 2.217625015551433 -2.5696135239339939 -12 2.3883545080289421 -0.94497882694672608 -12 4.3301270218486989 -2.4999999949311431 -12 4.3301270218486989 -2.4999999949311431 -9 2.217625015551433 -2.5696135239339939 -12 2.217625015551433 -2.5696135239339939 -9 2.3883545080289421 -0.94497882694672608 -9 4.3301270218486989 -2.4999999949311431 -9 2.3883545080289421 -0.94497882694672608 -12 4.3301270218486989 -2.4999999949311431 -12 5 0 -9 4.3301270218486989 -2.4999999949311431 -9 2.217625015551433 -2.5696135239339939 -12 2.3883545080289421 -0.94497882694672608 -9 2.3883545080289421 -0.94497882694672608 -12 4.3301270218486989 -2.4999999949311431 -9 2.217625015551433 -2.5696135239339939 -12 2.217625015551433 -2.5696135239339939 -9 4.3301270218486989 -2.4999999949311431 -9 2.500000010727558 -4.3301270127286351 -9 2.217625015551433 -2.5696135239339939 -12 2.500000010727558 -4.3301270127286351 -12 4.3301270218486989 -2.4999999949311431 -12 4.3301270218486989 -2.4999999949311431 -9 2.217625015551433 -2.5696135239339939 -12 2.500000010727558 -4.3301270127286351 -12 4.3301270218486989 -2.4999999949311431 -9 2.500000010727558 -4.3301270127286351 -9 2.217625015551433 -2.5696135239339939 -9 2.500000010727558 -4.3301270127286351 -9 2.500000010727558 -4.3301270127286351 -6 4.3301270218486989 -2.4999999949311431 -6 2.500000010727558 -4.3301270127286351 -6 4.3301270218486989 -2.4999999949311431 -3 2.500000010727558 -4.3301270127286351 -3 2.217625015551433 -2.5696135239339939 -6 4.3301270218486989 -2.4999999949311431 -3 2.3883545080289421 -0.94497882694672608 -3 2.3883545080289421 -0.94497882694672608 -6 2.217625015551433 -2.5696135239339939 -6 4.3301270218486989 -2.4999999949311431 -6 4.3301270218486989 -2.4999999949311431 -3 2.3883545080289421 -0.94497882694672608 -6 2.217625015551433 -2.5696135239339939 -6 4.3301270218486989 -2.4999999949311431 -6 5 0 -3 4.3301270218486989 -2.4999999949311431 -3 2.3883545080289421 -0.94497882694672608 -6 2.500000010727558 -4.3301270127286351 -6 4.3301270218486989 -2.4999999949311431 -6 4.3301270218486989 -2.4999999949311431 -3 2.217625015551433 -2.5696135239339939 -6 2.217625015551433 -2.5696135239339939 -9 2.500000010727558 -4.3301270127286351 -6 4.3301270218486989 -2.4999999949311431 -6 2.217625015551433 -2.5696135239339939 -6 2.217625015551433 -2.5696135239339939 -9 4.3301270218486989 -2.4999999949311431 -6 2.3883545080289421 -0.94497882694672608 -6 2.217625015551433 -2.5696135239339939 -6 2.3883545080289421 -0.94497882694672608 -9 4.3301270218486989 -2.4999999949311431 -9 4.3301270218486989 -2.4999999949311431 -6 5 0 -6 2.217625015551433 -2.5696135239339939 -9 2.3883545080289421 -0.94497882694672608 -9 4.3301270218486989 -2.4999999949311431 -6 2.3883545080289421 -0.94497882694672608 -6 2.3883545080289421 -0.94497882694672608 -9 2.465848112410058 1.4099871989758821 -9 5 0 -6 2.3883545080289421 -0.94497882694672608 -6 2.3883545080289421 -0.94497882694672608 -9 4.3301270218486989 -2.4999999949311431 -6 5 0 -6 2.3883545080289421 -0.94497882694672608 -6 2.465848112410058 1.4099871989758821 -9 5 0 -6 2.465848112410058 1.4099871989758821 -6 2.3883545080289421 -0.94497882694672608 -6 2.465848112410058 1.4099871989758821 -9 5 0 -9 5 0 -6 4.3301270155636349 2.5000000058171929 -6 2.465848112410058 1.4099871989758821 -9 5 0 -6 4.3301270155636349 2.5000000058171929 -6 2.465848112410058 1.4099871989758821 -6 2.465848112410058 1.4099871989758821 -9 4.3301270155636349 2.5000000058171929 -6 2.4999999879139869 4.3301270259000564 -6 2.465848112410058 1.4099871989758821 -6 5 0 -6 5 0 -3 4.3301270155636349 2.5000000058171929 -3 2.465848112410058 1.4099871989758821 -6 5 0 -6 4.3301270155636349 2.5000000058171929 -6 4.3301270155636349 2.5000000058171929 -3 2.465848112410058 1.4099871989758821 -6 5 0 -6 5 0 -3 2.465848112410058 1.4099871989758821 -6 2.3883545080289421 -0.94497882694672608 -6 5 0 -3 2.3883545080289421 -0.94497882694672608 -3 2.465848112410058 1.4099871989758821 -6 2.3883545080289421 -0.94497882694672608 -6 4.3301270218486989 -2.4999999949311431 -6 5 0 -6 5 0 -3 2.3883545080289421 -0.94497882694672608 -6 5 0 -3 2.465848112410058 1.4099871989758821 -3 2.3883545080289421 -0.94497882694672608 -3 2.465848112410058 1.4099871989758821 -6 5 0 -3 5 0 0 2.465848112410058 1.4099871989758821 -3 2.3883545080289421 -0.94497882694672608 -3 5 0 -3 5 0 0 4.3301270218486989 -2.4999999949311431 -3 2.3883545080289421 -0.94497882694672608 -3 5 0 -3 4.3301270218486989 -2.4999999949311431 -3 2.3883545080289421 -0.94497882694672608 -3 2.3883545080289421 -0.94497882694672608 -6 5 0 -3 4.3301270155636349 2.5000000058171929 -3 4.3301270155636349 2.5000000058171929 0 2.465848112410058 1.4099871989758821 -3 5 0 -3 4.3301270155636349 2.5000000058171929 -3 2.465848112410058 1.4099871989758821 -3 2.465848112410058 1.4099871989758821 -6 4.3301270155636349 2.5000000058171929 -3 2.4999999879139869 4.3301270259000564 -3 2.465848112410058 1.4099871989758821 -3 2.465848112410058 1.4099871989758821 -6 4.3301270155636349 2.5000000058171929 0 2.4999999879139869 4.3301270259000564 0 2.465848112410058 1.4099871989758821 0 2.465848112410058 1.4099871989758821 -3 5 0 -3 5 0 0 4.3301270155636349 2.5000000058171929 0 2.465848112410058 1.4099871989758821 -3 5 0 0 4.3301270155636349 2.5000000058171929 0 2.465848112410058 1.4099871989758821 0 2.465848112410058 1.4099871989758821 -3 5 0 0 4.3301270218486989 -2.4999999949311431 0 2.3883545080289421 -0.94497882694672608 0 2.3883545080289421 -0.94497882694672608 -3 5 0 0 2.3883545080289421 -0.94497882694672608 0 2.465848112410058 1.4099871989758821 0 2.465848112410058 1.4099871989758821 -3 5 0 0 2.3883545080289421 -0.94497882694672608 0 2.465848112410058 1.4099871989758821 -3 2.3883545080289421 -0.94497882694672608 -3 4.3301270218486989 -2.4999999949311431 0 2.500000010727558 -4.3301270127286351 0 2.217625015551433 -2.5696135239339939 -3 2.217625015551433 -2.5696135239339939 0 4.3301270218486989 -2.4999999949311431 0 2.3883545080289421 -0.94497882694672608 0 2.217625015551433 -2.5696135239339939 -3 2.217625015551433 -2.5696135239339939 0 4.3301270218486989 -2.4999999949311431 0 2.3883545080289421 -0.94497882694672608 0 2.3883545080289421 -0.94497882694672608 -3 2.217625015551433 -2.5696135239339939 -3 5 0 0 4.3301270218486989 -2.4999999949311431 0 4.3301270218486989 -2.4999999949311431 -3 2.3883545080289421 -0.94497882694672608 -3 4.3301270218486989 -2.4999999949311431 -3 2.500000010727558 -4.3301270127286351 -3 2.217625015551433 -2.5696135239339939 -6 2.217625015551433 -2.5696135239339939 -3 4.3301270218486989 -2.4999999949311431 0 4.3301270218486989 -2.4999999949311431 -3 2.3883545080289421 -0.94497882694672608 -3 2.217625015551433 -2.5696135239339939 -3 4.3301270218486989 -2.4999999949311431 -3 2.3883545080289421 -0.94497882694672608 -3 2.217625015551433 -2.5696135239339939 -6 2.217625015551433 -2.5696135239339939 -3 4.3301270218486989 -2.4999999949311431 0 4.3301270218486989 -2.4999999949311431 -3 2.500000010727558 -4.3301270127286351 -3 2.217625015551433 -2.5696135239339939 -3 4.3301270218486989 -2.4999999949311431 0 2.500000010727558 -4.3301270127286351 -3 2.500000010727558 -4.3301270127286351 0 2.217625015551433 -2.5696135239339939 -3 2.465848112410058 1.4099871989758821 -9 4.3301270155636349 2.5000000058171929 -9 4.3301270155636349 2.5000000058171929 -6 2.4999999879139869 4.3301270259000564 -6 4.3301270155636349 2.5000000058171929 -6 2.4999999879139869 4.3301270259000564 -3 2.4999999879139869 4.3301270259000564 -6 2.465848112410058 1.4099871989758821 -6 4.3301270155636349 2.5000000058171929 -6 4.3301270155636349 2.5000000058171929 -3 2.4999999879139869 4.3301270259000564 -3 2.465848112410058 1.4099871989758821 -6 4.3301270155636349 2.5000000058171929 -3 2.4999999879139869 4.3301270259000564 0 2.4999999879139869 4.3301270259000564 -3 2.465848112410058 1.4099871989758821 -3 4.3301270155636349 2.5000000058171929 -3 4.3301270155636349 2.5000000058171929 0 2.4999999879139869 4.3301270259000564 0 2.465848112410058 1.4099871989758821 -3 2.4999999879139869 4.3301270259000564 0 -6.2995949836986492e-09 5 0 0.37580157663508379 2.5408650916807378 0 0.37580157663508379 2.5408650916807378 -3 2.4999999879139869 4.3301270259000564 0 0.37580157663508379 2.5408650916807378 0 0.37580157663508379 2.5408650916807378 -3 2.465848112410058 1.4099871989758821 -3 2.4999999879139869 4.3301270259000564 0 -6.2995949836986492e-09 5 0 0.37580157663508379 2.5408650916807378 -3 2.4999999879139869 4.3301270259000564 -3 -6.2995949836986492e-09 5 0 -1.107852388446384 3.1911857209629071 -3 -6.2995949836986492e-09 5 -3 -2.4999999999999991 4.3301270189221936 0 -6.2995949836986492e-09 5 0 -1.107852388446384 3.1911857209629071 0 0.37580157663508379 2.5408650916807378 0 -1.107852388446384 3.1911857209629071 -3 -6.2995949836986492e-09 5 0 -1.107852388446384 3.1911857209629071 0 -1.107852388446384 3.1911857209629071 -3 -2.4999999999999991 4.3301270189221936 0 -6.2995949836986492e-09 5 0 0.37580157663508379 2.5408650916807378 0 -1.107852388446384 3.1911857209629071 -3 0.37580157663508379 2.5408650916807378 -3 -1.107852388446384 3.1911857209629071 0 0.37580157663508379 2.5408650916807378 0 -1.107852388446384 3.1911857209629071 -3 -0.91506351183037493 1.5849364925866429 0 -6.2995949836986492e-09 5 0 -1.107852388446384 3.1911857209629071 -3 0.37580157663508379 2.5408650916807378 -3 -6.2995949836986492e-09 5 -3 -6.2995949836986492e-09 5 0 0.37580157663508379 2.5408650916807378 -3 -6.2995949836986492e-09 5 -3 2.4999999879139869 4.3301270259000564 -3 2.4999999879139869 4.3301270259000564 0 0.37580157663508379 2.5408650916807378 -3 2.4999999879139869 4.3301270259000564 -3 2.465848112410058 1.4099871989758821 -3 0.37580157663508379 2.5408650916807378 -3 2.4999999879139869 4.3301270259000564 -3 0.37580157663508379 2.5408650916807378 -6 2.465848112410058 1.4099871989758821 -6 2.4999999879139869 4.3301270259000564 -3 0.37580157663508379 2.5408650916807378 -6 2.4999999879139869 4.3301270259000564 -6 2.465848112410058 1.4099871989758821 -6 -6.2995949836986492e-09 5 -3 2.4999999879139869 4.3301270259000564 -3 0.37580157663508379 2.5408650916807378 -6 2.4999999879139869 4.3301270259000564 -6 -6.2995949836986492e-09 5 -3 0.37580157663508379 2.5408650916807378 -6 2.4999999879139869 4.3301270259000564 -6 -6.2995949836986492e-09 5 -6 0.37580157663508379 2.5408650916807378 -3 -6.2995949836986492e-09 5 -3 2.4999999879139869 4.3301270259000564 -3 0.37580157663508379 2.5408650916807378 -6 -1.107852388446384 3.1911857209629071 -3 0.37580157663508379 2.5408650916807378 -3 -1.107852388446384 3.1911857209629071 -6 -0.91506351183037493 1.5849364925866429 -3 -1.107852388446384 3.1911857209629071 -3 0.37580157663508379 2.5408650916807378 -3 -6.2995949836986492e-09 5 -3 -1.107852388446384 3.1911857209629071 -6 -6.2995949836986492e-09 5 -3 -1.107852388446384 3.1911857209629071 -6 0.37580157663508379 2.5408650916807378 -6 -6.2995949836986492e-09 5 -6 0.37580157663508379 2.5408650916807378 -3 -6.2995949836986492e-09 5 -3 -1.107852388446384 3.1911857209629071 -6 0.37580157663508379 2.5408650916807378 -6 -1.107852388446384 3.1911857209629071 -3 -6.2995949836986492e-09 5 -3 -1.107852388446384 3.1911857209629071 -6 -2.4999999999999991 4.3301270189221936 -3 -1.107852388446384 3.1911857209629071 -9 -1.107852388446384 3.1911857209629071 -6 0.37580157663508379 2.5408650916807378 -6 -6.2995949836986492e-09 5 -6 -1.107852388446384 3.1911857209629071 -9 -1.107852388446384 3.1911857209629071 -6 -6.2995949836986492e-09 5 -6 -2.4999999999999991 4.3301270189221936 -6 0.37580157663508379 2.5408650916807378 -9 -1.107852388446384 3.1911857209629071 -9 0.37580157663508379 2.5408650916807378 -6 -6.2995949836986492e-09 5 -6 -1.107852388446384 3.1911857209629071 -9 -1.107852388446384 3.1911857209629071 -6 0.37580157663508379 2.5408650916807378 -6 -0.91506351183037493 1.5849364925866429 -6 2.4999999879139869 4.3301270259000564 -9 0.37580157663508379 2.5408650916807378 -9 2.4999999879139869 4.3301270259000564 -6 -6.2995949836986492e-09 5 -6 0.37580157663508379 2.5408650916807378 -9 0.37580157663508379 2.5408650916807378 -6 2.4999999879139869 4.3301270259000564 -6 -6.2995949836986492e-09 5 -6 2.465848112410058 1.4099871989758821 -9 0.37580157663508379 2.5408650916807378 -9 0.37580157663508379 2.5408650916807378 -6 2.4999999879139869 4.3301270259000564 -6 -6.2995949836986492e-09 5 -9 -1.107852388446384 3.1911857209629071 -9 -6.2995949836986492e-09 5 -6 -2.4999999999999991 4.3301270189221936 -6 -6.2995949836986492e-09 5 -3 -1.107852388446384 3.1911857209629071 -6 -6.2995949836986492e-09 5 -6 -2.4999999999999991 4.3301270189221936 -3 -2.2253246846922492 2.366533744740174 -9 -1.107852388446384 3.1911857209629071 -6 -2.4999999999999991 4.3301270189221936 -6 -2.2253246846922492 2.366533744740174 -6 -2.2253246846922492 2.366533744740174 -9 -1.107852388446384 3.1911857209629071 -9 -1.107852388446384 3.1911857209629071 -6 -0.91506351183037493 1.5849364925866429 -6 -2.2253246846922492 2.366533744740174 -9 -1.107852388446384 3.1911857209629071 -9 -1.107852388446384 3.1911857209629071 -6 -2.4999999999999991 4.3301270189221936 -6 -2.2253246846922492 2.366533744740174 -9 -2.4999999999999991 4.3301270189221936 -9 -2.4999999999999991 4.3301270189221936 -6 -4.3301270221112951 2.4999999944763132 -6 -2.2253246846922492 2.366533744740174 -9 -2.4999999999999991 4.3301270189221936 -6 -2.2253246846922492 2.366533744740174 -6 -4.3301270221112951 2.4999999944763132 -6 -1.107852388446384 3.1911857209629071 -3 -1.107852388446384 3.1911857209629071 -6 -0.91506351183037493 1.5849364925866429 -3 -2.2253246846922492 2.366533744740174 -6 -1.107852388446384 3.1911857209629071 -6 -2.4999999999999991 4.3301270189221936 -6 -2.4999999999999991 4.3301270189221936 -3 -2.2253246846922492 2.366533744740174 -6 -1.107852388446384 3.1911857209629071 -6 -6.2995949836986492e-09 5 -6 -2.4999999999999991 4.3301270189221936 -6 -2.4999999999999991 4.3301270189221936 -3 -1.107852388446384 3.1911857209629071 -3 -2.4999999999999991 4.3301270189221936 -3 -2.2253246846922492 2.366533744740174 -3 -2.2253246846922492 2.366533744740174 -6 -1.107852388446384 3.1911857209629071 -3 -1.107852388446384 3.1911857209629071 -6 -2.4999999999999991 4.3301270189221936 -3 -2.2253246846922492 2.366533744740174 -6 -2.4999999999999991 4.3301270189221936 -6 -2.4999999999999991 4.3301270189221936 -3 -4.3301270221112951 2.4999999944763132 -3 -2.2253246846922492 2.366533744740174 -6 -2.4999999999999991 4.3301270189221936 -3 -4.3301270221112951 2.4999999944763132 -3 -2.2253246846922492 2.366533744740174 -3 -2.2253246846922492 2.366533744740174 -6 -2.4999999999999991 4.3301270189221936 -6 -4.3301270221112951 2.4999999944763132 -3 -2.2253246846922492 2.366533744740174 -6 -4.3301270221112951 2.4999999944763132 -6 -2.4999999999999991 4.3301270189221936 -3 -4.3301270221112951 2.4999999944763132 0 -4.3301270221112951 2.4999999944763132 -3 -2.2253246846922492 2.366533744740174 -3 -1.107852388446384 3.1911857209629071 -3 -2.4999999999999991 4.3301270189221936 -3 -2.4999999999999991 4.3301270189221936 0 -2.2253246846922492 2.366533744740174 -3 -1.107852388446384 3.1911857209629071 -3 -6.2995949836986492e-09 5 -3 -2.4999999999999991 4.3301270189221936 -3 -2.4999999999999991 4.3301270189221936 0 -2.4999999999999991 4.3301270189221936 0 -4.3301270221112951 2.4999999944763132 0 -2.2253246846922492 2.366533744740174 -3 -2.2253246846922492 2.366533744740174 0 -1.107852388446384 3.1911857209629071 0 -1.107852388446384 3.1911857209629071 -3 -2.2253246846922492 2.366533744740174 -3 -0.91506351183037493 1.5849364925866429 0 -2.4999999999999991 4.3301270189221936 -3 -2.4999999999999991 4.3301270189221936 0 -4.3301270221112951 2.4999999944763132 0 -2.2253246846922492 2.366533744740174 -3 -1.107852388446384 3.1911857209629071 0 -1.107852388446384 3.1911857209629071 -3 -2.4999999999999991 4.3301270189221936 0 -2.2253246846922492 2.366533744740174 -3 -1.107852388446384 3.1911857209629071 0 -2.4999999999999991 4.3301270189221936 0 -2.2253246846922492 2.366533744740174 -3 -2.2253246846922492 2.366533744740174 0 -4.3301270221112951 2.4999999944763132 0 -5 -1.397247784140632e-08 0 -2.2735805010731909 0.22641949675281539 0 -2.2735805010731909 0.22641949675281539 -3 -4.3301270221112951 2.4999999944763132 0 -4.3301270221112951 2.4999999944763132 -3 -5 -1.397247784140632e-08 0 -2.2735805010731909 0.22641949675281539 -3 -4.3301270221112951 2.4999999944763132 0 -4.3301270221112951 2.4999999944763132 -3 -2.2735805010731909 0.22641949675281539 -3 -2.2253246846922492 2.366533744740174 -3 -4.3301270221112951 2.4999999944763132 -3 -5 -1.397247784140632e-08 -3 -5 -1.397247784140632e-08 0 -2.2735805010731909 0.22641949675281539 -3 -5 -1.397247784140632e-08 -3 -5 -1.397247784140632e-08 0 -2.2735805010731909 0.22641949675281539 -3 -2.9547160992544761 -1.820741508163664 -3 -5 -1.397247784140632e-08 -3 -5 -1.397247784140632e-08 0 -2.9547160992544761 -1.820741508163664 -3 -4.3301270160527148 -2.500000004970083 0 -5 -1.397247784140632e-08 0 -2.2735805010731909 0.22641949675281539 0 -2.2735805010731909 0.22641949675281539 -3 -2.9547160992544761 -1.820741508163664 -3 -5 -1.397247784140632e-08 0 -2.2735805010731909 0.22641949675281539 0 -2.9547160992544761 -1.820741508163664 -3 -2.9547160992544761 -1.820741508163664 0 -2.2735805010731909 0.22641949675281539 0 -2.2735805010731909 0.22641949675281539 -3 -0.66987297914647026 -2.499999999706382 -3 -2.9547160992544761 -1.820741508163664 -3 -2.2735805010731909 0.22641949675281539 0 -2.2735805010731909 0.22641949675281539 -3 0.20080558631870429 0.033909897404034287 -3 -0.66987297914647026 -2.499999999706382 -3 -2.2735805010731909 0.22641949675281539 0 -2.2735805010731909 0.22641949675281539 -3 0.20080558631870429 0.033909897404034287 -3 -0.91506351183037493 1.5849364925866429 -3 -2.2735805010731909 0.22641949675281539 0 -2.2735805010731909 0.22641949675281539 -3 -2.2253246846922492 2.366533744740174 -3 -0.91506351183037493 1.5849364925866429 -3 -1.107852388446384 3.1911857209629071 -3 -2.2253246846922492 2.366533744740174 -3 -0.91506351183037493 1.5849364925866429 0 -0.91506351183037493 1.5849364925866429 -3 -2.2735805010731909 0.22641949675281539 0 -2.2253246846922492 2.366533744740174 -3 -0.91506351183037493 1.5849364925866429 0 -0.91506351183037493 1.5849364925866429 -3 -1.107852388446384 3.1911857209629071 0 -2.2253246846922492 2.366533744740174 -3 -2.2253246846922492 2.366533744740174 0 -0.91506351183037493 1.5849364925866429 0 -4.3301270221112951 2.4999999944763132 0 -2.2735805010731909 0.22641949675281539 0 -2.2735805010731909 0.22641949675281539 -3 -2.2253246846922492 2.366533744740174 -3 -2.2735805010731909 0.22641949675281539 0 -2.2253246846922492 2.366533744740174 -3 -2.2253246846922492 2.366533744740174 0 -0.91506351183037493 1.5849364925866429 0 -4.3301270221112951 2.4999999944763132 0 -2.2735805010731909 0.22641949675281539 0 -2.2253246846922492 2.366533744740174 -3 -2.2253246846922492 2.366533744740174 0 0.37580157663508379 2.5408650916807378 0 -1.107852388446384 3.1911857209629071 -3 -0.91506351183037493 1.5849364925866429 0 -0.91506351183037493 1.5849364925866429 -3 0.37580157663508379 2.5408650916807378 0 -0.91506351183037493 1.5849364925866429 0 0.20080558631870429 0.033909897404034287 0 -0.91506351183037493 1.5849364925866429 -3 -2.2735805010731909 0.22641949675281539 0 -0.91506351183037493 1.5849364925866429 0 0.20080558631870429 0.033909897404034287 0 -0.91506351183037493 1.5849364925866429 -3 0.37580157663508379 2.5408650916807378 0 0.37580157663508379 2.5408650916807378 -3 0.20080558631870429 0.033909897404034287 0 -0.91506351183037493 1.5849364925866429 -3 -2.2735805010731909 0.22641949675281539 0 0.20080558631870429 0.033909897404034287 0 0.20080558631870429 0.033909897404034287 -3 -0.66987297914647026 -2.499999999706382 0 -2.2735805010731909 0.22641949675281539 0 0.20080558631870429 0.033909897404034287 0 0.20080558631870429 0.033909897404034287 -3 -0.91506351183037493 1.5849364925866429 -3 0.20080558631870429 0.033909897404034287 0 0.20080558631870429 0.033909897404034287 -3 0.95458002071209891 -1.657898275923388 -3 -0.66987297914647026 -2.499999999706382 0 -2.2735805010731909 0.22641949675281539 0 0.20080558631870429 0.033909897404034287 -3 -0.66987297914647026 -2.499999999706382 -3 -0.66987297914647026 -2.499999999706382 0 0.20080558631870429 0.033909897404034287 0 2.3883545080289421 -0.94497882694672608 0 0.95458002071209891 -1.657898275923388 -3 0.95458002071209891 -1.657898275923388 0 0.20080558631870429 0.033909897404034287 0 2.3883545080289421 -0.94497882694672608 0 0.20080558631870429 0.033909897404034287 -3 0.95458002071209891 -1.657898275923388 -3 0.20080558631870429 0.033909897404034287 0 2.3883545080289421 -0.94497882694672608 0 2.465848112410058 1.4099871989758821 -3 0.20080558631870429 0.033909897404034287 -3 0.20080558631870429 0.033909897404034287 0 2.3883545080289421 -0.94497882694672608 0 2.465848112410058 1.4099871989758821 0 2.465848112410058 1.4099871989758821 -3 2.4999999879139869 4.3301270259000564 0 0.37580157663508379 2.5408650916807378 0 2.465848112410058 1.4099871989758821 0 2.465848112410058 1.4099871989758821 -3 0.37580157663508379 2.5408650916807378 0 0.37580157663508379 2.5408650916807378 -3 0.20080558631870429 0.033909897404034287 0 2.465848112410058 1.4099871989758821 -3 0.37580157663508379 2.5408650916807378 0 0.20080558631870429 0.033909897404034287 0 2.465848112410058 1.4099871989758821 0 2.465848112410058 1.4099871989758821 -3 0.37580157663508379 2.5408650916807378 -3 0.20080558631870429 0.033909897404034287 0 2.465848112410058 1.4099871989758821 -3 0.20080558631870429 0.033909897404034287 -3 2.3883545080289421 -0.94497882694672608 0 2.465848112410058 1.4099871989758821 -3 2.3883545080289421 -0.94497882694672608 -3 0.20080558631870429 0.033909897404034287 -3 2.3883545080289421 -0.94497882694672608 0 2.3883545080289421 -0.94497882694672608 -3 0.20080558631870429 0.033909897404034287 -3 0.95458002071209891 -1.657898275923388 -3 0.37580157663508379 2.5408650916807378 0 -1.107852388446384 3.1911857209629071 -3 0.37580157663508379 2.5408650916807378 -3 -0.91506351183037493 1.5849364925866429 -3 0.37580157663508379 2.5408650916807378 -3 0.20080558631870429 0.033909897404034287 0 0.20080558631870429 0.033909897404034287 -3 -0.91506351183037493 1.5849364925866429 -3 0.37580157663508379 2.5408650916807378 -3 0.37580157663508379 2.5408650916807378 -6 0.20080558631870429 0.033909897404034287 -3 -0.91506351183037493 1.5849364925866429 -6 0.37580157663508379 2.5408650916807378 -6 0.20080558631870429 0.033909897404034287 -3 0.20080558631870429 0.033909897404034287 -6 -0.91506351183037493 1.5849364925866429 -6 0.37580157663508379 2.5408650916807378 -3 -1.107852388446384 3.1911857209629071 -6 0.37580157663508379 2.5408650916807378 -6 -0.91506351183037493 1.5849364925866429 -6 -2.2735805010731909 0.22641949675281539 -3 0.20080558631870429 0.033909897404034287 -3 -0.91506351183037493 1.5849364925866429 -3 -0.91506351183037493 1.5849364925866429 -6 0.37580157663508379 2.5408650916807378 -3 -1.107852388446384 3.1911857209629071 -6 -0.91506351183037493 1.5849364925866429 -3 -0.91506351183037493 1.5849364925866429 -6 0.37580157663508379 2.5408650916807378 -3 0.20080558631870429 0.033909897404034287 -3 -0.91506351183037493 1.5849364925866429 -3 -0.91506351183037493 1.5849364925866429 -6 0.20080558631870429 0.033909897404034287 -3 0.20080558631870429 0.033909897404034287 -6 0.95458002071209891 -1.657898275923388 -6 -0.66987297914647026 -2.499999999706382 -3 -2.2735805010731909 0.22641949675281539 -3 0.20080558631870429 0.033909897404034287 -6 -0.66987297914647026 -2.499999999706382 -6 -0.66987297914647026 -2.499999999706382 -3 -2.2735805010731909 0.22641949675281539 -3 0.20080558631870429 0.033909897404034287 -3 0.20080558631870429 0.033909897404034287 -6 -0.66987297914647026 -2.499999999706382 -3 -2.2735805010731909 0.22641949675281539 -3 0.20080558631870429 0.033909897404034287 -3 0.20080558631870429 0.033909897404034287 -6 -0.91506351183037493 1.5849364925866429 -6 2.3883545080289421 -0.94497882694672608 -3 0.20080558631870429 0.033909897404034287 -3 0.20080558631870429 0.033909897404034287 -6 0.95458002071209891 -1.657898275923388 -6 2.3883545080289421 -0.94497882694672608 -3 2.3883545080289421 -0.94497882694672608 -6 0.20080558631870429 0.033909897404034287 -6 0.95458002071209891 -1.657898275923388 -6 2.3883545080289421 -0.94497882694672608 -3 0.20080558631870429 0.033909897404034287 -3 0.95458002071209891 -1.657898275923388 -6 0.95458002071209891 -1.657898275923388 -3 2.3883545080289421 -0.94497882694672608 -3 0.20080558631870429 0.033909897404034287 -3 2.465848112410058 1.4099871989758821 -6 0.20080558631870429 0.033909897404034287 -6 2.3883545080289421 -0.94497882694672608 -3 2.465848112410058 1.4099871989758821 -6 2.3883545080289421 -0.94497882694672608 -6 0.20080558631870429 0.033909897404034287 -6 2.465848112410058 1.4099871989758821 -3 2.3883545080289421 -0.94497882694672608 -3 0.20080558631870429 0.033909897404034287 -3 2.465848112410058 1.4099871989758821 -6 0.37580157663508379 2.5408650916807378 -3 2.4999999879139869 4.3301270259000564 -3 2.465848112410058 1.4099871989758821 -3 2.465848112410058 1.4099871989758821 -6 0.37580157663508379 2.5408650916807378 -3 0.37580157663508379 2.5408650916807378 -6 0.20080558631870429 0.033909897404034287 -3 2.465848112410058 1.4099871989758821 -6 0.37580157663508379 2.5408650916807378 -6 0.20080558631870429 0.033909897404034287 -3 2.465848112410058 1.4099871989758821 -6 0.20080558631870429 0.033909897404034287 -6 0.37580157663508379 2.5408650916807378 -3 2.465848112410058 1.4099871989758821 -3 0.20080558631870429 0.033909897404034287 -3 2.465848112410058 1.4099871989758821 -6 2.465848112410058 1.4099871989758821 -9 0.37580157663508379 2.5408650916807378 -9 0.37580157663508379 2.5408650916807378 -6 0.20080558631870429 0.033909897404034287 -6 2.465848112410058 1.4099871989758821 -9 0.37580157663508379 2.5408650916807378 -6 2.4999999879139869 4.3301270259000564 -6 2.465848112410058 1.4099871989758821 -6 2.465848112410058 1.4099871989758821 -9 0.37580157663508379 2.5408650916807378 -6 2.465848112410058 1.4099871989758821 -6 0.20080558631870429 0.033909897404034287 -6 0.95458002071209891 -1.657898275923388 -9 0.20080558631870429 0.033909897404034287 -9 2.3883545080289421 -0.94497882694672608 -6 0.20080558631870429 0.033909897404034287 -6 0.95458002071209891 -1.657898275923388 -9 2.3883545080289421 -0.94497882694672608 -6 0.20080558631870429 0.033909897404034287 -6 0.95458002071209891 -1.657898275923388 -6 0.20080558631870429 0.033909897404034287 -9 2.465848112410058 1.4099871989758821 -9 2.3883545080289421 -0.94497882694672608 -6 0.20080558631870429 0.033909897404034287 -6 2.465848112410058 1.4099871989758821 -9 2.465848112410058 1.4099871989758821 -6 2.3883545080289421 -0.94497882694672608 -6 0.20080558631870429 0.033909897404034287 -6 -0.91506351183037493 1.5849364925866429 -9 0.20080558631870429 0.033909897404034287 -9 0.20080558631870429 0.033909897404034287 -6 -2.2735805010731909 0.22641949675281539 -6 0.20080558631870429 0.033909897404034287 -9 0.20080558631870429 0.033909897404034287 -6 -2.2735805010731909 0.22641949675281539 -6 -0.66987297914647026 -2.499999999706382 -6 -0.66987297914647026 -2.499999999706382 -9 0.20080558631870429 0.033909897404034287 -9 -2.2735805010731909 0.22641949675281539 -6 -0.66987297914647026 -2.499999999706382 -6 0.95458002071209891 -1.657898275923388 -9 0.20080558631870429 0.033909897404034287 -9 0.20080558631870429 0.033909897404034287 -6 -0.66987297914647026 -2.499999999706382 -6 -0.91506351183037493 1.5849364925866429 -9 -1.107852388446384 3.1911857209629071 -9 0.37580157663508379 2.5408650916807378 -6 -0.91506351183037493 1.5849364925866429 -6 -0.91506351183037493 1.5849364925866429 -9 0.20080558631870429 0.033909897404034287 -6 -0.91506351183037493 1.5849364925866429 -6 -2.2735805010731909 0.22641949675281539 -6 -0.91506351183037493 1.5849364925866429 -9 0.37580157663508379 2.5408650916807378 -9 0.37580157663508379 2.5408650916807378 -6 0.20080558631870429 0.033909897404034287 -6 -0.91506351183037493 1.5849364925866429 -9 0.37580157663508379 2.5408650916807378 -6 0.20080558631870429 0.033909897404034287 -6 -0.91506351183037493 1.5849364925866429 -6 -2.2253246846922492 2.366533744740174 -9 -2.2253246846922492 2.366533744740174 -6 -4.3301270221112951 2.4999999944763132 -6 -2.2735805010731909 0.22641949675281539 -6 -2.2253246846922492 2.366533744740174 -9 -1.107852388446384 3.1911857209629071 -6 -0.91506351183037493 1.5849364925866429 -6 -2.2253246846922492 2.366533744740174 -6 -2.2735805010731909 0.22641949675281539 -9 -2.2253246846922492 2.366533744740174 -9 -4.3301270221112951 2.4999999944763132 -6 -2.2735805010731909 0.22641949675281539 -6 -2.2253246846922492 2.366533744740174 -9 -0.91506351183037493 1.5849364925866429 -9 -0.91506351183037493 1.5849364925866429 -6 -2.2735805010731909 0.22641949675281539 -6 -2.2253246846922492 2.366533744740174 -9 -0.91506351183037493 1.5849364925866429 -6 -2.2253246846922492 2.366533744740174 -6 -2.2735805010731909 0.22641949675281539 -6 -2.2735805010731909 0.22641949675281539 -9 -4.3301270221112951 2.4999999944763132 -6 -5 -1.397247784140632e-08 -6 -2.2735805010731909 0.22641949675281539 -6 -2.2735805010731909 0.22641949675281539 -9 -4.3301270221112951 2.4999999944763132 -9 -4.3301270221112951 2.4999999944763132 -6 -5 -1.397247784140632e-08 -6 -4.3301270221112951 2.4999999944763132 -3 -5 -1.397247784140632e-08 -3 -2.2735805010731909 0.22641949675281539 -3 -2.2735805010731909 0.22641949675281539 -6 -4.3301270221112951 2.4999999944763132 -3 -2.2253246846922492 2.366533744740174 -6 -4.3301270221112951 2.4999999944763132 -6 -2.2735805010731909 0.22641949675281539 -6 -5 -1.397247784140632e-08 -3 -4.3301270221112951 2.4999999944763132 -6 -5 -1.397247784140632e-08 -6 -2.2735805010731909 0.22641949675281539 -6 -4.3301270221112951 2.4999999944763132 -3 -5 -1.397247784140632e-08 -3 -4.3301270221112951 2.4999999944763132 -6 -2.2735805010731909 0.22641949675281539 -6 -1.107852388446384 3.1911857209629071 -3 -2.2253246846922492 2.366533744740174 -3 -0.91506351183037493 1.5849364925866429 -3 -2.2253246846922492 2.366533744740174 -6 -4.3301270221112951 2.4999999944763132 -3 -2.2735805010731909 0.22641949675281539 -3 -2.2253246846922492 2.366533744740174 -3 -2.2253246846922492 2.366533744740174 -6 -1.107852388446384 3.1911857209629071 -6 -0.91506351183037493 1.5849364925866429 -3 -0.91506351183037493 1.5849364925866429 -6 -2.2253246846922492 2.366533744740174 -6 -2.2735805010731909 0.22641949675281539 -3 -2.2253246846922492 2.366533744740174 -3 -0.91506351183037493 1.5849364925866429 -3 -2.2253246846922492 2.366533744740174 -6 -2.2735805010731909 0.22641949675281539 -3 -0.91506351183037493 1.5849364925866429 -6 -2.2253246846922492 2.366533744740174 -6 -2.2735805010731909 0.22641949675281539 -6 -2.2735805010731909 0.22641949675281539 -3 -0.91506351183037493 1.5849364925866429 -3 -0.91506351183037493 1.5849364925866429 -6 -2.2253246846922492 2.366533744740174 -6 -4.3301270221112951 2.4999999944763132 -3 -2.2735805010731909 0.22641949675281539 -3 -2.2253246846922492 2.366533744740174 -6 -2.2735805010731909 0.22641949675281539 -6 -2.2735805010731909 0.22641949675281539 -3 0.20080558631870429 0.033909897404034287 -6 -2.2735805010731909 0.22641949675281539 -6 -0.66987297914647026 -2.499999999706382 -6 -2.2735805010731909 0.22641949675281539 -3 0.20080558631870429 0.033909897404034287 -6 -0.91506351183037493 1.5849364925866429 -6 -2.2735805010731909 0.22641949675281539 -6 -2.2735805010731909 0.22641949675281539 -3 -2.2735805010731909 0.22641949675281539 -6 -2.9547160992544761 -1.820741508163664 -6 -0.66987297914647026 -2.499999999706382 -6 -5 -1.397247784140632e-08 -3 -5 -1.397247784140632e-08 -6 -2.9547160992544761 -1.820741508163664 -6 -4.3301270160527148 -2.500000004970083 -3 -5 -1.397247784140632e-08 -3 -2.2735805010731909 0.22641949675281539 -3 -2.9547160992544761 -1.820741508163664 -6 -2.9547160992544761 -1.820741508163664 -3 -5 -1.397247784140632e-08 -3 -5 -1.397247784140632e-08 -6 -2.2735805010731909 0.22641949675281539 -6 -2.9547160992544761 -1.820741508163664 -6 -5 -1.397247784140632e-08 -3 -2.2735805010731909 0.22641949675281539 -3 -2.2735805010731909 0.22641949675281539 -6 -2.9547160992544761 -1.820741508163664 -6 -2.9547160992544761 -1.820741508163664 -9 -5 -1.397247784140632e-08 -9 -5 -1.397247784140632e-08 -6 -4.3301270160527148 -2.500000004970083 -6 -2.9547160992544761 -1.820741508163664 -9 -2.2735805010731909 0.22641949675281539 -9 -5 -1.397247784140632e-08 -6 -2.2735805010731909 0.22641949675281539 -6 -2.9547160992544761 -1.820741508163664 -9 -5 -1.397247784140632e-08 -6 -2.2735805010731909 0.22641949675281539 -6 -2.9547160992544761 -1.820741508163664 -6 -0.66987297914647026 -2.499999999706382 -9 -2.9547160992544761 -1.820741508163664 -9 -2.2735805010731909 0.22641949675281539 -6 -0.66987297914647026 -2.499999999706382 -6 -2.9547160992544761 -1.820741508163664 -9 -2.2735805010731909 0.22641949675281539 -6 -2.9547160992544761 -1.820741508163664 -6 -0.66987297914647026 -2.499999999706382 -6 -0.66987297914647026 -2.499999999706382 -9 -2.9547160992544761 -1.820741508163664 -9 -2.5000000000000022 -4.3301270189221919 -6 -0.66987297914647026 -2.499999999706382 -6 -2.9547160992544761 -1.820741508163664 -9 -2.9547160992544761 -1.820741508163664 -6 -2.5000000000000022 -4.3301270189221919 -6 -0.66987297914647026 -2.499999999706382 -6 -2.9547160992544761 -1.820741508163664 -9 -2.9547160992544761 -1.820741508163664 -6 -4.3301270160527148 -2.500000004970083 -6 -2.5000000000000022 -4.3301270189221919 -6 -2.9547160992544761 -1.820741508163664 -9 -5 -1.397247784140632e-08 -6 -2.9547160992544761 -1.820741508163664 -6 -4.3301270160527148 -2.500000004970083 -6 -4.3301270160527148 -2.500000004970083 -9 -2.9547160992544761 -1.820741508163664 -9 -4.3301270160527148 -2.500000004970083 -6 -2.5000000000000022 -4.3301270189221919 -6 -2.9547160992544761 -1.820741508163664 -6 -4.3301270160527148 -2.500000004970083 -6 -2.5000000000000022 -4.3301270189221919 -3 -4.3301270160527148 -2.500000004970083 -3 -5 -1.397247784140632e-08 -6 -2.9547160992544761 -1.820741508163664 -6 -4.3301270160527148 -2.500000004970083 -6 -4.3301270160527148 -2.500000004970083 -3 -5 -1.397247784140632e-08 -3 -2.9547160992544761 -1.820741508163664 -6 -2.9547160992544761 -1.820741508163664 -3 -4.3301270160527148 -2.500000004970083 -3 -2.9547160992544761 -1.820741508163664 -6 -2.5000000000000022 -4.3301270189221919 -3 -2.9547160992544761 -1.820741508163664 -3 -4.3301270160527148 -2.500000004970083 -3 -2.9547160992544761 -1.820741508163664 -6 -0.66987297914647026 -2.499999999706382 -3 -2.5000000000000022 -4.3301270189221919 -3 -2.9547160992544761 -1.820741508163664 -3 -2.2735805010731909 0.22641949675281539 -3 -2.9547160992544761 -1.820741508163664 -6 -0.66987297914647026 -2.499999999706382 -3 -2.9547160992544761 -1.820741508163664 -3 -2.9547160992544761 -1.820741508163664 -6 -0.66987297914647026 -2.499999999706382 -6 -0.66987297914647026 -2.499999999706382 -3 -2.5000000000000022 -4.3301270189221919 -3 -2.2735805010731909 0.22641949675281539 -3 -2.9547160992544761 -1.820741508163664 -6 -0.66987297914647026 -2.499999999706382 -6 -0.66987297914647026 -2.499999999706382 -3 -2.9547160992544761 -1.820741508163664 -6 -2.5000000000000022 -4.3301270189221919 -6 -0.66987297914647026 -2.499999999706382 -6 -2.5000000000000022 -4.3301270189221919 -3 -2.9547160992544761 -1.820741508163664 -6 -4.3301270160527148 -2.500000004970083 -6 -2.5000000000000022 -4.3301270189221919 -6 -2.5000000000000022 -4.3301270189221919 -3 -2.5000000000000022 -4.3301270189221919 -6 -0.66987297914647026 -2.499999999706382 -6 6.9142305214597846e-09 -5 -3 -2.5000000000000022 -4.3301270189221919 -3 -0.66987297914647026 -2.499999999706382 -9 -2.5000000000000022 -4.3301270189221919 -9 -2.5000000000000022 -4.3301270189221919 -6 6.9142305214597846e-09 -5 -6 0.91506351643986317 -3.4150635091400758 -9 -0.66987297914647026 -2.499999999706382 -9 6.9142305214597846e-09 -5 -6 -0.66987297914647026 -2.499999999706382 -6 -0.66987297914647026 -2.499999999706382 -9 -2.5000000000000022 -4.3301270189221919 -6 6.9142305214597846e-09 -5 -6 -0.66987297914647026 -2.499999999706382 -6 0.91506351643986317 -3.4150635091400758 -9 6.9142305214597846e-09 -5 -6 -0.66987297914647026 -2.499999999706382 -6 0.91506351643986317 -3.4150635091400758 -6 0.91506351643986317 -3.4150635091400758 -9 0.95458002071209891 -1.657898275923388 -9 -0.66987297914647026 -2.499999999706382 -6 0.91506351643986317 -3.4150635091400758 -6 0.95458002071209891 -1.657898275923388 -9 0.20080558631870429 0.033909897404034287 -6 -0.66987297914647026 -2.499999999706382 -6 0.95458002071209891 -1.657898275923388 -6 0.95458002071209891 -1.657898275923388 -9 -0.66987297914647026 -2.499999999706382 -6 0.95458002071209891 -1.657898275923388 -6 0.91506351643986317 -3.4150635091400758 -6 2.217625015551433 -2.5696135239339939 -9 2.3883545080289421 -0.94497882694672608 -6 2.217625015551433 -2.5696135239339939 -6 0.95458002071209891 -1.657898275923388 -6 0.95458002071209891 -1.657898275923388 -9 2.217625015551433 -2.5696135239339939 -9 2.3883545080289421 -0.94497882694672608 -6 0.95458002071209891 -1.657898275923388 -6 2.217625015551433 -2.5696135239339939 -9 2.217625015551433 -2.5696135239339939 -6 0.95458002071209891 -1.657898275923388 -6 0.91506351643986317 -3.4150635091400758 -6 0.95458002071209891 -1.657898275923388 -9 2.217625015551433 -2.5696135239339939 -9 0.95458002071209891 -1.657898275923388 -6 0.91506351643986317 -3.4150635091400758 -6 0.91506351643986317 -3.4150635091400758 -9 6.9142305214597846e-09 -5 -9 2.500000010727558 -4.3301270127286351 -6 6.9142305214597846e-09 -5 -6 0.91506351643986317 -3.4150635091400758 -9 2.500000010727558 -4.3301270127286351 -6 6.9142305214597846e-09 -5 -6 0.91506351643986317 -3.4150635091400758 -6 2.217625015551433 -2.5696135239339939 -9 2.500000010727558 -4.3301270127286351 -6 2.217625015551433 -2.5696135239339939 -6 0.91506351643986317 -3.4150635091400758 -6 0.91506351643986317 -3.4150635091400758 -9 2.217625015551433 -2.5696135239339939 -9 2.500000010727558 -4.3301270127286351 -6 0.91506351643986317 -3.4150635091400758 -6 2.500000010727558 -4.3301270127286351 -3 0.91506351643986317 -3.4150635091400758 -6 6.9142305214597846e-09 -5 -3 0.91506351643986317 -3.4150635091400758 -3 2.500000010727558 -4.3301270127286351 -6 2.500000010727558 -4.3301270127286351 -3 2.217625015551433 -2.5696135239339939 -6 0.91506351643986317 -3.4150635091400758 -6 2.500000010727558 -4.3301270127286351 -3 2.217625015551433 -2.5696135239339939 -6 0.91506351643986317 -3.4150635091400758 -6 0.91506351643986317 -3.4150635091400758 -3 2.500000010727558 -4.3301270127286351 -3 2.217625015551433 -2.5696135239339939 -6 2.217625015551433 -2.5696135239339939 -3 0.91506351643986317 -3.4150635091400758 -3 2.500000010727558 -4.3301270127286351 -6 2.500000010727558 -4.3301270127286351 -3 6.9142305214597846e-09 -5 -6 0.91506351643986317 -3.4150635091400758 -6 2.500000010727558 -4.3301270127286351 -3 6.9142305214597846e-09 -5 -6 0.91506351643986317 -3.4150635091400758 -6 6.9142305214597846e-09 -5 -3 2.217625015551433 -2.5696135239339939 -6 0.95458002071209891 -1.657898275923388 -6 0.95458002071209891 -1.657898275923388 -3 0.91506351643986317 -3.4150635091400758 -3 2.3883545080289421 -0.94497882694672608 -3 2.217625015551433 -2.5696135239339939 -6 0.95458002071209891 -1.657898275923388 -6 0.95458002071209891 -1.657898275923388 -3 2.3883545080289421 -0.94497882694672608 -3 2.3883545080289421 -0.94497882694672608 -6 2.217625015551433 -2.5696135239339939 -6 0.95458002071209891 -1.657898275923388 -6 2.3883545080289421 -0.94497882694672608 -3 2.217625015551433 -2.5696135239339939 -6 2.217625015551433 -2.5696135239339939 -3 0.95458002071209891 -1.657898275923388 -3 2.217625015551433 -2.5696135239339939 -6 2.217625015551433 -2.5696135239339939 -3 0.95458002071209891 -1.657898275923388 -3 0.91506351643986317 -3.4150635091400758 -3 2.217625015551433 -2.5696135239339939 -6 0.95458002071209891 -1.657898275923388 -6 0.91506351643986317 -3.4150635091400758 -6 0.91506351643986317 -3.4150635091400758 -3 0.20080558631870429 0.033909897404034287 -3 0.95458002071209891 -1.657898275923388 -6 -0.66987297914647026 -2.499999999706382 -3 0.95458002071209891 -1.657898275923388 -3 0.20080558631870429 0.033909897404034287 -6 -0.66987297914647026 -2.499999999706382 -6 0.95458002071209891 -1.657898275923388 -6 -0.66987297914647026 -2.499999999706382 -3 0.95458002071209891 -1.657898275923388 -6 -0.66987297914647026 -2.499999999706382 -3 0.95458002071209891 -1.657898275923388 -3 0.91506351643986317 -3.4150635091400758 -3 -0.66987297914647026 -2.499999999706382 -6 0.95458002071209891 -1.657898275923388 -6 0.91506351643986317 -3.4150635091400758 -6 -0.66987297914647026 -2.499999999706382 -3 0.95458002071209891 -1.657898275923388 -6 0.91506351643986317 -3.4150635091400758 -6 -0.66987297914647026 -2.499999999706382 -3 0.91506351643986317 -3.4150635091400758 -3 0.91506351643986317 -3.4150635091400758 -6 6.9142305214597846e-09 -5 -3 -0.66987297914647026 -2.499999999706382 -3 0.91506351643986317 -3.4150635091400758 -3 6.9142305214597846e-09 -5 -6 -0.66987297914647026 -2.499999999706382 -6 0.91506351643986317 -3.4150635091400758 -6 6.9142305214597846e-09 -5 -3 -0.66987297914647026 -2.499999999706382 -6 0.91506351643986317 -3.4150635091400758 -6 6.9142305214597846e-09 -5 -3 -0.66987297914647026 -2.499999999706382 -3 -2.5000000000000022 -4.3301270189221919 -6 6.9142305214597846e-09 -5 -6 -0.66987297914647026 -2.499999999706382 -6 6.9142305214597846e-09 -5 -3 -0.66987297914647026 -2.499999999706382 -6 6.9142305214597846e-09 -5 -3 -0.66987297914647026 -2.499999999706382 -3 -2.5000000000000022 -4.3301270189221919 -3 6.9142305214597846e-09 -5 -3 -0.66987297914647026 -2.499999999706382 -3 0.91506351643986317 -3.4150635091400758 -3 6.9142305214597846e-09 -5 0 6.9142305214597846e-09 -5 -3 -0.66987297914647026 -2.499999999706382 -3 6.9142305214597846e-09 -5 0 -2.5000000000000022 -4.3301270189221919 -3 -0.66987297914647026 -2.499999999706382 -3 0.95458002071209891 -1.657898275923388 -3 0.91506351643986317 -3.4150635091400758 -3 -0.66987297914647026 -2.499999999706382 0 0.20080558631870429 0.033909897404034287 -3 -0.66987297914647026 -2.499999999706382 -3 0.95458002071209891 -1.657898275923388 -3 -0.66987297914647026 -2.499999999706382 0 2.3883545080289421 -0.94497882694672608 0 2.3883545080289421 -0.94497882694672608 -3 2.217625015551433 -2.5696135239339939 -3 0.95458002071209891 -1.657898275923388 -3 2.217625015551433 -2.5696135239339939 -3 0.95458002071209891 -1.657898275923388 -3 0.91506351643986317 -3.4150635091400758 -3 0.91506351643986317 -3.4150635091400758 0 2.500000010727558 -4.3301270127286351 -3 2.500000010727558 -4.3301270127286351 0 2.217625015551433 -2.5696135239339939 -3 0.91506351643986317 -3.4150635091400758 -3 2.500000010727558 -4.3301270127286351 -3 2.500000010727558 -4.3301270127286351 0 6.9142305214597846e-09 -5 -3 0.91506351643986317 -3.4150635091400758 -3 2.500000010727558 -4.3301270127286351 0 2.217625015551433 -2.5696135239339939 -3 0.91506351643986317 -3.4150635091400758 0 2.217625015551433 -2.5696135239339939 0 2.500000010727558 -4.3301270127286351 0 2.217625015551433 -2.5696135239339939 -3 0.91506351643986317 -3.4150635091400758 -3 0.91506351643986317 -3.4150635091400758 0 2.500000010727558 -4.3301270127286351 0 0.91506351643986317 -3.4150635091400758 -3 0.91506351643986317 -3.4150635091400758 0 6.9142305214597846e-09 -5 0 2.500000010727558 -4.3301270127286351 0 6.9142305214597846e-09 -5 -3 0.91506351643986317 -3.4150635091400758 -3 6.9142305214597846e-09 -5 0 2.217625015551433 -2.5696135239339939 -3 0.91506351643986317 -3.4150635091400758 0 2.217625015551433 -2.5696135239339939 0 0.95458002071209891 -1.657898275923388 0 2.217625015551433 -2.5696135239339939 -3 0.95458002071209891 -1.657898275923388 -3 0.91506351643986317 -3.4150635091400758 0 0.95458002071209891 -1.657898275923388 0 2.3883545080289421 -0.94497882694672608 0 2.217625015551433 -2.5696135239339939 -3 2.217625015551433 -2.5696135239339939 0 0.95458002071209891 -1.657898275923388 0 2.3883545080289421 -0.94497882694672608 0 2.217625015551433 -2.5696135239339939 -3 0.95458002071209891 -1.657898275923388 -3 0.95458002071209891 -1.657898275923388 0 0.95458002071209891 -1.657898275923388 -3 0.91506351643986317 -3.4150635091400758 -3 0.91506351643986317 -3.4150635091400758 0 -0.66987297914647026 -2.499999999706382 0 0.95458002071209891 -1.657898275923388 -3 0.91506351643986317 -3.4150635091400758 0 0.95458002071209891 -1.657898275923388 0 -0.66987297914647026 -2.499999999706382 0 0.20080558631870429 0.033909897404034287 0 0.95458002071209891 -1.657898275923388 -3 0.95458002071209891 -1.657898275923388 0 -0.66987297914647026 -2.499999999706382 0 -0.66987297914647026 -2.499999999706382 -3 -0.66987297914647026 -2.499999999706382 0 6.9142305214597846e-09 -5 0 -2.5000000000000022 -4.3301270189221919 0 -0.66987297914647026 -2.499999999706382 -3 0.91506351643986317 -3.4150635091400758 -3 -0.66987297914647026 -2.499999999706382 0 6.9142305214597846e-09 -5 0 0.91506351643986317 -3.4150635091400758 -3 0.91506351643986317 -3.4150635091400758 0 -0.66987297914647026 -2.499999999706382 0 6.9142305214597846e-09 -5 0 -0.66987297914647026 -2.499999999706382 -3 6.9142305214597846e-09 -5 0 -2.5000000000000022 -4.3301270189221919 0 -2.5000000000000022 -4.3301270189221919 -3 -0.66987297914647026 -2.499999999706382 -3 -2.5000000000000022 -4.3301270189221919 0 -2.5000000000000022 -4.3301270189221919 -3 -2.9547160992544761 -1.820741508163664 -3 -2.5000000000000022 -4.3301270189221919 0 -2.5000000000000022 -4.3301270189221919 -3 -2.9547160992544761 -1.820741508163664 -3 -4.3301270160527148 -2.500000004970083 -3 -0.66987297914647026 -2.499999999706382 -3 -0.66987297914647026 -2.499999999706382 0 -2.5000000000000022 -4.3301270189221919 0 -2.9547160992544761 -1.820741508163664 -3 -0.66987297914647026 -2.499999999706382 0 -2.5000000000000022 -4.3301270189221919 0 -2.9547160992544761 -1.820741508163664 -3 -2.9547160992544761 -1.820741508163664 0 -2.2735805010731909 0.22641949675281539 0 -0.66987297914647026 -2.499999999706382 -3 -0.66987297914647026 -2.499999999706382 0 -2.9547160992544761 -1.820741508163664 -3 -2.2735805010731909 0.22641949675281539 0 -0.66987297914647026 -2.499999999706382 0 -2.9547160992544761 -1.820741508163664 -3 -2.9547160992544761 -1.820741508163664 0 -5 -1.397247784140632e-08 0 -2.9547160992544761 -1.820741508163664 -3 -2.9547160992544761 -1.820741508163664 0 -4.3301270160527148 -2.500000004970083 0 -2.5000000000000022 -4.3301270189221919 0 -2.9547160992544761 -1.820741508163664 -3 -2.9547160992544761 -1.820741508163664 0 -4.3301270160527148 -2.500000004970083 0 -2.5000000000000022 -4.3301270189221919 0 -2.9547160992544761 -1.820741508163664 -3 -4.3301270160527148 -2.500000004970083 0 -4.3301270160527148 -2.500000004970083 -3 -5 -1.397247784140632e-08 -3 -2.9547160992544761 -1.820741508163664 -3 -4.3301270160527148 -2.500000004970083 0 -4.3301270160527148 -2.500000004970083 -3 
</DataArray>
</Points>
<Cells>
<DataArray type="UInt32" Name="connectivity" format="ascii">
0 1 2 3 4 5 6 7 8 9 10 11 12 13 14 15 16 17 18 19 20 21 22 23 24 25 26 27 28 29 30 31 32 33 34 35 36 37 38 39 40 41 42 43 44 45 46 47 48 49 50 51 52 53 54 55 56 57 58 59 60 61 62 63 64 65 66 67 68 69 70 71 72 73 74 75 76 77 78 79 80 81 82 83 84 85 86 87 88 89 90 91 92 93 94 95 96 97 98 99 100 101 102 103 104 105 106 107 108 109 110 111 112 113 114 115 116 117 118 119 120 121 122 123 124 125 126 127 128 129 130 131 132 133 134 135 136 137 138 139 140 141 142 143 144 145 146 147 148 149 150 151 152 153 154 155 156 157 158 159 160 161 162 163 164 165 166 167 168 169 170 171 172 173 174 175 176 177 178 179 180 181 182 183 184 185 186 187 188 189 190 191 192 193 194 195 196 197 198 199 200 201 202 203 204 205 206 207 208 209 210 211 212 213 214 215 216 217 218 219 220 221 222 223 224 225 226 227 228 229 230 231 232 233 234 235 236 237 238 239 240 241 242 243 244 245 246 247 248 249 250 251 252 253 254 255 256 257 258 259 260 261 262 263 264 265 266 267 268 269 270 271 272 273 274 275 276 277 278 279 280 281 282 283 284 285 286 287 288 289 290 291 292 293 294 295 296 297 298 299 300 301 302 303 304 305 306 307 308 309 310 311 312 313 314 315 316 317 318 319 320 321 322 323 324 325 326 327 328 329 330 331 332 333 334 335 336 337 338 339 340 341 342 343 344 345 346 347 348 349 350 351 352 353 354 355 356 357 358 359 360 361 362 363 364 365 366 367 368 369 370 371 372 373 374 375 376 377 378 379 380 381 382 383 384 385 386 387 388 389 390 391 392 393 394 395 396 397 398 399 400 401 402 403 404 405 406 407 408 409 410 411 412 413 414 415 416 417 418 419 420 421 422 423 424 425 426 427 428 429 430 431 432 433 434 435 436 437 438 439 440 441 442 443 444 445 446 447 448 449 450 451 452 453 454 455 456 457 458 459 460 461 462 463 464 465 466 467 468 469 470 471 472 473 474 475 476 477 478 479 480 481 482 483 484 485 486 487 488 489 490 491 492 493 494 495 496 497 498 499 500 501 502 503 504 505 506 507 508 509 510 511 512 513 514 515 516 517 518 519 520 521 522 523 524 525 526 527 528 529 530 531 532 533 534 535 536 537 538 539 540 541 542 543 544 545 546 547 548 549 550 551 552 553 554 555 556 557 558 559 560 561 562 563 564 565 566 567 568 569 570 571 572 573 574 575 576 577 578 579 580 581 582 583 584 585 586 587 588 589 590 591 592 593 594 595 596 597 598 599 600 601 602 603 604 605 606 607 608 609 610 611 612 613 614 615 616 617 618 619 620 621 622 623 624 625 626 627 628 629 630 631 632 633 634 635 636 637 638 639 640 641 642 643 644 645 646 647 648 649 650 651 652 653 654 655 656 657 658 659 660 661 662 663 664 665 666 667 668 669 670 671 672 673 674 675 676 677 678 679 680 681 682 683 684 685 686 687 688 689 690 691 692 693 694 695 696 697 698 699 700 701 702 703 704 705 706 707 708 709 710 711 712 713 714 715 716 717 718 719 720 721 722 723 724 725 726 727 728 729 730 731 732 733 734 735 736 737 738 739 740 741 742 743 744 745 746 747 748 749 750 751 752 753 754 755 756 757 758 759 760 761 762 763 764 765 766 767 768 769 770 771 772 773 774 775 776 777 778 779 780 781 782 783 784 785 786 787 788 789 790 791 792 793 794 795 796 797 798 799 800 801 802 803 804 805 806 807 808 809 810 811 812 813 814 815 816 817 818 819 820 821 822 823 824 825 826 827 828 829 830 831 832 833 834 835 836 837 838 839 840 841 842 843 844 845 846 847 848 849 850 851 852 853 854 855 856 857 858 859 860 861 862 863 864 865 866 867 868 869 870 871 872 873 874 875 876 877 878 879 880 881 882 883 884 885 886 887 888 889 890 891 892 893 894 895 896 897 898 899 900 901 902 903 904 905 906 907 908 909 910 911 912 913 914 915 916 917 918 919 920 921 922 923 924 925 926 927 928 929 930 931 932 933 934 935 936 937 938 939 940 941 942 943 944 945 946 947 948 949 950 951 952 953 954 955 956 957 958 959 960 961 962 963 964 965 966 967 968 969 970 971 972 973 974 975 976 977 978 979 980 981 982 983 984 985 986 987 988 989 990 991 992 993 994 995 996 997 998 999 1000 1001 1002 1003 1004 1005 1006 1007 1008 1009 1010 1011 1012 1013 1014 1015 1016 1017 1018 1019 1020 1021 1022 1023 1024 1025 1026 1027 1028 1029 1030 1031 1032 1033 1034 1035 1036 1037 1038 1039 1040 1041 1042 1043 1044 1045 1046 1047 1048 1049 1050 1051 1052 1053 1054 1055 1056 1057 1058 1059 1060 1061 1062 1063 1064 1065 1066 1067 1068 1069 1070 1071 1072 1073 1074 1075 1076 1077 1078 1079 1080 1081 1082 1083 1084 1085 1086 1087 1088 1089 1090 1091 1092 1093 1094 1095 1096 1097 1098 1099 1100 1101 1102 1103 1104 1105 1106 1107 1108 1109 1110 1111 1112 1113 1114 1115 1116 1117 1118 1119 1120 1121 1122 1123 1124 1125 1126 1127 1128 1129 1130 1131 1132 1133 1134 1135 1136 1137 1138 1139 1140 1141 1142 1143 1144 1145 1146 1147 1148 1149 1150 1151 1152 1153 1154 1155 1156 1157 1158 1159 1160 1161 1162 1163 1164 1165 1166 1167 1168 1169 1170 1171 1172 1173 1174 1175 1176 1177 1178 1179 1180 1181 1182 1183 1184 1185 1186 1187 1188 1189 1190 1191 1192 1193 1194 1195 1196 1197 1198 1199 1200 1201 1202 1203 1204 1205 1206 1207 1208 1209 1210 1211 1212 1213 1214 1215 1216 1217 1218 1219 1220 1221 1222 1223 1224 1225 1226 1227 1228 1229 1230 1231 1232 1233 1234 1235 1236 1237 1238 1239 1240 1241 1242 1243 1244 1245 1246 1247 1248 1249 1250 1251 1252 1253 1254 1255 1256 1257 1258 1259 1260 1261 1262 1263 1264 1265 1266 1267 1268 1269 1270 1271 1272 1273 1274 1275 1276 1277 1278 1279 1280 1281 1282 1283 1284 1285 1286 1287 1288 1289 1290 1291 1292 1293 1294 1295 1296 1297 1298 1299 1300 1301 1302 1303 1304 1305 1306 1307 1308 1309 1310 1311 1312 1313 1314 1315 1316 1317 1318 1319 1320 1321 1322 1323 1324 1325 1326 1327 1328 1329 1330 1331 1332 1333 1334 1335 1336 1337 1338 1339 1340 1341 1342 1343 1344 1345 1346 1347 1348 1349 1350 1351 1352 1353 1354 1355 1356 1357 1358 1359 1360 1361 1362 1363 1364 1365 1366 1367 1368 1369 1370 1371 1372 1373 1374 1375 1376 1377 1378 1379 1380 1381 1382 1383 1384 1385 1386 1387 1388 1389 1390 1391 1392 1393 1394 1395 1396 1397 1398 1399 1400 1401 1402 1403 1404 1405 1406 1407 1408 1409 1410 1411 1412 1413 1414 1415 1416 1417 1418 1419 1420 1421 1422 1423 1424 1425 1426 1427 1428 1429 1430 1431 1432 1433 1434 1435 1436 1437 1438 1439 1440 1441 1442 1443 1444 1445 1446 1447 1448 1449 1450 1451 1452 1453 1454 1455 1456 1457 1458 1459 1460 1461 1462 1463 1464 1465 1466 1467 1468 1469 1470 1471 1472 1473 1474 1475 1476 1477 1478 1479 1480 1481 1482 1483 1484 1485 1486 1487 1488 1489 1490 1491 1492 1493 1494 1495 1496 1497 1498 1499 1500 1501 1502 1503 1504 1505 1506 1507 1508 1509 1510 1511 1512 1513 1514 1515 1516 1517 1518 1519 1520 1521 1522 1523 1524 1525 1526 1527 1528 1529 1530 1531 1532 1533 1534 1535 1536 1537 1538 1539 1540 1541 1542 1543 1544 1545 1546 1547 1548 1549 1550 1551 1552 1553 1554 1555 1556 1557 1558 1559 1560 1561 1562 1563 1564 1565 1566 1567 1568 1569 1570 1571 1572 1573 1574 1575 1576 1577 1578 1579 1580 1581 1582 1583 1584 1585 1586 1587 1588 1589 1590 1591 1592 1593 1594 1595 1596 1597 1598 1599 1600 1601 1602 1603 1604 1605 1606 1607 1608 1609 1610 1611 1612 1613 1614 1615 1616 1617 1618 1619 1620 1621 1622 1623 1624 1625 1626 1627 1628 1629 1630 1631 1632 1633 1634 1635 1636 1637 1638 1639 1640 1641 1642 1643 1644 1645 1646 1647 1648 1649 1650 1651 1652 1653 1654 1655 1656 1657 1658 1659 1660 1661 1662 1663 1664 1665 1666 1667 1668 1669 1670 1671 1672 1673 1674 1675 1676 1677 1678 1679 1680 1681 1682 1683 1684 1685 1686 1687 1688 1689 1690 1691 1692 1693 1694 1695 1696 1697 1698 1699 1700 1701 1702 1703 1704 1705 1706 1707 1708 1709 1710 1711 1712 1713 1714 1715 1716 1717 1718 1719 1720 1721 1722 1723 1724 1725 1726 1727 1728 1729 1730 1731 1732 1733 1734 1735 1736 1737 1738 1739 1740 1741 1742 1743 1744 1745 1746 1747 1748 1749 1750 1751 1752 1753 1754 1755 1756 1757 1758 1759 1760 1761 1762 1763 1764 1765 1766 1767 1768 1769 1770 1771 1772 1773 1774 1775 1776 1777 1778 1779 1780 1781 1782 1783 1784 1785 1786 1787 1788 1789 1790 1791 1792 1793 1794 1795 1796 1797 1798 1799 1800 1801 1802 1803 1804 1805 1806 1807 1808 1809 1810 1811 1812 1813 1814 1815 1816 1817 1818 1819 1820 1821 1822 1823 1824 1825 1826 1827 1828 1829 1830 1831 1832 1833 1834 1835 1836 1837 1838 1839 1840 1841 1842 1843 1844 1845 1846 1847 1848 1849 1850 1851 1852 1853 1854 1855 1856 1857 1858 1859 1860 1861 1862 1863 1864 1865 1866 1867 1868 1869 1870 1871 1872 1873 1874 1875 1876 1877 1878 1879 1880 1881 1882 1883 1884 1885 1886 1887 1888 1889 1890 1891 1892 1893 1894 1895 1896 1897 1898 1899 1900 1901 1902 1903 1904 1905 1906 1907 1908 1909 1910 1911 1912 1913 1914 1915 1916 1917 1918 1919 1920 1921 1922 1923 1924 1925 1926 1927 1928 1929 1930 1931 1932 1933 1934 1935 1936 1937 1938 1939 1940 1941 1942 1943 1944 1945 1946 1947 1948 1949 1950 1951 1952 1953 1954 1955 1956 1957 1958 1959 1960 1961 1962 1963 1964 1965 1966 1967 1968 1969 1970 1971 1972 1973 1974 1975 1976 1977 1978 1979 1980 1981 1982 1983 1984 1985 1986 1987 1988 1989 1990 1991 1992 1993 1994 1995 1996 1997 1998 1999 2000 2001 2002 2003 2004 2005 2006 2007 2008 2009 2010 2011 2012 2013 2014 2015 2016 2017 2018 2019 2020 2021 2022 2023 2024 2025 2026 2027 2028 2029 2030 2031 2032 2033 2034 2035 2036 2037 2038 2039 2040 2041 2042 2043 2044 2045 2046 2047 2048 2049 2050 2051 2052 2053 2054 2055 2056 2057 2058 2059 2060 2061 2062 2063 2064 2065 2066 2067 2068 2069 2070 2071 2072 2073 2074 2075 2076 2077 2078 2079 2080 2081 2082 2083 2084 2085 2086 2087 2088 2089 2090 2091 2092 2093 2094 2095 2096 2097 2098 2099 2100 2101 2102 2103 2104 2105 2106 2107 2108 2109 2110 2111 2112 2113 2114 2115 2116 2117 2118 2119 2120 2121 2122 2123 2124 2125 2126 2127 2128 2129 2130 2131 2132 2133 2134 2135 2136 2137 2138 2139 2140 2141 2142 2143 2144 2145 2146 2147 2148 2149 2150 2151 2152 2153 2154 2155 2156 2157 2158 2159 
</DataArray>
<DataArray type="UInt32" Name="offsets" format="ascii">
4 8 12 16 20 24 28 32 36 40 44 48 52 56 60 64 68 72 76 80 84 88 92 96 100 104 108 112 116 120 124 128 132 136 140 144 148 152 156 160 164 168 172 176 180 184 188 192 196 200 204 208 212 216 220 224 228 232 236 240 244 248 252 256 260 264 268 272 276 280 284 288 292 296 300 304 308 312 316 320 324 328 332 336 340 344 348 352 356 360 364 368 372 376 380 384 388 392 396 400 404 408 412 416 420 424 428 432 436 440 444 448 452 456 460 464 468 472 476 480 484 488 492 496 500 504 508 512 516 520 524 528 532 536 540 544 548 552 556 560 564 568 572 576 580 584 588 592 596 600 604 608 612 616 620 624 628 632 636 640 644 648 652 656 660 664 668 672 676 680 684 688 692 696 700 704 708 712 716 720 724 728 732 736 740 744 748 752 756 760 764 768 772 776 780 784 788 792 796 800 804 808 812 816 820 824 828 832 836 840 844 848 852 856 860 864 868 872 876 880 884 888 892 896 900 904 908 912 916 920 924 928 932 936 940 944 948 952 956 960 964 968 972 976 980 984 988 992 996 1000 1004 1008 1012 1016 1020 1024 1028 1032 1036 1040 1044 1048 1052 1056 1060 1064 1068 1072 1076 1080 1084 1088 1092 1096 1100 1104 1108 1112 1116 1120 1124 1128 1132 1136 1140 1144 1148 1152 1156 1160 1164 1168 1172 1176 1180 1184 1188 1192 1196 1200 1204 1208 1212 1216 1220 1224 1228 1232 1236 1240 1244 1248 1252 1256 1260 1264 1268 1272 1276 1280 1284 1288 1292 1296 1300 1304 1308 1312 1316 1320 1324 1328 1332 1336 1340 1344 1348 1352 1356 1360 1364 1368 1372 1376 1380 1384 1388 1392 1396 1400 1404 1408 1412 1416 1420 1424 1428 1432 1436 1440 1444 1448 1452 1456 1460 1464 1468 1472 1476 1480 1484 1488 1492 1496 1500 1504 1508 1512 1516 1520 1524 1528 1532 1536 1540 1544 1548 1552 1556 1560 1564 1568 1572 1576 1580 1584 1588 1592 1596 1600 1604 1608 1612 1616 1620 1624 1628 1632 1636 1640 1644 1648 1652 1656 1660 1664 1668 1672 1676 1680 1684 1688 1692 1696 1700 1704 1708 1712 1716 1720 1724 1728 1732 1736 1740 1744 1748 1752 1756 1760 1764 1768 1772 1776 1780 1784 1788 1792 1796 1800 1804 1808 1812 1816 1820 1824 1828 1832 1836 1840 1844 1848 1852 1856 1860 1864 1868 1872 1876 1880 1884 1888 1892 1896 1900 1904 1908 1912 1916 1920 1924 1928 1932 1936 1940 1944 1948 1952 1956 1960 1964 1968 1972 1976 1980 1984 1988 1992 1996 2000 2004 2008 2012 2016 2020 2024 2028 2032 2036 2040 2044 2048 2052 2056 2060 2064 2068 2072 2076 2080 2084 2088 2092 2096 2100 2104 2108 2112 2116 2120 2124 2128 2132 2136 2140 2144 2148 2152 2156 2160 
</DataArray>
<DataArray type="UInt32" Name="types" format="ascii">
10 10 10 10 10 10 10 10 10 10 10 10 10 10 10 10 10 10 10 10 10 10 10 10 10 10 10 10 10 10 10 10 10 10 10 10 10 10 10 10 10 10 10 10 10 10 10 10 10 10 10 10 10 10 10 10 10 10 10 10 10 10 10 10 10 10 10 10 10 10 10 10 10 10 10 10 10 10 10 10 10 10 10 10 10 10 10 10 10 10 10 10 10 10 10 10 10 10 10 10 10 10 10 10 10 10 10 10 10 10 10 10 10 10 10 10 10 10 10 10 10 10 10 10 10 10 10 10 10 10 10 10 10 10 10 10 10 10 10 10 10 10 10 10 10 10 10 10 10 10 10 10 10 10 10 10 10 10 10 10 10 10 10 10 10 10 10 10 10 10 10 10 10 10 10 10 10 10 10 10 10 10 10 10 10 10 10 10 10 10 10 10 10 10 10 10 10 10 10 10 10 10 10 10 10 10 10 10 10 10 10 10 10 10 10 10 10 10 10 10 10 10 10 10 10 10 10 10 10 10 10 10 10 10 10 10 10 10 10 10 10 10 10 10 10 10 10 10 10 10 10 10 10 10 10 10 10 10 10 10 10 10 10 10 10 10 10 10 10 10 10 10 10 10 10 10 10 10 10 10 10 10 10 10 10 10 10 10 10 10 10 10 10 10 10 10 10 10 10 10 10 10 10 10 10 10 10 10 10 10 10 10 10 10 10 10 10 10 10 10 10 10 10 10 10 10 10 10 10 10 10 10 10 10 10 10 10 10 10 10 10 10 10 10 10 10 10 10 10 10 10 10 10 10 10 10 10 10 10 10 10 10 10 10 10 10 10 10 10 10 10 10 10 10 10 10 10 10 10 10 10 10 10 10 10 10 10 10 10 10 10 10 10 10 10 10 10 10 10 10 10 10 10 10 10 10 10 10 10 10 10 10 10 10 10 10 10 10 10 10 10 10 10 10 10 10 10 10 10 10 10 10 10 10 10 10 10 10 10 10 10 10 10 10 10 10 10 10 10 10 10 10 10 10 10 10 10 10 10 10 10 10 10 10 10 10 10 10 10 10 10 10 10 10 10 10 10 10 10 10 10 10 10 10 10 10 10 10 10 10 10 10 10 10 10 10 10 10 10 10 10 10 10 10 10 10 10 10 10 10 10 10 10 10 10 10 10 10 10 10 10 10 10 10 10 10 10 10 10 10 10 10 10 10 10 10 10 10 10 10 
</DataArray>
</Cells>
<PointData Scalars="" Vectors="displacement," Tensors="">
<DataArray type="Float64" Name="displacement" NumberOfComponents="3" format="ascii">
-1.3342883229901454e-07 -1.9516434924661042e-08 -0.00025022324047549314 2.4514538910972579e-08 1.6152160978853634e-08 -1.8749904757844601e-07 -8.4334397904464273e-08 -2.3212081673077098e-08 -0.00025022252745754442 -1.2759411541905514e-07 4.9914851296314931e-08 -0.00025024279164033859 -1.3342883229901454e-07 -1.9516434924661042e-08 -0.00025022324047549314 2.4514538910972579e-08 1.6152160978853634e-08 -1.8749904757844601e-07 -8.4334397904464273e-08 -2.3212081673077098e-08 -0.00025022252745754442 -1.0075146717000418e-07 -8.6364403831077716e-08 -0.00025023775008396748 -1.3342883229901454e-07 -1.9516434924661042e-08 -0.00025022324047549314 -5.4628447584145305e-08 -3.556715714756479e-08 -1.0558495910732413e-07 2.4514538910972579e-08 1.6152160978853637e-08 -1.8749904757844601e-07 -1.0075146717000418e-07 -8.6364403831077716e-08 -0.00025023775008396748 -1.3342883229901454e-07 -1.9516434924661042e-08 -0.00025022324047549314 -5.4628447584145305e-08 -3.556715714756479e-08 -1.0558495910732413e-07 2.4514538910972582e-08 1.615216097885364e-08 -1.8749904757843265e-07 -5.2294344670126816e-08 -4.3712990443987127e-09 -2.4536026217809341e-07 2.4514538910972579e-08 1.6152160978853634e-08 -1.8749904757844601e-07 -2.6316637501176953e-09 1.1331787882254495e-08 -2.1468365887042749e-07 -4.015890862466236e-08 -5.0911632778013667e-08 -0.00025020835587150167 -5.4681916177691676e-08 1.3876553542135749e-08 -0.00025020920504922553 2.4514538910972579e-08 1.6152160978853634e-08 -1.8749904757844601e-07 -1.0075146717000421e-07 -8.6364403831077729e-08 -0.00025023775008396748 -2.6316637501176895e-09 1.1331787882254493e-08 -2.1468365887043975e-07 -4.0158908624662314e-08 -5.0911632778013653e-08 -0.00025020835587150173 2.4514538910972579e-08 1.6152160978853634e-08 -1.8749904757844601e-07 -8.4334397904464273e-08 -2.3212081673077098e-08 -0.00025022252745754442 -4.0158908624662367e-08 -5.0911632778013693e-08 -0.00025020835587150167 -5.4681916177691689e-08 1.3876553542135757e-08 -0.00025020920504922553 2.4514538910972579e-08 1.6152160978853634e-08 -1.8749904757844601e-07 -8.4334397904464273e-08 -2.3212081673077098e-08 -0.00025022252745754442 -1.007514671700042e-07 -8.6364403831077716e-08 -0.00025023775008396748 -4.0158908624662334e-08 -5.0911632778013653e-08 -0.00025020835587150167 -1.0075146717000418e-07 -8.6364403831077716e-08 -0.00025023775008396748 -2.4655729152528831e-08 -4.6469410893680318e-08 -2.3441226927579498e-07 -2.6316637501176908e-09 1.1331787882254491e-08 -2.1468365887042749e-07 -5.1939184298626725e-08 -1.2724311256445683e-07 -0.0002502121683086334 2.4514538910972579e-08 1.6152160978853634e-08 -1.8749904757844601e-07 -1.0075146717000418e-07 -8.6364403831077716e-08 -0.00025023775008396748 -2.4655729152528831e-08 -4.6469410893680318e-08 -2.3441226927579498e-07 -2.6316637501176953e-09 1.1331787882254495e-08 -2.1468365887042749e-07 -5.4628447584145305e-08 -3.556715714756479e-08 -1.0558495910732413e-07 2.4514538910972576e-08 1.6152160978853637e-08 -1.8749904757844601e-07 -1.0075146717000418e-07 -8.6364403831077716e-08 -0.00025023775008396748 -2.4655729152528831e-08 -4.6469410893680318e-08 -2.3441226927579498e-07 -2.4655729152528831e-08 -4.6469410893680318e-08 -2.3441226927579498e-07 5.0246463010340817e-09 -5.271927264419114e-08 -1.8098160952626788e-07 -2.6316637501176953e-09 1.1331787882254495e-08 -2.1468365887042749e-07 -5.1939184298626738e-08 -1.2724311256445683e-07 -0.00025021216830863345 5.0246463010340859e-09 -5.271927264419114e-08 -1.8098160952624321e-07 -2.6316637501176953e-09 1.1331787882254495e-08 -2.1468365887042749e-07 -4.8806223860652058e-09 1.6546189858281342e-08 -9.7709408372779137e-08 -5.1939184298626725e-08 -1.2724311256445683e-07 -0.0002502121683086334 -2.6316637501176953e-09 1.1331787882254495e-08 -2.1468365887042749e-07 -4.8806223860652058e-09 1.6546189858281342e-08 -9.7709408372779137e-08 -4.015890862466236e-08 -5.0911632778013667e-08 -0.00025020835587150167 -5.1939184298626725e-08 -1.2724311256445686e-07 -0.0002502121683086334 -2.6316637501176953e-09 1.1331787882254495e-08 -2.1468365887042749e-07 5.7102190334789184e-09 -9.1894705581964887e-09 -7.257148260833182e-08 -4.015890862466236e-08 -5.0911632778013667e-08 -0.00025020835587150167 3.7896767624750201e-09 2.5030088512159887e-09 -1.8649055724340488e-07 -2.6316637501176953e-09 1.1331787882254495e-08 -2.1468365887042749e-07 5.7102190334789184e-09 -9.1894705581964887e-09 -7.257148260833182e-08 -4.8806223860652058e-09 1.6546189858281342e-08 -9.7709408372779137e-08 -4.015890862466236e-08 -5.0911632778013667e-08 -0.00025020835587150167 5.7102190334789184e-09 -9.1894705581964887e-09 -7.257148260833182e-08 -4.8806223860652058e-09 1.6546189858281342e-08 -9.7709408372779137e-08 -5.1085831322929573e-09 -8.4144134968379971e-08 -0.0002501894375194071 -4.015890862466236e-08 -5.0911632778013667e-08 -0.00025020835587150167 5.7102190334789184e-09 -9.1894705581964887e-09 -7.257148260833182e-08 -1.2701204291889199e-08 1.1314637939675995e-08 -9.8543622808774432e-08 1.2402692398689575e-08 -4.2726602016865162e-08 -0.00025018450849159196 5.3191410620943953e-08 -2.6638905451971706e-08 -0.00025019976907321228 5.7102190334789184e-09 -9.1894705581964887e-09 -7.257148260833182e-08 -1.2701204291889199e-08 1.1314637939675995e-08 -9.8543622808774432e-08 5.3191410620943953e-08 -2.6638905451971706e-08 -0.00025019976907321228 -1.260067306223378e-08 4.7779824252617634e-09 -1.7697884512076364e-07 5.7102190334789184e-09 -9.1894705581964887e-09 -7.257148260833182e-08 -1.2701204291889199e-08 1.1314637939675995e-08 -9.8543622808774432e-08 -5.1085831322929573e-09 -8.4144134968379971e-08 -0.0002501894375194071 1.2402692398689575e-08 -4.2726602016865162e-08 -0.00025018450849159196 5.7102190334789184e-09 -9.1894705581964887e-09 -7.257148260833182e-08 -1.2701204291889199e-08 1.1314637939675995e-08 -9.8543622808774432e-08 -4.8806223860652058e-09 1.6546189858281342e-08 -9.7709408372779137e-08 -5.1085831322929573e-09 -8.4144134968379971e-08 -0.0002501894375194071 -1.2701204291889199e-08 1.1314637939675995e-08 -9.8543622808774432e-08 -4.8806223860652058e-09 1.6546189858281342e-08 -9.7709408372779137e-08 2.9117656673241e-08 -4.4972329630537668e-08 -1.3795291065112998e-07 1.9423600153529321e-08 -1.3542081044947873e-07 -0.00025020184729808881 5.0246463010340859e-09 -5.271927264419114e-08 -1.8098160952624321e-07 -4.8806223860652165e-09 1.6546189858281358e-08 -9.7709408372779123e-08 -5.1939184298626725e-08 -1.2724311256445683e-07 -0.0002502121683086334 1.9423600153529358e-08 -1.3542081044947875e-07 -0.00025020184729808881 5.0246463010340859e-09 -5.271927264419114e-08 -1.8098160952624321e-07 -4.8806223860652116e-09 1.6546189858281348e-08 -9.7709408372791471e-08 2.9117656673241e-08 -4.4972329630537668e-08 -1.3795291065112998e-07 1.9423600153529321e-08 -1.3542081044947873e-07 -0.00025020184729808881 -1.2701204291889199e-08 1.1314637939675995e-08 -9.8543622808774432e-08 -4.8806223860652058e-09 1.6546189858281342e-08 -9.7709408372779137e-08 -5.1085831322929573e-09 -8.4144134968379971e-08 -0.0002501894375194071 1.9423600153529321e-08 -1.3542081044947873e-07 -0.00025020184729808881 -4.8806223860652058e-09 1.6546189858281342e-08 -9.7709408372779137e-08 -5.1085831322929573e-09 -8.4144134968379971e-08 -0.0002501894375194071 -5.1939184298626725e-08 -1.2724311256445683e-07 -0.0002502121683086334 1.9423600153529321e-08 -1.3542081044947873e-07 -0.00025020184729808881 -1.2701204291889199e-08 1.1314637939675995e-08 -9.8543622808774432e-08 -5.1085831322929573e-09 -8.4144134968379971e-08 -0.0002501894375194071 3.6406066431414291e-08 -7.037202766070507e-08 -0.00025019283072040831 1.9423600153529321e-08 -1.3542081044947873e-07 -0.00025020184729808881 -1.2701204291889199e-08 1.1314637939675995e-08 -9.8543622808774432e-08 3.6406066431414291e-08 -7.037202766070507e-08 -0.00025019283072040831 1.2402692398689607e-08 -4.2726602016865136e-08 -0.00025018450849159196 5.3191410620943914e-08 -2.6638905451971693e-08 -0.00025019976907321228 -1.2701204291889199e-08 1.1314637939675995e-08 -9.8543622808774432e-08 -5.1085831322929573e-09 -8.4144134968379971e-08 -0.0002501894375194071 3.6406066431414291e-08 -7.037202766070507e-08 -0.00025019283072040831 1.2402692398689575e-08 -4.2726602016865162e-08 -0.00025018450849159196 5.7102190334789184e-09 -9.1894705581964887e-09 -7.257148260833182e-08 -5.1085831322929573e-09 -8.4144134968379971e-08 -0.0002501894375194071 1.2402692398689575e-08 -4.2726602016865162e-08 -0.00025018450849159196 -4.015890862466236e-08 -5.0911632778013667e-08 -0.00025020835587150167 5.7102190334789184e-09 -9.1894705581964887e-09 -7.257148260833182e-08 1.2402692398689575e-08 -4.2726602016865162e-08 -0.00025018450849159196 -4.0158908624662367e-08 -5.091163277801364e-08 -0.00025020835587150162 4.6048391564409144e-09 -1.6620690353421662e-10 -0.0002502015878129354 -4.8806223860652058e-09 1.6546189858281342e-08 -9.7709408372779137e-08 -5.1085831322929573e-09 -8.4144134968379971e-08 -0.0002501894375194071 -4.015890862466236e-08 -5.0911632778013667e-08 -0.00025020835587150167 -5.1939184298626725e-08 -1.2724311256445683e-07 -0.0002502121683086334 -1.0075146717000418e-07 -8.6364403831077716e-08 -0.00025023775008396748 -2.6316637501176937e-09 1.1331787882254488e-08 -2.1468365887042749e-07 -4.015890862466236e-08 -5.0911632778013667e-08 -0.00025020835587150167 -5.1939184298626725e-08 -1.2724311256445683e-07 -0.0002502121683086334 -5.1085831322929573e-09 -8.4144134968379971e-08 -0.0002501894375194071 -4.015890862466236e-08 -5.0911632778013667e-08 -0.00025020835587150167 -5.1939184298626725e-08 -1.2724311256445683e-07 -0.0002502121683086334 1.3425891904296139e-08 -1.0927714585546953e-07 -0.00050025136626903036 -5.1085831322929573e-09 -8.4144134968379971e-08 -0.0002501894375194071 2.1580871223941683e-08 -7.3846275966604648e-08 -0.00050024655474169158 -1.7770674388286047e-08 -5.570369218614645e-08 -0.00050025023544014583 1.3425891904296139e-08 -1.0927714585546953e-07 -0.00050025136626903036 -5.1085831322929573e-09 -8.4144134968379971e-08 -0.0002501894375194071 -4.015890862466236e-08 -5.0911632778013667e-08 -0.00025020835587150167 -1.7770674388286047e-08 -5.570369218614645e-08 -0.00050025023544014583 1.3425891904296139e-08 -1.0927714585546953e-07 -0.00050025136626903036 -4.015890862466236e-08 -5.0911632778013667e-08 -0.00025020835587150167 -1.7770674388286047e-08 -5.570369218614645e-08 -0.00050025023544014583 1.3425891904296139e-08 -1.0927714585546956e-07 -0.00050025136626903036 -4.4956565008469781e-08 -1.0091432975588522e-07 -0.00050026097659899122 -1.0075146717000418e-07 -8.6364403831077716e-08 -0.00025023775008396748 -4.015890862466236e-08 -5.0911632778013673e-08 -0.00025020835587150167 -5.1939184298626725e-08 -1.2724311256445683e-07 -0.0002502121683086334 1.3425891904296139e-08 -1.0927714585546953e-07 -0.00050025136626903036 1.2402692398689575e-08 -4.2726602016865162e-08 -0.00025018450849159196 -4.015890862466236e-08 -5.0911632778013667e-08 -0.00025020835587150167 -1.7770674388286047e-08 -5.570369218614645e-08 -0.00050025023544014583 4.604839156440945e-09 -1.6620690353422055e-10 -0.0002502015878129354 -5.1085831322929573e-09 -8.4144134968379971e-08 -0.0002501894375194071 1.2402692398689575e-08 -4.2726602016865162e-08 -0.00025018450849159196 2.1580871223941683e-08 -7.3846275966604648e-08 -0.00050024655474169158 -1.7770674388286047e-08 -5.570369218614645e-08 -0.00050025023544014583 1.2402692398689575e-08 -4.2726602016865162e-08 -0.00025018450849159196 2.1894127021929612e-08 -3.3947674159948867e-08 -0.00050024567292933483 -1.7770674388286053e-08 -5.5703692186146437e-08 -0.00050025023544014583 5.2810852382901047e-09 3.3949210206724512e-09 -0.00050024966825984625 -5.1085831322929573e-09 -8.4144134968379971e-08 -0.0002501894375194071 1.2402692398689575e-08 -4.2726602016865162e-08 -0.00025018450849159196 -4.015890862466236e-08 -5.0911632778013667e-08 -0.00025020835587150167 -1.7770674388286047e-08 -5.570369218614645e-08 -0.00050025023544014583 1.2402692398689575e-08 -4.2726602016865162e-08 -0.00025018450849159196 2.1580871223941683e-08 -7.3846275966604648e-08 -0.00050024655474169158 2.1894127021929612e-08 -3.3947674159948867e-08 -0.00050024567292933483 -1.7770674388286047e-08 -5.570369218614645e-08 -0.00050025023544014583 3.6406066431414291e-08 -7.037202766070507e-08 -0.00025019283072040831 2.1894127021929628e-08 -3.3947674159948847e-08 -0.00050024567292933483 5.1807258893129332e-08 -5.3008049344869914e-08 -0.00050024689752647077 5.4743602150634787e-08 -1.5674011986069977e-08 -0.00050025146488593948 3.6406066431414291e-08 -7.037202766070507e-08 -0.00025019283072040831 1.2402692398689575e-08 -4.2726602016865162e-08 -0.00025018450849159196 5.47436021506348e-08 -1.5674011986069996e-08 -0.00050025146488593948 5.3191410620943953e-08 -2.6638905451971706e-08 -0.00025019976907321228 3.6406066431414291e-08 -7.037202766070507e-08 -0.00025019283072040831 1.2402692398689575e-08 -4.2726602016865162e-08 -0.00025018450849159196 2.1894127021929635e-08 -3.3947674159948841e-08 -0.00050024567292933483 5.474360215063478e-08 -1.5674011986070016e-08 -0.00050025146488593948 3.6406066431414291e-08 -7.037202766070507e-08 -0.00025019283072040831 1.2402692398689575e-08 -4.2726602016865162e-08 -0.00025018450849159196 2.1580871223941683e-08 -7.3846275966604648e-08 -0.00050024655474169158 2.1894127021929612e-08 -3.3947674159948867e-08 -0.00050024567292933483 -5.1085831322929573e-09 -8.4144134968379971e-08 -0.0002501894375194071 3.6406066431414291e-08 -7.037202766070507e-08 -0.00025019283072040831 1.2402692398689575e-08 -4.2726602016865162e-08 -0.00025018450849159196 2.1580871223941683e-08 -7.3846275966604648e-08 -0.00050024655474169158 3.6406066431414291e-08 -7.037202766070507e-08 -0.00025019283072040831 2.1580871223941683e-08 -7.3846275966604648e-08 -0.00050024655474169158 2.1894127021929612e-08 -3.3947674159948867e-08 -0.00050024567292933483 5.1807258893129332e-08 -5.3008049344869908e-08 -0.00050024689752647077 -5.1085831322929573e-09 -8.4144134968379971e-08 -0.0002501894375194071 -5.1939184298626725e-08 -1.2724311256445683e-07 -0.0002502121683086334 1.9423600153529321e-08 -1.3542081044947873e-07 -0.00025020184729808881 6.6418059562157286e-08 -8.7906635210442669e-08 -0.00050024757942734811 -5.1085831322929573e-09 -8.4144134968379971e-08 -0.0002501894375194071 2.1580871223941683e-08 -7.3846275966604648e-08 -0.00050024655474169158 1.3425891904296139e-08 -1.0927714585546953e-07 -0.00050025136626903036 6.6418059562157286e-08 -8.7906635210442669e-08 -0.00050024757942734811 -5.1085831322929573e-09 -8.4144134968379971e-08 -0.0002501894375194071 -5.1939184298626725e-08 -1.2724311256445683e-07 -0.0002502121683086334 1.3425891904296139e-08 -1.0927714585546953e-07 -0.00050025136626903036 6.6418059562157286e-08 -8.7906635210442669e-08 -0.00050024757942734811 -5.1085831322929573e-09 -8.4144134968379971e-08 -0.0002501894375194071 3.6406066431414291e-08 -7.037202766070507e-08 -0.00025019283072040831 2.1580871223941683e-08 -7.3846275966604648e-08 -0.00050024655474169158 6.6418059562157286e-08 -8.7906635210442669e-08 -0.00050024757942734811 -5.1085831322929573e-09 -8.4144134968379971e-08 -0.0002501894375194071 3.6406066431414291e-08 -7.037202766070507e-08 -0.00025019283072040831 1.9423600153529321e-08 -1.3542081044947873e-07 -0.00025020184729808881 6.6418059562157286e-08 -8.7906635210442669e-08 -0.00050024757942734811 3.6406066431414291e-08 -7.037202766070507e-08 -0.00025019283072040831 2.1580871223941683e-08 -7.3846275966604648e-08 -0.00050024655474169158 5.1807258893129332e-08 -5.3008049344869908e-08 -0.00050024689752647077 6.6418059562157286e-08 -8.7906635210442669e-08 -0.00050024757942734811 2.1580871223941683e-08 -7.3846275966604648e-08 -0.00050024655474169158 1.3425891904296139e-08 -1.0927714585546953e-07 -0.00050025136626903036 6.6418059562157286e-08 -8.7906635210442669e-08 -0.00050024757942734811 5.4068082172652232e-08 -9.7708429031848292e-08 -0.00075029061775717877 2.1580871223941683e-08 -7.3846275966604648e-08 -0.00050024655474169158 5.1807258893129332e-08 -5.3008049344869908e-08 -0.00050024689752647077 6.6418059562157286e-08 -8.7906635210442669e-08 -0.00050024757942734811 5.4068082172652232e-08 -9.7708429031848292e-08 -0.00075029061775717877 2.1580871223941683e-08 -7.3846275966604648e-08 -0.00050024655474169158 2.1894127021929612e-08 -3.3947674159948867e-08 -0.00050024567292933483 5.1807258893129332e-08 -5.3008049344869908e-08 -0.00050024689752647077 1.9432312204158484e-08 -7.5936896807686712e-08 -0.00075029061674954177 2.1894127021929612e-08 -3.3947674159948867e-08 -0.00050024567292933483 5.1807258893129332e-08 -5.3008049344869908e-08 -0.00050024689752647077 5.47436021506348e-08 -1.5674011986069996e-08 -0.00050025146488593948 5.366671825154799e-08 -1.9718420562954505e-08 -0.0007502932886569064 2.1580871223941683e-08 -7.3846275966604648e-08 -0.00050024655474169158 2.1894127021929612e-08 -3.3947674159948867e-08 -0.00050024567292933483 -1.7770674388286047e-08 -5.570369218614645e-08 -0.00050025023544014583 -1.6524079825615572e-08 -5.5263222233469267e-08 -0.00075029142827257023 2.1894127021929612e-08 -3.3947674159948867e-08 -0.00050024567292933483 -1.7770674388286047e-08 -5.570369218614645e-08 -0.00050025023544014583 5.2810852382901295e-09 3.3949210206724557e-09 -0.00050024966825984625 -1.6524079825615572e-08 -5.5263222233469267e-08 -0.00075029142827257023 -1.7770674388286047e-08 -5.570369218614645e-08 -0.00050025023544014583 1.3425891904296139e-08 -1.0927714585546953e-07 -0.00050025136626903036 -4.4956565008469801e-08 -1.0091432975588522e-07 -0.00050026097659899122 -1.9360357153641819e-09 -1.1164543170468135e-07 -0.00075029093582465944 2.1580871223941683e-08 -7.3846275966604648e-08 -0.00050024655474169158 -1.7770674388286047e-08 -5.570369218614645e-08 -0.00050025023544014583 1.3425891904296139e-08 -1.0927714585546953e-07 -0.00050025136626903036 -1.9360357153641777e-09 -1.1164543170468135e-07 -0.00075029093582465933 -1.7770674388286047e-08 -5.570369218614645e-08 -0.00050025023544014583 -4.4956565008469807e-08 -1.0091432975588522e-07 -0.00050026097659899122 -6.5687181535145271e-08 -4.349311959154709e-08 -0.00050025491969184796 -5.7166336230084369e-08 -9.580318544733603e-08 -0.00075029410285299043 -4.4956565008469801e-08 -1.0091432975588522e-07 -0.00050026097659899122 -8.7983094820209384e-08 -6.6307467346761616e-08 -0.00050025621488749487 -6.5687181535145271e-08 -4.349311959154709e-08 -0.00050025491969184796 -5.7166336230084369e-08 -9.580318544733603e-08 -0.00075029410285299043 -1.0075146717000418e-07 -8.6364403831077716e-08 -0.00025023775008396748 -4.0158908624662353e-08 -5.0911632778013667e-08 -0.00025020835587150167 1.3425891904296145e-08 -1.0927714585546954e-07 -0.00050025136626903025 -4.4956565008469801e-08 -1.0091432975588522e-07 -0.00050026097659899122 -8.4334397904464273e-08 -2.3212081673077098e-08 -0.00025022252745754442 -1.0075146717000418e-07 -8.6364403831077716e-08 -0.00025023775008396748 -4.015890862466236e-08 -5.0911632778013667e-08 -0.00025020835587150167 -4.4956565008469801e-08 -1.0091432975588522e-07 -0.00050026097659899122 -1.3342883229901454e-07 -1.9516434924661042e-08 -0.00025022324047549314 -8.4334397904464273e-08 -2.3212081673077095e-08 -0.00025022252745754442 -1.0075146717000418e-07 -8.6364403831077716e-08 -0.00025023775008396748 -4.4956565008469801e-08 -1.0091432975588522e-07 -0.00050026097659899122 -8.4334397904464273e-08 -2.3212081673077098e-08 -0.00025022252745754442 -1.7770674388286027e-08 -5.5703692186146457e-08 -0.00050025023544014583 -6.5687181535145284e-08 -4.349311959154709e-08 -0.00050025491969184807 -5.0940742434917785e-08 3.0293919809195694e-09 -0.0005002521585592589 -8.4334397904464273e-08 -2.3212081673077098e-08 -0.00025022252745754442 -1.7770674388286027e-08 -5.5703692186146424e-08 -0.00050025023544014583 -4.4956565008469814e-08 -1.009143297558852e-07 -0.00050026097659899111 -6.5687181535145271e-08 -4.349311959154709e-08 -0.00050025491969184796 -8.4334397904464273e-08 -2.3212081673077098e-08 -0.00025022252745754442 -4.015890862466236e-08 -5.0911632778013667e-08 -0.00025020835587150167 -1.7770674388286047e-08 -5.570369218614645e-08 -0.00050025023544014583 -4.4956565008469801e-08 -1.0091432975588522e-07 -0.00050026097659899122 -8.4334397904464273e-08 -2.3212081673077098e-08 -0.00025022252745754442 -4.015890862466236e-08 -5.0911632778013667e-08 -0.00025020835587150167 -1.7770674388286047e-08 -5.570369218614645e-08 -0.00050025023544014583 -5.0940742434917772e-08 3.0293919809195648e-09 -0.0005002521585592589 -8.4334397904464273e-08 -2.3212081673077098e-08 -0.00025022252745754442 -4.495656500846982e-08 -1.0091432975588522e-07 -0.00050026097659899122 -8.7983094820209384e-08 -6.630746734676163e-08 -0.00050025621488749487 -6.5687181535145271e-08 -4.349311959154709e-08 -0.00050025491969184796 -1.3342883229901454e-07 -1.9516434924661042e-08 -0.00025022324047549314 -8.4334397904464273e-08 -2.3212081673077098e-08 -0.00025022252745754442 -4.4956565008469801e-08 -1.0091432975588522e-07 -0.00050026097659899122 -8.7983094820209384e-08 -6.6307467346761616e-08 -0.00050025621488749487 -8.4334397904464273e-08 -2.3212081673077098e-08 -0.00025022252745754442 -8.7983094820209384e-08 -6.6307467346761616e-08 -0.00050025621488749487 -6.5687181535145271e-08 -4.349311959154709e-08 -0.00050025491969184796 -1.0916144251710579e-07 -1.3238102721737804e-08 -0.0005002633946386858 -1.3342883229901454e-07 -1.9516434924661042e-08 -0.00025022324047549314 -8.4334397904464273e-08 -2.3212081673077098e-08 -0.00025022252745754442 -8.7983094820209384e-08 -6.6307467346761616e-08 -0.00050025621488749487 -1.2759411541905514e-07 4.9914851296314931e-08 -0.00025024279164033859 -8.7983094820209384e-08 -6.6307467346761616e-08 -0.00050025621488749487 -6.5687181535145271e-08 -4.349311959154709e-08 -0.00050025491969184796 -1.0916144251710579e-07 -1.3238102721737804e-08 -0.0005002633946386858 -9.7764005717476141e-08 -5.4075409609034418e-08 -0.0007502924919332082 -1.7770674388286047e-08 -5.570369218614645e-08 -0.00050025023544014583 -5.0940742434917772e-08 3.0293919809195648e-09 -0.0005002521585592589 5.2810852382901295e-09 3.3949210206724557e-09 -0.00050024966825984625 -5.0707614734624776e-08 5.2361287720545817e-09 -0.00075029248740894237 -1.7770674388286047e-08 -5.570369218614645e-08 -0.00050025023544014583 -6.5687181535145271e-08 -4.349311959154709e-08 -0.00050025491969184796 -5.0940742434917772e-08 3.0293919809195648e-09 -0.0005002521585592589 -5.0707614734624776e-08 5.2361287720545867e-09 -0.00075029248740894237 -5.0940742434917772e-08 3.0293919809195648e-09 -0.0005002521585592589 -1.9842616124615409e-08 3.6183302744522165e-08 -0.00050024803703784763 5.2810852382901295e-09 3.3949210206724557e-09 -0.00050024966825984625 -5.0707614734624782e-08 5.2361287720545809e-09 -0.00075029248740894226 -6.5687181535145271e-08 -4.349311959154709e-08 -0.00050025491969184796 -5.0940742434917772e-08 3.0293919809195648e-09 -0.0005002521585592589 -1.0916144251710579e-07 -1.3238102721737804e-08 -0.0005002633946386858 -1.1167141577029081e-07 1.9374037714951165e-09 -0.00075029560532268228 -8.4334397904464273e-08 -2.3212081673077098e-08 -0.00025022252745754442 -6.5687181535145271e-08 -4.349311959154709e-08 -0.00050025491969184796 -5.0940742434917772e-08 3.0293919809195657e-09 -0.0005002521585592589 -1.0916144251710579e-07 -1.3238102721737804e-08 -0.0005002633946386858 -8.4334397904464273e-08 -2.3212081673077098e-08 -0.00025022252745754442 -1.0916144251710579e-07 -1.3238102721737819e-08 -0.00050026339463868591 -5.4681916177691676e-08 1.3876553542135749e-08 -0.00025020920504922553 -1.2759411541905514e-07 4.9914851296314931e-08 -0.00025024279164033859 -8.4334397904464273e-08 -2.3212081673077098e-08 -0.00025022252745754442 -5.0940742434917778e-08 3.0293919809195669e-09 -0.0005002521585592589 -1.0916144251710579e-07 -1.3238102721737804e-08 -0.0005002633946386858 -5.4681916177691676e-08 1.3876553542135749e-08 -0.00025020920504922553 -8.4334397904464273e-08 -2.3212081673077098e-08 -0.00025022252745754442 -8.7983094820209384e-08 -6.6307467346761616e-08 -0.00050025621488749487 -1.0916144251710579e-07 -1.3238102721737804e-08 -0.0005002633946386858 -1.2759411541905514e-07 4.9914851296314931e-08 -0.00025024279164033859 -8.4334397904464273e-08 -2.3212081673077098e-08 -0.00025022252745754442 -4.015890862466236e-08 -5.0911632778013667e-08 -0.00025020835587150167 -5.0940742434917772e-08 3.0293919809195648e-09 -0.0005002521585592589 -5.4681916177691676e-08 1.3876553542135749e-08 -0.00025020920504922553 -5.0940742434917772e-08 3.0293919809195648e-09 -0.0005002521585592589 -7.0318834312635094e-09 4.0877189656513651e-08 -0.00025018427127069387 4.6048391564409499e-09 -1.6620690353423872e-10 -0.00025020158781293545 -5.4681916177691676e-08 1.3876553542135749e-08 -0.00025020920504922553 -4.015890862466236e-08 -5.0911632778013667e-08 -0.00025020835587150167 -5.0940742434917759e-08 3.0293919809195682e-09 -0.00050025215855925911 4.604839156440945e-09 -1.6620690353422055e-10 -0.0002502015878129354 -5.4681916177691676e-08 1.3876553542135749e-08 -0.00025020920504922553 -5.1293301283815728e-08 5.0049584702401226e-08 -0.00050024921562084488 -1.9842616124615409e-08 3.6183302744522165e-08 -0.00050024803703784763 -3.5776755523059635e-08 6.6275533340188645e-08 -0.00025019803290174896 -2.5387428534082399e-08 6.9262181780201991e-08 -0.00050025006255152661 -5.0940742434917772e-08 3.0293919809195648e-09 -0.0005002521585592589 -7.031883431263521e-09 4.0877189656513684e-08 -0.00025018427127069382 -3.5776755523059635e-08 6.6275533340188645e-08 -0.00025019803290174896 -5.4681916177691676e-08 1.3876553542135749e-08 -0.00025020920504922553 -1.9842616124615409e-08 3.6183302744522165e-08 -0.00050024803703784763 -7.0318834312635094e-09 4.0877189656513651e-08 -0.00025018427127069387 -3.5776755523059635e-08 6.6275533340188645e-08 -0.00025019803290174896 -5.5002408675704384e-10 8.0957551592346765e-08 -0.00025019480177757204 -5.0940742434917772e-08 3.0293919809195648e-09 -0.0005002521585592589 -5.1293301283815728e-08 5.0049584702401226e-08 -0.00050024921562084488 -1.9842616124615409e-08 3.6183302744522165e-08 -0.00050024803703784763 -3.5776755523059635e-08 6.6275533340188645e-08 -0.00025019803290174896 -5.0940742434917772e-08 3.0293919809195648e-09 -0.0005002521585592589 -1.9842616124615409e-08 3.6183302744522165e-08 -0.00050024803703784763 -7.0318834312635094e-09 4.0877189656513651e-08 -0.00025018427127069387 -3.5776755523059635e-08 6.6275533340188645e-08 -0.00025019803290174896 -5.0940742434917772e-08 3.0293919809195648e-09 -0.0005002521585592589 -1.0132193106823165e-07 4.3161875768583114e-08 -0.00050025767852542003 -5.1293301283815728e-08 5.0049584702401226e-08 -0.00050024921562084488 -3.5776755523059635e-08 6.6275533340188645e-08 -0.00025019803290174896 -5.0940742434917772e-08 3.0293919809195648e-09 -0.0005002521585592589 -1.0132193106823164e-07 4.3161875768583114e-08 -0.00050025767852542003 -3.5776755523059635e-08 6.6275533340188645e-08 -0.00025019803290174896 -5.4681916177691676e-08 1.3876553542135749e-08 -0.00025020920504922553 -1.0916144251710579e-07 -1.3238102721737804e-08 -0.0005002633946386858 -1.0132193106823165e-07 4.3161875768583121e-08 -0.00050025767852542014 -5.4681916177691676e-08 1.3876553542135749e-08 -0.00025020920504922553 -8.5145097111304212e-08 1.0636276219487113e-07 -0.00025022994564357861 -1.0916144251710579e-07 -1.3238102721737804e-08 -0.0005002633946386858 -5.4681916177691689e-08 1.3876553542135726e-08 -0.00025020920504922558 -1.2759411541905514e-07 4.9914851296314931e-08 -0.00025024279164033859 -8.5145097111304212e-08 1.0636276219487113e-07 -0.00025022994564357861 -5.0940742434917772e-08 3.0293919809195648e-09 -0.0005002521585592589 -1.0916144251710579e-07 -1.3238102721737804e-08 -0.0005002633946386858 -1.0132193106823167e-07 4.3161875768583101e-08 -0.00050025767852542003 -5.4681916177691676e-08 1.3876553542135749e-08 -0.00025020920504922553 -1.0132193106823167e-07 4.3161875768583101e-08 -0.00050025767852542003 -3.5776755523059655e-08 6.6275533340188672e-08 -0.0002501980329017489 -5.4681916177691676e-08 1.3876553542135749e-08 -0.00025020920504922553 -8.5145097111304212e-08 1.0636276219487113e-07 -0.00025022994564357861 -5.0940742434917772e-08 3.0293919809195648e-09 -0.0005002521585592589 -1.0916144251710579e-07 -1.3238102721737804e-08 -0.0005002633946386858 -1.0132193106823167e-07 4.3161875768583101e-08 -0.00050025767852542003 -1.1167141577029081e-07 1.9374037714951165e-09 -0.00075029560532268228 -5.0940742434917772e-08 3.0293919809195648e-09 -0.0005002521585592589 -1.0132193106823165e-07 4.3161875768583114e-08 -0.00050025767852542003 -5.1293301283815728e-08 5.0049584702401226e-08 -0.00050024921562084488 -9.5740061020095293e-08 5.7465164598509363e-08 -0.00075029432990309159 -5.1293301283815728e-08 5.0049584702401226e-08 -0.00050024921562084488 -1.9842616124615409e-08 3.6183302744522165e-08 -0.00050024803703784763 -2.5387428534082399e-08 6.9262181780201991e-08 -0.00050025006255152661 -1.9293162804784957e-08 3.6136375995210612e-08 -0.00075029216184415359 -5.0940742434917772e-08 3.0293919809195648e-09 -0.0005002521585592589 -5.1293301283815728e-08 5.0049584702401226e-08 -0.00050024921562084488 -1.9842616124615409e-08 3.6183302744522165e-08 -0.00050024803703784763 -5.0707614734624782e-08 5.2361287720545809e-09 -0.00075029248740894226 -1.9842616124615409e-08 3.6183302744522165e-08 -0.00050024803703784763 5.2810852382901295e-09 3.3949210206724557e-09 -0.00050024966825984625 1.2957079439000903e-08 5.6986557822004454e-08 -0.00050025537193547961 4.8940057609526166e-09 1.8421229125824417e-09 -0.00075029192001347246 -1.9842616124615409e-08 3.6183302744522165e-08 -0.00050024803703784763 1.2957079439000903e-08 5.6986557822004454e-08 -0.00050025537193547961 -2.5387428534082399e-08 6.9262181780201991e-08 -0.00050025006255152661 1.0865503847066921e-08 5.7032936668221994e-08 -0.00075029507568264093 5.2810852382901295e-09 3.3949210206724557e-09 -0.00050024966825984625 5.47436021506348e-08 -1.5674011986069996e-08 -0.00050025146488593948 5.7247527199077891e-08 3.4703563927845622e-08 -0.00050026517545948793 5.3666718251547983e-08 -1.9718420562954505e-08 -0.00075029328865690629 2.1894127021929612e-08 -3.3947674159948867e-08 -0.00050024567292933483 5.2810852382901295e-09 3.3949210206724557e-09 -0.00050024966825984625 5.47436021506348e-08 -1.5674011986069993e-08 -0.00050025146488593948 5.366671825154799e-08 -1.9718420562954505e-08 -0.0007502932886569064 5.2810852382901295e-09 3.3949210206724557e-09 -0.00050024966825984625 5.7247527199077891e-08 3.4703563927845622e-08 -0.00050026517545948793 1.2957079439000903e-08 5.6986557822004454e-08 -0.00050025537193547961 4.8940057609526166e-09 1.8421229125824417e-09 -0.00075029192001347246 5.2810852382901295e-09 3.3949210206724557e-09 -0.00050024966825984625 6.9849830331373595e-08 1.9623595539451906e-08 -0.00025024546619169621 1.2957079439000903e-08 5.6986557822004454e-08 -0.00050025537193547961 3.7101626093218196e-08 5.4395784775961725e-08 -0.00025021187414787748 5.7247527199077891e-08 3.4703563927845622e-08 -0.00050026517545948793 6.9849830331373595e-08 1.9623595539451906e-08 -0.00025024546619169621 4.4876223374676738e-08 1.0090576476751625e-07 -0.00050027506367546833 1.2957079439000903e-08 5.6986557822004454e-08 -0.00050025537193547961 5.2810852382901295e-09 3.3949210206724557e-09 -0.00050024966825984625 5.7247527199077891e-08 3.4703563927845622e-08 -0.00050026517545948793 6.9849830331373595e-08 1.9623595539451906e-08 -0.00025024546619169621 1.2957079439000903e-08 5.6986557822004454e-08 -0.00050025537193547961 5.2810852382901295e-09 3.3949210206724557e-09 -0.00050024966825984625 4.604839156440945e-09 -1.6620690353422055e-10 -0.0002502015878129354 6.9849830331373595e-08 1.9623595539451925e-08 -0.00025024546619169621 3.7101626093218203e-08 5.4395784775961725e-08 -0.00025021187414787753 1.2402692398689575e-08 -4.2726602016865162e-08 -0.00025018450849159196 5.47436021506348e-08 -1.5674011986069996e-08 -0.00050025146488593948 4.604839156440945e-09 -1.6620690353422055e-10 -0.0002502015878129354 5.3191410620943953e-08 -2.6638905451971706e-08 -0.00025019976907321228 1.2402692398689575e-08 -4.2726602016865162e-08 -0.00025018450849159196 5.2810852382901295e-09 3.3949210206724557e-09 -0.00050024966825984625 5.47436021506348e-08 -1.5674011986069996e-08 -0.00050025146488593948 4.604839156440945e-09 -1.6620690353422055e-10 -0.0002502015878129354 5.2810852382901295e-09 3.3949210206724557e-09 -0.00050024966825984625 5.47436021506348e-08 -1.5674011986069996e-08 -0.00050025146488593948 5.7247527199077891e-08 3.4703563927845622e-08 -0.00050026517545948793 6.9849830331373595e-08 1.9623595539451906e-08 -0.00025024546619169621 5.47436021506348e-08 -1.5674011986069996e-08 -0.00050025146488593948 4.6048391564409565e-09 -1.6620690353424118e-10 -0.00025020158781293534 5.3191410620943953e-08 -2.6638905451971706e-08 -0.00025019976907321228 6.9849830331373595e-08 1.9623595539451906e-08 -0.00025024546619169621 5.2810852382901295e-09 3.3949210206724557e-09 -0.00050024966825984625 5.47436021506348e-08 -1.5674011986069996e-08 -0.00050025146488593948 4.604839156440945e-09 -1.6620690353422055e-10 -0.0002502015878129354 6.9849830331373595e-08 1.9623595539451906e-08 -0.00025024546619169621 1.2402692398689575e-08 -4.2726602016865162e-08 -0.00025018450849159196 2.1894127021929612e-08 -3.3947674159948867e-08 -0.00050024567292933483 5.2810852382901295e-09 3.3949210206724557e-09 -0.00050024966825984625 5.47436021506348e-08 -1.5674011986069996e-08 -0.00050025146488593948 -5.0940742434917772e-08 3.0293919809195648e-09 -0.0005002521585592589 5.2810852382901295e-09 3.3949210206724557e-09 -0.00050024966825984625 -7.0318834312635094e-09 4.0877189656513651e-08 -0.00025018427127069387 4.6048391564409309e-09 -1.662069035342608e-10 -0.00025020158781293529 -4.015890862466236e-08 -5.0911632778013667e-08 -0.00025020835587150167 -1.7770674388286047e-08 -5.570369218614645e-08 -0.00050025023544014583 -5.0940742434917805e-08 3.0293919809195661e-09 -0.0005002521585592589 4.604839156440945e-09 -1.6620690353422055e-10 -0.0002502015878129354 1.2402692398689575e-08 -4.2726602016865162e-08 -0.00025018450849159196 -1.777067438828603e-08 -5.5703692186146443e-08 -0.00050025023544014572 5.2810852382901113e-09 3.3949210206724495e-09 -0.00050024966825984625 4.604839156440945e-09 -1.6620690353422055e-10 -0.0002502015878129354 -1.7770674388286047e-08 -5.570369218614645e-08 -0.00050025023544014583 -5.0940742434917772e-08 3.0293919809195648e-09 -0.0005002521585592589 5.2810852382901295e-09 3.3949210206724557e-09 -0.00050024966825984625 4.604839156440945e-09 -1.6620690353422055e-10 -0.0002502015878129354 -5.0940742434917772e-08 3.0293919809195648e-09 -0.0005002521585592589 -1.9842616124615409e-08 3.6183302744522165e-08 -0.00050024803703784763 5.2810852382901295e-09 3.3949210206724557e-09 -0.00050024966825984625 -7.0318834312635094e-09 4.0877189656513651e-08 -0.00025018427127069387 -1.9842616124615409e-08 3.6183302744522165e-08 -0.00050024803703784763 5.2810852382901295e-09 3.3949210206724557e-09 -0.00050024966825984625 -7.0318834312635094e-09 4.0877189656513651e-08 -0.00025018427127069387 1.2957079439000903e-08 5.6986557822004454e-08 -0.00050025537193547961 5.2810852382901295e-09 3.3949210206724557e-09 -0.00050024966825984625 -7.0318834312635077e-09 4.0877189656513645e-08 -0.00025018427127069387 4.604839156440945e-09 -1.6620690353422047e-10 -0.0002502015878129354 3.7101626093218223e-08 5.4395784775961718e-08 -0.00025021187414787748 5.2810852382901295e-09 3.3949210206724557e-09 -0.00050024966825984625 -7.0318834312635119e-09 4.0877189656513645e-08 -0.00025018427127069393 1.2957079439000903e-08 5.6986557822004454e-08 -0.00050025537193547961 3.7101626093218229e-08 5.4395784775961718e-08 -0.00025021187414787748 -1.9842616124615409e-08 3.6183302744522165e-08 -0.00050024803703784763 -7.0318834312635094e-09 4.0877189656513651e-08 -0.00025018427127069387 1.2957079439000903e-08 5.6986557822004454e-08 -0.00050025537193547961 -5.5002408675704384e-10 8.0957551592346765e-08 -0.00025019480177757204 -7.0318834312635094e-09 4.0877189656513651e-08 -0.00025018427127069387 1.2957079439000903e-08 5.6986557822004454e-08 -0.00050025537193547961 3.7101626093218183e-08 5.4395784775961725e-08 -0.00025021187414787748 -5.5002408675704384e-10 8.0957551592346765e-08 -0.00025019480177757204 -7.0318834312635094e-09 4.0877189656513651e-08 -0.00025018427127069387 4.604839156440945e-09 -1.6620690353422055e-10 -0.0002502015878129354 -6.194020293112329e-09 8.8915704672425012e-09 -6.9361757786605433e-08 -5.4681916177691676e-08 1.3876553542135749e-08 -0.00025020920504922553 -7.0318834312635094e-09 4.0877189656513651e-08 -0.00025018427127069387 4.604839156440945e-09 -1.6620690353422055e-10 -0.0002502015878129354 -6.194020293112329e-09 8.8915704672425012e-09 -6.9361757786605433e-08 3.7101626093218183e-08 5.4395784775961731e-08 -0.00025021187414787748 -4.015890862466236e-08 -5.0911632778013667e-08 -0.00025020835587150167 4.604839156440945e-09 -1.6620690353422055e-10 -0.0002502015878129354 3.7896767624750201e-09 2.5030088512159887e-09 -1.8649055724340488e-07 -5.4681916177691676e-08 1.3876553542135749e-08 -0.00025020920504922553 4.604839156440945e-09 -1.6620690353422055e-10 -0.0002502015878129354 5.3191410620943953e-08 -2.6638905451971706e-08 -0.00025019976907321228 6.9849830331373595e-08 1.9623595539451906e-08 -0.00025024546619169621 -1.9809686498087576e-08 -1.3052831610474873e-08 -2.5384888101670394e-07 5.7102190334789184e-09 -9.1894705581964887e-09 -7.257148260833182e-08 1.2402692398689575e-08 -4.2726602016865162e-08 -0.00025018450849159196 4.604839156440945e-09 -1.6620690353422055e-10 -0.0002502015878129354 5.3191410620943953e-08 -2.6638905451971706e-08 -0.00025019976907321228 6.9849830331373595e-08 1.9623595539451906e-08 -0.00025024546619169621 -1.9809686498087576e-08 -1.3052831610474873e-08 -2.5384888101670394e-07 1.016313955584607e-07 8.6138203655158447e-08 -0.00025026173832820933 3.7101626093218183e-08 5.4395784775961731e-08 -0.00025021187414787748 4.604839156440945e-09 -1.6620690353422055e-10 -0.0002502015878129354 6.9849830331373595e-08 1.9623595539451906e-08 -0.00025024546619169621 -1.9809686498087576e-08 -1.3052831610474873e-08 -2.5384888101670394e-07 3.7101626093218183e-08 5.4395784775961731e-08 -0.00025021187414787748 4.604839156440945e-09 -1.6620690353422055e-10 -0.0002502015878129354 -1.9809686498087579e-08 -1.3052831610474893e-08 -2.5384888101667075e-07 3.7101626093218183e-08 5.4395784775961731e-08 -0.00025021187414787748 -6.1791811887448106e-10 -1.3447172714173361e-08 -1.8495013295974151e-07 4.604839156440945e-09 -1.6620690353422055e-10 -0.0002502015878129354 -1.9809686498087566e-08 -1.3052831610474871e-08 -2.5384888101675715e-07 3.7896767624750201e-09 2.5030088512159895e-09 -1.8649055724341808e-07 -6.1791811887448747e-10 -1.3447172714173369e-08 -1.8495013295972809e-07 5.3191410620943953e-08 -2.6638905451971706e-08 -0.00025019976907321228 -1.9809686498087586e-08 -1.3052831610474875e-08 -2.5384888101668319e-07 -1.260067306223378e-08 4.7779824252617634e-09 -1.7697884512076364e-07 3.7896767624750134e-09 2.5030088512159878e-09 -1.864905572434049e-07 5.7102190334789184e-09 -9.1894705581964887e-09 -7.257148260833182e-08 4.604839156440945e-09 -1.6620690353422055e-10 -0.0002502015878129354 5.3191410620943953e-08 -2.6638905451971706e-08 -0.00025019976907321228 3.7896767624750201e-09 2.5030088512159887e-09 -1.8649055724340488e-07 4.604839156440945e-09 -1.6620690353422055e-10 -0.0002502015878129354 5.3191410620943953e-08 -2.6638905451971706e-08 -0.00025019976907321228 -1.9809686498087576e-08 -1.3052831610474873e-08 -2.5384888101670394e-07 3.7896767624750201e-09 2.5030088512159887e-09 -1.8649055724340488e-07 5.7102190334789184e-09 -9.1894705581964887e-09 -7.257148260833182e-08 5.3191410620943953e-08 -2.6638905451971706e-08 -0.00025019976907321228 -1.260067306223378e-08 4.7779824252617634e-09 -1.7697884512076364e-07 3.7896767624750201e-09 2.5030088512159887e-09 -1.8649055724340488e-07 -2.6316637501176953e-09 1.1331787882254495e-08 -2.1468365887042749e-07 -4.015890862466236e-08 -5.0911632778013667e-08 -0.00025020835587150167 3.7896767624750201e-09 2.5030088512159887e-09 -1.8649055724340488e-07 -5.4681916177691696e-08 1.3876553542135794e-08 -0.00025020920504922553 4.604839156440945e-09 -1.6620690353422055e-10 -0.0002502015878129354 3.7896767624750201e-09 2.5030088512159887e-09 -1.8649055724340488e-07 -6.194020293112329e-09 8.8915704672425012e-09 -6.9361757786605433e-08 -5.4681916177691676e-08 1.3876553542135749e-08 -0.00025020920504922553 5.7102190334789184e-09 -9.1894705581964887e-09 -7.257148260833182e-08 -4.0158908624662327e-08 -5.0911632778013647e-08 -0.00025020835587150167 4.6048391564409185e-09 -1.6620690353424206e-10 -0.0002502015878129354 3.7896767624750201e-09 2.5030088512159887e-09 -1.8649055724340488e-07 4.604839156440945e-09 -1.6620690353422055e-10 -0.0002502015878129354 -6.1940202931123207e-09 8.8915704672425111e-09 -6.9361757786676451e-08 3.7101626093218183e-08 5.4395784775961731e-08 -0.00025021187414787748 -6.1791811887448695e-10 -1.3447172714173421e-08 -1.8495013295972764e-07 -6.194020293112329e-09 8.8915704672425012e-09 -6.9361757786605433e-08 3.7101626093218183e-08 5.4395784775961731e-08 -0.00025021187414787748 5.4296503198908985e-09 -1.6140109159371637e-08 -8.846973130134751e-08 -6.1791811887447899e-10 -1.3447172714173371e-08 -1.8495013295972806e-07 -7.0318834312635094e-09 4.0877189656513651e-08 -0.00025018427127069387 -6.194020293112329e-09 8.8915704672425012e-09 -6.9361757786605433e-08 3.7101626093218183e-08 5.4395784775961731e-08 -0.00025021187414787748 5.4296503198908985e-09 -1.6140109159371641e-08 -8.8469731301342719e-08 4.604839156440945e-09 -1.6620690353422055e-10 -0.0002502015878129354 3.7896767624750201e-09 2.5030088512159887e-09 -1.8649055724340488e-07 -6.1940202931123323e-09 8.8915704672425177e-09 -6.9361757786557443e-08 -6.1791811887446968e-10 -1.3447172714173389e-08 -1.8495013295972822e-07 -7.0318834312635094e-09 4.0877189656513651e-08 -0.00025018427127069387 -6.194020293112329e-09 8.8915704672425012e-09 -6.9361757786605433e-08 1.327415540033136e-08 -1.1032470878614458e-08 -1.074338685694879e-07 -5.4681916177691676e-08 1.3876553542135749e-08 -0.00025020920504922553 -6.194020293112329e-09 8.8915704672425012e-09 -6.9361757786605433e-08 1.327415540033136e-08 -1.1032470878614458e-08 -1.074338685694879e-07 -5.4681916177691676e-08 1.3876553542135746e-08 -0.00025020920504922553 9.3684547927913767e-09 -6.9490204017294715e-09 -2.3280779328865315e-07 1.327415540033136e-08 -1.1032470878614458e-08 -1.074338685694879e-07 -5.4681916177691676e-08 1.3876553542135749e-08 -0.00025020920504922553 9.3684547927913767e-09 -6.9490204017294715e-09 -2.3280779328865315e-07 -8.5145097111304212e-08 1.0636276219487113e-07 -0.00025022994564357861 -7.0318834312635094e-09 4.0877189656513651e-08 -0.00025018427127069387 -6.194020293112329e-09 8.8915704672425012e-09 -6.9361757786605433e-08 1.327415540033136e-08 -1.1032470878614458e-08 -1.074338685694879e-07 5.4296503198908985e-09 -1.6140109159371641e-08 -8.8469731301342719e-08 -7.0318834312635094e-09 4.0877189656513651e-08 -0.00025018427127069387 1.3274155400331356e-08 -1.103247087861445e-08 -1.074338685694879e-07 -3.5776755523059635e-08 6.6275533340188645e-08 -0.00025019803290174896 -5.4681916177691676e-08 1.3876553542135749e-08 -0.00025020920504922553 1.327415540033136e-08 -1.1032470878614458e-08 -1.074338685694879e-07 -3.5776755523059635e-08 6.6275533340188645e-08 -0.00025019803290174896 -5.4681916177691676e-08 1.3876553542135749e-08 -0.00025020920504922553 -8.5145097111304212e-08 1.0636276219487113e-07 -0.00025022994564357861 -7.0318834312635094e-09 4.0877189656513651e-08 -0.00025018427127069387 1.3274155400331349e-08 -1.1032470878614457e-08 -1.074338685694879e-07 -3.5776755523059635e-08 6.6275533340188645e-08 -0.00025019803290174896 -5.5002408675704384e-10 8.0957551592346765e-08 -0.00025019480177757204 2.4514538910972579e-08 1.6152160978853634e-08 -1.8749904757844601e-07 -2.6316637501176953e-09 1.1331787882254495e-08 -2.1468365887042749e-07 -5.4681916177691676e-08 1.3876553542135749e-08 -0.00025020920504922553 9.3684547927913767e-09 -6.9490204017294715e-09 -2.3280779328865315e-07 3.7896767624750201e-09 2.5030088512159887e-09 -1.8649055724340488e-07 -6.194020293112329e-09 8.8915704672425012e-09 -6.9361757786605433e-08 -5.4681916177691676e-08 1.3876553542135752e-08 -0.00025020920504922553 9.3684547927913767e-09 -6.9490204017294715e-09 -2.3280779328865315e-07 -2.6316637501176953e-09 1.1331787882254495e-08 -2.1468365887042749e-07 3.7896767624750201e-09 2.5030088512159887e-09 -1.8649055724340488e-07 -5.4681916177691703e-08 1.3876553542135757e-08 -0.00025020920504922563 9.3684547927913767e-09 -6.9490204017294715e-09 -2.3280779328865315e-07 -1.3342883229901454e-07 -1.9516434924661042e-08 -0.00025022324047549314 2.4514538910972526e-08 1.6152160978853561e-08 -1.8749904757839474e-07 -5.2294344670126856e-08 -4.3712990443987433e-09 -2.4536026217806561e-07 -1.2759411541905514e-07 4.9914851296314931e-08 -0.00025024279164033859 2.4514538910972579e-08 1.6152160978853634e-08 -1.8749904757844601e-07 -5.4681916177691703e-08 1.3876553542135754e-08 -0.00025020920504922553 9.3684547927913767e-09 -6.9490204017294715e-09 -2.3280779328865315e-07 -1.2759411541905514e-07 4.9914851296314931e-08 -0.00025024279164033859 2.4514538910972579e-08 1.6152160978853634e-08 -1.8749904757844601e-07 9.3684547927913767e-09 -6.9490204017294715e-09 -2.3280779328865315e-07 -5.2294344670126876e-08 -4.3712990443987482e-09 -2.4536026217809335e-07 -1.2759411541905514e-07 4.9914851296314931e-08 -0.00025024279164033859 2.4514538910972579e-08 1.6152160978853634e-08 -1.8749904757844601e-07 -8.4334397904464273e-08 -2.3212081673077098e-08 -0.00025022252745754442 -5.4681916177691683e-08 1.3876553542135751e-08 -0.00025020920504922553 -1.2759411541905514e-07 4.9914851296314931e-08 -0.00025024279164033859 -5.4681916177691676e-08 1.3876553542135749e-08 -0.00025020920504922553 9.3684547927913767e-09 -6.9490204017294715e-09 -2.3280779328865315e-07 -1.2759411541905514e-07 4.9914851296314931e-08 -0.00025024279164033859 -8.5145097111304212e-08 1.0636276219487113e-07 -0.00025022994564357861 9.3684547927913767e-09 -6.9490204017294715e-09 -2.3280779328865315e-07 -5.2294344670126876e-08 -4.3712990443987482e-09 -2.4536026217809335e-07 -1.2759411541905514e-07 4.9914851296314931e-08 -0.00025024279164033859 -4.6482662365366204e-08 2.5655834586364373e-08 -2.4541170462100746e-07 9.3684547927913767e-09 -6.9490204017294715e-09 -2.3280779328865315e-07 -1.2759411541905514e-07 4.9914851296314931e-08 -0.00025024279164033859 -8.5145097111304199e-08 1.0636276219487116e-07 -0.00025022994564357867 -4.6482662365366204e-08 2.5655834586364373e-08 -2.4541170462100746e-07 1.327415540033136e-08 -1.1032470878614458e-08 -1.074338685694879e-07 9.3684547927913767e-09 -6.9490204017294715e-09 -2.3280779328865315e-07 -8.5145097111304212e-08 1.0636276219487113e-07 -0.00025022994564357856 -4.6482662365366204e-08 2.5655834586364373e-08 -2.4541170462100746e-07 1.327415540033136e-08 -1.1032470878614458e-08 -1.074338685694879e-07 -8.5145097111304212e-08 1.0636276219487113e-07 -0.00025022994564357856 -4.6482662365366204e-08 2.5655834586364373e-08 -2.4541170462100746e-07 -2.9778787341036174e-08 4.4553085721527373e-08 -1.4612578323258845e-07 -7.0318834312635094e-09 4.0877189656513651e-08 -0.00025018427127069387 1.3274155400331351e-08 -1.1032470878614511e-08 -1.0743386856941162e-07 -5.5002408675704311e-10 8.0957551592346765e-08 -0.00025019480177757204 5.4296503198908985e-09 -1.6140109159371641e-08 -8.8469731301342719e-08 1.327415540033136e-08 -1.1032470878614458e-08 -1.074338685694879e-07 -8.5145097111304252e-08 1.0636276219487112e-07 -0.00025022994564357856 -2.9778787341036174e-08 4.4553085721527373e-08 -1.4612578323258845e-07 -1.9502604129996713e-08 1.3539033847301973e-07 -0.0002502066179695978 1.327415540033136e-08 -1.1032470878614458e-08 -1.074338685694879e-07 -2.9778787341036174e-08 4.455308572152738e-08 -1.4612578323260078e-07 -1.9502604129996779e-08 1.3539033847301976e-07 -0.0002502066179695978 5.4296503198908985e-09 -1.6140109159371641e-08 -8.8469731301342719e-08 1.327415540033136e-08 -1.1032470878614458e-08 -1.074338685694879e-07 -1.9502604129996779e-08 1.3539033847301976e-07 -0.0002502066179695978 -5.5002408675704332e-10 8.0957551592346765e-08 -0.00025019480177757204 5.4296503198908985e-09 -1.6140109159371641e-08 -8.8469731301342719e-08 -2.9778787341036174e-08 4.4553085721527373e-08 -1.4612578323258845e-07 -1.9502604129996779e-08 1.3539033847301976e-07 -0.0002502066179695978 5.4296503198909027e-09 -1.6140109159371657e-08 -8.8469731301342692e-08 -3.9994439432338876e-09 5.3149551057662716e-08 -2.0220345746519303e-07 1.327415540033136e-08 -1.1032470878614458e-08 -1.074338685694879e-07 -3.5776755523059635e-08 6.6275533340188645e-08 -0.00025019803290174896 -1.9502604129996786e-08 1.3539033847301978e-07 -0.0002502066179695978 -5.5002408675704384e-10 8.0957551592346765e-08 -0.00025019480177757204 1.327415540033136e-08 -1.1032470878614458e-08 -1.074338685694879e-07 -3.5776755523059635e-08 6.6275533340188645e-08 -0.00025019803290174896 -8.5145097111304212e-08 1.0636276219487109e-07 -0.00025022994564357861 -1.9502604129996753e-08 1.3539033847301976e-07 -0.0002502066179695978 -1.0132193106823167e-07 4.3161875768583101e-08 -0.00050025767852542003 -3.5776755523059635e-08 6.6275533340188645e-08 -0.00025019803290174896 -8.5145097111304212e-08 1.0636276219487113e-07 -0.00025022994564357861 -1.9502604129996779e-08 1.3539033847301976e-07 -0.0002502066179695978 -1.9502604129996779e-08 1.3539033847301976e-07 -0.0002502066179695978 -6.6336135356066942e-08 8.7946379803535103e-08 -0.00050025053236865246 5.2025756385470355e-08 1.272306173818992e-07 -0.00025022792682920215 -5.5002408675704384e-10 8.0957551592346765e-08 -0.00025019480177757204 -1.9842616124615409e-08 3.6183302744522165e-08 -0.00050024803703784763 -3.5776755523059582e-08 6.6275533340188645e-08 -0.0002501980329017489 -2.5387428534082406e-08 6.9262181780201991e-08 -0.00050025006255152672 -5.5002408675704384e-10 8.0957551592346765e-08 -0.00025019480177757204 -1.0132193106823167e-07 4.3161875768583101e-08 -0.00050025767852542003 -3.5776755523059628e-08 6.6275533340188645e-08 -0.0002501980329017489 -1.9502604129996779e-08 1.3539033847301976e-07 -0.0002502066179695978 -6.6336135356066942e-08 8.7946379803535103e-08 -0.00050025053236865246 -1.0132193106823167e-07 4.3161875768583101e-08 -0.00050025767852542003 -5.1293301283815728e-08 5.0049584702401226e-08 -0.00050024921562084488 -3.5776755523059635e-08 6.6275533340188645e-08 -0.00025019803290174896 -6.6336135356066942e-08 8.7946379803535103e-08 -0.00050025053236865246 -5.1293301283815728e-08 5.0049584702401226e-08 -0.00050024921562084488 -3.5776755523059635e-08 6.6275533340188645e-08 -0.00025019803290174896 -6.6336135356066942e-08 8.7946379803535103e-08 -0.00050025053236865246 -2.5387428534082399e-08 6.9262181780201991e-08 -0.00050025006255152661 -3.5776755523059635e-08 6.6275533340188645e-08 -0.00025019803290174896 -1.9502604129996779e-08 1.3539033847301976e-07 -0.0002502066179695978 -6.6336135356066942e-08 8.7946379803535103e-08 -0.00050025053236865246 -5.5002408675704384e-10 8.0957551592346765e-08 -0.00025019480177757204 -3.5776755523059635e-08 6.6275533340188645e-08 -0.00025019803290174896 -6.6336135356066942e-08 8.7946379803535116e-08 -0.00050025053236865246 -2.5387428534082402e-08 6.9262181780201991e-08 -0.00050025006255152661 -5.5002408675704384e-10 8.0957551592346765e-08 -0.00025019480177757204 -6.6336135356066942e-08 8.7946379803535103e-08 -0.00050025053236865246 -1.3461806708805713e-08 1.0927504649933219e-07 -0.00050025988864603487 -2.5387428534082399e-08 6.9262181780201991e-08 -0.00050025006255152661 -5.4062259006281938e-08 9.7714785298269668e-08 -0.00075029217270014504 -5.1293301283815728e-08 5.0049584702401226e-08 -0.00050024921562084488 -6.6336135356066942e-08 8.7946379803535103e-08 -0.00050025053236865246 -2.5387428534082399e-08 6.9262181780201991e-08 -0.00050025006255152661 -5.4062259006281938e-08 9.7714785298269668e-08 -0.00075029217270014504 -1.0132193106823167e-07 4.3161875768583101e-08 -0.00050025767852542003 -5.1293301283815728e-08 5.0049584702401226e-08 -0.00050024921562084488 -6.6336135356066942e-08 8.7946379803535103e-08 -0.00050025053236865246 -9.5740061020095293e-08 5.7465164598509363e-08 -0.00075029432990309159 -6.6336135356066942e-08 8.7946379803535103e-08 -0.00050025053236865246 -1.3461806708805709e-08 1.0927504649933219e-07 -0.00050025988864603487 5.2025756385470341e-08 1.272306173818992e-07 -0.00025022792682920215 -5.5002408675704384e-10 8.0957551592346765e-08 -0.00025019480177757204 -1.3461806708805716e-08 1.0927504649933218e-07 -0.00050025988864603487 4.4876223374676732e-08 1.0090576476751625e-07 -0.00050027506367546833 1.2957079439000903e-08 5.6986557822004454e-08 -0.00050025537193547961 1.9987280727976328e-09 1.1165116466038001e-07 -0.00075029583400258769 5.7247527199077891e-08 3.4703563927845622e-08 -0.00050026517545948793 4.4876223374676738e-08 1.0090576476751625e-07 -0.00050027506367546833 1.2957079439000903e-08 5.6986557822004454e-08 -0.00050025537193547961 5.7204849645858079e-08 9.5791305092700234e-08 -0.00075030177996523062 -1.3461806708805716e-08 1.0927504649933218e-07 -0.00050025988864603487 1.2957079439000903e-08 5.6986557822004454e-08 -0.00050025537193547961 -2.5387428534082399e-08 6.9262181780201991e-08 -0.00050025006255152661 1.9987280727976328e-09 1.1165116466038001e-07 -0.00075029583400258769 -1.9842616124615409e-08 3.6183302744522165e-08 -0.00050024803703784763 1.2957079439000903e-08 5.6986557822004454e-08 -0.00050025537193547961 -2.5387428534082399e-08 6.9262181780201991e-08 -0.00050025006255152661 -5.5002408675704384e-10 8.0957551592346765e-08 -0.00025019480177757204 -1.3461806708805716e-08 1.0927504649933218e-07 -0.00050025988864603487 1.2957079439000903e-08 5.6986557822004454e-08 -0.00050025537193547961 3.7101626093218183e-08 5.4395784775961731e-08 -0.00025021187414787748 -5.5002408675704384e-10 8.0957551592346765e-08 -0.00025019480177757204 -1.3461806708805716e-08 1.0927504649933218e-07 -0.00050025988864603487 5.2025756385470341e-08 1.272306173818992e-07 -0.00025022792682920215 3.7101626093218183e-08 5.4395784775961731e-08 -0.00025021187414787748 -5.5002408675704384e-10 8.0957551592346765e-08 -0.00025019480177757204 -6.6336135356066942e-08 8.7946379803535103e-08 -0.00050025053236865246 -1.3461806708805713e-08 1.0927504649933219e-07 -0.00050025988864603487 -2.5387428534082399e-08 6.9262181780201991e-08 -0.00050025006255152661 -5.5002408675704384e-10 8.0957551592346765e-08 -0.00025019480177757204 -1.3461806708805716e-08 1.0927504649933218e-07 -0.00050025988864603487 1.2957079439000903e-08 5.6986557822004454e-08 -0.00050025537193547961 -2.5387428534082399e-08 6.9262181780201991e-08 -0.00050025006255152661 -5.5002408675704384e-10 8.0957551592346765e-08 -0.00025019480177757204 6.9849830331373595e-08 1.9623595539451906e-08 -0.00025024546619169621 4.4876223374676732e-08 1.0090576476751625e-07 -0.00050027506367546833 1.0163139555846069e-07 8.6138203655158447e-08 -0.00025026173832820933 3.7101626093218183e-08 5.4395784775961731e-08 -0.00025021187414787748 -1.3461806708805716e-08 1.0927504649933218e-07 -0.00050025988864603487 4.4876223374676732e-08 1.0090576476751625e-07 -0.00050027506367546833 1.2957079439000903e-08 5.6986557822004454e-08 -0.00050025537193547961 3.7101626093218183e-08 5.4395784775961731e-08 -0.00025021187414787748 -1.3461806708805716e-08 1.0927504649933218e-07 -0.00050025988864603487 1.0163139555846066e-07 8.6138203655158434e-08 -0.00025026173832820938 5.2025756385470328e-08 1.272306173818992e-07 -0.0002502279268292022 3.7101626093218183e-08 5.4395784775961731e-08 -0.00025021187414787748 -1.3461806708805716e-08 1.0927504649933218e-07 -0.00050025988864603487 4.4876223374676732e-08 1.0090576476751625e-07 -0.00050027506367546833 1.0163139555846068e-07 8.613820365515842e-08 -0.00025026173832820938 3.7101626093218183e-08 5.4395784775961731e-08 -0.00025021187414787748 6.9849830331373595e-08 1.9623595539451906e-08 -0.00025024546619169621 4.4876223374676738e-08 1.0090576476751628e-07 -0.00050027506367546833 1.2957079439000904e-08 5.6986557822004454e-08 -0.0005002553719354795 3.7101626093218183e-08 5.4395784775961731e-08 -0.00025021187414787748 1.0163139555846069e-07 8.6138203655158447e-08 -0.00025026173832820933 5.2025756385470341e-08 1.272306173818992e-07 -0.00025022792682920215 3.7101626093218183e-08 5.4395784775961731e-08 -0.00025021187414787748 -6.1791811887449574e-10 -1.3447172714173399e-08 -1.8495013295961218e-07 -1.9502604129996779e-08 1.3539033847301976e-07 -0.0002502066179695978 5.2025756385470355e-08 1.272306173818992e-07 -0.00025022792682920215 -5.5002408675704384e-10 8.0957551592346765e-08 -0.00025019480177757204 5.4296503198908985e-09 -1.6140109159371641e-08 -8.8469731301342719e-08 -7.0318834312635094e-09 4.0877189656513651e-08 -0.00025018427127069387 3.7101626093218183e-08 5.4395784775961731e-08 -0.00025021187414787748 -5.5002408675704384e-10 8.0957551592346765e-08 -0.00025019480177757204 5.4296503198908985e-09 -1.6140109159371641e-08 -8.8469731301342719e-08 5.2025756385470341e-08 1.272306173818992e-07 -0.00025022792682920215 3.7101626093218183e-08 5.4395784775961731e-08 -0.00025021187414787748 -5.5002408675704384e-10 8.0957551592346765e-08 -0.00025019480177757204 5.4296503198908985e-09 -1.6140109159371641e-08 -8.8469731301342719e-08 5.2025756385470341e-08 1.272306173818992e-07 -0.00025022792682920215 3.7101626093218183e-08 5.4395784775961731e-08 -0.00025021187414787748 5.4296503198908985e-09 -1.6140109159371641e-08 -8.8469731301342719e-08 -6.1791811887447899e-10 -1.3447172714173371e-08 -1.8495013295972806e-07 5.2025756385470341e-08 1.272306173818992e-07 -0.00025022792682920215 5.4296503198908985e-09 -1.6140109159371641e-08 -8.8469731301342719e-08 -6.1791811887447899e-10 -1.3447172714173371e-08 -1.8495013295972806e-07 -3.9994439432338876e-09 5.3149551057662716e-08 -2.0220345746519303e-07 -1.9502604129996779e-08 1.3539033847301976e-07 -0.0002502066179695978 5.2025756385470335e-08 1.272306173818992e-07 -0.00025022792682920215 5.4296503198908985e-09 -1.6140109159371641e-08 -8.8469731301342719e-08 -3.9994439432338876e-09 5.3149551057662716e-08 -2.0220345746519303e-07 1.0163139555846069e-07 8.6138203655158447e-08 -0.00025026173832820933 5.2025756385470341e-08 1.272306173818992e-07 -0.00025022792682920215 -6.1791811887448095e-10 -1.3447172714173427e-08 -1.84950132959708e-07 2.4286652026460786e-08 4.6340204402366268e-08 -2.7341363363799444e-07 -1.9809686498087576e-08 -1.3052831610474873e-08 -2.5384888101670394e-07 1.0163139555846072e-07 8.613820365515846e-08 -0.00025026173832820933 3.7101626093218176e-08 5.4395784775961725e-08 -0.00025021187414787742 -6.1791811887447899e-10 -1.3447172714173371e-08 -1.8495013295972806e-07 -1.9809686498087576e-08 -1.3052831610474873e-08 -2.5384888101670394e-07 1.0163139555846069e-07 8.6138203655158447e-08 -0.00025026173832820933 -6.1791811887447899e-10 -1.3447172714173371e-08 -1.8495013295972806e-07 2.4286652026460786e-08 4.6340204402366268e-08 -2.7341363363799444e-07 5.2025756385470341e-08 1.272306173818992e-07 -0.00025022792682920215 -6.1791811887447165e-10 -1.3447172714173368e-08 -1.8495013295972279e-07 -3.9994439432338876e-09 5.3149551057662716e-08 -2.0220345746519303e-07 2.4286652026460779e-08 4.6340204402366268e-08 -2.7341363363799438e-07 -1.9809686498087576e-08 -1.3052831610474873e-08 -2.5384888101670394e-07 1.0163139555846069e-07 8.6138203655158447e-08 -0.00025026173832820933 5.3713800407290316e-08 3.4991048854238181e-08 -1.8640979810212797e-07 1.3376849931535213e-07 1.9291665233055789e-08 -0.00025025160386653436 -1.9809686498087576e-08 -1.3052831610474873e-08 -2.5384888101670394e-07 1.016313955584607e-07 8.6138203655158447e-08 -0.00025026173832820933 2.4286652026460786e-08 4.6340204402366268e-08 -2.7341363363799444e-07 5.3713800407290316e-08 3.4991048854238181e-08 -1.8640979810212797e-07 6.9849830331373595e-08 1.9623595539451906e-08 -0.00025024546619169621 4.4876223374676738e-08 1.0090576476751625e-07 -0.00050027506367546833 1.3376849931535213e-07 1.9291665233055789e-08 -0.00025025160386653436 8.7880080990766698e-08 6.6378878714567274e-08 -0.00050027196445774755 6.9849830331373595e-08 1.9623595539451906e-08 -0.00025024546619169621 4.4876223374676738e-08 1.0090576476751625e-07 -0.00050027506367546833 1.0163139555846069e-07 8.6138203655158447e-08 -0.00025026173832820933 1.3376849931535213e-07 1.9291665233055789e-08 -0.00025025160386653436 5.7247527199077891e-08 3.4703563927845622e-08 -0.00050026517545948793 4.4876223374676732e-08 1.0090576476751625e-07 -0.00050027506367546833 8.7880080990766698e-08 6.6378878714567274e-08 -0.00050027196445774755 5.7204849645858079e-08 9.5791305092700234e-08 -0.00075030177996523062 -1.2701204291889199e-08 1.1314637939675995e-08 -9.8543622808774432e-08 2.9117656673241e-08 -4.4972329630537668e-08 -1.3795291065112998e-07 1.9423600153529321e-08 -1.3542081044947873e-07 -0.00025020184729808881 8.4818095921365276e-08 -1.0695756791262549e-07 -0.00025022233674676982 -1.2701204291889199e-08 1.1314637939675995e-08 -9.8543622808774432e-08 3.6406066431414291e-08 -7.037202766070507e-08 -0.00025019283072040831 1.9423600153529321e-08 -1.3542081044947873e-07 -0.00025020184729808881 8.4818095921365276e-08 -1.0695756791262549e-07 -0.00025022233674676982 -1.2701204291889199e-08 1.1314637939675995e-08 -9.8543622808774432e-08 3.6406066431414291e-08 -7.037202766070507e-08 -0.00025019283072040831 5.3191410620943953e-08 -2.6638905451971706e-08 -0.00025019976907321228 8.4818095921365276e-08 -1.0695756791262549e-07 -0.00025022233674676982 -1.2701204291889199e-08 1.1314637939675995e-08 -9.8543622808774432e-08 2.9117656673241e-08 -4.4972329630537668e-08 -1.3795291065112998e-07 8.4818095921365276e-08 -1.0695756791262549e-07 -0.00025022233674676982 4.7288220553493253e-08 -2.4814714930535843e-08 -2.0212905479911508e-07 -1.2701204291889199e-08 1.1314637939675995e-08 -9.8543622808774432e-08 5.3191410620943953e-08 -2.6638905451971706e-08 -0.00025019976907321228 -1.260067306223378e-08 4.7779824252617634e-09 -1.7697884512076364e-07 8.4818095921365276e-08 -1.0695756791262549e-07 -0.00025022233674676982 -1.2701204291889199e-08 1.1314637939675995e-08 -9.8543622808774432e-08 -1.260067306223378e-08 4.7779824252617634e-09 -1.7697884512076364e-07 8.4818095921365276e-08 -1.0695756791262549e-07 -0.00025022233674676982 4.7288220553493253e-08 -2.4814714930535843e-08 -2.0212905479911508e-07 -1.260067306223378e-08 4.7779824252617634e-09 -1.7697884512076364e-07 8.4818095921365263e-08 -1.069575679126255e-07 -0.00025022233674676988 4.7288220553493253e-08 -2.4814714930535843e-08 -2.0212905479911508e-07 1.2751428334674512e-07 -4.9477815127569103e-08 -0.00025025689278752465 -1.260067306223378e-08 4.7779824252617634e-09 -1.7697884512076364e-07 4.7288220553493253e-08 -2.4814714930535843e-08 -2.0212905479911508e-07 5.2081423966186588e-08 4.0615342273900112e-09 -2.7385087130181151e-07 1.2751428334674512e-07 -4.9477815127569123e-08 -0.00025025689278752471 -1.9809686498087576e-08 -1.3052831610474873e-08 -2.5384888101670394e-07 -1.260067306223378e-08 4.7779824252617634e-09 -1.7697884512076364e-07 5.2081423966186595e-08 4.0615342273900054e-09 -2.7385087130183618e-07 1.2751428334674509e-07 -4.9477815127569103e-08 -0.0002502568927875246 5.3191410620943953e-08 -2.6638905451971706e-08 -0.00025019976907321228 -1.9809686498087576e-08 -1.3052831610474873e-08 -2.5384888101670394e-07 -1.260067306223378e-08 4.7779824252617634e-09 -1.7697884512076364e-07 1.2751428334674509e-07 -4.9477815127569103e-08 -0.0002502568927875246 -1.9809686498087576e-08 -1.3052831610474873e-08 -2.5384888101670394e-07 5.3713800407290316e-08 3.4991048854238181e-08 -1.8640979810212797e-07 1.3376849931535213e-07 1.9291665233055789e-08 -0.00025025160386653436 5.2081423966186588e-08 4.0615342273900112e-09 -2.7385087130181151e-07 -1.9809686498087576e-08 -1.3052831610474873e-08 -2.5384888101670394e-07 1.3376849931535213e-07 1.929166523305569e-08 -0.00025025160386653447 5.2081423966186588e-08 4.0615342273900112e-09 -2.7385087130181151e-07 1.2751428334674512e-07 -4.947781512756905e-08 -0.0002502568927875246 6.9849830331373595e-08 1.9623595539451906e-08 -0.00025024546619169621 -1.9809686498087576e-08 -1.3052831610474873e-08 -2.5384888101670394e-07 1.0163139555846069e-07 8.6138203655158447e-08 -0.00025026173832820933 1.3376849931535213e-07 1.9291665233055789e-08 -0.00025025160386653436 6.9849830331373595e-08 1.9623595539451906e-08 -0.00025024546619169621 -1.9809686498087576e-08 -1.3052831610474873e-08 -2.5384888101670394e-07 1.3376849931535213e-07 1.9291665233055789e-08 -0.00025025160386653436 1.2751428334674509e-07 -4.9477815127569103e-08 -0.0002502568927875246 5.3191410620943953e-08 -2.6638905451971706e-08 -0.00025019976907321228 -1.260067306223378e-08 4.7779824252617634e-09 -1.7697884512076364e-07 8.4818095921365276e-08 -1.0695756791262549e-07 -0.00025022233674676982 1.2751428334674509e-07 -4.9477815127569103e-08 -0.0002502568927875246 5.3191410620943953e-08 -2.6638905451971706e-08 -0.00025019976907321228 6.9849830331373595e-08 1.9623595539451906e-08 -0.00025024546619169621 -1.9809686498087576e-08 -1.3052831610474873e-08 -2.5384888101670394e-07 1.2751428334674509e-07 -4.9477815127569103e-08 -0.0002502568927875246 5.47436021506348e-08 -1.5674011986069996e-08 -0.00050025146488593948 5.3191410620943953e-08 -2.6638905451971706e-08 -0.00025019976907321228 1.0921577631514766e-07 1.3357100770929891e-08 -0.00050027132875010694 1.0146466785637764e-07 -4.2924642396384996e-08 -0.00050025652539564661 5.3191410620943953e-08 -2.6638905451971706e-08 -0.00025019976907321228 8.4818095921365276e-08 -1.0695756791262549e-07 -0.00025022233674676982 1.2751428334674509e-07 -4.9477815127569103e-08 -0.0002502568927875246 1.0921577631514765e-07 1.3357100770929923e-08 -0.00050027132875010705 5.47436021506348e-08 -1.5674011986069996e-08 -0.00050025146488593948 5.3191410620943953e-08 -2.6638905451971706e-08 -0.00025019976907321228 6.9849830331373595e-08 1.9623595539451906e-08 -0.00025024546619169621 1.0921577631514766e-07 1.3357100770929891e-08 -0.00050027132875010694 5.47436021506348e-08 -1.5674011986069996e-08 -0.00050025146488593948 5.7247527199077891e-08 3.4703563927845622e-08 -0.00050026517545948793 6.9849830331373595e-08 1.9623595539451906e-08 -0.00025024546619169621 1.0921577631514766e-07 1.3357100770929891e-08 -0.00050027132875010694 5.3191410620943953e-08 -2.6638905451971706e-08 -0.00025019976907321228 6.9849830331373595e-08 1.9623595539451906e-08 -0.00025024546619169621 1.2751428334674509e-07 -4.9477815127569103e-08 -0.0002502568927875246 1.0921577631514766e-07 1.3357100770929918e-08 -0.00050027132875010705 5.7247527199077891e-08 3.4703563927845622e-08 -0.00050026517545948793 6.9849830331373595e-08 1.9623595539451906e-08 -0.00025024546619169621 4.4876223374676732e-08 1.0090576476751625e-07 -0.00050027506367546833 8.7880080990766698e-08 6.6378878714567274e-08 -0.00050027196445774755 6.9849830331373595e-08 1.9623595539451906e-08 -0.00025024546619169621 8.7880080990766672e-08 6.6378878714567287e-08 -0.00050027196445774766 1.2751428334674509e-07 -4.9477815127569103e-08 -0.0002502568927875246 1.0921577631514767e-07 1.3357100770929906e-08 -0.00050027132875010694 6.9849830331373595e-08 1.9623595539451906e-08 -0.00025024546619169621 1.3376849931535213e-07 1.9291665233055789e-08 -0.00025025160386653436 8.7880080990766698e-08 6.6378878714567274e-08 -0.00050027196445774755 1.2751428334674509e-07 -4.9477815127569103e-08 -0.0002502568927875246 5.7247527199077891e-08 3.4703563927845622e-08 -0.00050026517545948793 6.9849830331373595e-08 1.9623595539451906e-08 -0.00025024546619169621 8.7880080990766698e-08 6.6378878714567274e-08 -0.00050027196445774755 1.0921577631514766e-07 1.3357100770929891e-08 -0.00050027132875010694 5.7247527199077891e-08 3.4703563927845622e-08 -0.00050026517545948793 8.7880080990766698e-08 6.6378878714567274e-08 -0.00050027196445774755 1.0921577631514766e-07 1.3357100770929891e-08 -0.00050027132875010694 9.7725408452433299e-08 5.4129545114334823e-08 -0.00075030055553152591 5.47436021506348e-08 -1.5674011986069996e-08 -0.00050025146488593948 1.0921577631514766e-07 1.3357100770929891e-08 -0.00050027132875010694 1.0146466785637764e-07 -4.2924642396384996e-08 -0.00050025652539564661 1.1165622839017635e-07 -1.8631402879023838e-09 -0.0007503002359558798 5.47436021506348e-08 -1.5674011986069996e-08 -0.00050025146488593948 5.7247527199077891e-08 3.4703563927845622e-08 -0.00050026517545948793 1.0921577631514766e-07 1.3357100770929891e-08 -0.00050027132875010694 1.1165622839017637e-07 -1.8631402879023826e-09 -0.0007503002359558798 5.1807258893129332e-08 -5.3008049344869908e-08 -0.00050024689752647077 5.47436021506348e-08 -1.5674011986069996e-08 -0.00050025146488593948 1.0146466785637764e-07 -4.2924642396384996e-08 -0.00050025652539564661 9.572599248827875e-08 -5.748457234520218e-08 -0.0007502945557712015 5.1807258893129332e-08 -5.3008049344869908e-08 -0.00050024689752647077 1.0146466785637764e-07 -4.2924642396384996e-08 -0.00050025652539564661 6.6418059562157286e-08 -8.7906635210442669e-08 -0.00050024757942734811 9.572599248827875e-08 -5.748457234520218e-08 -0.0007502945557712015 3.6406066431414291e-08 -7.037202766070507e-08 -0.00025019283072040831 5.3191410620943953e-08 -2.6638905451971706e-08 -0.00025019976907321228 8.4818095921365276e-08 -1.0695756791262549e-07 -0.00025022233674676982 1.0146466785637764e-07 -4.2924642396384996e-08 -0.00050025652539564661 3.6406066431414291e-08 -7.037202766070507e-08 -0.00025019283072040831 5.1807258893129332e-08 -5.3008049344869908e-08 -0.00050024689752647077 5.47436021506348e-08 -1.5674011986069996e-08 -0.00050025146488593948 1.0146466785637764e-07 -4.2924642396384996e-08 -0.00050025652539564661 5.3191410620943953e-08 -2.6638905451971706e-08 -0.00025019976907321228 8.4818095921365276e-08 -1.0695756791262549e-07 -0.00025022233674676982 1.0921577631514767e-07 1.3357100770929909e-08 -0.00050027132875010705 1.0146466785637764e-07 -4.2924642396384996e-08 -0.00050025652539564661 3.6406066431414291e-08 -7.037202766070507e-08 -0.00025019283072040831 5.47436021506348e-08 -1.5674011986069996e-08 -0.00050025146488593948 5.3191410620943953e-08 -2.6638905451971706e-08 -0.00025019976907321228 1.0146466785637764e-07 -4.2924642396384996e-08 -0.00050025652539564661 3.6406066431414291e-08 -7.037202766070507e-08 -0.00025019283072040831 5.1807258893129332e-08 -5.3008049344869908e-08 -0.00050024689752647077 1.0146466785637764e-07 -4.2924642396384996e-08 -0.00050025652539564661 6.6418059562157286e-08 -8.7906635210442669e-08 -0.00050024757942734811 3.6406066431414291e-08 -7.037202766070507e-08 -0.00025019283072040831 1.9423600153529321e-08 -1.3542081044947873e-07 -0.00025020184729808881 8.4818095921365276e-08 -1.0695756791262549e-07 -0.00025022233674676982 1.0146466785637764e-07 -4.2924642396384996e-08 -0.00050025652539564661 3.6406066431414291e-08 -7.037202766070507e-08 -0.00025019283072040831 1.9423600153529321e-08 -1.3542081044947873e-07 -0.00025020184729808881 1.0146466785637764e-07 -4.2924642396384996e-08 -0.00050025652539564661 6.6418059562157286e-08 -8.7906635210442669e-08 -0.00050024757942734811 5.1807258893129332e-08 -5.3008049344869908e-08 -0.00050024689752647077 6.6418059562157286e-08 -8.7906635210442669e-08 -0.00050024757942734811 5.4068082172652232e-08 -9.7708429031848292e-08 -0.00075029061775717877 9.572599248827875e-08 -5.748457234520218e-08 -0.0007502945557712015 5.4068082172652232e-08 -9.7708429031848292e-08 -0.00075029061775717877 9.6696801616952754e-08 -5.5719351908394264e-08 -0.0010003350270181583 5.5897159774068902e-08 -9.6588377068434262e-08 -0.0010003331373501794 4.9140781226527232e-08 -5.686969790069288e-08 -0.00075029118030134389 9.6696801616952767e-08 -5.5719351908394271e-08 -0.0010003350270181583 5.3563347146839927e-08 -2.0503506566142529e-08 -0.0010003349216328255 5.366671825154799e-08 -1.9718420562954505e-08 -0.0007502932886569064 4.9140781226527232e-08 -5.686969790069288e-08 -0.00075029118030134389 9.572599248827875e-08 -5.748457234520218e-08 -0.0007502945557712015 9.6696801616952767e-08 -5.5719351908394271e-08 -0.0010003350270181583 5.3666718251547983e-08 -1.9718420562954508e-08 -0.0007502932886569064 4.9140781226527232e-08 -5.686969790069288e-08 -0.00075029118030134389 9.572599248827875e-08 -5.748457234520218e-08 -0.0007502945557712015 1.1160023408573311e-07 1.0343984735315017e-10 -0.0010003375443198761 9.6696801616952767e-08 -5.5719351908394271e-08 -0.0010003350270181583 5.366671825154799e-08 -1.9718420562954505e-08 -0.0007502932886569064 5.4068082172652232e-08 -9.7708429031848292e-08 -0.00075029061775717877 9.572599248827875e-08 -5.748457234520218e-08 -0.0007502945557712015 9.6696801616952767e-08 -5.5719351908394271e-08 -0.0010003350270181583 4.9140781226527232e-08 -5.686969790069288e-08 -0.00075029118030134389 5.1807258893129332e-08 -5.3008049344869908e-08 -0.00050024689752647077 5.4068082172652232e-08 -9.7708429031848292e-08 -0.00075029061775717877 9.572599248827875e-08 -5.748457234520218e-08 -0.0007502945557712015 4.9140781226527232e-08 -5.686969790069288e-08 -0.00075029118030134389 5.1807258893129332e-08 -5.3008049344869908e-08 -0.00050024689752647077 9.572599248827875e-08 -5.748457234520218e-08 -0.0007502945557712015 5.366671825154799e-08 -1.9718420562954505e-08 -0.0007502932886569064 4.9140781226527232e-08 -5.686969790069288e-08 -0.00075029118030134389 5.47436021506348e-08 -1.5674011986069996e-08 -0.00050025146488593948 1.0146466785637764e-07 -4.2924642396384996e-08 -0.00050025652539564661 9.5725992488278764e-08 -5.7484572345202161e-08 -0.0007502945557712014 1.1165622839017637e-07 -1.863140287902371e-09 -0.0007503002359558798 5.1807258893129332e-08 -5.3008049344869908e-08 -0.00050024689752647077 5.47436021506348e-08 -1.5674011986069996e-08 -0.00050025146488593948 9.572599248827875e-08 -5.748457234520218e-08 -0.0007502945557712015 5.366671825154799e-08 -1.9718420562954505e-08 -0.0007502932886569064 5.47436021506348e-08 -1.5674011986069996e-08 -0.00050025146488593948 5.7247527199077891e-08 3.4703563927845622e-08 -0.00050026517545948793 1.1165622839017638e-07 -1.863140287902378e-09 -0.0007503002359558797 5.366671825154799e-08 -1.9718420562954505e-08 -0.0007502932886569064 5.47436021506348e-08 -1.5674011986069996e-08 -0.00050025146488593948 9.5725992488278777e-08 -5.748457234520218e-08 -0.0007502945557712015 1.1165622839017638e-07 -1.8631402879023693e-09 -0.0007503002359558797 5.366671825154799e-08 -1.9718420562954505e-08 -0.0007502932886569064 5.7247527199077891e-08 3.4703563927845622e-08 -0.00050026517545948793 1.1165622839017635e-07 -1.8631402879023768e-09 -0.0007503002359558797 5.6594815550373861e-08 3.2006367509923029e-08 -0.00075029824391419303 5.366671825154799e-08 -1.9718420562954505e-08 -0.0007502932886569064 5.7247527199077891e-08 3.4703563927845622e-08 -0.00050026517545948793 1.0921577631514766e-07 1.3357100770929891e-08 -0.00050027132875010694 1.1165622839017637e-07 -1.8631402879023561e-09 -0.0007503002359558797 9.7725408452433299e-08 5.4129545114334796e-08 -0.00075030055553152602 5.7247527199077891e-08 3.4703563927845622e-08 -0.00050026517545948793 1.1165622839017637e-07 -1.8631402879023582e-09 -0.0007503002359558797 9.7725408452433312e-08 5.412954511433481e-08 -0.00075030055553152591 5.6594815550373861e-08 3.2006367509923029e-08 -0.00075029824391419303 5.7247527199077891e-08 3.4703563927845622e-08 -0.00050026517545948793 9.7725408452433286e-08 5.4129545114334836e-08 -0.00075030055553152581 5.7204849645858079e-08 9.5791305092700234e-08 -0.00075030177996523062 5.6594815550373861e-08 3.2006367509923029e-08 -0.00075029824391419303 1.1165622839017635e-07 -1.8631402879023768e-09 -0.0007503002359558797 1.1160023408573311e-07 1.0343984735315017e-10 -0.0010003375443198761 9.6574278852537978e-08 5.5889508350167617e-08 -0.0010003379178448789 5.6594815550373861e-08 3.2006367509923029e-08 -0.00075029824391419303 1.1165622839017635e-07 -1.8631402879023768e-09 -0.0007503002359558797 9.7725408452433299e-08 5.4129545114334823e-08 -0.00075030055553152591 9.6574278852537978e-08 5.5889508350167617e-08 -0.0010003379178448789 5.6594815550373861e-08 3.2006367509923029e-08 -0.00075029824391419303 1.1165622839017635e-07 -1.8631402879023768e-09 -0.0007503002359558797 1.1160023408573311e-07 1.0343984735315017e-10 -0.0010003375443198761 5.6594815550373861e-08 3.2006367509923029e-08 -0.00075029824391419303 5.366671825154799e-08 -1.9718420562954505e-08 -0.0007502932886569064 1.1160023408573311e-07 1.0343984735315017e-10 -0.0010003375443198761 5.3563347146839934e-08 -2.0503506566142529e-08 -0.0010003349216328255 5.6594815550373861e-08 3.2006367509923029e-08 -0.00075029824391419303 5.3666718251547996e-08 -1.9718420562954541e-08 -0.00075029328865690629 9.572599248827875e-08 -5.748457234520218e-08 -0.0007502945557712015 1.1165622839017635e-07 -1.8631402879023768e-09 -0.0007503002359558797 1.1160023408573311e-07 1.0343984735315017e-10 -0.0010003375443198761 5.366671825154799e-08 -1.9718420562954505e-08 -0.0007502932886569064 1.1160023408573311e-07 1.0343984735315017e-10 -0.0010003375443198761 5.5610822978882808e-08 3.1828832705122734e-08 -0.0010003371487856576 5.3563347146839934e-08 -2.0503506566142529e-08 -0.0010003349216328255 5.6594815550373861e-08 3.2006367509923029e-08 -0.00075029824391419303 1.1160023408573311e-07 1.0343984735315017e-10 -0.0010003375443198761 1.1151819721252444e-07 6.6189974613770604e-11 -0.0012503797490560789 5.5610822978882808e-08 3.1828832705122734e-08 -0.0010003371487856576 5.3563347146839934e-08 -2.0503506566142529e-08 -0.0010003349216328255 1.1160023408573311e-07 1.0343984735315017e-10 -0.0010003375443198761 1.1151819721252444e-07 6.6189974613770604e-11 -0.0012503797490560789 9.6696801616952767e-08 -5.5719351908394271e-08 -0.0010003350270181583 5.3563347146839934e-08 -2.0503506566142529e-08 -0.0010003349216328255 1.1160023408573311e-07 1.0343984735315017e-10 -0.0010003375443198761 9.6696801616952767e-08 -5.5719351908394271e-08 -0.0010003350270181583 5.3563347146839934e-08 -2.0503506566142529e-08 -0.0010003349216328255 5.3666718251547996e-08 -1.9718420562954508e-08 -0.00075029328865690629 1.1160023408573311e-07 1.0343984735315017e-10 -0.0010003375443198761 9.6574278852537978e-08 5.5889508350167617e-08 -0.0010003379178448789 9.6556748836164821e-08 5.580522449377793e-08 -0.0012503802317175539 5.5610822978882808e-08 3.1828832705122734e-08 -0.0010003371487856576 1.1160023408573311e-07 1.0343984735315017e-10 -0.0010003375443198761 9.6574278852537978e-08 5.5889508350167617e-08 -0.0010003379178448789 5.5610822978882808e-08 3.1828832705122734e-08 -0.0010003371487856576 5.6594815550373861e-08 3.2006367509923029e-08 -0.00075029824391419303 9.6574278852537978e-08 5.5889508350167617e-08 -0.0010003379178448789 5.5754124095772345e-08 9.6685151427270815e-08 -0.0010003382666912771 5.5610822978882808e-08 3.1828832705122734e-08 -0.0010003371487856576 5.6594815550373861e-08 3.2006367509923029e-08 -0.00075029824391419303 9.6556748836164821e-08 5.580522449377793e-08 -0.0012503802317175539 5.5730071930312131e-08 9.6594925920130175e-08 -0.0012503802285970863 5.5695798279783042e-08 3.2013298200095128e-08 -0.0012503801404901789 5.5610822978882808e-08 3.1828832705122734e-08 -0.0010003371487856576 1.1160023408573311e-07 1.0343984735315017e-10 -0.0010003375443198761 1.1151819721252444e-07 6.6189974613770604e-11 -0.0012503797490560789 9.6556748836164821e-08 5.580522449377793e-08 -0.0012503802317175539 5.5610822978882808e-08 3.1828832705122734e-08 -0.0010003371487856576 1.1151819721252444e-07 6.6189974613770604e-11 -0.0012503797490560789 9.6556748836164821e-08 5.580522449377793e-08 -0.0012503802317175539 5.5695798279783042e-08 3.2013298200095128e-08 -0.0012503801404901789 5.5610822978882808e-08 3.1828832705122734e-08 -0.0010003371487856576 1.1151819721252444e-07 6.6189974613770604e-11 -0.0012503797490560789 9.6613815670385031e-08 -5.569619789694231e-08 -0.0012503781634737204 5.3708001617732113e-08 -2.0309754848781804e-08 -0.0012503782876837986 5.356334714683994e-08 -2.0503506566142532e-08 -0.0010003349216328253 1.1151819721252444e-07 6.6189974613770604e-11 -0.0012503797490560789 5.3708001617732113e-08 -2.0309754848781804e-08 -0.0012503782876837986 5.5695798279783042e-08 3.2013298200095128e-08 -0.0012503801404901789 5.5610822978882808e-08 3.1828832705122734e-08 -0.0010003371487856576 1.1151819721252444e-07 6.6189974613770604e-11 -0.0012503797490560789 5.3708001617732113e-08 -2.0309754848781804e-08 -0.0012503782876837986 5.5610822978882808e-08 3.1828832705122734e-08 -0.0010003371487856576 5.356334714683994e-08 -2.0503506566142566e-08 -0.0010003349216328253 9.6613815670385031e-08 -5.569619789694231e-08 -0.0012503781634737204 5.5802887934559761e-08 -9.6552821070502447e-08 -0.0012503768558454157 4.9532905508188008e-08 -5.7040184974821988e-08 -0.0010003336980260757 4.9712165258848741e-08 -5.6798163070448471e-08 -0.0012503776404536083 9.6613815670385031e-08 -5.569619789694231e-08 -0.0012503781634737204 5.3708001617732106e-08 -2.0309754848781808e-08 -0.0012503782876837983 4.9532905508187995e-08 -5.7040184974821988e-08 -0.0010003336980260757 4.9712165258848741e-08 -5.6798163070448471e-08 -0.0012503776404536083 9.6613815670385031e-08 -5.569619789694231e-08 -0.0012503781634737204 5.3708001617732106e-08 -2.0309754848781804e-08 -0.0012503782876837986 5.3563347146839934e-08 -2.0503506566142529e-08 -0.0010003349216328255 4.9532905508188008e-08 -5.7040184974821988e-08 -0.0010003336980260757 1.1151819721252444e-07 6.6189974613770604e-11 -0.0012503797490560789 9.6613815670385031e-08 -5.569619789694231e-08 -0.0012503781634737204 9.6696801616952767e-08 -5.5719351908394271e-08 -0.0010003350270181583 5.3563347146839901e-08 -2.0503506566142519e-08 -0.0010003349216328255 9.6696801616952767e-08 -5.5719351908394271e-08 -0.0010003350270181583 5.5897159774068902e-08 -9.6588377068434249e-08 -0.0010003331373501794 4.9140781226527232e-08 -5.686969790069288e-08 -0.00075029118030134389 4.9532905508188008e-08 -5.7040184974821988e-08 -0.0010003336980260757 9.6613815670385031e-08 -5.569619789694231e-08 -0.0012503781634737204 9.6696801616952767e-08 -5.5719351908394271e-08 -0.0010003350270181583 5.3563347146839934e-08 -2.0503506566142529e-08 -0.0010003349216328255 4.9532905508188008e-08 -5.7040184974821988e-08 -0.0010003336980260757 9.6696801616952767e-08 -5.5719351908394271e-08 -0.0010003350270181583 5.3563347146839927e-08 -2.0503506566142532e-08 -0.0010003349216328253 4.9140781226527219e-08 -5.686969790069288e-08 -0.00075029118030134378 4.9532905508188008e-08 -5.7040184974821988e-08 -0.0010003336980260757 9.6613815670385031e-08 -5.569619789694231e-08 -0.0012503781634737204 9.6696801616952767e-08 -5.5719351908394271e-08 -0.0010003350270181583 5.5897159774068902e-08 -9.6588377068434262e-08 -0.0010003331373501794 4.9532905508188008e-08 -5.7040184974821988e-08 -0.0010003336980260757 9.6613815670385031e-08 -5.569619789694231e-08 -0.0012503781634737204 5.5897159774068869e-08 -9.6588377068434236e-08 -0.0010003331373501794 5.5802887934559761e-08 -9.6552821070502447e-08 -0.0012503768558454157 4.9532905508188008e-08 -5.7040184974821988e-08 -0.0010003336980260757 5.7247527199077891e-08 3.4703563927845622e-08 -0.00050026517545948793 8.7880080990766698e-08 6.6378878714567274e-08 -0.00050027196445774755 9.7725408452433299e-08 5.4129545114334823e-08 -0.00075030055553152591 5.7204849645858079e-08 9.5791305092700234e-08 -0.00075030177996523062 9.7725408452433299e-08 5.4129545114334823e-08 -0.00075030055553152591 5.5754124095772345e-08 9.6685151427270815e-08 -0.0010003382666912771 5.7204849645858079e-08 9.5791305092700234e-08 -0.00075030177996523062 5.6594815550373861e-08 3.2006367509923029e-08 -0.00075029824391419303 9.7725408452433299e-08 5.4129545114334823e-08 -0.00075030055553152591 9.6574278852537978e-08 5.5889508350167617e-08 -0.0010003379178448789 5.5754124095772345e-08 9.6685151427270815e-08 -0.0010003382666912771 5.6594815550373861e-08 3.2006367509923029e-08 -0.00075029824391419303 9.6574278852537978e-08 5.5889508350167617e-08 -0.0010003379178448789 5.5730071930312131e-08 9.6594925920130175e-08 -0.0012503802285970863 5.5754124095772345e-08 9.6685151427270815e-08 -0.0010003382666912771 5.5610822978882808e-08 3.1828832705122734e-08 -0.0010003371487856576 9.6574278852537978e-08 5.5889508350167617e-08 -0.0010003379178448789 9.6556748836164821e-08 5.580522449377793e-08 -0.0012503802317175539 5.5730071930312131e-08 9.6594925920130175e-08 -0.0012503802285970863 5.5610822978882808e-08 3.1828832705122734e-08 -0.0010003371487856576 5.5730071930312131e-08 9.6594925920130175e-08 -0.0012503802285970863 -1.5515425589818351e-11 1.11514657522885e-07 -0.0012503785789276544 9.2334690583479734e-09 5.7042122747813329e-08 -0.0012503788313319307 9.2281526303753085e-09 5.6971193959556152e-08 -0.0010003357428561548 5.5730071930312131e-08 9.6594925920130175e-08 -0.0012503802285970863 9.2334690583479734e-09 5.7042122747813329e-08 -0.0012503788313319305 9.2281526303752904e-09 5.6971193959556185e-08 -0.001000335742856155 5.5610822978882808e-08 3.1828832705122734e-08 -0.0010003371487856576 5.5730071930312131e-08 9.6594925920130175e-08 -0.0012503802285970863 -1.5515425589818351e-11 1.11514657522885e-07 -0.0012503785789276544 9.2281526303753052e-09 5.6971193959556126e-08 -0.0010003357428561553 5.5754124095772345e-08 9.6685151427270815e-08 -0.0010003382666912771 -1.5515425589818351e-11 1.11514657522885e-07 -0.0012503785789276544 -2.4312981733557692e-08 7.1359223248225148e-08 -0.0010003347448894412 -8.3059102319962735e-11 1.1159795275848398e-07 -0.0010003356787846121 -5.5771046015278726e-08 9.6569463053179251e-08 -0.0012503776280489789 -1.5515425589818351e-11 1.11514657522885e-07 -0.0012503785789276544 -2.4209134348744086e-08 7.1410470564961632e-08 -0.0012503782879256895 9.2334690583479734e-09 5.7042122747813329e-08 -0.0012503788313319307 -2.4312981733557692e-08 7.1359223248225148e-08 -0.0010003347448894412 -1.5515425589818351e-11 1.11514657522885e-07 -0.0012503785789276544 -2.4209134348744086e-08 7.1410470564961632e-08 -0.0012503782879256895 -2.4312981733557692e-08 7.1359223248225148e-08 -0.0010003347448894412 -5.5771046015278726e-08 9.6569463053179251e-08 -0.0012503776280489789 -1.5515425589818351e-11 1.11514657522885e-07 -0.0012503785789276544 9.2334690583479734e-09 5.7042122747813329e-08 -0.0012503788313319307 -2.4312981733557692e-08 7.1359223248225148e-08 -0.0010003347448894412 9.2281526303753102e-09 5.6971193959556152e-08 -0.001000335742856155 -2.4209134348744086e-08 7.1410470564961632e-08 -0.0012503782879256895 9.2334690583479734e-09 5.7042122747813329e-08 -0.0012503788313319307 -2.4312981733557692e-08 7.1359223248225148e-08 -0.0010003347448894412 -1.9825315394321708e-08 3.5883516315387606e-08 -0.0012503779917083649 -1.5515425589818351e-11 1.11514657522885e-07 -0.0012503785789276544 -2.4312981733557692e-08 7.1359223248225148e-08 -0.0010003347448894412 9.2281526303753102e-09 5.6971193959556152e-08 -0.001000335742856155 -8.3059102319962735e-11 1.1159795275848398e-07 -0.0010003356787846121 -1.5515425589818351e-11 1.11514657522885e-07 -0.0012503785789276544 9.2281526303753267e-09 5.6971193959556159e-08 -0.0010003357428561548 -8.3059102319962735e-11 1.1159795275848398e-07 -0.0010003356787846121 5.5754124095772325e-08 9.6685151427270815e-08 -0.0010003382666912771 5.5730071930312131e-08 9.6594925920130175e-08 -0.0012503802285970863 9.2281526303752688e-09 5.6971193959556159e-08 -0.001000335742856155 5.5754124095772345e-08 9.6685151427270815e-08 -0.0010003382666912771 5.5610822978882808e-08 3.1828832705122734e-08 -0.0010003371487856576 9.2281526303753102e-09 5.6971193959556152e-08 -0.001000335742856155 5.5754124095772345e-08 9.6685151427270815e-08 -0.0010003382666912771 1.0865503847066921e-08 5.7032936668221994e-08 -0.00075029507568264093 5.6594815550373847e-08 3.2006367509923036e-08 -0.00075029824391419303 5.5754124095772345e-08 9.6685151427270815e-08 -0.0010003382666912771 1.0865503847066881e-08 5.7032936668222e-08 -0.00075029507568264093 5.7204849645858079e-08 9.5791305092700234e-08 -0.00075030177996523062 5.6594815550373861e-08 3.2006367509923029e-08 -0.00075029824391419303 -8.3059102319962735e-11 1.1159795275848398e-07 -0.0010003356787846121 5.5754124095772345e-08 9.6685151427270815e-08 -0.0010003382666912771 1.0865503847066921e-08 5.7032936668221994e-08 -0.00075029507568264093 5.7204849645858073e-08 9.5791305092700221e-08 -0.00075030177996523073 -8.3059102319962735e-11 1.1159795275848398e-07 -0.0010003356787846121 1.0865503847066938e-08 5.7032936668222e-08 -0.00075029507568264093 5.7204849645858059e-08 9.5791305092700234e-08 -0.00075030177996523062 1.9987280727976328e-09 1.1165116466038001e-07 -0.00075029583400258769 9.2281526303753102e-09 5.6971193959556152e-08 -0.001000335742856155 -8.3059102319959051e-11 1.1159795275848399e-07 -0.0010003356787846121 5.5754124095772345e-08 9.6685151427270815e-08 -0.0010003382666912771 1.0865503847066921e-08 5.7032936668221994e-08 -0.00075029507568264093 -2.4312981733557692e-08 7.1359223248225148e-08 -0.0010003347448894412 9.2281526303753102e-09 5.6971193959556152e-08 -0.001000335742856155 -2.314931236497735e-08 7.1592022126062442e-08 -0.00075029298275374595 -2.0021590677986331e-08 3.5777763631207508e-08 -0.0010003343508977053 -2.4312981733557692e-08 7.1359223248225148e-08 -0.0010003347448894412 9.2281526303753102e-09 5.6971193959556152e-08 -0.001000335742856155 -8.3059102319962735e-11 1.1159795275848398e-07 -0.0010003356787846121 -2.314931236497735e-08 7.1592022126062442e-08 -0.00075029298275374595 -8.3059102319962735e-11 1.1159795275848398e-07 -0.0010003356787846121 -2.314931236497735e-08 7.1592022126062442e-08 -0.00075029298275374595 1.0865503847066921e-08 5.7032936668221994e-08 -0.00075029507568264093 1.9987280727976328e-09 1.1165116466038001e-07 -0.00075029583400258769 9.2281526303753102e-09 5.6971193959556152e-08 -0.001000335742856155 -8.3059102319962735e-11 1.1159795275848398e-07 -0.0010003356787846121 -2.314931236497735e-08 7.1592022126062442e-08 -0.00075029298275374595 1.0865503847066921e-08 5.7032936668221994e-08 -0.00075029507568264093 -2.4312981733557692e-08 7.1359223248225148e-08 -0.0010003347448894412 -8.3059102319962735e-11 1.1159795275848398e-07 -0.0010003356787846121 -2.314931236497735e-08 7.1592022126062442e-08 -0.00075029298275374595 -5.5879228204260758e-08 9.6599516795081752e-08 -0.0010003341147623371 -2.5387428534082399e-08 6.9262181780201991e-08 -0.00050025006255152661 -2.314931236497735e-08 7.1592022126062442e-08 -0.00075029298275374595 1.0865503847066921e-08 5.7032936668221994e-08 -0.00075029507568264093 1.9987280727976328e-09 1.1165116466038001e-07 -0.00075029583400258769 -2.5387428534082399e-08 6.9262181780201991e-08 -0.00050025006255152661 -2.314931236497735e-08 7.1592022126062442e-08 -0.00075029298275374595 1.9987280727976138e-09 1.1165116466038002e-07 -0.00075029583400258769 -5.4062259006281925e-08 9.7714785298269682e-08 -0.00075029217270014504 1.2957079439000903e-08 5.6986557822004454e-08 -0.00050025537193547961 -2.5387428534082399e-08 6.9262181780201991e-08 -0.00050025006255152661 1.0865503847066921e-08 5.7032936668221994e-08 -0.00075029507568264093 1.9987280727976328e-09 1.1165116466038001e-07 -0.00075029583400258769 -2.5387428534082399e-08 6.9262181780201991e-08 -0.00050025006255152661 -2.314931236497735e-08 7.1592022126062442e-08 -0.00075029298275374595 1.0865503847066921e-08 5.7032936668221994e-08 -0.00075029507568264093 -1.9293162804784957e-08 3.6136375995210612e-08 -0.00075029216184415359 4.4876223374676732e-08 1.0090576476751625e-07 -0.00050027506367546833 1.2957079439000895e-08 5.6986557822004461e-08 -0.00050025537193547961 5.7204849645858079e-08 9.5791305092700234e-08 -0.00075030177996523062 1.9987280727976477e-09 1.1165116466037998e-07 -0.00075029583400258769 1.2957079439000903e-08 5.6986557822004454e-08 -0.00050025537193547961 1.0865503847066921e-08 5.7032936668221994e-08 -0.00075029507568264093 5.7204849645858112e-08 9.579130509270026e-08 -0.00075030177996523073 1.9987280727976328e-09 1.1165116466038001e-07 -0.00075029583400258769 5.7247527199077891e-08 3.4703563927845622e-08 -0.00050026517545948793 1.2957079439000899e-08 5.6986557822004454e-08 -0.00050025537193547961 1.0865503847066921e-08 5.7032936668221994e-08 -0.00075029507568264093 5.7204849645858093e-08 9.5791305092700247e-08 -0.00075030177996523062 -1.3461806708805716e-08 1.0927504649933218e-07 -0.00050025988864603487 -2.5387428534082399e-08 6.9262181780201991e-08 -0.00050025006255152661 1.9987280727976328e-09 1.1165116466038001e-07 -0.00075029583400258769 -5.4062259006281938e-08 9.7714785298269668e-08 -0.00075029217270014504 -8.3059102319962735e-11 1.1159795275848398e-07 -0.0010003356787846121 -2.314931236497735e-08 7.1592022126062442e-08 -0.00075029298275374595 1.9987280727976328e-09 1.1165116466038001e-07 -0.00075029583400258769 -5.5879228204260758e-08 9.6599516795081752e-08 -0.0010003341147623371 -5.1293301283815728e-08 5.0049584702401226e-08 -0.00050024921562084488 -2.314931236497735e-08 7.1592022126062442e-08 -0.00075029298275374595 -5.4062259006281938e-08 9.7714785298269668e-08 -0.00075029217270014504 -4.8840244817830677e-08 5.321874239411668e-08 -0.00075029218034455142 -5.1293301283815728e-08 5.0049584702401226e-08 -0.00050024921562084488 -2.5387428534082399e-08 6.9262181780201991e-08 -0.0005002500625515265 -2.314931236497735e-08 7.1592022126062442e-08 -0.00075029298275374595 -1.9293162804784957e-08 3.6136375995210612e-08 -0.00075029216184415359 -5.1293301283815728e-08 5.0049584702401226e-08 -0.00050024921562084488 -2.5387428534082399e-08 6.9262181780201991e-08 -0.00050025006255152661 -2.314931236497735e-08 7.1592022126062442e-08 -0.00075029298275374595 -5.4062259006281938e-08 9.7714785298269668e-08 -0.00075029217270014504 -5.1293301283815728e-08 5.0049584702401226e-08 -0.00050024921562084488 -6.6336135356066928e-08 8.7946379803535103e-08 -0.00050025053236865235 -5.4062259006281925e-08 9.7714785298269668e-08 -0.00075029217270014504 -9.5740061020095306e-08 5.7465164598509356e-08 -0.00075029432990309148 -5.1293301283815728e-08 5.0049584702401226e-08 -0.00050024921562084488 -5.4062259006281918e-08 9.7714785298269655e-08 -0.00075029217270014493 -4.8840244817830683e-08 5.321874239411668e-08 -0.00075029218034455142 -9.5740061020095293e-08 5.7465164598509343e-08 -0.00075029432990309159 -2.4312981733557692e-08 7.1359223248225148e-08 -0.0010003347448894412 -2.314931236497735e-08 7.1592022126062442e-08 -0.00075029298275374595 -2.0021590677986331e-08 3.5777763631207508e-08 -0.0010003343508977053 -4.8840244817830677e-08 5.321874239411668e-08 -0.00075029218034455142 -2.314931236497735e-08 7.1592022126062442e-08 -0.00075029298275374595 -5.4062259006281938e-08 9.7714785298269668e-08 -0.00075029217270014504 -5.5879228204260758e-08 9.6599516795081752e-08 -0.0010003341147623371 -4.8840244817830677e-08 5.321874239411668e-08 -0.00075029218034455142 -2.314931236497735e-08 7.1592022126062442e-08 -0.00075029298275374595 1.9987280727976328e-09 1.1165116466038001e-07 -0.00075029583400258769 -5.4062259006281938e-08 9.7714785298269668e-08 -0.00075029217270014504 -5.5879228204260758e-08 9.6599516795081752e-08 -0.0010003341147623371 -2.4312981733557692e-08 7.1359223248225148e-08 -0.0010003347448894412 -5.5879228204260758e-08 9.6599516795081752e-08 -0.0010003341147623371 -4.9468006006617741e-08 5.294320058807827e-08 -0.0010003341750287069 -4.8840244817830677e-08 5.321874239411668e-08 -0.00075029218034455142 -2.4312981733557692e-08 7.1359223248225148e-08 -0.0010003347448894412 -2.314931236497735e-08 7.1592022126062442e-08 -0.00075029298275374595 -5.5879228204260758e-08 9.6599516795081752e-08 -0.0010003341147623371 -4.8840244817830677e-08 5.321874239411668e-08 -0.00075029218034455142 -5.4062259006281938e-08 9.7714785298269668e-08 -0.00075029217270014504 -5.5879228204260758e-08 9.6599516795081752e-08 -0.0010003341147623371 -9.6689886264494916e-08 5.5731279037633764e-08 -0.0010003345015111374 -4.8840244817830677e-08 5.321874239411668e-08 -0.00075029218034455142 -5.5879228204260758e-08 9.6599516795081752e-08 -0.0010003341147623371 -9.6689886264494916e-08 5.5731279037633764e-08 -0.0010003345015111374 -4.9468006006617741e-08 5.294320058807827e-08 -0.0010003341750287069 -4.8840244817830677e-08 5.321874239411668e-08 -0.00075029218034455142 -5.4062259006281938e-08 9.7714785298269668e-08 -0.00075029217270014504 -9.6689886264494916e-08 5.5731279037633764e-08 -0.0010003345015111374 -4.8840244817830677e-08 5.321874239411668e-08 -0.00075029218034455142 -9.5740061020095293e-08 5.7465164598509363e-08 -0.00075029432990309159 -5.5879228204260758e-08 9.6599516795081752e-08 -0.0010003341147623371 -9.6590057717416275e-08 5.573262161614082e-08 -0.001250377556953907 -9.6689886264494916e-08 5.5731279037633764e-08 -0.0010003345015111374 -4.9468006006617741e-08 5.294320058807827e-08 -0.0010003341750287069 -2.4312981733557692e-08 7.1359223248225148e-08 -0.0010003347448894412 -5.5879228204260758e-08 9.6599516795081752e-08 -0.0010003341147623371 -5.5771046015278726e-08 9.6569463053179251e-08 -0.0012503776280489789 -4.9468006006617741e-08 5.294320058807827e-08 -0.0010003341750287069 -2.4312981733557692e-08 7.1359223248225148e-08 -0.0010003347448894412 -8.3059102319962735e-11 1.1159795275848398e-07 -0.0010003356787846121 -5.5879228204260758e-08 9.6599516795081752e-08 -0.0010003341147623371 -5.5771046015278726e-08 9.6569463053179251e-08 -0.0012503776280489789 -5.5771046015278726e-08 9.6569463053179251e-08 -0.0012503776280489789 -9.6590057717416275e-08 5.573262161614082e-08 -0.001250377556953907 -4.9468006006617741e-08 5.2943200588078277e-08 -0.0010003341750287069 -4.9266937901697519e-08 5.3038441947463414e-08 -0.0012503779526892226 -2.4209134348744086e-08 7.1410470564961632e-08 -0.0012503782879256895 -2.4312981733557692e-08 7.1359223248225148e-08 -0.0010003347448894412 -4.9468006006617735e-08 5.294320058807827e-08 -0.0010003341750287069 -1.9825315394321708e-08 3.5883516315387606e-08 -0.0012503779917083649 -5.5879228204260758e-08 9.6599516795081752e-08 -0.0010003341147623371 -5.5771046015278726e-08 9.6569463053179251e-08 -0.0012503776280489789 -9.6590057717416275e-08 5.573262161614082e-08 -0.001250377556953907 -4.9468006006617741e-08 5.294320058807827e-08 -0.0010003341750287069 -2.4209134348744086e-08 7.1410470564961632e-08 -0.0012503782879256895 -2.4312981733557692e-08 7.1359223248225148e-08 -0.0010003347448894412 -5.5771046015278726e-08 9.6569463053179251e-08 -0.0012503776280489789 -4.9468006006617741e-08 5.294320058807827e-08 -0.0010003341750287069 -2.4209134348744086e-08 7.1410470564961632e-08 -0.0012503782879256895 -5.5771046015278726e-08 9.6569463053179251e-08 -0.0012503776280489789 -4.9468006006617741e-08 5.2943200588078263e-08 -0.0010003341750287069 -4.9266937901697519e-08 5.3038441947463414e-08 -0.0012503779526892226 -9.6590057717416275e-08 5.573262161614082e-08 -0.001250377556953907 -1.1151548460813098e-07 -1.8583790149180943e-11 -0.0012503773339888648 -5.0393911025418793e-08 5.4715183745548644e-09 -0.0012503773388994987 -5.0604726449449599e-08 5.2418193260136162e-09 -0.0010003339196023591 -9.6590057717416275e-08 5.573262161614082e-08 -0.001250377556953907 -9.6689886264494916e-08 5.5731279037633764e-08 -0.0010003345015111374 -1.1151548460813098e-07 -1.8583790149176064e-11 -0.001250377333988865 -5.0604726449449599e-08 5.2418193260136162e-09 -0.0010003339196023591 -9.6590057717416275e-08 5.573262161614082e-08 -0.001250377556953907 -9.6689886264494916e-08 5.5731279037633764e-08 -0.0010003345015111374 -5.0604726449449599e-08 5.2418193260136162e-09 -0.0010003339196023591 -4.9468006006617741e-08 5.294320058807827e-08 -0.0010003341750287069 -9.6689886264494916e-08 5.5731279037633764e-08 -0.0010003345015111374 -1.1159496125589109e-07 -1.0376466466551658e-10 -0.001000334623845211 -1.1151548460813098e-07 -1.8583790149180401e-11 -0.0012503773339888648 -5.0604726449449599e-08 5.2418193260136162e-09 -0.0010003339196023591 -1.1159496125589109e-07 -1.0376466466551671e-10 -0.0010003346238452108 -1.1151548460813098e-07 -1.8583790149180401e-11 -0.0012503773339888648 -5.0604726449449599e-08 5.2418193260136162e-09 -0.0010003339196023591 -6.6091706702666848e-08 -4.0499578676000779e-08 -0.0010003336191060916 -1.1159496125589109e-07 -1.0376466466551671e-10 -0.0010003346238452108 -1.1151548460813098e-07 -1.8583790149180401e-11 -0.0012503773339888648 -6.6091706702666848e-08 -4.0499578676000779e-08 -0.0010003336191060916 -9.6567897209067271e-08 -5.5785632625130031e-08 -0.001250376693401199 -1.1151548460813098e-07 -1.8583790149180401e-11 -0.0012503773339888648 -5.0393911025418786e-08 5.4715183745548702e-09 -0.001250377338899499 -5.0604726449449599e-08 5.2418193260136162e-09 -0.0010003339196023591 -6.6091706702666848e-08 -4.0499578676000779e-08 -0.0010003336191060916 -1.1151548460813098e-07 -1.8583790149180401e-11 -0.0012503773339888648 -5.0393911025418786e-08 5.4715183745548702e-09 -0.001250377338899499 -6.6091706702666848e-08 -4.0499578676000779e-08 -0.0010003336191060916 -6.5864399132186352e-08 -4.0337756065704202e-08 -0.0012503772925678215 -5.0393911025418786e-08 5.4715183745548702e-09 -0.001250377338899499 -5.0604726449449599e-08 5.2418193260136162e-09 -0.0010003339196023591 -1.5299712034280858e-08 -5.5533957142596451e-08 -0.0010003332340291781 -6.6091706702666848e-08 -4.0499578676000779e-08 -0.0010003336191060916 -5.0393911025418786e-08 5.4715183745548702e-09 -0.001250377338899499 -5.0604726449449599e-08 5.2418193260136162e-09 -0.0010003339196023591 4.8236507391607032e-09 1.3921777306969947e-09 -0.0010003340168337192 -1.5299712034280878e-08 -5.5533957142596451e-08 -0.0010003332340291781 -5.0393911025418786e-08 5.4715183745548702e-09 -0.001250377338899499 -5.0604726449449599e-08 5.2418193260136162e-09 -0.0010003339196023591 4.8236507391607057e-09 1.3921777306969955e-09 -0.001000334016833719 -2.0021590677986331e-08 3.5777763631207508e-08 -0.0010003343508977053 -5.0393911025418786e-08 5.4715183745548702e-09 -0.001250377338899499 -5.0604726449449599e-08 5.2418193260136162e-09 -0.0010003339196023591 -4.9468006006617741e-08 5.294320058807827e-08 -0.0010003341750287069 -2.0021590677986331e-08 3.5777763631207508e-08 -0.0010003343508977053 -2.4312981733557692e-08 7.1359223248225148e-08 -0.0010003347448894412 -4.9468006006617741e-08 5.294320058807827e-08 -0.0010003341750287069 -1.9825315394321708e-08 3.5883516315387606e-08 -0.0012503779917083649 -2.0021590677986331e-08 3.5777763631207508e-08 -0.0010003343508977053 -5.0393911025418786e-08 5.4715183745548702e-09 -0.001250377338899499 -4.9468006006617741e-08 5.294320058807827e-08 -0.0010003341750287069 -1.9825315394321708e-08 3.5883516315387606e-08 -0.0012503779917083649 -2.0021590677986331e-08 3.5777763631207508e-08 -0.0010003343508977053 -2.4209134348744086e-08 7.1410470564961632e-08 -0.0012503782879256895 -4.9468006006617748e-08 5.294320058807827e-08 -0.0010003341750287069 -4.9266937901697519e-08 5.3038441947463414e-08 -0.0012503779526892226 -1.9825315394321708e-08 3.5883516315387606e-08 -0.0012503779917083649 -9.6590057717416275e-08 5.573262161614082e-08 -0.001250377556953907 -5.0393911025418786e-08 5.4715183745548702e-09 -0.001250377338899499 -5.0604726449449599e-08 5.2418193260136162e-09 -0.0010003339196023591 -4.9468006006617741e-08 5.294320058807827e-08 -0.0010003341750287069 -5.0393911025418786e-08 5.4715183745548702e-09 -0.001250377338899499 -4.9468006006617741e-08 5.294320058807827e-08 -0.0010003341750287069 -4.9266937901697519e-08 5.3038441947463414e-08 -0.0012503779526892226 -1.9825315394321708e-08 3.5883516315387606e-08 -0.0012503779917083649 -9.6590057717416275e-08 5.573262161614082e-08 -0.001250377556953907 -5.0393911025418786e-08 5.4715183745548702e-09 -0.001250377338899499 -4.9468006006617741e-08 5.294320058807827e-08 -0.0010003341750287069 -4.9266937901697519e-08 5.3038441947463414e-08 -0.0012503779526892226 9.2334690583479734e-09 5.7042122747813329e-08 -0.0012503788313319307 -2.4312981733557692e-08 7.1359223248225148e-08 -0.0010003347448894412 -1.9825315394321708e-08 3.5883516315387606e-08 -0.0012503779917083649 -2.0021590677986331e-08 3.5777763631207508e-08 -0.0010003343508977053 9.2334690583479734e-09 5.7042122747813329e-08 -0.0012503788313319307 -1.9825315394321708e-08 3.5883516315387606e-08 -0.0012503779917083649 5.0621207213560015e-09 1.5788178766625241e-09 -0.0012503776618331816 -2.0021590677986331e-08 3.5777763631207508e-08 -0.0010003343508977053 -5.0393911025418786e-08 5.4715183745548702e-09 -0.001250377338899499 -1.9825315394321708e-08 3.5883516315387606e-08 -0.0012503779917083649 5.0621207213560015e-09 1.5788178766625241e-09 -0.0012503776618331816 -2.0021590677986331e-08 3.5777763631207508e-08 -0.0010003343508977053 9.2334690583479734e-09 5.7042122747813329e-08 -0.0012503788313319307 9.2281526303753102e-09 5.6971193959556152e-08 -0.001000335742856155 5.0621207213560015e-09 1.5788178766625241e-09 -0.0012503776618331816 -2.0021590677986331e-08 3.5777763631207508e-08 -0.0010003343508977053 -5.0393911025418786e-08 5.4715183745548702e-09 -0.001250377338899499 5.0621207213560015e-09 1.5788178766625241e-09 -0.0012503776618331816 4.8236507391606875e-09 1.3921777306970031e-09 -0.0010003340168337187 -1.4907536248161974e-08 -5.5343728070361785e-08 -0.0012503768571416685 -5.0393911025418786e-08 5.4715183745548702e-09 -0.001250377338899499 5.0621207213560015e-09 1.5788178766625241e-09 -0.0012503776618331816 4.8236507391606875e-09 1.3921777306969762e-09 -0.001000334016833719 -2.0021590677986331e-08 3.5777763631207508e-08 -0.0010003343508977053 5.0621207213560015e-09 1.5788178766625241e-09 -0.0012503776618331816 4.8236507391606883e-09 1.3921777306970033e-09 -0.001000334016833719 2.1346749301145679e-08 -3.6555241823602904e-08 -0.0010003336183876197 -1.4907536248161974e-08 -5.5343728070361785e-08 -0.0012503768571416685 -5.0393911025418786e-08 5.4715183745548702e-09 -0.001250377338899499 4.8236507391606875e-09 1.3921777306970056e-09 -0.001000334016833719 -1.5299712034280911e-08 -5.5533957142596444e-08 -0.0010003332340291781 -1.4907536248161974e-08 -5.5343728070361785e-08 -0.0012503768571416685 5.0621207213560015e-09 1.5788178766625241e-09 -0.0012503776618331816 5.3708001617732113e-08 -2.0309754848781804e-08 -0.0012503782876837986 2.1346749301145682e-08 -3.655524182360291e-08 -0.0010003336183876197 2.1628416036530239e-08 -3.6324428452786113e-08 -0.0012503775393100207 5.0621207213560015e-09 1.5788178766625241e-09 -0.0012503776618331816 5.3708001617732113e-08 -2.0309754848781804e-08 -0.0012503782876837986 4.8236507391606883e-09 1.3921777306970033e-09 -0.001000334016833719 2.1346749301145685e-08 -3.6555241823602904e-08 -0.0010003336183876197 5.0621207213560015e-09 1.5788178766625241e-09 -0.0012503776618331816 5.3708001617732113e-08 -2.0309754848781804e-08 -0.0012503782876837986 5.5610822978882808e-08 3.1828832705122734e-08 -0.0010003371487856576 4.8236507391606883e-09 1.3921777306970033e-09 -0.001000334016833719 5.0621207213560015e-09 1.5788178766625241e-09 -0.0012503776618331816 5.3708001617732113e-08 -2.0309754848781804e-08 -0.0012503782876837986 5.5695798279783042e-08 3.2013298200095128e-08 -0.0012503801404901789 5.5610822978882808e-08 3.1828832705122734e-08 -0.0010003371487856576 5.5730071930312131e-08 9.6594925920130175e-08 -0.0012503802285970863 9.2334690583479784e-09 5.7042122747813322e-08 -0.0012503788313319307 5.5695798279783042e-08 3.2013298200095128e-08 -0.0012503801404901789 5.5610822978882808e-08 3.1828832705122734e-08 -0.0010003371487856576 9.2334690583479734e-09 5.7042122747813329e-08 -0.0012503788313319307 9.2281526303753102e-09 5.6971193959556152e-08 -0.001000335742856155 5.0621207213560015e-09 1.5788178766625241e-09 -0.0012503776618331816 5.5610822978882788e-08 3.1828832705122734e-08 -0.0010003371487856574 9.2334690583479734e-09 5.7042122747813329e-08 -0.0012503788313319307 5.0621207213560015e-09 1.5788178766625241e-09 -0.0012503776618331816 5.5695798279783042e-08 3.2013298200095128e-08 -0.0012503801404901789 5.5610822978882808e-08 3.1828832705122734e-08 -0.0010003371487856576 9.2281526303753102e-09 5.6971193959556152e-08 -0.001000335742856155 5.0621207213560015e-09 1.5788178766625241e-09 -0.0012503776618331816 5.5610822978882808e-08 3.1828832705122727e-08 -0.0010003371487856576 4.8236507391606883e-09 1.3921777306970033e-09 -0.001000334016833719 5.3708001617732113e-08 -2.0309754848781804e-08 -0.0012503782876837986 5.5610822978882827e-08 3.1828832705122734e-08 -0.0010003371487856576 5.3563347146839934e-08 -2.0503506566142529e-08 -0.0010003349216328255 4.8236507391607049e-09 1.3921777306970002e-09 -0.001000334016833719 5.3708001617732113e-08 -2.0309754848781804e-08 -0.0012503782876837986 5.3563347146839934e-08 -2.0503506566142529e-08 -0.0010003349216328255 4.823650739160709e-09 1.392177730697012e-09 -0.001000334016833719 2.1346749301145695e-08 -3.6555241823602917e-08 -0.0010003336183876197 9.2334690583479734e-09 5.7042122747813329e-08 -0.0012503788313319307 -2.4312981733557692e-08 7.1359223248225148e-08 -0.0010003347448894412 9.2281526303753135e-09 5.6971193959556152e-08 -0.0010003357428561553 -2.0021590677986331e-08 3.5777763631207508e-08 -0.0010003343508977053 9.2281526303753102e-09 5.6971193959556152e-08 -0.001000335742856155 5.0621207213559932e-09 1.5788178766625248e-09 -0.0012503776618331814 4.8236507391606883e-09 1.3921777306970033e-09 -0.001000334016833719 -2.0021590677986331e-08 3.5777763631207508e-08 -0.0010003343508977053 9.2281526303753102e-09 5.6971193959556152e-08 -0.001000335742856155 1.0865503847066921e-08 5.7032936668221994e-08 -0.00075029507568264093 4.8236507391606883e-09 1.3921777306970033e-09 -0.001000334016833719 -1.9293162804784957e-08 3.6136375995210612e-08 -0.00075029216184415359 1.0865503847066921e-08 5.7032936668221994e-08 -0.00075029507568264093 4.8236507391606801e-09 1.392177730697004e-09 -0.001000334016833719 4.8940057609526166e-09 1.8421229125824417e-09 -0.00075029192001347246 -1.9293162804784957e-08 3.6136375995210612e-08 -0.00075029216184415359 9.2281526303753102e-09 5.6971193959556152e-08 -0.001000335742856155 -2.314931236497735e-08 7.1592022126062442e-08 -0.00075029298275374595 1.0865503847066924e-08 5.7032936668221994e-08 -0.00075029507568264103 -1.9293162804784957e-08 3.6136375995210612e-08 -0.00075029216184415359 -5.0604726449449599e-08 5.2418193260136162e-09 -0.0010003339196023591 4.8236507391606883e-09 1.3921777306970033e-09 -0.001000334016833719 -2.0021590677986331e-08 3.5777763631207508e-08 -0.0010003343508977053 -1.9293162804784957e-08 3.6136375995210612e-08 -0.00075029216184415359 9.2281526303753102e-09 5.6971193959556152e-08 -0.001000335742856155 -2.314931236497735e-08 7.1592022126062442e-08 -0.00075029298275374595 -2.0021590677986331e-08 3.5777763631207508e-08 -0.0010003343508977053 -1.9293162804784957e-08 3.6136375995210612e-08 -0.00075029216184415359 9.2281526303753102e-09 5.6971193959556152e-08 -0.001000335742856155 4.8236507391606883e-09 1.3921777306970033e-09 -0.001000334016833719 -2.0021590677986331e-08 3.5777763631207508e-08 -0.0010003343508977053 -1.9293162804784957e-08 3.6136375995210612e-08 -0.00075029216184415359 4.8236507391606883e-09 1.3921777306970033e-09 -0.001000334016833719 4.8940057609526166e-09 1.8421229125824417e-09 -0.00075029192001347246 2.0971467264766746e-08 -3.6315859626688077e-08 -0.00075029098355238898 -1.5299712034280891e-08 -5.5533957142596437e-08 -0.0010003332340291781 -5.0604726449449599e-08 5.2418193260136162e-09 -0.0010003339196023591 4.8940057609526158e-09 1.842122912582444e-09 -0.00075029192001347246 -1.6524079825615588e-08 -5.5263222233469274e-08 -0.00075029142827257012 -1.5299712034280891e-08 -5.5533957142596437e-08 -0.0010003332340291781 -5.0604726449449599e-08 5.2418193260136162e-09 -0.0010003339196023591 4.8236507391606883e-09 1.3921777306970033e-09 -0.001000334016833719 4.8940057609526158e-09 1.8421229125824417e-09 -0.00075029192001347235 -1.5299712034280891e-08 -5.5533957142596437e-08 -0.0010003332340291781 -5.0604726449449599e-08 5.2418193260136162e-09 -0.0010003339196023591 4.8236507391606883e-09 1.3921777306970033e-09 -0.001000334016833719 4.894005760952615e-09 1.8421229125824146e-09 -0.00075029192001347246 -1.9293162804784957e-08 3.6136375995210612e-08 -0.00075029216184415359 5.3563347146839934e-08 -2.0503506566142529e-08 -0.0010003349216328255 4.8236507391606883e-09 1.3921777306970033e-09 -0.001000334016833719 4.8940057609526001e-09 1.842122912582413e-09 -0.00075029192001347257 2.0971467264766753e-08 -3.6315859626688077e-08 -0.00075029098355238908 5.3563347146839934e-08 -2.0503506566142529e-08 -0.0010003349216328255 5.366671825154799e-08 -1.9718420562954505e-08 -0.0007502932886569064 4.8940057609526373e-09 1.8421229125824506e-09 -0.00075029192001347246 2.0971467264766763e-08 -3.631585962668809e-08 -0.00075029098355238908 5.3563347146839934e-08 -2.0503506566142529e-08 -0.0010003349216328255 4.8236507391606883e-09 1.3921777306970033e-09 -0.001000334016833719 2.0971467264766753e-08 -3.6315859626688077e-08 -0.00075029098355238908 2.1346749301145685e-08 -3.6555241823602904e-08 -0.0010003336183876197 5.3563347146839934e-08 -2.0503506566142529e-08 -0.0010003349216328255 4.8236507391606883e-09 1.3921777306970033e-09 -0.001000334016833719 5.6594815550373861e-08 3.2006367509923029e-08 -0.00075029824391419303 4.8940057609526266e-09 1.8421229125824583e-09 -0.00075029192001347257 5.3563347146839934e-08 -2.0503506566142529e-08 -0.0010003349216328255 5.659481555037388e-08 3.2006367509923029e-08 -0.00075029824391419314 5.366671825154799e-08 -1.9718420562954505e-08 -0.0007502932886569064 4.894005760952634e-09 1.8421229125824386e-09 -0.00075029192001347246 5.5610822978882808e-08 3.1828832705122734e-08 -0.0010003371487856576 5.3563347146839934e-08 -2.0503506566142529e-08 -0.0010003349216328255 4.8236507391606883e-09 1.3921777306970033e-09 -0.001000334016833719 5.6594815550373861e-08 3.2006367509923029e-08 -0.00075029824391419303 9.2281526303753102e-09 5.6971193959556152e-08 -0.001000335742856155 5.5754124095772345e-08 9.6685151427270815e-08 -0.0010003382666912771 5.5610822978882808e-08 3.1828832705122734e-08 -0.0010003371487856576 5.6594815550373861e-08 3.2006367509923029e-08 -0.00075029824391419303 9.2281526303753102e-09 5.6971193959556152e-08 -0.001000335742856155 1.0865503847066921e-08 5.7032936668221994e-08 -0.00075029507568264093 4.8236507391606883e-09 1.3921777306970033e-09 -0.001000334016833719 5.6594815550373841e-08 3.2006367509923029e-08 -0.00075029824391419303 1.0865503847066921e-08 5.7032936668221994e-08 -0.00075029507568264093 4.8236507391606883e-09 1.3921777306970033e-09 -0.001000334016833719 5.6594815550373861e-08 3.2006367509923023e-08 -0.00075029824391419293 4.8940057609526166e-09 1.8421229125824417e-09 -0.00075029192001347246 9.2281526303753102e-09 5.6971193959556152e-08 -0.001000335742856155 5.5610822978882808e-08 3.1828832705122741e-08 -0.0010003371487856576 4.8236507391606883e-09 1.3921777306970033e-09 -0.001000334016833719 5.6594815550373861e-08 3.2006367509923029e-08 -0.00075029824391419303 5.7247527199077891e-08 3.4703563927845622e-08 -0.00050026517545948793 1.2957079439000903e-08 5.6986557822004454e-08 -0.00050025537193547961 1.0865503847066921e-08 5.7032936668221994e-08 -0.00075029507568264093 4.8940057609526166e-09 1.8421229125824417e-09 -0.00075029192001347246 5.7247527199077891e-08 3.4703563927845622e-08 -0.00050026517545948793 1.0865503847066941e-08 5.7032936668221987e-08 -0.00075029507568264093 5.7204849645858112e-08 9.5791305092700247e-08 -0.00075030177996523062 5.6594815550373861e-08 3.2006367509923029e-08 -0.00075029824391419303 5.7247527199077891e-08 3.4703563927845622e-08 -0.00050026517545948793 1.0865503847066933e-08 5.7032936668221974e-08 -0.00075029507568264093 5.6594815550373861e-08 3.2006367509923029e-08 -0.00075029824391419303 4.8940057609526166e-09 1.8421229125824417e-09 -0.00075029192001347246 2.1894127021929612e-08 -3.3947674159948867e-08 -0.00050024567292933483 5.2810852382901295e-09 3.3949210206724557e-09 -0.00050024966825984625 5.366671825154797e-08 -1.9718420562954518e-08 -0.0007502932886569065 4.8940057609526166e-09 1.8421229125824417e-09 -0.00075029192001347246 2.1894127021929612e-08 -3.3947674159948867e-08 -0.00050024567292933483 5.3666718251548003e-08 -1.9718420562954475e-08 -0.0007502932886569064 4.8940057609526125e-09 1.8421229125824368e-09 -0.00075029192001347246 2.0971467264766753e-08 -3.6315859626688077e-08 -0.00075029098355238908 5.2810852382901295e-09 3.3949210206724557e-09 -0.00050024966825984625 5.7247527199077891e-08 3.4703563927845622e-08 -0.00050026517545948793 5.366671825154797e-08 -1.9718420562954485e-08 -0.0007502932886569064 4.8940057609526166e-09 1.8421229125824417e-09 -0.00075029192001347246 5.7247527199077891e-08 3.4703563927845622e-08 -0.00050026517545948793 5.6594815550373861e-08 3.2006367509923029e-08 -0.00075029824391419303 5.3666718251548009e-08 -1.9718420562954505e-08 -0.0007502932886569065 4.8940057609526075e-09 1.8421229125824605e-09 -0.00075029192001347257 -1.9842616124615409e-08 3.6183302744522165e-08 -0.00050024803703784763 5.2810852382901295e-09 3.3949210206724557e-09 -0.00050024966825984625 4.8940057609526166e-09 1.8421229125824417e-09 -0.00075029192001347246 -5.0707614734624782e-08 5.2361287720545809e-09 -0.00075029248740894226 5.2810852382901295e-09 3.3949210206724557e-09 -0.00050024966825984625 4.8940057609526166e-09 1.8421229125824417e-09 -0.00075029192001347246 -5.0707614734624796e-08 5.2361287720545701e-09 -0.00075029248740894226 -1.6524079825615585e-08 -5.5263222233469261e-08 -0.00075029142827257023 -1.7770674388286047e-08 -5.570369218614645e-08 -0.00050025023544014583 5.2810852382901295e-09 3.3949210206724557e-09 -0.00050024966825984625 -5.0707614734624815e-08 5.2361287720545949e-09 -0.00075029248740894237 -1.6524079825615572e-08 -5.5263222233469267e-08 -0.00075029142827257023 2.1894127021929612e-08 -3.3947674159948867e-08 -0.00050024567292933483 5.2810852382901295e-09 3.3949210206724557e-09 -0.00050024966825984625 4.8940057609525959e-09 1.8421229125824312e-09 -0.00075029192001347246 -1.6524079825615549e-08 -5.5263222233469254e-08 -0.00075029142827257023 -1.9842616124615409e-08 3.6183302744522165e-08 -0.00050024803703784763 -2.5387428534082399e-08 6.9262181780201991e-08 -0.00050025006255152661 1.0865503847066921e-08 5.7032936668221994e-08 -0.00075029507568264093 -1.9293162804784957e-08 3.6136375995210612e-08 -0.00075029216184415359 -1.9842616124615409e-08 3.6183302744522165e-08 -0.00050024803703784763 4.8940057609526166e-09 1.8421229125824417e-09 -0.00075029192001347246 -1.9293162804784957e-08 3.6136375995210612e-08 -0.00075029216184415359 -5.0707614734624782e-08 5.2361287720545809e-09 -0.00075029248740894226 -1.9842616124615409e-08 3.6183302744522165e-08 -0.00050024803703784763 1.2957079439000903e-08 5.6986557822004454e-08 -0.00050025537193547961 1.0865503847066921e-08 5.7032936668221994e-08 -0.00075029507568264093 4.8940057609526166e-09 1.8421229125824417e-09 -0.00075029192001347246 -1.9842616124615409e-08 3.6183302744522165e-08 -0.00050024803703784763 1.0865503847066921e-08 5.7032936668221994e-08 -0.00075029507568264093 4.8940057609526166e-09 1.8421229125824417e-09 -0.00075029192001347246 -1.9293162804784957e-08 3.6136375995210612e-08 -0.00075029216184415359 -5.1293301283815728e-08 5.0049584702401226e-08 -0.00050024921562084488 -4.8840244817830677e-08 5.321874239411668e-08 -0.00075029218034455142 -9.5740061020095293e-08 5.7465164598509363e-08 -0.00075029432990309159 -5.0707614734624782e-08 5.2361287720545809e-09 -0.00075029248740894226 -5.1293301283815728e-08 5.0049584702401226e-08 -0.00050024921562084488 -2.314931236497735e-08 7.1592022126062442e-08 -0.00075029298275374595 -1.9293162804784957e-08 3.6136375995210612e-08 -0.00075029216184415359 -4.8840244817830677e-08 5.321874239411668e-08 -0.00075029218034455142 -5.0940742434917772e-08 3.0293919809195648e-09 -0.0005002521585592589 -5.1293301283815728e-08 5.0049584702401226e-08 -0.00050024921562084488 -9.5740061020095293e-08 5.7465164598509363e-08 -0.00075029432990309159 -5.0707614734624782e-08 5.2361287720545809e-09 -0.00075029248740894226 -5.1293301283815728e-08 5.0049584702401226e-08 -0.00050024921562084488 -1.9842616124615409e-08 3.6183302744522165e-08 -0.00050024803703784763 -1.9293162804784957e-08 3.6136375995210612e-08 -0.00075029216184415359 -5.0707614734624782e-08 5.2361287720545809e-09 -0.00075029248740894226 -5.1293301283815728e-08 5.0049584702401226e-08 -0.00050024921562084488 -1.929316280478497e-08 3.6136375995210592e-08 -0.0007502921618441537 -4.8840244817830677e-08 5.321874239411668e-08 -0.00075029218034455142 -5.0707614734624782e-08 5.2361287720545809e-09 -0.00075029248740894226 -5.0940742434917772e-08 3.0293919809195648e-09 -0.0005002521585592589 -9.5740061020095293e-08 5.7465164598509363e-08 -0.00075029432990309159 -1.1167141577029081e-07 1.9374037714951165e-09 -0.00075029560532268228 -5.0707614734624782e-08 5.2361287720545809e-09 -0.00075029248740894226 -5.0940742434917772e-08 3.0293919809195648e-09 -0.0005002521585592589 -1.0132193106823167e-07 4.3161875768583101e-08 -0.00050025767852542003 -9.5740061020095293e-08 5.7465164598509363e-08 -0.00075029432990309159 -1.1167141577029081e-07 1.9374037714951165e-09 -0.00075029560532268228 -9.6689886264494916e-08 5.5731279037633764e-08 -0.0010003345015111374 -1.1159496125589109e-07 -1.0376466466551728e-10 -0.0010003346238452108 -5.0604726449449606e-08 5.2418193260136104e-09 -0.0010003339196023588 -5.0707614734624782e-08 5.2361287720545809e-09 -0.00075029248740894226 -9.6689886264494916e-08 5.5731279037633764e-08 -0.0010003345015111374 -4.8840244817830703e-08 5.321874239411668e-08 -0.00075029218034455131 -9.5740061020095293e-08 5.7465164598509363e-08 -0.00075029432990309159 -5.0707614734624782e-08 5.2361287720545809e-09 -0.00075029248740894226 -1.1159496125589109e-07 -1.0376466466551671e-10 -0.0010003346238452108 -9.5740061020095306e-08 5.7465164598509376e-08 -0.00075029432990309159 -1.1167141577029081e-07 1.9374037714951165e-09 -0.00075029560532268228 -5.0707614734624782e-08 5.2361287720545809e-09 -0.00075029248740894226 -9.6689886264494916e-08 5.5731279037633764e-08 -0.0010003345015111374 -1.1159496125589109e-07 -1.0376466466551751e-10 -0.0010003346238452108 -9.5740061020095293e-08 5.7465164598509363e-08 -0.00075029432990309159 -5.0707614734624782e-08 5.2361287720545809e-09 -0.00075029248740894226 -2.4312981733557692e-08 7.1359223248225148e-08 -0.0010003347448894412 -4.9468006006617741e-08 5.294320058807827e-08 -0.0010003341750287069 -2.0021590677986331e-08 3.5777763631207508e-08 -0.0010003343508977053 -4.8840244817830677e-08 5.321874239411668e-08 -0.00075029218034455142 -9.6689886264494916e-08 5.5731279037633764e-08 -0.0010003345015111374 -5.0604726449449599e-08 5.2418193260136162e-09 -0.0010003339196023591 -4.9468006006617741e-08 5.294320058807827e-08 -0.0010003341750287069 -4.8840244817830677e-08 5.321874239411668e-08 -0.00075029218034455142 -2.314931236497735e-08 7.1592022126062442e-08 -0.00075029298275374595 -2.0021590677986331e-08 3.5777763631207508e-08 -0.0010003343508977053 -1.9293162804784957e-08 3.6136375995210612e-08 -0.00075029216184415359 -4.8840244817830677e-08 5.321874239411668e-08 -0.00075029218034455142 -5.0604726449449599e-08 5.2418193260136162e-09 -0.0010003339196023591 -4.9468006006617741e-08 5.294320058807827e-08 -0.0010003341750287069 -2.0021590677986331e-08 3.5777763631207508e-08 -0.0010003343508977053 -4.8840244817830677e-08 5.321874239411668e-08 -0.00075029218034455142 -5.0604726449449599e-08 5.2418193260136162e-09 -0.0010003339196023591 -1.9293162804784974e-08 3.6136375995210638e-08 -0.00075029216184415359 -4.8840244817830677e-08 5.321874239411668e-08 -0.00075029218034455142 -5.0707614734624782e-08 5.2361287720545809e-09 -0.00075029248740894226 -5.0604726449449599e-08 5.2418193260136162e-09 -0.0010003339196023591 -2.0021590677986331e-08 3.5777763631207508e-08 -0.0010003343508977053 -1.9293162804784957e-08 3.6136375995210612e-08 -0.00075029216184415359 -4.8840244817830677e-08 5.321874239411668e-08 -0.00075029218034455142 -9.6689886264494916e-08 5.5731279037633764e-08 -0.0010003345015111374 -5.0604726449449599e-08 5.2418193260136162e-09 -0.0010003339196023591 -4.8840244817830677e-08 5.321874239411668e-08 -0.00075029218034455142 -5.0707614734624782e-08 5.2361287720545809e-09 -0.00075029248740894226 -5.0604726449449599e-08 5.2418193260136162e-09 -0.0010003339196023591 4.8940057609526448e-09 1.8421229125824359e-09 -0.00075029192001347246 -5.0707614734624782e-08 5.2361287720545809e-09 -0.00075029248740894226 -1.6524079825615545e-08 -5.5263222233469281e-08 -0.00075029142827257023 -5.0604726449449599e-08 5.2418193260136162e-09 -0.0010003339196023591 4.8940057609526406e-09 1.8421229125824266e-09 -0.00075029192001347246 -1.9293162804784957e-08 3.6136375995210612e-08 -0.00075029216184415359 -5.0707614734624782e-08 5.2361287720545809e-09 -0.00075029248740894226 -5.0604726449449599e-08 5.2418193260136162e-09 -0.0010003339196023591 -5.0707614734624782e-08 5.2361287720545809e-09 -0.00075029248740894226 -6.6857972660654047e-08 -4.0017654941263315e-08 -0.00075029280349688215 -1.6524079825615542e-08 -5.5263222233469287e-08 -0.00075029142827257034 -1.1159496125589109e-07 -1.0376466466551671e-10 -0.0010003346238452108 -1.1167141577029081e-07 1.9374037714951165e-09 -0.00075029560532268228 -6.6857972660654061e-08 -4.0017654941263315e-08 -0.00075029280349688215 -9.657261065016939e-08 -5.5891375795621142e-08 -0.0010003333668506496 -1.1159496125589109e-07 -1.0376466466551671e-10 -0.0010003346238452108 -5.0604726449449599e-08 5.2418193260136162e-09 -0.0010003339196023591 -6.6857972660654061e-08 -4.0017654941263315e-08 -0.00075029280349688215 -6.6091706702666848e-08 -4.0499578676000779e-08 -0.0010003336191060916 -1.1159496125589109e-07 -1.0376466466551671e-10 -0.0010003346238452108 -1.1167141577029081e-07 1.9374037714951165e-09 -0.00075029560532268228 -5.0707614734624769e-08 5.2361287720546016e-09 -0.00075029248740894226 -6.6857972660654074e-08 -4.0017654941263335e-08 -0.00075029280349688215 -1.1159496125589109e-07 -1.0376466466551671e-10 -0.0010003346238452108 -5.0604726449449599e-08 5.2418193260136162e-09 -0.0010003339196023591 -5.0707614734624782e-08 5.2361287720545809e-09 -0.00075029248740894226 -6.6857972660654061e-08 -4.0017654941263315e-08 -0.00075029280349688215 -6.5687181535145271e-08 -4.349311959154709e-08 -0.00050025491969184796 -1.0916144251710579e-07 -1.3238102721737789e-08 -0.0005002633946386858 -1.1167141577029081e-07 1.9374037714951165e-09 -0.00075029560532268228 -9.7764005717476141e-08 -5.4075409609034418e-08 -0.0007502924919332082 -6.5687181535145271e-08 -4.349311959154709e-08 -0.00050025491969184796 -5.0940742434917772e-08 3.0293919809195648e-09 -0.0005002521585592589 -1.1167141577029081e-07 1.9374037714951165e-09 -0.00075029560532268228 -5.0707614734624782e-08 5.2361287720545809e-09 -0.00075029248740894226 -6.5687181535145271e-08 -4.349311959154709e-08 -0.00050025491969184796 -1.1167141577029081e-07 1.9374037714951165e-09 -0.00075029560532268228 -5.0707614734624776e-08 5.2361287720545908e-09 -0.00075029248740894237 -6.6857972660654061e-08 -4.0017654941263315e-08 -0.00075029280349688215 -1.7770674388286047e-08 -5.570369218614645e-08 -0.00050025023544014583 -6.5687181535145271e-08 -4.349311959154709e-08 -0.00050025491969184796 -5.0707614734624776e-08 5.2361287720546115e-09 -0.00075029248740894237 -1.6524079825615572e-08 -5.5263222233469267e-08 -0.00075029142827257023 -6.5687181535145271e-08 -4.349311959154709e-08 -0.00050025491969184796 -5.0707614734624822e-08 5.2361287720545701e-09 -0.00075029248740894226 -6.6857972660654061e-08 -4.0017654941263315e-08 -0.00075029280349688215 -1.6524079825615532e-08 -5.5263222233469287e-08 -0.00075029142827257023 -1.7770674388286047e-08 -5.570369218614645e-08 -0.00050025023544014583 -6.5687181535145271e-08 -4.349311959154709e-08 -0.00050025491969184796 -5.7166336230084369e-08 -9.580318544733603e-08 -0.00075029410285299043 -1.6524079825615572e-08 -5.5263222233469267e-08 -0.00075029142827257023 -6.5687181535145271e-08 -4.349311959154709e-08 -0.00050025491969184796 -6.6857972660654061e-08 -4.0017654941263315e-08 -0.00075029280349688215 -5.7166336230084382e-08 -9.5803185447336043e-08 -0.00075029410285299043 -1.6524079825615532e-08 -5.5263222233469241e-08 -0.00075029142827257023 -6.5687181535145271e-08 -4.349311959154709e-08 -0.00050025491969184796 -6.6857972660654061e-08 -4.0017654941263315e-08 -0.00075029280349688215 -9.7764005717476127e-08 -5.4075409609034431e-08 -0.0007502924919332082 -5.7166336230084395e-08 -9.580318544733603e-08 -0.00075029410285299043 -6.5687181535145271e-08 -4.349311959154709e-08 -0.00050025491969184796 -1.1167141577029081e-07 1.9374037714951165e-09 -0.00075029560532268228 -6.6857972660654061e-08 -4.0017654941263315e-08 -0.00075029280349688215 -9.7764005717476141e-08 -5.4075409609034418e-08 -0.0007502924919332082 -8.7983094820209384e-08 -6.6307467346761616e-08 -0.00050025621488749487 -6.5687181535145271e-08 -4.3493119591547084e-08 -0.00050025491969184796 -9.7764005717476141e-08 -5.4075409609034418e-08 -0.0007502924919332082 -5.7166336230084369e-08 -9.580318544733603e-08 -0.00075029410285299043 -6.6857972660654061e-08 -4.0017654941263315e-08 -0.00075029280349688215 -9.7764005717476141e-08 -5.4075409609034418e-08 -0.0007502924919332082 -5.5759341536312115e-08 -9.6685672406634986e-08 -0.0010003336994660978 -9.6572610650169377e-08 -5.5891375795621149e-08 -0.0010003333668506496 -1.1167141577029081e-07 1.9374037714951165e-09 -0.00075029560532268228 -6.6857972660654061e-08 -4.0017654941263315e-08 -0.00075029280349688215 -9.7764005717476141e-08 -5.4075409609034418e-08 -0.0007502924919332082 -9.657261065016939e-08 -5.5891375795621142e-08 -0.0010003333668506496 -1.1159496125589109e-07 -1.0376466466551671e-10 -0.0010003346238452108 -6.6857972660654087e-08 -4.0017654941263315e-08 -0.00075029280349688204 -6.6091706702666861e-08 -4.0499578676000786e-08 -0.0010003336191060916 -9.657261065016939e-08 -5.5891375795621142e-08 -0.0010003333668506496 -6.6857972660654061e-08 -4.0017654941263315e-08 -0.00075029280349688215 -5.5759341536312135e-08 -9.6685672406634986e-08 -0.0010003336994660978 -6.6091706702666848e-08 -4.0499578676000779e-08 -0.0010003336191060916 -9.657261065016939e-08 -5.5891375795621155e-08 -0.0010003333668506496 -6.6857972660654061e-08 -4.0017654941263315e-08 -0.00075029280349688215 -1.5299712034280862e-08 -5.5533957142596424e-08 -0.0010003332340291781 -5.5759341536312122e-08 -9.6685672406634986e-08 -0.0010003336994660976 -6.6091706702666848e-08 -4.0499578676000779e-08 -0.0010003336191060916 -5.0604726449449599e-08 5.2418193260136162e-09 -0.0010003339196023591 -6.6857972660654047e-08 -4.0017654941263315e-08 -0.00075029280349688215 -1.5299712034280891e-08 -5.5533957142596437e-08 -0.0010003332340291781 -6.6091706702666848e-08 -4.0499578676000779e-08 -0.0010003336191060916 -6.6857972660654061e-08 -4.0017654941263315e-08 -0.00075029280349688215 -1.6524079825615572e-08 -5.5263222233469267e-08 -0.00075029142827257023 -1.5299712034280891e-08 -5.5533957142596437e-08 -0.0010003332340291781 -5.5759341536312108e-08 -9.6685672406634999e-08 -0.0010003336994660978 -5.0604726449449599e-08 5.2418193260136162e-09 -0.0010003339196023591 -6.6857972660654061e-08 -4.0017654941263315e-08 -0.00075029280349688204 -1.6524079825615536e-08 -5.5263222233469248e-08 -0.00075029142827257012 -1.5299712034280891e-08 -5.5533957142596437e-08 -0.0010003332340291781 -6.6857972660654061e-08 -4.0017654941263315e-08 -0.00075029280349688215 -5.7166336230084369e-08 -9.580318544733603e-08 -0.00075029410285299043 -1.6524079825615572e-08 -5.5263222233469267e-08 -0.00075029142827257023 -5.5759341536312108e-08 -9.6685672406634999e-08 -0.0010003336994660978 -6.6857972660654061e-08 -4.0017654941263315e-08 -0.00075029280349688215 -9.7764005717476141e-08 -5.4075409609034418e-08 -0.0007502924919332082 -5.7166336230084369e-08 -9.580318544733603e-08 -0.00075029410285299043 -5.5759341536312108e-08 -9.6685672406634999e-08 -0.0010003336994660978 -5.7166336230084369e-08 -9.580318544733603e-08 -0.00075029410285299043 -1.6524079825615569e-08 -5.5263222233469267e-08 -0.00075029142827257023 8.7915888900349775e-11 -1.1159957696967238e-07 -0.0010003327595193216 -5.5759341536312108e-08 -9.6685672406634999e-08 -0.0010003336994660978 -1.7770674388286047e-08 -5.570369218614645e-08 -0.00050025023544014583 -4.4956565008469807e-08 -1.0091432975588522e-07 -0.00050026097659899122 -5.7166336230084349e-08 -9.5803185447336043e-08 -0.00075029410285299043 -1.9360357153641608e-09 -1.1164543170468138e-07 -0.00075029093582465933 2.1580871223941683e-08 -7.3846275966604648e-08 -0.00050024655474169158 -1.7770674388286047e-08 -5.570369218614645e-08 -0.00050025023544014583 -1.9360357153641777e-09 -1.1164543170468135e-07 -0.00075029093582465933 -1.6524079825615572e-08 -5.5263222233469267e-08 -0.00075029142827257023 -1.7770674388286047e-08 -5.570369218614645e-08 -0.00050025023544014583 -5.7166336230084362e-08 -9.5803185447336043e-08 -0.00075029410285299043 -1.9360357153641873e-09 -1.1164543170468136e-07 -0.00075029093582465933 -1.6524079825615572e-08 -5.5263222233469267e-08 -0.00075029142827257023 2.1580871223941683e-08 -7.3846275966604648e-08 -0.00050024655474169158 -1.9360357153641777e-09 -1.1164543170468135e-07 -0.00075029093582465933 -1.6524079825615572e-08 -5.5263222233469267e-08 -0.00075029142827257023 1.9432312204158484e-08 -7.5936896807686712e-08 -0.00075029061674954177 2.1580871223941683e-08 -7.3846275966604648e-08 -0.00050024655474169158 2.1894127021929612e-08 -3.3947674159948867e-08 -0.00050024567292933483 -1.6524079825615572e-08 -5.5263222233469267e-08 -0.00075029142827257023 1.9432312204158484e-08 -7.5936896807686712e-08 -0.00075029061674954177 2.1894127021929612e-08 -3.3947674159948867e-08 -0.00050024567292933483 4.8940057609525968e-09 1.8421229125824318e-09 -0.00075029192001347246 -1.6524079825615575e-08 -5.5263222233469241e-08 -0.00075029142827257023 2.0971467264766753e-08 -3.6315859626688077e-08 -0.00075029098355238908 2.1894127021929612e-08 -3.3947674159948867e-08 -0.00050024567292933483 -1.6524079825615562e-08 -5.5263222233469294e-08 -0.00075029142827257023 2.0971467264766753e-08 -3.6315859626688077e-08 -0.00075029098355238908 1.9432312204158484e-08 -7.5936896807686712e-08 -0.00075029061674954177 5.1807258893129332e-08 -5.3008049344869908e-08 -0.00050024689752647077 5.3666718251547956e-08 -1.9718420562954501e-08 -0.0007502932886569064 4.9140781226527232e-08 -5.686969790069288e-08 -0.00075029118030134389 2.0971467264766776e-08 -3.6315859626688063e-08 -0.00075029098355238908 2.1894127021929612e-08 -3.3947674159948867e-08 -0.00050024567292933483 5.1807258893129332e-08 -5.3008049344869908e-08 -0.00050024689752647077 5.366671825154799e-08 -1.9718420562954505e-08 -0.0007502932886569064 2.0971467264766753e-08 -3.6315859626688077e-08 -0.00075029098355238908 5.1807258893129332e-08 -5.3008049344869908e-08 -0.00050024689752647077 4.9140781226527232e-08 -5.686969790069288e-08 -0.00075029118030134389 2.0971467264766753e-08 -3.6315859626688077e-08 -0.00075029098355238908 1.9432312204158484e-08 -7.5936896807686712e-08 -0.00075029061674954177 2.1894127021929612e-08 -3.3947674159948867e-08 -0.00050024567292933483 5.1807258893129332e-08 -5.3008049344869908e-08 -0.00050024689752647077 2.0971467264766753e-08 -3.6315859626688077e-08 -0.00075029098355238908 1.9432312204158484e-08 -7.5936896807686712e-08 -0.00075029061674954177 2.1580871223941683e-08 -7.3846275966604648e-08 -0.00050024655474169158 1.3425891904296139e-08 -1.0927714585546953e-07 -0.00050025136626903036 5.4068082172652232e-08 -9.7708429031848292e-08 -0.00075029061775717877 -1.9360357153641777e-09 -1.1164543170468135e-07 -0.00075029093582465933 2.1580871223941683e-08 -7.3846275966604648e-08 -0.00050024655474169158 5.4068082172652232e-08 -9.7708429031848292e-08 -0.00075029061775717877 -1.9360357153641777e-09 -1.1164543170468135e-07 -0.00075029093582465933 1.9432312204158484e-08 -7.5936896807686712e-08 -0.00075029061674954177 5.1807258893129332e-08 -5.3008049344869908e-08 -0.00050024689752647077 5.4068082172652259e-08 -9.7708429031848278e-08 -0.00075029061775717877 4.9140781226527238e-08 -5.6869697900692887e-08 -0.00075029118030134389 1.9432312204158484e-08 -7.5936896807686712e-08 -0.00075029061674954177 2.1580871223941683e-08 -7.3846275966604648e-08 -0.00050024655474169158 5.1807258893129332e-08 -5.3008049344869908e-08 -0.00050024689752647077 5.4068082172652232e-08 -9.7708429031848292e-08 -0.00075029061775717877 1.9432312204158484e-08 -7.5936896807686712e-08 -0.00075029061674954177 5.5897159774068902e-08 -9.6588377068434249e-08 -0.0010003331373501794 1.9432312204158484e-08 -7.5936896807686712e-08 -0.00075029061674954177 8.7915888900334524e-11 -1.1159957696967235e-07 -0.0010003327595193218 2.0276169987162925e-08 -7.6029200013250649e-08 -0.0010003330585680315 5.4068082172652232e-08 -9.7708429031848292e-08 -0.00075029061775717877 5.5897159774068902e-08 -9.6588377068434249e-08 -0.0010003331373501794 4.9140781226527232e-08 -5.686969790069288e-08 -0.00075029118030134389 1.9432312204158484e-08 -7.5936896807686712e-08 -0.00075029061674954177 5.5897159774068902e-08 -9.6588377068434249e-08 -0.0010003331373501794 4.9140781226527232e-08 -5.686969790069288e-08 -0.00075029118030134389 1.9432312204158484e-08 -7.5936896807686712e-08 -0.00075029061674954177 2.0276169987162925e-08 -7.6029200013250649e-08 -0.0010003330585680315 5.5897159774068902e-08 -9.6588377068434249e-08 -0.0010003331373501794 4.9140781226527232e-08 -5.686969790069288e-08 -0.00075029118030134389 4.9532905508188008e-08 -5.7040184974821988e-08 -0.0010003336980260757 2.0276169987162925e-08 -7.6029200013250649e-08 -0.0010003330585680315 5.4068082172652232e-08 -9.7708429031848292e-08 -0.00075029061775717877 5.5897159774068902e-08 -9.6588377068434249e-08 -0.0010003331373501794 -1.9360357153641806e-09 -1.1164543170468135e-07 -0.00075029093582465933 1.9432312204158484e-08 -7.5936896807686712e-08 -0.00075029061674954177 5.5897159774068902e-08 -9.6588377068434249e-08 -0.0010003331373501794 -1.9360357153641906e-09 -1.1164543170468135e-07 -0.00075029093582465933 1.9432312204158484e-08 -7.5936896807686712e-08 -0.00075029061674954177 8.7915888900334524e-11 -1.1159957696967235e-07 -0.0010003327595193218 4.9140781226527232e-08 -5.686969790069288e-08 -0.00075029118030134389 2.0971467264766753e-08 -3.6315859626688077e-08 -0.00075029098355238908 2.1346749301145685e-08 -3.6555241823602904e-08 -0.0010003336183876197 2.0276169987162925e-08 -7.6029200013250649e-08 -0.0010003330585680315 5.3563347146839934e-08 -2.0503506566142529e-08 -0.0010003349216328255 4.9140781226527232e-08 -5.686969790069288e-08 -0.00075029118030134389 2.0971467264766753e-08 -3.6315859626688077e-08 -0.00075029098355238908 2.1346749301145685e-08 -3.6555241823602904e-08 -0.0010003336183876197 5.3563347146839934e-08 -2.0503506566142529e-08 -0.0010003349216328255 5.366671825154799e-08 -1.9718420562954505e-08 -0.0007502932886569064 4.9140781226527232e-08 -5.686969790069288e-08 -0.00075029118030134389 2.0971467264766753e-08 -3.6315859626688077e-08 -0.00075029098355238908 5.3563347146839934e-08 -2.0503506566142529e-08 -0.0010003349216328255 4.9140781226527232e-08 -5.686969790069288e-08 -0.00075029118030134389 4.9532905508188008e-08 -5.7040184974821988e-08 -0.0010003336980260757 2.1346749301145685e-08 -3.6555241823602904e-08 -0.0010003336183876197 4.9140781226527232e-08 -5.686969790069288e-08 -0.00075029118030134389 4.9532905508188008e-08 -5.7040184974821988e-08 -0.0010003336980260757 2.1346749301145685e-08 -3.6555241823602904e-08 -0.0010003336183876197 2.0276169987162925e-08 -7.6029200013250649e-08 -0.0010003330585680315 4.9140781226527232e-08 -5.686969790069288e-08 -0.00075029118030134389 2.0971467264766753e-08 -3.6315859626688077e-08 -0.00075029098355238908 1.9432312204158484e-08 -7.5936896807686712e-08 -0.00075029061674954177 2.0276169987162925e-08 -7.6029200013250649e-08 -0.0010003330585680315 4.8236507391606883e-09 1.3921777306970033e-09 -0.001000334016833719 2.0971467264766759e-08 -3.6315859626688077e-08 -0.00075029098355238908 -1.5299712034280891e-08 -5.5533957142596437e-08 -0.0010003332340291781 2.1346749301145685e-08 -3.6555241823602904e-08 -0.0010003336183876197 4.8940057609526166e-09 1.8421229125824417e-09 -0.00075029192001347246 -1.6524079825615572e-08 -5.5263222233469267e-08 -0.00075029142827257023 2.0971467264766753e-08 -3.6315859626688077e-08 -0.00075029098355238908 -1.5299712034280891e-08 -5.5533957142596437e-08 -0.0010003332340291781 2.0971467264766753e-08 -3.6315859626688077e-08 -0.00075029098355238908 -1.5299712034280878e-08 -5.5533957142596464e-08 -0.0010003332340291779 2.1346749301145685e-08 -3.6555241823602904e-08 -0.0010003336183876197 2.0276169987162925e-08 -7.6029200013250649e-08 -0.0010003330585680315 -1.6524079825615572e-08 -5.5263222233469267e-08 -0.00075029142827257023 2.0971467264766753e-08 -3.6315859626688077e-08 -0.00075029098355238908 1.9432312204158484e-08 -7.5936896807686712e-08 -0.00075029061674954177 -1.5299712034280891e-08 -5.5533957142596437e-08 -0.0010003332340291781 2.0971467264766753e-08 -3.6315859626688077e-08 -0.00075029098355238908 1.9432312204158484e-08 -7.5936896807686712e-08 -0.00075029061674954177 -1.5299712034280891e-08 -5.5533957142596437e-08 -0.0010003332340291781 2.0276169987162925e-08 -7.6029200013250649e-08 -0.0010003330585680315 1.9432312204158484e-08 -7.5936896807686712e-08 -0.00075029061674954177 8.7915888900334524e-11 -1.1159957696967235e-07 -0.0010003327595193218 -1.5299712034280891e-08 -5.5533957142596437e-08 -0.0010003332340291781 2.0276169987162925e-08 -7.6029200013250649e-08 -0.0010003330585680315 -1.9360357153641777e-09 -1.1164543170468135e-07 -0.00075029093582465933 -1.6524079825615572e-08 -5.5263222233469267e-08 -0.00075029142827257023 1.9432312204158484e-08 -7.5936896807686712e-08 -0.00075029061674954177 8.7915888900334524e-11 -1.1159957696967235e-07 -0.0010003327595193218 -1.6524079825615572e-08 -5.5263222233469267e-08 -0.00075029142827257023 1.9432312204158484e-08 -7.5936896807686712e-08 -0.00075029061674954177 8.7915888900320811e-11 -1.1159957696967238e-07 -0.0010003327595193218 -1.5299712034280891e-08 -5.5533957142596437e-08 -0.0010003332340291781 -5.7166336230084369e-08 -9.580318544733603e-08 -0.00075029410285299043 -1.9360357153641744e-09 -1.1164543170468134e-07 -0.00075029093582465933 -1.6524079825615572e-08 -5.5263222233469267e-08 -0.00075029142827257023 8.7915888900335067e-11 -1.1159957696967235e-07 -0.0010003327595193218 -1.6524079825615572e-08 -5.5263222233469267e-08 -0.00075029142827257023 8.791588890031652e-11 -1.1159957696967239e-07 -0.0010003327595193218 -1.5299712034280891e-08 -5.5533957142596437e-08 -0.0010003332340291781 -5.5759341536312089e-08 -9.6685672406634999e-08 -0.0010003336994660978 8.7915888900334524e-11 -1.1159957696967235e-07 -0.0010003327595193218 -1.5299712034280891e-08 -5.5533957142596437e-08 -0.0010003332340291781 2.0276169987162925e-08 -7.6029200013250649e-08 -0.0010003330585680315 4.686754792220278e-11 -1.1151488935202947e-07 -0.0012503762455712839 8.7915888900334524e-11 -1.1159957696967235e-07 -0.0010003327595193218 -1.5299712034280891e-08 -5.5533957142596437e-08 -0.0010003332340291781 4.686754792220278e-11 -1.1151488935202947e-07 -0.0012503762455712839 -5.5759341536312108e-08 -9.6685672406634999e-08 -0.0010003336994660978 -1.5299712034280891e-08 -5.5533957142596437e-08 -0.0010003332340291781 2.1346749301145685e-08 -3.6555241823602904e-08 -0.0010003336183876197 2.0276169987162925e-08 -7.6029200013250649e-08 -0.0010003330585680315 -1.4907536248161974e-08 -5.5343728070361785e-08 -0.0012503768571416685 4.8236507391606883e-09 1.3921777306970033e-09 -0.001000334016833719 -1.5299712034280891e-08 -5.5533957142596437e-08 -0.0010003332340291781 2.1346749301145685e-08 -3.6555241823602904e-08 -0.0010003336183876197 -1.4907536248161974e-08 -5.5343728070361785e-08 -0.0012503768571416685 5.3708001617732113e-08 -2.0309754848781804e-08 -0.0012503782876837986 5.3563347146839934e-08 -2.0503506566142529e-08 -0.0010003349216328255 4.9532905508188008e-08 -5.7040184974821988e-08 -0.0010003336980260757 2.1346749301145685e-08 -3.6555241823602904e-08 -0.0010003336183876197 4.9532905508188008e-08 -5.7040184974821988e-08 -0.0010003336980260757 2.1346749301145685e-08 -3.6555241823602904e-08 -0.0010003336183876197 2.0276169987162925e-08 -7.6029200013250649e-08 -0.0010003330585680315 2.0546122912782914e-08 -7.5801344943560103e-08 -0.0012503768942872808 5.5897159774068902e-08 -9.6588377068434249e-08 -0.0010003331373501794 5.5802887934559761e-08 -9.6552821070502447e-08 -0.0012503768558454157 4.9532905508188008e-08 -5.7040184974821988e-08 -0.0010003336980260757 2.0276169987162925e-08 -7.6029200013250649e-08 -0.0010003330585680315 5.5897159774068902e-08 -9.6588377068434249e-08 -0.0010003331373501794 5.5802887934559761e-08 -9.6552821070502447e-08 -0.0012503768558454157 8.7915888900331267e-11 -1.1159957696967235e-07 -0.0010003327595193216 2.0276169987162925e-08 -7.6029200013250649e-08 -0.0010003330585680315 5.5802887934559761e-08 -9.6552821070502447e-08 -0.0012503768558454157 4.9532905508188008e-08 -5.7040184974821988e-08 -0.0010003336980260757 2.0546122912782914e-08 -7.5801344943560103e-08 -0.0012503768942872808 4.9712165258848741e-08 -5.6798163070448471e-08 -0.0012503776404536083 5.5802887934559761e-08 -9.6552821070502447e-08 -0.0012503768558454157 4.9532905508188008e-08 -5.7040184974821988e-08 -0.0010003336980260757 2.0276169987162925e-08 -7.6029200013250649e-08 -0.0010003330585680315 2.0546122912782914e-08 -7.5801344943560103e-08 -0.0012503768942872808 5.5802887934559761e-08 -9.6552821070502447e-08 -0.0012503768558454157 2.0276169987162925e-08 -7.6029200013250649e-08 -0.0010003330585680315 2.0546122912782914e-08 -7.5801344943560103e-08 -0.0012503768942872808 4.686754792220278e-11 -1.1151488935202947e-07 -0.0012503762455712839 5.5802887934559761e-08 -9.6552821070502447e-08 -0.0012503768558454157 8.7915888900322155e-11 -1.1159957696967235e-07 -0.0010003327595193218 2.0276169987162925e-08 -7.6029200013250649e-08 -0.0010003330585680315 4.686754792220278e-11 -1.1151488935202947e-07 -0.0012503762455712839 4.9532905508188008e-08 -5.7040184974821988e-08 -0.0010003336980260757 2.0546122912782914e-08 -7.5801344943560103e-08 -0.0012503768942872808 4.9712165258848741e-08 -5.6798163070448471e-08 -0.0012503776404536083 2.1628416036530239e-08 -3.6324428452786113e-08 -0.0012503775393100207 4.9532905508188008e-08 -5.7040184974821988e-08 -0.0010003336980260757 2.1346749301145685e-08 -3.6555241823602904e-08 -0.0010003336183876197 2.0546122912782914e-08 -7.5801344943560103e-08 -0.0012503768942872808 2.1628416036530239e-08 -3.6324428452786113e-08 -0.0012503775393100207 5.3708001617732113e-08 -2.0309754848781804e-08 -0.0012503782876837986 4.9532905508188008e-08 -5.7040184974821988e-08 -0.0010003336980260757 4.9712165258848741e-08 -5.6798163070448471e-08 -0.0012503776404536083 2.1628416036530239e-08 -3.6324428452786113e-08 -0.0012503775393100207 5.3708001617732113e-08 -2.0309754848781804e-08 -0.0012503782876837986 4.9532905508188008e-08 -5.7040184974821988e-08 -0.0010003336980260757 2.1346749301145685e-08 -3.6555241823602904e-08 -0.0010003336183876197 2.1628416036530239e-08 -3.6324428452786113e-08 -0.0012503775393100207 2.1346749301145685e-08 -3.6555241823602904e-08 -0.0010003336183876197 2.0276169987162925e-08 -7.6029200013250649e-08 -0.0010003330585680315 2.0546122912782914e-08 -7.5801344943560103e-08 -0.0012503768942872808 -1.4907536248161974e-08 -5.5343728070361785e-08 -0.0012503768571416685 2.1346749301145685e-08 -3.6555241823602904e-08 -0.0010003336183876197 2.0546122912782914e-08 -7.5801344943560103e-08 -0.0012503768942872808 2.1628416036530239e-08 -3.6324428452786113e-08 -0.0012503775393100207 -1.4907536248161974e-08 -5.5343728070361785e-08 -0.0012503768571416685 5.0621207213560015e-09 1.5788178766625241e-09 -0.0012503776618331816 2.1346749301145692e-08 -3.6555241823602904e-08 -0.0010003336183876197 2.1628416036530232e-08 -3.6324428452786106e-08 -0.0012503775393100207 -1.4907536248161974e-08 -5.5343728070361785e-08 -0.0012503768571416685 -1.5299712034280891e-08 -5.5533957142596437e-08 -0.0010003332340291781 -1.4907536248161974e-08 -5.5343728070361785e-08 -0.0012503768571416685 4.6867547922194566e-11 -1.115148893520295e-07 -0.0012503762455712841 -5.5720948289582482e-08 -9.6597652444221278e-08 -0.0012503766318639825 -1.5299712034280891e-08 -5.5533957142596437e-08 -0.0010003332340291781 2.0276169987162925e-08 -7.6029200013250649e-08 -0.0010003330585680315 -1.4907536248161974e-08 -5.5343728070361785e-08 -0.0012503768571416685 4.6867547922193823e-11 -1.115148893520295e-07 -0.0012503762455712841 2.0276169987162925e-08 -7.6029200013250649e-08 -0.0010003330585680315 2.0546122912782914e-08 -7.5801344943560103e-08 -0.0012503768942872808 -1.4907536248161974e-08 -5.5343728070361785e-08 -0.0012503768571416685 4.686754792220278e-11 -1.1151488935202947e-07 -0.0012503762455712839 -1.5299712034280891e-08 -5.5533957142596437e-08 -0.0010003332340291781 4.686754792219403e-11 -1.1151488935202946e-07 -0.0012503762455712841 -5.5720948289582482e-08 -9.6597652444221278e-08 -0.0012503766318639822 -5.5759341536312108e-08 -9.6685672406634999e-08 -0.0010003336994660978 -1.5299712034280891e-08 -5.5533957142596437e-08 -0.0010003332340291781 -5.5720948289582495e-08 -9.6597652444221265e-08 -0.0012503766318639825 -5.5759341536312115e-08 -9.6685672406634999e-08 -0.0010003336994660978 -6.6091706702666848e-08 -4.0499578676000779e-08 -0.0010003336191060916 -5.5720948289582495e-08 -9.6597652444221265e-08 -0.0012503766318639825 -5.5759341536312108e-08 -9.6685672406634999e-08 -0.0010003336994660978 -6.6091706702666861e-08 -4.0499578676000779e-08 -0.0010003336191060916 -9.657261065016939e-08 -5.5891375795621142e-08 -0.0010003333668506496 -1.5299712034280891e-08 -5.5533957142596437e-08 -0.0010003332340291781 -1.4907536248161974e-08 -5.5343728070361785e-08 -0.0012503768571416685 -5.5720948289582502e-08 -9.6597652444221265e-08 -0.0012503766318639825 -6.6091706702666848e-08 -4.0499578676000779e-08 -0.0010003336191060916 -1.4907536248161974e-08 -5.5343728070361785e-08 -0.0012503768571416685 -5.5720948289582502e-08 -9.6597652444221265e-08 -0.0012503766318639825 -6.6091706702666848e-08 -4.0499578676000766e-08 -0.0010003336191060914 -6.5864399132186352e-08 -4.0337756065704202e-08 -0.0012503772925678215 -5.0393911025418786e-08 5.4715183745548702e-09 -0.001250377338899499 -1.5299712034280855e-08 -5.5533957142596431e-08 -0.0010003332340291781 -1.4907536248161974e-08 -5.5343728070361785e-08 -0.0012503768571416685 -6.6091706702666848e-08 -4.0499578676000779e-08 -0.0010003336191060916 -5.0393911025418786e-08 5.4715183745548702e-09 -0.001250377338899499 -1.4907536248161974e-08 -5.5343728070361785e-08 -0.0012503768571416685 -6.6091706702666848e-08 -4.0499578676000779e-08 -0.0010003336191060916 -6.5864399132186352e-08 -4.0337756065704202e-08 -0.0012503772925678215 -1.1151548460813098e-07 -1.8583790149180401e-11 -0.0012503773339888648 -6.6091706702666875e-08 -4.0499578676000779e-08 -0.0010003336191060916 -6.5864399132186365e-08 -4.0337756065704209e-08 -0.0012503772925678215 -9.6567897209067271e-08 -5.5785632625130031e-08 -0.001250376693401199 -5.5720948289582495e-08 -9.6597652444221265e-08 -0.0012503766318639825 -6.6091706702666848e-08 -4.0499578676000779e-08 -0.0010003336191060916 -6.5864399132186352e-08 -4.0337756065704202e-08 -0.0012503772925678213 -9.6567897209067271e-08 -5.5785632625130031e-08 -0.001250376693401199 -5.5720948289582495e-08 -9.6597652444221265e-08 -0.0012503766318639825 -6.6091706702666861e-08 -4.0499578676000792e-08 -0.0010003336191060916 -9.6567897209067271e-08 -5.5785632625130031e-08 -0.001250376693401199 -9.657261065016939e-08 -5.5891375795621142e-08 -0.0010003333668506496 -1.1159496125589109e-07 -1.0376466466551671e-10 -0.0010003346238452108 -6.6091706702666848e-08 -4.0499578676000779e-08 -0.0010003336191060916 -9.6567897209067271e-08 -5.5785632625130031e-08 -0.001250376693401199 -9.657261065016939e-08 -5.5891375795621142e-08 -0.0010003333668506496 
</DataArray>
</PointData>
<CellData Scalars="" Vectors="" Tensors="effective_stress,">
<DataArray type="Float64" Name="effective_stress" NumberOfComponents="9" format="ascii">
-3329.1841286571289 -0.15912226611738661 -1.2965723361141954 -0.15912226611738661 -3329.7132480016007 -0.79621092118713932 -1.2965723361141954 -0.79621092118713932 -9999.2252911635478 -3329.3186562072378 -0.077294856637442955 -1.542278365986931 -0.077294856637442955 -3329.8902161875935 -0.29868787598525159 -1.542278365986931 -0.29868787598525159 -9999.3031650975736 -3327.586598333 1.5864962410754957 -2.7502032808761214 1.5864962410754957 -3327.1704991732418 -1.1683939557296981 -2.7502032808761214 -1.1683939557296981 -10000.944458256088 -3328.0561924407175 1.6882750939293403 -2.1791208663904147 1.6882750939293403 -3330.4955022841941 -2.3247622469883913 -2.1791208663904147 -2.3247622469883913 -10001.893107560756 -3334.1153263045244 -0.35681576301487811 -1.0816230569575964 -0.35681576301487811 -3330.6262611356578 -1.1842736680491726 -1.0816230569575964 -1.1842736680491726 -9999.307803947755 -3332.775151152518 1.4997020909810033 -0.71998919515021953 1.4997020909810033 -3331.3247598337357 0.032165510019694921 -0.71998919515021953 0.032165510019694921 -9999.1473848342721 -3330.4126141365273 0.047851905345461479 -1.1551318337667453 0.047851905345461479 -3330.5210503721801 -0.36309469358366186 -1.1551318337667453 -0.36309469358366186 -9999.7343631260428 -3330.1303979590548 0.22847886943598439 -1.1128508960018735 0.22847886943598439 -3329.9874520722842 -0.22087297539474093 -1.1128508960018735 -0.22087297539474093 -9999.5304095067004 -3329.7126109813557 -0.48517845044694763 -0.60067593132589536 -0.48517845044694763 -3328.1235765992865 -0.51467062059055024 -0.60067593132589536 -0.51467062059055024 -9997.9036407182157 -3333.1070333285111 0.96184500826761399 -1.2826473951285688 0.96184500826761399 -3330.5172480851984 0.1673008438225132 -1.2826473951285688 0.1673008438225132 -9999.3506641764834 -3326.9395229471211 2.0303069626088908 -3.5401514444167281 2.0303069626088908 -3328.1214042310685 -0.2417727843396249 -3.5401514444167281 -0.2417727843396249 -9997.2098256176032 -3331.2451692703235 0.19321787156709727 0.0058357293801086785 0.19321787156709727 -3330.0472405168216 -1.3278081424782959 0.0058357293801086785 -1.3278081424782959 -9999.695992417026 -3332.9475158855598 0.69273444729799072 2.3646101748903168 0.69273444729799072 -3330.1377114004767 -0.6957764300494883 2.3646101748903168 -0.6957764300494883 -10000.144196791747 -3331.5776555858179 1.1948370093188829 3.0337305824555187 1.1948370093188829 -3328.7277724741448 0.17804431796230347 3.0337305824555187 0.17804431796230347 -9998.198764102699 -3332.6493093732879 -0.489459142526734 3.4766540484200692 -0.489459142526734 -3332.9379197336079 -1.7514050510639159 3.4766540484200692 -1.7514050510639159 -9999.5192143644326 -3333.5860862767045 0.035269013234637991 2.7400946448301076 0.035269013234637991 -3334.911357267828 -0.33054804656728765 2.7400946448301076 -0.33054804656728765 -10000.246767973842 -3332.0841201988555 -0.94350018475621034 0.79444185010197543 -0.94350018475621034 -3335.224866300166 -0.78823386986226751 0.79444185010197543 -0.78823386986226751 -10003.218183659232 -3333.6824044276786 1.9423606409379848 -0.49835012109178933 1.9423606409379848 -3334.8833453963844 -0.12168544200540055 -0.49835012109178933 -0.12168544200540055 -10004.206004422136 -3335.4711457836643 0.55484442756212715 -1.1829931405392344 0.55484442756212715 -3334.816567777119 -2.1335347824496407 -1.1829931405392344 -2.1335347824496407 -10001.664935993247 -3334.7842891070177 1.7138406699263187 -0.64045315189196117 1.7138406699263187 -3332.3762594601421 -0.31854791874320654 -0.64045315189196117 -0.31854791874320654 -10003.854704107911 -3336.3547874629016 0.47299280703589724 -0.40595950086361365 0.47299280703589724 -3336.7314633720039 -0.76123830665787606 -0.40595950086361365 -0.76123830665787606 -10004.662499743205 -3332.0271649101473 -1.7927645564465093 -0.67883465672894094 -1.7927645564465093 -3330.4393536016928 -0.39872452468519182 -0.67883465672894094 -0.39872452468519182 -10001.079775875882 -3327.3017363274498 -1.7845155721934893 -1.2303371713869637 -1.7845155721934893 -3325.8469885038148 1.3797673877720626 -1.2303371713869637 1.3797673877720626 -9997.6600711780557 -3330.5960622215234 -0.96651703527919408 0.019024254840563248 -0.96651703527919408 -3327.6999060413905 0.81000257728402469 0.019024254840563248 0.81000257728402469 -10000.037138313652 -3332.9883487732018 -1.4611709331037219 -0.18085309293655882 -1.4611709331037219 -3331.5691854496317 -1.1080535474166027 -0.18085309293655882 -1.1080535474166027 -10002.530320590186 -3330.2518532516915 0.1187455021685957 0.010472393056261353 0.1187455021685957 -3329.4518059221882 -0.77666808198409854 0.010472393056261353 -0.77666808198409854 -10001.316851827947 -3330.4069864432918 0.048878399146434548 0.43995603596613364 0.048878399146434548 -3329.4625720845866 -0.91874683867990825 0.43995603596613364 -0.91874683867990825 -10001.443626218621 -3330.5525726439573 0.21853162922263758 0.29516959727152425 0.21853162922263758 -3330.3475894639914 -1.2221951774672561 0.29516959727152425 -1.2221951774672561 -10001.701277113638 -3330.5498176797846 0.1836017545859604 0.47511242770906392 0.1836017545859604 -3330.7178949770782 -0.97291132284226478 0.47511242770906392 -0.97291132284226478 -10001.793164750867 -3330.5751312343127 0.083283166773621131 0.62451783093092672 0.083283166773621131 -3330.8772982314363 -0.34699557426444017 0.62451783093092672 -0.34699557426444017 -10002.427674332555 -3330.5482348202049 0.058641903870494713 0.7363205721835584 0.058641903870494713 -3331.0255294897966 -0.56266821011195134 0.7363205721835584 -0.56266821011195134 -10002.458008043621 -3329.8517750446208 0.34534488865519064 0.6034576193801513 0.34534488865519064 -3329.8442875724427 -1.1190282619809295 0.6034576193801513 -1.1190282619809295 -10001.314952688743 -3329.4345489250718 0.076427007392744661 -0.041785852587963745 0.076427007392744661 -3328.972261728597 -0.64603783314805696 -0.041785852587963745 -0.64603783314805696 -9997.7241097511251 -3329.1513730361235 0.34534488865519042 1.4780314453687424 0.34534488865519042 -3329.1438855639458 0.46305562516045029 1.4780314453687424 0.46305562516045029 -9999.2137466632466 -3330.7240677822197 -0.23189334715123855 0.4781097480945391 -0.23189334715123855 -3330.6541973295157 0.18815493342845002 0.4781097480945391 0.18815493342845002 -10000.58180702075 -3331.0268753424716 -0.71683384468489453 0.87570172598043428 -0.71683384468489453 -3330.9416056337818 0.10885725101434218 0.87570172598043428 0.10885725101434218 -10000.221439198869 -3330.4200270159031 -0.16480677849254688 0.4693919294168154 -0.16480677849254688 -3330.3748892526351 -1.3131649211572949e-05 0.4693919294168154 -1.3131649211572949e-05 -9999.9280480219404 -3330.0415588952815 0.076427007392744661 1.3301117617784257 0.076427007392744661 -3329.5792716988071 0.42342066510855147 1.3301117617784257 0.42342066510855147 -9999.5451396617518 -3329.6141356156795 0.058641903870494824 0.94559738379939517 0.058641903870494824 -3330.0914302852707 -0.17940058277235948 0.94559738379939517 -0.17940058277235948 -9999.6557104300427 -3329.5311720844779 0.45682530700188184 0.5115114874097344 0.45682530700188184 -3330.0645707316799 0.24600844316972825 0.5115114874097344 0.24600844316972825 -10000.136176446855 -3330.3611669184356 0.09780561588831338 0.25759958063554222 0.09780561588831338 -3330.4565772498772 0.080976619210559875 0.25759958063554222 0.080976619210559875 -10000.57658396684 -3329.6410320297869 0.083283166773621353 0.83379464254630875 0.083283166773621353 -3329.9431990269104 0.036272053076061184 0.83379464254630875 0.036272053076061184 -9999.6253767189792 -3330.2886658576253 0.050641551111579641 0.22969473620287317 0.050641551111579641 -3330.4440670134031 0.13480634899451616 0.22969473620287317 0.13480634899451616 -10000.555331142517 -3330.3537387688557 0.030322725046410537 0.093851981840998633 0.030322725046410537 -3330.3851309275078 0.13078413630319119 0.093851981840998633 0.13078413630319119 -10000.320277626175 -3329.9846888456605 0.21853162922263725 -0.33889812531015195 0.21853162922263725 -3329.7797056656946 0.013158943416783586 -0.33889812531015195 0.013158943416783586 -9999.9976257187463 -3330.4543624625085 0.072952989845548211 -0.076626981443041586 0.072952989845548211 -3329.8870272146669 0.20070170620965655 -0.076626981443041586 0.20070170620965655 -10000.457495344059 -3330.9764526172071 -0.22619940353572376 -0.11853983628679998 -0.22619940353572376 -3330.6564150446943 0.14263772006597719 -0.11853983628679998 0.14263772006597719 -10000.780364840235 -3330.0542193422498 0.18360175458596062 0.17620820948286564 0.18360175458596062 -3330.2222966395434 0.25354900518595969 0.17620820948286564 0.25354900518595969 -10000.306369738264 -3330.335326044099 0.03720001250412075 0.18144475779081404 0.03720001250412075 -3330.3956605932212 0.25213081498736756 0.18144475779081404 0.25213081498736756 -10000.318306861411 -3329.6385734946916 0.1187455021685957 0.64010466178751813 0.1187455021685957 -3328.8385261651883 1.1993919188917062 0.64010466178751813 1.1993919188917062 -9999.4770125569485 -3330.4571790753225 -0.21457239315578192 0.3890452813157026 -0.21457239315578192 -3330.6841981018401 0.23957632728979661 0.3890452813157026 0.23957632728979661 -10000.522585037106 -3330.9175283753157 0.87879783197920824 0.76136614289498539 0.87879783197920824 -3330.067853165252 0.87682253040838987 0.76136614289498539 0.87682253040838987 -9999.886277398371 -3329.8636129988977 0.12812314578784112 0.29311919508290885 0.12812314578784112 -3330.9933128172265 0.073427470702881692 0.29311919508290885 0.073427470702881692 -10000.451472196846 -3329.7595868654212 0.04887839914643477 0.41178521843721683 0.04887839914643477 -3328.8151725067164 0.80393103917958797 0.41178521843721683 0.80393103917958797 -9999.5014274850128 -3330.1355754505571 -0.052376567292177434 0.18670734055012872 -0.052376567292177434 -3330.5850356666965 0.24402289872159599 0.18670734055012872 0.24402289872159599 -10000.315712981394 -3330.2694605092711 -0.21457239315578192 -0.13148047529466567 -0.21457239315578192 -3330.4964795357882 -0.028419043685971701 -0.13148047529466567 -0.028419043685971701 -9999.9594293389528 -3329.9885291007986 -0.052376567292177212 -0.18330825746670598 -0.052376567292177212 -3330.437989316938 -0.118187396441499 -0.18330825746670598 -0.118187396441499 -9999.8745739321203 -3330.201928734602 0.03720001250412075 -0.05255192862750846 0.03720001250412075 -3330.2622632837247 -0.0072638404384406385 -0.05255192862750846 -0.0072638404384406385 -9999.9181149329197 -3330.1904983009126 0.03032272504641037 -0.12585570297051163 0.03032272504641037 -3330.2218904595647 -0.15466102226673684 -0.12585570297051163 -0.15466102226673684 -9999.8305562223504 -3330.0223777867132 0.050641551111579641 0.119763535394668 0.050641551111579641 -3330.1777789424914 0.023626910272923851 0.119763535394668 0.023626910272923851 -9999.756466929779 -3330.0948788475234 0.097805615888313588 0.14766837983006553 0.097805615888313588 -3330.190289178965 -0.030202819514670409 0.14766837983006553 -0.030202819514670409 -9999.7777197541 -3330.389226842367 -0.16480677849254688 -0.033943561997148208 -0.16480677849254688 -3330.3440890790989 0.032303849136042118 -0.033943561997148208 0.032303849136042118 -9999.8356475013316 -3330.4900988934796 -0.23189334715123899 -0.082575344918041083 -0.23189334715123899 -3330.4202284407766 0.01927300208080851 -0.082575344918041083 0.01927300208080851 -9999.8799003545319 -3330.5001725857192 -0.12693822238703678 -0.045785131061165885 -0.12693822238703678 -3330.212796182941 0.18589990566033521 -0.045785131061165885 0.18589990566033521 -9999.6157839921398 -3330.5897091622219 -0.0013685776757422774 -0.17198833406291669 -0.0013685776757422774 -3330.1786506713943 0.16303110852459213 -0.17198833406291669 0.16303110852459213 -9999.6296317583765 -3329.8766255081405 0.36597448978620195 1.0009689324333522 0.36597448978620195 -3330.4764898074704 0.19141593896347331 1.0009689324333522 0.19141593896347331 -9999.1958293296957 -3329.9730393598256 0.22847886943598439 1.0824002903573273 0.22847886943598439 -3329.8300934730551 0.10998458096719332 1.0824002903573273 0.10998458096719332 -9999.058333709012 -3329.1612976080082 -0.077294856637443288 0.65297282037249715 -0.077294856637443288 -3329.7328575883639 0.032169680376227916 0.65297282037249715 0.032169680376227916 -9998.8310892998852 -3330.3494107612632 0.059605462216726607 0.337848986073368 0.059605462216726607 -3330.2481794851315 -0.2461486391712242 0.337848986073368 -0.2461486391712242 -9999.5624720383821 -3330.4903856564447 -0.12693822238703678 0.3656413701510246 -0.12693822238703678 -3330.2030092536666 -0.1526625240330759 0.3656413701510246 -0.1526625240330759 -9999.5864232043132 -3330.5593155841839 -0.2854747663617293 0.54355142087024433 -0.2854747663617293 -3329.7529287315151 -0.074172623168124119 0.54355142087024433 -0.074172623168124119 -9999.8073800337297 -3330.9073277680627 -0.31570916741399313 0.58902031704474211 -0.31570916741399313 -3331.0339548139327 0.0787725308437075 0.58902031704474211 0.0787725308437075 -10000.214639600305 -3330.5799222329465 -0.0013685776757422774 0.23943816715109278 -0.0013685776757422774 -3330.1688637421194 -0.17553132116881898 0.23943816715109278 -0.17553132116881898 -9999.6002709705517 -3329.538648325818 0.0042484161743588378 0.58541803269736192 0.0042484161743588378 -3331.2031944172304 -0.54033166381032061 0.58541803269736192 -0.54033166381032061 -9999.6179410858185 -3330.6970641242015 0.069803257283739914 0.33199725668555402 0.069803257283739914 -3330.3241485056374 -0.36295154894833104 0.33199725668555402 -0.36295154894833104 -9999.6683776342452 -3329.1567420176057 -0.15912226611738661 0.76068998780897346 -0.15912226611738661 -3329.685861362078 -0.89523478478940888 0.76068998780897346 -0.89523478478940888 -9999.1431312449768 -3330.7488616096634 0.069803257283739914 -0.047044440202171245 0.069803257283739914 -3330.3759459910998 0.070556393133301754 -0.047044440202171245 0.070556393133301754 -9999.8237700906357 -3330.2260832378743 0.12670215059778847 0.04299588195317483 0.12670215059778847 -3330.2383141326891 0.024670821587278624 0.04299588195317483 0.024670821587278624 -9999.7937276654193 -3330.4552322996615 0.059605462216726829 0.09232780382171768 0.059605462216726829 -3330.3540010235301 0.053688356956627104 0.09232780382171768 0.053688356956627104 -9999.8799366535786 -3330.2427665904215 0.082246083226218708 0.049219546433960204 0.082246083226218708 -3330.2610054614543 0.1046655275977173 0.049219546433960204 0.1046655275977173 -9999.8035713357494 -3330.34812353489 0.17185565929864993 0.13145777991121577 0.17185565929864993 -3330.3494317962468 0.20141667845336997 0.13145777991121577 0.20141667845336997 -9999.5814116326655 -3330.3505442056521 0.17185565929864993 0.41355364154333074 0.17185565929864993 -3330.3518524670089 -0.27133724703526241 0.41355364154333074 -0.27133724703526241 -9999.5886736449502 -3329.5299610143602 -0.37582402710919982 0.73029682609058 -0.37582402710919982 -3329.7788255979476 -0.74294255839481593 0.73029682609058 -0.74294255839481593 -9998.8472965979854 -3330.7555547514189 0.4871280670148343 0.19718199558434435 0.4871280670148343 -3331.0862512309482 0.066671256090558018 0.19718199558434435 0.066671256090558018 -10000.225568496706 -3330.8514445707306 -1.0327757950160235 0.6319259950569176 -1.0327757950160235 -3331.0575875842378 -0.85344494308719732 0.6319259950569176 -0.85344494308719732 -9999.4973579836478 -3330.518282137426 0.047851905345461243 0.34606964034128396 0.047851905345461243 -3330.6267183730783 0.017133054292571614 0.34606964034128396 0.017133054292571614 -10000.051367128739 -3329.9863060084813 0.25926488341338072 0.21712537514122232 0.25926488341338072 -3330.0708282728333 0.42227509516487771 0.21712537514122232 0.42227509516487771 -9999.7794005714422 -3330.0888746469295 0.20709315898948283 0.17790936724350104 0.20709315898948283 -3330.3505201773919 -0.081780519062931489 0.17790936724350104 -0.081780519062931489 -9999.874965707193 -3330.3468386117875 0.048719349281902469 -0.20054184466698644 0.048719349281902469 -3330.5726458082563 -0.26602520783308137 -0.20054184466698644 -0.26602520783308137 -10000.269295074875 -3329.7008260085336 0.1405171869459024 0.58733384204015238 0.1405171869459024 -3329.8813174859802 0.05206663006083545 0.58733384204015238 0.05206663006083545 -9999.6606528747398 -3330.0619451834164 0.093458168824600341 0.11321362078615493 0.093458168824600341 -3330.2100946716419 -0.29073389088807744 0.11321362078615493 -0.29073389088807744 -10000.52686886889 -3330.3086399430535 0.071725778921820416 -0.13900843877854641 0.071725778921820416 -3330.442487408151 -0.16287127228582676 -0.13900843877854641 -0.16287127228582676 -10000.227205807667 -3330.4111203498119 -0.097047567916010546 0.13767900548737089 -0.097047567916010546 -3330.0004615675339 -0.24972038480609626 0.13767900548737089 -0.24972038480609626 -10000.561754384462 -3330.2942042250324 0.15836861057126606 -0.042803588712558849 0.15836861057126606 -3330.4428926266282 -0.16504052263371705 -0.042803588712558849 -0.16504052263371705 -10000.223698182781 -3328.9216574209054 0.61799161315082873 0.3798710674918766 0.61799161315082873 -3329.6506615724616 0.056744551141491684 0.3798710674918766 0.056744551141491684 -9999.4081967494531 -3330.9428268673114 -0.64383981694636416 0.17352776762891153 -0.64383981694636416 -3329.9349428842265 -0.85551155935695533 0.17352776762891153 -0.85551155935695533 -9999.4772051659311 -3329.4303083662385 -0.21598259994505256 0.73228346754177664 -0.21598259994505256 -3329.3658155627222 -0.76686460456085115 0.73228346754177664 -0.76686460456085115 -9998.7191309271475 -3330.4596445954789 0.061653206783141595 0.21071332160420297 0.061653206783141595 -3330.4704949594175 -0.096265546439099126 0.21071332160420297 -0.096265546439099126 -9999.9976518898366 -3329.8302673123112 -0.36700352921938317 0.40313989779679105 -0.36700352921938317 -3329.7584981671948 -0.64781799937178164 0.40313989779679105 -0.64781799937178164 -9999.1549540979249 -3330.316406914988 0.061653206783141595 0.12736469499225223 0.061653206783141595 -3330.3272572789265 0.2507033609535938 0.12736469499225223 0.2507033609535938 -9999.5679388483586 -3330.10045300604 0.15836861057126606 0.23850862207109458 0.15836861057126606 -3330.2491414076358 0.24201597693536314 0.23850862207109458 0.24201597693536314 -9999.6424445258053 -3330.2527331079209 0.048719349281902469 0.013671476409399475 0.048719349281902469 -3330.4785403043898 -0.050304915986998822 0.013671476409399475 -0.050304915986998822 -9999.9869785632764 -3330.1639216842186 0.071725778921820416 0.070987207369398675 0.071725778921820416 -3330.2977691493161 0.082897866766018069 0.070987207369398675 0.082897866766018069 -9999.7930510311635 -3330.1140692762219 0.066368779865634719 -0.17377044013665 0.066368779865634719 -3330.3578232787486 -0.099939958041431964 -0.17377044013665 -0.099939958041431964 -9999.8596982596137 -3329.9532237705471 0.01700773607448558 -0.20231718637660379 0.01700773607448558 -3330.3526995974271 -0.070758220437710406 -0.20231718637660379 -0.070758220437710406 -9999.733272414036 -3330.3062072611756 0.046307616305972077 -0.14943067340209382 0.046307616305972077 -3330.4171977195092 -0.28236004196332942 -0.14943067340209382 -0.28236004196332942 -9999.9083102774021 -3330.2518789798924 0.070670484023437952 -0.1081878015465918 0.070670484023437952 -3330.2546785657823 -0.19019348858728335 -0.1081878015465918 -0.19019348858728335 -9999.8540984186511 -3330.4020823282099 0.095893623072546563 -0.23340461823045189 0.095893623072546563 -3330.4580829800789 -0.095777242220719927 -0.23340461823045189 -0.095777242220719927 -9999.9567664479437 -3331.0411975721368 -0.11957102849075096 -0.9888737932251388 -0.11957102849075096 -3330.6393238600299 -0.0099063206563414496 -0.9888737932251388 -0.0099063206563414496 -10000.20338994478 -3330.4364351558902 -0.11444145256793836 -0.4273013027941488 -0.11444145256793836 -3330.1266546025267 0.068649962030207234 -0.4273013027941488 0.068649962030207234 -9999.1310813659966 -3330.1015158504169 0.095893623072546563 -0.39627426696370094 0.095893623072546563 -3330.1575165022859 0.12599297773340368 -0.39627426696370094 0.12599297773340368 -9999.055067014564 -3330.467926416753 0.27011877032940723 -0.69605313370948352 0.27011877032940723 -3330.4491839133666 -0.067426219114167907 -0.69605313370948352 -0.067426219114167907 -10000.16529247956 -3330.01530617446 0.22193729852992738 -0.16346283902112191 0.22193729852992738 -3330.0535755025307 -0.33966441975326234 -0.16346283902112191 -0.33966441975326234 -10000.073747510154 -3329.8317467409611 0.3999431790265921 -0.25771245798659947 0.3999431790265921 -3329.7593507760316 -0.4751699893595287 -0.25771245798659947 -0.4751699893595287 -9999.8337892762793 -3330.0113472188395 0.046307616305972077 -0.30310292984358966 0.046307616305972077 -3330.1223376771732 -0.027368349092284916 -0.30310292984358966 -0.027368349092284916 -9999.023730150393 -3330.2316129396468 0.11951878278038536 -0.28881822476523666 0.11951878278038536 -3330.65206203055 -0.61979946686642506 -0.28881822476523666 -0.61979946686642506 -10000.277445833455 -3330.2840591265021 0.1822957217834229 -0.33856586620277085 0.1822957217834229 -3330.979597212724 -0.65585527213079331 -0.33856586620277085 -0.65585527213079331 -10000.251928981837 -3330.5097545369049 0.070670484023438007 0.032723112084568129 0.070670484023438007 -3330.5125541227944 -0.01921566947021347 0.032723112084568129 -0.01921566947021347 -10000.627725089687 -3330.0346110629348 0.46823492324827454 0.088465417251768486 0.46823492324827454 -3329.6591517341135 0.55122300580296724 0.088465417251768486 0.55122300580296724 -9999.8594555962918 -3329.2265356955959 0.20154743699025929 0.44344574547722004 0.20154743699025929 -3330.1408835246707 -0.0068559044461835583 0.44344574547722004 -0.0068559044461835583 -9999.5711737598722 -3330.925316470406 0.032228195824354634 0.53206469417455082 0.032228195824354634 -3330.3850831694226 -0.12328977294191645 0.53206469417455082 -0.12328977294191645 -10000.263614806987 -3330.3294378675741 0.12670215059778847 0.048904127041168977 0.12670215059778847 -3330.341668762389 0.042729370028609992 0.048904127041168977 0.042729370028609992 -10000.10379155452 -3330.5552588233604 0.082246083226218708 -0.12469859214797907 0.082246083226218708 -3330.5734976943932 0.012657211555961112 -0.12469859214797907 0.012657211555961112 -10000.741048034566 -3330.4009227899228 0.066368779865634719 -0.33941914968272613 0.066368779865634719 -3330.6446767924494 -0.14182114209415886 -0.33941914968272613 -0.14182114209415886 -10000.720258800719 -3329.9755906030709 0.20801129717545297 -0.76477205569972284 0.20801129717545297 -3330.2756280869012 -0.06262935005406689 -0.76477205569972284 -0.06262935005406689 -9999.9988195695223 -3329.0030336464697 -0.19751691254121817 -1.1528146729606306 -0.19751691254121817 -3329.9542451848174 0.0015374405523971291 -1.1528146729606306 0.0015374405523971291 -9999.5225792945603 -3330.7249779084141 0.17348065943449775 -0.20119871306360437 0.17348065943449775 -3330.3968384060227 -0.32847099890841491 -0.20119871306360437 -0.32847099890841491 -10000.739312983735 -3329.5120201179166 0.0048884987527317847 -0.92909436863828887 0.0048884987527317847 -3329.8787100059139 -0.30056956901262311 -0.92909436863828887 -0.30056956901262311 -9999.6309421176957 -3330.9457193801331 0.25926488341338105 0.15607155006091489 0.25926488341338105 -3331.0302416444847 0.99337883850466824 0.15607155006091489 0.99337883850466824 -10002.657640686397 -3330.8666448163572 0.20801129717545319 -0.78496017863290035 0.20801129717545319 -3331.1666823001874 0.3163638668142994 -0.78496017863290035 0.3163638668142994 -10002.671982209378 -3329.7174579223779 0.2070931589894828 0.13889588259326047 0.2070931589894828 -3329.9791034528398 0.027258758356310864 0.13889588259326047 0.027258758356310864 -9998.7607155335372 -3329.4305662456773 0.11951878278038536 0.88594611256576172 0.11951878278038536 -3329.8510153365801 -0.33031235107955581 0.88594611256576172 -0.33031235107955581 -9997.8743057515458 -3330.8185221245453 0.22193729852992727 -0.094925747881461575 0.22193729852992727 -3330.8567914526166 -0.93302475208065516 -0.094925747881461575 -0.93302475208065516 -10002.48339536041 -3329.7378098980303 0.25390906403579705 0.43676198468165239 0.25390906403579705 -3329.6253257812145 0.22166358346822079 0.43676198468165239 0.22166358346822079 -9997.8946942757939 -3329.7150846003346 0.27011877032940723 0.49039047625774401 0.27011877032940723 -3329.6963420969487 0.32077777056201739 0.49039047625774401 0.32077777056201739 -9997.9067670303011 -3333.1047096315333 0.9855157046363171 -0.85326140501546544 0.9855157046363171 -3331.2607755022609 0.83511567361955363 -0.85326140501546544 0.83511567361955363 -10000.322171780705 -3334.9521627511931 -0.16847807726669264 -1.2469327590036263 -0.16847807726669264 -3334.662448191707 0.076788694162367221 -1.2469327590036263 0.076788694162367221 -10001.240227925457 -3334.9850749092548 -0.20351615884230562 0.4728444505034024 -0.20351615884230562 -3334.8860063169982 -1.7112520169782206 0.4728444505034024 -1.7112520169782206 -10001.560777909614 -3330.2058876252145 -0.012406887442438085 -1.4529886283113043 -0.012406887442438085 -3332.2226119474831 -3.3812296719631592 -1.4529886283113043 -3.3812296719631592 -9999.4437000829075 -3332.3317072156733 -1.6323896314021562 -0.47451844964545842 -1.6323896314021562 -3332.6044989448947 -1.1946160855384389 -0.47451844964545842 -1.1946160855384389 -10000.070626729876 -3334.4679044986156 -0.017029087116150178 -0.4109319952878987 -0.017029087116150178 -3332.9315962467226 -3.6862509754205917 -0.4109319952878987 -3.6862509754205917 -10000.942882789386 -3331.9741005224741 -1.1842220365616569 -0.0093767561843378644 -1.1842220365616569 -3332.1239274073619 -0.55356754958802412 -0.0093767561843378644 -0.55356754958802412 -9999.1469140701665 -3330.5510662709321 0.23076752162831846 0.39025315523213067 0.23076752162831846 -3332.5360492718692 3.258032395031023 0.39025315523213067 3.258032395031023 -9999.6083540754335 -3330.1030728640258 1.0439606379257618 3.5593094471103583 1.0439606379257618 -3330.8637466346868 -1.1480319570105431 3.5593094471103583 -1.1480319570105431 -9999.0782800644101 -3333.3914309806833 -0.87571911574851946 -3.145882075163918 -0.87571911574851946 -3331.0080831099644 0.99515021492614331 -3.145882075163918 0.99515021492614331 -10000.330679019919 -3334.4556230539361 0.07310858110249735 -2.4628283057113229 0.07310858110249735 -3335.6768209058582 0.072769332748453652 -2.4628283057113229 0.072769332748453652 -10001.763911487205 -3332.214534309081 1.2252193072064279 -0.47307061026350672 1.2252193072064279 -3335.385286164093 -0.10480498999015042 -0.47307061026350672 -0.10480498999015042 -10004.063605548536 -3333.0406766908613 -0.61808543427780993 -3.7852987685688544 -0.61808543427780993 -3333.9497506120092 0.25397729116773382 -3.7852987685688544 0.25397729116773382 -10000.584182015451 -3334.2926367974878 1.9290786236449988 0.99113900514521447 1.9290786236449988 -3334.3625791881977 0.15831138747398654 0.99113900514521447 0.15831138747398654 -10004.327454426662 -3334.7378933565374 0.64050457952370643 1.672126226691244 0.64050457952370643 -3333.8286298980106 2.5640272423870547 1.672126226691244 2.5640272423870547 -9999.6882060115313 -3331.082996639318 -1.7792484626812013 2.067192298871305 -1.7792484626812013 -3332.4664618944339 2.5551191965407156 2.067192298871305 2.5551191965407156 -9998.4339398313332 -3336.8207891489037 0.48958088431190327 0.93499812222648959 0.48958088431190327 -3337.098023904965 0.064197419062887562 0.93499812222648959 0.064197419062887562 -10005.643353693709 -3330.3360996504812 0.14051718694590243 -0.11656062017482327 0.14051718694590243 -3330.5165911279278 1.2274688404613698 -0.11656062017482327 1.2274688404613698 -10001.566473800585 -3330.6684826634855 -0.3670035292193834 -0.035181128424483177 -0.3670035292193834 -3330.5967135183687 1.2256338758953831 -0.035181128424483177 1.2256338758953831 -10001.669600151447 -3330.4197220637589 0.093458168824600341 -0.3699887556149406 0.093458168824600341 -3330.5678715519848 0.80262465752275602 -0.3699887556149406 0.80262465752275602 -10001.600199509918 -3334.9414026496561 -0.32431946913953802 -1.5265792322052003 -0.32431946913953802 -3334.6867542516361 -0.38384450441999496 -1.5265792322052003 -0.38384450441999496 -9999.953614423217 -3333.0779107001354 -0.16603260248848842 0.1880826162265441 -0.16603260248848842 -3332.2624638254556 4.0480708456517354 0.1880826162265441 4.0480708456517354 -9998.8816688292918 -3333.4459729732389 0.26716745010142284 -0.091029105167508728 0.26716745010142284 -3333.6594170134504 0.46056059898506652 -0.091029105167508728 0.46056059898506652 -9999.3229226945678 -3325.4533596762135 2.4770328534381245 0.11637476329815399 2.4770328534381245 -3326.4168194693812 0.71119939559957857 0.11637476329815399 0.71119939559957857 -9996.2152573917483 -3329.9257585758564 -1.1755851470666094 -0.27163478802458485 -1.1755851470666094 -3332.743108505771 -0.80139218758608877 -0.27163478802458485 -0.80139218758608877 -9998.2137919683009 -3330.8833894912514 -0.6142526599943936 -0.73899306065771775 -0.6142526599943936 -3333.6972290592203 -0.24965641239608138 -0.73899306065771775 -0.24965641239608138 -9999.3928672429665 -3329.7222998359434 -0.37582402710919988 -0.96679130347456521 -0.37582402710919988 -3329.9711644195313 -0.42575974017995577 -0.96679130347456521 -0.42575974017995577 -9999.4243130627347 -3328.8408984674343 -0.21598259994505262 -0.36749045075777076 -0.21598259994505262 -3328.7764056639171 0.35284910159816718 -0.36749045075777076 0.35284910159816718 -9996.9509012307335 -3330.0452672265801 -0.23230495279180238 -0.81557529518358518 -0.23230495279180238 -3330.8765265389729 0.67250483074888301 -0.81557529518358518 0.67250483074888301 -9998.478161046738 -3328.0472979486476 0.58047116015481237 -0.15107682263345623 0.58047116015481237 -3329.2262251964557 1.1839816534249894 -0.15107682263345623 1.1839816534249894 -9997.136178751527 -3329.7717462699293 -0.65374188304323477 2.2512880649537057 -0.65374188304323477 -3332.1700329039172 3.3570189207566221 2.2512880649537057 3.3570189207566221 -9998.3032427587132 -3328.8140225602083 -1.3556213106745774 2.0796941823435335 -1.3556213106745774 -3328.9052798411699 0.65093250626059307 2.0796941823435335 0.65093250626059307 -9997.2476235655959 -3334.9564762122668 -0.72726570082128117 0.72163604300994288 -0.72726570082128117 -3332.428249060843 1.1285802932606266 0.72163604300994288 1.1285802932606266 -10003.723916193967 -3326.9845459520116 -1.03011839512265 1.2757676424716919 -1.03011839512265 -3328.8981820672307 0.58227062791263506 1.2757676424716919 0.58227062791263506 -9999.3204215503174 -3332.1403159025358 -1.753708296287618 1.2795471402565459 -1.753708296287618 -3330.798195620036 0.58279931924554396 1.2795471402565459 0.58279931924554396 -10001.08436742615 -3333.5316303877748 -1.3682424642193642 0.4381764877762544 -1.3682424642193642 -3331.9776903734823 1.5126916629207576 0.4381764877762544 1.5126916629207576 -10003.255065066005 -3330.7267023578524 -0.87830861613384337 -0.13015367748285023 -0.87830861613384337 -3328.3826456995466 -1.1403023278168942 -0.13015367748285023 -1.1403023278168942 -10000.127076559857 -3330.434895068996 -0.0050285012835109555 -0.43219359528666246 -0.0050285012835109555 -3329.5916533404056 0.88691741013644787 -0.43219359528666246 0.88691741013644787 -10001.359938208332 -3330.3248856794949 -0.21166710125441512 -0.053298421647468786 -0.21166710125441512 -3329.6344967702457 0.93991878911674576 -0.053298421647468786 0.93991878911674576 -10001.343146718416 -3329.4866703283205 -0.21166710125441512 0.38502260457289594 -0.21166710125441512 -3328.7962814190714 -0.93353308615132846 0.38502260457289594 -0.93353308615132846 -9998.8285006648948 -3329.6096646897868 0.068150624436928653 -0.79751119799357184 0.068150624436928653 -3328.9628775937044 -1.2591139942678637 -0.79751119799357184 -1.2591139942678637 -9999.4402822060274 -3329.4996126270307 -0.063470979447610265 -0.19072310332740017 -0.063470979447610265 -3330.3741688016407 -0.18952261397862458 -0.19072310332740017 -0.18952261397862458 -10000.143804488984 -3331.4236174900634 0.0082335149710759392 -0.3340016067995748 0.0082335149710759392 -3329.4730655199642 -0.76684228496492324 -0.3340016067995748 -0.76684228496492324 -10000.02131738766 -3330.3994306831519 0.0064647300407392472 -0.04633363008622382 0.0064647300407392472 -3330.6839990492199 -0.22071032188614481 -0.04633363008622382 -0.22071032188614481 -10000.310281402959 -3330.0922793235309 -0.053209245720457599 -0.21642421063370421 -0.053209245720457599 -3330.6093987048321 -0.24450327557769924 -0.21642421063370421 -0.24450327557769924 -10000.214843476955 -3329.8124332806656 -0.0050285012835109555 -0.40262853265539889 -0.0050285012835109555 -3328.9691915520748 -0.77644209504092032 -0.40262853265539889 -0.77644209504092032 -9999.4925528433396 -3329.7246311314479 0.075938741895214434 -0.26395550533106871 0.075938741895214434 -3330.8010147805558 -0.090286593460405129 -0.26395550533106871 -0.090286593460405129 -10000.306770609819 -3330.2973809565528 -0.17975891173290548 0.054215022054904694 -0.17975891173290548 -3330.5354400780279 -0.020021050340801594 0.054215022054904694 -0.020021050340801594 -9999.9295496417326 -3329.9650474888203 -0.053209245720457599 0.15411475083965342 -0.053209245720457599 -3330.4821668701215 0.10208811285565389 0.15411475083965342 0.10208811285565389 -9999.8331479728222 -3330.2056794641594 0.0064647300407392472 0.2349785806992486 0.0064647300407392472 -3330.4902478302274 0.18634617768293538 0.2349785806992486 0.18634617768293538 -9999.7290277459833 -3330.8671944744874 0.85128912886449393 -0.81744341331909709 0.85128912886449393 -3330.197700022035 -1.0060624044826909 -0.81744341331909709 -1.0060624044826909 -9999.6649508518876 -3330.3875096954498 -0.20134155808370979 -0.067552866370078846 -0.20134155808370979 -3330.3629206378864 -0.083612143440404907 -0.067552866370078846 -0.083612143440404907 -9999.719119468431 -3330.529862115498 -0.11444145256793836 -0.094888910747613409 -0.11444145256793836 -3330.2200815621345 -0.20060907881216394 -0.094888910747613409 -0.20060907881216394 -9999.4113622448203 -3330.2368659557833 -0.24640411641441018 0.018205480217147851 -0.24640411641441018 -3330.3343655604967 -0.070506671963812551 0.018205480217147851 -0.070506671963812551 -9999.6743197641663 -3330.1606507944566 0.01700773607448558 -0.50559490444902622 0.01700773607448558 -3330.5601266213366 -0.22731486921657051 -0.50559490444902622 -0.22731486921657051 -10000.355553485764 -3330.4607130658082 -0.66227658617508811 -0.84976596071464883 -0.66227658617508811 -3330.6443419740494 -0.11958821664984498 -0.84976596071464883 -0.11958821664984498 -10000.059523346703 -3329.0009236164165 0.21549010891304698 -1.4891592835228948 0.21549010891304698 -3329.1000089764825 -0.59465365149321769 -1.4891592835228948 -0.59465365149321769 -9998.9239603759834 -3330.4789868560451 -0.17975891173290548 -0.44060205523828699 -0.17975891173290548 -3330.7170459775202 -0.30620472109876573 -0.44060205523828699 -0.30620472109876573 -10000.474367340208 -3330.4944048544735 -0.24640411641441018 -0.51910037617017224 -0.24640411641441018 -3330.5919044591869 -0.25812651160777023 -0.51910037617017224 -0.25812651160777023 -10000.446936460234 -3330.0272503857564 0.25390906403579705 -1.5154338688280404 0.25390906403579705 -3329.9147662689406 -0.017121297032822724 -1.5154338688280404 -0.017121297032822724 -9998.7630157389722 -3330.488208776108 -0.20134155808370979 -0.59562061884707873 -0.20134155808370979 -3330.4636197185446 -0.080750078306664363 -0.59562061884707873 -0.080750078306664363 -10000.021216710404 -3329.942748463422 0.025036899206772656 -1.510200989840996 0.025036899206772656 -3329.4724678557345 -0.59786921584236552 -1.510200989840996 -0.59786921584236552 -9999.2525313075475 -3329.8478337428173 0.29640907793183102 -1.1675481358886373 0.29640907793183102 -3330.5326894387749 -0.4301286421750774 -1.1675481358886373 -0.4301286421750774 -9998.8726423706976 -3330.9843391502372 -0.10029865434173546 -0.85840357738243256 -0.10029865434173546 -3330.0599994272952 0.23122388836327445 -0.85840357738243256 0.23122388836327445 -10000.044344231123 -3329.8755777712227 0.025036899206772656 -0.13410622575702291 0.025036899206772656 -3329.4052971635347 0.54611116246087477 -0.13410622575702291 0.54611116246087477 -9999.0510192309466 -3330.4418999860013 0.068150624436929319 -0.25279310706832803 0.068150624436929319 -3329.795112889919 0.66810759801410313 -0.25279310706832803 0.66810759801410313 -10001.936988094671 -3330.3498102334975 0.0048884987527320067 -0.68689607200394676 0.0048884987527320067 -3330.7165001214948 0.95952226706322108 -0.68689607200394676 0.95952226706322108 -10002.144312464436 -3329.9925266755904 0.21549010891304654 -0.695720767685998 0.21549010891304654 -3330.091612035656 0.93938943696502974 -0.695720767685998 0.93938943696502974 -10001.898769553502 -3332.5927711864288 0.86786580264132107 -2.4076419286980575 0.86786580264132107 -3329.9080191786579 0.19867259244326807 -2.4076419286980575 0.19867259244326807 -9999.8559980885293 -3333.1051683669657 0.50106219302246813 -2.1727413309830639 0.50106219302246813 -3330.3581540235691 0.26091577291232992 -2.1727413309830639 0.26091577291232992 -10000.05660965553 -3327.4395860407967 -1.735385881193769 1.1453542488077737 -1.735385881193769 -3326.4540380077606 -1.7713327198501356 1.1453542488077737 -1.7713327198501356 -9997.6641850700362 -3329.4254995208212 -0.51957032683355564 0.21881448670031123 -0.51957032683355564 -3327.643758395961 -0.48248035103200948 0.21881448670031123 -0.48248035103200948 -9997.2114709649068 -3332.5108257037105 1.3822527977410952 -0.66719714791957818 1.3822527977410952 -3332.1608427382989 1.1789927256713022 -0.66719714791957818 1.1789927256713022 -10000.398717607759 -3332.4899510552686 1.0494339269446626 -0.4231476177143525 1.0494339269446626 -3330.7927970028727 0.27965226701536938 -0.4231476177143525 0.27965226701536938 -9998.7648435002466 -3331.1945669184229 0.2038120044703029 -0.5194143253405894 0.2038120044703029 -3329.883344294376 0.51357491077688289 -0.5194143253405894 0.51357491077688289 -9999.4602568610972 -3328.8662113174682 0.66367384272513663 2.0622213490330523 0.66367384272513663 -3328.2305616285794 0.56399733926991757 2.0622213490330523 0.56399733926991757 -9999.7806621842537 -3328.6722823478831 1.1485878792940099 2.6459724668047668 1.1485878792940099 -3329.5237974463939 0.24375802453194986 2.6459724668047668 0.24375802453194986 -9997.49317643428 -3329.4964282883361 -0.010609915201081788 -0.66995492563455628 -0.010609915201081788 -3330.9774533799023 0.50198240270128736 -0.66995492563455628 0.50198240270128736 -9999.1304901241638 -3329.2197555555786 -0.12136208920552505 -0.75811192552373541 -0.12136208920552505 -3329.63399522892 -0.025978395068328552 -0.75811192552373541 -0.025978395068328552 -9998.4909492714251 -3330.4998493453541 -0.027925337784682869 0.097453661193867447 -0.027925337784682869 -3330.2127792932415 -0.20285858053618711 0.097453661193867447 -0.20285858053618711 -9999.4020334850611 -3326.8455261298773 -1.1872478330791592 -1.286818368220338 -1.1872478330791592 -3328.5704279980164 -0.49624118598444511 -1.286818368220338 -0.49624118598444511 -9999.3171347798962 -3330.5332158772012 -0.20746822474737381 0.092292217580506986 -0.20746822474737381 -3329.6123289743082 -0.97450987012803125 0.092292217580506986 -0.97450987012803125 -10001.512622799528 -3330.7183627360764 -0.4127158215094775 0.099777583228387812 -0.4127158215094775 -3330.2236684608997 -1.2016618357541233 0.099777583228387812 -1.2016618357541233 -10001.711744385895 -3328.9565651091211 -1.4863538101832563 -1.4800196919059574 -1.4863538101832563 -3328.9526930944676 -0.51747990927283738 -1.4800196919059574 -0.51747990927283738 -9998.4842376165871 -3331.8170013129093 -1.7058566433294637 -0.97803868545543082 -1.7058566433294637 -3332.9986556720128 -2.1550730212686062 -0.97803868545543082 -2.1550730212686062 -10000.296921849282 -3330.2728496700438 -0.79846057143846383 -1.4039381035351237 -0.79846057143846383 -3332.7310805375182 -2.8262625608330891 -1.4039381035351237 -2.8262625608330891 -9999.75790561758 -3328.3126055430412 0.39476156176755128 -0.29070723834911405 0.39476156176755128 -3329.4615655166513 -1.4361585930810179 -0.29070723834911405 -1.4361585930810179 -9998.4504658306123 -3329.3934354415278 -0.40629722291437853 -0.17741422705112608 -0.40629722291437853 -3330.496284304169 -1.5443734095968544 -0.17741422705112608 -1.5443734095968544 -9997.7404938105174 -3330.2710253492905 -0.057114717899456657 -0.017674629746945669 -0.057114717899456657 -3332.9782182930885 -1.985847003811313 -0.017674629746945669 -1.985847003811313 -9998.5803747846876 -3330.3414061829149 -0.40494303300428292 0.46990334792462818 -0.40494303300428292 -3333.3249062757468 -1.7111552356926296 0.46990334792462818 -1.7111552356926296 -10000.009585717717 -3329.4839943634402 1.02907919367989 1.6111735455220448 1.02907919367989 -3330.8520097185647 1.3354368114678197 1.6111735455220448 1.3354368114678197 -10000.590469968243 -3327.5320546019175 1.5118683689310832 0.69006964811433136 1.5118683689310832 -3327.5737455735616 -0.71382730109689874 0.69006964811433136 -0.71382730109689874 -9996.5445139179628 -3328.9303150678529 -0.12136208920552505 1.1940839279859574 -0.12136208920552505 -3329.3445547411934 0.21280648543271496 1.1940839279859574 0.21280648543271496 -9997.6226278082431 -3328.8666313374697 -0.15813742803938341 1.0388310426637872 -0.15813742803938341 -3329.2375750865772 0.47833976811125467 1.0388310426637872 0.47833976811125467 -9997.5799619619938 -3329.5545268221686 -0.33713145649768017 0.12992297279970444 -0.33713145649768017 -3329.2837617491132 -0.7715487717864562 0.12992297279970444 -0.7715487717864562 -9998.8025797458722 -3329.2693604309311 -0.3933161279581816 0.59424255142494076 -0.3933161279581816 -3329.7524174800806 -0.32071341839260015 0.59424255142494076 -0.32071341839260015 -9997.8093548337347 -3330.5348247531174 0.02134588721636993 -0.22130011893887058 0.02134588721636993 -3330.5526670469053 -0.025812458072323352 -0.22130011893887058 -0.025812458072323352 -10000.328400040909 -3329.4431366153794 -0.33713145649768039 -0.9912849033985367 -0.33713145649768039 -3329.1723715423241 0.48514194522340404 -0.9912849033985367 0.48514194522340404 -9998.468409125504 -3331.0199560917954 0.42082422612092701 -0.0029727176261076238 0.42082422612092701 -3330.9405332821852 -0.62920563171226718 -0.0029727176261076238 -0.62920563171226718 -10000.546649434402 -3330.2586107194052 0.15191216908700844 -0.39065325452793331 0.15191216908700844 -3330.2137909677117 -0.024487377496654972 -0.39065325452793331 -0.024487377496654972 -9999.1084093481713 -3329.5736091229692 -0.3933161279581816 -0.84519776672232183 -0.3933161279581816 -3330.0566661721186 0.081399764921613382 -0.84519776672232183 0.081399764921613382 -9998.7221009098485 -3330.4064223857458 -0.027925337784682869 -0.23495873085266794 -0.027925337784682869 -3330.1193523336333 0.066400460306184073 -0.23495873085266794 0.066400460306184073 -9999.1217526062374 -3330.3329292761005 -0.84167184100209114 -0.46259299652501795 -0.84167184100209114 -3330.7187967543441 0.76905040551173443 -0.46259299652501795 0.76905040551173443 -9999.0774635936887 -3329.2498750779187 -0.15813742803938341 -0.76847475939075593 -0.15813742803938341 -3329.6208188270261 0.67048358586544055 -0.76847475939075593 0.67048358586544055 -9998.7296931833407 -3330.4828693507807 0.015864635829912682 -0.28882437674747052 0.015864635829912682 -3330.1826838352454 0.15852835698842682 -0.28882437674747052 0.15852835698842682 -9999.1566972228957 -3330.6012934306027 0.015864635829912682 0.01047736450436787 0.015864635829912682 -3330.3011079150674 -0.20586233619269478 0.01047736450436787 -0.20586233619269478 -9999.5119694623609 -3330.2309766603903 0.02134588721636993 -0.20945664500095518 0.02134588721636993 -3330.2488189541782 -0.3749475850690942 -0.20945664500095518 -0.3749475850690942 -9999.4168557627345 -3330.3812498924863 0.15191216908700844 -0.19008318509713718 0.15191216908700844 -3330.3364301407928 -0.42849017012787272 -0.19008318509713718 -0.42849017012787272 -9999.4763268674142 -3330.1147429279517 0.13458959748479871 -0.25573330941006134 0.13458959748479871 -3330.1924947868483 -0.28775137882189483 -0.25573330941006134 -0.28775137882189483 -9999.6778219471962 -3330.1826049550673 -0.016270430023390195 -0.2583677237869324 -0.016270430023390195 -3330.4365727819704 -0.20780706720688613 -0.2583677237869324 -0.20780706720688613 -9999.7558069527549 -3329.9170500864398 -0.41271582150947772 -0.3330317339496105 -0.41271582150947772 -3329.4223558112631 0.74126604580095545 -0.3330317339496105 0.74126604580095545 -9999.3078064369856 -3330.3285620013867 0.13458959748479871 0.026131594990147278 0.13458959748479871 -3330.4063138602833 0.13790073137420222 0.026131594990147278 0.13790073137420222 -10000.319279167497 -3330.8282461202416 -0.8101108737817353 -0.31696968193227804 -0.8101108737817353 -3329.8517386944491 0.76132291175508726 -0.31696968193227804 0.76132291175508726 -9999.6429511662336 -3329.3960311508549 0.56547391633321475 -0.20164190808645799 0.56547391633321475 -3329.6868707076669 -0.0012650279224999395 -0.20164190808645799 -0.0012650279224999395 -9999.8272525555349 -3330.3964240285013 -0.016270430023390195 0.023497180611457225 -0.016270430023390195 -3330.6503918554049 0.21784504298739193 0.023497180611457225 0.21784504298739193 -10000.397264173058 -3329.7319032275641 -0.20746822474737359 -0.34051709959567233 -0.20746822474737359 -3328.8110163246711 0.96841801142807071 -0.34051709959567233 0.96841801142807071 -9999.1086848506184 -3331.5507503582444 0.011985050866898384 0.28154677420752705 0.011985050866898384 -3329.3868294187787 0.78304163373309166 0.28154677420752705 0.78304163373309166 -10000.092132586235 -3329.8901739680923 -0.085918354832193122 -0.25219189749077486 -0.085918354832193122 -3330.4219433283815 -0.12923588748708426 -0.25219189749077486 -0.12923588748708426 -9999.8459736518053 -3330.3823092003131 -0.0030639479503764555 -0.00019015508587472141 -0.0030639479503764555 -3330.2660231469017 -0.001789468917195336 -0.00019015508587472141 -0.001789468917195336 -9999.9127361868195 -3330.2687972150288 0.023184019104327103 -0.041724361486558337 0.023184019104327103 -3330.2445251742029 -0.058137579922913574 -0.041724361486558337 -0.058137579922913574 -9999.849429794609 -3330.3094456919789 -0.02312870628559649 -0.049475612784590339 -0.02312870628559649 -3330.2341687003682 -0.021813819472299656 -0.049475612784590339 -0.021813819472299656 -9999.8182784966448 -3330.3542587304855 -0.046437845946132428 -0.03510286302480381 -0.046437845946132428 -3330.2813922488349 -0.0038664043458993547 -0.03510286302480381 -0.0038664043458993547 -9999.8412876433904 -3330.3084496821448 -0.012623028863406383 -0.050215028253660421 -0.012623028863406383 -3330.2283933793678 0.00062458705360768363 -0.050215028253660421 0.00062458705360768363 -9999.8165856639389 -3330.3592700543604 -0.012623028863405938 -0.098712185521435458 -0.012623028863405938 -3330.2792137515844 -0.074400332854565931 -0.098712185521435458 -0.074400332854565931 -9999.9690467805922 -3330.3602660641964 -0.02312870628559649 -0.097972770056003355 -0.02312870628559649 -3330.2849890725838 -0.096838739369559335 -0.097972770056003355 -0.096838739369559335 -9999.9707396132981 -3330.1024604270051 0.12212580820709218 -0.22226685745863506 0.12212580820709218 -3330.310270939458 -0.2459614418912679 -0.22226685745863506 -0.2459614418912679 -9999.704195360111 -3330.4100565301706 -0.05590418608588571 -0.12149895128277421 -0.05590418608588571 -3330.2686602648373 -0.15511886427020727 -0.12149895128277421 -0.15511886427020727 -9999.8971382309828 -3330.3842081343864 -0.023113734804023178 -0.036766822122444864 -0.023113734804023178 -3330.4370289433109 -0.28606741091039112 -0.036766822122444864 -0.28606741091039112 -9999.9327683016563 -3330.3424481816228 -0.035035728081623974 -0.095772249893343542 -0.035035728081623974 -3330.2965513442805 -0.12299364137743396 -0.095772249893343542 -0.12299364137743396 -9999.8872089137076 -3330.2522268879693 -0.024201748763595876 -0.085568611074450018 -0.024201748763595876 -3330.2534537444208 -0.11760018067980127 -0.085568611074450018 -0.11760018067980127 -9999.5620353149352 -3330.3172352915826 0.18618246202101918 -0.084946920717811736 0.18618246202101918 -3330.0602643245747 -0.23953011217054154 -0.084946920717811736 -0.23953011217054154 -9999.3912817631317 -3330.2628299594262 -0.030744297158725509 -0.048998391470377101 -0.030744297158725509 -3330.24510447804 -0.05187299456429173 -0.048998391470377101 -0.05187299456429173 -9999.5625987662061 -3330.2491293442781 -0.038404291641543409 -0.03012727194254694 -0.038404291641543409 -3330.2681393145949 -0.084148789672326529 -0.03012727194254694 -0.084148789672326529 -9999.5649323215584 -3330.3576192205419 -0.053498085233750547 -0.041606580714869779 -0.053498085233750547 -3330.3247491909242 0.0092962670905762934 -0.041606580714869779 0.0092962670905762934 -9999.7475375694085 -3330.3200814080647 -0.030744297158725398 -0.055643964151386172 -0.030744297158725398 -3330.3023559266785 0.0075558008184088976 -0.055643964151386172 0.0075558008184088976 -9999.7343531121223 -3330.3087590118539 -0.024201748763595821 -0.077612379820493516 -0.024201748763595821 -3330.3099858683054 -0.055416493303710013 -0.077612379820493516 -0.055416493303710013 -9999.7316316865799 -3330.3656209411656 0.018426490684275973 -0.011210102910808928 0.018426490684275973 -3330.3711236124618 -0.094311225979254232 -0.011210102910808928 -0.094311225979254232 -9999.9052853357134 -3330.2822427553492 -0.035035728081624196 -0.082160388632473769 -0.035035728081624196 -3330.2363459180087 -0.0428471252143936 -0.082160388632473769 -0.0428471252143936 -9999.7065926348805 -3330.3023701732927 -0.00049036759401757668 -0.039920330204040511 -0.00049036759401757668 -3330.2979399635824 -0.039314267323788954 -0.039920330204040511 -0.039314267323788954 -9999.7802399163738 -3330.3463683698028 -0.00049036759401757668 -0.027894254224520409 -0.00049036759401757668 -3330.3419381600925 -0.037443801564222667 -0.027894254224520409 -0.037443801564222667 -9999.9122345059077 -3330.3343063510802 -0.0080653369624462123 -0.029437457218591589 -0.0080653369624462123 -3330.3210566803609 -0.033178839185893594 -0.029437457218591589 -0.033178839185893594 -9999.9039986312928 -3330.32668288063 -0.0080653369624459903 -0.029721913637331454 -0.0080653369624459903 -3330.3134332099107 -0.043149987592187244 -0.029721913637331454 -0.043149987592187244 -9999.8811282199385 -3330.3620593680444 -0.0091124390165139291 -0.011478684751637047 -0.0091124390165139291 -3330.342303532243 -0.010113260383150191 -0.011478684751637047 -0.010113260383150191 -9999.9198864809077 -3330.3166060185704 -0.0091124390165139291 -0.024364852150029037 -0.0091124390165139291 -3330.296850182769 -0.011356606361005106 -0.024364852150029037 -0.011356606361005106 -9999.7835264324931 -3330.3122019556686 -0.011581911114844079 -0.02071953468657739 -0.011581911114844079 -3330.3029434094733 -0.017591293157238397 -0.02071953468657739 -0.017591293157238397 -9999.7839487234414 -3330.3744196415955 -0.016650601031160062 -0.00012734420670312829 -0.016650601031160062 -3330.3699319476564 0.0012673939236265142 -0.00012734420670312829 0.0012673939236265142 -9999.9524780480206 -3330.3594639884177 -0.0083915690642279994 -0.013480566663929494 -0.0083915690642279994 -3330.3428266875035 -0.011538265993294772 -0.013480566663929494 -0.011538265993294772 -9999.915730542416 -3330.380353092296 -0.013334486888454733 0.0033444384898757562 -0.013334486888454733 -3330.3597237169161 -0.0046704915639566025 0.0033444384898757562 -0.0046704915639566025 -9999.9514093530088 -3330.3613635406437 -0.010548949259925056 -0.012691715644905344 -0.010548949259925056 -3330.3404530283187 -0.018868425959226443 -0.012691715644905344 -0.018868425959226443 -9999.9543225080124 -3330.3663310225311 -0.0049235254400789019 -0.0099947868011440733 -0.0049235254400789019 -3330.3556991287842 -0.028644909893046133 -0.0099947868011440733 -0.028644909893046133 -9999.9468976885328 -3330.3722762779053 -0.00395539661392183 -0.0068706573165400187 -0.00395539661392183 -3330.360582722702 -0.034956131115905009 -0.0068706573165400187 -0.034956131115905009 -9999.9620831159191 -3330.3535665462568 -0.0048171030787360625 -0.006876771312818164 -0.0048171030787360625 -3330.3257930091659 -0.016086195730167674 -0.006876771312818164 -0.016086195730167674 -9999.9679208066082 -3330.356200906841 -0.003696654532898469 -0.0070206681411946192 -0.003696654532898469 -3330.3334227075102 -0.011719482383341528 -0.0070206681411946192 -0.011719482383341528 -9999.9704868213375 -3330.3455316323689 -0.002032910306510427 -0.017964365320949582 -0.002032910306510427 -3330.3218197272017 -0.025452443231188226 -0.017964365320949582 -0.025452443231188226 -9999.9457062056608 -3330.347494955924 -0.0086900649434918376 -0.019620944225607673 -0.0086900649434918376 -3330.3358567432551 -0.020099661721360462 -0.019620944225607673 -0.020099661721360462 -9999.9420531102005 -3330.3231460461539 -0.0059307569530175908 -0.019386113606742583 -0.0059307569530175908 -3330.3136692437638 -0.01896007516188547 -0.019386113606742583 -0.01896007516188547 -9999.9097946468755 -3330.3298350235546 0.00075402469959295892 -0.025362042619235581 0.00075402469959295892 -3330.3154550490599 -0.027268636193184648 -0.025362042619235581 -0.027268636193184648 -9999.9325377035566 -3330.3215852791509 0.00075402469959318097 -0.019027239577553701 0.00075402469959318097 -3330.3072053046581 -0.029850517337763449 -0.019027239577553701 -0.029850517337763449 -9999.9077884703511 -3330.3313957905593 -0.0059307569530180348 -0.025720916655700421 -0.0059307569530180348 -3330.3219189881675 -0.016378194017306669 -0.025720916655700421 -0.016378194017306669 -9999.9345438800883 -3330.3385560658971 -0.0061302571440198239 -0.014908480254234746 -0.0061302571440198239 -3330.3295793452216 -0.014454453426878899 -0.014908480254234746 -0.014454453426878899 -9999.9576503606586 -3330.4865170998382 -0.051211448996012043 0.049224527097976534 -0.051211448996012043 -3329.962583359249 -0.27213267478509806 0.049224527097976534 -0.27213267478509806 -9999.3986442407186 -3330.2947062954954 -0.038404291641542798 -0.040767457294350606 -0.038404291641542798 -3330.3137162658131 -0.03626821963734983 -0.040767457294350606 -0.03626821963734983 -9999.7016631752085 -3330.3110785921817 -0.035551934154176235 -0.043833685744175455 -0.035551934154176235 -3330.3588119826109 -0.012643643387491466 -0.043833685744175455 -0.012643643387491466 -9999.7462164221324 -3330.3529624135954 -0.011581911114844079 -0.007920329275293625 -0.011581911114844079 -3330.3437038673983 -0.016427169188318658 -0.007920329275293625 -0.016427169188318658 -9999.9062300972291 -3330.3575794679109 -0.011623952278270844 -0.010671670330339111 -0.011623952278270844 -3330.3485900103988 -0.011493519359646598 -0.010671670330339111 -0.011493519359646598 -9999.9203381254119 -3330.3580728549714 -0.016099699455855265 -0.026303716125767096 -0.016099699455855265 -3330.3623576852769 0.0010207654959231149 -0.026303716125767096 0.0010207654959231149 -9999.9497234942464 -3330.3728022307096 -0.010438615105124727 -0.026603244046782493 -0.010438615105124727 -3330.3662656155957 0.00137636279760045 -0.026603244046782493 0.00137636279760045 -9999.9543828207607 -3330.33991828744 -0.014869228777554477 -0.031815014059247915 -0.014869228777554477 -3330.3390035771026 -0.020235001389664831 -0.031815014059247915 -0.020235001389664831 -9999.9017939931146 -3330.3295827197271 -0.011808174492668799 -0.010680330917239189 -0.011808174492668799 -3330.341872415911 -0.014669686994238873 -0.010680330917239189 -0.014669686994238873 -9999.9312018853234 -3330.3406546426595 -0.012497840975649099 -0.012388886254484532 -0.012497840975649099 -3330.359604037727 0.0026840260052267695 -0.012388886254484532 0.0026840260052267695 -9999.9598325450352 -3330.3409419906402 -0.011814871461394816 -0.014753598268725909 -0.011814871461394816 -3330.360865196546 0.0041323515015392331 -0.014753598268725909 0.0041323515015392331 -9999.9602196717387 -3330.326139284316 -0.012631459356212682 -0.026837628556677373 -0.012631459356212682 -3330.3509568086702 0.00093917373487784062 -0.026837628556677373 0.00093917373487784062 -9999.9388898824327 -3330.3255729185985 -0.00056595947057885843 -0.017492306433268823 -0.00056595947057885843 -3330.3584063784001 -0.0089590147545095533 -0.017492306433268823 -0.0089590147545095533 -9999.9557626991882 -3330.3223660366093 -0.012537791981867108 -0.027447092546026397 -0.012537791981867108 -3330.3408551531793 -0.0044004752635373734 -0.027447092546026397 -0.0044004752635373734 -9999.9291433988619 -3330.3491924478294 -0.016105081190330939 -0.041982639031630242 -0.016105081190330939 -3330.3507011738402 -0.0066217772987329226 -0.041982639031630242 -0.0066217772987329226 -9999.938311506834 -3330.3549387870153 -0.0088519428962942626 -0.035292085081891855 -0.0088519428962942626 -3330.3444475628239 -0.016107048626508913 -0.035292085081891855 -0.016107048626508913 -9999.9069101144414 -3330.3621181936251 0.0015361053698366156 -0.077338702119959635 0.0015361053698366156 -3330.3396036942686 0.0086528640149481362 -0.077338702119959635 0.0086528640149481362 -9999.8643362557777 -3330.3235097468587 -0.0080421872688868912 -0.10563962261585402 -0.0080421872688868912 -3330.3242608734254 -0.03550952099612914 -0.10563962261585402 -0.03550952099612914 -9999.7115001899474 -3330.2824317352206 -0.023613012384877452 -0.08122434449614957 -0.023613012384877452 -3330.3146585006943 -0.06449515691929264 -0.08122434449614957 -0.06449515691929264 -9999.6988300938574 -3330.3365385230718 -0.026014839184484773 -0.13040065645327559 -0.026014839184484773 -3330.3261489795077 -0.02873007162270369 -0.13040065645327559 -0.02873007162270369 -9999.8271646097892 -3330.3194195207852 -0.016105081190330717 -0.064714570944488514 -0.016105081190330717 -3330.3209282467942 -0.006334410273211688 -0.064714570944488514 -0.006334410273211688 -9999.8489927257033 -3330.2888554775764 0.0022680083532290451 -0.048454749752636417 0.0022680083532290451 -3330.3266957172837 -0.016868955222889781 -0.048454749752636417 -0.016868955222889781 -9999.8792923218898 -3330.3071926053144 -0.012537791981866997 -0.043863266479092999 -0.012537791981866997 -3330.3256817218862 -0.0063938571584003512 -0.043863266479092999 -0.0063938571584003512 -9999.8836231049718 -3330.2312808013339 -0.0077059721814490834 -0.09402927953942708 -0.0077059721814490834 -3330.2857455286794 -0.023171848290076014 -0.09402927953942708 -0.023171848290076014 -9999.7907493166458 -3330.2522858837583 -0.01538892831183114 -0.081819092116347747 -0.01538892831183114 -3330.2996607742552 -0.0089482994521858927 -0.081819092116347747 -0.0089482994521858927 -9999.8268924483127 -3330.3126998443277 -0.011265490360919284 -0.038832883124996442 -0.011265490360919284 -3330.327793650682 -0.0094748380270175403 -0.038832883124996442 -0.0094748380270175403 -9999.8855278969313 -3330.2722864039342 -0.0077059721814490834 -0.036430568282412423 -0.0077059721814490834 -3330.3267511312797 0.0086021816787251737 -0.036430568282412423 0.0086021816787251737 -9999.9137661244495 -3330.3247587806645 -0.0091368437144787595 -0.020028791464937967 -0.0091368437144787595 -3330.3215738648742 -0.0014434862077905564 -0.020028791464937967 -0.0014434862077905564 -9999.9255899020318 -3329.8439841083637 0.077396294848784186 -0.18710259601448342 0.077396294848784186 -3330.1285038448268 -0.03604736197485181 -0.18710259601448342 -0.03604736197485181 -9999.6499135603408 -3330.2527041170861 0.0090090827832920994 -0.039176387726911344 0.0090090827832920994 -3330.3353161054638 0.0023378164878522512 -0.039176387726911344 0.0023378164878522512 -9999.9110117962846 -3330.2705608009619 -0.24713327173663968 0.002716464869081392 -0.24713327173663968 -3329.954046087294 -0.31648545211101009 0.002716464869081392 -0.31648545211101009 -9999.280028047473 -3330.334658058232 -0.026014839184484551 -0.13053116867922654 -0.026014839184484551 -3330.3242685146688 -0.027402194982641959 -0.13053116867922654 -0.027402194982641959 -9999.8215232152652 -3330.4546595858828 0.043834088679868932 -0.19150481532233243 0.043834088679868932 -3330.4977874410006 0.044985263137277798 -0.19150481532233243 0.044985263137277798 -9999.8949033287645 -3329.951793418827 -0.35861606211664054 0.20571314288463327 -0.35861606211664054 -3330.1385182714557 -0.18535030912607908 0.20571314288463327 -0.18535030912607908 -9999.5540898076652 -3330.3114111686555 0.01429693394148468 -0.037482790423382539 0.01429693394148468 -3330.3229905074149 -0.057805123467915109 -0.037482790423382539 -0.057805123467915109 -9999.8200931531574 -3330.2870469798236 0.0099985859144029465 0.0065685041427059332 0.0099985859144029465 -3330.2864886407497 0.038754742203309434 0.0065685041427059332 0.038754742203309434 -9999.9088746953603 -3330.2678235369358 0.047225498399582566 0.015850882415179512 0.047225498399582566 -3330.3278706261917 0.0089424239267827943 0.015850882415179512 0.0089424239267827943 -9999.912930281429 -3330.2550110550128 0.030738440528317534 0.0028647628369071754 0.030738440528317534 -3330.2239286015301 0.026539700458670268 0.0028647628369071754 0.026539700458670268 -9999.8837416547831 -3329.8994198267283 -0.062539104333473094 0.22854594791169802 -0.062539104333473094 -3330.4649430737218 0.11249984770597621 0.22854594791169802 0.11249984770597621 -9999.8124351082006 -3330.3256658484697 -0.0049665308365156591 0.073933527477493044 -0.0049665308365156591 -3330.3043044731667 0.048178032288205941 0.073933527477493044 0.048178032288205941 -9999.9229833706268 -3330.2519771629431 0.0066975174603129961 -0.035249495398602448 0.0066975174603129961 -3330.3134528874471 -0.015284004327440925 -0.035249495398602448 -0.015284004327440925 -9999.8667620357701 -3330.2734114929644 0.0099985859144029465 -0.050365171375233331 0.0099985859144029465 -3330.2728531538905 -0.018370940393651836 -0.050365171375233331 -0.018370940393651836 -9999.8679682347793 -3330.3117169136331 -0.0091368437144787595 -0.074096596359595424 -0.0091368437144787595 -3330.3085319978436 -0.047378270866829553 -0.074096596359595424 -0.047378270866829553 -9999.8864643009365 -3330.2929748621791 -0.0015629418176490439 -0.027680901021085447 -0.0015629418176490439 -3330.3206722269697 -0.0051474810752552003 -0.027680901021085447 -0.0051474810752552003 -9999.8865679108021 -3330.2606009271949 0.0099603478747360974 -0.039202781623316696 0.0099603478747360974 -3330.3104357671345 -0.0099269713355170097 -0.039202781623316696 -0.0099269713355170097 -9999.8681636967558 -3330.3602515972361 0.0045691524034099373 -0.016947255626291735 0.0045691524034099373 -3330.302318103013 -0.013696308093130938 -0.016947255626291735 -0.013696308093130938 -9999.8970444981278 -3330.3122030895429 -0.0016764128081534491 -0.0020315536421549041 -0.0016764128081534491 -3330.3267876020363 -0.0015595473232679069 -0.0020315536421549041 -0.0015595473232679069 -9999.8929038114111 -3330.288424306329 -0.0049665308365161032 0.028561771339809638 -0.0049665308365161032 -3330.2670629310251 -0.017195877749827559 0.028561771339809638 -0.017195877749827559 -9999.811258744201 -3330.3263465377313 -0.0016764128081538932 0.0076696428332070354 -0.0016764128081538932 -3330.3409310502248 0.0021322444627003279 0.0076696428332070354 0.0021322444627003279 -9999.9353341559763 -3330.3132228953291 -0.0015629418176490439 -0.017868322651338531 -0.0015629418176490439 -3330.3409202601197 -0.0018743068867479451 -0.017868322651338531 -0.0018743068867479451 -9999.9473120102557 -3330.3360485236171 -0.011265490360919284 -0.021874862359254621 -0.011265490360919284 -3330.3511423299715 -0.006771569549528067 -0.021874862359254621 -0.006771569549528067 -9999.9555739347925 -3330.3328390566421 -0.0016768242822984281 -0.0044839172987849452 -0.0016768242822984281 -3330.3557105458731 0.0068808273645117879 -0.0044839172987849452 0.0068808273645117879 -9999.964726084494 -3330.3249856925813 0.0047936755956209387 -0.01235311019627261 0.0047936755956209387 -3330.3564944850968 -0.008342186516529182 -0.01235311019627261 -0.008342186516529182 -9999.9551379193581 -3330.3320548088104 -0.0022560074179851508 -0.0009977822337532416 -0.0022560074179851508 -3330.3471280912181 0.00048561207950115204 -0.0009977822337532416 0.00048561207950115204 -9999.9535719463966 -3330.3152979596525 -0.00037507144181758711 -0.018331495939492015 -0.00037507144181758711 -3330.3458795928746 -0.00024097457935567945 -0.018331495939492015 -0.00024097457935567945 -9999.9500622630731 -3330.3249272205885 -0.0034394191346218683 -0.012619715871551307 -0.0034394191346218683 -3330.3538735910442 0.0057427591709711123 -0.012619715871551307 0.0057427591709711123 -9999.9622888867743 -3330.3314446805471 0.0051100306747161733 0.0030401934018300381 0.0051100306747161733 -3330.3446615113044 -0.0005662330786435632 0.0030401934018300381 -0.0005662330786435632 -9999.9496697859577 -3330.3306712803696 0.0021297424491631273 0.0070200595255300868 0.0021297424491631273 -3330.3387210918281 -0.0050739058351609856 0.0070200595255300868 -0.0050739058351609856 -9999.9358628520349 -3330.3234903096109 0.0045538842321506401 0.0072244198745465837 0.0045538842321506401 -3330.3354684799542 -0.0048890535326790996 0.0072244198745465837 -0.0048890535326790996 -9999.9332544563804 -3330.3258656090038 0.0030226000958250288 0.011460711601102958 0.0030226000958250288 -3330.3312902501875 0.00030614448223786894 0.011460711601102958 0.00030614448223786894 -9999.9212937532648 -3330.327328436957 0.0093448676668766578 0.012186881114530479 0.0093448676668766578 -3330.3314720712933 -0.00843799031645176 0.012186881114530479 -0.00843799031645176 -9999.9217049155341 -3330.3417614304071 0.0046968641357292285 0.01488260347105097 0.0046968641357292285 -3330.3323727742591 -0.0054098188047646545 0.01488260347105097 -0.0054098188047646545 -9999.9255383396376 -3330.3315643389997 0.010866039227868052 0.0032382410402078676 0.010866039227868052 -3330.3411223052553 -0.0029510140775528271 0.0032382410402078676 -0.0029510140775528271 -9999.948814899064 -3330.3335066924301 0.010421367281399155 0.0030339923814608483 0.010421367281399155 -3330.3403918168297 0.001251275411050301 0.0030339923814608483 0.001251275411050301 -9999.9575900183117 -3330.3461886304285 0.0084163531582441831 0.0073570779677538667 0.0084163531582441831 -3330.3422460648071 -0.0043214419256401015 0.0073570779677538667 -0.0043214419256401015 -9999.9527519118055 -3330.3258730795642 0.017005717351209634 0.00034361766870460997 0.017005717351209634 -3330.3273073971723 -0.0084468302065943135 0.00034361766870460997 -0.0084468302065943135 -9999.9439383571807 -3330.331255154475 0.011291701997136236 0.00043585076946328627 0.011291701997136236 -3330.3400968405422 -0.0072613292832102161 0.00043585076946328627 -0.0072613292832102161 -9999.9484812367518 -3330.3222961670781 0.008666432538801061 -0.0052968786767451093 0.008666432538801061 -3330.3385547500311 -0.0015285998676972667 -0.0052968786767451093 -0.0015285998676972667 -9999.9458559672785 -3330.3297235569953 0.0059879430278979573 -0.0094701128400629386 0.0059879430278979573 -3330.3556178352992 -0.0098521835207066033 -0.0094701128400629386 -0.0098521835207066033 -9999.9593623700566 -3330.3280154483764 0.0070346992649864548 -0.0079276931173808407 0.0070346992649864548 -3330.3485258783185 -0.0072664877916395199 -0.0079276931173808407 -0.0072664877916395199 -9999.9571623536613 -3330.3378782442178 0.002963337710425118 -0.003341788898978848 0.002963337710425118 -3330.363340568616 -0.0068296066965558566 -0.003341788898978848 -0.0068296066965558566 -9999.9678933870673 -3330.3221208118812 0.0088399199114099769 0.0017993708352150861 0.0088399199114099769 -3330.338506810891 -0.0016886078228708357 0.0017993708352150861 -0.0016886078228708357 -9999.9458001436869 -3330.3303160495107 0.0073273413648917707 -0.005246979693765752 0.0073273413648917707 -3330.3510451750772 -0.01002344792459553 -0.005246979693765752 -0.01002344792459553 -9999.9629289900113 -3330.3299404943737 0.0059514319631843726 -0.0055553823294758331 0.0059514319631843726 -3330.3508374141893 -0.010016493986768182 -0.0055553823294758331 -0.010016493986768182 -9999.9627831610051 -3330.3303261161927 0.00062476409357670182 -0.014604026975575835 0.00062476409357670182 -3330.3575357821064 -0.010468377768120263 -0.014604026975575835 -0.010468377768120263 -9999.9599924965587 -3330.3376230990307 0.0042256269614762802 -0.010246955307593453 0.0042256269614762802 -3330.3628725441249 -0.016352072132576723 -0.010246955307593453 -0.016352072132576723 -9999.9631509327737 -3330.3357972275971 0.0095704408394629743 -0.0036140673619229347 0.0095704408394629743 -3330.3508870654532 -0.011580113536183489 -0.0036140673619229347 -0.011580113536183489 -9999.9596980952483 -3330.3116187074611 0.0049279719455965765 -0.030841209038044326 0.0049279719455965765 -3330.3495065855659 -0.015556555150851636 -0.030841209038044326 -0.015556555150851636 -9999.9348971824438 -3330.3279500113185 0.013810656014191999 -0.0028674551842868823 0.013810656014191999 -3330.3295318926521 -0.0081363963436160702 -0.0028674551842868823 -0.0081363963436160702 -9999.9525371247437 -3330.3333743145013 0.0108950538385965 -0.0030603742720813898 0.0108950538385965 -3330.3442240706463 -0.010616045725328149 -0.0030603742720813898 -0.010616045725328149 -9999.9575662450443 -3330.3337850956814 0.0096126680804839992 -0.00097949373957817443 0.0096126680804839992 -3330.3268352568557 -0.0087851201060402673 -0.00097949373957817443 -0.0087851201060402673 -9999.953321736888 -3330.3198106792624 0.015403104353395092 -0.00044725951011059806 0.015403104353395092 -3330.3265288632138 -0.0078704445331823081 -0.00044725951011059806 -0.0078704445331823081 -9999.949021968634 -3330.3460756307613 0.0067529579473212809 -0.012157168501289561 0.0067529579473212809 -3330.3370789633409 -0.0069091594341443852 -0.012157168501289561 -0.0069091594341443852 -9999.9681527285575 -3330.3393796940454 0.0086123338816271877 -0.016379336850150139 0.0086123338816271877 -3330.3289157212002 -0.015646422827558126 -0.016379336850150139 -0.015646422827558126 -9999.9552405025679 -3330.3485127989534 0.004500580221885906 -0.026869797150538943 0.004500580221885906 -3330.3560922021807 -0.039089736219466431 -0.026869797150538943 -0.039089736219466431 -9999.9643178990373 -3330.3432877908708 0.0019149589002500078 -0.024022980587687925 0.0019149589002500078 -3330.3486405367257 -0.028183291640743846 -0.024022980587687925 -0.028183291640743846 -9999.9393722326058 -3330.3702978682795 -0.010217602494034639 -0.024413458151684608 -0.010217602494034639 -3330.3687591622383 0.0015514270162384491 -0.024413458151684608 0.0015514270162384491 -9999.9511544083362 -3330.3524936685881 0.0021552565992297712 -0.035586060264904518 0.0021552565992297712 -3330.3624372805953 -0.015225344630607651 -0.035586060264904518 -0.015225344630607651 -9999.9483485964811 -3330.346942385424 0.0041465309632489067 -0.032739306567236781 0.0041465309632489067 -3330.3601164171396 -0.013836096911745699 -0.032739306567236781 -0.013836096911745699 -9999.943154851353 -3330.3523161043304 0.0067025762864553768 -0.037107079007910215 0.0067025762864553768 -3330.3625808325669 -0.022239026800889405 -0.037107079007910215 -0.022239026800889405 -9999.9668908829772 -3330.3417067084647 0.0027996994736983992 -0.031057887648785254 0.0027996994736983992 -3330.3510152782419 -0.034160214897383412 -0.031057887648785254 -0.034160214897383412 -9999.9520488624476 -3330.3293048656669 0.0094045484268157065 -0.024001038220376358 0.0094045484268157065 -3330.3232708758987 -0.018390083958365722 -0.024001038220376358 -0.018390083958365722 -9999.9420123011587 -3330.3065400119831 0.0022680083532292672 -0.032868272463019821 0.0022680083532292672 -3330.3443802516904 -0.012819253010093234 -0.032868272463019821 -0.012819253010093234 -9999.9323459251027 -3330.3258072324825 0.0074091298591376642 -0.020798358105821535 0.0074091298591376642 -3330.3539912796114 -0.023377443940717058 -0.020798358105821535 -0.023377443940717058 -9999.958116276779 -3330.1963256086165 -0.0043645928860425176 -0.09553837245766772 -0.0043645928860425176 -3330.2825554729152 -0.023217917960892009 -0.09553837245766772 -0.023217917960892009 -9999.8086260541895 -3330.2804922736468 0.026837568961835867 -0.056832072456018068 0.026837568961835867 -3330.3407367141681 -0.05244826034390826 -0.056832072456018068 -0.05244826034390826 -9999.8918679218368 -3330.2226637343483 0.0090090827832925435 -0.090849286205411772 0.0090090827832925435 -3330.3052757227269 -0.029549957573181018 -0.090849286205411772 -0.029549957573181018 -9999.8208906480722 -3330.3148519066326 0.011291701997136361 -0.012087393193269236 0.011291701997136361 -3330.3236935926998 -0.015105481445061741 -0.012087393193269236 -0.015105481445061741 -9999.8992714932247 -3330.3195388210752 0.014352760677031728 -0.035421248834609287 0.014352760677031728 -3330.3483912705851 -0.028310081783274654 -0.035421248834609287 -0.028310081783274654 -9999.9066176413035 -3330.3063946203383 0.0074091298591372201 -0.033690329517412465 0.0074091298591372201 -3330.334578667469 -0.030647477408820123 -0.033690329517412465 -0.030647477408820123 -9999.8998784403448 -3330.3417733857113 0.0093335123734044068 0.011459774341346929 0.0093335123734044068 -3330.3098706449255 -0.022616559374000644 0.011459774341346929 -0.022616559374000644 -9999.8994716825437 -3330.2367721106275 0.032943363467720643 0.018788528495861101 0.032943363467720643 -3330.2785023694905 -0.012218889924042742 0.018788528495861101 -0.012218889924042742 -9999.8556771736294 -3330.3082400543171 0.017005717351209634 -0.003405321609307066 0.017005717351209634 -3330.3096743719252 -0.017508753278889344 -0.003405321609307066 -0.017508753278889344 -9999.8910392814469 -3330.3119211920384 0.029075125536939125 -0.0031170555694188806 0.029075125536939125 -3330.3285503634997 -0.013803579691739287 -0.0031170555694188806 -0.013803579691739287 -9999.8966785637713 -3330.2884969004353 0.025347173224579245 -0.033977484990828088 0.025347173224579245 -3330.2818044614596 -0.04286084297200432 -0.033977484990828088 -0.04286084297200432 -9999.8791360153591 -3330.2766398981075 0.033337322431954808 -0.045011312553469907 0.033337322431954808 -3330.2646349984934 -0.052049304602405755 -0.045011312553469907 -0.052049304602405755 -9999.8564179214518 -3330.3195553224359 0.009404548426815762 -0.020926004015564104 0.009404548426815762 -3330.3135213326696 -0.024165202819858678 -0.020926004015564104 -0.024165202819858678 -9999.9127636714657 -3330.3088130685228 0.016052537806466861 -0.057833516688333475 0.016052537806466861 -3330.3409282822213 -0.096172557688987581 -0.057833516688333475 -0.096172557688987581 -9999.8989960125728 -3330.3073941575403 0.019009207170164938 -0.063157828008115757 0.019009207170164938 -3330.3518219014531 -0.092601810041003318 -0.063157828008115757 -0.092601810041003318 -9999.8859032120527 -3330.2822243150185 0.002799699473698538 -0.046106514881103067 0.002799699473698538 -3330.2915328847976 -0.039110701861318375 -0.046106514881103067 -0.039110701861318375 -9999.7736016821109 -3330.3141783290885 -0.0088519428962940405 -0.04809129049317562 -0.0088519428962940405 -3330.3036871048971 -0.017271172597247642 -0.04809129049317562 -0.017271172597247642 -9999.7846287406537 -3330.3489081328626 0.0096790681444427484 -0.094618037026521051 0.0096790681444427484 -3330.3353727736721 -0.023282161235897547 -0.094618037026521051 -0.023282161235897547 -9999.8599760104407 -3330.334831038972 0.030542024955992092 -0.085618017053093354 0.030542024955992092 -3330.3593045857615 -0.050438880643923767 -0.085618017053093354 -0.050438880643923767 -9999.9100945810678 -3330.2891143976922 0.0067025762864553768 -0.053406579723741743 0.0067025762864553768 -3330.2993791259287 -0.027094692812170251 -0.053406579723741743 -0.027094692812170251 -9999.7772857630589 -3330.3860609328058 0.082990741054917688 -0.23493431123824848 0.082990741054917688 -3330.3645277074393 -0.035279518830066081 -0.23493431123824848 -0.035279518830066081 -9999.8444387321033 -3330.2779327956396 -0.0080421872688868912 -0.094999437264050357 -0.0080421872688868912 -3330.2786839222072 -0.08339009103110584 -0.094999437264050357 -0.08339009103110584 -9999.574769336301 -3330.214452831754 0.030542024955991978 -0.093382772078257403 0.030542024955991978 -3330.2389263785435 -0.080402230454637902 -0.093382772078257403 -0.080402230454637902 -9999.5489599594148 -3330.3302019312778 0.0067460691676121745 -0.089215830917964922 0.0067460691676121745 -3330.3522005200593 -0.15261701409508532 -0.089215830917964922 -0.15261701409508532 -9999.9123257337051 -3330.3256751932431 0.033337322431954919 -0.055935161251909449 0.033337322431954919 -3330.3136702936281 -0.073157297450961778 -0.055935161251909449 -0.073157297450961778 -10000.003523806863 -3330.2905195165904 0.032027549877530634 -0.13572679337630689 0.032027549877530634 -3330.3006146780335 -0.2565563110219955 -0.13572679337630689 -0.2565563110219955 -9999.8895086695265 -3330.1932005413528 0.019009207170165056 -0.070482368597367895 0.019009207170165056 -3330.2376282852656 -0.11809661557089157 -0.070482368597367895 -0.11809661557089157 -9999.5433223634936 -3330.3465833623322 0.010226574317604875 0.0080220895015372662 0.010226574317604875 -3330.4362143473545 0.030848686541503412 0.0080220895015372662 0.030848686541503412 -9999.9374245482941 -3330.2971863519651 0.043362869134341189 0.0031842122433545228 0.043362869134341189 -3330.3065928055939 -0.031334062894529779 0.0031842122433545228 -0.031334062894529779 -9999.8926699102631 -3330.1801771572973 0.093409865910541123 0.042905608303044573 0.093409865910541123 -3330.2052103558108 0.0057947902378145955 0.042905608303044573 0.0057947902378145955 -9999.802774625754 -3330.2248004902876 0.043373160026618729 0.10470388705289224 0.043373160026618729 -3330.2903821011569 -0.06621730989900243 0.10470388705289224 -0.06621730989900243 -9999.8705207687344 -3330.2373245957697 0.010642283778202977 -0.041290717126685195 0.010642283778202977 -3330.4858483230437 -0.056901712649505498 -0.041290717126685195 -0.056901712649505498 -9999.9849534399 -3330.3244477698372 0.039011799613560799 0.01652820179151604 0.039011799613560799 -3330.3357835748802 -0.00024195964033424389 0.01652820179151604 -0.00024195964033424389 -9999.969218046379 -3329.9894764391656 0.017764714062095847 -0.22824453673274547 0.017764714062095847 -3330.221892146561 -0.035746493156693759 -0.22824453673274547 -0.035746493156693759 -9999.7096337184739 -3330.3075320877733 0.026837568961836089 -0.048567961235676194 0.026837568961836089 -3330.3677765282928 -0.047074681242975203 -0.048567961235676194 -0.047074681242975203 -9999.9729873642173 -3330.3321491215984 -0.0090137263477215561 0.073863055195602101 -0.0090137263477215561 -3330.3218872457674 0.047066663535588305 0.073863055195602101 0.047066663535588305 -9999.9289998820605 -3330.2929330514962 0.018778295081228302 0.020180733230517944 0.018778295081228302 -3330.3454696436847 0.020309035015543486 0.020180733230517944 0.020309035015543486 -9999.9250914640143 -3330.4488195460763 -0.06889926000739699 0.097404573187304777 -0.06889926000739699 -3330.3841493002792 0.082302201578556833 0.097404573187304777 0.082302201578556833 -9999.88587053437 -3330.2456576780769 0.052766301123590216 0.03344426666808431 0.052766301123590216 -3330.4695916706178 -0.017158024431410013 0.03344426666808431 -0.017158024431410013 -9999.9829725473755 -3330.2778934255366 0.027669357835423021 0.036642829045376857 0.027669357835423021 -3330.3060326159193 0.047905914245347958 0.036642829045376857 0.047905914245347958 -9999.9114723005805 -3330.2962878235148 -0.010372779074244748 0.04815987291840429 -0.010372779074244748 -3330.2917273421908 0.037758356694212125 0.04815987291840429 0.037758356694212125 -9999.8246321142069 -3330.055114370648 0.14963260117925309 0.17465747432652279 0.14963260117925309 -3330.3083425587984 0.18426000309045776 0.17465747432652279 0.18426000309045776 -9999.645910154748 -3330.3088262725105 0.0030226000958250288 0.011772866766477819 0.0030226000958250288 -3330.3142509136942 -0.0007537264573329594 0.011772866766477819 -0.0007537264573329594 -9999.8701757437775 -3330.2949075794586 -0.0090137263477215561 0.028491299057918695 -0.0090137263477215561 -3330.2846457036267 -0.018307246496988228 0.028491299057918695 -0.018307246496988228 -9999.8172752556275 -3330.278816794782 -0.010372779074244748 0.046070897104073083 -0.010372779074244748 -3330.2742563134598 -0.018880379670918046 0.046070897104073083 -0.018880379670918046 -9999.772219028011 -3330.3324126830357 -0.018847448678167386 0.016651964991979185 -0.018847448678167386 -3330.2922567194764 -0.029016408245752245 0.016651964991979185 -0.029016408245752245 -9999.8285542854865 -3330.3077752036061 0.0059879430278979573 -0.020457265803997871 0.0059879430278979573 -3330.33366948191 -0.01493611005571438 -0.020457265803997871 -0.01493611005571438 -9999.8935173098907 -3330.3093468614243 0.004553884232150418 -0.002476776597177377 0.004553884232150418 -3330.3213250317694 -0.0085808453295612708 -0.002476776597177377 -0.0085808453295612708 -9999.8908241118152 -3330.2825907827664 0.018778295081228302 -0.022239057961996878 0.018778295081228302 -3330.335127374954 -0.026727899062279903 -0.022239057961996878 -0.026727899062279903 -9999.8940646578194 -3330.3033013272889 0.008666432538801061 -0.016477900178870186 0.008666432538801061 -3330.3195599102419 -0.0082651445961801073 -0.016477900178870186 -0.0082651445961801073 -9999.8888714478999 -3330.2574596883424 0.027669357835422778 0.0053072532991791377 0.027669357835422778 -3330.2855988787251 0.0057263524067820981 0.0053072532991791377 0.0057263524067820981 -9999.8501710889941 -3330.3017066035009 0.0083299637647633595 -0.014103439052632893 0.0083299637647633595 -3330.3249919427617 -0.013089435598885757 -0.014103439052632893 -0.013089435598885757 -9999.8963097549567 -3330.2525276285978 0.023547801226972725 0.018605317314722924 0.023547801226972725 -3330.2837092225072 0.0054265044273051899 0.018605317314722924 0.0054265044273051899 -9999.8484656600085 -3330.2862588825064 0.043362869134341245 0.0097171157420916643 0.043362869134341245 -3330.2956653361362 -0.010554214066360146 0.0097171157420916643 -0.010554214066360146 -9999.8598875018906 -3330.28854626465 0.039011799613560605 0.010574001335044159 0.039011799613560605 -3330.2998820696939 0.00045960440547787584 0.010574001335044159 0.00045960440547787584 -9999.8615135308173 -3330.3386186790249 0.016697809671271213 0.024951196490292205 0.016697809671271213 -3330.3421945632308 -0.0015933736963233969 0.024951196490292205 -0.0015933736963233969 -9999.8846097577953 -3330.3601840907759 -0.04128356831388702 0.049467820794234285 -0.04128356831388702 -3330.3331618778611 -0.034345775140536716 0.049467820794234285 -0.034345775140536716 -9999.8072872431148 -3330.3020679777001 0.0093448676668766578 0.021344071917837937 0.0093448676668766578 -3330.3062116120363 -0.015999385108443676 0.021344071917837937 -0.015999385108443676 -9999.8459235377486 -3330.282147213713 -0.0072618159859011849 0.04753550568261744 -0.0072618159859011849 -3330.282324701453 -0.036516392441626522 0.04753550568261744 -0.036516392441626522 -9999.7750687297448 -3330.3234085501772 0.023488825275899003 0.01147009491614881 0.023488825275899003 -3330.3449348502691 0.0028920860004291171 0.01147009491614881 0.0028920860004291171 -9999.8814922973434 -3330.2247817576308 0.27763848374984323 0.12596364719138364 0.27763848374984323 -3330.0001795348844 0.19524498343707819 0.12596364719138364 0.19524498343707819 -9999.4632631230088 -3330.2670953177958 -0.037590077009130904 0.045544247934230953 -0.037590077009130904 -3330.2209695725242 0.069254277393156372 0.045544247934230953 0.069254277393156372 -9999.7996445453609 -3330.267017647122 -0.0072618159859011155 0.030905563816531867 -0.0072618159859011155 -3330.267195134863 0.037038715379821952 0.030905563816531867 0.037038715379821952 -9999.7296800299664 -3330.4514183498504 0.050921902655210793 0.1104076617211831 0.050921902655210793 -3330.2766625827862 0.045500180751332664 0.1104076617211831 0.045500180751332664 -9999.8884479806366 -3330.2913068339221 0.016697809671271324 0.0079688043497299077 0.016697809671271324 -3330.2948827181281 0.044670280919945071 0.0079688043497299077 0.044670280919945071 -9999.7426742224816 -3330.4842226367609 0.076377564881485172 0.093230405541362416 0.076377564881485172 -3330.4890234676759 -0.012279495305847377 0.093230405541362416 -0.012279495305847377 -9999.9497392735866 -3330.301279071673 0.0027987055684333129 0.016343887144103064 0.0027987055684333129 -3330.2894108650735 0.072841809927467693 0.016343887144103064 0.072841809927467693 -9999.7437993186613 -3330.2692183484733 -0.020136461992347199 -0.033315831325126055 -0.020136461992347199 -3330.2908753714282 0.063843163296041894 -0.033315831325126055 0.063843163296041894 -9999.736150264449 -3330.2777568869587 -0.013643917566102504 -0.001886424459371483 -0.013643917566102504 -3330.2829812014015 0.00020266484534658957 -0.001886424459371483 0.00020266484534658957 -9999.7363113565625 -3330.5801844441048 -0.017284941357885941 -0.11683727567833557 -0.017284941357885941 -3329.9256562764813 0.21187789043688099 -0.11683727567833557 0.21187789043688099 -9999.6690283705939 -3330.3180839446504 -0.016545949764579571 0.0074164571469736984 -0.016545949764579571 -3330.3701717973945 -0.025411914462893037 0.0074164571469736984 -0.025411914462893037 -9999.867894516894 -3330.3176383857226 -0.013643917566102504 0.029609391443955246 -0.013643917566102504 -3330.3228627001663 -0.07034974631278601 0.029609391443955246 -0.07034974631278601 -9999.8559558528541 -3330.3202643051845 0.0035105582751224773 0.012509758344094735 0.0035105582751224773 -3330.3072146102186 -0.025923187793523539 0.012509758344094735 -0.025923187793523539 -9999.8507233691671 -3330.3161512789266 0.0011486406289631379 0.002902672906202497 0.0011486406289631379 -3330.299744548538 -0.0064700778912083479 0.002902672906202497 -0.0064700778912083479 -9999.8478275971829 -3330.3171112447999 -0.00054614065040259341 0.017744631733876304 -0.00054614065040259341 -3330.3008642171917 -0.0037806235995958559 0.017744631733876304 -0.0037806235995958559 -9999.8483475058129 -3330.3114727913544 0.0084163531582441831 0.014763085087906802 0.0084163531582441831 -3330.3075302257348 -0.013809745703838416 0.014763085087906802 -0.013809745703838416 -9999.8486043945886 -3330.3460092533151 0.0027859044741767036 0.037214511176898668 0.0027859044741767036 -3330.3116983197633 -0.014326627602713415 0.037214511176898668 -0.014326627602713415 -9999.891285446869 -3330.3564687790531 -0.001781490653527229 0.041878891553096764 -0.001781490653527229 -3330.3383585343672 0.0013630951580125839 0.041878891553096764 0.0013630951580125839 -9999.9005653819549 -3330.3241165126492 0.0027987055684330908 0.050714364731902606 0.0027987055684330908 -3330.3122483060506 0.01473578846662349 0.050714364731902606 0.01473578846662349 -9999.8123116415882 -3330.2920557894486 -0.020136461992347421 0.0010546462626734865 -0.020136461992347421 -3330.3137128124035 0.0057371418315597111 0.0010546462626734865 0.0057371418315597111 -9999.8046625873758 -3330.2969486247857 -0.0050998986651416001 0.042974289397534449 -0.0050998986651416001 -3330.3078217770217 0.022475863806903362 0.042974289397534449 0.022475863806903362 -9999.8044130373637 -3330.328264018277 -0.21941178976547215 -0.073221558312070556 -0.21941178976547215 -3330.0148104808241 0.21333633293397725 -0.073221558312070556 0.21333633293397725 -9999.5233104247454 -3329.9140739675258 0.11317079041785172 0.12113211884206976 0.11317079041785172 -3330.1008767240592 0.025997366336014238 0.12113211884206976 0.025997366336014238 -9999.7101654203725 -3330.3298727603751 -0.0090292016294473143 0.068938722439725098 -0.0090292016294473143 -3330.301746277959 0.012012187820801046 0.068938722439725098 0.012012187820801046 -9999.8643325070625 -3330.2766796216401 0.010440286282288547 -0.0097998631026712246 0.010440286282288547 -3330.3012456608576 -0.030703914433615864 -0.0097998631026712246 -0.030703914433615864 -9999.9465482489613 -3330.3129771269869 -0.010516088292070735 0.0030118353170109913 -0.010516088292070735 -3330.296367463141 -0.0085134017621726343 0.0030118353170109913 -0.0085134017621726343 -9999.9544030758698 -3330.3053297697543 0.024457505290053971 0.0059180142452532891 0.024457505290053971 -3330.3220307017973 -0.045599006204611214 0.0059180142452532891 -0.045599006204611214 -10000.000527553031 -3330.288147221544 0.013431308721595703 0.0031572401167068165 0.013431308721595703 -3330.3158229019673 -0.040273345803143457 0.0031572401167068165 -0.040273345803143457 -9999.9946799660174 -3330.2980667809179 0.025113415389664828 -0.07617309383203974 0.025113415389664828 -3330.2784378636952 -0.09912962215639709 -0.07617309383203974 -0.09912962215639709 -9999.9535519902602 -3330.2829929379741 -0.00089663213722790402 -0.066199205075463396 -0.00089663213722790402 -3330.3860103130564 -0.052514959534164518 -0.066199205075463396 -0.052514959534164518 -10000.010938247902 -3330.3136079128626 0.014852896385228354 -0.047615431514714146 0.014852896385228354 -3330.3152410281045 -0.059567256012087455 -0.047615431514714146 -0.059567256012087455 -9999.9666380643466 -3330.1653282396737 0.06017247438553186 -0.056395985513518099 0.06017247438553186 -3330.2777420083003 -0.038934066349611385 -0.056395985513518099 -0.038934066349611385 -9999.9544549971397 -3329.9709428825654 -0.38819054697390065 -0.2372974747340777 -0.38819054697390065 -3330.1495137495949 0.10860186536592664 -0.2372974747340777 0.10860186536592664 -9999.6824326790083 -3330.3396730153845 0.004091837040269608 -0.025179608647704299 0.004091837040269608 -3330.2902498242283 -0.021824414205184439 -0.025179608647704299 -0.021824414205184439 -9999.9595476382419 -3330.3220181737724 0.015984329918221629 -0.043713473867683206 0.015984329918221629 -3330.2553140260989 -0.0655788946546636 -0.043713473867683206 -0.0655788946546636 -9999.9537588790736 -3330.2522673398962 0.054555527187555963 -0.033616376193094766 0.054555527187555963 -3330.1118469207358 -0.036437324373764568 -0.033616376193094766 -0.036437324373764568 -9999.8930954934949 -3330.3166780280571 -0.0075740141035036679 0.0064921675466393935 -0.0075740141035036679 -3330.3104869992549 -0.0060302168494672514 0.0064921675466393935 -0.0060302168494672514 -9999.9048518731506 -3330.2985090821421 0.015984329918221185 0.01622726304049138 0.015984329918221185 -3330.2318049344685 0.00084377893517739722 0.01622726304049138 0.00084377893517739722 -9999.8832316041699 -3330.282942429958 0.01190324268518661 0.0020521872665995033 0.01190324268518661 -3330.2924533221903 -0.013720488350372761 0.0020521872665995033 -0.013720488350372761 -9999.891909554357 -3330.305503627269 -0.00053814421970388437 -0.0050682637302088551 -0.00053814421970388437 -3330.305868909847 -0.016663584498928685 -0.0050682637302088551 -0.016663584498928685 -9999.903433958676 -3330.3191074840579 0.004091837040269608 0.027855546301907452 0.004091837040269608 -3330.2696842929017 0.020984556522307685 0.027855546301907452 0.020984556522307685 -9999.8978510442575 -3330.3326337293565 0.026554083192989353 0.017281761167396326 0.026554083192989353 -3330.2993113999764 0.014266845271777129 0.017281761167396326 0.014266845271777129 -9999.8854427710867 -3330.3176597893689 0.0019784740815704804 -0.010179603717915597 0.0019784740815704804 -3330.3107289401596 -0.015594005533785094 -0.010179603717915597 -0.015594005533785094 -9999.9115916900701 -3330.3123036249181 0.0051448474013844336 -0.019066334891249426 0.0051448474013844336 -3330.3018375314914 -0.027905241255211877 -0.019066334891249426 -0.027905241255211877 -9999.9080297967921 -3330.2627361281975 0.025113415389664384 -0.041998339671408758 0.025113415389664384 -3330.2431072109739 -0.058108788115987409 -0.041998339671408758 -0.058108788115987409 -9999.8475600320962 -3330.3118792659861 0.0055972518310771768 -0.017329020924080396 0.0055972518310771768 -3330.3054278511372 -0.030028979614144191 -0.017329020924080396 -0.030028979614144191 -9999.9049176036788 -3330.3145720044595 0.0041136912150103733 -0.0063054545844352106 0.0041136912150103733 -3330.308787453323 -0.014757478635146981 -0.0063054545844352106 -0.014757478635146981 -9999.9064306888431 -3330.2890618277506 0.014852896385228576 -0.00081095884524984285 0.014852896385228576 -3330.2906949429907 -0.0093093180075811688 -0.00081095884524984285 -0.0093093180075811688 -9999.8929998090098 -3330.3110602727029 0.011054354694782331 0.0012824838995584287 0.011054354694782331 -3330.3101957819053 -0.014270351450250018 0.0012824838995584287 -0.014270351450250018 -9999.9098085213409 -3330.2585982171349 0.024457505290053749 0.03454504822002491 0.024457505290053749 -3330.275299149178 -0.017632998770750419 0.03454504822002491 -0.017632998770750419 -9999.8603328951758 -3330.3025537632129 0.0056518151865545541 0.0021119488628755789 0.0056518151865545541 -3330.3059207179012 -0.015870427570916945 0.0021119488628755789 -0.015870427570916945 -9999.9066131279651 -3330.2414156689265 0.013431308721596036 0.031784274100573384 0.013431308721596036 -3330.2690913493498 -0.012307338365644682 0.031784274100573384 -0.012307338365644682 -9999.8544853081657 -3330.2784366851301 0.0180899731720634 0.010863884206628427 0.0180899731720634 -3330.2873521666334 -0.0095718710010714858 0.010863884206628427 -0.0095718710010714858 -9999.8895078292626 -3330.3199381438098 -0.0058709052283272278 0.011304536277748412 -0.0058709052283272278 -3330.3134368703577 -0.00880863922793651 0.011304536277748412 -0.00880863922793651 -9999.9064043698672 -3330.2468354458033 0.010440286282288547 0.045833611882699188 0.010440286282288547 -3330.2714014850208 -0.0022175734193297103 0.045833611882699188 -0.0022175734193297103 -9999.8570157214599 -3330.2788027880251 -0.0081541546008758736 0.035368525086596492 -0.0081541546008758736 -3330.2978777447297 -0.0060992335311311763 0.035368525086596492 -0.0060992335311311763 -9999.8710286867863 -3330.3382842568826 -0.0090292016294472033 0.079303482994873775 -0.0090292016294472033 -3330.3101577744674 0.0067506515861168737 0.079303482994873775 0.0067506515861168737 -9999.8895669965932 -3330.3183892842644 -0.0054223872663181627 0.030335667299368652 -0.0054223872663181627 -3330.3064851218915 -0.0074477837169979466 0.030335667299368652 -0.0074477837169979466 -9999.8830771551366 -3330.3338612567768 -0.0058709052283272278 -0.00049421203948440962 -0.0058709052283272278 -3330.3273599833246 -0.0064487615854886826 -0.00049421203948440962 -0.0064487615854886826 -9999.9481737087553 -3330.3407932223199 -0.0054223872663181627 0.013463452200085158 -0.0054223872663181627 -3330.328889059947 -0.0027088166934845503 0.013463452200085158 -0.0027088166934845503 -9999.9502889692958 -3330.3157307933434 0.0056518151865546651 0.0023371988663711818 0.0056518151865546651 -3330.3190977480317 -0.010142277315026149 0.0023371988663711818 -0.010142277315026149 -9999.9461442183601 -3330.3242373028334 0.011054354694782331 0.0015077338975970633 0.011054354694782331 -3330.3233728120358 -0.0085422011943592224 0.0015077338975970633 -0.0085422011943592224 -9999.9493396117323 -3330.3231902825337 0.0055972518310771768 -0.020628618400223786 0.0055972518310771768 -3330.3167388676866 -0.025172462392220041 -0.020628618400223786 -0.025172462392220041 -9999.9388506533214 -3330.3321452646924 0.0041136912150108174 -0.0079344059904542519 0.0041136912150108174 -3330.3263607135559 -0.0094462500492227264 -0.0079344059904542519 -0.0094462500492227264 -9999.9591504695418 -3330.3215139006625 -0.00053814421970388437 -0.011553545344213489 -0.00053814421970388437 -3330.3218791832405 -0.013916343535129272 -0.011553545344213489 -0.013916343535129272 -9999.9514647788528 -3330.3337003846791 -0.0075740141035036679 -0.0060162274212416378 -0.0075740141035036679 -3330.3275093558768 -0.0043254274678474758 -0.0060162274212416378 -0.0043254274678474758 -9999.9559189430147 -3330.3387155924356 0.0023224071590252082 -0.0078833573861629702 0.0023224071590252082 -3330.3181051383235 -0.016247645631665364 -0.0078833573861629702 -0.016247645631665364 -9999.9622861004464 -3330.3337142297023 0.0043885045553708757 -0.0051314880802237894 0.0043885045553708757 -3330.3164354423552 -0.013764628456556238 -0.0051314880802237894 -0.013764628456556238 -9999.95706139299 -3330.3409382916052 0.00021769043184827197 -0.0027622924262686865 0.00021769043184827197 -3330.3181336201596 -0.0096610611726646312 -0.0027622924262686865 -0.0096610611726646312 -9999.9592919529168 -3330.3330864962863 -0.0079223501778833416 -0.0097063143075502012 -0.0079223501778833416 -3330.3238067764414 -0.0011301518643449526 -0.0097063143075502012 -0.0011301518643449526 -9999.9470917169092 -3330.3425155276855 0.0048449865732699271 -0.011191511181095848 0.0048449865732699271 -3330.3306102217994 -0.011150864222145174 -0.011191511181095848 -0.011150864222145174 -9999.9663623551241 -3330.3326468234191 0.0044239181587055754 -0.0091559071879601106 0.0044239181587055754 -3330.3271085495326 -0.01131538280606037 -0.0091559071879601106 -0.01131538280606037 -9999.962302923268 -3330.3427731188804 0.0046546534786708893 -0.011278943791694473 0.0046546534786708893 -3330.3314280493341 -0.011271989022134221 -0.011278943791694473 -0.011271989022134221 -9999.9666312098052 -3330.3382267410907 0.0018495029130820573 -0.0096357292313768994 0.0018495029130820573 -3330.3289449548301 -0.011980104423855664 -0.0096357292313768994 -0.011980104423855664 -9999.9641570040112 -3330.3277218571839 0.0066577138950272285 -0.0045893499373050872 0.0066577138950272285 -3330.3250408242457 -0.0095214762822024568 -0.0045893499373050872 -0.0095214762822024568 -9999.9577146453375 -3330.3283354840423 0.0069593304294890412 -0.0055386177737091202 0.0069593304294890412 -3330.3258254494231 -0.011396731240438385 -0.0055386177737091202 -0.011396731240438385 -9999.9609043133969 -3330.3340362484851 0.010491415909110069 -0.0086702851767768152 0.010491415909110069 -3330.3305842894206 -0.0053556006205326412 -0.0086702851767768152 -0.0053556006205326412 -9999.963519214507 -3330.3389220240169 0.002108467292495142 0.0090630485465226229 0.002108467292495142 -3330.3246732686093 -0.0062214111057983246 0.0090630485465226229 -0.0062214111057983246 -9999.9533359061679 -3330.3194879365055 0.0034826275608454971 0.0037842843485123012 0.0034826275608454971 -3330.3184599654323 -0.0076358517253538594 0.0037842843485123012 -0.0076358517253538594 -9999.9469240584949 -3330.3329690914907 0.003628221742868476 -0.0041930275910999626 0.003628221742868476 -3330.3240408336696 -0.0088350258374703117 -0.0041930275910999626 -0.0088350258374703117 -9999.9587764562675 -3330.3363764907863 -0.0044619797890231849 0.0075362221214163583 -0.0044619797890231849 -3330.3223833126594 0.0043220658226346131 0.0075362221214163583 0.0043220658226346131 -9999.9291032136825 -3330.3453350938016 -0.00054614065040259341 0.0080396622488478897 -0.00054614065040259341 -3330.3290880661934 0.0038186256952030817 0.0080396622488478897 0.0038186256952030817 -9999.9330190528199 -3330.3443751279283 0.0011486406289631379 -0.0068022965751879383 0.0011486406289631379 -3330.3279683975397 0.0011291714054095792 -0.0068022965751879383 0.0011291714054095792 -9999.9324991441827 -3330.3475067082472 0.0059262308866456781 0.0092972145666863071 0.0059262308866456781 -3330.3313596387507 -0.0064555771314189769 0.0092972145666863071 -0.0064555771314189769 -9999.9571536697622 -3330.3418867736345 0.0040847048973408073 0.0077784253189747687 0.0040847048973408073 -3330.3309561157967 -0.0075137835810892284 0.0077784253189747687 -0.0075137835810892284 -9999.9573261133555 -3330.3510803557947 0.0054003107490270263 0.010852573133888654 0.0054003107490270263 -3330.3438168757748 -0.0012237686914886581 0.010852573133888654 -0.0012237686914886581 -9999.9611613909074 -3330.3409032285545 0.0080605526808098515 0.0097225811550742947 0.0080605526808098515 -3330.3399266855704 -0.00097416553217044566 0.0097225811550742947 -0.00097416553217044566 -9999.9593228695303 -3330.3426877674592 0.007682650508987976 -0.007887736279371893 0.007682650508987976 -3330.339837875199 -0.011017372205969878 -0.007887736279371893 -0.011017372205969878 -9999.9597468016582 -3330.3391745718618 0.0059529923545063035 -0.0081890782748814672 0.0059529923545063035 -3330.3292193085981 -0.010407193512946833 -0.0081890782748814672 -0.010407193512946833 -9999.9562138611145 -3330.3486411243684 0.00052781655759370771 -0.0044033844897057861 0.00052781655759370771 -3330.3322024944537 -0.0044013038641423918 -0.0044033844897057861 -0.0044013038641423918 -9999.9477625896834 -3330.3537435230483 0.0035105582751224773 0.0023557247841381468 0.0035105582751224773 -3330.3406938280841 -0.018087629054207355 0.0023557247841381468 -0.018087629054207355 -9999.9511610227564 
</DataArray>
</CellData>
</Piece>
</UnstructuredGrid>
</VTKFile>
