<?xml version="1.0"?>
<VTKFile type="UnstructuredGrid" version="0.1" byte_order="LittleEndian">
<UnstructuredGrid>
<Piece NumberOfPoints="2160" NumberOfCells="540">
<Points>
<DataArray type="Float64" NumberOfComponents="3" format="ascii">
-4.3301270160527148 -2.500000004970083 -12 -5 -1.397247784140632e-08 -12 -2.9547160992544761 -1.820741508163664 -12 -2.9547160992544761 -1.820741508163664 -15 -2.5000000000000022 -4.3301270189221919 -12 -4.3301270160527148 -2.500000004970083 -12 -2.9547160992544761 -1.820741508163664 -12 -2.9547160992544761 -1.820741508163664 -15 -4.3301270160527148 -2.500000004970083 -15 -2.5000000000000022 -4.3301270189221919 -12 -2.9547160992544761 -1.820741508163664 -15 -4.3301270160527148 -2.500000004970083 -12 -5 -1.397247784140632e-08 -15 -4.3301270160527148 -2.500000004970083 -15 -2.9547160992544761 -1.820741508163664 -15 -4.3301270160527148 -2.500000004970083 -12 -0.66987297914647026 -2.499999999706382 -15 -2.2735805010731909 0.22641949675281539 -12 -2.9547160992544761 -1.820741508163664 -15 -0.66987297914647026 -2.499999999706382 -12 -2.5000000000000022 -4.3301270189221919 -12 -0.66987297914647026 -2.499999999706382 -12 -0.66987297914647026 -2.499999999706382 -15 -2.9547160992544761 -1.820741508163664 -15 -2.2735805010731909 0.22641949675281539 -12 -0.66987297914647026 -2.499999999706382 -12 -2.9547160992544761 -1.820741508163664 -12 -2.9547160992544761 -1.820741508163664 -15 -0.66987297914647026 -2.499999999706382 -12 -2.5000000000000022 -4.3301270189221919 -12 -2.9547160992544761 -1.820741508163664 -12 -2.9547160992544761 -1.820741508163664 -15 -2.5000000000000022 -4.3301270189221919 -15 6.9142305214597846e-09 -5 -12 -0.66987297914647026 -2.499999999706382 -15 -2.5000000000000022 -4.3301270189221919 -12 -2.5000000000000022 -4.3301270189221919 -15 -0.66987297914647026 -2.499999999706382 -15 -2.9547160992544761 -1.820741508163664 -15 -2.5000000000000022 -4.3301270189221919 -12 -4.3301270160527148 -2.500000004970083 -15 -2.5000000000000022 -4.3301270189221919 -15 -2.9547160992544761 -1.820741508163664 -15 -2.5000000000000022 -4.3301270189221919 -12 -2.5000000000000022 -4.3301270189221919 -15 6.9142305214597846e-09 -5 -15 -0.66987297914647026 -2.499999999706382 -15 6.9142305214597846e-09 -5 -12 -0.66987297914647026 -2.499999999706382 -15 6.9142305214597846e-09 -5 -15 0.91506351643986317 -3.4150635091400758 -15 6.9142305214597846e-09 -5 -12 -0.66987297914647026 -2.499999999706382 -15 6.9142305214597846e-09 -5 -12 0.91506351643986317 -3.4150635091400758 -15 -0.66987297914647026 -2.499999999706382 -12 0.20080558631870429 0.033909897404034287 -15 -0.66987297914647026 -2.499999999706382 -15 0.95458002071209891 -1.657898275923388 -15 -0.66987297914647026 -2.499999999706382 -12 0.95458002071209891 -1.657898275923388 -15 -0.66987297914647026 -2.499999999706382 -15 0.91506351643986317 -3.4150635091400758 -15 -0.66987297914647026 -2.499999999706382 -12 0.95458002071209891 -1.657898275923388 -15 -0.66987297914647026 -2.499999999706382 -12 0.91506351643986317 -3.4150635091400758 -15 0.91506351643986317 -3.4150635091400758 -12 2.3883545080289421 -0.94497882694672608 -12 0.95458002071209891 -1.657898275923388 -12 0.95458002071209891 -1.657898275923388 -15 2.217625015551433 -2.5696135239339939 -15 2.3883545080289421 -0.94497882694672608 -15 0.95458002071209891 -1.657898275923388 -15 2.217625015551433 -2.5696135239339939 -15 2.3883545080289421 -0.94497882694672608 -12 0.95458002071209891 -1.657898275923388 -15 0.91506351643986317 -3.4150635091400758 -12 2.217625015551433 -2.5696135239339939 -15 0.95458002071209891 -1.657898275923388 -12 0.95458002071209891 -1.657898275923388 -15 0.91506351643986317 -3.4150635091400758 -15 2.217625015551433 -2.5696135239339939 -15 0.91506351643986317 -3.4150635091400758 -12 0.91506351643986317 -3.4150635091400758 -15 2.500000010727558 -4.3301270127286351 -15 2.217625015551433 -2.5696135239339939 -15 2.500000010727558 -4.3301270127286351 -12 6.9142305214597846e-09 -5 -15 2.500000010727558 -4.3301270127286351 -12 0.91506351643986317 -3.4150635091400758 -15 6.9142305214597846e-09 -5 -12 6.9142305214597846e-09 -5 -15 2.500000010727558 -4.3301270127286351 -15 0.91506351643986317 -3.4150635091400758 -15 2.500000010727558 -4.3301270127286351 -12 0.91506351643986317 -3.4150635091400758 -15 2.500000010727558 -4.3301270127286351 -12 2.217625015551433 -2.5696135239339939 -15 0.91506351643986317 -3.4150635091400758 -12 2.500000010727558 -4.3301270127286351 -12 6.9142305214597846e-09 -5 -12 0.91506351643986317 -3.4150635091400758 -12 0.91506351643986317 -3.4150635091400758 -15 2.500000010727558 -4.3301270127286351 -12 0.91506351643986317 -3.4150635091400758 -12 2.217625015551433 -2.5696135239339939 -12 2.217625015551433 -2.5696135239339939 -15 0.95458002071209891 -1.657898275923388 -12 2.3883545080289421 -0.94497882694672608 -12 2.217625015551433 -2.5696135239339939 -12 2.217625015551433 -2.5696135239339939 -15 0.91506351643986317 -3.4150635091400758 -12 0.95458002071209891 -1.657898275923388 -12 2.217625015551433 -2.5696135239339939 -12 2.217625015551433 -2.5696135239339939 -15 -0.66987297914647026 -2.499999999706382 -12 0.95458002071209891 -1.657898275923388 -12 0.91506351643986317 -3.4150635091400758 -12 0.95458002071209891 -1.657898275923388 -15 -0.66987297914647026 -2.499999999706382 -12 0.20080558631870429 0.033909897404034287 -12 0.95458002071209891 -1.657898275923388 -12 0.95458002071209891 -1.657898275923388 -15 6.9142305214597846e-09 -5 -12 -0.66987297914647026 -2.499999999706382 -12 0.91506351643986317 -3.4150635091400758 -12 0.91506351643986317 -3.4150635091400758 -15 6.9142305214597846e-09 -5 -12 -2.5000000000000022 -4.3301270189221919 -12 -0.66987297914647026 -2.499999999706382 -12 -0.66987297914647026 -2.499999999706382 -15 -0.66987297914647026 -2.499999999706382 -12 6.9142305214597846e-09 -5 -12 0.91506351643986317 -3.4150635091400758 -12 6.9142305214597846e-09 -5 -9 6.9142305214597846e-09 -5 -9 -0.66987297914647026 -2.499999999706382 -9 0.91506351643986317 -3.4150635091400758 -9 0.91506351643986317 -3.4150635091400758 -12 -0.66987297914647026 -2.499999999706382 -12 6.9142305214597846e-09 -5 -9 0.91506351643986317 -3.4150635091400758 -12 -0.66987297914647026 -2.499999999706382 -9 6.9142305214597846e-09 -5 -9 -2.5000000000000022 -4.3301270189221919 -9 -0.66987297914647026 -2.499999999706382 -9 -0.66987297914647026 -2.499999999706382 -12 -2.5000000000000022 -4.3301270189221919 -12 6.9142305214597846e-09 -5 -12 -0.66987297914647026 -2.499999999706382 -12 6.9142305214597846e-09 -5 -9 0.20080558631870429 0.033909897404034287 -12 -0.66987297914647026 -2.499999999706382 -12 0.95458002071209891 -1.657898275923388 -12 -0.66987297914647026 -2.499999999706382 -9 0.95458002071209891 -1.657898275923388 -12 -0.66987297914647026 -2.499999999706382 -9 0.91506351643986317 -3.4150635091400758 -12 0.91506351643986317 -3.4150635091400758 -9 -0.66987297914647026 -2.499999999706382 -9 0.20080558631870429 0.033909897404034287 -9 0.95458002071209891 -1.657898275923388 -9 0.95458002071209891 -1.657898275923388 -12 0.95458002071209891 -1.657898275923388 -12 -0.66987297914647026 -2.499999999706382 -12 0.91506351643986317 -3.4150635091400758 -12 -0.66987297914647026 -2.499999999706382 -9 -0.66987297914647026 -2.499999999706382 -9 0.95458002071209891 -1.657898275923388 -9 0.91506351643986317 -3.4150635091400758 -9 0.95458002071209891 -1.657898275923388 -12 0.95458002071209891 -1.657898275923388 -9 2.3883545080289421 -0.94497882694672608 -9 2.217625015551433 -2.5696135239339939 -9 2.217625015551433 -2.5696135239339939 -12 2.3883545080289421 -0.94497882694672608 -12 0.95458002071209891 -1.657898275923388 -12 2.217625015551433 -2.5696135239339939 -12 2.3883545080289421 -0.94497882694672608 -9 2.3883545080289421 -0.94497882694672608 -9 0.95458002071209891 -1.657898275923388 -9 0.95458002071209891 -1.657898275923388 -12 2.217625015551433 -2.5696135239339939 -12 0.95458002071209891 -1.657898275923388 -12 0.91506351643986317 -3.4150635091400758 -9 2.217625015551433 -2.5696135239339939 -12 0.95458002071209891 -1.657898275923388 -9 0.95458002071209891 -1.657898275923388 -12 0.91506351643986317 -3.4150635091400758 -12 2.217625015551433 -2.5696135239339939 -12 0.91506351643986317 -3.4150635091400758 -9 0.91506351643986317 -3.4150635091400758 -9 0.95458002071209891 -1.657898275923388 -9 2.217625015551433 -2.5696135239339939 -9 2.217625015551433 -2.5696135239339939 -12 6.9142305214597846e-09 -5 -12 2.500000010727558 -4.3301270127286351 -12 0.91506351643986317 -3.4150635091400758 -12 2.500000010727558 -4.3301270127286351 -9 2.500000010727558 -4.3301270127286351 -9 6.9142305214597846e-09 -5 -9 0.91506351643986317 -3.4150635091400758 -9 0.91506351643986317 -3.4150635091400758 -12 6.9142305214597846e-09 -5 -12 2.500000010727558 -4.3301270127286351 -9 0.91506351643986317 -3.4150635091400758 -12 6.9142305214597846e-09 -5 -9 0.91506351643986317 -3.4150635091400758 -12 2.500000010727558 -4.3301270127286351 -9 2.217625015551433 -2.5696135239339939 -12 0.91506351643986317 -3.4150635091400758 -9 0.91506351643986317 -3.4150635091400758 -12 2.500000010727558 -4.3301270127286351 -12 2.217625015551433 -2.5696135239339939 -12 2.500000010727558 -4.3301270127286351 -9 2.500000010727558 -4.3301270127286351 -9 0.91506351643986317 -3.4150635091400758 -9 2.217625015551433 -2.5696135239339939 -9 2.217625015551433 -2.5696135239339939 -12 6.9142305214597846e-09 -5 -9 2.500000010727558 -4.3301270127286351 -9 0.91506351643986317 -3.4150635091400758 -9 2.500000010727558 -4.3301270127286351 -6 0.91506351643986317 -3.4150635091400758 -9 2.500000010727558 -4.3301270127286351 -9 2.217625015551433 -2.5696135239339939 -9 2.500000010727558 -4.3301270127286351 -6 0.95458002071209891 -1.657898275923388 -9 0.91506351643986317 -3.4150635091400758 -9 2.217625015551433 -2.5696135239339939 -9 0.91506351643986317 -3.4150635091400758 -6 2.3883545080289421 -0.94497882694672608 -9 0.95458002071209891 -1.657898275923388 -9 2.217625015551433 -2.5696135239339939 -9 2.3883545080289421 -0.94497882694672608 -6 0.95458002071209891 -1.657898275923388 -9 -0.66987297914647026 -2.499999999706382 -9 0.91506351643986317 -3.4150635091400758 -9 -0.66987297914647026 -2.499999999706382 -6 0.20080558631870429 0.033909897404034287 -9 -0.66987297914647026 -2.499999999706382 -9 0.95458002071209891 -1.657898275923388 -9 -0.66987297914647026 -2.499999999706382 -6 -2.5000000000000022 -4.3301270189221919 -9 6.9142305214597846e-09 -5 -9 -0.66987297914647026 -2.499999999706382 -9 6.9142305214597846e-09 -5 -6 -0.66987297914647026 -2.499999999706382 -9 6.9142305214597846e-09 -5 -9 0.91506351643986317 -3.4150635091400758 -9 6.9142305214597846e-09 -5 -6 -2.5000000000000022 -4.3301270189221919 -9 -0.66987297914647026 -2.499999999706382 -9 -2.9547160992544761 -1.820741508163664 -9 -2.5000000000000022 -4.3301270189221919 -6 -4.3301270160527148 -2.500000004970083 -9 -2.5000000000000022 -4.3301270189221919 -9 -2.9547160992544761 -1.820741508163664 -9 -2.5000000000000022 -4.3301270189221919 -6 -2.5000000000000022 -4.3301270189221919 -12 6.9142305214597846e-09 -5 -9 -0.66987297914647026 -2.499999999706382 -12 -2.5000000000000022 -4.3301270189221919 -9 -2.5000000000000022 -4.3301270189221919 -12 -0.66987297914647026 -2.499999999706382 -12 -2.9547160992544761 -1.820741508163664 -12 -2.5000000000000022 -4.3301270189221919 -9 -4.3301270160527148 -2.500000004970083 -12 -2.5000000000000022 -4.3301270189221919 -12 -2.9547160992544761 -1.820741508163664 -12 -2.5000000000000022 -4.3301270189221919 -9 -2.2735805010731909 0.22641949675281539 -9 -0.66987297914647026 -2.499999999706382 -9 -2.9547160992544761 -1.820741508163664 -9 -2.9547160992544761 -1.820741508163664 -12 -0.66987297914647026 -2.499999999706382 -9 -2.5000000000000022 -4.3301270189221919 -9 -2.9547160992544761 -1.820741508163664 -9 -2.9547160992544761 -1.820741508163664 -12 -2.5000000000000022 -4.3301270189221919 -9 -0.66987297914647026 -2.499999999706382 -9 -0.66987297914647026 -2.499999999706382 -12 -2.9547160992544761 -1.820741508163664 -12 -0.66987297914647026 -2.499999999706382 -12 -2.2735805010731909 0.22641949675281539 -9 -2.9547160992544761 -1.820741508163664 -12 -0.66987297914647026 -2.499999999706382 -9 -2.5000000000000022 -4.3301270189221919 -9 -4.3301270160527148 -2.500000004970083 -9 -2.9547160992544761 -1.820741508163664 -9 -2.9547160992544761 -1.820741508163664 -12 -4.3301270160527148 -2.500000004970083 -12 -2.5000000000000022 -4.3301270189221919 -9 -2.9547160992544761 -1.820741508163664 -12 -4.3301270160527148 -2.500000004970083 -9 -4.3301270160527148 -2.500000004970083 -9 -5 -1.397247784140632e-08 -9 -2.9547160992544761 -1.820741508163664 -9 -2.9547160992544761 -1.820741508163664 -12 -5 -1.397247784140632e-08 -12 -4.3301270160527148 -2.500000004970083 -12 -2.9547160992544761 -1.820741508163664 -12 -4.3301270160527148 -2.500000004970083 -9 -5 -1.397247784140632e-08 -9 -4.3301270160527148 -2.500000004970083 -9 -2.9547160992544761 -1.820741508163664 -9 -4.3301270160527148 -2.500000004970083 -6 -2.2735805010731909 0.22641949675281539 -9 -0.66987297914647026 -2.499999999706382 -9 0.20080558631870429 0.033909897404034287 -9 -2.2735805010731909 0.22641949675281539 -6 -0.66987297914647026 -2.499999999706382 -9 -2.2735805010731909 0.22641949675281539 -9 -2.9547160992544761 -1.820741508163664 -9 -2.2735805010731909 0.22641949675281539 -6 -2.2735805010731909 0.22641949675281539 -9 0.20080558631870429 0.033909897404034287 -9 -0.91506351183037493 1.5849364925866429 -9 -2.2735805010731909 0.22641949675281539 -6 -2.2735805010731909 0.22641949675281539 -9 -5 -1.397247784140632e-08 -9 -2.9547160992544761 -1.820741508163664 -9 -5 -1.397247784140632e-08 -6 -5 -1.397247784140632e-08 -9 -2.2735805010731909 0.22641949675281539 -9 -2.9547160992544761 -1.820741508163664 -9 -2.9547160992544761 -1.820741508163664 -12 -2.2735805010731909 0.22641949675281539 -12 -5 -1.397247784140632e-08 -12 -2.9547160992544761 -1.820741508163664 -12 -5 -1.397247784140632e-08 -9 -2.2735805010731909 0.22641949675281539 -12 -5 -1.397247784140632e-08 -9 -2.9547160992544761 -1.820741508163664 -12 -2.2735805010731909 0.22641949675281539 -9 -5 -1.397247784140632e-08 -12 -4.3301270160527148 -2.500000004970083 -9 -2.9547160992544761 -1.820741508163664 -12 -5 -1.397247784140632e-08 -9 -0.66987297914647026 -2.499999999706382 -12 -2.2735805010731909 0.22641949675281539 -12 -2.9547160992544761 -1.820741508163664 -12 -2.2735805010731909 0.22641949675281539 -9 -2.2735805010731909 0.22641949675281539 -12 0.20080558631870429 0.033909897404034287 -12 -0.91506351183037493 1.5849364925866429 -12 -2.2735805010731909 0.22641949675281539 -9 -2.2735805010731909 0.22641949675281539 -12 -0.66987297914647026 -2.499999999706382 -12 0.20080558631870429 0.033909897404034287 -12 -2.2735805010731909 0.22641949675281539 -9 -1.107852388446384 3.1911857209629071 -9 -0.91506351183037493 1.5849364925866429 -9 -2.2253246846922492 2.366533744740174 -9 -2.2253246846922492 2.366533744740174 -12 -2.2735805010731909 0.22641949675281539 -12 -0.91506351183037493 1.5849364925866429 -12 -2.2253246846922492 2.366533744740174 -12 -2.2735805010731909 0.22641949675281539 -9 -0.91506351183037493 1.5849364925866429 -12 -1.107852388446384 3.1911857209629071 -12 -2.2253246846922492 2.366533744740174 -12 -0.91506351183037493 1.5849364925866429 -9 -0.91506351183037493 1.5849364925866429 -9 -2.2735805010731909 0.22641949675281539 -9 -2.2253246846922492 2.366533744740174 -9 -2.2253246846922492 2.366533744740174 -12 -2.2735805010731909 0.22641949675281539 -9 -0.91506351183037493 1.5849364925866429 -9 -0.91506351183037493 1.5849364925866429 -12 -2.2253246846922492 2.366533744740174 -12 -2.2735805010731909 0.22641949675281539 -9 -4.3301270221112951 2.4999999944763132 -9 -2.2253246846922492 2.366533744740174 -9 -2.2253246846922492 2.366533744740174 -12 -4.3301270221112951 2.4999999944763132 -9 -2.2735805010731909 0.22641949675281539 -9 -2.2735805010731909 0.22641949675281539 -12 -2.2253246846922492 2.366533744740174 -12 -4.3301270221112951 2.4999999944763132 -12 -5 -1.397247784140632e-08 -9 -2.2735805010731909 0.22641949675281539 -12 -4.3301270221112951 2.4999999944763132 -9 -4.3301270221112951 2.4999999944763132 -12 -5 -1.397247784140632e-08 -12 -2.2735805010731909 0.22641949675281539 -12 -5 -1.397247784140632e-08 -9 -5 -1.397247784140632e-08 -9 -4.3301270221112951 2.4999999944763132 -9 -2.2735805010731909 0.22641949675281539 -9 -2.2735805010731909 0.22641949675281539 -12 -4.3301270221112951 2.4999999944763132 -12 -2.2735805010731909 0.22641949675281539 -12 -2.2253246846922492 2.366533744740174 -12 -4.3301270221112951 2.4999999944763132 -9 -4.3301270221112951 2.4999999944763132 -9 -5 -1.397247784140632e-08 -9 -2.2735805010731909 0.22641949675281539 -9 -5 -1.397247784140632e-08 -6 -4.3301270221112951 2.4999999944763132 -9 -2.2735805010731909 0.22641949675281539 -9 -2.2253246846922492 2.366533744740174 -9 -4.3301270221112951 2.4999999944763132 -6 -0.91506351183037493 1.5849364925866429 -9 -1.107852388446384 3.1911857209629071 -9 -2.2253246846922492 2.366533744740174 -9 -0.91506351183037493 1.5849364925866429 -6 -2.2735805010731909 0.22641949675281539 -9 -0.91506351183037493 1.5849364925866429 -9 -2.2253246846922492 2.366533744740174 -9 -2.2735805010731909 0.22641949675281539 -6 0.20080558631870429 0.033909897404034287 -9 0.37580157663508379 2.5408650916807378 -9 -0.91506351183037493 1.5849364925866429 -9 0.20080558631870429 0.033909897404034287 -6 -0.91506351183037493 1.5849364925866429 -9 0.37580157663508379 2.5408650916807378 -9 -1.107852388446384 3.1911857209629071 -9 0.37580157663508379 2.5408650916807378 -6 0.20080558631870429 0.033909897404034287 -9 2.3883545080289421 -0.94497882694672608 -9 2.465848112410058 1.4099871989758821 -9 2.3883545080289421 -0.94497882694672608 -6 2.3883545080289421 -0.94497882694672608 -9 0.20080558631870429 0.033909897404034287 -9 0.95458002071209891 -1.657898275923388 -9 2.3883545080289421 -0.94497882694672608 -6 0.37580157663508379 2.5408650916807378 -9 0.20080558631870429 0.033909897404034287 -9 2.465848112410058 1.4099871989758821 -9 0.20080558631870429 0.033909897404034287 -6 0.37580157663508379 2.5408650916807378 -12 0.20080558631870429 0.033909897404034287 -9 2.465848112410058 1.4099871989758821 -12 0.37580157663508379 2.5408650916807378 -9 0.37580157663508379 2.5408650916807378 -9 2.4999999879139869 4.3301270259000564 -9 2.465848112410058 1.4099871989758821 -9 2.465848112410058 1.4099871989758821 -12 0.20080558631870429 0.033909897404034287 -9 0.37580157663508379 2.5408650916807378 -9 2.465848112410058 1.4099871989758821 -9 2.465848112410058 1.4099871989758821 -12 0.37580157663508379 2.5408650916807378 -12 0.20080558631870429 0.033909897404034287 -12 2.465848112410058 1.4099871989758821 -12 0.20080558631870429 0.033909897404034287 -9 2.3883545080289421 -0.94497882694672608 -12 0.20080558631870429 0.033909897404034287 -12 0.95458002071209891 -1.657898275923388 -12 2.3883545080289421 -0.94497882694672608 -9 2.3883545080289421 -0.94497882694672608 -9 0.20080558631870429 0.033909897404034287 -9 0.20080558631870429 0.033909897404034287 -12 0.95458002071209891 -1.657898275923388 -12 2.3883545080289421 -0.94497882694672608 -9 0.20080558631870429 0.033909897404034287 -9 2.465848112410058 1.4099871989758821 -9 2.465848112410058 1.4099871989758821 -12 0.20080558631870429 0.033909897404034287 -12 2.3883545080289421 -0.94497882694672608 -12 2.465848112410058 1.4099871989758821 -12 2.3883545080289421 -0.94497882694672608 -9 0.20080558631870429 0.033909897404034287 -12 2.3883545080289421 -0.94497882694672608 -9 2.465848112410058 1.4099871989758821 -12 0.20080558631870429 0.033909897404034287 -9 0.20080558631870429 0.033909897404034287 -9 2.3883545080289421 -0.94497882694672608 -9 0.95458002071209891 -1.657898275923388 -9 0.95458002071209891 -1.657898275923388 -12 -2.2735805010731909 0.22641949675281539 -9 0.20080558631870429 0.033909897404034287 -9 0.20080558631870429 0.033909897404034287 -12 -0.91506351183037493 1.5849364925866429 -12 -2.2735805010731909 0.22641949675281539 -9 -0.66987297914647026 -2.499999999706382 -9 -0.66987297914647026 -2.499999999706382 -12 0.20080558631870429 0.033909897404034287 -12 0.20080558631870429 0.033909897404034287 -12 -0.66987297914647026 -2.499999999706382 -9 0.95458002071209891 -1.657898275923388 -12 0.20080558631870429 0.033909897404034287 -9 -0.66987297914647026 -2.499999999706382 -9 -2.2735805010731909 0.22641949675281539 -9 0.20080558631870429 0.033909897404034287 -9 0.20080558631870429 0.033909897404034287 -12 0.20080558631870429 0.033909897404034287 -9 -2.2735805010731909 0.22641949675281539 -9 -0.91506351183037493 1.5849364925866429 -9 -0.91506351183037493 1.5849364925866429 -12 0.37580157663508379 2.5408650916807378 -9 0.20080558631870429 0.033909897404034287 -9 -0.91506351183037493 1.5849364925866429 -9 -0.91506351183037493 1.5849364925866429 -12 0.20080558631870429 0.033909897404034287 -12 0.37580157663508379 2.5408650916807378 -12 -0.91506351183037493 1.5849364925866429 -12 0.20080558631870429 0.033909897404034287 -9 0.20080558631870429 0.033909897404034287 -9 0.37580157663508379 2.5408650916807378 -9 0.37580157663508379 2.5408650916807378 -12 -0.91506351183037493 1.5849364925866429 -12 -0.91506351183037493 1.5849364925866429 -12 0.37580157663508379 2.5408650916807378 -9 -1.107852388446384 3.1911857209629071 -12 -0.91506351183037493 1.5849364925866429 -9 -0.91506351183037493 1.5849364925866429 -12 0.37580157663508379 2.5408650916807378 -12 -1.107852388446384 3.1911857209629071 -12 0.37580157663508379 2.5408650916807378 -9 0.20080558631870429 0.033909897404034287 -12 -2.2735805010731909 0.22641949675281539 -12 -0.91506351183037493 1.5849364925866429 -12 -0.91506351183037493 1.5849364925866429 -15 0.37580157663508379 2.5408650916807378 -12 0.20080558631870429 0.033909897404034287 -12 -0.91506351183037493 1.5849364925866429 -12 -0.91506351183037493 1.5849364925866429 -15 -0.66987297914647026 -2.499999999706382 -12 -2.2735805010731909 0.22641949675281539 -12 0.20080558631870429 0.033909897404034287 -12 0.20080558631870429 0.033909897404034287 -15 2.3883545080289421 -0.94497882694672608 -12 0.20080558631870429 0.033909897404034287 -12 2.465848112410058 1.4099871989758821 -12 2.465848112410058 1.4099871989758821 -15 0.20080558631870429 0.033909897404034287 -12 2.3883545080289421 -0.94497882694672608 -12 0.95458002071209891 -1.657898275923388 -12 0.95458002071209891 -1.657898275923388 -15 0.37580157663508379 2.5408650916807378 -12 2.4999999879139869 4.3301270259000564 -12 2.465848112410058 1.4099871989758821 -12 2.465848112410058 1.4099871989758821 -15 0.20080558631870429 0.033909897404034287 -12 0.37580157663508379 2.5408650916807378 -12 2.465848112410058 1.4099871989758821 -12 2.465848112410058 1.4099871989758821 -15 0.37580157663508379 2.5408650916807378 -15 0.20080558631870429 0.033909897404034287 -12 2.465848112410058 1.4099871989758821 -15 0.37580157663508379 2.5408650916807378 -12 0.37580157663508379 2.5408650916807378 -15 0.20080558631870429 0.033909897404034287 -15 2.465848112410058 1.4099871989758821 -15 0.20080558631870429 0.033909897404034287 -12 0.20080558631870429 0.033909897404034287 -15 2.3883545080289421 -0.94497882694672608 -15 2.465848112410058 1.4099871989758821 -15 2.3883545080289421 -0.94497882694672608 -12 2.3883545080289421 -0.94497882694672608 -12 0.20080558631870429 0.033909897404034287 -12 0.20080558631870429 0.033909897404034287 -15 0.95458002071209891 -1.657898275923388 -15 0.20080558631870429 0.033909897404034287 -15 2.3883545080289421 -0.94497882694672608 -12 2.465848112410058 1.4099871989758821 -15 0.20080558631870429 0.033909897404034287 -12 2.3883545080289421 -0.94497882694672608 -15 0.20080558631870429 0.033909897404034287 -15 0.95458002071209891 -1.657898275923388 -15 2.3883545080289421 -0.94497882694672608 -12 -2.2735805010731909 0.22641949675281539 -12 -0.66987297914647026 -2.499999999706382 -12 -0.66987297914647026 -2.499999999706382 -15 0.20080558631870429 0.033909897404034287 -15 -2.2735805010731909 0.22641949675281539 -12 0.20080558631870429 0.033909897404034287 -12 0.20080558631870429 0.033909897404034287 -15 -0.91506351183037493 1.5849364925866429 -15 0.20080558631870429 0.033909897404034287 -15 -0.66987297914647026 -2.499999999706382 -12 0.95458002071209891 -1.657898275923388 -15 0.20080558631870429 0.033909897404034287 -12 0.20080558631870429 0.033909897404034287 -12 0.37580157663508379 2.5408650916807378 -12 0.37580157663508379 2.5408650916807378 -15 -0.91506351183037493 1.5849364925866429 -15 -0.91506351183037493 1.5849364925866429 -15 0.37580157663508379 2.5408650916807378 -15 -1.107852388446384 3.1911857209629071 -15 0.37580157663508379 2.5408650916807378 -12 -0.91506351183037493 1.5849364925866429 -15 0.37580157663508379 2.5408650916807378 -12 -1.107852388446384 3.1911857209629071 -15 -0.91506351183037493 1.5849364925866429 -12 0.20080558631870429 0.033909897404034287 -15 0.37580157663508379 2.5408650916807378 -15 -0.91506351183037493 1.5849364925866429 -15 0.20080558631870429 0.033909897404034287 -12 -2.2735805010731909 0.22641949675281539 -12 -0.91506351183037493 1.5849364925866429 -12 -0.91506351183037493 1.5849364925866429 -15 -2.2253246846922492 2.366533744740174 -15 -2.2735805010731909 0.22641949675281539 -15 -0.91506351183037493 1.5849364925866429 -15 -2.2253246846922492 2.366533744740174 -15 -2.2735805010731909 0.22641949675281539 -12 -4.3301270221112951 2.4999999944763132 -12 -2.2735805010731909 0.22641949675281539 -12 -2.2735805010731909 0.22641949675281539 -15 -2.2253246846922492 2.366533744740174 -15 -0.91506351183037493 1.5849364925866429 -15 -1.107852388446384 3.1911857209629071 -15 -2.2253246846922492 2.366533744740174 -15 -0.91506351183037493 1.5849364925866429 -12 -0.91506351183037493 1.5849364925866429 -12 -2.2735805010731909 0.22641949675281539 -12 -2.2253246846922492 2.366533744740174 -12 -2.2253246846922492 2.366533744740174 -15 -2.2735805010731909 0.22641949675281539 -12 -4.3301270221112951 2.4999999944763132 -12 -2.2253246846922492 2.366533744740174 -12 -2.2253246846922492 2.366533744740174 -15 -1.107852388446384 3.1911857209629071 -12 -0.91506351183037493 1.5849364925866429 -12 -2.2253246846922492 2.366533744740174 -12 -2.2253246846922492 2.366533744740174 -15 -0.66987297914647026 -2.499999999706382 -15 -2.2735805010731909 0.22641949675281539 -15 -2.9547160992544761 -1.820741508163664 -15 -2.2735805010731909 0.22641949675281539 -12 -2.2735805010731909 0.22641949675281539 -15 0.20080558631870429 0.033909897404034287 -15 -0.91506351183037493 1.5849364925866429 -15 -2.2735805010731909 0.22641949675281539 -12 -2.2735805010731909 0.22641949675281539 -15 -0.66987297914647026 -2.499999999706382 -15 0.20080558631870429 0.033909897404034287 -15 -2.2735805010731909 0.22641949675281539 -12 -5 -1.397247784140632e-08 -15 -4.3301270160527148 -2.500000004970083 -12 -2.9547160992544761 -1.820741508163664 -15 -5 -1.397247784140632e-08 -12 -2.2735805010731909 0.22641949675281539 -15 -5 -1.397247784140632e-08 -12 -2.9547160992544761 -1.820741508163664 -15 -2.2735805010731909 0.22641949675281539 -12 -2.2735805010731909 0.22641949675281539 -15 -5 -1.397247784140632e-08 -15 -2.9547160992544761 -1.820741508163664 -15 -5 -1.397247784140632e-08 -12 -5 -1.397247784140632e-08 -12 -2.2735805010731909 0.22641949675281539 -12 -2.9547160992544761 -1.820741508163664 -12 -2.9547160992544761 -1.820741508163664 -15 -5 -1.397247784140632e-08 -12 -4.3301270221112951 2.4999999944763132 -12 -2.2735805010731909 0.22641949675281539 -12 -2.2735805010731909 0.22641949675281539 -15 -4.3301270221112951 2.4999999944763132 -15 -5 -1.397247784140632e-08 -15 -2.2735805010731909 0.22641949675281539 -15 -5 -1.397247784140632e-08 -12 -4.3301270221112951 2.4999999944763132 -15 -5 -1.397247784140632e-08 -12 -2.2735805010731909 0.22641949675281539 -15 -4.3301270221112951 2.4999999944763132 -12 -4.3301270221112951 2.4999999944763132 -15 -2.2735805010731909 0.22641949675281539 -15 -2.2253246846922492 2.366533744740174 -15 -4.3301270221112951 2.4999999944763132 -12 -2.4999999999999991 4.3301270189221936 -15 -4.3301270221112951 2.4999999944763132 -15 -2.2253246846922492 2.366533744740174 -15 -4.3301270221112951 2.4999999944763132 -12 -0.91506351183037493 1.5849364925866429 -12 -1.107852388446384 3.1911857209629071 -12 -1.107852388446384 3.1911857209629071 -15 -2.2253246846922492 2.366533744740174 -15 -2.4999999999999991 4.3301270189221936 -15 -4.3301270221112951 2.4999999944763132 -12 -2.2253246846922492 2.366533744740174 -15 -2.4999999999999991 4.3301270189221936 -12 -1.107852388446384 3.1911857209629071 -15 -2.4999999999999991 4.3301270189221936 -15 -2.2253246846922492 2.366533744740174 -15 -2.4999999999999991 4.3301270189221936 -12 -1.107852388446384 3.1911857209629071 -15 -2.4999999999999991 4.3301270189221936 -12 -2.2253246846922492 2.366533744740174 -15 -1.107852388446384 3.1911857209629071 -12 -6.2995949836986492e-09 5 -15 -2.4999999999999991 4.3301270189221936 -15 -1.107852388446384 3.1911857209629071 -15 -2.4999999999999991 4.3301270189221936 -12 -2.4999999999999991 4.3301270189221936 -12 -1.107852388446384 3.1911857209629071 -12 -2.2253246846922492 2.366533744740174 -12 -2.2253246846922492 2.366533744740174 -15 -4.3301270221112951 2.4999999944763132 -12 -2.4999999999999991 4.3301270189221936 -12 -2.2253246846922492 2.366533744740174 -12 -2.2253246846922492 2.366533744740174 -15 -2.4999999999999991 4.3301270189221936 -12 -4.3301270221112951 2.4999999944763132 -12 -2.2253246846922492 2.366533744740174 -12 -4.3301270221112951 2.4999999944763132 -9 -6.2995949836986492e-09 5 -12 -2.4999999999999991 4.3301270189221936 -12 -1.107852388446384 3.1911857209629071 -12 -2.4999999999999991 4.3301270189221936 -9 -0.91506351183037493 1.5849364925866429 -9 -1.107852388446384 3.1911857209629071 -9 -1.107852388446384 3.1911857209629071 -12 -2.2253246846922492 2.366533744740174 -12 -2.4999999999999991 4.3301270189221936 -12 -4.3301270221112951 2.4999999944763132 -9 -2.2253246846922492 2.366533744740174 -12 -2.4999999999999991 4.3301270189221936 -9 -4.3301270221112951 2.4999999944763132 -9 -2.4999999999999991 4.3301270189221936 -9 -2.2253246846922492 2.366533744740174 -9 -2.2253246846922492 2.366533744740174 -12 -2.4999999999999991 4.3301270189221936 -9 -1.107852388446384 3.1911857209629071 -9 -2.2253246846922492 2.366533744740174 -9 -2.2253246846922492 2.366533744740174 -12 -1.107852388446384 3.1911857209629071 -12 -2.4999999999999991 4.3301270189221936 -12 -2.2253246846922492 2.366533744740174 -12 -2.4999999999999991 4.3301270189221936 -9 -1.107852388446384 3.1911857209629071 -12 -2.4999999999999991 4.3301270189221936 -9 -2.2253246846922492 2.366533744740174 -12 -1.107852388446384 3.1911857209629071 -9 -6.2995949836986492e-09 5 -9 -2.4999999999999991 4.3301270189221936 -9 -1.107852388446384 3.1911857209629071 -9 -2.4999999999999991 4.3301270189221936 -6 -1.107852388446384 3.1911857209629071 -9 -2.4999999999999991 4.3301270189221936 -9 -2.2253246846922492 2.366533744740174 -9 -2.4999999999999991 4.3301270189221936 -6 -2.4999999999999991 4.3301270189221936 -9 -4.3301270221112951 2.4999999944763132 -9 -2.2253246846922492 2.366533744740174 -9 -4.3301270221112951 2.4999999944763132 -6 -6.2995949836986492e-09 5 -12 -2.4999999999999991 4.3301270189221936 -9 -1.107852388446384 3.1911857209629071 -12 -6.2995949836986492e-09 5 -9 2.4999999879139869 4.3301270259000564 -9 -6.2995949836986492e-09 5 -9 0.37580157663508379 2.5408650916807378 -9 -6.2995949836986492e-09 5 -6 2.4999999879139869 4.3301270259000564 -9 0.37580157663508379 2.5408650916807378 -9 2.465848112410058 1.4099871989758821 -9 2.4999999879139869 4.3301270259000564 -6 0.37580157663508379 2.5408650916807378 -9 -6.2995949836986492e-09 5 -9 -1.107852388446384 3.1911857209629071 -9 -6.2995949836986492e-09 5 -6 0.37580157663508379 2.5408650916807378 -9 -0.91506351183037493 1.5849364925866429 -9 -1.107852388446384 3.1911857209629071 -9 -1.107852388446384 3.1911857209629071 -12 0.37580157663508379 2.5408650916807378 -12 -6.2995949836986492e-09 5 -9 -1.107852388446384 3.1911857209629071 -12 0.37580157663508379 2.5408650916807378 -9 0.37580157663508379 2.5408650916807378 -12 -6.2995949836986492e-09 5 -12 -1.107852388446384 3.1911857209629071 -12 -6.2995949836986492e-09 5 -9 -2.4999999999999991 4.3301270189221936 -9 -6.2995949836986492e-09 5 -9 -1.107852388446384 3.1911857209629071 -9 -1.107852388446384 3.1911857209629071 -12 -6.2995949836986492e-09 5 -9 0.37580157663508379 2.5408650916807378 -9 -1.107852388446384 3.1911857209629071 -9 -1.107852388446384 3.1911857209629071 -12 2.4999999879139869 4.3301270259000564 -12 0.37580157663508379 2.5408650916807378 -12 2.465848112410058 1.4099871989758821 -12 2.4999999879139869 4.3301270259000564 -9 -6.2995949836986492e-09 5 -9 2.4999999879139869 4.3301270259000564 -9 0.37580157663508379 2.5408650916807378 -9 0.37580157663508379 2.5408650916807378 -12 2.4999999879139869 4.3301270259000564 -12 -6.2995949836986492e-09 5 -12 0.37580157663508379 2.5408650916807378 -12 -6.2995949836986492e-09 5 -9 2.4999999879139869 4.3301270259000564 -12 -6.2995949836986492e-09 5 -9 0.37580157663508379 2.5408650916807378 -12 2.4999999879139869 4.3301270259000564 -9 2.4999999879139869 4.3301270259000564 -9 0.37580157663508379 2.5408650916807378 -9 0.37580157663508379 2.5408650916807378 -12 2.465848112410058 1.4099871989758821 -12 -6.2995949836986492e-09 5 -12 2.4999999879139869 4.3301270259000564 -12 0.37580157663508379 2.5408650916807378 -12 0.37580157663508379 2.5408650916807378 -15 -2.4999999999999991 4.3301270189221936 -12 -6.2995949836986492e-09 5 -12 -1.107852388446384 3.1911857209629071 -12 -1.107852388446384 3.1911857209629071 -15 0.37580157663508379 2.5408650916807378 -12 -0.91506351183037493 1.5849364925866429 -12 -1.107852388446384 3.1911857209629071 -12 -1.107852388446384 3.1911857209629071 -15 -6.2995949836986492e-09 5 -12 0.37580157663508379 2.5408650916807378 -12 -1.107852388446384 3.1911857209629071 -12 -1.107852388446384 3.1911857209629071 -15 0.37580157663508379 2.5408650916807378 -15 -6.2995949836986492e-09 5 -12 -1.107852388446384 3.1911857209629071 -15 0.37580157663508379 2.5408650916807378 -12 0.37580157663508379 2.5408650916807378 -15 -6.2995949836986492e-09 5 -15 -1.107852388446384 3.1911857209629071 -15 -6.2995949836986492e-09 5 -12 -6.2995949836986492e-09 5 -15 -2.4999999999999991 4.3301270189221936 -12 -1.107852388446384 3.1911857209629071 -15 -6.2995949836986492e-09 5 -12 2.4999999879139869 4.3301270259000564 -15 -6.2995949836986492e-09 5 -12 0.37580157663508379 2.5408650916807378 -15 2.4999999879139869 4.3301270259000564 -12 2.4999999879139869 4.3301270259000564 -12 0.37580157663508379 2.5408650916807378 -12 0.37580157663508379 2.5408650916807378 -15 2.465848112410058 1.4099871989758821 -15 2.4999999879139869 4.3301270259000564 -15 0.37580157663508379 2.5408650916807378 -15 2.465848112410058 1.4099871989758821 -15 2.4999999879139869 4.3301270259000564 -12 2.4999999879139869 4.3301270259000564 -15 -6.2995949836986492e-09 5 -15 0.37580157663508379 2.5408650916807378 -15 -6.2995949836986492e-09 5 -12 4.3301270155636349 2.5000000058171929 -15 2.4999999879139869 4.3301270259000564 -12 2.465848112410058 1.4099871989758821 -15 4.3301270155636349 2.5000000058171929 -12 4.3301270155636349 2.5000000058171929 -15 2.4999999879139869 4.3301270259000564 -15 2.465848112410058 1.4099871989758821 -15 2.4999999879139869 4.3301270259000564 -12 4.3301270155636349 2.5000000058171929 -12 2.4999999879139869 4.3301270259000564 -9 2.465848112410058 1.4099871989758821 -12 4.3301270155636349 2.5000000058171929 -9 4.3301270155636349 2.5000000058171929 -12 2.4999999879139869 4.3301270259000564 -12 2.465848112410058 1.4099871989758821 -12 2.4999999879139869 4.3301270259000564 -9 4.3301270155636349 2.5000000058171929 -9 2.4999999879139869 4.3301270259000564 -9 2.465848112410058 1.4099871989758821 -9 2.4999999879139869 4.3301270259000564 -6 2.500000010727558 -4.3301270127286351 -15 4.3301270218486989 -2.4999999949311431 -12 2.217625015551433 -2.5696135239339939 -15 2.500000010727558 -4.3301270127286351 -12 4.3301270218486989 -2.4999999949311431 -12 2.500000010727558 -4.3301270127286351 -12 2.217625015551433 -2.5696135239339939 -12 2.217625015551433 -2.5696135239339939 -15 2.3883545080289421 -0.94497882694672608 -12 4.3301270218486989 -2.4999999949311431 -12 2.217625015551433 -2.5696135239339939 -12 2.217625015551433 -2.5696135239339939 -15 2.500000010727558 -4.3301270127286351 -15 4.3301270218486989 -2.4999999949311431 -15 2.217625015551433 -2.5696135239339939 -15 4.3301270218486989 -2.4999999949311431 -12 4.3301270218486989 -2.4999999949311431 -12 2.3883545080289421 -0.94497882694672608 -12 2.3883545080289421 -0.94497882694672608 -15 2.217625015551433 -2.5696135239339939 -15 4.3301270218486989 -2.4999999949311431 -15 2.3883545080289421 -0.94497882694672608 -15 2.217625015551433 -2.5696135239339939 -15 4.3301270218486989 -2.4999999949311431 -12 4.3301270218486989 -2.4999999949311431 -15 5 0 -12 2.3883545080289421 -0.94497882694672608 -15 4.3301270218486989 -2.4999999949311431 -12 4.3301270218486989 -2.4999999949311431 -15 5 0 -15 2.3883545080289421 -0.94497882694672608 -15 5 0 -12 2.3883545080289421 -0.94497882694672608 -15 5 0 -15 2.465848112410058 1.4099871989758821 -15 5 0 -12 2.3883545080289421 -0.94497882694672608 -15 5 0 -12 2.465848112410058 1.4099871989758821 -15 2.3883545080289421 -0.94497882694672608 -12 5 0 -15 4.3301270155636349 2.5000000058171929 -15 2.465848112410058 1.4099871989758821 -15 4.3301270155636349 2.5000000058171929 -12 5 0 -15 4.3301270155636349 2.5000000058171929 -12 2.465848112410058 1.4099871989758821 -15 5 0 -12 2.4999999879139869 4.3301270259000564 -12 4.3301270155636349 2.5000000058171929 -12 2.465848112410058 1.4099871989758821 -12 2.465848112410058 1.4099871989758821 -15 4.3301270155636349 2.5000000058171929 -12 5 0 -12 2.465848112410058 1.4099871989758821 -12 2.465848112410058 1.4099871989758821 -15 5 0 -12 4.3301270218486989 -2.4999999949311431 -12 2.3883545080289421 -0.94497882694672608 -12 2.3883545080289421 -0.94497882694672608 -15 5 0 -12 2.3883545080289421 -0.94497882694672608 -12 2.465848112410058 1.4099871989758821 -12 2.465848112410058 1.4099871989758821 -15 5 0 -9 4.3301270218486989 -2.4999999949311431 -9 2.3883545080289421 -0.94497882694672608 -9 2.3883545080289421 -0.94497882694672608 -12 4.3301270218486989 -2.4999999949311431 -12 5 0 -12 2.3883545080289421 -0.94497882694672608 -12 5 0 -9 2.3883545080289421 -0.94497882694672608 -12 5 0 -9 2.465848112410058 1.4099871989758821 -12 2.3883545080289421 -0.94497882694672608 -9 5 0 -9 2.3883545080289421 -0.94497882694672608 -9 2.465848112410058 1.4099871989758821 -9 2.465848112410058 1.4099871989758821 -12 2.3883545080289421 -0.94497882694672608 -12 5 0 -12 2.465848112410058 1.4099871989758821 -12 5 0 -9 2.4999999879139869 4.3301270259000564 -9 4.3301270155636349 2.5000000058171929 -9 2.465848112410058 1.4099871989758821 -9 2.465848112410058 1.4099871989758821 -12 5 0 -12 4.3301270155636349 2.5000000058171929 -9 2.465848112410058 1.4099871989758821 -12 5 0 -9 5 0 -12 4.3301270155636349 2.5000000058171929 -12 2.465848112410058 1.4099871989758821 -12 4.3301270155636349 2.5000000058171929 -9 4.3301270155636349 2.5000000058171929 -9 5 0 -9 2.465848112410058 1.4099871989758821 -9 2.465848112410058 1.4099871989758821 -12 5 0 -9 4.3301270155636349 2.5000000058171929 -9 2.465848112410058 1.4099871989758821 -9 4.3301270155636349 2.5000000058171929 -6 4.3301270218486989 -2.4999999949311431 -9 5 0 -9 2.3883545080289421 -0.94497882694672608 -9 5 0 -6 2.3883545080289421 -0.94497882694672608 -9 5 0 -9 2.465848112410058 1.4099871989758821 -9 5 0 -6 4.3301270218486989 -2.4999999949311431 -9 2.3883545080289421 -0.94497882694672608 -9 2.217625015551433 -2.5696135239339939 -9 4.3301270218486989 -2.4999999949311431 -6 2.500000010727558 -4.3301270127286351 -9 4.3301270218486989 -2.4999999949311431 -9 2.217625015551433 -2.5696135239339939 -9 4.3301270218486989 -2.4999999949311431 -6 4.3301270218486989 -2.4999999949311431 -12 2.3883545080289421 -0.94497882694672608 -12 2.217625015551433 -2.5696135239339939 -12 4.3301270218486989 -2.4999999949311431 -9 2.3883545080289421 -0.94497882694672608 -9 4.3301270218486989 -2.4999999949311431 -9 2.217625015551433 -2.5696135239339939 -9 2.217625015551433 -2.5696135239339939 -12 4.3301270218486989 -2.4999999949311431 -12 5 0 -9 2.3883545080289421 -0.94497882694672608 -12 4.3301270218486989 -2.4999999949311431 -9 4.3301270218486989 -2.4999999949311431 -9 2.3883545080289421 -0.94497882694672608 -9 2.3883545080289421 -0.94497882694672608 -12 2.217625015551433 -2.5696135239339939 -12 4.3301270218486989 -2.4999999949311431 -9 2.500000010727558 -4.3301270127286351 -9 2.217625015551433 -2.5696135239339939 -9 2.217625015551433 -2.5696135239339939 -12 2.500000010727558 -4.3301270127286351 -12 4.3301270218486989 -2.4999999949311431 -12 2.217625015551433 -2.5696135239339939 -12 4.3301270218486989 -2.4999999949311431 -9 2.500000010727558 -4.3301270127286351 -12 4.3301270218486989 -2.4999999949311431 -9 2.217625015551433 -2.5696135239339939 -12 2.500000010727558 -4.3301270127286351 -9 2.500000010727558 -4.3301270127286351 -9 4.3301270218486989 -2.4999999949311431 -6 2.217625015551433 -2.5696135239339939 -9 2.500000010727558 -4.3301270127286351 -6 2.500000010727558 -4.3301270127286351 -6 4.3301270218486989 -2.4999999949311431 -3 2.217625015551433 -2.5696135239339939 -6 2.500000010727558 -4.3301270127286351 -3 4.3301270218486989 -2.4999999949311431 -3 2.3883545080289421 -0.94497882694672608 -3 2.3883545080289421 -0.94497882694672608 -6 2.217625015551433 -2.5696135239339939 -6 4.3301270218486989 -2.4999999949311431 -6 2.3883545080289421 -0.94497882694672608 -6 2.217625015551433 -2.5696135239339939 -6 4.3301270218486989 -2.4999999949311431 -3 4.3301270218486989 -2.4999999949311431 -6 5 0 -3 2.3883545080289421 -0.94497882694672608 -6 4.3301270218486989 -2.4999999949311431 -3 2.500000010727558 -4.3301270127286351 -6 4.3301270218486989 -2.4999999949311431 -6 2.217625015551433 -2.5696135239339939 -6 4.3301270218486989 -2.4999999949311431 -3 4.3301270218486989 -2.4999999949311431 -6 2.500000010727558 -4.3301270127286351 -6 2.217625015551433 -2.5696135239339939 -6 2.217625015551433 -2.5696135239339939 -9 2.3883545080289421 -0.94497882694672608 -6 4.3301270218486989 -2.4999999949311431 -6 2.217625015551433 -2.5696135239339939 -6 2.217625015551433 -2.5696135239339939 -9 4.3301270218486989 -2.4999999949311431 -9 5 0 -6 2.3883545080289421 -0.94497882694672608 -9 4.3301270218486989 -2.4999999949311431 -6 4.3301270218486989 -2.4999999949311431 -6 2.3883545080289421 -0.94497882694672608 -6 2.3883545080289421 -0.94497882694672608 -9 2.217625015551433 -2.5696135239339939 -9 2.3883545080289421 -0.94497882694672608 -9 5 0 -6 2.465848112410058 1.4099871989758821 -9 2.3883545080289421 -0.94497882694672608 -6 5 0 -6 4.3301270218486989 -2.4999999949311431 -6 2.3883545080289421 -0.94497882694672608 -6 2.3883545080289421 -0.94497882694672608 -9 5 0 -6 2.3883545080289421 -0.94497882694672608 -6 2.465848112410058 1.4099871989758821 -6 2.465848112410058 1.4099871989758821 -9 5 0 -9 4.3301270155636349 2.5000000058171929 -6 2.465848112410058 1.4099871989758821 -9 5 0 -6 4.3301270155636349 2.5000000058171929 -6 5 0 -6 2.465848112410058 1.4099871989758821 -6 2.465848112410058 1.4099871989758821 -9 2.4999999879139869 4.3301270259000564 -6 4.3301270155636349 2.5000000058171929 -6 2.465848112410058 1.4099871989758821 -6 2.465848112410058 1.4099871989758821 -9 5 0 -6 4.3301270155636349 2.5000000058171929 -3 2.465848112410058 1.4099871989758821 -6 5 0 -3 5 0 -6 4.3301270155636349 2.5000000058171929 -6 2.465848112410058 1.4099871989758821 -6 4.3301270155636349 2.5000000058171929 -3 2.3883545080289421 -0.94497882694672608 -6 5 0 -6 2.465848112410058 1.4099871989758821 -6 5 0 -3 2.3883545080289421 -0.94497882694672608 -6 5 0 -3 2.465848112410058 1.4099871989758821 -6 2.3883545080289421 -0.94497882694672608 -3 4.3301270218486989 -2.4999999949311431 -6 5 0 -6 2.3883545080289421 -0.94497882694672608 -6 5 0 -3 5 0 -3 2.3883545080289421 -0.94497882694672608 -3 2.465848112410058 1.4099871989758821 -3 2.465848112410058 1.4099871989758821 -6 2.3883545080289421 -0.94497882694672608 -3 5 0 -3 2.465848112410058 1.4099871989758821 -3 5 0 0 4.3301270218486989 -2.4999999949311431 -3 5 0 -3 2.3883545080289421 -0.94497882694672608 -3 5 0 0 5 0 -3 4.3301270218486989 -2.4999999949311431 -3 2.3883545080289421 -0.94497882694672608 -3 2.3883545080289421 -0.94497882694672608 -6 5 0 -3 4.3301270155636349 2.5000000058171929 -3 2.465848112410058 1.4099871989758821 -3 4.3301270155636349 2.5000000058171929 0 4.3301270155636349 2.5000000058171929 -3 5 0 -3 2.465848112410058 1.4099871989758821 -3 2.465848112410058 1.4099871989758821 -6 2.4999999879139869 4.3301270259000564 -3 4.3301270155636349 2.5000000058171929 -3 2.465848112410058 1.4099871989758821 -3 2.465848112410058 1.4099871989758821 -6 2.4999999879139869 4.3301270259000564 0 4.3301270155636349 2.5000000058171929 0 2.465848112410058 1.4099871989758821 0 2.465848112410058 1.4099871989758821 -3 5 0 -3 4.3301270155636349 2.5000000058171929 0 2.465848112410058 1.4099871989758821 -3 5 0 0 4.3301270155636349 2.5000000058171929 0 5 0 0 2.465848112410058 1.4099871989758821 0 2.465848112410058 1.4099871989758821 -3 5 0 0 4.3301270218486989 -2.4999999949311431 0 2.3883545080289421 -0.94497882694672608 0 2.3883545080289421 -0.94497882694672608 -3 5 0 0 2.3883545080289421 -0.94497882694672608 0 2.465848112410058 1.4099871989758821 0 2.465848112410058 1.4099871989758821 -3 2.3883545080289421 -0.94497882694672608 -3 5 0 0 2.465848112410058 1.4099871989758821 -3 2.3883545080289421 -0.94497882694672608 0 4.3301270218486989 -2.4999999949311431 0 2.500000010727558 -4.3301270127286351 0 2.217625015551433 -2.5696135239339939 0 2.217625015551433 -2.5696135239339939 -3 2.3883545080289421 -0.94497882694672608 0 4.3301270218486989 -2.4999999949311431 0 2.217625015551433 -2.5696135239339939 0 2.217625015551433 -2.5696135239339939 -3 4.3301270218486989 -2.4999999949311431 0 2.3883545080289421 -0.94497882694672608 0 2.3883545080289421 -0.94497882694672608 -3 2.217625015551433 -2.5696135239339939 -3 4.3301270218486989 -2.4999999949311431 -3 5 0 0 2.3883545080289421 -0.94497882694672608 -3 4.3301270218486989 -2.4999999949311431 0 4.3301270218486989 -2.4999999949311431 -3 2.500000010727558 -4.3301270127286351 -3 2.217625015551433 -2.5696135239339939 -3 2.217625015551433 -2.5696135239339939 -6 4.3301270218486989 -2.4999999949311431 -3 2.3883545080289421 -0.94497882694672608 -3 2.217625015551433 -2.5696135239339939 -3 4.3301270218486989 -2.4999999949311431 0 2.3883545080289421 -0.94497882694672608 -3 4.3301270218486989 -2.4999999949311431 -3 2.217625015551433 -2.5696135239339939 -3 2.217625015551433 -2.5696135239339939 -6 2.500000010727558 -4.3301270127286351 -3 4.3301270218486989 -2.4999999949311431 -3 2.217625015551433 -2.5696135239339939 -3 4.3301270218486989 -2.4999999949311431 0 2.500000010727558 -4.3301270127286351 -3 4.3301270218486989 -2.4999999949311431 0 2.217625015551433 -2.5696135239339939 -3 2.500000010727558 -4.3301270127286351 0 4.3301270155636349 2.5000000058171929 -9 2.4999999879139869 4.3301270259000564 -6 2.465848112410058 1.4099871989758821 -9 4.3301270155636349 2.5000000058171929 -6 4.3301270155636349 2.5000000058171929 -6 2.4999999879139869 4.3301270259000564 -6 2.465848112410058 1.4099871989758821 -6 2.4999999879139869 4.3301270259000564 -3 4.3301270155636349 2.5000000058171929 -6 2.4999999879139869 4.3301270259000564 -3 2.465848112410058 1.4099871989758821 -6 4.3301270155636349 2.5000000058171929 -3 4.3301270155636349 2.5000000058171929 -3 2.4999999879139869 4.3301270259000564 -3 2.465848112410058 1.4099871989758821 -3 2.4999999879139869 4.3301270259000564 0 4.3301270155636349 2.5000000058171929 -3 2.4999999879139869 4.3301270259000564 0 2.465848112410058 1.4099871989758821 -3 4.3301270155636349 2.5000000058171929 0 -6.2995949836986492e-09 5 0 2.4999999879139869 4.3301270259000564 0 0.37580157663508379 2.5408650916807378 0 0.37580157663508379 2.5408650916807378 -3 2.4999999879139869 4.3301270259000564 0 0.37580157663508379 2.5408650916807378 0 0.37580157663508379 2.5408650916807378 -3 2.465848112410058 1.4099871989758821 -3 2.4999999879139869 4.3301270259000564 -3 -6.2995949836986492e-09 5 0 0.37580157663508379 2.5408650916807378 -3 2.4999999879139869 4.3301270259000564 0 -6.2995949836986492e-09 5 -3 -2.4999999999999991 4.3301270189221936 0 -1.107852388446384 3.1911857209629071 -3 -6.2995949836986492e-09 5 0 -6.2995949836986492e-09 5 0 0.37580157663508379 2.5408650916807378 0 -1.107852388446384 3.1911857209629071 0 -1.107852388446384 3.1911857209629071 -3 -2.4999999999999991 4.3301270189221936 0 -6.2995949836986492e-09 5 0 -1.107852388446384 3.1911857209629071 0 -1.107852388446384 3.1911857209629071 -3 0.37580157663508379 2.5408650916807378 -3 -6.2995949836986492e-09 5 0 -1.107852388446384 3.1911857209629071 -3 0.37580157663508379 2.5408650916807378 0 0.37580157663508379 2.5408650916807378 0 -0.91506351183037493 1.5849364925866429 0 -1.107852388446384 3.1911857209629071 0 -1.107852388446384 3.1911857209629071 -3 0.37580157663508379 2.5408650916807378 -3 -6.2995949836986492e-09 5 -3 -1.107852388446384 3.1911857209629071 -3 -6.2995949836986492e-09 5 0 2.4999999879139869 4.3301270259000564 -3 -6.2995949836986492e-09 5 -3 0.37580157663508379 2.5408650916807378 -3 -6.2995949836986492e-09 5 0 2.4999999879139869 4.3301270259000564 -3 0.37580157663508379 2.5408650916807378 -3 2.465848112410058 1.4099871989758821 -3 2.4999999879139869 4.3301270259000564 0 2.4999999879139869 4.3301270259000564 -3 0.37580157663508379 2.5408650916807378 -3 0.37580157663508379 2.5408650916807378 -6 2.465848112410058 1.4099871989758821 -6 2.4999999879139869 4.3301270259000564 -6 0.37580157663508379 2.5408650916807378 -6 2.465848112410058 1.4099871989758821 -6 2.4999999879139869 4.3301270259000564 -3 2.4999999879139869 4.3301270259000564 -6 -6.2995949836986492e-09 5 -3 0.37580157663508379 2.5408650916807378 -6 2.4999999879139869 4.3301270259000564 -3 2.4999999879139869 4.3301270259000564 -6 -6.2995949836986492e-09 5 -6 0.37580157663508379 2.5408650916807378 -6 -6.2995949836986492e-09 5 -3 -6.2995949836986492e-09 5 -3 2.4999999879139869 4.3301270259000564 -3 0.37580157663508379 2.5408650916807378 -3 0.37580157663508379 2.5408650916807378 -6 0.37580157663508379 2.5408650916807378 -3 -0.91506351183037493 1.5849364925866429 -3 -1.107852388446384 3.1911857209629071 -3 -1.107852388446384 3.1911857209629071 -6 -6.2995949836986492e-09 5 -3 0.37580157663508379 2.5408650916807378 -3 -1.107852388446384 3.1911857209629071 -3 -1.107852388446384 3.1911857209629071 -6 0.37580157663508379 2.5408650916807378 -6 -6.2995949836986492e-09 5 -6 -1.107852388446384 3.1911857209629071 -6 -6.2995949836986492e-09 5 -3 0.37580157663508379 2.5408650916807378 -6 -6.2995949836986492e-09 5 -3 -1.107852388446384 3.1911857209629071 -6 0.37580157663508379 2.5408650916807378 -3 -2.4999999999999991 4.3301270189221936 -3 -6.2995949836986492e-09 5 -3 -1.107852388446384 3.1911857209629071 -3 -1.107852388446384 3.1911857209629071 -6 -6.2995949836986492e-09 5 -6 0.37580157663508379 2.5408650916807378 -6 -1.107852388446384 3.1911857209629071 -6 -1.107852388446384 3.1911857209629071 -9 -2.4999999999999991 4.3301270189221936 -6 -6.2995949836986492e-09 5 -6 -1.107852388446384 3.1911857209629071 -6 -1.107852388446384 3.1911857209629071 -9 0.37580157663508379 2.5408650916807378 -9 -6.2995949836986492e-09 5 -6 -1.107852388446384 3.1911857209629071 -9 0.37580157663508379 2.5408650916807378 -6 0.37580157663508379 2.5408650916807378 -6 -0.91506351183037493 1.5849364925866429 -6 -1.107852388446384 3.1911857209629071 -6 -1.107852388446384 3.1911857209629071 -9 2.4999999879139869 4.3301270259000564 -9 -6.2995949836986492e-09 5 -6 0.37580157663508379 2.5408650916807378 -9 2.4999999879139869 4.3301270259000564 -6 -6.2995949836986492e-09 5 -6 2.4999999879139869 4.3301270259000564 -6 0.37580157663508379 2.5408650916807378 -6 0.37580157663508379 2.5408650916807378 -9 2.4999999879139869 4.3301270259000564 -6 0.37580157663508379 2.5408650916807378 -6 0.37580157663508379 2.5408650916807378 -9 2.465848112410058 1.4099871989758821 -9 -6.2995949836986492e-09 5 -9 -2.4999999999999991 4.3301270189221936 -6 -1.107852388446384 3.1911857209629071 -9 -6.2995949836986492e-09 5 -6 -6.2995949836986492e-09 5 -6 -2.4999999999999991 4.3301270189221936 -3 -1.107852388446384 3.1911857209629071 -6 -6.2995949836986492e-09 5 -3 -2.4999999999999991 4.3301270189221936 -6 -1.107852388446384 3.1911857209629071 -6 -2.2253246846922492 2.366533744740174 -6 -2.2253246846922492 2.366533744740174 -9 -0.91506351183037493 1.5849364925866429 -6 -1.107852388446384 3.1911857209629071 -6 -1.107852388446384 3.1911857209629071 -9 -2.2253246846922492 2.366533744740174 -9 -1.107852388446384 3.1911857209629071 -9 -2.4999999999999991 4.3301270189221936 -6 -2.2253246846922492 2.366533744740174 -9 -1.107852388446384 3.1911857209629071 -6 -2.4999999999999991 4.3301270189221936 -9 -4.3301270221112951 2.4999999944763132 -6 -2.2253246846922492 2.366533744740174 -9 -2.4999999999999991 4.3301270189221936 -6 -4.3301270221112951 2.4999999944763132 -6 -2.4999999999999991 4.3301270189221936 -6 -2.2253246846922492 2.366533744740174 -6 -2.2253246846922492 2.366533744740174 -9 -0.91506351183037493 1.5849364925866429 -3 -1.107852388446384 3.1911857209629071 -3 -1.107852388446384 3.1911857209629071 -6 -2.2253246846922492 2.366533744740174 -6 -1.107852388446384 3.1911857209629071 -6 -2.4999999999999991 4.3301270189221936 -6 -2.2253246846922492 2.366533744740174 -6 -2.4999999999999991 4.3301270189221936 -3 -6.2995949836986492e-09 5 -6 -2.4999999999999991 4.3301270189221936 -6 -1.107852388446384 3.1911857209629071 -6 -2.4999999999999991 4.3301270189221936 -3 -2.4999999999999991 4.3301270189221936 -3 -1.107852388446384 3.1911857209629071 -3 -2.2253246846922492 2.366533744740174 -3 -2.2253246846922492 2.366533744740174 -6 -1.107852388446384 3.1911857209629071 -6 -2.4999999999999991 4.3301270189221936 -3 -2.2253246846922492 2.366533744740174 -6 -1.107852388446384 3.1911857209629071 -3 -2.4999999999999991 4.3301270189221936 -6 -4.3301270221112951 2.4999999944763132 -3 -2.2253246846922492 2.366533744740174 -6 -2.4999999999999991 4.3301270189221936 -3 -4.3301270221112951 2.4999999944763132 -3 -2.4999999999999991 4.3301270189221936 -3 -2.2253246846922492 2.366533744740174 -3 -2.2253246846922492 2.366533744740174 -6 -2.4999999999999991 4.3301270189221936 -6 -4.3301270221112951 2.4999999944763132 -6 -2.2253246846922492 2.366533744740174 -6 -4.3301270221112951 2.4999999944763132 -3 -2.4999999999999991 4.3301270189221936 -3 -4.3301270221112951 2.4999999944763132 -3 -2.2253246846922492 2.366533744740174 -3 -4.3301270221112951 2.4999999944763132 0 -1.107852388446384 3.1911857209629071 -3 -2.4999999999999991 4.3301270189221936 -3 -2.2253246846922492 2.366533744740174 -3 -2.4999999999999991 4.3301270189221936 0 -6.2995949836986492e-09 5 -3 -2.4999999999999991 4.3301270189221936 -3 -1.107852388446384 3.1911857209629071 -3 -2.4999999999999991 4.3301270189221936 0 -4.3301270221112951 2.4999999944763132 0 -2.4999999999999991 4.3301270189221936 0 -2.2253246846922492 2.366533744740174 0 -2.2253246846922492 2.366533744740174 -3 -0.91506351183037493 1.5849364925866429 0 -1.107852388446384 3.1911857209629071 0 -1.107852388446384 3.1911857209629071 -3 -2.2253246846922492 2.366533744740174 -3 -2.4999999999999991 4.3301270189221936 -3 -4.3301270221112951 2.4999999944763132 0 -2.2253246846922492 2.366533744740174 -3 -2.4999999999999991 4.3301270189221936 0 -1.107852388446384 3.1911857209629071 -3 -2.4999999999999991 4.3301270189221936 0 -2.2253246846922492 2.366533744740174 -3 -1.107852388446384 3.1911857209629071 0 -2.4999999999999991 4.3301270189221936 0 -1.107852388446384 3.1911857209629071 0 -2.2253246846922492 2.366533744740174 0 -2.2253246846922492 2.366533744740174 -3 -5 -1.397247784140632e-08 0 -4.3301270221112951 2.4999999944763132 0 -2.2735805010731909 0.22641949675281539 0 -2.2735805010731909 0.22641949675281539 -3 -4.3301270221112951 2.4999999944763132 -3 -5 -1.397247784140632e-08 0 -2.2735805010731909 0.22641949675281539 -3 -4.3301270221112951 2.4999999944763132 0 -4.3301270221112951 2.4999999944763132 -3 -2.2735805010731909 0.22641949675281539 -3 -2.2253246846922492 2.366533744740174 -3 -4.3301270221112951 2.4999999944763132 0 -4.3301270221112951 2.4999999944763132 -3 -5 -1.397247784140632e-08 -3 -2.2735805010731909 0.22641949675281539 -3 -5 -1.397247784140632e-08 0 -2.2735805010731909 0.22641949675281539 -3 -5 -1.397247784140632e-08 -3 -2.9547160992544761 -1.820741508163664 -3 -5 -1.397247784140632e-08 0 -5 -1.397247784140632e-08 -3 -4.3301270160527148 -2.500000004970083 0 -2.9547160992544761 -1.820741508163664 -3 -5 -1.397247784140632e-08 0 -2.2735805010731909 0.22641949675281539 -3 -5 -1.397247784140632e-08 0 -2.9547160992544761 -1.820741508163664 -3 -2.2735805010731909 0.22641949675281539 0 -5 -1.397247784140632e-08 0 -2.2735805010731909 0.22641949675281539 0 -2.9547160992544761 -1.820741508163664 0 -2.9547160992544761 -1.820741508163664 -3 -0.66987297914647026 -2.499999999706382 -3 -2.2735805010731909 0.22641949675281539 -3 -2.9547160992544761 -1.820741508163664 -3 -2.2735805010731909 0.22641949675281539 0 -2.2735805010731909 0.22641949675281539 -3 -0.66987297914647026 -2.499999999706382 -3 0.20080558631870429 0.033909897404034287 -3 -2.2735805010731909 0.22641949675281539 0 -2.2735805010731909 0.22641949675281539 -3 0.20080558631870429 0.033909897404034287 -3 -0.91506351183037493 1.5849364925866429 -3 -2.2735805010731909 0.22641949675281539 0 -2.2735805010731909 0.22641949675281539 -3 -0.91506351183037493 1.5849364925866429 -3 -2.2253246846922492 2.366533744740174 -3 -2.2735805010731909 0.22641949675281539 0 -0.91506351183037493 1.5849364925866429 -3 -1.107852388446384 3.1911857209629071 -3 -2.2253246846922492 2.366533744740174 -3 -0.91506351183037493 1.5849364925866429 0 -2.2735805010731909 0.22641949675281539 0 -0.91506351183037493 1.5849364925866429 0 -0.91506351183037493 1.5849364925866429 -3 -2.2253246846922492 2.366533744740174 -3 -1.107852388446384 3.1911857209629071 0 -0.91506351183037493 1.5849364925866429 0 -2.2253246846922492 2.366533744740174 0 -2.2253246846922492 2.366533744740174 -3 -4.3301270221112951 2.4999999944763132 0 -2.2735805010731909 0.22641949675281539 0 -2.2735805010731909 0.22641949675281539 -3 -2.2253246846922492 2.366533744740174 -3 -0.91506351183037493 1.5849364925866429 0 -2.2735805010731909 0.22641949675281539 0 -2.2253246846922492 2.366533744740174 0 -2.2253246846922492 2.366533744740174 -3 -2.2735805010731909 0.22641949675281539 0 -4.3301270221112951 2.4999999944763132 0 -2.2253246846922492 2.366533744740174 0 -2.2253246846922492 2.366533744740174 -3 -0.91506351183037493 1.5849364925866429 -3 0.37580157663508379 2.5408650916807378 0 -1.107852388446384 3.1911857209629071 -3 -0.91506351183037493 1.5849364925866429 0 0.37580157663508379 2.5408650916807378 0 0.20080558631870429 0.033909897404034287 0 -0.91506351183037493 1.5849364925866429 0 -0.91506351183037493 1.5849364925866429 -3 0.20080558631870429 0.033909897404034287 0 -2.2735805010731909 0.22641949675281539 0 -0.91506351183037493 1.5849364925866429 0 -0.91506351183037493 1.5849364925866429 -3 0.20080558631870429 0.033909897404034287 0 0.37580157663508379 2.5408650916807378 0 0.37580157663508379 2.5408650916807378 -3 -0.91506351183037493 1.5849364925866429 -3 -0.66987297914647026 -2.499999999706382 0 -2.2735805010731909 0.22641949675281539 0 0.20080558631870429 0.033909897404034287 0 0.20080558631870429 0.033909897404034287 -3 -2.2735805010731909 0.22641949675281539 0 0.20080558631870429 0.033909897404034287 0 0.20080558631870429 0.033909897404034287 -3 -0.91506351183037493 1.5849364925866429 -3 0.20080558631870429 0.033909897404034287 -3 -0.66987297914647026 -2.499999999706382 0 0.95458002071209891 -1.657898275923388 -3 0.20080558631870429 0.033909897404034287 0 -2.2735805010731909 0.22641949675281539 0 -0.66987297914647026 -2.499999999706382 0 -0.66987297914647026 -2.499999999706382 -3 0.20080558631870429 0.033909897404034287 -3 0.20080558631870429 0.033909897404034287 0 2.3883545080289421 -0.94497882694672608 0 0.95458002071209891 -1.657898275923388 0 0.95458002071209891 -1.657898275923388 -3 2.3883545080289421 -0.94497882694672608 0 0.20080558631870429 0.033909897404034287 0 0.20080558631870429 0.033909897404034287 -3 0.95458002071209891 -1.657898275923388 -3 0.20080558631870429 0.033909897404034287 -3 2.3883545080289421 -0.94497882694672608 0 2.465848112410058 1.4099871989758821 -3 0.20080558631870429 0.033909897404034287 0 2.3883545080289421 -0.94497882694672608 0 0.20080558631870429 0.033909897404034287 0 2.465848112410058 1.4099871989758821 0 2.465848112410058 1.4099871989758821 -3 0.37580157663508379 2.5408650916807378 0 2.4999999879139869 4.3301270259000564 0 2.465848112410058 1.4099871989758821 0 2.465848112410058 1.4099871989758821 -3 0.37580157663508379 2.5408650916807378 -3 0.20080558631870429 0.033909897404034287 0 2.465848112410058 1.4099871989758821 -3 0.37580157663508379 2.5408650916807378 0 0.20080558631870429 0.033909897404034287 0 0.37580157663508379 2.5408650916807378 0 2.465848112410058 1.4099871989758821 0 2.465848112410058 1.4099871989758821 -3 0.37580157663508379 2.5408650916807378 -3 0.20080558631870429 0.033909897404034287 -3 2.465848112410058 1.4099871989758821 -3 0.20080558631870429 0.033909897404034287 0 0.20080558631870429 0.033909897404034287 -3 2.3883545080289421 -0.94497882694672608 -3 2.465848112410058 1.4099871989758821 -3 2.3883545080289421 -0.94497882694672608 0 2.3883545080289421 -0.94497882694672608 -3 0.20080558631870429 0.033909897404034287 -3 0.95458002071209891 -1.657898275923388 -3 2.3883545080289421 -0.94497882694672608 0 -0.91506351183037493 1.5849364925866429 -3 0.37580157663508379 2.5408650916807378 -3 -1.107852388446384 3.1911857209629071 -3 0.37580157663508379 2.5408650916807378 0 0.20080558631870429 0.033909897404034287 -3 0.37580157663508379 2.5408650916807378 -3 -0.91506351183037493 1.5849364925866429 -3 0.20080558631870429 0.033909897404034287 0 0.20080558631870429 0.033909897404034287 -3 0.37580157663508379 2.5408650916807378 -3 0.37580157663508379 2.5408650916807378 -6 -0.91506351183037493 1.5849364925866429 -6 0.20080558631870429 0.033909897404034287 -6 0.37580157663508379 2.5408650916807378 -6 -0.91506351183037493 1.5849364925866429 -6 0.20080558631870429 0.033909897404034287 -3 -0.91506351183037493 1.5849364925866429 -6 0.37580157663508379 2.5408650916807378 -6 -1.107852388446384 3.1911857209629071 -6 0.37580157663508379 2.5408650916807378 -3 0.20080558631870429 0.033909897404034287 -3 -2.2735805010731909 0.22641949675281539 -3 -0.91506351183037493 1.5849364925866429 -3 -0.91506351183037493 1.5849364925866429 -6 -0.91506351183037493 1.5849364925866429 -6 0.37580157663508379 2.5408650916807378 -3 -1.107852388446384 3.1911857209629071 -6 -0.91506351183037493 1.5849364925866429 -3 0.37580157663508379 2.5408650916807378 -3 0.20080558631870429 0.033909897404034287 -3 -0.91506351183037493 1.5849364925866429 -3 -0.91506351183037493 1.5849364925866429 -6 0.20080558631870429 0.033909897404034287 -6 -0.66987297914647026 -2.499999999706382 -3 0.95458002071209891 -1.657898275923388 -6 0.20080558631870429 0.033909897404034287 -3 -2.2735805010731909 0.22641949675281539 -3 -0.66987297914647026 -2.499999999706382 -3 -0.66987297914647026 -2.499999999706382 -6 0.20080558631870429 0.033909897404034287 -6 -0.66987297914647026 -2.499999999706382 -3 -2.2735805010731909 0.22641949675281539 -3 0.20080558631870429 0.033909897404034287 -3 0.20080558631870429 0.033909897404034287 -6 -2.2735805010731909 0.22641949675281539 -3 0.20080558631870429 0.033909897404034287 -3 0.20080558631870429 0.033909897404034287 -6 -0.91506351183037493 1.5849364925866429 -6 2.3883545080289421 -0.94497882694672608 -3 0.20080558631870429 0.033909897404034287 -3 0.20080558631870429 0.033909897404034287 -6 0.95458002071209891 -1.657898275923388 -6 2.3883545080289421 -0.94497882694672608 -6 0.20080558631870429 0.033909897404034287 -6 0.95458002071209891 -1.657898275923388 -6 2.3883545080289421 -0.94497882694672608 -3 0.20080558631870429 0.033909897404034287 -3 2.3883545080289421 -0.94497882694672608 -3 0.95458002071209891 -1.657898275923388 -3 0.95458002071209891 -1.657898275923388 -6 0.20080558631870429 0.033909897404034287 -6 2.3883545080289421 -0.94497882694672608 -3 2.465848112410058 1.4099871989758821 -6 0.20080558631870429 0.033909897404034287 -3 0.20080558631870429 0.033909897404034287 -6 2.3883545080289421 -0.94497882694672608 -6 2.465848112410058 1.4099871989758821 -6 2.3883545080289421 -0.94497882694672608 -3 2.3883545080289421 -0.94497882694672608 -3 0.20080558631870429 0.033909897404034287 -3 2.465848112410058 1.4099871989758821 -3 2.465848112410058 1.4099871989758821 -6 0.37580157663508379 2.5408650916807378 -3 2.4999999879139869 4.3301270259000564 -3 2.465848112410058 1.4099871989758821 -3 2.465848112410058 1.4099871989758821 -6 0.37580157663508379 2.5408650916807378 -6 0.20080558631870429 0.033909897404034287 -3 2.465848112410058 1.4099871989758821 -6 0.37580157663508379 2.5408650916807378 -3 0.37580157663508379 2.5408650916807378 -6 0.20080558631870429 0.033909897404034287 -6 2.465848112410058 1.4099871989758821 -6 0.20080558631870429 0.033909897404034287 -3 0.20080558631870429 0.033909897404034287 -3 0.37580157663508379 2.5408650916807378 -3 2.465848112410058 1.4099871989758821 -3 2.465848112410058 1.4099871989758821 -6 0.37580157663508379 2.5408650916807378 -9 0.20080558631870429 0.033909897404034287 -6 2.465848112410058 1.4099871989758821 -9 0.37580157663508379 2.5408650916807378 -6 0.37580157663508379 2.5408650916807378 -6 2.4999999879139869 4.3301270259000564 -6 2.465848112410058 1.4099871989758821 -6 2.465848112410058 1.4099871989758821 -9 0.20080558631870429 0.033909897404034287 -6 0.37580157663508379 2.5408650916807378 -6 2.465848112410058 1.4099871989758821 -6 2.465848112410058 1.4099871989758821 -9 2.3883545080289421 -0.94497882694672608 -6 0.20080558631870429 0.033909897404034287 -6 0.20080558631870429 0.033909897404034287 -9 0.95458002071209891 -1.657898275923388 -9 0.20080558631870429 0.033909897404034287 -6 2.3883545080289421 -0.94497882694672608 -6 0.95458002071209891 -1.657898275923388 -6 0.95458002071209891 -1.657898275923388 -9 0.20080558631870429 0.033909897404034287 -9 2.3883545080289421 -0.94497882694672608 -6 2.465848112410058 1.4099871989758821 -9 0.20080558631870429 0.033909897404034287 -6 2.3883545080289421 -0.94497882694672608 -6 0.20080558631870429 0.033909897404034287 -6 2.465848112410058 1.4099871989758821 -6 2.465848112410058 1.4099871989758821 -9 -2.2735805010731909 0.22641949675281539 -6 0.20080558631870429 0.033909897404034287 -6 0.20080558631870429 0.033909897404034287 -9 -0.91506351183037493 1.5849364925866429 -9 -0.66987297914647026 -2.499999999706382 -6 -2.2735805010731909 0.22641949675281539 -6 0.20080558631870429 0.033909897404034287 -6 0.20080558631870429 0.033909897404034287 -9 -2.2735805010731909 0.22641949675281539 -6 -0.66987297914647026 -2.499999999706382 -6 -0.66987297914647026 -2.499999999706382 -9 0.20080558631870429 0.033909897404034287 -9 0.20080558631870429 0.033909897404034287 -9 -0.66987297914647026 -2.499999999706382 -6 0.95458002071209891 -1.657898275923388 -9 0.20080558631870429 0.033909897404034287 -6 -0.91506351183037493 1.5849364925866429 -9 0.37580157663508379 2.5408650916807378 -6 -1.107852388446384 3.1911857209629071 -9 -0.91506351183037493 1.5849364925866429 -6 0.20080558631870429 0.033909897404034287 -6 -2.2735805010731909 0.22641949675281539 -6 -0.91506351183037493 1.5849364925866429 -6 -0.91506351183037493 1.5849364925866429 -9 0.20080558631870429 0.033909897404034287 -6 0.37580157663508379 2.5408650916807378 -6 0.37580157663508379 2.5408650916807378 -9 -0.91506351183037493 1.5849364925866429 -9 0.37580157663508379 2.5408650916807378 -6 0.20080558631870429 0.033909897404034287 -6 -0.91506351183037493 1.5849364925866429 -6 -0.91506351183037493 1.5849364925866429 -9 -2.2735805010731909 0.22641949675281539 -6 -4.3301270221112951 2.4999999944763132 -6 -2.2253246846922492 2.366533744740174 -6 -2.2253246846922492 2.366533744740174 -9 -1.107852388446384 3.1911857209629071 -6 -0.91506351183037493 1.5849364925866429 -6 -2.2253246846922492 2.366533744740174 -6 -2.2253246846922492 2.366533744740174 -9 -4.3301270221112951 2.4999999944763132 -6 -2.2735805010731909 0.22641949675281539 -6 -2.2735805010731909 0.22641949675281539 -9 -2.2253246846922492 2.366533744740174 -9 -2.2735805010731909 0.22641949675281539 -6 -0.91506351183037493 1.5849364925866429 -6 -0.91506351183037493 1.5849364925866429 -9 -2.2253246846922492 2.366533744740174 -9 -0.91506351183037493 1.5849364925866429 -6 -2.2735805010731909 0.22641949675281539 -6 -2.2253246846922492 2.366533744740174 -6 -2.2253246846922492 2.366533744740174 -9 -5 -1.397247784140632e-08 -6 -4.3301270221112951 2.4999999944763132 -6 -2.2735805010731909 0.22641949675281539 -6 -2.2735805010731909 0.22641949675281539 -9 -4.3301270221112951 2.4999999944763132 -9 -5 -1.397247784140632e-08 -6 -2.2735805010731909 0.22641949675281539 -9 -4.3301270221112951 2.4999999944763132 -6 -5 -1.397247784140632e-08 -3 -4.3301270221112951 2.4999999944763132 -3 -2.2735805010731909 0.22641949675281539 -3 -2.2735805010731909 0.22641949675281539 -6 -4.3301270221112951 2.4999999944763132 -6 -2.2735805010731909 0.22641949675281539 -6 -2.2253246846922492 2.366533744740174 -6 -4.3301270221112951 2.4999999944763132 -3 -4.3301270221112951 2.4999999944763132 -6 -5 -1.397247784140632e-08 -6 -2.2735805010731909 0.22641949675281539 -6 -5 -1.397247784140632e-08 -3 -4.3301270221112951 2.4999999944763132 -6 -5 -1.397247784140632e-08 -3 -2.2735805010731909 0.22641949675281539 -6 -4.3301270221112951 2.4999999944763132 -3 -1.107852388446384 3.1911857209629071 -3 -0.91506351183037493 1.5849364925866429 -3 -2.2253246846922492 2.366533744740174 -3 -2.2253246846922492 2.366533744740174 -6 -2.2735805010731909 0.22641949675281539 -3 -4.3301270221112951 2.4999999944763132 -3 -2.2253246846922492 2.366533744740174 -3 -2.2253246846922492 2.366533744740174 -6 -0.91506351183037493 1.5849364925866429 -6 -1.107852388446384 3.1911857209629071 -6 -2.2253246846922492 2.366533744740174 -6 -0.91506351183037493 1.5849364925866429 -3 -0.91506351183037493 1.5849364925866429 -3 -2.2735805010731909 0.22641949675281539 -3 -2.2253246846922492 2.366533744740174 -3 -2.2253246846922492 2.366533744740174 -6 -2.2735805010731909 0.22641949675281539 -6 -0.91506351183037493 1.5849364925866429 -6 -2.2253246846922492 2.366533744740174 -6 -2.2735805010731909 0.22641949675281539 -3 -2.2735805010731909 0.22641949675281539 -3 -0.91506351183037493 1.5849364925866429 -3 -0.91506351183037493 1.5849364925866429 -6 -2.2253246846922492 2.366533744740174 -6 -4.3301270221112951 2.4999999944763132 -3 -2.2735805010731909 0.22641949675281539 -3 -2.2735805010731909 0.22641949675281539 -6 -2.2253246846922492 2.366533744740174 -6 -2.2735805010731909 0.22641949675281539 -6 -0.66987297914647026 -2.499999999706382 -6 0.20080558631870429 0.033909897404034287 -6 -2.2735805010731909 0.22641949675281539 -3 -2.2735805010731909 0.22641949675281539 -6 0.20080558631870429 0.033909897404034287 -6 -0.91506351183037493 1.5849364925866429 -6 -2.2735805010731909 0.22641949675281539 -3 -0.66987297914647026 -2.499999999706382 -6 -2.2735805010731909 0.22641949675281539 -6 -2.9547160992544761 -1.820741508163664 -6 -2.2735805010731909 0.22641949675281539 -3 -5 -1.397247784140632e-08 -6 -4.3301270160527148 -2.500000004970083 -3 -2.9547160992544761 -1.820741508163664 -6 -5 -1.397247784140632e-08 -3 -5 -1.397247784140632e-08 -3 -2.2735805010731909 0.22641949675281539 -3 -2.9547160992544761 -1.820741508163664 -3 -2.9547160992544761 -1.820741508163664 -6 -2.2735805010731909 0.22641949675281539 -6 -5 -1.397247784140632e-08 -6 -2.9547160992544761 -1.820741508163664 -6 -5 -1.397247784140632e-08 -3 -2.2735805010731909 0.22641949675281539 -6 -5 -1.397247784140632e-08 -3 -2.9547160992544761 -1.820741508163664 -6 -2.2735805010731909 0.22641949675281539 -3 -5 -1.397247784140632e-08 -9 -4.3301270160527148 -2.500000004970083 -6 -2.9547160992544761 -1.820741508163664 -9 -5 -1.397247784140632e-08 -6 -2.2735805010731909 0.22641949675281539 -9 -5 -1.397247784140632e-08 -6 -2.9547160992544761 -1.820741508163664 -9 -2.2735805010731909 0.22641949675281539 -6 -5 -1.397247784140632e-08 -6 -2.2735805010731909 0.22641949675281539 -6 -2.9547160992544761 -1.820741508163664 -6 -2.9547160992544761 -1.820741508163664 -9 -0.66987297914647026 -2.499999999706382 -9 -2.2735805010731909 0.22641949675281539 -6 -2.9547160992544761 -1.820741508163664 -9 -0.66987297914647026 -2.499999999706382 -6 -2.2735805010731909 0.22641949675281539 -6 -0.66987297914647026 -2.499999999706382 -6 -2.9547160992544761 -1.820741508163664 -6 -2.9547160992544761 -1.820741508163664 -9 -2.5000000000000022 -4.3301270189221919 -6 -0.66987297914647026 -2.499999999706382 -6 -0.66987297914647026 -2.499999999706382 -9 -2.9547160992544761 -1.820741508163664 -9 -0.66987297914647026 -2.499999999706382 -6 -2.5000000000000022 -4.3301270189221919 -6 -2.9547160992544761 -1.820741508163664 -6 -2.9547160992544761 -1.820741508163664 -9 -2.5000000000000022 -4.3301270189221919 -6 -4.3301270160527148 -2.500000004970083 -6 -2.9547160992544761 -1.820741508163664 -6 -2.9547160992544761 -1.820741508163664 -9 -4.3301270160527148 -2.500000004970083 -6 -5 -1.397247784140632e-08 -6 -2.9547160992544761 -1.820741508163664 -6 -2.9547160992544761 -1.820741508163664 -9 -4.3301270160527148 -2.500000004970083 -9 -2.5000000000000022 -4.3301270189221919 -6 -2.9547160992544761 -1.820741508163664 -9 -4.3301270160527148 -2.500000004970083 -6 -4.3301270160527148 -2.500000004970083 -6 -2.5000000000000022 -4.3301270189221919 -3 -2.9547160992544761 -1.820741508163664 -6 -4.3301270160527148 -2.500000004970083 -3 -5 -1.397247784140632e-08 -6 -4.3301270160527148 -2.500000004970083 -6 -2.9547160992544761 -1.820741508163664 -6 -4.3301270160527148 -2.500000004970083 -3 -4.3301270160527148 -2.500000004970083 -3 -5 -1.397247784140632e-08 -3 -2.9547160992544761 -1.820741508163664 -3 -2.9547160992544761 -1.820741508163664 -6 -2.5000000000000022 -4.3301270189221919 -3 -4.3301270160527148 -2.500000004970083 -3 -2.9547160992544761 -1.820741508163664 -3 -2.9547160992544761 -1.820741508163664 -6 -0.66987297914647026 -2.499999999706382 -3 -2.5000000000000022 -4.3301270189221919 -3 -2.9547160992544761 -1.820741508163664 -3 -2.9547160992544761 -1.820741508163664 -6 -2.2735805010731909 0.22641949675281539 -3 -0.66987297914647026 -2.499999999706382 -3 -2.9547160992544761 -1.820741508163664 -3 -2.9547160992544761 -1.820741508163664 -6 -2.5000000000000022 -4.3301270189221919 -3 -0.66987297914647026 -2.499999999706382 -3 -0.66987297914647026 -2.499999999706382 -6 -2.9547160992544761 -1.820741508163664 -6 -0.66987297914647026 -2.499999999706382 -6 -2.2735805010731909 0.22641949675281539 -3 -2.9547160992544761 -1.820741508163664 -6 -0.66987297914647026 -2.499999999706382 -3 -2.5000000000000022 -4.3301270189221919 -6 -0.66987297914647026 -2.499999999706382 -6 -2.9547160992544761 -1.820741508163664 -6 -2.5000000000000022 -4.3301270189221919 -3 -4.3301270160527148 -2.500000004970083 -6 -2.5000000000000022 -4.3301270189221919 -6 -2.9547160992544761 -1.820741508163664 -6 -2.5000000000000022 -4.3301270189221919 -3 -2.5000000000000022 -4.3301270189221919 -6 6.9142305214597846e-09 -5 -3 -0.66987297914647026 -2.499999999706382 -6 -2.5000000000000022 -4.3301270189221919 -3 -2.5000000000000022 -4.3301270189221919 -9 6.9142305214597846e-09 -5 -6 -0.66987297914647026 -2.499999999706382 -9 -2.5000000000000022 -4.3301270189221919 -6 -0.66987297914647026 -2.499999999706382 -9 6.9142305214597846e-09 -5 -6 0.91506351643986317 -3.4150635091400758 -9 -0.66987297914647026 -2.499999999706382 -6 6.9142305214597846e-09 -5 -6 -2.5000000000000022 -4.3301270189221919 -6 -0.66987297914647026 -2.499999999706382 -6 -0.66987297914647026 -2.499999999706382 -9 6.9142305214597846e-09 -5 -6 -0.66987297914647026 -2.499999999706382 -6 0.91506351643986317 -3.4150635091400758 -6 0.91506351643986317 -3.4150635091400758 -9 0.95458002071209891 -1.657898275923388 -9 -0.66987297914647026 -2.499999999706382 -6 0.91506351643986317 -3.4150635091400758 -9 0.91506351643986317 -3.4150635091400758 -6 -0.66987297914647026 -2.499999999706382 -6 0.20080558631870429 0.033909897404034287 -6 0.95458002071209891 -1.657898275923388 -6 0.95458002071209891 -1.657898275923388 -9 -0.66987297914647026 -2.499999999706382 -6 0.95458002071209891 -1.657898275923388 -6 0.91506351643986317 -3.4150635091400758 -6 0.95458002071209891 -1.657898275923388 -9 0.95458002071209891 -1.657898275923388 -6 2.3883545080289421 -0.94497882694672608 -6 2.217625015551433 -2.5696135239339939 -6 2.217625015551433 -2.5696135239339939 -9 2.3883545080289421 -0.94497882694672608 -6 0.95458002071209891 -1.657898275923388 -6 0.95458002071209891 -1.657898275923388 -9 2.217625015551433 -2.5696135239339939 -9 0.91506351643986317 -3.4150635091400758 -6 0.95458002071209891 -1.657898275923388 -6 2.217625015551433 -2.5696135239339939 -6 2.217625015551433 -2.5696135239339939 -9 0.95458002071209891 -1.657898275923388 -9 0.91506351643986317 -3.4150635091400758 -6 2.217625015551433 -2.5696135239339939 -9 0.95458002071209891 -1.657898275923388 -6 6.9142305214597846e-09 -5 -9 2.500000010727558 -4.3301270127286351 -6 0.91506351643986317 -3.4150635091400758 -9 6.9142305214597846e-09 -5 -6 2.500000010727558 -4.3301270127286351 -6 6.9142305214597846e-09 -5 -6 0.91506351643986317 -3.4150635091400758 -6 0.91506351643986317 -3.4150635091400758 -9 2.500000010727558 -4.3301270127286351 -6 0.91506351643986317 -3.4150635091400758 -6 2.217625015551433 -2.5696135239339939 -6 2.217625015551433 -2.5696135239339939 -9 0.91506351643986317 -3.4150635091400758 -9 2.500000010727558 -4.3301270127286351 -6 2.217625015551433 -2.5696135239339939 -9 0.91506351643986317 -3.4150635091400758 -6 2.500000010727558 -4.3301270127286351 -3 6.9142305214597846e-09 -5 -3 0.91506351643986317 -3.4150635091400758 -3 0.91506351643986317 -3.4150635091400758 -6 0.91506351643986317 -3.4150635091400758 -6 2.500000010727558 -4.3301270127286351 -6 2.217625015551433 -2.5696135239339939 -6 2.500000010727558 -4.3301270127286351 -3 0.91506351643986317 -3.4150635091400758 -6 2.500000010727558 -4.3301270127286351 -3 2.217625015551433 -2.5696135239339939 -6 0.91506351643986317 -3.4150635091400758 -3 2.500000010727558 -4.3301270127286351 -3 0.91506351643986317 -3.4150635091400758 -3 2.217625015551433 -2.5696135239339939 -3 2.217625015551433 -2.5696135239339939 -6 6.9142305214597846e-09 -5 -6 2.500000010727558 -4.3301270127286351 -6 0.91506351643986317 -3.4150635091400758 -6 2.500000010727558 -4.3301270127286351 -3 6.9142305214597846e-09 -5 -6 2.500000010727558 -4.3301270127286351 -3 0.91506351643986317 -3.4150635091400758 -6 6.9142305214597846e-09 -5 -3 0.95458002071209891 -1.657898275923388 -6 0.91506351643986317 -3.4150635091400758 -3 2.217625015551433 -2.5696135239339939 -6 0.95458002071209891 -1.657898275923388 -3 2.3883545080289421 -0.94497882694672608 -3 0.95458002071209891 -1.657898275923388 -3 0.95458002071209891 -1.657898275923388 -6 2.217625015551433 -2.5696135239339939 -6 2.3883545080289421 -0.94497882694672608 -6 0.95458002071209891 -1.657898275923388 -6 2.217625015551433 -2.5696135239339939 -6 2.3883545080289421 -0.94497882694672608 -3 0.95458002071209891 -1.657898275923388 -3 2.3883545080289421 -0.94497882694672608 -3 2.217625015551433 -2.5696135239339939 -3 2.217625015551433 -2.5696135239339939 -6 0.91506351643986317 -3.4150635091400758 -3 0.95458002071209891 -1.657898275923388 -3 2.217625015551433 -2.5696135239339939 -3 2.217625015551433 -2.5696135239339939 -6 0.95458002071209891 -1.657898275923388 -6 0.91506351643986317 -3.4150635091400758 -6 2.217625015551433 -2.5696135239339939 -6 0.91506351643986317 -3.4150635091400758 -3 -0.66987297914647026 -2.499999999706382 -3 0.20080558631870429 0.033909897404034287 -3 0.95458002071209891 -1.657898275923388 -3 0.95458002071209891 -1.657898275923388 -6 0.20080558631870429 0.033909897404034287 -6 -0.66987297914647026 -2.499999999706382 -6 0.95458002071209891 -1.657898275923388 -6 -0.66987297914647026 -2.499999999706382 -3 -0.66987297914647026 -2.499999999706382 -3 0.95458002071209891 -1.657898275923388 -3 0.91506351643986317 -3.4150635091400758 -3 0.95458002071209891 -1.657898275923388 -6 0.95458002071209891 -1.657898275923388 -6 -0.66987297914647026 -2.499999999706382 -6 0.91506351643986317 -3.4150635091400758 -6 -0.66987297914647026 -2.499999999706382 -3 0.95458002071209891 -1.657898275923388 -6 -0.66987297914647026 -2.499999999706382 -3 0.91506351643986317 -3.4150635091400758 -6 0.91506351643986317 -3.4150635091400758 -3 6.9142305214597846e-09 -5 -3 -0.66987297914647026 -2.499999999706382 -3 0.91506351643986317 -3.4150635091400758 -3 0.91506351643986317 -3.4150635091400758 -6 -0.66987297914647026 -2.499999999706382 -6 6.9142305214597846e-09 -5 -6 0.91506351643986317 -3.4150635091400758 -6 6.9142305214597846e-09 -5 -3 -0.66987297914647026 -2.499999999706382 -6 6.9142305214597846e-09 -5 -3 0.91506351643986317 -3.4150635091400758 -6 -0.66987297914647026 -2.499999999706382 -3 -2.5000000000000022 -4.3301270189221919 -6 6.9142305214597846e-09 -5 -6 -0.66987297914647026 -2.499999999706382 -6 6.9142305214597846e-09 -5 -3 6.9142305214597846e-09 -5 -3 -2.5000000000000022 -4.3301270189221919 -3 -0.66987297914647026 -2.499999999706382 -3 -0.66987297914647026 -2.499999999706382 -6 -0.66987297914647026 -2.499999999706382 -3 6.9142305214597846e-09 -5 -3 0.91506351643986317 -3.4150635091400758 -3 6.9142305214597846e-09 -5 0 -2.5000000000000022 -4.3301270189221919 -3 6.9142305214597846e-09 -5 -3 -0.66987297914647026 -2.499999999706382 -3 6.9142305214597846e-09 -5 0 0.95458002071209891 -1.657898275923388 -3 -0.66987297914647026 -2.499999999706382 -3 0.91506351643986317 -3.4150635091400758 -3 -0.66987297914647026 -2.499999999706382 0 0.20080558631870429 0.033909897404034287 -3 -0.66987297914647026 -2.499999999706382 -3 0.95458002071209891 -1.657898275923388 -3 -0.66987297914647026 -2.499999999706382 0 2.3883545080289421 -0.94497882694672608 -3 0.95458002071209891 -1.657898275923388 -3 2.217625015551433 -2.5696135239339939 -3 2.3883545080289421 -0.94497882694672608 0 0.95458002071209891 -1.657898275923388 -3 0.91506351643986317 -3.4150635091400758 -3 2.217625015551433 -2.5696135239339939 -3 0.91506351643986317 -3.4150635091400758 0 0.91506351643986317 -3.4150635091400758 -3 2.500000010727558 -4.3301270127286351 -3 2.217625015551433 -2.5696135239339939 -3 2.500000010727558 -4.3301270127286351 0 6.9142305214597846e-09 -5 -3 2.500000010727558 -4.3301270127286351 -3 0.91506351643986317 -3.4150635091400758 -3 2.500000010727558 -4.3301270127286351 0 2.500000010727558 -4.3301270127286351 0 0.91506351643986317 -3.4150635091400758 0 2.217625015551433 -2.5696135239339939 0 2.217625015551433 -2.5696135239339939 -3 0.91506351643986317 -3.4150635091400758 -3 2.500000010727558 -4.3301270127286351 0 2.217625015551433 -2.5696135239339939 -3 0.91506351643986317 -3.4150635091400758 0 2.500000010727558 -4.3301270127286351 0 6.9142305214597846e-09 -5 0 0.91506351643986317 -3.4150635091400758 0 0.91506351643986317 -3.4150635091400758 -3 6.9142305214597846e-09 -5 -3 2.500000010727558 -4.3301270127286351 0 0.91506351643986317 -3.4150635091400758 -3 6.9142305214597846e-09 -5 0 0.91506351643986317 -3.4150635091400758 0 0.95458002071209891 -1.657898275923388 0 2.217625015551433 -2.5696135239339939 0 2.217625015551433 -2.5696135239339939 -3 0.95458002071209891 -1.657898275923388 -3 0.91506351643986317 -3.4150635091400758 0 2.217625015551433 -2.5696135239339939 -3 0.95458002071209891 -1.657898275923388 0 0.95458002071209891 -1.657898275923388 0 2.3883545080289421 -0.94497882694672608 0 2.217625015551433 -2.5696135239339939 0 2.217625015551433 -2.5696135239339939 -3 2.3883545080289421 -0.94497882694672608 0 0.95458002071209891 -1.657898275923388 0 0.95458002071209891 -1.657898275923388 -3 2.217625015551433 -2.5696135239339939 -3 0.95458002071209891 -1.657898275923388 -3 -0.66987297914647026 -2.499999999706382 0 0.91506351643986317 -3.4150635091400758 -3 0.91506351643986317 -3.4150635091400758 0 -0.66987297914647026 -2.499999999706382 0 0.95458002071209891 -1.657898275923388 0 0.91506351643986317 -3.4150635091400758 0 0.95458002071209891 -1.657898275923388 -3 -0.66987297914647026 -2.499999999706382 0 0.20080558631870429 0.033909897404034287 0 0.95458002071209891 -1.657898275923388 0 0.95458002071209891 -1.657898275923388 -3 6.9142305214597846e-09 -5 0 -2.5000000000000022 -4.3301270189221919 0 -0.66987297914647026 -2.499999999706382 0 -0.66987297914647026 -2.499999999706382 -3 -0.66987297914647026 -2.499999999706382 -3 6.9142305214597846e-09 -5 0 0.91506351643986317 -3.4150635091400758 -3 -0.66987297914647026 -2.499999999706382 0 6.9142305214597846e-09 -5 0 -0.66987297914647026 -2.499999999706382 0 0.91506351643986317 -3.4150635091400758 0 0.91506351643986317 -3.4150635091400758 -3 -2.5000000000000022 -4.3301270189221919 -3 6.9142305214597846e-09 -5 0 -0.66987297914647026 -2.499999999706382 -3 -2.5000000000000022 -4.3301270189221919 0 -2.5000000000000022 -4.3301270189221919 -3 -0.66987297914647026 -2.499999999706382 -3 -2.9547160992544761 -1.820741508163664 -3 -2.5000000000000022 -4.3301270189221919 0 -4.3301270160527148 -2.500000004970083 -3 -2.5000000000000022 -4.3301270189221919 -3 -2.9547160992544761 -1.820741508163664 -3 -2.5000000000000022 -4.3301270189221919 0 -2.5000000000000022 -4.3301270189221919 0 -0.66987297914647026 -2.499999999706382 0 -0.66987297914647026 -2.499999999706382 -3 -2.9547160992544761 -1.820741508163664 -3 -0.66987297914647026 -2.499999999706382 0 -2.5000000000000022 -4.3301270189221919 0 -2.9547160992544761 -1.820741508163664 0 -2.9547160992544761 -1.820741508163664 -3 -0.66987297914647026 -2.499999999706382 -3 -2.2735805010731909 0.22641949675281539 0 -2.9547160992544761 -1.820741508163664 -3 -0.66987297914647026 -2.499999999706382 0 -2.2735805010731909 0.22641949675281539 0 -0.66987297914647026 -2.499999999706382 0 -2.9547160992544761 -1.820741508163664 0 -2.9547160992544761 -1.820741508163664 -3 -4.3301270160527148 -2.500000004970083 0 -5 -1.397247784140632e-08 0 -2.9547160992544761 -1.820741508163664 0 -2.9547160992544761 -1.820741508163664 -3 -2.5000000000000022 -4.3301270189221919 0 -4.3301270160527148 -2.500000004970083 0 -2.9547160992544761 -1.820741508163664 0 -2.9547160992544761 -1.820741508163664 -3 -4.3301270160527148 -2.500000004970083 -3 -2.5000000000000022 -4.3301270189221919 0 -2.9547160992544761 -1.820741508163664 -3 -4.3301270160527148 -2.500000004970083 0 -5 -1.397247784140632e-08 -3 -4.3301270160527148 -2.500000004970083 -3 -2.9547160992544761 -1.820741508163664 -3 -4.3301270160527148 -2.500000004970083 0 
</DataArray>
</Points>
<Cells>
<DataArray type="UInt32" Name="connectivity" format="ascii">
0 1 2 3 4 5 6 7 8 9 10 11 12 13 14 15 16 17 18 19 20 21 22 23 24 25 26 27 28 29 30 31 32 33 34 35 36 37 38 39 40 41 42 43 44 45 46 47 48 49 50 51 52 53 54 55 56 57 58 59 60 61 62 63 64 65 66 67 68 69 70 71 72 73 74 75 76 77 78 79 80 81 82 83 84 85 86 87 88 89 90 91 92 93 94 95 96 97 98 99 100 101 102 103 104 105 106 107 108 109 110 111 112 113 114 115 116 117 118 119 120 121 122 123 124 125 126 127 128 129 130 131 132 133 134 135 136 137 138 139 140 141 142 143 144 145 146 147 148 149 150 151 152 153 154 155 156 157 158 159 160 161 162 163 164 165 166 167 168 169 170 171 172 173 174 175 176 177 178 179 180 181 182 183 184 185 186 187 188 189 190 191 192 193 194 195 196 197 198 199 200 201 202 203 204 205 206 207 208 209 210 211 212 213 214 215 216 217 218 219 220 221 222 223 224 225 226 227 228 229 230 231 232 233 234 235 236 237 238 239 240 241 242 243 244 245 246 247 248 249 250 251 252 253 254 255 256 257 258 259 260 261 262 263 264 265 266 267 268 269 270 271 272 273 274 275 276 277 278 279 280 281 282 283 284 285 286 287 288 289 290 291 292 293 294 295 296 297 298 299 300 301 302 303 304 305 306 307 308 309 310 311 312 313 314 315 316 317 318 319 320 321 322 323 324 325 326 327 328 329 330 331 332 333 334 335 336 337 338 339 340 341 342 343 344 345 346 347 348 349 350 351 352 353 354 355 356 357 358 359 360 361 362 363 364 365 366 367 368 369 370 371 372 373 374 375 376 377 378 379 380 381 382 383 384 385 386 387 388 389 390 391 392 393 394 395 396 397 398 399 400 401 402 403 404 405 406 407 408 409 410 411 412 413 414 415 416 417 418 419 420 421 422 423 424 425 426 427 428 429 430 431 432 433 434 435 436 437 438 439 440 441 442 443 444 445 446 447 448 449 450 451 452 453 454 455 456 457 458 459 460 461 462 463 464 465 466 467 468 469 470 471 472 473 474 475 476 477 478 479 480 481 482 483 484 485 486 487 488 489 490 491 492 493 494 495 496 497 498 499 500 501 502 503 504 505 506 507 508 509 510 511 512 513 514 515 516 517 518 519 520 521 522 523 524 525 526 527 528 529 530 531 532 533 534 535 536 537 538 539 540 541 542 543 544 545 546 547 548 549 550 551 552 553 554 555 556 557 558 559 560 561 562 563 564 565 566 567 568 569 570 571 572 573 574 575 576 577 578 579 580 581 582 583 584 585 586 587 588 589 590 591 592 593 594 595 596 597 598 599 600 601 602 603 604 605 606 607 608 609 610 611 612 613 614 615 616 617 618 619 620 621 622 623 624 625 626 627 628 629 630 631 632 633 634 635 636 637 638 639 640 641 642 643 644 645 646 647 648 649 650 651 652 653 654 655 656 657 658 659 660 661 662 663 664 665 666 667 668 669 670 671 672 673 674 675 676 677 678 679 680 681 682 683 684 685 686 687 688 689 690 691 692 693 694 695 696 697 698 699 700 701 702 703 704 705 706 707 708 709 710 711 712 713 714 715 716 717 718 719 720 721 722 723 724 725 726 727 728 729 730 731 732 733 734 735 736 737 738 739 740 741 742 743 744 745 746 747 748 749 750 751 752 753 754 755 756 757 758 759 760 761 762 763 764 765 766 767 768 769 770 771 772 773 774 775 776 777 778 779 780 781 782 783 784 785 786 787 788 789 790 791 792 793 794 795 796 797 798 799 800 801 802 803 804 805 806 807 808 809 810 811 812 813 814 815 816 817 818 819 820 821 822 823 824 825 826 827 828 829 830 831 832 833 834 835 836 837 838 839 840 841 842 843 844 845 846 847 848 849 850 851 852 853 854 855 856 857 858 859 860 861 862 863 864 865 866 867 868 869 870 871 872 873 874 875 876 877 878 879 880 881 882 883 884 885 886 887 888 889 890 891 892 893 894 895 896 897 898 899 900 901 902 903 904 905 906 907 908 909 910 911 912 913 914 915 916 917 918 919 920 921 922 923 924 925 926 927 928 929 930 931 932 933 934 935 936 937 938 939 940 941 942 943 944 945 946 947 948 949 950 951 952 953 954 955 956 957 958 959 960 961 962 963 964 965 966 967 968 969 970 971 972 973 974 975 976 977 978 979 980 981 982 983 984 985 986 987 988 989 990 991 992 993 994 995 996 997 998 999 1000 1001 1002 1003 1004 1005 1006 1007 1008 1009 1010 1011 1012 1013 1014 1015 1016 1017 1018 1019 1020 1021 1022 1023 1024 1025 1026 1027 1028 1029 1030 1031 1032 1033 1034 1035 1036 1037 1038 1039 1040 1041 1042 1043 1044 1045 1046 1047 1048 1049 1050 1051 1052 1053 1054 1055 1056 1057 1058 1059 1060 1061 1062 1063 1064 1065 1066 1067 1068 1069 1070 1071 1072 1073 1074 1075 1076 1077 1078 1079 1080 1081 1082 1083 1084 1085 1086 1087 1088 1089 1090 1091 1092 1093 1094 1095 1096 1097 1098 1099 1100 1101 1102 1103 1104 1105 1106 1107 1108 1109 1110 1111 1112 1113 1114 1115 1116 1117 1118 1119 1120 1121 1122 1123 1124 1125 1126 1127 1128 1129 1130 1131 1132 1133 1134 1135 1136 1137 1138 1139 1140 1141 1142 1143 1144 1145 1146 1147 1148 1149 1150 1151 1152 1153 1154 1155 1156 1157 1158 1159 1160 1161 1162 1163 1164 1165 1166 1167 1168 1169 1170 1171 1172 1173 1174 1175 1176 1177 1178 1179 1180 1181 1182 1183 1184 1185 1186 1187 1188 1189 1190 1191 1192 1193 1194 1195 1196 1197 1198 1199 1200 1201 1202 1203 1204 1205 1206 1207 1208 1209 1210 1211 1212 1213 1214 1215 1216 1217 1218 1219 1220 1221 1222 1223 1224 1225 1226 1227 1228 1229 1230 1231 1232 1233 1234 1235 1236 1237 1238 1239 1240 1241 1242 1243 1244 1245 1246 1247 1248 1249 1250 1251 1252 1253 1254 1255 1256 1257 1258 1259 1260 1261 1262 1263 1264 1265 1266 1267 1268 1269 1270 1271 1272 1273 1274 1275 1276 1277 1278 1279 1280 1281 1282 1283 1284 1285 1286 1287 1288 1289 1290 1291 1292 1293 1294 1295 1296 1297 1298 1299 1300 1301 1302 1303 1304 1305 1306 1307 1308 1309 1310 1311 1312 1313 1314 1315 1316 1317 1318 1319 1320 1321 1322 1323 1324 1325 1326 1327 1328 1329 1330 1331 1332 1333 1334 1335 1336 1337 1338 1339 1340 1341 1342 1343 1344 1345 1346 1347 1348 1349 1350 1351 1352 1353 1354 1355 1356 1357 1358 1359 1360 1361 1362 1363 1364 1365 1366 1367 1368 1369 1370 1371 1372 1373 1374 1375 1376 1377 1378 1379 1380 1381 1382 1383 1384 1385 1386 1387 1388 1389 1390 1391 1392 1393 1394 1395 1396 1397 1398 1399 1400 1401 1402 1403 1404 1405 1406 1407 1408 1409 1410 1411 1412 1413 1414 1415 1416 1417 1418 1419 1420 1421 1422 1423 1424 1425 1426 1427 1428 1429 1430 1431 1432 1433 1434 1435 1436 1437 1438 1439 1440 1441 1442 1443 1444 1445 1446 1447 1448 1449 1450 1451 1452 1453 1454 1455 1456 1457 1458 1459 1460 1461 1462 1463 1464 1465 1466 1467 1468 1469 1470 1471 1472 1473 1474 1475 1476 1477 1478 1479 1480 1481 1482 1483 1484 1485 1486 1487 1488 1489 1490 1491 1492 1493 1494 1495 1496 1497 1498 1499 1500 1501 1502 1503 1504 1505 1506 1507 1508 1509 1510 1511 1512 1513 1514 1515 1516 1517 1518 1519 1520 1521 1522 1523 1524 1525 1526 1527 1528 1529 1530 1531 1532 1533 1534 1535 1536 1537 1538 1539 1540 1541 1542 1543 1544 1545 1546 1547 1548 1549 1550 1551 1552 1553 1554 1555 1556 1557 1558 1559 1560 1561 1562 1563 1564 1565 1566 1567 1568 1569 1570 1571 1572 1573 1574 1575 1576 1577 1578 1579 1580 1581 1582 1583 1584 1585 1586 1587 1588 1589 1590 1591 1592 1593 1594 1595 1596 1597 1598 1599 1600 1601 1602 1603 1604 1605 1606 1607 1608 1609 1610 1611 1612 1613 1614 1615 1616 1617 1618 1619 1620 1621 1622 1623 1624 1625 1626 1627 1628 1629 1630 1631 1632 1633 1634 1635 1636 1637 1638 1639 1640 1641 1642 1643 1644 1645 1646 1647 1648 1649 1650 1651 1652 1653 1654 1655 1656 1657 1658 1659 1660 1661 1662 1663 1664 1665 1666 1667 1668 1669 1670 1671 1672 1673 1674 1675 1676 1677 1678 1679 1680 1681 1682 1683 1684 1685 1686 1687 1688 1689 1690 1691 1692 1693 1694 1695 1696 1697 1698 1699 1700 1701 1702 1703 1704 1705 1706 1707 1708 1709 1710 1711 1712 1713 1714 1715 1716 1717 1718 1719 1720 1721 1722 1723 1724 1725 1726 1727 1728 1729 1730 1731 1732 1733 1734 1735 1736 1737 1738 1739 1740 1741 1742 1743 1744 1745 1746 1747 1748 1749 1750 1751 1752 1753 1754 1755 1756 1757 1758 1759 1760 1761 1762 1763 1764 1765 1766 1767 1768 1769 1770 1771 1772 1773 1774 1775 1776 1777 1778 1779 1780 1781 1782 1783 1784 1785 1786 1787 1788 1789 1790 1791 1792 1793 1794 1795 1796 1797 1798 1799 1800 1801 1802 1803 1804 1805 1806 1807 1808 1809 1810 1811 1812 1813 1814 1815 1816 1817 1818 1819 1820 1821 1822 1823 1824 1825 1826 1827 1828 1829 1830 1831 1832 1833 1834 1835 1836 1837 1838 1839 1840 1841 1842 1843 1844 1845 1846 1847 1848 1849 1850 1851 1852 1853 1854 1855 1856 1857 1858 1859 1860 1861 1862 1863 1864 1865 1866 1867 1868 1869 1870 1871 1872 1873 1874 1875 1876 1877 1878 1879 1880 1881 1882 1883 1884 1885 1886 1887 1888 1889 1890 1891 1892 1893 1894 1895 1896 1897 1898 1899 1900 1901 1902 1903 1904 1905 1906 1907 1908 1909 1910 1911 1912 1913 1914 1915 1916 1917 1918 1919 1920 1921 1922 1923 1924 1925 1926 1927 1928 1929 1930 1931 1932 1933 1934 1935 1936 1937 1938 1939 1940 1941 1942 1943 1944 1945 1946 1947 1948 1949 1950 1951 1952 1953 1954 1955 1956 1957 1958 1959 1960 1961 1962 1963 1964 1965 1966 1967 1968 1969 1970 1971 1972 1973 1974 1975 1976 1977 1978 1979 1980 1981 1982 1983 1984 1985 1986 1987 1988 1989 1990 1991 1992 1993 1994 1995 1996 1997 1998 1999 2000 2001 2002 2003 2004 2005 2006 2007 2008 2009 2010 2011 2012 2013 2014 2015 2016 2017 2018 2019 2020 2021 2022 2023 2024 2025 2026 2027 2028 2029 2030 2031 2032 2033 2034 2035 2036 2037 2038 2039 2040 2041 2042 2043 2044 2045 2046 2047 2048 2049 2050 2051 2052 2053 2054 2055 2056 2057 2058 2059 2060 2061 2062 2063 2064 2065 2066 2067 2068 2069 2070 2071 2072 2073 2074 2075 2076 2077 2078 2079 2080 2081 2082 2083 2084 2085 2086 2087 2088 2089 2090 2091 2092 2093 2094 2095 2096 2097 2098 2099 2100 2101 2102 2103 2104 2105 2106 2107 2108 2109 2110 2111 2112 2113 2114 2115 2116 2117 2118 2119 2120 2121 2122 2123 2124 2125 2126 2127 2128 2129 2130 2131 2132 2133 2134 2135 2136 2137 2138 2139 2140 2141 2142 2143 2144 2145 2146 2147 2148 2149 2150 2151 2152 2153 2154 2155 2156 2157 2158 2159 
</DataArray>
<DataArray type="UInt32" Name="offsets" format="ascii">
4 8 12 16 20 24 28 32 36 40 44 48 52 56 60 64 68 72 76 80 84 88 92 96 100 104 108 112 116 120 124 128 132 136 140 144 148 152 156 160 164 168 172 176 180 184 188 192 196 200 204 208 212 216 220 224 228 232 236 240 244 248 252 256 260 264 268 272 276 280 284 288 292 296 300 304 308 312 316 320 324 328 332 336 340 344 348 352 356 360 364 368 372 376 380 384 388 392 396 400 404 408 412 416 420 424 428 432 436 440 444 448 452 456 460 464 468 472 476 480 484 488 492 496 500 504 508 512 516 520 524 528 532 536 540 544 548 552 556 560 564 568 572 576 580 584 588 592 596 600 604 608 612 616 620 624 628 632 636 640 644 648 652 656 660 664 668 672 676 680 684 688 692 696 700 704 708 712 716 720 724 728 732 736 740 744 748 752 756 760 764 768 772 776 780 784 788 792 796 800 804 808 812 816 820 824 828 832 836 840 844 848 852 856 860 864 868 872 876 880 884 888 892 896 900 904 908 912 916 920 924 928 932 936 940 944 948 952 956 960 964 968 972 976 980 984 988 992 996 1000 1004 1008 1012 1016 1020 1024 1028 1032 1036 1040 1044 1048 1052 1056 1060 1064 1068 1072 1076 1080 1084 1088 1092 1096 1100 1104 1108 1112 1116 1120 1124 1128 1132 1136 1140 1144 1148 1152 1156 1160 1164 1168 1172 1176 1180 1184 1188 1192 1196 1200 1204 1208 1212 1216 1220 1224 1228 1232 1236 1240 1244 1248 1252 1256 1260 1264 1268 1272 1276 1280 1284 1288 1292 1296 1300 1304 1308 1312 1316 1320 1324 1328 1332 1336 1340 1344 1348 1352 1356 1360 1364 1368 1372 1376 1380 1384 1388 1392 1396 1400 1404 1408 1412 1416 1420 1424 1428 1432 1436 1440 1444 1448 1452 1456 1460 1464 1468 1472 1476 1480 1484 1488 1492 1496 1500 1504 1508 1512 1516 1520 1524 1528 1532 1536 1540 1544 1548 1552 1556 1560 1564 1568 1572 1576 1580 1584 1588 1592 1596 1600 1604 1608 1612 1616 1620 1624 1628 1632 1636 1640 1644 1648 1652 1656 1660 1664 1668 1672 1676 1680 1684 1688 1692 1696 1700 1704 1708 1712 1716 1720 1724 1728 1732 1736 1740 1744 1748 1752 1756 1760 1764 1768 1772 1776 1780 1784 1788 1792 1796 1800 1804 1808 1812 1816 1820 1824 1828 1832 1836 1840 1844 1848 1852 1856 1860 1864 1868 1872 1876 1880 1884 1888 1892 1896 1900 1904 1908 1912 1916 1920 1924 1928 1932 1936 1940 1944 1948 1952 1956 1960 1964 1968 1972 1976 1980 1984 1988 1992 1996 2000 2004 2008 2012 2016 2020 2024 2028 2032 2036 2040 2044 2048 2052 2056 2060 2064 2068 2072 2076 2080 2084 2088 2092 2096 2100 2104 2108 2112 2116 2120 2124 2128 2132 2136 2140 2144 2148 2152 2156 2160 
</DataArray>
<DataArray type="UInt32" Name="types" format="ascii">
10 10 10 10 10 10 10 10 10 10 10 10 10 10 10 10 10 10 10 10 10 10 10 10 10 10 10 10 10 10 10 10 10 10 10 10 10 10 10 10 10 10 10 10 10 10 10 10 10 10 10 10 10 10 10 10 10 10 10 10 10 10 10 10 10 10 10 10 10 10 10 10 10 10 10 10 10 10 10 10 10 10 10 10 10 10 10 10 10 10 10 10 10 10 10 10 10 10 10 10 10 10 10 10 10 10 10 10 10 10 10 10 10 10 10 10 10 10 10 10 10 10 10 10 10 10 10 10 10 10 10 10 10 10 10 10 10 10 10 10 10 10 10 10 10 10 10 10 10 10 10 10 10 10 10 10 10 10 10 10 10 10 10 10 10 10 10 10 10 10 10 10 10 10 10 10 10 10 10 10 10 10 10 10 10 10 10 10 10 10 10 10 10 10 10 10 10 10 10 10 10 10 10 10 10 10 10 10 10 10 10 10 10 10 10 10 10 10 10 10 10 10 10 10 10 10 10 10 10 10 10 10 10 10 10 10 10 10 10 10 10 10 10 10 10 10 10 10 10 10 10 10 10 10 10 10 10 10 10 10 10 10 10 10 10 10 10 10 10 10 10 10 10 10 10 10 10 10 10 10 10 10 10 10 10 10 10 10 10 10 10 10 10 10 10 10 10 10 10 10 10 10 10 10 10 10 10 10 10 10 10 10 10 10 10 10 10 10 10 10 10 10 10 10 10 10 10 10 10 10 10 10 10 10 10 10 10 10 10 10 10 10 10 10 10 10 10 10 10 10 10 10 10 10 10 10 10 10 10 10 10 10 10 10 10 10 10 10 10 10 10 10 10 10 10 10 10 10 10 10 10 10 10 10 10 10 10 10 10 10 10 10 10 10 10 10 10 10 10 10 10 10 10 10 10 10 10 10 10 10 10 10 10 10 10 10 10 10 10 10 10 10 10 10 10 10 10 10 10 10 10 10 10 10 10 10 10 10 10 10 10 10 10 10 10 10 10 10 10 10 10 10 10 10 10 10 10 10 10 10 10 10 10 10 10 10 10 10 10 10 10 10 10 10 10 10 10 10 10 10 10 10 10 10 10 10 10 10 10 10 10 10 10 10 10 10 10 10 10 10 10 10 10 10 10 10 10 10 10 10 10 10 10 10 10 10 10 10 10 10 10 10 10 10 10 10 10 10 10 10 10 10 10 10 10 10 10 10 10 10 
</DataArray>
</Cells>
<PointData Scalars="" Vectors="displacement," Tensors="">
<DataArray type="Float64" Name="displacement" NumberOfComponents="3" format="ascii">
-1.3343361718110522e-07 -1.9517227586732868e-08 -0.00025021885772637302 -1.275987203582733e-07 4.9916617707884912e-08 -0.00025023836325348069 -8.4336777552746286e-08 -2.3213280010067553e-08 -0.00025021818895148398 2.4515318280955985e-08 1.6152693513989023e-08 -1.8749941580324542e-07 -1.0075478584235666e-07 -8.6367731861011796e-08 -0.00025023333498498055 -1.3343361718110522e-07 -1.9517227586732868e-08 -0.00025021885772637302 -8.4336777552746286e-08 -2.3213280010067553e-08 -0.00025021818895148398 2.4515318280955985e-08 1.6152693513989023e-08 -1.8749941580324542e-07 -5.463024425282089e-08 -3.5568361495474156e-08 -1.0558484785049233e-07 -1.0075478584235664e-07 -8.636773186101181e-08 -0.0002502333349849805 2.4515318280955985e-08 1.6152693513989023e-08 -1.8749941580324542e-07 -1.3343361718110522e-07 -1.9517227586732868e-08 -0.00025021885772637302 -5.2296042367838808e-08 -4.3714206450162964e-09 -2.4535996119899995e-07 -5.463024425282089e-08 -3.5568361495474156e-08 -1.0558484785049233e-07 2.4515318280955985e-08 1.6152693513989023e-08 -1.8749941580324542e-07 -1.3343361718110522e-07 -1.9517227586732868e-08 -0.00025021885772637302 -2.631745110311501e-09 1.1332127652857327e-08 -2.1468367025449405e-07 -5.4684884531271061e-08 1.3877451506056999e-08 -0.00025020481698337919 2.4515318280955985e-08 1.6152693513989023e-08 -1.8749941580324542e-07 -4.0159337072351305e-08 -5.0915247142671641e-08 -0.00025020398636852484 -1.0075478584235666e-07 -8.6367731861011796e-08 -0.00025023333498498055 -4.0159337072351312e-08 -5.0915247142671641e-08 -0.00025020398636852484 -2.631745110311501e-09 1.1332127652857327e-08 -2.1468367025449405e-07 2.4515318280955985e-08 1.6152693513989023e-08 -1.8749941580324542e-07 -5.4684884531271035e-08 1.3877451506056986e-08 -0.00025020481698337913 -4.0159337072351305e-08 -5.0915247142671641e-08 -0.00025020398636852484 -8.4336777552746286e-08 -2.3213280010067553e-08 -0.00025021818895148398 2.4515318280955985e-08 1.6152693513989023e-08 -1.8749941580324542e-07 -4.0159337072351305e-08 -5.0915247142671641e-08 -0.00025020398636852484 -1.0075478584235667e-07 -8.6367731861011796e-08 -0.00025023333498498055 -8.4336777552746273e-08 -2.3213280010067543e-08 -0.00025021818895148393 2.4515318280955985e-08 1.6152693513989023e-08 -1.8749941580324542e-07 -2.4656533555890297e-08 -4.6470922768565676e-08 -2.3441201197197759e-07 -5.1940963750551785e-08 -1.2724769161907864e-07 -0.00025020775325478094 -2.631745110311501e-09 1.1332127652857327e-08 -2.1468367025449405e-07 -1.0075478584235666e-07 -8.6367731861011796e-08 -0.00025023333498498055 -2.4656533555890297e-08 -4.6470922768565676e-08 -2.3441201197197759e-07 -2.631745110311496e-09 1.1332127652857334e-08 -2.1468367025449405e-07 2.4515318280955985e-08 1.6152693513989023e-08 -1.8749941580324542e-07 -1.0075478584235666e-07 -8.6367731861011796e-08 -0.00025023333498498055 -5.463024425282089e-08 -3.5568361495474156e-08 -1.0558484785049233e-07 -2.4656533555890297e-08 -4.6470922768565676e-08 -2.3441201197197759e-07 2.4515318280955985e-08 1.6152693513989023e-08 -1.8749941580324542e-07 -1.0075478584235666e-07 -8.6367731861011796e-08 -0.00025023333498498055 -2.4656533555890297e-08 -4.6470922768565676e-08 -2.3441201197197759e-07 5.0248009851413883e-09 -5.2720986278633898e-08 -1.8098149061448342e-07 -2.631745110311501e-09 1.1332127652857327e-08 -2.1468367025449405e-07 -5.1940963750551792e-08 -1.2724769161907861e-07 -0.00025020775325478094 -2.631745110311501e-09 1.1332127652857327e-08 -2.1468367025449405e-07 5.0248009851413925e-09 -5.2720986278633898e-08 -1.8098149061445875e-07 -4.880793497239185e-09 1.6546707624735955e-08 -9.77094431707519e-08 -5.1940963750551792e-08 -1.2724769161907861e-07 -0.00025020775325478094 -2.631745110311501e-09 1.1332127652857327e-08 -2.1468367025449405e-07 -5.1940963750551785e-08 -1.2724769161907867e-07 -0.00025020775325478088 -4.880793497239185e-09 1.6546707624735958e-08 -9.7709443170760489e-08 -4.0159337072351305e-08 -5.0915247142671641e-08 -0.00025020398636852484 3.7897829451352406e-09 2.5030855873820584e-09 -1.8649049674415688e-07 -2.631745110311501e-09 1.1332127652857327e-08 -2.1468367025449405e-07 5.7103979707393583e-09 -9.1897553457143463e-09 -7.2571553845670445e-08 -4.0159337072351305e-08 -5.0915247142671641e-08 -0.00025020398636852484 5.7103979707393583e-09 -9.1897553457143463e-09 -7.2571553845670445e-08 -2.6317451103115035e-09 1.1332127652857324e-08 -2.1468367025450639e-07 -4.880793497239185e-09 1.6546707624735955e-08 -9.77094431707519e-08 -4.0159337072351305e-08 -5.0915247142671641e-08 -0.00025020398636852484 5.7103979707393583e-09 -9.1897553457143463e-09 -7.2571553845670445e-08 -4.0159337072351285e-08 -5.0915247142671681e-08 -0.00025020398636852489 -4.8807934972391825e-09 1.6546707624735951e-08 -9.7709443170757141e-08 -5.1100655938229107e-09 -8.4149725230619335e-08 -0.00025018507265965975 5.3192690916426068e-08 -2.6644470250601915e-08 -0.00025019539836647646 1.2401936211996803e-08 -4.2730937170412365e-08 -0.00025018016648342597 5.7103979707393583e-09 -9.1897553457143463e-09 -7.2571553845670445e-08 -1.2701597484203002e-08 1.1314996763178387e-08 -9.8543760335868524e-08 -1.2601056653493992e-08 4.7781304758276683e-09 -1.7697880110782764e-07 5.7103979707393583e-09 -9.1897553457143447e-09 -7.2571553845670431e-08 -1.2701597484203002e-08 1.1314996763178387e-08 -9.8543760335868524e-08 5.3192690916426068e-08 -2.6644470250601915e-08 -0.00025019539836647646 5.7103979707393583e-09 -9.1897553457143463e-09 -7.2571553845670445e-08 -5.1100655938229107e-09 -8.4149725230619335e-08 -0.00025018507265965975 -1.2701597484203002e-08 1.1314996763178387e-08 -9.8543760335868524e-08 1.2401936211996793e-08 -4.2730937170412365e-08 -0.00025018016648342597 5.7103979707393583e-09 -9.1897553457143463e-09 -7.2571553845670445e-08 -4.880793497239185e-09 1.6546707624735955e-08 -9.77094431707519e-08 -1.2701597484203002e-08 1.1314996763178387e-08 -9.8543760335868524e-08 -5.1100655938229107e-09 -8.4149725230619335e-08 -0.00025018507265965975 -4.880793497239185e-09 1.6546707624735955e-08 -9.77094431707519e-08 2.9118624752717675e-08 -4.4973803609162362e-08 -1.3795280721352341e-07 -1.2701597484203002e-08 1.1314996763178387e-08 -9.8543760335868524e-08 1.9424279955068117e-08 -1.3542571036742637e-07 -0.00025019745817880248 5.0248009851413925e-09 -5.2720986278633898e-08 -1.8098149061445875e-07 1.9424279955068121e-08 -1.3542571036742639e-07 -0.00025019745817880253 -4.880793497239185e-09 1.6546707624735955e-08 -9.77094431707519e-08 -5.1940963750551778e-08 -1.2724769161907861e-07 -0.00025020775325478088 5.0248009851413925e-09 -5.2720986278633898e-08 -1.8098149061445875e-07 2.9118624752717682e-08 -4.4973803609162382e-08 -1.3795280721352341e-07 -4.880793497239185e-09 1.6546707624735955e-08 -9.77094431707519e-08 1.9424279955068114e-08 -1.3542571036742639e-07 -0.00025019745817880253 -4.880793497239185e-09 1.6546707624735955e-08 -9.77094431707519e-08 1.9424279955068117e-08 -1.3542571036742637e-07 -0.00025019745817880248 -1.2701597484203002e-08 1.1314996763178389e-08 -9.8543760335863984e-08 -5.1100655938229107e-09 -8.4149725230619335e-08 -0.00025018507265965975 1.9424279955068117e-08 -1.3542571036742637e-07 -0.00025019745817880248 -5.1940963750551772e-08 -1.2724769161907859e-07 -0.00025020775325478083 -5.1100655938229107e-09 -8.4149725230619335e-08 -0.00025018507265965975 -4.880793497239185e-09 1.6546707624735955e-08 -9.77094431707519e-08 1.9424279955068117e-08 -1.3542571036742637e-07 -0.00025019745817880248 -5.1100655938229107e-09 -8.4149725230619335e-08 -0.00025018507265965975 3.6405840519236051e-08 -7.0376829225381555e-08 -0.00025018848937158024 -1.2701597484203002e-08 1.1314996763178387e-08 -9.8543760335868524e-08 1.2401936211996793e-08 -4.2730937170412365e-08 -0.00025018016648342597 5.3192690916426074e-08 -2.6644470250601915e-08 -0.00025019539836647646 3.6405840519236051e-08 -7.0376829225381555e-08 -0.00025018848937158024 -1.2701597484203002e-08 1.1314996763178387e-08 -9.8543760335868524e-08 -5.1100655938229107e-09 -8.4149725230619335e-08 -0.00025018507265965975 1.2401936211996793e-08 -4.2730937170412365e-08 -0.00025018016648342597 3.6405840519236051e-08 -7.0376829225381555e-08 -0.00025018848937158024 -1.2701597484203002e-08 1.1314996763178387e-08 -9.8543760335868524e-08 -4.0159337072351305e-08 -5.0915247142671641e-08 -0.00025020398636852484 1.2401936211996794e-08 -4.2730937170412365e-08 -0.00025018016648342597 -5.1100655938229107e-09 -8.4149725230619335e-08 -0.00025018507265965975 5.7103979707393583e-09 -9.1897553457143463e-09 -7.2571553845670445e-08 -4.0159337072351305e-08 -5.0915247142671641e-08 -0.00025020398636852484 4.6030561053925629e-09 -1.6842087843436275e-10 -0.00025019722653996991 1.2401936211996793e-08 -4.2730937170412365e-08 -0.00025018016648342597 5.7103979707393583e-09 -9.1897553457143463e-09 -7.2571553845670445e-08 -5.1940963750551778e-08 -1.2724769161907861e-07 -0.00025020775325478088 -4.0159337072351305e-08 -5.0915247142671641e-08 -0.00025020398636852484 -5.1100655938229107e-09 -8.4149725230619335e-08 -0.00025018507265965975 -4.880793497239185e-09 1.6546707624735955e-08 -9.77094431707519e-08 -5.1940963750551778e-08 -1.2724769161907861e-07 -0.00025020775325478088 -1.0075478584235666e-07 -8.6367731861011783e-08 -0.00025023333498498055 -4.0159337072351305e-08 -5.0915247142671641e-08 -0.00025020398636852484 -2.6317451103114898e-09 1.1332127652857344e-08 -2.1468367025443881e-07 -4.0159337072351305e-08 -5.0915247142671641e-08 -0.00025020398636852484 -5.1940963750551778e-08 -1.2724769161907861e-07 -0.00025020775325478088 -5.1100655938229107e-09 -8.4149725230619335e-08 -0.00025018507265965975 1.3426481411502486e-08 -1.0928212528822596e-07 -0.00050024180898286519 1.3426481411502469e-08 -1.0928212528822598e-07 -0.00050024180898286519 -1.7767771577728474e-08 -5.570410889856513e-08 -0.00050024072486096519 2.1582090847379834e-08 -7.3848457539432248e-08 -0.00050023705050874351 -5.1100655938229107e-09 -8.4149725230619335e-08 -0.00025018507265965975 -4.0159337072351305e-08 -5.0915247142671641e-08 -0.00025020398636852484 1.3426481411502471e-08 -1.09282125288226e-07 -0.00050024180898286519 -5.1100655938229098e-09 -8.4149725230619322e-08 -0.00025018507265965975 -1.7767771577728474e-08 -5.570410889856513e-08 -0.00050024072486096519 1.3426481411502469e-08 -1.0928212528822598e-07 -0.00050024180898286519 -4.4958685747974252e-08 -1.0091890762127115e-07 -0.00050025142003773859 -1.7767771577728474e-08 -5.570410889856513e-08 -0.00050024072486096519 -4.0159337072351305e-08 -5.0915247142671641e-08 -0.00025020398636852478 -1.0075478584235666e-07 -8.6367731861011796e-08 -0.00025023333498498055 -5.1940963750551772e-08 -1.2724769161907859e-07 -0.00025020775325478088 -4.0159337072351305e-08 -5.0915247142671641e-08 -0.00025020398636852484 1.3426481411502486e-08 -1.0928212528822596e-07 -0.00050024180898286519 4.6030561053925629e-09 -1.6842087843436275e-10 -0.00025019722653996991 -4.0159337072351305e-08 -5.0915247142671641e-08 -0.00025020398636852484 1.2401936211996793e-08 -4.2730937170412365e-08 -0.00025018016648342597 -1.7767771577728474e-08 -5.570410889856513e-08 -0.00050024072486096519 1.2401936211996793e-08 -4.2730937170412365e-08 -0.00025018016648342597 -1.7767771577728437e-08 -5.570410889856513e-08 -0.0005002407248609653 -5.1100655938229082e-09 -8.4149725230619335e-08 -0.00025018507265965975 2.1582090847379834e-08 -7.3848457539432248e-08 -0.00050023705050874351 -1.7767771577728474e-08 -5.570410889856513e-08 -0.00050024072486096519 5.283864943069987e-09 3.3952950038183456e-09 -0.00050024016759117813 2.1894845578845086e-08 -3.3949311675840281e-08 -0.00050023619295789645 1.2401936211996793e-08 -4.2730937170412365e-08 -0.00025018016648342597 1.2401936211996793e-08 -4.2730937170412365e-08 -0.00025018016648342597 -4.0159337072351305e-08 -5.0915247142671641e-08 -0.00025020398636852484 -5.1100655938229107e-09 -8.4149725230619335e-08 -0.00025018507265965975 -1.7767771577728474e-08 -5.570410889856513e-08 -0.00050024072486096519 -1.7767771577728474e-08 -5.570410889856513e-08 -0.00050024072486096519 2.1894845578845086e-08 -3.3949311675840281e-08 -0.00050023619295789645 2.1582090847379834e-08 -7.3848457539432248e-08 -0.00050023705050874351 1.2401936211996793e-08 -4.2730937170412365e-08 -0.00025018016648342597 2.1894845578845086e-08 -3.3949311675840281e-08 -0.00050023619295789645 5.4741837977422776e-08 -1.5675962236670695e-08 -0.00050024195595393679 5.1807451641904024e-08 -5.3010039916594131e-08 -0.00050023741979405689 3.6405840519236051e-08 -7.0376829225381555e-08 -0.00025018848937158024 5.3192690916426068e-08 -2.6644470250601915e-08 -0.00025019539836647646 1.2401936211996791e-08 -4.2730937170412372e-08 -0.00025018016648342597 3.6405840519236051e-08 -7.0376829225381555e-08 -0.00025018848937158024 5.474183797742277e-08 -1.5675962236670692e-08 -0.00050024195595393679 5.474183797742277e-08 -1.5675962236670692e-08 -0.00050024195595393679 2.1894845578845093e-08 -3.3949311675840275e-08 -0.00050023619295789645 1.2401936211996793e-08 -4.2730937170412365e-08 -0.00025018016648342597 3.6405840519236051e-08 -7.0376829225381555e-08 -0.00025018848937158024 1.2401936211996793e-08 -4.2730937170412365e-08 -0.00025018016648342597 2.1582090847379834e-08 -7.3848457539432248e-08 -0.00050023705050874351 3.6405840519236051e-08 -7.0376829225381555e-08 -0.00025018848937158024 2.1894845578845086e-08 -3.3949311675840281e-08 -0.00050023619295789645 1.2401936211996793e-08 -4.2730937170412365e-08 -0.00025018016648342597 -5.1100655938229107e-09 -8.4149725230619335e-08 -0.00025018507265965975 3.6405840519236051e-08 -7.0376829225381555e-08 -0.00025018848937158024 2.1582090847379834e-08 -7.3848457539432248e-08 -0.00050023705050874351 2.1582090847379834e-08 -7.3848457539432248e-08 -0.00050023705050874351 2.1894845578845086e-08 -3.3949311675840281e-08 -0.00050023619295789645 5.1807451641904024e-08 -5.3010039916594131e-08 -0.00050023741979405689 3.6405840519236051e-08 -7.0376829225381555e-08 -0.00025018848937158024 -5.1940963750551778e-08 -1.2724769161907861e-07 -0.00025020775325478088 1.9424279955068117e-08 -1.3542571036742637e-07 -0.00025019745817880248 -5.1100655938229107e-09 -8.4149725230619335e-08 -0.00025018507265965975 6.6420897506975669e-08 -8.791075095503721e-08 -0.00050023805240375838 6.6420897506975656e-08 -8.7910750955037237e-08 -0.00050023805240375838 1.3426481411502463e-08 -1.0928212528822596e-07 -0.00050024180898286508 2.1582090847379834e-08 -7.3848457539432248e-08 -0.00050023705050874351 -5.1100655938229107e-09 -8.4149725230619335e-08 -0.00025018507265965975 -5.1940963750551778e-08 -1.2724769161907861e-07 -0.00025020775325478088 6.6420897506975682e-08 -8.7910750955037224e-08 -0.00050023805240375838 -5.1100655938229107e-09 -8.4149725230619335e-08 -0.00025018507265965975 1.3426481411502469e-08 -1.0928212528822598e-07 -0.00050024180898286519 -5.1100655938229107e-09 -8.4149725230619335e-08 -0.00025018507265965975 6.6420897506975656e-08 -8.7910750955037237e-08 -0.00050023805240375838 3.6405840519236051e-08 -7.0376829225381568e-08 -0.0002501884893715803 2.1582090847379834e-08 -7.3848457539432248e-08 -0.00050023705050874351 -5.1100655938229107e-09 -8.4149725230619335e-08 -0.00025018507265965975 1.9424279955068114e-08 -1.3542571036742637e-07 -0.00025019745817880248 3.6405840519236051e-08 -7.0376829225381555e-08 -0.00025018848937158024 6.6420897506975656e-08 -8.7910750955037237e-08 -0.00050023805240375838 6.6420897506975656e-08 -8.7910750955037237e-08 -0.00050023805240375838 2.1582090847379834e-08 -7.3848457539432248e-08 -0.00050023705050874351 5.1807451641904024e-08 -5.3010039916594131e-08 -0.00050023741979405689 3.6405840519236051e-08 -7.0376829225381555e-08 -0.00025018848937158024 1.3426481411502469e-08 -1.0928212528822598e-07 -0.00050024180898286519 6.6420897506975669e-08 -8.7910750955037237e-08 -0.00050023805240375838 2.1582090847379834e-08 -7.3848457539432248e-08 -0.00050023705050874351 5.4071381409991277e-08 -9.7714249381005876e-08 -0.00075027446938386792 2.1582090847379834e-08 -7.3848457539432248e-08 -0.00050023705050874351 6.6420897506975656e-08 -8.791075095503725e-08 -0.00050023805240375838 5.1807451641904024e-08 -5.3010039916594131e-08 -0.00050023741979405689 5.4071381409991284e-08 -9.7714249381005876e-08 -0.00075027446938386781 2.1894845578845086e-08 -3.3949311675840281e-08 -0.00050023619295789645 2.1582090847379834e-08 -7.3848457539432248e-08 -0.00050023705050874351 5.1807451641904024e-08 -5.3010039916594131e-08 -0.00050023741979405689 1.9435435021388827e-08 -7.5934527235788392e-08 -0.00075027448214387039 5.474183797742277e-08 -1.5675962236670692e-08 -0.00050024195595393679 2.1894845578845086e-08 -3.3949311675840288e-08 -0.00050023619295789645 5.1807451641904024e-08 -5.3010039916594131e-08 -0.00050023741979405689 5.3660213017955918e-08 -1.9717044522946728e-08 -0.00075027714288925418 2.1894845578845086e-08 -3.3949311675840281e-08 -0.00050023619295789645 -1.7767771577728474e-08 -5.570410889856513e-08 -0.00050024072486096519 2.1582090847379834e-08 -7.3848457539432248e-08 -0.00050023705050874351 -1.6517860184010884e-08 -5.5258302723271548e-08 -0.00075027528327604651 5.283864943069987e-09 3.3952950038183456e-09 -0.00050024016759117813 -1.7767771577728474e-08 -5.570410889856513e-08 -0.00050024072486096519 2.1894845578845086e-08 -3.3949311675840281e-08 -0.00050023619295789645 -1.6517860184010884e-08 -5.5258302723271548e-08 -0.00075027528327604651 -4.4958685747974252e-08 -1.0091890762127116e-07 -0.00050025142003773859 1.3426481411502469e-08 -1.0928212528822596e-07 -0.00050024180898286519 -1.7767771577728474e-08 -5.570410889856513e-08 -0.00050024072486096519 -1.9358016823189788e-09 -1.1165216154499057e-07 -0.00075027477368509547 -1.7767771577728474e-08 -5.570410889856513e-08 -0.00050024072486096519 1.3426481411502469e-08 -1.0928212528822598e-07 -0.00050024180898286519 2.1582090847379834e-08 -7.3848457539432248e-08 -0.00050023705050874351 -1.9358016823189788e-09 -1.1165216154499057e-07 -0.00075027477368509547 -4.4958685747974252e-08 -1.0091890762127116e-07 -0.00050025142003773859 -1.7767771577728477e-08 -5.5704108898565123e-08 -0.00050024072486096519 -6.5686352992899475e-08 -4.3495188310177675e-08 -0.00050024544384603541 -5.716956845927922e-08 -9.5809128041637356e-08 -0.00075027794126433062 -8.7987181021583723e-08 -6.6310360058656964e-08 -0.00050024670073543483 -4.4958685747974252e-08 -1.0091890762127116e-07 -0.00050025142003773859 -6.5686352992899475e-08 -4.3495188310177675e-08 -0.00050024544384603541 -5.716956845927922e-08 -9.5809128041637356e-08 -0.00075027794126433062 -1.0075478584235666e-07 -8.6367731861011796e-08 -0.00025023333498498055 1.3426481411502496e-08 -1.0928212528822599e-07 -0.00050024180898286519 -4.0159337072351305e-08 -5.0915247142671641e-08 -0.00025020398636852484 -4.4958685747974252e-08 -1.0091890762127116e-07 -0.00050025142003773859 -1.0075478584235666e-07 -8.6367731861011796e-08 -0.00025023333498498055 -4.0159337072351299e-08 -5.0915247142671635e-08 -0.00025020398636852484 -8.4336777552746286e-08 -2.3213280010067553e-08 -0.00025021818895148398 -4.4958685747974252e-08 -1.0091890762127116e-07 -0.00050025142003773859 -1.3343361718110522e-07 -1.9517227586732868e-08 -0.00025021885772637302 -1.0075478584235666e-07 -8.6367731861011796e-08 -0.00025023333498498055 -8.4336777552746286e-08 -2.3213280010067553e-08 -0.00025021818895148398 -4.4958685747974252e-08 -1.0091890762127116e-07 -0.00050025142003773859 -5.0937521584276404e-08 3.03010233438177e-09 -0.00050024263110856593 -1.7767771577728474e-08 -5.570410889856513e-08 -0.00050024072486096519 -6.5686352992899475e-08 -4.3495188310177675e-08 -0.00050024544384603541 -8.4336777552746286e-08 -2.3213280010067553e-08 -0.00025021818895148398 -1.7767771577728474e-08 -5.570410889856513e-08 -0.00050024072486096519 -4.4958685747974259e-08 -1.0091890762127116e-07 -0.00050025142003773859 -6.5686352992899488e-08 -4.3495188310177662e-08 -0.0005002454438460353 -8.4336777552746286e-08 -2.3213280010067553e-08 -0.00025021818895148398 -4.4958685747974252e-08 -1.0091890762127116e-07 -0.00050025142003773859 -1.7767771577728474e-08 -5.5704108898565143e-08 -0.00050024072486096519 -4.0159337072351305e-08 -5.0915247142671641e-08 -0.00025020398636852484 -8.4336777552746286e-08 -2.3213280010067553e-08 -0.00025021818895148398 -4.0159337072351305e-08 -5.0915247142671641e-08 -0.00025020398636852484 -5.0937521584276397e-08 3.0301023343817853e-09 -0.00050024263110856593 -8.4336777552746286e-08 -2.3213280010067553e-08 -0.00025021818895148398 -1.7767771577728474e-08 -5.570410889856513e-08 -0.00050024072486096519 -4.4958685747974252e-08 -1.0091890762127116e-07 -0.00050025142003773859 -8.7987181021583723e-08 -6.6310360058656964e-08 -0.00050024670073543483 -6.5686352992899475e-08 -4.3495188310177675e-08 -0.00050024544384603541 -8.4336777552746286e-08 -2.3213280010067553e-08 -0.00025021818895148398 -1.3343361718110522e-07 -1.9517227586732868e-08 -0.00025021885772637302 -4.4958685747974265e-08 -1.0091890762127118e-07 -0.00050025142003773859 -8.4336777552746286e-08 -2.3213280010067553e-08 -0.00025021818895148398 -8.7987181021583723e-08 -6.6310360058656964e-08 -0.00050024670073543483 -8.7987181021583723e-08 -6.6310360058656964e-08 -0.00050024670073543483 -1.0916643658450626e-07 -1.3238743748788669e-08 -0.00050025382444083297 -6.5686352992899475e-08 -4.3495188310177675e-08 -0.00050024544384603541 -8.4336777552746286e-08 -2.3213280010067553e-08 -0.00025021818895148398 -1.275987203582733e-07 4.9916617707884912e-08 -0.00025023836325348069 -1.3343361718110522e-07 -1.9517227586732868e-08 -0.00025021885772637302 -8.4336777552746286e-08 -2.3213280010067553e-08 -0.00025021818895148398 -8.7987181021583723e-08 -6.6310360058656964e-08 -0.00050024670073543483 -1.0916643658450626e-07 -1.3238743748788671e-08 -0.00050025382444083297 -8.7987181021583723e-08 -6.6310360058656964e-08 -0.00050024670073543483 -6.5686352992899475e-08 -4.3495188310177675e-08 -0.00050024544384603541 -9.7769776567748783e-08 -5.4078812209718095e-08 -0.0007502763576176496 -5.0937521584276404e-08 3.03010233438177e-09 -0.00050024263110856593 -1.7767771577728474e-08 -5.570410889856513e-08 -0.00050024072486096519 5.283864943069987e-09 3.3952950038183456e-09 -0.00050024016759117813 -5.0696960380612575e-08 5.2372884535975393e-09 -0.00075027633708766553 -1.7767771577728474e-08 -5.570410889856513e-08 -0.00050024072486096519 -5.0937521584276397e-08 3.0301023343817791e-09 -0.00050024263110856593 -6.5686352992899475e-08 -4.3495188310177675e-08 -0.00050024544384603541 -5.0696960380612568e-08 5.2372884535975401e-09 -0.00075027633708766564 -5.0937521584276404e-08 3.03010233438177e-09 -0.00050024263110856593 5.283864943069987e-09 3.3952950038183456e-09 -0.00050024016759117813 -1.984167417996397e-08 3.618464942267179e-08 -0.0005002385514442187 -5.0696960380612575e-08 5.2372884535975393e-09 -0.00075027633708766553 -5.0937521584276404e-08 3.03010233438177e-09 -0.00050024263110856593 -1.0916643658450626e-07 -1.3238743748788671e-08 -0.00050025382444083297 -6.5686352992899475e-08 -4.3495188310177675e-08 -0.00050024544384603541 -1.1167816605924169e-07 1.9371164210082403e-09 -0.00075027944562966898 -1.0916643658450626e-07 -1.3238743748788671e-08 -0.00050025382444083297 -5.0937521584276404e-08 3.03010233438177e-09 -0.00050024263110856593 -6.5686352992899475e-08 -4.3495188310177675e-08 -0.00050024544384603541 -8.4336777552746286e-08 -2.3213280010067553e-08 -0.00025021818895148398 -5.4684884531271035e-08 1.3877451506056986e-08 -0.00025020481698337913 -1.275987203582733e-07 4.9916617707884912e-08 -0.00025023836325348069 -8.4336777552746286e-08 -2.3213280010067553e-08 -0.00025021818895148398 -1.0916643658450626e-07 -1.3238743748788671e-08 -0.00050025382444083297 -5.4684884531271035e-08 1.3877451506056986e-08 -0.00025020481698337913 -1.0916643658450626e-07 -1.3238743748788666e-08 -0.00050025382444083297 -8.4336777552746286e-08 -2.3213280010067553e-08 -0.00025021818895148398 -5.0937521584276404e-08 3.03010233438177e-09 -0.00050024263110856593 -1.275987203582733e-07 4.9916617707884912e-08 -0.00025023836325348069 -8.798718102158371e-08 -6.631036005865699e-08 -0.00050024670073543494 -8.43367775527463e-08 -2.3213280010067543e-08 -0.00025021818895148398 -1.0916643658450626e-07 -1.3238743748788671e-08 -0.00050025382444083297 -4.0159337072351305e-08 -5.0915247142671641e-08 -0.00025020398636852484 -5.4684884531271028e-08 1.3877451506056991e-08 -0.00025020481698337913 -8.4336777552746286e-08 -2.3213280010067553e-08 -0.00025021818895148398 -5.0937521584276397e-08 3.0301023343817638e-09 -0.00050024263110856604 -5.4684884531271035e-08 1.3877451506056986e-08 -0.00025020481698337913 4.6030561053925629e-09 -1.6842087843436275e-10 -0.00025019722653996991 -7.033462284477908e-09 4.0877835135362179e-08 -0.0002501799225552362 -5.0937521584276404e-08 3.03010233438177e-09 -0.00050024263110856593 -5.4684884531271035e-08 1.3877451506056986e-08 -0.00025020481698337913 -4.0159337072351305e-08 -5.0915247142671641e-08 -0.00025020398636852484 4.6030561053925629e-09 -1.6842087843436275e-10 -0.00025019722653996991 -5.0937521584276404e-08 3.03010233438177e-09 -0.00050024263110856593 -2.5388025829944997e-08 6.9262899317740317e-08 -0.00050024057870215672 -1.984167417996397e-08 3.618464942267179e-08 -0.0005002385514442187 -5.1292106919948099e-08 5.0051992060102726e-08 -0.00050023974058974803 -3.5778212312398681e-08 6.6277975390962438e-08 -0.00025019369346819878 -5.4684884531271035e-08 1.3877451506056986e-08 -0.00025020481698337913 -7.033462284477908e-09 4.0877835135362179e-08 -0.0002501799225552362 -3.5778212312398681e-08 6.6277975390962438e-08 -0.00025019369346819878 -5.0937521584276404e-08 3.03010233438177e-09 -0.00050024263110856593 -7.033462284477908e-09 4.0877835135362179e-08 -0.0002501799225552362 -5.5132987614291737e-10 8.0960185129534434e-08 -0.00025019045557871019 -3.5778212312398681e-08 6.6277975390962438e-08 -0.00025019369346819878 -1.984167417996397e-08 3.618464942267179e-08 -0.0005002385514442187 -1.984167417996397e-08 3.618464942267179e-08 -0.0005002385514442187 -5.0937521584276404e-08 3.03010233438177e-09 -0.00050024263110856593 -5.1292106919948099e-08 5.0051992060102726e-08 -0.00050023974058974803 -3.5778212312398681e-08 6.6277975390962438e-08 -0.00025019369346819878 -5.0937521584276404e-08 3.03010233438177e-09 -0.00050024263110856593 -1.984167417996397e-08 3.618464942267179e-08 -0.0005002385514442187 -7.033462284477908e-09 4.0877835135362179e-08 -0.0002501799225552362 -3.5778212312398681e-08 6.6277975390962438e-08 -0.00025019369346819878 -5.0937521584276404e-08 3.03010233438177e-09 -0.00050024263110856593 -1.0132644681111019e-07 4.316407615284063e-08 -0.00050024812932671916 -5.1292106919948099e-08 5.0051992060102726e-08 -0.00050023974058974803 -3.5778212312398681e-08 6.6277975390962438e-08 -0.00025019369346819878 -1.0132644681111021e-07 4.3164076152840617e-08 -0.00050024812932671916 -5.0937521584276404e-08 3.03010233438177e-09 -0.00050024263110856593 -5.4684884531271035e-08 1.3877451506056986e-08 -0.00025020481698337913 -3.5778212312398681e-08 6.6277975390962438e-08 -0.00025019369346819878 -8.5148372163860008e-08 1.0636626105750975e-07 -0.00025022553355587111 -1.0916643658450626e-07 -1.3238743748788671e-08 -0.00050025382444083297 -5.4684884531271035e-08 1.3877451506056986e-08 -0.00025020481698337913 -1.0132644681111021e-07 4.3164076152840617e-08 -0.00050024812932671916 -8.5148372163860008e-08 1.0636626105750975e-07 -0.00025022553355587111 -1.2759872035827328e-07 4.9916617707884899e-08 -0.00025023836325348075 -5.4684884531271035e-08 1.3877451506056986e-08 -0.00025020481698337913 -1.0916643658450626e-07 -1.3238743748788671e-08 -0.00050025382444083297 -1.0916643658450626e-07 -1.3238743748788671e-08 -0.00050025382444083297 -1.0132644681111021e-07 4.3164076152840617e-08 -0.00050024812932671916 -5.0937521584276404e-08 3.03010233438177e-09 -0.00050024263110856593 -5.4684884531271035e-08 1.3877451506056986e-08 -0.00025020481698337913 -8.5148372163860008e-08 1.0636626105750975e-07 -0.00025022553355587111 -5.4684884531271035e-08 1.3877451506056986e-08 -0.00025020481698337913 -3.5778212312398681e-08 6.6277975390962438e-08 -0.00025019369346819878 -1.0132644681111021e-07 4.3164076152840617e-08 -0.00050024812932671916 -1.0132644681111021e-07 4.3164076152840617e-08 -0.00050024812932671916 -1.0916643658450626e-07 -1.3238743748788667e-08 -0.00050025382444083308 -5.0937521584276404e-08 3.03010233438177e-09 -0.00050024263110856593 -1.1167816605924169e-07 1.9371164210082403e-09 -0.00075027944562966898 -1.0132644681111021e-07 4.3164076152840617e-08 -0.00050024812932671916 -5.0937521584276404e-08 3.03010233438177e-09 -0.00050024263110856593 -5.1292106919948099e-08 5.0051992060102726e-08 -0.00050023974058974803 -9.574581488242908e-08 5.746873871844191e-08 -0.00075027817874583622 -1.984167417996397e-08 3.618464942267179e-08 -0.0005002385514442187 -2.5388025829944997e-08 6.9262899317740317e-08 -0.00050024057870215672 -5.1292106919948099e-08 5.0051992060102726e-08 -0.00050023974058974803 -1.9288400798381938e-08 3.6138372365559173e-08 -0.00075027603314513564 -5.0937521584276404e-08 3.03010233438177e-09 -0.00050024263110856593 -1.984167417996397e-08 3.618464942267179e-08 -0.0005002385514442187 -5.1292106919948099e-08 5.0051992060102726e-08 -0.00050023974058974803 -5.0696960380612575e-08 5.2372884535975393e-09 -0.00075027633708766553 5.283864943069987e-09 3.3952950038183456e-09 -0.00050024016759117813 1.2954418947922055e-08 5.6984947566847382e-08 -0.00050024587829832032 -1.984167417996397e-08 3.618464942267179e-08 -0.0005002385514442187 4.9011464285923994e-09 1.8453467573808264e-09 -0.00075027577486463579 -1.984167417996397e-08 3.618464942267179e-08 -0.0005002385514442187 1.2954418947922064e-08 5.6984947566847376e-08 -0.00050024587829832043 -2.5388025829944997e-08 6.9262899317740317e-08 -0.00050024057870215672 1.0863505106190469e-08 5.7025658322607659e-08 -0.00075027893609819088 5.283864943069987e-09 3.3952950038183456e-09 -0.00050024016759117813 5.474183797742277e-08 -1.5675962236670692e-08 -0.00050024195595393679 5.724676901995362e-08 3.4703900549828388e-08 -0.00050025572597947848 5.3660213017955911e-08 -1.9717044522946728e-08 -0.00075027714288925407 5.474183797742277e-08 -1.5675962236670692e-08 -0.00050024195595393679 5.283864943069987e-09 3.3952950038183456e-09 -0.00050024016759117813 2.1894845578845086e-08 -3.3949311675840281e-08 -0.00050023619295789645 5.3660213017955918e-08 -1.9717044522946728e-08 -0.00075027714288925418 1.2954418947922064e-08 5.6984947566847376e-08 -0.00050024587829832043 5.283864943069987e-09 3.3952950038183456e-09 -0.00050024016759117813 5.724676901995362e-08 3.4703900549828388e-08 -0.00050025572597947848 4.9011464285923994e-09 1.8453467573808264e-09 -0.00075027577486463579 3.7098420090613216e-08 5.4397749711805644e-08 -0.00025020752047064283 5.283864943069987e-09 3.3952950038183456e-09 -0.00050024016759117813 6.985046481192487e-08 1.9623098512039329e-08 -0.00025024115399874177 1.2954418947922064e-08 5.6984947566847376e-08 -0.00050024587829832043 1.2954418947922064e-08 5.6984947566847376e-08 -0.00050024587829832043 4.4878332678102886e-08 1.0091034419758456e-07 -0.00050026550164602535 5.724676901995362e-08 3.4703900549828388e-08 -0.00050025572597947848 6.985046481192487e-08 1.9623098512039329e-08 -0.00025024115399874177 5.283864943069987e-09 3.3952950038183456e-09 -0.00050024016759117813 1.2954418947922064e-08 5.6984947566847376e-08 -0.00050024587829832043 5.7246769019953614e-08 3.4703900549828388e-08 -0.00050025572597947837 6.985046481192487e-08 1.9623098512039329e-08 -0.00025024115399874177 3.7098420090613216e-08 5.4397749711805644e-08 -0.00025020752047064283 4.6030561053925629e-09 -1.6842087843436275e-10 -0.00025019722653996991 6.985046481192487e-08 1.9623098512039329e-08 -0.00025024115399874177 5.283864943069987e-09 3.3952950038183456e-09 -0.00050024016759117813 5.3192690916426068e-08 -2.6644470250601915e-08 -0.00025019539836647646 4.6030561053925629e-09 -1.6842087843436275e-10 -0.00025019722653996991 1.2401936211996793e-08 -4.2730937170412365e-08 -0.00025018016648342597 5.474183797742277e-08 -1.5675962236670692e-08 -0.00050024195595393679 5.474183797742277e-08 -1.5675962236670692e-08 -0.00050024195595393679 5.283864943069987e-09 3.3952950038183456e-09 -0.00050024016759117813 4.6030561053925364e-09 -1.6842087843439778e-10 -0.00025019722653996996 1.2401936211996793e-08 -4.2730937170412365e-08 -0.00025018016648342597 5.474183797742277e-08 -1.5675962236670692e-08 -0.00050024195595393679 5.283864943069987e-09 3.3952950038183456e-09 -0.00050024016759117813 5.724676901995362e-08 3.4703900549828388e-08 -0.00050025572597947848 6.985046481192487e-08 1.9623098512039329e-08 -0.00025024115399874177 4.6030561053925629e-09 -1.6842087843436275e-10 -0.00025019722653996991 5.3192690916426068e-08 -2.6644470250601915e-08 -0.00025019539836647646 6.985046481192487e-08 1.9623098512039329e-08 -0.00025024115399874177 5.4741837977422763e-08 -1.5675962236670692e-08 -0.00050024195595393679 4.6030561053925629e-09 -1.6842087843436275e-10 -0.00025019722653996991 5.4741837977422756e-08 -1.5675962236670669e-08 -0.00050024195595393668 6.985046481192487e-08 1.9623098512039329e-08 -0.00025024115399874177 5.283864943069987e-09 3.3952950038183456e-09 -0.00050024016759117813 5.283864943069987e-09 3.3952950038183456e-09 -0.00050024016759117813 5.474183797742277e-08 -1.5675962236670692e-08 -0.00050024195595393679 2.1894845578845086e-08 -3.3949311675840281e-08 -0.00050023619295789645 1.2401936211996793e-08 -4.2730937170412365e-08 -0.00025018016648342597 -5.0937521584276404e-08 3.03010233438177e-09 -0.00050024263110856593 5.283864943069987e-09 3.3952950038183456e-09 -0.00050024016759117813 4.6030561053925505e-09 -1.6842087843439726e-10 -0.00025019722653996991 -7.033462284477908e-09 4.0877835135362179e-08 -0.0002501799225552362 -5.0937521584276404e-08 3.03010233438177e-09 -0.00050024263110856593 -1.7767771577728474e-08 -5.570410889856513e-08 -0.00050024072486096519 -4.0159337072351365e-08 -5.0915247142671661e-08 -0.00025020398636852473 4.6030561053925877e-09 -1.6842087843435551e-10 -0.00025019722653996991 4.6030561053925629e-09 -1.6842087843436275e-10 -0.00025019722653996991 -1.7767771577728474e-08 -5.5704108898565117e-08 -0.00050024072486096508 1.2401936211996793e-08 -4.2730937170412365e-08 -0.00025018016648342597 5.283864943069987e-09 3.3952950038183456e-09 -0.00050024016759117813 -1.7767771577728474e-08 -5.570410889856513e-08 -0.00050024072486096519 -5.0937521584276404e-08 3.03010233438177e-09 -0.00050024263110856593 5.283864943069987e-09 3.3952950038183456e-09 -0.00050024016759117813 4.6030561053925629e-09 -1.6842087843436275e-10 -0.00025019722653996991 5.283864943069987e-09 3.3952950038183456e-09 -0.00050024016759117813 -5.0937521584276404e-08 3.03010233438177e-09 -0.00050024263110856593 -1.984167417996397e-08 3.618464942267179e-08 -0.0005002385514442187 -7.033462284477908e-09 4.0877835135362179e-08 -0.0002501799225552362 1.2954418947922064e-08 5.6984947566847376e-08 -0.00050024587829832043 5.283864943069987e-09 3.3952950038183456e-09 -0.00050024016759117813 -1.984167417996397e-08 3.618464942267179e-08 -0.0005002385514442187 -7.033462284477908e-09 4.0877835135362179e-08 -0.0002501799225552362 4.6030561053925629e-09 -1.6842087843436275e-10 -0.00025019722653996991 3.709842009061321e-08 5.439774971180565e-08 -0.00025020752047064278 -7.033462284477908e-09 4.0877835135362179e-08 -0.0002501799225552362 5.283864943069987e-09 3.3952950038183456e-09 -0.00050024016759117813 5.283864943069987e-09 3.3952950038183456e-09 -0.00050024016759117813 1.2954418947922053e-08 5.6984947566847389e-08 -0.00050024587829832043 3.7098420090613263e-08 5.4397749711805637e-08 -0.00025020752047064289 -7.0334622844779593e-09 4.0877835135362192e-08 -0.00025017992255523626 -7.033462284477908e-09 4.0877835135362179e-08 -0.0002501799225552362 1.2954418947922064e-08 5.6984947566847376e-08 -0.00050024587829832043 -5.5132987614292482e-10 8.0960185129534434e-08 -0.00025019045557871019 -1.984167417996397e-08 3.618464942267179e-08 -0.0005002385514442187 -7.033462284477908e-09 4.0877835135362179e-08 -0.0002501799225552362 3.7098420090613216e-08 5.4397749711805644e-08 -0.00025020752047064283 -5.5132987614292327e-10 8.0960185129534434e-08 -0.00025019045557871019 1.2954418947922064e-08 5.6984947566847376e-08 -0.00050024587829832043 4.6030561053925629e-09 -1.6842087843436275e-10 -0.00025019722653996991 -5.4684884531271035e-08 1.3877451506056986e-08 -0.00025020481698337913 -7.033462284477908e-09 4.0877835135362179e-08 -0.0002501799225552362 -6.1942158392619475e-09 8.8918302267412453e-09 -6.9361772197276954e-08 3.7098420090613216e-08 5.4397749711805644e-08 -0.00025020752047064283 4.6030561053925629e-09 -1.6842087843436275e-10 -0.00025019722653996991 -7.033462284477908e-09 4.0877835135362179e-08 -0.0002501799225552362 -6.1942158392619475e-09 8.8918302267412453e-09 -6.9361772197276954e-08 -4.0159337072351305e-08 -5.0915247142671641e-08 -0.00025020398636852484 -5.4684884531271035e-08 1.3877451506056986e-08 -0.00025020481698337913 4.6030561053925629e-09 -1.6842087843436275e-10 -0.00025019722653996991 3.7897829451352406e-09 2.5030855873820584e-09 -1.8649049674415688e-07 5.3192690916426068e-08 -2.6644470250601915e-08 -0.00025019539836647646 4.6030561053925629e-09 -1.6842087843436275e-10 -0.00025019722653996991 6.985046481192487e-08 1.9623098512039329e-08 -0.00025024115399874177 -1.9810293921295142e-08 -1.3053251443459633e-08 -2.5384932637387452e-07 4.6030561053925629e-09 -1.6842087843436275e-10 -0.00025019722653996991 5.3192690916426068e-08 -2.6644470250601915e-08 -0.00025019539836647646 1.2401936211996793e-08 -4.2730937170412365e-08 -0.00025018016648342597 5.7103979707393583e-09 -9.1897553457143463e-09 -7.2571553845670445e-08 3.7098420090613216e-08 5.4397749711805644e-08 -0.00025020752047064283 1.0163468604229068e-07 8.6141579134213389e-08 -0.00025025731832172189 6.985046481192487e-08 1.9623098512039329e-08 -0.00025024115399874177 -1.9810293921295142e-08 -1.3053251443459633e-08 -2.5384932637387452e-07 4.6030561053925629e-09 -1.6842087843436275e-10 -0.00025019722653996991 3.7098420090613216e-08 5.4397749711805644e-08 -0.00025020752047064283 6.9850464811924857e-08 1.9623098512039329e-08 -0.00025024115399874172 -1.9810293921295142e-08 -1.3053251443459633e-08 -2.5384932637387452e-07 -6.1794005038217714e-10 -1.3447569372194988e-08 -1.8495017483079625e-07 4.6030561053925629e-09 -1.6842087843436275e-10 -0.00025019722653996991 -1.9810293921295142e-08 -1.3053251443459633e-08 -2.5384932637387452e-07 3.7098420090613216e-08 5.4397749711805644e-08 -0.00025020752047064283 -6.1794005038217714e-10 -1.3447569372194988e-08 -1.8495017483079625e-07 3.7897829451352406e-09 2.5030855873820584e-09 -1.8649049674415688e-07 -1.9810293921295142e-08 -1.3053251443459633e-08 -2.5384932637387452e-07 4.6030561053925629e-09 -1.6842087843436275e-10 -0.00025019722653996991 3.7897829451352406e-09 2.5030855873820584e-09 -1.8649049674415688e-07 -1.2601056653493992e-08 4.7781304758276683e-09 -1.7697880110782764e-07 -1.9810293921295142e-08 -1.3053251443459633e-08 -2.5384932637387452e-07 5.3192690916426054e-08 -2.6644470250601908e-08 -0.0002501953983664764 5.3192690916426068e-08 -2.6644470250601915e-08 -0.00025019539836647646 4.6030561053925629e-09 -1.6842087843436275e-10 -0.00025019722653996991 3.7897829451352084e-09 2.5030855873820634e-09 -1.8649049674420921e-07 5.7103979707393583e-09 -9.1897553457143463e-09 -7.2571553845670445e-08 3.7897829451352406e-09 2.5030855873820584e-09 -1.8649049674415688e-07 5.3192690916426021e-08 -2.6644470250601898e-08 -0.0002501953983664764 -1.9810293921295142e-08 -1.3053251443459633e-08 -2.5384932637387452e-07 4.6030561053925629e-09 -1.6842087843436275e-10 -0.00025019722653996991 -1.2601056653493992e-08 4.7781304758276683e-09 -1.7697880110782764e-07 3.7897829451352406e-09 2.5030855873820584e-09 -1.8649049674415688e-07 5.7103979707393583e-09 -9.1897553457143463e-09 -7.2571553845670445e-08 5.3192690916426068e-08 -2.6644470250601915e-08 -0.00025019539836647646 -5.4684884531271035e-08 1.3877451506056986e-08 -0.00025020481698337913 -4.0159337072351305e-08 -5.0915247142671641e-08 -0.00025020398636852484 -2.6317451103115014e-09 1.133212765285738e-08 -2.1468367025441994e-07 3.7897829451352464e-09 2.5030855873820411e-09 -1.8649049674415566e-07 -5.4684884531271035e-08 1.3877451506056986e-08 -0.00025020481698337913 4.6030561053925629e-09 -1.6842087843436275e-10 -0.00025019722653996991 3.7897829451352257e-09 2.5030855873820584e-09 -1.8649049674414621e-07 -6.1942158392619475e-09 8.8918302267412453e-09 -6.9361772197276954e-08 3.7897829451352406e-09 2.5030855873820584e-09 -1.8649049674415688e-07 -4.0159337072351305e-08 -5.0915247142671641e-08 -0.00025020398636852478 5.7103979707393583e-09 -9.1897553457143463e-09 -7.2571553845670445e-08 4.6030561053925629e-09 -1.6842087843436275e-10 -0.00025019722653996991 4.6030561053925629e-09 -1.6842087843436275e-10 -0.00025019722653996991 3.7098420090613223e-08 5.4397749711805664e-08 -0.00025020752047064283 -6.1794005038218376e-10 -1.3447569372195036e-08 -1.8495017483082219e-07 -6.1942158392619276e-09 8.8918302267413148e-09 -6.9361772197353015e-08 -6.1942158392619475e-09 8.8918302267412453e-09 -6.9361772197276954e-08 -6.1794005038217714e-10 -1.3447569372194988e-08 -1.8495017483079625e-07 5.4298364947280409e-09 -1.6140605284599406e-08 -8.8469820569927369e-08 3.7098420090613216e-08 5.4397749711805644e-08 -0.00025020752047064283 -6.1942158392619475e-09 8.8918302267412453e-09 -6.9361772197276954e-08 3.7098420090613216e-08 5.4397749711805644e-08 -0.00025020752047064283 5.4298364947280385e-09 -1.6140605284599406e-08 -8.846982056993032e-08 -7.033462284477908e-09 4.0877835135362179e-08 -0.0002501799225552362 3.7897829451352406e-09 2.5030855873820584e-09 -1.8649049674415688e-07 -6.1794005038217963e-10 -1.3447569372194983e-08 -1.8495017483079622e-07 -6.1942158392619475e-09 8.8918302267412453e-09 -6.9361772197276954e-08 4.6030561053925629e-09 -1.6842087843436275e-10 -0.00025019722653996991 -5.4684884531271035e-08 1.3877451506056986e-08 -0.00025020481698337913 -7.033462284477908e-09 4.0877835135362179e-08 -0.0002501799225552362 -6.1942158392619475e-09 8.8918302267412453e-09 -6.9361772197276954e-08 1.3274554016262713e-08 -1.1032835144121576e-08 -1.0743404602604593e-07 9.3687453947297884e-09 -6.9492346446235471e-09 -2.3280771468839056e-07 -6.1942158392619475e-09 8.8918302267412453e-09 -6.9361772197276954e-08 1.3274554016262713e-08 -1.1032835144121576e-08 -1.0743404602604593e-07 -5.4684884531271035e-08 1.3877451506056986e-08 -0.00025020481698337913 -8.5148372163860008e-08 1.0636626105750975e-07 -0.00025022553355587111 -5.4684884531271035e-08 1.3877451506056986e-08 -0.00025020481698337913 9.3687453947297884e-09 -6.9492346446235471e-09 -2.3280771468839056e-07 1.3274554016262713e-08 -1.1032835144121576e-08 -1.0743404602604593e-07 -6.1942158392619475e-09 8.8918302267412453e-09 -6.9361772197276954e-08 5.4298364947280409e-09 -1.6140605284599406e-08 -8.8469820569927369e-08 1.3274554016262713e-08 -1.1032835144121576e-08 -1.0743404602604593e-07 -7.033462284477908e-09 4.0877835135362179e-08 -0.0002501799225552362 -7.033462284477908e-09 4.0877835135362179e-08 -0.0002501799225552362 -5.4684884531271035e-08 1.3877451506056986e-08 -0.00025020481698337913 -3.5778212312398681e-08 6.6277975390962438e-08 -0.00025019369346819878 1.3274554016262713e-08 -1.1032835144121576e-08 -1.0743404602604593e-07 -5.4684884531271035e-08 1.3877451506056986e-08 -0.00025020481698337913 -8.5148372163859995e-08 1.0636626105750975e-07 -0.00025022553355587111 -3.5778212312398681e-08 6.6277975390962438e-08 -0.00025019369346819878 1.3274554016262713e-08 -1.1032835144121576e-08 -1.0743404602604593e-07 -5.5132987614292327e-10 8.0960185129534434e-08 -0.00025019045557871019 -7.033462284477908e-09 4.0877835135362179e-08 -0.0002501799225552362 -3.5778212312398681e-08 6.6277975390962438e-08 -0.00025019369346819878 1.3274554016262713e-08 -1.1032835144121576e-08 -1.0743404602604593e-07 -2.631745110311501e-09 1.1332127652857327e-08 -2.1468367025449405e-07 9.3687453947297818e-09 -6.9492346446235529e-09 -2.3280771468839058e-07 2.4515318280955985e-08 1.6152693513989023e-08 -1.8749941580324542e-07 -5.4684884531271068e-08 1.3877451506056996e-08 -0.00025020481698337924 9.3687453947297884e-09 -6.9492346446235471e-09 -2.3280771468839056e-07 3.7897829451352406e-09 2.5030855873820584e-09 -1.8649049674415688e-07 -6.1942158392619475e-09 8.8918302267412453e-09 -6.9361772197276954e-08 -5.4684884531271035e-08 1.3877451506056986e-08 -0.00025020481698337913 9.3687453947297884e-09 -6.9492346446235471e-09 -2.3280771468839056e-07 -2.631745110311501e-09 1.1332127652857327e-08 -2.1468367025449405e-07 3.7897829451352406e-09 2.5030855873820584e-09 -1.8649049674415688e-07 -5.4684884531271035e-08 1.3877451506056986e-08 -0.00025020481698337913 -5.2296042367838808e-08 -4.3714206450162964e-09 -2.4535996119899995e-07 -1.3343361718110514e-07 -1.9517227586732753e-08 -0.00025021885772637308 2.4515318280955968e-08 1.6152693513989e-08 -1.8749941580323475e-07 -1.275987203582733e-07 4.9916617707884912e-08 -0.00025023836325348069 9.3687453947297884e-09 -6.9492346446235471e-09 -2.3280771468839056e-07 -1.275987203582733e-07 4.9916617707884912e-08 -0.00025023836325348069 2.4515318280955985e-08 1.6152693513989023e-08 -1.8749941580323721e-07 -5.4684884531271035e-08 1.3877451506056986e-08 -0.00025020481698337913 9.3687453947297884e-09 -6.9492346446235471e-09 -2.3280771468839056e-07 -5.2296042367838808e-08 -4.3714206450162964e-09 -2.4535996119899995e-07 2.4515318280955985e-08 1.6152693513989023e-08 -1.8749941580324542e-07 -1.275987203582733e-07 4.9916617707884912e-08 -0.00025023836325348069 -1.275987203582733e-07 4.9916617707884912e-08 -0.00025023836325348069 -5.4684884531271035e-08 1.3877451506056986e-08 -0.00025020481698337913 -8.4336777552746286e-08 -2.3213280010067553e-08 -0.00025021818895148398 2.4515318280955985e-08 1.6152693513989023e-08 -1.8749941580324542e-07 -1.275987203582733e-07 4.9916617707884912e-08 -0.00025023836325348069 -8.5148372163860008e-08 1.0636626105750975e-07 -0.00025022553355587111 -5.4684884531271035e-08 1.3877451506056986e-08 -0.00025020481698337913 9.3687453947297884e-09 -6.9492346446235471e-09 -2.3280771468839056e-07 -4.6484175022398887e-08 2.5656669309081737e-08 -2.4541158506335097e-07 -5.2296042367838808e-08 -4.3714206450162914e-09 -2.4535996119902462e-07 9.3687453947297884e-09 -6.9492346446235471e-09 -2.3280771468839056e-07 -1.275987203582733e-07 4.9916617707884912e-08 -0.00025023836325348069 -4.6484175022398887e-08 2.5656669309081737e-08 -2.4541158506335097e-07 -1.275987203582733e-07 4.9916617707884912e-08 -0.00025023836325348069 9.3687453947297884e-09 -6.9492346446235471e-09 -2.3280771468839056e-07 -8.5148372163860008e-08 1.0636626105750975e-07 -0.00025022553355587111 -4.6484175022398887e-08 2.5656669309081737e-08 -2.4541158506335097e-07 9.3687453947297884e-09 -6.9492346446235471e-09 -2.3280771468839056e-07 1.3274554016262713e-08 -1.1032835144121576e-08 -1.0743404602604593e-07 -8.5148372163860008e-08 1.0636626105750975e-07 -0.00025022553355587111 -2.9779779258376569e-08 4.4554551440536122e-08 -1.4612565324963959e-07 -4.6484175022398887e-08 2.5656669309081737e-08 -2.4541158506335097e-07 1.3274554016262713e-08 -1.1032835144121576e-08 -1.0743404602604593e-07 -8.5148372163860008e-08 1.0636626105750975e-07 -0.00025022553355587111 -7.033462284477908e-09 4.0877835135362179e-08 -0.0002501799225552362 -5.5132987614292451e-10 8.0960185129534434e-08 -0.00025019045557871019 5.4298364947280409e-09 -1.6140605284599406e-08 -8.8469820569927369e-08 1.3274554016262713e-08 -1.1032835144121576e-08 -1.0743404602604593e-07 -2.9779779258376569e-08 4.4554551440536122e-08 -1.4612565324963959e-07 -8.5148372163859968e-08 1.0636626105750975e-07 -0.00025022553355587117 1.3274554016262713e-08 -1.1032835144121576e-08 -1.0743404602604593e-07 -1.9503424257283739e-08 1.353951690655566e-07 -0.00025020222895544075 5.4298364947280409e-09 -1.6140605284599406e-08 -8.8469820569927369e-08 -2.9779779258376569e-08 4.4554551440536122e-08 -1.4612565324963959e-07 1.3274554016262713e-08 -1.1032835144121576e-08 -1.0743404602604593e-07 -1.9503424257283739e-08 1.353951690655566e-07 -0.00025020222895544075 5.4298364947280409e-09 -1.6140605284599406e-08 -8.8469820569927369e-08 -1.9503424257283739e-08 1.353951690655566e-07 -0.00025020222895544075 1.3274554016262713e-08 -1.1032835144121576e-08 -1.0743404602604593e-07 -5.5132987614292327e-10 8.0960185129534434e-08 -0.00025019045557871019 -3.9995647715354169e-09 5.3151283024084288e-08 -2.0220332804971512e-07 -2.9779779258376569e-08 4.4554551440536122e-08 -1.4612565324963959e-07 5.4298364947280409e-09 -1.6140605284599406e-08 -8.8469820569927369e-08 -1.9503424257283739e-08 1.353951690655566e-07 -0.00025020222895544075 -1.9503424257283739e-08 1.353951690655566e-07 -0.00025020222895544075 -5.5132987614292327e-10 8.0960185129534434e-08 -0.00025019045557871019 -3.5778212312398681e-08 6.6277975390962438e-08 -0.00025019369346819878 1.3274554016262713e-08 -1.1032835144121576e-08 -1.0743404602604593e-07 -8.5148372163860008e-08 1.0636626105750975e-07 -0.00025022553355587111 -1.9503424257283739e-08 1.353951690655566e-07 -0.00025020222895544075 -3.5778212312398681e-08 6.6277975390962438e-08 -0.00025019369346819878 1.3274554016262713e-08 -1.1032835144121576e-08 -1.0743404602604593e-07 -1.9503424257283739e-08 1.353951690655566e-07 -0.00025020222895544075 -8.5148372163860008e-08 1.0636626105750975e-07 -0.00025022553355587111 -3.5778212312398681e-08 6.6277975390962438e-08 -0.00025019369346819878 -1.0132644681111021e-07 4.3164076152840617e-08 -0.00050024812932671916 5.2027478249107407e-08 1.2723520115420759e-07 -0.00025022351526647716 -1.9503424257283739e-08 1.353951690655566e-07 -0.00025020222895544075 -5.5132987614292327e-10 8.0960185129534434e-08 -0.00025019045557871019 -6.6338917762453425e-08 8.795051509032024e-08 -0.00050024100603615759 -1.984167417996397e-08 3.618464942267179e-08 -0.0005002385514442187 -2.5388025829944991e-08 6.9262899317740317e-08 -0.00050024057870215672 -5.5132987614292327e-10 8.0960185129534434e-08 -0.00025019045557871019 -3.5778212312398681e-08 6.6277975390962438e-08 -0.00025019369346819878 -1.9503424257283739e-08 1.353951690655566e-07 -0.00025020222895544075 -1.0132644681111021e-07 4.3164076152840603e-08 -0.00050024812932671927 -3.5778212312398681e-08 6.6277975390962438e-08 -0.00025019369346819878 -6.6338917762453425e-08 8.795051509032024e-08 -0.00050024100603615759 -1.0132644681111021e-07 4.3164076152840617e-08 -0.00050024812932671916 -6.6338917762453425e-08 8.795051509032024e-08 -0.00050024100603615759 -5.1292106919948099e-08 5.0051992060102726e-08 -0.00050023974058974803 -3.5778212312398681e-08 6.6277975390962438e-08 -0.00025019369346819878 -6.6338917762453425e-08 8.795051509032024e-08 -0.00050024100603615759 -2.5388025829944997e-08 6.9262899317740317e-08 -0.00050024057870215672 -5.1292106919948099e-08 5.0051992060102726e-08 -0.00050023974058974803 -3.5778212312398681e-08 6.6277975390962438e-08 -0.00025019369346819878 -5.5132987614292327e-10 8.0960185129534434e-08 -0.00025019045557871019 -1.9503424257283739e-08 1.353951690655566e-07 -0.00025020222895544075 -3.5778212312398681e-08 6.6277975390962438e-08 -0.00025019369346819878 -6.6338917762453425e-08 8.795051509032024e-08 -0.00050024100603615759 -5.5132987614292327e-10 8.0960185129534434e-08 -0.00025019045557871019 -6.6338917762453425e-08 8.795051509032024e-08 -0.00050024100603615759 -3.5778212312398681e-08 6.6277975390962438e-08 -0.00025019369346819878 -2.5388025829944997e-08 6.9262899317740317e-08 -0.00050024057870215672 -1.3462379909129707e-08 1.0928001149365977e-07 -0.00050025033566613664 -6.6338917762453425e-08 8.795051509032024e-08 -0.00050024100603615759 -2.5388025829944997e-08 6.9262899317740317e-08 -0.00050024057870215672 -5.4065310029878625e-08 9.772072326002717e-08 -0.00075027602415996583 -2.5388025829944997e-08 6.9262899317740317e-08 -0.00050024057870215672 -6.6338917762453425e-08 8.795051509032024e-08 -0.00050024100603615759 -5.1292106919948099e-08 5.0051992060102726e-08 -0.00050023974058974803 -5.4065310029878625e-08 9.772072326002717e-08 -0.00075027602415996583 -6.6338917762453425e-08 8.795051509032024e-08 -0.00050024100603615759 -1.0132644681111021e-07 4.3164076152840617e-08 -0.00050024812932671916 -5.1292106919948099e-08 5.0051992060102726e-08 -0.00050023974058974803 -9.574581488242908e-08 5.746873871844191e-08 -0.00075027817874583622 5.2027478249107407e-08 1.2723520115420759e-07 -0.00025022351526647716 -6.6338917762453438e-08 8.7950515090320214e-08 -0.00050024100603615748 -5.5132987614292327e-10 8.0960185129534434e-08 -0.00025019045557871019 -1.3462379909129707e-08 1.0928001149365977e-07 -0.00050025033566613664 4.4878332678102886e-08 1.0091034419758456e-07 -0.00050026550164602535 -1.3462379909129707e-08 1.0928001149365977e-07 -0.00050025033566613664 1.2954418947922064e-08 5.6984947566847376e-08 -0.00050024587829832043 1.9986678475334936e-09 1.1165787185637581e-07 -0.00075027967206977274 4.4878332678102886e-08 1.0091034419758456e-07 -0.00050026550164602535 1.2954418947922069e-08 5.6984947566847369e-08 -0.00050024587829832043 5.724676901995362e-08 3.4703900549828388e-08 -0.00050025572597947848 5.7208156994167595e-08 9.5797191686454002e-08 -0.00075028561194397786 1.2954418947922064e-08 5.6984947566847376e-08 -0.00050024587829832043 -1.3462379909129707e-08 1.0928001149365977e-07 -0.00050025033566613664 -2.5388025829944997e-08 6.9262899317740317e-08 -0.00050024057870215672 1.9986678475334978e-09 1.1165787185637581e-07 -0.00075027967206977284 1.2954418947922064e-08 5.6984947566847376e-08 -0.00050024587829832043 -1.9841674179963974e-08 3.618464942267179e-08 -0.0005002385514442187 -2.5388025829944997e-08 6.9262899317740317e-08 -0.00050024057870215672 -5.5132987614292327e-10 8.0960185129534434e-08 -0.00025019045557871019 3.7098420090613216e-08 5.4397749711805644e-08 -0.00025020752047064283 -1.3462379909129717e-08 1.0928001149365977e-07 -0.00050025033566613664 -5.5132987614292327e-10 8.0960185129534434e-08 -0.00025019045557871019 1.2954418947922064e-08 5.6984947566847376e-08 -0.00050024587829832043 3.7098420090613216e-08 5.4397749711805644e-08 -0.00025020752047064283 5.2027478249107407e-08 1.2723520115420759e-07 -0.00025022351526647716 -5.5132987614292327e-10 8.0960185129534434e-08 -0.00025019045557871019 -1.3462379909129707e-08 1.0928001149365977e-07 -0.00050025033566613664 -6.6338917762453425e-08 8.795051509032024e-08 -0.00050024100603615759 -1.3462379909129704e-08 1.0928001149365978e-07 -0.00050025033566613664 -2.5388025829944997e-08 6.9262899317740317e-08 -0.00050024057870215672 -5.5132987614292327e-10 8.0960185129534434e-08 -0.00025019045557871019 -1.3462379909129707e-08 1.0928001149365977e-07 -0.00050025033566613664 1.2954418947922064e-08 5.6984947566847376e-08 -0.00050024587829832043 -2.5388025829944997e-08 6.9262899317740317e-08 -0.00050024057870215672 -5.5132987614292327e-10 8.0960185129534434e-08 -0.00025019045557871019 1.0163468604229068e-07 8.6141579134213389e-08 -0.00025025731832172189 3.7098420090613216e-08 5.4397749711805637e-08 -0.00025020752047064283 6.985046481192487e-08 1.9623098512039329e-08 -0.00025024115399874177 4.4878332678102886e-08 1.0091034419758456e-07 -0.00050026550164602535 -1.3462379909129707e-08 1.0928001149365977e-07 -0.00050025033566613664 4.4878332678102886e-08 1.0091034419758456e-07 -0.00050026550164602535 1.2954418947922064e-08 5.6984947566847376e-08 -0.00050024587829832043 3.7098420090613216e-08 5.4397749711805644e-08 -0.00025020752047064283 1.0163468604229068e-07 8.6141579134213389e-08 -0.00025025731832172189 5.2027478249107407e-08 1.2723520115420759e-07 -0.00025022351526647716 3.7098420090613216e-08 5.4397749711805644e-08 -0.00025020752047064283 -1.346237990912969e-08 1.0928001149365978e-07 -0.00050025033566613664 1.0163468604229068e-07 8.6141579134213389e-08 -0.00025025731832172189 -1.3462379909129694e-08 1.0928001149365977e-07 -0.00050025033566613653 3.7098420090613216e-08 5.4397749711805644e-08 -0.00025020752047064283 4.4878332678102886e-08 1.0091034419758456e-07 -0.00050026550164602535 4.4878332678102886e-08 1.0091034419758456e-07 -0.00050026550164602535 1.2954418947922066e-08 5.6984947566847376e-08 -0.00050024587829832032 3.709842009061321e-08 5.4397749711805677e-08 -0.00025020752047064272 6.985046481192487e-08 1.9623098512039329e-08 -0.00025024115399874177 5.2027478249107407e-08 1.2723520115420759e-07 -0.00025022351526647716 1.0163468604229068e-07 8.6141579134213389e-08 -0.00025025731832172189 3.7098420090613216e-08 5.4397749711805644e-08 -0.00025020752047064283 -6.1794005038217714e-10 -1.3447569372194988e-08 -1.8495017483079625e-07 -1.9503424257283739e-08 1.353951690655566e-07 -0.00025020222895544075 5.202747824910742e-08 1.2723520115420759e-07 -0.00025022351526647716 -5.5132987614292327e-10 8.0960185129534434e-08 -0.00025019045557871019 5.4298364947280409e-09 -1.6140605284599406e-08 -8.8469820569927369e-08 3.7098420090613216e-08 5.4397749711805644e-08 -0.00025020752047064283 -7.0334622844779121e-09 4.0877835135362179e-08 -0.0002501799225552362 -5.5132987614292327e-10 8.0960185129534434e-08 -0.00025019045557871019 5.4298364947280409e-09 -1.6140605284599406e-08 -8.8469820569927369e-08 5.2027478249107407e-08 1.2723520115420759e-07 -0.00025022351526647716 3.7098420090613216e-08 5.4397749711805644e-08 -0.00025020752047064283 -5.5132987614292327e-10 8.0960185129534434e-08 -0.00025019045557871019 5.4298364947280409e-09 -1.6140605284599406e-08 -8.8469820569927369e-08 -6.1794005038217714e-10 -1.3447569372194988e-08 -1.8495017483079625e-07 5.2027478249107407e-08 1.2723520115420759e-07 -0.00025022351526647716 5.4298364947280409e-09 -1.6140605284599406e-08 -8.8469820569927369e-08 3.7098420090613216e-08 5.4397749711805644e-08 -0.00025020752047064283 -6.1794005038217714e-10 -1.3447569372194988e-08 -1.8495017483079625e-07 -3.9995647715354169e-09 5.3151283024084288e-08 -2.0220332804971512e-07 5.4298364947280409e-09 -1.6140605284599406e-08 -8.8469820569927369e-08 5.2027478249107407e-08 1.2723520115420759e-07 -0.00025022351526647716 -3.9995647715354169e-09 5.3151283024084288e-08 -2.0220332804971512e-07 -1.9503424257283682e-08 1.353951690655566e-07 -0.00025020222895544075 5.4298364947280409e-09 -1.6140605284599406e-08 -8.8469820569927369e-08 5.2027478249107407e-08 1.2723520115420759e-07 -0.00025022351526647716 2.4287446024568906e-08 4.6341703849694768e-08 -2.7341330834657554e-07 5.20274782491074e-08 1.2723520115420756e-07 -0.0002502235152664771 -6.1794005038217714e-10 -1.3447569372194988e-08 -1.8495017483079625e-07 1.0163468604229068e-07 8.6141579134213389e-08 -0.00025025731832172189 1.0163468604229068e-07 8.6141579134213389e-08 -0.00025025731832172189 3.709842009061321e-08 5.4397749711805637e-08 -0.00025020752047064278 -6.1794005038216039e-10 -1.3447569372195006e-08 -1.8495017483069407e-07 -1.9810293921295142e-08 -1.3053251443459633e-08 -2.5384932637387452e-07 2.4287446024568906e-08 4.6341703849694768e-08 -2.7341330834657554e-07 -6.1794005038218242e-10 -1.3447569372194991e-08 -1.8495017483079625e-07 -1.9810293921295142e-08 -1.3053251443459633e-08 -2.5384932637387452e-07 1.0163468604229068e-07 8.6141579134213389e-08 -0.00025025731832172189 2.4287446024568906e-08 4.6341703849694768e-08 -2.7341330834657554e-07 -3.9995647715354169e-09 5.3151283024084288e-08 -2.0220332804971512e-07 -6.1794005038217714e-10 -1.3447569372194988e-08 -1.8495017483079625e-07 5.2027478249107394e-08 1.2723520115420759e-07 -0.0002502235152664771 5.3715554634390877e-08 3.499223911223434e-08 -1.8640962796995266e-07 1.0163468604229068e-07 8.6141579134213389e-08 -0.00025025731832172189 -1.9810293921295142e-08 -1.3053251443459633e-08 -2.5384932637387452e-07 1.3377332355211246e-07 1.9292446125492783e-08 -0.00025024721366047055 5.3715554634390877e-08 3.499223911223434e-08 -1.8640962796995266e-07 2.4287446024568906e-08 4.6341703849694768e-08 -2.7341330834657554e-07 -1.9810293921295142e-08 -1.3053251443459633e-08 -2.5384932637387452e-07 1.0163468604229068e-07 8.6141579134213389e-08 -0.00025025731832172189 1.3377332355211246e-07 1.9292446125492783e-08 -0.00025024721366047055 4.4878332678102886e-08 1.0091034419758456e-07 -0.00050026550164602535 6.985046481192487e-08 1.9623098512039329e-08 -0.00025024115399874177 8.7884208175526675e-08 6.6381716473026668e-08 -0.00050026243849447794 1.3377332355211246e-07 1.9292446125492783e-08 -0.00025024721366047055 1.0163468604229068e-07 8.6141579134213389e-08 -0.00025025731832172189 6.985046481192487e-08 1.9623098512039329e-08 -0.00025024115399874177 4.4878332678102886e-08 1.0091034419758456e-07 -0.00050026550164602535 8.7884208175526675e-08 6.6381716473026668e-08 -0.00050026243849447794 4.4878332678102886e-08 1.0091034419758456e-07 -0.00050026550164602535 5.724676901995362e-08 3.4703900549828388e-08 -0.00050025572597947848 5.7208156994167595e-08 9.5797191686454002e-08 -0.00075028561194397786 2.9118624752717675e-08 -4.4973803609162362e-08 -1.3795280721352341e-07 8.4821239303491385e-08 -1.0696128581292292e-07 -0.00025021793069619281 -1.2701597484203002e-08 1.1314996763178387e-08 -9.8543760335868524e-08 1.9424279955068117e-08 -1.3542571036742637e-07 -0.00025019745817880248 8.4821239303491451e-08 -1.0696128581292292e-07 -0.00025021793069619275 1.9424279955068117e-08 -1.3542571036742637e-07 -0.00025019745817880248 3.6405840519236051e-08 -7.0376829225381555e-08 -0.00025018848937158024 -1.2701597484203002e-08 1.1314996763178387e-08 -9.8543760335868524e-08 5.3192690916426068e-08 -2.6644470250601915e-08 -0.00025019539836647646 8.4821239303491451e-08 -1.0696128581292292e-07 -0.00025021793069619275 3.6405840519236051e-08 -7.0376829225381555e-08 -0.00025018848937158024 -1.2701597484203002e-08 1.1314996763178387e-08 -9.8543760335868524e-08 2.9118624752717675e-08 -4.4973803609162362e-08 -1.3795280721352341e-07 4.7289755465797552e-08 -2.4815515102714573e-08 -2.0212896809063323e-07 -1.2701597484203002e-08 1.1314996763178387e-08 -9.8543760335868524e-08 8.4821239303491451e-08 -1.0696128581292292e-07 -0.00025021793069619275 8.4821239303491451e-08 -1.0696128581292292e-07 -0.00025021793069619275 5.3192690916426061e-08 -2.6644470250601895e-08 -0.00025019539836647646 -1.2601056653493992e-08 4.7781304758276683e-09 -1.7697880110782764e-07 -1.2701597484203002e-08 1.1314996763178387e-08 -9.8543760335868524e-08 4.7289755465797552e-08 -2.4815515102714573e-08 -2.0212896809063323e-07 -1.2601056653494e-08 4.7781304758276733e-09 -1.7697880110782762e-07 -1.2701597484203002e-08 1.1314996763178387e-08 -9.8543760335868524e-08 8.4821239303491451e-08 -1.0696128581292292e-07 -0.00025021793069619275 4.7289755465797552e-08 -2.4815515102714573e-08 -2.0212896809063323e-07 1.275189035700175e-07 -4.9479691829508419e-08 -0.00025025247188228354 -1.260105665349399e-08 4.7781304758276716e-09 -1.7697880110781867e-07 8.4821239303491451e-08 -1.0696128581292292e-07 -0.00025021793069619275 4.7289755465797552e-08 -2.4815515102714573e-08 -2.0212896809063323e-07 5.2083112098296982e-08 4.0616413719246935e-09 -2.738505538570655e-07 -1.2601056653493992e-08 4.7781304758276683e-09 -1.7697880110782764e-07 1.275189035700175e-07 -4.9479691829508419e-08 -0.00025025247188228354 -1.2601056653493992e-08 4.7781304758276683e-09 -1.7697880110782764e-07 5.2083112098296982e-08 4.0616413719246935e-09 -2.738505538570655e-07 -1.9810293921295142e-08 -1.3053251443459633e-08 -2.5384932637387452e-07 1.2751890357001753e-07 -4.9479691829508439e-08 -0.00025025247188228364 -1.2601056653493992e-08 4.7781304758276683e-09 -1.7697880110782764e-07 1.2751890357001753e-07 -4.9479691829508426e-08 -0.00025025247188228354 -1.9810293921295142e-08 -1.3053251443459633e-08 -2.5384932637387452e-07 5.3192690916426068e-08 -2.6644470250601915e-08 -0.00025019539836647646 5.2083112098296982e-08 4.0616413719246935e-09 -2.738505538570655e-07 5.3715554634390884e-08 3.4992239112234334e-08 -1.8640962796997733e-07 -1.9810293921295142e-08 -1.3053251443459633e-08 -2.5384932637387452e-07 1.3377332355211246e-07 1.9292446125492783e-08 -0.00025024721366047055 5.2083112098296982e-08 4.0616413719246935e-09 -2.738505538570655e-07 1.3377332355211246e-07 1.9292446125492783e-08 -0.00025024721366047055 -1.9810293921295142e-08 -1.3053251443459633e-08 -2.5384932637387452e-07 1.275189035700175e-07 -4.9479691829508419e-08 -0.00025025247188228354 1.0163468604229068e-07 8.6141579134213389e-08 -0.00025025731832172189 1.3377332355211246e-07 1.9292446125492783e-08 -0.00025024721366047055 6.985046481192487e-08 1.9623098512039329e-08 -0.00025024115399874177 -1.9810293921295142e-08 -1.3053251443459633e-08 -2.5384932637387452e-07 1.3377332355211246e-07 1.9292446125492783e-08 -0.00025024721366047055 1.275189035700175e-07 -4.9479691829508419e-08 -0.00025025247188228354 6.985046481192487e-08 1.9623098512039329e-08 -0.00025024115399874177 -1.9810293921295142e-08 -1.3053251443459633e-08 -2.5384932637387452e-07 1.275189035700175e-07 -4.9479691829508419e-08 -0.00025025247188228354 8.4821239303491451e-08 -1.0696128581292292e-07 -0.00025021793069619275 5.3192690916426068e-08 -2.6644470250601915e-08 -0.00025019539836647646 -1.260105665349402e-08 4.7781304758276791e-09 -1.7697880110771176e-07 1.275189035700175e-07 -4.9479691829508419e-08 -0.00025025247188228354 5.3192690916426068e-08 -2.6644470250601915e-08 -0.00025019539836647646 6.985046481192487e-08 1.9623098512039329e-08 -0.00025024115399874177 -1.9810293921295142e-08 -1.3053251443459633e-08 -2.5384932637387452e-07 1.0922077000013303e-07 1.3357640160744669e-08 -0.00050026176480621662 1.0146920622368527e-07 -4.2926813066092797e-08 -0.00050024698011487173 5.474183797742277e-08 -1.5675962236670692e-08 -0.00050024195595393679 5.3192690916426074e-08 -2.6644470250601922e-08 -0.00025019539836647635 8.4821239303491451e-08 -1.0696128581292292e-07 -0.00025021793069619275 1.275189035700175e-07 -4.9479691829508419e-08 -0.00025025247188228354 5.3192690916426068e-08 -2.6644470250601915e-08 -0.00025019539836647646 1.0922077000013303e-07 1.3357640160744669e-08 -0.00050026176480621662 5.3192690916426068e-08 -2.6644470250601915e-08 -0.00025019539836647646 1.0922077000013306e-07 1.3357640160744674e-08 -0.00050026176480621673 6.985046481192487e-08 1.9623098512039329e-08 -0.00025024115399874177 5.474183797742277e-08 -1.5675962236670692e-08 -0.00050024195595393679 1.0922077000013303e-07 1.3357640160744669e-08 -0.00050026176480621662 5.474183797742277e-08 -1.5675962236670692e-08 -0.00050024195595393679 5.724676901995362e-08 3.4703900549828388e-08 -0.00050025572597947848 6.985046481192487e-08 1.9623098512039329e-08 -0.00025024115399874177 5.3192690916426068e-08 -2.6644470250601915e-08 -0.00025019539836647646 1.275189035700175e-07 -4.9479691829508419e-08 -0.00025025247188228354 6.985046481192487e-08 1.9623098512039329e-08 -0.00025024115399874177 1.0922077000013303e-07 1.3357640160744699e-08 -0.00050026176480621673 4.4878332678102886e-08 1.0091034419758456e-07 -0.00050026550164602535 8.7884208175526675e-08 6.6381716473026668e-08 -0.00050026243849447794 5.724676901995362e-08 3.4703900549828388e-08 -0.00050025572597947848 6.985046481192487e-08 1.9623098512039329e-08 -0.00025024115399874177 1.275189035700175e-07 -4.9479691829508419e-08 -0.00025025247188228354 8.7884208175526675e-08 6.6381716473026668e-08 -0.00050026243849447794 6.985046481192487e-08 1.9623098512039329e-08 -0.00025024115399874177 1.0922077000013303e-07 1.3357640160744669e-08 -0.00050026176480621662 1.275189035700175e-07 -4.9479691829508419e-08 -0.00025025247188228354 1.3377332355211243e-07 1.9292446125492787e-08 -0.00025024721366047055 6.985046481192487e-08 1.9623098512039329e-08 -0.00025024115399874177 8.7884208175526675e-08 6.6381716473026668e-08 -0.00050026243849447794 8.7884208175526675e-08 6.6381716473026668e-08 -0.00050026243849447794 1.0922077000013303e-07 1.3357640160744669e-08 -0.00050026176480621662 5.724676901995362e-08 3.4703900549828388e-08 -0.00050025572597947848 6.985046481192487e-08 1.9623098512039329e-08 -0.00025024115399874177 1.0922077000013303e-07 1.3357640160744669e-08 -0.00050026176480621662 8.7884208175526675e-08 6.6381716473026655e-08 -0.00050026243849447794 5.724676901995362e-08 3.4703900549828388e-08 -0.00050025572597947848 9.773123792322453e-08 5.413285508846957e-08 -0.00075028440438964735 1.0146920622368527e-07 -4.2926813066092797e-08 -0.00050024698011487173 1.0922077000013303e-07 1.3357640160744669e-08 -0.00050026176480621662 5.474183797742277e-08 -1.5675962236670692e-08 -0.00050024195595393679 1.1166295684369591e-07 -1.862871889884041e-09 -0.00075028406831708218 5.474183797742277e-08 -1.5675962236670692e-08 -0.00050024195595393679 1.0922077000013303e-07 1.3357640160744669e-08 -0.00050026176480621662 5.724676901995362e-08 3.4703900549828388e-08 -0.00050025572597947848 1.1166295684369591e-07 -1.862871889884048e-09 -0.00075028406831708229 1.0146920622368527e-07 -4.2926813066092797e-08 -0.00050024698011487173 5.4741837977422763e-08 -1.5675962236670695e-08 -0.00050024195595393668 5.1807451641904024e-08 -5.3010039916594131e-08 -0.00050023741979405689 9.5731872554328376e-08 -5.7487923299070436e-08 -0.00075027839911506863 6.6420897506975656e-08 -8.7910750955037237e-08 -0.00050023805240375838 1.0146920622368527e-07 -4.2926813066092797e-08 -0.00050024698011487173 5.1807451641904024e-08 -5.3010039916594131e-08 -0.00050023741979405689 9.5731872554328376e-08 -5.7487923299070436e-08 -0.00075027839911506863 8.4821239303491451e-08 -1.0696128581292292e-07 -0.00025021793069619275 5.3192690916426054e-08 -2.6644470250601915e-08 -0.0002501953983664764 3.6405840519236051e-08 -7.0376829225381555e-08 -0.00025018848937158024 1.0146920622368527e-07 -4.2926813066092797e-08 -0.00050024698011487173 5.474183797742277e-08 -1.5675962236670692e-08 -0.00050024195595393679 1.0146920622368527e-07 -4.2926813066092797e-08 -0.00050024698011487173 5.1807451641904024e-08 -5.3010039916594131e-08 -0.00050023741979405689 3.6405840519236051e-08 -7.0376829225381555e-08 -0.00025018848937158024 8.4821239303491451e-08 -1.0696128581292292e-07 -0.00025021793069619275 1.0922077000013303e-07 1.3357640160744669e-08 -0.00050026176480621662 5.3192690916426068e-08 -2.6644470250601918e-08 -0.00025019539836647646 1.0146920622368527e-07 -4.2926813066092797e-08 -0.00050024698011487173 1.0146920622368527e-07 -4.2926813066092797e-08 -0.00050024698011487173 5.4741837977422756e-08 -1.5675962236670695e-08 -0.00050024195595393679 5.3192690916426068e-08 -2.6644470250601915e-08 -0.00025019539836647646 3.6405840519236051e-08 -7.0376829225381555e-08 -0.00025018848937158024 1.0146920622368527e-07 -4.2926813066092797e-08 -0.00050024698011487173 6.6420897506975656e-08 -8.7910750955037237e-08 -0.00050023805240375838 5.1807451641904024e-08 -5.3010039916594131e-08 -0.00050023741979405689 3.6405840519236051e-08 -7.0376829225381555e-08 -0.00025018848937158024 1.9424279955068117e-08 -1.3542571036742637e-07 -0.00025019745817880248 8.4821239303491451e-08 -1.0696128581292292e-07 -0.00025021793069619275 3.6405840519236051e-08 -7.0376829225381555e-08 -0.00025018848937158024 1.0146920622368527e-07 -4.2926813066092797e-08 -0.00050024698011487173 1.9424279955068117e-08 -1.3542571036742637e-07 -0.00025019745817880248 1.0146920622368528e-07 -4.2926813066092771e-08 -0.00050024698011487173 3.6405840519236051e-08 -7.0376829225381555e-08 -0.00025018848937158024 6.6420897506975656e-08 -8.7910750955037237e-08 -0.00050023805240375838 6.6420897506975656e-08 -8.7910750955037237e-08 -0.00050023805240375838 9.573187255432835e-08 -5.748792329907043e-08 -0.00075027839911506874 5.1807451641904024e-08 -5.3010039916594131e-08 -0.00050023741979405689 5.4071381409991284e-08 -9.7714249381005876e-08 -0.00075027446938386781 5.4071381409991284e-08 -9.7714249381005876e-08 -0.00075027446938386781 9.6704006814815863e-08 -5.5724428388536264e-08 -0.0010003101864258632 4.9139135668468066e-08 -5.6868644747317175e-08 -0.00075027506619269933 5.5901280254125139e-08 -9.659600028792921e-08 -0.0010003082747488188 9.6704006814815876e-08 -5.572442838853627e-08 -0.0010003101864258632 5.354864235518402e-08 -2.0498595195354465e-08 -0.0010003100243020922 5.3660213017955918e-08 -1.9717044522946728e-08 -0.00075027714288925418 4.9139135668468066e-08 -5.6868644747317175e-08 -0.00075027506619269933 9.5731872554328376e-08 -5.7487923299070436e-08 -0.00075027839911506863 5.3660213017955911e-08 -1.9717044522946731e-08 -0.00075027714288925418 4.9139135668468066e-08 -5.6868644747317175e-08 -0.00075027506619269933 9.6704006814815876e-08 -5.572442838853627e-08 -0.0010003101864258632 9.5731872554328376e-08 -5.7487923299070436e-08 -0.00075027839911506863 1.1160902715045695e-07 1.0381105093754607e-10 -0.0010003127175824656 5.3660213017955918e-08 -1.9717044522946728e-08 -0.00075027714288925418 9.6704006814815876e-08 -5.572442838853627e-08 -0.0010003101864258632 5.4071381409991284e-08 -9.7714249381005876e-08 -0.00075027446938386781 9.5731872554328376e-08 -5.7487923299070436e-08 -0.00075027839911506863 4.9139135668468066e-08 -5.6868644747317175e-08 -0.00075027506619269933 9.6704006814815876e-08 -5.572442838853627e-08 -0.0010003101864258632 9.5731872554328376e-08 -5.7487923299070436e-08 -0.00075027839911506863 5.4071381409991284e-08 -9.7714249381005876e-08 -0.00075027446938386781 4.9139135668468066e-08 -5.6868644747317175e-08 -0.00075027506619269933 5.1807451641904024e-08 -5.3010039916594131e-08 -0.00050023741979405689 5.3660213017955918e-08 -1.9717044522946728e-08 -0.00075027714288925418 9.5731872554328376e-08 -5.7487923299070436e-08 -0.00075027839911506863 4.9139135668468066e-08 -5.6868644747317175e-08 -0.00075027506619269933 5.1807451641904024e-08 -5.3010039916594131e-08 -0.00050023741979405689 1.0146920622368527e-07 -4.2926813066092797e-08 -0.00050024698011487173 1.1166295684369591e-07 -1.862871889884041e-09 -0.00075028406831708218 5.474183797742277e-08 -1.5675962236670692e-08 -0.00050024195595393679 9.5731872554328376e-08 -5.7487923299070436e-08 -0.00075027839911506863 9.5731872554328376e-08 -5.7487923299070436e-08 -0.00075027839911506863 5.3660213017955911e-08 -1.9717044522946728e-08 -0.00075027714288925418 5.474183797742277e-08 -1.5675962236670692e-08 -0.00050024195595393679 5.1807451641904024e-08 -5.3010039916594131e-08 -0.00050023741979405689 5.474183797742277e-08 -1.5675962236670692e-08 -0.00050024195595393679 1.1166295684369594e-07 -1.8628718898840435e-09 -0.00075028406831708218 5.724676901995362e-08 3.4703900549828388e-08 -0.00050025572597947848 5.3660213017955918e-08 -1.9717044522946728e-08 -0.00075027714288925418 1.1166295684369591e-07 -1.862871889884041e-09 -0.00075028406831708218 9.5731872554328376e-08 -5.7487923299070436e-08 -0.00075027839911506863 5.3660213017955918e-08 -1.9717044522946728e-08 -0.00075027714288925418 5.4741837977422776e-08 -1.5675962236670692e-08 -0.00050024195595393668 1.1166295684369591e-07 -1.862871889884041e-09 -0.00075028406831708218 5.3660213017955918e-08 -1.9717044522946728e-08 -0.00075027714288925418 5.6590588046365069e-08 3.2005912142872204e-08 -0.0007502821285173438 5.724676901995362e-08 3.4703900549828388e-08 -0.00050025572597947848 1.0922077000013303e-07 1.3357640160744669e-08 -0.00050026176480621662 9.773123792322453e-08 5.413285508846957e-08 -0.00075028440438964735 5.724676901995362e-08 3.4703900549828388e-08 -0.00050025572597947848 1.1166295684369591e-07 -1.862871889884041e-09 -0.00075028406831708218 9.773123792322453e-08 5.413285508846957e-08 -0.00075028440438964735 1.1166295684369591e-07 -1.862871889884041e-09 -0.00075028406831708218 5.6590588046365069e-08 3.2005912142872204e-08 -0.0007502821285173438 5.724676901995362e-08 3.4703900549828388e-08 -0.00050025572597947848 5.7208156994167595e-08 9.5797191686454002e-08 -0.00075028561194397786 9.773123792322453e-08 5.413285508846957e-08 -0.00075028440438964735 5.6590588046365069e-08 3.2005912142872204e-08 -0.0007502821285173438 5.724676901995362e-08 3.4703900549828388e-08 -0.00050025572597947848 1.1166295684369591e-07 -1.862871889884041e-09 -0.00075028406831708218 9.6581958849248062e-08 5.5893491702580919e-08 -0.0010003130500471724 5.6590588046365069e-08 3.2005912142872204e-08 -0.0007502821285173438 1.1160902715045695e-07 1.0381105093754607e-10 -0.0010003127175824656 1.1166295684369591e-07 -1.862871889884041e-09 -0.00075028406831708218 9.773123792322453e-08 5.413285508846957e-08 -0.00075028440438964735 5.6590588046365069e-08 3.2005912142872204e-08 -0.0007502821285173438 9.6581958849248062e-08 5.5893491702580919e-08 -0.0010003130500471724 5.3660213017955918e-08 -1.9717044522946728e-08 -0.00075027714288925418 1.1166295684369591e-07 -1.862871889884041e-09 -0.00075028406831708218 5.6590588046365069e-08 3.2005912142872204e-08 -0.0007502821285173438 1.1160902715045695e-07 1.0381105093754698e-10 -0.0010003127175824656 5.3660213017955918e-08 -1.9717044522946728e-08 -0.00075027714288925418 1.1160902715045698e-07 1.0381105093754443e-10 -0.0010003127175824656 5.6590588046365069e-08 3.2005912142872204e-08 -0.0007502821285173438 5.3548642355184027e-08 -2.0498595195354465e-08 -0.0010003100243020922 9.5731872554328376e-08 -5.7487923299070436e-08 -0.00075027839911506863 1.1166295684369591e-07 -1.862871889884041e-09 -0.00075028406831708218 5.3660213017955918e-08 -1.9717044522946728e-08 -0.00075027714288925418 1.1160902715045695e-07 1.0381105093754607e-10 -0.0010003127175824656 1.1160902715045695e-07 1.0381105093754607e-10 -0.0010003127175824656 5.3548642355184027e-08 -2.0498595195354465e-08 -0.0010003100243020922 5.5597146756260475e-08 3.1824236939638136e-08 -0.001000312185814665 5.6590588046365069e-08 3.2005912142872204e-08 -0.0007502821285173438 5.3548642355184027e-08 -2.0498595195354465e-08 -0.0010003100243020922 1.1160902715045695e-07 1.0381105093754607e-10 -0.0010003127175824656 5.5597146756260475e-08 3.1824236939638136e-08 -0.001000312185814665 1.11529875571864e-07 6.6323841097267649e-11 -0.001250343887504135 9.6704006814815876e-08 -5.572442838853627e-08 -0.0010003101864258632 1.1160902715045695e-07 1.0381105093754607e-10 -0.0010003127175824656 5.3548642355184027e-08 -2.0498595195354465e-08 -0.0010003100243020922 1.11529875571864e-07 6.6323841097267675e-11 -0.0012503438875041348 1.1160902715045695e-07 1.0381105093754607e-10 -0.0010003127175824656 9.6704006814815876e-08 -5.572442838853627e-08 -0.0010003101864258632 5.3548642355184027e-08 -2.0498595195354465e-08 -0.0010003100243020922 5.3660213017955924e-08 -1.9717044522946731e-08 -0.00075027714288925407 1.1160902715045695e-07 1.0381105093754607e-10 -0.0010003127175824656 9.6581958849248062e-08 5.5893491702580919e-08 -0.0010003130500471724 5.5597146756260475e-08 3.1824236939638136e-08 -0.001000312185814665 9.6566384094855047e-08 5.581183283499781e-08 -0.0012503442362145933 9.6581958849248062e-08 5.5893491702580919e-08 -0.0010003130500471724 1.1160902715045695e-07 1.0381105093754607e-10 -0.0010003127175824656 5.5597146756260475e-08 3.1824236939638136e-08 -0.001000312185814665 5.6590588046365069e-08 3.2005912142872204e-08 -0.0007502821285173438 5.5759013657087917e-08 9.6692467866600973e-08 -0.001000313434773041 9.6581958849248062e-08 5.5893491702580919e-08 -0.0010003130500471724 5.5597146756260475e-08 3.1824236939638136e-08 -0.001000312185814665 5.6590588046365069e-08 3.2005912142872204e-08 -0.0007502821285173438 5.5736461503530113e-08 9.6604554413053996e-08 -0.0012503443488546566 9.6566384094855047e-08 5.581183283499781e-08 -0.0012503442362145933 5.5743474362313741e-08 3.2033117032137304e-08 -0.001250343553629351 5.5597146756260475e-08 3.1824236939638136e-08 -0.001000312185814665 1.1160902715045695e-07 1.0381105093754607e-10 -0.0010003127175824656 9.6566384094855047e-08 5.581183283499781e-08 -0.0012503442362145933 5.5597146756260475e-08 3.1824236939638136e-08 -0.001000312185814665 1.11529875571864e-07 6.6323841097267675e-11 -0.0012503438875041348 9.6566384094855047e-08 5.581183283499781e-08 -0.0012503442362145933 1.11529875571864e-07 6.6323841097267675e-11 -0.0012503438875041348 5.5743474362313741e-08 3.2033117032137304e-08 -0.001250343553629351 5.5597146756260475e-08 3.1824236939638136e-08 -0.001000312185814665 1.11529875571864e-07 6.6323841097267675e-11 -0.0012503438875041348 9.6624069455659525e-08 -5.5701725231597403e-08 -0.0012503422257568936 5.3729578123783863e-08 -2.0307142134542998e-08 -0.0012503421181923441 5.3548642355184033e-08 -2.0498595195354468e-08 -0.0010003100243020919 1.11529875571864e-07 6.6323841097267675e-11 -0.0012503438875041348 5.3729578123783863e-08 -2.0307142134542998e-08 -0.0012503421181923441 5.5743474362313741e-08 3.2033117032137304e-08 -0.001250343553629351 5.5597146756260475e-08 3.1824236939638136e-08 -0.001000312185814665 5.3548642355184027e-08 -2.0498595195354465e-08 -0.0010003100243020922 1.1152987557186403e-07 6.6323841097265749e-11 -0.0012503438875041348 5.5597146756260475e-08 3.1824236939638136e-08 -0.001000312185814665 5.3729578123783863e-08 -2.0307142134542998e-08 -0.0012503421181923441 9.6624069455659525e-08 -5.5701725231597403e-08 -0.0012503422257568936 5.5809812860736254e-08 -9.6562321496976995e-08 -0.0012503408498653688 4.9749962919093501e-08 -5.6816570683717418e-08 -0.0012503412354939179 4.9519903590790441e-08 -5.7031958963411367e-08 -0.0010003088072657173 5.3729578123783863e-08 -2.0307142134542998e-08 -0.0012503421181923441 9.6624069455659525e-08 -5.5701725231597403e-08 -0.0012503422257568936 4.9749962919093501e-08 -5.6816570683717418e-08 -0.0012503412354939179 4.9519903590790441e-08 -5.7031958963411367e-08 -0.0010003088072657173 9.6624069455659525e-08 -5.5701725231597403e-08 -0.0012503422257568936 5.3729578123783856e-08 -2.0307142134542998e-08 -0.0012503421181923441 5.3548642355184027e-08 -2.0498595195354465e-08 -0.0010003100243020922 4.9519903590790441e-08 -5.7031958963411367e-08 -0.0010003088072657173 9.6704006814815876e-08 -5.572442838853627e-08 -0.0010003101864258632 1.11529875571864e-07 6.6323841097267675e-11 -0.0012503438875041348 5.3548642355184027e-08 -2.0498595195354465e-08 -0.0010003100243020922 9.6624069455659525e-08 -5.5701725231597403e-08 -0.0012503422257568936 9.6704006814815876e-08 -5.572442838853627e-08 -0.0010003101864258632 5.5901280254125139e-08 -9.659600028792921e-08 -0.0010003082747488188 4.9519903590790441e-08 -5.7031958963411367e-08 -0.0010003088072657173 4.9139135668468066e-08 -5.6868644747317175e-08 -0.00075027506619269933 9.6704006814815876e-08 -5.572442838853627e-08 -0.0010003101864258632 5.354864235518402e-08 -2.0498595195354468e-08 -0.0010003100243020919 4.9519903590790441e-08 -5.7031958963411367e-08 -0.0010003088072657173 9.6624069455659525e-08 -5.5701725231597403e-08 -0.0012503422257568936 5.3548642355184027e-08 -2.0498595195354465e-08 -0.0010003100243020922 9.6704006814815876e-08 -5.572442838853627e-08 -0.0010003101864258632 4.9519903590790441e-08 -5.7031958963411367e-08 -0.0010003088072657173 4.9139135668468066e-08 -5.6868644747317175e-08 -0.00075027506619269933 5.5901280254125139e-08 -9.659600028792921e-08 -0.0010003082747488188 9.6704006814815876e-08 -5.572442838853627e-08 -0.0010003101864258632 4.9519903590790441e-08 -5.7031958963411367e-08 -0.0010003088072657173 9.6624069455659525e-08 -5.5701725231597403e-08 -0.0012503422257568936 5.5901280254125139e-08 -9.659600028792921e-08 -0.0010003082747488188 9.6624069455659512e-08 -5.5701725231597396e-08 -0.0012503422257568936 4.9519903590790441e-08 -5.7031958963411367e-08 -0.0010003088072657173 5.5809812860736254e-08 -9.6562321496976995e-08 -0.0012503408498653688 8.7884208175526675e-08 6.6381716473026668e-08 -0.00050026243849447794 5.7208156994167595e-08 9.5797191686454002e-08 -0.00075028561194397786 5.724676901995362e-08 3.4703900549828388e-08 -0.00050025572597947848 9.773123792322453e-08 5.413285508846957e-08 -0.00075028440438964735 9.773123792322453e-08 5.413285508846957e-08 -0.00075028440438964735 5.7208156994167595e-08 9.5797191686454002e-08 -0.00075028561194397786 5.6590588046365069e-08 3.2005912142872204e-08 -0.0007502821285173438 5.5759013657087917e-08 9.6692467866600973e-08 -0.001000313434773041 9.773123792322453e-08 5.413285508846957e-08 -0.00075028440438964735 5.5759013657087917e-08 9.6692467866600973e-08 -0.001000313434773041 5.6590588046365069e-08 3.2005912142872204e-08 -0.0007502821285173438 9.6581958849248062e-08 5.5893491702580919e-08 -0.0010003130500471724 9.6581958849248062e-08 5.5893491702580919e-08 -0.0010003130500471724 5.5759013657087917e-08 9.6692467866600973e-08 -0.001000313434773041 5.5597146756260475e-08 3.1824236939638136e-08 -0.001000312185814665 5.5736461503530113e-08 9.6604554413053996e-08 -0.0012503443488546566 9.6581958849248062e-08 5.5893491702580919e-08 -0.0010003130500471724 5.5736461503530113e-08 9.6604554413053996e-08 -0.0012503443488546566 5.5597146756260475e-08 3.1824236939638136e-08 -0.001000312185814665 9.6566384094855047e-08 5.581183283499781e-08 -0.0012503442362145933 -1.5823040049599892e-11 1.1152648077642051e-07 -0.0012503426799144262 5.5736461503530113e-08 9.6604554413053996e-08 -0.0012503443488546566 9.2498346577701471e-09 5.7065854782014999e-08 -0.0012503425828431654 9.22593965088921e-09 5.6956805689307014e-08 -0.0010003108269554866 5.5736461503530113e-08 9.6604554413053996e-08 -0.0012503443488546566 9.2498346577701471e-09 5.7065854782014999e-08 -0.0012503425828431652 9.2259396508891902e-09 5.6956805689307047e-08 -0.0010003108269554866 5.5597146756260475e-08 3.1824236939638136e-08 -0.001000312185814665 5.5759013657087917e-08 9.6692467866600973e-08 -0.001000313434773041 -1.5823040049593698e-11 1.1152648077642051e-07 -0.0012503426799144262 9.22593965088921e-09 5.6956805689307014e-08 -0.0010003108269554866 5.5736461503530113e-08 9.6604554413053996e-08 -0.0012503443488546566 -8.3274156885105016e-11 1.1160671369320732e-07 -0.0010003108417049732 -5.5778120885005074e-08 9.6578885199660185e-08 -0.0012503416190425439 -2.4311754082303049e-08 7.1344841075517368e-08 -0.0010003098476221411 -1.5823040049599892e-11 1.1152648077642051e-07 -0.0012503426799144262 -1.5823040049599892e-11 1.1152648077642051e-07 -0.0012503426799144262 9.2498346577701471e-09 5.7065854782014999e-08 -0.0012503425828431654 -2.4218588885528941e-08 7.1442273322042677e-08 -0.0012503419513356846 -2.4311754082303049e-08 7.1344841075517368e-08 -0.0010003098476221411 -5.5778120885005094e-08 9.6578885199660198e-08 -0.0012503416190425439 -1.5823040049594079e-11 1.1152648077642052e-07 -0.0012503426799144262 -2.4218588885528941e-08 7.1442273322042677e-08 -0.0012503419513356846 -2.4311754082303049e-08 7.1344841075517368e-08 -0.0010003098476221411 9.22593965088921e-09 5.6956805689307014e-08 -0.0010003108269554866 -1.5823040049607841e-11 1.1152648077642051e-07 -0.0012503426799144262 -2.4311754082303049e-08 7.1344841075517368e-08 -0.0010003098476221411 9.2498346577701471e-09 5.7065854782014999e-08 -0.0012503425828431654 9.2498346577701471e-09 5.7065854782014999e-08 -0.0012503425828431654 -1.983986207535127e-08 3.5895669555499463e-08 -0.0012503416891061789 -2.4218588885528941e-08 7.1442273322042677e-08 -0.0012503419513356846 -2.4311754082303049e-08 7.1344841075517368e-08 -0.0010003098476221411 9.22593965088921e-09 5.6956805689307014e-08 -0.0010003108269554866 -8.3274156885105016e-11 1.1160671369320732e-07 -0.0010003108417049732 -2.4311754082303049e-08 7.1344841075517368e-08 -0.0010003098476221411 -1.5823040049599892e-11 1.1152648077642051e-07 -0.0012503426799144262 5.5759013657087917e-08 9.6692467866600973e-08 -0.001000313434773041 -8.3274156885105016e-11 1.1160671369320732e-07 -0.0010003108417049732 9.22593965088921e-09 5.6956805689307014e-08 -0.0010003108269554866 -1.5823040049599912e-11 1.1152648077642051e-07 -0.0012503426799144262 5.5759013657087917e-08 9.6692467866600973e-08 -0.001000313434773041 9.225939650889215e-09 5.6956805689307007e-08 -0.0010003108269554866 5.5597146756260475e-08 3.1824236939638136e-08 -0.001000312185814665 5.5736461503530113e-08 9.6604554413053996e-08 -0.0012503443488546566 5.5759013657087917e-08 9.6692467866600973e-08 -0.001000313434773041 9.22593965088921e-09 5.6956805689307014e-08 -0.0010003108269554864 1.0863505106190449e-08 5.7025658322607686e-08 -0.00075027893609819077 5.6590588046365069e-08 3.2005912142872204e-08 -0.0007502821285173438 5.7208156994167595e-08 9.5797191686454002e-08 -0.00075028561194397786 1.0863505106190474e-08 5.7025658322607653e-08 -0.00075027893609819088 5.6590588046365069e-08 3.2005912142872204e-08 -0.0007502821285173438 5.5759013657087917e-08 9.6692467866600973e-08 -0.001000313434773041 5.7208156994167595e-08 9.5797191686454002e-08 -0.00075028561194397786 -8.3274156885098657e-11 1.1160671369320732e-07 -0.001000310841704973 1.0863505106190469e-08 5.7025658322607659e-08 -0.00075027893609819088 5.5759013657087917e-08 9.6692467866600973e-08 -0.001000313434773041 5.7208156994167595e-08 9.5797191686454002e-08 -0.00075028561194397786 1.9986678475334978e-09 1.1165787185637581e-07 -0.00075027967206977284 1.0863505106190469e-08 5.7025658322607659e-08 -0.00075027893609819088 -8.3274156885104473e-11 1.1160671369320732e-07 -0.0010003108417049732 -8.3274156885105016e-11 1.1160671369320732e-07 -0.0010003108417049732 5.5759013657087917e-08 9.6692467866600973e-08 -0.001000313434773041 9.22593965088921e-09 5.6956805689307014e-08 -0.0010003108269554866 1.0863505106190469e-08 5.7025658322607659e-08 -0.00075027893609819088 9.22593965088921e-09 5.6956805689307014e-08 -0.0010003108269554866 -2.001571108711885e-08 3.5780823629411721e-08 -0.0010003094382389774 -2.4311754082303049e-08 7.1344841075517368e-08 -0.0010003098476221411 -2.3147509808928034e-08 7.1589185115033615e-08 -0.000750276859656732 -8.3274156885105016e-11 1.1160671369320732e-07 -0.0010003108417049732 9.22593965088921e-09 5.6956805689307014e-08 -0.0010003108269554866 -2.4311754082303049e-08 7.1344841075517368e-08 -0.0010003098476221411 -2.3147509808928034e-08 7.1589185115033615e-08 -0.000750276859656732 1.0863505106190469e-08 5.7025658322607659e-08 -0.00075027893609819088 1.9986678475334978e-09 1.1165787185637581e-07 -0.00075027967206977284 -2.3147509808928034e-08 7.1589185115033615e-08 -0.000750276859656732 -8.3274156885105016e-11 1.1160671369320732e-07 -0.0010003108417049732 1.0863505106190469e-08 5.7025658322607659e-08 -0.00075027893609819088 -8.3274156885113223e-11 1.1160671369320732e-07 -0.0010003108417049732 -2.3147509808928034e-08 7.1589185115033615e-08 -0.000750276859656732 9.22593965088921e-09 5.6956805689307014e-08 -0.0010003108269554866 -5.5882959898537224e-08 9.6607354968092391e-08 -0.0010003092503561906 -8.3274156885099187e-11 1.1160671369320734e-07 -0.0010003108417049732 -2.4311754082303049e-08 7.1344841075517368e-08 -0.0010003098476221411 -2.3147509808928034e-08 7.1589185115033615e-08 -0.000750276859656732 1.9986678475334978e-09 1.1165787185637581e-07 -0.00075027967206977284 1.0863505106190469e-08 5.7025658322607659e-08 -0.00075027893609819088 -2.3147509808928034e-08 7.1589185115033615e-08 -0.000750276859656732 -2.5388025829944997e-08 6.9262899317740317e-08 -0.00050024057870215672 -5.4065310029878625e-08 9.772072326002717e-08 -0.00075027602415996583 1.998667847533504e-09 1.1165787185637583e-07 -0.00075027967206977295 -2.3147509808928034e-08 7.1589185115033615e-08 -0.000750276859656732 -2.5388025829944997e-08 6.9262899317740317e-08 -0.00050024057870215672 1.2954418947922064e-08 5.6984947566847376e-08 -0.00050024587829832043 1.9986678475334883e-09 1.1165787185637581e-07 -0.00075027967206977295 -2.5388025829944997e-08 6.9262899317740317e-08 -0.00050024057870215672 1.0863505106190469e-08 5.7025658322607659e-08 -0.00075027893609819088 1.0863505106190469e-08 5.7025658322607659e-08 -0.00075027893609819088 -1.9288400798381941e-08 3.6138372365559173e-08 -0.00075027603314513564 -2.3147509808928034e-08 7.1589185115033615e-08 -0.000750276859656732 -2.5388025829944997e-08 6.9262899317740317e-08 -0.00050024057870215672 4.4878332678102886e-08 1.0091034419758456e-07 -0.00050026550164602535 1.9986678475335023e-09 1.1165787185637581e-07 -0.00075027967206977284 1.2954418947922064e-08 5.6984947566847376e-08 -0.00050024587829832043 5.7208156994167595e-08 9.5797191686454002e-08 -0.00075028561194397786 1.9986678475334978e-09 1.1165787185637581e-07 -0.00075027967206977284 5.7208156994167595e-08 9.5797191686454002e-08 -0.00075028561194397786 1.0863505106190469e-08 5.7025658322607659e-08 -0.00075027893609819088 1.2954418947922064e-08 5.6984947566847376e-08 -0.00050024587829832043 5.7208156994167595e-08 9.5797191686454002e-08 -0.00075028561194397786 1.0863505106190469e-08 5.7025658322607659e-08 -0.00075027893609819077 1.2954418947922046e-08 5.6984947566847402e-08 -0.00050024587829832032 5.724676901995362e-08 3.4703900549828388e-08 -0.00050025572597947848 -1.3462379909129707e-08 1.0928001149365977e-07 -0.00050025033566613664 -5.4065310029878598e-08 9.7720723260027157e-08 -0.00075027602415996583 -2.5388025829944997e-08 6.9262899317740317e-08 -0.00050024057870215672 1.9986678475334978e-09 1.1165787185637581e-07 -0.00075027967206977284 1.9986678475334978e-09 1.1165787185637581e-07 -0.00075027967206977284 -5.5882959898537204e-08 9.6607354968092378e-08 -0.0010003092503561906 -2.3147509808928034e-08 7.1589185115033615e-08 -0.000750276859656732 -8.3274156885105016e-11 1.1160671369320732e-07 -0.0010003108417049732 -5.4065310029878625e-08 9.772072326002717e-08 -0.00075027602415996583 -2.3147509808928034e-08 7.1589185115033615e-08 -0.000750276859656732 -4.8833269723873246e-08 5.3221767276803055e-08 -0.00075027606906374748 -5.1292106919948099e-08 5.0051992060102726e-08 -0.00050023974058974803 -1.9288400798381938e-08 3.6138372365559173e-08 -0.00075027603314513564 -2.3147509808928031e-08 7.1589185115033615e-08 -0.000750276859656732 -2.5388025829944997e-08 6.9262899317740317e-08 -0.00050024057870215672 -5.1292106919948099e-08 5.0051992060102726e-08 -0.00050023974058974803 -2.5388025829944997e-08 6.9262899317740317e-08 -0.00050024057870215672 -5.4065310029878625e-08 9.772072326002717e-08 -0.00075027602415996583 -5.1292106919948099e-08 5.0051992060102726e-08 -0.00050023974058974803 -2.3147509808928034e-08 7.1589185115033615e-08 -0.000750276859656732 -6.6338917762453425e-08 8.795051509032024e-08 -0.00050024100603615759 -9.5745814882429067e-08 5.746873871844191e-08 -0.00075027817874583633 -5.1292106919948099e-08 5.0051992060102726e-08 -0.00050023974058974803 -5.4065310029878625e-08 9.772072326002717e-08 -0.00075027602415996583 -9.574581488242908e-08 5.746873871844191e-08 -0.00075027817874583622 -5.4065310029878625e-08 9.772072326002717e-08 -0.00075027602415996583 -4.8833269723873246e-08 5.3221767276803055e-08 -0.00075027606906374748 -5.1292106919948099e-08 5.0051992060102726e-08 -0.00050023974058974803 -2.0015711087118847e-08 3.5780823629411721e-08 -0.0010003094382389774 -2.4311754082303045e-08 7.1344841075517368e-08 -0.0010003098476221411 -2.3147509808928034e-08 7.1589185115033615e-08 -0.000750276859656732 -4.8833269723873246e-08 5.3221767276803055e-08 -0.00075027606906374748 -2.3147509808928034e-08 7.1589185115033615e-08 -0.000750276859656732 -5.4065310029878625e-08 9.772072326002717e-08 -0.00075027602415996583 -4.8833269723873246e-08 5.3221767276803055e-08 -0.00075027606906374748 -5.5882959898537224e-08 9.6607354968092391e-08 -0.0010003092503561906 1.9986678475334978e-09 1.1165787185637581e-07 -0.00075027967206977284 -5.4065310029878625e-08 9.772072326002717e-08 -0.00075027602415996583 -2.3147509808928034e-08 7.1589185115033615e-08 -0.000750276859656732 -5.5882959898537224e-08 9.6607354968092391e-08 -0.0010003092503561906 -5.5882959898537224e-08 9.6607354968092391e-08 -0.0010003092503561906 -2.4311754082303049e-08 7.1344841075517368e-08 -0.0010003098476221411 -4.9447114687773081e-08 5.2943463887199308e-08 -0.0010003092834992081 -4.8833269723873246e-08 5.3221767276803055e-08 -0.00075027606906374748 -2.3147509808928034e-08 7.1589185115033615e-08 -0.000750276859656732 -5.5882959898537224e-08 9.6607354968092391e-08 -0.0010003092503561906 -4.8833269723873246e-08 5.3221767276803055e-08 -0.00075027606906374748 -2.4311754082303049e-08 7.1344841075517368e-08 -0.0010003098476221411 -5.4065310029878625e-08 9.772072326002717e-08 -0.00075027602415996583 -9.6696797499396888e-08 5.5736871945218843e-08 -0.0010003096817053723 -4.8833269723873246e-08 5.3221767276803055e-08 -0.00075027606906374748 -5.5882959898537224e-08 9.6607354968092391e-08 -0.0010003092503561906 -9.6696797499396902e-08 5.5736871945218836e-08 -0.0010003096817053723 -5.5882959898537224e-08 9.6607354968092391e-08 -0.0010003092503561906 -4.9447114687773081e-08 5.2943463887199308e-08 -0.0010003092834992081 -4.8833269723873246e-08 5.3221767276803055e-08 -0.00075027606906374748 -5.4065310029878625e-08 9.772072326002717e-08 -0.00075027602415996583 -9.574581488242908e-08 5.746873871844191e-08 -0.00075027817874583622 -4.8833269723873246e-08 5.3221767276803055e-08 -0.00075027606906374748 -9.6696797499396902e-08 5.5736871945218836e-08 -0.0010003096817053723 -5.5882959898537224e-08 9.6607354968092391e-08 -0.0010003092503561906 -9.6696797499396902e-08 5.5736871945218836e-08 -0.0010003096817053723 -4.9447114687773081e-08 5.2943463887199308e-08 -0.0010003092834992081 -9.660038858070359e-08 5.57381266514359e-08 -0.0012503416526976321 -2.4311754082303049e-08 7.1344841075517368e-08 -0.0010003098476221411 -5.5882959898537224e-08 9.6607354968092391e-08 -0.0010003092503561906 -4.9447114687773081e-08 5.2943463887199308e-08 -0.0010003092834992081 -5.5778120885005094e-08 9.6578885199660198e-08 -0.0012503416190425439 -8.3274156885105016e-11 1.1160671369320732e-07 -0.0010003108417049732 -5.5882959898537224e-08 9.6607354968092391e-08 -0.0010003092503561906 -2.4311754082303049e-08 7.1344841075517368e-08 -0.0010003098476221411 -5.5778120885005094e-08 9.6578885199660198e-08 -0.0012503416190425439 -9.660038858070359e-08 5.57381266514359e-08 -0.0012503416526976321 -5.5778120885005094e-08 9.6578885199660198e-08 -0.0012503416190425439 -4.9312177040702294e-08 5.3049002524419023e-08 -0.0012503415330849415 -4.9447114687773081e-08 5.2943463887199308e-08 -0.0010003092834992081 -1.9839862075351267e-08 3.5895669555499463e-08 -0.0012503416891061789 -2.4218588885528938e-08 7.1442273322042677e-08 -0.0012503419513356846 -2.4311754082303049e-08 7.1344841075517368e-08 -0.0010003098476221411 -4.9447114687773081e-08 5.2943463887199308e-08 -0.0010003092834992081 -5.5882959898537224e-08 9.6607354968092391e-08 -0.0010003092503561906 -9.6600388580703577e-08 5.5738126651435907e-08 -0.0012503416526976324 -4.9447114687773081e-08 5.2943463887199308e-08 -0.0010003092834992081 -5.5778120885005094e-08 9.6578885199660198e-08 -0.0012503416190425439 -2.4311754082303049e-08 7.1344841075517368e-08 -0.0010003098476221411 -5.5778120885005094e-08 9.6578885199660198e-08 -0.0012503416190425439 -4.9447114687773081e-08 5.2943463887199308e-08 -0.0010003092834992081 -2.4218588885528941e-08 7.1442273322042677e-08 -0.0012503419513356846 -5.5778120885005094e-08 9.6578885199660198e-08 -0.0012503416190425439 -2.4218588885528941e-08 7.1442273322042677e-08 -0.0012503419513356846 -4.9312177040702294e-08 5.3049002524419023e-08 -0.0012503415330849415 -4.9447114687773081e-08 5.2943463887199308e-08 -0.0010003092834992081 -1.1152722233680895e-07 -1.8753554598284637e-11 -0.0012503415157257083 -9.660038858070359e-08 5.57381266514359e-08 -0.0012503416526976321 -5.0413716878275506e-08 5.4701187879442133e-09 -0.0012503412682324381 -5.0587421323207365e-08 5.2435073325995277e-09 -0.0010003090507763211 -9.6696797499396902e-08 5.5736871945218836e-08 -0.0010003096817053723 -1.1152722233680895e-07 -1.8753554598284637e-11 -0.0012503415157257083 -5.0587421323207365e-08 5.2435073325995277e-09 -0.0010003090507763211 -9.660038858070359e-08 5.57381266514359e-08 -0.0012503416526976321 -9.6696797499396902e-08 5.5736871945218836e-08 -0.0010003096817053723 -5.0587421323207365e-08 5.2435073325995277e-09 -0.0010003090507763211 -4.9447114687773081e-08 5.2943463887199308e-08 -0.0010003092834992081 -9.660038858070359e-08 5.57381266514359e-08 -0.0012503416526976321 -9.6696797499396902e-08 5.5736871945218836e-08 -0.0010003096817053723 -1.1160382393707633e-07 -1.0407560933374226e-10 -0.0010003098271704339 -5.0587421323207365e-08 5.2435073325995277e-09 -0.0010003090507763211 -1.1152722233680895e-07 -1.8753554598284637e-11 -0.0012503415157257083 -5.0587421323207365e-08 5.2435073325995277e-09 -0.0010003090507763211 -1.1160382393707633e-07 -1.0407560933374239e-10 -0.0010003098271704337 -6.6081770843667879e-08 -4.0498720019203158e-08 -0.0010003087200215921 -1.1152722233680895e-07 -1.8753554598284637e-11 -0.0012503415157257083 -1.1160382393707633e-07 -1.0407560933374239e-10 -0.0010003098271704337 -9.6577529566658919e-08 -5.5792134088960824e-08 -0.0012503406584137712 -6.6081770843667892e-08 -4.0498720019203164e-08 -0.0010003087200215921 -1.1152722233680895e-07 -1.8753554598284637e-11 -0.0012503415157257083 -5.0587421323207365e-08 5.2435073325995277e-09 -0.0010003090507763211 -1.1152722233680895e-07 -1.8753554598279484e-11 -0.0012503415157257083 -6.6081770843667879e-08 -4.0498720019203158e-08 -0.0010003087200215921 -5.0413716878275506e-08 5.4701187879442133e-09 -0.0012503412682324381 -1.1152722233680895e-07 -1.8753554598284637e-11 -0.0012503415157257083 -5.0413716878275506e-08 5.4701187879442133e-09 -0.0012503412682324381 -6.5894813005827698e-08 -4.0343332707382472e-08 -0.0012503408563624436 -6.6081770843667879e-08 -4.0498720019203158e-08 -0.0010003087200215921 -1.5289603739340549e-08 -5.5522733632214987e-08 -0.0010003083433924526 -5.0587421323207358e-08 5.2435073325995351e-09 -0.0010003090507763211 -6.6081770843667879e-08 -4.0498720019203158e-08 -0.0010003087200215921 -5.0413716878275499e-08 5.4701187879442133e-09 -0.0012503412682324383 -5.0587421323207365e-08 5.2435073325995277e-09 -0.0010003090507763211 -1.5289603739340549e-08 -5.5522733632214987e-08 -0.0010003083433924526 4.83469625205503e-09 1.3983878822397706e-09 -0.0010003090992639547 -5.0413716878275506e-08 5.4701187879442133e-09 -0.0012503412682324381 -5.0587421323207365e-08 5.2435073325995277e-09 -0.0010003090507763211 4.83469625205503e-09 1.3983878822397706e-09 -0.0010003090992639547 -2.0015711087118847e-08 3.5780823629411721e-08 -0.0010003094382389774 -5.0413716878275506e-08 5.4701187879442133e-09 -0.0012503412682324381 -5.0587421323207365e-08 5.2435073325995277e-09 -0.0010003090507763211 -2.0015711087118847e-08 3.5780823629411721e-08 -0.0010003094382389774 -4.9447114687773081e-08 5.2943463887199308e-08 -0.0010003092834992081 -5.0413716878275506e-08 5.4701187879442133e-09 -0.0012503412682324381 -2.0015711087118847e-08 3.5780823629411721e-08 -0.0010003094382389774 -2.4311754082303049e-08 7.1344841075517368e-08 -0.0010003098476221411 -4.9447114687773081e-08 5.2943463887199308e-08 -0.0010003092834992081 -1.9839862075351267e-08 3.5895669555499463e-08 -0.0012503416891061789 -5.0413716878275506e-08 5.4701187879442133e-09 -0.0012503412682324381 -1.9839862075351267e-08 3.5895669555499463e-08 -0.0012503416891061789 -2.0015711087118847e-08 3.5780823629411721e-08 -0.0010003094382389774 -4.9447114687773081e-08 5.2943463887199308e-08 -0.0010003092834992081 -2.4218588885528941e-08 7.1442273322042677e-08 -0.0012503419513356846 -1.9839862075351267e-08 3.5895669555499463e-08 -0.0012503416891061789 -4.9312177040702294e-08 5.3049002524419023e-08 -0.0012503415330849415 -4.9447114687773081e-08 5.2943463887199308e-08 -0.0010003092834992081 -9.660038858070359e-08 5.57381266514359e-08 -0.0012503416526976321 -5.0413716878275506e-08 5.4701187879442133e-09 -0.0012503412682324381 -5.0587421323207365e-08 5.2435073325995277e-09 -0.0010003090507763211 -4.9447114687773081e-08 5.2943463887199308e-08 -0.0010003092834992081 -1.9839862075351267e-08 3.5895669555499463e-08 -0.0012503416891061789 -5.0413716878275506e-08 5.4701187879442133e-09 -0.0012503412682324381 -4.9312177040702294e-08 5.3049002524419023e-08 -0.0012503415330849415 -4.9447114687773081e-08 5.2943463887199308e-08 -0.0010003092834992081 -5.0413716878275506e-08 5.4701187879442133e-09 -0.0012503412682324381 -9.6600388580703577e-08 5.5738126651435907e-08 -0.0012503416526976321 -4.9312177040702294e-08 5.3049002524419023e-08 -0.0012503415330849415 -4.9447114687773081e-08 5.2943463887199308e-08 -0.0010003092834992081 -2.0015711087118847e-08 3.5780823629411721e-08 -0.0010003094382389774 9.2498346577701471e-09 5.7065854782014999e-08 -0.0012503425828431654 -2.4311754082303049e-08 7.1344841075517368e-08 -0.0010003098476221409 -1.9839862075351267e-08 3.5895669555499463e-08 -0.0012503416891061789 9.2498346577701471e-09 5.7065854782014999e-08 -0.0012503425828431654 5.0744035432366612e-09 1.5911412263406448e-09 -0.0012503414581541709 -1.9839862075351267e-08 3.5895669555499463e-08 -0.0012503416891061789 -2.0015711087118847e-08 3.5780823629411721e-08 -0.0010003094382389774 5.0744035432366612e-09 1.5911412263406448e-09 -0.0012503414581541709 -5.0413716878275506e-08 5.4701187879442133e-09 -0.0012503412682324381 -1.9839862075351267e-08 3.5895669555499463e-08 -0.0012503416891061789 -2.0015711087118847e-08 3.5780823629411721e-08 -0.0010003094382389774 5.0744035432366612e-09 1.5911412263406448e-09 -0.0012503414581541709 9.2498346577701371e-09 5.7065854782015005e-08 -0.0012503425828431654 9.2259396508892415e-09 5.6956805689307014e-08 -0.0010003108269554869 -2.0015711087118876e-08 3.5780823629411721e-08 -0.0010003094382389774 -1.4921131796352981e-08 -5.5358332317090825e-08 -0.0012503407008390515 -5.0413716878275506e-08 5.4701187879442133e-09 -0.0012503412682324381 5.0744035432366612e-09 1.5911412263406448e-09 -0.0012503414581541709 4.83469625205503e-09 1.3983878822397706e-09 -0.0010003090992639547 -5.0413716878275506e-08 5.4701187879442133e-09 -0.0012503412682324381 5.0744035432366612e-09 1.5911412263406448e-09 -0.0012503414581541709 4.8346962520550292e-09 1.3983878822397435e-09 -0.0010003090992639547 -2.0015711087118847e-08 3.5780823629411721e-08 -0.0010003094382389774 4.83469625205503e-09 1.3983878822397706e-09 -0.0010003090992639547 -1.4921131796352985e-08 -5.5358332317090812e-08 -0.0012503407008390515 2.1349674365473516e-08 -3.655268624519638e-08 -0.001000308699402495 5.0744035432366612e-09 1.5911412263406448e-09 -0.0012503414581541709 -5.0413716878275506e-08 5.4701187879442133e-09 -0.0012503412682324381 -1.4921131796352981e-08 -5.5358332317090825e-08 -0.0012503407008390515 -1.5289603739340579e-08 -5.5522733632215007e-08 -0.0010003083433924524 4.8346962520550466e-09 1.3983878822397799e-09 -0.0010003090992639547 5.0744035432366612e-09 1.5911412263406448e-09 -0.0012503414581541709 5.3729578123783863e-08 -2.0307142134542998e-08 -0.0012503421181923441 2.1638622630627336e-08 -3.6329536602459899e-08 -0.001250341184636349 2.1349674365473516e-08 -3.655268624519638e-08 -0.001000308699402495 5.3729578123783863e-08 -2.0307142134542998e-08 -0.0012503421181923441 5.0744035432366612e-09 1.5911412263406448e-09 -0.0012503414581541709 4.8346962520550143e-09 1.3983878822397425e-09 -0.0010003090992639547 2.1349674365473516e-08 -3.655268624519638e-08 -0.001000308699402495 4.83469625205503e-09 1.3983878822397706e-09 -0.0010003090992639547 5.372957812378385e-08 -2.0307142134542971e-08 -0.0012503421181923444 5.5597146756260475e-08 3.1824236939638136e-08 -0.001000312185814665 5.0744035432366612e-09 1.5911412263406448e-09 -0.0012503414581541709 5.3729578123783863e-08 -2.0307142134542998e-08 -0.0012503421181923441 5.0744035432366612e-09 1.5911412263406448e-09 -0.0012503414581541709 5.5743474362313741e-08 3.2033117032137304e-08 -0.001250343553629351 5.5597146756260475e-08 3.1824236939638136e-08 -0.001000312185814665 9.2498346577701471e-09 5.7065854782014999e-08 -0.0012503425828431654 5.5736461503530113e-08 9.6604554413053996e-08 -0.0012503443488546566 5.5743474362313741e-08 3.2033117032137304e-08 -0.001250343553629351 5.5597146756260475e-08 3.1824236939638136e-08 -0.001000312185814665 9.22593965088921e-09 5.6956805689307014e-08 -0.0010003108269554866 5.0744035432366612e-09 1.5911412263406448e-09 -0.0012503414581541709 5.5597146756260475e-08 3.1824236939638136e-08 -0.001000312185814665 9.2498346577701471e-09 5.7065854782014999e-08 -0.0012503425828431654 5.0744035432366612e-09 1.5911412263406448e-09 -0.0012503414581541709 9.2498346577701471e-09 5.7065854782014999e-08 -0.0012503425828431654 5.5743474362313735e-08 3.2033117032137304e-08 -0.0012503435536293508 5.5597146756260475e-08 3.1824236939638136e-08 -0.001000312185814665 9.22593965088921e-09 5.6956805689307014e-08 -0.0010003108269554866 4.83469625205503e-09 1.3983878822397706e-09 -0.0010003090992639547 5.5597146756260475e-08 3.1824236939638136e-08 -0.001000312185814665 5.0744035432366612e-09 1.5911412263406448e-09 -0.0012503414581541709 4.83469625205503e-09 1.3983878822397706e-09 -0.0010003090992639547 5.3548642355184027e-08 -2.0498595195354465e-08 -0.0010003100243020922 5.5597146756260475e-08 3.1824236939638136e-08 -0.001000312185814665 5.3729578123783856e-08 -2.0307142134542998e-08 -0.0012503421181923441 5.3548642355184027e-08 -2.0498595195354465e-08 -0.0010003100243020922 4.83469625205503e-09 1.3983878822397706e-09 -0.0010003090992639547 2.1349674365473516e-08 -3.655268624519638e-08 -0.001000308699402495 5.3729578123783863e-08 -2.0307142134542998e-08 -0.0012503421181923441 -2.0015711087118847e-08 3.5780823629411721e-08 -0.0010003094382389774 9.22593965088921e-09 5.6956805689307014e-08 -0.0010003108269554866 -2.4311754082303049e-08 7.1344841075517368e-08 -0.0010003098476221411 9.2498346577701471e-09 5.7065854782014999e-08 -0.0012503425828431654 4.83469625205503e-09 1.3983878822397706e-09 -0.0010003090992639547 9.2259396508892001e-09 5.6956805689307021e-08 -0.0010003108269554864 -2.0015711087118847e-08 3.5780823629411721e-08 -0.0010003094382389774 5.0744035432366612e-09 1.5911412263406448e-09 -0.0012503414581541709 4.83469625205503e-09 1.3983878822397706e-09 -0.0010003090992639547 9.2259396508892018e-09 5.6956805689307021e-08 -0.0010003108269554866 1.0863505106190502e-08 5.7025658322607653e-08 -0.00075027893609819099 -1.9288400798381968e-08 3.6138372365559173e-08 -0.00075027603314513575 4.9011464285923994e-09 1.8453467573808264e-09 -0.00075027577486463579 1.0863505106190461e-08 5.7025658322607666e-08 -0.00075027893609819088 -1.9288400798381938e-08 3.6138372365559173e-08 -0.00075027603314513564 4.83469625205503e-09 1.3983878822397706e-09 -0.0010003090992639547 -1.9288400798381938e-08 3.6138372365559173e-08 -0.00075027603314513564 1.0863505106190469e-08 5.7025658322607659e-08 -0.00075027893609819088 -2.3147509808928034e-08 7.1589185115033615e-08 -0.000750276859656732 9.22593965088921e-09 5.6956805689307014e-08 -0.0010003108269554866 4.83469625205503e-09 1.3983878822397706e-09 -0.0010003090992639547 -5.0587421323207365e-08 5.2435073325995277e-09 -0.0010003090507763211 -2.0015711087118847e-08 3.5780823629411721e-08 -0.0010003094382389774 -1.9288400798381938e-08 3.6138372365559173e-08 -0.00075027603314513564 -1.9288400798381938e-08 3.6138372365559173e-08 -0.00075027603314513564 9.22593965088921e-09 5.6956805689307014e-08 -0.0010003108269554866 -2.3147509808928034e-08 7.1589185115033615e-08 -0.000750276859656732 -2.0015711087118847e-08 3.5780823629411721e-08 -0.0010003094382389774 9.22593965088921e-09 5.6956805689307014e-08 -0.0010003108269554866 4.83469625205503e-09 1.3983878822397706e-09 -0.0010003090992639547 -2.0015711087118847e-08 3.5780823629411721e-08 -0.0010003094382389774 -1.9288400798381938e-08 3.6138372365559173e-08 -0.00075027603314513564 4.9011464285923994e-09 1.8453467573808264e-09 -0.00075027577486463579 -1.5289603739340552e-08 -5.5522733632214974e-08 -0.0010003083433924524 2.097271000434181e-08 -3.6314800510212308e-08 -0.00075027485815415428 4.83469625205503e-09 1.3983878822397706e-09 -0.0010003090992639547 -5.0587421323207365e-08 5.2435073325995277e-09 -0.0010003090507763211 -1.5289603739340549e-08 -5.5522733632214987e-08 -0.0010003083433924526 -1.6517860184010918e-08 -5.5258302723271568e-08 -0.0007502752832760464 4.9011464285924159e-09 1.8453467573808359e-09 -0.00075027577486463579 -1.5289603739340549e-08 -5.5522733632214987e-08 -0.0010003083433924526 -5.0587421323207365e-08 5.2435073325995277e-09 -0.0010003090507763211 4.83469625205503e-09 1.3983878822397706e-09 -0.0010003090992639547 4.9011464285923994e-09 1.8453467573808264e-09 -0.00075027577486463579 -5.0587421323207365e-08 5.2435073325995277e-09 -0.0010003090507763211 4.83469625205503e-09 1.3983878822397706e-09 -0.0010003090992639547 4.9011464285923977e-09 1.8453467573807993e-09 -0.00075027577486463579 -1.9288400798381938e-08 3.6138372365559173e-08 -0.00075027603314513564 5.3548642355184027e-08 -2.0498595195354465e-08 -0.0010003100243020922 4.83469625205503e-09 1.3983878822397706e-09 -0.0010003090992639547 4.9011464285923828e-09 1.8453467573807976e-09 -0.0007502757748646359 2.097271000434181e-08 -3.6314800510212308e-08 -0.00075027485815415428 5.3660213017955918e-08 -1.9717044522946728e-08 -0.00075027714288925418 4.9011464285923994e-09 1.8453467573808264e-09 -0.00075027577486463579 2.097271000434181e-08 -3.6314800510212308e-08 -0.00075027485815415428 5.3548642355184027e-08 -2.0498595195354465e-08 -0.0010003100243020922 4.83469625205503e-09 1.3983878822397706e-09 -0.0010003090992639547 5.3548642355184027e-08 -2.0498595195354465e-08 -0.0010003100243020922 2.1349674365473516e-08 -3.655268624519638e-08 -0.001000308699402495 2.097271000434181e-08 -3.6314800510212308e-08 -0.00075027485815415428 4.9011464285923994e-09 1.8453467573808264e-09 -0.00075027577486463579 5.3548642355184013e-08 -2.0498595195354438e-08 -0.0010003100243020919 5.6590588046365069e-08 3.2005912142872204e-08 -0.0007502821285173438 4.83469625205503e-09 1.3983878822397706e-09 -0.0010003090992639547 4.9011464285923994e-09 1.8453467573808264e-09 -0.00075027577486463579 5.3660213017955918e-08 -1.9717044522946728e-08 -0.00075027714288925418 5.6590588046365069e-08 3.2005912142872204e-08 -0.0007502821285173438 5.354864235518402e-08 -2.0498595195354465e-08 -0.0010003100243020922 5.3548642355184027e-08 -2.0498595195354465e-08 -0.0010003100243020922 4.83469625205503e-09 1.3983878822397706e-09 -0.0010003090992639547 5.5597146756260475e-08 3.1824236939638136e-08 -0.001000312185814665 5.6590588046365069e-08 3.2005912142872204e-08 -0.0007502821285173438 9.22593965088921e-09 5.6956805689307014e-08 -0.0010003108269554866 5.5759013657087917e-08 9.6692467866600973e-08 -0.001000313434773041 5.5597146756260475e-08 3.1824236939638136e-08 -0.001000312185814665 5.6590588046365069e-08 3.2005912142872204e-08 -0.0007502821285173438 1.0863505106190469e-08 5.7025658322607659e-08 -0.00075027893609819088 4.83469625205503e-09 1.3983878822397706e-09 -0.0010003090992639547 5.6590588046365069e-08 3.2005912142872204e-08 -0.0007502821285173438 9.22593965088921e-09 5.6956805689307014e-08 -0.0010003108269554866 1.0863505106190469e-08 5.7025658322607659e-08 -0.00075027893609819088 4.9011464285923994e-09 1.8453467573808264e-09 -0.00075027577486463579 5.6590588046365069e-08 3.2005912142872204e-08 -0.0007502821285173438 4.83469625205503e-09 1.3983878822397706e-09 -0.0010003090992639547 4.83469625205503e-09 1.3983878822397706e-09 -0.0010003090992639547 9.22593965088921e-09 5.6956805689307014e-08 -0.0010003108269554866 5.5597146756260468e-08 3.1824236939638136e-08 -0.0010003121858146648 5.6590588046365069e-08 3.2005912142872204e-08 -0.0007502821285173438 1.2954418947922064e-08 5.6984947566847376e-08 -0.00050024587829832043 4.9011464285923994e-09 1.8453467573808264e-09 -0.00075027577486463579 5.724676901995362e-08 3.4703900549828388e-08 -0.00050025572597947848 1.0863505106190469e-08 5.7025658322607659e-08 -0.00075027893609819088 1.0863505106190469e-08 5.7025658322607659e-08 -0.00075027893609819088 5.7208156994167595e-08 9.5797191686454002e-08 -0.00075028561194397786 5.6590588046365069e-08 3.2005912142872204e-08 -0.0007502821285173438 5.724676901995362e-08 3.4703900549828388e-08 -0.00050025572597947848 4.9011464285923994e-09 1.8453467573808264e-09 -0.00075027577486463579 1.0863505106190469e-08 5.7025658322607659e-08 -0.00075027893609819088 5.6590588046365063e-08 3.2005912142872211e-08 -0.0007502821285173437 5.724676901995362e-08 3.4703900549828388e-08 -0.00050025572597947848 5.3660213017955918e-08 -1.9717044522946728e-08 -0.00075027714288925418 4.9011464285923994e-09 1.8453467573808264e-09 -0.00075027577486463579 5.2838649430699713e-09 3.3952950038183175e-09 -0.00050024016759117813 2.1894845578845086e-08 -3.3949311675840281e-08 -0.00050023619295789645 4.9011464285923994e-09 1.8453467573808264e-09 -0.00075027577486463579 5.3660213017955918e-08 -1.9717044522946728e-08 -0.00075027714288925418 2.097271000434181e-08 -3.6314800510212308e-08 -0.00075027485815415428 2.1894845578845086e-08 -3.3949311675840281e-08 -0.00050023619295789645 5.283864943069987e-09 3.3952950038183456e-09 -0.00050024016759117813 5.3660213017955905e-08 -1.9717044522946701e-08 -0.00075027714288925429 5.724676901995362e-08 3.4703900549828388e-08 -0.00050025572597947848 4.9011464285923994e-09 1.8453467573808264e-09 -0.00075027577486463579 5.3660213017955918e-08 -1.9717044522946728e-08 -0.00075027714288925418 4.9011464285923994e-09 1.8453467573808264e-09 -0.00075027577486463579 5.6590588046365069e-08 3.2005912142872204e-08 -0.0007502821285173438 5.724676901995362e-08 3.4703900549828388e-08 -0.00050025572597947848 -5.0696960380612575e-08 5.2372884535975393e-09 -0.00075027633708766553 4.9011464285923994e-09 1.8453467573808264e-09 -0.00075027577486463579 5.283864943069987e-09 3.3952950038183196e-09 -0.00050024016759117813 -1.984167417996397e-08 3.618464942267179e-08 -0.0005002385514442187 -1.6517860184010884e-08 -5.5258302723271548e-08 -0.00075027528327604651 -5.0696960380612575e-08 5.2372884535975393e-09 -0.00075027633708766553 4.9011464285923994e-09 1.8453467573808264e-09 -0.00075027577486463579 5.283864943069987e-09 3.3952950038183456e-09 -0.00050024016759117813 -5.0696960380612575e-08 5.2372884535975393e-09 -0.00075027633708766553 -1.6517860184010884e-08 -5.5258302723271548e-08 -0.00075027528327604651 -1.7767771577728507e-08 -5.570410889856515e-08 -0.00050024072486096508 5.2838649430700044e-09 3.395295003818356e-09 -0.00050024016759117813 5.283864943069987e-09 3.3952950038183456e-09 -0.00050024016759117813 -1.6517860184010888e-08 -5.5258302723271542e-08 -0.00075027528327604651 2.1894845578845086e-08 -3.3949311675840281e-08 -0.00050023619295789645 4.9011464285923994e-09 1.8453467573808264e-09 -0.00075027577486463579 -1.984167417996397e-08 3.618464942267179e-08 -0.0005002385514442187 1.0863505106190469e-08 5.7025658322607659e-08 -0.00075027893609819088 -2.5388025829944997e-08 6.9262899317740317e-08 -0.00050024057870215661 -1.9288400798381938e-08 3.6138372365559173e-08 -0.00075027603314513564 4.9011464285923994e-09 1.8453467573808264e-09 -0.00075027577486463579 -5.0696960380612575e-08 5.2372884535975393e-09 -0.00075027633708766553 -1.9288400798381938e-08 3.6138372365559173e-08 -0.00075027603314513564 -1.984167417996397e-08 3.618464942267179e-08 -0.0005002385514442187 4.9011464285923994e-09 1.8453467573808264e-09 -0.00075027577486463579 1.0863505106190459e-08 5.7025658322607666e-08 -0.00075027893609819088 1.2954418947922101e-08 5.6984947566847376e-08 -0.00050024587829832054 -1.9841674179964007e-08 3.618464942267179e-08 -0.00050023855144421881 1.0863505106190469e-08 5.7025658322607659e-08 -0.00075027893609819088 4.9011464285923994e-09 1.8453467573808264e-09 -0.00075027577486463579 -1.9288400798381938e-08 3.6138372365559173e-08 -0.00075027603314513564 -1.984167417996397e-08 3.618464942267179e-08 -0.0005002385514442187 -5.0696960380612575e-08 5.2372884535975393e-09 -0.00075027633708766553 -9.5745814882429067e-08 5.7468738718441917e-08 -0.00075027817874583622 -4.8833269723873246e-08 5.3221767276803055e-08 -0.00075027606906374748 -5.1292106919948099e-08 5.0051992060102726e-08 -0.00050023974058974803 -2.3147509808928034e-08 7.1589185115033615e-08 -0.000750276859656732 -1.9288400798381938e-08 3.6138372365559173e-08 -0.00075027603314513564 -4.8833269723873246e-08 5.3221767276803055e-08 -0.00075027606906374748 -5.1292106919948099e-08 5.0051992060102726e-08 -0.00050023974058974803 -9.574581488242908e-08 5.746873871844191e-08 -0.00075027817874583622 -5.0696960380612575e-08 5.2372884535975393e-09 -0.00075027633708766553 -5.0937521584276404e-08 3.03010233438177e-09 -0.00050024263110856593 -5.1292106919948099e-08 5.0051992060102726e-08 -0.00050023974058974803 -5.0696960380612575e-08 5.2372884535975393e-09 -0.00075027633708766553 -1.9288400798381938e-08 3.6138372365559173e-08 -0.00075027603314513564 -1.984167417996397e-08 3.618464942267179e-08 -0.0005002385514442187 -5.1292106919948099e-08 5.0051992060102726e-08 -0.00050023974058974803 -1.9288400798381938e-08 3.6138372365559173e-08 -0.00075027603314513564 -5.0696960380612575e-08 5.2372884535975393e-09 -0.00075027633708766553 -4.8833269723873246e-08 5.3221767276803055e-08 -0.00075027606906374748 -5.1292106919948099e-08 5.0051992060102726e-08 -0.00050023974058974803 -1.1167816605924169e-07 1.9371164210082403e-09 -0.00075027944562966898 -9.574581488242908e-08 5.746873871844191e-08 -0.00075027817874583622 -5.0696960380612575e-08 5.2372884535975393e-09 -0.00075027633708766553 -5.0937521584276404e-08 3.03010233438177e-09 -0.00050024263110856593 -1.0132644681111021e-07 4.3164076152840617e-08 -0.00050024812932671916 -1.1167816605924169e-07 1.9371164210082403e-09 -0.00075027944562966898 -5.0937521584276404e-08 3.03010233438177e-09 -0.00050024263110856593 -9.574581488242908e-08 5.746873871844191e-08 -0.00075027817874583622 -1.1160382393707633e-07 -1.0407560933374239e-10 -0.0010003098271704337 -9.6696797499396902e-08 5.5736871945218836e-08 -0.0010003096817053723 -5.0587421323207365e-08 5.2435073325995277e-09 -0.0010003090507763211 -5.0696960380612575e-08 5.2372884535975393e-09 -0.00075027633708766553 -9.574581488242908e-08 5.746873871844191e-08 -0.00075027817874583622 -5.0696960380612575e-08 5.2372884535975393e-09 -0.00075027633708766553 -4.8833269723873246e-08 5.3221767276803055e-08 -0.00075027606906374748 -9.6696797499396902e-08 5.5736871945218836e-08 -0.0010003096817053723 -9.574581488242908e-08 5.746873871844191e-08 -0.00075027817874583622 -1.1167816605924169e-07 1.9371164210082403e-09 -0.00075027944562966898 -5.0696960380612575e-08 5.2372884535975393e-09 -0.00075027633708766553 -1.1160382393707633e-07 -1.0407560933374239e-10 -0.0010003098271704337 -9.574581488242908e-08 5.746873871844191e-08 -0.00075027817874583622 -1.1160382393707633e-07 -1.0407560933374239e-10 -0.0010003098271704337 -5.0696960380612575e-08 5.2372884535975393e-09 -0.00075027633708766553 -9.6696797499396902e-08 5.5736871945218836e-08 -0.0010003096817053723 -2.4311754082303049e-08 7.1344841075517368e-08 -0.0010003098476221411 -2.0015711087118847e-08 3.5780823629411721e-08 -0.0010003094382389774 -4.9447114687773081e-08 5.2943463887199308e-08 -0.0010003092834992081 -4.8833269723873246e-08 5.3221767276803055e-08 -0.00075027606906374748 -5.0587421323207365e-08 5.2435073325995277e-09 -0.0010003090507763211 -9.6696797499396888e-08 5.5736871945218843e-08 -0.0010003096817053723 -4.9447114687773081e-08 5.2943463887199308e-08 -0.0010003092834992081 -4.8833269723873246e-08 5.3221767276803055e-08 -0.00075027606906374748 -1.9288400798381938e-08 3.6138372365559173e-08 -0.00075027603314513564 -2.3147509808928034e-08 7.1589185115033615e-08 -0.00075027685965673211 -4.8833269723873246e-08 5.3221767276803055e-08 -0.00075027606906374748 -2.0015711087118847e-08 3.5780823629411721e-08 -0.0010003094382389774 -2.0015711087118847e-08 3.5780823629411721e-08 -0.0010003094382389774 -5.0587421323207365e-08 5.2435073325995277e-09 -0.0010003090507763211 -4.9447114687773081e-08 5.2943463887199308e-08 -0.0010003092834992081 -4.8833269723873246e-08 5.3221767276803055e-08 -0.00075027606906374748 -5.0696960380612575e-08 5.2372884535975393e-09 -0.00075027633708766553 -1.9288400798381938e-08 3.6138372365559173e-08 -0.00075027603314513564 -4.8833269723873246e-08 5.3221767276803055e-08 -0.00075027606906374748 -5.0587421323207365e-08 5.2435073325995277e-09 -0.0010003090507763211 -5.0587421323207365e-08 5.2435073325995277e-09 -0.0010003090507763211 -2.0015711087118847e-08 3.5780823629411721e-08 -0.0010003094382389774 -1.9288400798381938e-08 3.6138372365559173e-08 -0.00075027603314513564 -4.8833269723873246e-08 5.3221767276803055e-08 -0.00075027606906374748 -9.6696797499396902e-08 5.5736871945218836e-08 -0.0010003096817053723 -5.0587421323207365e-08 5.2435073325995277e-09 -0.0010003090507763211 -5.0696960380612575e-08 5.2372884535975393e-09 -0.00075027633708766553 -4.8833269723873246e-08 5.3221767276803055e-08 -0.00075027606906374748 -5.0696960380612575e-08 5.2372884535975393e-09 -0.00075027633708766553 -1.6517860184010884e-08 -5.5258302723271548e-08 -0.00075027528327604651 4.9011464285923994e-09 1.8453467573808264e-09 -0.00075027577486463579 -5.0587421323207365e-08 5.2435073325995277e-09 -0.0010003090507763211 -5.0696960380612575e-08 5.2372884535975393e-09 -0.00075027633708766553 4.9011464285923994e-09 1.8453467573808264e-09 -0.00075027577486463579 -1.9288400798381938e-08 3.6138372365559173e-08 -0.00075027603314513564 -5.0587421323207365e-08 5.2435073325995277e-09 -0.0010003090507763211 -1.6517860184010884e-08 -5.5258302723271548e-08 -0.00075027528327604651 -5.0696960380612568e-08 5.2372884535975468e-09 -0.00075027633708766564 -6.6853837374368156e-08 -4.0019456867116174e-08 -0.00075027668809741978 -5.0587421323207358e-08 5.2435073325995277e-09 -0.0010003090507763211 -1.1167816605924169e-07 1.9371164210082403e-09 -0.00075027944562966898 -9.6580250495125753e-08 -5.5895439499354221e-08 -0.001000308509102456 -6.685383737436817e-08 -4.001945686711618e-08 -0.00075027668809741978 -1.1160382393707633e-07 -1.0407560933374239e-10 -0.0010003098271704337 -1.1160382393707633e-07 -1.0407560933374239e-10 -0.0010003098271704337 -5.0587421323207365e-08 5.2435073325995277e-09 -0.0010003090507763211 -6.6081770843667879e-08 -4.0498720019203158e-08 -0.0010003087200215921 -6.6853837374368156e-08 -4.0019456867116174e-08 -0.00075027668809741978 -5.0696960380612575e-08 5.2372884535975393e-09 -0.00075027633708766553 -1.1167816605924169e-07 1.9371164210082403e-09 -0.00075027944562966898 -6.6853837374368156e-08 -4.0019456867116174e-08 -0.00075027668809741978 -1.1160382393707633e-07 -1.0407560933374239e-10 -0.0010003098271704337 -5.0696960380612575e-08 5.2372884535975393e-09 -0.00075027633708766553 -1.1160382393707633e-07 -1.0407560933373728e-10 -0.0010003098271704339 -6.6853837374368156e-08 -4.0019456867116174e-08 -0.00075027668809741978 -5.0587421323207365e-08 5.2435073325995277e-09 -0.0010003090507763211 -1.0916643658450626e-07 -1.3238743748788671e-08 -0.00050025382444083297 -9.7769776567748744e-08 -5.4078812209718056e-08 -0.00075027635761764971 -6.5686352992899488e-08 -4.3495188310177682e-08 -0.00050024544384603541 -1.1167816605924169e-07 1.9371164210082403e-09 -0.00075027944562966898 -5.0937521584276404e-08 3.03010233438177e-09 -0.00050024263110856593 -1.1167816605924169e-07 1.9371164210082457e-09 -0.00075027944562966898 -6.5686352992899475e-08 -4.3495188310177675e-08 -0.00050024544384603541 -5.0696960380612575e-08 5.2372884535975393e-09 -0.00075027633708766553 -1.1167816605924169e-07 1.9371164210082403e-09 -0.00075027944562966898 -5.0696960380612575e-08 5.2372884535975393e-09 -0.00075027633708766553 -6.6853837374368156e-08 -4.0019456867116174e-08 -0.00075027668809741978 -6.5686352992899475e-08 -4.3495188310177675e-08 -0.00050024544384603541 -1.7767771577728474e-08 -5.570410889856513e-08 -0.00050024072486096519 -5.0696960380612575e-08 5.2372884535975625e-09 -0.00075027633708766553 -6.5686352992899475e-08 -4.3495188310177675e-08 -0.00050024544384603541 -1.6517860184010884e-08 -5.5258302723271548e-08 -0.00075027528327604651 -5.0696960380612575e-08 5.2372884535975393e-09 -0.00075027633708766553 -1.6517860184010884e-08 -5.5258302723271548e-08 -0.00075027528327604651 -6.6853837374368156e-08 -4.0019456867116174e-08 -0.00075027668809741978 -6.5686352992899475e-08 -4.3495188310177675e-08 -0.00050024544384603541 -5.716956845927922e-08 -9.5809128041637356e-08 -0.00075027794126433062 -1.6517860184010884e-08 -5.5258302723271555e-08 -0.00075027528327604651 -1.7767771577728474e-08 -5.570410889856513e-08 -0.00050024072486096519 -6.5686352992899475e-08 -4.3495188310177675e-08 -0.00050024544384603541 -1.6517860184010884e-08 -5.5258302723271548e-08 -0.00075027528327604651 -5.7169568459279227e-08 -9.5809128041637356e-08 -0.00075027794126433062 -6.6853837374368156e-08 -4.0019456867116167e-08 -0.00075027668809741967 -6.5686352992899475e-08 -4.3495188310177675e-08 -0.00050024544384603541 -5.716956845927922e-08 -9.5809128041637356e-08 -0.00075027794126433062 -9.7769776567748783e-08 -5.4078812209718095e-08 -0.0007502763576176496 -6.6853837374368156e-08 -4.0019456867116174e-08 -0.00075027668809741978 -6.5686352992899475e-08 -4.3495188310177675e-08 -0.00050024544384603541 -9.7769776567748783e-08 -5.4078812209718095e-08 -0.0007502763576176496 -1.1167816605924169e-07 1.9371164210082407e-09 -0.00075027944562966898 -6.6853837374368156e-08 -4.0019456867116174e-08 -0.00075027668809741978 -6.5686352992899475e-08 -4.3495188310177675e-08 -0.00050024544384603541 -8.7987181021583723e-08 -6.6310360058656964e-08 -0.00050024670073543483 -5.7169568459279213e-08 -9.5809128041637369e-08 -0.00075027794126433062 -6.5686352992899475e-08 -4.3495188310177675e-08 -0.00050024544384603541 -9.7769776567748783e-08 -5.4078812209718095e-08 -0.0007502763576176496 -9.7769776567748783e-08 -5.4078812209718095e-08 -0.0007502763576176496 -5.5764131941675791e-08 -9.6693066403755267e-08 -0.0010003088704971582 -6.6853837374368156e-08 -4.0019456867116174e-08 -0.00075027668809741978 -9.6580250495125793e-08 -5.5895439499354241e-08 -0.0010003085091024558 -1.1167816605924169e-07 1.9371164210082403e-09 -0.00075027944562966898 -9.7769776567748783e-08 -5.4078812209718095e-08 -0.0007502763576176496 -6.6853837374368156e-08 -4.0019456867116174e-08 -0.00075027668809741978 -9.6580250495125793e-08 -5.5895439499354241e-08 -0.0010003085091024558 -9.6580250495125793e-08 -5.5895439499354241e-08 -0.0010003085091024558 -1.1160382393707633e-07 -1.0407560933374164e-10 -0.0010003098271704337 -6.6081770843667879e-08 -4.0498720019203158e-08 -0.0010003087200215921 -6.6853837374368156e-08 -4.0019456867116174e-08 -0.00075027668809741978 -5.5764131941675797e-08 -9.669306640375524e-08 -0.0010003088704971584 -9.6580250495125793e-08 -5.5895439499354241e-08 -0.0010003085091024558 -6.6081770843667879e-08 -4.0498720019203158e-08 -0.0010003087200215921 -6.6853837374368156e-08 -4.0019456867116174e-08 -0.00075027668809741978 -1.5289603739340549e-08 -5.5522733632214987e-08 -0.0010003083433924526 -5.5764131941675804e-08 -9.669306640375524e-08 -0.0010003088704971584 -6.6081770843667879e-08 -4.0498720019203151e-08 -0.0010003087200215919 -6.6853837374368156e-08 -4.0019456867116174e-08 -0.00075027668809741978 -5.0587421323207365e-08 5.2435073325995277e-09 -0.0010003090507763211 -1.5289603739340549e-08 -5.5522733632214987e-08 -0.0010003083433924526 -6.6081770843667879e-08 -4.0498720019203158e-08 -0.0010003087200215921 -6.6853837374368156e-08 -4.0019456867116174e-08 -0.00075027668809741978 -5.5764131941675797e-08 -9.669306640375524e-08 -0.0010003088704971584 -1.5289603739340549e-08 -5.5522733632214994e-08 -0.0010003083433924528 -1.6517860184010884e-08 -5.5258302723271548e-08 -0.00075027528327604651 -6.6853837374368156e-08 -4.0019456867116174e-08 -0.00075027668809741978 -1.6517860184010884e-08 -5.5258302723271548e-08 -0.00075027528327604651 -5.0587421323207365e-08 5.2435073325995492e-09 -0.0010003090507763211 -6.6853837374368156e-08 -4.0019456867116174e-08 -0.00075027668809741978 -1.5289603739340549e-08 -5.5522733632214987e-08 -0.0010003083433924526 -5.716956845927922e-08 -9.5809128041637356e-08 -0.00075027794126433062 -1.6517860184010884e-08 -5.5258302723271548e-08 -0.00075027528327604651 -6.6853837374368156e-08 -4.0019456867116174e-08 -0.00075027668809741978 -5.5764131941675797e-08 -9.669306640375524e-08 -0.0010003088704971584 -9.7769776567748783e-08 -5.4078812209718095e-08 -0.0007502763576176496 -5.716956845927922e-08 -9.5809128041637356e-08 -0.00075027794126433062 -6.6853837374368156e-08 -4.0019456867116174e-08 -0.00075027668809741978 -5.5764131941675797e-08 -9.669306640375524e-08 -0.0010003088704971584 -5.716956845927922e-08 -9.5809128041637356e-08 -0.00075027794126433062 8.8384072073029548e-11 -1.1160834157301305e-07 -0.0010003079305438639 -1.6517860184010884e-08 -5.5258302723271548e-08 -0.00075027528327604651 -5.5764131941675797e-08 -9.669306640375524e-08 -0.0010003088704971584 -4.4958685747974252e-08 -1.0091890762127116e-07 -0.00050025142003773859 -1.9358016823189652e-09 -1.1165216154499057e-07 -0.00075027477368509547 -1.7767771577728474e-08 -5.570410889856513e-08 -0.00050024072486096519 -5.716956845927922e-08 -9.5809128041637356e-08 -0.00075027794126433062 -1.7767771577728474e-08 -5.570410889856513e-08 -0.00050024072486096519 -1.9358016823189859e-09 -1.1165216154499059e-07 -0.00075027477368509547 2.1582090847379837e-08 -7.3848457539432235e-08 -0.00050023705050874351 -1.6517860184010884e-08 -5.5258302723271548e-08 -0.00075027528327604651 -1.9358016823189747e-09 -1.1165216154499057e-07 -0.00075027477368509537 -5.716956845927922e-08 -9.5809128041637343e-08 -0.00075027794126433062 -1.6517860184010884e-08 -5.5258302723271548e-08 -0.00075027528327604651 -1.776777157772847e-08 -5.570410889856513e-08 -0.00050024072486096508 -1.9358016823189747e-09 -1.1165216154499057e-07 -0.00075027477368509537 -1.6517860184010884e-08 -5.5258302723271548e-08 -0.00075027528327604651 1.9435435021388827e-08 -7.5934527235788392e-08 -0.00075027448214387039 2.1582090847379834e-08 -7.3848457539432248e-08 -0.00050023705050874351 2.1894845578845086e-08 -3.3949311675840281e-08 -0.00050023619295789645 -1.6517860184010861e-08 -5.5258302723271542e-08 -0.00075027528327604651 2.1582090847379837e-08 -7.3848457539432248e-08 -0.00050023705050874351 1.9435435021388827e-08 -7.5934527235788392e-08 -0.00075027448214387039 -1.6517860184010884e-08 -5.5258302723271548e-08 -0.00075027528327604651 4.9011464285923994e-09 1.8453467573808264e-09 -0.00075027577486463579 2.097271000434181e-08 -3.6314800510212308e-08 -0.00075027485815415428 2.1894845578845086e-08 -3.3949311675840281e-08 -0.00050023619295789645 -1.6517860184010884e-08 -5.5258302723271548e-08 -0.00075027528327604651 2.097271000434181e-08 -3.6314800510212308e-08 -0.00075027485815415428 1.9435435021388827e-08 -7.5934527235788392e-08 -0.00075027448214387039 2.1894845578845086e-08 -3.3949311675840281e-08 -0.00050023619295789645 2.097271000434181e-08 -3.6314800510212308e-08 -0.00075027485815415428 5.3660213017955924e-08 -1.9717044522946731e-08 -0.00075027714288925418 4.9139135668468066e-08 -5.6868644747317175e-08 -0.00075027506619269933 5.1807451641904024e-08 -5.3010039916594131e-08 -0.00050023741979405689 5.3660213017955918e-08 -1.9717044522946728e-08 -0.00075027714288925418 2.0972710004341814e-08 -3.6314800510212308e-08 -0.00075027485815415418 2.1894845578845086e-08 -3.3949311675840281e-08 -0.00050023619295789645 5.1807451641904024e-08 -5.3010039916594131e-08 -0.00050023741979405689 1.9435435021388827e-08 -7.5934527235788392e-08 -0.00075027448214387039 2.097271000434181e-08 -3.6314800510212308e-08 -0.00075027485815415428 4.9139135668468066e-08 -5.6868644747317175e-08 -0.00075027506619269933 5.1807451641904024e-08 -5.3010039916594131e-08 -0.00050023741979405689 2.1894845578845086e-08 -3.3949311675840281e-08 -0.00050023619295789645 1.9435435021388827e-08 -7.5934527235788392e-08 -0.00075027448214387039 5.1807451641904024e-08 -5.3010039916594131e-08 -0.00050023741979405689 2.097271000434181e-08 -3.6314800510212308e-08 -0.00075027485815415428 1.3426481411502469e-08 -1.0928212528822598e-07 -0.00050024180898286519 5.4071381409991297e-08 -9.7714249381005876e-08 -0.00075027446938386792 2.1582090847379834e-08 -7.3848457539432248e-08 -0.00050023705050874351 -1.9358016823189747e-09 -1.1165216154499057e-07 -0.00075027477368509537 5.4071381409991284e-08 -9.7714249381005876e-08 -0.00075027446938386781 -1.9358016823189776e-09 -1.1165216154499057e-07 -0.00075027477368509537 1.9435435021388827e-08 -7.5934527235788392e-08 -0.00075027448214387039 2.1582090847379834e-08 -7.3848457539432248e-08 -0.00050023705050874351 5.4071381409991284e-08 -9.7714249381005876e-08 -0.00075027446938386781 1.9435435021388827e-08 -7.5934527235788392e-08 -0.00075027448214387039 4.9139135668468066e-08 -5.6868644747317175e-08 -0.00075027506619269933 5.1807451641904024e-08 -5.3010039916594131e-08 -0.00050023741979405689 2.1582090847379834e-08 -7.3848457539432248e-08 -0.00050023705050874351 5.4071381409991284e-08 -9.7714249381005876e-08 -0.00075027446938386781 5.1807451641904024e-08 -5.3010039916594131e-08 -0.00050023741979405689 1.9435435021388827e-08 -7.5934527235788392e-08 -0.00075027448214387039 5.5901280254125139e-08 -9.659600028792921e-08 -0.0010003082747488188 8.8384072073013573e-11 -1.1160834157301305e-07 -0.0010003079305438637 2.0284720699210031e-08 -7.6014200532540618e-08 -0.001000308180635313 1.9435435021388827e-08 -7.5934527235788392e-08 -0.00075027448214387039 1.9435435021388827e-08 -7.5934527235788392e-08 -0.00075027448214387039 5.4071381409991277e-08 -9.7714249381005889e-08 -0.00075027446938386781 4.9139135668468066e-08 -5.6868644747317175e-08 -0.00075027506619269933 5.5901280254125139e-08 -9.659600028792921e-08 -0.0010003082747488188 1.9435435021388827e-08 -7.5934527235788392e-08 -0.00075027448214387039 5.5901280254125139e-08 -9.659600028792921e-08 -0.0010003082747488188 4.9139135668468066e-08 -5.6868644747317175e-08 -0.00075027506619269944 2.0284720699210031e-08 -7.6014200532540618e-08 -0.001000308180635313 5.5901280254125139e-08 -9.659600028792921e-08 -0.0010003082747488188 2.0284720699210031e-08 -7.6014200532540618e-08 -0.001000308180635313 4.9519903590790441e-08 -5.7031958963411367e-08 -0.0010003088072657173 4.9139135668468066e-08 -5.6868644747317175e-08 -0.00075027506619269933 -1.9358016823189747e-09 -1.1165216154499057e-07 -0.00075027477368509537 5.407138140999129e-08 -9.7714249381005876e-08 -0.00075027446938386781 1.9435435021388827e-08 -7.5934527235788392e-08 -0.00075027448214387039 5.5901280254125139e-08 -9.659600028792921e-08 -0.0010003082747488188 -1.9358016823189747e-09 -1.1165216154499057e-07 -0.00075027477368509537 5.5901280254125153e-08 -9.659600028792921e-08 -0.0010003082747488188 1.9435435021388827e-08 -7.5934527235788392e-08 -0.00075027448214387039 8.838407207301683e-11 -1.1160834157301305e-07 -0.0010003079305438639 2.097271000434181e-08 -3.6314800510212308e-08 -0.00075027485815415428 2.0284720699210031e-08 -7.6014200532540618e-08 -0.001000308180635313 4.9139135668468066e-08 -5.6868644747317175e-08 -0.00075027506619269933 2.1349674365473516e-08 -3.655268624519638e-08 -0.001000308699402495 5.3548642355184027e-08 -2.0498595195354465e-08 -0.0010003100243020922 2.1349674365473519e-08 -3.655268624519638e-08 -0.0010003086994024952 2.097271000434181e-08 -3.6314800510212308e-08 -0.00075027485815415428 4.9139135668468066e-08 -5.6868644747317175e-08 -0.00075027506619269933 5.3660213017955918e-08 -1.9717044522946728e-08 -0.00075027714288925418 2.097271000434181e-08 -3.6314800510212314e-08 -0.00075027485815415428 4.9139135668468066e-08 -5.6868644747317175e-08 -0.00075027506619269933 5.3548642355184027e-08 -2.0498595195354465e-08 -0.0010003100243020922 2.1349674365473516e-08 -3.655268624519638e-08 -0.001000308699402495 5.3548642355184033e-08 -2.0498595195354468e-08 -0.0010003100243020922 4.9519903590790441e-08 -5.7031958963411367e-08 -0.0010003088072657173 4.9139135668468066e-08 -5.6868644747317175e-08 -0.00075027506619269933 2.0284720699210031e-08 -7.6014200532540618e-08 -0.001000308180635313 2.1349674365473516e-08 -3.655268624519638e-08 -0.001000308699402495 4.9519903590790441e-08 -5.7031958963411367e-08 -0.0010003088072657173 4.9139135668468066e-08 -5.6868644747317175e-08 -0.00075027506619269933 2.097271000434181e-08 -3.6314800510212308e-08 -0.00075027485815415428 1.9435435021388827e-08 -7.5934527235788392e-08 -0.00075027448214387039 4.9139135668468066e-08 -5.6868644747317175e-08 -0.00075027506619269933 2.0284720699210031e-08 -7.6014200532540618e-08 -0.001000308180635313 -1.5289603739340549e-08 -5.5522733632214987e-08 -0.0010003083433924526 4.83469625205503e-09 1.3983878822397706e-09 -0.0010003090992639547 2.1349674365473516e-08 -3.655268624519638e-08 -0.001000308699402495 2.097271000434181e-08 -3.6314800510212308e-08 -0.00075027485815415428 4.9011464285923994e-09 1.8453467573808264e-09 -0.00075027577486463579 -1.6517860184010884e-08 -5.5258302723271548e-08 -0.00075027528327604651 2.097271000434181e-08 -3.6314800510212308e-08 -0.00075027485815415428 -1.5289603739340549e-08 -5.5522733632214987e-08 -0.0010003083433924526 -1.5289603739340549e-08 -5.5522733632214987e-08 -0.0010003083433924526 2.1349674365473516e-08 -3.655268624519638e-08 -0.001000308699402495 2.0284720699210031e-08 -7.6014200532540618e-08 -0.001000308180635313 2.097271000434181e-08 -3.6314800510212308e-08 -0.00075027485815415428 2.097271000434181e-08 -3.6314800510212308e-08 -0.00075027485815415428 -1.6517860184010884e-08 -5.5258302723271548e-08 -0.00075027528327604651 1.9435435021388827e-08 -7.5934527235788392e-08 -0.00075027448214387039 -1.5289603739340549e-08 -5.5522733632214987e-08 -0.0010003083433924526 2.097271000434181e-08 -3.6314800510212308e-08 -0.00075027485815415428 -1.5289603739340522e-08 -5.552273363221498e-08 -0.0010003083433924528 1.9435435021388831e-08 -7.5934527235788392e-08 -0.00075027448214387029 2.0284720699210031e-08 -7.6014200532540618e-08 -0.001000308180635313 8.838407207301683e-11 -1.1160834157301305e-07 -0.0010003079305438639 -1.5289603739340549e-08 -5.5522733632214987e-08 -0.0010003083433924526 2.0284720699210031e-08 -7.6014200532540618e-08 -0.001000308180635313 1.9435435021388827e-08 -7.5934527235788392e-08 -0.00075027448214387039 -1.6517860184010884e-08 -5.5258302723271548e-08 -0.00075027528327604651 -1.9358016823189747e-09 -1.1165216154499057e-07 -0.00075027477368509537 1.9435435021388827e-08 -7.5934527235788392e-08 -0.00075027448214387039 8.8384072073017373e-11 -1.1160834157301305e-07 -0.0010003079305438639 -1.6517860184010884e-08 -5.5258302723271548e-08 -0.00075027528327604651 8.8384072073007925e-11 -1.1160834157301307e-07 -0.0010003079305438639 1.9435435021388827e-08 -7.5934527235788379e-08 -0.00075027448214387039 -1.5289603739340549e-08 -5.5522733632214987e-08 -0.0010003083433924526 -5.716956845927922e-08 -9.5809128041637356e-08 -0.00075027794126433062 -1.9358016823189714e-09 -1.1165216154499056e-07 -0.00075027477368509537 -1.6517860184010884e-08 -5.5258302723271548e-08 -0.00075027528327604651 8.8384072073017373e-11 -1.1160834157301305e-07 -0.0010003079305438639 8.838407207301683e-11 -1.1160834157301305e-07 -0.0010003079305438639 -5.5764131941675797e-08 -9.6693066403755227e-08 -0.0010003088704971584 -1.5289603739340549e-08 -5.5522733632214987e-08 -0.0010003083433924526 -1.6517860184010881e-08 -5.5258302723271548e-08 -0.00075027528327604651 -1.5289603739340549e-08 -5.5522733632214987e-08 -0.0010003083433924526 8.838407207301683e-11 -1.1160834157301305e-07 -0.0010003079305438639 2.0284720699210031e-08 -7.6014200532540618e-08 -0.001000308180635313 4.6936863593341384e-11 -1.11526695150983e-07 -0.0012503403611479232 -5.5764131941675797e-08 -9.669306640375524e-08 -0.0010003088704971584 8.8384072073019699e-11 -1.1160834157301303e-07 -0.0010003079305438639 -1.5289603739340549e-08 -5.5522733632214987e-08 -0.0010003083433924526 4.6936863593341384e-11 -1.11526695150983e-07 -0.0012503403611479232 2.1349674365473516e-08 -3.655268624519638e-08 -0.001000308699402495 -1.5289603739340549e-08 -5.5522733632214987e-08 -0.0010003083433924526 2.0284720699210031e-08 -7.6014200532540618e-08 -0.001000308180635313 -1.4921131796352981e-08 -5.5358332317090825e-08 -0.0012503407008390515 4.83469625205503e-09 1.3983878822397706e-09 -0.0010003090992639547 -1.5289603739340549e-08 -5.5522733632214987e-08 -0.0010003083433924526 2.1349674365473516e-08 -3.655268624519638e-08 -0.001000308699402495 -1.4921131796352981e-08 -5.5358332317090825e-08 -0.0012503407008390515 5.3548642355184027e-08 -2.0498595195354465e-08 -0.0010003100243020922 2.1349674365473516e-08 -3.6552686245196387e-08 -0.001000308699402495 4.9519903590790441e-08 -5.7031958963411367e-08 -0.0010003088072657173 5.3729578123783863e-08 -2.0307142134542998e-08 -0.0012503421181923441 2.1349674365473516e-08 -3.655268624519638e-08 -0.001000308699402495 2.0284720699210031e-08 -7.6014200532540618e-08 -0.001000308180635313 4.9519903590790441e-08 -5.7031958963411367e-08 -0.0010003088072657173 2.0552200681866878e-08 -7.5820624187414775e-08 -0.0012503406778585863 2.0284720699210031e-08 -7.6014200532540618e-08 -0.001000308180635313 5.5901280254125133e-08 -9.6596000287929223e-08 -0.0010003082747488188 4.9519903590790441e-08 -5.7031958963411367e-08 -0.0010003088072657173 5.5809812860736254e-08 -9.6562321496976995e-08 -0.0012503408498653688 8.838407207301683e-11 -1.1160834157301305e-07 -0.0010003079305438639 5.5901280254125146e-08 -9.659600028792921e-08 -0.0010003082747488188 2.0284720699210031e-08 -7.6014200532540618e-08 -0.001000308180635313 5.5809812860736254e-08 -9.6562321496976995e-08 -0.0012503408498653688 5.5809812860736254e-08 -9.6562321496976995e-08 -0.0012503408498653688 2.0552200681866878e-08 -7.5820624187414775e-08 -0.0012503406778585863 4.9749962919093501e-08 -5.6816570683717418e-08 -0.0012503412354939179 4.9519903590790441e-08 -5.7031958963411367e-08 -0.0010003088072657173 2.0284720699210031e-08 -7.6014200532540618e-08 -0.001000308180635313 5.5809812860736254e-08 -9.6562321496976995e-08 -0.0012503408498653688 4.9519903590790441e-08 -5.7031958963411367e-08 -0.0010003088072657173 2.0552200681866878e-08 -7.5820624187414775e-08 -0.0012503406778585863 5.5809812860736254e-08 -9.6562321496976995e-08 -0.0012503408498653688 4.6936863593338237e-11 -1.11526695150983e-07 -0.0012503403611479232 2.0552200681866878e-08 -7.5820624187414775e-08 -0.0012503406778585863 2.0284720699210031e-08 -7.6014200532540618e-08 -0.001000308180635313 8.838407207301683e-11 -1.1160834157301305e-07 -0.0010003079305438639 5.5809812860736267e-08 -9.6562321496976995e-08 -0.0012503408498653688 2.0284720699210031e-08 -7.6014200532540618e-08 -0.001000308180635313 4.6936863593341397e-11 -1.11526695150983e-07 -0.0012503403611479232 2.0552200681866878e-08 -7.5820624187414775e-08 -0.0012503406778585863 2.1638622630627336e-08 -3.6329536602459899e-08 -0.001250341184636349 4.9749962919093501e-08 -5.6816570683717418e-08 -0.0012503412354939179 4.9519903590790441e-08 -5.7031958963411367e-08 -0.0010003088072657173 2.1349674365473516e-08 -3.655268624519638e-08 -0.001000308699402495 2.0552200681866878e-08 -7.5820624187414775e-08 -0.0012503406778585863 4.9519903590790441e-08 -5.7031958963411367e-08 -0.0010003088072657173 2.1638622630627336e-08 -3.6329536602459899e-08 -0.001250341184636349 2.1638622630627336e-08 -3.6329536602459899e-08 -0.001250341184636349 5.3729578123783869e-08 -2.0307142134543001e-08 -0.0012503421181923441 4.9749962919093501e-08 -5.6816570683717418e-08 -0.0012503412354939179 4.9519903590790441e-08 -5.7031958963411367e-08 -0.0010003088072657173 5.3729578123783863e-08 -2.0307142134542998e-08 -0.0012503421181923441 2.163862263062734e-08 -3.6329536602459899e-08 -0.001250341184636349 2.1349674365473516e-08 -3.655268624519638e-08 -0.001000308699402495 4.9519903590790441e-08 -5.7031958963411367e-08 -0.0010003088072657173 2.1349674365473516e-08 -3.655268624519638e-08 -0.001000308699402495 -1.4921131796352958e-08 -5.5358332317090819e-08 -0.0012503407008390515 2.0284720699210034e-08 -7.6014200532540618e-08 -0.001000308180635313 2.0552200681866878e-08 -7.5820624187414775e-08 -0.0012503406778585863 -1.4921131796352981e-08 -5.5358332317090825e-08 -0.0012503407008390515 2.1638622630627336e-08 -3.6329536602459899e-08 -0.001250341184636349 2.0552200681866878e-08 -7.5820624187414775e-08 -0.0012503406778585863 2.1349674365473516e-08 -3.655268624519638e-08 -0.001000308699402495 -1.4921131796352981e-08 -5.5358332317090825e-08 -0.0012503407008390515 5.0744035432366612e-09 1.5911412263406448e-09 -0.0012503414581541709 2.1638622630627336e-08 -3.6329536602459899e-08 -0.001250341184636349 2.1349674365473516e-08 -3.655268624519638e-08 -0.001000308699402495 4.6936863593341397e-11 -1.11526695150983e-07 -0.0012503403611479232 -5.5727520488472148e-08 -9.6607147424874694e-08 -0.0012503407329669794 -1.4921131796352981e-08 -5.5358332317090825e-08 -0.0012503407008390515 -1.5289603739340545e-08 -5.5522733632214987e-08 -0.0010003083433924526 -1.5289603739340549e-08 -5.5522733632214987e-08 -0.0010003083433924526 4.6936863593332472e-11 -1.1152669515098302e-07 -0.0012503403611479234 2.0284720699210031e-08 -7.6014200532540605e-08 -0.001000308180635313 -1.4921131796352981e-08 -5.5358332317090825e-08 -0.0012503407008390515 4.6936863593341397e-11 -1.11526695150983e-07 -0.0012503403611479232 -1.4921131796352981e-08 -5.5358332317090825e-08 -0.0012503407008390515 2.0552200681866878e-08 -7.5820624187414775e-08 -0.0012503406778585863 2.0284720699210031e-08 -7.6014200532540618e-08 -0.001000308180635313 -5.5764131941675797e-08 -9.669306640375524e-08 -0.0010003088704971584 4.6936863593353792e-11 -1.11526695150983e-07 -0.0012503403611479232 -1.5289603739340549e-08 -5.5522733632214987e-08 -0.0010003083433924526 -5.5727520488472148e-08 -9.6607147424874707e-08 -0.0012503407329669794 -5.5764131941675797e-08 -9.669306640375524e-08 -0.0010003088704971584 -1.5289603739340549e-08 -5.5522733632214987e-08 -0.0010003083433924526 -6.6081770843667879e-08 -4.0498720019203158e-08 -0.0010003087200215921 -5.5727520488472148e-08 -9.6607147424874707e-08 -0.0012503407329669794 -9.6580250495125793e-08 -5.5895439499354241e-08 -0.0010003085091024558 -5.5764131941675797e-08 -9.669306640375524e-08 -0.0010003088704971584 -6.6081770843667879e-08 -4.0498720019203158e-08 -0.0010003087200215921 -5.5727520488472148e-08 -9.6607147424874707e-08 -0.0012503407329669794 -5.5727520488472148e-08 -9.6607147424874707e-08 -0.0012503407329669794 -1.4921131796352981e-08 -5.5358332317090832e-08 -0.0012503407008390517 -1.5289603739340549e-08 -5.5522733632214987e-08 -0.0010003083433924526 -6.6081770843667879e-08 -4.0498720019203158e-08 -0.0010003087200215921 -1.4921131796352981e-08 -5.5358332317090825e-08 -0.0012503407008390515 -5.5727520488472155e-08 -9.6607147424874707e-08 -0.0012503407329669794 -6.5894813005827698e-08 -4.0343332707382466e-08 -0.0012503408563624434 -6.6081770843667879e-08 -4.0498720019203158e-08 -0.0010003087200215921 -1.5289603739340549e-08 -5.5522733632214987e-08 -0.0010003083433924526 -5.0413716878275506e-08 5.4701187879442348e-09 -0.0012503412682324381 -6.6081770843667879e-08 -4.0498720019203158e-08 -0.0010003087200215921 -1.4921131796352981e-08 -5.5358332317090825e-08 -0.0012503407008390515 -5.0413716878275506e-08 5.4701187879442133e-09 -0.0012503412682324381 -1.4921131796352981e-08 -5.5358332317090825e-08 -0.0012503407008390515 -6.5894813005827698e-08 -4.0343332707382472e-08 -0.0012503408563624436 -6.6081770843667879e-08 -4.0498720019203158e-08 -0.0010003087200215921 -9.6577529566658959e-08 -5.5792134088960844e-08 -0.0012503406584137712 -1.1152722233680895e-07 -1.8753554598283881e-11 -0.0012503415157257083 -6.5894813005827698e-08 -4.0343332707382472e-08 -0.0012503408563624436 -6.6081770843667879e-08 -4.0498720019203158e-08 -0.0010003087200215921 -5.5727520488472148e-08 -9.6607147424874707e-08 -0.0012503407329669794 -9.6577529566658959e-08 -5.5792134088960844e-08 -0.0012503406584137712 -6.5894813005827698e-08 -4.0343332707382472e-08 -0.0012503408563624436 -6.6081770843667879e-08 -4.0498720019203158e-08 -0.0010003087200215921 -9.6580250495125793e-08 -5.5895439499354241e-08 -0.0010003085091024558 -5.5727520488472142e-08 -9.6607147424874734e-08 -0.0012503407329669792 -6.6081770843667879e-08 -4.0498720019203158e-08 -0.0010003087200215921 -9.6577529566658959e-08 -5.5792134088960844e-08 -0.0012503406584137712 -1.1160382393707633e-07 -1.0407560933374239e-10 -0.0010003098271704337 -9.6580250495125793e-08 -5.5895439499354241e-08 -0.0010003085091024558 -6.6081770843667879e-08 -4.0498720019203158e-08 -0.0010003087200215921 -9.6577529566658959e-08 -5.5792134088960844e-08 -0.0012503406584137712 
</DataArray>
</PointData>
<CellData Scalars="" Vectors="" Tensors="stress,">
<DataArray type="Float64" Name="stress" NumberOfComponents="9" format="ascii">
-3329.1260620739872 -0.15913144811942215 -1.2980692488326895 -0.15913144811942215 -3329.6552357202368 -0.79589360614750149 -1.2980692488326895 -0.79589360614750149 -9999.0516423045792 -3329.2606030963648 -0.077295700869775108 -1.5429480574648551 -0.077295700869775108 -3329.8322195206965 -0.30004557735355775 -1.5429480574648551 -0.30004557735355775 -9999.1295235102898 -3327.5279100211401 1.5865404330479704 -2.7500187120951978 1.5865404330479704 -3327.1117905337624 -1.1688711067981785 -2.7500187120951978 -1.1688711067981785 -10000.769021089476 -3327.9975336033481 1.6883312739696388 -2.1791743479613688 1.6883312739696388 -3330.4369198842519 -2.3247573767732592 -2.1791743479613688 -2.3247573767732592 -10001.717709322651 -3334.0570833505608 -0.35685190361458929 -1.0815219914318277 -0.35685190361458929 -3330.5677991545958 -1.1839918793284596 -1.0815219914318277 -1.1839918793284596 -9999.1329772353001 -3332.7168846016189 1.4997583647016774 -0.72021738197299889 1.4997583647016774 -3331.2665034498532 0.031339782276425421 -0.72021738197299889 0.031339782276425421 -9998.9726036218781 -3330.3546284824065 0.047803686920422417 -1.154418175590763 0.047803686920422417 -3330.4630205038598 -0.36240087474789107 -1.154418175590763 -0.36240087474789107 -9999.5607301025902 -3330.0723961005269 0.2284671941513079 -1.1127030931124864 0.2284671941513079 -3329.9294762686932 -0.2220825417521155 -1.1127030931124864 -0.2220825417521155 -9999.3567859483301 -3329.6536304330821 -0.48519264408177865 -0.60071126547109088 -0.48519264408177865 -3328.064546167705 -0.51469889798363511 -0.60071126547109088 -0.51469889798363511 -9997.7269765838155 -3333.0481589571136 0.96187547823995478 -1.2826774489795545 0.96187547823995478 -3330.4582901311701 0.16726728613469755 -1.2826774489795545 0.16726728613469755 -9999.1740447056891 -3326.8804481197326 2.0303741861983289 -3.5401932472085322 2.0303741861983289 -3328.0623674173958 -0.24180847100782898 -3.5401932472085322 -0.24180847100782898 -9997.0331363179012 -3331.1862226808325 0.19322423898433788 0.0058069535418246998 0.19322423898433788 -3329.9882558837953 -1.3278492332744292 0.0058069535418246998 -1.3278492332744292 -9999.5193451133709 -3332.8886255726611 0.69275701573972048 2.36458226345525 0.69275701573972048 -3330.0787299867443 -0.69581728922947605 2.36458226345525 -0.69581728922947605 -9999.9675643620649 -3331.5193394573039 1.1948777200382379 3.0332274663414864 1.1948777200382379 -3328.6694411468156 0.17712921261500014 3.0332274663414864 0.17712921261500014 -9998.0239517600403 -3332.5910300104911 -0.48947431304323452 3.4766469116331282 -0.48947431304323452 -3332.8796494783683 -1.7514557760226062 3.4766469116331282 -1.7514557760226062 -9999.344426481226 -3333.5278373033684 0.035270951893542041 2.7400889608843602 0.035270951893542041 -3334.8531491753333 -0.33060157412353908 2.7400889608843602 -0.33060157412353908 -10000.072003228684 -3332.026003687547 -0.94355136819523056 0.79430821067126089 -0.94355136819523056 -3335.1667402085723 -0.78831352756930073 0.79430821067126089 -0.78831352756930073 -10003.04362652366 -3333.6244761435946 1.9424101096165254 -0.4978893668888017 1.9424101096165254 -3334.825559334533 -0.12108095956871656 -0.4978893668888017 -0.12108095956871656 -10004.032339855545 -3335.412927143926 0.55486188099410005 -1.182969907818981 0.55486188099410005 -3334.7583294005317 -2.1336065941760971 -1.182969907818981 -2.1336065941760971 -10001.490132981738 -3334.7263853097616 1.7138976912912041 -0.64083718279653112 1.7138976912912041 -3332.3182881630073 -0.31911375961135491 -0.64083718279653112 -0.31911375961135491 -10003.680999354201 -3336.2966438061139 0.47300812960729499 -0.40597964056640334 0.47300812960729499 -3336.6733322331661 -0.76132051683549962 -0.40597964056640334 -0.76132051683549962 -10004.487934559453 -3331.9685716759318 -1.7928224607581815 -0.67883813916459945 -1.7928224607581815 -3330.3807103642794 -0.39877562080390794 -0.67883813916459945 -0.39877562080390794 -10000.904166229684 -3327.2426529333334 -1.7845760990650601 -1.2308526249289571 -1.7845760990650601 -3325.7878631647782 1.3800080111591342 -1.2308526249289571 1.3800080111591342 -9997.4833544967423 -3330.537424000177 -0.96654896625875619 0.019021347914409348 -0.96654896625875619 -3327.6411758197846 0.80995247797701841 0.019021347914409348 0.80995247797701841 -9999.8614956746223 -3332.9300913545994 -1.4612140666328928 -0.18054803510131023 -1.4612140666328928 -3331.5110157433478 -1.108636780481902 -0.18054803510131023 -1.108636780481902 -10002.355717324119 -3330.1935488223421 0.11872951030768963 0.010365566490236233 0.11872951030768963 -3329.393643208623 -0.77796471976398607 0.010365566490236233 -0.77796471976398607 -10001.142238557373 -3330.3489532781591 0.048885989148165221 0.43994240866550172 0.048885989148165221 -3329.4046219267339 -0.91990356289807096 0.43994240866550172 -0.91990356289807096 -10001.269914176035 -3330.4945807103813 0.21853812075673373 0.29563738961769559 0.21853812075673373 -3330.289710559668 -1.2215900888995748 0.29563738961769559 -1.2215900888995748 -10001.527593192324 -3330.4918179472261 0.1836234110542958 0.47472461400502652 0.1836234110542958 -3330.6598948985456 -0.97349154837706919 0.47472461400502652 -0.97349154837706919 -10001.619448586254 -3330.5172580409376 0.083267134704988699 0.6240931971651662 0.083267134704988699 -3330.8193327400759 -0.34756050202213373 0.6240931971651662 -0.34756050202213373 -10002.253978681263 -3330.4902951052995 0.058583721271910916 0.73556629434733622 0.058583721271910916 -3330.9675284760065 -0.56259723927996674 0.73556629434733622 -0.56259723927996674 -10002.284286881335 -3329.7936241130669 0.34531357775396421 0.60280371533553989 0.34531357775396421 -3329.7860983255218 -1.1200090444331181 0.60280371533553989 -1.1200090444331181 -10001.140371159279 -3329.3761795654027 0.076440295867427011 -0.042001648912673772 0.076440295867427011 -3328.9139362124993 -0.64687595139093901 -0.042001648912673772 -0.64687595139093901 -9997.5492855534849 -3329.082857601004 0.34531357775396376 1.477426612117597 0.34531357775396376 -3329.0753318134589 0.46215094471654083 1.477426612117597 0.46215094471654083 -9999.0080716230932 -3330.6555454820045 -0.23186585602684762 0.47744587677698291 -0.23186585602684762 -3330.5854805915324 0.18726553346004948 0.47744587677698291 0.18726553346004948 -10000.376184821176 -3330.9582756692871 -0.71680762098583595 0.87509708919333207 -0.71680762098583595 -3330.8728524691296 0.10797866124448774 0.87509708919333207 0.10797866124448774 -10000.015731782616 -3330.3512303290254 -0.16474023234827068 0.46923311163072867 -0.16474023234827068 -3330.3060537802439 -0.00077226457688084338 0.46923311163072867 -0.00077226457688084338 -9999.7222707753281 -3329.9728866295891 0.076440295867426927 1.3299321794086154 0.076440295867426927 -3329.5106432766856 0.42262993029453355 1.3299321794086154 0.42262993029453355 -9999.3394067460467 -3329.5455426101003 0.058583721271910694 0.94489999105826428 0.058583721271910694 -3330.0227759808072 -0.17923297169591024 0.94489999105826428 -0.17923297169591024 -9999.450029395739 -3329.4627154512773 0.45681488525742209 0.5110929209367896 0.45681488525742209 -3329.9959906863778 0.24554392365797639 0.5110929209367896 0.24554392365797639 -9999.9306048372055 -3330.2928256324576 0.09778128910013173 0.25680090228161134 0.09778128910013173 -3330.3880520237499 0.081137332473190327 0.25680090228161134 0.081137332473190327 -10000.3711018964 -3329.5725055457378 0.083267134704988477 0.83342689387473001 0.083267134704988477 -3329.8745802448761 0.035803765562377521 0.83342689387473001 0.035803765562377521 -9999.4197211956653 -3330.220291774056 0.050594322949260917 0.22924151233473822 0.050594322949260917 -3330.3755696276621 0.13430066465662094 0.22924151233473822 0.13430066465662094 -10000.349847832777 -3330.2853950540398 0.030269840872615528 0.09430704860642436 0.030269840872615528 -3330.3166875731872 0.13154254336404847 0.09430704860642436 0.13154254336404847 -10000.114868072693 -3329.9160737265952 0.21853812075673373 -0.33847315628281649 0.21853812075673373 -3329.7112035758823 0.01388103113276884 -0.33847315628281649 0.01388103113276884 -9999.7920722409654 -3330.3859538152315 0.072871206121032706 -0.07613742830017145 0.072871206121032706 -3329.8185403217726 0.20141756418342993 -0.07613742830017145 0.20141756418342993 -10000.252006016604 -3330.907908656382 -0.22621673718359969 -0.11893301486543351 -0.22621673718359969 -3330.5878629026615 0.14213068538083462 -0.11893301486543351 0.14213068538083462 -10000.574825372109 -3329.9855811184179 0.1836234110542958 0.17585419317492779 0.1836234110542958 -3330.1536580697375 0.25308303401990884 0.17585419317492779 0.25308303401990884 -10000.100738099831 -3330.2669019592468 0.03718695155254359 0.18098826937421109 0.03718695155254359 -3330.3271626633514 0.25162639880130655 0.18098826937421109 0.25162639880130655 -10000.112863571538 -3329.5699622685679 0.11872951030768941 0.64004409513654537 0.11872951030768941 -3328.7700566548488 1.1981871771386068 0.64004409513654537 1.1981871771386068 -9999.2714788960511 -3330.3884674499664 -0.21458418634717003 0.38893291867680091 -0.21458418634717003 -3330.6154133214254 0.23836851363921596 0.38893291867680091 0.23836851363921596 -10000.316898495639 -3330.848884358516 0.87880656538806745 0.76122646568182972 0.87880656538806745 -3329.9993687735446 0.87564929200016195 0.76122646568182972 0.87564929200016195 -9999.6805875524933 -3329.7949091301889 0.12810687429448719 0.29311974554457265 0.12810687429448719 -3330.924569409025 0.072415228281897726 0.29311974554457265 0.072415228281897726 -10000.245797937596 -3329.6909347943133 0.048885989148165221 0.41179813597773318 0.048885989148165221 -3328.746603442888 0.80285357578122785 0.41179813597773318 0.80285357578122785 -9999.2958587244975 -3330.0670254401957 -0.052458654878265953 0.18663422602821811 -0.052458654878265953 -3330.5164100281472 0.24292782893644471 0.18663422602821811 0.24292782893644471 -10000.110206282972 -3330.1809891969742 -0.21458418634717025 -0.13162271516648616 -0.21458418634717025 -3330.4079350684333 -0.029695034589167335 -0.13162271516648616 -0.029695034589167335 -9999.6944637366651 -3329.9001795419654 -0.052458654878265953 -0.18338080356807041 -0.052458654878265953 -3330.3495641299169 -0.11934267419201205 -0.18338080356807041 -0.11934267419201205 -9999.609668588284 -3330.1135847945825 0.037186951552543368 -0.052988623272540281 0.037186951552543368 -3330.1738454986871 -0.0077450546001500697 -0.052988623272540281 -0.0077450546001500697 -9999.6529120775485 -3330.1021485585843 0.030269840872615417 -0.12546943249071774 0.030269840872615417 -3330.1334410777317 -0.15389574457003619 -0.12546943249071774 -0.15389574457003619 -9999.5651285863278 -3329.9340509821996 0.050594322949260473 0.1193348726910699 0.050594322949260473 -3330.0893288358056 0.023156407065471285 0.1193348726910699 0.023156407065471285 -9999.4911254572107 -3330.006584840602 0.097781289100131508 0.14689426263976202 0.097781289100131508 -3330.1018112318943 -0.030006925117049832 0.14689426263976202 -0.030006925117049832 -9999.5123795208347 -3330.3009131262233 -0.16474023234827057 -0.034151536215631495 -0.16474023234827057 -3330.2557365774419 0.031478742079343647 -0.034151536215631495 0.031478742079343647 -9999.5713191669201 -3330.4020368572901 -0.23186585602684806 -0.083279983689863002 -0.23186585602684806 -3330.3319719668179 0.018314814154109627 -0.083279983689863002 0.018314814154109627 -9999.6156589470302 -3330.4118982818327 -0.12683844342940898 -0.045561538719084638 -0.12683844342940898 -3330.1245325600557 0.18463829421489208 -0.045561538719084638 0.18463829421489208 -9999.3514819302072 -3330.5012717903082 -0.0012977893423452569 -0.17244246385052975 -0.0012977893423452569 -3330.0903516684521 0.16164668965757301 -0.17244246385052975 0.16164668965757301 -9999.3652800844247 -3329.8079298980274 0.36598372044571803 1.0007834534499125 0.36598372044571803 -3330.4078890330939 0.19060416098272981 1.0007834534499125 0.19060416098272981 -9998.9901231580498 -3329.9043363282253 0.22846719415130801 1.0826061859283982 0.22846719415130801 -3329.7614164963916 0.10878142843193928 1.0826061859283982 0.10878142843193928 -9998.8526066314244 -3329.0925433240614 -0.077295700869774997 0.65236122157693899 -0.077295700869774997 -3329.6641597483931 0.030818392830042285 0.65236122157693899 0.030818392830042285 -9998.6253441933841 -3330.2807351695697 0.05967801182709076 0.33871787557654898 0.05967801182709076 -3330.1795139609826 -0.24542678958277975 0.33871787557654898 -0.24542678958277975 -9999.3568921010192 -3330.4216805212923 -0.12683844342940898 0.36592255822961306 -0.12683844342940898 -3330.1343147995153 -0.15391754418124037 0.36592255822961306 -0.15391754418124037 -9999.3808286485837 -3330.4905107146442 -0.28542822398876244 0.54378382713093742 -0.28542822398876244 -3329.6840214267031 -0.075322980144846952 0.54378382713093742 -0.075322980144846952 -9999.6015827833489 -3330.8386609591898 -0.31572446443705926 0.58981157181642629 -0.31572446443705926 -3330.9653943881108 0.079501990152493818 0.58981157181642629 0.079501990152493818 -10000.008963584838 -3330.5110540297665 -0.0012977893423454789 0.23904163309816795 -0.0012977893423454789 -3330.1001339079103 -0.17690914873855945 0.23904163309816795 -0.17690914873855945 -9999.3946268028012 -3329.4700297834283 0.0042464107440179921 0.58487246153117667 0.0042464107440179921 -3331.1346644122773 -0.54184146393617993 0.58487246153117667 -0.54184146393617993 -9999.4126071843202 -3330.6281310833788 0.069829701799000832 0.33066508785486803 0.069829701799000832 -3330.2554056169542 -0.36243483667658438 0.33066508785486803 -0.36243483667658438 -9999.4627139934637 -3329.0881083857353 -0.15913144811942209 0.759244511075849 -0.15913144811942209 -3329.6172820319848 -0.89492239211881497 0.759244511075849 -0.89492239211881497 -9998.9377812398234 -3330.6601575855575 0.069829701799000832 -0.048441846891364548 0.069829701799000832 -3330.287432119133 0.071077911977226904 -0.048441846891364548 0.071077911977226904 -9999.5587934999967 -3330.137785599064 0.12669829424377077 0.042661465140554355 0.12669829424377077 -3330.1499743546992 0.024669332071425742 0.042661465140554355 0.024669332071425742 -9999.5288059584273 -3330.3667496302123 0.059678011827090982 0.093253030827327166 0.059678011827090982 -3330.2655284216253 0.054427802674581471 0.093253030827327166 0.054427802674581471 -9999.6149354829467 -3330.1544736014066 0.082186750948854387 0.048828000811909078 0.082186750948854387 -3330.1726446949388 0.10392974361820961 0.048828000811909078 0.10392974361820961 -9999.5386455440748 -3330.2598546721292 0.17187824348214836 0.13070327046330021 0.17187824348214836 -3330.2613047252962 0.2026729658482509 0.13070327046330021 0.2026729658482509 -9999.3176628105575 -3330.281637415002 0.17187824348214842 0.41286532425760925 0.17187824348214842 -3330.283087468169 -0.27009728041775816 0.41286532425760925 -0.27009728041775816 -9999.3830110391755 -3329.461280024103 -0.37586067431150416 0.72960056348404123 -0.37586067431150416 -3329.71010299096 -0.74177636067088315 0.72960056348404123 -0.74177636067088315 -9998.6415519988404 -3330.6866194888453 0.48709188863111652 0.19653683795240795 0.48709188863111652 -3331.0174951493586 0.067879231187362166 0.19653683795240795 0.067879231187362166 -10000.019832832442 -3330.7827396668267 -1.0328135838957586 0.63066069932392566 -1.0328135838957586 -3330.9889092044077 -0.85291795433477091 0.63066069932392566 -0.85291795433477091 -9999.2916184628848 -3330.4496230091545 0.047803686920422417 0.34690794148536952 0.047803686920422417 -3330.5580150306077 0.01784744995075016 0.34690794148536952 0.01784744995075016 -9999.8457136828329 -3329.9176789058483 0.25923785271823618 0.21672240373163731 0.25923785271823618 -3330.0021630775823 0.4215994600299382 0.21672240373163731 0.4215994600299382 -9999.5737646687503 -3330.020260023367 0.20701859811599357 0.17756019903026754 0.20701859811599357 -3330.2818629045337 -0.081764604888121539 0.17756019903026754 -0.081764604888121539 -9999.6693349048674 -3330.278483826351 0.048632121247912163 -0.20018708208226599 0.048632121247912163 -3330.5042672884697 -0.26603076981405138 -0.20018708208226599 -0.26603076981405138 -10000.063925163679 -3329.6322323232262 0.14050801564425819 0.58716094403644092 0.14050801564425819 -3329.8126903109769 0.051160921520931879 0.58716094403644092 0.051160921520931879 -9999.4550348314442 -3329.9934061727113 0.093437745725209354 0.11351217726041796 0.093437745725209354 -3330.1414639006812 -0.29075541175700437 0.11351217726041796 -0.29075541175700437 -10000.321347151097 -3330.2402229847721 0.071675295200443911 -0.13923159979822231 0.071675295200443911 -3330.3739466194475 -0.1638456591481372 -0.13923159979822231 -0.1638456591481372 -10000.021779786031 -3330.3426647671163 -0.097114615812185834 0.13742961860771175 -0.097114615812185834 -3329.9318589965574 -0.25066047198470187 0.13742961860771175 -0.25066047198470187 -10000.356260573668 -3330.2253801193187 0.15833428118617698 -0.044237758393137483 0.15833428118617698 -3330.3742172776515 -0.1659876033791079 -0.044237758393137483 -0.1659876033791079 -10000.018136734216 -3328.85257161971 0.61801872079552034 0.37856042572821025 0.61801872079552034 -3329.581872763044 0.055864496724097989 0.37856042572821025 0.055864496724097989 -9999.2024152685826 -3330.8742531357366 -0.6438353983616647 0.17286421533117391 -0.6438353983616647 -3329.8663003509014 -0.85569149309048953 0.17286421533117391 -0.85569149309048953 -9999.2716640665931 -3329.3616507947613 -0.21598280314738061 0.73169540643038999 -0.21598280314738061 -3329.2971398075638 -0.76700130987001103 0.73169540643038999 -0.76700130987001103 -9998.5134038956567 -3330.3907105520843 0.061644421337231685 0.21018295408612175 0.061644421337231685 -3330.4017240204616 -0.096439810897436473 0.21018295408612175 -0.096439810897436473 -9999.7919128160302 -3329.7616343457389 -0.36699432330326842 0.40168703980089049 -0.36699432330326842 -3329.6898792471088 -0.64871189238328952 0.40168703980089049 -0.64871189238328952 -9998.9494040931459 -3330.2281380674067 0.06164442133723174 0.12672838846265222 0.06164442133723174 -3330.239151535784 0.25053631365494766 0.12672838846265222 0.25053631365494766 -9999.3041953619977 -3330.0120774202223 0.15833428118617665 0.23702259542187676 0.15833428118617665 -3330.1609145785551 0.24108767523830466 0.23702259542187676 0.24108767523830466 -9999.3782286369315 -3330.1642782179206 0.048632121247912163 0.014041824440937489 0.048632121247912163 -3330.3900616800393 -0.050301352831183976 0.014041824440937489 -0.050301352831183976 -9999.7213083383867 -3330.0756744187775 0.071675295200443689 0.070827811017807107 0.071675295200443689 -3330.2093980534528 0.081929933519859333 0.070827811017807107 0.081929933519859333 -9999.5281340880465 -3330.0256526384655 0.066213565657397 -0.17336185224485234 0.066213565657397 -3330.2693600627772 -0.1000386142059142 -0.17336185224485234 -0.1000386142059142 -9999.5939956238981 -3329.8648649724964 0.016886737035206156 -0.20204992266917543 0.016886737035206156 -3330.2642368794714 -0.070846212684045895 -0.20204992266917543 -0.070846212684045895 -9999.4675354586725 -3330.217899496979 0.046302396831681719 -0.14979029922960763 0.046302396831681719 -3330.3286619489299 -0.28331575243828411 -0.14979029922960763 -0.28331575243828411 -9999.6428715387265 -3330.1635817042597 0.070658613543380433 -0.10778878601831821 0.070658613543380433 -3330.1661567098045 -0.18945384284961619 -0.10778878601831821 -0.18945384284961619 -9999.5886657807641 -3330.3135527982222 0.095826928672184897 -0.23421930432959925 0.095826928672184897 -3330.3695991274044 -0.095790508726850021 -0.23421930432959925 -0.095790508726850021 -9999.6910304299963 -3330.9726154064501 -0.11972152484668613 -0.9896900595022089 -0.11972152484668613 -3330.570847507232 -0.010008695355281816 -0.9896900595022089 -0.010008695355281816 -9999.9977933176742 -3330.3677087837832 -0.1143345697459105 -0.42733071773818665 -0.1143345697459105 -3330.0579281862983 0.07020290344098612 -0.42733071773818665 0.07020290344098612 -9998.9254752670768 -3330.0330822286082 0.095826928672184897 -0.39716566802962916 0.095826928672184897 -3330.0891285577904 0.12595282839549782 -0.39716566802962916 0.12595282839549782 -9998.8496187211567 -3330.3991567575458 0.27008131010602721 -0.69682053050564718 0.27008131010602721 -3330.380397390441 -0.067455093352180029 -0.69682053050564718 -0.067455093352180029 -9999.9595902439378 -3329.9465987804851 0.22188964770223751 -0.16303340000422395 0.22188964770223751 -3329.9849238076681 -0.33895132177167397 -0.16303340000422395 -0.33895132177167397 -9999.8681335623824 -3329.7635345128865 0.39984156575425711 -0.25720832057049847 0.39984156575425711 -3329.6908258760086 -0.47448248918772151 -0.25720832057049847 -0.47448248918772151 -9999.6282918041616 -3329.9430334359045 0.046302396831681664 -0.30341791033151821 0.046302396831681664 -3330.0537958878554 -0.028357294782836107 -0.30341791033151821 -0.028357294782836107 -9998.8182733554986 -3330.1628653615503 0.1194837337693655 -0.28912711062207563 0.1194837337693655 -3330.5832415487043 -0.62073632331157569 -0.28912711062207563 -0.62073632331157569 -10000.071779642907 -3330.2155540385006 0.18240332982293581 -0.3387856466242738 0.18240332982293581 -3330.9108946043148 -0.65678553059478872 -0.3387856466242738 -0.65678553059478872 -10000.046313867644 -3330.4414422263012 0.070658613543380266 0.03320500500012713 0.070658613543380266 -3330.4440172318459 -0.018484405771232559 0.03320500500012713 -0.018484405771232559 -10000.422247346885 -3329.9660331756918 0.46823538425812838 0.088040945760894829 0.46823538425812838 -3329.5904116626175 0.55058451199238334 0.088040945760894829 0.55058451199238334 -9999.6538129165183 -3329.1580518277224 0.20154163776705367 0.44308510126211331 0.20154163776705367 -3330.0723036412983 -0.0068040037695027422 0.44308510126211331 -0.0068040037695027422 -9999.3655386152659 -3330.8566774024471 0.03216879284517446 0.53135010543155659 0.03216879284517446 -3330.3164429389394 -0.12314526850695984 0.53135010543155659 -0.12314526850695984 -10000.057981792288 -3330.2609198938449 0.12669829424377055 0.048531433594689588 0.12669829424377055 -3330.27310864948 0.042756395579090167 0.048531433594689588 0.042756395579090167 -9999.8982088427711 -3330.4867790665121 0.082186750948854609 -0.12515564051068395 0.082186750948854609 -3330.5049501600442 0.01192478586017387 -0.12515564051068395 0.01192478586017387 -10000.53556193939 -3330.3326075121295 0.066213565657397444 -0.33903509732226667 0.066213565657397444 -3330.5763149364411 -0.14194844709004428 -0.33903509732226667 -0.14194844709004428 -10000.514860244892 -3329.9071043427484 0.20798211348395546 -0.76445444678120111 0.20798211348395546 -3330.2069363439468 -0.062733962242759844 -0.76445444678120111 -0.062733962242759844 -9999.7932118786139 -3328.9344933989587 -0.19753689658670082 -1.1525576573530998 -0.19753689658670082 -3329.8858069565667 0.0013601462753740634 -1.1525576573530998 0.0013601462753740634 -9999.3170026781354 -3330.6567722561645 0.1733567829217737 -0.20089358176119276 0.1733567829217737 -3330.3283477367886 -0.32849173063732451 -0.20089358176119276 -0.32849173063732451 -10000.533909630987 -3329.4435901334232 0.0048930648555347567 -0.92890327379973314 0.0048930648555347567 -3329.810078215367 -0.30065784532507678 -0.92890327379973314 -0.30065784532507678 -9999.4253446764505 -3330.8876343438769 0.25923785271823652 0.15556761183552226 0.25923785271823652 -3330.9721185156109 0.99271084776682983 0.15556761183552226 0.99271084776682983 -10002.483630982835 -3330.8087007671588 0.20798211348395546 -0.78472185055306909 0.20798211348395546 -3331.1085327683572 0.31622989144170788 -0.78472185055306909 0.31622989144170788 -10002.498001151842 -3329.6592189305525 0.20701859811599335 0.13843900187384861 0.20701859811599335 -3329.9208218117192 0.027246631189882464 0.13843900187384861 0.027246631189882464 -9998.586211626427 -3329.3728264936508 0.11948373376936526 0.88569437834007658 0.11948373376936526 -3329.7932026808048 -0.33129843075676035 0.88569437834007658 -0.33129843075676035 -9997.70166303921 -3330.7604300087514 0.22188964770223757 -0.094468184266588651 0.22188964770223757 -3330.7987550359344 -0.93241385295368673 -0.094468184266588651 -0.93241385295368673 -10002.309627247181 -3329.6799769947238 0.25392606260046069 0.43678364962670457 0.25392606260046069 -3329.5675715586194 0.22313932148381355 0.43678364962670457 0.22313932148381355 -9997.7220428839319 -3329.6573383730079 0.27008131010602704 0.48957880143461807 0.27008131010602704 -3329.638579005903 0.32071336095850711 0.48957880143461807 0.32071336095850711 -9997.7341350903225 -3333.0466636685028 0.98552891766211981 -0.85337448935570137 0.98552891766211981 -3331.2025557086668 0.83503089729083513 -0.85337448935570137 0.83503089729083513 -10000.147981371361 -3334.8940560901051 -0.16848365886276706 -1.2469662414148477 -0.16848365886276706 -3334.604332301134 0.076757096827501758 -1.2469662414148477 0.076757096827501758 -10001.065798538668 -3334.9268404611812 -0.20352258368835136 0.47286267302048701 -0.20352258368835136 -3334.8277699604178 -1.7113363700431616 0.47286267302048701 -1.7113363700431616 -10001.38597145102 -3330.1475545417879 -0.012449615570387568 -1.4527966219591621 -0.012449615570387568 -3332.1644637083559 -3.3811603297196737 -1.4527966219591621 -3.3811603297196737 -9999.2692060033933 -3332.2734272201014 -1.6324936722457952 -0.47444809461194382 -1.6324936722457952 -3332.5461732425752 -1.1948186007630284 -0.47444809461194382 -1.1948186007630284 -9999.8961015565274 -3334.4096540355135 -0.017029813280490497 -0.41090844581120822 -0.017029813280490497 -3332.8732986854807 -3.6863234241857703 -0.41090844581120822 -3.6863234241857703 -10000.768057025869 -3331.9156890383988 -1.1843094101441562 -0.009672433407614367 -1.1843094101441562 -3332.0655586760759 -0.55351912896389655 -0.009672433407614367 -0.55351912896389655 -9998.9720685376287 -3330.4928911419101 0.23072098129893101 0.38976900186703456 0.23072098129893101 -3332.4779801315949 3.2576697240135251 0.38976900186703456 3.2576697240135251 -9999.4339192592361 -3330.04498191312 1.0439649974791256 3.5591156810951361 1.0439649974791256 -3330.8055734442005 -1.1481344932062711 3.5591156810951361 -1.1481344932062711 -9998.9038402801889 -3333.3332393757964 -0.87581697067373943 -3.1458307859607837 -0.87581697067373943 -3330.9497946925931 0.99505396463464568 -3.1458307859607837 0.99505396463464568 -10000.156435044166 -3334.397597567518 0.073112025656110746 -2.462870273656069 0.073112025656110746 -3335.6188314293981 0.072799014872019896 -2.462870273656069 0.072799014872019896 -10001.589783776295 -3332.1567223333145 1.2252728297197426 -0.47294658627924946 1.2252728297197426 -3335.3273942098199 -0.10478461160641928 -0.47294658627924946 -0.10478461160641928 -10003.889721903746 -3332.9825118511549 -0.61810353662825246 -3.7853235801427276 -0.61810353662825246 -3333.891613246496 0.25394508857208264 -3.7853235801427276 0.25394508857208264 -10000.409732715272 -3334.2346585466494 1.9291247657451616 0.99069077170471553 1.9291247657451616 -3334.3046419650859 0.15758769194852551 0.99069077170471553 0.15758769194852551 -10004.153517895897 -3334.6794401796774 0.64052412225775712 1.6720848684291116 0.64052412225775712 -3333.7701496830441 2.5640372387311632 1.6720848684291116 2.5640372387311632 -9999.5127064220378 -3331.0244677720402 -1.7792990060301321 2.0666878203970001 -1.7792990060301321 -3332.4079522686447 2.5551396354318658 2.0666878203970001 2.5551396354318658 -9998.2584139665287 -3336.7628641858246 0.48959720324999983 0.93498384172762483 0.48959720324999983 -3337.0401077070642 0.06420119755317899 0.93498384172762483 0.06420119755317899 -10005.469435741184 -3330.2781696163715 0.14050801564425819 -0.11684077963946038 0.14050801564425819 -3330.4586276041223 1.2266030509445045 -0.11684077963946038 1.2266030509445045 -10001.392846710882 -3330.6104830300683 -0.36699432330326798 -0.036642182618379593 -0.36699432330326798 -3330.5387279314382 1.2247947134801507 -0.036642182618379593 1.2247947134801507 -10001.495950146134 -3330.3618132819142 0.093437745725209354 -0.36974854851359851 0.093437745725209354 -3330.5098710098841 0.8026312048799582 -0.36974854851359851 0.8026312048799582 -10001.426568478706 -3334.8829572967365 -0.32433061567146676 -1.5266146382664609 -0.32433061567146676 -3334.628300819802 -0.38382362167465356 -1.5266146382664609 -0.38382362167465356 -9999.778123485492 -3333.0194070167486 -0.16603774550103537 0.18803869430869213 -0.16603774550103537 -3332.2039353740274 4.0480834056515516 0.18803869430869213 4.0480834056515516 -9998.7061445540512 -3333.3874801328393 0.26717559801217183 -0.091072756917825792 0.26717559801217183 -3333.6009300511218 0.46057663153271111 -0.091072756917825792 0.46057663153271111 -9999.1474115023484 -3325.3940593008606 2.477118349895985 0.11717247717024293 2.477118349895985 -3326.3575365193587 0.71217890626576263 0.11717247717024293 0.71217890626576263 -9996.0380086977784 -3329.8671861994671 -1.1756150416165447 -0.27228735643075197 -1.1756150416165447 -3332.6846084395665 -0.80116596132234008 -0.27228735643075197 -0.80116596132234008 -9998.0382576161155 -3330.8242704409427 -0.61427261472825723 -0.73903592481721891 -0.61427261472825723 -3333.6382007218745 -0.24962114379866307 -0.73903592481721891 -0.24962114379866307 -9999.2157275334266 -3329.6643246684835 -0.37586067431150422 -0.96752449794882978 -0.37586067431150422 -3329.9131476353405 -0.42458452156915882 -0.96752449794882978 -0.42458452156915882 -9999.2506859319801 -3328.782291879274 -0.21598280314738072 -0.36811677623290961 -0.21598280314738072 -3328.7177808920765 0.35275932489457773 -0.36811677623290961 0.35275932489457773 -9996.7753271491947 -3329.986121309812 -0.23231260869571685 -0.81561714868363167 -0.23231260869571685 -3330.8174077449848 0.67252792953974927 -0.81561714868363167 0.67252792953974927 -9998.3009920064233 -3327.9883104864925 0.58048822685130053 -0.15132335680436881 0.58048822685130053 -3329.1672769423126 1.1838161510841019 -0.15132335680436881 1.1838161510841019 -9996.9596292174592 -3329.7128131205609 -0.65376361569224961 2.2512586268607349 -0.65376361569224961 -3332.1111771246951 3.3570497906939174 2.2512586268607349 3.3570497906939174 -9998.1267299215724 -3328.7550574173611 -1.3556653688225124 2.0796653893956085 -1.3556653688225124 -3328.8463155761892 0.65097355032658077 2.0796653893956085 0.65097355032658077 -9997.0710756086464 -3334.8985155308669 -0.72729819076155078 0.72166153511230879 -0.72729819076155078 -3332.3701752697507 1.128564799268218 0.72166153511230879 1.128564799268218 -10003.550031304829 -3326.9257754564233 -1.0301438294250604 1.2753220210406653 -1.0301438294250604 -3328.8394828636028 0.58225909996190239 1.2753220210406653 0.58225909996190239 -9999.144757986378 -3332.0817280903011 -1.7537641504211894 1.2795481028627287 -1.7537641504211894 -3330.7395655343466 0.58285026126408512 1.2795481028627287 0.58285026126408512 -10000.908766812532 -3333.4736741919305 -1.3682708026418848 0.43757484219395337 -1.3682708026418848 -3331.9196378764686 1.5135259928647429 0.43757484219395337 1.5135259928647429 -10003.081186621775 -3330.6680715278235 -0.87833764844764828 -0.13015294801017629 -0.87833764844764828 -3328.3239409213029 -1.1402516707614669 -0.13015294801017629 -1.1402516707614669 -9999.9514465186512 -3330.3769999441192 -0.0050423941386521509 -0.4326744268364564 -0.0050423941386521509 -3329.5336607177983 0.88790102508028212 -0.4326744268364564 0.88790102508028212 -10001.186312571237 -3330.2668708612755 -0.21166628959005251 -0.054651630968692189 -0.21166628959005251 -3329.5764608242448 0.94078037235522061 -0.054651630968692189 0.94078037235522061 -10001.169480327138 -3329.4180221769466 -0.21166628959005251 0.38367759145057789 -0.21166628959005251 -3328.7276121399159 -0.9327262335073101 0.38367759145057789 -0.9327262335073101 -9998.6229342741499 -3329.5410310394009 0.0681823724505769 -0.79756910120090652 0.0681823724505769 -3328.8941893562405 -1.2576583732188737 -0.79756910120090652 -1.2576583732188737 -9999.2347077894719 -3329.4310314049844 -0.063488678214279837 -0.19046174948016414 -0.063488678214279837 -3330.305676754544 -0.1895613624770931 -0.19046174948016414 -0.1895613624770931 -9999.9382811547675 -3331.3550064640285 0.0082439565871768039 -0.33535226543426688 0.0082439565871768039 -3329.404402458696 -0.76602683388682635 -0.33535226543426688 -0.76602683388682635 -9999.8157549212428 -3330.330607067438 0.00640453099031979 -0.047653528472437756 0.00640453099031979 -3330.6153119027276 -0.21985531045720563 -0.047653528472437756 -0.21985531045720563 -10000.104717127517 -3330.0237922829183 -0.053369180029415375 -0.21680179285976919 -0.053369180029415375 -3330.5408553053358 -0.24351644917987869 -0.21680179285976919 -0.24351644917987869 -10000.009399282037 -3329.7439020580405 -0.0050423941386519289 -0.40311078919057763 -0.0050423941386519289 -3328.9005628317195 -0.7755051683898273 -0.40311078919057763 -0.7755051683898273 -9999.2870189130026 -3329.6559637621822 0.075858900474614743 -0.26439762532754685 0.075858900474614743 -3330.7322776193032 -0.089372076157815172 -0.26439762532754685 -0.089372076157815172 -10000.101164460257 -3330.2088558631849 -0.17979840155994559 0.054231457137575489 -0.17979840155994559 -3330.4467939333572 -0.018480526397979702 0.054231457137575489 -0.018480526397979702 -9999.6645165760747 -3329.8767389797058 -0.053369180029414931 0.15369823834225826 -0.053369180029414931 -3330.3938020021233 0.10309943749416561 0.15369823834225826 0.10309943749416561 -9999.5682393723946 -3330.117304368342 0.0064045309903200121 0.23360682534439547 0.0064045309903200121 -3330.4020092036317 0.1872199681638449 0.23360682534439547 0.1872199681638449 -9999.4648090302326 -3330.7985379035335 0.85134538446750829 -0.81742729653706192 0.85134538446750829 -3330.1290013656144 -1.0046404827071456 -0.81742729653706192 -1.0046404827071456 -9999.4592314726033 -3330.29911707266 -0.20127586892087901 -0.067125367822427506 -0.20127586892087901 -3330.2744154203629 -0.082559367545400164 -0.067125367822427506 -0.082559367545400164 -9999.4545965777943 -3330.4415530133274 -0.11433456974591061 -0.09488378296373412 -0.11433456974591061 -3330.1317724158425 -0.19904982387743075 -0.09488378296373412 -0.19904982387743075 -9999.1470079557112 -3330.1487732359583 -0.24639385671863767 0.018948620803712402 -0.24639385671863767 -3330.2459768018216 -0.069405660090978927 0.018948620803712402 -0.069405660090978927 -9999.4099009639831 -3330.0924026201769 0.016886737035206156 -0.50532701749762055 0.016886737035206156 -3330.4917745271518 -0.22735283358633751 -0.50532701749762055 -0.22735283358633751 -10000.150148401719 -3330.3921854638647 -0.66221766272026705 -0.84908911929460373 -0.66221766272026705 -3330.5755130988364 -0.11856830138822261 -0.84908911929460373 -0.11856830138822261 -9999.8538522299295 -3328.9323804397472 0.21556832072551035 -1.4885314521297914 0.21556832072551035 -3329.031345889055 -0.59360638923430997 -1.4885314521297914 -0.59360638923430997 -9998.7182782375166 -3330.4102558583627 -0.17979840155994536 -0.44057259201508714 -0.17979840155994536 -3330.648193928535 -0.30471377948379086 -0.44057259201508714 -0.30471377948379086 -10000.26871656161 -3330.4259295000957 -0.24639385671863812 -0.51835462866984017 -0.24639385671863812 -3330.523133065959 -0.25707427575116526 -0.51835462866984017 -0.25707427575116526 -10000.241369756399 -3329.9583590205316 0.25392606260046036 -1.5154445116713759 0.25392606260046036 -3329.8459535844272 -0.015628477078280412 -1.5154445116713759 -0.015628477078280412 -9998.5571889613548 -3330.4194027265457 -0.20127586892087901 -0.59519268648227808 -0.20127586892087901 -3330.3947010742486 -0.079768200979742687 -0.59519268648227808 -0.079768200979742687 -9999.8154535394515 -3329.8740092057214 0.025116220054655275 -1.509827660657038 0.025116220054655275 -3329.4037430547874 -0.59686084625809599 -1.509827660657038 -0.59686084625809599 -9999.0467847204436 -3329.7790577012461 0.29648233353438458 -1.1671526015625204 0.29648233353438458 -3330.4639786084622 -0.42911803272454563 -1.1671526015625204 -0.42911803272454563 -9998.6668698875419 -3330.915448390776 -0.10026996054099527 -0.85837600331160502 -0.10026996054099527 -3329.9910318083421 0.23268106806744981 -0.85837600331160502 0.23268106806744981 -9999.838547639034 -3329.8173411544221 0.025116220054654831 -0.13374474999977792 0.025116220054654831 -3329.347075003488 0.54714593700282421 -0.13374474999977792 0.54714593700282421 -9998.8767805665466 -3330.3838134050466 0.068182372450577566 -0.25284473941042052 0.068182372450577566 -3329.7369717218862 0.66961421863925352 -0.25284473941042052 0.66961421863925352 -10001.763054886407 -3330.291962539593 0.0048930648555349787 -0.68673214350837952 0.0048930648555349787 -3330.6584506215368 0.95952338879669696 -0.68673214350837952 0.95952338879669696 -10001.970461894958 -3329.9345852194915 0.21556832072551035 -0.69508222829790611 0.21556832072551035 -3330.0335506687993 0.94047334509536995 -0.69508222829790611 0.94047334509536995 -10001.724892576747 -3332.5345805734341 0.86797368068495118 -2.4072406764728385 0.86797368068495118 -3329.8497996619158 0.19971344557143311 -2.4072406764728385 0.19971344557143311 -9999.6817715859052 -3333.0463320147578 0.50107869019572626 -2.1727140832552561 0.50107869019572626 -3330.2992290351158 0.26095699244251358 -2.1727140832552561 0.26095699244251358 -9999.8801215433832 -3327.3805525908383 -1.7354443232322128 1.1458088772051269 -1.7354443232322128 -3326.3949825461577 -1.7715532600259394 1.1458088772051269 -1.7715532600259394 -9997.4876150651635 -3329.3664526203356 -0.51958514368297415 0.2189519373555413 -0.51958514368297415 -3327.5846578508254 -0.48257079207860443 0.2189519373555413 -0.48257079207860443 -9997.0346113969663 -3332.4526335218902 1.3823594453881765 -0.66675578480664743 1.3823594453881765 -3332.1026935637919 1.179932658541738 -0.66675578480664743 1.179932658541738 -10000.22450829849 -3332.4309982825089 1.0494668279707107 -0.42311632885374895 1.0494668279707107 -3330.7337903433126 0.27968786045890548 -0.42311632885374895 0.27968786045890548 -9998.5880309356326 -3331.1356678599764 0.203818453911324 -0.51938570987590926 0.203818453911324 -3329.824403842495 0.5136163393229296 -0.51938570987590926 0.5136163393229296 -9999.2837492065337 -3328.8074868870603 0.66368554159273796 2.0620303017967672 0.66368554159273796 -3328.1718107160054 0.56441123053446063 2.0620303017967672 0.56441123053446063 -9999.6049588174537 -3328.6132080430348 1.1486259180860081 2.6460128355528227 1.1486259180860081 -3329.4647504511549 0.24379351178358988 2.6460128355528227 0.24379351178358988 -9997.3163234027234 -3329.4276912009159 -0.010577761167165578 -0.66919879341730848 -0.010577761167165578 -3330.9087796444301 0.50356353077404492 -0.66919879341730848 0.50356353077404492 -9998.9249455115823 -3329.1509348733903 -0.12133013594300651 -0.75731172059659002 -0.12133013594300651 -3329.5652065632435 -0.024495058212323784 -0.75731172059659002 -0.024495058212323784 -9998.2851461692735 -3330.4114643131879 -0.027867203590503598 0.098214347782231926 -0.027867203590503598 -3330.1244433257689 -0.20130816207893076 0.098214347782231926 -0.20130816207893076 -9999.1376535081581 -3326.7867472923995 -1.1872806670816352 -1.2864985871974568 -1.1872806670816352 -3328.511716358144 -0.49624043273172447 -1.2864985871974568 -0.49624043273172447 -9999.1414616322672 -3330.4751314866626 -0.20745817815305179 0.093548705865032389 -0.20745817815305179 -3329.5543618630427 -0.97546287600744108 0.093548705865032389 -0.97546287600744108 -10001.338893712238 -3330.6603088940533 -0.41266412427563659 0.10098528974413057 -0.41266412427563659 -3330.165782245394 -1.2011345032342433 0.10098528974413057 -1.2011345032342433 -10001.538043159673 -3328.8976690110499 -1.4864019467181901 -1.4799938426228401 -1.4864019467181901 -3328.8937958129054 -0.51752358097178086 -1.4799938426228401 -0.51752358097178086 -9998.3079238093924 -3331.75862756068 -1.7058288862810005 -0.97734164126649703 -1.7058288862810005 -3332.9403700176335 -2.1552156424460174 -0.97734164126649703 -2.1552156424460174 -10000.1220682402 -3330.2139964958519 -0.79848603427856557 -1.4039125444414877 -0.79848603427856557 -3332.6723064048178 -2.8262974264009251 -1.4039125444414877 -2.8262974264009251 -9999.5816333285711 -3328.2536864389394 0.39477563942661265 -0.29052835877109828 0.39477563942661265 -3329.4026855218181 -1.4360020056265057 -0.29052835877109828 -1.4360020056265057 -9998.2741505935937 -3329.334375544604 -0.40631043365728658 -0.17737197421935047 -0.40631043365728658 -3330.4372601939981 -1.5443970153623043 -0.17737197421935047 -1.5443970153623043 -9997.5636198821994 -3330.2119934043999 -0.057116724179157433 -0.017628253002252459 -0.057116724179157433 -3332.9192728406106 -1.9858820068676559 -0.017628253002252459 -1.9858820068676559 -9998.4035275088027 -3330.28298283403 -0.40488788447281804 0.47070668257674697 -0.40488788447281804 -3333.2666125391656 -1.7112654240216045 0.47070668257674697 -1.7112654240216045 -9999.8347176889201 -3329.4253077442459 1.0291129533316492 1.6112270876857471 1.0291129533316492 -3330.7933636761336 1.3354323747506511 1.6112270876857471 1.3354323747506511 -10000.414802271782 -3327.4729266903687 1.5119211941926263 0.68980171643397625 1.5119211941926263 -3327.5146019137333 -0.71442720664799708 0.68980171643397625 -0.71442720664799708 -9996.3675930985755 -3328.872552847582 -0.12133013594300684 1.1949164407028547 -0.12133013594300684 -3329.2868245374352 0.21427274034977017 1.1949164407028547 0.21427274034977017 -9997.4500000918488 -3328.8088581708867 -0.15811157000946702 1.040543026276282 -0.15811157000946702 -3329.1798678310515 0.47830183974974716 1.040543026276282 0.47830183974974716 -9997.4073372460807 -3329.4960939221592 -0.33706972070909919 0.13070131174572452 -0.33706972070909919 -3329.2253914835424 -0.77158987927987255 0.13070131174572452 -0.77158987927987255 -9998.6276901970468 -3329.2116059895175 -0.39330328669444931 0.59540116717971614 -0.39330328669444931 -3329.6946041459032 -0.32174590770046052 0.59540116717971614 -0.32174590770046052 -9997.6367082794513 -3330.4659432904809 0.021348094601151418 -0.22052733683085535 0.021348094601151418 -3330.4839355737458 -0.025683597430997906 -0.22052733683085535 -0.025683597430997906 -10000.1227226314 -3329.3744053696855 -0.33706972070909919 -0.99052377011958015 -0.33706972070909919 -3329.1037029310687 0.48520922360899021 -0.99052377011958015 0.48520922360899021 -9998.2626245396241 -3330.9510342733652 0.42081674724372908 -0.0017966433115361724 0.42081674724372908 -3330.8716573081665 -0.63019135294507578 -0.0017966433115361724 -0.63019135294507578 -10000.340925810726 -3330.1897800366683 0.15195038188760737 -0.38944932048843839 0.15195038188760737 -3330.1450811887494 -0.02552630529498856 -0.38944932048843839 -0.02552630529498856 -9998.9027813309131 -3329.5047826770528 -0.39330328669444914 -0.84405073019456722 -0.39330328669444914 -3329.9877808334386 0.080400519429531414 -0.84405073019456722 0.080400519429531414 -9998.5162383420593 -3330.3376200836433 -0.02786720359050382 -0.23423258699131111 -0.02786720359050382 -3330.0505990962242 0.06794456523948611 -0.23423258699131111 0.06794456523948611 -9998.9161208195219 -3330.2641244589249 -0.84166987039355745 -0.46096877091440547 -0.84166987039355745 -3330.6500489579598 0.76890880583050603 -0.46096877091440547 0.76890880583050603 -9998.8716408186574 -3329.1811269927466 -0.15811157000946699 -0.76678862852168095 -0.15811157000946699 -3329.5521366529115 0.67047411164367077 -0.76678862852168095 0.67047411164367077 -9998.5241437116601 -3330.4140350720377 0.015904738950559993 -0.28711700798157835 0.015904738950559993 -3330.113956369179 0.1583942459615173 -0.28711700798157835 0.1583942459615173 -9998.9510638848606 -3330.5126205978067 0.015904738950559882 0.012225999214933836 0.015904738950559882 -3330.2125418949481 -0.20600126633553373 0.012225999214933836 -0.20600126633553373 -9999.2468204621691 -3330.1425556025506 0.021348094601151113 -0.20862013973055582 0.021348094601151113 -3330.1605478858155 -0.37487053162385564 -0.20862013973055582 -0.37487053162385564 -9999.1525595676103 -3330.2928671050531 0.15195038188760729 -0.18883755201295571 0.15195038188760729 -3330.2481682571342 -0.42954382647258171 -0.18883755201295571 -0.42954382647258171 -9999.2120425360663 -3330.026337411713 0.13452911693711533 -0.25445735579341999 0.13452911693711533 -3330.1042548850028 -0.28713116075232392 -0.25445735579341999 -0.28713116075232392 -9999.4132814140758 -3330.0941543324207 -0.016322061179161462 -0.25704082708398346 -0.016322061179161462 -3330.3481948272238 -0.20873277524697187 -0.25704082708398346 -0.20873277524697187 -9999.4912206298068 -3329.8483596598476 -0.41266412427563615 -0.33180765803263057 -0.41266412427563615 -3329.3538330111883 0.74188281323768024 -0.33180765803263057 0.74188281323768024 -9999.102195457057 -3330.2598230421108 0.13452911693711511 0.027395241433623596 0.13452911693711511 -3330.3377405154006 0.13857416647260834 0.027395241433623596 0.13857416647260834 -10000.113738305265 -3330.7595865378216 -0.81005342875424735 -0.31615475110720581 -0.81005342875424735 -3329.7830973018681 0.7614287750902804 -0.31615475110720581 0.7614287750902804 -9999.43731824922 -3329.3270969373502 0.56547746865472504 -0.20045793050394423 0.56547746865472504 -3329.6182645702679 -0.00062270284252008423 -0.20045793050394423 -0.00062270284252008423 -9999.621593292246 -3330.3276399628171 -0.016322061179161018 0.024811770144879119 -0.016322061179161018 -3330.5816804576202 0.21697255197432241 0.024811770144879119 0.21697255197432241 -10000.191677520996 -3329.6631822524578 -0.20745817815305223 -0.33924424191263824 -0.20745817815305223 -3328.7424126288379 0.96755444046539196 -0.33924424191263824 0.96755444046539196 -9998.9030460096219 -3331.4820878795103 0.012007164351833799 0.2828547810058808 0.012007164351833799 -3329.3182508601399 0.78217189428892198 0.2828547810058808 0.78217189428892198 -9999.8865588501103 -3329.8015390216779 -0.085957450469022145 -0.25106461005998426 -0.085957450469022145 -3330.3334110473543 -0.13019871968890584 -0.25106461005998426 -0.13019871968890584 -9999.5809701875733 -3330.265512450942 -0.0032380637932927225 7.7152846643002704e-05 -0.0032380637932927225 -3330.1492516845756 -0.0025509042980047525 7.7152846643002704e-05 -0.0025509042980047525 -9999.5638698655785 -3330.1510986585381 0.022846004648221507 -0.042335990818173741 0.022846004648221507 -3330.1274279146201 -0.057258182434452465 -0.042335990818173741 -0.057258182434452465 -9999.4990120712173 -3330.1932022594228 -0.023347742455011256 -0.048675287986043259 -0.023347742455011256 -3330.1181856224812 -0.021139600346941734 -0.048675287986043259 -0.021139600346941734 -9999.4707573302949 -3330.2376992379141 -0.046495915012007116 -0.035046683962718816 -0.046495915012007116 -3330.1650998857149 -0.004121408410355798 -0.035046683962718816 -0.004121408410355798 -9999.4936101407257 -3330.1920855310327 -0.012800123790682294 -0.04937044381222222 -0.012800123790682294 -3330.112036000779 -4.4303256800048985e-05 -0.04937044381222222 -4.4303256800048985e-05 -9999.4689407427722 -3330.2702067023383 -0.012800123790681628 -0.09790978026103403 -0.012800123790681628 -3330.1901571720846 -0.075005633147156914 -0.09790978026103403 -0.075005633147156914 -9999.7033042566909 -3330.2713234307294 -0.023347742455011478 -0.097214624436674058 -0.023347742455011478 -3330.1963067937877 -0.096100930226384662 -0.097214624436674058 -0.096100930226384662 -9999.7051208442135 -3330.0139125447377 0.12214278618093888 -0.22151661798307032 0.12214278618093888 -3330.2218573833297 -0.24599768901134667 -0.22151661798307032 -0.24599768901134667 -9999.4395758219143 -3330.3209558150038 -0.056062440382385836 -0.1207878642835567 -0.056062440382385836 -3330.1799383203843 -0.15438772086963581 -0.1207878642835567 -0.15438772086963581 -9999.631454711096 -3330.2950804983284 -0.023134585066020119 -0.036121233955782373 -0.023134585066020119 -3330.3482192994352 -0.28705619942263638 -0.036121233955782373 -0.28705619942263638 -9999.6670561266874 -3330.2532308510672 -0.035122826485310066 -0.095534929827408632 -0.035122826485310066 -3330.2076337111357 -0.12285409609739872 -0.095534929827408632 -0.12285409609739872 -9999.621447317797 -3330.1628060264793 -0.024175122423152118 -0.085086949288779579 -0.024175122423152118 -3330.1644766418485 -0.11814397221860418 -0.085086949288779579 -0.11814397221860418 -9999.2952385959252 -3330.2288359528948 0.18622972983227024 -0.082973089488405094 0.18622972983227024 -3329.9719431693957 -0.23927498734519759 -0.082973089488405094 -0.23927498734519759 -9999.1269784760916 -3330.1733087992998 -0.030661498333041437 -0.048248158191199764 -0.030661498333041437 -3330.1558493929915 -0.051934086014625791 -0.048248158191199764 -0.051934086014625791 -9999.2957074769147 -3330.1596944152207 -0.038272706680490542 -0.029825672638253309 -0.038272706680490542 -3330.1788443606929 -0.083442570090483059 -0.029825672638253309 -0.083442570090483059 -9999.2980526228239 -3330.2415182941022 -0.053413342560658959 -0.040180395550123649 -0.053413342560658959 -3330.2088884027271 0.010329371583793545 -0.040180395550123649 0.010329371583793545 -9999.4009105203259 -3330.2032170614293 -0.030661498333041437 -0.054822799529574695 -0.030661498333041437 -3330.1857576551211 0.00751424759891961 -0.054822799529574695 0.00751424759891961 -9999.3854322633088 -3330.1927623933861 -0.02417512242315209 -0.077056932213963591 -0.02417512242315209 -3330.1944330087554 -0.055948354243810172 -0.077056932213963591 -0.055948354243810172 -9999.385107696653 -3330.2479124107467 0.018394675477883538 -0.012224763238918968 0.018394675477883538 -3330.2541735403447 -0.094750156653788054 -0.012224763238918968 -0.094750156653788054 -9999.5549019157042 -3330.166061918615 -0.035122826485310343 -0.08183232627925463 -0.035122826485310343 -3330.1204647786835 -0.042750559736305149 -0.08183232627925463 -0.042750559736305149 -9999.3599405204404 -3330.1834901325583 -0.00049591347627570004 -0.041548827704900759 -0.00049591347627570004 -3330.1800978129941 -0.038205105247470783 -0.041548827704900759 -0.038205105247470783 -9999.4261402304292 -3330.1983251238635 -0.00049591347627589433 -0.029358298214901879 -0.00049591347627589433 -3330.1949328042992 -0.036282598663092358 -0.029358298214901879 -0.036282598663092358 -9999.4706452043392 -3330.1858932787236 -0.0082559172260371905 -0.030507453517202521 -0.0082559172260371905 -3330.1731860058626 -0.033106669023254653 -0.030507453517202521 -0.033106669023254653 -9999.4621005434456 -3330.2087131609715 -0.008255917226037135 -0.030939707969082519 -0.008255917226037135 -3330.1960058881104 -0.043027515191170096 -0.030939707969082519 -0.043027515191170096 -9999.5305601902 -3330.2123818828222 -0.0088917591944012164 -0.013550158033467596 -0.0088917591944012164 -3330.1932511461964 -0.0099833308722736547 -0.013550158033467596 -0.0099833308722736547 -9999.4742805046117 -3330.1973302814931 -0.0088917591944012164 -0.026588378510496113 -0.0088917591944012164 -3330.1781995448673 -0.011316882013488794 -0.026588378510496113 -0.011316882013488794 -9999.4291257006371 -3330.1931371987212 -0.011241962790164928 -0.021844791786861606 -0.011241962790164928 -3330.1841777098653 -0.019429968948315945 -0.021844791786861606 -0.019429968948315945 -9999.4295719711881 -3330.2210383086822 -0.017413644870062917 -0.0063825700271991082 -0.017413644870062917 -3330.2158472655792 -0.0080104439148271922 -0.0063825700271991082 -0.0080104439148271922 -9999.4881485497608 -3330.2110004151 -0.0081584311435934313 -0.014567812779205269 -0.0081584311435934313 -3330.1948611109583 -0.0096998491098929662 -0.014567812779205269 -0.0096998491098929662 -9999.4737961038118 -3330.227411382235 -0.013849245735148119 -0.0078905298541940283 -0.013849245735148119 -3330.2053559516753 -0.0054313387163347215 -0.0078905298541940283 -0.0054313387163347215 -9999.4871189896803 -3330.2114875222105 -0.01055706209080759 -0.016942449270572979 -0.01055706209080759 -3330.1899998536283 -0.018849111606868973 -0.016942449270572979 -0.018849111606868973 -9999.5035015190224 -3330.2119960793389 -0.0046152677891045935 -0.016546001862479898 -0.0046152677891045935 -3330.2001385796902 -0.02098770742668421 -0.016546001862479898 -0.02098770742668421 -9999.4819608209582 -3330.2226224392107 -0.00391195659270277 -0.011568423429707764 -0.00391195659270277 -3330.2109335625428 -0.033701349530929292 -0.011568423429707764 -0.033701349530929292 -9999.5115186755065 -3330.2018316641625 -0.0039533162468750049 -0.015297273555916036 -0.0039533162468750049 -3330.1732993454352 -0.0088354695108137093 -0.015297273555916036 -0.0088354695108137093 -9999.508057025756 -3330.2037150678898 -0.0038148036679990227 -0.015029570509796031 -0.0038148036679990227 -3330.178929336993 -0.016959223939920776 -0.015029570509796031 -0.016959223939920776 -9999.5099353745754 -3330.1960335038584 -0.0022639219572071489 -0.0217650006779877 -0.0022639219572071489 -3330.1719474228939 -0.024871086068742443 -0.0217650006779877 -0.024871086068742443 -9999.4951249067526 -3330.1982534388408 -0.0088805438069127218 -0.021346102203096962 -0.0088805438069127218 -3330.1871485532738 -0.020851164990745019 -0.021346102203096962 -0.020851164990745019 -9999.4976615323758 -3330.20462591873 -0.0065190575273261775 -0.020503436491708271 -0.0065190575273261775 -3330.1952997895223 -0.01837957137831836 -0.020503436491708271 -0.01837957137831836 -9999.558017194322 -3330.1807726878214 0.00042154633780366879 -0.026279972025804454 0.00042154633780366879 -3330.167274047355 -0.027012144026230089 -0.026279972025804454 -0.027012144026230089 -9999.4883227181417 -3330.2034625809883 0.00042154633780344675 -0.020137234936555615 0.00042154633780344675 -3330.1899639405219 -0.029492375666450243 -0.020137234936555615 -0.029492375666450243 -9999.556392397637 -3330.1819360255649 -0.0065190575273268436 -0.02664617358459509 -0.0065190575273268436 -3330.1726098963572 -0.015899339734460227 -0.02664617358459509 -0.015899339734460227 -9999.4899475148268 -3330.1884614742812 -0.0066909543179469733 -0.016708205108443508 -0.0066909543179469733 -3330.179636005545 -0.0141343540744856 -0.016708205108443508 -0.0141343540744856 -9999.5111949216225 -3330.3978525290577 -0.051167002561118002 0.050146661554208549 -0.051167002561118002 -3329.8739529539989 -0.27085801879729843 0.050146661554208549 -0.27085801879729843 -9999.1334812097448 -3330.1786316311918 -0.038272706680490431 -0.040398504152108217 -0.038272706680490431 -3330.1977815766641 -0.035532375595721533 -0.040398504152108217 -0.035532375595721533 -9999.3548642707392 -3330.1942835520804 -0.035430150084737544 -0.0430357014420224 -0.035430150084737544 -3330.2421403782555 -0.01264555066882167 -0.0430357014420224 -0.01264555066882167 -9999.3972945667556 -3330.2045609893121 -0.011241962790164817 -0.0088996033009607345 -0.011241962790164817 -3330.1956015004562 -0.018179812286689412 -0.0088996033009607345 -0.018179812286689412 -9999.4638433429573 -3330.208106265336 -0.011287759345934234 -0.011000703894751496 -0.011287759345934234 -3330.1994318397301 -0.014343732455017744 -0.011000703894751496 -0.014343732455017744 -9999.4747567736194 -3330.2070713780668 -0.016456144034879772 -0.027965696689534525 -0.016456144034879772 -3330.211843270823 -0.0044473288107838016 -0.027965696689534525 -0.0044473288107838016 -9999.4965915848516 -3330.222649666186 -0.010405583904116111 -0.028522863309262902 -0.010405583904116111 -3330.2163538367531 -0.0037858647610846674 -0.028522863309262902 -0.0037858647610846674 -9999.5016137983621 -3330.1918734998853 -0.014773283334039711 -0.0324105943673203 -0.014773283334039711 -3330.1903864373471 -0.021350838011130691 -0.0324105943673203 -0.021350838011130691 -9999.4593677048179 -3330.1810868725679 -0.012043774163372767 -0.012360324297333136 -0.012043774163372767 -3330.1924878597711 -0.014931645046090125 -0.012360324297333136 -0.014931645046090125 -9999.4880006648455 -3330.1865175231942 -0.012998712065692697 -0.017747639198205434 -0.012998712065692697 -3330.2071908034013 -0.0031818543866393156 -0.017747639198205434 -0.0031818543866393156 -9999.5018841997735 -3330.1887803260397 -0.011464630045769697 -0.013899565155952587 -0.011464630045769697 -3330.2099463590057 -0.0055387011016136967 -0.013899565155952587 -0.0055387011016136967 -9999.5031387893832 -3330.1759262413725 -0.013028505958110892 -0.028722030774588347 -0.013028505958110892 -3330.2007053860671 -0.0045629107298736926 -0.028722030774588347 -0.0045629107298736926 -9999.4860208294849 -3330.1701793361226 -0.0003471975225930457 -0.019750291616219329 -0.0003471975225930457 -3330.2036218274607 -0.0077507440582849085 -0.019750291616219329 -0.0077507440582849085 -9999.4969074090186 -3330.1747225001673 -0.012341433729247786 -0.027512213782756589 -0.012341433729247786 -3330.1922362133337 -0.0056515011092415079 -0.027512213782756589 -0.0056515011092415079 -9999.4863466601382 -3330.2010283418331 -0.015977078209568563 -0.042428185071003099 -0.015977078209568563 -3330.2019476763635 -0.0079309391330752987 -0.042428185071003099 -0.0079309391330752987 -9999.4953509863117 -3330.207718304222 -0.0083227109582197922 -0.035342114228114951 -0.0083227109582197922 -3330.1967446029939 -0.017870559509901796 -0.035342114228114951 -0.017870559509901796 -9999.4649184473164 -3330.2448205767032 0.0019029814767375641 -0.07824195076864271 0.0019029814767375641 -3330.2219566552176 0.0077495273071690463 -0.07824195076864271 0.0077495273071690463 -9999.5130562178419 -3330.2078669879756 -0.0077626601230044723 -0.10569094372294785 -0.0077626601230044723 -3330.2084747143854 -0.034768761728628306 -0.10569094372294785 -0.034768761728628306 -9999.3648463943646 -3330.1664107803153 -0.02355428702070328 -0.081136669075931422 -0.02355428702070328 -3330.1983215016153 -0.063919413289113436 -0.081136669075931422 -0.063919413289113436 -9999.3519440392556 -3330.2204398170143 -0.025923508318635324 -0.13019958408403909 -0.025923508318635324 -3330.2097100403844 -0.028308129480137723 -0.13019958408403909 -0.028308129480137723 -9999.4798586376965 -3330.2017303130706 -0.015977078209568785 -0.065161739365976246 -0.015977078209568785 -3330.202649647601 -0.0077792020201741252 -0.065161739365976246 -0.0077792020201741252 -9999.4974569000296 -3330.1727795690495 0.0019328421642359483 -0.048109488059708383 0.0019328421642359483 -3330.2112337867111 -0.017363819555612281 -0.048109488059708383 -0.017363819555612281 -9999.5289355192399 -3330.1900525795809 -0.012341433729247342 -0.043934818990237545 -0.012341433729247342 -3330.2075662927473 -0.0078396494081971468 -0.043934818990237545 -0.0078396494081971468 -9999.5323368983845 -3330.1156730573766 -0.0077104279870399139 -0.093384145431627985 -0.0077104279870399139 -3330.1694993127785 -0.022682045253986871 -0.093384145431627985 -0.022682045253986871 -9999.4436142658888 -3330.1351680964181 -0.015322323481372802 -0.081947844679234549 -0.015322323481372802 -3330.1815859105664 -0.010344431331759552 -0.081947844679234549 -0.010344431331759552 -9999.4755504116074 -3330.1948768396251 -0.011491278700447638 -0.038936957973419339 -0.011491278700447638 -3330.20892283188 -0.010900711182330269 -0.038936957973419339 -0.010900711182330269 -9999.5338820981742 -3330.1838239823774 -0.0077104279870394699 -0.035751371757214656 -0.0077104279870394699 -3330.2376502377792 0.0090172075551890885 -0.035751371757214656 0.0090172075551890885 -9999.6480670408819 -3330.2357806410782 -0.0092741200268641188 -0.02001573844881932 -0.0092741200268641188 -3330.232249671104 -0.00062046451421338134 -0.02001573844881932 -0.00062046451421338134 -9999.6597060638851 -3329.7552723523386 0.077460587228131317 -0.18664016742241074 0.077460587228131317 -3330.0392353991811 -0.035690101309228339 -0.18664016742241074 -0.035690101309228339 -9999.3838869335596 -3330.1647498536158 0.0087362300663036407 -0.038739740843084292 0.0087362300663036407 -3330.2473617315636 0.0021994849630573299 -0.038739740843084292 0.0021994849630573299 -9999.6457263821358 -3330.1821764429151 -0.24708273578977469 0.0031171539339993615 -0.24708273578977469 -3329.865553227557 -0.31539580457683769 0.0031171539339993615 -0.31539580457683769 -9999.0156090160381 -3330.245615345947 -0.025923508318635768 -0.13031920858156809 -0.025923508318635768 -3330.2348855693172 -0.027083210559794679 -0.13031920858156809 -0.027083210559794679 -9999.5553852244957 -3330.365710948402 0.043999644650487668 -0.19180111280456913 0.043999644650487668 -3330.4086567670338 0.045907647164312948 -0.19180111280456913 0.045907647164312948 -9999.628851924539 -3329.8633994646098 -0.35866587253294968 0.20548628544020175 -0.35866587253294968 -3330.050031769425 -0.18365519832150312 0.20548628544020175 -0.18365519832150312 -9999.2895712630489 -3330.1952593106653 0.014156431610405029 -0.038283218000287889 0.014156431610405029 -3330.2065163256157 -0.056429950951496721 -0.038283218000287889 -0.056429950951496721 -9999.472765082417 -3330.1986300910239 0.0095600923808738525 0.0065212601220991928 0.0095600923808738525 -3330.1979549670659 0.039504589360149112 0.0065212601220991928 0.039504589360149112 -9999.6434287311713 -3330.1794443339513 0.047176756847488122 0.016267420684016543 0.047176756847488122 -3330.2397079972925 0.0088016788772620203 0.016267420684016543 0.0088016788772620203 -9999.6474865686505 -3330.1662673430264 0.030456234755860345 0.002716020861043944 0.030456234755860345 -3330.1350034138932 0.027164957342392881 0.002716020861043944 0.027164957342392881 -9999.6180161750708 -3329.8107178236269 -0.062588478430930738 0.2275753808717127 -0.062588478430930738 -3330.3764124177987 0.11343366897085616 0.2275753808717127 0.11343366897085616 -9999.5473866872962 -3330.2364311157735 -0.0051451923183716275 0.073294562773298821 -0.0051451923183716275 -3330.2154149433636 0.048845107176020974 0.073294562773298821 0.048845107176020974 -9999.6572439814336 -3330.1356850335342 0.0066723872352074665 -0.034608775898959721 0.0066723872352074665 -3330.1978219549819 -0.015743406556339323 -0.034608775898959721 -0.015743406556339323 -9999.516308927432 -3330.1572663873612 0.0095600923808738525 -0.050498567406975781 0.0095600923808738525 -3330.1565912634032 -0.017603990756470012 -0.050498567406975781 -0.017603990756470012 -9999.5193376201823 -3330.1950505297391 -0.0092741200268645629 -0.074124616977314872 -0.0092741200268645629 -3330.1915195597649 -0.046482519039273029 -0.074124616977314872 -0.046482519039273029 -9999.5375157298658 -3330.1767389294091 -0.0026852453841311741 -0.026939594339637551 -0.0026852453841311741 -3330.2036845345046 -0.0056590855274407659 -0.026939594339637551 -0.0056590855274407659 -9999.535587047998 -3330.1434258420304 0.0093366912460366436 -0.038540297588042449 0.0093366912460366436 -3330.1926502493443 -0.010415866338007618 -0.038540297588042449 -0.010415866338007618 -9999.5169512031425 -3330.2432615445923 0.0043894959047339199 -0.016767013614298776 0.0043894959047339199 -3330.1856921701365 -0.012885485503375094 -0.016767013614298776 -0.012885485503375094 -9999.5481116361734 -3330.1934887083535 -0.0022002405198626729 -0.0005061054507677909 -0.0022002405198626729 -3330.2087924401148 -0.0019614629054558463 -0.0005061054507677909 -0.0019614629054558463 -9999.5410514691393 -3330.172090922928 -0.0051451923183715165 0.027830298598928493 -0.0051451923183715165 -3330.1510747505181 -0.016510119352460606 0.027830298598928493 -0.016510119352460606 -9999.4642234028979 -3330.1769094656756 -0.0022002405198625619 0.0089639463185449131 -0.0022002405198625619 -3330.192213197437 0.0017659783734416123 0.0089639463185449131 0.0017659783734416123 -9999.4913137411058 -3330.1654622746464 -0.0026852453841313961 -0.017357141307002166 -0.0026852453841313961 -3330.1924078797419 -0.0023279705746972468 -0.017357141307002166 -0.0023279705746972468 -9999.5017570837008 -3330.186619785547 -0.011491278700448082 -0.022015847480361117 -0.011491278700448082 -3330.200665777802 -0.0080223875665978994 -0.022015847480361117 -0.0080223875665978994 -9999.5091109359419 -3330.1810000337464 -0.00089060671060403607 0.003980623820098117 -0.00089060671060403607 -3330.2026519983629 -3.8694070099154487e-05 0.003980623820098117 -3.8694070099154487e-05 -9999.5042325324757 -3330.1742673504341 0.0040192560900633723 -0.01288064740219852 0.0040192560900633723 -3330.2035276075985 -0.0069262200877346913 -0.01288064740219852 -0.0069262200877346913 -9999.4979058576282 -3330.1818068577522 -0.0027475737029631908 0.0014508667445625179 -0.0027475737029631908 -3330.1975933229351 0.00030296915019789594 0.0014508667445625179 0.00030296915019789594 -9999.5071395902778 -3330.1647312608784 -0.00075411792539537004 -0.013902203594625462 -0.00075411792539537004 -3330.1960082162623 -0.005541926122532459 -0.013902203594625462 -0.005541926122532459 -9999.4936419874066 -3330.1692211034533 -0.0018675825987577443 -0.010600000648992136 -0.0018675825987577443 -3330.1992987367375 -0.002078290403005667 -0.010600000648992136 -0.002078290403005667 -9999.5004494844907 -3330.1823579184675 0.0051393260354311299 0.0062158767395885661 0.0051393260354311299 -3330.1951331827913 -0.00021501763785636285 0.0062158767395885661 -0.00021501763785636285 -9999.5016213125491 -3330.1816451540653 0.0020685889990476047 0.0088834980415413156 0.0020685889990476047 -3330.1902886084299 -0.00421071157870756 0.0088834980415413156 -0.00421071157870756 -9999.4920165159492 -3330.1741263841996 0.0045060936764802495 0.0085667972380178981 0.0045060936764802495 -3330.1872168827049 -0.0044971804054512177 0.0085667972380178981 -0.0044971804054512177 -9999.4893688920565 -3330.1776525227942 0.0029712943802605168 0.012473583828978008 0.0029712943802605168 -3330.1836800151432 0.00039645284277867177 0.012473583828978008 0.00039645284277867177 -9999.4799516436397 -3330.1792197154446 0.0093903591608617692 0.013287671785064958 0.0093903591608617692 -3330.1841151421741 -0.0094063475771690719 0.013287671785064958 -0.0094063475771690719 -9999.4804522235572 -3330.1933355328019 0.0049304707719783668 0.013420635281363502 0.0049304707719783668 -3330.1845515577388 -0.0092569863954850007 0.013420635281363502 -0.0092569863954850007 -9999.4840902817887 -3330.1825857119347 0.011034684473768749 0.0066022339851770084 0.011034684473768749 -3330.1918299379668 -0.0048673195979063166 0.0066022339851770084 -0.0048673195979063166 -9999.5008524497098 -3330.1800066111227 0.010649507066239045 0.0069143091559453751 0.010649507066239045 -3330.1864326449049 -0.0074469450082688127 0.0069143091559453751 -0.0074469450082688127 -9999.4961545090555 -3330.1967458415074 0.0087159735374264802 0.0065677398633852135 0.0087159735374264802 -3330.1929670635163 -0.0048558426442468772 0.0065677398633852135 -0.0048558426442468772 -9999.5046767634922 -3330.1769090483122 0.017119194818420093 0.00064847759858821519 0.017119194818420093 -3330.178351585866 -0.0083376125712675275 0.00064847759858821519 -0.0083376125712675275 -9999.4960636957767 -3330.1822821298192 0.011144202387780119 0.0007652929498362937 0.011144202387780119 -3330.1909481671573 -0.0068361483281478286 0.0007652929498362937 -0.0068361483281478286 -9999.500556111474 -3330.1742047018834 0.0088113388499160283 -0.0049054454357246868 0.0088113388499160283 -3330.1896941408759 -0.0011654099689621944 -0.0049054454357246868 -0.0011654099689621944 -9999.4982232479233 -3330.1800186341825 0.005616794123156188 -0.0092939518435741775 0.005616794123156188 -3330.2056904311066 -0.010060396713015507 -0.0092939518435741775 -0.010060396713015507 -9999.504789506369 -3330.1766406427978 0.0076213193180112437 -0.0052444179636950139 0.0076213193180112437 -3330.1962997462742 -0.0032718019574531354 -0.0052444179636950139 -0.0032718019574531354 -9999.5015973373156 -3330.1803650609927 0.0035878337597010646 -0.0075270312954671681 0.0035878337597010646 -3330.2069421355463 -0.0062424204934359295 -0.0075270312954671681 -0.0062424204934359295 -9999.5051463235795 -3330.1731084810253 0.0087496200543941693 0.0049202530753973406 0.0087496200543941693 -3330.1893255177292 -0.001386962212563958 0.0049202530753973406 -0.001386962212563958 -9999.4978570369203 -3330.1744546372101 0.0070169939906443712 -0.0058144067479588557 0.0070169939906443712 -3330.1960342780585 -0.0033713952288962901 -0.0058144067479588557 -0.0033713952288962901 -9999.5009417532638 -3330.1780894360618 0.0056017785377040497 0.0037556129427684937 0.0056017785377040497 -3330.1971591253041 -0.003587182356568519 0.0037556129427684937 -0.003587182356568519 -9999.5021316647835 -3330.1759441333234 0.0012488636370768802 -0.016155646342667751 0.0012488636370768802 -3330.2057894565496 -0.010883966530855105 -0.016155646342667751 -0.010883966530855105 -9999.5037956375163 -3330.1827139765592 0.0044600128383205373 -0.012845837358327117 0.0044600128383205373 -3330.209550775453 -0.015353460248661577 -0.012845837358327117 -0.015353460248661577 -9999.5064284280525 -3330.1822894987745 0.0094674561609511682 -0.001398454146055883 0.0094674561609511682 -3330.198035437712 -0.007117765759176109 -0.001398454146055883 -0.007117765759176109 -9999.5034434741683 -3330.1612316907267 0.0043028345928997069 -0.031045878375152824 0.0043028345928997069 -3330.1980254546106 -0.014301739166967309 -0.031045878375152824 -0.014301739166967309 -9999.4816772089616 -3330.1755202415316 0.014283204893093704 -0.00070005136876716278 0.014283204893093704 -3330.1774949550327 -0.008046083377848845 -0.00070005136876716278 -0.008046083377848845 -9999.5002168063438 -3330.1811943205557 0.011377551222117241 -0.00077660285387537442 0.011377551222117241 -3330.1929550859259 -0.0090300235242466442 -0.00077660285387537442 -0.0090300235242466442 -9999.5055003588277 -3330.182202922937 0.010356060283741322 2.7103971660835668e-05 0.010356060283741322 -3330.175246591938 -0.0082959417359234067 2.7103971660835668e-05 -0.0082959417359234067 -9999.5013253859215 -3330.1692393495032 0.015086011010752347 0.0010412668270873837 0.015086011010752347 -3330.1761418855458 -0.0084097250601189444 0.0010412668270873837 -0.0084097250601189444 -9999.4982601953889 -3330.1924647481974 0.0069174121351230355 -0.014836215894320048 0.0069174121351230355 -3330.1831155495966 -0.011818250102805905 -0.014836215894320048 -0.011818250102805905 -9999.5100695362489 -3330.1879304329959 0.0087732235138868742 -0.01716234301966324 0.0087732235138868742 -3330.1780873663956 -0.015954591159243137 -0.01716234301966324 -0.015954591159243137 -9999.5034674570561 -3330.1983058654405 0.0037424992263705679 -0.026873209708355716 0.0037424992263705679 -3330.2057357883677 -0.037655725747754332 -0.026873209708355716 -0.037655725747754332 -9999.5129734206566 -3330.1869199225039 0.0023002209415911024 -0.020694762675702805 0.0023002209415911024 -3330.1924110629661 -0.020851186378422426 -0.020694762675702805 -0.020851186378422426 -9999.4737599025684 -3330.2145763559838 -0.010936025568737961 -0.022368245503457729 -0.010936025568737961 -3330.2138960965767 -0.0078234868342406116 -0.022368245503457729 -0.0078234868342406116 -9999.4860452693392 -3330.2017620066308 0.0025082861641213539 -0.034097511394065805 0.0025082861641213539 -3330.2110251396953 -0.014088722375163343 -0.034097511394065805 -0.014088722375163343 -9999.4950597092102 -3330.1899425841839 0.0041917394876705982 -0.025308315136499004 0.0041917394876705982 -3330.203978498208 -0.013257214364557512 -0.025308315136499004 -0.013257214364557512 -9999.4774074267916 -3330.2031290539035 0.0065227176066084969 -0.036236405652743997 0.0065227176066084969 -3330.2134089909887 -0.02224377399511468 -0.036236405652743997 -0.02224377399511468 -9999.5160975184262 -3330.1929385464318 0.0027375700074266374 -0.030447174577602709 0.0027375700074266374 -3330.2016512237224 -0.033080116591008846 -0.030447174577602709 -0.033080116591008846 -9999.5017771176063 -3330.1803570689517 0.009400958746762722 -0.02399822467850754 0.009400958746762722 -3330.1731720732059 -0.018668475047888933 -0.02399822467850754 -0.018668475047888933 -9999.4915119606012 -3330.1563518659786 0.0019328421642359483 -0.032267630991555052 0.0019328421642359483 -3330.1948060836403 -0.012651911129069049 -0.032267630991555052 -0.012651911129069049 -9999.4796524100238 -3330.1759302617738 0.0068910195546929565 -0.020655130279919831 0.0068910195546929565 -3330.2045293915471 -0.023331412387960881 -0.020655130279919831 -0.023331412387960881 -9999.5070779205344 -3330.0798006319746 -0.0046186613740986093 -0.095164739308529533 -0.0046186613740986093 -3330.1665699029709 -0.023365628957890294 -0.095164739308529533 -0.023365628957890294 -9999.4579545435954 -3330.1640033296317 0.026527009156199322 -0.0563549838916515 0.026527009156199322 -3330.2243447861802 -0.052526894563698079 -0.0563549838916515 -0.052526894563698079 -9999.5412336729169 -3330.1062152232207 0.0087362300663038628 -0.090447493861574912 0.0087362300663038628 -3330.1888271011685 -0.029735694108239841 -0.090447493861574912 -0.029735694108239841 -9999.470122490955 -3330.1981172994838 0.011144202387780563 -0.011248236830397218 0.011144202387780563 -3330.2067833368219 -0.014624950883444399 -0.011248236830397218 -0.014624950883444399 -9999.5480616204659 -3330.2031300158196 0.013842759261199378 -0.035219214310927782 0.013842759261199378 -3330.2319623891308 -0.028412944755473291 -0.035219214310927782 -0.028412944755473291 -9999.5556095626271 -3330.1898796434471 0.0068910195546931785 -0.033548698011145461 0.0068910195546931785 -3330.2184787732203 -0.030668773458728538 -0.033548698011145461 -0.030668773458728538 -9999.5489260655595 -3330.225304038393 0.009237441723702975 0.011458860091806855 0.009237441723702975 -3330.1931301771456 -0.022133376105557545 0.011458860091806855 -0.022133376105557545 -9999.5487551978476 -3330.1205251863994 0.033112884290028261 0.019186360663297819 0.033112884290028261 -3330.1621969962471 -0.012251315812136454 0.019186360663297819 -0.012251315812136454 -9999.5060177592022 -3330.1916682910032 0.017119194818419951 -0.0025535840177326463 0.017119194818419951 -3330.1931108285571 -0.017318550311756553 -0.0025535840177326463 -0.017318550311756553 -9999.5403414238535 -3330.195270138518 0.029007856091534563 -0.0022652602954167378 0.029007856091534563 -3330.2116304600695 -0.013612635269964812 -0.0022652602954167378 -0.013612635269964812 -9999.5458717936126 -3330.1730110734425 0.025258262531805964 -0.034126657727028942 0.025258262531805964 -3330.1651968823298 -0.042443715334229637 -0.034126657727028942 -0.042443715334229637 -9999.5286986329083 -3330.1606084149862 0.033359042896872138 -0.044845510705272318 0.033359042896872138 -3330.1480458348688 -0.05141261450262391 -0.044845510705272318 -0.05141261450262391 -9999.5065439903956 -3330.2036551768015 0.0094009587467628331 -0.02138451010978315 0.0094009587467628331 -3330.1964701810557 -0.024392992323555518 -0.02138451010978315 -0.024392992323555518 -9999.5614062841523 -3330.1929554083017 0.016267313901333246 -0.05821741405998182 0.016267313901333246 -3330.2244361889971 -0.096279975507059135 -0.05821741405998182 -0.096279975507059135 -9999.5484945432872 -3330.1914227226171 0.019008410253586766 -0.063483492574050615 0.019008410253586766 -3330.2354519114306 -0.093063413130948902 -0.063483492574050615 -0.093063413130948902 -9999.5360990864428 -3330.1657839740201 0.0027375700074265541 -0.046105535367132688 0.0027375700074265541 -3330.1744966513106 -0.038055160108342534 -0.046105535367132688 -0.038055160108342534 -9999.4203134003801 -3330.1962945136311 -0.0083227109582195702 -0.048287302714015823 -0.0083227109582195702 -3330.185320812403 -0.019120716173347319 -0.048287302714015823 -0.019120716173347319 -9999.430647075551 -3330.2326702656665 0.00943255839871604 -0.095080841501840041 0.00943255839871604 -3330.2194830706248 -0.023371485376628698 -0.095080841501840041 -0.023371485376628698 -9999.5094002439328 -3330.2183870801127 0.030442836515150007 -0.086058305421829573 0.030442836515150007 -3330.2429668672994 -0.050453478101530891 -0.086058305421829573 -0.050453478101530891 -9999.559485130816 -3330.1724411486357 0.0065227176066086079 -0.052678386735351523 0.0065227176066086079 -3330.1827210857209 -0.02723615462628004 -0.052678386735351523 -0.02723615462628004 -9999.4240338026284 -3330.2977351254031 0.082796310570657394 -0.23578611514858494 0.082796310570657394 -3330.2764479551415 -0.035383801163334283 -0.23578611514858494 -0.035383801163334283 -9999.5788057658174 -3330.1889297720054 -0.0077626601230043613 -0.095118112212730921 -0.0077626601230043613 -3330.1895374984151 -0.082678956221570843 -0.095118112212730921 -0.082678956221570843 -9999.3080347464493 -3330.1260955940652 0.030442836515150007 -0.093921382716871449 0.030442836515150007 -3330.1506753812519 -0.080467205191325775 -0.093921382716871449 -0.080467205191325775 -9999.2826106726716 -3330.2424215165738 0.0066524607184233475 -0.088870046145530068 0.0066524607184233475 -3330.263770071846 -0.15196150868905534 -0.088870046145530068 -0.15196150868905534 -9999.6467903456905 -3330.2377255272531 0.033359042896872249 -0.055653042863923474 0.033359042896872249 -3330.2251629471357 -0.072531789995991858 -0.055653042863923474 -0.072531789995991858 -9999.7378953271946 -3330.2024056049695 0.032185102140868692 -0.13604555264828377 0.032185102140868692 -3330.2120975934513 -0.2573858800369635 -0.13604555264828377 -0.2573858800369635 -9999.6238682481926 -3330.1050377229822 0.019008410253586711 -0.070744963387369353 0.019008410253586711 -3330.1490669117957 -0.11861591625711299 -0.070744963387369353 -0.11861591625711299 -9999.2769440875381 -3330.2581305151407 0.010170496100665061 0.0079596216844493028 0.010170496100665061 -3330.3475293456095 0.030411134506721282 0.0079596216844493028 0.030411134506721282 -9999.6716574137754 -3330.2087931817796 0.043426510364739913 0.0031611019967385801 0.043426510364739913 -3330.2181656705352 -0.031265739769878564 0.0031611019967385801 -0.031265739769878564 -9999.6269821616661 -3330.091946447601 0.093505223754900321 0.042698103001384879 0.093505223754900321 -3330.1168607519649 0.0057959907262556953 0.042698103001384879 0.0057959907262556953 -9999.5374823025995 -3330.1363318129333 0.043308402991536474 0.10414498375030234 0.043308402991536474 -3330.2018155754567 -0.065964882543994463 0.10414498375030234 -0.065964882543994463 -9999.6047792956851 -3330.1492949027179 0.010330708243836195 -0.040900468877225649 0.010330708243836195 -3330.3975781122017 -0.056895760987117683 -0.040900468877225649 -0.056895760987117683 -9999.719441617628 -3330.2360768071985 0.038936268560014357 0.016455600002927895 0.038936268560014357 -3330.2472983689431 -0.0007464041373168584 0.016455600002927895 -0.0007464041373168584 -9999.7035671579324 -3329.9010452837056 0.017653390713031847 -0.22790355162760534 0.017653390713031847 -3330.1337932303768 -0.035934037165816335 -0.22790355162760534 -0.035934037165816335 -9999.4439696242007 -3330.2194340176075 0.026527009156199544 -0.048092003115016269 0.026527009156199544 -3330.2797754741559 -0.047184470324282302 -0.048092003115016269 -0.047184470324282302 -9999.7075257368379 -3330.2429191350348 -0.0090960578649454948 0.073137191317073302 -0.0090960578649454948 -3330.2330615720803 0.046363312590983696 0.073137191317073302 0.046363312590983696 -9999.6632776434271 -3330.2049438026697 0.018579021771194304 0.020740929692692589 0.018579021771194304 -3330.2575075570076 0.020235749580933771 0.020740929692692589 0.020235749580933771 -9999.6598953065695 -3330.3596710527981 -0.068954842475359213 0.096431016316273599 -0.068954842475359213 -3330.2954778958683 0.081352626219086233 0.096431016316273599 0.081352626219086233 -9999.6206532071519 -3330.1572561781268 0.052651380670767467 0.033459301099355798 0.052651380670767467 -3330.3809794443932 -0.017750105153027107 0.033459301099355798 -0.017750105153027107 -9999.7172822695284 -3330.1896964240213 0.027592543891579169 0.036815098375882371 0.027592543891579169 -3330.2175511354826 0.047182311971482704 0.036815098375882371 0.047182311971482704 -9999.6460943565253 -3330.2071460950219 -0.010409985587097631 0.048129961896847817 -0.010409985587097631 -3330.2029904808214 0.037662347592231527 0.048129961896847817 0.037662347592231527 -9999.559400113947 -3329.9666455430333 0.14964413083759232 0.17419815342873335 0.14964413083759232 -3330.2200257936029 0.18426039872611 0.17419815342873335 0.18426039872611 -9999.3816484713971 -3330.1913209678733 0.0029712943802604613 0.012912749925817479 0.0029712943802604613 -3330.1973484602222 -0.00065825616684378474 0.012912749925817479 -0.00065825616684378474 -9999.5209569788785 -3330.1785789421883 -0.0090960578649454948 0.027672927142702974 -0.0090960578649454948 -3330.1687213792338 -0.018991913944773842 0.027672927142702974 -0.018991913944773842 -9999.4702570648915 -3330.1628202505581 -0.010409985587097575 0.045913707474028342 -0.010409985587097575 -3330.1586646363576 -0.018982694403348432 0.045913707474028342 -0.018982694403348432 -9999.4264225805528 -3330.2159296082646 -0.018844996195646391 0.016939638777330401 -0.018844996195646391 -3330.1761541561918 -0.028700612123429892 0.016939638777330401 -0.028700612123429892 -9999.481452925651 -3330.1928662109713 0.00561679412315641 -0.019823204849672038 0.00561679412315641 -3330.2185380078954 -0.015302387588235433 -0.019823204849672038 -0.015302387588235433 -9999.5433322367389 -3330.1907056268774 0.0045060936764804715 -0.00090325453129480593 0.0045060936764804715 -3330.2037961253827 -0.0082246216843486764 -0.00090325453129480593 -0.0082246216843486764 -9999.53910662009 -3330.1659654005671 0.018579021771194082 -0.021741036769526545 0.018579021771194082 -3330.2185291549049 -0.026795236454745464 -0.021741036769526545 -0.026795236454745464 -9999.5429601002616 -3330.1874977597981 0.0088113388499158063 -0.015406104219437111 0.0088113388499158063 -3330.2029871987907 -0.0078976078984851483 -0.015406104219437111 -0.0078976078984851483 -9999.5381024216695 -3330.1414992861028 0.027592543891578947 0.005491123194587999 0.027592543891578947 -3330.169353997564 0.0050015608012472512 0.005491123194587999 0.0050015608012472512 -9999.5015029427668 -3330.1850462137409 0.0081569928885316667 -0.013273252745420905 0.0081569928885316667 -3330.2079055844297 -0.012599934971149196 -0.013273252745420905 -0.012599934971149196 -9999.545074410933 -3330.1350890774265 0.023433844066832465 0.018837177409295691 0.023433844066832465 -3330.166970059423 0.004700630724983057 0.018837177409295691 0.004700630724983057 -9999.4993044060611 -3330.1702120510836 0.043426510364740108 0.0097245362867397489 0.043426510364740108 -3330.1795845398392 -0.01051684476351511 0.0097245362867397489 -0.01051684476351511 -9999.5112387695808 -3330.1725033103794 0.038936268560013913 0.010539142346942754 0.038936268560013913 -3330.183724872124 -4.6458324504783377e-05 0.010539142346942754 -4.6458324504783377e-05 -9999.512846667476 -3330.2221519221875 0.016925407007359783 0.025695975422422634 0.016925407007359783 -3330.2258290734171 -0.0011222827324672835 0.025695975422422634 -0.0011222827324672835 -9999.5357848707536 -3330.2441857838694 -0.041203052764397091 0.047159647736407351 -0.041203052764397091 -3330.2175401242221 -0.035934190658736043 0.047159647736407351 -0.035934190658736043 -9999.4614828358499 -3330.1837979674146 0.0093903591608617831 0.022560537523304447 0.0093903591608617831 -3330.1886933941441 -0.016934150335146114 0.022560537523304447 -0.016934150335146114 -9999.4941869794675 -3330.1661800335096 -0.0072013020014443929 0.047307661447348437 -0.0072013020014443929 -3330.1667564763902 -0.035767923202001839 0.047307661447348437 -0.035767923202001839 -9999.4292854862979 -3330.2059605072227 0.023513674179505735 0.012589125190061168 0.023513674179505735 -3330.2281557440219 0.0032386552957177628 0.012589125190061168 0.0032386552957177628 -9999.5323186846581 -3330.1364725157655 0.27767957756974909 0.12399162772271666 0.27767957756974909 -3329.9120214770301 0.19513361174904276 0.12399162772271666 0.19513361174904276 -9999.1994964593978 -3330.1779659613585 -0.03761218355198355 0.0454158419961459 -0.03761218355198355 -3330.1322602804157 0.070344290022148925 0.0454158419961459 0.070344290022148925 -9999.5344225304325 -3330.1776828417715 -0.007201302001444386 0.030749974730724716 -0.007201302001444386 -3330.1782592846521 0.037791056443893467 0.030749974730724716 0.037791056443893467 -9999.4637939110871 -3330.362803333529 0.051041816910735893 0.11121696421150773 0.051041816910735893 -3330.1882749379211 0.046099477869574912 0.11121696421150773 0.046099477869574912 -9999.6230500705715 -3330.2025594252391 0.016925407007359783 0.0086689962390664732 0.016925407007359783 -3330.2062365764687 0.045137884786527138 0.0086689962390664732 0.045137884786527138 -9999.4770073799082 -3330.3953770313328 0.076585513830922936 0.093660246083345555 0.076585513830922936 -3330.4000071110841 -0.012956606270563498 0.093660246083345555 -0.012956606270563498 -9999.6841265383155 -3330.2124329848029 0.0030749294084581047 0.01670427968565491 0.0030749294084581047 -3330.2005311213088 0.072166420070061577 0.01670427968565491 0.072166420070061577 -9999.4780494060069 -3330.1799890600096 -0.019967944143020055 -0.033442933568949229 -0.019967944143020055 -3330.2019318234297 0.063079436382395215 -0.033442933568949229 0.063079436382395215 -9999.4702886003397 -3330.1883906918501 -0.013570212487731048 -0.0025052584824152291 -0.013570212487731048 -3330.1940274559165 0.00043463142174005043 -0.0025052584824152291 0.00043463142174005043 -9999.4704129164202 -3330.4915203264109 -0.0172287155292567 -0.11740841442133387 -0.0172287155292567 -3329.8371137964996 0.21072632317009266 -0.11740841442133387 0.21072632317009266 -9999.4040546045508 -3330.2010513027799 -0.016387689814604811 0.0068153350503052934 -0.016387689814604811 -3330.2534062621689 -0.025367920256030629 0.0068153350503052934 -0.025367920256030629 -9999.5186638847808 -3330.2004871374738 -0.013570212487731048 0.028921547571371775 -0.013570212487731048 -3330.2061239015402 -0.070130151680132258 0.028921547571371775 -0.070130151680132258 -9999.5067022532967 -3330.2016817835738 0.0037144690952726211 0.014074950937356334 0.0037144690952726211 -3330.1893781633953 -0.026466219383110001 0.014074950937356334 -0.026466219383110001 -9999.4988291258232 -3330.1978026756024 0.0015208766673262542 0.0035767965455306694 0.0015208766673262542 -3330.1818323396928 -0.0052088096999796107 0.0035767965455306694 -0.0052088096999796107 -9999.4959728928989 -3330.1995908047229 -6.4337614068987747e-05 0.018016843971054186 -6.4337614068987747e-05 -3330.1831500929766 -0.0025921842316165566 0.018016843971054186 -0.0025921842316165566 -9999.4967493635013 -3330.1942720822444 0.0087159735374264802 0.01454590100547648 0.0087159735374264802 -3330.1904933042533 -0.014267504076997284 0.01454590100547648 -0.014267504076997284 -9999.497255485705 -3330.2288695074822 0.0031927392720482173 0.037974639126332477 0.0031927392720482173 -3330.1943181572988 -0.013603017307104892 0.037974639126332477 -0.013603017307104892 -9999.5411341297367 -3330.2396991095193 -0.0015353113610931945 0.0424434057513281 -0.0015353113610931945 -3330.2219247215089 0.0014287133199104574 0.0424434057513281 0.0014287133199104574 -9999.5507431712977 -3330.2082327373828 0.0030749294084582157 0.05100989167294756 0.0030749294084582157 -3330.1963308738887 0.014037489332622499 0.05100989167294756 0.014037489332622499 -9999.465448663741 -3330.1757888125885 -0.019967944143019944 0.00086267842198139988 -0.019967944143019944 -3330.1977315760087 0.0049505056467751274 0.00086267842198139988 0.0049505056467751274 -9999.4576878580738 -3330.1808489820942 -0.0049704536417092271 0.042876960174908163 -0.0049704536417092271 -3330.1915330970132 0.022170420837937854 0.042876960174908163 0.022170420837937854 -9999.4574032807031 -3330.2399144951887 -0.21935965043397965 -0.073441808515781304 -0.21935965043397965 -3329.9264315186383 0.21251856403614511 -0.073441808515781304 0.21251856403614511 -9999.2589607231894 -3329.8253632131436 0.11334523581609823 0.12079952492968005 0.11334523581609823 -3330.0117835209521 0.025693259160107118 0.12079952492968005 0.025693259160107118 -9999.4445671862341 -3330.2409545025112 -0.0088697782880315934 0.068913262810838205 -0.0088697782880315934 -3330.2126084713691 0.011790377026045462 0.068913262810838205 0.011790377026045462 -9999.5986712461818 -3330.1881556945282 0.010579982977895863 -0.010272063322190661 0.010579982977895863 -3330.2122674340098 -0.031050846271682531 -0.010272063322190661 -0.031050846271682531 -9999.6811602863636 -3330.2248094694596 -0.010582083936159004 0.0024635559711896349 -0.010582083936159004 -3330.2080051846406 -0.0089921065198836914 0.0024635559711896349 -0.0089921065198836914 -9999.689258167753 -3330.2171917470923 0.024427655942912851 0.0053363151710072998 0.024427655942912851 -3330.2335617733252 -0.045358367153312429 0.0053363151710072998 -0.045358367153312429 -9999.7348615887022 -3330.1998741930902 0.013310262701559772 0.0027858901394210989 0.013310262701559772 -3330.2274028189122 -0.040438479834847385 0.0027858901394210989 -0.040438479834847385 -9999.728992461598 -3330.2100702558655 0.025016295022258328 -0.076006948072972591 0.025016295022258328 -3330.1900959238974 -0.098329600976285292 -0.076006948072972591 -0.098329600976285292 -9999.688254833025 -3330.1947751708976 -0.0010596096320193427 -0.06588465064214688 -0.0010596096320193427 -3330.2974901313701 -0.051954685215605423 -0.06588465064214688 -0.051954685215605423 -9999.7452395341643 -3330.2255134755005 0.014791431145879663 -0.048140645540115656 0.014791431145879663 -3330.226964472512 -0.059725010320107685 -0.048140645540115656 -0.059725010320107685 -9999.7013327750865 -3330.0768920137471 0.060098536776479472 -0.056607651382364566 0.060098536776479472 -3330.1892704250367 -0.039102791481127497 -0.056607651382364566 -0.039102791481127497 -9999.6887138182938 -3329.8826456420029 -0.38821039898927845 -0.2371383590852929 -0.38821039898927845 -3330.0611752749137 0.1071449885967013 -0.2371383590852929 0.1071449885967013 -9999.4181119702334 -3330.2509015834848 0.0040890083147671064 -0.025194532022396743 0.0040890083147671064 -3330.2010247361095 -0.022435354952904163 -0.025194532022396743 -0.022435354952904163 -9999.694036084129 -3330.2335973175877 0.015732881189067127 -0.043850409276274149 0.015732881189067127 -3330.1664888698333 -0.066334859126072843 -0.043850409276274149 -0.066334859126072843 -9999.6882348349391 -3330.1637265187637 0.054419555274114906 -0.033790214562031906 0.054419555274114906 -3330.0229344877571 -0.037323513965020538 -0.033790214562031906 -0.037323513965020538 -9999.6277197558593 -3330.199389883659 -0.0075411202072099837 0.0068093593108642381 -0.0075411202072099837 -3330.1918137234716 -0.0047676008907728828 0.0068093593108642381 -0.0047676008907728828 -9999.5544172832015 -3330.1823835350351 0.015732881189066683 0.01612578828826372 0.015732881189066683 -3330.1152750872807 2.3193191736936569e-05 0.01612578828826372 2.3193191736936569e-05 -9999.5345934872785 -3330.1663164830989 0.011553816654413129 0.001623467691388214 0.011553816654413129 -3330.174706011303 -0.013749828733125469 0.001623467691388214 -0.013749828733125469 -9999.5418720050184 -3330.1892979167187 -0.0013867272056026225 -0.0052390157252375502 -0.0013867272056026225 -3330.1883298347875 -0.015931256853946252 -0.0052390157252375502 -0.015931256853946252 -9999.552442705135 -3330.2025513144745 0.0040890083147668843 0.027826196913338208 0.0040890083147668843 -3330.1526744670991 0.020288895571866306 0.027826196913338208 0.020288895571866306 -9999.5489852770916 -3330.2166786515318 0.026549227912394002 0.018141632233891869 0.026549227912394002 -3330.1829299594901 0.01305018131279212 0.018141632233891869 0.01305018131279212 -9999.5384641117089 -3330.2012336269036 0.0016530855723262405 -0.0098452036145317834 0.0016530855723262405 -3330.1944983173562 -0.014646554092905717 -0.0098452036145317834 -0.014646554092905717 -9999.5603079307548 -3330.1959873555079 0.0048552612617828173 -0.019547449119272642 0.0048552612617828173 -3330.1847560459755 -0.028087562845030334 -0.019547449119272642 -0.028087562845030334 -9999.556560795063 -3330.1465371118065 0.025016295022258217 -0.041917010599718196 0.025016295022258217 -3330.1265627798384 -0.057302212200738722 -0.041917010599718196 -0.057302212200738722 -9999.4976554008463 -3330.1964415359744 0.0057197131397029866 -0.018202740911874571 0.0057197131397029866 -3330.1891829830492 -0.02969566762476461 -0.018202740911874571 -0.02969566762476461 -9999.5544418970167 -3330.1995946199222 0.0039743376197567404 -0.0066726648110488895 0.0039743376197567404 -3330.1932008999192 -0.01372247320466613 -0.0066726648110488895 -0.01372247320466613 -9999.5562346472216 -3330.1728747128363 0.014791431145879885 -0.0012392901844577864 0.014791431145879885 -3330.1743257098478 -0.0093392565358954016 -0.0012392901844577864 -0.0093392565358954016 -9999.5434164870894 -3330.1944931375347 0.010936527947220664 0.0018860757008951623 0.010936527947220664 -3330.1931936762867 -0.014024929956576671 0.0018860757008951623 -0.014024929956576671 -9999.5582966481488 -3330.1424573490694 0.024427655942912629 0.034008208760496927 0.024427655942912629 -3330.1588273753023 -0.017344261482321599 0.034008208760496927 -0.017344261482321599 -9999.5106583946326 -3330.1859230791197 0.0054588913767755765 0.0023504972650698619 0.0054588913767755765 -3330.1896299584387 -0.014920820540282875 0.0023504972650698619 -0.014920820540282875 -9999.5552632040817 -3330.1251397950673 0.013310262701559439 0.031457783725272748 0.013310262701559439 -3330.1526684208893 -0.012424374159309082 0.031457783725272748 -0.012424374159309082 -9999.5047892675248 -3330.1620801511162 0.018125669190364846 0.010500286840397166 0.018125669190364846 -3330.1709323643809 -0.0096032653101474352 0.010500286840397166 -0.0096032653101474352 -9999.5398695102922 -3330.20277536719 -0.0053697248236965756 0.01167145907311351 -0.0053697248236965756 -3330.1955746905987 -0.007574735497655638 0.01167145907311351 -0.007574735497655638 -9999.5562038958669 -3330.1311586764186 0.010579982977895863 0.045339157750277082 0.010579982977895863 -3330.1552704159003 -0.0026523173619352747 0.045339157750277082 -0.0026523173619352747 -9999.5101692320313 -3330.161797645269 -0.007854157026924713 0.035783987148533924 -0.007854157026924713 -3330.1801825009352 -0.0049311700095131528 0.035783987148533924 -0.0049311700095131528 -9999.5208322500912 -3330.2222670850078 -0.0088697782880314824 0.079236920953007939 -0.0088697782880314824 -3330.1939210538676 0.0064305609830626054 0.079236920953007939 0.0064305609830626054 -9999.5426089936736 -3330.2010370178941 -0.0051632312791382584 0.030672429568767257 -0.0051632312791382584 -3330.1887267647217 -0.0063008077449921984 0.030672429568767257 -0.0063008077449921984 -9999.5327781591877 -3330.1858702020763 -0.0053697248236970196 -0.00020497940931818448 -0.0053697248236970196 -3330.178669525485 -0.0054238059119597892 -0.00020497940931818448 -0.0054238059119597892 -9999.5054884005294 -3330.1926435199366 -0.0051632312791381474 0.01374304752516764 -0.0051632312791381474 -3330.1803332667641 -0.0016864433309820015 0.01374304752516764 -0.0016864433309820015 -9999.5075976653097 -3330.1661390558929 0.0054588913767752434 0.002237265020085033 0.0054588913767752434 -3330.1698459352119 -0.0095569932054786477 0.002237265020085033 -0.0095569932054786477 -9999.4959111343996 -3330.1747091143097 0.010936527947220887 0.0017728434577293228 0.010936527947220887 -3330.1734096530618 -0.0086611026217724429 0.0017728434577293228 -0.0086611026217724429 -9999.498944578474 -3330.1744790990961 0.0057197131397028755 -0.020867169632765581 0.0057197131397028755 -3330.1672205461709 -0.024965437274659052 -0.020867169632765581 -0.024965437274659052 -9999.4885545863872 -3330.1830099566596 0.0039743376197567404 -0.0081831706702359952 0.0039743376197567404 -3330.1766162366566 -0.0089639323873598187 -0.0081831706702359952 -0.0089639323873598187 -9999.5064806574374 -3330.1737518304799 -0.0013867272056028446 -0.011535486602952005 -0.0013867272056028446 -3330.1727837485487 -0.013304683427122654 -0.011535486602952005 -0.013304683427122654 -9999.5058044464167 -3330.1844115517561 -0.0075411202072102057 -0.0057340149742231006 -0.0075411202072102057 -3330.1768353915686 -0.0032562397245783359 -0.0057340149742231006 -0.0032562397245783359 -9999.5094822874962 -3330.1839627208446 0.0032424337581087315 -0.007291435085789999 0.0032424337581087315 -3330.1646508266003 -0.0075513847150432412 -0.007291435085789999 -0.0075513847150432412 -9999.501427660216 -3330.1838058986032 0.0038640994497731729 -0.0077899194402561989 0.0038640994497731729 -3330.1666682610521 -0.0095698037366673816 -0.0077899194402561989 -0.0095698037366673816 -9999.504192649023 -3330.1897615787584 0.00042558587304264428 -0.0031504580347245792 0.00042558587304264428 -3330.1676169484108 -0.0015340208046836779 -0.0031504580347245792 -0.0015340208046836779 -9999.5059187409061 -3330.1848008952038 -0.0079024305304451481 -0.0078024409667705186 -0.0079024305304451481 -3330.1742827505241 -0.0010374094345024787 -0.0078024409667705186 -0.0010374094345024787 -9999.5041243800661 -3330.1858863186517 0.0047328158763590977 -0.0067117488797521219 0.0047328158763590977 -3330.1751806934863 -0.0084444912840808684 -0.0067117488797521219 -0.0084444912840808684 -9999.504541026392 -3330.1811462579226 0.0049334167367933723 -0.0077030649845255539 0.0049334167367933723 -3330.1741218952538 -0.0083010550806648098 -0.0077030649845255539 -0.0083010550806648098 -9999.5049915001 -3330.1870955982631 0.0041538321379666066 -0.013011127870413475 0.0041538321379666066 -3330.1757945974132 -0.017171337884064997 -0.013011127870413475 -0.017171337884064997 -9999.5049968222738 -3330.1857752441574 0.0027242492907812998 -0.012962300806975691 0.0027242492907812998 -3330.1763988698185 -0.01558693902916275 -0.012962300806975691 -0.01558693902916275 -9999.5067179902981 -3330.1755674692758 0.0062423462304388444 -0.0025917075217876118 0.0062423462304388444 -3330.1742747894714 -0.0090896775791406981 -0.0025917075217876118 -0.0090896775791406981 -9999.5040346737951 -3330.1739074260822 0.0071084780221833954 -0.002149909332729294 0.0071084780221833954 -3330.1718426666794 -0.0084259387840575073 -0.002149909332729294 -0.0084259387840575073 -9999.5026119849936 -3330.1797745948443 0.010759823140167768 -0.0031016494613140821 0.010759823140167768 -3330.1763946589872 -0.0065899882356461603 -0.0031016494613140821 -0.0065899882356461603 -9999.5052167752656 -3330.1886179517169 0.00185083517021567 0.0097532628760745865 0.00185083517021567 -3330.1745897567998 -0.0019460850598989055 0.0097532628760745865 -0.0019460850598989055 -9999.5027168137531 -3330.1698893284884 0.0032936704758754765 0.0060600888646149542 0.0032936704758754765 -3330.168515208592 -0.0029356680570344906 0.0060600888646149542 -0.0029356680570344906 -9999.4965160208958 -3330.1805653882657 0.0033567963413903001 0.00054030020692152902 0.0033567963413903001 -3330.1726939538712 -0.003664881060103653 0.00054030020692152902 -0.003664881060103653 -9999.5048889446407 -3330.1879695026273 -0.0042321390218993393 0.0076146561477798969 -0.0042321390218993393 -3330.1735814067433 0.0055396976295014611 0.0076146561477798969 0.0055396976295014611 -9999.4858033880446 -3330.1973314133738 -6.4337614068765703e-05 0.0082107762700616149 -6.4337614068765703e-05 -3330.1808907016275 0.00494357751631469 0.0082107762700616149 0.00494357751631469 -9999.4899711894468 -3330.1955432842497 0.0015208766673264762 -0.006229271151823923 0.0015208766673264762 -3330.1795729483401 0.0023269520461326465 -0.006229271151823923 0.0023269520461326465 -9999.4891947188444 -3330.197622332671 0.0059198574645062951 0.010156417003599927 0.0059198574645062951 -3330.1818614650256 -0.0023492391828767722 0.010156417003599927 -0.0023492391828767722 -9999.5067858360562 -3330.1874474010601 0.0035920006691394502 0.0047524479959974997 0.0035920006691394502 -3330.1768288161966 0.0005143550515640527 0.0047524479959974997 0.0005143550515640527 -9999.4956137493646 -3330.2005948452661 0.0055817487838089042 0.0099046220166201238 0.0055817487838089042 -3330.1925447509366 -0.003196209898305824 0.0099046220166201238 -0.003196209898305824 -9999.5101997856764 -3330.185980816439 0.0080382842205082294 0.0027932724515267182 0.0080382842205082294 -3330.1854080387475 -0.0060757852406823076 0.0027932724515267182 -0.0060757852406823076 -9999.4973919088443 -3330.1903208095373 0.0074894534542850888 0.0033913328370545059 0.0074894534542850888 -3330.1862411503043 -0.011404391341784503 0.0033913328370545059 -0.011404391341784503 -9999.4986851850117 -3330.1864318718181 0.005500022629430612 -0.0018995534192072228 0.005500022629430612 -3330.1755880844212 -0.0006910285446792841 -0.0018995534192072228 -0.0006910285446792841 -9999.495049684112 -3330.1983788247162 0.00089940299967056214 -0.0046085526173555991 0.00089940299967056214 -3330.1823894890586 -0.0016379609769501258 -0.0046085526173555991 -0.0016379609769501258 -9999.500169122286 -3330.2032469454825 0.0037144690952726211 0.0038170095722307451 0.0037144690952726211 -3330.190943325304 -0.01869863855154108 0.0038170095722307451 -0.01869863855154108 -9999.503524611544 
</DataArray>
</CellData>
</Piece>
</UnstructuredGrid>
</VTKFile>
