<?xml version="1.0"?>
<VTKFile type="UnstructuredGrid" version="0.1" byte_order="LittleEndian">
<UnstructuredGrid>
<Piece NumberOfPoints="2160" NumberOfCells="540">
<Points>
<DataArray type="Float64" NumberOfComponents="3" format="ascii">
-4.3301270160527148 -2.500000004970083 -12 -2.9547160992544761 -1.820741508163664 -15 -2.9547160992544761 -1.820741508163664 -12 -5 -1.397247784140632e-08 -12 -4.3301270160527148 -2.500000004970083 -12 -2.9547160992544761 -1.820741508163664 -15 -2.9547160992544761 -1.820741508163664 -12 -2.5000000000000022 -4.3301270189221919 -12 -4.3301270160527148 -2.500000004970083 -12 -4.3301270160527148 -2.500000004970083 -15 -2.9547160992544761 -1.820741508163664 -15 -2.5000000000000022 -4.3301270189221919 -12 -4.3301270160527148 -2.500000004970083 -12 -4.3301270160527148 -2.500000004970083 -15 -2.9547160992544761 -1.820741508163664 -15 -5 -1.397247784140632e-08 -15 -2.9547160992544761 -1.820741508163664 -15 -0.66987297914647026 -2.499999999706382 -15 -0.66987297914647026 -2.499999999706382 -12 -2.2735805010731909 0.22641949675281539 -12 -2.9547160992544761 -1.820741508163664 -15 -2.5000000000000022 -4.3301270189221919 -12 -0.66987297914647026 -2.499999999706382 -15 -0.66987297914647026 -2.499999999706382 -12 -2.9547160992544761 -1.820741508163664 -15 -2.9547160992544761 -1.820741508163664 -12 -0.66987297914647026 -2.499999999706382 -12 -2.2735805010731909 0.22641949675281539 -12 -2.9547160992544761 -1.820741508163664 -15 -2.9547160992544761 -1.820741508163664 -12 -2.5000000000000022 -4.3301270189221919 -12 -0.66987297914647026 -2.499999999706382 -12 -2.5000000000000022 -4.3301270189221919 -12 -2.5000000000000022 -4.3301270189221919 -15 -0.66987297914647026 -2.499999999706382 -15 6.9142305214597846e-09 -5 -12 -2.9547160992544761 -1.820741508163664 -15 -2.5000000000000022 -4.3301270189221919 -12 -2.5000000000000022 -4.3301270189221919 -15 -0.66987297914647026 -2.499999999706382 -15 -4.3301270160527148 -2.500000004970083 -15 -2.9547160992544761 -1.820741508163664 -15 -2.5000000000000022 -4.3301270189221919 -12 -2.5000000000000022 -4.3301270189221919 -15 -2.5000000000000022 -4.3301270189221919 -15 6.9142305214597846e-09 -5 -15 -0.66987297914647026 -2.499999999706382 -15 6.9142305214597846e-09 -5 -12 6.9142305214597846e-09 -5 -15 -0.66987297914647026 -2.499999999706382 -15 0.91506351643986317 -3.4150635091400758 -15 6.9142305214597846e-09 -5 -12 -0.66987297914647026 -2.499999999706382 -15 0.91506351643986317 -3.4150635091400758 -15 -0.66987297914647026 -2.499999999706382 -12 6.9142305214597846e-09 -5 -12 -0.66987297914647026 -2.499999999706382 -15 0.95458002071209891 -1.657898275923388 -15 -0.66987297914647026 -2.499999999706382 -12 0.20080558631870429 0.033909897404034287 -15 -0.66987297914647026 -2.499999999706382 -15 0.95458002071209891 -1.657898275923388 -15 0.91506351643986317 -3.4150635091400758 -15 -0.66987297914647026 -2.499999999706382 -12 0.95458002071209891 -1.657898275923388 -15 0.91506351643986317 -3.4150635091400758 -15 0.91506351643986317 -3.4150635091400758 -12 -0.66987297914647026 -2.499999999706382 -12 0.95458002071209891 -1.657898275923388 -15 2.217625015551433 -2.5696135239339939 -15 0.95458002071209891 -1.657898275923388 -12 2.3883545080289421 -0.94497882694672608 -12 0.95458002071209891 -1.657898275923388 -15 2.217625015551433 -2.5696135239339939 -15 2.3883545080289421 -0.94497882694672608 -12 2.3883545080289421 -0.94497882694672608 -15 0.95458002071209891 -1.657898275923388 -15 2.217625015551433 -2.5696135239339939 -15 0.91506351643986317 -3.4150635091400758 -12 0.95458002071209891 -1.657898275923388 -12 0.95458002071209891 -1.657898275923388 -15 2.217625015551433 -2.5696135239339939 -15 0.91506351643986317 -3.4150635091400758 -15 0.91506351643986317 -3.4150635091400758 -12 2.217625015551433 -2.5696135239339939 -15 0.91506351643986317 -3.4150635091400758 -15 2.500000010727558 -4.3301270127286351 -15 2.500000010727558 -4.3301270127286351 -12 6.9142305214597846e-09 -5 -15 0.91506351643986317 -3.4150635091400758 -15 6.9142305214597846e-09 -5 -12 2.500000010727558 -4.3301270127286351 -12 6.9142305214597846e-09 -5 -15 0.91506351643986317 -3.4150635091400758 -15 2.500000010727558 -4.3301270127286351 -15 2.500000010727558 -4.3301270127286351 -12 2.217625015551433 -2.5696135239339939 -15 0.91506351643986317 -3.4150635091400758 -15 0.91506351643986317 -3.4150635091400758 -12 2.500000010727558 -4.3301270127286351 -12 0.91506351643986317 -3.4150635091400758 -15 0.91506351643986317 -3.4150635091400758 -12 6.9142305214597846e-09 -5 -12 2.500000010727558 -4.3301270127286351 -12 2.217625015551433 -2.5696135239339939 -15 0.91506351643986317 -3.4150635091400758 -12 2.217625015551433 -2.5696135239339939 -12 2.500000010727558 -4.3301270127286351 -12 2.217625015551433 -2.5696135239339939 -15 2.217625015551433 -2.5696135239339939 -12 0.95458002071209891 -1.657898275923388 -12 2.3883545080289421 -0.94497882694672608 -12 2.217625015551433 -2.5696135239339939 -15 0.91506351643986317 -3.4150635091400758 -12 2.217625015551433 -2.5696135239339939 -12 0.95458002071209891 -1.657898275923388 -12 0.95458002071209891 -1.657898275923388 -15 0.91506351643986317 -3.4150635091400758 -12 0.95458002071209891 -1.657898275923388 -12 -0.66987297914647026 -2.499999999706382 -12 0.95458002071209891 -1.657898275923388 -15 0.95458002071209891 -1.657898275923388 -12 -0.66987297914647026 -2.499999999706382 -12 0.20080558631870429 0.033909897404034287 -12 0.91506351643986317 -3.4150635091400758 -15 0.91506351643986317 -3.4150635091400758 -12 -0.66987297914647026 -2.499999999706382 -12 6.9142305214597846e-09 -5 -12 -2.5000000000000022 -4.3301270189221919 -12 -0.66987297914647026 -2.499999999706382 -15 -0.66987297914647026 -2.499999999706382 -12 6.9142305214597846e-09 -5 -12 0.91506351643986317 -3.4150635091400758 -12 -0.66987297914647026 -2.499999999706382 -12 6.9142305214597846e-09 -5 -12 6.9142305214597846e-09 -5 -9 0.91506351643986317 -3.4150635091400758 -12 0.91506351643986317 -3.4150635091400758 -9 -0.66987297914647026 -2.499999999706382 -9 6.9142305214597846e-09 -5 -9 0.91506351643986317 -3.4150635091400758 -12 -0.66987297914647026 -2.499999999706382 -12 -0.66987297914647026 -2.499999999706382 -9 6.9142305214597846e-09 -5 -9 -0.66987297914647026 -2.499999999706382 -12 -0.66987297914647026 -2.499999999706382 -9 6.9142305214597846e-09 -5 -9 -2.5000000000000022 -4.3301270189221919 -9 -2.5000000000000022 -4.3301270189221919 -12 -0.66987297914647026 -2.499999999706382 -12 6.9142305214597846e-09 -5 -12 6.9142305214597846e-09 -5 -9 0.95458002071209891 -1.657898275923388 -12 -0.66987297914647026 -2.499999999706382 -12 -0.66987297914647026 -2.499999999706382 -9 0.20080558631870429 0.033909897404034287 -12 0.91506351643986317 -3.4150635091400758 -12 0.95458002071209891 -1.657898275923388 -12 0.91506351643986317 -3.4150635091400758 -9 -0.66987297914647026 -2.499999999706382 -9 0.95458002071209891 -1.657898275923388 -12 0.95458002071209891 -1.657898275923388 -9 -0.66987297914647026 -2.499999999706382 -9 0.20080558631870429 0.033909897404034287 -9 0.91506351643986317 -3.4150635091400758 -12 0.95458002071209891 -1.657898275923388 -12 -0.66987297914647026 -2.499999999706382 -12 -0.66987297914647026 -2.499999999706382 -9 0.95458002071209891 -1.657898275923388 -12 0.91506351643986317 -3.4150635091400758 -9 0.95458002071209891 -1.657898275923388 -9 -0.66987297914647026 -2.499999999706382 -9 2.217625015551433 -2.5696135239339939 -12 0.95458002071209891 -1.657898275923388 -9 2.217625015551433 -2.5696135239339939 -9 2.3883545080289421 -0.94497882694672608 -9 2.217625015551433 -2.5696135239339939 -12 0.95458002071209891 -1.657898275923388 -12 2.3883545080289421 -0.94497882694672608 -9 2.3883545080289421 -0.94497882694672608 -12 2.217625015551433 -2.5696135239339939 -12 0.95458002071209891 -1.657898275923388 -12 0.95458002071209891 -1.657898275923388 -9 2.3883545080289421 -0.94497882694672608 -9 2.217625015551433 -2.5696135239339939 -12 0.95458002071209891 -1.657898275923388 -12 0.91506351643986317 -3.4150635091400758 -9 0.95458002071209891 -1.657898275923388 -9 0.91506351643986317 -3.4150635091400758 -12 2.217625015551433 -2.5696135239339939 -12 0.95458002071209891 -1.657898275923388 -12 0.91506351643986317 -3.4150635091400758 -9 2.217625015551433 -2.5696135239339939 -12 0.91506351643986317 -3.4150635091400758 -9 0.95458002071209891 -1.657898275923388 -9 2.217625015551433 -2.5696135239339939 -9 0.91506351643986317 -3.4150635091400758 -12 6.9142305214597846e-09 -5 -12 2.500000010727558 -4.3301270127286351 -12 2.500000010727558 -4.3301270127286351 -9 0.91506351643986317 -3.4150635091400758 -12 0.91506351643986317 -3.4150635091400758 -9 6.9142305214597846e-09 -5 -9 2.500000010727558 -4.3301270127286351 -9 0.91506351643986317 -3.4150635091400758 -12 6.9142305214597846e-09 -5 -12 6.9142305214597846e-09 -5 -9 2.500000010727558 -4.3301270127286351 -9 0.91506351643986317 -3.4150635091400758 -12 2.217625015551433 -2.5696135239339939 -12 0.91506351643986317 -3.4150635091400758 -9 2.500000010727558 -4.3301270127286351 -9 0.91506351643986317 -3.4150635091400758 -12 2.217625015551433 -2.5696135239339939 -12 2.500000010727558 -4.3301270127286351 -12 2.500000010727558 -4.3301270127286351 -9 2.217625015551433 -2.5696135239339939 -12 0.91506351643986317 -3.4150635091400758 -9 2.217625015551433 -2.5696135239339939 -9 2.500000010727558 -4.3301270127286351 -9 0.91506351643986317 -3.4150635091400758 -9 6.9142305214597846e-09 -5 -9 2.500000010727558 -4.3301270127286351 -9 2.500000010727558 -4.3301270127286351 -6 0.91506351643986317 -3.4150635091400758 -9 2.217625015551433 -2.5696135239339939 -9 2.500000010727558 -4.3301270127286351 -9 2.500000010727558 -4.3301270127286351 -6 0.91506351643986317 -3.4150635091400758 -9 0.95458002071209891 -1.657898275923388 -9 2.217625015551433 -2.5696135239339939 -9 0.91506351643986317 -3.4150635091400758 -6 0.95458002071209891 -1.657898275923388 -9 2.217625015551433 -2.5696135239339939 -9 2.3883545080289421 -0.94497882694672608 -9 2.3883545080289421 -0.94497882694672608 -6 0.91506351643986317 -3.4150635091400758 -9 0.95458002071209891 -1.657898275923388 -9 -0.66987297914647026 -2.499999999706382 -9 -0.66987297914647026 -2.499999999706382 -6 0.95458002071209891 -1.657898275923388 -9 -0.66987297914647026 -2.499999999706382 -9 0.20080558631870429 0.033909897404034287 -9 -0.66987297914647026 -2.499999999706382 -6 -0.66987297914647026 -2.499999999706382 -9 6.9142305214597846e-09 -5 -9 -2.5000000000000022 -4.3301270189221919 -9 6.9142305214597846e-09 -5 -6 0.91506351643986317 -3.4150635091400758 -9 -0.66987297914647026 -2.499999999706382 -9 6.9142305214597846e-09 -5 -9 6.9142305214597846e-09 -5 -6 -0.66987297914647026 -2.499999999706382 -9 -2.5000000000000022 -4.3301270189221919 -9 -2.9547160992544761 -1.820741508163664 -9 -2.5000000000000022 -4.3301270189221919 -6 -2.5000000000000022 -4.3301270189221919 -9 -4.3301270160527148 -2.500000004970083 -9 -2.9547160992544761 -1.820741508163664 -9 -2.5000000000000022 -4.3301270189221919 -6 -2.5000000000000022 -4.3301270189221919 -12 -0.66987297914647026 -2.499999999706382 -12 6.9142305214597846e-09 -5 -9 -2.5000000000000022 -4.3301270189221919 -9 -2.9547160992544761 -1.820741508163664 -12 -2.5000000000000022 -4.3301270189221919 -12 -0.66987297914647026 -2.499999999706382 -12 -2.5000000000000022 -4.3301270189221919 -9 -4.3301270160527148 -2.500000004970083 -12 -2.9547160992544761 -1.820741508163664 -12 -2.5000000000000022 -4.3301270189221919 -12 -2.5000000000000022 -4.3301270189221919 -9 -2.9547160992544761 -1.820741508163664 -12 -0.66987297914647026 -2.499999999706382 -9 -2.9547160992544761 -1.820741508163664 -9 -2.2735805010731909 0.22641949675281539 -9 -2.9547160992544761 -1.820741508163664 -12 -0.66987297914647026 -2.499999999706382 -9 -2.5000000000000022 -4.3301270189221919 -9 -2.9547160992544761 -1.820741508163664 -9 -2.9547160992544761 -1.820741508163664 -12 -0.66987297914647026 -2.499999999706382 -12 -0.66987297914647026 -2.499999999706382 -9 -2.5000000000000022 -4.3301270189221919 -9 -2.9547160992544761 -1.820741508163664 -12 -0.66987297914647026 -2.499999999706382 -12 -0.66987297914647026 -2.499999999706382 -9 -2.2735805010731909 0.22641949675281539 -9 -2.9547160992544761 -1.820741508163664 -12 -2.5000000000000022 -4.3301270189221919 -9 -4.3301270160527148 -2.500000004970083 -9 -2.9547160992544761 -1.820741508163664 -9 -4.3301270160527148 -2.500000004970083 -12 -2.9547160992544761 -1.820741508163664 -12 -2.5000000000000022 -4.3301270189221919 -9 -4.3301270160527148 -2.500000004970083 -9 -2.9547160992544761 -1.820741508163664 -12 -4.3301270160527148 -2.500000004970083 -9 -2.9547160992544761 -1.820741508163664 -9 -5 -1.397247784140632e-08 -9 -4.3301270160527148 -2.500000004970083 -12 -2.9547160992544761 -1.820741508163664 -12 -4.3301270160527148 -2.500000004970083 -9 -5 -1.397247784140632e-08 -12 -4.3301270160527148 -2.500000004970083 -9 -2.9547160992544761 -1.820741508163664 -9 -5 -1.397247784140632e-08 -9 -4.3301270160527148 -2.500000004970083 -6 -0.66987297914647026 -2.499999999706382 -9 -2.2735805010731909 0.22641949675281539 -9 0.20080558631870429 0.033909897404034287 -9 -2.2735805010731909 0.22641949675281539 -6 -0.66987297914647026 -2.499999999706382 -9 -2.9547160992544761 -1.820741508163664 -9 -2.2735805010731909 0.22641949675281539 -9 -2.2735805010731909 0.22641949675281539 -6 -2.2735805010731909 0.22641949675281539 -9 -0.91506351183037493 1.5849364925866429 -9 0.20080558631870429 0.033909897404034287 -9 -2.2735805010731909 0.22641949675281539 -6 -2.9547160992544761 -1.820741508163664 -9 -2.2735805010731909 0.22641949675281539 -9 -5 -1.397247784140632e-08 -9 -5 -1.397247784140632e-08 -6 -2.9547160992544761 -1.820741508163664 -12 -2.9547160992544761 -1.820741508163664 -9 -2.2735805010731909 0.22641949675281539 -9 -5 -1.397247784140632e-08 -9 -2.9547160992544761 -1.820741508163664 -12 -5 -1.397247784140632e-08 -9 -2.2735805010731909 0.22641949675281539 -12 -5 -1.397247784140632e-08 -12 -2.9547160992544761 -1.820741508163664 -12 -2.2735805010731909 0.22641949675281539 -9 -5 -1.397247784140632e-08 -9 -2.2735805010731909 0.22641949675281539 -12 -2.9547160992544761 -1.820741508163664 -12 -4.3301270160527148 -2.500000004970083 -9 -5 -1.397247784140632e-08 -9 -5 -1.397247784140632e-08 -12 -2.9547160992544761 -1.820741508163664 -12 -0.66987297914647026 -2.499999999706382 -12 -2.2735805010731909 0.22641949675281539 -9 -2.2735805010731909 0.22641949675281539 -12 -2.2735805010731909 0.22641949675281539 -9 -0.91506351183037493 1.5849364925866429 -12 0.20080558631870429 0.033909897404034287 -12 -2.2735805010731909 0.22641949675281539 -12 -0.66987297914647026 -2.499999999706382 -12 -2.2735805010731909 0.22641949675281539 -9 0.20080558631870429 0.033909897404034287 -12 -2.2735805010731909 0.22641949675281539 -12 -2.2253246846922492 2.366533744740174 -9 -0.91506351183037493 1.5849364925866429 -9 -2.2253246846922492 2.366533744740174 -12 -1.107852388446384 3.1911857209629071 -9 -2.2735805010731909 0.22641949675281539 -9 -0.91506351183037493 1.5849364925866429 -12 -2.2253246846922492 2.366533744740174 -12 -2.2735805010731909 0.22641949675281539 -12 -0.91506351183037493 1.5849364925866429 -9 -0.91506351183037493 1.5849364925866429 -12 -2.2253246846922492 2.366533744740174 -12 -1.107852388446384 3.1911857209629071 -12 -2.2735805010731909 0.22641949675281539 -9 -2.2253246846922492 2.366533744740174 -9 -0.91506351183037493 1.5849364925866429 -9 -2.2253246846922492 2.366533744740174 -12 -2.2735805010731909 0.22641949675281539 -9 -0.91506351183037493 1.5849364925866429 -9 -0.91506351183037493 1.5849364925866429 -12 -2.2253246846922492 2.366533744740174 -12 -2.2735805010731909 0.22641949675281539 -9 -4.3301270221112951 2.4999999944763132 -9 -2.2253246846922492 2.366533744740174 -9 -2.2253246846922492 2.366533744740174 -12 -2.2735805010731909 0.22641949675281539 -9 -4.3301270221112951 2.4999999944763132 -9 -2.2253246846922492 2.366533744740174 -12 -2.2735805010731909 0.22641949675281539 -12 -5 -1.397247784140632e-08 -9 -4.3301270221112951 2.4999999944763132 -9 -2.2735805010731909 0.22641949675281539 -12 -4.3301270221112951 2.4999999944763132 -12 -5 -1.397247784140632e-08 -9 -2.2735805010731909 0.22641949675281539 -12 -5 -1.397247784140632e-08 -12 -4.3301270221112951 2.4999999944763132 -12 -2.2735805010731909 0.22641949675281539 -9 -5 -1.397247784140632e-08 -9 -4.3301270221112951 2.4999999944763132 -9 -2.2735805010731909 0.22641949675281539 -12 -4.3301270221112951 2.4999999944763132 -9 -2.2253246846922492 2.366533744740174 -12 -2.2735805010731909 0.22641949675281539 -12 -4.3301270221112951 2.4999999944763132 -12 -2.2735805010731909 0.22641949675281539 -9 -5 -1.397247784140632e-08 -9 -4.3301270221112951 2.4999999944763132 -9 -5 -1.397247784140632e-08 -6 -2.2735805010731909 0.22641949675281539 -9 -4.3301270221112951 2.4999999944763132 -9 -2.2253246846922492 2.366533744740174 -9 -4.3301270221112951 2.4999999944763132 -6 -2.2253246846922492 2.366533744740174 -9 -0.91506351183037493 1.5849364925866429 -9 -1.107852388446384 3.1911857209629071 -9 -0.91506351183037493 1.5849364925866429 -6 -2.2735805010731909 0.22641949675281539 -9 -2.2253246846922492 2.366533744740174 -9 -0.91506351183037493 1.5849364925866429 -9 -2.2735805010731909 0.22641949675281539 -6 -0.91506351183037493 1.5849364925866429 -9 0.20080558631870429 0.033909897404034287 -9 0.37580157663508379 2.5408650916807378 -9 0.20080558631870429 0.033909897404034287 -6 -0.91506351183037493 1.5849364925866429 -9 0.37580157663508379 2.5408650916807378 -9 -1.107852388446384 3.1911857209629071 -9 0.37580157663508379 2.5408650916807378 -6 0.20080558631870429 0.033909897404034287 -9 2.3883545080289421 -0.94497882694672608 -9 2.465848112410058 1.4099871989758821 -9 2.3883545080289421 -0.94497882694672608 -6 0.95458002071209891 -1.657898275923388 -9 0.20080558631870429 0.033909897404034287 -9 2.3883545080289421 -0.94497882694672608 -9 2.3883545080289421 -0.94497882694672608 -6 0.20080558631870429 0.033909897404034287 -9 2.465848112410058 1.4099871989758821 -9 0.37580157663508379 2.5408650916807378 -9 0.20080558631870429 0.033909897404034287 -6 0.20080558631870429 0.033909897404034287 -9 2.465848112410058 1.4099871989758821 -12 0.37580157663508379 2.5408650916807378 -9 0.37580157663508379 2.5408650916807378 -12 2.465848112410058 1.4099871989758821 -9 2.465848112410058 1.4099871989758821 -12 2.4999999879139869 4.3301270259000564 -9 0.37580157663508379 2.5408650916807378 -9 0.20080558631870429 0.033909897404034287 -9 2.465848112410058 1.4099871989758821 -9 2.465848112410058 1.4099871989758821 -12 0.37580157663508379 2.5408650916807378 -9 0.20080558631870429 0.033909897404034287 -9 0.20080558631870429 0.033909897404034287 -12 2.465848112410058 1.4099871989758821 -12 0.37580157663508379 2.5408650916807378 -12 0.95458002071209891 -1.657898275923388 -12 2.3883545080289421 -0.94497882694672608 -9 0.20080558631870429 0.033909897404034287 -12 2.3883545080289421 -0.94497882694672608 -12 0.95458002071209891 -1.657898275923388 -12 0.20080558631870429 0.033909897404034287 -9 2.3883545080289421 -0.94497882694672608 -9 0.20080558631870429 0.033909897404034287 -12 0.20080558631870429 0.033909897404034287 -9 2.3883545080289421 -0.94497882694672608 -9 2.465848112410058 1.4099871989758821 -9 2.465848112410058 1.4099871989758821 -12 2.3883545080289421 -0.94497882694672608 -9 0.20080558631870429 0.033909897404034287 -12 2.3883545080289421 -0.94497882694672608 -12 2.465848112410058 1.4099871989758821 -12 0.20080558631870429 0.033909897404034287 -9 2.3883545080289421 -0.94497882694672608 -9 0.20080558631870429 0.033909897404034287 -12 2.465848112410058 1.4099871989758821 -12 0.95458002071209891 -1.657898275923388 -12 0.95458002071209891 -1.657898275923388 -9 0.20080558631870429 0.033909897404034287 -9 2.3883545080289421 -0.94497882694672608 -9 -2.2735805010731909 0.22641949675281539 -9 0.20080558631870429 0.033909897404034287 -9 -0.91506351183037493 1.5849364925866429 -12 0.20080558631870429 0.033909897404034287 -12 -0.66987297914647026 -2.499999999706382 -12 -0.66987297914647026 -2.499999999706382 -9 -2.2735805010731909 0.22641949675281539 -9 0.20080558631870429 0.033909897404034287 -12 0.95458002071209891 -1.657898275923388 -12 -0.66987297914647026 -2.499999999706382 -9 0.20080558631870429 0.033909897404034287 -9 0.20080558631870429 0.033909897404034287 -12 -0.66987297914647026 -2.499999999706382 -9 -2.2735805010731909 0.22641949675281539 -9 0.20080558631870429 0.033909897404034287 -9 0.20080558631870429 0.033909897404034287 -12 -2.2735805010731909 0.22641949675281539 -9 -0.91506351183037493 1.5849364925866429 -9 0.20080558631870429 0.033909897404034287 -9 -0.91506351183037493 1.5849364925866429 -12 -0.91506351183037493 1.5849364925866429 -9 0.20080558631870429 0.033909897404034287 -9 -0.91506351183037493 1.5849364925866429 -12 0.37580157663508379 2.5408650916807378 -9 0.20080558631870429 0.033909897404034287 -9 -0.91506351183037493 1.5849364925866429 -12 0.20080558631870429 0.033909897404034287 -12 0.37580157663508379 2.5408650916807378 -12 0.20080558631870429 0.033909897404034287 -9 -0.91506351183037493 1.5849364925866429 -12 0.37580157663508379 2.5408650916807378 -9 0.37580157663508379 2.5408650916807378 -12 -0.91506351183037493 1.5849364925866429 -9 -0.91506351183037493 1.5849364925866429 -12 0.37580157663508379 2.5408650916807378 -9 -1.107852388446384 3.1911857209629071 -12 -0.91506351183037493 1.5849364925866429 -12 0.37580157663508379 2.5408650916807378 -9 0.37580157663508379 2.5408650916807378 -12 -1.107852388446384 3.1911857209629071 -12 -0.91506351183037493 1.5849364925866429 -12 0.20080558631870429 0.033909897404034287 -12 -0.91506351183037493 1.5849364925866429 -15 -2.2735805010731909 0.22641949675281539 -12 -0.91506351183037493 1.5849364925866429 -12 0.20080558631870429 0.033909897404034287 -12 -0.91506351183037493 1.5849364925866429 -15 0.37580157663508379 2.5408650916807378 -12 -0.66987297914647026 -2.499999999706382 -12 0.20080558631870429 0.033909897404034287 -12 0.20080558631870429 0.033909897404034287 -15 -2.2735805010731909 0.22641949675281539 -12 0.20080558631870429 0.033909897404034287 -12 2.3883545080289421 -0.94497882694672608 -12 2.465848112410058 1.4099871989758821 -12 2.465848112410058 1.4099871989758821 -15 0.95458002071209891 -1.657898275923388 -15 0.95458002071209891 -1.657898275923388 -12 0.20080558631870429 0.033909897404034287 -12 2.3883545080289421 -0.94497882694672608 -12 2.465848112410058 1.4099871989758821 -12 2.465848112410058 1.4099871989758821 -15 2.4999999879139869 4.3301270259000564 -12 0.37580157663508379 2.5408650916807378 -12 0.20080558631870429 0.033909897404034287 -12 2.465848112410058 1.4099871989758821 -12 2.465848112410058 1.4099871989758821 -15 0.37580157663508379 2.5408650916807378 -12 0.20080558631870429 0.033909897404034287 -12 2.465848112410058 1.4099871989758821 -15 0.37580157663508379 2.5408650916807378 -12 0.37580157663508379 2.5408650916807378 -15 0.20080558631870429 0.033909897404034287 -12 2.465848112410058 1.4099871989758821 -15 0.20080558631870429 0.033909897404034287 -15 0.37580157663508379 2.5408650916807378 -15 2.3883545080289421 -0.94497882694672608 -12 2.465848112410058 1.4099871989758821 -15 2.3883545080289421 -0.94497882694672608 -15 0.20080558631870429 0.033909897404034287 -15 0.95458002071209891 -1.657898275923388 -15 0.20080558631870429 0.033909897404034287 -12 2.3883545080289421 -0.94497882694672608 -12 0.20080558631870429 0.033909897404034287 -15 0.20080558631870429 0.033909897404034287 -12 2.3883545080289421 -0.94497882694672608 -12 2.465848112410058 1.4099871989758821 -15 0.20080558631870429 0.033909897404034287 -15 0.95458002071209891 -1.657898275923388 -15 2.3883545080289421 -0.94497882694672608 -12 2.3883545080289421 -0.94497882694672608 -15 0.20080558631870429 0.033909897404034287 -15 -0.66987297914647026 -2.499999999706382 -15 -0.66987297914647026 -2.499999999706382 -12 0.20080558631870429 0.033909897404034287 -15 -2.2735805010731909 0.22641949675281539 -12 0.20080558631870429 0.033909897404034287 -12 0.20080558631870429 0.033909897404034287 -15 -0.91506351183037493 1.5849364925866429 -15 -2.2735805010731909 0.22641949675281539 -12 0.95458002071209891 -1.657898275923388 -15 -0.66987297914647026 -2.499999999706382 -12 0.20080558631870429 0.033909897404034287 -12 0.20080558631870429 0.033909897404034287 -15 0.20080558631870429 0.033909897404034287 -12 -0.91506351183037493 1.5849364925866429 -15 0.37580157663508379 2.5408650916807378 -12 0.37580157663508379 2.5408650916807378 -15 -0.91506351183037493 1.5849364925866429 -15 0.37580157663508379 2.5408650916807378 -12 -1.107852388446384 3.1911857209629071 -15 0.37580157663508379 2.5408650916807378 -15 -0.91506351183037493 1.5849364925866429 -12 -0.91506351183037493 1.5849364925866429 -15 0.37580157663508379 2.5408650916807378 -12 -1.107852388446384 3.1911857209629071 -15 0.20080558631870429 0.033909897404034287 -12 0.20080558631870429 0.033909897404034287 -15 -0.91506351183037493 1.5849364925866429 -15 0.37580157663508379 2.5408650916807378 -15 -0.91506351183037493 1.5849364925866429 -12 -0.91506351183037493 1.5849364925866429 -15 -2.2253246846922492 2.366533744740174 -15 -2.2735805010731909 0.22641949675281539 -12 -0.91506351183037493 1.5849364925866429 -15 -2.2253246846922492 2.366533744740174 -15 -2.2735805010731909 0.22641949675281539 -12 -2.2735805010731909 0.22641949675281539 -15 -2.2253246846922492 2.366533744740174 -15 -2.2735805010731909 0.22641949675281539 -12 -2.2735805010731909 0.22641949675281539 -15 -4.3301270221112951 2.4999999944763132 -12 -0.91506351183037493 1.5849364925866429 -12 -0.91506351183037493 1.5849364925866429 -15 -2.2253246846922492 2.366533744740174 -15 -1.107852388446384 3.1911857209629071 -15 -0.91506351183037493 1.5849364925866429 -12 -2.2253246846922492 2.366533744740174 -15 -2.2253246846922492 2.366533744740174 -12 -2.2735805010731909 0.22641949675281539 -12 -2.2253246846922492 2.366533744740174 -15 -2.2253246846922492 2.366533744740174 -12 -2.2735805010731909 0.22641949675281539 -12 -4.3301270221112951 2.4999999944763132 -12 -0.91506351183037493 1.5849364925866429 -12 -2.2253246846922492 2.366533744740174 -15 -2.2253246846922492 2.366533744740174 -12 -1.107852388446384 3.1911857209629071 -12 -2.9547160992544761 -1.820741508163664 -15 -0.66987297914647026 -2.499999999706382 -15 -2.2735805010731909 0.22641949675281539 -12 -2.2735805010731909 0.22641949675281539 -15 0.20080558631870429 0.033909897404034287 -15 -0.91506351183037493 1.5849364925866429 -15 -2.2735805010731909 0.22641949675281539 -12 -2.2735805010731909 0.22641949675281539 -15 -0.66987297914647026 -2.499999999706382 -15 0.20080558631870429 0.033909897404034287 -15 -2.2735805010731909 0.22641949675281539 -12 -2.2735805010731909 0.22641949675281539 -15 -4.3301270160527148 -2.500000004970083 -12 -2.9547160992544761 -1.820741508163664 -15 -5 -1.397247784140632e-08 -15 -5 -1.397247784140632e-08 -12 -2.9547160992544761 -1.820741508163664 -15 -2.2735805010731909 0.22641949675281539 -12 -2.2735805010731909 0.22641949675281539 -15 -5 -1.397247784140632e-08 -12 -2.9547160992544761 -1.820741508163664 -15 -2.2735805010731909 0.22641949675281539 -15 -5 -1.397247784140632e-08 -15 -5 -1.397247784140632e-08 -12 -2.9547160992544761 -1.820741508163664 -15 -2.9547160992544761 -1.820741508163664 -12 -2.2735805010731909 0.22641949675281539 -12 -5 -1.397247784140632e-08 -12 -2.2735805010731909 0.22641949675281539 -12 -2.2735805010731909 0.22641949675281539 -15 -5 -1.397247784140632e-08 -12 -4.3301270221112951 2.4999999944763132 -12 -2.2735805010731909 0.22641949675281539 -15 -5 -1.397247784140632e-08 -15 -5 -1.397247784140632e-08 -12 -4.3301270221112951 2.4999999944763132 -15 -2.2735805010731909 0.22641949675281539 -15 -5 -1.397247784140632e-08 -12 -4.3301270221112951 2.4999999944763132 -12 -4.3301270221112951 2.4999999944763132 -15 -2.2253246846922492 2.366533744740174 -15 -2.2735805010731909 0.22641949675281539 -15 -4.3301270221112951 2.4999999944763132 -12 -4.3301270221112951 2.4999999944763132 -15 -2.2253246846922492 2.366533744740174 -15 -4.3301270221112951 2.4999999944763132 -12 -4.3301270221112951 2.4999999944763132 -15 -2.4999999999999991 4.3301270189221936 -15 -0.91506351183037493 1.5849364925866429 -12 -2.2253246846922492 2.366533744740174 -15 -1.107852388446384 3.1911857209629071 -12 -1.107852388446384 3.1911857209629071 -15 -2.2253246846922492 2.366533744740174 -15 -4.3301270221112951 2.4999999944763132 -12 -2.4999999999999991 4.3301270189221936 -15 -2.4999999999999991 4.3301270189221936 -12 -2.2253246846922492 2.366533744740174 -15 -2.4999999999999991 4.3301270189221936 -15 -2.4999999999999991 4.3301270189221936 -12 -1.107852388446384 3.1911857209629071 -15 -2.2253246846922492 2.366533744740174 -15 -2.4999999999999991 4.3301270189221936 -12 -1.107852388446384 3.1911857209629071 -12 -1.107852388446384 3.1911857209629071 -15 -2.4999999999999991 4.3301270189221936 -15 -2.4999999999999991 4.3301270189221936 -12 -1.107852388446384 3.1911857209629071 -15 -6.2995949836986492e-09 5 -15 -2.2253246846922492 2.366533744740174 -15 -2.2253246846922492 2.366533744740174 -12 -2.4999999999999991 4.3301270189221936 -12 -1.107852388446384 3.1911857209629071 -12 -2.2253246846922492 2.366533744740174 -15 -2.2253246846922492 2.366533744740174 -12 -4.3301270221112951 2.4999999944763132 -12 -2.4999999999999991 4.3301270189221936 -12 -4.3301270221112951 2.4999999944763132 -9 -2.2253246846922492 2.366533744740174 -12 -4.3301270221112951 2.4999999944763132 -12 -2.4999999999999991 4.3301270189221936 -12 -2.4999999999999991 4.3301270189221936 -12 -2.4999999999999991 4.3301270189221936 -9 -6.2995949836986492e-09 5 -12 -1.107852388446384 3.1911857209629071 -12 -0.91506351183037493 1.5849364925866429 -9 -2.2253246846922492 2.366533744740174 -12 -1.107852388446384 3.1911857209629071 -9 -1.107852388446384 3.1911857209629071 -12 -4.3301270221112951 2.4999999944763132 -9 -2.2253246846922492 2.366533744740174 -12 -2.4999999999999991 4.3301270189221936 -12 -2.4999999999999991 4.3301270189221936 -9 -4.3301270221112951 2.4999999944763132 -9 -2.2253246846922492 2.366533744740174 -9 -2.2253246846922492 2.366533744740174 -12 -2.4999999999999991 4.3301270189221936 -9 -2.2253246846922492 2.366533744740174 -9 -2.2253246846922492 2.366533744740174 -12 -2.4999999999999991 4.3301270189221936 -9 -1.107852388446384 3.1911857209629071 -9 -2.2253246846922492 2.366533744740174 -12 -2.4999999999999991 4.3301270189221936 -12 -2.4999999999999991 4.3301270189221936 -9 -1.107852388446384 3.1911857209629071 -12 -2.2253246846922492 2.366533744740174 -12 -2.4999999999999991 4.3301270189221936 -9 -1.107852388446384 3.1911857209629071 -9 -1.107852388446384 3.1911857209629071 -12 -2.4999999999999991 4.3301270189221936 -9 -6.2995949836986492e-09 5 -9 -1.107852388446384 3.1911857209629071 -9 -2.4999999999999991 4.3301270189221936 -6 -2.2253246846922492 2.366533744740174 -9 -2.4999999999999991 4.3301270189221936 -9 -1.107852388446384 3.1911857209629071 -9 -2.4999999999999991 4.3301270189221936 -6 -4.3301270221112951 2.4999999944763132 -9 -2.2253246846922492 2.366533744740174 -9 -2.4999999999999991 4.3301270189221936 -9 -4.3301270221112951 2.4999999944763132 -6 -2.4999999999999991 4.3301270189221936 -9 -6.2995949836986492e-09 5 -9 -6.2995949836986492e-09 5 -12 -1.107852388446384 3.1911857209629071 -12 -6.2995949836986492e-09 5 -9 2.4999999879139869 4.3301270259000564 -9 0.37580157663508379 2.5408650916807378 -9 -6.2995949836986492e-09 5 -6 2.465848112410058 1.4099871989758821 -9 2.4999999879139869 4.3301270259000564 -9 0.37580157663508379 2.5408650916807378 -9 2.4999999879139869 4.3301270259000564 -6 -6.2995949836986492e-09 5 -9 0.37580157663508379 2.5408650916807378 -9 -1.107852388446384 3.1911857209629071 -9 -6.2995949836986492e-09 5 -6 -0.91506351183037493 1.5849364925866429 -9 0.37580157663508379 2.5408650916807378 -9 -1.107852388446384 3.1911857209629071 -9 -1.107852388446384 3.1911857209629071 -12 -6.2995949836986492e-09 5 -9 0.37580157663508379 2.5408650916807378 -9 0.37580157663508379 2.5408650916807378 -12 -1.107852388446384 3.1911857209629071 -12 -6.2995949836986492e-09 5 -9 -6.2995949836986492e-09 5 -12 0.37580157663508379 2.5408650916807378 -12 -1.107852388446384 3.1911857209629071 -12 -2.4999999999999991 4.3301270189221936 -9 -6.2995949836986492e-09 5 -9 -1.107852388446384 3.1911857209629071 -9 -1.107852388446384 3.1911857209629071 -12 -6.2995949836986492e-09 5 -9 0.37580157663508379 2.5408650916807378 -9 -1.107852388446384 3.1911857209629071 -9 -1.107852388446384 3.1911857209629071 -12 2.465848112410058 1.4099871989758821 -12 2.4999999879139869 4.3301270259000564 -9 2.4999999879139869 4.3301270259000564 -12 0.37580157663508379 2.5408650916807378 -12 -6.2995949836986492e-09 5 -9 2.4999999879139869 4.3301270259000564 -9 0.37580157663508379 2.5408650916807378 -9 0.37580157663508379 2.5408650916807378 -12 -6.2995949836986492e-09 5 -9 2.4999999879139869 4.3301270259000564 -12 -6.2995949836986492e-09 5 -12 0.37580157663508379 2.5408650916807378 -12 -6.2995949836986492e-09 5 -9 2.4999999879139869 4.3301270259000564 -9 2.4999999879139869 4.3301270259000564 -12 0.37580157663508379 2.5408650916807378 -12 2.465848112410058 1.4099871989758821 -12 2.4999999879139869 4.3301270259000564 -9 0.37580157663508379 2.5408650916807378 -9 0.37580157663508379 2.5408650916807378 -12 2.4999999879139869 4.3301270259000564 -12 -6.2995949836986492e-09 5 -12 0.37580157663508379 2.5408650916807378 -12 0.37580157663508379 2.5408650916807378 -15 -2.4999999999999991 4.3301270189221936 -12 -6.2995949836986492e-09 5 -12 -1.107852388446384 3.1911857209629071 -12 -1.107852388446384 3.1911857209629071 -15 -0.91506351183037493 1.5849364925866429 -12 0.37580157663508379 2.5408650916807378 -12 -1.107852388446384 3.1911857209629071 -12 -1.107852388446384 3.1911857209629071 -15 -6.2995949836986492e-09 5 -12 0.37580157663508379 2.5408650916807378 -12 -1.107852388446384 3.1911857209629071 -12 -1.107852388446384 3.1911857209629071 -15 -6.2995949836986492e-09 5 -12 0.37580157663508379 2.5408650916807378 -12 -1.107852388446384 3.1911857209629071 -15 0.37580157663508379 2.5408650916807378 -15 -6.2995949836986492e-09 5 -12 -1.107852388446384 3.1911857209629071 -15 0.37580157663508379 2.5408650916807378 -15 -6.2995949836986492e-09 5 -15 -2.4999999999999991 4.3301270189221936 -12 -6.2995949836986492e-09 5 -12 -1.107852388446384 3.1911857209629071 -15 -6.2995949836986492e-09 5 -15 2.4999999879139869 4.3301270259000564 -12 -6.2995949836986492e-09 5 -12 0.37580157663508379 2.5408650916807378 -15 2.4999999879139869 4.3301270259000564 -15 2.465848112410058 1.4099871989758821 -15 2.4999999879139869 4.3301270259000564 -12 0.37580157663508379 2.5408650916807378 -12 0.37580157663508379 2.5408650916807378 -15 2.465848112410058 1.4099871989758821 -15 2.4999999879139869 4.3301270259000564 -12 0.37580157663508379 2.5408650916807378 -15 2.4999999879139869 4.3301270259000564 -15 -6.2995949836986492e-09 5 -12 0.37580157663508379 2.5408650916807378 -15 -6.2995949836986492e-09 5 -15 2.4999999879139869 4.3301270259000564 -15 2.465848112410058 1.4099871989758821 -15 2.4999999879139869 4.3301270259000564 -12 4.3301270155636349 2.5000000058171929 -15 4.3301270155636349 2.5000000058171929 -12 2.465848112410058 1.4099871989758821 -15 2.4999999879139869 4.3301270259000564 -12 2.4999999879139869 4.3301270259000564 -15 4.3301270155636349 2.5000000058171929 -15 2.465848112410058 1.4099871989758821 -12 2.4999999879139869 4.3301270259000564 -9 4.3301270155636349 2.5000000058171929 -12 4.3301270155636349 2.5000000058171929 -9 2.465848112410058 1.4099871989758821 -12 2.4999999879139869 4.3301270259000564 -9 2.4999999879139869 4.3301270259000564 -12 4.3301270155636349 2.5000000058171929 -12 2.465848112410058 1.4099871989758821 -9 2.4999999879139869 4.3301270259000564 -9 4.3301270155636349 2.5000000058171929 -9 2.4999999879139869 4.3301270259000564 -6 2.217625015551433 -2.5696135239339939 -15 2.500000010727558 -4.3301270127286351 -15 2.500000010727558 -4.3301270127286351 -12 4.3301270218486989 -2.4999999949311431 -12 2.217625015551433 -2.5696135239339939 -15 2.217625015551433 -2.5696135239339939 -12 2.500000010727558 -4.3301270127286351 -12 4.3301270218486989 -2.4999999949311431 -12 2.217625015551433 -2.5696135239339939 -15 2.217625015551433 -2.5696135239339939 -12 2.3883545080289421 -0.94497882694672608 -12 4.3301270218486989 -2.4999999949311431 -12 2.217625015551433 -2.5696135239339939 -15 2.500000010727558 -4.3301270127286351 -15 4.3301270218486989 -2.4999999949311431 -12 4.3301270218486989 -2.4999999949311431 -15 2.217625015551433 -2.5696135239339939 -15 2.3883545080289421 -0.94497882694672608 -12 2.3883545080289421 -0.94497882694672608 -15 4.3301270218486989 -2.4999999949311431 -12 2.217625015551433 -2.5696135239339939 -15 2.3883545080289421 -0.94497882694672608 -15 4.3301270218486989 -2.4999999949311431 -12 4.3301270218486989 -2.4999999949311431 -15 2.3883545080289421 -0.94497882694672608 -15 4.3301270218486989 -2.4999999949311431 -12 4.3301270218486989 -2.4999999949311431 -15 5 0 -12 2.3883545080289421 -0.94497882694672608 -15 4.3301270218486989 -2.4999999949311431 -15 5 0 -15 5 0 -12 2.465848112410058 1.4099871989758821 -15 2.3883545080289421 -0.94497882694672608 -15 5 0 -15 5 0 -12 2.3883545080289421 -0.94497882694672608 -12 2.465848112410058 1.4099871989758821 -15 2.3883545080289421 -0.94497882694672608 -15 5 0 -12 2.465848112410058 1.4099871989758821 -15 4.3301270155636349 2.5000000058171929 -15 4.3301270155636349 2.5000000058171929 -12 5 0 -15 2.465848112410058 1.4099871989758821 -15 4.3301270155636349 2.5000000058171929 -12 5 0 -15 5 0 -12 2.465848112410058 1.4099871989758821 -12 2.465848112410058 1.4099871989758821 -15 2.4999999879139869 4.3301270259000564 -12 4.3301270155636349 2.5000000058171929 -12 2.465848112410058 1.4099871989758821 -12 2.465848112410058 1.4099871989758821 -15 4.3301270155636349 2.5000000058171929 -12 5 0 -12 2.3883545080289421 -0.94497882694672608 -12 2.3883545080289421 -0.94497882694672608 -15 4.3301270218486989 -2.4999999949311431 -12 5 0 -12 2.3883545080289421 -0.94497882694672608 -12 2.465848112410058 1.4099871989758821 -12 2.465848112410058 1.4099871989758821 -15 5 0 -12 2.3883545080289421 -0.94497882694672608 -9 2.3883545080289421 -0.94497882694672608 -12 5 0 -9 4.3301270218486989 -2.4999999949311431 -9 2.3883545080289421 -0.94497882694672608 -12 4.3301270218486989 -2.4999999949311431 -12 5 0 -12 5 0 -9 2.3883545080289421 -0.94497882694672608 -9 2.3883545080289421 -0.94497882694672608 -12 2.465848112410058 1.4099871989758821 -12 5 0 -9 2.3883545080289421 -0.94497882694672608 -9 2.465848112410058 1.4099871989758821 -9 2.465848112410058 1.4099871989758821 -12 5 0 -9 2.3883545080289421 -0.94497882694672608 -12 2.465848112410058 1.4099871989758821 -12 5 0 -12 5 0 -9 2.465848112410058 1.4099871989758821 -9 2.465848112410058 1.4099871989758821 -12 2.4999999879139869 4.3301270259000564 -9 4.3301270155636349 2.5000000058171929 -9 2.465848112410058 1.4099871989758821 -12 4.3301270155636349 2.5000000058171929 -9 5 0 -12 5 0 -9 2.465848112410058 1.4099871989758821 -12 4.3301270155636349 2.5000000058171929 -12 4.3301270155636349 2.5000000058171929 -9 5 0 -12 2.465848112410058 1.4099871989758821 -9 2.465848112410058 1.4099871989758821 -12 4.3301270155636349 2.5000000058171929 -9 5 0 -9 2.465848112410058 1.4099871989758821 -9 4.3301270155636349 2.5000000058171929 -9 5 0 -9 4.3301270155636349 2.5000000058171929 -6 2.3883545080289421 -0.94497882694672608 -9 5 0 -9 4.3301270218486989 -2.4999999949311431 -9 5 0 -6 2.3883545080289421 -0.94497882694672608 -9 2.465848112410058 1.4099871989758821 -9 5 0 -9 5 0 -6 2.217625015551433 -2.5696135239339939 -9 2.3883545080289421 -0.94497882694672608 -9 4.3301270218486989 -2.4999999949311431 -9 4.3301270218486989 -2.4999999949311431 -6 2.217625015551433 -2.5696135239339939 -9 4.3301270218486989 -2.4999999949311431 -9 2.500000010727558 -4.3301270127286351 -9 4.3301270218486989 -2.4999999949311431 -6 2.217625015551433 -2.5696135239339939 -12 2.3883545080289421 -0.94497882694672608 -12 4.3301270218486989 -2.4999999949311431 -12 4.3301270218486989 -2.4999999949311431 -9 2.217625015551433 -2.5696135239339939 -12 2.217625015551433 -2.5696135239339939 -9 2.3883545080289421 -0.94497882694672608 -9 4.3301270218486989 -2.4999999949311431 -9 2.3883545080289421 -0.94497882694672608 -12 4.3301270218486989 -2.4999999949311431 -12 5 0 -9 4.3301270218486989 -2.4999999949311431 -9 2.217625015551433 -2.5696135239339939 -12 2.3883545080289421 -0.94497882694672608 -9 2.3883545080289421 -0.94497882694672608 -12 4.3301270218486989 -2.4999999949311431 -9 2.217625015551433 -2.5696135239339939 -12 2.217625015551433 -2.5696135239339939 -9 4.3301270218486989 -2.4999999949311431 -9 2.500000010727558 -4.3301270127286351 -9 2.217625015551433 -2.5696135239339939 -12 2.500000010727558 -4.3301270127286351 -12 4.3301270218486989 -2.4999999949311431 -12 4.3301270218486989 -2.4999999949311431 -9 2.217625015551433 -2.5696135239339939 -12 2.500000010727558 -4.3301270127286351 -12 4.3301270218486989 -2.4999999949311431 -9 2.500000010727558 -4.3301270127286351 -9 2.217625015551433 -2.5696135239339939 -9 2.500000010727558 -4.3301270127286351 -9 2.500000010727558 -4.3301270127286351 -6 4.3301270218486989 -2.4999999949311431 -6 2.500000010727558 -4.3301270127286351 -6 4.3301270218486989 -2.4999999949311431 -3 2.500000010727558 -4.3301270127286351 -3 2.217625015551433 -2.5696135239339939 -6 4.3301270218486989 -2.4999999949311431 -3 2.3883545080289421 -0.94497882694672608 -3 2.3883545080289421 -0.94497882694672608 -6 2.217625015551433 -2.5696135239339939 -6 4.3301270218486989 -2.4999999949311431 -6 4.3301270218486989 -2.4999999949311431 -3 2.3883545080289421 -0.94497882694672608 -6 2.217625015551433 -2.5696135239339939 -6 4.3301270218486989 -2.4999999949311431 -6 5 0 -3 4.3301270218486989 -2.4999999949311431 -3 2.3883545080289421 -0.94497882694672608 -6 2.500000010727558 -4.3301270127286351 -6 4.3301270218486989 -2.4999999949311431 -6 4.3301270218486989 -2.4999999949311431 -3 2.217625015551433 -2.5696135239339939 -6 2.217625015551433 -2.5696135239339939 -9 2.500000010727558 -4.3301270127286351 -6 4.3301270218486989 -2.4999999949311431 -6 2.217625015551433 -2.5696135239339939 -6 2.217625015551433 -2.5696135239339939 -9 4.3301270218486989 -2.4999999949311431 -6 2.3883545080289421 -0.94497882694672608 -6 2.217625015551433 -2.5696135239339939 -6 2.3883545080289421 -0.94497882694672608 -9 4.3301270218486989 -2.4999999949311431 -9 4.3301270218486989 -2.4999999949311431 -6 5 0 -6 2.217625015551433 -2.5696135239339939 -9 2.3883545080289421 -0.94497882694672608 -9 4.3301270218486989 -2.4999999949311431 -6 2.3883545080289421 -0.94497882694672608 -6 2.3883545080289421 -0.94497882694672608 -9 2.465848112410058 1.4099871989758821 -9 5 0 -6 2.3883545080289421 -0.94497882694672608 -6 2.3883545080289421 -0.94497882694672608 -9 4.3301270218486989 -2.4999999949311431 -6 5 0 -6 2.3883545080289421 -0.94497882694672608 -6 2.465848112410058 1.4099871989758821 -9 5 0 -6 2.465848112410058 1.4099871989758821 -6 2.3883545080289421 -0.94497882694672608 -6 2.465848112410058 1.4099871989758821 -9 5 0 -9 5 0 -6 4.3301270155636349 2.5000000058171929 -6 2.465848112410058 1.4099871989758821 -9 5 0 -6 4.3301270155636349 2.5000000058171929 -6 2.465848112410058 1.4099871989758821 -6 2.465848112410058 1.4099871989758821 -9 4.3301270155636349 2.5000000058171929 -6 2.4999999879139869 4.3301270259000564 -6 2.465848112410058 1.4099871989758821 -6 5 0 -6 5 0 -3 4.3301270155636349 2.5000000058171929 -3 2.465848112410058 1.4099871989758821 -6 5 0 -6 4.3301270155636349 2.5000000058171929 -6 4.3301270155636349 2.5000000058171929 -3 2.465848112410058 1.4099871989758821 -6 5 0 -6 5 0 -3 2.465848112410058 1.4099871989758821 -6 2.3883545080289421 -0.94497882694672608 -6 5 0 -3 2.3883545080289421 -0.94497882694672608 -3 2.465848112410058 1.4099871989758821 -6 2.3883545080289421 -0.94497882694672608 -6 4.3301270218486989 -2.4999999949311431 -6 5 0 -6 5 0 -3 2.3883545080289421 -0.94497882694672608 -6 5 0 -3 2.465848112410058 1.4099871989758821 -3 2.3883545080289421 -0.94497882694672608 -3 2.465848112410058 1.4099871989758821 -6 5 0 -3 5 0 0 2.465848112410058 1.4099871989758821 -3 2.3883545080289421 -0.94497882694672608 -3 5 0 -3 5 0 0 4.3301270218486989 -2.4999999949311431 -3 2.3883545080289421 -0.94497882694672608 -3 5 0 -3 4.3301270218486989 -2.4999999949311431 -3 2.3883545080289421 -0.94497882694672608 -3 2.3883545080289421 -0.94497882694672608 -6 5 0 -3 4.3301270155636349 2.5000000058171929 -3 4.3301270155636349 2.5000000058171929 0 2.465848112410058 1.4099871989758821 -3 5 0 -3 4.3301270155636349 2.5000000058171929 -3 2.465848112410058 1.4099871989758821 -3 2.465848112410058 1.4099871989758821 -6 4.3301270155636349 2.5000000058171929 -3 2.4999999879139869 4.3301270259000564 -3 2.465848112410058 1.4099871989758821 -3 2.465848112410058 1.4099871989758821 -6 4.3301270155636349 2.5000000058171929 0 2.4999999879139869 4.3301270259000564 0 2.465848112410058 1.4099871989758821 0 2.465848112410058 1.4099871989758821 -3 5 0 -3 5 0 0 4.3301270155636349 2.5000000058171929 0 2.465848112410058 1.4099871989758821 -3 5 0 0 4.3301270155636349 2.5000000058171929 0 2.465848112410058 1.4099871989758821 0 2.465848112410058 1.4099871989758821 -3 5 0 0 4.3301270218486989 -2.4999999949311431 0 2.3883545080289421 -0.94497882694672608 0 2.3883545080289421 -0.94497882694672608 -3 5 0 0 2.3883545080289421 -0.94497882694672608 0 2.465848112410058 1.4099871989758821 0 2.465848112410058 1.4099871989758821 -3 5 0 0 2.3883545080289421 -0.94497882694672608 0 2.465848112410058 1.4099871989758821 -3 2.3883545080289421 -0.94497882694672608 -3 4.3301270218486989 -2.4999999949311431 0 2.500000010727558 -4.3301270127286351 0 2.217625015551433 -2.5696135239339939 -3 2.217625015551433 -2.5696135239339939 0 4.3301270218486989 -2.4999999949311431 0 2.3883545080289421 -0.94497882694672608 0 2.217625015551433 -2.5696135239339939 -3 2.217625015551433 -2.5696135239339939 0 4.3301270218486989 -2.4999999949311431 0 2.3883545080289421 -0.94497882694672608 0 2.3883545080289421 -0.94497882694672608 -3 2.217625015551433 -2.5696135239339939 -3 5 0 0 4.3301270218486989 -2.4999999949311431 0 4.3301270218486989 -2.4999999949311431 -3 2.3883545080289421 -0.94497882694672608 -3 4.3301270218486989 -2.4999999949311431 -3 2.500000010727558 -4.3301270127286351 -3 2.217625015551433 -2.5696135239339939 -6 2.217625015551433 -2.5696135239339939 -3 4.3301270218486989 -2.4999999949311431 0 4.3301270218486989 -2.4999999949311431 -3 2.3883545080289421 -0.94497882694672608 -3 2.217625015551433 -2.5696135239339939 -3 4.3301270218486989 -2.4999999949311431 -3 2.3883545080289421 -0.94497882694672608 -3 2.217625015551433 -2.5696135239339939 -6 2.217625015551433 -2.5696135239339939 -3 4.3301270218486989 -2.4999999949311431 0 4.3301270218486989 -2.4999999949311431 -3 2.500000010727558 -4.3301270127286351 -3 2.217625015551433 -2.5696135239339939 -3 4.3301270218486989 -2.4999999949311431 0 2.500000010727558 -4.3301270127286351 -3 2.500000010727558 -4.3301270127286351 0 2.217625015551433 -2.5696135239339939 -3 2.465848112410058 1.4099871989758821 -9 4.3301270155636349 2.5000000058171929 -9 4.3301270155636349 2.5000000058171929 -6 2.4999999879139869 4.3301270259000564 -6 4.3301270155636349 2.5000000058171929 -6 2.4999999879139869 4.3301270259000564 -3 2.4999999879139869 4.3301270259000564 -6 2.465848112410058 1.4099871989758821 -6 4.3301270155636349 2.5000000058171929 -6 4.3301270155636349 2.5000000058171929 -3 2.4999999879139869 4.3301270259000564 -3 2.465848112410058 1.4099871989758821 -6 4.3301270155636349 2.5000000058171929 -3 2.4999999879139869 4.3301270259000564 0 2.4999999879139869 4.3301270259000564 -3 2.465848112410058 1.4099871989758821 -3 4.3301270155636349 2.5000000058171929 -3 4.3301270155636349 2.5000000058171929 0 2.4999999879139869 4.3301270259000564 0 2.465848112410058 1.4099871989758821 -3 2.4999999879139869 4.3301270259000564 0 -6.2995949836986492e-09 5 0 0.37580157663508379 2.5408650916807378 0 0.37580157663508379 2.5408650916807378 -3 2.4999999879139869 4.3301270259000564 0 0.37580157663508379 2.5408650916807378 0 0.37580157663508379 2.5408650916807378 -3 2.465848112410058 1.4099871989758821 -3 2.4999999879139869 4.3301270259000564 0 -6.2995949836986492e-09 5 0 0.37580157663508379 2.5408650916807378 -3 2.4999999879139869 4.3301270259000564 -3 -6.2995949836986492e-09 5 0 -1.107852388446384 3.1911857209629071 -3 -6.2995949836986492e-09 5 -3 -2.4999999999999991 4.3301270189221936 0 -6.2995949836986492e-09 5 0 -1.107852388446384 3.1911857209629071 0 0.37580157663508379 2.5408650916807378 0 -1.107852388446384 3.1911857209629071 -3 -6.2995949836986492e-09 5 0 -1.107852388446384 3.1911857209629071 0 -1.107852388446384 3.1911857209629071 -3 -2.4999999999999991 4.3301270189221936 0 -6.2995949836986492e-09 5 0 0.37580157663508379 2.5408650916807378 0 -1.107852388446384 3.1911857209629071 -3 0.37580157663508379 2.5408650916807378 -3 -1.107852388446384 3.1911857209629071 0 0.37580157663508379 2.5408650916807378 0 -1.107852388446384 3.1911857209629071 -3 -0.91506351183037493 1.5849364925866429 0 -6.2995949836986492e-09 5 0 -1.107852388446384 3.1911857209629071 -3 0.37580157663508379 2.5408650916807378 -3 -6.2995949836986492e-09 5 -3 -6.2995949836986492e-09 5 0 0.37580157663508379 2.5408650916807378 -3 -6.2995949836986492e-09 5 -3 2.4999999879139869 4.3301270259000564 -3 2.4999999879139869 4.3301270259000564 0 0.37580157663508379 2.5408650916807378 -3 2.4999999879139869 4.3301270259000564 -3 2.465848112410058 1.4099871989758821 -3 0.37580157663508379 2.5408650916807378 -3 2.4999999879139869 4.3301270259000564 -3 0.37580157663508379 2.5408650916807378 -6 2.465848112410058 1.4099871989758821 -6 2.4999999879139869 4.3301270259000564 -3 0.37580157663508379 2.5408650916807378 -6 2.4999999879139869 4.3301270259000564 -6 2.465848112410058 1.4099871989758821 -6 -6.2995949836986492e-09 5 -3 2.4999999879139869 4.3301270259000564 -3 0.37580157663508379 2.5408650916807378 -6 2.4999999879139869 4.3301270259000564 -6 -6.2995949836986492e-09 5 -3 0.37580157663508379 2.5408650916807378 -6 2.4999999879139869 4.3301270259000564 -6 -6.2995949836986492e-09 5 -6 0.37580157663508379 2.5408650916807378 -3 -6.2995949836986492e-09 5 -3 2.4999999879139869 4.3301270259000564 -3 0.37580157663508379 2.5408650916807378 -6 -1.107852388446384 3.1911857209629071 -3 0.37580157663508379 2.5408650916807378 -3 -1.107852388446384 3.1911857209629071 -6 -0.91506351183037493 1.5849364925866429 -3 -1.107852388446384 3.1911857209629071 -3 0.37580157663508379 2.5408650916807378 -3 -6.2995949836986492e-09 5 -3 -1.107852388446384 3.1911857209629071 -6 -6.2995949836986492e-09 5 -3 -1.107852388446384 3.1911857209629071 -6 0.37580157663508379 2.5408650916807378 -6 -6.2995949836986492e-09 5 -6 0.37580157663508379 2.5408650916807378 -3 -6.2995949836986492e-09 5 -3 -1.107852388446384 3.1911857209629071 -6 0.37580157663508379 2.5408650916807378 -6 -1.107852388446384 3.1911857209629071 -3 -6.2995949836986492e-09 5 -3 -1.107852388446384 3.1911857209629071 -6 -2.4999999999999991 4.3301270189221936 -3 -1.107852388446384 3.1911857209629071 -9 -1.107852388446384 3.1911857209629071 -6 0.37580157663508379 2.5408650916807378 -6 -6.2995949836986492e-09 5 -6 -1.107852388446384 3.1911857209629071 -9 -1.107852388446384 3.1911857209629071 -6 -6.2995949836986492e-09 5 -6 -2.4999999999999991 4.3301270189221936 -6 0.37580157663508379 2.5408650916807378 -9 -1.107852388446384 3.1911857209629071 -9 0.37580157663508379 2.5408650916807378 -6 -6.2995949836986492e-09 5 -6 -1.107852388446384 3.1911857209629071 -9 -1.107852388446384 3.1911857209629071 -6 0.37580157663508379 2.5408650916807378 -6 -0.91506351183037493 1.5849364925866429 -6 2.4999999879139869 4.3301270259000564 -9 0.37580157663508379 2.5408650916807378 -9 2.4999999879139869 4.3301270259000564 -6 -6.2995949836986492e-09 5 -6 0.37580157663508379 2.5408650916807378 -9 0.37580157663508379 2.5408650916807378 -6 2.4999999879139869 4.3301270259000564 -6 -6.2995949836986492e-09 5 -6 2.465848112410058 1.4099871989758821 -9 0.37580157663508379 2.5408650916807378 -9 0.37580157663508379 2.5408650916807378 -6 2.4999999879139869 4.3301270259000564 -6 -6.2995949836986492e-09 5 -9 -1.107852388446384 3.1911857209629071 -9 -6.2995949836986492e-09 5 -6 -2.4999999999999991 4.3301270189221936 -6 -6.2995949836986492e-09 5 -3 -1.107852388446384 3.1911857209629071 -6 -6.2995949836986492e-09 5 -6 -2.4999999999999991 4.3301270189221936 -3 -2.2253246846922492 2.366533744740174 -9 -1.107852388446384 3.1911857209629071 -6 -2.4999999999999991 4.3301270189221936 -6 -2.2253246846922492 2.366533744740174 -6 -2.2253246846922492 2.366533744740174 -9 -1.107852388446384 3.1911857209629071 -9 -1.107852388446384 3.1911857209629071 -6 -0.91506351183037493 1.5849364925866429 -6 -2.2253246846922492 2.366533744740174 -9 -1.107852388446384 3.1911857209629071 -9 -1.107852388446384 3.1911857209629071 -6 -2.4999999999999991 4.3301270189221936 -6 -2.2253246846922492 2.366533744740174 -9 -2.4999999999999991 4.3301270189221936 -9 -2.4999999999999991 4.3301270189221936 -6 -4.3301270221112951 2.4999999944763132 -6 -2.2253246846922492 2.366533744740174 -9 -2.4999999999999991 4.3301270189221936 -6 -2.2253246846922492 2.366533744740174 -6 -4.3301270221112951 2.4999999944763132 -6 -1.107852388446384 3.1911857209629071 -3 -1.107852388446384 3.1911857209629071 -6 -0.91506351183037493 1.5849364925866429 -3 -2.2253246846922492 2.366533744740174 -6 -1.107852388446384 3.1911857209629071 -6 -2.4999999999999991 4.3301270189221936 -6 -2.4999999999999991 4.3301270189221936 -3 -2.2253246846922492 2.366533744740174 -6 -1.107852388446384 3.1911857209629071 -6 -6.2995949836986492e-09 5 -6 -2.4999999999999991 4.3301270189221936 -6 -2.4999999999999991 4.3301270189221936 -3 -1.107852388446384 3.1911857209629071 -3 -2.4999999999999991 4.3301270189221936 -3 -2.2253246846922492 2.366533744740174 -3 -2.2253246846922492 2.366533744740174 -6 -1.107852388446384 3.1911857209629071 -3 -1.107852388446384 3.1911857209629071 -6 -2.4999999999999991 4.3301270189221936 -3 -2.2253246846922492 2.366533744740174 -6 -2.4999999999999991 4.3301270189221936 -6 -2.4999999999999991 4.3301270189221936 -3 -4.3301270221112951 2.4999999944763132 -3 -2.2253246846922492 2.366533744740174 -6 -2.4999999999999991 4.3301270189221936 -3 -4.3301270221112951 2.4999999944763132 -3 -2.2253246846922492 2.366533744740174 -3 -2.2253246846922492 2.366533744740174 -6 -2.4999999999999991 4.3301270189221936 -6 -4.3301270221112951 2.4999999944763132 -3 -2.2253246846922492 2.366533744740174 -6 -4.3301270221112951 2.4999999944763132 -6 -2.4999999999999991 4.3301270189221936 -3 -4.3301270221112951 2.4999999944763132 0 -4.3301270221112951 2.4999999944763132 -3 -2.2253246846922492 2.366533744740174 -3 -1.107852388446384 3.1911857209629071 -3 -2.4999999999999991 4.3301270189221936 -3 -2.4999999999999991 4.3301270189221936 0 -2.2253246846922492 2.366533744740174 -3 -1.107852388446384 3.1911857209629071 -3 -6.2995949836986492e-09 5 -3 -2.4999999999999991 4.3301270189221936 -3 -2.4999999999999991 4.3301270189221936 0 -2.4999999999999991 4.3301270189221936 0 -4.3301270221112951 2.4999999944763132 0 -2.2253246846922492 2.366533744740174 -3 -2.2253246846922492 2.366533744740174 0 -1.107852388446384 3.1911857209629071 0 -1.107852388446384 3.1911857209629071 -3 -2.2253246846922492 2.366533744740174 -3 -0.91506351183037493 1.5849364925866429 0 -2.4999999999999991 4.3301270189221936 -3 -2.4999999999999991 4.3301270189221936 0 -4.3301270221112951 2.4999999944763132 0 -2.2253246846922492 2.366533744740174 -3 -1.107852388446384 3.1911857209629071 0 -1.107852388446384 3.1911857209629071 -3 -2.4999999999999991 4.3301270189221936 0 -2.2253246846922492 2.366533744740174 -3 -1.107852388446384 3.1911857209629071 0 -2.4999999999999991 4.3301270189221936 0 -2.2253246846922492 2.366533744740174 -3 -2.2253246846922492 2.366533744740174 0 -4.3301270221112951 2.4999999944763132 0 -5 -1.397247784140632e-08 0 -2.2735805010731909 0.22641949675281539 0 -2.2735805010731909 0.22641949675281539 -3 -4.3301270221112951 2.4999999944763132 0 -4.3301270221112951 2.4999999944763132 -3 -5 -1.397247784140632e-08 0 -2.2735805010731909 0.22641949675281539 -3 -4.3301270221112951 2.4999999944763132 0 -4.3301270221112951 2.4999999944763132 -3 -2.2735805010731909 0.22641949675281539 -3 -2.2253246846922492 2.366533744740174 -3 -4.3301270221112951 2.4999999944763132 -3 -5 -1.397247784140632e-08 -3 -5 -1.397247784140632e-08 0 -2.2735805010731909 0.22641949675281539 -3 -5 -1.397247784140632e-08 -3 -5 -1.397247784140632e-08 0 -2.2735805010731909 0.22641949675281539 -3 -2.9547160992544761 -1.820741508163664 -3 -5 -1.397247784140632e-08 -3 -5 -1.397247784140632e-08 0 -2.9547160992544761 -1.820741508163664 -3 -4.3301270160527148 -2.500000004970083 0 -5 -1.397247784140632e-08 0 -2.2735805010731909 0.22641949675281539 0 -2.2735805010731909 0.22641949675281539 -3 -2.9547160992544761 -1.820741508163664 -3 -5 -1.397247784140632e-08 0 -2.2735805010731909 0.22641949675281539 0 -2.9547160992544761 -1.820741508163664 -3 -2.9547160992544761 -1.820741508163664 0 -2.2735805010731909 0.22641949675281539 0 -2.2735805010731909 0.22641949675281539 -3 -0.66987297914647026 -2.499999999706382 -3 -2.9547160992544761 -1.820741508163664 -3 -2.2735805010731909 0.22641949675281539 0 -2.2735805010731909 0.22641949675281539 -3 0.20080558631870429 0.033909897404034287 -3 -0.66987297914647026 -2.499999999706382 -3 -2.2735805010731909 0.22641949675281539 0 -2.2735805010731909 0.22641949675281539 -3 0.20080558631870429 0.033909897404034287 -3 -0.91506351183037493 1.5849364925866429 -3 -2.2735805010731909 0.22641949675281539 0 -2.2735805010731909 0.22641949675281539 -3 -2.2253246846922492 2.366533744740174 -3 -0.91506351183037493 1.5849364925866429 -3 -1.107852388446384 3.1911857209629071 -3 -2.2253246846922492 2.366533744740174 -3 -0.91506351183037493 1.5849364925866429 0 -0.91506351183037493 1.5849364925866429 -3 -2.2735805010731909 0.22641949675281539 0 -2.2253246846922492 2.366533744740174 -3 -0.91506351183037493 1.5849364925866429 0 -0.91506351183037493 1.5849364925866429 -3 -1.107852388446384 3.1911857209629071 0 -2.2253246846922492 2.366533744740174 -3 -2.2253246846922492 2.366533744740174 0 -0.91506351183037493 1.5849364925866429 0 -4.3301270221112951 2.4999999944763132 0 -2.2735805010731909 0.22641949675281539 0 -2.2735805010731909 0.22641949675281539 -3 -2.2253246846922492 2.366533744740174 -3 -2.2735805010731909 0.22641949675281539 0 -2.2253246846922492 2.366533744740174 -3 -2.2253246846922492 2.366533744740174 0 -0.91506351183037493 1.5849364925866429 0 -4.3301270221112951 2.4999999944763132 0 -2.2735805010731909 0.22641949675281539 0 -2.2253246846922492 2.366533744740174 -3 -2.2253246846922492 2.366533744740174 0 0.37580157663508379 2.5408650916807378 0 -1.107852388446384 3.1911857209629071 -3 -0.91506351183037493 1.5849364925866429 0 -0.91506351183037493 1.5849364925866429 -3 0.37580157663508379 2.5408650916807378 0 -0.91506351183037493 1.5849364925866429 0 0.20080558631870429 0.033909897404034287 0 -0.91506351183037493 1.5849364925866429 -3 -2.2735805010731909 0.22641949675281539 0 -0.91506351183037493 1.5849364925866429 0 0.20080558631870429 0.033909897404034287 0 -0.91506351183037493 1.5849364925866429 -3 0.37580157663508379 2.5408650916807378 0 0.37580157663508379 2.5408650916807378 -3 0.20080558631870429 0.033909897404034287 0 -0.91506351183037493 1.5849364925866429 -3 -2.2735805010731909 0.22641949675281539 0 0.20080558631870429 0.033909897404034287 0 0.20080558631870429 0.033909897404034287 -3 -0.66987297914647026 -2.499999999706382 0 -2.2735805010731909 0.22641949675281539 0 0.20080558631870429 0.033909897404034287 0 0.20080558631870429 0.033909897404034287 -3 -0.91506351183037493 1.5849364925866429 -3 0.20080558631870429 0.033909897404034287 0 0.20080558631870429 0.033909897404034287 -3 0.95458002071209891 -1.657898275923388 -3 -0.66987297914647026 -2.499999999706382 0 -2.2735805010731909 0.22641949675281539 0 0.20080558631870429 0.033909897404034287 -3 -0.66987297914647026 -2.499999999706382 -3 -0.66987297914647026 -2.499999999706382 0 0.20080558631870429 0.033909897404034287 0 2.3883545080289421 -0.94497882694672608 0 0.95458002071209891 -1.657898275923388 -3 0.95458002071209891 -1.657898275923388 0 0.20080558631870429 0.033909897404034287 0 2.3883545080289421 -0.94497882694672608 0 0.20080558631870429 0.033909897404034287 -3 0.95458002071209891 -1.657898275923388 -3 0.20080558631870429 0.033909897404034287 0 2.3883545080289421 -0.94497882694672608 0 2.465848112410058 1.4099871989758821 -3 0.20080558631870429 0.033909897404034287 -3 0.20080558631870429 0.033909897404034287 0 2.3883545080289421 -0.94497882694672608 0 2.465848112410058 1.4099871989758821 0 2.465848112410058 1.4099871989758821 -3 2.4999999879139869 4.3301270259000564 0 0.37580157663508379 2.5408650916807378 0 2.465848112410058 1.4099871989758821 0 2.465848112410058 1.4099871989758821 -3 0.37580157663508379 2.5408650916807378 0 0.37580157663508379 2.5408650916807378 -3 0.20080558631870429 0.033909897404034287 0 2.465848112410058 1.4099871989758821 -3 0.37580157663508379 2.5408650916807378 0 0.20080558631870429 0.033909897404034287 0 2.465848112410058 1.4099871989758821 0 2.465848112410058 1.4099871989758821 -3 0.37580157663508379 2.5408650916807378 -3 0.20080558631870429 0.033909897404034287 0 2.465848112410058 1.4099871989758821 -3 0.20080558631870429 0.033909897404034287 -3 2.3883545080289421 -0.94497882694672608 0 2.465848112410058 1.4099871989758821 -3 2.3883545080289421 -0.94497882694672608 -3 0.20080558631870429 0.033909897404034287 -3 2.3883545080289421 -0.94497882694672608 0 2.3883545080289421 -0.94497882694672608 -3 0.20080558631870429 0.033909897404034287 -3 0.95458002071209891 -1.657898275923388 -3 0.37580157663508379 2.5408650916807378 0 -1.107852388446384 3.1911857209629071 -3 0.37580157663508379 2.5408650916807378 -3 -0.91506351183037493 1.5849364925866429 -3 0.37580157663508379 2.5408650916807378 -3 0.20080558631870429 0.033909897404034287 0 0.20080558631870429 0.033909897404034287 -3 -0.91506351183037493 1.5849364925866429 -3 0.37580157663508379 2.5408650916807378 -3 0.37580157663508379 2.5408650916807378 -6 0.20080558631870429 0.033909897404034287 -3 -0.91506351183037493 1.5849364925866429 -6 0.37580157663508379 2.5408650916807378 -6 0.20080558631870429 0.033909897404034287 -3 0.20080558631870429 0.033909897404034287 -6 -0.91506351183037493 1.5849364925866429 -6 0.37580157663508379 2.5408650916807378 -3 -1.107852388446384 3.1911857209629071 -6 0.37580157663508379 2.5408650916807378 -6 -0.91506351183037493 1.5849364925866429 -6 -2.2735805010731909 0.22641949675281539 -3 0.20080558631870429 0.033909897404034287 -3 -0.91506351183037493 1.5849364925866429 -3 -0.91506351183037493 1.5849364925866429 -6 0.37580157663508379 2.5408650916807378 -3 -1.107852388446384 3.1911857209629071 -6 -0.91506351183037493 1.5849364925866429 -3 -0.91506351183037493 1.5849364925866429 -6 0.37580157663508379 2.5408650916807378 -3 0.20080558631870429 0.033909897404034287 -3 -0.91506351183037493 1.5849364925866429 -3 -0.91506351183037493 1.5849364925866429 -6 0.20080558631870429 0.033909897404034287 -3 0.20080558631870429 0.033909897404034287 -6 0.95458002071209891 -1.657898275923388 -6 -0.66987297914647026 -2.499999999706382 -3 -2.2735805010731909 0.22641949675281539 -3 0.20080558631870429 0.033909897404034287 -6 -0.66987297914647026 -2.499999999706382 -6 -0.66987297914647026 -2.499999999706382 -3 -2.2735805010731909 0.22641949675281539 -3 0.20080558631870429 0.033909897404034287 -3 0.20080558631870429 0.033909897404034287 -6 -0.66987297914647026 -2.499999999706382 -3 -2.2735805010731909 0.22641949675281539 -3 0.20080558631870429 0.033909897404034287 -3 0.20080558631870429 0.033909897404034287 -6 -0.91506351183037493 1.5849364925866429 -6 2.3883545080289421 -0.94497882694672608 -3 0.20080558631870429 0.033909897404034287 -3 0.20080558631870429 0.033909897404034287 -6 0.95458002071209891 -1.657898275923388 -6 2.3883545080289421 -0.94497882694672608 -3 2.3883545080289421 -0.94497882694672608 -6 0.20080558631870429 0.033909897404034287 -6 0.95458002071209891 -1.657898275923388 -6 2.3883545080289421 -0.94497882694672608 -3 0.20080558631870429 0.033909897404034287 -3 0.95458002071209891 -1.657898275923388 -6 0.95458002071209891 -1.657898275923388 -3 2.3883545080289421 -0.94497882694672608 -3 0.20080558631870429 0.033909897404034287 -3 2.465848112410058 1.4099871989758821 -6 0.20080558631870429 0.033909897404034287 -6 2.3883545080289421 -0.94497882694672608 -3 2.465848112410058 1.4099871989758821 -6 2.3883545080289421 -0.94497882694672608 -6 0.20080558631870429 0.033909897404034287 -6 2.465848112410058 1.4099871989758821 -3 2.3883545080289421 -0.94497882694672608 -3 0.20080558631870429 0.033909897404034287 -3 2.465848112410058 1.4099871989758821 -6 0.37580157663508379 2.5408650916807378 -3 2.4999999879139869 4.3301270259000564 -3 2.465848112410058 1.4099871989758821 -3 2.465848112410058 1.4099871989758821 -6 0.37580157663508379 2.5408650916807378 -3 0.37580157663508379 2.5408650916807378 -6 0.20080558631870429 0.033909897404034287 -3 2.465848112410058 1.4099871989758821 -6 0.37580157663508379 2.5408650916807378 -6 0.20080558631870429 0.033909897404034287 -3 2.465848112410058 1.4099871989758821 -6 0.20080558631870429 0.033909897404034287 -6 0.37580157663508379 2.5408650916807378 -3 2.465848112410058 1.4099871989758821 -3 0.20080558631870429 0.033909897404034287 -3 2.465848112410058 1.4099871989758821 -6 2.465848112410058 1.4099871989758821 -9 0.37580157663508379 2.5408650916807378 -9 0.37580157663508379 2.5408650916807378 -6 0.20080558631870429 0.033909897404034287 -6 2.465848112410058 1.4099871989758821 -9 0.37580157663508379 2.5408650916807378 -6 2.4999999879139869 4.3301270259000564 -6 2.465848112410058 1.4099871989758821 -6 2.465848112410058 1.4099871989758821 -9 0.37580157663508379 2.5408650916807378 -6 2.465848112410058 1.4099871989758821 -6 0.20080558631870429 0.033909897404034287 -6 0.95458002071209891 -1.657898275923388 -9 0.20080558631870429 0.033909897404034287 -9 2.3883545080289421 -0.94497882694672608 -6 0.20080558631870429 0.033909897404034287 -6 0.95458002071209891 -1.657898275923388 -9 2.3883545080289421 -0.94497882694672608 -6 0.20080558631870429 0.033909897404034287 -6 0.95458002071209891 -1.657898275923388 -6 0.20080558631870429 0.033909897404034287 -9 2.465848112410058 1.4099871989758821 -9 2.3883545080289421 -0.94497882694672608 -6 0.20080558631870429 0.033909897404034287 -6 2.465848112410058 1.4099871989758821 -9 2.465848112410058 1.4099871989758821 -6 2.3883545080289421 -0.94497882694672608 -6 0.20080558631870429 0.033909897404034287 -6 -0.91506351183037493 1.5849364925866429 -9 0.20080558631870429 0.033909897404034287 -9 0.20080558631870429 0.033909897404034287 -6 -2.2735805010731909 0.22641949675281539 -6 0.20080558631870429 0.033909897404034287 -9 0.20080558631870429 0.033909897404034287 -6 -2.2735805010731909 0.22641949675281539 -6 -0.66987297914647026 -2.499999999706382 -6 -0.66987297914647026 -2.499999999706382 -9 0.20080558631870429 0.033909897404034287 -9 -2.2735805010731909 0.22641949675281539 -6 -0.66987297914647026 -2.499999999706382 -6 0.95458002071209891 -1.657898275923388 -9 0.20080558631870429 0.033909897404034287 -9 0.20080558631870429 0.033909897404034287 -6 -0.66987297914647026 -2.499999999706382 -6 -0.91506351183037493 1.5849364925866429 -9 -1.107852388446384 3.1911857209629071 -9 0.37580157663508379 2.5408650916807378 -6 -0.91506351183037493 1.5849364925866429 -6 -0.91506351183037493 1.5849364925866429 -9 0.20080558631870429 0.033909897404034287 -6 -0.91506351183037493 1.5849364925866429 -6 -2.2735805010731909 0.22641949675281539 -6 -0.91506351183037493 1.5849364925866429 -9 0.37580157663508379 2.5408650916807378 -9 0.37580157663508379 2.5408650916807378 -6 0.20080558631870429 0.033909897404034287 -6 -0.91506351183037493 1.5849364925866429 -9 0.37580157663508379 2.5408650916807378 -6 0.20080558631870429 0.033909897404034287 -6 -0.91506351183037493 1.5849364925866429 -6 -2.2253246846922492 2.366533744740174 -9 -2.2253246846922492 2.366533744740174 -6 -4.3301270221112951 2.4999999944763132 -6 -2.2735805010731909 0.22641949675281539 -6 -2.2253246846922492 2.366533744740174 -9 -1.107852388446384 3.1911857209629071 -6 -0.91506351183037493 1.5849364925866429 -6 -2.2253246846922492 2.366533744740174 -6 -2.2735805010731909 0.22641949675281539 -9 -2.2253246846922492 2.366533744740174 -9 -4.3301270221112951 2.4999999944763132 -6 -2.2735805010731909 0.22641949675281539 -6 -2.2253246846922492 2.366533744740174 -9 -0.91506351183037493 1.5849364925866429 -9 -0.91506351183037493 1.5849364925866429 -6 -2.2735805010731909 0.22641949675281539 -6 -2.2253246846922492 2.366533744740174 -9 -0.91506351183037493 1.5849364925866429 -6 -2.2253246846922492 2.366533744740174 -6 -2.2735805010731909 0.22641949675281539 -6 -2.2735805010731909 0.22641949675281539 -9 -4.3301270221112951 2.4999999944763132 -6 -5 -1.397247784140632e-08 -6 -2.2735805010731909 0.22641949675281539 -6 -2.2735805010731909 0.22641949675281539 -9 -4.3301270221112951 2.4999999944763132 -9 -4.3301270221112951 2.4999999944763132 -6 -5 -1.397247784140632e-08 -6 -4.3301270221112951 2.4999999944763132 -3 -5 -1.397247784140632e-08 -3 -2.2735805010731909 0.22641949675281539 -3 -2.2735805010731909 0.22641949675281539 -6 -4.3301270221112951 2.4999999944763132 -3 -2.2253246846922492 2.366533744740174 -6 -4.3301270221112951 2.4999999944763132 -6 -2.2735805010731909 0.22641949675281539 -6 -5 -1.397247784140632e-08 -3 -4.3301270221112951 2.4999999944763132 -6 -5 -1.397247784140632e-08 -6 -2.2735805010731909 0.22641949675281539 -6 -4.3301270221112951 2.4999999944763132 -3 -5 -1.397247784140632e-08 -3 -4.3301270221112951 2.4999999944763132 -6 -2.2735805010731909 0.22641949675281539 -6 -1.107852388446384 3.1911857209629071 -3 -2.2253246846922492 2.366533744740174 -3 -0.91506351183037493 1.5849364925866429 -3 -2.2253246846922492 2.366533744740174 -6 -4.3301270221112951 2.4999999944763132 -3 -2.2735805010731909 0.22641949675281539 -3 -2.2253246846922492 2.366533744740174 -3 -2.2253246846922492 2.366533744740174 -6 -1.107852388446384 3.1911857209629071 -6 -0.91506351183037493 1.5849364925866429 -3 -0.91506351183037493 1.5849364925866429 -6 -2.2253246846922492 2.366533744740174 -6 -2.2735805010731909 0.22641949675281539 -3 -2.2253246846922492 2.366533744740174 -3 -0.91506351183037493 1.5849364925866429 -3 -2.2253246846922492 2.366533744740174 -6 -2.2735805010731909 0.22641949675281539 -3 -0.91506351183037493 1.5849364925866429 -6 -2.2253246846922492 2.366533744740174 -6 -2.2735805010731909 0.22641949675281539 -6 -2.2735805010731909 0.22641949675281539 -3 -0.91506351183037493 1.5849364925866429 -3 -0.91506351183037493 1.5849364925866429 -6 -2.2253246846922492 2.366533744740174 -6 -4.3301270221112951 2.4999999944763132 -3 -2.2735805010731909 0.22641949675281539 -3 -2.2253246846922492 2.366533744740174 -6 -2.2735805010731909 0.22641949675281539 -6 -2.2735805010731909 0.22641949675281539 -3 0.20080558631870429 0.033909897404034287 -6 -2.2735805010731909 0.22641949675281539 -6 -0.66987297914647026 -2.499999999706382 -6 -2.2735805010731909 0.22641949675281539 -3 0.20080558631870429 0.033909897404034287 -6 -0.91506351183037493 1.5849364925866429 -6 -2.2735805010731909 0.22641949675281539 -6 -2.2735805010731909 0.22641949675281539 -3 -2.2735805010731909 0.22641949675281539 -6 -2.9547160992544761 -1.820741508163664 -6 -0.66987297914647026 -2.499999999706382 -6 -5 -1.397247784140632e-08 -3 -5 -1.397247784140632e-08 -6 -2.9547160992544761 -1.820741508163664 -6 -4.3301270160527148 -2.500000004970083 -3 -5 -1.397247784140632e-08 -3 -2.2735805010731909 0.22641949675281539 -3 -2.9547160992544761 -1.820741508163664 -6 -2.9547160992544761 -1.820741508163664 -3 -5 -1.397247784140632e-08 -3 -5 -1.397247784140632e-08 -6 -2.2735805010731909 0.22641949675281539 -6 -2.9547160992544761 -1.820741508163664 -6 -5 -1.397247784140632e-08 -3 -2.2735805010731909 0.22641949675281539 -3 -2.2735805010731909 0.22641949675281539 -6 -2.9547160992544761 -1.820741508163664 -6 -2.9547160992544761 -1.820741508163664 -9 -5 -1.397247784140632e-08 -9 -5 -1.397247784140632e-08 -6 -4.3301270160527148 -2.500000004970083 -6 -2.9547160992544761 -1.820741508163664 -9 -2.2735805010731909 0.22641949675281539 -9 -5 -1.397247784140632e-08 -6 -2.2735805010731909 0.22641949675281539 -6 -2.9547160992544761 -1.820741508163664 -9 -5 -1.397247784140632e-08 -6 -2.2735805010731909 0.22641949675281539 -6 -2.9547160992544761 -1.820741508163664 -6 -0.66987297914647026 -2.499999999706382 -9 -2.9547160992544761 -1.820741508163664 -9 -2.2735805010731909 0.22641949675281539 -6 -0.66987297914647026 -2.499999999706382 -6 -2.9547160992544761 -1.820741508163664 -9 -2.2735805010731909 0.22641949675281539 -6 -2.9547160992544761 -1.820741508163664 -6 -0.66987297914647026 -2.499999999706382 -6 -0.66987297914647026 -2.499999999706382 -9 -2.9547160992544761 -1.820741508163664 -9 -2.5000000000000022 -4.3301270189221919 -6 -0.66987297914647026 -2.499999999706382 -6 -2.9547160992544761 -1.820741508163664 -9 -2.9547160992544761 -1.820741508163664 -6 -2.5000000000000022 -4.3301270189221919 -6 -0.66987297914647026 -2.499999999706382 -6 -2.9547160992544761 -1.820741508163664 -9 -2.9547160992544761 -1.820741508163664 -6 -4.3301270160527148 -2.500000004970083 -6 -2.5000000000000022 -4.3301270189221919 -6 -2.9547160992544761 -1.820741508163664 -9 -5 -1.397247784140632e-08 -6 -2.9547160992544761 -1.820741508163664 -6 -4.3301270160527148 -2.500000004970083 -6 -4.3301270160527148 -2.500000004970083 -9 -2.9547160992544761 -1.820741508163664 -9 -4.3301270160527148 -2.500000004970083 -6 -2.5000000000000022 -4.3301270189221919 -6 -2.9547160992544761 -1.820741508163664 -6 -4.3301270160527148 -2.500000004970083 -6 -2.5000000000000022 -4.3301270189221919 -3 -4.3301270160527148 -2.500000004970083 -3 -5 -1.397247784140632e-08 -6 -2.9547160992544761 -1.820741508163664 -6 -4.3301270160527148 -2.500000004970083 -6 -4.3301270160527148 -2.500000004970083 -3 -5 -1.397247784140632e-08 -3 -2.9547160992544761 -1.820741508163664 -6 -2.9547160992544761 -1.820741508163664 -3 -4.3301270160527148 -2.500000004970083 -3 -2.9547160992544761 -1.820741508163664 -6 -2.5000000000000022 -4.3301270189221919 -3 -2.9547160992544761 -1.820741508163664 -3 -4.3301270160527148 -2.500000004970083 -3 -2.9547160992544761 -1.820741508163664 -6 -0.66987297914647026 -2.499999999706382 -3 -2.5000000000000022 -4.3301270189221919 -3 -2.9547160992544761 -1.820741508163664 -3 -2.2735805010731909 0.22641949675281539 -3 -2.9547160992544761 -1.820741508163664 -6 -0.66987297914647026 -2.499999999706382 -3 -2.9547160992544761 -1.820741508163664 -3 -2.9547160992544761 -1.820741508163664 -6 -0.66987297914647026 -2.499999999706382 -6 -0.66987297914647026 -2.499999999706382 -3 -2.5000000000000022 -4.3301270189221919 -3 -2.2735805010731909 0.22641949675281539 -3 -2.9547160992544761 -1.820741508163664 -6 -0.66987297914647026 -2.499999999706382 -6 -0.66987297914647026 -2.499999999706382 -3 -2.9547160992544761 -1.820741508163664 -6 -2.5000000000000022 -4.3301270189221919 -6 -0.66987297914647026 -2.499999999706382 -6 -2.5000000000000022 -4.3301270189221919 -3 -2.9547160992544761 -1.820741508163664 -6 -4.3301270160527148 -2.500000004970083 -6 -2.5000000000000022 -4.3301270189221919 -6 -2.5000000000000022 -4.3301270189221919 -3 -2.5000000000000022 -4.3301270189221919 -6 -0.66987297914647026 -2.499999999706382 -6 6.9142305214597846e-09 -5 -3 -2.5000000000000022 -4.3301270189221919 -3 -0.66987297914647026 -2.499999999706382 -9 -2.5000000000000022 -4.3301270189221919 -9 -2.5000000000000022 -4.3301270189221919 -6 6.9142305214597846e-09 -5 -6 0.91506351643986317 -3.4150635091400758 -9 -0.66987297914647026 -2.499999999706382 -9 6.9142305214597846e-09 -5 -6 -0.66987297914647026 -2.499999999706382 -6 -0.66987297914647026 -2.499999999706382 -9 -2.5000000000000022 -4.3301270189221919 -6 6.9142305214597846e-09 -5 -6 -0.66987297914647026 -2.499999999706382 -6 0.91506351643986317 -3.4150635091400758 -9 6.9142305214597846e-09 -5 -6 -0.66987297914647026 -2.499999999706382 -6 0.91506351643986317 -3.4150635091400758 -6 0.91506351643986317 -3.4150635091400758 -9 0.95458002071209891 -1.657898275923388 -9 -0.66987297914647026 -2.499999999706382 -6 0.91506351643986317 -3.4150635091400758 -6 0.95458002071209891 -1.657898275923388 -9 0.20080558631870429 0.033909897404034287 -6 -0.66987297914647026 -2.499999999706382 -6 0.95458002071209891 -1.657898275923388 -6 0.95458002071209891 -1.657898275923388 -9 -0.66987297914647026 -2.499999999706382 -6 0.95458002071209891 -1.657898275923388 -6 0.91506351643986317 -3.4150635091400758 -6 2.217625015551433 -2.5696135239339939 -9 2.3883545080289421 -0.94497882694672608 -6 2.217625015551433 -2.5696135239339939 -6 0.95458002071209891 -1.657898275923388 -6 0.95458002071209891 -1.657898275923388 -9 2.217625015551433 -2.5696135239339939 -9 2.3883545080289421 -0.94497882694672608 -6 0.95458002071209891 -1.657898275923388 -6 2.217625015551433 -2.5696135239339939 -9 2.217625015551433 -2.5696135239339939 -6 0.95458002071209891 -1.657898275923388 -6 0.91506351643986317 -3.4150635091400758 -6 0.95458002071209891 -1.657898275923388 -9 2.217625015551433 -2.5696135239339939 -9 0.95458002071209891 -1.657898275923388 -6 0.91506351643986317 -3.4150635091400758 -6 0.91506351643986317 -3.4150635091400758 -9 6.9142305214597846e-09 -5 -9 2.500000010727558 -4.3301270127286351 -6 6.9142305214597846e-09 -5 -6 0.91506351643986317 -3.4150635091400758 -9 2.500000010727558 -4.3301270127286351 -6 6.9142305214597846e-09 -5 -6 0.91506351643986317 -3.4150635091400758 -6 2.217625015551433 -2.5696135239339939 -9 2.500000010727558 -4.3301270127286351 -6 2.217625015551433 -2.5696135239339939 -6 0.91506351643986317 -3.4150635091400758 -6 0.91506351643986317 -3.4150635091400758 -9 2.217625015551433 -2.5696135239339939 -9 2.500000010727558 -4.3301270127286351 -6 0.91506351643986317 -3.4150635091400758 -6 2.500000010727558 -4.3301270127286351 -3 0.91506351643986317 -3.4150635091400758 -6 6.9142305214597846e-09 -5 -3 0.91506351643986317 -3.4150635091400758 -3 2.500000010727558 -4.3301270127286351 -6 2.500000010727558 -4.3301270127286351 -3 2.217625015551433 -2.5696135239339939 -6 0.91506351643986317 -3.4150635091400758 -6 2.500000010727558 -4.3301270127286351 -3 2.217625015551433 -2.5696135239339939 -6 0.91506351643986317 -3.4150635091400758 -6 0.91506351643986317 -3.4150635091400758 -3 2.500000010727558 -4.3301270127286351 -3 2.217625015551433 -2.5696135239339939 -6 2.217625015551433 -2.5696135239339939 -3 0.91506351643986317 -3.4150635091400758 -3 2.500000010727558 -4.3301270127286351 -6 2.500000010727558 -4.3301270127286351 -3 6.9142305214597846e-09 -5 -6 0.91506351643986317 -3.4150635091400758 -6 2.500000010727558 -4.3301270127286351 -3 6.9142305214597846e-09 -5 -6 0.91506351643986317 -3.4150635091400758 -6 6.9142305214597846e-09 -5 -3 2.217625015551433 -2.5696135239339939 -6 0.95458002071209891 -1.657898275923388 -6 0.95458002071209891 -1.657898275923388 -3 0.91506351643986317 -3.4150635091400758 -3 2.3883545080289421 -0.94497882694672608 -3 2.217625015551433 -2.5696135239339939 -6 0.95458002071209891 -1.657898275923388 -6 0.95458002071209891 -1.657898275923388 -3 2.3883545080289421 -0.94497882694672608 -3 2.3883545080289421 -0.94497882694672608 -6 2.217625015551433 -2.5696135239339939 -6 0.95458002071209891 -1.657898275923388 -6 2.3883545080289421 -0.94497882694672608 -3 2.217625015551433 -2.5696135239339939 -6 2.217625015551433 -2.5696135239339939 -3 0.95458002071209891 -1.657898275923388 -3 2.217625015551433 -2.5696135239339939 -6 2.217625015551433 -2.5696135239339939 -3 0.95458002071209891 -1.657898275923388 -3 0.91506351643986317 -3.4150635091400758 -3 2.217625015551433 -2.5696135239339939 -6 0.95458002071209891 -1.657898275923388 -6 0.91506351643986317 -3.4150635091400758 -6 0.91506351643986317 -3.4150635091400758 -3 0.20080558631870429 0.033909897404034287 -3 0.95458002071209891 -1.657898275923388 -6 -0.66987297914647026 -2.499999999706382 -3 0.95458002071209891 -1.657898275923388 -3 0.20080558631870429 0.033909897404034287 -6 -0.66987297914647026 -2.499999999706382 -6 0.95458002071209891 -1.657898275923388 -6 -0.66987297914647026 -2.499999999706382 -3 0.95458002071209891 -1.657898275923388 -6 -0.66987297914647026 -2.499999999706382 -3 0.95458002071209891 -1.657898275923388 -3 0.91506351643986317 -3.4150635091400758 -3 -0.66987297914647026 -2.499999999706382 -6 0.95458002071209891 -1.657898275923388 -6 0.91506351643986317 -3.4150635091400758 -6 -0.66987297914647026 -2.499999999706382 -3 0.95458002071209891 -1.657898275923388 -6 0.91506351643986317 -3.4150635091400758 -6 -0.66987297914647026 -2.499999999706382 -3 0.91506351643986317 -3.4150635091400758 -3 0.91506351643986317 -3.4150635091400758 -6 6.9142305214597846e-09 -5 -3 -0.66987297914647026 -2.499999999706382 -3 0.91506351643986317 -3.4150635091400758 -3 6.9142305214597846e-09 -5 -6 -0.66987297914647026 -2.499999999706382 -6 0.91506351643986317 -3.4150635091400758 -6 6.9142305214597846e-09 -5 -3 -0.66987297914647026 -2.499999999706382 -6 0.91506351643986317 -3.4150635091400758 -6 6.9142305214597846e-09 -5 -3 -0.66987297914647026 -2.499999999706382 -3 -2.5000000000000022 -4.3301270189221919 -6 6.9142305214597846e-09 -5 -6 -0.66987297914647026 -2.499999999706382 -6 6.9142305214597846e-09 -5 -3 -0.66987297914647026 -2.499999999706382 -6 6.9142305214597846e-09 -5 -3 -0.66987297914647026 -2.499999999706382 -3 -2.5000000000000022 -4.3301270189221919 -3 6.9142305214597846e-09 -5 -3 -0.66987297914647026 -2.499999999706382 -3 0.91506351643986317 -3.4150635091400758 -3 6.9142305214597846e-09 -5 0 6.9142305214597846e-09 -5 -3 -0.66987297914647026 -2.499999999706382 -3 6.9142305214597846e-09 -5 0 -2.5000000000000022 -4.3301270189221919 -3 -0.66987297914647026 -2.499999999706382 -3 0.95458002071209891 -1.657898275923388 -3 0.91506351643986317 -3.4150635091400758 -3 -0.66987297914647026 -2.499999999706382 0 0.20080558631870429 0.033909897404034287 -3 -0.66987297914647026 -2.499999999706382 -3 0.95458002071209891 -1.657898275923388 -3 -0.66987297914647026 -2.499999999706382 0 2.3883545080289421 -0.94497882694672608 0 2.3883545080289421 -0.94497882694672608 -3 2.217625015551433 -2.5696135239339939 -3 0.95458002071209891 -1.657898275923388 -3 2.217625015551433 -2.5696135239339939 -3 0.95458002071209891 -1.657898275923388 -3 0.91506351643986317 -3.4150635091400758 -3 0.91506351643986317 -3.4150635091400758 0 2.500000010727558 -4.3301270127286351 -3 2.500000010727558 -4.3301270127286351 0 2.217625015551433 -2.5696135239339939 -3 0.91506351643986317 -3.4150635091400758 -3 2.500000010727558 -4.3301270127286351 -3 2.500000010727558 -4.3301270127286351 0 6.9142305214597846e-09 -5 -3 0.91506351643986317 -3.4150635091400758 -3 2.500000010727558 -4.3301270127286351 0 2.217625015551433 -2.5696135239339939 -3 0.91506351643986317 -3.4150635091400758 0 2.217625015551433 -2.5696135239339939 0 2.500000010727558 -4.3301270127286351 0 2.217625015551433 -2.5696135239339939 -3 0.91506351643986317 -3.4150635091400758 -3 0.91506351643986317 -3.4150635091400758 0 2.500000010727558 -4.3301270127286351 0 0.91506351643986317 -3.4150635091400758 -3 0.91506351643986317 -3.4150635091400758 0 6.9142305214597846e-09 -5 0 2.500000010727558 -4.3301270127286351 0 6.9142305214597846e-09 -5 -3 0.91506351643986317 -3.4150635091400758 -3 6.9142305214597846e-09 -5 0 2.217625015551433 -2.5696135239339939 -3 0.91506351643986317 -3.4150635091400758 0 2.217625015551433 -2.5696135239339939 0 0.95458002071209891 -1.657898275923388 0 2.217625015551433 -2.5696135239339939 -3 0.95458002071209891 -1.657898275923388 -3 0.91506351643986317 -3.4150635091400758 0 0.95458002071209891 -1.657898275923388 0 2.3883545080289421 -0.94497882694672608 0 2.217625015551433 -2.5696135239339939 -3 2.217625015551433 -2.5696135239339939 0 0.95458002071209891 -1.657898275923388 0 2.3883545080289421 -0.94497882694672608 0 2.217625015551433 -2.5696135239339939 -3 0.95458002071209891 -1.657898275923388 -3 0.95458002071209891 -1.657898275923388 0 0.95458002071209891 -1.657898275923388 -3 0.91506351643986317 -3.4150635091400758 -3 0.91506351643986317 -3.4150635091400758 0 -0.66987297914647026 -2.499999999706382 0 0.95458002071209891 -1.657898275923388 -3 0.91506351643986317 -3.4150635091400758 0 0.95458002071209891 -1.657898275923388 0 -0.66987297914647026 -2.499999999706382 0 0.20080558631870429 0.033909897404034287 0 0.95458002071209891 -1.657898275923388 -3 0.95458002071209891 -1.657898275923388 0 -0.66987297914647026 -2.499999999706382 0 -0.66987297914647026 -2.499999999706382 -3 -0.66987297914647026 -2.499999999706382 0 6.9142305214597846e-09 -5 0 -2.5000000000000022 -4.3301270189221919 0 -0.66987297914647026 -2.499999999706382 -3 0.91506351643986317 -3.4150635091400758 -3 -0.66987297914647026 -2.499999999706382 0 6.9142305214597846e-09 -5 0 0.91506351643986317 -3.4150635091400758 -3 0.91506351643986317 -3.4150635091400758 0 -0.66987297914647026 -2.499999999706382 0 6.9142305214597846e-09 -5 0 -0.66987297914647026 -2.499999999706382 -3 6.9142305214597846e-09 -5 0 -2.5000000000000022 -4.3301270189221919 0 -2.5000000000000022 -4.3301270189221919 -3 -0.66987297914647026 -2.499999999706382 -3 -2.5000000000000022 -4.3301270189221919 0 -2.5000000000000022 -4.3301270189221919 -3 -2.9547160992544761 -1.820741508163664 -3 -2.5000000000000022 -4.3301270189221919 0 -2.5000000000000022 -4.3301270189221919 -3 -2.9547160992544761 -1.820741508163664 -3 -4.3301270160527148 -2.500000004970083 -3 -0.66987297914647026 -2.499999999706382 -3 -0.66987297914647026 -2.499999999706382 0 -2.5000000000000022 -4.3301270189221919 0 -2.9547160992544761 -1.820741508163664 -3 -0.66987297914647026 -2.499999999706382 0 -2.5000000000000022 -4.3301270189221919 0 -2.9547160992544761 -1.820741508163664 -3 -2.9547160992544761 -1.820741508163664 0 -2.2735805010731909 0.22641949675281539 0 -0.66987297914647026 -2.499999999706382 -3 -0.66987297914647026 -2.499999999706382 0 -2.9547160992544761 -1.820741508163664 -3 -2.2735805010731909 0.22641949675281539 0 -0.66987297914647026 -2.499999999706382 0 -2.9547160992544761 -1.820741508163664 -3 -2.9547160992544761 -1.820741508163664 0 -5 -1.397247784140632e-08 0 -2.9547160992544761 -1.820741508163664 -3 -2.9547160992544761 -1.820741508163664 0 -4.3301270160527148 -2.500000004970083 0 -2.5000000000000022 -4.3301270189221919 0 -2.9547160992544761 -1.820741508163664 -3 -2.9547160992544761 -1.820741508163664 0 -4.3301270160527148 -2.500000004970083 0 -2.5000000000000022 -4.3301270189221919 0 -2.9547160992544761 -1.820741508163664 -3 -4.3301270160527148 -2.500000004970083 0 -4.3301270160527148 -2.500000004970083 -3 -5 -1.397247784140632e-08 -3 -2.9547160992544761 -1.820741508163664 -3 -4.3301270160527148 -2.500000004970083 0 -4.3301270160527148 -2.500000004970083 -3 
</DataArray>
</Points>
<Cells>
<DataArray type="UInt32" Name="connectivity" format="ascii">
0 1 2 3 4 5 6 7 8 9 10 11 12 13 14 15 16 17 18 19 20 21 22 23 24 25 26 27 28 29 30 31 32 33 34 35 36 37 38 39 40 41 42 43 44 45 46 47 48 49 50 51 52 53 54 55 56 57 58 59 60 61 62 63 64 65 66 67 68 69 70 71 72 73 74 75 76 77 78 79 80 81 82 83 84 85 86 87 88 89 90 91 92 93 94 95 96 97 98 99 100 101 102 103 104 105 106 107 108 109 110 111 112 113 114 115 116 117 118 119 120 121 122 123 124 125 126 127 128 129 130 131 132 133 134 135 136 137 138 139 140 141 142 143 144 145 146 147 148 149 150 151 152 153 154 155 156 157 158 159 160 161 162 163 164 165 166 167 168 169 170 171 172 173 174 175 176 177 178 179 180 181 182 183 184 185 186 187 188 189 190 191 192 193 194 195 196 197 198 199 200 201 202 203 204 205 206 207 208 209 210 211 212 213 214 215 216 217 218 219 220 221 222 223 224 225 226 227 228 229 230 231 232 233 234 235 236 237 238 239 240 241 242 243 244 245 246 247 248 249 250 251 252 253 254 255 256 257 258 259 260 261 262 263 264 265 266 267 268 269 270 271 272 273 274 275 276 277 278 279 280 281 282 283 284 285 286 287 288 289 290 291 292 293 294 295 296 297 298 299 300 301 302 303 304 305 306 307 308 309 310 311 312 313 314 315 316 317 318 319 320 321 322 323 324 325 326 327 328 329 330 331 332 333 334 335 336 337 338 339 340 341 342 343 344 345 346 347 348 349 350 351 352 353 354 355 356 357 358 359 360 361 362 363 364 365 366 367 368 369 370 371 372 373 374 375 376 377 378 379 380 381 382 383 384 385 386 387 388 389 390 391 392 393 394 395 396 397 398 399 400 401 402 403 404 405 406 407 408 409 410 411 412 413 414 415 416 417 418 419 420 421 422 423 424 425 426 427 428 429 430 431 432 433 434 435 436 437 438 439 440 441 442 443 444 445 446 447 448 449 450 451 452 453 454 455 456 457 458 459 460 461 462 463 464 465 466 467 468 469 470 471 472 473 474 475 476 477 478 479 480 481 482 483 484 485 486 487 488 489 490 491 492 493 494 495 496 497 498 499 500 501 502 503 504 505 506 507 508 509 510 511 512 513 514 515 516 517 518 519 520 521 522 523 524 525 526 527 528 529 530 531 532 533 534 535 536 537 538 539 540 541 542 543 544 545 546 547 548 549 550 551 552 553 554 555 556 557 558 559 560 561 562 563 564 565 566 567 568 569 570 571 572 573 574 575 576 577 578 579 580 581 582 583 584 585 586 587 588 589 590 591 592 593 594 595 596 597 598 599 600 601 602 603 604 605 606 607 608 609 610 611 612 613 614 615 616 617 618 619 620 621 622 623 624 625 626 627 628 629 630 631 632 633 634 635 636 637 638 639 640 641 642 643 644 645 646 647 648 649 650 651 652 653 654 655 656 657 658 659 660 661 662 663 664 665 666 667 668 669 670 671 672 673 674 675 676 677 678 679 680 681 682 683 684 685 686 687 688 689 690 691 692 693 694 695 696 697 698 699 700 701 702 703 704 705 706 707 708 709 710 711 712 713 714 715 716 717 718 719 720 721 722 723 724 725 726 727 728 729 730 731 732 733 734 735 736 737 738 739 740 741 742 743 744 745 746 747 748 749 750 751 752 753 754 755 756 757 758 759 760 761 762 763 764 765 766 767 768 769 770 771 772 773 774 775 776 777 778 779 780 781 782 783 784 785 786 787 788 789 790 791 792 793 794 795 796 797 798 799 800 801 802 803 804 805 806 807 808 809 810 811 812 813 814 815 816 817 818 819 820 821 822 823 824 825 826 827 828 829 830 831 832 833 834 835 836 837 838 839 840 841 842 843 844 845 846 847 848 849 850 851 852 853 854 855 856 857 858 859 860 861 862 863 864 865 866 867 868 869 870 871 872 873 874 875 876 877 878 879 880 881 882 883 884 885 886 887 888 889 890 891 892 893 894 895 896 897 898 899 900 901 902 903 904 905 906 907 908 909 910 911 912 913 914 915 916 917 918 919 920 921 922 923 924 925 926 927 928 929 930 931 932 933 934 935 936 937 938 939 940 941 942 943 944 945 946 947 948 949 950 951 952 953 954 955 956 957 958 959 960 961 962 963 964 965 966 967 968 969 970 971 972 973 974 975 976 977 978 979 980 981 982 983 984 985 986 987 988 989 990 991 992 993 994 995 996 997 998 999 1000 1001 1002 1003 1004 1005 1006 1007 1008 1009 1010 1011 1012 1013 1014 1015 1016 1017 1018 1019 1020 1021 1022 1023 1024 1025 1026 1027 1028 1029 1030 1031 1032 1033 1034 1035 1036 1037 1038 1039 1040 1041 1042 1043 1044 1045 1046 1047 1048 1049 1050 1051 1052 1053 1054 1055 1056 1057 1058 1059 1060 1061 1062 1063 1064 1065 1066 1067 1068 1069 1070 1071 1072 1073 1074 1075 1076 1077 1078 1079 1080 1081 1082 1083 1084 1085 1086 1087 1088 1089 1090 1091 1092 1093 1094 1095 1096 1097 1098 1099 1100 1101 1102 1103 1104 1105 1106 1107 1108 1109 1110 1111 1112 1113 1114 1115 1116 1117 1118 1119 1120 1121 1122 1123 1124 1125 1126 1127 1128 1129 1130 1131 1132 1133 1134 1135 1136 1137 1138 1139 1140 1141 1142 1143 1144 1145 1146 1147 1148 1149 1150 1151 1152 1153 1154 1155 1156 1157 1158 1159 1160 1161 1162 1163 1164 1165 1166 1167 1168 1169 1170 1171 1172 1173 1174 1175 1176 1177 1178 1179 1180 1181 1182 1183 1184 1185 1186 1187 1188 1189 1190 1191 1192 1193 1194 1195 1196 1197 1198 1199 1200 1201 1202 1203 1204 1205 1206 1207 1208 1209 1210 1211 1212 1213 1214 1215 1216 1217 1218 1219 1220 1221 1222 1223 1224 1225 1226 1227 1228 1229 1230 1231 1232 1233 1234 1235 1236 1237 1238 1239 1240 1241 1242 1243 1244 1245 1246 1247 1248 1249 1250 1251 1252 1253 1254 1255 1256 1257 1258 1259 1260 1261 1262 1263 1264 1265 1266 1267 1268 1269 1270 1271 1272 1273 1274 1275 1276 1277 1278 1279 1280 1281 1282 1283 1284 1285 1286 1287 1288 1289 1290 1291 1292 1293 1294 1295 1296 1297 1298 1299 1300 1301 1302 1303 1304 1305 1306 1307 1308 1309 1310 1311 1312 1313 1314 1315 1316 1317 1318 1319 1320 1321 1322 1323 1324 1325 1326 1327 1328 1329 1330 1331 1332 1333 1334 1335 1336 1337 1338 1339 1340 1341 1342 1343 1344 1345 1346 1347 1348 1349 1350 1351 1352 1353 1354 1355 1356 1357 1358 1359 1360 1361 1362 1363 1364 1365 1366 1367 1368 1369 1370 1371 1372 1373 1374 1375 1376 1377 1378 1379 1380 1381 1382 1383 1384 1385 1386 1387 1388 1389 1390 1391 1392 1393 1394 1395 1396 1397 1398 1399 1400 1401 1402 1403 1404 1405 1406 1407 1408 1409 1410 1411 1412 1413 1414 1415 1416 1417 1418 1419 1420 1421 1422 1423 1424 1425 1426 1427 1428 1429 1430 1431 1432 1433 1434 1435 1436 1437 1438 1439 1440 1441 1442 1443 1444 1445 1446 1447 1448 1449 1450 1451 1452 1453 1454 1455 1456 1457 1458 1459 1460 1461 1462 1463 1464 1465 1466 1467 1468 1469 1470 1471 1472 1473 1474 1475 1476 1477 1478 1479 1480 1481 1482 1483 1484 1485 1486 1487 1488 1489 1490 1491 1492 1493 1494 1495 1496 1497 1498 1499 1500 1501 1502 1503 1504 1505 1506 1507 1508 1509 1510 1511 1512 1513 1514 1515 1516 1517 1518 1519 1520 1521 1522 1523 1524 1525 1526 1527 1528 1529 1530 1531 1532 1533 1534 1535 1536 1537 1538 1539 1540 1541 1542 1543 1544 1545 1546 1547 1548 1549 1550 1551 1552 1553 1554 1555 1556 1557 1558 1559 1560 1561 1562 1563 1564 1565 1566 1567 1568 1569 1570 1571 1572 1573 1574 1575 1576 1577 1578 1579 1580 1581 1582 1583 1584 1585 1586 1587 1588 1589 1590 1591 1592 1593 1594 1595 1596 1597 1598 1599 1600 1601 1602 1603 1604 1605 1606 1607 1608 1609 1610 1611 1612 1613 1614 1615 1616 1617 1618 1619 1620 1621 1622 1623 1624 1625 1626 1627 1628 1629 1630 1631 1632 1633 1634 1635 1636 1637 1638 1639 1640 1641 1642 1643 1644 1645 1646 1647 1648 1649 1650 1651 1652 1653 1654 1655 1656 1657 1658 1659 1660 1661 1662 1663 1664 1665 1666 1667 1668 1669 1670 1671 1672 1673 1674 1675 1676 1677 1678 1679 1680 1681 1682 1683 1684 1685 1686 1687 1688 1689 1690 1691 1692 1693 1694 1695 1696 1697 1698 1699 1700 1701 1702 1703 1704 1705 1706 1707 1708 1709 1710 1711 1712 1713 1714 1715 1716 1717 1718 1719 1720 1721 1722 1723 1724 1725 1726 1727 1728 1729 1730 1731 1732 1733 1734 1735 1736 1737 1738 1739 1740 1741 1742 1743 1744 1745 1746 1747 1748 1749 1750 1751 1752 1753 1754 1755 1756 1757 1758 1759 1760 1761 1762 1763 1764 1765 1766 1767 1768 1769 1770 1771 1772 1773 1774 1775 1776 1777 1778 1779 1780 1781 1782 1783 1784 1785 1786 1787 1788 1789 1790 1791 1792 1793 1794 1795 1796 1797 1798 1799 1800 1801 1802 1803 1804 1805 1806 1807 1808 1809 1810 1811 1812 1813 1814 1815 1816 1817 1818 1819 1820 1821 1822 1823 1824 1825 1826 1827 1828 1829 1830 1831 1832 1833 1834 1835 1836 1837 1838 1839 1840 1841 1842 1843 1844 1845 1846 1847 1848 1849 1850 1851 1852 1853 1854 1855 1856 1857 1858 1859 1860 1861 1862 1863 1864 1865 1866 1867 1868 1869 1870 1871 1872 1873 1874 1875 1876 1877 1878 1879 1880 1881 1882 1883 1884 1885 1886 1887 1888 1889 1890 1891 1892 1893 1894 1895 1896 1897 1898 1899 1900 1901 1902 1903 1904 1905 1906 1907 1908 1909 1910 1911 1912 1913 1914 1915 1916 1917 1918 1919 1920 1921 1922 1923 1924 1925 1926 1927 1928 1929 1930 1931 1932 1933 1934 1935 1936 1937 1938 1939 1940 1941 1942 1943 1944 1945 1946 1947 1948 1949 1950 1951 1952 1953 1954 1955 1956 1957 1958 1959 1960 1961 1962 1963 1964 1965 1966 1967 1968 1969 1970 1971 1972 1973 1974 1975 1976 1977 1978 1979 1980 1981 1982 1983 1984 1985 1986 1987 1988 1989 1990 1991 1992 1993 1994 1995 1996 1997 1998 1999 2000 2001 2002 2003 2004 2005 2006 2007 2008 2009 2010 2011 2012 2013 2014 2015 2016 2017 2018 2019 2020 2021 2022 2023 2024 2025 2026 2027 2028 2029 2030 2031 2032 2033 2034 2035 2036 2037 2038 2039 2040 2041 2042 2043 2044 2045 2046 2047 2048 2049 2050 2051 2052 2053 2054 2055 2056 2057 2058 2059 2060 2061 2062 2063 2064 2065 2066 2067 2068 2069 2070 2071 2072 2073 2074 2075 2076 2077 2078 2079 2080 2081 2082 2083 2084 2085 2086 2087 2088 2089 2090 2091 2092 2093 2094 2095 2096 2097 2098 2099 2100 2101 2102 2103 2104 2105 2106 2107 2108 2109 2110 2111 2112 2113 2114 2115 2116 2117 2118 2119 2120 2121 2122 2123 2124 2125 2126 2127 2128 2129 2130 2131 2132 2133 2134 2135 2136 2137 2138 2139 2140 2141 2142 2143 2144 2145 2146 2147 2148 2149 2150 2151 2152 2153 2154 2155 2156 2157 2158 2159 
</DataArray>
<DataArray type="UInt32" Name="offsets" format="ascii">
4 8 12 16 20 24 28 32 36 40 44 48 52 56 60 64 68 72 76 80 84 88 92 96 100 104 108 112 116 120 124 128 132 136 140 144 148 152 156 160 164 168 172 176 180 184 188 192 196 200 204 208 212 216 220 224 228 232 236 240 244 248 252 256 260 264 268 272 276 280 284 288 292 296 300 304 308 312 316 320 324 328 332 336 340 344 348 352 356 360 364 368 372 376 380 384 388 392 396 400 404 408 412 416 420 424 428 432 436 440 444 448 452 456 460 464 468 472 476 480 484 488 492 496 500 504 508 512 516 520 524 528 532 536 540 544 548 552 556 560 564 568 572 576 580 584 588 592 596 600 604 608 612 616 620 624 628 632 636 640 644 648 652 656 660 664 668 672 676 680 684 688 692 696 700 704 708 712 716 720 724 728 732 736 740 744 748 752 756 760 764 768 772 776 780 784 788 792 796 800 804 808 812 816 820 824 828 832 836 840 844 848 852 856 860 864 868 872 876 880 884 888 892 896 900 904 908 912 916 920 924 928 932 936 940 944 948 952 956 960 964 968 972 976 980 984 988 992 996 1000 1004 1008 1012 1016 1020 1024 1028 1032 1036 1040 1044 1048 1052 1056 1060 1064 1068 1072 1076 1080 1084 1088 1092 1096 1100 1104 1108 1112 1116 1120 1124 1128 1132 1136 1140 1144 1148 1152 1156 1160 1164 1168 1172 1176 1180 1184 1188 1192 1196 1200 1204 1208 1212 1216 1220 1224 1228 1232 1236 1240 1244 1248 1252 1256 1260 1264 1268 1272 1276 1280 1284 1288 1292 1296 1300 1304 1308 1312 1316 1320 1324 1328 1332 1336 1340 1344 1348 1352 1356 1360 1364 1368 1372 1376 1380 1384 1388 1392 1396 1400 1404 1408 1412 1416 1420 1424 1428 1432 1436 1440 1444 1448 1452 1456 1460 1464 1468 1472 1476 1480 1484 1488 1492 1496 1500 1504 1508 1512 1516 1520 1524 1528 1532 1536 1540 1544 1548 1552 1556 1560 1564 1568 1572 1576 1580 1584 1588 1592 1596 1600 1604 1608 1612 1616 1620 1624 1628 1632 1636 1640 1644 1648 1652 1656 1660 1664 1668 1672 1676 1680 1684 1688 1692 1696 1700 1704 1708 1712 1716 1720 1724 1728 1732 1736 1740 1744 1748 1752 1756 1760 1764 1768 1772 1776 1780 1784 1788 1792 1796 1800 1804 1808 1812 1816 1820 1824 1828 1832 1836 1840 1844 1848 1852 1856 1860 1864 1868 1872 1876 1880 1884 1888 1892 1896 1900 1904 1908 1912 1916 1920 1924 1928 1932 1936 1940 1944 1948 1952 1956 1960 1964 1968 1972 1976 1980 1984 1988 1992 1996 2000 2004 2008 2012 2016 2020 2024 2028 2032 2036 2040 2044 2048 2052 2056 2060 2064 2068 2072 2076 2080 2084 2088 2092 2096 2100 2104 2108 2112 2116 2120 2124 2128 2132 2136 2140 2144 2148 2152 2156 2160 
</DataArray>
<DataArray type="UInt32" Name="types" format="ascii">
10 10 10 10 10 10 10 10 10 10 10 10 10 10 10 10 10 10 10 10 10 10 10 10 10 10 10 10 10 10 10 10 10 10 10 10 10 10 10 10 10 10 10 10 10 10 10 10 10 10 10 10 10 10 10 10 10 10 10 10 10 10 10 10 10 10 10 10 10 10 10 10 10 10 10 10 10 10 10 10 10 10 10 10 10 10 10 10 10 10 10 10 10 10 10 10 10 10 10 10 10 10 10 10 10 10 10 10 10 10 10 10 10 10 10 10 10 10 10 10 10 10 10 10 10 10 10 10 10 10 10 10 10 10 10 10 10 10 10 10 10 10 10 10 10 10 10 10 10 10 10 10 10 10 10 10 10 10 10 10 10 10 10 10 10 10 10 10 10 10 10 10 10 10 10 10 10 10 10 10 10 10 10 10 10 10 10 10 10 10 10 10 10 10 10 10 10 10 10 10 10 10 10 10 10 10 10 10 10 10 10 10 10 10 10 10 10 10 10 10 10 10 10 10 10 10 10 10 10 10 10 10 10 10 10 10 10 10 10 10 10 10 10 10 10 10 10 10 10 10 10 10 10 10 10 10 10 10 10 10 10 10 10 10 10 10 10 10 10 10 10 10 10 10 10 10 10 10 10 10 10 10 10 10 10 10 10 10 10 10 10 10 10 10 10 10 10 10 10 10 10 10 10 10 10 10 10 10 10 10 10 10 10 10 10 10 10 10 10 10 10 10 10 10 10 10 10 10 10 10 10 10 10 10 10 10 10 10 10 10 10 10 10 10 10 10 10 10 10 10 10 10 10 10 10 10 10 10 10 10 10 10 10 10 10 10 10 10 10 10 10 10 10 10 10 10 10 10 10 10 10 10 10 10 10 10 10 10 10 10 10 10 10 10 10 10 10 10 10 10 10 10 10 10 10 10 10 10 10 10 10 10 10 10 10 10 10 10 10 10 10 10 10 10 10 10 10 10 10 10 10 10 10 10 10 10 10 10 10 10 10 10 10 10 10 10 10 10 10 10 10 10 10 10 10 10 10 10 10 10 10 10 10 10 10 10 10 10 10 10 10 10 10 10 10 10 10 10 10 10 10 10 10 10 10 10 10 10 10 10 10 10 10 10 10 10 10 10 10 10 10 10 10 10 10 10 10 10 10 10 10 10 10 10 10 10 10 10 10 10 10 10 10 10 10 10 10 10 10 10 10 10 10 10 10 10 10 10 10 10 
</DataArray>
</Cells>
<PointData Scalars="" Vectors="displacement," Tensors="">
<DataArray type="Float64" Name="displacement" NumberOfComponents="3" format="ascii">
-1.3343357854908266e-07 -1.9517211023929739e-08 -0.00025021888033928435 2.4515339222959652e-08 1.6152691055237166e-08 -1.8749934836155013e-07 -8.4333608858905411e-08 -2.3212551226991304e-08 -0.00025021819409288599 -1.275987004401422e-07 4.9916451127037667e-08 -0.00025023841968929673 -1.3343357854908266e-07 -1.9517211023929739e-08 -0.00025021888033928435 2.4515339222959652e-08 1.6152691055237166e-08 -1.8749934836155013e-07 -8.4333608858905411e-08 -2.3212551226991304e-08 -0.00025021819409288599 -1.0075478122132462e-07 -8.636771744692476e-08 -0.00025023337905594688 -1.3343357854908266e-07 -1.9517211023929739e-08 -0.00025021888033928435 -5.4630253097208139e-08 -3.5568346936579049e-08 -1.055848418580679e-07 2.4515339222959652e-08 1.6152691055237169e-08 -1.8749934836155013e-07 -1.0075478122132462e-07 -8.636771744692476e-08 -0.00025023337905594688 -1.3343357854908266e-07 -1.9517211023929739e-08 -0.00025021888033928435 -5.4630253097208139e-08 -3.5568346936579049e-08 -1.055848418580679e-07 2.4515339222959656e-08 1.6152691055237172e-08 -1.8749934836153677e-07 -5.229606373682028e-08 -4.3714324775918092e-09 -2.4536007303830582e-07 2.4515339222959652e-08 1.6152691055237166e-08 -1.8749934836155013e-07 -2.6317444028314202e-09 1.1332154115674472e-08 -2.1468364943752414e-07 -4.0156495116237909e-08 -5.0909892173521915e-08 -0.00025020400112429149 -5.4678897980010913e-08 1.3877861462781548e-08 -0.00025020484121335539 2.4515339222959652e-08 1.6152691055237166e-08 -1.8749934836155013e-07 -1.0075478122132464e-07 -8.6367717446924774e-08 -0.00025023337905594688 -2.6317444028314144e-09 1.133215411567447e-08 -2.1468364943753639e-07 -4.0156495116237863e-08 -5.0909892173521902e-08 -0.00025020400112429154 2.4515339222959652e-08 1.6152691055237166e-08 -1.8749934836155013e-07 -8.4333608858905411e-08 -2.3212551226991304e-08 -0.00025021819409288599 -4.0156495116237916e-08 -5.0909892173521941e-08 -0.00025020400112429149 -5.4678897980010926e-08 1.3877861462781557e-08 -0.00025020484121335539 2.4515339222959652e-08 1.6152691055237166e-08 -1.8749934836155013e-07 -8.4333608858905411e-08 -2.3212551226991304e-08 -0.00025021819409288599 -1.0075478122132463e-07 -8.636771744692476e-08 -0.00025023337905594688 -4.0156495116237883e-08 -5.0909892173521902e-08 -0.00025020400112429149 -1.0075478122132462e-07 -8.636771744692476e-08 -0.00025023337905594688 -2.4656542245990686e-08 -4.6470940278921895e-08 -2.344120848844307e-07 -2.6317444028314157e-09 1.1332154115674468e-08 -2.1468364943752414e-07 -5.1940788079342721e-08 -1.272476674345506e-07 -0.00025020779713663742 2.4515339222959652e-08 1.6152691055237166e-08 -1.8749934836155013e-07 -1.0075478122132462e-07 -8.636771744692476e-08 -0.00025023337905594688 -2.4656542245990686e-08 -4.6470940278921895e-08 -2.344120848844307e-07 -2.6317444028314202e-09 1.1332154115674472e-08 -2.1468364943752414e-07 -5.4630253097208139e-08 -3.5568346936579049e-08 -1.055848418580679e-07 2.4515339222959649e-08 1.6152691055237169e-08 -1.8749934836155013e-07 -1.0075478122132462e-07 -8.636771744692476e-08 -0.00025023337905594688 -2.4656542245990686e-08 -4.6470940278921895e-08 -2.344120848844307e-07 -2.4656542245990686e-08 -4.6470940278921895e-08 -2.344120848844307e-07 5.0248071519124971e-09 -5.2721002443463703e-08 -1.8098153659427134e-07 -2.6317444028314202e-09 1.1332154115674472e-08 -2.1468364943752414e-07 -5.1940788079342735e-08 -1.272476674345506e-07 -0.00025020779713663747 5.0248071519125012e-09 -5.2721002443463703e-08 -1.8098153659424667e-07 -2.6317444028314202e-09 1.1332154115674472e-08 -2.1468364943752414e-07 -4.8807927324604971e-09 1.6546720749469366e-08 -9.7709436023933126e-08 -5.1940788079342721e-08 -1.272476674345506e-07 -0.00025020779713663742 -2.6317444028314202e-09 1.1332154115674472e-08 -2.1468364943752414e-07 -4.8807927324604971e-09 1.6546720749469366e-08 -9.7709436023933126e-08 -4.0156495116237909e-08 -5.0909892173521915e-08 -0.00025020400112429149 -5.1940788079342721e-08 -1.2724766743455062e-07 -0.00025020779713663742 -2.6317444028314202e-09 1.1332154115674472e-08 -2.1468364943752414e-07 5.7104019323755458e-09 -9.1897631382975381e-09 -7.2571550106234745e-08 -4.0156495116237909e-08 -5.0909892173521915e-08 -0.00025020400112429149 3.7898004419761996e-09 2.5030924133378591e-09 -1.8649050362211322e-07 -2.6317444028314202e-09 1.1332154115674472e-08 -2.1468364943752414e-07 5.7104019323755458e-09 -9.1897631382975381e-09 -7.2571550106234745e-08 -4.8807927324604971e-09 1.6546720749469366e-08 -9.7709436023933126e-08 -4.0156495116237909e-08 -5.0909892173521915e-08 -0.00025020400112429149 5.7104019323755458e-09 -9.1897631382975381e-09 -7.2571550106234745e-08 -4.8807927324604971e-09 1.6546720749469366e-08 -9.7709436023933126e-08 -5.1082545658527868e-09 -8.414427142044535e-08 -0.00025018509000212337 -4.0156495116237909e-08 -5.0909892173521915e-08 -0.00025020400112429149 5.7104019323755458e-09 -9.1897631382975381e-09 -7.2571550106234745e-08 -1.2701606378773115e-08 1.1315006910843118e-08 -9.8543755952527562e-08 1.2402477580046193e-08 -4.2727359234307162e-08 -0.00025018016837534933 5.318833367608707e-08 -2.664031595941707e-08 -0.00025019540953549952 5.7104019323755458e-09 -9.1897631382975381e-09 -7.2571550106234745e-08 -1.2701606378773115e-08 1.1315006910843118e-08 -9.8543755952527562e-08 5.318833367608707e-08 -2.664031595941707e-08 -0.00025019540953549952 -1.2601085779111996e-08 4.7781328529342454e-09 -1.7697878244678713e-07 5.7104019323755458e-09 -9.1897631382975381e-09 -7.2571550106234745e-08 -1.2701606378773115e-08 1.1315006910843118e-08 -9.8543755952527562e-08 -5.1082545658527868e-09 -8.414427142044535e-08 -0.00025018509000212337 1.2402477580046193e-08 -4.2727359234307162e-08 -0.00025018016837534933 5.7104019323755458e-09 -9.1897631382975381e-09 -7.2571550106234745e-08 -1.2701606378773115e-08 1.1315006910843118e-08 -9.8543755952527562e-08 -4.8807927324604971e-09 1.6546720749469366e-08 -9.7709436023933126e-08 -5.1082545658527868e-09 -8.414427142044535e-08 -0.00025018509000212337 -1.2701606378773115e-08 1.1315006910843118e-08 -9.8543755952527562e-08 -4.8807927324604971e-09 1.6546720749469366e-08 -9.7709436023933126e-08 2.9118619677676258e-08 -4.4973808968970852e-08 -1.379528096663697e-07 1.9424295921734186e-08 -1.3542565328672782e-07 -0.00025019748271729253 5.0248071519125012e-09 -5.2721002443463703e-08 -1.8098153659424667e-07 -4.8807927324605079e-09 1.6546720749469382e-08 -9.7709436023933113e-08 -5.1940788079342721e-08 -1.272476674345506e-07 -0.00025020779713663742 1.9424295921734223e-08 -1.3542565328672785e-07 -0.00025019748271729253 5.0248071519125012e-09 -5.2721002443463703e-08 -1.8098153659424667e-07 -4.8807927324605029e-09 1.6546720749469372e-08 -9.7709436023945461e-08 2.9118619677676258e-08 -4.4973808968970852e-08 -1.379528096663697e-07 1.9424295921734186e-08 -1.3542565328672782e-07 -0.00025019748271729253 -1.2701606378773115e-08 1.1315006910843118e-08 -9.8543755952527562e-08 -4.8807927324604971e-09 1.6546720749469366e-08 -9.7709436023933126e-08 -5.1082545658527868e-09 -8.414427142044535e-08 -0.00025018509000212337 1.9424295921734186e-08 -1.3542565328672782e-07 -0.00025019748271729253 -4.8807927324604971e-09 1.6546720749469366e-08 -9.7709436023933126e-08 -5.1082545658527868e-09 -8.414427142044535e-08 -0.00025018509000212337 -5.1940788079342721e-08 -1.272476674345506e-07 -0.00025020779713663742 1.9424295921734186e-08 -1.3542565328672782e-07 -0.00025019748271729253 -1.2701606378773115e-08 1.1315006910843118e-08 -9.8543755952527562e-08 -5.1082545658527868e-09 -8.414427142044535e-08 -0.00025018509000212337 3.6403420015601692e-08 -7.0372824632134972e-08 -0.00025018849820709042 1.9424295921734186e-08 -1.3542565328672782e-07 -0.00025019748271729253 -1.2701606378773115e-08 1.1315006910843118e-08 -9.8543755952527562e-08 3.6403420015601692e-08 -7.0372824632134972e-08 -0.00025018849820709042 1.2402477580046224e-08 -4.2727359234307135e-08 -0.00025018016837534933 5.3188333676087031e-08 -2.6640315959417057e-08 -0.00025019540953549952 -1.2701606378773115e-08 1.1315006910843118e-08 -9.8543755952527562e-08 -5.1082545658527868e-09 -8.414427142044535e-08 -0.00025018509000212337 3.6403420015601692e-08 -7.0372824632134972e-08 -0.00025018849820709042 1.2402477580046193e-08 -4.2727359234307162e-08 -0.00025018016837534933 5.7104019323755458e-09 -9.1897631382975381e-09 -7.2571550106234745e-08 -5.1082545658527868e-09 -8.414427142044535e-08 -0.00025018509000212337 1.2402477580046193e-08 -4.2727359234307162e-08 -0.00025018016837534933 -4.0156495116237909e-08 -5.0909892173521915e-08 -0.00025020400112429149 5.7104019323755458e-09 -9.1897631382975381e-09 -7.2571550106234745e-08 1.2402477580046193e-08 -4.2727359234307162e-08 -0.00025018016837534933 -4.0156495116237916e-08 -5.0909892173521888e-08 -0.00025020400112429143 4.605793479517651e-09 -1.6605690257423987e-10 -0.00025019723058800639 -4.8807927324604971e-09 1.6546720749469366e-08 -9.7709436023933126e-08 -5.1082545658527868e-09 -8.414427142044535e-08 -0.00025018509000212337 -4.0156495116237909e-08 -5.0909892173521915e-08 -0.00025020400112429149 -5.1940788079342721e-08 -1.272476674345506e-07 -0.00025020779713663742 -1.0075478122132462e-07 -8.636771744692476e-08 -0.00025023337905594688 -2.6317444028314186e-09 1.1332154115674465e-08 -2.1468364943752414e-07 -4.0156495116237909e-08 -5.0909892173521915e-08 -0.00025020400112429149 -5.1940788079342721e-08 -1.272476674345506e-07 -0.00025020779713663742 -5.1082545658527868e-09 -8.414427142044535e-08 -0.00025018509000212337 -4.0156495116237909e-08 -5.0909892173521915e-08 -0.00025020400112429149 -5.1940788079342721e-08 -1.272476674345506e-07 -0.00025020779713663742 1.3426780551283992e-08 -1.0928201407954963e-07 -0.00050024200001112188 -5.1082545658527868e-09 -8.414427142044535e-08 -0.00025018509000212337 2.1585867138449513e-08 -7.3840220254201439e-08 -0.00050023715947512197 -1.7767082324793982e-08 -5.569908224591238e-08 -0.00050024083700368923 1.3426780551283992e-08 -1.0928201407954963e-07 -0.00050024200001112188 -5.1082545658527868e-09 -8.414427142044535e-08 -0.00025018509000212337 -4.0156495116237909e-08 -5.0909892173521915e-08 -0.00025020400112429149 -1.7767082324793982e-08 -5.569908224591238e-08 -0.00050024083700368923 1.3426780551283992e-08 -1.0928201407954963e-07 -0.00050024200001112188 -4.0156495116237909e-08 -5.0909892173521915e-08 -0.00025020400112429149 -1.7767082324793982e-08 -5.569908224591238e-08 -0.00050024083700368923 1.3426780551283992e-08 -1.0928201407954965e-07 -0.00050024200001112188 -4.4958730800241788e-08 -1.0091876311010866e-07 -0.00050025161271365309 -1.0075478122132462e-07 -8.636771744692476e-08 -0.00025023337905594688 -4.0156495116237909e-08 -5.0909892173521921e-08 -0.00025020400112429149 -5.1940788079342721e-08 -1.272476674345506e-07 -0.00025020779713663742 1.3426780551283992e-08 -1.0928201407954963e-07 -0.00050024200001112188 1.2402477580046193e-08 -4.2727359234307162e-08 -0.00025018016837534933 -4.0156495116237909e-08 -5.0909892173521915e-08 -0.00025020400112429149 -1.7767082324793982e-08 -5.569908224591238e-08 -0.00050024083700368923 4.6057934795176816e-09 -1.660569025742438e-10 -0.00025019723058800639 -5.1082545658527868e-09 -8.414427142044535e-08 -0.00025018509000212337 1.2402477580046193e-08 -4.2727359234307162e-08 -0.00025018016837534933 2.1585867138449513e-08 -7.3840220254201439e-08 -0.00050023715947512197 -1.7767082324793982e-08 -5.569908224591238e-08 -0.00050024083700368923 1.2402477580046193e-08 -4.2727359234307162e-08 -0.00025018016837534933 2.1896623742260874e-08 -3.3945269622491739e-08 -0.00050023625603700717 -1.7767082324793989e-08 -5.5699082245912366e-08 -0.00050024083700368923 5.2846911087512679e-09 3.3976416734059067e-09 -0.00050024025274755183 -5.1082545658527868e-09 -8.414427142044535e-08 -0.00025018509000212337 1.2402477580046193e-08 -4.2727359234307162e-08 -0.00025018016837534933 -4.0156495116237909e-08 -5.0909892173521915e-08 -0.00025020400112429149 -1.7767082324793982e-08 -5.569908224591238e-08 -0.00050024083700368923 1.2402477580046193e-08 -4.2727359234307162e-08 -0.00025018016837534933 2.1585867138449513e-08 -7.3840220254201439e-08 -0.00050023715947512197 2.1896623742260874e-08 -3.3945269622491739e-08 -0.00050023625603700717 -1.7767082324793982e-08 -5.569908224591238e-08 -0.00050024083700368923 3.6403420015601692e-08 -7.0372824632134972e-08 -0.00025018849820709042 2.1896623742260891e-08 -3.394526962249172e-08 -0.00050023625603700717 5.1803901636580653e-08 -5.3004591355834434e-08 -0.00050023749207261069 5.4738586960181824e-08 -1.5669805579619366e-08 -0.0005002420592042212 3.6403420015601692e-08 -7.0372824632134972e-08 -0.00025018849820709042 1.2402477580046193e-08 -4.2727359234307162e-08 -0.00025018016837534933 5.4738586960181837e-08 -1.5669805579619386e-08 -0.0005002420592042212 5.318833367608707e-08 -2.664031595941707e-08 -0.00025019540953549952 3.6403420015601692e-08 -7.0372824632134972e-08 -0.00025018849820709042 1.2402477580046193e-08 -4.2727359234307162e-08 -0.00025018016837534933 2.1896623742260897e-08 -3.3945269622491713e-08 -0.00050023625603700717 5.4738586960181817e-08 -1.5669805579619406e-08 -0.0005002420592042212 3.6403420015601692e-08 -7.0372824632134972e-08 -0.00025018849820709042 1.2402477580046193e-08 -4.2727359234307162e-08 -0.00025018016837534933 2.1585867138449513e-08 -7.3840220254201439e-08 -0.00050023715947512197 2.1896623742260874e-08 -3.3945269622491739e-08 -0.00050023625603700717 -5.1082545658527868e-09 -8.414427142044535e-08 -0.00025018509000212337 3.6403420015601692e-08 -7.0372824632134972e-08 -0.00025018849820709042 1.2402477580046193e-08 -4.2727359234307162e-08 -0.00025018016837534933 2.1585867138449513e-08 -7.3840220254201439e-08 -0.00050023715947512197 3.6403420015601692e-08 -7.0372824632134972e-08 -0.00025018849820709042 2.1585867138449513e-08 -7.3840220254201439e-08 -0.00050023715947512197 2.1896623742260874e-08 -3.3945269622491739e-08 -0.00050023625603700717 5.1803901636580653e-08 -5.3004591355834428e-08 -0.00050023749207261069 -5.1082545658527868e-09 -8.414427142044535e-08 -0.00025018509000212337 -5.1940788079342721e-08 -1.272476674345506e-07 -0.00025020779713663742 1.9424295921734186e-08 -1.3542565328672782e-07 -0.00025019748271729253 6.6420874145555971e-08 -8.7910564643583778e-08 -0.00050023819146407676 -5.1082545658527868e-09 -8.414427142044535e-08 -0.00025018509000212337 2.1585867138449513e-08 -7.3840220254201439e-08 -0.00050023715947512197 1.3426780551283992e-08 -1.0928201407954963e-07 -0.00050024200001112188 6.6420874145555971e-08 -8.7910564643583778e-08 -0.00050023819146407676 -5.1082545658527868e-09 -8.414427142044535e-08 -0.00025018509000212337 -5.1940788079342721e-08 -1.272476674345506e-07 -0.00025020779713663742 1.3426780551283992e-08 -1.0928201407954963e-07 -0.00050024200001112188 6.6420874145555971e-08 -8.7910564643583778e-08 -0.00050023819146407676 -5.1082545658527868e-09 -8.414427142044535e-08 -0.00025018509000212337 3.6403420015601692e-08 -7.0372824632134972e-08 -0.00025018849820709042 2.1585867138449513e-08 -7.3840220254201439e-08 -0.00050023715947512197 6.6420874145555971e-08 -8.7910564643583778e-08 -0.00050023819146407676 -5.1082545658527868e-09 -8.414427142044535e-08 -0.00025018509000212337 3.6403420015601692e-08 -7.0372824632134972e-08 -0.00025018849820709042 1.9424295921734186e-08 -1.3542565328672782e-07 -0.00025019748271729253 6.6420874145555971e-08 -8.7910564643583778e-08 -0.00050023819146407676 3.6403420015601692e-08 -7.0372824632134972e-08 -0.00025018849820709042 2.1585867138449513e-08 -7.3840220254201439e-08 -0.00050023715947512197 5.1803901636580653e-08 -5.3004591355834428e-08 -0.00050023749207261069 6.6420874145555971e-08 -8.7910564643583778e-08 -0.00050023819146407676 2.1585867138449513e-08 -7.3840220254201439e-08 -0.00050023715947512197 1.3426780551283992e-08 -1.0928201407954963e-07 -0.00050024200001112188 6.6420874145555971e-08 -8.7910564643583778e-08 -0.00050023819146407676 5.4071423931897867e-08 -9.7713407703388604e-08 -0.0007502751787797974 2.1585867138449513e-08 -7.3840220254201439e-08 -0.00050023715947512197 5.1803901636580653e-08 -5.3004591355834428e-08 -0.00050023749207261069 6.6420874145555971e-08 -8.7910564643583778e-08 -0.00050023819146407676 5.4071423931897867e-08 -9.7713407703388604e-08 -0.0007502751787797974 2.1585867138449513e-08 -7.3840220254201439e-08 -0.00050023715947512197 2.1896623742260874e-08 -3.3945269622491739e-08 -0.00050023625603700717 5.1803901636580653e-08 -5.3004591355834428e-08 -0.00050023749207261069 1.9438015008365188e-08 -7.5938936902513495e-08 -0.00075027510874085509 2.1896623742260874e-08 -3.3945269622491739e-08 -0.00050023625603700717 5.1803901636580653e-08 -5.3004591355834428e-08 -0.00050023749207261069 5.4738586960181837e-08 -1.5669805579619386e-08 -0.0005002420592042212 5.3678577468902889e-08 -1.9711874956717468e-08 -0.00075027778990771664 2.1585867138449513e-08 -7.3840220254201439e-08 -0.00050023715947512197 2.1896623742260874e-08 -3.3945269622491739e-08 -0.00050023625603700717 -1.7767082324793982e-08 -5.569908224591238e-08 -0.00050024083700368923 -1.6531867352448718e-08 -5.5269525007099124e-08 -0.00075027594242897916 2.1896623742260874e-08 -3.3945269622491739e-08 -0.00050023625603700717 -1.7767082324793982e-08 -5.569908224591238e-08 -0.00050024083700368923 5.2846911087512928e-09 3.3976416734059113e-09 -0.00050024025274755183 -1.6531867352448718e-08 -5.5269525007099124e-08 -0.00075027594242897916 -1.7767082324793982e-08 -5.569908224591238e-08 -0.00050024083700368923 1.3426780551283992e-08 -1.0928201407954963e-07 -0.00050024200001112188 -4.4958730800241807e-08 -1.0091876311010866e-07 -0.00050025161271365309 -1.9359213900853351e-09 -1.1165147847162037e-07 -0.00075027557098401258 2.1585867138449513e-08 -7.3840220254201439e-08 -0.00050023715947512197 -1.7767082324793982e-08 -5.569908224591238e-08 -0.00050024083700368923 1.3426780551283992e-08 -1.0928201407954963e-07 -0.00050024200001112188 -1.935921390085331e-09 -1.1165147847162037e-07 -0.00075027557098401247 -1.7767082324793982e-08 -5.569908224591238e-08 -0.00050024083700368923 -4.4958730800241814e-08 -1.0091876311010866e-07 -0.00050025161271365309 -6.5685885136200082e-08 -4.349382297905789e-08 -0.00050024550998184274 -5.717013131118409e-08 -9.5807844151281563e-08 -0.00075027874210764503 -4.4958730800241807e-08 -1.0091876311010866e-07 -0.00050025161271365309 -8.7987077512767919e-08 -6.6310177696223889e-08 -0.00050024682621771326 -6.5685885136200082e-08 -4.349382297905789e-08 -0.00050024550998184274 -5.717013131118409e-08 -9.5807844151281563e-08 -0.00075027874210764503 -1.0075478122132462e-07 -8.636771744692476e-08 -0.00025023337905594688 -4.0156495116237903e-08 -5.0909892173521915e-08 -0.00025020400112429149 1.3426780551283998e-08 -1.0928201407954964e-07 -0.00050024200001112177 -4.4958730800241807e-08 -1.0091876311010866e-07 -0.00050025161271365309 -8.4333608858905411e-08 -2.3212551226991304e-08 -0.00025021819409288599 -1.0075478122132462e-07 -8.636771744692476e-08 -0.00025023337905594688 -4.0156495116237909e-08 -5.0909892173521915e-08 -0.00025020400112429149 -4.4958730800241807e-08 -1.0091876311010866e-07 -0.00050025161271365309 -1.3343357854908266e-07 -1.9517211023929739e-08 -0.00025021888033928435 -8.4333608858905411e-08 -2.32125512269913e-08 -0.00025021819409288599 -1.0075478122132462e-07 -8.636771744692476e-08 -0.00025023337905594688 -4.4958730800241807e-08 -1.0091876311010866e-07 -0.00050025161271365309 -8.4333608858905411e-08 -2.3212551226991304e-08 -0.00025021819409288599 -1.7767082324793962e-08 -5.5699082245912386e-08 -0.00050024083700368923 -6.5685885136200095e-08 -4.349382297905789e-08 -0.00050024550998184285 -5.0936197907569803e-08 3.0296488984932027e-09 -0.00050024276710527679 -8.4333608858905411e-08 -2.3212551226991304e-08 -0.00025021819409288599 -1.7767082324793962e-08 -5.5699082245912353e-08 -0.00050024083700368923 -4.4958730800241821e-08 -1.0091876311010865e-07 -0.00050025161271365299 -6.5685885136200082e-08 -4.349382297905789e-08 -0.00050024550998184274 -8.4333608858905411e-08 -2.3212551226991304e-08 -0.00025021819409288599 -4.0156495116237909e-08 -5.0909892173521915e-08 -0.00025020400112429149 -1.7767082324793982e-08 -5.569908224591238e-08 -0.00050024083700368923 -4.4958730800241807e-08 -1.0091876311010866e-07 -0.00050025161271365309 -8.4333608858905411e-08 -2.3212551226991304e-08 -0.00025021819409288599 -4.0156495116237909e-08 -5.0909892173521915e-08 -0.00025020400112429149 -1.7767082324793982e-08 -5.569908224591238e-08 -0.00050024083700368923 -5.093619790756979e-08 3.0296488984931981e-09 -0.00050024276710527679 -8.4333608858905411e-08 -2.3212551226991304e-08 -0.00025021819409288599 -4.4958730800241827e-08 -1.0091876311010866e-07 -0.00050025161271365309 -8.7987077512767919e-08 -6.6310177696223902e-08 -0.00050024682621771326 -6.5685885136200082e-08 -4.349382297905789e-08 -0.00050024550998184274 -1.3343357854908266e-07 -1.9517211023929739e-08 -0.00025021888033928435 -8.4333608858905411e-08 -2.3212551226991304e-08 -0.00025021819409288599 -4.4958730800241807e-08 -1.0091876311010866e-07 -0.00050025161271365309 -8.7987077512767919e-08 -6.6310177696223889e-08 -0.00050024682621771326 -8.4333608858905411e-08 -2.3212551226991304e-08 -0.00025021819409288599 -8.7987077512767919e-08 -6.6310177696223889e-08 -0.00050024682621771326 -6.5685885136200082e-08 -4.349382297905789e-08 -0.00050024550998184274 -1.0916633378510818e-07 -1.3238966797250345e-08 -0.00050025404021852653 -1.3343357854908266e-07 -1.9517211023929739e-08 -0.00025021888033928435 -8.4333608858905411e-08 -2.3212551226991304e-08 -0.00025021819409288599 -8.7987077512767919e-08 -6.6310177696223889e-08 -0.00050024682621771326 -1.275987004401422e-07 4.9916451127037667e-08 -0.00025023841968929673 -8.7987077512767919e-08 -6.6310177696223889e-08 -0.00050024682621771326 -6.5685885136200082e-08 -4.349382297905789e-08 -0.00050024550998184274 -1.0916633378510818e-07 -1.3238966797250345e-08 -0.00050025404021852653 -9.7769179646191093e-08 -5.4078258483497152e-08 -0.000750277029422064 -1.7767082324793982e-08 -5.569908224591238e-08 -0.00050024083700368923 -5.093619790756979e-08 3.0296488984931981e-09 -0.00050024276710527679 5.2846911087512928e-09 3.3976416734059113e-09 -0.00050024025274755183 -5.0721136043547378e-08 5.2339010300317482e-09 -0.00075027703796391146 -1.7767082324793982e-08 -5.569908224591238e-08 -0.00050024083700368923 -6.5685885136200082e-08 -4.349382297905789e-08 -0.00050024550998184274 -5.093619790756979e-08 3.0296488984931981e-09 -0.00050024276710527679 -5.0721136043547378e-08 5.2339010300317531e-09 -0.00075027703796391146 -5.093619790756979e-08 3.0296488984931981e-09 -0.00050024276710527679 -1.9840411596693153e-08 3.6185590980375639e-08 -0.00050023862220980534 5.2846911087512928e-09 3.3976416734059113e-09 -0.00050024025274755183 -5.0721136043547385e-08 5.2339010300317473e-09 -0.00075027703796391135 -6.5685885136200082e-08 -4.349382297905789e-08 -0.00050024550998184274 -5.093619790756979e-08 3.0296488984931981e-09 -0.00050024276710527679 -1.0916633378510818e-07 -1.3238966797250345e-08 -0.00050025404021852653 -1.1167746200352512e-07 1.9373243846998493e-09 -0.00075028026692584295 -8.4333608858905411e-08 -2.3212551226991304e-08 -0.00025021819409288599 -6.5685885136200082e-08 -4.349382297905789e-08 -0.00050024550998184274 -5.093619790756979e-08 3.0296488984931989e-09 -0.00050024276710527679 -1.0916633378510818e-07 -1.3238966797250345e-08 -0.00050025404021852653 -8.4333608858905411e-08 -2.3212551226991304e-08 -0.00025021819409288599 -1.0916633378510818e-07 -1.323896679725036e-08 -0.00050025404021852664 -5.4678897980010913e-08 1.3877861462781548e-08 -0.00025020484121335539 -1.275987004401422e-07 4.9916451127037667e-08 -0.00025023841968929673 -8.4333608858905411e-08 -2.3212551226991304e-08 -0.00025021819409288599 -5.0936197907569797e-08 3.0296488984932002e-09 -0.00050024276710527679 -1.0916633378510818e-07 -1.3238966797250345e-08 -0.00050025404021852653 -5.4678897980010913e-08 1.3877861462781548e-08 -0.00025020484121335539 -8.4333608858905411e-08 -2.3212551226991304e-08 -0.00025021819409288599 -8.7987077512767919e-08 -6.6310177696223889e-08 -0.00050024682621771326 -1.0916633378510818e-07 -1.3238966797250345e-08 -0.00050025404021852653 -1.275987004401422e-07 4.9916451127037667e-08 -0.00025023841968929673 -8.4333608858905411e-08 -2.3212551226991304e-08 -0.00025021819409288599 -4.0156495116237909e-08 -5.0909892173521915e-08 -0.00025020400112429149 -5.093619790756979e-08 3.0296488984931981e-09 -0.00050024276710527679 -5.4678897980010913e-08 1.3877861462781548e-08 -0.00025020484121335539 -5.093619790756979e-08 3.0296488984931981e-09 -0.00050024276710527679 -7.0302580969114675e-09 4.0878228211368665e-08 -0.00025017992597108134 4.6057934795176866e-09 -1.6605690257426197e-10 -0.00025019723058800644 -5.4678897980010913e-08 1.3877861462781548e-08 -0.00025020484121335539 -4.0156495116237909e-08 -5.0909892173521915e-08 -0.00025020400112429149 -5.0936197907569777e-08 3.0296488984932014e-09 -0.000500242767105277 4.6057934795176816e-09 -1.660569025742438e-10 -0.00025019723058800639 -5.4678897980010913e-08 1.3877861462781548e-08 -0.00025020484121335539 -5.1285251442035191e-08 5.0050822492179246e-08 -0.00050023980822741466 -1.9840411596693153e-08 3.6185590980375639e-08 -0.00050023862220980534 -3.5772131680188616e-08 6.6277824804600716e-08 -0.00025019370114385636 -2.5386416179342895e-08 6.9257409753424634e-08 -0.00050024065343349914 -5.093619790756979e-08 3.0296488984931981e-09 -0.00050024276710527679 -7.0302580969114791e-09 4.0878228211368698e-08 -0.00025017992597108128 -3.5772131680188616e-08 6.6277824804600716e-08 -0.00025019370114385636 -5.4678897980010913e-08 1.3877861462781548e-08 -0.00025020484121335539 -1.9840411596693153e-08 3.6185590980375639e-08 -0.00050023862220980534 -7.0302580969114675e-09 4.0878228211368665e-08 -0.00025017992597108134 -3.5772131680188616e-08 6.6277824804600716e-08 -0.00025019370114385636 -5.4880724939203677e-10 8.0956147784456659e-08 -0.00025019046185389499 -5.093619790756979e-08 3.0296488984931981e-09 -0.00050024276710527679 -5.1285251442035191e-08 5.0050822492179246e-08 -0.00050023980822741466 -1.9840411596693153e-08 3.6185590980375639e-08 -0.00050023862220980534 -3.5772131680188616e-08 6.6277824804600716e-08 -0.00025019370114385636 -5.093619790756979e-08 3.0296488984931981e-09 -0.00050024276710527679 -1.9840411596693153e-08 3.6185590980375639e-08 -0.00050023862220980534 -7.0302580969114675e-09 4.0878228211368665e-08 -0.00025017992597108134 -3.5772131680188616e-08 6.6277824804600716e-08 -0.00025019370114385636 -5.093619790756979e-08 3.0296488984931981e-09 -0.00050024276710527679 -1.0132617969664928e-07 4.3164325714146524e-08 -0.00050024831347223982 -5.1285251442035191e-08 5.0050822492179246e-08 -0.00050023980822741466 -3.5772131680188616e-08 6.6277824804600716e-08 -0.00025019370114385636 -5.093619790756979e-08 3.0296488984931981e-09 -0.00050024276710527679 -1.0132617969664927e-07 4.3164325714146524e-08 -0.00050024831347223982 -3.5772131680188616e-08 6.6277824804600716e-08 -0.00025019370114385636 -5.4678897980010913e-08 1.3877861462781548e-08 -0.00025020484121335539 -1.0916633378510818e-07 -1.3238966797250345e-08 -0.00050025404021852653 -1.0132617969664928e-07 4.316432571414653e-08 -0.00050024831347223993 -5.4678897980010913e-08 1.3877861462781548e-08 -0.00025020484121335539 -8.5148260761135911e-08 1.0636643457657165e-07 -0.00025022557610487309 -1.0916633378510818e-07 -1.3238966797250345e-08 -0.00050025404021852653 -5.4678897980010926e-08 1.3877861462781525e-08 -0.00025020484121335545 -1.275987004401422e-07 4.9916451127037667e-08 -0.00025023841968929673 -8.5148260761135911e-08 1.0636643457657165e-07 -0.00025022557610487309 -5.093619790756979e-08 3.0296488984931981e-09 -0.00050024276710527679 -1.0916633378510818e-07 -1.3238966797250345e-08 -0.00050025404021852653 -1.0132617969664929e-07 4.3164325714146511e-08 -0.00050024831347223982 -5.4678897980010913e-08 1.3877861462781548e-08 -0.00025020484121335539 -1.0132617969664929e-07 4.3164325714146511e-08 -0.00050024831347223982 -3.5772131680188635e-08 6.6277824804600742e-08 -0.00025019370114385631 -5.4678897980010913e-08 1.3877861462781548e-08 -0.00025020484121335539 -8.5148260761135911e-08 1.0636643457657165e-07 -0.00025022557610487309 -5.093619790756979e-08 3.0296488984931981e-09 -0.00050024276710527679 -1.0916633378510818e-07 -1.3238966797250345e-08 -0.00050025404021852653 -1.0132617969664929e-07 4.3164325714146511e-08 -0.00050024831347223982 -1.1167746200352512e-07 1.9373243846998493e-09 -0.00075028026692584295 -5.093619790756979e-08 3.0296488984931981e-09 -0.00050024276710527679 -1.0132617969664928e-07 4.3164325714146524e-08 -0.00050024831347223982 -5.1285251442035191e-08 5.0050822492179246e-08 -0.00050023980822741466 -9.5744835651498368e-08 5.7468822272508207e-08 -0.00075027895345600539 -5.1285251442035191e-08 5.0050822492179246e-08 -0.00050023980822741466 -1.9840411596693153e-08 3.6185590980375639e-08 -0.00050023862220980534 -2.5386416179342895e-08 6.9257409753424634e-08 -0.00050024065343349914 -1.9295948133837482e-08 3.6141544625062981e-08 -0.00075027660235652764 -5.093619790756979e-08 3.0296488984931981e-09 -0.00050024276710527679 -5.1285251442035191e-08 5.0050822492179246e-08 -0.00050023980822741466 -1.9840411596693153e-08 3.6185590980375639e-08 -0.00050023862220980534 -5.0721136043547385e-08 5.2339010300317473e-09 -0.00075027703796391135 -1.9840411596693153e-08 3.6185590980375639e-08 -0.00050023862220980534 5.2846911087512928e-09 3.3976416734059113e-09 -0.00050024025274755183 1.2958524805010279e-08 5.6981117399105672e-08 -0.00050024595673330951 4.8934179284867681e-09 1.8440425809457113e-09 -0.00075027640125936257 -1.9840411596693153e-08 3.6185590980375639e-08 -0.00050023862220980534 1.2958524805010279e-08 5.6981117399105672e-08 -0.00050024595673330951 -2.5386416179342895e-08 6.9257409753424634e-08 -0.00050024065343349914 1.0879332660856873e-08 5.7044345169502243e-08 -0.000750279538386068 5.2846911087512928e-09 3.3976416734059113e-09 -0.00050024025274755183 5.4738586960181837e-08 -1.5669805579619386e-08 -0.0005002420592042212 5.7243456389946882e-08 3.4702788540771756e-08 -0.00050025573264684165 5.3678577468902882e-08 -1.9711874956717468e-08 -0.00075027778990771653 2.1896623742260874e-08 -3.3945269622491739e-08 -0.00050023625603700717 5.2846911087512928e-09 3.3976416734059113e-09 -0.00050024025274755183 5.4738586960181837e-08 -1.5669805579619383e-08 -0.0005002420592042212 5.3678577468902889e-08 -1.9711874956717468e-08 -0.00075027778990771664 5.2846911087512928e-09 3.3976416734059113e-09 -0.00050024025274755183 5.7243456389946882e-08 3.4702788540771756e-08 -0.00050025573264684165 1.2958524805010279e-08 5.6981117399105672e-08 -0.00050024595673330951 4.8934179284867681e-09 1.8440425809457113e-09 -0.00075027640125936257 5.2846911087512928e-09 3.3976416734059113e-09 -0.00050024025274755183 6.9846965311750736e-08 1.9622309317368069e-08 -0.00025024113379922165 1.2958524805010279e-08 5.6981117399105672e-08 -0.00050024595673330951 3.7099632764114447e-08 5.4392440784957618e-08 -0.00025020752259780716 5.7243456389946882e-08 3.4702788540771756e-08 -0.00050025573264684165 6.9846965311750736e-08 1.9622309317368069e-08 -0.00025024113379922165 4.4878436099319067e-08 1.0091015139729167e-07 -0.00050026569374200347 1.2958524805010279e-08 5.6981117399105672e-08 -0.00050024595673330951 5.2846911087512928e-09 3.3976416734059113e-09 -0.00050024025274755183 5.7243456389946882e-08 3.4702788540771756e-08 -0.00050025573264684165 6.9846965311750736e-08 1.9622309317368069e-08 -0.00025024113379922165 1.2958524805010279e-08 5.6981117399105672e-08 -0.00050024595673330951 5.2846911087512928e-09 3.3976416734059113e-09 -0.00050024025274755183 4.6057934795176816e-09 -1.660569025742438e-10 -0.00025019723058800639 6.9846965311750736e-08 1.9622309317368089e-08 -0.00025024113379922165 3.7099632764114453e-08 5.4392440784957618e-08 -0.00025020752259780722 1.2402477580046193e-08 -4.2727359234307162e-08 -0.00025018016837534933 5.4738586960181837e-08 -1.5669805579619386e-08 -0.0005002420592042212 4.6057934795176816e-09 -1.660569025742438e-10 -0.00025019723058800639 5.318833367608707e-08 -2.664031595941707e-08 -0.00025019540953549952 1.2402477580046193e-08 -4.2727359234307162e-08 -0.00025018016837534933 5.2846911087512928e-09 3.3976416734059113e-09 -0.00050024025274755183 5.4738586960181837e-08 -1.5669805579619386e-08 -0.0005002420592042212 4.6057934795176816e-09 -1.660569025742438e-10 -0.00025019723058800639 5.2846911087512928e-09 3.3976416734059113e-09 -0.00050024025274755183 5.4738586960181837e-08 -1.5669805579619386e-08 -0.0005002420592042212 5.7243456389946882e-08 3.4702788540771756e-08 -0.00050025573264684165 6.9846965311750736e-08 1.9622309317368069e-08 -0.00025024113379922165 5.4738586960181837e-08 -1.5669805579619386e-08 -0.0005002420592042212 4.6057934795176932e-09 -1.6605690257426443e-10 -0.00025019723058800633 5.318833367608707e-08 -2.664031595941707e-08 -0.00025019540953549952 6.9846965311750736e-08 1.9622309317368069e-08 -0.00025024113379922165 5.2846911087512928e-09 3.3976416734059113e-09 -0.00050024025274755183 5.4738586960181837e-08 -1.5669805579619386e-08 -0.0005002420592042212 4.6057934795176816e-09 -1.660569025742438e-10 -0.00025019723058800639 6.9846965311750736e-08 1.9622309317368069e-08 -0.00025024113379922165 1.2402477580046193e-08 -4.2727359234307162e-08 -0.00025018016837534933 2.1896623742260874e-08 -3.3945269622491739e-08 -0.00050023625603700717 5.2846911087512928e-09 3.3976416734059113e-09 -0.00050024025274755183 5.4738586960181837e-08 -1.5669805579619386e-08 -0.0005002420592042212 -5.093619790756979e-08 3.0296488984931981e-09 -0.00050024276710527679 5.2846911087512928e-09 3.3976416734059113e-09 -0.00050024025274755183 -7.0302580969114675e-09 4.0878228211368665e-08 -0.00025017992597108134 4.6057934795176675e-09 -1.6605690257428405e-10 -0.00025019723058800628 -4.0156495116237909e-08 -5.0909892173521915e-08 -0.00025020400112429149 -1.7767082324793982e-08 -5.569908224591238e-08 -0.00050024083700368923 -5.0936197907569823e-08 3.0296488984931994e-09 -0.00050024276710527679 4.6057934795176816e-09 -1.660569025742438e-10 -0.00025019723058800639 1.2402477580046193e-08 -4.2727359234307162e-08 -0.00025018016837534933 -1.7767082324793966e-08 -5.5699082245912373e-08 -0.00050024083700368912 5.2846911087512746e-09 3.3976416734059051e-09 -0.00050024025274755183 4.6057934795176816e-09 -1.660569025742438e-10 -0.00025019723058800639 -1.7767082324793982e-08 -5.569908224591238e-08 -0.00050024083700368923 -5.093619790756979e-08 3.0296488984931981e-09 -0.00050024276710527679 5.2846911087512928e-09 3.3976416734059113e-09 -0.00050024025274755183 4.6057934795176816e-09 -1.660569025742438e-10 -0.00025019723058800639 -5.093619790756979e-08 3.0296488984931981e-09 -0.00050024276710527679 -1.9840411596693153e-08 3.6185590980375639e-08 -0.00050023862220980534 5.2846911087512928e-09 3.3976416734059113e-09 -0.00050024025274755183 -7.0302580969114675e-09 4.0878228211368665e-08 -0.00025017992597108134 -1.9840411596693153e-08 3.6185590980375639e-08 -0.00050023862220980534 5.2846911087512928e-09 3.3976416734059113e-09 -0.00050024025274755183 -7.0302580969114675e-09 4.0878228211368665e-08 -0.00025017992597108134 1.2958524805010279e-08 5.6981117399105672e-08 -0.00050024595673330951 5.2846911087512928e-09 3.3976416734059113e-09 -0.00050024025274755183 -7.0302580969114659e-09 4.0878228211368658e-08 -0.00025017992597108134 4.6057934795176816e-09 -1.6605690257424372e-10 -0.00025019723058800639 3.7099632764114473e-08 5.4392440784957611e-08 -0.00025020752259780716 5.2846911087512928e-09 3.3976416734059113e-09 -0.00050024025274755183 -7.03025809691147e-09 4.0878228211368658e-08 -0.00025017992597108139 1.2958524805010279e-08 5.6981117399105672e-08 -0.00050024595673330951 3.709963276411448e-08 5.4392440784957611e-08 -0.00025020752259780716 -1.9840411596693153e-08 3.6185590980375639e-08 -0.00050023862220980534 -7.0302580969114675e-09 4.0878228211368665e-08 -0.00025017992597108134 1.2958524805010279e-08 5.6981117399105672e-08 -0.00050024595673330951 -5.4880724939203677e-10 8.0956147784456659e-08 -0.00025019046185389499 -7.0302580969114675e-09 4.0878228211368665e-08 -0.00025017992597108134 1.2958524805010279e-08 5.6981117399105672e-08 -0.00050024595673330951 3.7099632764114434e-08 5.4392440784957618e-08 -0.00025020752259780716 -5.4880724939203677e-10 8.0956147784456659e-08 -0.00025019046185389499 -7.0302580969114675e-09 4.0878228211368665e-08 -0.00025017992597108134 4.6057934795176816e-09 -1.660569025742438e-10 -0.00025019723058800639 -6.1942179473745642e-09 8.8918491905009037e-09 -6.9361775426143481e-08 -5.4678897980010913e-08 1.3877861462781548e-08 -0.00025020484121335539 -7.0302580969114675e-09 4.0878228211368665e-08 -0.00025017992597108134 4.6057934795176816e-09 -1.660569025742438e-10 -0.00025019723058800639 -6.1942179473745642e-09 8.8918491905009037e-09 -6.9361775426143481e-08 3.7099632764114434e-08 5.4392440784957624e-08 -0.00025020752259780716 -4.0156495116237909e-08 -5.0909892173521915e-08 -0.00025020400112429149 4.6057934795176816e-09 -1.660569025742438e-10 -0.00025019723058800639 3.7898004419761996e-09 2.5030924133378591e-09 -1.8649050362211322e-07 -5.4678897980010913e-08 1.3877861462781548e-08 -0.00025020484121335539 4.6057934795176816e-09 -1.660569025742438e-10 -0.00025019723058800639 5.318833367608707e-08 -2.664031595941707e-08 -0.00025019540953549952 6.9846965311750736e-08 1.9622309317368069e-08 -0.00025024113379922165 -1.9810318991676812e-08 -1.3053255521234806e-08 -2.5384922472390279e-07 5.7104019323755458e-09 -9.1897631382975381e-09 -7.2571550106234745e-08 1.2402477580046193e-08 -4.2727359234307162e-08 -0.00025018016837534933 4.6057934795176816e-09 -1.660569025742438e-10 -0.00025019723058800639 5.318833367608707e-08 -2.664031595941707e-08 -0.00025019540953549952 6.9846965311750736e-08 1.9622309317368069e-08 -0.00025024113379922165 -1.9810318991676812e-08 -1.3053255521234806e-08 -2.5384922472390279e-07 1.0163474980223138e-07 8.6141509952963943e-08 -0.00025025736090386217 3.7099632764114434e-08 5.4392440784957624e-08 -0.00025020752259780716 4.6057934795176816e-09 -1.660569025742438e-10 -0.00025019723058800639 6.9846965311750736e-08 1.9622309317368069e-08 -0.00025024113379922165 -1.9810318991676812e-08 -1.3053255521234806e-08 -2.5384922472390279e-07 3.7099632764114434e-08 5.4392440784957624e-08 -0.00025020752259780716 4.6057934795176816e-09 -1.660569025742438e-10 -0.00025019723058800639 -1.9810318991676815e-08 -1.3053255521234826e-08 -2.538492247238696e-07 3.7099632764114434e-08 5.4392440784957624e-08 -0.00025020752259780716 -6.1795051722567692e-10 -1.344760592502665e-08 -1.8495013923311427e-07 4.6057934795176816e-09 -1.660569025742438e-10 -0.00025019723058800639 -1.9810318991676802e-08 -1.3053255521234805e-08 -2.5384922472395599e-07 3.7898004419761996e-09 2.50309241333786e-09 -1.8649050362212643e-07 -6.1795051722568333e-10 -1.3447605925026658e-08 -1.8495013923310085e-07 5.318833367608707e-08 -2.664031595941707e-08 -0.00025019540953549952 -1.9810318991676822e-08 -1.3053255521234808e-08 -2.5384922472388204e-07 -1.2601085779111996e-08 4.7781328529342454e-09 -1.7697878244678713e-07 3.789800441976193e-09 2.5030924133378583e-09 -1.8649050362211324e-07 5.7104019323755458e-09 -9.1897631382975381e-09 -7.2571550106234745e-08 4.6057934795176816e-09 -1.660569025742438e-10 -0.00025019723058800639 5.318833367608707e-08 -2.664031595941707e-08 -0.00025019540953549952 3.7898004419761996e-09 2.5030924133378591e-09 -1.8649050362211322e-07 4.6057934795176816e-09 -1.660569025742438e-10 -0.00025019723058800639 5.318833367608707e-08 -2.664031595941707e-08 -0.00025019540953549952 -1.9810318991676812e-08 -1.3053255521234806e-08 -2.5384922472390279e-07 3.7898004419761996e-09 2.5030924133378591e-09 -1.8649050362211322e-07 5.7104019323755458e-09 -9.1897631382975381e-09 -7.2571550106234745e-08 5.318833367608707e-08 -2.664031595941707e-08 -0.00025019540953549952 -1.2601085779111996e-08 4.7781328529342454e-09 -1.7697878244678713e-07 3.7898004419761996e-09 2.5030924133378591e-09 -1.8649050362211322e-07 -2.6317444028314202e-09 1.1332154115674472e-08 -2.1468364943752414e-07 -4.0156495116237909e-08 -5.0909892173521915e-08 -0.00025020400112429149 3.7898004419761996e-09 2.5030924133378591e-09 -1.8649050362211322e-07 -5.4678897980010932e-08 1.3877861462781593e-08 -0.00025020484121335539 4.6057934795176816e-09 -1.660569025742438e-10 -0.00025019723058800639 3.7898004419761996e-09 2.5030924133378591e-09 -1.8649050362211322e-07 -6.1942179473745642e-09 8.8918491905009037e-09 -6.9361775426143481e-08 -5.4678897980010913e-08 1.3877861462781548e-08 -0.00025020484121335539 5.7104019323755458e-09 -9.1897631382975381e-09 -7.2571550106234745e-08 -4.0156495116237876e-08 -5.0909892173521895e-08 -0.00025020400112429149 4.6057934795176551e-09 -1.6605690257426531e-10 -0.00025019723058800639 3.7898004419761996e-09 2.5030924133378591e-09 -1.8649050362211322e-07 4.6057934795176816e-09 -1.660569025742438e-10 -0.00025019723058800639 -6.1942179473745559e-09 8.8918491905009137e-09 -6.9361775426214499e-08 3.7099632764114434e-08 5.4392440784957624e-08 -0.00025020752259780716 -6.1795051722568282e-10 -1.3447605925026709e-08 -1.849501392331004e-07 -6.1942179473745642e-09 8.8918491905009037e-09 -6.9361775426143481e-08 3.7099632764114434e-08 5.4392440784957624e-08 -0.00025020752259780716 5.4298365208962429e-09 -1.6140624106475755e-08 -8.8469806688445293e-08 -6.1795051722567486e-10 -1.344760592502666e-08 -1.8495013923310082e-07 -7.0302580969114675e-09 4.0878228211368665e-08 -0.00025017992597108134 -6.1942179473745642e-09 8.8918491905009037e-09 -6.9361775426143481e-08 3.7099632764114434e-08 5.4392440784957624e-08 -0.00025020752259780716 5.4298365208962429e-09 -1.6140624106475758e-08 -8.8469806688440502e-08 4.6057934795176816e-09 -1.660569025742438e-10 -0.00025019723058800639 3.7898004419761996e-09 2.5030924133378591e-09 -1.8649050362211322e-07 -6.1942179473745675e-09 8.8918491905009203e-09 -6.9361775426095491e-08 -6.1795051722566555e-10 -1.3447605925026678e-08 -1.8495013923310098e-07 -7.0302580969114675e-09 4.0878228211368665e-08 -0.00025017992597108134 -6.1942179473745642e-09 8.8918491905009037e-09 -6.9361775426143481e-08 1.3274573465610262e-08 -1.1032833297532357e-08 -1.0743403236598439e-07 -5.4678897980010913e-08 1.3877861462781548e-08 -0.00025020484121335539 -6.1942179473745642e-09 8.8918491905009037e-09 -6.9361775426143481e-08 1.3274573465610262e-08 -1.1032833297532357e-08 -1.0743403236598439e-07 -5.4678897980010913e-08 1.3877861462781545e-08 -0.00025020484121335539 9.3687658352169689e-09 -6.9492423254993613e-09 -2.3280771384228702e-07 1.3274573465610262e-08 -1.1032833297532357e-08 -1.0743403236598439e-07 -5.4678897980010913e-08 1.3877861462781548e-08 -0.00025020484121335539 9.3687658352169689e-09 -6.9492423254993613e-09 -2.3280771384228702e-07 -8.5148260761135911e-08 1.0636643457657165e-07 -0.00025022557610487309 -7.0302580969114675e-09 4.0878228211368665e-08 -0.00025017992597108134 -6.1942179473745642e-09 8.8918491905009037e-09 -6.9361775426143481e-08 1.3274573465610262e-08 -1.1032833297532357e-08 -1.0743403236598439e-07 5.4298365208962429e-09 -1.6140624106475758e-08 -8.8469806688440502e-08 -7.0302580969114675e-09 4.0878228211368665e-08 -0.00025017992597108134 1.3274573465610257e-08 -1.1032833297532348e-08 -1.0743403236598439e-07 -3.5772131680188616e-08 6.6277824804600716e-08 -0.00025019370114385636 -5.4678897980010913e-08 1.3877861462781548e-08 -0.00025020484121335539 1.3274573465610262e-08 -1.1032833297532357e-08 -1.0743403236598439e-07 -3.5772131680188616e-08 6.6277824804600716e-08 -0.00025019370114385636 -5.4678897980010913e-08 1.3877861462781548e-08 -0.00025020484121335539 -8.5148260761135911e-08 1.0636643457657165e-07 -0.00025022557610487309 -7.0302580969114675e-09 4.0878228211368665e-08 -0.00025017992597108134 1.327457346561025e-08 -1.1032833297532355e-08 -1.0743403236598439e-07 -3.5772131680188616e-08 6.6277824804600716e-08 -0.00025019370114385636 -5.4880724939203677e-10 8.0956147784456659e-08 -0.00025019046185389499 2.4515339222959652e-08 1.6152691055237166e-08 -1.8749934836155013e-07 -2.6317444028314202e-09 1.1332154115674472e-08 -2.1468364943752414e-07 -5.4678897980010913e-08 1.3877861462781548e-08 -0.00025020484121335539 9.3687658352169689e-09 -6.9492423254993613e-09 -2.3280771384228702e-07 3.7898004419761996e-09 2.5030924133378591e-09 -1.8649050362211322e-07 -6.1942179473745642e-09 8.8918491905009037e-09 -6.9361775426143481e-08 -5.4678897980010913e-08 1.3877861462781552e-08 -0.00025020484121335539 9.3687658352169689e-09 -6.9492423254993613e-09 -2.3280771384228702e-07 -2.6317444028314202e-09 1.1332154115674472e-08 -2.1468364943752414e-07 3.7898004419761996e-09 2.5030924133378591e-09 -1.8649050362211322e-07 -5.4678897980010939e-08 1.3877861462781557e-08 -0.0002502048412133555 9.3687658352169689e-09 -6.9492423254993613e-09 -2.3280771384228702e-07 -1.3343357854908266e-07 -1.9517211023929739e-08 -0.00025021888033928435 2.4515339222959599e-08 1.6152691055237093e-08 -1.8749934836149886e-07 -5.229606373682032e-08 -4.3714324775918398e-09 -2.4536007303827802e-07 -1.275987004401422e-07 4.9916451127037667e-08 -0.00025023841968929673 2.4515339222959652e-08 1.6152691055237166e-08 -1.8749934836155013e-07 -5.4678897980010939e-08 1.3877861462781553e-08 -0.00025020484121335539 9.3687658352169689e-09 -6.9492423254993613e-09 -2.3280771384228702e-07 -1.275987004401422e-07 4.9916451127037667e-08 -0.00025023841968929673 2.4515339222959652e-08 1.6152691055237166e-08 -1.8749934836155013e-07 9.3687658352169689e-09 -6.9492423254993613e-09 -2.3280771384228702e-07 -5.229606373682034e-08 -4.3714324775918448e-09 -2.4536007303830576e-07 -1.275987004401422e-07 4.9916451127037667e-08 -0.00025023841968929673 2.4515339222959652e-08 1.6152691055237166e-08 -1.8749934836155013e-07 -8.4333608858905411e-08 -2.3212551226991304e-08 -0.00025021819409288599 -5.4678897980010919e-08 1.387786146278155e-08 -0.00025020484121335539 -1.275987004401422e-07 4.9916451127037667e-08 -0.00025023841968929673 -5.4678897980010913e-08 1.3877861462781548e-08 -0.00025020484121335539 9.3687658352169689e-09 -6.9492423254993613e-09 -2.3280771384228702e-07 -1.275987004401422e-07 4.9916451127037667e-08 -0.00025023841968929673 -8.5148260761135911e-08 1.0636643457657165e-07 -0.00025022557610487309 9.3687658352169689e-09 -6.9492423254993613e-09 -2.3280771384228702e-07 -5.229606373682034e-08 -4.3714324775918448e-09 -2.4536007303830576e-07 -1.275987004401422e-07 4.9916451127037667e-08 -0.00025023841968929673 -4.6484191154529752e-08 2.5656677431293304e-08 -2.4541161592446129e-07 9.3687658352169689e-09 -6.9492423254993613e-09 -2.3280771384228702e-07 -1.275987004401422e-07 4.9916451127037667e-08 -0.00025023841968929673 -8.5148260761135898e-08 1.0636643457657167e-07 -0.00025022557610487314 -4.6484191154529752e-08 2.5656677431293304e-08 -2.4541161592446129e-07 1.3274573465610262e-08 -1.1032833297532357e-08 -1.0743403236598439e-07 9.3687658352169689e-09 -6.9492423254993613e-09 -2.3280771384228702e-07 -8.5148260761135911e-08 1.0636643457657165e-07 -0.00025022557610487303 -4.6484191154529752e-08 2.5656677431293304e-08 -2.4541161592446129e-07 1.3274573465610262e-08 -1.1032833297532357e-08 -1.0743403236598439e-07 -8.5148260761135911e-08 1.0636643457657165e-07 -0.00025022557610487303 -4.6484191154529752e-08 2.5656677431293304e-08 -2.4541161592446129e-07 -2.9779771279169393e-08 4.4554550194356037e-08 -1.4612565559648125e-07 -7.0302580969114675e-09 4.0878228211368665e-08 -0.00025017992597108134 1.3274573465610252e-08 -1.1032833297532409e-08 -1.074340323659081e-07 -5.4880724939203605e-10 8.0956147784456659e-08 -0.00025019046185389499 5.4298365208962429e-09 -1.6140624106475758e-08 -8.8469806688440502e-08 1.3274573465610262e-08 -1.1032833297532357e-08 -1.0743403236598439e-07 -8.5148260761135951e-08 1.0636643457657164e-07 -0.00025022557610487303 -2.9779771279169393e-08 4.4554550194356037e-08 -1.4612565559648125e-07 -1.9503247008415526e-08 1.353952084072065e-07 -0.0002502022513475955 1.3274573465610262e-08 -1.1032833297532357e-08 -1.0743403236598439e-07 -2.9779771279169393e-08 4.4554550194356044e-08 -1.4612565559649359e-07 -1.9503247008415592e-08 1.3539520840720653e-07 -0.0002502022513475955 5.4298365208962429e-09 -1.6140624106475758e-08 -8.8469806688440502e-08 1.3274573465610262e-08 -1.1032833297532357e-08 -1.0743403236598439e-07 -1.9503247008415592e-08 1.3539520840720653e-07 -0.0002502022513475955 -5.4880724939203625e-10 8.0956147784456659e-08 -0.00025019046185389499 5.4298365208962429e-09 -1.6140624106475758e-08 -8.8469806688440502e-08 -2.9779771279169393e-08 4.4554550194356037e-08 -1.4612565559648125e-07 -1.9503247008415592e-08 1.3539520840720653e-07 -0.0002502022513475955 5.429836520896247e-09 -1.6140624106475775e-08 -8.8469806688440476e-08 -3.9995677422415626e-09 5.3151295352266221e-08 -2.0220336942513702e-07 1.3274573465610262e-08 -1.1032833297532357e-08 -1.0743403236598439e-07 -3.5772131680188616e-08 6.6277824804600716e-08 -0.00025019370114385636 -1.9503247008415599e-08 1.3539520840720655e-07 -0.0002502022513475955 -5.4880724939203677e-10 8.0956147784456659e-08 -0.00025019046185389499 1.3274573465610262e-08 -1.1032833297532357e-08 -1.0743403236598439e-07 -3.5772131680188616e-08 6.6277824804600716e-08 -0.00025019370114385636 -8.5148260761135911e-08 1.0636643457657161e-07 -0.00025022557610487309 -1.9503247008415565e-08 1.3539520840720653e-07 -0.0002502022513475955 -1.0132617969664929e-07 4.3164325714146511e-08 -0.00050024831347223982 -3.5772131680188616e-08 6.6277824804600716e-08 -0.00025019370114385636 -8.5148260761135911e-08 1.0636643457657165e-07 -0.00025022557610487309 -1.9503247008415592e-08 1.3539520840720653e-07 -0.0002502022513475955 -1.9503247008415592e-08 1.3539520840720653e-07 -0.0002502022513475955 -6.6338696455744521e-08 8.7950437897509348e-08 -0.00050024114170616276 5.2027443691163373e-08 1.2723516436612075e-07 -0.00025022355304268711 -5.4880724939203677e-10 8.0956147784456659e-08 -0.00025019046185389499 -1.9840411596693153e-08 3.6185590980375639e-08 -0.00050023862220980534 -3.5772131680188563e-08 6.6277824804600716e-08 -0.00025019370114385631 -2.5386416179342901e-08 6.9257409753424634e-08 -0.00050024065343349925 -5.4880724939203677e-10 8.0956147784456659e-08 -0.00025019046185389499 -1.0132617969664929e-07 4.3164325714146511e-08 -0.00050024831347223982 -3.5772131680188609e-08 6.6277824804600716e-08 -0.00025019370114385631 -1.9503247008415592e-08 1.3539520840720653e-07 -0.0002502022513475955 -6.6338696455744521e-08 8.7950437897509348e-08 -0.00050024114170616276 -1.0132617969664929e-07 4.3164325714146511e-08 -0.00050024831347223982 -5.1285251442035191e-08 5.0050822492179246e-08 -0.00050023980822741466 -3.5772131680188616e-08 6.6277824804600716e-08 -0.00025019370114385636 -6.6338696455744521e-08 8.7950437897509348e-08 -0.00050024114170616276 -5.1285251442035191e-08 5.0050822492179246e-08 -0.00050023980822741466 -3.5772131680188616e-08 6.6277824804600716e-08 -0.00025019370114385636 -6.6338696455744521e-08 8.7950437897509348e-08 -0.00050024114170616276 -2.5386416179342895e-08 6.9257409753424634e-08 -0.00050024065343349914 -3.5772131680188616e-08 6.6277824804600716e-08 -0.00025019370114385636 -1.9503247008415592e-08 1.3539520840720653e-07 -0.0002502022513475955 -6.6338696455744521e-08 8.7950437897509348e-08 -0.00050024114170616276 -5.4880724939203677e-10 8.0956147784456659e-08 -0.00025019046185389499 -3.5772131680188616e-08 6.6277824804600716e-08 -0.00025019370114385636 -6.6338696455744521e-08 8.7950437897509362e-08 -0.00050024114170616276 -2.5386416179342898e-08 6.9257409753424634e-08 -0.00050024065343349914 -5.4880724939203677e-10 8.0956147784456659e-08 -0.00025019046185389499 -6.6338696455744521e-08 8.7950437897509348e-08 -0.00050024114170616276 -1.3462529914107819e-08 1.0927989520855963e-07 -0.00050025051295574585 -2.5386416179342895e-08 6.9257409753424634e-08 -0.00050024065343349914 -5.4065449861445222e-08 9.7719860351986737e-08 -0.00075027673232614853 -5.1285251442035191e-08 5.0050822492179246e-08 -0.00050023980822741466 -6.6338696455744521e-08 8.7950437897509348e-08 -0.00050024114170616276 -2.5386416179342895e-08 6.9257409753424634e-08 -0.00050024065343349914 -5.4065449861445222e-08 9.7719860351986737e-08 -0.00075027673232614853 -1.0132617969664929e-07 4.3164325714146511e-08 -0.00050024831347223982 -5.1285251442035191e-08 5.0050822492179246e-08 -0.00050023980822741466 -6.6338696455744521e-08 8.7950437897509348e-08 -0.00050024114170616276 -9.5744835651498368e-08 5.7468822272508207e-08 -0.00075027895345600539 -6.6338696455744521e-08 8.7950437897509348e-08 -0.00050024114170616276 -1.3462529914107815e-08 1.0927989520855963e-07 -0.00050025051295574585 5.2027443691163359e-08 1.2723516436612075e-07 -0.00025022355304268711 -5.4880724939203677e-10 8.0956147784456659e-08 -0.00025019046185389499 -1.3462529914107822e-08 1.0927989520855961e-07 -0.00050025051295574585 4.487843609931906e-08 1.0091015139729167e-07 -0.00050026569374200347 1.2958524805010279e-08 5.6981117399105672e-08 -0.00050024595673330951 1.9986818368565527e-09 1.1165722226204309e-07 -0.00075028045052420646 5.7243456389946882e-08 3.4702788540771756e-08 -0.00050025573264684165 4.4878436099319067e-08 1.0091015139729167e-07 -0.00050026569374200347 1.2958524805010279e-08 5.6981117399105672e-08 -0.00050024595673330951 5.7208702160647485e-08 9.579592757309862e-08 -0.00075028641821071993 -1.3462529914107822e-08 1.0927989520855961e-07 -0.00050025051295574585 1.2958524805010279e-08 5.6981117399105672e-08 -0.00050024595673330951 -2.5386416179342895e-08 6.9257409753424634e-08 -0.00050024065343349914 1.9986818368565527e-09 1.1165722226204309e-07 -0.00075028045052420646 -1.9840411596693153e-08 3.6185590980375639e-08 -0.00050023862220980534 1.2958524805010279e-08 5.6981117399105672e-08 -0.00050024595673330951 -2.5386416179342895e-08 6.9257409753424634e-08 -0.00050024065343349914 -5.4880724939203677e-10 8.0956147784456659e-08 -0.00025019046185389499 -1.3462529914107822e-08 1.0927989520855961e-07 -0.00050025051295574585 1.2958524805010279e-08 5.6981117399105672e-08 -0.00050024595673330951 3.7099632764114434e-08 5.4392440784957624e-08 -0.00025020752259780716 -5.4880724939203677e-10 8.0956147784456659e-08 -0.00025019046185389499 -1.3462529914107822e-08 1.0927989520855961e-07 -0.00050025051295574585 5.2027443691163359e-08 1.2723516436612075e-07 -0.00025022355304268711 3.7099632764114434e-08 5.4392440784957624e-08 -0.00025020752259780716 -5.4880724939203677e-10 8.0956147784456659e-08 -0.00025019046185389499 -6.6338696455744521e-08 8.7950437897509348e-08 -0.00050024114170616276 -1.3462529914107819e-08 1.0927989520855963e-07 -0.00050025051295574585 -2.5386416179342895e-08 6.9257409753424634e-08 -0.00050024065343349914 -5.4880724939203677e-10 8.0956147784456659e-08 -0.00025019046185389499 -1.3462529914107822e-08 1.0927989520855961e-07 -0.00050025051295574585 1.2958524805010279e-08 5.6981117399105672e-08 -0.00050024595673330951 -2.5386416179342895e-08 6.9257409753424634e-08 -0.00050024065343349914 -5.4880724939203677e-10 8.0956147784456659e-08 -0.00025019046185389499 6.9846965311750736e-08 1.9622309317368069e-08 -0.00025024113379922165 4.487843609931906e-08 1.0091015139729167e-07 -0.00050026569374200347 1.0163474980223136e-07 8.6141509952963943e-08 -0.00025025736090386217 3.7099632764114434e-08 5.4392440784957624e-08 -0.00025020752259780716 -1.3462529914107822e-08 1.0927989520855961e-07 -0.00050025051295574585 4.487843609931906e-08 1.0091015139729167e-07 -0.00050026569374200347 1.2958524805010279e-08 5.6981117399105672e-08 -0.00050024595673330951 3.7099632764114434e-08 5.4392440784957624e-08 -0.00025020752259780716 -1.3462529914107822e-08 1.0927989520855961e-07 -0.00050025051295574585 1.0163474980223134e-07 8.614150995296393e-08 -0.00025025736090386223 5.2027443691163346e-08 1.2723516436612075e-07 -0.00025022355304268716 3.7099632764114434e-08 5.4392440784957624e-08 -0.00025020752259780716 -1.3462529914107822e-08 1.0927989520855961e-07 -0.00050025051295574585 4.487843609931906e-08 1.0091015139729167e-07 -0.00050026569374200347 1.0163474980223135e-07 8.6141509952963917e-08 -0.00025025736090386223 3.7099632764114434e-08 5.4392440784957624e-08 -0.00025020752259780716 6.9846965311750736e-08 1.9622309317368069e-08 -0.00025024113379922165 4.4878436099319067e-08 1.009101513972917e-07 -0.00050026569374200347 1.295852480501028e-08 5.6981117399105672e-08 -0.0005002459567333094 3.7099632764114434e-08 5.4392440784957624e-08 -0.00025020752259780716 1.0163474980223136e-07 8.6141509952963943e-08 -0.00025025736090386217 5.2027443691163359e-08 1.2723516436612075e-07 -0.00025022355304268711 3.7099632764114434e-08 5.4392440784957624e-08 -0.00025020752259780716 -6.1795051722569161e-10 -1.3447605925026688e-08 -1.8495013923298494e-07 -1.9503247008415592e-08 1.3539520840720653e-07 -0.0002502022513475955 5.2027443691163373e-08 1.2723516436612075e-07 -0.00025022355304268711 -5.4880724939203677e-10 8.0956147784456659e-08 -0.00025019046185389499 5.4298365208962429e-09 -1.6140624106475758e-08 -8.8469806688440502e-08 -7.0302580969114675e-09 4.0878228211368665e-08 -0.00025017992597108134 3.7099632764114434e-08 5.4392440784957624e-08 -0.00025020752259780716 -5.4880724939203677e-10 8.0956147784456659e-08 -0.00025019046185389499 5.4298365208962429e-09 -1.6140624106475758e-08 -8.8469806688440502e-08 5.2027443691163359e-08 1.2723516436612075e-07 -0.00025022355304268711 3.7099632764114434e-08 5.4392440784957624e-08 -0.00025020752259780716 -5.4880724939203677e-10 8.0956147784456659e-08 -0.00025019046185389499 5.4298365208962429e-09 -1.6140624106475758e-08 -8.8469806688440502e-08 5.2027443691163359e-08 1.2723516436612075e-07 -0.00025022355304268711 3.7099632764114434e-08 5.4392440784957624e-08 -0.00025020752259780716 5.4298365208962429e-09 -1.6140624106475758e-08 -8.8469806688440502e-08 -6.1795051722567486e-10 -1.344760592502666e-08 -1.8495013923310082e-07 5.2027443691163359e-08 1.2723516436612075e-07 -0.00025022355304268711 5.4298365208962429e-09 -1.6140624106475758e-08 -8.8469806688440502e-08 -6.1795051722567486e-10 -1.344760592502666e-08 -1.8495013923310082e-07 -3.9995677422415626e-09 5.3151295352266221e-08 -2.0220336942513702e-07 -1.9503247008415592e-08 1.3539520840720653e-07 -0.0002502022513475955 5.2027443691163353e-08 1.2723516436612075e-07 -0.00025022355304268711 5.4298365208962429e-09 -1.6140624106475758e-08 -8.8469806688440502e-08 -3.9995677422415626e-09 5.3151295352266221e-08 -2.0220336942513702e-07 1.0163474980223136e-07 8.6141509952963943e-08 -0.00025025736090386217 5.2027443691163359e-08 1.2723516436612075e-07 -0.00025022355304268711 -6.1795051722567682e-10 -1.3447605925026716e-08 -1.8495013923308076e-07 2.4287453478344274e-08 4.6341723712243873e-08 -2.734134031447868e-07 -1.9810318991676812e-08 -1.3053255521234806e-08 -2.5384922472390279e-07 1.0163474980223139e-07 8.6141509952963957e-08 -0.00025025736090386217 3.7099632764114427e-08 5.4392440784957618e-08 -0.00025020752259780711 -6.1795051722567486e-10 -1.344760592502666e-08 -1.8495013923310082e-07 -1.9810318991676812e-08 -1.3053255521234806e-08 -2.5384922472390279e-07 1.0163474980223136e-07 8.6141509952963943e-08 -0.00025025736090386217 -6.1795051722567486e-10 -1.344760592502666e-08 -1.8495013923310082e-07 2.4287453478344274e-08 4.6341723712243873e-08 -2.734134031447868e-07 5.2027443691163359e-08 1.2723516436612075e-07 -0.00025022355304268711 -6.1795051722566752e-10 -1.3447605925026656e-08 -1.8495013923309555e-07 -3.9995677422415626e-09 5.3151295352266221e-08 -2.0220336942513702e-07 2.4287453478344268e-08 4.6341723712243873e-08 -2.7341340314478675e-07 -1.9810318991676812e-08 -1.3053255521234806e-08 -2.5384922472390279e-07 1.0163474980223136e-07 8.6141509952963943e-08 -0.00025025736090386217 5.3715567239955229e-08 3.4992219461192453e-08 -1.8640963322612599e-07 1.3377328952050972e-07 1.9292399298127023e-08 -0.00025024723238749352 -1.9810318991676812e-08 -1.3053255521234806e-08 -2.5384922472390279e-07 1.0163474980223138e-07 8.6141509952963943e-08 -0.00025025736090386217 2.4287453478344274e-08 4.6341723712243873e-08 -2.734134031447868e-07 5.3715567239955229e-08 3.4992219461192453e-08 -1.8640963322612599e-07 6.9846965311750736e-08 1.9622309317368069e-08 -0.00025024113379922165 4.4878436099319067e-08 1.0091015139729167e-07 -0.00050026569374200347 1.3377328952050972e-07 1.9292399298127023e-08 -0.00025024723238749352 8.7884080249554217e-08 6.6381539531471498e-08 -0.00050026256749160255 6.9846965311750736e-08 1.9622309317368069e-08 -0.00025024113379922165 4.4878436099319067e-08 1.0091015139729167e-07 -0.00050026569374200347 1.0163474980223136e-07 8.6141509952963943e-08 -0.00025025736090386217 1.3377328952050972e-07 1.9292399298127023e-08 -0.00025024723238749352 5.7243456389946882e-08 3.4702788540771756e-08 -0.00050025573264684165 4.487843609931906e-08 1.0091015139729167e-07 -0.00050026569374200347 8.7884080249554217e-08 6.6381539531471498e-08 -0.00050026256749160255 5.7208702160647485e-08 9.579592757309862e-08 -0.00075028641821071993 -1.2701606378773115e-08 1.1315006910843118e-08 -9.8543755952527562e-08 2.9118619677676258e-08 -4.4973808968970852e-08 -1.379528096663697e-07 1.9424295921734186e-08 -1.3542565328672782e-07 -0.00025019748271729253 8.4821253333993052e-08 -1.0696125020456728e-07 -0.00025021796588941842 -1.2701606378773115e-08 1.1315006910843118e-08 -9.8543755952527562e-08 3.6403420015601692e-08 -7.0372824632134972e-08 -0.00025018849820709042 1.9424295921734186e-08 -1.3542565328672782e-07 -0.00025019748271729253 8.4821253333993052e-08 -1.0696125020456728e-07 -0.00025021796588941842 -1.2701606378773115e-08 1.1315006910843118e-08 -9.8543755952527562e-08 3.6403420015601692e-08 -7.0372824632134972e-08 -0.00025018849820709042 5.318833367608707e-08 -2.664031595941707e-08 -0.00025019540953549952 8.4821253333993052e-08 -1.0696125020456728e-07 -0.00025021796588941842 -1.2701606378773115e-08 1.1315006910843118e-08 -9.8543755952527562e-08 2.9118619677676258e-08 -4.4973808968970852e-08 -1.379528096663697e-07 8.4821253333993052e-08 -1.0696125020456728e-07 -0.00025021796588941842 4.7289773373911881e-08 -2.4815525089455655e-08 -2.0212898752856516e-07 -1.2701606378773115e-08 1.1315006910843118e-08 -9.8543755952527562e-08 5.318833367608707e-08 -2.664031595941707e-08 -0.00025019540953549952 -1.2601085779111996e-08 4.7781328529342454e-09 -1.7697878244678713e-07 8.4821253333993052e-08 -1.0696125020456728e-07 -0.00025021796588941842 -1.2701606378773115e-08 1.1315006910843118e-08 -9.8543755952527562e-08 -1.2601085779111996e-08 4.7781328529342454e-09 -1.7697878244678713e-07 8.4821253333993052e-08 -1.0696125020456728e-07 -0.00025021796588941842 4.7289773373911881e-08 -2.4815525089455655e-08 -2.0212898752856516e-07 -1.2601085779111996e-08 4.7781328529342454e-09 -1.7697878244678713e-07 8.4821253333993039e-08 -1.0696125020456729e-07 -0.00025021796588941848 4.7289773373911881e-08 -2.4815525089455655e-08 -2.0212898752856516e-07 1.2751886842437803e-07 -4.9479449670975604e-08 -0.00025025251611432659 -1.2601085779111996e-08 4.7781328529342454e-09 -1.7697878244678713e-07 4.7289773373911881e-08 -2.4815525089455655e-08 -2.0212898752856516e-07 5.208313081640178e-08 4.0616559749096712e-09 -2.7385065704073491e-07 1.2751886842437803e-07 -4.9479449670975624e-08 -0.00025025251611432664 -1.9810318991676812e-08 -1.3053255521234806e-08 -2.5384922472390279e-07 -1.2601085779111996e-08 4.7781328529342454e-09 -1.7697878244678713e-07 5.2083130816401786e-08 4.0616559749096654e-09 -2.7385065704075958e-07 1.27518868424378e-07 -4.9479449670975604e-08 -0.00025025251611432653 5.318833367608707e-08 -2.664031595941707e-08 -0.00025019540953549952 -1.9810318991676812e-08 -1.3053255521234806e-08 -2.5384922472390279e-07 -1.2601085779111996e-08 4.7781328529342454e-09 -1.7697878244678713e-07 1.27518868424378e-07 -4.9479449670975604e-08 -0.00025025251611432653 -1.9810318991676812e-08 -1.3053255521234806e-08 -2.5384922472390279e-07 5.3715567239955229e-08 3.4992219461192453e-08 -1.8640963322612599e-07 1.3377328952050972e-07 1.9292399298127023e-08 -0.00025024723238749352 5.208313081640178e-08 4.0616559749096712e-09 -2.7385065704073491e-07 -1.9810318991676812e-08 -1.3053255521234806e-08 -2.5384922472390279e-07 1.3377328952050972e-07 1.9292399298126924e-08 -0.00025024723238749363 5.208313081640178e-08 4.0616559749096712e-09 -2.7385065704073491e-07 1.2751886842437803e-07 -4.9479449670975551e-08 -0.00025025251611432653 6.9846965311750736e-08 1.9622309317368069e-08 -0.00025024113379922165 -1.9810318991676812e-08 -1.3053255521234806e-08 -2.5384922472390279e-07 1.0163474980223136e-07 8.6141509952963943e-08 -0.00025025736090386217 1.3377328952050972e-07 1.9292399298127023e-08 -0.00025024723238749352 6.9846965311750736e-08 1.9622309317368069e-08 -0.00025024113379922165 -1.9810318991676812e-08 -1.3053255521234806e-08 -2.5384922472390279e-07 1.3377328952050972e-07 1.9292399298127023e-08 -0.00025024723238749352 1.27518868424378e-07 -4.9479449670975604e-08 -0.00025025251611432653 5.318833367608707e-08 -2.664031595941707e-08 -0.00025019540953549952 -1.2601085779111996e-08 4.7781328529342454e-09 -1.7697878244678713e-07 8.4821253333993052e-08 -1.0696125020456728e-07 -0.00025021796588941842 1.27518868424378e-07 -4.9479449670975604e-08 -0.00025025251611432653 5.318833367608707e-08 -2.664031595941707e-08 -0.00025019540953549952 6.9846965311750736e-08 1.9622309317368069e-08 -0.00025024113379922165 -1.9810318991676812e-08 -1.3053255521234806e-08 -2.5384922472390279e-07 1.27518868424378e-07 -4.9479449670975604e-08 -0.00025025251611432653 5.4738586960181837e-08 -1.5669805579619386e-08 -0.0005002420592042212 5.318833367608707e-08 -2.664031595941707e-08 -0.00025019540953549952 1.0922064007601725e-07 1.3358028507798457e-08 -0.00050026195920847621 1.0146909724850498e-07 -4.2926799154776018e-08 -0.00050024715028154036 5.318833367608707e-08 -2.664031595941707e-08 -0.00025019540953549952 8.4821253333993052e-08 -1.0696125020456728e-07 -0.00025021796588941842 1.27518868424378e-07 -4.9479449670975604e-08 -0.00025025251611432653 1.0922064007601724e-07 1.3358028507798489e-08 -0.00050026195920847632 5.4738586960181837e-08 -1.5669805579619386e-08 -0.0005002420592042212 5.318833367608707e-08 -2.664031595941707e-08 -0.00025019540953549952 6.9846965311750736e-08 1.9622309317368069e-08 -0.00025024113379922165 1.0922064007601725e-07 1.3358028507798457e-08 -0.00050026195920847621 5.4738586960181837e-08 -1.5669805579619386e-08 -0.0005002420592042212 5.7243456389946882e-08 3.4702788540771756e-08 -0.00050025573264684165 6.9846965311750736e-08 1.9622309317368069e-08 -0.00025024113379922165 1.0922064007601725e-07 1.3358028507798457e-08 -0.00050026195920847621 5.318833367608707e-08 -2.664031595941707e-08 -0.00025019540953549952 6.9846965311750736e-08 1.9622309317368069e-08 -0.00025024113379922165 1.27518868424378e-07 -4.9479449670975604e-08 -0.00025025251611432653 1.0922064007601725e-07 1.3358028507798484e-08 -0.00050026195920847632 5.7243456389946882e-08 3.4702788540771756e-08 -0.00050025573264684165 6.9846965311750736e-08 1.9622309317368069e-08 -0.00025024113379922165 4.487843609931906e-08 1.0091015139729167e-07 -0.00050026569374200347 8.7884080249554217e-08 6.6381539531471498e-08 -0.00050026256749160255 6.9846965311750736e-08 1.9622309317368069e-08 -0.00025024113379922165 8.7884080249554191e-08 6.6381539531471511e-08 -0.00050026256749160266 1.27518868424378e-07 -4.9479449670975604e-08 -0.00025025251611432653 1.0922064007601726e-07 1.3358028507798472e-08 -0.00050026195920847621 6.9846965311750736e-08 1.9622309317368069e-08 -0.00025024113379922165 1.3377328952050972e-07 1.9292399298127023e-08 -0.00025024723238749352 8.7884080249554217e-08 6.6381539531471498e-08 -0.00050026256749160255 1.27518868424378e-07 -4.9479449670975604e-08 -0.00025025251611432653 5.7243456389946882e-08 3.4702788540771756e-08 -0.00050025573264684165 6.9846965311750736e-08 1.9622309317368069e-08 -0.00025024113379922165 8.7884080249554217e-08 6.6381539531471498e-08 -0.00050026256749160255 1.0922064007601725e-07 1.3358028507798457e-08 -0.00050026195920847621 5.7243456389946882e-08 3.4702788540771756e-08 -0.00050025573264684165 8.7884080249554217e-08 6.6381539531471498e-08 -0.00050026256749160255 1.0922064007601725e-07 1.3358028507798457e-08 -0.00050026195920847621 9.7730547755928321e-08 5.413237938517021e-08 -0.00075028510637629412 5.4738586960181837e-08 -1.5669805579619386e-08 -0.0005002420592042212 1.0922064007601725e-07 1.3358028507798457e-08 -0.00050026195920847621 1.0146909724850498e-07 -4.2926799154776018e-08 -0.00050024715028154036 1.1166223626696003e-07 -1.862754336221247e-09 -0.0007502848747560864 5.4738586960181837e-08 -1.5669805579619386e-08 -0.0005002420592042212 5.7243456389946882e-08 3.4702788540771756e-08 -0.00050025573264684165 1.0922064007601725e-07 1.3358028507798457e-08 -0.00050026195920847621 1.1166223626696004e-07 -1.8627543362212457e-09 -0.0007502848747560864 5.1803901636580653e-08 -5.3004591355834428e-08 -0.00050023749207261069 5.4738586960181837e-08 -1.5669805579619386e-08 -0.0005002420592042212 1.0146909724850498e-07 -4.2926799154776018e-08 -0.00050024715028154036 9.573096234959074e-08 -5.7487925007629448e-08 -0.00075027916092194945 5.1803901636580653e-08 -5.3004591355834428e-08 -0.00050023749207261069 1.0146909724850498e-07 -4.2926799154776018e-08 -0.00050024715028154036 6.6420874145555971e-08 -8.7910564643583778e-08 -0.00050023819146407676 9.573096234959074e-08 -5.7487925007629448e-08 -0.00075027916092194945 3.6403420015601692e-08 -7.0372824632134972e-08 -0.00025018849820709042 5.318833367608707e-08 -2.664031595941707e-08 -0.00025019540953549952 8.4821253333993052e-08 -1.0696125020456728e-07 -0.00025021796588941842 1.0146909724850498e-07 -4.2926799154776018e-08 -0.00050024715028154036 3.6403420015601692e-08 -7.0372824632134972e-08 -0.00025018849820709042 5.1803901636580653e-08 -5.3004591355834428e-08 -0.00050023749207261069 5.4738586960181837e-08 -1.5669805579619386e-08 -0.0005002420592042212 1.0146909724850498e-07 -4.2926799154776018e-08 -0.00050024715028154036 5.318833367608707e-08 -2.664031595941707e-08 -0.00025019540953549952 8.4821253333993052e-08 -1.0696125020456728e-07 -0.00025021796588941842 1.0922064007601726e-07 1.3358028507798476e-08 -0.00050026195920847632 1.0146909724850498e-07 -4.2926799154776018e-08 -0.00050024715028154036 3.6403420015601692e-08 -7.0372824632134972e-08 -0.00025018849820709042 5.4738586960181837e-08 -1.5669805579619386e-08 -0.0005002420592042212 5.318833367608707e-08 -2.664031595941707e-08 -0.00025019540953549952 1.0146909724850498e-07 -4.2926799154776018e-08 -0.00050024715028154036 3.6403420015601692e-08 -7.0372824632134972e-08 -0.00025018849820709042 5.1803901636580653e-08 -5.3004591355834428e-08 -0.00050023749207261069 1.0146909724850498e-07 -4.2926799154776018e-08 -0.00050024715028154036 6.6420874145555971e-08 -8.7910564643583778e-08 -0.00050023819146407676 3.6403420015601692e-08 -7.0372824632134972e-08 -0.00025018849820709042 1.9424295921734186e-08 -1.3542565328672782e-07 -0.00025019748271729253 8.4821253333993052e-08 -1.0696125020456728e-07 -0.00025021796588941842 1.0146909724850498e-07 -4.2926799154776018e-08 -0.00050024715028154036 3.6403420015601692e-08 -7.0372824632134972e-08 -0.00025018849820709042 1.9424295921734186e-08 -1.3542565328672782e-07 -0.00025019748271729253 1.0146909724850498e-07 -4.2926799154776018e-08 -0.00050024715028154036 6.6420874145555971e-08 -8.7910564643583778e-08 -0.00050023819146407676 5.1803901636580653e-08 -5.3004591355834428e-08 -0.00050023749207261069 6.6420874145555971e-08 -8.7910564643583778e-08 -0.00050023819146407676 5.4071423931897867e-08 -9.7713407703388604e-08 -0.0007502751787797974 9.573096234959074e-08 -5.7487925007629448e-08 -0.00075027916092194945 5.4071423931897867e-08 -9.7713407703388604e-08 -0.0007502751787797974 9.6702035436669104e-08 -5.5721019923162008e-08 -0.0010003133126679259 5.5901298188822756e-08 -9.6592706613398988e-08 -0.0010003114005871546 4.9149322269646304e-08 -5.6871079928545537e-08 -0.00075027559069660297 9.6702035436669118e-08 -5.5721019923162015e-08 -0.0010003133126679259 5.3614676939912681e-08 -2.0508976563264996e-08 -0.0010003131369851039 5.3678577468902889e-08 -1.9711874956717468e-08 -0.00075027778990771664 4.9149322269646304e-08 -5.6871079928545537e-08 -0.00075027559069660297 9.573096234959074e-08 -5.7487925007629448e-08 -0.00075027916092194945 9.6702035436669118e-08 -5.5721019923162015e-08 -0.0010003133126679259 5.3678577468902882e-08 -1.9711874956717471e-08 -0.00075027778990771664 4.9149322269646304e-08 -5.6871079928545537e-08 -0.00075027559069660297 9.573096234959074e-08 -5.7487925007629448e-08 -0.00075027916092194945 1.1160570880158636e-07 1.0289337245195391e-10 -0.0010003158644118994 9.6702035436669118e-08 -5.5721019923162015e-08 -0.0010003133126679259 5.3678577468902889e-08 -1.9711874956717468e-08 -0.00075027778990771664 5.4071423931897867e-08 -9.7713407703388604e-08 -0.0007502751787797974 9.573096234959074e-08 -5.7487925007629448e-08 -0.00075027916092194945 9.6702035436669118e-08 -5.5721019923162015e-08 -0.0010003133126679259 4.9149322269646304e-08 -5.6871079928545537e-08 -0.00075027559069660297 5.1803901636580653e-08 -5.3004591355834428e-08 -0.00050023749207261069 5.4071423931897867e-08 -9.7713407703388604e-08 -0.0007502751787797974 9.573096234959074e-08 -5.7487925007629448e-08 -0.00075027916092194945 4.9149322269646304e-08 -5.6871079928545537e-08 -0.00075027559069660297 5.1803901636580653e-08 -5.3004591355834428e-08 -0.00050023749207261069 9.573096234959074e-08 -5.7487925007629448e-08 -0.00075027916092194945 5.3678577468902889e-08 -1.9711874956717468e-08 -0.00075027778990771664 4.9149322269646304e-08 -5.6871079928545537e-08 -0.00075027559069660297 5.4738586960181837e-08 -1.5669805579619386e-08 -0.0005002420592042212 1.0146909724850498e-07 -4.2926799154776018e-08 -0.00050024715028154036 9.5730962349590753e-08 -5.7487925007629428e-08 -0.00075027916092194934 1.1166223626696004e-07 -1.8627543362212341e-09 -0.0007502848747560864 5.1803901636580653e-08 -5.3004591355834428e-08 -0.00050023749207261069 5.4738586960181837e-08 -1.5669805579619386e-08 -0.0005002420592042212 9.573096234959074e-08 -5.7487925007629448e-08 -0.00075027916092194945 5.3678577468902889e-08 -1.9711874956717468e-08 -0.00075027778990771664 5.4738586960181837e-08 -1.5669805579619386e-08 -0.0005002420592042212 5.7243456389946882e-08 3.4702788540771756e-08 -0.00050025573264684165 1.1166223626696006e-07 -1.8627543362212412e-09 -0.00075028487475608629 5.3678577468902889e-08 -1.9711874956717468e-08 -0.00075027778990771664 5.4738586960181837e-08 -1.5669805579619386e-08 -0.0005002420592042212 9.5730962349590766e-08 -5.7487925007629448e-08 -0.00075027916092194945 1.1166223626696006e-07 -1.8627543362212325e-09 -0.00075028487475608629 5.3678577468902889e-08 -1.9711874956717468e-08 -0.00075027778990771664 5.7243456389946882e-08 3.4702788540771756e-08 -0.00050025573264684165 1.1166223626696003e-07 -1.8627543362212399e-09 -0.00075028487475608629 5.6607420557805216e-08 3.2011869204494774e-08 -0.00075028257644920967 5.3678577468902889e-08 -1.9711874956717468e-08 -0.00075027778990771664 5.7243456389946882e-08 3.4702788540771756e-08 -0.00050025573264684165 1.0922064007601725e-07 1.3358028507798457e-08 -0.00050026195920847621 1.1166223626696004e-07 -1.8627543362212192e-09 -0.00075028487475608629 9.7730547755928321e-08 5.4132379385170183e-08 -0.00075028510637629422 5.7243456389946882e-08 3.4702788540771756e-08 -0.00050025573264684165 1.1166223626696004e-07 -1.8627543362212213e-09 -0.00075028487475608629 9.7730547755928335e-08 5.4132379385170197e-08 -0.00075028510637629412 5.6607420557805216e-08 3.2011869204494774e-08 -0.00075028257644920967 5.7243456389946882e-08 3.4702788540771756e-08 -0.00050025573264684165 9.7730547755928308e-08 5.4132379385170223e-08 -0.00075028510637629401 5.7208702160647485e-08 9.579592757309862e-08 -0.00075028641821071993 5.6607420557805216e-08 3.2011869204494774e-08 -0.00075028257644920967 1.1166223626696003e-07 -1.8627543362212399e-09 -0.00075028487475608629 1.1160570880158636e-07 1.0289337245195391e-10 -0.0010003158644118994 9.6578570886786357e-08 5.5893529398519965e-08 -0.0010003161598451773 5.6607420557805216e-08 3.2011869204494774e-08 -0.00075028257644920967 1.1166223626696003e-07 -1.8627543362212399e-09 -0.00075028487475608629 9.7730547755928321e-08 5.413237938517021e-08 -0.00075028510637629412 9.6578570886786357e-08 5.5893529398519965e-08 -0.0010003161598451773 5.6607420557805216e-08 3.2011869204494774e-08 -0.00075028257644920967 1.1166223626696003e-07 -1.8627543362212399e-09 -0.00075028487475608629 1.1160570880158636e-07 1.0289337245195391e-10 -0.0010003158644118994 5.6607420557805216e-08 3.2011869204494774e-08 -0.00075028257644920967 5.3678577468902889e-08 -1.9711874956717468e-08 -0.00075027778990771664 1.1160570880158636e-07 1.0289337245195391e-10 -0.0010003158644118994 5.3614676939912687e-08 -2.0508976563264996e-08 -0.0010003131369851039 5.6607420557805216e-08 3.2011869204494774e-08 -0.00075028257644920967 5.3678577468902896e-08 -1.9711874956717504e-08 -0.00075027778990771653 9.573096234959074e-08 -5.7487925007629448e-08 -0.00075027916092194945 1.1166223626696003e-07 -1.8627543362212399e-09 -0.00075028487475608629 1.1160570880158636e-07 1.0289337245195391e-10 -0.0010003158644118994 5.3678577468902889e-08 -1.9711874956717468e-08 -0.00075027778990771664 1.1160570880158636e-07 1.0289337245195391e-10 -0.0010003158644118994 5.5663874937646958e-08 3.1850266550892001e-08 -0.0010003152137592511 5.3614676939912687e-08 -2.0508976563264996e-08 -0.0010003131369851039 5.6607420557805216e-08 3.2011869204494774e-08 -0.00075028257644920967 1.1160570880158636e-07 1.0289337245195391e-10 -0.0010003158644118994 1.1151774030236457e-07 6.3230952327537923e-11 -0.0012503542996624292 5.5663874937646958e-08 3.1850266550892001e-08 -0.0010003152137592511 5.3614676939912687e-08 -2.0508976563264996e-08 -0.0010003131369851039 1.1160570880158636e-07 1.0289337245195391e-10 -0.0010003158644118994 1.1151774030236457e-07 6.3230952327537923e-11 -0.0012503542996624292 9.6702035436669118e-08 -5.5721019923162015e-08 -0.0010003133126679259 5.3614676939912687e-08 -2.0508976563264996e-08 -0.0010003131369851039 1.1160570880158636e-07 1.0289337245195391e-10 -0.0010003158644118994 9.6702035436669118e-08 -5.5721019923162015e-08 -0.0010003133126679259 5.3614676939912687e-08 -2.0508976563264996e-08 -0.0010003131369851039 5.3678577468902896e-08 -1.9711874956717471e-08 -0.00075027778990771653 1.1160570880158636e-07 1.0289337245195391e-10 -0.0010003158644118994 9.6578570886786357e-08 5.5893529398519965e-08 -0.0010003161598451773 9.6557691103214327e-08 5.5803695361387844e-08 -0.0012503549201462202 5.5663874937646958e-08 3.1850266550892001e-08 -0.0010003152137592511 1.1160570880158636e-07 1.0289337245195391e-10 -0.0010003158644118994 9.6578570886786357e-08 5.5893529398519965e-08 -0.0010003161598451773 5.5663874937646958e-08 3.1850266550892001e-08 -0.0010003152137592511 5.6607420557805216e-08 3.2011869204494774e-08 -0.00075028257644920967 9.6578570886786357e-08 5.5893529398519965e-08 -0.0010003161598451773 5.5757026740399019e-08 9.6689658735923656e-08 -0.0010003165854747574 5.5663874937646958e-08 3.1850266550892001e-08 -0.0010003152137592511 5.6607420557805216e-08 3.2011869204494774e-08 -0.00075028257644920967 9.6557691103214327e-08 5.5803695361387844e-08 -0.0012503549201462202 5.5726592024145107e-08 9.6597302399085924e-08 -0.0012503547896749343 5.5613677970623052e-08 3.1977055119901924e-08 -0.0012503558964576838 5.5663874937646958e-08 3.1850266550892001e-08 -0.0010003152137592511 1.1160570880158636e-07 1.0289337245195391e-10 -0.0010003158644118994 1.1151774030236457e-07 6.3230952327537923e-11 -0.0012503542996624292 9.6557691103214327e-08 5.5803695361387844e-08 -0.0012503549201462202 5.5663874937646958e-08 3.1850266550892001e-08 -0.0010003152137592511 1.1151774030236457e-07 6.3230952327537923e-11 -0.0012503542996624292 9.6557691103214327e-08 5.5803695361387844e-08 -0.0012503549201462202 5.5613677970623052e-08 3.1977055119901924e-08 -0.0012503558964576838 5.5663874937646958e-08 3.1850266550892001e-08 -0.0010003152137592511 1.1151774030236457e-07 6.3230952327537923e-11 -0.0012503542996624292 9.6613894753707261e-08 -5.5695628619908975e-08 -0.0012503528111434861 5.3688387095432646e-08 -2.0341838728810546e-08 -0.0012503533209120385 5.3614676939912694e-08 -2.0508976563264999e-08 -0.0010003131369851037 1.1151774030236457e-07 6.3230952327537923e-11 -0.0012503542996624292 5.3688387095432646e-08 -2.0341838728810546e-08 -0.0012503533209120385 5.5613677970623052e-08 3.1977055119901924e-08 -0.0012503558964576838 5.5663874937646958e-08 3.1850266550892001e-08 -0.0010003152137592511 1.1151774030236457e-07 6.3230952327537923e-11 -0.0012503542996624292 5.3688387095432646e-08 -2.0341838728810546e-08 -0.0012503533209120385 5.5663874937646958e-08 3.1850266550892001e-08 -0.0010003152137592511 5.3614676939912694e-08 -2.0508976563265032e-08 -0.0010003131369851037 9.6613894753707261e-08 -5.5695628619908975e-08 -0.0012503528111434861 5.5799262954826988e-08 -9.6554547136401545e-08 -0.0012503516197913676 4.9585571261346931e-08 -5.7069333746979063e-08 -0.001000311771530339 4.9644637820186892e-08 -5.6792350400627429e-08 -0.0012503531530596731 9.6613894753707261e-08 -5.5695628619908975e-08 -0.0012503528111434861 5.368838709543264e-08 -2.0341838728810549e-08 -0.0012503533209120383 4.9585571261346917e-08 -5.7069333746979063e-08 -0.001000311771530339 4.9644637820186892e-08 -5.6792350400627429e-08 -0.0012503531530596731 9.6613894753707261e-08 -5.5695628619908975e-08 -0.0012503528111434861 5.368838709543264e-08 -2.0341838728810546e-08 -0.0012503533209120385 5.3614676939912687e-08 -2.0508976563264996e-08 -0.0010003131369851039 4.9585571261346931e-08 -5.7069333746979063e-08 -0.001000311771530339 1.1151774030236457e-07 6.3230952327537923e-11 -0.0012503542996624292 9.6613894753707261e-08 -5.5695628619908975e-08 -0.0012503528111434861 9.6702035436669118e-08 -5.5721019923162015e-08 -0.0010003133126679259 5.3614676939912654e-08 -2.0508976563264986e-08 -0.0010003131369851039 9.6702035436669118e-08 -5.5721019923162015e-08 -0.0010003133126679259 5.5901298188822756e-08 -9.6592706613398975e-08 -0.0010003114005871546 4.9149322269646304e-08 -5.6871079928545537e-08 -0.00075027559069660297 4.9585571261346931e-08 -5.7069333746979063e-08 -0.001000311771530339 9.6613894753707261e-08 -5.5695628619908975e-08 -0.0012503528111434861 9.6702035436669118e-08 -5.5721019923162015e-08 -0.0010003133126679259 5.3614676939912687e-08 -2.0508976563264996e-08 -0.0010003131369851039 4.9585571261346931e-08 -5.7069333746979063e-08 -0.001000311771530339 9.6702035436669118e-08 -5.5721019923162015e-08 -0.0010003133126679259 5.3614676939912681e-08 -2.0508976563264999e-08 -0.0010003131369851037 4.9149322269646291e-08 -5.6871079928545537e-08 -0.00075027559069660286 4.9585571261346931e-08 -5.7069333746979063e-08 -0.001000311771530339 9.6613894753707261e-08 -5.5695628619908975e-08 -0.0012503528111434861 9.6702035436669118e-08 -5.5721019923162015e-08 -0.0010003133126679259 5.5901298188822756e-08 -9.6592706613398988e-08 -0.0010003114005871546 4.9585571261346931e-08 -5.7069333746979063e-08 -0.001000311771530339 9.6613894753707261e-08 -5.5695628619908975e-08 -0.0012503528111434861 5.5901298188822723e-08 -9.6592706613398962e-08 -0.0010003114005871546 5.5799262954826988e-08 -9.6554547136401545e-08 -0.0012503516197913676 4.9585571261346931e-08 -5.7069333746979063e-08 -0.001000311771530339 5.7243456389946882e-08 3.4702788540771756e-08 -0.00050025573264684165 8.7884080249554217e-08 6.6381539531471498e-08 -0.00050026256749160255 9.7730547755928321e-08 5.413237938517021e-08 -0.00075028510637629412 5.7208702160647485e-08 9.579592757309862e-08 -0.00075028641821071993 9.7730547755928321e-08 5.413237938517021e-08 -0.00075028510637629412 5.5757026740399019e-08 9.6689658735923656e-08 -0.0010003165854747574 5.7208702160647485e-08 9.579592757309862e-08 -0.00075028641821071993 5.6607420557805216e-08 3.2011869204494774e-08 -0.00075028257644920967 9.7730547755928321e-08 5.413237938517021e-08 -0.00075028510637629412 9.6578570886786357e-08 5.5893529398519965e-08 -0.0010003161598451773 5.5757026740399019e-08 9.6689658735923656e-08 -0.0010003165854747574 5.6607420557805216e-08 3.2011869204494774e-08 -0.00075028257644920967 9.6578570886786357e-08 5.5893529398519965e-08 -0.0010003161598451773 5.5726592024145107e-08 9.6597302399085924e-08 -0.0012503547896749343 5.5757026740399019e-08 9.6689658735923656e-08 -0.0010003165854747574 5.5663874937646958e-08 3.1850266550892001e-08 -0.0010003152137592511 9.6578570886786357e-08 5.5893529398519965e-08 -0.0010003161598451773 9.6557691103214327e-08 5.5803695361387844e-08 -0.0012503549201462202 5.5726592024145107e-08 9.6597302399085924e-08 -0.0012503547896749343 5.5663874937646958e-08 3.1850266550892001e-08 -0.0010003152137592511 5.5726592024145107e-08 9.6597302399085924e-08 -0.0012503547896749343 -1.4259858931354123e-11 1.1151397397936293e-07 -0.0012503531836064688 9.1849284892257669e-09 5.7022671278766277e-08 -0.0012503539995996817 9.2506488422420593e-09 5.7020966887921452e-08 -0.0010003139266740715 5.5726592024145107e-08 9.6597302399085924e-08 -0.0012503547896749343 9.1849284892257669e-09 5.7022671278766277e-08 -0.0012503539995996815 9.2506488422420411e-09 5.7020966887921485e-08 -0.0010003139266740717 5.5663874937646958e-08 3.1850266550892001e-08 -0.0010003152137592511 5.5726592024145107e-08 9.6597302399085924e-08 -0.0012503547896749343 -1.4259858931354123e-11 1.1151397397936293e-07 -0.0012503531836064688 9.250648842242056e-09 5.7020966887921425e-08 -0.001000313926674072 5.5757026740399019e-08 9.6689658735923656e-08 -0.0010003165854747574 -1.4259858931354123e-11 1.1151397397936293e-07 -0.0012503531836064688 -2.4319186993847398e-08 7.1415626688865852e-08 -0.0010003128624644741 -8.2114790307663871e-11 1.1160363342832817e-07 -0.0010003139846076264 -5.5768846824657644e-08 9.6570551000630508e-08 -0.001250352387324136 -1.4259858931354123e-11 1.1151397397936293e-07 -0.0012503531836064688 -2.4203833870573445e-08 7.1372212947049566e-08 -0.001250353653347692 9.1849284892257669e-09 5.7022671278766277e-08 -0.0012503539995996817 -2.4319186993847398e-08 7.1415626688865852e-08 -0.0010003128624644741 -1.4259858931354123e-11 1.1151397397936293e-07 -0.0012503531836064688 -2.4203833870573445e-08 7.1372212947049566e-08 -0.001250353653347692 -2.4319186993847398e-08 7.1415626688865852e-08 -0.0010003128624644741 -5.5768846824657644e-08 9.6570551000630508e-08 -0.001250352387324136 -1.4259858931354123e-11 1.1151397397936293e-07 -0.0012503531836064688 9.1849284892257669e-09 5.7022671278766277e-08 -0.0012503539995996817 -2.4319186993847398e-08 7.1415626688865852e-08 -0.0010003128624644741 9.250648842242061e-09 5.7020966887921452e-08 -0.0010003139266740717 -2.4203833870573445e-08 7.1372212947049566e-08 -0.001250353653347692 9.1849284892257669e-09 5.7022671278766277e-08 -0.0012503539995996817 -2.4319186993847398e-08 7.1415626688865852e-08 -0.0010003128624644741 -1.9819636225350811e-08 3.5857388513748994e-08 -0.0012503532796755048 -1.4259858931354123e-11 1.1151397397936293e-07 -0.0012503531836064688 -2.4319186993847398e-08 7.1415626688865852e-08 -0.0010003128624644741 9.250648842242061e-09 5.7020966887921452e-08 -0.0010003139266740717 -8.2114790307663871e-11 1.1160363342832817e-07 -0.0010003139846076264 -1.4259858931354123e-11 1.1151397397936293e-07 -0.0012503531836064688 9.2506488422420775e-09 5.7020966887921458e-08 -0.0010003139266740715 -8.2114790307663871e-11 1.1160363342832817e-07 -0.0010003139846076264 5.5757026740398999e-08 9.6689658735923656e-08 -0.0010003165854747574 5.5726592024145107e-08 9.6597302399085924e-08 -0.0012503547896749343 9.2506488422420196e-09 5.7020966887921458e-08 -0.0010003139266740717 5.5757026740399019e-08 9.6689658735923656e-08 -0.0010003165854747574 5.5663874937646958e-08 3.1850266550892001e-08 -0.0010003152137592511 9.250648842242061e-09 5.7020966887921452e-08 -0.0010003139266740717 5.5757026740399019e-08 9.6689658735923656e-08 -0.0010003165854747574 1.0879332660856873e-08 5.7044345169502243e-08 -0.000750279538386068 5.6607420557805203e-08 3.2011869204494781e-08 -0.00075028257644920967 5.5757026740399019e-08 9.6689658735923656e-08 -0.0010003165854747574 1.0879332660856834e-08 5.704434516950225e-08 -0.000750279538386068 5.7208702160647485e-08 9.579592757309862e-08 -0.00075028641821071993 5.6607420557805216e-08 3.2011869204494774e-08 -0.00075028257644920967 -8.2114790307663871e-11 1.1160363342832817e-07 -0.0010003139846076264 5.5757026740399019e-08 9.6689658735923656e-08 -0.0010003165854747574 1.0879332660856873e-08 5.7044345169502243e-08 -0.000750279538386068 5.7208702160647479e-08 9.5795927573098607e-08 -0.00075028641821072003 -8.2114790307663871e-11 1.1160363342832817e-07 -0.0010003139846076264 1.087933266085689e-08 5.704434516950225e-08 -0.000750279538386068 5.7208702160647465e-08 9.579592757309862e-08 -0.00075028641821071993 1.9986818368565527e-09 1.1165722226204309e-07 -0.00075028045052420646 9.250648842242061e-09 5.7020966887921452e-08 -0.0010003139266740717 -8.21147903076602e-11 1.1160363342832818e-07 -0.0010003139846076264 5.5757026740399019e-08 9.6689658735923656e-08 -0.0010003165854747574 1.0879332660856873e-08 5.7044345169502243e-08 -0.000750279538386068 -2.4319186993847398e-08 7.1415626688865852e-08 -0.0010003128624644741 9.250648842242061e-09 5.7020966887921452e-08 -0.0010003139266740717 -2.3151379976891434e-08 7.1600739785639404e-08 -0.00075027741573168989 -2.00361505896915e-08 3.5781778077252235e-08 -0.001000312509648013 -2.4319186993847398e-08 7.1415626688865852e-08 -0.0010003128624644741 9.250648842242061e-09 5.7020966887921452e-08 -0.0010003139266740717 -8.2114790307663871e-11 1.1160363342832817e-07 -0.0010003139846076264 -2.3151379976891434e-08 7.1600739785639404e-08 -0.00075027741573168989 -8.2114790307663871e-11 1.1160363342832817e-07 -0.0010003139846076264 -2.3151379976891434e-08 7.1600739785639404e-08 -0.00075027741573168989 1.0879332660856873e-08 5.7044345169502243e-08 -0.000750279538386068 1.9986818368565527e-09 1.1165722226204309e-07 -0.00075028045052420646 9.250648842242061e-09 5.7020966887921452e-08 -0.0010003139266740717 -8.2114790307663871e-11 1.1160363342832817e-07 -0.0010003139846076264 -2.3151379976891434e-08 7.1600739785639404e-08 -0.00075027741573168989 1.0879332660856873e-08 5.7044345169502243e-08 -0.000750279538386068 -2.4319186993847398e-08 7.1415626688865852e-08 -0.0010003128624644741 -8.2114790307663871e-11 1.1160363342832817e-07 -0.0010003139846076264 -2.3151379976891434e-08 7.1600739785639404e-08 -0.00075027741573168989 -5.5883880001502326e-08 9.6603605851190786e-08 -0.0010003123786676365 -2.5386416179342895e-08 6.9257409753424634e-08 -0.00050024065343349914 -2.3151379976891434e-08 7.1600739785639404e-08 -0.00075027741573168989 1.0879332660856873e-08 5.7044345169502243e-08 -0.000750279538386068 1.9986818368565527e-09 1.1165722226204309e-07 -0.00075028045052420646 -2.5386416179342895e-08 6.9257409753424634e-08 -0.00050024065343349914 -2.3151379976891434e-08 7.1600739785639404e-08 -0.00075027741573168989 1.9986818368565337e-09 1.1165722226204311e-07 -0.00075028045052420646 -5.4065449861445208e-08 9.7719860351986751e-08 -0.00075027673232614853 1.2958524805010279e-08 5.6981117399105672e-08 -0.00050024595673330951 -2.5386416179342895e-08 6.9257409753424634e-08 -0.00050024065343349914 1.0879332660856873e-08 5.7044345169502243e-08 -0.000750279538386068 1.9986818368565527e-09 1.1165722226204309e-07 -0.00075028045052420646 -2.5386416179342895e-08 6.9257409753424634e-08 -0.00050024065343349914 -2.3151379976891434e-08 7.1600739785639404e-08 -0.00075027741573168989 1.0879332660856873e-08 5.7044345169502243e-08 -0.000750279538386068 -1.9295948133837482e-08 3.6141544625062981e-08 -0.00075027660235652764 4.487843609931906e-08 1.0091015139729167e-07 -0.00050026569374200347 1.2958524805010271e-08 5.6981117399105679e-08 -0.00050024595673330951 5.7208702160647485e-08 9.579592757309862e-08 -0.00075028641821071993 1.9986818368565676e-09 1.1165722226204307e-07 -0.00075028045052420646 1.2958524805010279e-08 5.6981117399105672e-08 -0.00050024595673330951 1.0879332660856873e-08 5.7044345169502243e-08 -0.000750279538386068 5.7208702160647518e-08 9.5795927573098647e-08 -0.00075028641821072003 1.9986818368565527e-09 1.1165722226204309e-07 -0.00075028045052420646 5.7243456389946882e-08 3.4702788540771756e-08 -0.00050025573264684165 1.2958524805010275e-08 5.6981117399105672e-08 -0.00050024595673330951 1.0879332660856873e-08 5.7044345169502243e-08 -0.000750279538386068 5.7208702160647498e-08 9.5795927573098634e-08 -0.00075028641821071993 -1.3462529914107822e-08 1.0927989520855961e-07 -0.00050025051295574585 -2.5386416179342895e-08 6.9257409753424634e-08 -0.00050024065343349914 1.9986818368565527e-09 1.1165722226204309e-07 -0.00075028045052420646 -5.4065449861445222e-08 9.7719860351986737e-08 -0.00075027673232614853 -8.2114790307663871e-11 1.1160363342832817e-07 -0.0010003139846076264 -2.3151379976891434e-08 7.1600739785639404e-08 -0.00075027741573168989 1.9986818368565527e-09 1.1165722226204309e-07 -0.00075028045052420646 -5.5883880001502326e-08 9.6603605851190786e-08 -0.0010003123786676365 -5.1285251442035191e-08 5.0050822492179246e-08 -0.00050023980822741466 -2.3151379976891434e-08 7.1600739785639404e-08 -0.00075027741573168989 -5.4065449861445222e-08 9.7719860351986737e-08 -0.00075027673232614853 -4.8847481222423015e-08 5.3221149838826364e-08 -0.00075027658629522518 -5.1285251442035191e-08 5.0050822492179246e-08 -0.00050023980822741466 -2.5386416179342895e-08 6.9257409753424634e-08 -0.00050024065343349904 -2.3151379976891434e-08 7.1600739785639404e-08 -0.00075027741573168989 -1.9295948133837482e-08 3.6141544625062981e-08 -0.00075027660235652764 -5.1285251442035191e-08 5.0050822492179246e-08 -0.00050023980822741466 -2.5386416179342895e-08 6.9257409753424634e-08 -0.00050024065343349914 -2.3151379976891434e-08 7.1600739785639404e-08 -0.00075027741573168989 -5.4065449861445222e-08 9.7719860351986737e-08 -0.00075027673232614853 -5.1285251442035191e-08 5.0050822492179246e-08 -0.00050023980822741466 -6.6338696455744507e-08 8.7950437897509348e-08 -0.00050024114170616266 -5.4065449861445208e-08 9.7719860351986737e-08 -0.00075027673232614853 -9.5744835651498381e-08 5.74688222725082e-08 -0.00075027895345600528 -5.1285251442035191e-08 5.0050822492179246e-08 -0.00050023980822741466 -5.4065449861445202e-08 9.7719860351986724e-08 -0.00075027673232614842 -4.8847481222423022e-08 5.3221149838826364e-08 -0.00075027658629522518 -9.5744835651498368e-08 5.7468822272508187e-08 -0.00075027895345600539 -2.4319186993847398e-08 7.1415626688865852e-08 -0.0010003128624644741 -2.3151379976891434e-08 7.1600739785639404e-08 -0.00075027741573168989 -2.00361505896915e-08 3.5781778077252235e-08 -0.001000312509648013 -4.8847481222423015e-08 5.3221149838826364e-08 -0.00075027658629522518 -2.3151379976891434e-08 7.1600739785639404e-08 -0.00075027741573168989 -5.4065449861445222e-08 9.7719860351986737e-08 -0.00075027673232614853 -5.5883880001502326e-08 9.6603605851190786e-08 -0.0010003123786676365 -4.8847481222423015e-08 5.3221149838826364e-08 -0.00075027658629522518 -2.3151379976891434e-08 7.1600739785639404e-08 -0.00075027741573168989 1.9986818368565527e-09 1.1165722226204309e-07 -0.00075028045052420646 -5.4065449861445222e-08 9.7719860351986737e-08 -0.00075027673232614853 -5.5883880001502326e-08 9.6603605851190786e-08 -0.0010003123786676365 -2.4319186993847398e-08 7.1415626688865852e-08 -0.0010003128624644741 -5.5883880001502326e-08 9.6603605851190786e-08 -0.0010003123786676365 -4.9533560941169903e-08 5.2955724632910932e-08 -0.0010003122523988292 -4.8847481222423015e-08 5.3221149838826364e-08 -0.00075027658629522518 -2.4319186993847398e-08 7.1415626688865852e-08 -0.0010003128624644741 -2.3151379976891434e-08 7.1600739785639404e-08 -0.00075027741573168989 -5.5883880001502326e-08 9.6603605851190786e-08 -0.0010003123786676365 -4.8847481222423015e-08 5.3221149838826364e-08 -0.00075027658629522518 -5.4065449861445222e-08 9.7719860351986737e-08 -0.00075027673232614853 -5.5883880001502326e-08 9.6603605851190786e-08 -0.0010003123786676365 -9.6695411103139551e-08 5.5732469279275636e-08 -0.0010003127968578006 -4.8847481222423015e-08 5.3221149838826364e-08 -0.00075027658629522518 -5.5883880001502326e-08 9.6603605851190786e-08 -0.0010003123786676365 -9.6695411103139551e-08 5.5732469279275636e-08 -0.0010003127968578006 -4.9533560941169903e-08 5.2955724632910932e-08 -0.0010003122523988292 -4.8847481222423015e-08 5.3221149838826364e-08 -0.00075027658629522518 -5.4065449861445222e-08 9.7719860351986737e-08 -0.00075027673232614853 -9.6695411103139551e-08 5.5732469279275636e-08 -0.0010003127968578006 -4.8847481222423015e-08 5.3221149838826364e-08 -0.00075027658629522518 -9.5744835651498368e-08 5.7468822272508207e-08 -0.00075027895345600539 -5.5883880001502326e-08 9.6603605851190786e-08 -0.0010003123786676365 -9.6591467334589457e-08 5.572998880087744e-08 -0.0012503521777513145 -9.6695411103139551e-08 5.5732469279275636e-08 -0.0010003127968578006 -4.9533560941169903e-08 5.2955724632910932e-08 -0.0010003122523988292 -2.4319186993847398e-08 7.1415626688865852e-08 -0.0010003128624644741 -5.5883880001502326e-08 9.6603605851190786e-08 -0.0010003123786676365 -5.5768846824657644e-08 9.6570551000630508e-08 -0.001250352387324136 -4.9533560941169903e-08 5.2955724632910932e-08 -0.0010003122523988292 -2.4319186993847398e-08 7.1415626688865852e-08 -0.0010003128624644741 -8.2114790307663871e-11 1.1160363342832817e-07 -0.0010003139846076264 -5.5883880001502326e-08 9.6603605851190786e-08 -0.0010003123786676365 -5.5768846824657644e-08 9.6570551000630508e-08 -0.001250352387324136 -5.5768846824657644e-08 9.6570551000630508e-08 -0.001250352387324136 -9.6591467334589457e-08 5.572998880087744e-08 -0.0012503521777513145 -4.9533560941169903e-08 5.2955724632910938e-08 -0.0010003122523988292 -4.9209758486670176e-08 5.3023011893293934e-08 -0.0012503535007173073 -2.4203833870573445e-08 7.1372212947049566e-08 -0.001250353653347692 -2.4319186993847398e-08 7.1415626688865852e-08 -0.0010003128624644741 -4.9533560941169897e-08 5.2955724632910932e-08 -0.0010003122523988292 -1.9819636225350811e-08 3.5857388513748994e-08 -0.0012503532796755048 -5.5883880001502326e-08 9.6603605851190786e-08 -0.0010003123786676365 -5.5768846824657644e-08 9.6570551000630508e-08 -0.001250352387324136 -9.6591467334589457e-08 5.572998880087744e-08 -0.0012503521777513145 -4.9533560941169903e-08 5.2955724632910932e-08 -0.0010003122523988292 -2.4203833870573445e-08 7.1372212947049566e-08 -0.001250353653347692 -2.4319186993847398e-08 7.1415626688865852e-08 -0.0010003128624644741 -5.5768846824657644e-08 9.6570551000630508e-08 -0.001250352387324136 -4.9533560941169903e-08 5.2955724632910932e-08 -0.0010003122523988292 -2.4203833870573445e-08 7.1372212947049566e-08 -0.001250353653347692 -5.5768846824657644e-08 9.6570551000630508e-08 -0.001250352387324136 -4.9533560941169903e-08 5.2955724632910925e-08 -0.0010003122523988292 -4.9209758486670176e-08 5.3023011893293934e-08 -0.0012503535007173073 -9.6591467334589457e-08 5.572998880087744e-08 -0.0012503521777513145 -1.1151476759075343e-07 -1.62073222848639e-11 -0.0012503518846034747 -5.0392660028305615e-08 5.4666588660437527e-09 -0.0012503522555901369 -5.0656063721682888e-08 5.2355801703302671e-09 -0.0010003121829149793 -9.6591467334589457e-08 5.572998880087744e-08 -0.0012503521777513145 -9.6695411103139551e-08 5.5732469279275636e-08 -0.0010003127968578006 -1.1151476759075343e-07 -1.6207322284859021e-11 -0.0012503518846034749 -5.0656063721682888e-08 5.2355801703302671e-09 -0.0010003121829149793 -9.6591467334589457e-08 5.572998880087744e-08 -0.0012503521777513145 -9.6695411103139551e-08 5.5732469279275636e-08 -0.0010003127968578006 -5.0656063721682888e-08 5.2355801703302671e-09 -0.0010003121829149793 -4.9533560941169903e-08 5.2955724632910932e-08 -0.0010003122523988292 -9.6695411103139551e-08 5.5732469279275636e-08 -0.0010003127968578006 -1.1160038235988258e-07 -1.0284684232157778e-10 -0.0010003129599950916 -1.1151476759075343e-07 -1.6207322284863358e-11 -0.0012503518846034747 -5.0656063721682888e-08 5.2355801703302671e-09 -0.0010003121829149793 -1.1160038235988258e-07 -1.0284684232157791e-10 -0.0010003129599950914 -1.1151476759075343e-07 -1.6207322284863358e-11 -0.0012503518846034747 -5.0656063721682888e-08 5.2355801703302671e-09 -0.0010003121829149793 -6.6134383413309437e-08 -4.0512149139419317e-08 -0.001000311721138568 -1.1160038235988258e-07 -1.0284684232157791e-10 -0.0010003129599950914 -1.1151476759075343e-07 -1.6207322284863358e-11 -0.0012503518846034747 -6.6134383413309437e-08 -4.0512149139419317e-08 -0.001000311721138568 -9.6569000923823164e-08 -5.5783723654639035e-08 -0.0012503514950724731 -1.1151476759075343e-07 -1.6207322284863358e-11 -0.0012503518846034747 -5.0392660028305609e-08 5.4666588660437584e-09 -0.0012503522555901371 -5.0656063721682888e-08 5.2355801703302671e-09 -0.0010003121829149793 -6.6134383413309437e-08 -4.0512149139419317e-08 -0.001000311721138568 -1.1151476759075343e-07 -1.6207322284863358e-11 -0.0012503518846034747 -5.0392660028305609e-08 5.4666588660437584e-09 -0.0012503522555901371 -6.6134383413309437e-08 -4.0512149139419317e-08 -0.001000311721138568 -6.5832361219033194e-08 -4.0335879912520984e-08 -0.001250352879671201 -5.0392660028305609e-08 5.4666588660437584e-09 -0.0012503522555901371 -5.0656063721682888e-08 5.2355801703302671e-09 -0.0010003121829149793 -1.533215670724777e-08 -5.5570782631566266e-08 -0.0010003114627723196 -6.6134383413309437e-08 -4.0512149139419317e-08 -0.001000311721138568 -5.0392660028305609e-08 5.4666588660437584e-09 -0.0012503522555901371 -5.0656063721682888e-08 5.2355801703302671e-09 -0.0010003121829149793 4.8047539230595248e-09 1.3835273021730507e-09 -0.0010003122385683638 -1.533215670724779e-08 -5.5570782631566266e-08 -0.0010003114627723196 -5.0392660028305609e-08 5.4666588660437584e-09 -0.0012503522555901371 -5.0656063721682888e-08 5.2355801703302671e-09 -0.0010003121829149793 4.8047539230595273e-09 1.3835273021730515e-09 -0.0010003122385683636 -2.00361505896915e-08 3.5781778077252235e-08 -0.001000312509648013 -5.0392660028305609e-08 5.4666588660437584e-09 -0.0012503522555901371 -5.0656063721682888e-08 5.2355801703302671e-09 -0.0010003121829149793 -4.9533560941169903e-08 5.2955724632910932e-08 -0.0010003122523988292 -2.00361505896915e-08 3.5781778077252235e-08 -0.001000312509648013 -2.4319186993847398e-08 7.1415626688865852e-08 -0.0010003128624644741 -4.9533560941169903e-08 5.2955724632910932e-08 -0.0010003122523988292 -1.9819636225350811e-08 3.5857388513748994e-08 -0.0012503532796755048 -2.00361505896915e-08 3.5781778077252235e-08 -0.001000312509648013 -5.0392660028305609e-08 5.4666588660437584e-09 -0.0012503522555901371 -4.9533560941169903e-08 5.2955724632910932e-08 -0.0010003122523988292 -1.9819636225350811e-08 3.5857388513748994e-08 -0.0012503532796755048 -2.00361505896915e-08 3.5781778077252235e-08 -0.001000312509648013 -2.4203833870573445e-08 7.1372212947049566e-08 -0.001250353653347692 -4.953356094116991e-08 5.2955724632910932e-08 -0.0010003122523988292 -4.9209758486670176e-08 5.3023011893293934e-08 -0.0012503535007173073 -1.9819636225350811e-08 3.5857388513748994e-08 -0.0012503532796755048 -9.6591467334589457e-08 5.572998880087744e-08 -0.0012503521777513145 -5.0392660028305609e-08 5.4666588660437584e-09 -0.0012503522555901371 -5.0656063721682888e-08 5.2355801703302671e-09 -0.0010003121829149793 -4.9533560941169903e-08 5.2955724632910932e-08 -0.0010003122523988292 -5.0392660028305609e-08 5.4666588660437584e-09 -0.0012503522555901371 -4.9533560941169903e-08 5.2955724632910932e-08 -0.0010003122523988292 -4.9209758486670176e-08 5.3023011893293934e-08 -0.0012503535007173073 -1.9819636225350811e-08 3.5857388513748994e-08 -0.0012503532796755048 -9.6591467334589457e-08 5.572998880087744e-08 -0.0012503521777513145 -5.0392660028305609e-08 5.4666588660437584e-09 -0.0012503522555901371 -4.9533560941169903e-08 5.2955724632910932e-08 -0.0010003122523988292 -4.9209758486670176e-08 5.3023011893293934e-08 -0.0012503535007173073 9.1849284892257669e-09 5.7022671278766277e-08 -0.0012503539995996817 -2.4319186993847398e-08 7.1415626688865852e-08 -0.0010003128624644741 -1.9819636225350811e-08 3.5857388513748994e-08 -0.0012503532796755048 -2.00361505896915e-08 3.5781778077252235e-08 -0.001000312509648013 9.1849284892257669e-09 5.7022671278766277e-08 -0.0012503539995996817 -1.9819636225350811e-08 3.5857388513748994e-08 -0.0012503532796755048 5.0098381830250705e-09 1.53704372307915e-09 -0.0012503527522594448 -2.00361505896915e-08 3.5781778077252235e-08 -0.001000312509648013 -5.0392660028305609e-08 5.4666588660437584e-09 -0.0012503522555901371 -1.9819636225350811e-08 3.5857388513748994e-08 -0.0012503532796755048 5.0098381830250705e-09 1.53704372307915e-09 -0.0012503527522594448 -2.00361505896915e-08 3.5781778077252235e-08 -0.001000312509648013 9.1849284892257669e-09 5.7022671278766277e-08 -0.0012503539995996817 9.250648842242061e-09 5.7020966887921452e-08 -0.0010003139266740717 5.0098381830250705e-09 1.53704372307915e-09 -0.0012503527522594448 -2.00361505896915e-08 3.5781778077252235e-08 -0.001000312509648013 -5.0392660028305609e-08 5.4666588660437584e-09 -0.0012503522555901371 5.0098381830250705e-09 1.53704372307915e-09 -0.0012503527522594448 4.8047539230595091e-09 1.3835273021730591e-09 -0.0010003122385683634 -1.4902564241312065e-08 -5.5343480815760553e-08 -0.0012503519028022872 -5.0392660028305609e-08 5.4666588660437584e-09 -0.0012503522555901371 5.0098381830250705e-09 1.53704372307915e-09 -0.0012503527522594448 4.8047539230595091e-09 1.3835273021730323e-09 -0.0010003122385683636 -2.00361505896915e-08 3.5781778077252235e-08 -0.001000312509648013 5.0098381830250705e-09 1.53704372307915e-09 -0.0012503527522594448 4.80475392305951e-09 1.3835273021730594e-09 -0.0010003122385683636 2.135151194045696e-08 -3.6563403174468744e-08 -0.0010003117577151754 -1.4902564241312065e-08 -5.5343480815760553e-08 -0.0012503519028022872 -5.0392660028305609e-08 5.4666588660437584e-09 -0.0012503522555901371 4.8047539230595091e-09 1.3835273021730616e-09 -0.0010003122385683636 -1.5332156707247823e-08 -5.557078263156626e-08 -0.0010003114627723196 -1.4902564241312065e-08 -5.5343480815760553e-08 -0.0012503519028022872 5.0098381830250705e-09 1.53704372307915e-09 -0.0012503527522594448 5.3688387095432646e-08 -2.0341838728810546e-08 -0.0012503533209120385 2.1351511940456964e-08 -3.656340317446875e-08 -0.0010003117577151754 2.1599132104377037e-08 -3.6340718152095304e-08 -0.0012503529312545313 5.0098381830250705e-09 1.53704372307915e-09 -0.0012503527522594448 5.3688387095432646e-08 -2.0341838728810546e-08 -0.0012503533209120385 4.80475392305951e-09 1.3835273021730594e-09 -0.0010003122385683636 2.1351511940456967e-08 -3.6563403174468744e-08 -0.0010003117577151754 5.0098381830250705e-09 1.53704372307915e-09 -0.0012503527522594448 5.3688387095432646e-08 -2.0341838728810546e-08 -0.0012503533209120385 5.5663874937646958e-08 3.1850266550892001e-08 -0.0010003152137592511 4.80475392305951e-09 1.3835273021730594e-09 -0.0010003122385683636 5.0098381830250705e-09 1.53704372307915e-09 -0.0012503527522594448 5.3688387095432646e-08 -2.0341838728810546e-08 -0.0012503533209120385 5.5613677970623052e-08 3.1977055119901924e-08 -0.0012503558964576838 5.5663874937646958e-08 3.1850266550892001e-08 -0.0010003152137592511 5.5726592024145107e-08 9.6597302399085924e-08 -0.0012503547896749343 9.1849284892257719e-09 5.702267127876627e-08 -0.0012503539995996817 5.5613677970623052e-08 3.1977055119901924e-08 -0.0012503558964576838 5.5663874937646958e-08 3.1850266550892001e-08 -0.0010003152137592511 9.1849284892257669e-09 5.7022671278766277e-08 -0.0012503539995996817 9.250648842242061e-09 5.7020966887921452e-08 -0.0010003139266740717 5.0098381830250705e-09 1.53704372307915e-09 -0.0012503527522594448 5.5663874937646938e-08 3.1850266550892001e-08 -0.0010003152137592509 9.1849284892257669e-09 5.7022671278766277e-08 -0.0012503539995996817 5.0098381830250705e-09 1.53704372307915e-09 -0.0012503527522594448 5.5613677970623052e-08 3.1977055119901924e-08 -0.0012503558964576838 5.5663874937646958e-08 3.1850266550892001e-08 -0.0010003152137592511 9.250648842242061e-09 5.7020966887921452e-08 -0.0010003139266740717 5.0098381830250705e-09 1.53704372307915e-09 -0.0012503527522594448 5.5663874937646958e-08 3.1850266550891994e-08 -0.0010003152137592511 4.80475392305951e-09 1.3835273021730594e-09 -0.0010003122385683636 5.3688387095432646e-08 -2.0341838728810546e-08 -0.0012503533209120385 5.5663874937646978e-08 3.1850266550892001e-08 -0.0010003152137592511 5.3614676939912687e-08 -2.0508976563264996e-08 -0.0010003131369851039 4.8047539230595265e-09 1.3835273021730562e-09 -0.0010003122385683636 5.3688387095432646e-08 -2.0341838728810546e-08 -0.0012503533209120385 5.3614676939912687e-08 -2.0508976563264996e-08 -0.0010003131369851039 4.8047539230595306e-09 1.383527302173068e-09 -0.0010003122385683636 2.1351511940456977e-08 -3.6563403174468757e-08 -0.0010003117577151754 9.1849284892257669e-09 5.7022671278766277e-08 -0.0012503539995996817 -2.4319186993847398e-08 7.1415626688865852e-08 -0.0010003128624644741 9.2506488422420643e-09 5.7020966887921452e-08 -0.001000313926674072 -2.00361505896915e-08 3.5781778077252235e-08 -0.001000312509648013 9.250648842242061e-09 5.7020966887921452e-08 -0.0010003139266740717 5.0098381830250623e-09 1.5370437230791506e-09 -0.0012503527522594446 4.80475392305951e-09 1.3835273021730594e-09 -0.0010003122385683636 -2.00361505896915e-08 3.5781778077252235e-08 -0.001000312509648013 9.250648842242061e-09 5.7020966887921452e-08 -0.0010003139266740717 1.0879332660856873e-08 5.7044345169502243e-08 -0.000750279538386068 4.80475392305951e-09 1.3835273021730594e-09 -0.0010003122385683636 -1.9295948133837482e-08 3.6141544625062981e-08 -0.00075027660235652764 1.0879332660856873e-08 5.7044345169502243e-08 -0.000750279538386068 4.8047539230595017e-09 1.38352730217306e-09 -0.0010003122385683636 4.8934179284867681e-09 1.8440425809457113e-09 -0.00075027640125936257 -1.9295948133837482e-08 3.6141544625062981e-08 -0.00075027660235652764 9.250648842242061e-09 5.7020966887921452e-08 -0.0010003139266740717 -2.3151379976891434e-08 7.1600739785639404e-08 -0.00075027741573168989 1.0879332660856877e-08 5.7044345169502243e-08 -0.00075027953838606811 -1.9295948133837482e-08 3.6141544625062981e-08 -0.00075027660235652764 -5.0656063721682888e-08 5.2355801703302671e-09 -0.0010003121829149793 4.80475392305951e-09 1.3835273021730594e-09 -0.0010003122385683636 -2.00361505896915e-08 3.5781778077252235e-08 -0.001000312509648013 -1.9295948133837482e-08 3.6141544625062981e-08 -0.00075027660235652764 9.250648842242061e-09 5.7020966887921452e-08 -0.0010003139266740717 -2.3151379976891434e-08 7.1600739785639404e-08 -0.00075027741573168989 -2.00361505896915e-08 3.5781778077252235e-08 -0.001000312509648013 -1.9295948133837482e-08 3.6141544625062981e-08 -0.00075027660235652764 9.250648842242061e-09 5.7020966887921452e-08 -0.0010003139266740717 4.80475392305951e-09 1.3835273021730594e-09 -0.0010003122385683636 -2.00361505896915e-08 3.5781778077252235e-08 -0.001000312509648013 -1.9295948133837482e-08 3.6141544625062981e-08 -0.00075027660235652764 4.80475392305951e-09 1.3835273021730594e-09 -0.0010003122385683636 4.8934179284867681e-09 1.8440425809457113e-09 -0.00075027640125936257 2.0978669535449511e-08 -3.6314916553581795e-08 -0.0007502754040159829 -1.5332156707247803e-08 -5.5570782631566253e-08 -0.0010003114627723196 -5.0656063721682888e-08 5.2355801703302671e-09 -0.0010003121829149793 4.8934179284867673e-09 1.8440425809457136e-09 -0.00075027640125936257 -1.6531867352448735e-08 -5.5269525007099131e-08 -0.00075027594242897905 -1.5332156707247803e-08 -5.5570782631566253e-08 -0.0010003114627723196 -5.0656063721682888e-08 5.2355801703302671e-09 -0.0010003121829149793 4.80475392305951e-09 1.3835273021730594e-09 -0.0010003122385683636 4.8934179284867673e-09 1.8440425809457113e-09 -0.00075027640125936246 -1.5332156707247803e-08 -5.5570782631566253e-08 -0.0010003114627723196 -5.0656063721682888e-08 5.2355801703302671e-09 -0.0010003121829149793 4.80475392305951e-09 1.3835273021730594e-09 -0.0010003122385683636 4.8934179284867665e-09 1.8440425809456843e-09 -0.00075027640125936257 -1.9295948133837482e-08 3.6141544625062981e-08 -0.00075027660235652764 5.3614676939912687e-08 -2.0508976563264996e-08 -0.0010003131369851039 4.80475392305951e-09 1.3835273021730594e-09 -0.0010003122385683636 4.8934179284867516e-09 1.8440425809456826e-09 -0.00075027640125936268 2.0978669535449518e-08 -3.6314916553581795e-08 -0.000750275404015983 5.3614676939912687e-08 -2.0508976563264996e-08 -0.0010003131369851039 5.3678577468902889e-08 -1.9711874956717468e-08 -0.00075027778990771664 4.8934179284867888e-09 1.8440425809457202e-09 -0.00075027640125936257 2.0978669535449528e-08 -3.6314916553581808e-08 -0.000750275404015983 5.3614676939912687e-08 -2.0508976563264996e-08 -0.0010003131369851039 4.80475392305951e-09 1.3835273021730594e-09 -0.0010003122385683636 2.0978669535449518e-08 -3.6314916553581795e-08 -0.000750275404015983 2.1351511940456967e-08 -3.6563403174468744e-08 -0.0010003117577151754 5.3614676939912687e-08 -2.0508976563264996e-08 -0.0010003131369851039 4.80475392305951e-09 1.3835273021730594e-09 -0.0010003122385683636 5.6607420557805216e-08 3.2011869204494774e-08 -0.00075028257644920967 4.893417928486778e-09 1.8440425809457279e-09 -0.00075027640125936268 5.3614676939912687e-08 -2.0508976563264996e-08 -0.0010003131369851039 5.6607420557805236e-08 3.2011869204494774e-08 -0.00075028257644920977 5.3678577468902889e-08 -1.9711874956717468e-08 -0.00075027778990771664 4.8934179284867855e-09 1.8440425809457082e-09 -0.00075027640125936257 5.5663874937646958e-08 3.1850266550892001e-08 -0.0010003152137592511 5.3614676939912687e-08 -2.0508976563264996e-08 -0.0010003131369851039 4.80475392305951e-09 1.3835273021730594e-09 -0.0010003122385683636 5.6607420557805216e-08 3.2011869204494774e-08 -0.00075028257644920967 9.250648842242061e-09 5.7020966887921452e-08 -0.0010003139266740717 5.5757026740399019e-08 9.6689658735923656e-08 -0.0010003165854747574 5.5663874937646958e-08 3.1850266550892001e-08 -0.0010003152137592511 5.6607420557805216e-08 3.2011869204494774e-08 -0.00075028257644920967 9.250648842242061e-09 5.7020966887921452e-08 -0.0010003139266740717 1.0879332660856873e-08 5.7044345169502243e-08 -0.000750279538386068 4.80475392305951e-09 1.3835273021730594e-09 -0.0010003122385683636 5.6607420557805196e-08 3.2011869204494774e-08 -0.00075028257644920967 1.0879332660856873e-08 5.7044345169502243e-08 -0.000750279538386068 4.80475392305951e-09 1.3835273021730594e-09 -0.0010003122385683636 5.6607420557805216e-08 3.2011869204494767e-08 -0.00075028257644920956 4.8934179284867681e-09 1.8440425809457113e-09 -0.00075027640125936257 9.250648842242061e-09 5.7020966887921452e-08 -0.0010003139266740717 5.5663874937646958e-08 3.1850266550892007e-08 -0.0010003152137592511 4.80475392305951e-09 1.3835273021730594e-09 -0.0010003122385683636 5.6607420557805216e-08 3.2011869204494774e-08 -0.00075028257644920967 5.7243456389946882e-08 3.4702788540771756e-08 -0.00050025573264684165 1.2958524805010279e-08 5.6981117399105672e-08 -0.00050024595673330951 1.0879332660856873e-08 5.7044345169502243e-08 -0.000750279538386068 4.8934179284867681e-09 1.8440425809457113e-09 -0.00075027640125936257 5.7243456389946882e-08 3.4702788540771756e-08 -0.00050025573264684165 1.0879332660856893e-08 5.7044345169502237e-08 -0.000750279538386068 5.7208702160647518e-08 9.5795927573098634e-08 -0.00075028641821071993 5.6607420557805216e-08 3.2011869204494774e-08 -0.00075028257644920967 5.7243456389946882e-08 3.4702788540771756e-08 -0.00050025573264684165 1.0879332660856885e-08 5.7044345169502223e-08 -0.000750279538386068 5.6607420557805216e-08 3.2011869204494774e-08 -0.00075028257644920967 4.8934179284867681e-09 1.8440425809457113e-09 -0.00075027640125936257 2.1896623742260874e-08 -3.3945269622491739e-08 -0.00050023625603700717 5.2846911087512928e-09 3.3976416734059113e-09 -0.00050024025274755183 5.3678577468902869e-08 -1.9711874956717481e-08 -0.00075027778990771675 4.8934179284867681e-09 1.8440425809457113e-09 -0.00075027640125936257 2.1896623742260874e-08 -3.3945269622491739e-08 -0.00050023625603700717 5.3678577468902902e-08 -1.9711874956717438e-08 -0.00075027778990771664 4.893417928486764e-09 1.8440425809457064e-09 -0.00075027640125936257 2.0978669535449518e-08 -3.6314916553581795e-08 -0.000750275404015983 5.2846911087512928e-09 3.3976416734059113e-09 -0.00050024025274755183 5.7243456389946882e-08 3.4702788540771756e-08 -0.00050025573264684165 5.3678577468902869e-08 -1.9711874956717448e-08 -0.00075027778990771664 4.8934179284867681e-09 1.8440425809457113e-09 -0.00075027640125936257 5.7243456389946882e-08 3.4702788540771756e-08 -0.00050025573264684165 5.6607420557805216e-08 3.2011869204494774e-08 -0.00075028257644920967 5.3678577468902909e-08 -1.9711874956717468e-08 -0.00075027778990771675 4.893417928486759e-09 1.8440425809457302e-09 -0.00075027640125936268 -1.9840411596693153e-08 3.6185590980375639e-08 -0.00050023862220980534 5.2846911087512928e-09 3.3976416734059113e-09 -0.00050024025274755183 4.8934179284867681e-09 1.8440425809457113e-09 -0.00075027640125936257 -5.0721136043547385e-08 5.2339010300317473e-09 -0.00075027703796391135 5.2846911087512928e-09 3.3976416734059113e-09 -0.00050024025274755183 4.8934179284867681e-09 1.8440425809457113e-09 -0.00075027640125936257 -5.0721136043547398e-08 5.2339010300317366e-09 -0.00075027703796391135 -1.6531867352448731e-08 -5.5269525007099118e-08 -0.00075027594242897916 -1.7767082324793982e-08 -5.569908224591238e-08 -0.00050024083700368923 5.2846911087512928e-09 3.3976416734059113e-09 -0.00050024025274755183 -5.0721136043547418e-08 5.2339010300317614e-09 -0.00075027703796391146 -1.6531867352448718e-08 -5.5269525007099124e-08 -0.00075027594242897916 2.1896623742260874e-08 -3.3945269622491739e-08 -0.00050023625603700717 5.2846911087512928e-09 3.3976416734059113e-09 -0.00050024025274755183 4.8934179284867474e-09 1.8440425809457008e-09 -0.00075027640125936257 -1.6531867352448695e-08 -5.5269525007099111e-08 -0.00075027594242897916 -1.9840411596693153e-08 3.6185590980375639e-08 -0.00050023862220980534 -2.5386416179342895e-08 6.9257409753424634e-08 -0.00050024065343349914 1.0879332660856873e-08 5.7044345169502243e-08 -0.000750279538386068 -1.9295948133837482e-08 3.6141544625062981e-08 -0.00075027660235652764 -1.9840411596693153e-08 3.6185590980375639e-08 -0.00050023862220980534 4.8934179284867681e-09 1.8440425809457113e-09 -0.00075027640125936257 -1.9295948133837482e-08 3.6141544625062981e-08 -0.00075027660235652764 -5.0721136043547385e-08 5.2339010300317473e-09 -0.00075027703796391135 -1.9840411596693153e-08 3.6185590980375639e-08 -0.00050023862220980534 1.2958524805010279e-08 5.6981117399105672e-08 -0.00050024595673330951 1.0879332660856873e-08 5.7044345169502243e-08 -0.000750279538386068 4.8934179284867681e-09 1.8440425809457113e-09 -0.00075027640125936257 -1.9840411596693153e-08 3.6185590980375639e-08 -0.00050023862220980534 1.0879332660856873e-08 5.7044345169502243e-08 -0.000750279538386068 4.8934179284867681e-09 1.8440425809457113e-09 -0.00075027640125936257 -1.9295948133837482e-08 3.6141544625062981e-08 -0.00075027660235652764 -5.1285251442035191e-08 5.0050822492179246e-08 -0.00050023980822741466 -4.8847481222423015e-08 5.3221149838826364e-08 -0.00075027658629522518 -9.5744835651498368e-08 5.7468822272508207e-08 -0.00075027895345600539 -5.0721136043547385e-08 5.2339010300317473e-09 -0.00075027703796391135 -5.1285251442035191e-08 5.0050822492179246e-08 -0.00050023980822741466 -2.3151379976891434e-08 7.1600739785639404e-08 -0.00075027741573168989 -1.9295948133837482e-08 3.6141544625062981e-08 -0.00075027660235652764 -4.8847481222423015e-08 5.3221149838826364e-08 -0.00075027658629522518 -5.093619790756979e-08 3.0296488984931981e-09 -0.00050024276710527679 -5.1285251442035191e-08 5.0050822492179246e-08 -0.00050023980822741466 -9.5744835651498368e-08 5.7468822272508207e-08 -0.00075027895345600539 -5.0721136043547385e-08 5.2339010300317473e-09 -0.00075027703796391135 -5.1285251442035191e-08 5.0050822492179246e-08 -0.00050023980822741466 -1.9840411596693153e-08 3.6185590980375639e-08 -0.00050023862220980534 -1.9295948133837482e-08 3.6141544625062981e-08 -0.00075027660235652764 -5.0721136043547385e-08 5.2339010300317473e-09 -0.00075027703796391135 -5.1285251442035191e-08 5.0050822492179246e-08 -0.00050023980822741466 -1.9295948133837495e-08 3.6141544625062961e-08 -0.00075027660235652775 -4.8847481222423015e-08 5.3221149838826364e-08 -0.00075027658629522518 -5.0721136043547385e-08 5.2339010300317473e-09 -0.00075027703796391135 -5.093619790756979e-08 3.0296488984931981e-09 -0.00050024276710527679 -9.5744835651498368e-08 5.7468822272508207e-08 -0.00075027895345600539 -1.1167746200352512e-07 1.9373243846998493e-09 -0.00075028026692584295 -5.0721136043547385e-08 5.2339010300317473e-09 -0.00075027703796391135 -5.093619790756979e-08 3.0296488984931981e-09 -0.00050024276710527679 -1.0132617969664929e-07 4.3164325714146511e-08 -0.00050024831347223982 -9.5744835651498368e-08 5.7468822272508207e-08 -0.00075027895345600539 -1.1167746200352512e-07 1.9373243846998493e-09 -0.00075028026692584295 -9.6695411103139551e-08 5.5732469279275636e-08 -0.0010003127968578006 -1.1160038235988258e-07 -1.0284684232157848e-10 -0.0010003129599950914 -5.0656063721682895e-08 5.2355801703302613e-09 -0.0010003121829149791 -5.0721136043547385e-08 5.2339010300317473e-09 -0.00075027703796391135 -9.6695411103139551e-08 5.5732469279275636e-08 -0.0010003127968578006 -4.8847481222423042e-08 5.3221149838826364e-08 -0.00075027658629522507 -9.5744835651498368e-08 5.7468822272508207e-08 -0.00075027895345600539 -5.0721136043547385e-08 5.2339010300317473e-09 -0.00075027703796391135 -1.1160038235988258e-07 -1.0284684232157791e-10 -0.0010003129599950914 -9.5744835651498381e-08 5.746882227250822e-08 -0.00075027895345600539 -1.1167746200352512e-07 1.9373243846998493e-09 -0.00075028026692584295 -5.0721136043547385e-08 5.2339010300317473e-09 -0.00075027703796391135 -9.6695411103139551e-08 5.5732469279275636e-08 -0.0010003127968578006 -1.1160038235988258e-07 -1.0284684232157871e-10 -0.0010003129599950914 -9.5744835651498368e-08 5.7468822272508207e-08 -0.00075027895345600539 -5.0721136043547385e-08 5.2339010300317473e-09 -0.00075027703796391135 -2.4319186993847398e-08 7.1415626688865852e-08 -0.0010003128624644741 -4.9533560941169903e-08 5.2955724632910932e-08 -0.0010003122523988292 -2.00361505896915e-08 3.5781778077252235e-08 -0.001000312509648013 -4.8847481222423015e-08 5.3221149838826364e-08 -0.00075027658629522518 -9.6695411103139551e-08 5.5732469279275636e-08 -0.0010003127968578006 -5.0656063721682888e-08 5.2355801703302671e-09 -0.0010003121829149793 -4.9533560941169903e-08 5.2955724632910932e-08 -0.0010003122523988292 -4.8847481222423015e-08 5.3221149838826364e-08 -0.00075027658629522518 -2.3151379976891434e-08 7.1600739785639404e-08 -0.00075027741573168989 -2.00361505896915e-08 3.5781778077252235e-08 -0.001000312509648013 -1.9295948133837482e-08 3.6141544625062981e-08 -0.00075027660235652764 -4.8847481222423015e-08 5.3221149838826364e-08 -0.00075027658629522518 -5.0656063721682888e-08 5.2355801703302671e-09 -0.0010003121829149793 -4.9533560941169903e-08 5.2955724632910932e-08 -0.0010003122523988292 -2.00361505896915e-08 3.5781778077252235e-08 -0.001000312509648013 -4.8847481222423015e-08 5.3221149838826364e-08 -0.00075027658629522518 -5.0656063721682888e-08 5.2355801703302671e-09 -0.0010003121829149793 -1.9295948133837498e-08 3.6141544625063007e-08 -0.00075027660235652764 -4.8847481222423015e-08 5.3221149838826364e-08 -0.00075027658629522518 -5.0721136043547385e-08 5.2339010300317473e-09 -0.00075027703796391135 -5.0656063721682888e-08 5.2355801703302671e-09 -0.0010003121829149793 -2.00361505896915e-08 3.5781778077252235e-08 -0.001000312509648013 -1.9295948133837482e-08 3.6141544625062981e-08 -0.00075027660235652764 -4.8847481222423015e-08 5.3221149838826364e-08 -0.00075027658629522518 -9.6695411103139551e-08 5.5732469279275636e-08 -0.0010003127968578006 -5.0656063721682888e-08 5.2355801703302671e-09 -0.0010003121829149793 -4.8847481222423015e-08 5.3221149838826364e-08 -0.00075027658629522518 -5.0721136043547385e-08 5.2339010300317473e-09 -0.00075027703796391135 -5.0656063721682888e-08 5.2355801703302671e-09 -0.0010003121829149793 4.8934179284867962e-09 1.8440425809457056e-09 -0.00075027640125936257 -5.0721136043547385e-08 5.2339010300317473e-09 -0.00075027703796391135 -1.6531867352448691e-08 -5.5269525007099137e-08 -0.00075027594242897916 -5.0656063721682888e-08 5.2355801703302671e-09 -0.0010003121829149793 4.8934179284867921e-09 1.8440425809456962e-09 -0.00075027640125936257 -1.9295948133837482e-08 3.6141544625062981e-08 -0.00075027660235652764 -5.0721136043547385e-08 5.2339010300317473e-09 -0.00075027703796391135 -5.0656063721682888e-08 5.2355801703302671e-09 -0.0010003121829149793 -5.0721136043547385e-08 5.2339010300317473e-09 -0.00075027703796391135 -6.6869673257427587e-08 -4.0020056334508513e-08 -0.00075027721497633582 -1.6531867352448688e-08 -5.5269525007099144e-08 -0.00075027594242897927 -1.1160038235988258e-07 -1.0284684232157791e-10 -0.0010003129599950914 -1.1167746200352512e-07 1.9373243846998493e-09 -0.00075028026692584295 -6.6869673257427601e-08 -4.0020056334508513e-08 -0.00075027721497633582 -9.6577042857137506e-08 -5.5895281988001906e-08 -0.0010003115964807912 -1.1160038235988258e-07 -1.0284684232157791e-10 -0.0010003129599950914 -5.0656063721682888e-08 5.2355801703302671e-09 -0.0010003121829149793 -6.6869673257427601e-08 -4.0020056334508513e-08 -0.00075027721497633582 -6.6134383413309437e-08 -4.0512149139419317e-08 -0.001000311721138568 -1.1160038235988258e-07 -1.0284684232157791e-10 -0.0010003129599950914 -1.1167746200352512e-07 1.9373243846998493e-09 -0.00075028026692584295 -5.0721136043547372e-08 5.233901030031768e-09 -0.00075027703796391135 -6.6869673257427614e-08 -4.0020056334508533e-08 -0.00075027721497633582 -1.1160038235988258e-07 -1.0284684232157791e-10 -0.0010003129599950914 -5.0656063721682888e-08 5.2355801703302671e-09 -0.0010003121829149793 -5.0721136043547385e-08 5.2339010300317473e-09 -0.00075027703796391135 -6.6869673257427601e-08 -4.0020056334508513e-08 -0.00075027721497633582 -6.5685885136200082e-08 -4.349382297905789e-08 -0.00050024550998184274 -1.0916633378510818e-07 -1.3238966797250331e-08 -0.00050025404021852653 -1.1167746200352512e-07 1.9373243846998493e-09 -0.00075028026692584295 -9.7769179646191093e-08 -5.4078258483497152e-08 -0.000750277029422064 -6.5685885136200082e-08 -4.349382297905789e-08 -0.00050024550998184274 -5.093619790756979e-08 3.0296488984931981e-09 -0.00050024276710527679 -1.1167746200352512e-07 1.9373243846998493e-09 -0.00075028026692584295 -5.0721136043547385e-08 5.2339010300317473e-09 -0.00075027703796391135 -6.5685885136200082e-08 -4.349382297905789e-08 -0.00050024550998184274 -1.1167746200352512e-07 1.9373243846998493e-09 -0.00075028026692584295 -5.0721136043547378e-08 5.2339010300317572e-09 -0.00075027703796391146 -6.6869673257427601e-08 -4.0020056334508513e-08 -0.00075027721497633582 -1.7767082324793982e-08 -5.569908224591238e-08 -0.00050024083700368923 -6.5685885136200082e-08 -4.349382297905789e-08 -0.00050024550998184274 -5.0721136043547378e-08 5.2339010300317779e-09 -0.00075027703796391146 -1.6531867352448718e-08 -5.5269525007099124e-08 -0.00075027594242897916 -6.5685885136200082e-08 -4.349382297905789e-08 -0.00050024550998184274 -5.0721136043547425e-08 5.2339010300317366e-09 -0.00075027703796391135 -6.6869673257427601e-08 -4.0020056334508513e-08 -0.00075027721497633582 -1.6531867352448678e-08 -5.5269525007099144e-08 -0.00075027594242897916 -1.7767082324793982e-08 -5.569908224591238e-08 -0.00050024083700368923 -6.5685885136200082e-08 -4.349382297905789e-08 -0.00050024550998184274 -5.717013131118409e-08 -9.5807844151281563e-08 -0.00075027874210764503 -1.6531867352448718e-08 -5.5269525007099124e-08 -0.00075027594242897916 -6.5685885136200082e-08 -4.349382297905789e-08 -0.00050024550998184274 -6.6869673257427601e-08 -4.0020056334508513e-08 -0.00075027721497633582 -5.7170131311184103e-08 -9.5807844151281577e-08 -0.00075027874210764503 -1.6531867352448678e-08 -5.5269525007099098e-08 -0.00075027594242897916 -6.5685885136200082e-08 -4.349382297905789e-08 -0.00050024550998184274 -6.6869673257427601e-08 -4.0020056334508513e-08 -0.00075027721497633582 -9.776917964619108e-08 -5.4078258483497165e-08 -0.000750277029422064 -5.7170131311184116e-08 -9.5807844151281563e-08 -0.00075027874210764503 -6.5685885136200082e-08 -4.349382297905789e-08 -0.00050024550998184274 -1.1167746200352512e-07 1.9373243846998493e-09 -0.00075028026692584295 -6.6869673257427601e-08 -4.0020056334508513e-08 -0.00075027721497633582 -9.7769179646191093e-08 -5.4078258483497152e-08 -0.000750277029422064 -8.7987077512767919e-08 -6.6310177696223889e-08 -0.00050024682621771326 -6.5685885136200082e-08 -4.3493822979057883e-08 -0.00050024550998184274 -9.7769179646191093e-08 -5.4078258483497152e-08 -0.000750277029422064 -5.717013131118409e-08 -9.5807844151281563e-08 -0.00075027874210764503 -6.6869673257427601e-08 -4.0020056334508513e-08 -0.00075027721497633582 -9.7769179646191093e-08 -5.4078258483497152e-08 -0.000750277029422064 -5.5762200726509447e-08 -9.6690174013519119e-08 -0.0010003120266235293 -9.6577042857137493e-08 -5.5895281988001913e-08 -0.0010003115964807912 -1.1167746200352512e-07 1.9373243846998493e-09 -0.00075028026692584295 -6.6869673257427601e-08 -4.0020056334508513e-08 -0.00075027721497633582 -9.7769179646191093e-08 -5.4078258483497152e-08 -0.000750277029422064 -9.6577042857137506e-08 -5.5895281988001906e-08 -0.0010003115964807912 -1.1160038235988258e-07 -1.0284684232157791e-10 -0.0010003129599950914 -6.6869673257427627e-08 -4.0020056334508513e-08 -0.00075027721497633571 -6.613438341330945e-08 -4.0512149139419324e-08 -0.001000311721138568 -9.6577042857137506e-08 -5.5895281988001906e-08 -0.0010003115964807912 -6.6869673257427601e-08 -4.0020056334508513e-08 -0.00075027721497633582 -5.5762200726509467e-08 -9.6690174013519119e-08 -0.0010003120266235293 -6.6134383413309437e-08 -4.0512149139419317e-08 -0.001000311721138568 -9.6577042857137506e-08 -5.589528198800192e-08 -0.0010003115964807912 -6.6869673257427601e-08 -4.0020056334508513e-08 -0.00075027721497633582 -1.5332156707247773e-08 -5.557078263156624e-08 -0.0010003114627723196 -5.5762200726509454e-08 -9.6690174013519119e-08 -0.0010003120266235291 -6.6134383413309437e-08 -4.0512149139419317e-08 -0.001000311721138568 -5.0656063721682888e-08 5.2355801703302671e-09 -0.0010003121829149793 -6.6869673257427587e-08 -4.0020056334508513e-08 -0.00075027721497633582 -1.5332156707247803e-08 -5.5570782631566253e-08 -0.0010003114627723196 -6.6134383413309437e-08 -4.0512149139419317e-08 -0.001000311721138568 -6.6869673257427601e-08 -4.0020056334508513e-08 -0.00075027721497633582 -1.6531867352448718e-08 -5.5269525007099124e-08 -0.00075027594242897916 -1.5332156707247803e-08 -5.5570782631566253e-08 -0.0010003114627723196 -5.5762200726509441e-08 -9.6690174013519132e-08 -0.0010003120266235293 -5.0656063721682888e-08 5.2355801703302671e-09 -0.0010003121829149793 -6.6869673257427601e-08 -4.0020056334508513e-08 -0.00075027721497633571 -1.6531867352448682e-08 -5.5269525007099104e-08 -0.00075027594242897905 -1.5332156707247803e-08 -5.5570782631566253e-08 -0.0010003114627723196 -6.6869673257427601e-08 -4.0020056334508513e-08 -0.00075027721497633582 -5.717013131118409e-08 -9.5807844151281563e-08 -0.00075027874210764503 -1.6531867352448718e-08 -5.5269525007099124e-08 -0.00075027594242897916 -5.5762200726509441e-08 -9.6690174013519132e-08 -0.0010003120266235293 -6.6869673257427601e-08 -4.0020056334508513e-08 -0.00075027721497633582 -9.7769179646191093e-08 -5.4078258483497152e-08 -0.000750277029422064 -5.717013131118409e-08 -9.5807844151281563e-08 -0.00075027874210764503 -5.5762200726509441e-08 -9.6690174013519132e-08 -0.0010003120266235293 -5.717013131118409e-08 -9.5807844151281563e-08 -0.00075027874210764503 -1.6531867352448715e-08 -5.5269525007099124e-08 -0.00075027594242897916 8.6511311437811713e-11 -1.1160520446687536e-07 -0.001000311086200535 -5.5762200726509441e-08 -9.6690174013519132e-08 -0.0010003120266235293 -1.7767082324793982e-08 -5.569908224591238e-08 -0.00050024083700368923 -4.4958730800241814e-08 -1.0091876311010866e-07 -0.00050025161271365309 -5.717013131118407e-08 -9.5807844151281577e-08 -0.00075027874210764503 -1.935921390085314e-09 -1.116514784716204e-07 -0.00075027557098401247 2.1585867138449513e-08 -7.3840220254201439e-08 -0.00050023715947512197 -1.7767082324793982e-08 -5.569908224591238e-08 -0.00050024083700368923 -1.935921390085331e-09 -1.1165147847162037e-07 -0.00075027557098401247 -1.6531867352448718e-08 -5.5269525007099124e-08 -0.00075027594242897916 -1.7767082324793982e-08 -5.569908224591238e-08 -0.00050024083700368923 -5.7170131311184083e-08 -9.5807844151281577e-08 -0.00075027874210764503 -1.9359213900853405e-09 -1.1165147847162039e-07 -0.00075027557098401247 -1.6531867352448718e-08 -5.5269525007099124e-08 -0.00075027594242897916 2.1585867138449513e-08 -7.3840220254201439e-08 -0.00050023715947512197 -1.935921390085331e-09 -1.1165147847162037e-07 -0.00075027557098401247 -1.6531867352448718e-08 -5.5269525007099124e-08 -0.00075027594242897916 1.9438015008365188e-08 -7.5938936902513495e-08 -0.00075027510874085509 2.1585867138449513e-08 -7.3840220254201439e-08 -0.00050023715947512197 2.1896623742260874e-08 -3.3945269622491739e-08 -0.00050023625603700717 -1.6531867352448718e-08 -5.5269525007099124e-08 -0.00075027594242897916 1.9438015008365188e-08 -7.5938936902513495e-08 -0.00075027510874085509 2.1896623742260874e-08 -3.3945269622491739e-08 -0.00050023625603700717 4.8934179284867483e-09 1.8440425809457014e-09 -0.00075027640125936257 -1.6531867352448721e-08 -5.5269525007099098e-08 -0.00075027594242897916 2.0978669535449518e-08 -3.6314916553581795e-08 -0.000750275404015983 2.1896623742260874e-08 -3.3945269622491739e-08 -0.00050023625603700717 -1.6531867352448708e-08 -5.5269525007099151e-08 -0.00075027594242897916 2.0978669535449518e-08 -3.6314916553581795e-08 -0.000750275404015983 1.9438015008365188e-08 -7.5938936902513495e-08 -0.00075027510874085509 5.1803901636580653e-08 -5.3004591355834428e-08 -0.00050023749207261069 5.3678577468902856e-08 -1.9711874956717465e-08 -0.00075027778990771664 4.9149322269646304e-08 -5.6871079928545537e-08 -0.00075027559069660297 2.0978669535449541e-08 -3.6314916553581782e-08 -0.000750275404015983 2.1896623742260874e-08 -3.3945269622491739e-08 -0.00050023625603700717 5.1803901636580653e-08 -5.3004591355834428e-08 -0.00050023749207261069 5.3678577468902889e-08 -1.9711874956717468e-08 -0.00075027778990771664 2.0978669535449518e-08 -3.6314916553581795e-08 -0.000750275404015983 5.1803901636580653e-08 -5.3004591355834428e-08 -0.00050023749207261069 4.9149322269646304e-08 -5.6871079928545537e-08 -0.00075027559069660297 2.0978669535449518e-08 -3.6314916553581795e-08 -0.000750275404015983 1.9438015008365188e-08 -7.5938936902513495e-08 -0.00075027510874085509 2.1896623742260874e-08 -3.3945269622491739e-08 -0.00050023625603700717 5.1803901636580653e-08 -5.3004591355834428e-08 -0.00050023749207261069 2.0978669535449518e-08 -3.6314916553581795e-08 -0.000750275404015983 1.9438015008365188e-08 -7.5938936902513495e-08 -0.00075027510874085509 2.1585867138449513e-08 -7.3840220254201439e-08 -0.00050023715947512197 1.3426780551283992e-08 -1.0928201407954963e-07 -0.00050024200001112188 5.4071423931897867e-08 -9.7713407703388604e-08 -0.0007502751787797974 -1.935921390085331e-09 -1.1165147847162037e-07 -0.00075027557098401247 2.1585867138449513e-08 -7.3840220254201439e-08 -0.00050023715947512197 5.4071423931897867e-08 -9.7713407703388604e-08 -0.0007502751787797974 -1.935921390085331e-09 -1.1165147847162037e-07 -0.00075027557098401247 1.9438015008365188e-08 -7.5938936902513495e-08 -0.00075027510874085509 5.1803901636580653e-08 -5.3004591355834428e-08 -0.00050023749207261069 5.4071423931897894e-08 -9.7713407703388591e-08 -0.0007502751787797974 4.914932226964631e-08 -5.6871079928545544e-08 -0.00075027559069660297 1.9438015008365188e-08 -7.5938936902513495e-08 -0.00075027510874085509 2.1585867138449513e-08 -7.3840220254201439e-08 -0.00050023715947512197 5.1803901636580653e-08 -5.3004591355834428e-08 -0.00050023749207261069 5.4071423931897867e-08 -9.7713407703388604e-08 -0.0007502751787797974 1.9438015008365188e-08 -7.5938936902513495e-08 -0.00075027510874085509 5.5901298188822756e-08 -9.6592706613398975e-08 -0.0010003114005871546 1.9438015008365188e-08 -7.5938936902513495e-08 -0.00075027510874085509 8.6511311437796462e-11 -1.1160520446687533e-07 -0.0010003110862005352 2.0266107503662961e-08 -7.6078457111241345e-08 -0.0010003112351112103 5.4071423931897867e-08 -9.7713407703388604e-08 -0.0007502751787797974 5.5901298188822756e-08 -9.6592706613398975e-08 -0.0010003114005871546 4.9149322269646304e-08 -5.6871079928545537e-08 -0.00075027559069660297 1.9438015008365188e-08 -7.5938936902513495e-08 -0.00075027510874085509 5.5901298188822756e-08 -9.6592706613398975e-08 -0.0010003114005871546 4.9149322269646304e-08 -5.6871079928545537e-08 -0.00075027559069660297 1.9438015008365188e-08 -7.5938936902513495e-08 -0.00075027510874085509 2.0266107503662961e-08 -7.6078457111241345e-08 -0.0010003112351112103 5.5901298188822756e-08 -9.6592706613398975e-08 -0.0010003114005871546 4.9149322269646304e-08 -5.6871079928545537e-08 -0.00075027559069660297 4.9585571261346931e-08 -5.7069333746979063e-08 -0.001000311771530339 2.0266107503662961e-08 -7.6078457111241345e-08 -0.0010003112351112103 5.4071423931897867e-08 -9.7713407703388604e-08 -0.0007502751787797974 5.5901298188822756e-08 -9.6592706613398975e-08 -0.0010003114005871546 -1.9359213900853339e-09 -1.1165147847162037e-07 -0.00075027557098401247 1.9438015008365188e-08 -7.5938936902513495e-08 -0.00075027510874085509 5.5901298188822756e-08 -9.6592706613398975e-08 -0.0010003114005871546 -1.9359213900853438e-09 -1.1165147847162037e-07 -0.00075027557098401247 1.9438015008365188e-08 -7.5938936902513495e-08 -0.00075027510874085509 8.6511311437796462e-11 -1.1160520446687533e-07 -0.0010003110862005352 4.9149322269646304e-08 -5.6871079928545537e-08 -0.00075027559069660297 2.0978669535449518e-08 -3.6314916553581795e-08 -0.000750275404015983 2.1351511940456967e-08 -3.6563403174468744e-08 -0.0010003117577151754 2.0266107503662961e-08 -7.6078457111241345e-08 -0.0010003112351112103 5.3614676939912687e-08 -2.0508976563264996e-08 -0.0010003131369851039 4.9149322269646304e-08 -5.6871079928545537e-08 -0.00075027559069660297 2.0978669535449518e-08 -3.6314916553581795e-08 -0.000750275404015983 2.1351511940456967e-08 -3.6563403174468744e-08 -0.0010003117577151754 5.3614676939912687e-08 -2.0508976563264996e-08 -0.0010003131369851039 5.3678577468902889e-08 -1.9711874956717468e-08 -0.00075027778990771664 4.9149322269646304e-08 -5.6871079928545537e-08 -0.00075027559069660297 2.0978669535449518e-08 -3.6314916553581795e-08 -0.000750275404015983 5.3614676939912687e-08 -2.0508976563264996e-08 -0.0010003131369851039 4.9149322269646304e-08 -5.6871079928545537e-08 -0.00075027559069660297 4.9585571261346931e-08 -5.7069333746979063e-08 -0.001000311771530339 2.1351511940456967e-08 -3.6563403174468744e-08 -0.0010003117577151754 4.9149322269646304e-08 -5.6871079928545537e-08 -0.00075027559069660297 4.9585571261346931e-08 -5.7069333746979063e-08 -0.001000311771530339 2.1351511940456967e-08 -3.6563403174468744e-08 -0.0010003117577151754 2.0266107503662961e-08 -7.6078457111241345e-08 -0.0010003112351112103 4.9149322269646304e-08 -5.6871079928545537e-08 -0.00075027559069660297 2.0978669535449518e-08 -3.6314916553581795e-08 -0.000750275404015983 1.9438015008365188e-08 -7.5938936902513495e-08 -0.00075027510874085509 2.0266107503662961e-08 -7.6078457111241345e-08 -0.0010003112351112103 4.80475392305951e-09 1.3835273021730594e-09 -0.0010003122385683636 2.0978669535449524e-08 -3.6314916553581795e-08 -0.000750275404015983 -1.5332156707247803e-08 -5.5570782631566253e-08 -0.0010003114627723196 2.1351511940456967e-08 -3.6563403174468744e-08 -0.0010003117577151754 4.8934179284867681e-09 1.8440425809457113e-09 -0.00075027640125936257 -1.6531867352448718e-08 -5.5269525007099124e-08 -0.00075027594242897916 2.0978669535449518e-08 -3.6314916553581795e-08 -0.000750275404015983 -1.5332156707247803e-08 -5.5570782631566253e-08 -0.0010003114627723196 2.0978669535449518e-08 -3.6314916553581795e-08 -0.000750275404015983 -1.533215670724779e-08 -5.557078263156628e-08 -0.0010003114627723194 2.1351511940456967e-08 -3.6563403174468744e-08 -0.0010003117577151754 2.0266107503662961e-08 -7.6078457111241345e-08 -0.0010003112351112103 -1.6531867352448718e-08 -5.5269525007099124e-08 -0.00075027594242897916 2.0978669535449518e-08 -3.6314916553581795e-08 -0.000750275404015983 1.9438015008365188e-08 -7.5938936902513495e-08 -0.00075027510874085509 -1.5332156707247803e-08 -5.5570782631566253e-08 -0.0010003114627723196 2.0978669535449518e-08 -3.6314916553581795e-08 -0.000750275404015983 1.9438015008365188e-08 -7.5938936902513495e-08 -0.00075027510874085509 -1.5332156707247803e-08 -5.5570782631566253e-08 -0.0010003114627723196 2.0266107503662961e-08 -7.6078457111241345e-08 -0.0010003112351112103 1.9438015008365188e-08 -7.5938936902513495e-08 -0.00075027510874085509 8.6511311437796462e-11 -1.1160520446687533e-07 -0.0010003110862005352 -1.5332156707247803e-08 -5.5570782631566253e-08 -0.0010003114627723196 2.0266107503662961e-08 -7.6078457111241345e-08 -0.0010003112351112103 -1.935921390085331e-09 -1.1165147847162037e-07 -0.00075027557098401247 -1.6531867352448718e-08 -5.5269525007099124e-08 -0.00075027594242897916 1.9438015008365188e-08 -7.5938936902513495e-08 -0.00075027510874085509 8.6511311437796462e-11 -1.1160520446687533e-07 -0.0010003110862005352 -1.6531867352448718e-08 -5.5269525007099124e-08 -0.00075027594242897916 1.9438015008365188e-08 -7.5938936902513495e-08 -0.00075027510874085509 8.6511311437782749e-11 -1.1160520446687536e-07 -0.0010003110862005352 -1.5332156707247803e-08 -5.5570782631566253e-08 -0.0010003114627723196 -5.717013131118409e-08 -9.5807844151281563e-08 -0.00075027874210764503 -1.9359213900853277e-09 -1.1165147847162036e-07 -0.00075027557098401247 -1.6531867352448718e-08 -5.5269525007099124e-08 -0.00075027594242897916 8.6511311437796992e-11 -1.1160520446687533e-07 -0.0010003110862005352 -1.6531867352448718e-08 -5.5269525007099124e-08 -0.00075027594242897916 8.6511311437778471e-11 -1.1160520446687537e-07 -0.0010003110862005352 -1.5332156707247803e-08 -5.5570782631566253e-08 -0.0010003114627723196 -5.5762200726509421e-08 -9.6690174013519132e-08 -0.0010003120266235293 8.6511311437796462e-11 -1.1160520446687533e-07 -0.0010003110862005352 -1.5332156707247803e-08 -5.5570782631566253e-08 -0.0010003114627723196 2.0266107503662961e-08 -7.6078457111241345e-08 -0.0010003112351112103 4.4996456782024625e-11 -1.1151411010610736e-07 -0.0012503508623697107 8.6511311437796462e-11 -1.1160520446687533e-07 -0.0010003110862005352 -1.5332156707247803e-08 -5.5570782631566253e-08 -0.0010003114627723196 4.4996456782024625e-11 -1.1151411010610736e-07 -0.0012503508623697107 -5.5762200726509441e-08 -9.6690174013519132e-08 -0.0010003120266235293 -1.5332156707247803e-08 -5.5570782631566253e-08 -0.0010003114627723196 2.1351511940456967e-08 -3.6563403174468744e-08 -0.0010003117577151754 2.0266107503662961e-08 -7.6078457111241345e-08 -0.0010003112351112103 -1.4902564241312065e-08 -5.5343480815760553e-08 -0.0012503519028022872 4.80475392305951e-09 1.3835273021730594e-09 -0.0010003122385683636 -1.5332156707247803e-08 -5.5570782631566253e-08 -0.0010003114627723196 2.1351511940456967e-08 -3.6563403174468744e-08 -0.0010003117577151754 -1.4902564241312065e-08 -5.5343480815760553e-08 -0.0012503519028022872 5.3688387095432646e-08 -2.0341838728810546e-08 -0.0012503533209120385 5.3614676939912687e-08 -2.0508976563264996e-08 -0.0010003131369851039 4.9585571261346931e-08 -5.7069333746979063e-08 -0.001000311771530339 2.1351511940456967e-08 -3.6563403174468744e-08 -0.0010003117577151754 4.9585571261346931e-08 -5.7069333746979063e-08 -0.001000311771530339 2.1351511940456967e-08 -3.6563403174468744e-08 -0.0010003117577151754 2.0266107503662961e-08 -7.6078457111241345e-08 -0.0010003112351112103 2.0518452117587166e-08 -7.5806587003085115e-08 -0.0012503520670657387 5.5901298188822756e-08 -9.6592706613398975e-08 -0.0010003114005871546 5.5799262954826988e-08 -9.6554547136401545e-08 -0.0012503516197913676 4.9585571261346931e-08 -5.7069333746979063e-08 -0.001000311771530339 2.0266107503662961e-08 -7.6078457111241345e-08 -0.0010003112351112103 5.5901298188822756e-08 -9.6592706613398975e-08 -0.0010003114005871546 5.5799262954826988e-08 -9.6554547136401545e-08 -0.0012503516197913676 8.6511311437793205e-11 -1.1160520446687533e-07 -0.001000311086200535 2.0266107503662961e-08 -7.6078457111241345e-08 -0.0010003112351112103 5.5799262954826988e-08 -9.6554547136401545e-08 -0.0012503516197913676 4.9585571261346931e-08 -5.7069333746979063e-08 -0.001000311771530339 2.0518452117587166e-08 -7.5806587003085115e-08 -0.0012503520670657387 4.9644637820186892e-08 -5.6792350400627429e-08 -0.0012503531530596731 5.5799262954826988e-08 -9.6554547136401545e-08 -0.0012503516197913676 4.9585571261346931e-08 -5.7069333746979063e-08 -0.001000311771530339 2.0266107503662961e-08 -7.6078457111241345e-08 -0.0010003112351112103 2.0518452117587166e-08 -7.5806587003085115e-08 -0.0012503520670657387 5.5799262954826988e-08 -9.6554547136401545e-08 -0.0012503516197913676 2.0266107503662961e-08 -7.6078457111241345e-08 -0.0010003112351112103 2.0518452117587166e-08 -7.5806587003085115e-08 -0.0012503520670657387 4.4996456782024625e-11 -1.1151411010610736e-07 -0.0012503508623697107 5.5799262954826988e-08 -9.6554547136401545e-08 -0.0012503516197913676 8.651131143778408e-11 -1.1160520446687533e-07 -0.0010003110862005352 2.0266107503662961e-08 -7.6078457111241345e-08 -0.0010003112351112103 4.4996456782024625e-11 -1.1151411010610736e-07 -0.0012503508623697107 4.9585571261346931e-08 -5.7069333746979063e-08 -0.001000311771530339 2.0518452117587166e-08 -7.5806587003085115e-08 -0.0012503520670657387 4.9644637820186892e-08 -5.6792350400627429e-08 -0.0012503531530596731 2.1599132104377037e-08 -3.6340718152095304e-08 -0.0012503529312545313 4.9585571261346931e-08 -5.7069333746979063e-08 -0.001000311771530339 2.1351511940456967e-08 -3.6563403174468744e-08 -0.0010003117577151754 2.0518452117587166e-08 -7.5806587003085115e-08 -0.0012503520670657387 2.1599132104377037e-08 -3.6340718152095304e-08 -0.0012503529312545313 5.3688387095432646e-08 -2.0341838728810546e-08 -0.0012503533209120385 4.9585571261346931e-08 -5.7069333746979063e-08 -0.001000311771530339 4.9644637820186892e-08 -5.6792350400627429e-08 -0.0012503531530596731 2.1599132104377037e-08 -3.6340718152095304e-08 -0.0012503529312545313 5.3688387095432646e-08 -2.0341838728810546e-08 -0.0012503533209120385 4.9585571261346931e-08 -5.7069333746979063e-08 -0.001000311771530339 2.1351511940456967e-08 -3.6563403174468744e-08 -0.0010003117577151754 2.1599132104377037e-08 -3.6340718152095304e-08 -0.0012503529312545313 2.1351511940456967e-08 -3.6563403174468744e-08 -0.0010003117577151754 2.0266107503662961e-08 -7.6078457111241345e-08 -0.0010003112351112103 2.0518452117587166e-08 -7.5806587003085115e-08 -0.0012503520670657387 -1.4902564241312065e-08 -5.5343480815760553e-08 -0.0012503519028022872 2.1351511940456967e-08 -3.6563403174468744e-08 -0.0010003117577151754 2.0518452117587166e-08 -7.5806587003085115e-08 -0.0012503520670657387 2.1599132104377037e-08 -3.6340718152095304e-08 -0.0012503529312545313 -1.4902564241312065e-08 -5.5343480815760553e-08 -0.0012503519028022872 5.0098381830250705e-09 1.53704372307915e-09 -0.0012503527522594448 2.1351511940456973e-08 -3.6563403174468744e-08 -0.0010003117577151754 2.1599132104377031e-08 -3.6340718152095298e-08 -0.0012503529312545313 -1.4902564241312065e-08 -5.5343480815760553e-08 -0.0012503519028022872 -1.5332156707247803e-08 -5.5570782631566253e-08 -0.0010003114627723196 -1.4902564241312065e-08 -5.5343480815760553e-08 -0.0012503519028022872 4.4996456782016411e-11 -1.1151411010610738e-07 -0.0012503508623697109 -5.5717698870240869e-08 -9.6599796837748996e-08 -0.0012503512655949367 -1.5332156707247803e-08 -5.5570782631566253e-08 -0.0010003114627723196 2.0266107503662961e-08 -7.6078457111241345e-08 -0.0010003112351112103 -1.4902564241312065e-08 -5.5343480815760553e-08 -0.0012503519028022872 4.4996456782015655e-11 -1.1151411010610738e-07 -0.0012503508623697109 2.0266107503662961e-08 -7.6078457111241345e-08 -0.0010003112351112103 2.0518452117587166e-08 -7.5806587003085115e-08 -0.0012503520670657387 -1.4902564241312065e-08 -5.5343480815760553e-08 -0.0012503519028022872 4.4996456782024625e-11 -1.1151411010610736e-07 -0.0012503508623697107 -1.5332156707247803e-08 -5.5570782631566253e-08 -0.0010003114627723196 4.4996456782015875e-11 -1.1151411010610734e-07 -0.0012503508623697109 -5.5717698870240869e-08 -9.6599796837748996e-08 -0.0012503512655949365 -5.5762200726509441e-08 -9.6690174013519132e-08 -0.0010003120266235293 -1.5332156707247803e-08 -5.5570782631566253e-08 -0.0010003114627723196 -5.5717698870240882e-08 -9.6599796837748982e-08 -0.0012503512655949367 -5.5762200726509447e-08 -9.6690174013519132e-08 -0.0010003120266235293 -6.6134383413309437e-08 -4.0512149139419317e-08 -0.001000311721138568 -5.5717698870240882e-08 -9.6599796837748982e-08 -0.0012503512655949367 -5.5762200726509441e-08 -9.6690174013519132e-08 -0.0010003120266235293 -6.613438341330945e-08 -4.0512149139419317e-08 -0.001000311721138568 -9.6577042857137506e-08 -5.5895281988001906e-08 -0.0010003115964807912 -1.5332156707247803e-08 -5.5570782631566253e-08 -0.0010003114627723196 -1.4902564241312065e-08 -5.5343480815760553e-08 -0.0012503519028022872 -5.5717698870240888e-08 -9.6599796837748982e-08 -0.0012503512655949367 -6.6134383413309437e-08 -4.0512149139419317e-08 -0.001000311721138568 -1.4902564241312065e-08 -5.5343480815760553e-08 -0.0012503519028022872 -5.5717698870240888e-08 -9.6599796837748982e-08 -0.0012503512655949367 -6.6134383413309437e-08 -4.0512149139419304e-08 -0.0010003117211385677 -6.5832361219033194e-08 -4.0335879912520984e-08 -0.001250352879671201 -5.0392660028305609e-08 5.4666588660437584e-09 -0.0012503522555901371 -1.5332156707247766e-08 -5.5570782631566246e-08 -0.0010003114627723196 -1.4902564241312065e-08 -5.5343480815760553e-08 -0.0012503519028022872 -6.6134383413309437e-08 -4.0512149139419317e-08 -0.001000311721138568 -5.0392660028305609e-08 5.4666588660437584e-09 -0.0012503522555901371 -1.4902564241312065e-08 -5.5343480815760553e-08 -0.0012503519028022872 -6.6134383413309437e-08 -4.0512149139419317e-08 -0.001000311721138568 -6.5832361219033194e-08 -4.0335879912520984e-08 -0.001250352879671201 -1.1151476759075343e-07 -1.6207322284863358e-11 -0.0012503518846034747 -6.6134383413309463e-08 -4.0512149139419317e-08 -0.001000311721138568 -6.5832361219033207e-08 -4.0335879912520991e-08 -0.001250352879671201 -9.6569000923823164e-08 -5.5783723654639035e-08 -0.0012503514950724731 -5.5717698870240882e-08 -9.6599796837748982e-08 -0.0012503512655949367 -6.6134383413309437e-08 -4.0512149139419317e-08 -0.001000311721138568 -6.5832361219033194e-08 -4.0335879912520984e-08 -0.0012503528796712008 -9.6569000923823164e-08 -5.5783723654639035e-08 -0.0012503514950724731 -5.5717698870240882e-08 -9.6599796837748982e-08 -0.0012503512655949367 -6.613438341330945e-08 -4.051214913941933e-08 -0.001000311721138568 -9.6569000923823164e-08 -5.5783723654639035e-08 -0.0012503514950724731 -9.6577042857137506e-08 -5.5895281988001906e-08 -0.0010003115964807912 -1.1160038235988258e-07 -1.0284684232157791e-10 -0.0010003129599950914 -6.6134383413309437e-08 -4.0512149139419317e-08 -0.001000311721138568 -9.6569000923823164e-08 -5.5783723654639035e-08 -0.0012503514950724731 -9.6577042857137506e-08 -5.5895281988001906e-08 -0.0010003115964807912 
</DataArray>
</PointData>
<CellData Scalars="" Vectors="" Tensors="effective_stress,">
<DataArray type="Float64" Name="effective_stress" NumberOfComponents="9" format="ascii">
-3329.1258876466891 -0.15909060145718606 -1.2973425220400259 -0.15909060145718606 -3329.6552177091257 -0.79624154270823055 -1.2973425220400259 -0.79624154270823055 -9999.0517678231026 -3329.260476581283 -0.077220417807052244 -1.5427210012790056 -0.077220417807052244 -3329.8321865916055 -0.29938174532844641 -1.5427210012790056 -0.29938174532844641 -9999.1296572773699 -3327.5282109039981 1.5865411637116695 -2.7501719293877613 1.5865411637116695 -3327.1120926845961 -1.1685559344182366 -2.7501719293877613 -1.1685559344182366 -10000.769925811357 -3327.9978331214988 1.6883310490758083 -2.1791713144422378 1.6883310490758083 -3330.437222087302 -2.3247585921499709 -2.1791713144422378 -2.3247585921499709 -10001.71861371641 -3334.0573193570003 -0.35682176910132757 -1.0815351775086128 -0.35682176910132757 -3330.568242674477 -1.1840898706705048 -1.0815351775086128 -1.1840898706705048 -9999.1336396696679 -3332.7169502221795 1.4998335797573521 -0.72003329825361106 1.4998335797573521 -3331.2664177745801 0.031905353542242665 -0.72003329825361106 0.031905353542242665 -9998.9730911609877 -3330.3546990544232 0.047927535636012916 -1.1546302720025778 0.047927535636012916 -3330.4631708360093 -0.36267956786286959 -1.1546302720025778 -0.36267956786286959 -9999.5609589567575 -3330.0724085990632 0.2286085846402186 -1.1126440375546736 0.2286085846402186 -3329.9294532774479 -0.22144915247486097 -1.1126440375546736 -0.22144915247486097 -9999.3569569532774 -3329.6542098335376 -0.48519431414369518 -0.60070826873243277 -0.48519431414369518 -3328.0651287024666 -0.51469924299317427 -0.60070826873243277 -0.51469924299317427 -9997.7287336694171 -3333.048745925249 0.96187652016668956 -1.2826774312318441 0.96187652016668956 -3330.4588759462054 0.16726992011636332 -1.2826774312318441 0.16726992011636332 -9999.1758045032802 -3326.8810328795721 2.0303742008025019 -3.5401924435738721 2.0303742008025019 -3328.0629530634128 -0.24180569461861134 -3.5401924435738721 -0.24180569461861134 -9997.0348955211612 -3331.1868057255315 0.19322443358250871 0.005809986376628884 0.19322443358250871 -3329.9888379082308 -1.3278474194702587 0.005809986376628884 -1.3278474194702587 -9999.5210975765458 -3332.8892095247061 0.69275698047987899 2.364584845341378 0.69275698047987899 -3330.0793124225702 -0.69581559625663936 2.364584845341378 -0.69581559625663936 -9999.9693171549243 -3331.5193482647064 1.1949860461495219 3.0335832373439189 1.1949860461495219 -3328.6693066421058 0.1777514545537997 3.0335832373439189 0.1777514545537997 -9998.0244128885006 -3332.5912272651431 -0.48947485485134468 3.4766845590524786 -0.48947485485134468 -3332.8798466427133 -1.7513850854040063 3.4766845590524786 -1.7513850854040063 -9999.3450176387632 -3333.528034658354 0.035270420007378928 2.7401264594112251 0.035270420007378928 -3334.8533475412964 -0.33053059628447512 2.7401264594112251 -0.33053059628447512 -10000.072594711712 -3332.0263124706989 -0.9435485275884421 0.79426785802206723 -0.9435485275884421 -3335.1669987562136 -0.78823961237216622 0.79426785802206723 -0.78823961237216622 -10003.044346676706 -3333.6247319574904 1.9423080919042499 -0.49803544386850263 1.9423080919042499 -3334.8256275260428 -0.12124547250550677 -0.49803544386850263 -0.12124547250550677 -10004.032484045654 -3335.4130786843029 0.55486185751245787 -1.1830273612040496 0.55486185751245787 -3334.7584799822721 -2.1335509105692108 -1.1830273612040496 -2.1335509105692108 -10001.49058143507 -3334.726515408915 1.7138394868209883 -0.64058017107663545 1.7138394868209883 -3332.3184604670041 -0.31871985349698662 -0.64058017107663545 -0.31871985349698662 -10003.681138143749 -3336.296876662243 0.47300843108998075 -0.40595553875283774 0.47300843108998075 -3336.6735653536412 -0.76124805114065541 -0.40595553875283774 -0.76124805114065541 -10004.488629373953 -3331.968899170181 -1.7928228723791573 -0.67883802677861693 -1.7928228723791573 -3330.3810368115728 -0.39877465991463934 -0.67883802677861693 -0.39877465991463934 -10000.905147582978 -3327.2432458358176 -1.7845741267165462 -1.2304846547103807 -1.7845741267165462 -3325.7884490778838 1.3797987470798034 -1.2304846547103807 1.3797987470798034 -9997.4851103965302 -3330.5377508996526 -0.96654903448689444 0.019022027344449022 -0.96654903448689444 -3327.6415008673139 0.80995442101541348 0.019022027344449022 0.80995442101541348 -9999.8624765292807 -3332.9302840489454 -1.4612494947463053 -0.18062005344199861 -1.4612494947463053 -3331.5109382440901 -1.1084162251127054 -0.18062005344199861 -1.1084162251127054 -10002.356324443241 -3330.193666718189 0.11873726712746224 0.010543523359956453 0.11873726712746224 -3329.3934053936932 -0.77731119462850984 0.010543523359956453 -0.77731119462850984 -10001.142786897954 -3330.3492518228804 0.048723940460074555 0.43993711931079815 0.048723940460074555 -3329.4046006368371 -0.91948921276798501 0.43993711931079815 -0.91948921276798501 -10001.270278152859 -3330.4950540117165 0.21851799317886134 0.29536229176483175 0.21851799317886134 -3330.2899412876186 -1.2215687524758323 0.29536229176483175 -1.2215687524758323 -10001.528063862765 -3330.4923166284657 0.18358001044101169 0.47472589822154987 0.18358001044101169 -3330.6602525535777 -0.97308732596775371 0.47472589822154987 -0.97308732596775371 -10001.619957333442 -3330.5174519996513 0.083217304687914329 0.6242363773735633 0.083217304687914329 -3330.8195268041809 -0.34716403597630574 0.6242363773735633 -0.34716403597630574 -10002.254138875727 -3330.4905631906067 0.058581936630616137 0.73585225017723133 0.058581936630616137 -3330.9677390999341 -0.56247619397981907 0.73585225017723133 -0.56247619397981907 -10002.284469747405 -3329.7937586746216 0.34541700524670915 0.60306891853133493 0.34541700524670915 -3329.7860262170575 -1.119405890985945 0.60306891853133493 -1.119405890985945 -10001.140965092902 -3329.3762388608211 0.076511836536941935 -0.041825978151791787 0.076511836536941935 -3328.9138421648254 -0.64630196716598221 -0.041825978151791787 -0.64630196716598221 -9997.5497694182104 -3329.0847227864228 0.34541700524670937 1.4776693247194999 0.34541700524670937 -3329.0769903288588 0.46268271601184097 1.4776693247194999 0.46268271601184097 -9999.013857428301 -3330.6563591153163 -0.23168420065898343 0.47842899168153963 -0.23168420065898343 -3330.5862496358795 0.18882121862407075 0.47842899168153963 0.18882121862407075 -10000.379634621086 -3330.9595598805226 -0.71675181626158491 0.87585323413804872 -0.71675181626158491 -3330.8738959847165 0.10944675151040428 0.87585323413804872 0.10944675151040428 -10000.019559946233 -3330.3524210404257 -0.16470978856902918 0.46959716726087208 -0.16470978856902918 -3330.3070908081263 0.0005907656736781064 0.46959716726087208 0.0005907656736781064 -9999.7260739420617 -3329.974710855895 0.076511836536941935 1.3300716131025183 0.076511836536941935 -3329.5123141598992 0.42313402808986211 1.3300716131025183 0.42313402808986211 -9999.3451854034302 -3329.5470839126697 0.05858193663061647 0.94515007876134405 0.05858193663061647 -3330.024259821997 -0.17916411366604734 0.94515007876134405 -0.17916411366604734 -9999.4540319135904 -3329.4637997436471 0.45684027554569517 0.5113987203767465 0.45684027554569517 -3329.9972837621654 0.24592646402214768 0.5113987203767465 0.24592646402214768 -9999.9342533097406 -3330.2935890175236 0.097769893945077888 0.25801865796893253 0.097769893945077888 -3330.3889606080274 0.08115675647786702 0.25801865796893253 0.08115675647786702 -10000.37355946165 -3329.5739727217137 0.083217304687914329 0.83353420595722127 0.083217304687914329 -3329.8760475262434 0.036148044338375485 0.83353420595722127 0.036148044338375485 -9999.4237010419129 -3330.2210507184686 0.050573250929563107 0.229932494359673 0.050573250929563107 -3330.3766226947282 0.13533625930256221 0.229932494359673 0.13533625930256221 -10000.352340408561 -3330.2866848188837 0.030346265423171537 0.093509559077574522 0.030346265423171537 -3330.3176498227813 0.13088146767586295 0.093509559077574522 0.13088146767586295 -10000.117545844429 -3329.9176569128349 0.21851799317886111 -0.33870134970584331 0.21851799317886111 -3329.7125441887374 0.01387580649497977 -0.33870134970584331 0.01387580649497977 -9999.7958725661174 -3330.3870963486156 0.072873501115078954 -0.076874227645021165 0.072873501115078954 -3329.8193655623872 0.20068482035276247 -0.076874227645021165 0.20068482035276247 -10000.254537533016 -3330.9091925925618 -0.22631395836249635 -0.11839094110382575 -0.22631395836249635 -3330.5890861634912 0.14316962879092898 -0.11839094110382575 0.14316962879092898 -10000.577491744274 -3329.9871835866084 0.18358001044101169 0.17591383568878882 0.18358001044101169 -3330.1551195117204 0.25347111015435075 0.17591383568878882 0.25347111015435075 -10000.10455820787 -3330.2684378872941 0.037121924420677299 0.18142849188370747 0.037121924420677299 -3330.3284918047543 0.25267998785790269 0.18142849188370747 0.25267998785790269 -10000.115694607022 -3329.5713757939861 0.11873726712746224 0.64019739078958082 0.11873726712746224 -3328.7711144694904 1.1987698828793327 0.64019739078958082 1.1987698828793327 -9999.2759141253446 -3330.3895490721952 -0.2145404337985819 0.38928628685243893 -0.2145404337985819 -3330.6159435110835 0.24028778324372979 0.38928628685243893 0.24028778324372979 -10000.320355579108 -3330.8507425838138 0.87881690017803349 0.76199945648477296 0.87881690017803349 -3330.0008660476537 0.87587490703390358 0.76199945648477296 0.87587490703390358 -9999.6863313073482 -3329.7963371662136 0.12795062474373009 0.29286697371389891 0.12795062474373009 -3330.9255148212033 0.07328463259000273 0.29286697371389891 0.07328463259000273 -10000.249445430141 -3329.6926424314975 0.048723940460074777 0.41182447703658909 0.048723940460074777 -3328.7479912454546 0.80321638971417997 0.41182447703658909 0.80321638971417997 -9999.300449978713 -3330.0682454899829 -0.052711759967167371 0.18674758707948058 -0.052711759967167371 -3330.5171250560843 0.24448500443941157 0.18674758707948058 0.24448500443941157 -10000.112804820526 -3330.1884536418211 -0.2145404337985819 -0.13129467205362744 -0.2145404337985819 -3330.4148480807098 -0.027804139769614267 -0.13129467205362744 -0.027804139769614267 -9999.7170692879881 -3329.90815815932 -0.052711759967167371 -0.18325150404871238 -0.052711759967167371 -3330.3570377254218 -0.11779601337548229 -0.18325150404871238 -0.11779601337548229 -9999.6325428285418 -3330.1211765567987 0.037121924420677077 -0.052549291463947156 0.037121924420677077 -3330.1812304742589 -0.0068793444712014207 -0.052549291463947156 -0.0068793444712014207 -9999.6739106155328 -3330.1098426585504 0.030346265423171592 -0.12596365575154778 0.030346265423171592 -3330.1408076624484 -0.15458923436926852 -0.12596365575154778 -0.15458923436926852 -9999.5870193634328 -3329.9412875668977 0.050573250929563107 0.11981341182763572 0.050573250929563107 -3330.0968595431577 0.02396916099576174 0.11981341182763572 0.02396916099576174 -9999.513050953843 -3330.0138258659499 0.097769893945078221 0.14789957543780474 0.097769893945078221 -3330.1091974564542 -0.03021034183257143 0.14789957543780474 -0.03021034183257143 -9999.5342700069341 -3330.308888953663 -0.16470978856902918 -0.033764362509828061 -0.16470978856902918 -3330.2635587213636 0.032853774745944975 -0.033764362509828061 0.032853774745944975 -9999.595477681778 -3330.40971244721 -0.23168420065898365 -0.082328656927529664 -0.23168420065898365 -3330.3396029677724 0.019841011178868939 -0.082328656927529664 0.019841011178868939 -9999.6396946167661 -3330.4199543394861 -0.12675519794109114 -0.04578593487804028 -0.12675519794109114 -3330.1325362603202 0.18663114424452942 -0.04578593487804028 0.18663114424452942 -9999.3757691163482 -3330.509339046419 -0.0012657663357722448 -0.17177953159807657 -0.0012657663357722448 -3330.0983837965177 0.16380032905726694 -0.17177953159807657 0.16380032905726694 -9999.3895771771313 -3329.8097664735824 0.36605253274346417 1.0009389837141498 0.36605253274346417 -3330.4095755481853 0.19109042795480491 1.0009389837141498 0.19109042795480491 -9998.9959574289842 -3329.9062607748206 0.2286085846402186 1.0826226091512581 0.2286085846402186 -3329.7633054532048 0.10940680244561918 1.0826226091512581 0.10940680244561918 -9998.8585134805471 -3329.0943287570399 -0.077220417807052355 0.65254564542715343 -0.077220417807052355 -3329.6660387673619 0.031474209591578983 0.65254564542715343 0.031474209591578983 -9998.6312138046414 -3330.281576021368 0.059740769371928765 0.33757965291442815 0.059740769371928765 -3330.1804744057417 -0.24641660218912875 0.33757965291442815 -0.24641660218912875 -9999.3593755720012 -3330.4224409390181 -0.12675519794109114 0.36566905490417412 -0.12675519794109114 -3330.1350228598517 -0.15193139856728521 0.36566905490417412 -0.15193139856728521 -9999.3832289149432 -3330.4917915779624 -0.28532456086702285 0.54402874298193638 -0.28532456086702285 -3329.685261180035 -0.073840810113324551 0.54402874298193638 -0.073840810113324551 -9999.6054591694228 -3330.840009892539 -0.31564807621646818 0.58945279194085742 -0.31564807621646818 -3330.9668155721756 0.078953489912237274 0.58945279194085742 0.078953489912237274 -10000.012902346103 -3330.5118256459505 -0.0012657663357720228 0.23967545818413782 -0.0012657663357720228 -3330.1008703960492 -0.17476221375727619 0.23967545818413782 -0.17476221375727619 -9999.3970369757262 -3329.4712073693681 0.004323111799687529 0.58472794724775667 0.004323111799687529 -3331.1359328841118 -0.54051602115760033 0.58472794724775667 -0.54051602115760033 -9999.4166476776663 -3330.6289138415059 0.069865411079691644 0.3327834131500822 0.069865411079691644 -3330.2562022754114 -0.36329382329950022 0.3327834131500822 -0.36329382329950022 -9999.4651419944548 -3329.0892360987486 -0.15909060145718606 0.75993013286893074 -0.15909060145718606 -3329.6185661611858 -0.89527786790949904 0.75993013286893074 -0.89527786790949904 -9998.9418131792809 -3330.6674113800918 0.069865411079691644 -0.046280931598175812 0.069865411079691644 -3330.2946998139978 0.070215389564509678 -0.046280931598175812 0.070215389564509678 -9999.5806346102108 -3330.1453966874824 0.12674397195339138 0.04315422125182522 0.12674397195339138 -3330.1576828104971 0.024770074662228581 0.04315422125182522 0.024770074662228581 -9999.5514651623162 -3330.374308950406 0.059740769371928876 0.091810828132111055 0.059740769371928876 -3330.2732073347806 0.05339038292549958 0.091810828132111055 0.05339038292549958 -9999.6375743591161 -3330.1620319930444 0.082237506892975099 0.04938919160849764 0.082237506892975099 -3330.180195680603 0.10491009864199441 0.04938919160849764 0.10491009864199441 -9999.5612522062329 -3330.2679126646144 0.17188887073936063 0.13203161797537177 0.17188887073936063 -3330.2694674842669 0.20087437954680354 0.13203161797537177 0.20087437954680354 -9999.341901947766 -3330.2824350864871 0.17188887073936074 0.41414964385603525 0.17188887073936074 -3330.2839899061396 -0.27189312624022932 0.41414964385603525 -0.27189312624022932 -9999.3854692133827 -3329.463157913955 -0.37582477343179344 0.73011945011239732 -0.37582477343179344 -3329.7121701290698 -0.74232236741818269 0.73011945011239732 -0.74232236741818269 -9998.6478496517484 -3330.6880738067807 0.48713943897004702 0.1977102693716688 0.48713943897004702 -3331.0189874042803 0.067083630388879101 0.1977102693716688 0.067083630388879101 -10000.024295033476 -3330.7846240066037 -1.0327765164836447 0.63029022958653513 -1.0327765164836447 -3330.9909599745097 -0.85446299705540696 0.63029022958653513 -0.85446299705540696 -9999.2979136362737 -3330.4511143530494 0.047927535636013124 0.3465917033884125 0.047927535636013124 -3330.5595861346351 0.01754749504289066 0.3465917033884125 0.01754749504289066 -9999.8502048526298 -3329.9193628392491 0.25923984816596113 0.21700717358635302 0.25923984816596113 -3330.003797254602 0.42185385521861463 0.21700717358635302 0.42185385521861463 -9999.578319754175 -3330.0219606513861 0.20706175612424782 0.17782859469298273 0.20706175612424782 -3330.2835740825053 -0.081720672306801134 0.17782859469298273 -0.081720672306801134 -9999.6739134141826 -3330.2799825571851 0.048585874743540369 -0.20034305918215978 0.048585874743540369 -3330.5057376510217 -0.2661630754446378 -0.20034305918215978 -0.2661630754446378 -10000.066666170664 -3329.6339900906473 0.14052191454892554 0.58740921082335262 0.14052191454892554 -3329.8142982678041 0.051451819776957564 0.58740921082335262 0.051451819776957564 -9999.4596018203229 -3329.994737332262 0.093355099327686153 0.11358061163082311 0.093355099327686153 -3330.1428174645416 -0.29080798306767974 0.11358061163082311 -0.29080798306767974 -10000.324263323335 -3330.2413599736155 0.071836829656032775 -0.13856344995292602 0.071836829656032775 -3330.3748976545949 -0.16259640728975455 -0.13856344995292602 -0.16259640728975455 -10000.024300525663 -3330.3437144565564 -0.097034997287444913 0.13820281551215885 -0.097034997287444913 -3329.932766673583 -0.24953158700827771 0.13820281551215885 -0.24953158700827771 -10000.35899490667 -3330.2257976482974 0.15840692866480022 -0.041935552584618563 0.15840692866480022 -3330.374923472486 -0.16477519661020779 -0.041935552584618563 -0.16477519661020779 -10000.020416398806 -3328.8540059227048 0.61799534272311951 0.37974571884387842 0.61799534272311951 -3329.5833708028099 0.05613426668332977 0.37974571884387842 0.05613426668332977 -9999.2068739120914 -3330.875865006923 -0.64384699477238616 0.17357282934108298 -0.64384699477238616 -3329.8680832555729 -0.85537368067434727 0.17357282934108298 -0.85537368067434727 -9999.2772326445156 -3329.3635038879415 -0.21599710679459752 0.73216089316809985 -0.21599710679459752 -3329.2991652177911 -0.76690430443568403 0.73216089316809985 -0.76690430443568403 -9998.5196849174281 -3330.3921378266073 0.061638102261020351 0.21127492080643151 0.061638102261020351 -3330.4031701669833 -0.096254458479052118 0.21127492080643151 -0.096254458479052118 -9999.7963567291081 -3329.76319245385 -0.36700193556175709 0.40237050012456166 -0.36700193556175709 -3329.6916847808379 -0.64841683250233473 0.40237050012456166 -0.64841683250233473 -9998.9549648875618 -3330.236148698541 0.061638102261020351 0.12789054359484453 0.061638102261020351 -3330.247181038917 0.25073892480395443 0.12789054359484453 0.25073892480395443 -9999.3283893449116 -3330.0195696510609 0.15840692866480022 0.23932396484269702 0.15840692866480022 -3330.1686954752495 0.24231145500016282 0.23932396484269702 0.24231145500016282 -9999.4017324070956 -3330.1716233993711 0.048585874743540369 0.013758050478827499 0.048585874743540369 -3330.3973784932077 -0.050390329350193497 0.013758050478827499 -0.050390329350193497 -9999.7415886972231 -3330.083543641299 0.071836829656032775 0.071145638390589738 0.071836829656032775 -3330.2170813222783 0.083153651963868924 0.071145638390589738 0.083153651963868924 -9999.5508515287147 -3330.0328060645079 0.066183302812124811 -0.17381026708062564 0.066183302812124811 -3330.2768036617181 -0.099956709143953049 -0.17381026708062564 -0.099956709143953049 -9999.6156861585805 -3329.8717879512951 0.016877511572764403 -0.20204472214572888 0.016877511572764403 -3330.2716366841469 -0.070662878310031374 -0.20204472214572888 -0.070662878310031374 -9999.4885779174765 -3330.2254954645941 0.046317994081671449 -0.1491047039858131 0.046317994081671449 -3330.3363579096085 -0.28170149240213505 -0.1491047039858131 -0.28170149240213505 -9999.6648201267344 -3330.171160337748 0.070653623526290954 -0.10820556385806412 0.070653623526290954 -3330.1735465420752 -0.19030308554920339 -0.10820556385806412 -0.19030308554920339 -9999.6105335031389 -3330.3211963561471 0.095885646023235682 -0.23295392752879707 0.095885646023235682 -3330.3772205674368 -0.095828233510474092 -0.23295392752879707 -0.095828233510474092 -9999.7128879579177 -3330.9739124820449 -0.1196330671276189 -0.9891838242947415 -0.1196330671276189 -3330.5722269218591 -0.0099143793632947563 -0.9891838242947415 -0.0099143793632947563 -10000.001006034385 -3330.3684028770226 -0.1142279570588991 -0.42732904425247398 -0.1142279570588991 -3330.0583666139969 0.067658612434669863 -0.42732904425247398 0.067658612434669863 -9998.9266539600867 -3330.0338675002704 0.095885646023235682 -0.39578373741551331 0.095885646023235682 -3330.0898917115601 0.12595947736917879 -0.39578373741551331 0.12595947736917879 -9998.8509013902894 -3330.4006607453703 0.27008345494066843 -0.69641828942485517 0.27008345494066843 -3330.3819497853456 -0.067454532335432305 -0.69641828942485517 -0.067454532335432305 -9999.963057950863 -3329.9482432003201 0.22190715221969948 -0.16320977679333737 0.22190715221969948 -3329.9863374660295 -0.33906075645336387 -0.16320977679333737 -0.33906075645336387 -9999.8719674573094 -3329.7648053327221 0.39993590133472656 -0.25767553737750859 0.39993590133472656 -3329.6919626599984 -0.47473050946427975 -0.25767553737750859 -0.47473050946427975 -9999.6315973163619 -3329.9437373862547 0.046317994081671449 -0.30301802972689984 0.046317994081671449 -3330.0545998312691 -0.026734177728940267 -0.30301802972689984 -0.026734177728940267 -9998.8195458917144 -3330.1645411815134 0.1194975312516921 -0.28900571929193575 0.1194975312516921 -3330.5848421491492 -0.62018032757987385 -0.28900571929193575 -0.62018032757987385 -10000.075668123385 -3330.2170232404401 0.18238609590573585 -0.3388200282552134 0.18238609590573585 -3330.9124221408624 -0.65606628247496701 -0.3388200282552134 -0.65606628247496701 -10000.049766663509 -3330.4425864465802 0.07065362352629101 0.032516511522771907 0.07065362352629101 -3330.4449726509069 -0.019314299031975679 0.032516511522771907 -0.019314299031975679 -10000.424811829635 -3329.9671565473436 0.46828576804296124 0.088887402414684402 0.46828576804296124 -3329.5915586704241 0.55122789233337244 0.088887402414684402 0.55122789233337244 -9999.6570841226239 -3329.159445054343 0.20157964023586156 0.44361337142163393 0.20157964023586156 -3330.0737922513376 -0.0068307322085274791 0.44361337142163393 -0.0068307322085274791 -9999.3695053063439 -3330.857984392635 0.032175381819132133 0.53192904308707512 0.032175381819132133 -3330.3176965855205 -0.12292718127355329 0.53192904308707512 -0.12292718127355329 -10000.061325562721 -3330.2620806996274 0.12674397195339138 0.049338698121573543 0.12674397195339138 -3330.2743668226422 0.042896027254755609 0.049338698121573543 0.042896027254755609 -9999.9015171987521 -3330.4877037275701 0.082237506892975099 -0.12428034657568787 0.082237506892975099 -3330.5058674151287 0.012951573808095418 -0.12428034657568787 0.012951573808095418 -10000.538267409811 -3330.3334424233512 0.066183302812124811 -0.33939533800730715 0.066183302812124811 -3330.5774400205614 -0.14181055099106743 -0.33939533800730715 -0.14181055099106743 -10000.517595235113 -3329.908440113174 0.20787028561291432 -0.76446175408545969 0.20787028561291432 -3330.2084121462485 -0.062704813030904916 -0.76446175408545969 -0.062704813030904916 -9999.7966183830395 -3328.9359195750585 -0.19758652944706134 -1.1525607192033931 -0.19758652944706134 -3329.8872030979992 0.0014900133363653367 -1.1525607192033931 0.0014900133363653367 -9999.3202518516755 -3330.6575105077654 0.17329014885692096 -0.20108929685557086 0.17329014885692096 -3330.3295061438803 -0.32857600629358785 -0.20108929685557086 -0.32857600629358785 -10000.536628787046 -3329.4448637630298 0.0047834436090936627 -0.92877959947145428 0.0047834436090936627 -3329.8115031824223 -0.30069912002636556 -0.92877959947145428 -0.30069912002636556 -9999.4285629197748 -3330.8878735556982 0.25923984816596146 0.15595730395853025 0.25923984816596146 -3330.9723079710516 0.992981743020664 0.15595730395853025 0.992981743020664 -10002.483851903526 -3330.8090005946374 0.20787028561291454 -0.78466092446888069 0.20787028561291454 -3331.1089726277119 0.31626425956847015 -0.78466092446888069 0.31626425956847015 -10002.498299827426 -3329.659483217557 0.20706175612424779 0.13880583422769632 0.20706175612424779 -3329.9210966486767 0.027333504338685088 0.13880583422769632 0.027333504338685088 -9998.5864811127012 -3329.3730065918608 0.1194975312516921 0.88575469429974873 0.1194975312516921 -3329.7933075594965 -0.33077960146329133 0.88575469429974873 -0.33077960146329133 -9997.7010643544309 -3330.7608719539389 0.22190715221969937 -0.094652145278814714 0.22190715221969937 -3330.7989662196483 -0.93250217613058339 -0.094652145278814714 -0.93250217613058339 -10002.309853718167 -3329.6798903448985 0.25406687233807967 0.43669954145934753 0.25406687233807967 -3329.5673405731472 0.22226931357057822 0.43669954145934753 0.22226931357057822 -9997.721293546103 -3329.6574929447347 0.27008345494066832 0.48996019956348391 0.27008345494066832 -3329.6387819847091 0.32070368450058595 0.48996019956348391 0.32070368450058595 -9997.7335545489514 -3333.046849377306 0.98544226218201159 -0.85334098291789751 0.98544226218201159 -3331.2029515347544 0.83499004717236502 -0.85334098291789751 0.83499004717236502 -10000.148198847148 -3334.8941121868065 -0.16848383197332045 -1.2469284049055822 -0.16848383197332045 -3334.6043888114446 0.076789093522063201 -1.2469284049055822 0.076789093522063201 -10001.065961395703 -3334.9269921649907 -0.20352261667973645 0.47280604665264159 -0.20352261667973645 -3334.8279202555273 -1.7112796371890779 0.47280604665264159 -1.7112796371890779 -10001.386419873554 -3330.1480753338433 -0.012480326474883258 -1.4529231314893334 -0.012480326474883258 -3332.1646234955924 -3.3812016752610461 -1.4529231314893334 -3.3812016752610461 -9999.2695108535008 -3332.2737373812179 -1.6323526521650695 -0.47448599783402834 -1.6323526521650695 -3332.5463957831244 -1.19466193540898 -0.47448599783402834 -1.19466193540898 -9999.8963694372269 -3334.4098054760098 -0.017029796413712096 -0.4109657110339604 -0.017029796413712096 -3332.8734475812453 -3.6862681189979747 -0.4109657110339604 -3.6862681189979747 -10000.768505032738 -3331.9160606869914 -1.1842147052491563 -0.0094858505049160158 -1.1842147052491563 -3332.0658857689127 -0.55349961417164195 -0.0094858505049160158 -0.55349961417164195 -9998.9727357757747 -3330.4930876622498 0.23071390329503427 0.39015087250572833 0.23071390329503427 -3332.4780164807794 3.2579498889585921 0.39015087250572833 3.2579498889585921 -9999.4341121818998 -3330.0450697944088 1.0439039363087546 3.55936645673171 1.0439039363087546 -3330.8057093436037 -1.1480077417278598 3.55936645673171 -1.1480077417278598 -9998.9040309306456 -3333.3333410125833 -0.8757488169733374 -3.1458371422784905 -0.8757488169733374 -3330.9501917231642 0.99501589710426575 -3.1458371422784905 0.99501589710426575 -10000.156631803071 -3334.3976282801732 0.073111105985391611 -2.4628531499881667 0.073111105985391611 -3335.6188637015825 0.072729240481783419 -2.4628531499881667 0.072729240481783419 -10001.589871614573 -3332.1569583043947 1.2251044509078239 -0.47286745268214725 1.2251044509078239 -3335.3275574410404 -0.10477483050736058 -0.47286745268214725 -0.10477483050736058 -10003.889935458197 -3332.9825661106338 -0.61810526163755175 -3.7852865756479579 -0.61810526163755175 -3333.8916688630225 0.25397714334470711 -3.7852865756479579 0.25397714334470711 -10000.409894889557 -3334.2347977526824 1.9290740057353817 0.99096218273462 1.9290740057353817 -3334.304720404486 0.15797686829682789 0.99096218273462 0.15797686829682789 -10004.15368606113 -3334.6797650740677 0.64052473905799667 1.6721640487967018 0.64052473905799667 -3333.7704729287034 2.5640430550256514 1.6721640487967018 2.5640430550256514 -9999.5136761511276 -3331.0244563584947 -1.7792968591100682 2.0671152675149642 -1.7792968591100682 -3332.408163655693 2.5551375989230962 2.0671152675149642 2.5551375989230962 -9998.2592716539839 -3336.7629126574934 0.48959713368162572 0.93502631076111387 0.48959713368162572 -3337.0401567212539 0.064206578015179261 0.93502631076111387 0.064206578015179261 -10005.469573866525 -3330.2785396848999 0.14052191454892554 -0.11644952541928433 0.14052191454892554 -3330.4588478620567 1.2269034286628084 -0.11644952541928433 1.2269034286628084 -10001.393250603085 -3330.6102557088316 -0.36700193556175709 -0.035879982679944078 -0.36700193556175709 -3330.5387480358195 1.2250867270240633 -0.035879982679944078 1.2250867270240633 -10001.49615465251 -3330.3623489691472 0.093355099327686153 -0.36957341031575197 0.093355099327686153 -3330.5104291014263 0.80256928804101335 -0.36957341031575197 0.80256928804101335 -10001.427098233989 -3334.8832815955338 -0.32433008419242071 -1.5265361849162915 -0.32433008419242071 -3334.6286249608943 -0.38381899013961185 -1.5265361849162915 -0.38381899013961185 -9999.7790932895423 -3333.0197298603002 -0.1660380431289773 0.18811811794042921 -0.1660380431289773 -3332.2042570128142 4.0480889786818954 0.18811811794042921 4.0480889786818954 -9998.707113368715 -3333.3878036696588 0.26717607698833107 -0.090993363515420977 0.26717607698833107 -3333.6012542962071 0.4605818160159858 -0.090993363515420977 0.4605818160159858 -9999.1483811419039 -3325.3948118609865 2.4771150628659333 0.11654496684968763 2.4771150628659333 -3326.3582981202098 0.71146738808965893 0.11654496684968763 0.71146738808965893 -9996.0402647039136 -3329.8672421972292 -1.1756362975671861 -0.27172177017746435 -1.1756362975671861 -3332.6848504885743 -0.80132340964405557 -0.27172177017746435 -0.80132340964405557 -9998.0391398218871 -3330.8250196580821 -0.61427276334031011 -0.73903356297332889 -0.61427276334031011 -3333.6389514539005 -0.24962511101293505 -0.73903356297332889 -0.24962511101293505 -9999.217979986608 -3329.6641474512162 -0.37582477343179344 -0.96696474637974461 -0.37582477343179344 -3329.913159666331 -0.42512002552439299 -0.96696474637974461 -0.42512002552439299 -9999.2508182635356 -3328.7823434917186 -0.2159971067945976 -0.36757284643539379 -0.2159971067945976 -3328.7180048215682 0.35286265173135689 -0.36757284643539379 0.35286265173135689 -9996.7762037287575 -3329.9868701255959 -0.23231265592045192 -0.81561501737485165 -0.23231265592045192 -3330.8181571815489 0.67252673830276688 -0.81561501737485165 0.67252673830276688 -9998.3032440354 -3327.988867741893 0.58049361298229429 -0.15113167872951205 0.58049361298229429 -3329.1678292689612 1.183989641052992 -0.15113167872951205 1.183989641052992 -9996.9613238843358 -3329.7133778264279 -0.65376375723309399 2.2512611873700554 -0.65376375723309399 -3332.1117428176676 3.3570522160932086 2.2512611873700554 3.3570522160932086 -9998.128429792645 -3328.7556224044079 -1.3556656334952162 2.0796679226583561 -1.3556656334952162 -3328.8468820586309 0.65097554603934737 2.0796679226583561 0.65097554603934737 -9997.0727757473815 -3334.8986682169034 -0.72723974450198536 0.7217434483727847 -0.72723974450198536 -3332.3705525587102 1.1284458081805322 0.7217434483727847 1.1284458081805322 -10003.55037343412 -3326.9260699997571 -1.030146375275697 1.2757110561969967 -1.030146375275697 -3328.8397811723148 0.58231341915154644 1.2757110561969967 0.58231341915154644 -9999.1456525263184 -3332.0820281937004 -1.7537650788294683 1.2795505850900848 -1.7537650788294683 -3330.739864991765 0.5828505078771149 1.2795505850900848 0.5828505078771149 -10000.909663029666 -3333.4735884671181 -1.3683704951550952 0.43782809507080889 -1.3683704951550952 -3331.9194657391695 1.5131748222910453 0.43782809507080889 1.5131748222910453 -10003.081331791789 -3330.6683699586965 -0.87833756034388411 -0.13015104643687048 -0.87833756034388411 -3328.3242376455637 -1.1402521338919058 -0.13015104643687048 -1.1402521338919058 -9999.9523416343654 -3330.3772216050938 -0.0052962436943646551 -0.43234764087719668 -0.0052962436943646551 -3329.53384064395 0.88763361286373765 -0.43234764087719668 0.88763361286373765 -10001.186669278608 -3330.2666500662372 -0.21177757902955721 -0.05392132515078174 -0.21177757902955721 -3329.5764474838998 0.94056940611426398 -0.05392132515078174 0.94056940611426398 -10001.169678103881 -3329.4195868112552 -0.21177757902955743 0.384329157653724 -0.21177757902955743 -3328.7293842289178 -0.93293415341304353 0.384329157653724 -0.93293415341304353 -9998.6284883389344 -3329.5423924619818 0.068087387458587445 -0.79763968163229038 0.068087387458587445 -3328.8953654653951 -1.2583129501126677 -0.79763968163229038 -1.2583129501126677 -9999.2391181007533 -3329.4324751815934 -0.063514017424008529 -0.19036092157875828 -0.063514017424008529 -3330.3071997429347 -0.18966592071637933 -0.19036092157875828 -0.18966592071637933 -9999.9413047179369 -3331.3562004552523 0.0081286751616191921 -0.33415919909202785 0.0081286751616191921 -3329.405800655903 -0.766161366018423 -0.33415919909202785 -0.766161366018423 -9999.8201788966981 -3330.3310348735499 0.0062600620942043494 -0.045497913222561692 0.0062600620942043494 -3330.6159377793933 -0.22095468028419418 -0.045497913222561692 -0.22095468028419418 -10000.106979281845 -3330.0248306300964 -0.053670537484551861 -0.21609459467617853 -0.053670537484551861 -3330.5417329140346 -0.24481842940258502 -0.21609459467617853 -0.24481842940258502 -10000.011877004643 -3329.7455315661196 -0.0052962436943642111 -0.40286423156521778 -0.0052962436943642111 -3328.9021506049753 -0.77577210196136548 -0.40286423156521778 -0.77577210196136548 -9999.2915991616828 -3329.6570101070274 0.075604521895717314 -0.26355307608173462 0.075604521895717314 -3330.733206821641 -0.090484438924249844 -0.26355307608173462 -0.090484438924249844 -10000.103940218971 -3330.2163304346741 -0.17987943941434176 0.054156998894995922 -0.17987943941434176 -3330.4539940141531 -0.020716314775199862 0.054156998894995922 -0.020716314775199862 -9999.6872684450645 -3329.8846111157973 -0.053670537484551861 0.15439029007029603 -0.053670537484551861 -3330.4015133997354 0.10180056748822608 0.15439029007029603 0.10180056748822608 -9999.5912184617409 -3330.1248068763134 0.0062600620942043494 0.2357616042029349 0.0062600620942043494 -3330.4097097821568 0.18613197132617643 0.2357616042029349 0.18613197132617643 -9999.4882952901353 -3330.8002587270462 0.8512529783874736 -0.81800218675493852 0.8512529783874736 -3330.1305316378553 -1.0049869915192176 -0.81800218675493852 -1.0049869915192176 -9999.4646946931825 -3330.3071151485919 -0.20133180251520849 -0.067819444411270524 -0.20133180251520849 -3330.2822576830094 -0.084280837963888189 -0.067819444411270524 -0.084280837963888189 -9999.4785954899198 -3330.4500778249767 -0.1142279570588991 -0.094878711142882821 -0.1142279570588991 -3330.140041561951 -0.20160409486733499 -0.094878711142882821 -0.20160409486733499 -9999.1716788039485 -3330.1565978659073 -0.24638069915288519 0.018088380678818794 -0.24638069915288519 -3330.2537365012267 -0.071152523389628186 0.018088380678818794 -0.071152523389628186 -9999.4338358738059 -3330.0932536425717 0.016877511572764403 -0.50549027928900614 0.016877511572764403 -3330.4931023754234 -0.22748908899484377 -0.50549027928900614 -0.22748908899484377 -10000.152974991301 -3330.3933548920518 -0.66230600625214686 -0.84968608816143387 -0.66230600625214686 -3330.5764235161491 -0.12025366530747306 -0.84968608816143387 -0.12025366530747306 -9999.8569157854636 -3328.9342964707002 0.21554433618133029 -1.4886855452923555 0.21554433618133029 -3329.0329945583362 -0.59421062545970926 -1.4886855452923555 -0.59421062545970926 -9998.7238198592167 -3330.4110098962519 -0.17987943941434176 -0.4406544080952699 -0.17987943941434176 -3330.6486734757309 -0.30695845458285476 -0.4406544080952699 -0.30695845458285476 -10000.2713068298 -3330.4266513478224 -0.24638069915288519 -0.51922922839912644 -0.24638069915288519 -3330.5237899831418 -0.25883339118308868 -0.51922922839912644 -0.25883339118308868 -10000.243996319547 -3329.9605338601455 0.25406687233807967 -1.5154817652919519 0.25406687233807967 -3329.8479840883942 -0.016489665019761901 -1.5154817652919519 -0.016489665019761901 -9998.5632240918421 -3330.4204027091482 -0.20133180251520849 -0.59585037387887496 -0.20133180251520849 -3330.3955452435657 -0.081462843822009745 -0.59585037387887496 -0.081462843822009745 -9999.8184581715886 -3329.8757921329852 0.025118736115479462 -1.5100713856375023 0.025118736115479462 -3329.4053392567521 -0.59747877989411791 -1.5100713856375023 -0.59747877989411791 -9999.052279949392 -3329.7809676834527 0.29648207876814026 -1.1675156499318291 0.29648207876814026 -3330.4657043592956 -0.42959243957284343 -1.1675156499318291 -0.42959243957284343 -9998.6727626153952 -3330.916732010649 -0.1001797941032857 -0.85891437693135231 -0.1001797941032857 -3329.9921726824423 0.2308447768023143 -0.85891437693135231 0.2308447768023143 -9999.8416973566837 -3329.8172927398568 0.025118736115479462 -0.13397062714943786 0.025118736115479462 -3329.3468398636232 0.54645876500671875 -0.13397062714943786 0.54645876500671875 -9998.8767817700045 -3330.3837483105062 0.068087387458588222 -0.25288227260625717 0.068087387458588222 -3329.7367213139196 0.66890761522790854 -0.25288227260625717 0.66890761522790854 -10001.763185646323 -3330.2923025857522 0.0047834436090936627 -0.68661341028837342 0.0047834436090936627 -3330.6589420051446 0.95940881699698366 -0.68661341028837342 0.95940881699698366 -10001.97087938794 -3329.9347249260045 0.21554433618132984 -0.69520114749047934 0.21554433618132984 -3330.0334230136405 0.93981658852067085 -0.69520114749047934 0.93981658852067085 -10001.725105225129 -3332.5345470779839 0.86799166568468999 -2.4074961556415069 0.86799166568468999 -3329.8495628296564 0.19902174983537835 -2.4074961556415069 0.19902174983537835 -9999.6817760960439 -3333.0468351097793 0.5010786357193312 -2.1727144651035326 0.5010786357193312 -3330.299730090534 0.26095509153140695 -2.1727144651035326 0.26095509153140695 -9999.8816304088123 -3327.3810661044131 -1.7354435974237998 1.145514376610471 -1.7354435974237998 -3326.395484560484 -1.7713750207427732 1.145514376610471 -1.7713750207427732 -9997.489126774959 -3329.3670138699395 -0.51958639341704194 0.21889375816785495 -0.51958639341704194 -3327.5852188029171 -0.48250493322548493 0.21889375816785495 -0.48250493322548493 -9997.0363081921259 -3332.4526173814056 1.3823829780827717 -0.66703666004977658 1.3823829780827717 -3332.1025184127202 1.179310779872226 -0.66703666004977658 1.179310779872226 -10000.224532567667 -3332.4315645763168 1.0494680678644734 -0.42311576877723711 1.0494680678644734 -3330.7343559234482 0.27968398449608456 -0.42311576877723711 0.27968398449608456 -9998.5897301488549 -3331.1361695189157 0.20381895546320528 -0.51938737210378161 0.20381895546320528 -3329.8249042208954 0.5136142427457776 -0.51938737210378161 0.5136142427457776 -9999.2852575436864 -3328.8077378652392 0.66368736988808963 2.0622206030279813 0.66368736988808963 -3328.1720621755494 0.56408040410406102 2.0622206030279813 0.56408040410406102 -9999.6057084857766 -3328.6137725518142 1.1486258276506958 2.6460128609103917 1.1486258276506958 -3329.4653153950071 0.24378964207446077 2.6460128609103917 0.24378964207446077 -9997.3180220106187 -3329.4290164696986 -0.010517469956473735 -0.66921825938470647 -0.010517469956473735 -3330.9101753589825 0.50216446768536116 -0.66921825938470647 0.50216446768536116 -9998.9293014274717 -3329.1527802505452 -0.12127163439238758 -0.75764587201956601 -0.12127163439238758 -3329.5671247193513 -0.025352773848140941 -0.75764587201956601 -0.025352773848140941 -9998.2910708471827 -3330.4195170527173 -0.027808104737924833 0.097072775435663061 -0.027808104737924833 -3330.1325536899994 -0.20384902273474381 0.097072775435663061 -0.20384902273474381 -9999.1621666428982 -3326.7870740858375 -1.1872814557947917 -1.2866991260589202 -1.1872814557947917 -3328.5120427506818 -0.49627165500680803 -1.2866991260589202 -0.49627165500680803 -9999.1424427966685 -3330.4750291142809 -0.20758358758648021 0.093008399293466937 -0.20758358758648021 -3329.5542003746891 -0.97513433918550163 0.093008399293466937 -0.97513433918550163 -10001.339122410172 -3330.6602716318312 -0.4127923706946024 0.10045421996164805 -0.4127923706946024 -3330.1658174053432 -1.2010862672487406 0.10045421996164805 -1.2010862672487406 -10001.538337297223 -3328.8981361821784 -1.4864023428593889 -1.479994348097561 -1.4864023428593889 -3328.8942634200789 -0.51752289049687594 -1.479994348097561 -0.51752289049687594 -9998.3093299635602 -3331.7585206145982 -1.7059164731728782 -0.97785556627968617 -1.7059164731728782 -3332.9404123550594 -2.1551119891815915 -0.97785556627968617 -2.1551119891815915 -10000.122425010839 -3330.214464054246 -0.79848696387577878 -1.4039130603879313 -0.79848696387577878 -3332.6727753182527 -2.8262964181496733 -1.4039130603879313 -2.8262964181496733 -9999.5830399061197 -3328.2541518088678 0.39477674717465172 -0.29062441159067021 0.39477674717465172 -3329.40314589534 -1.4361202953482461 -0.29062441159067021 -1.4361202953482461 -9998.2755544890479 -3329.3349611305166 -0.4063105870189429 -0.17737422205037046 -0.4063105870189429 -3330.4378466321896 -1.5443949113522533 -0.17737422205037046 -1.5443949113522533 -9997.5653838502039 -3330.2125797572417 -0.057116449215989323 -0.017631376033474311 -0.057116449215989323 -3332.919860860608 -1.9858774840598588 -0.017631376033474311 -1.9858774840598588 -9998.4052920639897 -3330.2829292094748 -0.40495061948313105 0.4701359624050383 -0.40495061948313105 -3333.2666890850664 -1.7111917741583937 0.4701359624050383 -1.7111917741583937 -9999.8350963420598 -3329.4255556740745 1.0291130442022156 1.6112236907369302 1.0291130442022156 -3330.7936142050808 1.3354328356484562 1.6112236907369302 1.3354328356484562 -10000.415550945369 -3327.4735179444156 1.5119187559308005 0.69006403323282939 1.5119187559308005 -3327.5152054977057 -0.71394561224406061 0.69006403323282939 -0.71394561224406061 -9996.3693627700577 -3328.8721367352982 -0.12127163439238758 1.1945354347317334 -0.12127163439238758 -3329.2864812041048 0.21340620474219918 1.1945354347317334 0.21340620474219918 -9997.4491403014417 -3328.8083976817479 -0.15807822163033552 1.0395683367262336 -0.15807822163033552 -3329.1795365072585 0.47845069750746916 1.0395683367262336 0.47845069750746916 -9997.4064693638429 -3329.4960007941577 -0.33715790921880018 0.13014078925016292 -0.33715790921880018 -3329.2254027179774 -0.77154441281891195 0.13014078925016292 -0.77154441281891195 -9998.6280426464582 -3329.2112360216638 -0.39332063884348256 0.59464723564315136 -0.39332063884348256 -3329.6945234644963 -0.32120028439975101 0.59464723564315136 -0.32120028439975101 -9997.6359256881315 -3330.4669789846939 0.021233306440352762 -0.22190318700313583 0.021233306440352762 -3330.4850117096294 -0.025672058580312296 -0.22190318700313583 -0.025672058580312296 -10000.126319964302 -3329.3761653421175 -0.3371579092188004 -0.99102784813112521 -0.3371579092188004 -3329.1055672659372 0.48520128039626798 -0.99102784813112521 0.48520128039626798 -9998.2685362903358 -3330.9522149291279 0.42077123587397147 -0.0033899116342581692 0.42077123587397147 -3330.8730881243919 -0.62957893382767338 -0.0033899116342581692 -0.62957893382767338 -10000.344648054101 -3330.1901139824527 0.15190352923592818 -0.39146047545091278 0.15190352923592818 -3330.1457566715803 -0.023823849585710377 -0.39146047545091278 -0.023823849585710377 -9998.9039292508423 -3329.5066829503567 -0.39332063884348256 -0.84475959971405246 -0.39332063884348256 -3329.9899703931892 0.080958560135982793 -0.84475959971405246 0.080958560135982793 -9998.5222664742087 -3330.3378421047646 -0.027808104737924833 -0.2353775576739281 -0.027808104737924833 -3330.0508787420467 0.065413684567261043 -0.2353775576739281 0.065413684567261043 -9998.9171417990365 -3330.2659393785962 -0.84163939608121785 -0.46148096171873476 -0.84163939608121785 -3330.6520034522791 0.76982033466447319 -0.46148096171873476 0.76982033466447319 -9998.8775888460405 -3329.1824047432315 -0.15807822163033552 -0.76771824426555213 -0.15807822163033552 -3329.553543568742 0.67063170277060635 -0.76771824426555213 0.67063170277060635 -9998.5284905482949 -3330.4142192897725 0.015942513301115582 -0.28991270680489833 0.015942513301115582 -3330.1142650501688 0.15868665105972468 -0.28991270680489833 0.15868665105972468 -9998.9520826723165 -3330.5200864507278 0.015942513301115582 0.0094203122371254722 0.015942513301115582 -3330.2201322111241 -0.20570854053585208 0.0094203122371254722 -0.20570854053585208 -9999.2696841551806 -3330.1505240365377 0.021233306440352762 -0.21001861491140517 0.021233306440352762 -3330.1685567614732 -0.37488930156359856 -0.21001861491140517 -0.37488930156359856 -9999.1769551198377 -3330.3010033156543 0.15190352923592818 -0.19085907394673995 0.15190352923592818 -3330.2566460047819 -0.42784067715172114 -0.19085907394673995 -0.42784067715172114 -9999.2365972504449 -3330.0340021861166 0.13442579442369174 -0.25630276498850435 0.13442579442369174 -3330.1119932441388 -0.28770111393203024 -0.25630276498850435 -0.28770111393203024 -9999.4368535378671 -3330.101738035316 -0.01649765461604534 -0.25894500373345863 -0.01649765461604534 -3330.3557083799342 -0.20751936296801432 -0.25894500373345863 -0.20751936296801432 -9999.5147162841167 -3329.850004178285 -0.41279237069460262 -0.33230821310371539 -0.41279237069460262 -3329.355549951797 0.74187750065442515 -0.33230821310371539 0.74187750065442515 -9999.1075349365838 -3330.2604451875977 0.13442579442369185 0.025545455278916052 0.13442579442369185 -3330.3384362456204 0.13802367445680375 0.025545455278916052 0.13802367445680375 -10000.116182542315 -3330.7611407816539 -0.81013947431167854 -0.31681952374492539 -0.81013947431167854 -3329.7847520804985 0.76121840217365389 -0.31681952374492539 0.76121840217365389 -9999.4426196196018 -3329.3282355870911 0.56531321809393731 -0.20175707699672785 0.56531321809393731 -3329.6194208467173 -0.00051538324112243572 -0.20175707699672785 -0.00051538324112243572 -9999.6252363991753 -3330.3281810367971 -0.01649765461604534 0.022903216532142778 -0.01649765461604534 -3330.5821513814158 0.21820542541900068 0.022903216532142778 0.21820542541900068 -10000.194045288563 -3329.6647616607343 -0.20758358758647999 -0.33975403377007751 -0.20758358758647999 -3328.7439329211425 0.96782942871868727 -0.33975403377007751 0.96782942871868727 -9998.9083200495315 -3331.4833997838418 0.011878659346528986 0.281960891737981 0.011878659346528986 -3329.3195014082335 0.78238710921937127 0.281960891737981 0.78238710921937127 -9999.891016857493 -3329.8088896874169 -0.086148301761880486 -0.25335850459850917 -0.086148301761880486 -3330.3406629523643 -0.12904072354967866 -0.25335850459850917 -0.12904072354967866 -9999.6036320173007 -3330.2985037725157 -0.0029791279478288413 -0.0035509872323018499 -0.0029791279478288413 -3330.1818984518122 0.0011007772100128932 -0.0035509872323018499 0.0011007772100128932 -9999.6608274679893 -3330.1872593196331 0.023567832291742974 -0.044186135910422308 0.023567832291742974 -3330.1610113744446 -0.060220727318665013 -0.044186135910422308 -0.060220727318665013 -9999.5986369197599 -3330.225197549451 -0.023083492903104963 -0.053098611890163738 -0.023083492903104963 -3330.1493798474403 -0.023647201389394468 -0.053098611890163738 -0.023647201389394468 -9999.5653692151027 -3330.2702818742873 -0.046559410374849564 -0.037224873272862169 -0.046559410374849564 -3330.1970672688458 -0.0038254845048868447 -0.037224873272862169 -0.0038254845048868447 -9999.5885621516645 -3330.2243277443049 -0.012556103938660579 -0.053991978777048644 -0.012556103938660579 -3330.1439784980557 0.0034630366390047129 -0.053991978777048644 0.0034630366390047129 -9999.5638014264696 -3330.2769527845167 -0.012556103938660357 -0.1023340114934399 -0.012556103938660357 -3330.1966035382666 -0.071648878791165771 -0.1023340114934399 -0.071648878791165771 -9999.7216765471057 -3330.2778225896627 -0.023083492903105407 -0.10144064460837399 -0.023083492903105407 -3330.2020048876511 -0.098759116819564952 -0.10144064460837399 -0.098759116819564952 -9999.7232443357389 -3330.0216057219914 0.12202808005603136 -0.22313307394233561 0.12202808005603136 -3330.2296021681559 -0.24628174569988914 -0.22313307394233561 -0.24628174569988914 -9999.4631566528406 -3330.3292620337161 -0.056102543883173817 -0.12324398595956154 -0.056102543883173817 -3330.1874701378383 -0.15487503882991405 -0.12324398595956154 -0.15487503882991405 -9999.6535398260712 -3330.3033394496015 -0.023159008040649021 -0.038904876255401177 -0.023159008040649021 -3330.3561321032348 -0.28532777904740669 -0.038904876255401177 -0.28532777904740669 -9999.6892246713942 -3330.2614307358308 -0.035119183033055612 -0.097664423872629413 -0.035119183033055612 -3330.2151336422485 -0.12293355044494092 -0.097664423872629413 -0.12293355044494092 -9999.6434978777033 -3330.1695323402209 -0.024274929129038281 -0.088527761210571043 -0.024274929129038281 -3330.1705981269852 -0.11454609214888478 -0.088527761210571043 -0.11454609214888478 -9999.3131593624021 -3330.2368220696226 0.18626774580271993 -0.085370641554618487 0.18626774580271993 -3329.9800553956529 -0.23824767215228349 -0.085370641554618487 -0.23824767215228349 -9999.1514042866547 -3330.1802083752018 -0.030862701813399562 -0.053537039399088826 -0.030862701813399562 -3330.1621787495369 -0.051657717137914005 -0.053537039399088826 -0.051657717137914005 -9999.3137235267859 -3330.1664175502237 -0.038573658478910033 -0.032155949844309362 -0.038573658478910033 -3330.1852690133592 -0.088226383062647074 -0.032155949844309362 -0.088226383062647074 -9999.3160483864995 -3330.2737135689931 -0.053600224955109299 -0.046477876274366281 -0.053600224955109299 -3330.240453126622 0.0092299474167703011 -0.046477876274366281 0.0092299474167703011 -9999.4948635343426 -3330.2363372620694 -0.030862701813399451 -0.060416253227231209 -0.030862701813399451 -3330.2183076364036 0.0077032075246279419 -0.060416253227231209 0.0077032075246279419 -9999.4821101873858 -3330.2248103861566 -0.024274929129038336 -0.080800982988876058 -0.024274929129038336 -3330.225876172919 -0.052458531548836618 -0.080800982988876058 -0.052458531548836618 -9999.4789935002045 -3330.2839756733247 0.018545510590977921 -0.013356754490814637 0.018545510590977921 -3330.2880884195365 -0.091517775104875909 -0.013356754490814637 -0.091517775104875909 -9999.6545852694508 -3330.1982167667338 -0.035119183033055557 -0.084284663527796511 -0.035119183033055557 -3330.1519196731533 -0.042830655967009079 -0.084284663527796511 -0.042830655967009079 -9999.4538559704088 -3330.2205071956414 -0.00052839669733770189 -0.04193990798194136 -0.00052839669733770189 -3330.2137140677914 -0.036463395692408085 -0.04193990798194136 -0.036463395692408085 -9999.5297989839055 -3330.2978130688189 -0.00052839669733770189 -0.030532213035257882 -0.00052839669733770189 -3330.2910199409689 -0.034837525912735146 -0.030532213035257882 -0.034837525912735146 -9999.7617166034397 -3330.2863868361601 -0.0077763649201468277 -0.031072165311343269 -0.0077763649201468277 -3330.2715836462703 -0.033345255517815531 -0.031072165311343269 -0.033345255517815531 -9999.7540009716031 -3330.2452111942603 -0.0077763649201468277 -0.030751259040698642 -0.0077763649201468277 -3330.2304080043705 -0.043444444670967641 -0.030751259040698642 -0.043444444670967641 -9999.6304740458982 -3330.3173865578083 -0.0097311035156313341 -0.015438768255989999 -0.0097311035156313341 -3330.2958876044049 -0.0099869288114859955 -0.015438768255989999 -0.0099869288114859955 -9999.7786619086546 -3330.2357466777867 -0.0097311035156313341 -0.027740979410737054 -0.0097311035156313341 -3330.2142477243833 -0.010943843697532429 -0.027740979410737054 -0.010943843697532429 -9999.533742268588 -3330.2308104866879 -0.012500949034988051 -0.021957928291158169 -0.012500949034988051 -3330.2207120789717 -0.020834755205214606 -0.021957928291158169 -0.020834755205214606 -9999.5341243094626 -3330.3396281215828 -0.01514843833364421 0.011497461448016111 -0.01514843833364421 -3330.3364132594215 0.016708902101527201 0.011497461448016111 0.016708902101527201 -9999.8584336263375 -3330.311890287594 -0.0089945121637184933 -0.019733976994757541 -0.0089945121637184933 -3330.2936818878134 -0.015429994940859615 -0.019733976994757541 -0.015429994940859615 -9999.7659013948432 -3330.3447855656905 -0.012269900482452689 0.022459556039393647 -0.012269900482452689 -3330.3268305157162 -0.0020398699680299615 0.022459556039393647 -0.0020398699680299615 -9999.8573273014408 -3330.3181450231077 -0.010128920139801156 -0.006074455777707044 -0.010128920139801156 -3330.2982809676887 -0.019696812142683484 -0.006074455777707044 -0.019696812142683484 -9999.826904062189 -3330.3335734212105 -0.0055304533650130105 0.00017921738253789954 -0.0055304533650130105 -3330.3244857033405 -0.042084036547748838 0.00017921738253789954 -0.042084036547748838 -9999.8539380622242 -3330.3285416077088 -0.0036514520853087595 -0.0012710094397334615 -0.0036514520853087595 -3330.3165252910876 -0.032972134951705812 -0.0012710094397334615 -0.032972134951705812 -9999.8340642891926 -3330.315303738058 -0.0061615063986366625 0.0083696085421252064 -0.0061615063986366625 -3330.2898630836153 -0.029927619267255068 0.0083696085421252064 -0.029927619267255068 -9999.8640093498907 -3330.319244731616 -0.0027166624319139299 0.0074208562655257992 -0.0027166624319139299 -3330.3008092976688 -0.0011366482540324796 0.0074208562655257992 -0.0011366482540324796 -9999.8677311517895 -3330.3015810861943 -0.0010515051835306988 -0.014164135773171438 -0.0010515051835306988 -3330.2776238949155 -0.029798487012158148 -0.014164135773171438 -0.029798487012158148 -9999.8175988097646 -3330.3014146909263 -0.0084603805274570121 -0.019857975574268494 -0.0084603805274570121 -3330.288329074694 -0.018471720251000079 -0.019857975574268494 -0.018471720251000079 -9999.7973851267452 -3330.2419207052226 -0.0044411823387118243 -0.022934925826120889 -0.0044411823387118243 -3330.2315406708658 -0.01568301985389553 -0.022934925826120889 -0.01568301985389553 -9999.6577264685548 -3330.2834989320927 0.0013186024374618466 -0.02934619752704748 0.0013186024374618466 -3330.2662583596266 -0.030319770285132108 -0.02934619752704748 -0.030319770285132108 -9999.7873885082663 -3330.2392637077719 0.0013186024374618466 -0.022354335200361675 0.0013186024374618466 -3330.222023135304 -0.033301705243502511 -0.022354335200361675 -0.033301705243502511 -9999.6546828352984 -3330.2861559295452 -0.0044411823387124905 -0.029926788156444672 -0.0044411823387124905 -3330.2757758951884 -0.012701084895525128 -0.029926788156444672 -0.012701084895525128 -9999.790432141519 -3330.2950190926549 -0.0046396988607251277 -0.016536879840714391 -0.0046396988607251277 -3330.2852396224898 -0.010353473131544888 -0.016536879840714391 -0.010353473131544888 -9999.8190381525492 -3330.4053911294195 -0.051087826491435062 0.049323793193252641 -0.051087826491435062 -3329.8815542970233 -0.27395656225053244 0.049323793193252641 -0.27395656225053244 -9999.156365846331 -3330.2107303724824 -0.038573658478909756 -0.043031144352426054 -0.038573658478909756 -3330.2295818356179 -0.040431043074931949 -0.043031144352426054 -0.040431043074931949 -9999.4489868532764 -3330.2272597110568 -0.035712217017659531 -0.046181625899407663 -0.035712217017659531 -3330.2748721627904 -0.016642667362248176 -0.046181625899407663 -0.016642667362248176 -9999.4939819312312 -3330.3050356884978 -0.012500949034988051 -0.00978311624021444 -0.012500949034988051 -3330.2949372807798 -0.019911470983061008 -0.00978311624021444 -0.019911470983061008 -9999.7567999148814 -3330.312253998618 -0.012612393275541145 -0.014140181252514594 -0.012612393275541145 -3330.3023792717086 -0.012207937905259314 -0.014140181252514594 -0.012207937905259314 -9999.7790016856889 -3330.317097516363 -0.015130869719318873 -0.023962232746271184 -0.015130869719318873 -3330.3210247154857 0.0097676105397113133 -0.023962232746271184 0.0097676105397113133 -9999.8286280782922 -3330.3298419115727 -0.010417441577690423 -0.021693525424780091 -0.010417441577690423 -3330.3233028357154 0.0070742181396781234 -0.021693525424780091 0.0070742181396781234 -9999.8323837071584 -3330.291066941114 -0.015301866555473609 -0.031984212620045582 -0.015301866555473609 -3330.2914828184621 -0.023180806409072829 -0.031984212620045582 -0.023180806409072829 -9999.7524441124551 -3330.2817614959749 -0.011282312527783001 -0.0063825575743976515 -0.011282312527783001 -3330.2965559727345 -0.021547180855122861 -0.0063825575743976515 -0.021547180855122861 -9999.7845459952587 -3330.3070748445643 -0.011180626352284007 -0.0022317869843391236 -0.011180626352284007 -3330.3228532190915 0.012117900028897566 -0.0022317869843391236 0.012117900028897566 -9999.850511456505 -3330.3031999696923 -0.012211081799841095 -0.017033737498422852 -0.012211081799841095 -3330.3211147708153 0.021183715314691653 -0.017033737498422852 0.021183715314691653 -9999.8491081257162 -3330.2820043938736 -0.011684767862720324 -0.025392229574208613 -0.011684767862720324 -3330.3086458501493 0.0095490804096698412 -0.025392229574208613 0.0095490804096698412 -9999.8167600813395 -3330.2937418010988 -0.00036439022310541525 -0.012620763198356144 -0.00036439022310541525 -3330.3240113707543 -0.011583709689148236 -0.012620763198356144 -0.011583709689148236 -9999.8474677335544 -3330.2718214116812 -0.01331530927595137 -0.030289411653029674 -0.01331530927595137 -3330.2932358020353 -0.006904845515236957 -0.030289411653029674 -0.006904845515236957 -9999.7812309315123 -3330.3007904865353 -0.016685569993672322 -0.042749164444103371 -0.016685569993672322 -3330.3036702937843 -0.0088089276432583574 -0.042749164444103371 -0.0088089276432583574 -9999.7910818231612 -3330.3044248760216 -0.010204980667294583 -0.034986332486369065 -0.010204980667294583 -3330.2948053595155 -0.01961671211211069 -0.034986332486369065 -0.01961671211211069 -9999.7566142314463 -3330.2794098585055 0.00088411564532925313 -0.076700324869307224 0.00088411564532925313 -3330.2576470855183 0.0055264769380301004 -0.076700324869307224 0.0055264769380301004 -9999.6138738361369 -3330.2395241183149 -0.0082798635953180155 -0.1054283241101075 -0.0082798635953180155 -3330.2401210787393 -0.039701290101220366 -0.1054283241101075 -0.039701290101220366 -9999.4588201005172 -3330.1983351240633 -0.023855517562953454 -0.08219208550735857 -0.023855517562953454 -3330.2307151260302 -0.067287179117556661 -0.08219208550735857 -0.067287179117556661 -9999.446171363772 -3330.2524843231367 -0.026288484892905473 -0.13144890083822247 -0.026288484892905473 -3330.2422875796692 -0.03139929561803001 -0.13144890083822247 -0.03139929561803001 -9999.5748290896991 -3330.2366476753523 -0.0166855699936721 -0.065369681113224942 -0.0166855699936721 -3330.2395274826031 -0.0079251787446992239 -0.065369681113224942 -0.0079251787446992239 -9999.5986533896175 -3330.2005565737327 0.0030005650115191296 -0.049920626954190084 0.0030005650115191296 -3330.2375140229433 -0.01537708708201535 -0.049920626954190084 -0.01537708708201535 -9999.6244087419836 -3330.2217911975713 -0.013315309275951925 -0.046764904289375409 -0.013315309275951925 -3330.2432055879253 -0.0081775608232419472 -0.046764904289375409 -0.0081775608232419472 -9999.6311402891843 -3330.1461596076842 -0.0078408034960181228 -0.096050435714460036 -0.0078408034960181228 -3330.2014937744916 -0.025989751316956244 -0.096050435714460036 -0.025989751316956244 -9999.5380494595483 -3330.1684402582578 -0.015953640610047781 -0.083494787813833682 -0.015953640610047781 -3330.2179180689018 -0.0106950323925048 -0.083494787813833682 -0.0106950323925048 -9999.5761991819199 -3330.2296857279598 -0.010751923139266095 -0.03835596709541278 -0.010751923139266095 -3330.2476135283232 -0.013327819322512369 -0.03835596709541278 -0.013327819322512369 -9999.6342159068809 -3330.189202471297 -0.0078408034960181228 -0.038505997982611007 -0.0078408034960181228 -3330.2445366381044 0.0059691668939194642 -0.038505997982611007 0.0059691668939194642 -9999.6671780503748 -3330.242597696727 -0.0090825693375753414 -0.019857817518641241 -0.0090825693375753414 -3330.2396682920553 -0.0054523656490346184 -0.019857817518641241 -0.0054523656490346184 -9999.6793097702212 -3329.7627329654861 0.077096110720349942 -0.18793709058536479 0.077096110720349942 -3330.0472581464155 -0.03847745690291049 -0.18793709058536479 -0.03847745690291049 -9999.4052195365912 -3330.169114320468 0.0091997097133970085 -0.039976561260118615 0.0091997097133970085 -3330.2524426372274 0.0026141956077481154 -0.039976561260118615 0.0026141956077481154 -9999.6641325124474 -3330.1903300637287 -0.24714920264148565 0.0022689065681333886 -0.24714920264148565 -3329.8735422718992 -0.31693702139637026 0.0022689065681333886 -0.31693702139637026 -9999.0401170411242 -3330.2531185809858 -0.026288484892905251 -0.13142750773113221 -0.026288484892905251 -3330.2429218375173 -0.02984174089942826 -0.13142750773113221 -0.02984174089942826 -9999.5767318632425 -3330.3736018349018 0.043778986917113794 -0.19231083854720055 0.043778986917113794 -3330.4167679938273 0.042438494945599814 -0.19231083854720055 0.042438494945599814 -9999.6503142157999 -3329.8712290886278 -0.35874823543083911 0.20487007319934492 -0.35874823543083911 -3330.05761292441 -0.18555152244516648 0.20487007319934492 -0.18555152244516648 -9999.3134627852814 -3330.2270791898609 0.014334126431165606 -0.036970846151234582 0.014334126431165606 -3330.2390221701007 -0.062174485587092931 -0.036970846151234582 -0.062174485587092931 -9999.567661453988 -3330.2041425995076 0.01026513512144378 0.0075817881770490203 0.01026513512144378 -3330.2036536266114 0.035810098455840489 0.0075817881770490203 0.035810098455840489 -9999.6612179835465 -3330.1863912606032 0.046956609614928535 0.015739329273856129 0.046956609614928535 -3330.2458363550604 0.009301454196247505 0.015739329273856129 0.009301454196247505 -9999.6668001769394 -3330.1734625821018 0.030492347855721746 0.0045818920989404432 0.030492347855721746 -3330.142556867665 0.024420713354629697 0.0045818920989404432 0.024420713354629697 -9999.6377481354684 -3329.8180428173364 -0.062747708405924696 0.23006229881320905 -0.062747708405924696 -3330.3838976487041 0.11238587205912154 0.23006229881320905 0.11238587205912154 -9999.5701724493665 -3330.2432514192224 -0.0049104805927977502 0.077701785688987002 -0.0049104805927977502 -3330.2217032348954 0.045618765395602168 0.077701785688987002 0.045618765395602168 -9999.6755075905457 -3330.166461649791 0.0062321084153365014 -0.03688850974504021 0.0062321084153365014 -3330.2255484528232 -0.013812916840834077 -0.03688850974504021 -0.013812916840834077 -9999.6128936184614 -3330.189052915206 0.01026513512144378 -0.049167549950652756 0.01026513512144378 -3330.188563942309 -0.021344326178223127 -0.049167549950652756 -0.021344326178223127 -9999.615948930641 -3330.2277182740218 -0.0090825693375757854 -0.073904035414670943 -0.0090825693375757854 -3330.224788869351 -0.051580159424702288 -0.073904035414670943 -0.051580159424702288 -9999.6346715021064 -3330.2052631010156 0.0013696206848496928 -0.027221182059292914 0.0013696206848496928 -3330.2350651825327 -0.008639388695883099 -0.027221182059292914 -0.008639388695883099 -9999.6322855243488 -3330.1769880513311 0.010939536065327715 -0.037772654730360955 0.010939536065327715 -3330.2286167321072 -0.012614826540811919 -0.037772654730360955 -0.012614826540811919 -9999.6162922886724 -3330.2764198804816 0.0046517017170928376 -0.013617545595479896 0.0046517017170928376 -3330.2182643747201 -0.016371448757126927 -0.013617545595479896 -0.016371448757126927 -9999.6452157800632 -3330.2311799539239 -0.00037934999175348594 0.0011272921074123587 -0.00037934999175348594 -3330.2439070840228 -0.0046738902456127107 0.0011272921074123587 -0.0046738902456127107 -9999.6409752129548 -3330.2041225390185 -0.0049104805927981943 0.032523843407034292 -0.0049104805927981943 -3330.1825743546924 -0.019803639141855456 0.032523843407034292 -0.019803639141855456 -9999.558120949936 -3330.2807104860567 -0.00037934999175393003 0.011660938605928095 -0.00037934999175393003 -3330.2934376161556 -0.0011679605522658676 0.011660938605928095 -0.0011679605522658676 -9999.7895668093479 -3330.2631638062885 0.0013696206848496928 -0.016539676787942881 0.0013696206848496928 -3330.2929658878056 -0.0055411172907042783 -0.016539676787942881 -0.0055411172907042783 -9999.8059876401749 -3330.2905113774978 -0.010751923139266095 -0.021251431178825442 -0.010751923139266095 -3330.3084391778611 -0.011300376036160742 -0.021251431178825442 -0.011300376036160742 -9999.8166928554929 -3330.2956540879768 -0.0028735437304976408 -0.019598433573264629 -0.0028735437304976408 -3330.3200187234506 0.020232454317010706 -0.019598433573264629 0.020232454317010706 -9999.862195485468 -3330.2825207417864 0.0066668899498707468 -0.012214149257488316 0.0066668899498707468 -3330.3181540753085 -0.011534906152519397 -0.012214149257488316 -0.011534906152519397 -9999.8431981448666 -3330.2885247720096 -0.000935846582337585 -0.00022807895220466889 -0.000935846582337585 -3330.3018411752819 -0.0032593854593869764 -0.00022807895220466889 -0.0032593854593869764 -9999.8145467034774 -3330.273389142807 0.0012225600097741651 -0.027194236070499755 0.0012225600097741651 -3330.30281739559 0.0087643624974589329 -0.027194236070499755 0.0087643624974589329 -9999.8370810751876 -3330.2938034909057 -0.0056558089399615374 -0.015806223611434689 -0.0056558089399615374 -3330.3204789228712 0.020762923875736305 -0.015806223611434689 0.020762923875736305 -9999.8618478860517 -3330.2868432260839 0.0049713137927347578 -0.0016562798482482322 0.0049713137927347578 -3330.3001876208582 -0.00022446654747909633 -0.0016562798482482322 -0.00022446654747909633 -9999.8158468836627 -3330.2838585809259 0.0021078498481088975 0.0065978784732578788 0.0021078498481088975 -3330.2905394290501 -0.0061199793444757233 0.0065978784732578788 -0.0061199793444757233 -9999.7896292862861 -3330.2776190319928 0.0045515017679571557 0.011635896225925535 0.0045515017679571557 -3330.2865944743462 -0.0015628862856829073 0.011635896225925535 -0.0015628862856829073 -9999.7870831603796 -3330.2774250867205 0.003097752212921509 0.012580036665895022 0.003097752212921509 -3330.2814055846484 0.0007004517146924627 0.012580036665895022 0.0007004517146924627 -9999.7705279472866 -3330.2787264940525 0.0092827935999325734 0.013636843772701468 0.0092827935999325734 -3330.2811871449085 -0.012025039530271897 0.013636843772701468 -0.012025039530271897 -9999.7707986891837 -3330.2941390245032 0.0041410504094701039 0.025673482843558304 0.0041410504094701039 -3330.2830707745197 0.0014960144799260888 0.025673482843558304 0.0014960144799260888 -9999.7751227291956 -3330.2867116344059 0.010569585830651818 -0.0013148564585208078 0.010569585830651818 -3330.2959875188644 -0.0043356996357033495 -0.0013148564585208078 -0.0043356996357033495 -9999.8147639602394 -3330.2998950286074 0.0097021018558349492 -0.0026119967778868158 0.0097021018558349492 -3330.3070970673634 0.016753263276768848 -0.0026119967778868158 0.016753263276768848 -9999.8570324450993 -3330.30097418689 0.0078551916782972908 0.0051871247342205606 0.0078551916782972908 -3330.2967837955821 -0.0064990521223080577 0.0051871247342205606 -0.0064990521223080577 -9999.8185286675434 -3330.2792243058375 0.017034246753282058 0.001707811535879955 0.017034246753282058 -3330.2808201009593 -0.0085456193355639698 0.001707811535879955 -0.0085456193355639698 -9999.8091002736255 -3330.2846230540672 0.011795465165083258 0.0019828808194688463 0.011795465165083258 -3330.2939616462972 -0.0050100677981390618 0.0019828808194688463 -0.0050100677981390618 -9999.8137353470156 -3330.2731835762352 0.0083196708188619795 -0.0050015078304568306 0.0083196708188619795 -3330.291497946655 0.0019743208132467771 -0.0050015078304568306 0.0019743208132467771 -9999.8102595526434 -3330.2846432154256 0.006971740498240564 -0.011217418599699158 0.006971740498240564 -3330.3114152348498 -0.0094708113283559214 -0.011217418599699158 -0.0094708113283559214 -9999.8413488622973 -3330.2868963719775 0.0057445535274371906 -0.013298510148160858 0.0057445535274371906 -3330.3099135074226 -0.012959530664375052 -0.013298510148160858 -0.012959530664375052 -9999.8415367195776 -3330.3096198215699 0.0022040704716568271 0.0056068145895551424 0.0022040704716568271 -3330.3324182707274 -0.0082535311303217895 0.0056068145895551424 -0.0082535311303217895 -9999.8687868056804 -3330.2778645011804 0.0089155277511616671 0.00063406989283976145 0.0089155277511616671 -3330.2930919733026 0.0018472484407539014 0.00063406989283976145 0.0018472484407539014 -9999.8118282905416 -3330.2995873479158 0.0079552435928698095 -0.0027222401913604699 0.0079552435928698095 -3330.3188197180789 -0.02221626839889268 -0.0027222401913604699 -0.02221626839889268 -9999.8628790491057 -3330.2928736374561 0.0067148408787847114 -0.022262183814746095 0.0067148408787847114 -3330.3165102528656 -0.021775676996185211 -0.022262183814746095 -0.021775676996185211 -9999.8606232551901 -3330.2958814416779 -6.6625685806620538e-05 -0.011625159226241522 -6.6625685806620538e-05 -3330.3172803106463 -0.0095197500959329773 -0.011625159226241522 -0.0095197500959329773 -9999.845624687805 -3330.3044405677047 0.0043522798155333567 -0.0050959105919901049 0.0043522798155333567 -3330.3253326709546 -0.018336704772082157 -0.0050959105919901049 -0.018336704772082157 -9999.8497775593933 -3330.2999280310414 0.0098954699654824167 -0.0067391357042652089 0.0098954699654824167 -3330.3134855142034 -0.019518905075528892 -0.0067391357042652089 -0.019518905075528892 -9999.845687636036 -3330.2676474825439 0.0061234824405818067 -0.031637592965125805 0.0061234824405818067 -3330.3073213795305 -0.017732080153564311 -0.031637592965125805 -0.017732080153564311 -9999.8128397358523 -3330.2893796673852 0.012588518824934322 -0.0061015643966584321 0.012588518824934322 -3330.2900315606494 -0.0083263924898346886 -0.0061015643966584321 -0.0083263924898346886 -9999.8286425097176 -3330.2944548207688 0.0097487986252779851 -0.0063467189338552998 0.0097487986252779851 -3330.3037071723902 -0.011477440413727891 -0.0063467189338552998 -0.011477440413727891 -9999.8333302009996 -3330.2937232098066 0.0080328988744087226 0.00014883728363201953 0.0080328988744087226 -3330.2866595723044 -0.010474097411133698 0.00014883728363201953 -0.010474097411133698 -9999.8288853982376 -3330.2762521504574 0.016075690631381145 -0.0018602362797537353 0.016075690631381145 -3330.2830402702548 -0.0066085684247809695 -0.0018602362797537353 -0.0066085684247809695 -9999.8211574374291 -3330.3087712987599 0.0062907504194595343 -0.0073203494175686501 0.0062907504194595343 -3330.3019669426285 0.002468632381351199 -0.0073203494175686501 0.002468632381351199 -9999.8584692055447 -3330.2962444170553 0.0084609147362710857 -0.016607126708549913 0.0084609147362710857 -3330.2864790116182 -0.017939611214387696 -0.016607126708549913 -0.017939611214387696 -9999.8294705598819 -3330.3037776836318 0.0054661024250456606 -0.025538471373693028 0.0054661024250456606 -3330.3124516391799 -0.037898727023275569 -0.025538471373693028 -0.037898727023275569 -9999.8378470334137 -3330.3122149524297 0.0009927738627737992 -0.030208146461518481 0.0009927738627737992 -3330.3179594027224 -0.041084095857513603 -0.030208146461518481 -0.041084095857513603 -9999.8469668698744 -3330.3391599844472 -0.0091746003159676737 -0.028592180247869692 -0.0091746003159676737 -3330.3364435878029 0.017177762001665542 -0.028592180247869692 0.017177762001665542 -9999.8583241741508 -3330.3101227457173 0.0018365335977748032 -0.034989080046216259 0.0018365335977748032 -3330.320496241211 -0.017498132293439994 -0.034989080046216259 -0.017498132293439994 -9999.8267522670649 -3330.3175552355024 0.004123326575511399 -0.046027405427594204 0.004123326575511399 -3330.3288233344756 -0.015045373865632428 -0.046027405427594204 -0.015045373865632428 -9999.8510179235818 -3330.3069070341244 0.0072630571227280932 -0.035045089527557138 0.0072630571227280932 -3330.3171179968176 -0.022250700296353898 -0.035045089527557138 -0.022250700296353898 -9999.8397959604481 -3330.2949947919915 0.0030457147758986766 -0.030762411835894454 0.0030457147758986766 -3330.3059632127406 -0.03200167718546254 -0.030762411835894454 -0.03200167718546254 -9999.8230370656747 -3330.282984917294 0.0094866358687478725 -0.025890174149026279 0.0094866358687478725 -3330.279497559457 -0.021113556776981568 -0.025890174149026279 -0.021113556776981568 -9999.8134181836795 -3330.2622391447458 0.0030005650115191296 -0.035226138103098492 0.0030005650115191296 -3330.2991965939527 -0.012886187247204361 -0.035226138103098492 -0.012886187247204361 -9999.809456455012 -3330.2810925246577 0.0087883279084439714 -0.022535044456162723 0.0087883279084439714 -3330.3089095333144 -0.023123953929371055 -0.022535044456162723 -0.023123953929371055 -9999.8312902172038 -3330.1115569577069 -0.0042300812315103631 -0.096620355980121531 -0.0042300812315103631 -3330.1959035780346 -0.022017813803358877 -0.096620355980121531 -0.022017813803358877 -9999.556474734065 -3330.195796931268 0.027127904632197497 -0.058032342880323995 0.027127904632197497 -3330.2564770460503 -0.052226595330466807 -0.058032342880323995 -0.052226595330466807 -9999.6409787943594 -3330.1374608513088 0.0091997097133970085 -0.091492828205446131 0.0091997097133970085 -3330.2207891680682 -0.02894191524683265 -0.091492828205446131 -0.02894191524683265 -9999.5691721049698 -3330.2290846051019 0.01179546516508348 -0.011398534498766821 0.01179546516508348 -3330.2384231973319 -0.012888004373962758 -0.011398534498766821 -0.012888004373962758 -9999.6471200001179 -3330.2324174146925 0.015737814275286199 -0.036419210468011443 0.015737814275286199 -3330.2628796924055 -0.028238779446837725 -0.036419210468011443 -0.028238779446837725 -9999.6540673262862 -3330.2196738633793 0.0087883279084439714 -0.035138867333444068 0.0087883279084439714 -3330.247490872036 -0.029967726848553866 -0.035138867333444068 -0.029967726848553866 -9999.6470342333632 -3330.25653887523 0.0099084020255992833 0.013176908250898123 0.0099084020255992833 -3330.2251226079061 -0.023320766464166809 0.013176908250898123 -0.023320766464166809 -9999.6483256708125 -3330.1514609078058 0.032570619390395739 0.019561586987038027 0.032570619390395739 -3330.1935352050368 -0.012484935228712857 0.019561586987038027 -0.012484935228712857 -9999.6035938062269 -3330.2227527570794 0.017034246753282058 -0.0029864244481814239 0.017034246753282058 -3330.2243485522013 -0.017766872328138561 -0.0029864244481814239 -0.017766872328138561 -9999.6396856273532 -3330.2267494611533 0.029380366266985196 -0.002562614183034384 0.029380366266985196 -3330.2443622189585 -0.012319506484345766 -0.002562614183034384 -0.012319506484345766 -9999.6456882200546 -3330.200472718323 0.0259172671806569 -0.034879053479016875 0.0259172671806569 -3330.1966597599585 -0.044731796355335973 -0.034879053479016875 -0.044731796355335973 -9999.6271934196011 -3330.1922080109725 0.033352485363172812 -0.045745138895654236 0.033352485363172812 -3330.1804139510805 -0.054208039186050883 -0.045745138895654236 -0.054208039186050883 -9999.6047247367496 -3330.2319152140644 0.009486635868747928 -0.021901744161368697 0.009486635868747928 -3330.2284278562292 -0.026655216181097785 -0.021901744161368697 -0.026655216181097785 -9999.6602090739871 -3330.2228332499326 0.015116531979708107 -0.056896535155829042 0.015116531979708107 -3330.2566153458101 -0.09393485396867618 -0.056896535155829042 -0.09393485396867618 -9999.6477724489632 -3330.2229127493665 0.019089850057279041 -0.061728300017421134 0.019089850057279041 -3330.2678406904233 -0.089926038590363078 -0.061728300017421134 -0.089926038590363078 -9999.6342576061834 -3330.1943732334148 0.0030457147758987044 -0.044325822178507224 0.0030457147758987044 -3330.2053416541657 -0.036384883698474368 -0.044325822178507224 -0.036384883698474368 -9999.5211723899447 -3330.2301996742117 -0.010204980667294361 -0.047161144537312794 -0.010204980667294361 -3330.2205801577056 -0.020539996337902267 -0.047161144537312794 -0.020539996337902267 -9999.5339386260275 -3330.2633184607766 0.010694150636992417 -0.091786502811373794 0.010694150636992417 -3330.2486149469769 -0.022355237033366393 -0.091786502811373794 -0.022355237033366393 -9999.607592952063 -3330.2509253055414 0.030735260690191012 -0.08330734286482766 0.030735260690191012 -3330.2752865910661 -0.050462294295357424 -0.08330734286482766 -0.050462294295357424 -9999.6594632741799 -3330.2018886202604 0.0072630571227280932 -0.050360154595182394 0.0072630571227280932 -3330.2120995829519 -0.026452287956999498 -0.050360154595182394 -0.026452287956999498 -9999.5247407188544 -3330.3042385101517 0.083384466143863314 -0.23410575677280576 0.083384466143863314 -3330.2824619241428 -0.034805321218300378 -0.23410575677280576 -0.034805321218300378 -9999.5993968671901 -3330.195211296058 -0.0082798635953177935 -0.094553129601990804 -0.0082798635953177935 -3330.1958082564815 -0.087496630090754479 -0.094553129601990804 -0.087496630090754479 -9999.3258816337366 -3330.1310118837682 0.030735260690190898 -0.090605633886298165 0.030735260690190898 -3330.1553731692911 -0.080201015058264602 -0.090605633886298165 -0.080201015058264602 -9999.2997230088658 -3330.2478721714269 0.0070153081859942179 -0.089746870417002356 0.0070153081859942179 -3330.2703558093999 -0.15287201073715551 -0.089746870417002356 -0.15287201073715551 -9999.6678407222316 -3330.2428866988212 0.033352485363172923 -0.057132521267703851 0.033352485363172923 -3330.2310926389291 -0.075175310179474764 -0.057132521267703851 -0.075175310179474764 -9999.7567608002973 -3330.2090609708066 0.031705842684510557 -0.13578886391314882 0.031705842684510557 -3330.2195806471973 -0.25576329012437782 -0.13578886391314882 -0.25576329012437782 -9999.6454441315254 -3330.1095357491104 0.019089850057279131 -0.069356770729427808 0.019089850057279131 -3330.1544636901672 -0.11517694165371495 -0.069356770729427808 -0.11517694165371495 -9999.2941266054222 -3330.2645120349171 0.010417730742352999 0.0091515757776505779 0.010417730742352999 -3330.3545014475349 0.031673185032559559 0.0091515757776505779 0.031673185032559559 -9999.693037097637 -3330.2150690750259 0.043478727951826251 0.004258915017999243 0.043478727951826251 -3330.2246920584148 -0.031213713880788418 0.004258915017999243 -0.031213713880788418 -9999.6482240103833 -3330.0987369770182 0.093282816972516724 0.043616245537123177 0.093282816972516724 -3330.1239447573989 0.0056225266475848912 0.043616245537123177 0.0056225266475848912 -9999.5591846099342 -3330.1430150297965 0.043603752331672574 0.10534764416479447 0.043603752331672574 -3330.2086651455156 -0.065948883342571207 0.10534764416479447 -0.065948883342571207 -9999.6262037708511 -3330.1540569886092 0.010968910486847117 -0.041892047935107257 0.010968910486847117 -3330.4038470052046 -0.057069691286415036 -0.041892047935107257 -0.057069691286415036 -9999.7388142225282 -3330.241728712339 0.039189030741293929 0.01773510213024565 0.039189030741293929 -3330.2532184214415 0.0017630939018999925 0.01773510213024565 0.0017630939018999925 -9999.7230750075214 -3329.908284534341 0.017638240244872941 -0.22829823321808362 0.017638240244872941 -3330.1399368108105 -0.035210710726460093 -0.22829823321808362 -0.035210710726460093 -9999.464777094905 -3330.2243681008858 0.027127904632197497 -0.049590643302508397 0.027127904632197497 -3330.2850482156673 -0.046673676350792448 -0.049590643302508397 -0.046673676350792448 -9999.7266923032148 -3330.2496911678027 -0.0089136120599008807 0.077959819055081425 -0.0089136120599008807 -3330.2391766425608 0.049688028133459738 0.077959819055081425 0.049688028133459738 -9999.6814858796097 -3330.2098646724735 0.018962694964518079 0.018960994875669712 0.018962694964518079 -3330.2625047701167 0.02039032307720845 0.018960994875669712 0.02039032307720845 -9999.6773612876641 -3330.3683118775407 -0.06892350718953745 0.09887032673577778 -0.06892350718953745 -3330.303410186636 0.082528508951156709 0.09887032673577778 0.082528508951156709 -9999.643625803863 -3330.1635935495851 0.053177528786071494 0.034730514240436605 0.053177528786071494 -3330.3873075743149 -0.015232318130074418 0.034730514240436605 -0.015232318130074418 -9999.7370635050502 -3330.1947114035002 0.027916412814058801 0.036988748315707198 0.027916412814058801 -3330.2230898207608 0.050611853801456164 0.036988748315707198 0.050611853801456164 -9999.6637192330818 -3330.2157864962946 -0.010359230982000769 0.04953358072998526 -0.010359230982000769 -3330.2108586464656 0.037901404933109006 0.04953358072998526 0.037901404933109006 -9999.5823565735082 -3329.974459620611 0.14963103313717213 0.17556584924386698 0.14963103313717213 -3330.2278765074534 0.18463963253452675 0.17556584924386698 0.18463963253452675 -9999.4052501575352 -3330.2270296558509 0.003097752212921509 0.012306137370615033 0.003097752212921509 -3330.2310101537787 -0.00043235334760538535 0.012306137370615033 -0.00043235334760538535 -9999.6193416546776 -3330.2105622875988 -0.0089136120599008807 0.032781876773128715 -0.0089136120599008807 -3330.2000477623569 -0.015734376398540917 0.032781876773128715 -0.015734376398540917 -9999.5640992389963 -3330.194749304479 -0.010359230982000769 0.047693817794424831 -0.010359230982000769 -3330.1898214546491 -0.018690906513256778 0.047693817794424831 -0.018690906513256778 -9999.5192449980677 -3330.248407556559 -0.018898156168520155 0.018294115363460151 -0.018898156168520155 -3330.2079322200789 -0.028839148963470507 0.018294115363460151 -0.028839148963470507 -9999.5755316706709 -3330.21659089692 0.006971740498240564 -0.023252006372786127 0.006971740498240564 -3330.2433629163424 -0.01401795322453836 -0.023252006372786127 -0.01401795322453836 -9999.6371919067824 -3330.2280884998654 0.0045515017679567116 0.0011022497310477775 0.0045515017679567116 -3330.237063942217 -0.0050688159863057081 0.0011022497310477775 -0.0050688159863057081 -9999.6384915639865 -3330.1982543214708 0.018962694964518523 -0.023411974128975999 0.018962694964518523 -3330.250894419114 -0.026677595516957808 -0.023411974128975999 -0.026677595516957808 -9999.6425302346543 -3330.2144292888515 0.0083196708188619795 -0.017661286659858888 0.0083196708188619795 -3330.232743659275 -0.0046457312063239442 -0.017661286659858888 -0.0046457312063239442 -9999.6339966904925 -3330.1729365135998 0.027916412814059002 0.0053527763429883635 0.027916412814059002 -3330.2013149308586 0.0083632110472535715 0.0053527763429883635 0.0083632110472535715 -9999.5983945633816 -3330.216344334267 0.0090887210498473703 -0.013770988061878597 0.0090887210498473703 -3330.2403364915608 -0.010515550829950371 -0.013770988061878597 -0.010515550829950371 -9999.64441325597 -3330.1708380549462 0.023634475726000442 0.021624311897539883 0.023634475726000442 -3330.2003588824318 0.0079963165062508779 0.021624311897539883 0.0079963165062508779 -9999.5976309366124 -3330.2016882651224 0.043478727951826307 0.010343521713366499 0.043478727951826307 -3330.2113112485113 -0.010476670775460661 0.010343521713366499 -0.010476670775460661 -9999.6080815806745 -3330.2039261036134 0.039189030741293512 0.011343220250637387 0.039189030741293512 -3330.2154158127178 0.0023727671759843361 0.011343220250637387 0.0023727671759843361 -9999.6096671813466 -3330.2546068706142 0.016583460555828489 0.022076104030929855 0.016583460555828489 -3330.2582406495494 -0.0035754471955442568 0.022076104030929855 -0.0035754471955442568 -9999.6330435823074 -3330.2762504959119 -0.041312662760709218 0.053907741410512244 -0.041312662760709218 -3330.2487300744015 -0.034849355062760878 0.053907741410512244 -0.034849355062760878 -9999.5543474508595 -3330.2198138787044 0.0092827935999325734 0.022299178106777617 0.0092827935999325734 -3330.2222745295603 -0.01974147052897024 0.022299178106777617 -0.01974147052897024 -9999.5940608431374 -3330.1981228025215 -0.0072935806835448952 0.049451439991798907 -0.0072935806835448952 -3330.1980522475969 -0.039855228542364785 0.049451439991798907 -0.039855228542364785 -9999.5221460708126 -3330.2416084904289 0.023574470271907844 0.01229694854760055 0.023574470271907844 -3330.261676448652 -0.00032170657141250558 0.01229694854760055 -0.00032170657141250558 -9999.6306529370377 -3330.1445082898408 0.27771866860206207 0.12504669938789448 0.27771866860206207 -3329.920072679246 0.1930280479373323 0.12504669938789448 0.1930280479373323 -9999.2237021528199 -3330.1866466385663 -0.037521298673602543 0.047009348614665214 -0.037521298673602543 -3330.1402243182829 0.068296822861157125 0.047009348614665214 0.068296822861157125 -9999.5574130270325 -3330.1849484724498 -0.0072935806835448258 0.032639869792774334 -0.0072935806835448258 -3330.1848779175252 0.033663943078863667 0.032639869792774334 0.033663943078863667 -9999.482623080592 -3330.3700589604796 0.050982875232307601 0.10982434412653674 0.050982875232307601 -3330.1950624575466 0.044566799844687921 0.10982434412653674 0.044566799844687921 -9999.6447945308391 -3330.2087407829476 0.0165834605558286 0.0054246314575721044 0.0165834605558286 -3330.2123745618819 0.042719052860775264 0.0054246314575721044 0.042719052860775264 -9999.4954453193059 -3330.4031236611563 0.076342789363800123 0.093553116646944545 0.076342789363800123 -3330.4081452601786 -0.010165239029447548 0.093553116646944545 -0.010165239029447548 -9999.7063314066654 -3330.2187715534528 0.0026177526932689155 0.015411560871143593 0.0026177526932689155 -3330.2069190665861 0.076312400953156612 0.015411560871143593 0.076312400953156612 -9999.4965891381107 -3330.1871503088605 -0.020288061443996974 -0.031771307729286491 -0.020288061443996974 -3330.2085027556604 0.067762574764856254 -0.031771307729286491 0.067762574764856254 -9999.4890797492335 -3330.1958151557765 -0.013708992576818124 0.0020427573399501853 -0.013708992576818124 -3330.2006319630646 -0.00070654922274115961 0.0020427573399501853 -0.00070654922274115961 -9999.4892782628121 -3330.4987961354609 -0.017176348289683507 -0.11717886638143682 -0.017176348289683507 -3329.8443623377625 0.21377457054768456 -0.11717886638143682 0.21377457054768456 -9999.4258964299952 -3330.2343088216967 -0.016691615238333457 0.0091747892683997634 -0.016691615238333457 -3330.286130440074 -0.021545973442698596 0.0091747892683997634 -0.021545973442698596 -9999.6156784396808 -3330.2339760122322 -0.013708992576818124 0.033721756144586834 -0.013708992576818124 -3330.2387928195203 -0.071250417877308792 0.033721756144586834 -0.071250417877308792 -9999.6037608321785 -3330.23905586814 0.0029771981543227355 0.016117230534291593 0.0029771981543227355 -3330.2240383910466 -0.026685804958106019 0.016117230534291593 -0.026685804958106019 -9999.5993123058652 -3330.2343847997563 0.00020811078195759336 0.0042690206246334128 0.00020811078195759336 -3330.2168316512307 -0.0026947068281515385 0.0042690206246334128 -0.0026947068281515385 -9999.5963428538162 -3330.2332328646226 -0.0016718851771613252 0.01611460282583721 -0.0016718851771613252 -3330.2174001648273 -0.00054821442245156504 0.01611460282583721 -0.00054821442245156504 -9999.596196998431 -3330.2267540145476 0.0078551916782972908 0.011478940075903665 0.0078551916782972908 -3330.2225636232397 -0.016141338795932825 0.011478940075903665 -0.016141338795932825 -9999.5958681505181 -3330.2629818111454 0.0020201018980888219 0.035993065616821696 0.0020201018980888219 -3330.229463996131 -0.011689930805005133 0.035993065616821696 -0.011689930805005133 -9999.6404562298376 -3330.2722186445044 -0.0019896728483607129 0.0391889184138563 -0.0019896728483607129 -3330.2530844123503 -0.00093994037888478488 0.0391889184138563 -0.00093994037888478488 -9999.6486705422321 -3330.2398318386695 0.0026177526932689155 0.049967810280577396 0.0026177526932689155 -3330.2279793518028 0.018231114195714326 0.049967810280577396 0.018231114195714326 -9999.5597699937607 -3330.2082105940772 -0.020288061443997085 0.0027849416810568073 -0.020288061443997085 -3330.2295630408771 0.0096812880019570002 0.0027849416810568073 0.0096812880019570002 -9999.5522606048835 -3330.2128017154537 -0.0052088753549370814 0.043570581288804533 -0.0052088753549370814 -3330.2237029628686 0.024628343193398905 0.043570581288804533 0.024628343193398905 -9999.5519433657246 -3330.2479047051638 -0.21933761666474583 -0.073032019588936237 -0.21933761666474583 -3329.9342562197025 0.21387722898180073 -0.073032019588936237 0.21387722898180073 -9999.2831866976121 -3329.8330351359327 0.11307282123155415 0.12220809429891233 0.11307282123155415 -3330.0197355734063 0.028116872712416807 0.12220809429891233 0.028116872712416807 -9999.4667068536655 -3330.2486254809201 -0.0091724631796185063 0.069416476408605376 -0.0091724631796185063 -3330.2205824301818 0.013971401231174241 0.069416476408605376 0.013971401231174241 -9999.6208161541072 -3330.194197878448 0.010523111645874828 -0.0078063230466796085 0.010523111645874828 -3330.2193382458172 -0.02834416944278928 -0.0078063230466796085 -0.02834416944278928 -9999.701692888837 -3330.2306473135814 -0.010520979631959859 0.0038540636560355779 -0.010520979631959859 -3330.2148138748435 -0.0081477871760853304 0.0038540636560355779 -0.0081477871760853304 -9999.7096741548776 -3330.2219456053863 0.024576694263334531 0.0084601407252193894 0.024576694263334531 -3330.2392346929046 -0.045950914369313978 0.0084601407252193894 -0.045950914369313978 -9999.7535610404302 -3330.2048473210616 0.01360235193959014 0.0047002273640828207 0.01360235193959014 -3330.2331048102587 -0.038697868381859735 0.0047002273640828207 -0.038697868381859735 -9999.7477539986903 -3330.2151401521105 0.025247725860218395 -0.077218938298756257 0.025247725860218395 -3330.195322448033 -0.10130452572093418 -0.077218938298756257 -0.10130452572093418 -9999.7059031164499 -3330.2007195683864 -0.00053182400109663686 -0.067618762548590894 -0.00053182400109663686 -3330.3035378734885 -0.054086104039015481 -0.067618762548590894 -0.054086104039015481 -9999.7643303263285 -3330.2308862149603 0.014861324189847203 -0.045986460308995447 0.014861324189847203 -3330.2325143563985 -0.058036602888023481 -0.045986460308995447 -0.058036602888023481 -9999.7191376092487 -3330.0835681230274 0.060291230988469779 -0.055533147233290947 0.060291230988469779 -3330.1955333493806 -0.037343293206504313 -0.055533147233290947 -0.037343293206504313 -9999.7080413339609 -3329.8905626081059 -0.3881703631454001 -0.23613659313923563 -0.3881703631454001 -3330.0685609836573 0.10864206454061787 -0.23613659313923563 0.10864206454061787 -9999.4421466609638 -3330.2580126896064 0.0042115826341320162 -0.024912252605645335 0.0042115826341320162 -3330.2084063569027 -0.018468056408892153 -0.024912252605645335 -0.018468056408892153 -9999.7149136193984 -3330.2394573946349 0.016074247582344547 -0.043297268603055272 0.016074247582344547 -3330.1726183402352 -0.062179766455301433 -0.043297268603055272 -0.062179766455301433 -9999.7063064001268 -3330.1712255659868 0.054318151691729155 -0.034381709636363667 0.054318151691729155 -3330.0305097090277 -0.034869637251176755 -0.034381709636363667 -0.034869637251176755 -9999.6487426765234 -3330.233266313915 -0.0075194782978332819 0.0062817448597343173 -0.0075194782978332819 -3330.2300572641416 -0.0028705262266157661 0.0062817448597343173 -0.0028705262266157661 -9999.6533765730201 -3330.2144331728359 0.016074247582344547 0.016495446379849454 0.016074247582344547 -3330.1475941184362 0.0043160957138752565 0.016495446379849454 0.0043160957138752565 -9999.6312337347226 -3330.1989523858356 0.012291677460122274 0.0018636319382494548 0.012291677460122274 -3330.2107408059528 -0.01052292234817287 0.0018636319382494548 -0.01052292234817287 -9999.6399689764512 -3330.2181432590642 0.0016310808593282822 -0.0041482972956146114 0.0016310808593282822 -3330.2215436230363 -0.012669765950704459 -0.0041482972956146114 -0.012669765950704459 -9999.6492828450573 -3330.2349799112617 0.0042115826341320162 0.028124099220804055 0.0042115826341320162 -3330.1853735785589 0.024457513434754219 0.028124099220804055 0.024457513434754219 -9999.6458152843625 -3330.2482346137931 0.02665287467268751 0.017317050242127152 0.02665287467268751 -3330.214821825426 0.017853587205536314 0.017317050242127152 0.017853587205536314 -9999.6329379938979 -3330.2321448182502 0.0029016588832744272 -0.0092966115353192436 0.0029016588832744272 -3330.223932464467 -0.014888812667777529 -0.0092966115353192436 -0.014888812667777529 -9999.6591426270898 -3330.2260735074888 0.0061901801967840786 -0.020224678963131737 0.0061901801967840786 -3330.2169365218197 -0.03002801418188028 -0.020224678963131737 -0.03002801418188028 -9999.6558758137398 -3330.1784528640419 0.025247725860217951 -0.042676553792261984 0.025247725860217951 -3330.1586351599653 -0.060379366172583104 -0.042676553792261984 -0.060379366172583104 -9999.5958412522414 -3330.2226164766344 0.0051918522171507941 -0.017146303955087205 0.0051918522171507941 -3330.217727506717 -0.033849006450054731 -0.017146303955087205 -0.033849006450054731 -9999.6494471203696 -3330.223947215889 0.0044226569896690382 -0.0030640787826996529 0.0044226569896690382 -3330.2197572278073 -0.014340191544761183 -0.0030640787826996529 -0.014340191544761183 -9999.650287235454 -3330.2045894997973 0.014861324189847425 0.00044916452498000581 0.014861324189847425 -3330.2062176412364 -0.0083436913664627355 0.00044916452498000581 -0.0083436913664627355 -9999.6402474637616 -3330.2241261662057 0.011509786242827946 0.0038590955555264372 0.011509786242827946 -3330.2247292289248 -0.015177636934822658 0.0038590955555264372 -0.015177636934822658 -9999.6573371551967 -3330.1735771302483 0.024576694263334309 0.036695672082714736 0.024576694263334309 -3330.1908662177648 -0.018372390280092077 0.036695672082714736 -0.018372390280092077 -9999.6084556150199 -3330.2156248722367 0.0061958935381016822 0.0038627836383966496 0.0061958935381016822 -3330.2186308324472 -0.015184751428023446 0.0038627836383966496 -0.015184751428023446 -9999.6536872325814 -3330.1564788459236 0.013602351939590251 0.032935758730673115 0.013602351939590251 -3330.1847363351208 -0.011119344293547329 0.032935758730673115 -0.011119344293547329 -9999.60264857328 -3330.1924254450914 0.017840110868442283 0.012882219281891594 0.017840110868442283 -3330.2023470938275 -0.0086232956170988473 0.012882219281891594 -0.0086232956170988473 -9999.6362388132329 -3330.2354350256646 -0.0069914821125904858 0.013723122890951345 -0.0069914821125904858 -3330.2309717803619 -0.0071668078389848233 0.013723122890951345 -0.0071668078389848233 -9999.6541473800098 -3330.1617438889753 0.010523111645875272 0.047797474711842369 0.010523111645875272 -3330.1868842563454 0.00025570593243173789 0.047797474711842369 0.00025570593243173789 -9999.6043309204251 -3330.1953630172866 -0.0088474349112755979 0.03677182039427862 -0.0088474349112755979 -3330.2156779356574 -0.0044750905726687051 0.03677182039427862 -0.0044750905726687051 -9999.6201050162526 -3330.2540893640235 -0.0091724631796186729 0.079912712799341534 -0.0091724631796186729 -3330.2260463132861 0.0088609581089258427 0.079912712799341534 0.0088609581089258427 -9999.6372078034219 -3330.235481634998 -0.006114230584892022 0.030467470784060424 -0.006114230584892022 -3330.2244268423856 -0.0061643359658773988 0.030467470784060424 -0.0061643359658773988 -9999.632321897363 -3330.2840990099357 -0.0069914821125904858 0.0021283582245814614 -0.0069914821125904858 -3330.279635764633 -0.0040919469111031503 0.0021283582245814614 -0.0040919469111031503 -9999.8001393328232 -3330.2922259794632 -0.006114230584892022 0.013917797452450031 -0.006114230584892022 -3330.2811711868508 -0.00093297616149357054 0.013917797452450031 -0.00093297616149357054 -9999.802554930764 -3330.2701092825737 0.0061958935381020153 0.0046194511196517851 0.0061958935381020153 -3330.2731152427841 -0.0088409056043019518 0.0046194511196517851 -0.0088409056043019518 -9999.8171404635868 -3330.2786105765426 0.011509786242827946 0.0046157630349625833 0.011509786242827946 -3330.2792136392618 -0.0088337911111011636 0.0046157630349625833 -0.0088337911111011636 -9999.8207903861985 -3330.2759910526147 0.0051918522171507941 -0.021980155102937715 0.0051918522171507941 -3330.271102082701 -0.028977117741760594 -0.021980155102937715 -0.028977117741760594 -9999.8095708483161 -3330.2859621597891 0.0044226569896690382 -0.0055161371474241605 0.0044226569896690382 -3330.2817721717074 -0.008071872522123158 -0.0055161371474241605 -0.008071872522123158 -9999.8363320671633 -3330.2719881987578 0.0016310808593282822 -0.011325420306093292 0.0016310808593282822 -3330.2753885627299 -0.0095175886781362351 -0.011325420306093292 -0.0095175886781362351 -9999.8108176641326 -3330.2878374320189 -0.0075194782978332819 -0.0061199581978144124 -0.0075194782978332819 -3330.2846283822455 -0.00050146375360782258 -0.0061199581978144124 -0.00050146375360782258 -9999.8170899273318 -3330.3051308751856 0.0010363741936102455 -0.0089379899109189864 0.0010363741936102455 -3330.2836014923669 -0.032703646298614331 -0.0089379899109189864 -0.032703646298614331 -9999.8599007363591 -3330.2895488780014 0.0058020156786637855 0.0015839721381780691 0.0058020156786637855 -3330.2738638033043 -0.01901081529649673 0.0015839721381780691 -0.01901081529649673 -9999.8352516546074 -3330.3005208922878 -0.00053267977622706297 -0.0013344678882276639 -0.00053267977622706297 -3330.278367412162 -0.02406570174935041 -0.0013344678882276639 -0.02406570174935041 -9999.8391205603984 -3330.2847884411367 -0.0078600615308528354 -0.013698877035494661 -0.0078600615308528354 -3330.2781313409487 0.0050459116246202029 -0.013698877035494661 0.0050459116246202029 -9999.799935584706 -3330.3122868465161 0.0053458097718125375 -0.020098124019568786 0.0053458097718125375 -3330.2984716833744 -0.015509535158344079 -0.020098124019568786 -0.015509535158344079 -9999.8654072769423 -3330.2918475600018 0.0035215336767189243 -0.011102357468189439 0.0035215336767189243 -3330.28970831078 -0.016379278757085558 -0.011102357468189439 -0.016379278757085558 -9999.8511736128858 -3330.3105662557391 0.0058940361971033806 -0.0085144171898718923 0.0058940361971033806 -3330.3004239087932 0.00053795659687239095 -0.0085144171898718923 0.00053795659687239095 -9999.865465185605 -3330.2990756672079 0.00029433329038330847 -0.0033137015198008157 0.00029433329038330847 -3330.2909833607882 -0.0055892618802317884 -0.0033137015198008157 -0.0055892618802317884 -9999.8532994021953 -3330.2886078381271 0.0074055832812427447 -0.007508309769036714 0.0074055832812427447 -3330.2828317914173 -0.0080270709887599878 -0.007508309769036714 -0.0080270709887599878 -9999.8372583916644 -3330.2944514870906 0.0066612722077477038 -0.012003129326330964 0.0066612722077477038 -3330.290763437808 -0.016359021495418347 -0.012003129326330964 -0.016359021495418347 -9999.852088376414 -3330.2994100847554 0.0096673202083645826 -0.019053303396503907 0.0096673202083645826 -3330.2963193681408 -0.0027589110759436153 -0.019053303396503907 -0.0027589110759436153 -9999.8547170084275 -3330.2966465655081 0.0022507146601524752 0.0078729842061875388 0.0022507146601524752 -3330.2822758263537 -0.013041456634709903 0.0078729842061875388 -0.013041456634709903 -9999.8260649302101 -3330.2749272551828 0.0034142357467801254 0.0011549835253390484 0.0034142357467801254 -3330.2756043981553 -0.014841539505141554 0.0011549835253390484 -0.014841539505141554 -9999.8189672455846 -3330.2956723213574 0.0033269019721895443 -0.012909780132758897 0.0033269019721895443 -3330.2850524038458 -0.017382692105456954 -0.012909780132758897 -0.017382692105456954 -9999.8395796655896 -3330.2883286761353 -0.0050197527138691744 0.0082858945952466456 -0.0050197527138691744 -3330.2751211278446 0.0058362537092762068 0.0082858945952466456 0.0058362537092762068 -9999.7821614979111 -3330.2963369869576 -0.0016718851771613252 0.006904096320795361 -0.0016718851771613252 -3330.2805042871623 0.0072180519873654703 0.006904096320795361 0.0072180519873654703 -9999.7855093654434 -3330.2974889220932 0.00020811078195759336 -0.0049414858804084361 0.00020811078195759336 -3330.2799357735676 0.0050715595816654968 -0.0049414858804084361 0.0050715595816654968 -9999.7856552208323 -3330.3042578751265 0.0055018350457984866 0.0060229549635550939 0.0055018350457984866 -3330.287668998275 -0.011191427387529984 0.0060229549635550939 -0.011191427387529984 -9999.8293160506 -3330.3093619746924 0.0044689732498366386 0.014018077850778354 0.0044689732498366386 -3330.2975935226168 -0.021567921758105513 0.014018077850778354 -0.021567921758105513 -9999.8570232954371 -3330.3084404909914 0.0049202359805824436 0.009344792844785843 0.0049202359805824436 -3330.3023588601627 -1.7656968338997103e-05 0.009344792844785843 -1.7656968338997103e-05 -9999.8340341700386 -3330.3092637347909 0.0075950559723395594 0.022888199717272073 0.0075950559723395594 -3330.3073216073954 0.0082687857284327038 0.022888199717272073 0.0082687857284327038 -9999.8594307566527 -3330.306633533386 0.0079323493949292612 -0.028816168542107334 0.0079323493949292612 -3330.3054478586109 -0.012682530217716703 -0.028816168542107334 -0.012682530217716703 -9999.8583047691063 -3330.3035535681756 0.0065045719189391615 -0.021270095348882023 0.0065045719189391615 -3330.2948342747623 -0.027962355937233951 -0.021270095348882023 -0.027962355937233951 -9999.8548813818416 -3330.3051836301929 -0.00047837438519460207 -0.00066148824043921195 -0.00047837438519460207 -3330.2875375725707 -0.0042968238994944841 -0.00066148824043921195 -0.0042968238994944841 -9999.8114666900801 -3330.3109549274686 0.0029771981543227355 0.0064205917224171571 0.0029771981543227355 -3330.2959374503753 -0.018637123113876441 0.0064205917224171571 -0.018637123113876441 -9999.8150094838566 
</DataArray>
</CellData>
</Piece>
</UnstructuredGrid>
</VTKFile>
